# x y z rho theta phi s1 s2 stress_xx np intf bulk
-0.863715 -10.632805 -14.470623 17.977805 1.489743 2.506330 -0.011900 0.005783 646611.000000 1 0 0
2.020885 -13.408105 -13.000323 18.784825 -1.421201 2.335142 -0.007456 0.011737 -167610.000000 1 0 0
2.043085 -11.140605 -14.688623 18.548394 -1.389421 2.484724 -0.008221 0.004634 412989.000000 1 0 0
-5.695615 -6.332705 -16.602023 18.659323 0.838315 2.667581 -0.013000 0.008780 -123310.000000 1 0 0
4.406485 -14.084205 -11.629623 18.789094 -1.267577 2.238209 -0.004487 0.011038 -1083380.000000 1 0 0
13.992785 -10.566305 -8.055523 19.296017 -0.646773 2.001456 0.012814 -0.006835 345779.000000 1 0 0
6.932685 10.918895 -10.824123 16.865528 1.005091 2.267626 0.001676 -0.006680 -630470.000000 1 0 0
5.655585 -4.173305 -12.679923 14.497674 -0.635718 2.635443 -0.006893 -0.001883 1785450.000000 1 0 0
13.534385 0.560795 -10.121623 16.909799 0.041411 2.212506 -0.007229 0.005287 1007390.000000 1 0 0
14.030285 5.148195 -10.466523 18.245572 0.351681 2.181748 0.013653 0.000567 -559380.000000 1 0 0
3.909785 4.330395 -13.574723 14.775380 0.836398 2.735672 0.003246 0.003865 3463410.000000 1 0 0
10.094285 -4.927905 -13.709423 17.723631 -0.454153 2.455159 0.000537 -0.007359 -335317.000000 1 0 0
2.490985 -7.526705 -11.981923 14.367420 -1.251190 2.557050 -0.007394 -0.000705 1743180.000000 1 0 0
-5.690115 -2.113505 -15.134423 16.306289 0.355641 2.760165 -0.004066 0.002668 1778810.000000 1 0 0
10.528785 0.104095 -9.801723 14.385406 0.009886 2.320423 0.006203 0.002253 1276730.000000 1 0 0
-1.839815 -9.390205 -16.955523 19.469223 1.377318 2.627804 -0.002219 -0.002232 1646240.000000 1 0 0
8.214385 1.948395 -18.173723 20.038876 0.232889 2.706719 -0.010266 0.002665 -1432850.000000 1 0 0
16.506285 -5.797105 -9.067123 19.704735 -0.337749 2.048960 0.017375 0.001039 -1098370.000000 1 0 0
10.062785 7.577295 -10.048723 16.113717 0.645420 2.244152 0.018806 -0.000819 541678.000000 1 0 0
13.747085 -2.214505 -10.703523 17.562795 -0.159717 2.226154 0.004699 0.003003 -1287320.000000 1 0 0
7.063485 -1.805905 -13.675723 15.497726 -0.250306 2.651808 -0.003155 -0.003084 -503278.000000 1 0 0
-2.944615 6.692695 -13.791323 15.609725 -1.156311 2.654096 0.001085 -0.001441 1460310.000000 1 0 0
11.019185 1.882295 -14.104423 17.997228 0.169187 2.471396 0.001915 0.003799 1670790.000000 1 0 0
-2.441515 10.730995 -12.887123 16.946775 -1.347085 2.434797 0.000834 -0.000490 -2495890.000000 1 0 0
2.731985 -1.070905 -15.313423 15.592033 -0.373580 2.952266 -0.006181 -0.002991 982114.000000 1 0 0
-9.177715 0.424395 -15.129323 17.700480 -0.046209 2.595848 -0.010793 0.005436 -1349750.000000 1 0 0
2.142785 -1.717605 -18.041823 18.249632 -0.675701 2.990538 0.005445 -0.009315 849801.000000 1 0 0
0.904385 7.835695 -13.239523 15.411068 1.455886 2.604289 0.001700 -0.003151 -793229.000000 1 0 0
9.302085 -9.011805 -9.944723 16.329082 -0.769549 2.225620 0.015850 -0.001275 -1301410.000000 1 0 0
3.741285 7.325395 -13.619823 15.910946 1.098603 2.598285 -0.004285 0.002392 -342431.000000 1 0 0
-2.854015 9.121995 -15.440523 18.159459 -1.267573 2.587303 -0.008271 0.003052 1335820.000000 1 0 0
5.323285 -7.587705 -15.321023 17.906545 -0.959019 2.597525 -0.002842 -0.004546 893248.000000 1 0 0
3.940685 7.310995 -16.539623 18.507803 1.076431 2.676225 0.002019 0.003071 -1232570.000000 1 0 0
-0.413715 5.063295 -13.587523 14.506168 -1.489269 2.783800 0.008024 -0.003801 1679110.000000 1 0 0
8.636585 4.439595 -16.767823 19.376803 0.474821 2.616656 0.009230 0.007387 518885.000000 1 0 0
5.153585 0.333595 -14.368723 15.268625 0.064641 2.796553 -0.003675 0.000702 739473.000000 1 0 0
6.102785 8.076195 -11.671923 15.450006 0.923688 2.427158 -0.005876 0.003222 -190909.000000 1 0 0
2.573185 -8.351905 -14.987623 17.349479 -1.271929 2.613691 -0.001791 -0.005762 -587540.000000 1 0 0
3.949585 11.595295 -13.812323 18.461591 1.242503 2.416089 -0.012570 -0.005207 -2663930.000000 1 0 0
0.539785 -4.578005 -13.776323 14.527098 -1.453430 2.818692 0.004889 -0.004689 713962.000000 1 0 0
8.378385 0.006895 -11.756923 14.436849 0.000823 2.522437 -0.001549 0.002465 1547970.000000 1 0 0
-1.108115 -5.053405 -16.223623 17.028528 1.354932 2.832901 -0.000539 -0.007471 620034.000000 1 0 0
4.298485 0.883995 -11.707123 12.502606 0.202825 2.782952 -0.004141 0.000826 -3923.000000 1 0 0
-3.074815 -7.052405 -15.584223 17.379842 1.159650 2.683017 -0.007320 0.001585 -147157.000000 1 0 0
11.306185 -3.702805 -11.428423 16.496952 -0.316494 2.336105 0.011996 -0.002655 1139830.000000 1 0 0
6.355485 -7.008105 -12.595723 15.753030 -0.834195 2.497383 0.000241 -0.001861 -1827310.000000 1 0 0
3.377485 -4.011105 -14.701823 15.608971 -0.870945 2.798988 -0.002953 -0.003897 1554370.000000 1 0 0
-0.826815 -1.529505 -18.328523 18.410806 1.075216 3.047014 0.009967 -0.011643 866489.000000 1 0 0
14.828285 2.996895 -8.570223 17.387010 0.199420 2.086227 -0.008300 0.002879 -255732.000000 1 0 0
6.767985 4.419995 -14.415523 16.527228 0.578533 2.630537 0.001754 0.006811 1739260.000000 1 0 0
9.991185 -9.572605 -14.077523 19.739179 -0.764006 2.364816 0.022819 -0.008223 -845091.000000 1 0 0
8.798585 -3.126605 -15.588523 18.171208 -0.341436 2.601905 -0.005746 -0.008753 96137.600000 1 0 0
-5.426715 -2.124105 -18.130323 19.043888 0.373085 2.830594 -0.024420 0.015121 -1337020.000000 1 0 0
4.927585 -9.042805 -11.130123 15.163543 -1.071863 2.394997 -0.005564 0.000749 853894.000000 1 0 0
-2.734215 3.870395 -17.230123 17.869892 -0.955759 2.873200 -0.006201 0.003439 1922300.000000 1 0 0
8.916485 9.597995 -14.561823 19.587545 0.822191 2.408970 0.022345 -0.002857 -116124.000000 1 0 0
9.637585 10.094195 -11.674123 18.195081 0.808535 2.267390 0.025590 -0.007026 -417537.000000 1 0 0
11.968785 -5.930505 -9.766823 16.547312 -0.460039 2.202148 0.017469 -0.003545 -429382.000000 1 0 0
7.831085 7.083095 -13.798823 17.375375 0.735287 2.488420 0.006095 0.007876 -174489.000000 1 0 0
3.827585 -4.089505 -17.684823 18.550672 -0.818469 2.834860 0.007126 -0.008159 1037520.000000 1 0 0
9.170185 -7.400705 -12.341023 17.063516 -0.679019 2.379279 0.017400 -0.009861 864476.000000 1 0 0
11.943285 -8.640205 -8.952023 17.246272 -0.626282 2.116559 0.016801 -0.005114 1163000.000000 1 0 0
-2.984915 -2.428705 -13.830223 14.355605 0.683015 2.870214 0.000685 -0.007123 -2054050.000000 1 0 0
-0.659715 6.033395 -17.693423 18.705462 -1.461885 2.811142 -0.001970 0.003953 1925430.000000 1 0 0
0.914485 -8.424605 -17.418823 19.370742 -1.462670 2.688811 -0.002974 -0.007539 1851950.000000 1 0 0
-0.122015 8.541995 -16.072523 18.201829 -1.556513 2.653048 -0.003001 0.005618 190785.000000 1 0 0
1.576385 3.325095 -15.141023 15.581779 1.128093 2.903177 0.007264 -0.000870 1697950.000000 1 0 0
-2.099815 -0.385505 -15.841723 15.984931 0.181568 3.007635 0.004641 -0.006080 1060590.000000 1 0 0
14.129285 -4.328805 -8.627623 17.111725 -0.297292 2.099244 0.013678 0.001867 604291.000000 1 0 0
0.444685 0.610995 -14.667123 14.686577 0.941653 3.090116 0.004064 -0.006521 802693.000000 1 0 0
8.615185 2.824395 -12.702023 15.605768 0.316798 2.521684 0.002790 0.005890 2411930.000000 1 0 0
5.689985 1.109995 -17.162823 18.115477 0.192659 2.815846 0.002982 0.000010 -366723.000000 1 0 0
15.055385 1.654095 -12.465823 19.616253 0.109428 2.259432 -0.009824 0.001748 -77673.400000 1 0 0
8.663385 -11.165105 -12.005023 18.542772 -0.910903 2.274995 0.016016 -0.001871 1720950.000000 1 0 0
-4.825515 0.667095 -15.078623 15.845993 -0.137373 2.829110 0.001415 -0.001668 -101378.000000 1 0 0
2.205885 5.122695 -17.428523 18.299217 1.164183 2.831873 0.004065 0.003137 954103.000000 1 0 0
5.743185 -11.689305 -12.450823 18.017964 -1.114117 2.333699 0.001472 0.007248 809614.000000 1 0 0
12.701385 7.248295 -8.763923 17.049027 0.518574 2.110687 0.013598 0.001839 -934230.000000 1 0 0
-5.244815 3.515095 -15.641223 16.867479 -0.590447 2.757932 -0.004153 0.004691 872764.000000 1 0 0
-0.724915 -4.436805 -19.052623 19.575832 1.408841 2.909872 0.006339 -0.012408 534802.000000 1 0 0
9.758885 4.426695 -10.341423 14.892162 0.425849 2.338411 0.003730 0.005793 320509.000000 1 0 0
13.107185 3.706695 -12.854223 18.728826 0.275602 2.327232 0.000683 -0.000677 708544.000000 1 0 0
-6.452915 5.864595 -16.945023 19.056951 -0.737672 2.666342 -0.008918 0.005632 -483361.000000 1 0 0
-10.413815 3.059095 -15.328623 18.782234 -0.285716 2.525467 -0.001283 0.011342 -780205.000000 1 0 0
10.546285 13.533295 -8.378023 19.093598 0.908815 2.025045 0.025941 -0.006085 1336850.000000 1 0 0
7.158585 13.574495 -12.219723 19.617184 1.085505 2.243252 0.009709 -0.014111 221722.000000 1 0 0
4.970985 15.144895 -11.106923 19.427874 1.253647 2.179373 0.001214 -0.021248 -741226.000000 1 0 0
14.012685 9.499995 -10.042323 19.683838 0.595778 2.106192 0.031992 -0.005195 -1620810.000000 1 0 0
8.363085 -17.308005 -2.071723 19.333914 -1.120686 1.678157 0.021077 0.005580 928189.000000 1 0 0
0.645785 -16.021805 -0.032623 16.034847 -1.530512 1.572831 0.007027 -0.004089 2989930.000000 1 0 0
-9.078215 -11.696405 7.606877 16.645854 0.910765 1.096196 -0.003704 -0.001360 25687.600000 1 0 0
1.997585 -15.931305 -2.678423 16.277923 -1.446060 1.736091 0.011071 -0.004079 2069210.000000 1 0 0
-1.373115 -11.011105 -9.487523 14.599417 1.446734 2.278192 -0.009007 0.002167 -253084.000000 1 0 0
-4.838415 -12.671205 -12.911923 18.726651 1.206040 2.331587 -0.007165 0.001345 393815.000000 1 0 0
-8.656315 -17.762305 -1.668723 19.829672 1.117326 1.655049 0.003232 0.002551 -206663.000000 1 0 0
-11.469915 -7.142305 -8.757623 16.101784 0.556943 2.145864 0.015789 -0.004792 4611740.000000 1 0 0
-13.550815 -11.570405 -4.620623 18.407852 0.706727 1.824524 -0.001576 0.003668 -136318.000000 1 0 0
-5.692215 -13.450705 9.699977 17.533178 1.170459 0.984553 -0.008999 -0.003132 -490019.000000 1 0 0
0.145985 -13.951805 -3.739523 14.445006 -1.560333 1.832659 0.003205 -0.001486 -291764.000000 1 0 0
-14.737215 -11.426005 1.912477 18.745577 0.659508 1.468596 -0.010270 -0.001866 640731.000000 1 0 0
-3.998315 -16.511105 -7.460723 18.554393 1.333211 1.984606 -0.017135 -0.002639 -228422.000000 1 0 0
0.436785 -15.224205 -9.210223 17.798747 -1.542114 2.114682 -0.008393 0.006190 -434988.000000 1 0 0
4.535685 -14.239805 -2.632123 15.174734 -1.262435 1.745132 0.008039 0.005826 369870.000000 1 0 0
-3.583915 -17.926505 -2.364323 18.433503 1.373475 1.699413 -0.013929 -0.008733 383169.000000 1 0 0
-0.917915 -13.476205 0.661777 13.523632 1.502788 1.521842 0.005904 -0.004385 1247000.000000 1 0 0
-8.374815 -11.237705 -10.407423 17.456746 0.930347 2.209535 0.003654 -0.010503 3120050.000000 1 0 0
-3.677515 -14.056805 -0.358923 14.534328 1.314913 1.595494 0.002569 -0.000864 5026280.000000 1 0 0
-1.581715 -14.866105 -7.284323 16.630221 1.464798 2.024188 -0.013640 -0.001809 604340.000000 1 0 0
-14.278615 -7.889605 -1.675723 16.399170 0.504797 1.673158 0.002802 -0.000718 2687240.000000 1 0 0
-10.771615 -7.316205 -11.610023 17.445549 0.596637 2.298961 0.011128 -0.002867 -184608.000000 1 0 0
-9.303315 -14.649905 6.768077 18.627352 1.005008 1.198945 -0.010935 0.000664 -564586.000000 1 0 0
-2.491915 -14.255905 -12.264023 18.969626 1.397746 2.273795 -0.005841 0.001898 -1393500.000000 1 0 0
2.228385 -17.866305 -4.775723 18.627347 -1.446712 1.830074 0.014450 -0.001039 780258.000000 1 0 0
-6.460815 -9.562205 -9.152923 14.729355 0.976592 2.241333 -0.000435 -0.006815 615457.000000 1 0 0
-11.048815 -15.288905 0.564377 18.871816 0.945018 1.540886 -0.010654 0.005702 1212730.000000 1 0 0
-12.597215 -10.959405 4.023877 17.175272 0.715983 1.334315 -0.000737 0.000227 1439450.000000 1 0 0
-17.150415 -8.779305 -1.495223 19.324819 0.473123 1.648247 0.002351 0.000862 215070.000000 1 0 0
-1.597515 -19.200105 -3.899423 19.657100 1.487784 1.770493 -0.010001 -0.002948 -466564.000000 1 0 0
3.236085 -14.364005 -8.855423 17.181833 -1.349205 2.112264 -0.002935 0.012527 1633700.000000 1 0 0
-4.446415 -7.995705 -13.076423 15.959159 1.063282 2.531104 -0.003719 0.003771 2320360.000000 1 0 0
5.500585 -16.768505 1.202177 17.688539 -1.253826 1.502780 0.021517 0.003603 3549490.000000 1 0 0
-2.824015 -13.732805 -3.207123 14.382302 1.367984 1.795678 -0.000755 -0.003218 43039.600000 1 0 0
-0.412015 -14.033005 3.655677 14.507203 1.541444 1.316060 -0.001854 0.000853 -2573620.000000 1 0 0
1.211485 -16.178005 6.937177 17.644261 -1.496051 1.166721 0.010790 -0.009221 2825320.000000 1 0 0
-5.558315 -10.391105 -14.583723 18.749797 1.079612 2.461965 -0.005115 0.005463 -693480.000000 1 0 0
-0.433215 -17.237005 -5.874423 18.215676 1.545669 1.899158 -0.005694 -0.003105 -473781.000000 1 0 0
-6.539615 -13.363805 -1.257223 14.931124 1.115703 1.655098 0.004004 -0.003285 3032030.000000 1 0 0
-1.742915 -17.719305 -0.140023 17.805368 1.472749 1.578660 -0.004913 -0.003251 605258.000000 1 0 0
-9.459215 -9.818905 -4.758023 14.440444 0.804054 1.906563 0.016788 -0.008511 1756320.000000 1 0 0
-0.844115 -16.724305 4.843777 17.432070 1.520367 1.289225 0.001762 -0.005050 1788280.000000 1 0 0
-6.860015 -9.916405 -6.313723 13.610951 0.965605 2.053156 0.007853 -0.007545 2007590.000000 1 0 0
-6.015615 -14.517005 -8.606623 17.916613 1.177952 2.071874 -0.011229 -0.004845 -1212400.000000 1 0 0
-5.620315 -12.156705 -10.169123 16.816197 1.137743 2.220213 -0.009806 -0.004580 421868.000000 1 0 0
-10.624515 -12.211705 -8.717023 18.384574 0.854790 2.064793 0.008493 -0.015439 -631525.000000 1 0 0
4.058585 -17.150405 6.485677 18.779577 -1.338425 1.218176 0.021869 -0.009279 993882.000000 1 0 0
-6.759515 -14.367705 -4.126823 16.405873 1.131054 1.825073 -0.000911 -0.008743 162666.000000 1 0 0
-2.852415 -12.167705 -7.101623 14.374365 1.340529 2.087536 -0.004292 -0.001075 1569360.000000 1 0 0
-6.964215 -12.755405 4.374377 15.176818 1.071044 1.278421 -0.000135 -0.000401 367130.000000 1 0 0
2.585385 -16.434405 2.340577 16.800362 -1.414760 1.431025 0.007771 -0.001869 2376340.000000 1 0 0
-6.142915 -11.954105 7.219077 15.256182 1.096110 1.077888 -0.005846 -0.002112 2414040.000000 1 0 0
-11.318415 -12.827405 -0.894023 17.130327 0.847812 1.623010 -0.004623 0.006966 640529.000000 1 0 0
-14.136715 -8.578805 4.660977 17.180434 0.545438 1.296057 -0.009242 -0.000574 190624.000000 1 0 0
-7.766215 -15.518105 4.356077 17.891369 1.106780 1.324851 -0.007376 0.002921 -401335.000000 1 0 0
-16.541115 -9.053705 1.292177 18.901000 0.500803 1.502377 -0.000444 0.002157 -593839.000000 1 0 0
-6.554015 -17.093805 2.206977 18.439740 1.204669 1.450823 -0.008752 0.002502 767994.000000 1 0 0
-11.482015 -14.988805 -4.669623 19.450098 0.917109 1.813247 -0.002311 -0.003412 333173.000000 1 0 0
-10.021915 -9.956605 -12.448423 18.829126 0.782129 2.293115 0.003042 -0.003235 -1225440.000000 1 0 0
-4.371115 -15.927605 -4.503423 17.119464 1.302954 1.836987 -0.010903 -0.006354 -508516.000000 1 0 0
-11.778615 -8.199905 0.071377 14.351979 0.608150 1.565823 0.004825 -0.001962 3677370.000000 1 0 0
-9.560615 -11.155605 3.466677 15.095388 0.862239 1.339077 0.002000 -0.001103 3325350.000000 1 0 0
-14.234215 -12.746905 -0.628223 19.117822 0.730330 1.603663 -0.013059 0.008788 615580.000000 1 0 0
5.571585 -14.950105 -7.188623 17.499271 -1.214062 1.994123 0.006947 0.007885 298610.000000 1 0 0
-7.464915 -10.526405 -1.267423 12.966747 0.953948 1.668697 0.008200 -0.004005 15234.500000 1 0 0
-11.673115 -8.290605 -5.975423 15.514555 0.617559 1.966166 0.015697 -0.007344 2367580.000000 1 0 0
-14.527715 -6.669505 -9.077323 18.382997 0.430386 2.087238 0.006484 -0.002948 2298210.000000 1 0 0
-3.839915 -16.325405 1.421777 16.831079 1.339784 1.486222 -0.001183 -0.006020 623589.000000 1 0 0
-8.088015 -15.445005 0.120477 17.434984 1.088396 1.563886 -0.001936 0.000263 203252.000000 1 0 0
0.923585 -18.615105 3.557377 18.974458 -1.521222 1.382198 0.003861 -0.008293 2530140.000000 1 0 0
-14.173115 -8.768805 -4.476523 17.257126 0.554051 1.833199 0.003473 -0.004284 33384.800000 1 0 0
-3.231215 -14.446905 11.042877 18.468864 1.350756 0.929894 -0.013144 -0.005305 914333.000000 1 0 0
-10.746215 -12.214705 -3.707623 16.686121 0.849267 1.794865 0.002212 -0.004289 1942110.000000 1 0 0
-9.952015 -10.662805 0.507977 14.594384 0.819864 1.535983 0.004702 -0.000152 1737450.000000 1 0 0
-0.202615 -13.086405 -11.154823 17.196660 1.555315 2.276622 -0.007417 0.000926 -200380.000000 1 0 0
-5.858515 -12.635605 -6.333723 15.300221 1.136648 1.997599 -0.003216 -0.011214 2241410.000000 1 0 0
1.850285 -15.870205 9.815477 18.751814 -1.454732 1.019911 0.007901 -0.006229 168597.000000 1 0 0
-8.934215 -15.799905 -5.567523 18.985639 1.056161 1.868420 -0.004012 -0.002280 -48478.200000 1 0 0
-3.253515 -15.476405 5.990777 16.911353 1.363589 1.208689 -0.009131 -0.000786 -447635.000000 1 0 0
-17.508415 -5.515005 -6.360123 19.427070 0.305153 1.904331 -0.004267 0.004676 -896258.000000 1 0 0
18.835785 5.714995 -2.984723 19.908705 0.294584 1.721284 -0.022614 0.015436 536116.000000 1 0 0
12.721885 -12.485305 -6.121223 18.846712 -0.776013 1.901586 0.017242 0.001250 -927180.000000 1 0 0
11.091085 -13.560605 -1.778723 17.608691 -0.885242 1.671983 0.019655 0.005956 2769590.000000 1 0 0
18.706085 -3.079305 4.339477 19.448156 -0.163152 1.345772 0.010949 -0.010075 -1248610.000000 1 0 0
8.645085 -17.020805 4.898377 19.708865 -1.100839 1.319627 0.005654 -0.010563 601676.000000 1 0 0
18.136985 -1.217205 6.513077 19.309375 -0.067011 1.226748 0.027751 -0.009083 -8958.640000 1 0 0
17.887585 -4.178605 -5.043723 19.049031 -0.229488 1.838768 0.010822 -0.005462 1395940.000000 1 0 0
5.511785 -11.842405 14.806877 19.745023 -1.135187 0.722879 0.000887 0.002973 -136094.000000 1 0 0
15.956285 -8.958905 -0.952623 18.324096 -0.511603 1.622807 0.011706 -0.000804 424610.000000 1 0 0
13.985985 -12.708505 -1.656023 18.969878 -0.737579 1.658205 0.020463 0.010569 1094600.000000 1 0 0
11.179285 -2.128605 13.674077 17.790102 -0.188154 0.694093 -0.001803 -0.001443 -332285.000000 1 0 0
16.871385 -6.180505 -1.600123 18.038921 -0.351149 1.659617 0.007194 -0.003917 -1044120.000000 1 0 0
17.785885 3.687495 -1.142623 18.200025 0.204431 1.633619 -0.011736 0.006950 1009220.000000 1 0 0
9.765485 -11.166805 9.336177 17.527875 -0.852244 1.009071 -0.000819 -0.002180 639840.000000 1 0 0
9.109285 -11.284805 4.187777 15.095144 -0.891670 1.289683 0.004099 -0.003462 -71343.100000 1 0 0
14.053985 -10.145105 6.635577 18.559863 -0.625251 1.205182 0.002505 -0.007775 123544.000000 1 0 0
16.125785 -0.492905 -4.832623 16.841560 -0.030557 1.861834 -0.001082 0.001482 -1768010.000000 1 0 0
15.645785 -0.437605 -1.864423 15.762555 -0.027962 1.689356 0.003498 -0.002099 1066510.000000 1 0 0
12.810385 -5.224605 -0.451723 13.842200 -0.387248 1.603436 0.002274 -0.003406 1567150.000000 1 0 0
14.237685 -7.516605 0.896277 16.124960 -0.485747 1.515184 0.010418 -0.001128 1458320.000000 1 0 0
15.390785 2.363795 3.495277 15.958720 0.152394 1.349986 0.006318 -0.000893 1923520.000000 1 0 0
15.905485 -7.126105 4.791877 18.075616 -0.421213 1.302487 0.005880 -0.006043 -1126170.000000 1 0 0
13.715885 -12.166505 3.110377 18.596338 -0.725607 1.402749 0.005863 -0.001203 1315680.000000 1 0 0
13.969985 -1.016305 9.090277 16.698098 -0.072621 0.995135 0.013013 -0.008343 4012780.000000 1 0 0
14.071085 -2.804105 -1.702723 14.448450 -0.196704 1.688919 0.003784 -0.001935 1053770.000000 1 0 0
15.097085 1.724195 9.086477 17.704770 0.113714 1.031862 0.023933 -0.002304 -444821.000000 1 0 0
14.421785 -10.231405 -3.173423 17.964970 -0.617034 1.748373 0.017373 0.001645 199950.000000 1 0 0
7.337785 -12.752505 5.995577 15.887618 -1.048662 1.183837 -0.001395 -0.006592 17037.700000 1 0 0
12.366985 -4.713605 6.938777 14.943460 -0.364146 1.087912 0.001137 -0.005480 1552100.000000 1 0 0
14.821585 -8.884905 -5.813323 18.232269 -0.540020 1.895310 0.013610 -0.004967 -1091170.000000 1 0 0
14.226385 -4.577205 4.537177 15.618156 -0.311281 1.276040 0.005977 -0.006613 1643470.000000 1 0 0
16.991585 -4.219905 0.731077 17.523014 -0.243428 1.529063 0.002857 -0.007674 -1214700.000000 1 0 0
10.253485 -14.486005 1.024777 17.777189 -0.954841 1.513119 0.018705 -0.000108 1218950.000000 1 0 0
16.386485 -2.673905 8.463577 18.635954 -0.161752 1.099375 0.016127 -0.011718 1715620.000000 1 0 0
16.028285 -2.653005 3.051577 16.530471 -0.164033 1.385128 0.008146 -0.007456 2706410.000000 1 0 0
7.815485 -15.372205 2.592977 17.438750 -1.100438 1.421552 0.009632 -0.002475 3987290.000000 1 0 0
16.542185 -7.038005 7.675477 19.547131 -0.402259 1.167269 0.009362 -0.007860 -1713090.000000 1 0 0
10.259185 -8.722905 4.972977 14.355154 -0.704641 1.217039 0.003484 -0.002838 2629810.000000 1 0 0
10.955885 -11.903205 2.072877 16.309951 -0.826816 1.443359 0.011181 -0.003387 596880.000000 1 0 0
12.342985 -7.482605 11.891177 18.701303 -0.544983 0.881690 -0.011494 -0.006303 755121.000000 1 0 0
15.204085 -9.878205 4.067677 18.581957 -0.576169 1.350105 0.003181 -0.001603 -345885.000000 1 0 0
7.323085 -10.433505 7.670477 14.876888 -0.958809 1.029092 -0.002334 0.000147 458670.000000 1 0 0
15.033785 -3.331405 -4.415023 16.018907 -0.218071 1.850024 0.002598 -0.000092 1391670.000000 1 0 0
11.872685 -9.136405 9.637377 17.813298 -0.655885 0.999145 -0.006775 -0.007994 -1925840.000000 1 0 0
16.913485 -6.645005 2.237877 18.309291 -0.374355 1.448264 0.009821 -0.003426 1445790.000000 1 0 0
17.584685 3.919695 1.929077 18.119230 0.219318 1.464128 0.002750 0.004788 1474290.000000 1 0 0
14.644885 -5.100005 8.757377 17.809389 -0.335110 1.056723 0.005757 -0.008651 606120.000000 1 0 0
12.843185 -12.608905 5.930177 18.949904 -0.776194 1.252510 -0.000708 -0.003858 -801127.000000 1 0 0
18.291085 0.741595 -1.119523 18.340313 0.040522 1.631876 0.012098 -0.004210 728365.000000 1 0 0
11.692385 -2.293105 10.764077 16.057258 -0.193662 0.836108 -0.002194 -0.001545 1333670.000000 1 0 0
5.889485 -12.671305 10.593177 17.534634 -1.135712 0.922124 0.001044 0.000399 -435897.000000 1 0 0
10.763185 -5.198505 10.970077 16.223846 -0.449947 0.828245 -0.006994 -0.002764 1219030.000000 1 0 0
17.712785 1.132495 4.906777 18.414716 0.063850 1.301078 0.016389 -0.005396 -1011130.000000 1 0 0
12.243485 -7.798105 7.016477 16.122788 -0.567124 1.120547 0.000815 -0.006741 -628338.000000 1 0 0
10.734285 -8.149205 14.172177 19.557224 -0.649348 0.760267 -0.008048 -0.007490 -1354890.000000 1 0 0
14.135585 -0.325805 3.584677 14.586666 -0.023044 1.322503 0.004602 -0.000132 1996730.000000 1 0 0
11.665085 -7.686405 2.438377 14.180998 -0.582623 1.397991 0.004153 -0.001458 1012570.000000 1 0 0
9.260985 5.969195 3.424377 11.537915 0.572536 1.269463 -0.001307 -0.000131 2853890.000000 1 0 0
-3.972515 14.737095 -9.783223 18.129377 -1.307496 2.140798 -0.009652 0.002451 431666.000000 1 0 0
8.831385 -6.572705 9.184777 14.337152 -0.639807 0.875481 -0.007065 -0.000380 -561213.000000 1 0 0
5.714585 -10.533205 -8.537023 14.713451 -1.073706 2.189794 -0.007113 0.002978 308733.000000 1 0 0
5.448485 0.966195 0.497977 5.555853 0.175508 1.481045 -0.001161 0.001468 3731990.000000 1 0 0
-0.461015 9.876695 11.018777 14.804563 -1.524153 0.731336 -0.001563 0.001900 852413.000000 1 0 0
-6.286915 -5.210305 1.148977 8.245770 0.692029 1.431000 0.006649 -0.004775 3886660.000000 1 0 0
-1.112015 3.995795 -10.916523 11.677904 -1.299368 2.778496 0.009599 -0.007040 1572510.000000 1 0 0
10.981285 5.758795 1.158277 12.453672 0.482991 1.477655 0.000010 0.000440 623254.000000 1 0 0
-10.177815 -1.827405 -13.444123 16.960890 0.177655 2.485947 -0.007386 -0.000880 1881130.000000 1 0 0
7.472285 10.940495 -6.142123 14.603258 0.971576 2.004902 0.005098 -0.001312 -142415.000000 1 0 0
-12.496415 -3.044205 -9.505823 15.993381 0.238952 2.207266 0.001735 0.000113 633506.000000 1 0 0
-3.836215 -8.657105 2.457577 9.782724 1.153671 1.316860 0.005230 -0.001945 -897350.000000 1 0 0
7.994385 -6.589105 -5.962623 11.953216 -0.689334 2.093045 -0.001188 -0.003524 983768.000000 1 0 0
14.363485 3.200695 -4.322523 15.337482 0.219253 1.856495 0.004490 0.001395 358398.000000 1 0 0
-2.390015 -4.979005 9.749677 11.205305 1.123261 0.515402 -0.004105 -0.005728 2319370.000000 1 0 0
3.585585 -1.847205 -4.625723 6.137255 -0.475714 2.424489 -0.004491 -0.001321 -2061110.000000 1 0 0
-3.977615 8.339395 -3.429123 9.855243 -1.125744 1.926179 0.002011 -0.000841 592828.000000 1 0 0
5.876085 0.055795 11.727277 13.117184 0.009495 0.464514 -0.004018 0.001288 2107270.000000 1 0 0
7.240885 4.694095 12.336877 15.055347 0.575163 0.610372 -0.000236 0.003760 1261440.000000 1 0 0
1.233185 -14.554905 12.365277 19.138079 -1.486272 0.868321 0.000531 0.000302 -95544.100000 1 0 0
2.896785 8.772295 -9.090823 12.961003 1.251851 2.348153 0.000680 -0.001585 -767495.000000 1 0 0
-4.432415 -8.909405 -4.656623 10.986716 1.109152 2.008478 0.006788 -0.005588 1910840.000000 1 0 0
5.705785 -6.577005 -4.072423 9.612367 -0.856210 2.008284 -0.003282 -0.002056 3330540.000000 1 0 0
-2.965515 3.471395 8.706477 9.830952 -0.863827 0.482971 -0.006003 -0.000636 1090710.000000 1 0 0
-3.919915 3.216095 -11.079423 12.184524 -0.687087 2.712402 0.009432 -0.010092 -269758.000000 1 0 0
3.048185 -6.175005 8.553477 10.981078 -1.112255 0.677841 -0.006445 0.000113 888385.000000 1 0 0
-5.016815 -8.724905 10.519577 14.558637 1.048962 0.763289 -0.000349 -0.005525 2089410.000000 1 0 0
-13.213015 -2.482405 6.643377 14.996018 0.185711 1.111844 -0.008210 -0.004705 -894176.000000 1 0 0
3.912685 -5.878605 -8.371523 10.952146 -0.983546 2.440864 -0.007953 -0.001483 3045060.000000 1 0 0
3.018285 -0.676705 12.287177 12.670544 -0.220555 0.246619 -0.001417 -0.001002 -612647.000000 1 0 0
1.411285 -1.289605 -7.572723 7.810310 -0.740377 2.894307 0.002013 -0.005624 -1746970.000000 1 0 0
3.630885 -3.662805 3.332077 6.140212 -0.789775 0.997190 -0.001640 -0.000349 2323900.000000 1 0 0
1.400485 0.486895 -11.932623 12.024388 0.334590 3.017970 0.003096 -0.006855 -869368.000000 1 0 0
3.865385 3.587395 -10.667223 11.899590 0.748115 2.682458 0.000119 0.002441 1574150.000000 1 0 0
2.805485 3.202695 3.342377 5.412900 0.851414 0.905257 -0.008926 0.004691 -806271.000000 1 0 0
-5.341315 0.898795 2.614577 6.014441 -0.166710 1.121073 0.004363 -0.004149 2231560.000000 1 0 0
-9.325615 -9.287305 5.717077 14.349428 0.783340 1.161004 0.003317 -0.002896 -2031440.000000 1 0 0
-3.012015 3.714695 -0.630923 4.823822 -0.889482 1.701965 0.001774 -0.005440 -193297.000000 1 0 0
-15.736915 -6.321105 5.067077 17.699778 0.381948 1.280455 -0.004520 -0.004185 1321590.000000 1 0 0
0.934785 6.703395 -8.131123 10.579437 1.432240 2.447412 0.002747 -0.002552 252803.000000 1 0 0
-1.655515 6.571495 -9.529623 11.693545 -1.324008 2.523435 0.004416 -0.003603 1064060.000000 1 0 0
2.068485 -0.443305 5.174477 5.590202 -0.211120 0.388091 -0.004863 0.000253 2505200.000000 1 0 0
-3.450915 -0.629505 -6.338323 7.244269 0.180433 2.636115 0.013845 -0.010162 1439450.000000 1 0 0
1.923585 -1.114705 -2.493423 3.340644 -0.525205 2.413417 0.002434 -0.001752 1803930.000000 1 0 0
2.328785 -8.535905 -7.720623 11.742782 -1.304456 2.288263 -0.009735 0.002582 935852.000000 1 0 0
-2.385115 14.072095 -5.486723 15.291068 -1.402899 1.937798 -0.003747 0.006012 3890630.000000 1 0 0
6.787785 -5.088305 -8.214623 11.808679 -0.643262 2.340111 -0.001472 -0.002567 3222250.000000 1 0 0
-14.252515 -4.896705 -2.047223 15.208650 0.330933 1.705815 0.004971 -0.002207 1272010.000000 1 0 0
-2.779315 6.939495 -6.847323 10.137407 -1.189853 2.312373 0.004551 -0.002106 -2707430.000000 1 0 0
-5.784815 -1.161605 -8.096523 10.018338 0.198167 2.511835 0.013795 -0.012884 -1251020.000000 1 0 0
-5.594915 -10.531605 3.501877 12.429035 1.082462 1.285179 0.005251 -0.002590 -4146700.000000 1 0 0
8.159185 -7.660405 6.624177 13.005146 -0.753879 1.036366 -0.003703 -0.000684 1602960.000000 1 0 0
8.823685 -6.216805 13.071477 16.951979 -0.613779 0.690247 -0.005290 -0.002318 11011.700000 1 0 0
-4.775215 9.447795 -0.756323 10.612989 -1.102813 1.642121 0.001616 0.002823 1934270.000000 1 0 0
2.832085 6.544595 12.102377 14.047062 1.162391 0.532463 -0.004750 0.002038 1617340.000000 1 0 0
6.125785 -2.948105 10.931777 12.873240 -0.448545 0.556354 -0.004106 -0.000820 585601.000000 1 0 0
-9.655315 -6.494505 -1.078523 11.686185 0.592123 1.663218 0.011746 -0.006840 910512.000000 1 0 0
0.917785 -13.376605 6.228377 14.784064 -1.502292 1.135929 -0.002753 -0.000423 1555290.000000 1 0 0
-0.496815 -3.164505 8.568077 9.147287 1.415071 0.357771 -0.004302 -0.002489 1288340.000000 1 0 0
4.260585 0.714095 3.384877 5.488161 0.166062 0.906177 -0.007204 0.003049 2007240.000000 1 0 0
-10.072115 5.533195 8.354677 14.207899 -0.502350 0.942175 -0.008780 -0.007724 403579.000000 1 0 0
9.411285 7.952695 -0.047223 12.321521 0.701594 1.574629 -0.002228 0.000258 -289523.000000 1 0 0
4.326585 2.869195 8.145977 9.659636 0.585567 0.567401 -0.007311 0.001919 2659590.000000 1 0 0
1.201685 2.662495 -9.807523 10.233300 1.146830 2.852114 0.005541 -0.006296 1071170.000000 1 0 0
-1.350815 -10.120005 3.032577 10.650621 1.438101 1.282069 0.003067 -0.001087 -2750440.000000 1 0 0
-9.819615 9.535695 9.247577 16.518838 -0.770730 0.976628 -0.007039 -0.004736 1552310.000000 1 0 0
9.773985 -1.961005 -7.776623 12.643266 -0.198006 2.233284 0.003360 0.000641 1405830.000000 1 0 0
-5.120715 -1.807405 6.705277 8.628394 0.339309 0.680723 0.002784 -0.005948 839820.000000 1 0 0
3.052685 -7.825205 -4.959423 9.754414 -1.198845 2.104155 -0.007630 0.000320 2467230.000000 1 0 0
-5.262815 4.918495 -13.068623 14.922390 -0.751592 2.637831 -0.002025 -0.006075 2674830.000000 1 0 0
-5.607315 9.557695 5.528677 12.383771 -1.040228 1.108007 0.000065 -0.000999 873406.000000 1 0 0
-0.391615 -1.701905 -9.418723 9.579258 1.344629 2.958259 0.003633 -0.009341 -938012.000000 1 0 0
-16.509315 0.182395 6.530677 17.755013 -0.011048 1.194131 -0.008125 -0.005129 -640411.000000 1 0 0
-5.917015 -2.894105 4.128177 7.773594 0.454902 1.010956 0.000739 -0.006544 2613270.000000 1 0 0
1.001985 -5.612105 -5.113723 7.658319 -1.394118 2.301957 -0.000849 -0.002393 -493816.000000 1 0 0
-7.135815 1.419895 -8.391623 11.106543 -0.196416 2.427300 0.005103 -0.004412 1523860.000000 1 0 0
8.048985 1.855395 4.707577 9.507362 0.226556 1.052788 -0.005945 0.000633 938321.000000 1 0 0
0.503885 -8.057005 -0.576423 8.093299 -1.508338 1.642079 0.001221 -0.000413 376153.000000 1 0 0
5.415385 5.550395 -3.458923 8.491020 0.797710 1.990360 0.001032 0.000496 -1133120.000000 1 0 0
-0.714615 -0.339305 -1.251623 1.480663 0.443291 2.577946 0.004987 -0.004710 405839.000000 1 0 0
9.087185 6.431095 -6.379423 12.830937 0.615882 2.091154 0.001436 0.000575 2445750.000000 1 0 0
-14.961315 -6.950905 2.551977 16.693370 0.434922 1.417321 -0.007820 -0.004870 1341970.000000 1 0 0
-6.280815 6.715295 8.849977 12.761893 -0.818817 0.804504 -0.005274 -0.003004 -952535.000000 1 0 0
-9.522615 -3.208305 -9.493223 13.823701 0.324970 2.327785 0.005891 -0.005687 1058140.000000 1 0 0
14.853585 3.500695 -1.354723 15.320546 0.231456 1.659337 -0.003095 -0.000984 998181.000000 1 0 0
12.092785 1.693995 -5.826923 13.529896 0.139177 2.016032 0.003018 0.001942 -502203.000000 1 0 0
1.729785 -9.553305 12.726477 16.006905 -1.391670 0.651687 -0.004119 -0.000968 159343.000000 1 0 0
-3.496115 6.329395 7.893377 10.704647 -1.066142 0.741615 -0.005937 0.002204 371475.000000 1 0 0
-4.063715 13.049595 -12.208523 18.326313 -1.268909 2.299864 -0.007014 -0.000257 448472.000000 1 0 0
-10.162315 7.809795 6.630277 14.430043 -0.655240 1.093390 -0.003726 -0.007430 518350.000000 1 0 0
7.934285 -9.244005 -7.242023 14.172205 -0.861494 2.107146 0.000871 -0.000475 342093.000000 1 0 0
5.888485 -3.790605 -0.359923 7.012309 -0.571956 1.622146 -0.001013 -0.002192 -264238.000000 1 0 0
-1.587415 -4.466205 4.144677 6.296445 1.229294 0.852296 -0.000272 -0.003402 839411.000000 1 0 0
9.856885 -2.089505 -2.641623 10.416448 -0.208892 1.827198 -0.002511 0.000016 -1420830.000000 1 0 0
13.541185 7.027195 1.229977 15.305489 0.478692 1.490348 -0.001064 0.000616 1035360.000000 1 0 0
5.510585 -3.718905 -3.265323 7.406695 -0.593657 2.027354 -0.001276 -0.003739 -2172980.000000 1 0 0
-12.226215 -5.914805 2.002677 13.728655 0.450588 1.424398 -0.001928 -0.004949 2099840.000000 1 0 0
3.725585 -5.691105 -0.390923 6.813331 -0.991171 1.628204 -0.001021 -0.001753 -840046.000000 1 0 0
-5.384115 3.729795 -8.659823 10.857836 -0.605837 2.494043 0.007424 -0.007515 819362.000000 1 0 0
-1.690215 -9.231805 7.217377 11.839492 1.389716 0.915238 -0.003044 -0.001410 1281180.000000 1 0 0
-7.362815 -7.409205 2.683177 10.784563 0.788539 1.319357 0.007664 -0.004862 -4985740.000000 1 0 0
-5.806615 13.064695 -8.422223 16.593278 -1.152567 2.103157 0.002271 -0.004586 968670.000000 1 0 0
9.158185 -13.941705 -4.298723 17.225635 -0.989592 1.823016 0.017629 0.009418 1564200.000000 1 0 0
-6.612415 -5.254805 -6.668823 10.761515 0.671493 2.239146 0.013804 -0.007918 218437.000000 1 0 0
3.346885 0.470895 -6.190023 7.052642 0.139779 2.641814 -0.001221 -0.005258 2107630.000000 1 0 0
-3.510915 5.731395 4.976277 8.362939 -1.021181 0.933482 -0.001850 0.003217 -381670.000000 1 0 0
-2.677115 -10.733305 -2.843123 11.421652 1.326362 1.822365 0.005233 -0.000982 1234910.000000 1 0 0
-12.506015 -0.412705 1.838877 12.647221 0.032989 1.424881 -0.006429 -0.002661 -1194370.000000 1 0 0
8.352385 -11.983505 -6.212923 15.873472 -0.962093 1.972952 0.011326 0.003276 -434213.000000 1 0 0
6.069785 3.907795 0.920577 7.277404 0.572012 1.443959 -0.004491 0.002697 -823850.000000 1 0 0
3.358885 -4.745705 -11.006723 12.447963 -0.954872 2.655615 -0.007543 -0.002550 -135646.000000 1 0 0
-7.486115 4.182995 8.622877 12.161142 -0.509549 0.782644 -0.005223 -0.003461 2483760.000000 1 0 0
8.247885 8.693095 4.062477 12.653111 0.811672 1.243942 0.001649 0.002465 2209350.000000 1 0 0
0.211185 10.617195 -6.305223 12.350112 1.550908 2.106609 -0.001400 0.001303 3215260.000000 1 0 0
5.490185 7.991295 3.261877 10.229505 0.968835 1.246260 -0.003407 0.004413 1736450.000000 1 0 0
8.034485 6.718995 -3.828123 11.151339 0.696469 1.921212 -0.001713 0.001139 2439160.000000 1 0 0
10.418685 2.606795 -8.260523 13.549192 0.245171 2.226439 0.002497 0.003161 452939.000000 1 0 0
3.343485 -12.481405 -0.370323 12.926774 -1.309064 1.599448 -0.001212 0.001596 -3749120.000000 1 0 0
0.653285 2.088395 5.216177 5.656561 1.267623 0.397204 -0.005524 0.001660 -133949.000000 1 0 0
-4.800115 13.327295 1.526777 14.247419 -1.225089 1.463429 0.004174 -0.001104 1389400.000000 1 0 0
8.176685 4.169795 -8.119323 12.254337 0.471585 2.295038 0.000198 0.003383 720211.000000 1 0 0
-13.884715 -0.561205 -3.494323 14.328662 0.040397 1.817150 -0.003863 -0.000413 1101410.000000 1 0 0
-8.606915 0.020895 -0.479123 8.620266 -0.002428 1.626406 -0.000068 -0.003893 -357517.000000 1 0 0
1.776285 -3.777705 -1.181123 4.338351 -1.131270 1.846529 0.003384 -0.002507 -901077.000000 1 0 0
8.061085 -5.677005 -0.258323 9.862870 -0.613571 1.596991 -0.001800 -0.000319 2084120.000000 1 0 0
-2.232315 -1.124405 7.364977 7.777558 0.466599 0.327180 -0.001096 -0.002900 1709400.000000 1 0 0
-5.988215 8.856995 -11.629723 15.797327 -0.976291 2.398209 -0.001831 -0.004036 -1000720.000000 1 0 0
-6.290715 9.210895 -8.749423 14.176251 -0.971595 2.235961 -0.005592 -0.000836 298537.000000 1 0 0
-1.489915 13.976295 -8.263223 16.304525 -1.464594 2.102271 -0.003481 0.002580 -649354.000000 1 0 0
-1.397015 7.202695 9.744177 12.197518 -1.379218 0.645390 -0.007142 -0.000705 -756837.000000 1 0 0
10.016785 2.350695 -4.095623 11.074108 0.230505 1.949631 -0.001828 0.000599 -2181570.000000 1 0 0
-2.992315 -7.490305 -7.013323 10.688560 1.190728 2.286505 0.004092 -0.004840 923573.000000 1 0 0
-5.568315 -5.029205 -1.579723 7.667761 0.734571 1.778304 0.008613 -0.004464 259226.000000 1 0 0
5.555085 7.521395 -8.884923 12.898535 0.934650 2.330673 -0.005213 0.001927 -851327.000000 1 0 0
-9.610215 5.302095 -7.411223 13.243666 -0.504159 2.164706 -0.008608 0.005495 1196650.000000 1 0 0
-0.510815 6.113795 -5.390523 8.166833 -1.487439 2.291682 0.006014 -0.002875 -766315.000000 1 0 0
-8.302015 2.831395 -6.261323 10.777032 -0.328679 2.190738 0.002212 -0.000903 1133080.000000 1 0 0
3.727885 1.412595 -2.082823 4.497855 0.362209 2.052252 -0.002603 -0.001011 2621490.000000 1 0 0
-6.700915 12.478095 -3.324523 14.548456 -1.077978 1.801347 0.005737 0.000397 -14912.600000 1 0 0
-6.542915 3.077495 -2.371323 7.609461 -0.439652 1.887702 0.002678 -0.001714 -1444110.000000 1 0 0
12.117085 4.075495 -0.848123 12.812210 0.324457 1.637041 -0.000142 -0.000376 -1118490.000000 1 0 0
2.197985 12.408995 -5.447923 13.729318 1.395486 1.978835 -0.007214 0.001660 -586257.000000 1 0 0
-9.226615 -1.490405 -4.187723 10.241521 0.160150 1.992041 0.003025 -0.002670 -915284.000000 1 0 0
-1.107515 5.716895 3.388477 6.737303 -1.379440 1.043796 -0.004846 0.003240 647765.000000 1 0 0
11.575085 2.557295 11.963277 16.841685 0.217438 0.780819 0.008840 0.004142 289500.000000 1 0 0
-7.013115 -2.455705 -5.730823 9.383848 0.336816 2.227755 0.016510 -0.008730 584099.000000 1 0 0
7.526785 -7.631105 10.789277 15.208377 -0.792280 0.782107 -0.005311 -0.002226 -880412.000000 1 0 0
-5.541415 -1.932505 -10.901523 12.380834 0.335551 2.647746 0.010232 -0.006323 712872.000000 1 0 0
0.892685 -6.207005 4.429477 7.677503 -1.427957 0.955816 -0.001116 -0.000838 2489990.000000 1 0 0
-4.777015 -9.288505 7.485677 12.850352 1.095780 0.948962 -0.001513 -0.005192 2501200.000000 1 0 0
-8.759815 9.312595 1.696577 12.897177 -0.815976 1.438868 0.002761 -0.002508 2015190.000000 1 0 0
-8.245715 7.230395 -9.036223 14.209988 -0.719886 2.259979 -0.004423 0.000563 -1072650.000000 1 0 0
-1.198315 -10.631905 -0.102323 10.699712 1.458561 1.580360 0.002734 -0.001185 -62054.900000 1 0 0
-3.880415 10.281395 7.780177 13.464615 -1.209905 0.954736 -0.002478 0.004118 2599820.000000 1 0 0
-7.375315 12.043095 2.041277 14.268785 -1.021302 1.427245 -0.000505 -0.004664 -337482.000000 1 0 0
-8.126215 -8.188505 -2.837023 11.880054 0.789216 1.811932 0.018219 -0.007211 -809704.000000 1 0 0
5.404285 4.652695 -8.204423 10.870438 0.710804 2.426064 0.000858 0.002181 1336190.000000 1 0 0
-9.060315 -0.147905 -10.118623 13.582994 0.016323 2.411253 -0.000208 -0.004137 -2211830.000000 1 0 0
-15.208315 -2.132605 -1.399323 15.420732 0.139318 1.661664 -0.002143 -0.002428 918786.000000 1 0 0
-7.073815 -5.698005 8.809777 12.653786 0.678090 0.800683 0.001164 -0.005995 -838340.000000 1 0 0
8.134085 3.456695 -1.010023 8.895629 0.401840 1.684583 -0.001832 0.002328 742510.000000 1 0 0
11.941485 7.250295 -5.831823 15.138560 0.545662 1.966253 0.005696 0.000649 685839.000000 1 0 0
3.511285 13.270995 -9.432123 16.655731 1.312140 2.172805 -0.011678 -0.010826 357459.000000 1 0 0
-9.650115 5.456995 -0.460423 11.095743 -0.514654 1.612304 -0.001826 -0.000622 1501100.000000 1 0 0
11.290885 -1.275705 -5.256623 12.519728 -0.112508 2.004095 0.004762 -0.001072 -692776.000000 1 0 0
10.608185 1.772195 -1.248723 10.827445 0.165531 1.686383 -0.001300 0.001704 371279.000000 1 0 0
14.573585 4.962595 4.782077 16.120949 0.328204 1.269627 0.003048 -0.000106 2665570.000000 1 0 0
1.005085 -0.901005 10.262177 10.350569 -0.730848 0.130782 -0.004662 -0.000216 1544910.000000 1 0 0
-8.086115 1.455195 -12.482123 14.943435 -0.178056 2.559459 -0.007461 0.001160 -186160.000000 1 0 0
3.017185 -11.511805 -7.903823 14.286199 -1.314467 2.157056 -0.009787 0.005130 602771.000000 1 0 0
2.880585 5.035795 -6.870623 8.992356 1.051203 2.440366 0.002370 -0.000638 -1787500.000000 1 0 0
6.593385 7.992795 0.581677 10.377661 0.881046 1.514716 -0.000300 0.000877 1161370.000000 1 0 0
-9.001315 -5.403705 6.815477 12.516966 0.540658 0.995004 0.001180 -0.004636 -2871150.000000 1 0 0
-0.354615 -6.803105 -11.779923 13.607886 1.518718 2.617281 -0.006206 0.001500 1718690.000000 1 0 0
6.304785 -13.454205 -4.742223 15.596622 -1.132574 1.879742 0.003968 0.006015 3805870.000000 1 0 0
-3.178715 -0.317405 10.058577 10.553670 0.099523 0.307517 -0.002136 -0.002728 757219.000000 1 0 0
8.596685 8.427095 6.954477 13.902650 0.775437 1.046936 -0.002756 0.003727 -292498.000000 1 0 0
-7.898415 5.656095 -2.610823 10.059462 -0.621453 1.833341 0.001988 -0.002382 764796.000000 1 0 0
-5.399315 5.843995 -6.433323 10.231937 -0.824928 2.250740 0.005007 -0.002841 -397123.000000 1 0 0
3.328885 -13.642705 2.439377 14.253260 -1.331468 1.398804 0.004685 -0.003030 -1496750.000000 1 0 0
-11.213515 -6.984705 6.512377 14.728886 0.557075 1.112802 -0.001923 -0.005883 -763463.000000 1 0 0
-12.974915 -3.708205 -6.667723 15.051835 0.278377 2.029721 0.008021 -0.004731 484200.000000 1 0 0
5.968485 0.426995 -7.328423 9.461021 0.071420 2.456865 0.000491 0.000251 1019410.000000 1 0 0
-1.403815 2.182095 -2.578523 3.658007 -0.999122 2.353076 0.005903 -0.005354 1744780.000000 1 0 0
7.582385 0.939195 -5.037523 9.151573 0.123238 2.153705 -0.000809 0.002580 268157.000000 1 0 0
3.775285 -4.602205 10.879677 12.401630 -0.883787 0.500635 -0.005537 -0.000429 1023900.000000 1 0 0
6.011285 -2.604605 2.128977 6.888545 -0.408868 1.256591 -0.002054 -0.000277 -513395.000000 1 0 0
-6.267815 7.763995 1.187577 10.048655 -0.891625 1.452337 0.001792 -0.001149 3136520.000000 1 0 0
6.114885 -3.477205 7.957577 10.621007 -0.517046 0.723898 -0.005077 -0.002488 -250190.000000 1 0 0
6.708985 -2.247505 -7.893423 10.600372 -0.323249 2.410786 -0.002270 -0.001051 1591130.000000 1 0 0
11.924885 -8.186405 -5.991823 15.656374 -0.601606 1.963522 0.012459 -0.004091 342863.000000 1 0 0
5.629885 -9.863405 9.905177 15.069668 -1.052135 0.853576 -0.007059 0.002606 1412860.000000 1 0 0
-6.628315 7.523695 -4.379523 10.941699 -0.848583 1.982597 0.001448 -0.000532 733988.000000 1 0 0
-1.178915 -7.557205 9.716577 12.365802 1.416045 0.666869 -0.002048 -0.006081 -684867.000000 1 0 0
10.064285 -9.283205 0.672077 13.708370 -0.745049 1.521750 0.006467 -0.000533 1466680.000000 1 0 0
11.186285 6.005795 9.783177 16.028509 0.492722 0.914280 0.001352 0.004259 2146480.000000 1 0 0
-15.350615 -4.236905 -4.832923 16.641812 0.269304 1.865450 -0.002852 -0.000201 2361490.000000 1 0 0
-4.603815 -4.535305 7.775677 10.110651 0.777902 0.693430 0.003670 -0.008474 -1051730.000000 1 0 0
2.769985 10.885895 -11.123623 15.808558 1.321628 2.351312 -0.011584 -0.003476 -1750020.000000 1 0 0
9.860685 -1.353405 1.473777 10.061651 -0.136400 1.423793 -0.006014 -0.000738 -612422.000000 1 0 0
-1.651615 -2.599005 0.644777 3.146172 1.004696 1.364394 0.006518 -0.005362 991351.000000 1 0 0
1.618885 3.018195 0.804977 3.518278 1.078474 1.339953 -0.006203 0.000490 -1642850.000000 1 0 0
-8.882015 -2.373505 4.356977 10.173837 0.261124 1.128238 -0.001292 -0.005409 2877480.000000 1 0 0
9.914585 4.898195 -2.740323 11.393010 0.458868 1.813705 -0.002400 0.001464 1001570.000000 1 0 0
2.665885 8.444195 2.497777 9.200558 1.264993 1.295865 -0.008002 0.004029 522704.000000 1 0 0
-8.154415 -0.073205 2.485077 8.524990 0.008977 1.274997 0.000300 -0.004998 -166370.000000 1 0 0
6.951585 2.065095 13.769677 15.562556 0.288765 0.484742 -0.001882 0.002810 329000.000000 1 0 0
6.750085 4.271095 3.689077 8.798590 0.564151 1.138144 -0.006100 0.002595 -393321.000000 1 0 0
-0.208415 3.301695 7.759177 8.435014 -1.507756 0.403029 -0.007509 0.001950 -783397.000000 1 0 0
2.728085 -10.396305 9.265377 14.190589 -1.314173 0.859358 -0.005600 -0.000393 1578090.000000 1 0 0
1.452285 -4.557205 6.849477 8.354195 -1.262292 0.609587 -0.004198 -0.001631 -140141.000000 1 0 0
-0.119915 10.817295 -1.916323 10.986380 -1.559711 1.746120 0.000831 0.003534 2237430.000000 1 0 0
8.847285 5.495595 8.013977 13.141531 0.555834 0.914962 -0.001893 0.002426 -1050290.000000 1 0 0
2.677085 11.433595 -2.812723 12.074986 1.340798 1.805894 -0.001480 0.001827 2253190.000000 1 0 0
1.486585 2.498195 -6.761923 7.360334 1.034015 2.735567 0.002419 -0.004171 89351.000000 1 0 0
-13.557415 -2.160805 3.677377 14.212519 0.158052 1.309077 -0.005768 -0.005142 1882090.000000 1 0 0
-0.958715 -10.584405 -5.306423 11.878842 1.480465 2.033883 -0.002573 -0.000398 1043140.000000 1 0 0
-5.616315 2.766095 0.391377 6.272755 -0.457638 1.508363 0.005569 -0.003192 1306730.000000 1 0 0
3.726785 7.309395 -5.099223 9.660138 1.099290 2.126878 0.002370 -0.002104 -2571800.000000 1 0 0
2.993085 9.864995 -6.493623 12.183753 1.276219 2.132908 -0.000181 0.001407 1834330.000000 1 0 0
-12.221915 1.752395 -2.466723 12.590902 -0.142411 1.767985 0.001676 -0.001442 1359410.000000 1 0 0
-2.483415 9.580795 -5.788623 11.465912 -1.317171 2.100010 -0.001179 -0.001187 9529.030000 1 0 0
-1.281315 3.312295 1.661977 3.921127 -1.201689 1.133102 -0.003951 -0.001121 36517.400000 1 0 0
12.943385 3.673595 9.556977 16.503403 0.276548 0.953183 0.013096 0.006471 1963910.000000 1 0 0
-2.404715 -9.522105 11.653077 15.239663 1.323428 0.700291 -0.007366 -0.004653 835371.000000 1 0 0
-0.520715 -8.896805 -7.629523 11.731748 1.512335 2.278817 -0.004575 -0.000436 1847460.000000 1 0 0
2.411985 7.682595 -0.521423 8.069190 1.266587 1.635460 -0.002626 0.005148 1148810.000000 1 0 0
-11.874815 -1.330605 -5.471523 13.142272 0.111587 2.000202 0.003504 0.000985 -969562.000000 1 0 0
-6.224215 -7.078905 -10.895723 14.407239 0.849557 2.428385 0.004710 -0.004817 668882.000000 1 0 0
-4.757715 -2.289305 -1.380223 5.457269 0.448476 1.826488 0.007197 -0.005267 -2194060.000000 1 0 0
-10.429515 3.751795 4.523977 11.971513 -0.345315 1.183274 -0.006234 -0.005688 2935320.000000 1 0 0
6.769485 9.327195 -3.718623 12.109940 0.942978 1.882911 0.000985 0.000646 868307.000000 1 0 0
1.164485 -2.633105 -11.623023 11.974303 -1.154408 2.898773 0.001140 -0.005954 -2370870.000000 1 0 0
1.296885 8.753195 7.595277 11.661414 1.423705 0.861478 -0.006076 0.009549 36650.300000 1 0 0
10.385085 0.334895 10.323577 14.647129 0.032237 0.788628 -0.000667 0.002279 901815.000000 1 0 0
-5.279515 -0.830905 -3.954223 6.648275 0.156102 2.207781 0.010932 -0.008456 -4294.720000 1 0 0
11.655385 5.602095 5.381777 14.006962 0.448044 1.176432 -0.002567 0.002146 2029340.000000 1 0 0
9.909285 -3.497905 3.586877 11.103826 -0.339338 1.241866 -0.002217 -0.004532 -2775430.000000 1 0 0
7.286785 -1.604805 -3.489823 8.237202 -0.216774 2.008285 -0.001880 0.000131 -3228740.000000 1 0 0
2.425085 9.172295 10.482777 14.138623 1.312318 0.735600 -0.003017 0.006072 2253660.000000 1 0 0
2.468785 -10.888405 6.354977 12.846711 -1.347831 1.053333 -0.006894 0.000250 1246470.000000 1 0 0
5.858985 -7.553005 -1.197723 9.633801 -0.911039 1.695444 -0.002810 -0.002760 292888.000000 1 0 0
-0.252815 -5.507505 -2.328523 5.984859 1.524925 1.970417 0.004156 -0.000871 797227.000000 1 0 0
7.725685 -5.083905 2.645577 9.619323 -0.582015 1.292178 -0.003787 -0.002812 1009240.000000 1 0 0
-2.643815 -12.467105 4.690377 13.580062 1.361829 1.218145 -0.001967 -0.000945 -905984.000000 1 0 0
4.878485 -10.279505 -1.202023 11.441708 -1.127688 1.676047 -0.001533 0.000195 152227.000000 1 0 0
1.010685 0.187695 1.035177 1.458871 0.183619 0.781903 -0.003224 -0.001514 -1391150.000000 1 0 0
-1.529715 8.548395 2.472377 9.029271 -1.393723 1.293436 -0.003687 0.004048 -876142.000000 1 0 0
-7.640915 0.556995 -3.099823 8.264547 -0.072768 1.955274 0.002983 -0.003175 -430455.000000 1 0 0
4.568085 -6.485905 12.859277 15.109446 -0.957184 0.552766 -0.000876 -0.004684 -2064440.000000 1 0 0
-5.035115 12.958395 8.566977 16.329896 -1.200191 1.018529 -0.000408 -0.004645 617108.000000 1 0 0
0.662785 6.036095 8.219177 10.219031 1.461431 0.636298 -0.008331 0.004845 -402281.000000 1 0 0
7.961185 -0.563305 -0.827623 8.023885 -0.070639 1.674125 -0.003316 0.000092 3153820.000000 1 0 0
2.419285 -9.202505 -2.443223 9.823867 -1.313719 1.822137 -0.004735 0.000502 2048640.000000 1 0 0
-7.052615 12.106095 4.964577 14.864183 -1.043294 1.230257 0.002388 -0.003461 457254.000000 1 0 0
-14.885015 0.394295 0.317577 14.893623 -0.026483 1.549472 -0.009293 -0.003758 -261185.000000 1 0 0
6.854185 -0.591605 3.999177 7.957591 -0.086100 1.044238 -0.004177 0.002274 478147.000000 1 0 0
-4.096215 -5.008405 5.081477 8.227059 0.885255 0.905040 0.002165 -0.005443 -71510.400000 1 0 0
2.951785 5.135795 6.838477 9.047331 1.049152 0.713836 -0.010840 0.004405 -1837930.000000 1 0 0
2.080585 -7.160405 1.725277 7.653549 -1.288015 1.343420 -0.000391 -0.002396 2911900.000000 1 0 0
-2.408615 6.389395 -1.688523 7.033983 -1.210299 1.813216 0.000395 0.001843 1602930.000000 1 0 0
2.676585 -3.730705 -6.568823 8.014468 -0.948456 2.531545 -0.004775 -0.004610 -1281850.000000 1 0 0
-5.267215 0.940095 -12.152423 13.278129 -0.176621 2.726852 0.008512 -0.005819 -496395.000000 1 0 0
-7.613115 6.448495 -11.911123 15.537615 -0.702764 2.444324 -0.001050 -0.002309 1848210.000000 1 0 0
-1.183915 11.129895 -9.019923 14.374813 -1.464822 2.249110 -0.002905 -0.000537 2135250.000000 1 0 0
4.645585 5.917195 -0.635123 7.549705 0.905208 1.655021 -0.002867 0.002571 -15774.800000 1 0 0
-2.574415 13.311195 3.643477 14.038891 -1.379753 1.308264 0.001737 0.000601 1961530.000000 1 0 0
1.516785 -7.977905 10.222977 13.055913 -1.382915 0.671298 -0.004493 -0.003780 -1373090.000000 1 0 0
12.931285 -0.258705 -1.138623 12.983894 -0.020003 1.658604 0.000044 -0.002416 483224.000000 1 0 0
-1.070015 3.102595 -5.479323 6.387019 -1.238692 2.601934 0.006364 -0.006755 -14528.000000 1 0 0
6.606985 1.049995 7.256377 9.869637 0.157604 0.744802 -0.005279 0.001406 1286450.000000 1 0 0
5.532085 -6.247905 6.831277 10.784555 -0.846089 0.884816 -0.006932 0.000167 2889170.000000 1 0 0
12.171985 -4.888505 2.483277 13.349957 -0.381902 1.383693 0.000196 -0.002456 -1105050.000000 1 0 0
4.503785 -9.340205 13.767377 17.235550 -1.121495 0.645535 -0.001893 -0.001063 1559300.000000 1 0 0
-2.776415 -4.310905 -1.459023 5.331147 0.998619 1.848012 0.008937 -0.004649 2374310.000000 1 0 0
-9.360715 -5.237305 -7.483123 13.078589 0.510106 2.179941 0.015091 -0.007735 -242087.000000 1 0 0
-10.526915 -3.051705 7.896177 13.508459 0.282161 0.946489 -0.002886 -0.005030 -978699.000000 1 0 0
12.046385 -0.659505 1.490477 12.156145 -0.054693 1.447876 -0.002473 -0.000728 1152230.000000 1 0 0
-7.505715 4.610695 4.358077 9.827874 -0.550862 1.111363 0.001655 -0.004603 2251430.000000 1 0 0
-1.031115 10.595595 6.952077 12.714606 -1.473786 0.992284 -0.003331 0.007410 1572390.000000 1 0 0
7.434785 -10.068305 1.855377 12.652636 -0.934738 1.423626 0.002419 -0.003535 2492380.000000 1 0 0
-4.351415 -1.685005 1.660977 4.953070 0.369451 1.228827 0.001993 -0.004303 1747000.000000 1 0 0
6.659185 -15.061505 -0.980623 16.497130 -1.154504 1.630273 0.015506 0.005896 -777678.000000 1 0 0
-10.425715 1.679695 2.384277 10.825973 -0.159738 1.348739 -0.003213 -0.001385 436899.000000 1 0 0
-3.202015 8.293895 -11.372123 14.434915 -1.202357 2.478059 0.002120 -0.004285 -1269960.000000 1 0 0
-1.188015 -5.125505 -6.935423 8.705301 1.343033 2.492594 0.001330 -0.005518 -134811.000000 1 0 0
12.799985 -0.494705 6.326777 14.286793 -0.038630 1.112032 0.003807 -0.005412 2030520.000000 1 0 0
5.954485 -13.405305 3.628277 15.110343 -1.152786 1.328308 0.005848 -0.002078 1285090.000000 1 0 0
-5.577915 3.545195 -4.911023 8.234057 -0.566169 2.209840 0.003742 -0.003616 2343990.000000 1 0 0
-4.325115 8.048595 3.372777 9.739719 -1.077698 1.217182 0.000015 0.002088 -573814.000000 1 0 0
14.113785 6.195195 -4.133023 15.958109 0.413624 1.832775 0.008570 0.001722 -1280410.000000 1 0 0
-6.618215 -8.437805 5.380477 11.997785 0.905669 1.105759 0.006815 -0.004331 -4754.740000 1 0 0
1.768585 11.341495 2.768277 11.807657 1.416103 1.334146 -0.002842 0.001519 1553410.000000 1 0 0
-7.341515 7.187895 5.954777 11.875313 -0.774826 1.045532 -0.001156 -0.004826 -987114.000000 1 0 0
-17.317515 -3.948905 5.249377 18.521505 0.224196 1.283437 0.004577 -0.010342 -1140860.000000 1 0 0
7.403085 -13.063205 -8.705523 17.356241 -1.055212 2.096219 0.010047 0.008806 -573835.000000 1 0 0
-2.230415 12.819095 -2.720923 13.293133 -1.398529 1.776940 -0.002320 0.003264 163505.000000 1 0 0
-5.446915 13.969695 -5.656123 16.025386 -1.199019 1.931516 0.001159 0.004846 1243650.000000 1 0 0
-5.479615 2.349195 7.430277 9.526485 -0.405013 0.676194 -0.000991 -0.002517 2701820.000000 1 0 0
-7.307315 5.061495 1.419877 9.001758 -0.605784 1.412402 0.005931 -0.002564 942082.000000 1 0 0
10.676185 -5.668805 -5.134123 13.132992 -0.488121 1.972442 0.008205 -0.003278 2504280.000000 1 0 0
-9.463415 -0.699905 6.876777 11.719051 0.073825 0.943691 -0.003263 -0.004578 741766.000000 1 0 0
-11.306315 -4.540305 -2.473723 12.432475 0.381861 1.771106 0.004222 -0.004037 519068.000000 1 0 0
6.645485 -4.465305 13.491177 15.687998 -0.591638 0.535589 0.003531 -0.006676 -1622270.000000 1 0 0
0.111485 10.183095 -11.699723 15.511008 1.559849 2.425361 -0.002341 -0.002154 -229105.000000 1 0 0
-11.810715 -3.183405 1.517577 12.325993 0.263279 1.447363 -0.000119 -0.005609 828462.000000 1 0 0
5.270585 5.889395 5.386977 9.564704 0.840791 0.972526 -0.005721 0.003928 -4736460.000000 1 0 0
-7.095615 -0.058905 8.228077 10.865196 0.008301 0.711647 -0.000500 -0.004117 1811580.000000 1 0 0
1.819285 2.005895 9.680577 10.052213 0.834144 0.272766 -0.006100 0.001869 3017420.000000 1 0 0
10.358585 -5.020905 -2.136523 11.707882 -0.451341 1.754311 -0.000531 -0.000025 2084100.000000 1 0 0
-9.689915 -2.373505 -1.549123 10.095928 0.240216 1.724845 0.003496 -0.003262 -954935.000000 1 0 0
-1.952915 -5.052705 -9.894923 11.280656 1.201974 2.640709 0.008329 -0.005557 1334650.000000 1 0 0
7.724785 -1.661005 6.643477 10.323130 -0.211798 0.871666 -0.003463 -0.001341 1255550.000000 1 0 0
1.552185 -11.829305 -2.645023 12.220388 -1.440326 1.788966 -0.003980 0.002016 -3726720.000000 1 0 0
-0.723115 -1.550505 4.793077 5.089258 1.134409 0.342843 -0.001891 -0.001534 1307670.000000 1 0 0
7.627585 1.501895 9.917577 12.601352 0.194416 0.664825 -0.002613 0.002103 468218.000000 1 0 0
-3.926515 10.707095 -7.921723 13.885716 -1.219304 2.177904 -0.001768 0.003286 1067330.000000 1 0 0
-9.472415 12.541495 6.451377 16.989291 -0.923921 1.181290 -0.007341 -0.003463 2097610.000000 1 0 0
-2.547015 -2.321105 -11.058523 11.582994 0.739025 2.839516 0.011480 -0.008326 -982594.000000 1 0 0
1.134885 -12.001505 11.160277 16.427899 -1.476515 0.823921 -0.005264 0.003027 1433260.000000 1 0 0
1.435285 3.518295 -2.058123 4.321379 1.183456 2.067199 -0.000965 -0.001489 3391160.000000 1 0 0
-2.015415 -9.374305 -12.110723 15.446977 1.359026 2.471910 -0.008946 0.004047 1902260.000000 1 0 0
1.299485 -2.664905 1.563677 3.351934 -1.117094 1.085467 0.004984 -0.002557 2670370.000000 1 0 0
-1.050715 -2.194405 -6.654823 7.085625 1.124239 2.791091 0.004536 -0.009045 -425667.000000 1 0 0
1.808385 5.842495 4.036177 7.327737 1.270626 0.987464 -0.011013 0.006651 -2460560.000000 1 0 0
-10.987415 8.626195 3.782277 14.472048 -0.665588 1.306375 -0.007327 -0.006537 1828220.000000 1 0 0
-16.325315 -1.380905 4.078077 16.883528 0.084386 1.326842 0.000839 -0.005719 574851.000000 1 0 0
-12.193515 0.335295 6.873877 14.001586 -0.027491 1.057633 -0.005869 -0.005416 1113030.000000 1 0 0
-5.000015 2.977195 4.650677 7.449338 -0.537058 0.896552 0.000468 -0.000874 2039170.000000 1 0 0
5.243485 -6.148205 3.890977 8.968515 -0.864651 1.122036 -0.006828 -0.000874 1393620.000000 1 0 0
9.900085 3.383095 6.284977 12.204833 0.329283 1.029838 -0.003919 0.004188 549824.000000 1 0 0
-12.097715 5.918695 3.270977 13.859472 -0.455003 1.332538 -0.005852 -0.004035 1056090.000000 1 0 0
-4.806815 12.288995 -1.166023 13.247056 -1.197944 1.658932 0.000479 0.002578 2323590.000000 1 0 0
-1.725415 -12.169805 10.284077 16.026336 1.429957 0.874085 -0.001554 -0.004706 706238.000000 1 0 0
5.238085 6.264095 13.819977 16.052046 0.874364 0.533666 -0.002489 0.000927 774791.000000 1 0 0
12.848385 -3.689905 -6.149323 14.714298 -0.279662 2.001945 0.003198 -0.002219 566388.000000 1 0 0
3.643785 -2.659105 6.311477 7.757754 -0.630424 0.620530 -0.006117 0.002322 806638.000000 1 0 0
7.211185 -11.897505 -0.690523 13.929416 -1.025897 1.620390 0.007992 0.003533 360930.000000 1 0 0
-6.022115 -6.636405 -4.054423 9.835959 0.833888 1.995668 0.016428 -0.006691 -795102.000000 1 0 0
0.332685 -8.916805 5.064577 10.260118 -1.533504 1.054552 -0.003508 0.000115 2739700.000000 1 0 0
-10.254515 2.538395 -0.370123 10.570503 -0.242661 1.605818 -0.002392 0.000119 204739.000000 1 0 0
-1.770215 8.993795 -0.315423 9.171778 -1.376454 1.605194 0.000190 0.003088 332949.000000 1 0 0
-3.597815 2.279995 -6.622223 7.873785 -0.564843 2.570012 0.013071 -0.009957 1351370.000000 1 0 0
-12.637815 3.061495 6.485477 14.530951 -0.237670 1.108146 -0.009589 -0.006599 -244483.000000 1 0 0
11.356285 1.599695 7.855777 13.900988 0.139944 0.970213 0.004425 0.000194 -2038460.000000 1 0 0
6.080385 2.701795 -3.246923 7.403599 0.418142 2.024792 -0.000444 0.001662 1007350.000000 1 0 0
10.507585 -2.436005 6.317577 12.500209 -0.227809 1.040954 0.000021 -0.004211 2431110.000000 1 0 0
-0.936715 10.961195 4.121677 11.747913 -1.485546 1.212325 -0.001330 0.003077 955768.000000 1 0 0
-1.526015 -12.244005 7.392477 14.383779 1.446802 1.031019 -0.007994 0.000050 -1374270.000000 1 0 0
8.072585 8.637295 -7.894723 14.216052 0.819180 2.159566 0.005149 -0.003051 1721200.000000 1 0 0
-4.689815 -5.774105 -8.723223 11.464261 0.888651 2.435504 0.010176 -0.006575 782966.000000 1 0 0
-8.626915 -5.341805 -11.517323 15.349504 0.554419 2.419370 0.005710 -0.000842 807832.000000 1 0 0
5.936585 -0.624705 -9.974823 11.624560 -0.104844 2.602319 -0.002742 0.001760 1143720.000000 1 0 0
-11.282315 -5.537605 -5.260523 13.624566 0.456278 1.967203 0.007107 -0.007640 280657.000000 1 0 0
3.922685 8.920195 -2.825223 10.145897 1.156496 1.852986 0.003112 0.000043 -335683.000000 1 0 0
11.688285 -10.522005 -4.147123 16.264293 -0.732936 1.828627 0.022629 -0.001662 1040580.000000 1 0 0
4.053585 -11.367605 3.900777 12.683456 -1.228262 1.258181 -0.002082 -0.000671 -982064.000000 1 0 0
-0.958715 0.847695 3.171277 3.419754 -0.724017 0.383554 -0.002816 -0.000812 -2795210.000000 1 0 0
-10.552715 -5.027405 4.572777 12.551689 0.444597 1.197898 -0.000726 -0.006266 3193980.000000 1 0 0
4.646785 -8.691205 2.655477 10.206919 -1.079812 1.307604 -0.004222 -0.000655 5416330.000000 1 0 0
-3.663515 -5.719505 2.677977 7.301071 1.001107 1.195238 0.003103 -0.003346 883781.000000 1 0 0
10.079985 5.053495 12.276477 16.669007 0.464719 0.742937 0.004492 0.007730 781542.000000 1 0 0
1.589485 -12.306705 -5.347123 13.511964 -1.442351 1.977662 -0.004799 0.002246 1197710.000000 1 0 0
9.822585 -10.843005 -1.813023 14.742489 -0.834736 1.694088 0.009867 -0.000328 305992.000000 1 0 0
9.557785 -4.442405 -9.266023 14.033723 -0.435089 2.291972 0.006813 -0.001802 2668540.000000 1 0 0
-7.529315 -3.145605 -12.998023 15.347118 0.395740 2.580992 0.001545 -0.001103 2613900.000000 1 0 0
0.463685 6.331495 -2.595323 6.858465 1.497692 1.958876 -0.000223 0.001290 2434190.000000 1 0 0
-5.921715 -9.474005 0.979577 11.215304 1.012162 1.483342 0.006536 -0.002696 1077850.000000 1 0 0
-9.036715 -4.139205 0.696577 9.963958 0.429522 1.500830 0.001923 -0.005030 3422300.000000 1 0 0
1.981585 3.665395 12.046377 12.746647 1.075183 0.333011 -0.003326 0.002641 1633730.000000 1 0 0
6.689285 4.255195 9.580277 12.435229 0.566557 0.691306 -0.005818 0.004486 2853420.000000 1 0 0
-8.230815 9.898595 -3.531023 13.349031 -0.877133 1.838498 0.000010 0.000826 1420800.000000 1 0 0
16.423585 2.179895 -6.163123 17.676826 0.131958 1.926933 0.004912 0.003167 -1135490.000000 1 0 0
-10.966115 2.636095 -5.070523 12.365876 -0.235909 1.993296 -0.003495 0.002079 -134247.000000 1 0 0
-13.685515 4.080495 1.576177 14.367606 -0.289769 1.460872 -0.008059 -0.000171 -172585.000000 1 0 0
-17.421515 10.654995 3.402677 20.703051 -0.548905 1.405691 0.017438 0.001183 -420792.000000 1 0 0
-14.345715 3.004895 -1.063323 14.695564 -0.206478 1.643216 -0.005006 0.000047 1606070.000000 1 0 0
-14.283015 5.173995 5.225077 16.064750 -0.347544 1.239519 -0.005532 -0.005502 457588.000000 1 0 0
-17.316915 7.697595 3.175277 19.214862 -0.418282 1.404784 0.000143 0.000367 -949313.000000 1 0 0
-14.951315 12.813795 -3.151423 19.941581 -0.708564 1.729494 0.030382 -0.001233 -697677.000000 1 0 0
-8.590815 12.528195 -9.430323 17.879843 -0.969720 2.126366 0.002302 -0.013523 937244.000000 1 0 0
-12.484715 8.987895 -9.682423 18.176900 -0.623965 2.132557 -0.009056 0.006734 -776363.000000 1 0 0
-13.893515 -3.454605 -12.149823 18.777174 0.243706 2.274509 -0.001497 0.005523 -2315680.000000 1 0 0
-14.818315 5.955095 -7.561723 17.669898 -0.382121 2.013013 0.003741 0.009957 -911288.000000 1 0 0
-10.880815 13.748995 -8.141623 19.331659 -0.901328 2.005515 0.008060 -0.005993 435482.000000 1 0 0
-10.853015 13.548195 4.012677 17.816933 -0.895405 1.343631 0.005012 -0.005764 431904.000000 1 0 0
-15.128715 3.317695 3.143077 15.803925 -0.215881 1.370582 -0.008328 -0.002921 -762837.000000 1 0 0
-11.115515 9.514295 -12.359223 19.152725 -0.707937 2.272210 -0.014708 0.002741 -904125.000000 1 0 0
-13.004515 11.759795 -8.838323 19.634820 -0.735178 2.037713 -0.005130 -0.004853 -1034820.000000 1 0 0
-8.788015 14.652495 -3.306423 17.402795 -1.030552 1.761952 0.008407 -0.006435 1284530.000000 1 0 0
-16.578315 8.407995 -3.942323 19.002022 -0.469366 1.779783 0.018143 0.004468 -2171660.000000 1 0 0
-16.867615 6.922295 0.453177 18.238421 -0.389431 1.545946 0.007294 0.006631 826849.000000 1 0 0
-10.638415 2.827795 -12.423223 16.598457 -0.259802 2.416528 -0.004959 0.003486 1386040.000000 1 0 0
-16.899315 1.041895 2.461377 17.109377 -0.061575 1.426434 -0.006265 -0.006706 336410.000000 1 0 0
-12.699115 1.173995 -6.854823 14.478757 -0.092185 2.063988 -0.000399 0.000566 1558180.000000 1 0 0
-12.361515 9.179495 -5.284523 16.278709 -0.638740 1.901415 -0.000193 0.003635 -2599630.000000 1 0 0
-9.490415 13.898395 1.396677 16.887394 -0.971679 1.487996 0.011358 -0.005273 142563.000000 1 0 0
-12.318515 11.127695 2.926877 16.856394 -0.734652 1.396276 0.004245 -0.004652 1121520.000000 1 0 0
-12.540315 6.940495 -3.536723 14.762737 -0.505492 1.812720 -0.002215 0.003390 -597596.000000 1 0 0
-15.778315 3.715395 -9.112323 18.595532 -0.231262 2.082918 -0.006628 0.002428 100731.000000 1 0 0
-15.058615 6.035495 -4.597923 16.862087 -0.381196 1.846972 0.011864 0.002856 513971.000000 1 0 0
-17.604815 5.421495 7.617277 19.933516 -0.298739 1.178692 -0.003697 -0.006122 -992916.000000 1 0 0
-15.648415 10.237295 -1.817723 18.787742 -0.579327 1.667698 0.020826 -0.000806 -1838640.000000 1 0 0
-8.865315 9.970095 -8.160723 15.639502 -0.843985 2.119758 0.001445 -0.006920 -36732.500000 1 0 0
-16.976615 4.454495 -1.215523 17.593337 -0.256605 1.639941 0.005311 0.001057 -135126.000000 1 0 0
-10.225215 5.445095 -4.536023 12.441045 -0.489321 1.944001 -0.004419 0.001359 280162.000000 1 0 0
-17.894315 2.830895 6.254977 19.166252 -0.156900 1.238353 -0.003023 -0.007466 -1025240.000000 1 0 0
-10.385715 10.171195 -5.588823 15.574057 -0.774963 1.937837 -0.001833 -0.000872 -7096.080000 1 0 0
-15.404815 0.511895 -5.776323 16.460142 -0.033217 1.929358 -0.005087 0.004477 1715740.000000 1 0 0
-16.552715 -4.131405 -8.683923 19.143443 0.244593 2.041624 -0.002250 -0.001547 -1228200.000000 1 0 0
-9.971115 9.722195 -0.983123 13.961044 -0.772759 1.641274 0.000931 0.000782 2077890.000000 1 0 0
-17.438015 -2.892105 -3.034623 17.934815 0.164355 1.740817 -0.007131 0.003601 44784.400000 1 0 0
-12.195715 5.138895 -11.514623 17.542242 -0.398791 2.286825 -0.002464 0.007509 771352.000000 1 0 0
-16.159815 7.248095 5.917977 18.673429 -0.421627 1.248316 -0.004961 -0.001423 -1305040.000000 1 0 0
-12.188615 6.190395 -8.715723 16.212562 -0.469934 2.138374 -0.002628 0.004802 1386000.000000 1 0 0
-14.427015 8.473895 0.120477 16.732011 -0.531076 1.563596 0.010061 0.000415 1212200.000000 1 0 0
-14.874615 12.017795 4.077977 19.552787 -0.679564 1.360691 0.004501 -0.005022 790691.000000 1 0 0
-17.296915 4.263095 -4.029323 18.264520 -0.241649 1.793235 0.012575 0.001122 -994820.000000 1 0 0
-13.780215 13.701595 -0.562923 19.440806 -0.782537 1.599756 0.024602 -0.002819 -273170.000000 1 0 0
-10.206715 6.885595 -13.116223 17.989546 -0.593485 2.387806 -0.012422 0.004950 2671570.000000 1 0 0
-15.947115 -1.225205 -8.146923 17.949484 0.076679 2.041912 -0.003137 0.000224 -835084.000000 1 0 0
-11.521715 11.952695 0.140077 16.602303 -0.803756 1.562359 0.010603 -0.003486 821085.000000 1 0 0
-11.902815 7.412795 -0.830023 14.046903 -0.556999 1.629920 -0.001907 0.004472 798541.000000 1 0 0
-11.589915 0.177695 -11.551123 16.364173 -0.015331 2.354459 -0.005461 -0.003545 -116029.000000 1 0 0
-19.097815 -1.093105 -4.596223 19.673502 0.057175 1.806601 -0.013203 0.007943 -2768060.000000 1 0 0
-18.061515 1.600295 -4.917323 18.787212 -0.088372 1.835619 0.004494 0.005190 -764899.000000 1 0 0
-13.417615 -0.256705 -9.348923 16.355447 0.019130 2.179262 -0.000641 -0.003179 481174.000000 1 0 0
-6.180615 11.226395 -13.090423 18.319147 -1.067536 2.366814 -0.013640 -0.001794 -2565160.000000 1 0 0
16.336385 5.774395 7.090977 18.721727 0.339761 1.182344 0.014181 0.000556 619411.000000 1 0 0
14.823585 10.169095 -5.607323 18.830593 0.601273 1.873160 0.021186 0.002932 -842429.000000 1 0 0
2.430885 16.915495 4.448277 17.658719 1.428066 1.316151 0.006503 -0.006880 1033330.000000 1 0 0
-3.840715 18.354895 -5.715523 19.604093 -1.364525 1.866640 0.001404 0.003739 -62063.100000 1 0 0
5.509885 14.585595 5.714577 16.605867 1.209606 1.219484 -0.002681 0.000095 -327586.000000 1 0 0
9.859085 5.958395 15.061677 18.962018 0.543616 0.652929 0.012612 0.002478 -1308110.000000 1 0 0
4.697885 12.823795 -1.133523 13.704186 1.219638 1.653605 -0.007872 -0.000882 202410.000000 1 0 0
3.802785 13.475595 13.267977 19.289688 1.295751 0.812305 0.003568 0.000966 -911762.000000 1 0 0
-0.658715 12.355795 9.242077 15.443949 -1.517534 0.929260 0.003801 0.002688 105105.000000 1 0 0
-7.703215 13.807795 8.475877 17.939767 -1.061917 1.078713 0.001541 -0.011911 1243530.000000 1 0 0
11.424385 12.788895 -4.170223 17.648319 0.841692 1.809348 0.026468 0.000795 -315493.000000 1 0 0
-5.668315 16.167695 1.024777 17.163168 -1.233591 1.511053 0.000535 -0.001350 439077.000000 1 0 0
3.205785 10.595495 6.858677 13.022405 1.276992 1.016103 -0.004085 0.008254 2108630.000000 1 0 0
-1.072815 15.581295 2.649877 15.841387 -1.502052 1.402731 0.002393 -0.001884 -1605960.000000 1 0 0
10.011985 8.758895 9.472177 16.330347 0.718740 0.952024 -0.001802 0.003362 1453630.000000 1 0 0
7.202785 12.245195 6.186477 15.495077 1.039089 1.160093 -0.006275 0.001586 1122690.000000 1 0 0
11.742685 14.018295 -1.574823 18.354381 0.873505 1.656703 -0.000049 0.003438 -904074.000000 1 0 0
9.527385 15.960795 -1.244323 18.629718 1.032642 1.637638 -0.007015 0.002565 1540570.000000 1 0 0
10.146185 13.664795 2.935677 17.271071 0.932109 1.399990 0.003334 -0.002362 1365830.000000 1 0 0
-5.932015 14.484595 6.401877 16.910835 -1.182093 1.182549 -0.004968 -0.007002 -80996.200000 1 0 0
-0.913215 18.308195 -6.064123 19.307966 -1.520957 1.890277 0.006666 0.005825 2022430.000000 1 0 0
-3.471615 15.634895 5.500577 16.933943 -1.352298 1.239969 -0.002921 -0.001235 2806290.000000 1 0 0
7.195785 12.238895 10.660677 17.754434 1.039289 0.926731 -0.008576 0.005616 4753530.000000 1 0 0
1.561385 14.628895 6.377877 16.034956 1.464466 1.161735 0.001203 -0.000652 1479800.000000 1 0 0
17.486985 7.805095 -1.453123 19.204836 0.419804 1.646533 -0.014657 0.016269 378397.000000 1 0 0
2.105685 16.296495 -3.223823 16.745229 1.442297 1.764528 -0.008475 -0.002102 1261180.000000 1 0 0
6.706485 11.164695 0.543177 13.035429 1.029872 1.529115 0.000186 0.000902 1829620.000000 1 0 0
12.676685 9.213695 3.143677 15.983530 0.628502 1.372823 0.004912 0.001530 -1596690.000000 1 0 0
6.010985 14.273495 -3.476723 15.873003 1.172209 1.791620 -0.013424 0.002590 1678530.000000 1 0 0
3.264785 16.451095 1.706477 16.858512 1.374888 1.469399 0.000895 -0.011475 -1365110.000000 1 0 0
2.910085 18.980895 -2.454923 19.358968 1.418664 1.697949 0.008993 -0.007453 -312454.000000 1 0 0
4.064785 11.836295 10.778577 16.516600 1.239998 0.859798 -0.001839 -0.001181 1250150.000000 1 0 0
8.036885 11.525195 3.407977 14.458076 0.961863 1.332843 -0.005271 0.003222 1281170.000000 1 0 0
0.867485 12.490395 0.252177 12.523023 1.501456 1.550658 0.000853 -0.000762 -1293270.000000 1 0 0
12.028585 9.871695 -4.579223 16.220558 0.687228 1.856997 0.018649 0.000179 -384327.000000 1 0 0
-1.158115 16.377795 10.081577 19.266852 -1.500201 1.020124 0.002280 -0.002395 545365.000000 1 0 0
7.939885 14.810395 -8.071823 18.642529 1.078686 2.018591 0.017959 -0.005816 1162670.000000 1 0 0
14.554585 7.630895 -1.427123 16.495550 0.482894 1.657420 0.002533 0.004213 1403450.000000 1 0 0
12.472685 8.245395 5.944777 16.090208 0.584122 1.192363 -0.001358 0.004577 178821.000000 1 0 0
-3.010215 14.143695 10.312877 17.761220 -1.361094 0.951282 -0.002139 -0.007910 1829850.000000 1 0 0
-4.559015 17.184095 -3.016823 18.032720 -1.311466 1.738884 0.008006 -0.003696 -538919.000000 1 0 0
-7.038115 16.433695 -1.595823 17.948483 -1.166156 1.659825 0.012557 -0.002082 -184873.000000 1 0 0
8.334485 11.225295 -1.898923 14.109458 0.932130 1.705791 0.002696 -0.000021 -1415340.000000 1 0 0
8.574085 12.940495 -4.208523 16.083626 0.985630 1.835543 0.011255 0.002961 2243480.000000 1 0 0
2.436685 14.919895 -7.219723 16.753063 1.408908 2.016341 -0.020594 0.002546 -656353.000000 1 0 0
11.396085 11.324195 9.601477 18.716210 0.782234 1.032116 0.006146 0.001228 -705746.000000 1 0 0
8.709085 15.721595 1.477877 18.033326 1.064920 1.488752 -0.005436 -0.000935 679416.000000 1 0 0
6.094285 9.898795 7.767077 13.980484 1.018942 0.981753 -0.004941 0.009255 4996930.000000 1 0 0
14.451085 11.369895 2.467677 18.552569 0.666631 1.437391 0.008234 0.002515 1944130.000000 1 0 0
12.093885 12.623295 1.080177 17.515034 0.806814 1.509086 0.004921 0.001057 2685710.000000 1 0 0
5.395785 15.860095 8.315177 18.702922 1.242868 1.110077 0.007406 0.001878 -968513.000000 1 0 0
11.532585 15.109095 5.008577 19.656325 0.918845 1.313148 0.011774 -0.003124 106529.000000 1 0 0
6.096685 16.929195 1.932977 18.097061 1.225127 1.463781 -0.011660 -0.008057 295477.000000 1 0 0
-0.616815 16.240695 -4.071223 16.754567 -1.532835 1.816245 -0.001851 0.001402 293827.000000 1 0 0
16.026285 6.418495 2.545477 17.450454 0.380936 1.424405 -0.010589 0.002133 1649660.000000 1 0 0
7.580885 16.702195 -3.215423 18.621817 1.144716 1.744336 -0.011686 0.000460 -2341560.000000 1 0 0
14.877585 8.233695 7.417977 18.551621 0.505472 1.159437 0.014116 0.003850 368216.000000 1 0 0
2.166285 12.951295 8.758777 15.784328 1.405067 0.982550 0.001932 0.002381 2434870.000000 1 0 0
15.985185 7.556095 -6.007223 18.673710 0.441565 1.898315 0.006115 0.007445 -1643920.000000 1 0 0
-2.817415 16.915695 0.764577 17.165755 -1.405755 1.526241 -0.004851 -0.002004 2853480.000000 1 0 0
-2.909115 18.479095 4.641377 19.273876 -1.414650 1.327594 -0.004837 -0.001307 -145156.000000 1 0 0
-0.648915 18.968195 0.902077 19.000718 -1.536599 1.523303 0.008643 -0.007889 262228.000000 1 0 0
6.760185 16.854295 -6.163723 19.177040 1.189346 1.898016 -0.004880 0.000864 1772670.000000 1 0 0
10.957785 10.054095 0.832677 14.894671 0.742416 1.514863 0.005933 0.000788 -1420410.000000 1 0 0
9.044285 8.659795 14.301077 19.008207 0.763684 0.719154 0.002339 -0.000018 1007730.000000 1 0 0
6.215885 12.368195 -8.350523 16.166036 1.105095 2.113610 0.002677 -0.008703 1643530.000000 1 0 0
6.326285 8.948295 13.319077 17.247947 0.955400 0.688481 -0.004876 -0.003128 1151020.000000 1 0 0
16.619185 9.459395 2.869177 19.336743 0.517453 1.421867 -0.002754 0.005339 -1033140.000000 1 0 0
2.709685 14.765495 -0.638923 15.025660 1.389301 1.613331 -0.005677 -0.002283 1826870.000000 1 0 0
9.159785 12.820095 8.266877 17.793194 0.950414 1.087603 0.004375 -0.001431 740621.000000 1 0 0
7.340985 9.330195 10.572577 15.897232 0.904157 0.843225 -0.003342 0.002431 1035080.000000 1 0 0
4.236585 15.888795 -5.285723 17.272560 1.310219 1.881804 -0.013980 0.001666 -277269.000000 1 0 0
0.111685 16.447695 -8.124223 18.345085 1.564006 2.029577 -0.014736 0.010638 -651692.000000 1 0 0
-2.348515 15.708495 -1.921823 15.998930 -1.422389 1.691209 -0.003781 0.002911 659790.000000 1 0 0
13.286185 10.461495 7.523777 18.508723 0.667008 1.152177 0.009637 0.000659 1959970.000000 1 0 0
-0.979815 15.907795 7.180977 17.480973 -1.509281 1.147478 0.004200 -0.000367 1765830.000000 1 0 0
13.242185 13.289995 6.531577 19.865571 0.787200 1.235776 0.012867 -0.008752 420494.000000 1 0 0
5.398885 17.430395 4.680277 18.838037 1.270428 1.319718 -0.001602 -0.007597 560202.000000 1 0 0
10.818185 9.515895 -1.847023 14.525732 0.721441 1.698297 0.009999 0.001624 1060920.000000 1 0 0
3.252085 12.776495 4.859177 14.050854 1.321553 1.217675 -0.001544 0.004340 2091120.000000 1 0 0
-0.169315 18.001395 3.720377 18.382603 -1.561391 1.367003 0.007783 -0.004335 2574280.000000 1 0 0
-7.600215 15.997495 -5.684823 18.601084 -1.127276 1.881384 0.017787 -0.006058 -764031.000000 1 0 0
-12.383615 -9.023205 8.276277 17.414618 0.629690 1.075549 -0.001645 -0.002844 -1054000.000000 1 0 0
-13.143815 -11.633105 6.838177 18.837454 0.724501 1.199301 -0.001262 0.000122 -987388.000000 1 0 0
-6.388915 -12.265305 12.354477 18.544245 1.090574 0.841673 -0.005100 -0.003442 -602639.000000 1 0 0
-1.721015 -10.690805 14.401777 18.018501 1.411185 0.644705 -0.002839 -0.000237 1652480.000000 1 0 0
-8.692315 2.781995 10.975877 14.274653 -0.309750 0.693667 -0.005581 -0.005277 1008430.000000 1 0 0
0.614485 10.020495 15.277577 18.280927 1.509550 0.581370 -0.001718 -0.001060 -1369880.000000 1 0 0
1.166585 -6.861005 16.617477 18.015961 -1.402376 0.396611 0.006698 -0.009295 3015830.000000 1 0 0
6.168385 2.121495 17.801377 18.958870 0.331257 0.351239 0.013277 0.000314 2133350.000000 1 0 0
-4.959315 -3.008405 17.578077 18.510378 0.545271 0.318732 0.005095 -0.007759 1401790.000000 1 0 0
-4.302515 7.997095 12.966577 15.830265 -1.077205 0.610955 -0.010653 -0.004492 -554216.000000 1 0 0
0.297985 -4.961505 18.577377 19.230815 -1.510809 0.261430 0.013896 -0.012273 1940630.000000 1 0 0
-11.515115 2.083995 11.247677 16.231178 -0.179041 0.805200 -0.002633 -0.007294 620143.000000 1 0 0
-3.249515 -6.205805 14.288677 15.913442 1.088428 0.455821 0.007585 -0.009611 333474.000000 1 0 0
-7.321515 -2.279705 14.549177 16.446282 0.301856 0.485057 0.004220 -0.002773 894941.000000 1 0 0
-6.009115 -1.153205 10.598777 12.238195 0.189604 0.523568 0.000585 -0.005217 750794.000000 1 0 0
-3.868315 2.442395 11.172777 12.073115 -0.563177 0.388637 -0.004913 -0.000785 994668.000000 1 0 0
-6.382615 6.166995 13.634677 16.268805 -0.768218 0.577029 -0.013289 -0.007331 -172339.000000 1 0 0
-8.852915 5.259395 12.593777 16.267715 -0.536060 0.685413 -0.016687 -0.009531 290572.000000 1 0 0
-12.025615 -2.103605 15.881477 20.031522 0.173175 0.655367 0.001196 0.004542 1479950.000000 1 0 0
-3.409315 -7.717505 16.916077 18.903359 1.154813 0.462653 0.010526 -0.009427 -2249370.000000 1 0 0
-0.347215 -5.572605 14.325977 15.375568 1.508569 0.371631 0.005260 -0.006400 2044370.000000 1 0 0
-14.043615 -2.159105 13.749377 19.771956 0.152548 0.801823 -0.003893 0.005538 -976935.000000 1 0 0
-6.403715 1.425295 12.247477 13.893874 -0.219003 0.491763 -0.006425 -0.003351 2931640.000000 1 0 0
2.293285 -2.376805 14.489677 14.861329 -0.803280 0.224111 0.003940 -0.000875 -140065.000000 1 0 0
-12.467615 4.046895 9.208777 16.019375 -0.313863 0.958372 -0.010854 -0.006863 -1358250.000000 1 0 0
-8.972615 -3.151805 12.570377 15.762489 0.337805 0.647678 -0.000060 -0.000030 1253390.000000 1 0 0
-6.961615 -7.159605 15.177977 18.168517 0.799418 0.581936 0.012267 -0.008247 -1789110.000000 1 0 0
-3.213115 5.884095 19.413577 20.538589 -1.070977 0.332515 0.003526 -0.008076 -137470.000000 1 0 0
0.785285 5.264495 16.188377 17.040984 1.422722 0.317665 0.002001 0.001222 742263.000000 1 0 0
3.435585 1.334195 16.835377 17.234072 0.370420 0.215517 0.005761 0.000282 2481090.000000 1 0 0
-11.664815 11.392795 7.940877 18.136186 -0.773601 1.117594 -0.006710 -0.010919 -754376.000000 1 0 0
0.748185 -9.557205 15.476977 18.205405 -1.492671 0.554562 -0.007807 -0.000233 1349130.000000 1 0 0
-2.329615 -3.691105 18.907477 19.404743 1.007792 0.226875 0.011435 -0.013363 2654700.000000 1 0 0
-12.652415 2.412795 13.909077 18.956994 -0.188436 0.747019 -0.005619 -0.011226 73117.600000 1 0 0
-5.327615 -0.624405 15.805777 16.691194 0.116669 0.327178 0.002855 0.001585 1736780.000000 1 0 0
-4.384715 -6.061805 11.574677 13.782030 0.944580 0.573811 0.002507 -0.007518 -1481990.000000 1 0 0
2.461785 1.634795 13.941777 14.251529 0.586202 0.208872 0.000633 0.000874 324529.000000 1 0 0
0.184785 3.180295 14.273077 14.624266 1.512759 0.219594 0.002804 -0.000096 -479896.000000 1 0 0
-12.755815 6.964995 12.334277 19.061909 -0.499786 0.867069 -0.015295 -0.009128 -17450.100000 1 0 0
0.929185 1.260295 18.319277 18.386072 0.935489 0.085266 0.010300 0.001658 153822.000000 1 0 0
-1.918815 6.399295 12.491677 14.165974 -1.279479 0.491113 -0.007901 0.000989 1825760.000000 1 0 0
-13.354115 -2.661005 10.977377 17.490459 0.196689 0.892303 -0.003104 0.000637 -749087.000000 1 0 0
-2.478715 3.663995 13.558277 14.261689 -0.976013 0.315381 -0.003589 -0.000108 -1246020.000000 1 0 0
3.634185 5.981895 16.332077 17.768712 1.024858 0.404884 -0.000968 -0.000076 -860912.000000 1 0 0
-3.712215 12.222295 12.417477 17.814566 -1.275926 0.799534 0.001753 -0.006906 252891.000000 1 0 0
3.826885 -1.573805 17.008277 17.504382 -0.390167 0.238649 0.018791 -0.005611 -834793.000000 1 0 0
-15.686515 0.512395 9.357377 18.272652 -0.032653 1.033171 -0.000253 -0.000988 606929.000000 1 0 0
-4.563115 4.592595 15.308477 16.621174 -0.788618 0.400099 -0.007527 -0.001951 738659.000000 1 0 0
-7.903215 -8.145005 10.488477 15.453481 0.800463 0.824788 0.000891 -0.004270 3723820.000000 1 0 0
-2.544315 -0.587605 14.678177 14.908645 0.226969 0.176061 0.003218 0.001600 1100270.000000 1 0 0
-1.785315 0.842895 17.179277 17.292350 -0.441102 0.114421 -0.001377 0.000929 1700210.000000 1 0 0
-0.656415 -2.651805 14.274977 14.534026 1.328139 0.189086 0.002500 -0.003743 666392.000000 1 0 0
5.352285 -8.337005 16.364677 19.129957 -1.000072 0.544382 0.009788 -0.006833 1794670.000000 1 0 0
-4.413715 9.789195 10.653677 15.126469 -1.147214 0.789350 -0.008892 -0.006784 -2121870.000000 1 0 0
-6.043615 2.121595 15.206077 16.500037 -0.337608 0.398669 -0.004674 -0.001902 873942.000000 1 0 0
-4.912015 6.829395 17.319177 19.254153 -0.947270 0.452165 -0.005956 0.006248 600336.000000 1 0 0
-4.016115 9.165995 15.707777 18.624685 -1.157837 0.567244 -0.010029 0.005909 279212.000000 1 0 0
-4.398015 -10.147805 18.259477 21.347810 1.161836 0.544604 0.010492 -0.000298 -560609.000000 1 0 0
-6.674215 -4.148605 11.068177 13.574263 0.556141 0.617412 0.003861 -0.005398 899932.000000 1 0 0
-2.358715 -0.852505 19.595877 19.755726 0.346819 0.127296 0.004334 -0.002936 32457.500000 1 0 0
-5.450315 -4.529005 15.118477 16.696891 0.693337 0.438319 0.006511 -0.008528 652537.000000 1 0 0
-12.775115 0.013795 9.808277 16.106088 -0.001080 0.916023 -0.008993 -0.001776 928636.000000 1 0 0
-14.030915 8.784695 10.396177 19.547837 -0.559387 1.010033 -0.024032 -0.008224 -788059.000000 1 0 0
-8.256915 10.382995 12.890477 18.497233 -0.898968 0.799749 -0.017892 -0.008961 -155223.000000 1 0 0
-10.299315 7.105295 10.883077 16.583199 -0.603902 0.854930 -0.013680 -0.006727 -1907830.000000 1 0 0
-9.739915 -6.556705 14.840177 18.923192 0.592497 0.669339 0.010822 0.001996 -786407.000000 1 0 0
-0.743315 -13.550005 14.411077 19.794804 1.515994 0.755362 -0.012254 0.002744 1631780.000000 1 0 0
4.030485 -5.743405 16.819277 18.224148 -0.958891 0.395221 0.015458 -0.012115 1055250.000000 1 0 0
-7.225415 9.212895 10.382277 15.648506 -0.905720 0.845352 -0.011603 -0.009220 348096.000000 1 0 0
-10.207115 -6.677405 11.800877 16.971554 0.579316 0.801914 0.001275 -0.002544 2222450.000000 1 0 0
-10.851915 -3.951305 10.735077 15.767649 0.349190 0.821902 -0.003136 -0.000353 -75520.500000 1 0 0
-10.018315 -10.153505 9.850477 17.334711 0.792100 0.966417 0.001338 -0.003080 980327.000000 1 0 0
-9.696915 -3.720605 15.318977 18.507947 0.366367 0.595805 0.008723 -0.000651 1845670.000000 1 0 0
5.723085 -3.377505 15.954577 17.283222 -0.533149 0.394666 0.010435 -0.006848 -477234.000000 1 0 0
-10.963515 0.600495 15.473277 18.973180 -0.054717 0.617145 -0.001793 -0.004735 2783.320000 1 0 0
-3.142115 3.075695 18.792577 19.300097 -0.774716 0.229836 0.000542 0.000244 24066.200000 1 0 0
0.621685 7.273395 14.002877 15.791432 1.485530 0.480554 -0.001376 -0.002184 1186820.000000 1 0 0
-13.018215 -7.399305 12.269177 19.358624 0.516846 0.884362 -0.009121 0.003963 -737718.000000 1 0 0
-1.436315 -1.192105 12.091677 12.234900 0.692753 0.153160 -0.001476 -0.002811 962776.000000 1 0 0
2.132085 -5.008505 13.127177 14.211041 -1.168339 0.393087 -0.000725 -0.006014 820538.000000 1 0 0
-14.536715 -4.085105 8.695477 17.424566 0.273954 1.048311 -0.009299 -0.006202 -1278660.000000 1 0 0
8.161285 0.767495 16.076177 18.045473 0.093765 0.471539 0.008602 0.000839 208711.000000 1 0 0
-1.142515 11.196095 13.438777 17.528794 -1.469102 0.697160 -0.002317 -0.001709 1148790.000000 1 0 0
2.665485 -12.253805 -13.810223 18.654297 -1.356610 2.404348 -0.007326 0.009732 -1136900.000000 1 0 0
0.658485 -10.674605 -13.987623 17.607793 -1.509187 2.488815 -0.012466 0.006484 -984388.000000 1 0 0
3.146685 -14.383105 -12.473323 19.296609 -1.355413 2.273653 -0.007020 0.012861 -2397190.000000 1 0 0
-5.063715 -10.238705 -16.122223 19.758501 1.111505 2.525191 -0.019693 0.003396 -623834.000000 1 0 0
-1.126215 -12.142105 -15.087523 19.399289 1.478308 2.461852 -0.014716 0.005550 -249229.000000 1 0 0
5.580385 -14.921905 -12.264323 20.105162 -1.212927 2.226868 0.003106 0.014254 -769759.000000 1 0 0
1.882685 -11.913505 -16.122023 20.134441 -1.414063 2.499290 -0.007121 0.004367 -565753.000000 1 0 0
1.089785 -14.255905 -13.949323 19.975036 -1.494500 2.343869 -0.010678 0.012085 -1107220.000000 1 0 0
-1.206515 -10.550205 -16.025723 19.224627 1.456932 2.556397 -0.008173 -0.003186 -449161.000000 1 0 0
-6.301215 -5.717305 -15.254923 17.467271 0.736852 2.632820 -0.004691 0.009748 295605.000000 1 0 0
-6.260315 -7.831205 -16.714023 19.490456 0.896417 2.601282 -0.019743 0.015724 82372.300000 1 0 0
4.806085 -12.534005 -11.534223 17.698532 -1.204644 2.280627 -0.005707 0.010206 -891575.000000 1 0 0
-1.812715 -15.385205 -13.154423 20.323122 1.453515 2.274786 -0.005877 0.001693 -352357.000000 1 0 0
16.094385 -7.293905 -8.798823 19.739543 -0.425508 2.032804 0.018169 0.000484 439300.000000 1 0 0
19.044085 -3.513105 -4.145923 19.804236 -0.182421 1.781702 -0.007160 -0.005157 231533.000000 1 0 0
14.905885 -11.497605 -8.973223 20.854233 -0.657024 2.015603 0.014488 -0.008077 84551.000000 1 0 0
17.804985 -3.450105 -6.495823 19.264382 -0.191400 1.914730 0.023180 -0.000904 594776.000000 1 0 0
9.505885 -9.024805 -15.504023 20.302307 -0.759443 2.439757 0.021024 -0.009694 -73249.700000 1 0 0
1.112385 1.816295 -15.494823 15.640520 1.021275 3.004992 0.005996 -0.004876 99913.400000 1 0 0
4.785785 -4.316505 -14.051123 15.458655 -0.733888 2.711552 -0.002545 -0.002323 -454846.000000 1 0 0
13.193485 -5.587205 -8.878123 16.855443 -0.400584 2.125535 0.016053 0.002030 -1447590.000000 1 0 0
2.825585 0.968995 -12.248123 12.607117 0.330368 2.902379 0.001529 -0.003210 -4802670.000000 1 0 0
0.521985 6.257895 -13.123923 14.548920 1.487577 2.695303 0.011566 -0.003729 -343121.000000 1 0 0
2.958385 -1.054505 -16.864223 17.154184 -0.342406 2.957467 0.002643 -0.005068 -147019.000000 1 0 0
13.039485 4.299595 -11.389823 17.839360 0.318510 2.263300 0.009537 -0.000771 538408.000000 1 0 0
-4.075815 9.464295 -16.469423 19.427482 -1.164148 2.582503 -0.009864 0.004164 713618.000000 1 0 0
-0.456815 -5.134805 -17.640223 18.378040 1.482065 2.857275 0.002227 -0.010009 183780.000000 1 0 0
-0.698515 -8.441205 -17.609323 19.540474 1.488234 2.693262 -0.006239 -0.001633 406841.000000 1 0 0
5.408285 -10.108305 -12.204023 16.744120 -1.079516 2.387443 0.000381 0.000542 421178.000000 1 0 0
1.404485 -9.820405 -17.998623 20.551481 -1.428743 2.637850 -0.005617 -0.005641 -544594.000000 1 0 0
10.393785 9.044995 -14.934323 20.319368 0.716123 2.396433 0.015227 0.001076 120092.000000 1 0 0
10.872685 -3.709605 -12.987023 17.338951 -0.328801 2.417361 0.007121 -0.006695 725994.000000 1 0 0
4.744985 7.563595 -12.381223 15.264912 1.010512 2.516810 -0.009814 0.005681 453595.000000 1 0 0
9.457485 -5.877505 -12.622523 16.832028 -0.556054 2.418724 0.007614 -0.008765 -1354750.000000 1 0 0
-3.511115 0.339595 -15.870823 16.258114 -0.096420 2.922885 0.006035 -0.002256 -2334250.000000 1 0 0
-0.876215 10.689495 -12.850223 16.738019 -1.489009 2.446082 -0.006080 -0.001320 -2182950.000000 1 0 0
6.575385 -5.461005 -12.499523 15.142534 -0.693077 2.541809 -0.001557 -0.002837 -408811.000000 1 0 0
18.018585 -5.576705 -8.542523 20.706128 -0.300147 1.996059 0.016190 -0.001073 582234.000000 1 0 0
13.012685 4.964095 -13.851323 19.642590 0.364441 2.353456 0.012893 -0.008954 319643.000000 1 0 0
13.960785 0.882295 -11.630823 18.192251 0.063114 2.264421 -0.002761 0.000250 -494241.000000 1 0 0
14.985685 6.100895 -11.306323 19.738911 0.386625 2.180706 0.011279 -0.001897 129949.000000 1 0 0
8.107085 1.583295 -11.825323 14.424629 0.192870 2.531860 -0.002310 0.006362 572867.000000 1 0 0
9.849785 1.319195 -9.062423 13.449388 0.133139 2.310158 0.001511 0.002672 -47045.400000 1 0 0
-0.171515 -5.799905 -13.011923 14.247051 1.541233 2.722126 -0.002296 -0.002633 200691.000000 1 0 0
10.553185 -5.692605 -9.066923 15.032782 -0.494685 2.218232 0.011733 -0.004649 -191485.000000 1 0 0
10.169785 8.612795 -11.275223 17.456673 0.702692 2.272995 0.025853 -0.003625 861194.000000 1 0 0
7.848585 8.391195 -14.681123 18.642634 0.818798 2.477543 0.014532 0.003858 789708.000000 1 0 0
8.496585 10.710095 -10.774723 17.406687 0.900139 2.238264 0.024616 -0.009255 -1992220.000000 1 0 0
6.656785 2.012695 -18.027623 19.322498 0.293614 2.773419 -0.000958 0.002889 -2387260.000000 1 0 0
11.972885 2.603795 -13.009923 17.871425 0.214140 2.386158 -0.000749 0.004979 -892824.000000 1 0 0
2.469985 -0.763605 -19.309323 19.481629 -0.299833 3.008494 0.009189 -0.012463 -79644.100000 1 0 0
10.051585 -2.142805 -15.622623 18.700062 -0.210037 2.559714 -0.007537 -0.000866 -140798.000000 1 0 0
8.159985 -0.775905 -13.118523 15.468776 -0.094802 2.583119 -0.001694 0.000570 401872.000000 1 0 0
0.336085 4.263295 -14.796423 15.402038 1.492127 2.860236 0.008810 -0.000998 170596.000000 1 0 0
3.788585 -7.623705 -15.741123 17.895731 -1.109593 2.645821 -0.000745 -0.007072 -798565.000000 1 0 0
11.132585 -5.791505 -14.540523 19.206842 -0.479700 2.429581 0.003701 -0.005796 -1006920.000000 1 0 0
-6.125715 4.313395 -16.703623 18.306851 -0.613503 2.719967 -0.004588 0.003886 108790.000000 1 0 0
11.282285 7.852295 -9.102523 16.486492 0.608026 2.155701 0.022017 -0.002139 -1972290.000000 1 0 0
9.295985 6.419295 -13.776123 17.815843 0.604352 2.454749 0.016606 0.010065 -625224.000000 1 0 0
11.955085 0.636295 -10.258423 15.765918 0.053174 2.279264 0.003564 0.002342 -2049330.000000 1 0 0
5.366985 -7.219805 -13.819923 16.490008 -0.931552 2.564548 -0.002304 -0.004257 -563744.000000 1 0 0
8.574685 -10.189505 -10.754323 17.117438 -0.871245 2.250120 0.013637 0.000948 150073.000000 1 0 0
10.007185 4.816695 -15.987823 19.466761 0.448595 2.534462 0.019766 0.002187 170551.000000 1 0 0
9.825785 -0.355505 -11.142223 14.860066 -0.036165 2.418571 0.003926 0.002858 -167434.000000 1 0 0
-1.863115 5.526495 -14.072723 15.233348 -1.245638 2.748713 0.003645 -0.001085 125017.000000 1 0 0
1.194585 -0.795805 -14.927823 14.996674 -0.587663 3.045732 0.006429 -0.007704 -117317.000000 1 0 0
11.375085 -10.341305 -14.292023 20.990404 -0.737830 2.319765 0.016192 -0.003392 -107365.000000 1 0 0
9.181185 -7.690105 -10.785623 16.117119 -0.697247 2.303932 0.015797 -0.004797 -197843.000000 1 0 0
13.899985 -0.932905 -9.745023 17.001334 -0.067015 2.181192 -0.004451 0.004298 595471.000000 1 0 0
3.841985 11.211795 -12.269923 17.059197 1.240663 2.373527 -0.008969 -0.004286 -647092.000000 1 0 0
-1.639515 2.677995 -17.057823 17.344423 -1.021442 2.959550 -0.001593 -0.002422 371983.000000 1 0 0
5.972485 -0.393805 -17.711323 18.695364 -0.065841 2.815697 0.001605 0.001064 208609.000000 1 0 0
6.143685 -6.448505 -16.139723 18.434173 -0.809601 2.637334 0.000200 -0.003983 276075.000000 1 0 0
-1.988815 -5.215405 -19.763523 20.536618 1.206483 2.866335 0.003509 -0.016246 844094.000000 1 0 0
-0.067715 -4.365505 -15.226723 15.840307 1.555286 2.862350 0.000791 -0.007833 -212131.000000 1 0 0
0.420685 0.928895 -13.128923 13.168464 1.145544 3.064079 0.004520 -0.007273 822587.000000 1 0 0
15.428785 0.723195 -13.697723 20.644564 0.046839 2.296287 -0.005168 -0.002720 479559.000000 1 0 0
-0.337415 6.993195 -16.432723 17.862055 -1.522585 2.738824 0.001602 0.006074 -46825.700000 1 0 0
-4.936815 -0.563105 -18.263923 18.927760 0.113572 2.875965 -0.022526 0.008470 -71384.600000 1 0 0
10.282185 -8.325705 -13.100923 18.619207 -0.680641 2.351281 0.021715 -0.015755 1218550.000000 1 0 0
3.986685 8.577995 -17.494223 19.887773 1.135738 2.645916 0.003050 -0.002594 -464648.000000 1 0 0
8.935585 0.874595 -17.206123 19.407737 0.097567 2.660652 -0.006637 0.006541 -170456.000000 1 0 0
3.127585 4.841795 -18.657323 19.527429 0.997270 2.841949 0.008194 0.002919 -947924.000000 1 0 0
1.288585 -8.208505 -15.870723 17.914236 -1.415085 2.659287 -0.006809 -0.004972 -830289.000000 1 0 0
4.241685 7.814195 -15.056523 17.485778 1.073484 2.608172 0.000162 0.004829 574364.000000 1 0 0
-5.873015 -0.523005 -15.138423 16.246159 0.088818 2.770180 -0.004620 -0.000244 -463217.000000 1 0 0
2.672885 3.378895 -13.972423 14.621554 0.901535 2.842501 0.005352 -0.001532 562684.000000 1 0 0
-2.727315 -9.995805 -18.156923 20.905220 1.304434 2.623036 0.003934 -0.003197 266565.000000 1 0 0
6.099185 -8.970005 -15.520923 18.935683 -0.973652 2.531623 0.002469 -0.006784 240014.000000 1 0 0
-2.022715 5.313395 -17.364623 18.271663 -1.207053 2.825181 -0.005059 -0.000008 -140786.000000 1 0 0
9.917685 -12.129005 -11.738823 19.577364 -0.885365 2.213813 0.019293 0.000753 -43165.200000 1 0 0
10.838285 3.700195 -9.388323 14.808797 0.328993 2.257471 0.006292 0.003439 -1774330.000000 1 0 0
4.637185 -0.472005 -10.901023 11.855740 -0.101438 2.737532 -0.003785 -0.001399 540199.000000 1 0 0
6.121885 9.659295 -11.447423 16.180944 1.005907 2.356699 -0.003862 -0.003737 169232.000000 1 0 0
10.737885 -9.534105 -9.582723 17.263543 -0.726086 2.159261 0.020090 -0.002798 -1306130.000000 1 0 0
3.108685 -2.428905 -14.567023 15.091775 -0.663252 2.877115 -0.003159 -0.004504 -141394.000000 1 0 0
8.946785 -4.466405 -14.727523 17.801507 -0.463023 2.545114 -0.001353 -0.005079 131621.000000 1 0 0
-4.102615 -6.350405 -16.523723 18.171200 0.997210 2.712481 -0.015315 0.002039 -1794240.000000 1 0 0
5.768185 -7.691705 -11.280223 14.821529 -0.927345 2.435758 -0.003804 -0.001295 -181015.000000 1 0 0
5.198185 6.455495 -16.992023 18.905644 0.892872 2.687776 0.008729 -0.003730 -1404730.000000 1 0 0
8.432685 1.447995 -19.701323 21.479036 0.170054 2.731879 -0.021109 0.006584 391235.000000 1 0 0
13.038585 5.869895 -9.451523 17.140352 0.423015 2.154861 0.009440 0.002634 673804.000000 1 0 0
-1.794815 -0.741905 -17.351623 17.459972 0.391970 3.030130 0.004689 -0.005272 -27346.600000 1 0 0
-0.759115 -0.673305 -19.668723 19.694879 0.725564 3.090049 0.004401 -0.009027 24284.700000 1 0 0
2.602385 6.487995 -16.675323 18.081286 1.189335 2.744637 0.000778 0.003235 -1325740.000000 1 0 0
7.552085 3.909095 -15.709323 17.863310 0.477642 2.645435 0.002419 0.005121 -134929.000000 1 0 0
2.948685 -9.887105 -14.871723 18.100213 -1.280959 2.535065 -0.003569 -0.002430 -357181.000000 1 0 0
8.822085 -10.418705 -13.411223 19.137385 -0.868189 2.347296 0.020876 -0.004857 -48053.600000 1 0 0
3.626585 0.119295 -14.764023 15.203379 0.032883 2.900600 -0.006207 -0.001274 -1963450.000000 1 0 0
-1.300115 -2.974505 -18.789323 19.067686 1.158733 2.970512 0.005861 -0.007863 371403.000000 1 0 0
8.984485 10.250495 -13.139823 18.932738 0.851122 2.337863 0.027600 -0.007561 239158.000000 1 0 0
4.426485 2.054995 -10.643523 11.709029 0.434641 2.711678 -0.003126 0.001765 82571.900000 1 0 0
-0.826215 7.023695 -18.945523 20.222457 -1.453702 2.784324 -0.000419 0.003181 224443.000000 1 0 0
0.614285 -1.657905 -17.641923 17.730297 -1.215960 3.041708 0.012709 -0.011564 -1924670.000000 1 0 0
-4.519515 -2.319405 -14.077923 14.966415 0.474150 2.795291 0.002590 -0.004379 -3241750.000000 1 0 0
10.047685 6.009895 -10.578623 15.779166 0.539049 2.305567 0.012889 0.008703 132136.000000 1 0 0
8.082485 5.756595 -17.481523 20.101458 0.618888 2.625318 0.016783 -0.004009 -222495.000000 1 0 0
11.188085 0.321695 -13.954523 17.888696 0.028745 2.465582 -0.000563 0.010404 556310.000000 1 0 0
6.584985 12.173195 -11.726723 18.140142 1.074935 2.273721 0.004511 -0.012895 -433443.000000 1 0 0
-1.044715 0.567595 -15.178923 15.225416 -0.497686 3.063423 0.004089 -0.005344 -1591340.000000 1 0 0
-4.466315 -3.076805 -18.969923 19.729994 0.603231 2.863120 -0.023057 0.010363 -240196.000000 1 0 0
5.643585 -11.895005 -14.012823 19.227595 -1.127797 2.387345 0.003876 0.004648 -152257.000000 1 0 0
2.111985 -4.722805 -14.058323 14.980047 -1.150283 2.788969 -0.000442 -0.003461 -678985.000000 1 0 0
11.621985 2.289895 -15.531323 19.532950 0.194539 2.490026 0.005912 0.000038 3089.410000 1 0 0
9.466285 2.327495 -13.959023 17.025924 0.241090 2.531978 0.005730 0.002983 727244.000000 1 0 0
-2.350115 -3.997105 -16.355123 16.999704 1.039281 2.865335 -0.005872 -0.003728 -296915.000000 1 0 0
-3.012515 10.164595 -14.283823 17.788250 -1.282670 2.503095 -0.005775 0.000979 421418.000000 1 0 0
3.331085 5.806595 -13.671723 15.222637 1.049960 2.686267 -0.001964 0.004728 -468608.000000 1 0 0
-5.291915 -2.608505 -16.613923 17.630403 0.457970 2.800367 -0.006632 0.007095 553610.000000 1 0 0
-4.461315 6.194795 -13.593823 15.590730 -0.946660 2.629900 -0.003450 0.001005 443858.000000 1 0 0
5.751385 -1.107905 -14.094423 15.262983 -0.190302 2.747742 -0.005519 0.001065 -2616880.000000 1 0 0
6.704385 -2.969905 -12.659123 14.629508 -0.417000 2.616573 -0.002506 -0.003463 780797.000000 1 0 0
2.663385 -3.181005 -18.313423 18.777483 -0.873735 2.918810 0.006931 -0.012092 -20562.000000 1 0 0
7.305385 -12.005305 -12.208223 18.615496 -1.024141 2.286051 0.012300 0.008126 137055.000000 1 0 0
-6.293115 -5.439905 -17.790523 19.639210 0.712807 2.704220 -0.004845 0.011367 397688.000000 1 0 0
0.435985 8.630095 -11.949723 14.746678 1.520320 2.515517 0.000770 -0.002489 201527.000000 1 0 0
0.260885 8.560995 -14.512223 16.851211 1.540332 2.608418 -0.001729 -0.000434 267413.000000 1 0 0
7.459085 -2.364805 -15.113423 17.018984 -0.307013 2.663846 -0.004099 -0.008462 709167.000000 1 0 0
14.083485 1.624695 -9.056423 16.822692 0.114854 2.139269 -0.017116 0.005365 832002.000000 1 0 0
2.806285 10.989695 -14.706123 18.571987 1.320783 2.484619 -0.004781 0.007196 -1202800.000000 1 0 0
5.975985 1.084495 -15.554423 16.698162 0.179522 2.769326 0.000948 0.001145 792021.000000 1 0 0
16.499085 -5.537805 -10.636423 20.396582 -0.323828 2.119382 0.019014 0.000884 364803.000000 1 0 0
4.803885 -4.222705 -11.327923 13.008858 -0.721102 2.627594 -0.009102 0.000458 -2032840.000000 1 0 0
8.392385 -3.576205 -17.026323 19.316238 -0.402823 2.649723 -0.018878 -0.009399 183138.000000 1 0 0
13.204685 -9.583605 -8.995123 18.631195 -0.627815 2.074644 0.013793 -0.002313 -698184.000000 1 0 0
2.184885 -7.867105 -13.552923 15.822351 -1.299899 2.599379 -0.004402 -0.001807 110793.000000 1 0 0
-6.937215 -2.237705 -18.613123 19.989513 0.312028 2.768335 -0.025294 0.015819 -880329.000000 1 0 0
-1.661315 -6.396005 -15.613023 16.953918 1.316669 2.741204 -0.006032 -0.005020 -1446020.000000 1 0 0
1.456785 -7.218205 -18.343223 19.766096 -1.371650 2.759844 0.008931 -0.013141 -241933.000000 1 0 0
5.246385 10.873495 -14.391823 18.785154 1.121252 2.443590 -0.000685 -0.016033 -942951.000000 1 0 0
5.276085 -3.365205 -17.547723 18.630197 -0.567767 2.799029 0.008559 -0.005219 254108.000000 1 0 0
4.051785 13.177195 -14.108623 19.725838 1.272487 2.367758 -0.014804 -0.004175 14978.800000 1 0 0
8.533485 10.717495 -15.623223 20.779080 0.898364 2.421694 0.018991 -0.009135 266429.000000 1 0 0
2.380085 3.908095 -16.396923 17.023428 1.023775 2.869451 0.001613 -0.000059 541231.000000 1 0 0
16.425285 1.864295 -11.591123 20.189594 0.113018 2.182318 -0.007877 0.003525 809370.000000 1 0 0
9.917285 -3.665805 -10.621523 14.986908 -0.354061 2.358479 0.011350 -0.001807 201033.000000 1 0 0
14.515785 -1.939405 -12.065223 18.974691 -0.132820 2.259917 0.007094 0.001898 -180467.000000 1 0 0
-2.855315 -8.551605 -16.061523 18.418884 1.248543 2.630098 -0.006808 0.004645 -347964.000000 1 0 0
13.887085 8.216195 -9.110423 18.529889 0.534252 2.084792 0.027019 0.000846 -66523.900000 1 0 0
-8.335315 0.193895 -16.503223 18.489766 -0.023258 2.673787 -0.020814 0.008466 -25200.400000 1 0 0
-3.705315 3.852695 -15.918923 16.792401 -0.804896 2.817637 -0.000608 0.002445 -185341.000000 1 0 0
14.990885 4.084595 -9.743723 18.339866 0.266014 2.130915 -0.000002 0.005387 468201.000000 1 0 0
5.238185 1.099795 -12.984923 14.044798 0.206951 2.750613 -0.007192 0.003596 115088.000000 1 0 0
7.713085 -7.736505 -12.872323 16.883183 -0.786914 2.437864 0.010030 -0.004162 -3106060.000000 1 0 0
3.195585 -6.079305 -11.908923 13.747442 -1.086840 2.618473 -0.004838 -0.002722 -1086040.000000 1 0 0
-3.583915 3.622795 -18.546223 19.233603 -0.790793 2.873438 0.000870 0.003804 -285702.000000 1 0 0
0.682685 5.130295 -17.915323 18.647916 1.438504 2.860361 0.005937 -0.000597 685757.000000 1 0 0
6.118085 7.224295 -10.340323 14.019404 0.868119 2.400264 -0.007229 0.002815 344943.000000 1 0 0
9.633185 3.698295 -11.770023 15.652766 0.366561 2.421804 0.009797 0.006070 324640.000000 1 0 0
4.204385 1.561895 -17.603123 18.165525 0.355692 2.892109 0.004089 -0.005510 -225038.000000 1 0 0
2.458385 8.123895 -13.315123 15.790308 1.276945 2.574091 -0.006179 0.000491 -3039610.000000 1 0 0
14.302185 -3.504705 -9.958923 17.776827 -0.240311 2.165447 0.011165 0.003642 -102844.000000 1 0 0
-1.512715 9.291295 -16.316323 18.837167 -1.409402 2.618297 -0.005975 0.006138 -644754.000000 1 0 0
-5.422115 1.948195 -15.823323 16.839607 -0.344941 2.792400 -0.006628 0.005025 390670.000000 1 0 0
4.388885 4.185995 -12.020123 13.463589 0.761742 2.674292 -0.002354 0.004643 656901.000000 1 0 0
8.942785 3.332795 -17.886023 20.272907 0.356735 2.651443 0.001429 0.007000 871492.000000 1 0 0
-4.385615 14.288195 -13.187523 19.932308 -1.272985 2.293767 -0.008833 0.003743 -59600.800000 1 0 0
15.613585 -4.797305 -8.242123 18.295648 -0.298097 2.038118 0.016617 0.000690 -182699.000000 1 0 0
1.039985 9.244695 -16.933723 19.320894 1.458772 2.639227 0.000274 0.006981 -311692.000000 1 0 0
0.339585 -3.220205 -12.891223 13.291677 -1.465730 2.895501 0.003356 -0.007439 235537.000000 1 0 0
7.339185 3.739695 -13.061323 15.441733 0.471260 2.578945 -0.002415 0.008136 399027.000000 1 0 0
-3.156715 7.611595 -15.079823 17.184362 -1.177661 2.641487 -0.004156 0.003926 806786.000000 1 0 0
12.084985 -5.111105 -11.086323 17.177800 -0.400116 2.272326 0.014743 -0.004065 -390245.000000 1 0 0
0.615485 -4.511105 -19.974623 20.486934 -1.435196 2.917487 0.015758 -0.011495 -4432.410000 1 0 0
3.412385 -4.542705 -16.219523 17.185851 -0.926541 2.804656 0.004328 -0.010529 599828.000000 1 0 0
-5.777915 3.957995 -14.219323 15.850526 -0.600602 2.683932 -0.001715 0.000571 426056.000000 1 0 0
12.257785 -7.475605 -9.986923 17.489328 -0.547642 2.178556 0.018552 -0.001752 598213.000000 1 0 0
-2.052315 -1.666305 -14.890623 15.123466 0.681964 2.965889 0.006126 -0.005767 777533.000000 1 0 0
6.768585 6.018595 -14.322923 16.946485 0.726814 2.577708 0.004031 0.007961 -244501.000000 1 0 0
4.054785 -5.412205 -18.571123 19.764105 -0.927812 2.792370 0.011707 -0.008231 211075.000000 1 0 0
7.421785 7.567395 -12.360123 16.282537 0.795112 2.432730 0.002984 0.004709 -892865.000000 1 0 0
12.223785 -2.479905 -11.072523 16.678477 -0.200159 2.296793 0.013488 -0.000156 -1503690.000000 1 0 0
7.350485 -0.679805 -10.739323 13.031685 -0.092222 2.539396 -0.002682 0.000727 -59235.900000 1 0 0
5.222485 4.111195 -14.531623 15.979498 0.666894 2.712616 -0.004592 0.004562 95764.700000 1 0 0
14.587685 3.077495 -12.981723 19.768577 0.207917 2.287211 -0.004664 -0.002007 610176.000000 1 0 0
-6.817815 6.529295 -15.510123 18.157043 -0.763785 2.594846 -0.003287 0.000567 387571.000000 1 0 0
-11.557015 3.561895 -16.369823 20.352464 -0.298964 2.505321 0.008843 0.006094 412910.000000 1 0 0
-5.235915 6.564495 -17.698023 19.588962 -0.897514 2.698591 -0.009244 0.005817 -355914.000000 1 0 0
-10.263615 1.505395 -15.394323 18.563222 -0.145635 2.548635 -0.008269 0.003814 -1248430.000000 1 0 0
-7.801315 5.931795 -17.852023 20.365202 -0.650098 2.639536 -0.018324 0.010065 359809.000000 1 0 0
-9.044415 3.779495 -15.694523 18.504164 -0.395826 2.583302 -0.007685 0.017419 -929089.000000 1 0 0
8.673185 13.772395 -11.682523 20.034579 1.008788 2.193358 0.024733 -0.023630 -739156.000000 1 0 0
13.594185 9.214495 -11.621423 20.118804 0.595689 2.186631 0.023635 -0.006766 732553.000000 1 0 0
8.158485 15.918095 -9.170523 20.100874 1.097176 2.044545 0.020375 -0.013794 15924.000000 1 0 0
7.041285 13.768295 -13.792923 20.721737 1.098060 2.299128 0.006164 -0.011184 -304272.000000 1 0 0
4.240985 15.956395 -12.268823 20.569796 1.311016 2.209865 0.012842 -0.019842 180070.000000 1 0 0
10.786585 11.192595 -11.578123 19.382403 0.803869 2.210992 0.027982 -0.010697 -223486.000000 1 0 0
15.510985 10.046795 -10.122023 21.070930 0.574772 2.071883 0.027426 0.004460 -137445.000000 1 0 0
13.108885 10.701995 -9.463823 19.389160 0.684657 2.080706 0.044840 -0.007292 342833.000000 1 0 0
10.126185 11.960995 -8.555123 17.854836 0.868279 2.070481 0.020522 0.001896 239361.000000 1 0 0
5.141385 16.109595 -9.825023 19.557198 1.261864 2.097138 0.002912 -0.021650 -162812.000000 1 0 0
6.435085 14.780395 -11.518823 19.812968 1.160167 2.191218 0.003745 -0.007673 -2003710.000000 1 0 0
10.741285 14.149495 -9.851823 20.313587 0.921479 2.077144 0.040748 -0.000865 -437980.000000 1 0 0
8.155085 -18.750805 -1.375123 20.493634 -1.160554 1.637947 0.019992 0.016207 20683.400000 1 0 0
7.589385 -17.208705 -3.473323 19.125957 -1.155435 1.753412 0.032982 -0.001372 -441393.000000 1 0 0
4.553185 -18.487405 5.765777 19.893713 -1.329316 1.276748 0.023251 0.005842 195617.000000 1 0 0
9.932785 -17.163105 -2.489623 19.985760 -1.046164 1.695691 0.028459 0.005570 198668.000000 1 0 0
-9.575715 -12.197905 -9.924623 18.411446 0.905251 2.140101 0.009821 -0.012596 -27183.300000 1 0 0
-5.394015 -7.007105 -12.244923 15.104074 0.914748 2.516149 0.001430 0.000260 481472.000000 1 0 0
-10.858215 -9.597505 -5.507023 15.502911 0.723845 1.933951 0.014343 -0.006654 -232435.000000 1 0 0
-4.615315 -11.527005 -13.977823 18.696323 1.189952 2.415274 -0.005189 0.002953 4456.620000 1 0 0
-2.848515 -15.513205 7.555877 17.488992 1.389200 1.124047 -0.009811 0.001886 187251.000000 1 0 0
-4.721015 -12.004005 -11.469723 17.260900 1.196091 2.297610 -0.011719 0.000945 1368.300000 1 0 0
-14.367115 -12.820605 -4.182723 19.704748 0.728577 1.784693 -0.008242 0.004424 -781229.000000 1 0 0
-3.241415 -12.184105 -3.257323 13.021879 1.310782 1.823624 0.002833 -0.004078 854303.000000 1 0 0
-2.444715 -17.236205 -1.482823 17.471753 1.429900 1.655768 -0.007893 -0.004491 -971407.000000 1 0 0
-5.702515 -12.108105 3.706777 13.887587 1.130644 1.300608 -0.000483 -0.001481 -586624.000000 1 0 0
-8.783415 -10.686805 -11.867623 18.226263 0.882848 2.279866 0.002427 -0.001284 -709070.000000 1 0 0
-9.902715 -12.208805 -7.317623 17.339731 0.889316 2.006463 0.004234 -0.007292 -287865.000000 1 0 0
-10.711315 -14.964105 6.098677 19.386866 0.949544 1.250785 -0.008876 -0.006128 -1133120.000000 1 0 0
-9.474615 -15.454005 0.870777 18.148081 1.020811 1.522796 -0.000003 0.003987 -932749.000000 1 0 0
-15.005615 -7.929305 -8.171223 18.836434 0.486126 2.019501 0.005671 -0.000378 189001.000000 1 0 0
-2.399515 -16.576805 5.189177 17.534985 1.427043 1.270364 -0.006374 -0.002472 -145414.000000 1 0 0
4.456585 -15.911505 5.592777 17.444663 -1.297708 1.244432 0.016084 -0.003169 -220179.000000 1 0 0
4.153185 -14.718805 -10.172223 18.367533 -1.295778 2.157736 -0.001296 0.016035 736055.000000 1 0 0
-7.596115 -13.968905 -0.237323 15.902440 1.072735 1.585721 0.005023 -0.001358 833708.000000 1 0 0
3.145985 -14.963705 9.538777 18.022151 -1.363573 1.013044 0.012955 -0.007840 -665531.000000 1 0 0
2.269985 -17.361405 10.257577 20.292587 -1.440785 1.040854 0.018342 -0.002396 -514512.000000 1 0 0
-8.224015 -17.233805 -5.826423 19.964610 1.125552 1.866944 -0.003688 0.003492 -307252.000000 1 0 0
-6.405315 -9.101005 -7.612923 13.483803 0.957523 2.170742 0.006856 -0.007461 490969.000000 1 0 0
-6.051915 -13.087905 -4.839323 15.209799 1.137674 1.894596 0.001494 -0.011644 306967.000000 1 0 0
1.796385 -19.410105 -4.792423 20.073527 -1.478510 1.811868 -0.000056 -0.007104 -284010.000000 1 0 0
-5.416815 -12.899105 8.265377 16.249469 1.173222 1.037174 -0.007296 -0.001984 841290.000000 1 0 0
2.169285 -17.578705 3.393577 18.034218 -1.448013 1.381493 0.007893 -0.005405 1143090.000000 1 0 0
-17.721815 -10.004805 -2.341823 20.485189 0.513943 1.685365 0.005087 -0.001973 311881.000000 1 0 0
-3.537715 -15.418705 2.664277 16.042140 1.345257 1.403943 -0.003778 -0.000640 -147751.000000 1 0 0
-9.978015 -10.283605 -14.010123 20.039882 0.800479 2.344951 -0.006925 -0.002509 -337041.000000 1 0 0
5.985385 -14.694705 -5.698323 16.859124 -1.183999 1.915584 0.004501 0.005796 325198.000000 1 0 0
-7.124515 -12.230005 -10.678323 17.730153 1.043311 2.217137 -0.003779 -0.009761 -1607470.000000 1 0 0
-7.119015 -14.220105 3.794177 16.348931 1.106645 1.336586 -0.000709 0.001440 622783.000000 1 0 0
3.257185 -15.042205 -3.150623 15.709984 -1.357552 1.772715 0.008064 -0.001420 -233444.000000 1 0 0
-7.536215 -11.378805 7.725977 15.683190 0.985821 1.055689 -0.005467 -0.003791 -2051830.000000 1 0 0
-12.778815 -12.224605 -1.045423 17.715304 0.763236 1.629843 -0.007855 0.008302 -1174390.000000 1 0 0
-1.936315 -13.710905 4.016677 14.417764 1.430500 1.288468 -0.006689 0.000933 -1668460.000000 1 0 0
-2.949515 -13.992005 5.315277 15.255425 1.363038 1.214913 -0.008553 -0.000530 -664577.000000 1 0 0
-14.433715 -10.326905 -4.248723 18.249075 0.621034 1.805771 -0.003305 -0.000401 411163.000000 1 0 0
-6.145115 -8.526905 -10.316623 14.727636 0.946330 2.346886 -0.002623 -0.004203 74303.300000 1 0 0
0.739685 -19.553405 2.242477 19.695468 -1.532985 1.456691 0.004693 -0.005982 67142.400000 1 0 0
6.221885 -13.941005 -8.204123 17.331217 -1.151023 2.063912 0.008160 0.009347 -2842620.000000 1 0 0
-4.069715 -16.700805 -5.892423 18.171409 1.331771 1.901035 -0.012766 -0.005003 91524.700000 1 0 0
-3.695515 -13.771005 -13.094923 19.359091 1.308619 2.313691 -0.005422 0.003893 -2230070.000000 1 0 0
-8.264715 -14.740105 -4.514423 17.491604 1.059778 1.831842 0.001236 -0.006999 -1137700.000000 1 0 0
-4.484815 -14.434205 10.022077 18.135652 1.269545 0.985295 -0.008688 0.001296 52933.700000 1 0 0
-0.395215 -12.087905 -9.942523 15.656545 1.538113 2.258856 -0.007203 0.001469 -618869.000000 1 0 0
2.471785 -17.135205 6.707977 18.566688 -1.427533 1.201144 0.014306 -0.014513 -809092.000000 1 0 0
-3.085215 -19.102705 -3.338723 19.636164 1.410672 1.741656 -0.017152 -0.003229 -877870.000000 1 0 0
0.600985 -15.348305 -3.142923 15.678316 -1.531660 1.772627 0.003970 -0.004652 -311954.000000 1 0 0
5.809785 -18.187805 0.547577 19.101039 -1.261608 1.542125 0.022050 0.003273 -152495.000000 1 0 0
-6.866415 -16.723305 3.780777 18.469187 1.181194 1.364632 -0.008106 0.003831 515620.000000 1 0 0
-5.142015 -13.485705 -9.467323 17.260787 1.206519 2.151350 -0.014655 -0.004458 -131417.000000 1 0 0
5.620085 -15.309005 -2.175123 16.452420 -1.218961 1.703391 0.011486 0.007391 -649977.000000 1 0 0
-8.869215 -10.285105 -0.601423 13.594413 0.859184 1.615051 0.005517 -0.002727 -1410510.000000 1 0 0
-7.672515 -18.016605 -2.945023 19.802492 1.168199 1.720070 0.001430 -0.003515 893366.000000 1 0 0
7.905785 -16.068905 -1.164523 17.946232 -1.113575 1.635732 0.020537 0.006569 218241.000000 1 0 0
-7.979815 -10.016205 -9.456823 15.919589 0.898077 2.206864 0.005447 -0.007213 -55069.600000 1 0 0
-9.164015 -15.036705 -6.959323 18.934462 1.023462 1.947167 0.001275 -0.009226 -279624.000000 1 0 0
-11.478015 -10.456105 -12.004423 19.626032 0.738842 2.228951 0.018989 0.003857 -171361.000000 1 0 0
6.571785 -16.435805 2.348977 17.856140 -1.190423 1.438864 0.019207 0.000619 1286280.000000 1 0 0
-2.280815 -11.119305 -6.056323 12.865462 1.368481 2.060929 -0.002322 -0.002387 327354.000000 1 0 0
-12.321315 -15.397705 -3.327123 19.999347 0.895931 1.737935 -0.013526 0.003084 376517.000000 1 0 0
-0.614415 -19.706905 -2.736723 19.905508 1.539629 1.708719 0.002322 -0.006014 -403842.000000 1 0 0
-5.906915 -15.616305 -4.576023 17.311863 1.209177 1.838304 -0.010316 -0.005969 -2792630.000000 1 0 0
1.888785 -16.023405 -1.068823 16.169706 -1.453461 1.636945 0.013031 -0.003858 994370.000000 1 0 0
-13.119215 -11.832805 5.263977 18.434710 0.733888 1.281219 0.001724 0.000360 267107.000000 1 0 0
1.951385 -15.317005 -8.889923 17.817106 -1.444079 2.093188 -0.003304 0.014448 -3035570.000000 1 0 0
-11.689315 -16.756405 0.352977 20.433839 0.961681 1.553521 -0.010924 0.009828 309326.000000 1 0 0
-8.145915 -16.343505 -1.150123 18.297237 1.108414 1.633696 -0.004249 -0.002081 611328.000000 1 0 0
-3.007515 -14.316305 -1.746623 14.732699 1.363731 1.689630 0.000526 -0.003214 -171626.000000 1 0 0
-1.944915 -10.391305 -13.303523 16.992517 1.385770 2.470118 -0.008862 0.007308 -68751.300000 1 0 0
1.274285 -19.627205 4.752977 20.234667 -1.505963 1.333688 0.008092 -0.006304 212622.000000 1 0 0
-17.388215 -9.418505 2.612677 19.947038 0.496418 1.439438 -0.000097 0.001129 -75070.200000 1 0 0
-2.778715 -15.652905 -7.982523 17.789192 1.395106 2.036139 -0.014045 -0.003776 -813224.000000 1 0 0
-10.477315 -12.082505 0.216777 15.994000 0.856431 1.557242 0.002923 0.003239 302855.000000 1 0 0
-6.937415 -11.496205 -6.561023 14.944480 1.027842 2.025311 0.004158 -0.010075 158276.000000 1 0 0
-2.267615 -13.606505 -6.664823 15.319886 1.405657 2.020883 -0.014088 -0.001163 488854.000000 1 0 0
-14.420215 -14.280905 -1.049223 20.322099 0.780544 1.622449 -0.003038 0.009955 325714.000000 1 0 0
-9.548815 -11.317805 -4.256723 15.407539 0.869972 1.850713 0.011130 -0.009970 558520.000000 1 0 0
9.502485 -15.187305 -5.256723 18.670420 -1.011704 1.856209 0.019939 0.006511 286132.000000 1 0 0
-5.503215 -10.799405 -9.316923 15.287824 1.099510 2.226143 -0.003589 -0.003898 -1292860.000000 1 0 0
-10.354215 -16.090405 -4.923723 19.757377 0.999002 1.822660 -0.004325 -0.003206 -1546420.000000 1 0 0
2.152385 -17.427705 -3.260923 17.860327 -1.447915 1.754405 0.015100 -0.001835 539542.000000 1 0 0
-0.291215 -14.415305 -8.076623 16.526272 1.550597 2.081412 -0.007447 0.001534 -554942.000000 1 0 0
-0.716415 -18.264705 -7.095923 19.607774 1.531592 1.941094 -0.010146 -0.001353 -7266.510000 1 0 0
-1.934515 -10.058005 -10.671223 14.791241 1.380781 2.376698 -0.004544 0.001982 404061.000000 1 0 0
-4.985815 -17.269505 2.051677 18.091532 1.289733 1.457146 -0.008040 -0.001556 -1090240.000000 1 0 0
0.284085 -12.763205 -2.676823 13.043982 -1.548542 1.777480 0.000959 -0.000612 -1662280.000000 1 0 0
2.619885 -14.988605 2.944677 15.498167 -1.397753 1.379633 0.007973 -0.000325 -848173.000000 1 0 0
-9.241215 -13.061905 6.765177 17.371846 0.955059 1.170780 -0.007026 -0.001766 -963882.000000 1 0 0
-1.074415 -17.841505 -4.545223 18.442687 1.510649 1.819813 -0.004528 -0.005422 -389797.000000 1 0 0
-10.178615 -17.617705 -2.178723 20.463005 1.046898 1.677470 0.002959 0.002166 -43528.300000 1 0 0
1.294685 -16.282905 1.413377 16.395329 -1.491451 1.484483 0.006477 -0.004005 296217.000000 1 0 0
-0.550115 -18.034005 3.993477 18.479064 1.540301 1.352970 0.008324 -0.011373 1576890.000000 1 0 0
-17.497615 -9.085905 0.023977 19.716003 0.478941 1.569580 -0.001606 0.000241 702291.000000 1 0 0
-14.933215 -7.165005 -10.533823 19.629051 0.447360 2.137252 0.015125 -0.008381 680208.000000 1 0 0
2.900785 -12.742705 -8.973723 15.853037 -1.346968 2.172511 -0.007174 0.006376 415092.000000 1 0 0
-11.769315 -14.644205 1.875777 18.880891 0.893813 1.471284 -0.009760 0.008572 460313.000000 1 0 0
-2.133215 -15.520005 10.564577 18.895276 1.434203 0.977482 -0.009599 -0.001569 -20949.500000 1 0 0
-6.993815 -15.990705 1.079977 17.486636 1.158497 1.508997 -0.000651 0.000848 -1768530.000000 1 0 0
-12.526115 -15.034405 -5.941923 20.450998 0.876158 1.865592 -0.003500 -0.004068 713661.000000 1 0 0
0.952385 -13.744705 -5.099223 14.691018 -1.501616 1.925271 -0.001653 0.001300 -10697.700000 1 0 0
6.110285 -16.411805 -7.600423 19.090556 -1.214386 1.980268 0.021836 0.003853 171258.000000 1 0 0
-6.540615 -12.884405 5.911277 15.611878 1.101057 1.182470 -0.003330 -0.001243 -436837.000000 1 0 0
-2.524515 -13.475405 0.622577 13.723968 1.385601 1.525417 0.004051 -0.003111 516372.000000 1 0 0
-4.244115 -15.427005 0.195977 16.001356 1.302328 1.558548 -0.000170 -0.004437 -178369.000000 1 0 0
-17.755015 -7.388605 -2.048523 19.339816 0.394344 1.676918 -0.007794 0.002753 653715.000000 1 0 0
1.135985 -12.693205 -11.875023 17.419072 -1.481539 2.320915 -0.008109 0.006869 -747792.000000 1 0 0
1.132985 -17.091905 -5.664923 18.041846 -1.504605 1.890187 0.003737 0.000724 -908606.000000 1 0 0
-12.953515 -6.447605 -8.911523 16.993540 0.461846 2.122814 0.014196 -0.003364 1280470.000000 1 0 0
-11.484915 -13.551805 -8.948623 19.890514 0.867766 2.037443 0.010984 -0.016688 313640.000000 1 0 0
-4.221115 -9.773305 3.574577 11.230000 1.163094 1.246854 0.003484 -0.000535 -4893800.000000 1 0 0
-7.050315 -14.254005 9.749177 18.652883 1.111462 1.020824 -0.009309 -0.002555 -1375720.000000 1 0 0
-5.309415 -15.855305 -8.127123 18.591146 1.247666 2.023224 -0.016299 -0.007748 -343995.000000 1 0 0
-0.335315 -13.431705 2.167977 13.609675 1.545837 1.410818 -0.000388 -0.003304 680269.000000 1 0 0
-10.927715 -13.494805 -4.616723 17.967717 0.890125 1.830657 0.002432 -0.003020 -805803.000000 1 0 0
-9.723315 -10.521905 6.694377 15.813539 0.824824 1.133676 -0.000008 -0.001251 -223105.000000 1 0 0
-15.622515 -8.149505 -4.707723 18.238423 0.480818 1.831873 0.008879 -0.001787 -608106.000000 1 0 0
-14.352515 -7.127605 5.461177 16.929911 0.460932 1.242347 -0.009122 -0.002031 347692.000000 1 0 0
-1.670815 -19.300705 0.052477 19.372960 1.484444 1.568088 -0.000687 -0.002259 -512746.000000 1 0 0
-15.362515 -11.884005 -1.439623 19.475856 0.658417 1.644782 -0.012486 0.008514 786210.000000 1 0 0
-4.410915 -12.103605 -6.824423 14.578277 1.221325 2.057961 -0.002502 -0.005683 -873738.000000 1 0 0
-7.263115 -18.509605 1.920077 19.976111 1.196861 1.474529 -0.006892 0.004559 88414.400000 1 0 0
-2.550115 -11.794205 -8.655023 14.849774 1.357857 2.193014 -0.007324 0.000825 629644.000000 1 0 0
-1.490715 -20.296505 -4.995023 20.955204 1.497481 1.811480 -0.011123 0.004866 -130617.000000 1 0 0
-5.494615 -9.003005 -13.793923 17.364251 1.022831 2.488793 -0.006966 0.004697 1235130.000000 1 0 0
-8.519315 -18.901505 -0.553823 20.740114 1.147343 1.597502 -0.007773 0.006388 6510.520000 1 0 0
-16.953515 -7.113205 5.743277 19.261479 0.397263 1.268017 -0.002247 -0.002045 -238350.000000 1 0 0
-3.586015 -14.524605 -4.358723 15.582750 1.328745 1.854293 -0.006397 -0.008844 -1925440.000000 1 0 0
-2.880415 -14.930705 -10.861223 18.686597 1.380219 2.191037 -0.014547 -0.001258 -686261.000000 1 0 0
-0.091715 -16.837205 6.205377 17.944542 1.565349 1.217696 0.008081 -0.007155 20308.800000 1 0 0
-11.099315 -11.449405 3.830777 16.399955 0.800923 1.335034 -0.004217 0.001013 -623141.000000 1 0 0
-0.239815 -14.666205 -0.174723 14.669206 1.554446 1.582707 0.001913 -0.001505 786881.000000 1 0 0
-7.263615 -9.493705 -2.473823 12.206979 0.917702 1.774866 0.013062 -0.005715 -61326.800000 1 0 0
-11.356615 -14.370405 -0.644623 18.327487 0.902012 1.605976 -0.000138 0.001051 -73109.800000 1 0 0
0.177685 -14.507305 -10.565923 17.948041 -1.558549 2.200240 -0.009871 0.002042 -501874.000000 1 0 0
-1.395615 -13.866005 -3.894623 14.470035 1.470484 1.843308 -0.004510 -0.002919 -3271040.000000 1 0 0
-11.483915 -8.164005 -7.557323 15.988884 0.618009 2.063104 0.016915 -0.007903 807488.000000 1 0 0
-0.245415 -17.308205 -0.312223 17.312760 1.556618 1.588832 0.006718 -0.001611 -1848670.000000 1 0 0
-12.731215 -9.414205 4.555077 16.476038 0.636720 1.290681 -0.002264 -0.002394 578057.000000 1 0 0
3.928985 -16.887205 1.570777 17.409249 -1.342203 1.480447 0.018060 -0.004201 1151740.000000 1 0 0
-3.761015 -17.944805 -8.173923 20.074219 1.364199 1.990166 -0.024141 0.000493 37827.800000 1 0 0
-13.383915 -11.051605 2.639477 17.556594 0.690239 1.419883 -0.005801 -0.000540 -818781.000000 1 0 0
-8.436615 -12.146905 4.130577 15.355306 0.963738 1.298442 0.000112 -0.000960 1167560.000000 1 0 0
-8.331215 -9.534205 -5.848823 13.947005 0.852633 2.003537 0.013953 -0.009009 -635596.000000 1 0 0
3.691885 -17.774805 -5.464223 18.958677 -1.366005 1.863161 0.004249 0.021532 422737.000000 1 0 0
-2.643415 -12.970305 11.303377 17.406401 1.369745 0.864027 -0.003890 -0.005019 83032.900000 1 0 0
0.067485 -16.775005 -9.397123 19.227877 -1.566773 2.081423 -0.005411 0.005822 -375402.000000 1 0 0
-7.071915 -10.874205 -14.540923 19.485860 0.994183 2.413176 -0.010416 0.009786 -1816520.000000 1 0 0
-4.638415 -18.635805 -1.431723 19.257672 1.326855 1.645211 -0.006198 -0.007873 -1329190.000000 1 0 0
-2.465615 -17.063405 1.101477 17.275772 1.427292 1.506995 0.000358 -0.008127 -223238.000000 1 0 0
4.027485 -14.881105 -7.545623 17.164042 -1.306484 2.025970 -0.002147 0.014644 -813085.000000 1 0 0
-1.069215 -15.806405 -6.136123 16.989339 1.503255 1.940324 -0.009584 -0.002927 -422949.000000 1 0 0
-9.292915 -15.188605 8.269377 19.632488 1.021720 1.136019 -0.015963 -0.003120 -539320.000000 1 0 0
-7.222715 -12.021105 -1.791923 14.138089 1.029762 1.697883 0.005481 -0.004983 806531.000000 1 0 0
-7.340515 -14.914105 -9.360123 19.076834 1.113419 2.083636 -0.004036 -0.010565 -1015980.000000 1 0 0
-5.022815 -13.105705 -0.646923 14.050149 1.204809 1.616856 0.003614 -0.001168 4232870.000000 1 0 0
-6.404615 -13.777005 -7.299923 16.855677 1.135640 2.018708 -0.004368 -0.009356 345090.000000 1 0 0
5.718885 -15.550605 0.192977 16.569979 -1.218388 1.559150 0.012736 0.005246 146794.000000 1 0 0
-14.410915 -12.621605 0.946577 19.180078 0.719304 1.521424 -0.016032 0.001167 814812.000000 1 0 0
0.943285 -15.257105 10.982577 18.822487 -1.509049 0.947787 0.006208 -0.009202 34698.100000 1 0 0
-9.272415 -10.718805 1.949877 14.306379 0.857624 1.434077 0.004314 -0.000586 277197.000000 1 0 0
-9.401815 -8.744405 -3.548623 13.321091 0.749185 1.840443 0.016298 -0.008277 -1505860.000000 1 0 0
-12.260915 -7.350605 -12.226823 18.811077 0.540063 2.278354 0.007962 -0.002449 -5286.920000 1 0 0
-13.352715 -8.297305 -0.417223 15.726231 0.556002 1.597330 -0.000371 -0.001081 1721260.000000 1 0 0
-11.202115 -9.646405 0.365277 14.787628 0.710916 1.546092 0.004815 -0.001246 848659.000000 1 0 0
-15.763815 -12.044905 3.033277 20.069339 0.652455 1.419075 -0.002708 0.005651 171928.000000 1 0 0
-10.422115 -12.569005 -2.177723 16.472487 0.878507 1.703388 0.004396 -0.000862 732730.000000 1 0 0
-3.465515 -8.709005 -12.035723 15.255005 1.192082 2.479925 -0.005529 0.000847 -475031.000000 1 0 0
-0.267315 -15.559905 3.870977 16.036413 1.553618 1.327002 0.001074 -0.000980 -671588.000000 1 0 0
-15.769315 -7.633205 1.340577 17.570836 0.450810 1.494427 -0.005931 -0.002606 848381.000000 1 0 0
-6.238515 -13.378205 -13.189623 19.795494 1.134454 2.300024 -0.000353 -0.003163 -889214.000000 1 0 0
-15.350515 -10.113405 1.216377 18.422781 0.582559 1.504723 -0.003167 -0.002086 57274.300000 1 0 0
-9.848915 -8.370105 -12.336023 17.867212 0.704407 2.332877 0.003052 -0.003113 193310.000000 1 0 0
-13.314915 -11.659405 -6.197323 18.751947 0.719206 1.907619 0.009364 -0.003938 -137828.000000 1 0 0
-12.167515 -11.448505 -3.787223 17.130667 0.754962 1.793717 -0.001488 -0.000483 -10213.300000 1 0 0
-11.517215 -10.915105 -8.941223 18.213490 0.758563 2.083933 0.002279 -0.015794 -23310.500000 1 0 0
-13.274915 -8.456205 -5.761023 16.760673 0.567187 1.921675 0.007770 -0.005125 218873.000000 1 0 0
-13.559115 -8.145405 -3.123123 16.123000 0.540958 1.765735 0.007919 -0.006163 524842.000000 1 0 0
-4.301015 -16.764505 -3.174823 17.596217 1.319658 1.752216 -0.012491 -0.010093 85228.500000 1 0 0
-15.566415 -8.880005 -1.682923 18.000000 0.518415 1.664429 -0.002238 0.001952 -676023.000000 1 0 0
-9.195015 -15.668805 3.674177 18.535353 1.040113 1.371249 -0.007573 0.003685 -1168580.000000 1 0 0
4.726285 -17.083805 7.939377 19.422355 -1.300894 1.149685 0.021817 -0.024989 84626.900000 1 0 0
-8.126415 -15.394005 5.922077 18.387088 1.085083 1.242873 -0.007052 0.000316 497930.000000 1 0 0
0.940185 -16.001105 8.495077 18.140717 -1.512106 1.083444 0.006037 -0.007665 635047.000000 1 0 0
-10.916515 -7.745205 -10.093723 16.764300 0.617070 2.216920 0.013381 -0.002167 857858.000000 1 0 0
-4.801115 -15.941905 5.901377 17.664124 1.278273 1.230159 -0.007188 -0.001124 -13089.500000 1 0 0
-1.417015 -13.101605 -12.147523 17.922675 1.463059 2.315527 -0.012339 0.001557 -1524220.000000 1 0 0
-6.487215 -14.331605 -2.542223 15.935550 1.145740 1.731012 -0.000362 -0.006565 480877.000000 1 0 0
-17.619615 -6.965105 -7.020223 20.205125 0.376452 1.925644 -0.008685 -0.001304 -228628.000000 1 0 0
-17.456015 -4.032205 -10.007323 20.521151 0.227011 2.080203 -0.000850 -0.000536 479857.000000 1 0 0
-15.470815 -5.329905 -8.785323 18.572450 0.331779 2.063523 -0.000919 -0.005218 817355.000000 1 0 0
-16.145715 -5.484105 -5.516223 17.921725 0.327437 1.883671 -0.001408 0.002500 103973.000000 1 0 0
-15.197915 -4.334405 -12.231723 19.984462 0.277822 2.229461 0.005638 0.000345 -1218080.000000 1 0 0
-18.634215 -5.276505 -5.293123 20.077167 0.275939 1.837589 -0.015563 0.008180 -1285980.000000 1 0 0
-17.503615 -4.383205 -7.479823 19.532967 0.245371 1.963766 -0.011968 0.000649 -179392.000000 1 0 0
12.284185 -7.969105 8.573177 16.967828 -0.575481 1.041112 -0.000782 -0.006702 253906.000000 1 0 0
15.992485 -3.286005 1.581677 16.403021 -0.202651 1.474220 0.008471 -0.008840 172806.000000 1 0 0
12.006485 -2.312805 12.290277 17.336541 -0.190299 0.782826 -0.003174 -0.006323 541130.000000 1 0 0
9.716885 -10.203205 5.135477 14.996545 -0.809807 1.221279 0.003391 -0.004693 16010.600000 1 0 0
17.037885 -2.231205 7.057477 18.576215 -0.130215 1.181086 0.022130 -0.010676 238753.000000 1 0 0
5.194585 -13.031105 9.209777 16.781341 -1.191472 0.989856 0.000340 0.002613 -498175.000000 1 0 0
15.105385 -9.130805 -2.264523 17.795289 -0.543702 1.698396 0.010157 0.000584 104264.000000 1 0 0
11.096285 -8.626205 6.301477 15.402842 -0.660805 1.149316 0.003064 -0.005357 -2836360.000000 1 0 0
19.923085 -3.384005 3.354177 20.484904 -0.168248 1.406317 0.001756 -0.007063 318301.000000 1 0 0
13.578985 -8.595505 6.623877 17.382384 -0.564332 1.179845 0.001923 -0.007265 -999146.000000 1 0 0
8.311785 -11.170505 8.677977 16.406499 -0.931093 1.013451 -0.002699 -0.001706 -1321850.000000 1 0 0
16.845485 0.050795 -0.902023 16.869694 0.003015 1.624292 0.002889 -0.004675 766900.000000 1 0 0
12.464485 -12.408805 2.148877 17.718902 -0.783160 1.449221 0.006781 -0.002224 -972743.000000 1 0 0
10.386885 -11.885705 3.517177 16.171824 -0.852591 1.351556 0.005676 -0.002626 -800856.000000 1 0 0
16.341885 2.884895 2.293177 16.752268 0.174734 1.433478 0.001305 0.000595 1493380.000000 1 0 0
18.205485 -3.298105 0.166777 18.502567 -0.179216 1.561782 -0.004893 -0.006293 770442.000000 1 0 0
13.635485 -11.835305 -0.411423 18.060181 -0.714839 1.593579 0.018347 0.007092 -225101.000000 1 0 0
16.917085 -7.656305 -1.000723 18.595919 -0.424996 1.624636 0.013396 -0.003871 457686.000000 1 0 0
10.203285 -5.942305 9.680477 15.268583 -0.527371 0.884065 -0.002686 -0.001141 -312860.000000 1 0 0
11.422585 -13.338705 5.964577 18.546500 -0.862628 1.243376 0.003830 -0.003497 -804748.000000 1 0 0
13.104785 -2.039905 10.015877 16.619699 -0.154422 0.923977 0.005168 -0.006037 1311440.000000 1 0 0
15.474685 -1.998105 -1.548423 15.679793 -0.128410 1.669710 -0.000281 -0.004879 173421.000000 1 0 0
10.504285 -12.520805 8.821177 18.572122 -0.872755 1.075868 -0.004931 -0.008239 326277.000000 1 0 0
14.445885 1.142495 3.095977 14.818028 0.078924 1.360312 0.006126 -0.000720 551358.000000 1 0 0
14.824385 -5.968405 5.047877 16.759036 -0.382752 1.264842 0.002312 -0.007445 -245310.000000 1 0 0
14.064585 -3.338205 -3.166423 14.798054 -0.233036 1.786439 -0.000237 -0.003610 822209.000000 1 0 0
14.088285 0.541095 9.558977 17.033690 0.038389 0.974985 0.013470 -0.000478 651648.000000 1 0 0
15.377485 -3.520005 4.282777 16.346243 -0.225029 1.305698 0.006738 -0.006620 -651835.000000 1 0 0
18.321785 5.091895 -4.393023 19.517014 0.271074 1.797828 -0.037056 0.006152 733542.000000 1 0 0
18.245985 -5.763005 -5.213623 19.832046 -0.305934 1.836811 0.034642 -0.007733 765832.000000 1 0 0
17.324385 -0.121105 5.725477 18.246371 -0.006990 1.251617 0.021606 -0.007588 433813.000000 1 0 0
16.983085 -6.547305 3.805777 18.595061 -0.367961 1.364674 0.003922 -0.006313 -445726.000000 1 0 0
9.754685 -6.887405 14.183377 18.540723 -0.614782 0.699778 -0.008209 -0.003246 -263716.000000 1 0 0
8.614285 -12.489105 5.094577 16.004323 -0.966987 1.246834 0.002145 -0.005197 -1755730.000000 1 0 0
16.799885 -10.280605 -0.707323 19.708558 -0.549156 1.606693 0.008418 0.006990 -307570.000000 1 0 0
14.887285 -8.791905 0.233377 17.291134 -0.533453 1.557299 0.016205 -0.004031 281571.000000 1 0 0
10.011285 -12.961805 1.388777 16.436633 -0.913133 1.486203 0.013800 -0.004519 180635.000000 1 0 0
16.822285 -8.275905 8.645277 20.645113 -0.457196 1.138721 0.005997 -0.004185 538420.000000 1 0 0
19.164485 -0.111005 -2.117923 19.281478 -0.005792 1.680861 0.012861 0.002240 -370732.000000 1 0 0
13.428985 -1.203105 7.588977 15.471835 -0.089352 1.058130 0.007251 -0.007757 -7513.110000 1 0 0
12.849485 -9.915805 -3.175723 16.538369 -0.657238 1.764018 0.015625 0.002660 -394780.000000 1 0 0
8.836585 -15.209005 1.350977 17.641547 -1.044457 1.494142 0.016006 0.003943 701334.000000 1 0 0
11.446985 -8.464705 11.040077 18.015770 -0.636728 0.911196 -0.007438 -0.004654 67350.300000 1 0 0
13.878985 -4.033405 -0.682023 14.469268 -0.282822 1.617950 0.005247 -0.005752 -632958.000000 1 0 0
7.216085 -13.605405 10.745677 18.778937 -1.083138 0.961586 0.005029 0.005736 443966.000000 1 0 0
15.382985 -6.750605 1.712677 16.886093 -0.413531 1.469196 0.009364 -0.005318 71489.400000 1 0 0
15.796385 -6.280805 -2.810723 17.230045 -0.378445 1.734658 0.012816 -0.004168 577890.000000 1 0 0
11.245585 -8.579505 3.682377 14.616120 -0.651720 1.316113 0.004808 -0.004418 898229.000000 1 0 0
10.736285 -14.509805 -0.512423 18.057265 -0.933769 1.599178 0.025279 0.005190 906413.000000 1 0 0
13.466885 -12.934005 4.490977 19.204539 -0.765217 1.334761 0.000831 0.000038 292424.000000 1 0 0
12.809785 -11.088405 6.355177 18.095071 -0.713493 1.211933 -0.004110 -0.006917 -342267.000000 1 0 0
10.941885 -10.538505 1.263077 15.244025 -0.766621 1.487844 0.006450 -0.001151 771751.000000 1 0 0
13.967885 -7.692405 11.778477 19.824415 -0.503396 0.934600 -0.001416 -0.007484 1209130.000000 1 0 0
15.271685 -1.844905 -5.041123 16.187679 -0.120223 1.887480 0.005512 0.000276 -222090.000000 1 0 0
12.829685 -11.379905 -7.265023 18.624811 -0.725585 1.971506 0.014350 -0.004043 1091010.000000 1 0 0
17.588485 -5.325505 1.704477 18.455921 -0.294009 1.478311 0.002211 -0.002492 338617.000000 1 0 0
10.618385 -9.875005 9.053277 17.094667 -0.749140 1.012671 -0.009567 -0.004012 -1834120.000000 1 0 0
16.505585 1.697895 9.857377 19.299872 0.102507 1.034741 0.025308 -0.002608 480953.000000 1 0 0
18.100685 3.789395 0.407477 18.497577 0.206370 1.548766 -0.016153 0.007404 756050.000000 1 0 0
13.231285 -4.079105 5.767877 14.999146 -0.299047 1.176079 0.004702 -0.009464 -647410.000000 1 0 0
12.042485 -6.253805 6.534077 15.060733 -0.478977 1.122036 0.003027 -0.006768 -88936.100000 1 0 0
16.598785 -10.266605 3.389777 19.809427 -0.553923 1.398831 0.003020 0.000295 -313820.000000 1 0 0
16.058385 -7.872305 -5.798823 18.800831 -0.455801 1.884343 0.009095 -0.003935 47724.500000 1 0 0
13.959585 -0.363705 5.199977 14.901075 -0.026048 1.214328 0.004686 -0.004118 664183.000000 1 0 0
18.258685 -4.398305 5.122677 19.467061 -0.236385 1.304515 0.013889 -0.007659 -42253.700000 1 0 0
13.781585 -13.334505 6.993877 20.412139 -0.768912 1.221078 0.000819 -0.002946 -364354.000000 1 0 0
15.122885 -13.753605 -1.207423 20.477333 -0.738015 1.629794 0.019149 0.011488 457480.000000 1 0 0
17.729785 -5.992205 7.875377 20.304515 -0.325921 1.172484 0.015907 -0.007250 -540695.000000 1 0 0
14.432685 3.162995 9.171477 17.390311 0.215744 1.015271 0.014820 0.000321 348958.000000 1 0 0
18.901685 3.587195 2.758677 19.435842 0.187551 1.428378 0.020634 -0.000578 -84914.700000 1 0 0
14.819785 -10.540405 7.964477 19.853439 -0.618229 1.158010 -0.000715 -0.005421 -500700.000000 1 0 0
14.746085 -4.910705 10.363077 18.680348 -0.321466 0.982724 0.005129 -0.009739 165149.000000 1 0 0
17.823185 -7.887105 1.834477 19.576456 -0.416616 1.476950 0.010358 -0.003197 -79099.300000 1 0 0
18.387285 -5.840305 -1.971223 19.392966 -0.307549 1.672618 0.005259 -0.004598 -221012.000000 1 0 0
14.165885 -13.088305 -5.873723 20.161266 -0.745881 1.866421 0.011712 0.001420 -1599690.000000 1 0 0
15.563085 -1.475305 9.132777 18.105075 -0.094513 1.042072 0.015189 -0.011761 2293410.000000 1 0 0
12.984785 -10.240305 9.972877 19.311311 -0.667775 1.028123 -0.010385 -0.009750 -1601890.000000 1 0 0
16.398685 1.974595 4.652477 17.159878 0.119835 1.296234 0.009264 -0.003501 -1087720.000000 1 0 0
14.917485 2.526895 -0.115223 15.130427 0.167799 1.578412 -0.001684 0.000244 -1147810.000000 1 0 0
14.965885 -9.736705 -7.123223 19.222940 -0.576792 1.950407 0.011444 -0.005173 796102.000000 1 0 0
16.001885 0.020995 -3.341323 16.347024 0.001312 1.776647 -0.004325 0.002402 253103.000000 1 0 0
11.950485 2.432195 13.526577 18.212577 0.200780 0.733695 0.016488 0.000682 -269913.000000 1 0 0
17.521485 -3.214205 9.496477 20.187041 -0.181426 1.081025 0.013380 -0.010458 534424.000000 1 0 0
7.714385 -18.254705 4.436577 20.308353 -1.170963 1.350560 0.015577 -0.008910 -255301.000000 1 0 0
6.777585 -11.359405 6.475377 14.727601 -1.032844 1.115558 0.000373 -0.004087 175812.000000 1 0 0
18.076785 2.228295 -1.743123 18.296828 0.122650 1.666210 0.004027 0.003007 815134.000000 1 0 0
17.580985 -2.428505 3.419077 18.074256 -0.137264 1.380481 0.013455 -0.008776 -690456.000000 1 0 0
12.667485 -13.566505 -2.053323 18.674350 -0.819654 1.680973 0.020577 0.012314 317750.000000 1 0 0
15.039885 -8.320605 4.175777 17.688067 -0.505324 1.332468 0.008042 -0.003070 -79048.100000 1 0 0
11.685485 -3.199905 14.789877 19.118849 -0.267284 0.686332 -0.012166 -0.000840 -14830.700000 1 0 0
11.771385 -13.661305 -6.650323 19.220394 -0.859572 1.924104 0.011621 -0.002015 -637610.000000 1 0 0
10.674085 -12.076305 -1.290323 16.169049 -0.846955 1.650683 0.017313 0.002204 -528690.000000 1 0 0
13.120085 -8.016405 1.925377 15.495368 -0.548470 1.446219 0.007315 -0.000336 -1507680.000000 1 0 0
8.804385 -8.010305 9.909777 15.488249 -0.738208 0.876525 -0.002782 -0.002202 -1462340.000000 1 0 0
15.457685 -3.931005 8.019777 17.852441 -0.249029 1.104898 0.008811 -0.014365 -591078.000000 1 0 0
10.147285 -17.560005 5.178377 20.931716 -1.046813 1.320807 -0.003695 -0.004298 267371.000000 1 0 0
15.166985 -6.512205 8.237877 18.447462 -0.405564 1.107881 0.006369 -0.005681 -1129400.000000 1 0 0
16.409385 -5.039305 -0.543623 17.174342 -0.297957 1.602455 0.002582 -0.005428 -1226890.000000 1 0 0
13.945885 -10.581205 3.358177 17.824897 -0.649067 1.381266 0.004058 -0.002357 510443.000000 1 0 0
14.963785 -9.916405 -4.615423 18.535158 -0.585247 1.822453 0.018067 -0.007242 329567.000000 1 0 0
13.634885 -6.602805 -0.215523 15.151025 -0.450975 1.585022 0.007044 -0.002404 30093.400000 1 0 0
17.647785 -0.814205 -5.063323 18.377826 -0.046104 1.849919 -0.003135 0.001515 -1711690.000000 1 0 0
14.302985 0.318995 -1.695023 14.406604 0.022299 1.688725 0.000822 -0.001241 -2807940.000000 1 0 0
4.918285 -12.995305 11.839977 18.255205 -1.208990 0.865078 0.000175 0.001635 -239098.000000 1 0 0
12.050285 -7.742705 13.460577 19.655685 -0.571108 0.816442 -0.010189 -0.003965 -1387040.000000 1 0 0
12.075885 -5.953805 11.544177 17.735355 -0.458058 0.862010 -0.007834 -0.003637 632381.000000 1 0 0
13.164785 -4.751805 8.319477 16.282042 -0.346395 1.034495 0.005675 -0.009165 -1652680.000000 1 0 0
15.379785 -1.199405 3.082877 15.731512 -0.077828 1.373552 0.009472 -0.003229 65980.900000 1 0 0
15.235585 -10.345405 5.570177 19.239993 -0.596512 1.277081 0.005504 -0.005196 649882.000000 1 0 0
13.512485 -8.004705 -5.903823 16.778488 -0.534808 1.930363 0.011004 -0.005009 -1737070.000000 1 0 0
9.615385 -2.389405 13.417877 16.679457 -0.243565 0.636039 -0.001529 -0.002057 -554157.000000 1 0 0
9.911785 -9.424505 13.596877 19.285742 -0.760203 0.788342 -0.006830 0.001313 196902.000000 1 0 0
20.307785 6.344295 -3.157823 21.508790 0.302800 1.718144 -0.012615 0.017952 12316.000000 1 0 0
11.106785 -3.743205 10.419277 15.682270 -0.325065 0.844108 -0.007000 -0.000623 614678.000000 1 0 0
10.203285 -14.081505 -3.064723 17.657529 -0.943758 1.745244 0.019464 0.008582 1491440.000000 1 0 0
15.024085 -12.816005 2.415677 19.894939 -0.706251 1.449074 0.006619 0.011998 75530.700000 1 0 0
11.427885 -0.694505 14.313777 18.329296 -0.060698 0.674653 0.009552 0.004677 221139.000000 1 0 0
19.075085 -2.034005 5.472977 19.948672 -0.106230 1.292880 0.017334 -0.012068 452438.000000 1 0 0
19.052285 -0.604905 7.716777 20.564633 -0.031739 1.186135 0.037239 -0.013045 558870.000000 1 0 0
19.029385 0.798895 0.300977 19.048525 0.041958 1.554995 0.011575 -0.005089 -167962.000000 1 0 0
18.370585 0.608895 3.536377 18.717775 0.033133 1.380722 0.009182 -0.008701 443304.000000 1 0 0
16.520885 -3.895905 -4.159523 17.476251 -0.231586 1.811113 0.001317 -0.003093 1509290.000000 1 0 0
11.041685 -8.552905 15.694577 21.009301 -0.659061 0.727213 -0.007675 -0.003401 317516.000000 1 0 0
16.507885 -7.609105 6.207577 19.207882 -0.431912 1.241710 0.002303 -0.002755 73955.900000 1 0 0
18.750485 2.080595 5.661277 19.696690 0.110510 1.279261 0.015334 -0.006889 108462.000000 1 0 0
15.460585 1.530995 7.546677 17.272115 0.098704 1.118615 0.023944 -0.003800 266859.000000 1 0 0
8.756985 -15.835405 3.822777 18.494822 -1.065652 1.362601 0.003181 -0.008398 1018050.000000 1 0 0
11.446585 -15.133405 1.906477 19.070367 -0.923225 1.470658 0.011202 0.005125 568193.000000 1 0 0
7.955685 -16.233005 6.149077 19.094882 -1.115106 1.242926 0.000302 -0.005751 75018.400000 1 0 0
14.617185 -11.765105 -2.795123 18.970833 -0.677711 1.718673 0.014038 0.006396 765041.000000 1 0 0
13.636085 -4.798705 3.056777 14.775461 -0.338377 1.362409 0.002062 -0.002228 -2266130.000000 1 0 0
-1.093215 10.209895 -5.473423 11.635955 -1.464129 2.060528 -0.002136 0.002711 -1552750.000000 1 0 0
8.229785 -1.719805 -8.100023 11.674650 -0.206009 2.337567 -0.003397 -0.000334 -1417650.000000 1 0 0
2.989985 -10.245805 7.705277 13.163883 -1.286856 0.945504 -0.006742 -0.001388 484707.000000 1 0 0
-6.133415 1.218195 8.359977 10.439923 -0.196065 0.642217 -0.000707 -0.003429 20549.900000 1 0 0
7.128685 -6.227705 -7.191623 11.887889 -0.718043 2.220504 -0.003705 -0.001947 -625070.000000 1 0 0
-11.401015 -4.524605 -4.053823 12.918540 0.377796 1.889988 0.005597 -0.005076 269378.000000 1 0 0
2.101985 -3.368705 2.783777 4.849322 -1.012935 0.959347 0.001669 -0.000870 2031580.000000 1 0 0
-3.531115 -4.236905 8.866077 10.441621 0.876008 0.556500 -0.001293 -0.007422 -1810970.000000 1 0 0
-4.866915 -1.095805 -2.417523 5.543651 0.221461 2.022044 0.007367 -0.004700 -90867.100000 1 0 0
5.049385 -5.146005 -3.712623 8.109329 -0.794875 2.046339 -0.000418 -0.002505 161425.000000 1 0 0
2.495485 14.166695 -8.650323 16.785434 1.396434 2.112209 -0.011130 -0.007172 -496794.000000 1 0 0
5.552985 -5.578005 13.610077 15.722085 -0.787646 0.524317 0.000894 -0.007130 -2769320.000000 1 0 0
-4.613615 -0.965405 9.816677 10.889656 0.206275 0.447647 0.001371 -0.003864 -2092210.000000 1 0 0
-0.858815 12.018995 -2.643223 12.336144 -1.499463 1.786737 -0.000915 0.000970 -72066.100000 1 0 0
3.068085 9.425495 -10.515123 14.450637 1.256104 2.385698 -0.000946 -0.001785 -129523.000000 1 0 0
-10.629915 2.699695 1.178177 11.030483 -0.248713 1.463781 -0.002834 -0.000240 120678.000000 1 0 0
5.690485 -9.031805 -0.728223 10.699786 -1.008574 1.638909 -0.002596 -0.001775 105717.000000 1 0 0
-6.799515 5.337995 9.423677 12.788014 -0.665562 0.742301 -0.004919 -0.003805 86872.500000 1 0 0
-5.408615 -1.848205 5.190277 7.720619 0.329275 0.833537 0.003600 -0.006350 717863.000000 1 0 0
6.470085 -3.754005 -7.413923 10.531895 -0.525741 2.351739 -0.001201 -0.002914 313823.000000 1 0 0
6.300485 4.709095 11.032977 13.549844 0.641847 0.619358 -0.004481 0.004814 400146.000000 1 0 0
3.916885 -9.998105 3.152177 11.191081 -1.197411 1.285264 -0.005978 -0.000596 1072120.000000 1 0 0
-6.623615 6.636595 -5.725623 10.986329 -0.786377 2.119005 -0.001072 -0.001928 299096.000000 1 0 0
-10.980315 8.467695 5.391277 14.877334 -0.656913 1.199974 -0.004342 -0.006798 367394.000000 1 0 0
-9.098115 -5.457505 5.194377 11.812773 0.540309 1.115503 -0.000280 -0.004585 -413929.000000 1 0 0
3.172285 9.913595 -8.022423 13.141615 1.261099 2.227437 -0.002767 -0.001952 725804.000000 1 0 0
-7.990615 -8.618805 6.151677 13.265627 0.823201 1.088595 0.005591 -0.004081 -3051740.000000 1 0 0
-7.895115 -5.783705 -7.398923 12.268991 0.632251 2.218126 0.011802 -0.007851 -2188000.000000 1 0 0
9.302685 -1.617005 6.960277 11.730307 -0.172102 0.935572 -0.001215 -0.003748 466571.000000 1 0 0
-4.097015 -0.387105 -4.907323 6.404467 0.094205 2.443756 0.012305 -0.010060 -1006960.000000 1 0 0
9.087185 1.155095 -4.614123 10.256769 0.126435 2.037406 -0.005045 0.002313 -2848630.000000 1 0 0
-1.844315 -10.612505 10.584577 15.101656 1.398728 0.794154 -0.007525 -0.003798 355675.000000 1 0 0
-12.928515 0.320295 -2.586323 13.188562 -0.024769 1.768179 0.000229 -0.001914 -589302.000000 1 0 0
-9.907315 -5.158505 -5.987123 12.673228 0.480052 2.062834 0.011291 -0.007771 -569014.000000 1 0 0
-5.784615 8.307795 -0.215023 10.125585 -0.962566 1.592034 0.000219 0.002194 866269.000000 1 0 0
6.327985 9.608695 0.466577 11.514691 0.988421 1.530265 -0.000318 0.000585 305698.000000 1 0 0
-0.478915 -12.093305 -0.004823 12.102785 1.531215 1.571195 0.004690 -0.001439 -371693.000000 1 0 0
6.013485 4.646295 2.330177 7.948571 0.657838 1.273269 -0.004687 0.002523 383323.000000 1 0 0
3.385585 -7.428405 -8.303623 11.644464 -1.143161 2.364701 -0.009521 0.000014 780696.000000 1 0 0
-6.479115 -9.818205 4.612977 12.635491 0.987487 1.197077 0.002856 -0.002656 -3399010.000000 1 0 0
-0.085615 6.554795 -9.299223 11.377531 -1.557736 2.527562 0.004068 -0.001550 -1915160.000000 1 0 0
-17.269215 -2.675805 4.338077 18.005684 0.153724 1.327474 0.005820 -0.007460 1109370.000000 1 0 0
-8.544215 0.849795 -9.015223 12.449900 -0.099133 2.380554 0.000982 -0.002945 1832730.000000 1 0 0
-10.093915 -5.879405 -11.780323 16.590073 0.527430 2.360412 0.007084 0.001536 -635026.000000 1 0 0
2.157185 9.458995 6.469877 11.661276 1.346575 0.982653 -0.006629 0.009710 -732461.000000 1 0 0
-11.388515 1.636595 -1.102823 11.558241 -0.142729 1.666356 0.001816 -0.002353 -925840.000000 1 0 0
-6.096915 -5.394705 -3.040923 8.690364 0.724368 1.928281 0.014871 -0.006330 545452.000000 1 0 0
-6.959215 -8.332505 1.427377 10.949827 0.874964 1.440068 0.008644 -0.003837 130030.000000 1 0 0
-0.148315 10.786495 -7.854423 13.344004 -1.557047 2.200136 -0.002144 0.001385 869064.000000 1 0 0
-2.893215 9.128495 -4.296323 10.495643 -1.263869 1.992531 0.002820 -0.001787 56406.900000 1 0 0
3.503085 -4.852905 9.357377 11.107781 -0.945554 0.569044 -0.005074 -0.001801 -731762.000000 1 0 0
-8.933815 1.600995 -0.445223 9.087049 -0.177324 1.619811 -0.000624 -0.001927 -955345.000000 1 0 0
2.284185 3.681695 -10.476123 11.336734 1.015500 2.749435 0.003859 -0.002914 -292704.000000 1 0 0
-13.685115 0.500995 1.341677 13.759850 -0.036592 1.473134 -0.007668 -0.001567 -1451980.000000 1 0 0
9.369385 -12.611505 -5.150023 16.533546 -0.931840 1.887556 0.019426 0.004300 -1828530.000000 1 0 0
-4.805715 9.407395 -8.230123 13.391374 -1.098511 2.232655 -0.003226 -0.000306 -1284220.000000 1 0 0
-2.270215 7.216495 8.389977 11.297053 -1.266011 0.733748 -0.005749 0.001901 -1103960.000000 1 0 0
-10.756815 -1.465405 -4.415923 11.719934 0.135397 1.957122 0.005042 -0.004792 -4245330.000000 1 0 0
2.821785 -7.286805 9.635677 12.405896 -1.201333 0.681385 -0.006057 -0.002113 -650899.000000 1 0 0
-16.106615 -6.396305 3.516877 17.683444 0.378024 1.370582 -0.001561 -0.005736 -35389.900000 1 0 0
-10.771015 -0.036005 6.205077 12.430569 0.003343 1.048145 -0.007261 -0.005265 118253.000000 1 0 0
-8.280215 9.940795 9.432377 16.010968 -0.876283 0.940827 -0.006813 -0.006806 -77558.700000 1 0 0
0.253685 -5.977905 -3.741623 7.056872 -1.528385 2.129644 -0.000243 -0.001675 419957.000000 1 0 0
4.960485 1.567295 -3.080923 6.046066 0.306030 2.105487 -0.001851 0.000284 -157922.000000 1 0 0
0.378485 5.354295 3.793977 6.573126 1.500226 0.955507 -0.007812 0.006617 -3822840.000000 1 0 0
5.960985 -11.313505 -1.605723 12.888253 -1.085868 1.695709 0.000272 0.001498 -1519380.000000 1 0 0
6.236185 -13.603005 5.172777 15.833173 -1.140944 1.237981 0.007518 -0.004537 205144.000000 1 0 0
8.110585 -8.170205 -6.039723 13.000465 -0.789060 2.053954 -0.000346 -0.001678 612268.000000 1 0 0
-13.156515 -1.336805 -4.609023 14.004429 0.101260 1.906159 -0.000129 0.000018 -3798210.000000 1 0 0
-6.849915 -1.623705 -7.087823 9.989744 0.232744 2.359599 0.013499 -0.007611 -966448.000000 1 0 0
-5.678915 12.908795 -4.479523 14.797067 -1.156351 1.878353 0.002889 0.001502 473287.000000 1 0 0
-4.334515 6.958895 -6.817723 10.662814 -1.013727 2.264504 0.005631 -0.002390 -2958970.000000 1 0 0
-9.390815 -3.753405 -7.995123 12.891759 0.380238 2.239760 0.011281 -0.005640 504368.000000 1 0 0
-1.995715 -6.360005 9.115077 11.292350 1.266735 0.631419 -0.002052 -0.005137 -239669.000000 1 0 0
7.470885 -6.212205 9.979077 13.927943 -0.693668 0.772055 -0.005267 -0.000954 257365.000000 1 0 0
9.678685 -5.231105 12.136577 16.381022 -0.495502 0.736398 -0.002780 0.000648 -664802.000000 1 0 0
-6.666015 2.814195 -9.005923 11.552580 -0.399472 2.464758 0.004213 -0.004735 -176849.000000 1 0 0
7.524585 5.449395 8.908277 12.871390 0.626792 0.806403 -0.002361 0.002624 69169.000000 1 0 0
12.725685 3.211695 11.117777 17.200669 0.247216 0.867996 0.011846 0.005584 -873845.000000 1 0 0
-7.421115 -7.329405 -3.890123 11.132214 0.779181 1.927778 0.017016 -0.009712 -1912130.000000 1 0 0
2.181885 1.469295 -5.782023 6.352263 0.592654 2.714637 0.003291 -0.004659 776.204000 1 0 0
12.758085 7.034295 -7.209123 16.254891 0.503887 2.030302 0.007100 0.002202 400742.000000 1 0 0
0.826885 -7.834305 0.968477 7.937129 -1.465639 1.448473 0.000026 -0.001904 1034640.000000 1 0 0
-10.314015 -6.036505 -8.459223 14.641610 0.529520 2.186768 0.013739 -0.006356 433713.000000 1 0 0
-6.748315 0.271595 3.154777 7.454270 -0.040225 1.133803 0.004169 -0.004943 261685.000000 1 0 0
10.714985 -7.898305 1.135077 13.359735 -0.635211 1.485731 0.002463 -0.002527 84692.200000 1 0 0
6.289085 1.041695 10.573677 12.346674 0.164145 0.542542 -0.002999 0.001878 -1248040.000000 1 0 0
-12.920015 5.442495 1.952077 14.154793 -0.398686 1.432446 -0.006316 -0.001177 103493.000000 1 0 0
2.107485 7.347395 3.535377 8.421674 1.291462 1.137577 -0.010601 0.005825 128406.000000 1 0 0
10.005285 -9.519605 -0.904623 13.840048 -0.760528 1.636206 0.002317 -0.000073 731306.000000 1 0 0
6.640585 -11.684005 -9.089223 16.224281 -1.053975 2.165452 -0.002206 0.004899 -42058.600000 1 0 0
10.276385 3.496795 11.824277 16.051330 0.327985 0.742687 0.001267 0.004491 -899471.000000 1 0 0
-11.073615 -3.080905 -1.908223 11.651534 0.271358 1.735312 0.002165 -0.003155 -387334.000000 1 0 0
12.293285 0.946095 6.713977 14.039139 0.076809 1.072155 0.004105 -0.000662 15721.500000 1 0 0
-9.615315 9.195795 3.096277 13.660303 -0.763100 1.342147 -0.001308 -0.004073 1472350.000000 1 0 0
-6.751315 7.710495 -8.766723 13.486565 -0.851626 2.278425 -0.003216 -0.001992 -1205160.000000 1 0 0
8.569885 5.533795 12.042977 15.782874 0.573365 0.702792 0.003138 0.004311 -1498740.000000 1 0 0
1.395685 5.005895 -2.740623 5.875197 1.298893 2.056096 -0.001122 -0.001935 900340.000000 1 0 0
1.436585 0.434795 9.503477 9.621273 0.293894 0.156642 -0.004387 0.001382 571362.000000 1 0 0
2.526185 12.562095 -3.934923 13.404159 1.372347 1.868745 -0.003832 -0.000067 670440.000000 1 0 0
2.175985 0.438395 12.965077 13.153719 0.198808 0.169563 0.000834 -0.001465 -639191.000000 1 0 0
-12.264515 -1.741605 0.931777 12.422549 0.141060 1.495719 -0.005769 -0.004391 -163663.000000 1 0 0
3.370285 8.676595 -1.316723 9.400845 1.200300 1.711323 0.000543 0.002203 -337956.000000 1 0 0
3.750985 -2.798105 -5.876023 7.511786 -0.640914 2.469051 -0.003574 -0.002798 -768309.000000 1 0 0
-7.611915 -7.135705 9.288577 13.969152 0.753119 0.843390 -0.000208 -0.005214 -17896.200000 1 0 0
-7.039015 10.924595 -3.459523 13.448525 -0.998419 1.830963 0.004237 0.000902 -320613.000000 1 0 0
0.394685 0.444595 2.513077 2.582440 0.844797 0.232296 -0.004075 -0.000679 -2526070.000000 1 0 0
-7.120115 4.481795 -1.907923 8.626859 -0.561797 1.793801 0.004230 -0.002076 -1113410.000000 1 0 0
-6.963915 -4.036505 -5.746423 9.889937 0.525308 2.190799 0.012945 -0.006963 -49049.700000 1 0 0
3.159985 -6.189405 13.482277 15.167928 -1.098746 0.475929 -0.002097 -0.005500 -1672180.000000 1 0 0
-5.660115 -0.482805 -11.575623 12.894381 0.085093 2.685377 0.011935 -0.004709 -997464.000000 1 0 0
11.884685 2.523595 -0.701023 12.169868 0.209232 1.628431 -0.002207 -0.000175 -1643160.000000 1 0 0
6.223985 -11.120105 10.686877 16.631418 -1.060532 0.872947 -0.000753 -0.000452 251434.000000 1 0 0
-8.324215 6.533795 -10.485823 14.897501 -0.665474 2.351620 -0.005679 -0.001890 408040.000000 1 0 0
2.933685 7.815595 11.184977 13.956853 1.211708 0.641170 -0.004189 0.005009 893990.000000 1 0 0
-6.234615 -10.096305 -0.389723 11.872560 1.017598 1.603628 0.010813 -0.003201 -286569.000000 1 0 0
11.259585 4.203095 6.024977 13.444129 0.357271 1.106102 -0.001564 0.002325 228483.000000 1 0 0
-7.864415 10.656295 1.415277 13.319484 -0.935015 1.464339 0.000168 0.000224 991020.000000 1 0 0
4.383185 -2.660805 -3.557923 6.241074 -0.545586 2.177402 -0.001139 -0.002876 -4200670.000000 1 0 0
6.517085 6.354895 6.149877 10.985357 0.772799 0.976622 -0.003107 0.002339 -5662330.000000 1 0 0
-0.457015 10.265895 -10.212823 14.487899 -1.526308 2.353108 -0.001951 -0.002797 301695.000000 1 0 0
14.142185 6.567595 -2.588723 15.806207 0.434762 1.735316 0.009873 0.000762 989392.000000 1 0 0
1.436285 9.544295 -6.128223 11.432918 1.421431 2.136507 -0.001390 0.000583 1382750.000000 1 0 0
0.685785 7.310895 7.231777 10.306216 1.477267 0.793028 -0.009789 0.008365 -255.021000 1 0 0
12.252085 6.320195 1.896077 13.915946 0.476244 1.434119 0.001557 0.000618 -801908.000000 1 0 0
-6.721615 6.577095 -3.141023 9.914854 -0.774531 1.893150 0.002784 -0.003864 190895.000000 1 0 0
1.146785 9.758295 11.237777 14.927393 1.453814 0.718447 -0.000077 0.001103 233494.000000 1 0 0
-3.522515 13.612595 -10.810123 17.736111 -1.317582 2.226223 -0.008177 0.003849 81715.300000 1 0 0
-10.013615 -5.428605 -2.233523 11.607363 0.496775 1.764427 0.008223 -0.004904 -125447.000000 1 0 0
-4.103915 4.024495 -12.433923 13.698216 -0.775628 2.708575 0.004874 -0.008180 -215925.000000 1 0 0
-3.092415 8.489595 2.512477 9.378102 -1.221475 1.299574 -0.001299 0.004258 -3561320.000000 1 0 0
7.045085 8.830195 7.072377 13.327569 0.897374 1.011420 -0.000657 0.003065 -213770.000000 1 0 0
-1.274815 -2.257905 -8.198323 8.598592 1.056812 2.835272 0.006720 -0.009487 -2521350.000000 1 0 0
0.851385 -1.356405 4.673177 4.939967 -1.010274 0.330150 -0.001339 -0.001785 -1385990.000000 1 0 0
2.524185 -8.733605 -6.148123 10.974825 -1.289443 2.165426 -0.011550 0.001238 -191020.000000 1 0 0
5.316985 3.934495 8.769677 10.984435 0.637061 0.646208 -0.004425 0.002754 442089.000000 1 0 0
6.114385 -7.421105 -2.761323 10.004169 -0.881640 1.850444 -0.002451 -0.002389 682103.000000 1 0 0
1.769885 2.312895 -8.363523 8.856099 0.917622 2.806500 0.002806 -0.004865 -21945.400000 1 0 0
-5.373915 10.903095 -0.570323 12.168883 -1.112861 1.617681 0.002185 0.002430 896893.000000 1 0 0
-5.329815 3.259895 -3.368223 7.097801 -0.548930 2.065243 0.004941 -0.001909 128353.000000 1 0 0
1.990785 13.841195 -6.144723 15.274146 1.427946 1.984819 -0.018918 0.001340 359834.000000 1 0 0
-5.286915 -2.575305 2.667277 6.457401 0.453282 1.144988 -0.001180 -0.005251 712227.000000 1 0 0
10.259185 -3.451005 -1.872023 10.984752 -0.324492 1.742052 -0.004614 0.001418 396843.000000 1 0 0
2.502685 -3.422805 7.103777 8.273009 -0.939450 0.538129 -0.005547 -0.000763 -1835410.000000 1 0 0
-3.032015 9.860895 -11.721523 15.614880 -1.272493 2.419862 0.000347 -0.000957 -2555620.000000 1 0 0
0.566485 -2.025605 9.103977 9.343788 -1.298101 0.227050 -0.004124 -0.002140 951081.000000 1 0 0
9.472985 2.554495 4.982977 11.004224 0.263396 1.100866 -0.004052 -0.000645 -37858.400000 1 0 0
13.474685 2.164895 -5.191923 14.601711 0.159303 1.934320 0.001970 0.001292 -2085530.000000 1 0 0
-6.292215 3.725995 7.648077 10.581498 -0.534635 0.762982 -0.001174 -0.002858 564690.000000 1 0 0
10.601685 0.037795 1.762977 10.747336 0.003565 1.406013 -0.005574 0.000758 1650100.000000 1 0 0
15.413585 6.838695 -4.718423 17.510279 0.417586 1.843635 0.006755 0.005165 -959741.000000 1 0 0
8.002985 -4.887305 -9.261823 13.180094 -0.548239 2.350000 0.001218 0.000119 1010720.000000 1 0 0
4.471785 5.646195 -2.193223 7.529051 0.900953 1.866383 -0.001256 0.000078 -114870.000000 1 0 0
-1.582915 -10.465205 1.481777 10.687460 1.420679 1.431702 0.002722 0.000895 -844458.000000 1 0 0
-2.909115 12.199895 -12.874823 17.973911 -1.336714 2.369291 -0.004759 0.000290 -565279.000000 1 0 0
8.298485 4.304295 -9.711523 13.479818 0.478483 2.375246 -0.001843 0.005492 -1368800.000000 1 0 0
4.008485 7.693295 -8.962023 12.472875 1.090462 2.372470 0.000079 -0.000327 -3286200.000000 1 0 0
-1.748715 -4.996605 -2.441923 5.829841 1.234139 2.002993 0.007553 -0.004156 -1144320.000000 1 0 0
-3.243815 -8.976505 7.119277 11.907312 1.224031 0.929929 -0.003276 0.000308 -1251910.000000 1 0 0
1.156985 7.325795 -1.516623 7.570075 1.414157 1.772506 -0.001724 0.002754 1116670.000000 1 0 0
0.346485 -0.863705 -2.280723 2.463277 -1.189289 2.754180 0.005955 -0.002081 -847529.000000 1 0 0
4.117385 -6.740905 7.506477 10.896782 -1.022469 0.810866 -0.004132 0.001578 817968.000000 1 0 0
-13.898315 3.910695 6.109777 15.677566 -0.274287 1.170475 -0.008850 -0.003220 -742463.000000 1 0 0
4.344885 6.222895 12.509377 14.631711 0.961273 0.545342 -0.002810 0.002192 -1513030.000000 1 0 0
8.266185 10.095095 -7.241523 14.922480 0.884678 2.077475 0.009908 -0.002464 -21105.600000 1 0 0
12.577485 5.271195 9.439377 16.585550 0.396861 0.965346 0.007611 0.007144 373258.000000 1 0 0
7.507485 4.047395 0.320777 8.535024 0.494448 1.533204 -0.001550 0.003708 -1780300.000000 1 0 0
-10.907715 -7.515705 -1.029723 13.286248 0.603323 1.648377 0.007438 -0.003970 -589013.000000 1 0 0
10.495485 6.814295 0.142477 12.514397 0.575855 1.559411 -0.000712 -0.000606 -1181490.000000 1 0 0
14.487685 3.513195 4.124477 15.467607 0.237903 1.300878 0.006481 0.000659 635108.000000 1 0 0
2.210285 5.637595 8.141977 10.146902 1.197152 0.639473 -0.010646 0.005897 -438150.000000 1 0 0
4.272885 -0.018305 11.670577 12.428204 -0.004284 0.350970 -0.002704 0.000039 -2011570.000000 1 0 0
-1.561315 -1.547105 -0.530623 2.261150 0.780827 1.807675 0.009170 -0.006665 -344010.000000 1 0 0
3.102385 -5.083105 -9.478423 11.193893 -1.022814 2.580641 -0.010434 -0.001157 496697.000000 1 0 0
-4.013215 -5.331105 -1.400723 6.818255 0.925510 1.777707 0.008653 -0.005328 -962581.000000 1 0 0
-1.111815 -8.685505 8.600177 12.273433 1.443481 0.794397 -0.003583 -0.001624 -458590.000000 1 0 0
3.912985 8.619695 -6.008623 11.212232 1.144655 2.136368 0.003228 -0.000422 123510.000000 1 0 0
-14.249815 -1.781705 -2.569123 14.588766 0.124388 1.747822 -0.003363 -0.002702 -1116770.000000 1 0 0
8.762085 -10.531705 -6.760023 15.277069 -0.876862 2.029175 0.002639 0.000909 451759.000000 1 0 0
14.827985 6.101195 1.503977 16.104523 0.390351 1.477272 -0.007641 0.002805 152068.000000 1 0 0
-5.956515 0.350995 -8.462023 10.354183 -0.058858 2.527430 0.011472 -0.010827 -333725.000000 1 0 0
-7.983415 -4.687405 -12.823723 15.816275 0.530912 2.516302 -0.001046 -0.003920 524584.000000 1 0 0
0.853985 -10.733305 12.060577 16.167580 -1.491400 0.728802 -0.002650 0.000676 -391008.000000 1 0 0
0.299985 11.636895 3.333977 12.108787 1.545023 1.291858 -0.001106 0.002627 -104852.000000 1 0 0
5.034685 -13.256005 -3.808923 14.682561 -1.207821 1.833216 0.000551 0.006349 45824.900000 1 0 0
-7.559815 1.589795 -6.914323 10.367551 -0.207275 2.300863 0.003824 -0.003140 793769.000000 1 0 0
1.459185 2.734395 4.028477 5.082791 1.080600 0.655781 -0.008719 0.002194 -2203410.000000 1 0 0
17.254885 5.455695 2.105277 18.218887 0.306236 1.454983 -0.011767 0.003215 625788.000000 1 0 0
2.460985 -8.171705 -3.551523 9.243729 -1.278276 1.965147 -0.005868 0.000723 347002.000000 1 0 0
-0.406215 -9.357305 -0.647023 9.388440 1.527412 1.639768 0.003864 0.001465 -1321580.000000 1 0 0
0.694385 11.955795 -5.619523 13.228842 1.512782 2.009530 -0.007062 0.004073 -860901.000000 1 0 0
6.084585 -5.101605 7.802277 11.132119 -0.697749 0.794166 -0.005637 0.000015 -912760.000000 1 0 0
-6.155915 -1.954005 -9.430923 11.430474 0.307360 2.541120 0.010134 -0.007842 -384289.000000 1 0 0
2.212185 -1.447905 11.128677 11.438428 -0.579542 0.233251 -0.004159 -0.000668 -917157.000000 1 0 0
17.987285 2.402295 -5.973223 19.104785 0.132770 1.888784 -0.000616 0.009032 -1269240.000000 1 0 0
-8.767515 4.785695 7.828177 12.690648 -0.499647 0.906067 -0.005509 -0.008142 -389444.000000 1 0 0
11.469985 -7.067005 -4.992623 14.367651 -0.552196 1.925690 0.011234 -0.004404 384851.000000 1 0 0
10.781585 0.533195 8.834477 13.949009 0.049414 0.884934 -0.001637 0.000485 141156.000000 1 0 0
-8.380215 -7.370505 -1.460423 11.255451 0.721380 1.700916 0.013491 -0.006892 -635369.000000 1 0 0
10.283885 -10.460705 -3.358823 15.048798 -0.793922 1.795888 0.015258 -0.000146 859708.000000 1 0 0
7.605585 -14.005805 -3.900023 16.407854 -1.073319 1.810786 0.013221 0.006151 225226.000000 1 0 0
1.669385 -1.147105 -11.846623 12.018535 -0.602044 2.972252 -0.000097 -0.007825 179891.000000 1 0 0
-11.825715 -2.643605 -6.370723 13.690226 0.219931 2.054824 0.004172 -0.003330 180179.000000 1 0 0
2.609185 -12.180405 -6.518523 14.059205 -1.359774 2.052904 -0.007039 0.005939 -250140.000000 1 0 0
-5.535915 1.366795 1.060577 5.799941 -0.242055 1.386902 0.004971 -0.005244 477955.000000 1 0 0
0.037685 6.914895 -4.071723 8.024720 1.565347 2.102958 0.003743 0.000184 1440530.000000 1 0 0
5.494985 -11.880605 3.593477 13.574119 -1.137582 1.302872 -0.003124 -0.003738 -4050840.000000 1 0 0
-4.362615 -9.101705 1.051677 10.147880 1.123830 1.466975 0.005434 -0.002393 -212631.000000 1 0 0
7.126885 -6.195305 -4.701523 10.548867 -0.715585 2.032741 0.000220 -0.001413 -25150.300000 1 0 0
-6.946915 -6.002505 2.301977 9.465136 0.712596 1.325127 0.003665 -0.004101 -88920.900000 1 0 0
-6.298315 -0.862505 7.091377 9.523671 0.136096 0.730853 -0.000091 -0.005823 -1700210.000000 1 0 0
4.248885 -5.139905 3.115577 7.360602 -0.880017 1.133737 -0.004288 -0.001160 -790410.000000 1 0 0
-2.642615 10.461095 -8.764523 13.900892 -1.323359 2.252995 -0.003467 -0.002397 -849450.000000 1 0 0
-2.297615 -4.848805 2.715277 6.013541 1.128285 1.102320 0.001678 -0.002838 260001.000000 1 0 0
15.132085 5.019795 6.286677 17.137696 0.320309 1.195194 0.008267 -0.000613 1057170.000000 1 0 0
6.869685 0.218595 0.102077 6.873920 0.031810 1.555946 0.000166 -0.000437 3078270.000000 1 0 0
-9.747215 9.205895 0.485377 13.416121 -0.756845 1.534610 -0.003128 -0.001955 -1751810.000000 1 0 0
7.204985 10.390895 -2.610723 12.911173 0.964518 1.774407 -0.002038 0.001888 -353826.000000 1 0 0
1.587685 -4.158105 -5.477523 7.057892 -1.206052 2.459230 -0.002236 -0.003241 -893439.000000 1 0 0
0.832285 -8.082405 -7.989823 11.395404 -1.468183 2.347797 -0.008374 0.001060 -140467.000000 1 0 0
-10.500815 0.312195 -10.418723 14.795755 -0.029722 2.352049 -0.005267 -0.001253 -4583590.000000 1 0 0
5.948585 -2.506405 0.547777 6.478255 -0.398771 1.486139 -0.000953 -0.000935 -116628.000000 1 0 0
-3.321115 5.211695 -1.045923 6.267817 -1.003442 1.738453 0.003996 -0.003100 1614950.000000 1 0 0
-0.438315 4.532395 -5.069423 6.814233 -1.474389 2.409753 0.005012 -0.005177 -374987.000000 1 0 0
4.046585 -9.945705 10.030077 14.693343 -1.184384 0.819444 -0.005462 0.001309 -1665410.000000 1 0 0
7.206785 -13.541605 -0.810723 15.361318 -1.081725 1.623598 0.013575 0.003442 326701.000000 1 0 0
12.977385 0.025895 0.393477 12.983374 0.001995 1.540485 -0.002032 -0.003194 516561.000000 1 0 0
9.277685 2.432995 -0.627023 9.611871 0.256467 1.636077 -0.002309 0.001436 -182889.000000 1 0 0
-0.705115 -5.780705 4.498077 7.358426 1.449419 0.913116 -0.001569 -0.000824 2095450.000000 1 0 0
11.386785 -3.744305 3.208577 12.408612 -0.317691 1.309248 -0.000397 -0.002986 -3205240.000000 1 0 0
1.859185 -8.316805 11.737777 14.505213 -1.350867 0.627989 -0.006600 -0.002416 345511.000000 1 0 0
9.398185 -5.867305 -6.054123 12.625512 -0.558097 2.070898 0.002072 -0.006121 -1575070.000000 1 0 0
3.202285 6.328695 -0.186623 7.095198 1.102365 1.597102 -0.004497 0.004339 -1378880.000000 1 0 0
6.382285 -1.446905 11.365877 13.115268 -0.222938 0.522420 -0.004587 0.000139 315498.000000 1 0 0
-4.826715 -7.615405 -3.798523 9.783678 1.005887 1.969529 0.011691 -0.005551 -537593.000000 1 0 0
-3.470315 -8.496005 -5.863123 10.890427 1.183014 2.139303 0.005342 -0.003799 -528773.000000 1 0 0
9.715585 5.364595 2.015377 11.279770 0.504503 1.391160 -0.000380 -0.001238 -152128.000000 1 0 0
8.802385 -1.471805 0.215677 8.927189 -0.165673 1.546634 -0.003878 0.000704 915745.000000 1 0 0
-3.786215 9.518395 9.174877 13.751860 -1.192206 0.840388 -0.005164 -0.000922 174271.000000 1 0 0
-14.412815 -3.533105 -5.967823 15.994592 0.240396 1.953161 -0.003462 0.000294 31682.900000 1 0 0
10.657985 6.273595 -5.972823 13.734091 0.532016 2.020713 0.001215 0.000881 1053120.000000 1 0 0
-1.753315 4.498995 2.637677 5.502037 -1.199190 1.070825 -0.003204 0.002379 228578.000000 1 0 0
6.903385 -3.737305 2.730777 8.311517 -0.496196 1.236025 -0.003905 -0.000850 -2358650.000000 1 0 0
8.342385 -11.293205 -1.622323 14.133782 -0.934561 1.685833 0.009400 -0.001407 -2948130.000000 1 0 0
4.592885 0.471795 1.787177 4.950877 0.102364 1.201476 -0.004076 0.002056 639031.000000 1 0 0
-10.791715 2.371595 3.760877 11.671751 -0.216322 1.242722 -0.006618 -0.003174 205114.000000 1 0 0
-0.752315 -3.143205 4.366377 5.432399 1.335869 0.637198 -0.000466 -0.003660 184646.000000 1 0 0
8.572585 -8.724705 -8.594323 14.948982 -0.794192 2.183291 0.008742 -0.000900 -796285.000000 1 0 0
12.036985 -4.851205 0.910877 13.009723 -0.383111 1.500724 -0.001907 -0.000666 288304.000000 1 0 0
2.892585 4.766895 3.528977 6.598789 1.025387 1.006535 -0.010221 0.004011 -185257.000000 1 0 0
6.187785 7.407895 1.959777 9.849179 0.874901 1.370481 -0.004706 0.001943 -264441.000000 1 0 0
-1.541415 -1.206805 -10.421923 10.604189 0.664239 2.955918 0.013597 -0.010237 969384.000000 1 0 0
-0.959015 -8.532405 5.977377 10.461868 1.458869 0.962648 -0.004962 -0.001328 549308.000000 1 0 0
-4.294315 -0.249405 2.318177 4.886439 0.058013 1.076502 0.002535 -0.004157 419213.000000 1 0 0
-8.384115 6.169495 -7.926723 13.083921 -0.634387 2.221614 -0.006230 0.001217 -913570.000000 1 0 0
6.339785 11.150595 -9.369623 15.884536 1.053815 2.201679 -0.003663 -0.008447 223866.000000 1 0 0
-11.136515 -5.765305 3.237677 12.951574 0.477702 1.318133 0.003459 -0.005788 1378580.000000 1 0 0
1.507785 -6.259305 2.972577 7.091440 -1.334413 1.138256 -0.001094 -0.001844 487869.000000 1 0 0
10.044685 2.180295 7.286077 12.599059 0.213744 0.954149 -0.000185 0.001390 -2274680.000000 1 0 0
-4.032715 -2.312505 -10.532323 11.512615 0.520658 2.725934 0.011784 -0.008461 -1509760.000000 1 0 0
-8.252215 11.666595 5.900577 15.460443 -0.955163 1.179209 -0.000077 -0.003787 -381685.000000 1 0 0
6.811385 6.062095 -3.022823 9.606322 0.727260 1.890905 0.003661 0.000726 -3257020.000000 1 0 0
3.915085 -9.837505 -2.394823 10.855393 -1.192037 1.793238 -0.004912 -0.000353 -451029.000000 1 0 0
8.479285 -12.865705 -7.547323 17.157701 -0.988078 2.026261 0.013273 0.005513 623768.000000 1 0 0
-1.102515 9.394095 3.737977 10.170400 -1.453968 1.194439 -0.004208 0.003309 -58116.200000 1 0 0
0.507185 -13.193205 4.666477 14.003353 -1.532372 1.231058 -0.002019 -0.000352 -1278520.000000 1 0 0
-11.310515 -7.095205 -5.011323 14.261243 0.560259 1.929857 0.008975 -0.008588 -189143.000000 1 0 0
3.700285 10.365395 -3.376523 11.512360 1.227913 1.868468 0.003510 0.001113 -313732.000000 1 0 0
11.452285 -8.081005 -7.519723 15.906090 -0.614490 2.063214 0.016657 -0.004290 153062.000000 1 0 0
11.635285 -4.686205 -5.962023 13.888343 -0.382882 2.014495 0.005640 -0.003913 -523713.000000 1 0 0
1.285985 -10.296005 -2.659323 10.711371 -1.446538 1.821691 -0.005124 0.003431 -878096.000000 1 0 0
2.391685 -11.946705 -3.978223 12.816792 -1.373212 1.886401 -0.002974 0.003023 -1480340.000000 1 0 0
-7.541415 -5.559905 7.264777 11.855904 0.635291 0.911253 0.003331 -0.004855 -3336240.000000 1 0 0
-7.166915 -0.859605 9.597177 12.008722 0.119370 0.644860 -0.001413 -0.004871 -768367.000000 1 0 0
16.133385 2.637495 -7.686323 18.064386 0.162047 2.010306 -0.003827 0.003764 131982.000000 1 0 0
-2.089615 6.230195 -5.602523 8.635397 -1.247186 2.276784 0.004207 -0.001040 -574067.000000 1 0 0
7.640985 1.188295 8.383877 11.405529 0.154280 0.745024 -0.003433 0.000789 -1372770.000000 1 0 0
7.942785 8.270995 -3.875623 12.104447 0.805638 1.896718 0.002110 0.000775 39692.800000 1 0 0
8.076985 0.441995 3.977577 9.014109 0.054668 1.113793 -0.005127 0.000701 696465.000000 1 0 0
-6.916215 5.804795 5.277477 10.458558 -0.698251 1.041868 0.000890 -0.005046 68455.400000 1 0 0
-5.906115 -2.135805 -4.590323 7.779134 0.346994 2.201956 0.015583 -0.007883 168423.000000 1 0 0
-15.076315 -1.864705 3.189577 15.522429 0.123059 1.363840 -0.000774 -0.006371 -419336.000000 1 0 0
0.969185 1.302395 -10.629123 10.752386 0.931046 2.990029 0.005483 -0.008742 323161.000000 1 0 0
1.539285 -9.345005 9.421877 13.359277 -1.407545 0.787995 -0.005080 -0.000884 -669107.000000 1 0 0
-0.104615 -6.672205 -1.182023 6.776905 1.555118 1.746112 0.001730 -0.000193 473465.000000 1 0 0
-0.469015 -10.222205 -8.475123 13.286879 1.524946 2.262508 -0.008078 0.000730 -580023.000000 1 0 0
-4.269815 6.449295 3.730277 8.587182 -0.985990 1.121424 -0.000155 0.001783 -109471.000000 1 0 0
10.709185 -1.154205 -8.794923 13.905736 -0.107363 2.255531 0.007661 0.000946 305899.000000 1 0 0
3.069185 -1.192505 6.179277 7.001816 -0.370589 0.489592 -0.006111 0.000857 854566.000000 1 0 0
2.087485 -12.403305 6.719077 14.259928 -1.404058 1.080162 -0.003358 -0.001021 358107.000000 1 0 0
2.843885 -4.958405 -1.463623 5.900479 -1.050054 1.821465 0.003371 -0.002355 -780119.000000 1 0 0
-1.024115 9.483695 -1.602923 9.672572 -1.463226 1.737283 0.001043 0.000998 331407.000000 1 0 0
4.490385 -2.567005 2.573977 5.777406 -0.519326 1.109036 -0.001955 -0.000623 -1337930.000000 1 0 0
17.681985 6.821895 -2.640823 19.135433 0.368215 1.709245 -0.020921 0.014000 1299520.000000 1 0 0
-7.143315 3.556995 -5.405023 9.638124 -0.462004 2.166143 0.003121 -0.004378 1034730.000000 1 0 0
-13.821015 -5.871305 2.301477 15.191757 0.401710 1.418716 -0.003158 -0.006049 856924.000000 1 0 0
6.743885 -6.172805 3.295777 9.718315 -0.741214 1.224804 -0.004673 -0.002560 576212.000000 1 0 0
-4.531615 2.031095 3.474077 6.060536 -0.421361 0.960355 0.001571 -0.003546 991999.000000 1 0 0
6.884185 -12.151805 -5.567523 15.035148 -1.055362 1.950129 0.001029 0.007293 -260767.000000 1 0 0
2.965485 -12.330105 3.230477 13.086694 -1.334771 1.321366 -0.001144 -0.003367 -394500.000000 1 0 0
3.277885 11.401495 -6.040523 13.312646 1.290850 2.041758 -0.006247 0.002382 -422652.000000 1 0 0
-5.566415 -8.269205 6.557277 11.931580 0.978319 0.988943 0.003562 -0.004990 -1066600.000000 1 0 0
-3.889815 6.475295 6.367777 9.879711 -1.029850 0.870387 -0.001579 0.000280 306420.000000 1 0 0
4.236485 4.327695 -7.193423 9.403302 0.796048 2.441821 0.000623 -0.000596 -2309650.000000 1 0 0
-0.314415 -2.703605 1.575377 3.144861 1.455022 1.046115 0.003414 -0.004117 622903.000000 1 0 0
-13.189415 -0.922805 6.769477 14.853890 0.069852 1.097596 -0.011490 -0.002535 -200136.000000 1 0 0
-0.466715 -9.187605 -6.049023 11.010022 1.520042 2.152455 -0.003544 -0.000314 265317.000000 1 0 0
2.139885 -1.610505 -4.013723 4.825226 -0.645171 2.553176 -0.002576 -0.002045 -1063480.000000 1 0 0
11.253885 -1.999505 0.972277 11.471411 -0.175837 1.485938 -0.005709 -0.002124 782819.000000 1 0 0
0.498385 -4.080905 -2.068523 4.602277 -1.449272 2.036953 0.002950 -0.001608 -1000860.000000 1 0 0
1.066685 -7.290005 -11.203923 13.409320 -1.425506 2.559898 -0.007339 0.001601 964145.000000 1 0 0
-4.614115 4.166395 -9.988123 11.764842 -0.734452 2.584850 0.007266 -0.009046 318359.000000 1 0 0
-0.991015 5.862495 -2.115123 6.310682 -1.403336 1.912577 0.001760 -0.000038 -1152230.000000 1 0 0
-11.389915 1.770695 -3.819823 12.143170 -0.154227 1.890795 0.000959 -0.001145 -319073.000000 1 0 0
-1.688815 -11.261705 4.167277 12.126182 1.421945 1.219985 0.002209 -0.000601 -195434.000000 1 0 0
-3.471615 -5.047805 -9.400723 11.220786 0.968341 2.564029 0.004598 0.001079 -1396060.000000 1 0 0
-12.958715 -3.853605 -8.235623 15.830479 0.289047 2.117926 0.004810 -0.000033 -789.484000 1 0 0
11.399985 4.488495 0.447977 12.259972 0.375088 1.534248 0.001762 -0.000095 -336157.000000 1 0 0
-8.905015 -2.367805 -2.899023 9.659717 0.259882 1.875609 0.005578 -0.004866 -419915.000000 1 0 0
-2.445315 -6.060905 -6.485723 9.207537 1.187313 2.352364 0.002116 -0.005841 415471.000000 1 0 0
-0.021615 2.748695 -2.016223 3.408951 -1.562933 2.203652 0.002970 -0.003474 940790.000000 1 0 0
8.077285 6.005595 -5.246323 11.350489 0.639339 2.051283 0.004021 0.000460 -513303.000000 1 0 0
-9.819515 -0.941005 -0.847623 9.900850 0.095538 1.656512 0.001312 -0.003587 -758864.000000 1 0 0
6.035085 0.560195 -8.915223 10.780411 0.092558 2.544517 -0.002291 0.002370 320417.000000 1 0 0
-3.985215 2.479695 8.011477 9.285181 -0.556600 0.529967 -0.003366 0.000486 -265114.000000 1 0 0
-10.235215 -3.348105 1.544377 10.879087 0.316145 1.428357 -0.001981 -0.003264 -92336.500000 1 0 0
-1.870015 -8.103005 -7.925023 11.487455 1.343987 2.332126 -0.001824 -0.004714 -1186690.000000 1 0 0
-9.190915 -9.876505 4.268277 14.150493 0.821339 1.264390 0.004642 -0.002509 -1061720.000000 1 0 0
-1.189915 -10.721405 7.172577 12.954161 1.460264 0.984008 -0.002413 -0.001030 -383847.000000 1 0 0
9.466785 3.827195 -3.821323 10.902750 0.384187 1.928892 -0.000505 0.001303 -760398.000000 1 0 0
12.836685 -0.956005 2.840877 13.181995 -0.074337 1.353580 0.000751 -0.000986 22830.700000 1 0 0
6.491285 11.975695 -6.834223 15.240100 1.074086 2.035812 0.000080 -0.001451 158433.000000 1 0 0
-11.831415 -0.067405 -6.363823 13.434477 0.005697 2.064276 0.002622 0.000756 656952.000000 1 0 0
-7.709515 -6.566305 -11.089723 15.017821 0.705488 2.401547 0.005968 -0.009455 -2005060.000000 1 0 0
4.183985 6.019195 6.543277 9.826032 0.963362 0.842080 -0.008201 0.005156 -2799720.000000 1 0 0
-4.338715 -1.403905 -7.497723 8.775605 0.312944 2.595158 0.011962 -0.013122 -483157.000000 1 0 0
9.561785 9.250195 0.871777 13.332435 0.768836 1.505362 0.003145 -0.000151 -1252150.000000 1 0 0
-8.883215 3.961695 4.896577 10.889583 -0.419502 1.104415 -0.002210 -0.005128 436551.000000 1 0 0
-7.152215 7.942995 -12.216223 16.232112 -0.837736 2.422792 -0.000591 -0.002529 -632485.000000 1 0 0
11.155185 -3.668405 7.194677 13.771664 -0.317712 1.021103 0.000960 -0.004698 323169.000000 1 0 0
11.910585 6.823695 6.403177 15.146799 0.520262 1.134328 0.000199 0.001714 159223.000000 1 0 0
-9.901115 -0.933805 -14.684423 17.735173 0.094035 2.546298 -0.018988 0.007485 483211.000000 1 0 0
1.806385 -13.085005 12.121377 17.927860 -1.433613 0.828313 0.002617 0.002072 214183.000000 1 0 0
3.017585 2.814195 12.958777 13.599831 0.750536 0.308260 -0.002360 0.003397 -536068.000000 1 0 0
-2.457815 -1.511705 10.891277 11.267032 0.551420 0.258987 -0.001491 -0.003708 108768.000000 1 0 0
2.433685 -10.060105 -8.267223 13.246717 -1.333442 2.244770 -0.011453 0.004154 -1414080.000000 1 0 0
13.761385 3.637595 -7.597123 16.134562 0.258423 2.061062 -0.001358 0.001904 -2034220.000000 1 0 0
7.359985 -1.640905 5.111877 9.110062 -0.219362 0.975053 -0.004737 -0.000437 508401.000000 1 0 0
-1.100015 8.690095 10.198277 13.443684 -1.444883 0.709646 -0.003474 0.002530 -179347.000000 1 0 0
-12.203015 -4.641205 0.988577 13.093191 0.363438 1.495221 0.000219 -0.005924 -437336.000000 1 0 0
-4.872715 4.882295 -5.271523 8.681539 -0.786380 2.223342 0.004126 -0.002903 -416624.000000 1 0 0
-11.154415 0.308595 1.988077 11.334402 -0.027659 1.394482 -0.006154 -0.001206 -4042950.000000 1 0 0
-1.261715 2.188795 -4.186323 4.889586 -1.047878 2.598610 0.007544 -0.007341 708350.000000 1 0 0
3.201685 -10.040405 13.121777 16.829781 -1.262110 0.676648 -0.000102 0.000881 -708983.000000 1 0 0
8.881685 4.680695 -1.583323 10.163668 0.485018 1.727216 -0.001578 0.000024 -1312300.000000 1 0 0
4.043085 2.243295 3.809377 5.990848 0.506557 0.881666 -0.009918 0.005424 752165.000000 1 0 0
-5.389615 -3.199305 7.413777 9.708120 0.535704 0.701821 0.003176 -0.007416 -154774.000000 1 0 0
1.731685 -5.842805 7.694277 9.815243 -1.282665 0.669856 -0.006211 -0.001681 43606.100000 1 0 0
-5.682415 -5.948905 -9.915623 12.884056 0.808306 2.449017 0.014972 -0.006511 -551412.000000 1 0 0
-11.632915 -5.678405 5.578277 14.095608 0.454109 1.163917 -0.000262 -0.006861 -2081490.000000 1 0 0
10.491685 6.045095 4.438077 12.896323 0.522720 1.219479 -0.001156 0.001892 -1366930.000000 1 0 0
1.427785 -3.671405 0.372977 3.956879 -1.199901 1.476396 0.008357 -0.002796 -621008.000000 1 0 0
8.761185 4.286895 6.972277 11.989515 0.455055 0.950187 -0.002882 0.005493 85134.500000 1 0 0
-7.781615 12.105595 3.552977 14.823044 -0.999491 1.328747 0.000351 -0.002900 126922.000000 1 0 0
-6.223615 13.314595 -6.884323 16.229779 -1.133544 2.008851 0.004663 -0.003055 880103.000000 1 0 0
4.423485 -6.949905 -1.023023 8.301504 -1.003983 1.694344 -0.001503 -0.003179 -1799610.000000 1 0 0
-1.792415 -8.148405 11.047377 13.843908 1.354273 0.646834 -0.006016 -0.004853 -580529.000000 1 0 0
11.620085 8.787295 -5.683123 15.637801 0.647468 1.942735 0.013713 -0.000572 381672.000000 1 0 0
-3.407315 -2.900805 -1.926223 4.871837 0.705275 1.977277 0.010212 -0.005960 -2643290.000000 1 0 0
-1.967215 5.926495 4.716277 7.825379 -1.250304 0.923929 -0.005791 0.003639 -1173680.000000 1 0 0
0.408485 -11.291905 -5.684423 12.648582 -1.534637 2.036903 -0.005829 0.000700 -417580.000000 1 0 0
-8.783815 6.306995 -1.467223 10.912669 -0.622721 1.705656 0.002962 -0.002175 -644700.000000 1 0 0
2.936585 -0.072105 3.862977 4.852970 -0.024549 0.650134 -0.005658 0.001542 5963.040000 1 0 0
-10.090615 3.952895 -1.017523 10.884909 -0.373365 1.664413 0.001356 -0.000831 125839.000000 1 0 0
6.592085 5.483495 13.567777 16.050199 0.693851 0.563606 0.004506 0.003647 -941642.000000 1 0 0
-8.718115 -1.583805 5.747177 10.561440 0.179708 0.995402 -0.002133 -0.005837 -407361.000000 1 0 0
12.848385 -1.791005 -1.473123 13.055986 -0.138503 1.683868 0.000770 -0.002135 -1749740.000000 1 0 0
5.291785 -5.637705 5.372577 9.415481 -0.817038 0.963547 -0.007188 -0.001577 230814.000000 1 0 0
-8.994515 -1.254405 3.204977 9.630510 0.138570 1.231531 -0.002181 -0.004182 292143.000000 1 0 0
2.042085 5.501895 5.578377 8.096867 1.215396 0.810750 -0.010164 0.003412 -1270970.000000 1 0 0
9.184785 3.164795 -7.430123 12.230410 0.331829 2.223721 0.001177 0.002465 -1354880.000000 1 0 0
2.320985 -2.352105 -1.592823 3.668304 -0.792057 2.019960 0.000654 -0.001753 -15287.100000 1 0 0
-6.378915 0.275495 -4.083123 7.578809 -0.043162 2.139755 0.000698 -0.000862 -1394820.000000 1 0 0
-3.902015 4.137295 4.988877 7.565172 -0.814656 0.850705 -0.001576 -0.001473 1049170.000000 1 0 0
-6.559915 1.837995 -12.290523 14.052319 -0.273181 2.635460 0.001276 -0.001575 -2523320.000000 1 0 0
-0.061115 3.040195 6.223077 6.926270 -1.550697 0.454514 -0.007007 0.001919 958051.000000 1 0 0
-8.700715 9.567295 -1.990323 13.084226 -0.832800 1.723505 -0.001344 0.003200 1135000.000000 1 0 0
-1.180615 -3.709805 -6.208323 7.328013 1.262689 2.581497 -0.001327 -0.004712 -522611.000000 1 0 0
-3.330115 7.005195 -2.875423 8.272272 -1.127040 1.925804 0.002971 0.002636 1187980.000000 1 0 0
7.052985 -0.400905 -4.479023 8.364626 -0.056781 2.135863 -0.000757 0.001996 -522370.000000 1 0 0
-5.039915 -10.770705 6.905677 13.751262 1.133134 1.044673 -0.002573 -0.003089 1394610.000000 1 0 0
9.711385 8.413495 -1.501123 12.936432 0.713912 1.687097 0.002921 0.000736 328211.000000 1 0 0
13.816185 4.663595 -4.489223 15.257431 0.325537 1.869448 0.003489 -0.001029 475752.000000 1 0 0
4.627585 1.178395 -6.847223 8.347911 0.249346 2.532613 -0.002559 -0.001019 189569.000000 1 0 0
9.026185 -4.809605 3.474677 10.801745 -0.489581 1.243296 -0.003490 -0.002731 -1402590.000000 1 0 0
-8.802215 -3.326105 -0.668223 9.433371 0.361286 1.641692 0.002399 -0.004721 105416.000000 1 0 0
-8.686215 -4.256205 -10.344123 14.162150 0.455612 2.389713 0.005462 -0.004694 -381993.000000 1 0 0
10.516485 -1.227305 10.589177 14.974425 -0.116177 0.785336 0.000293 0.000733 652100.000000 1 0 0
2.148585 -11.719305 9.943877 15.518995 -1.389473 0.875315 -0.002311 -0.000683 434009.000000 1 0 0
-6.300215 -10.488905 2.087677 12.412422 1.029895 1.401801 0.004932 -0.002496 -870003.000000 1 0 0
-3.688415 -1.116205 6.735877 7.760307 0.293863 0.519654 0.002588 -0.003017 -1021940.000000 1 0 0
4.725985 -7.669505 3.886977 9.811464 -1.018547 1.163458 -0.005983 -0.000207 353135.000000 1 0 0
11.446785 -9.546405 -5.402523 15.854021 -0.695121 1.918529 0.021257 -0.004542 383346.000000 1 0 0
11.410685 1.106395 11.273577 16.078600 0.096659 0.793781 0.003145 0.001694 -3744.800000 1 0 0
-10.203715 -3.403605 4.463377 11.645689 0.321959 1.177468 -0.002594 -0.004598 1977250.000000 1 0 0
2.115285 8.733095 9.002277 12.719370 1.333158 0.784472 -0.004299 0.006779 -201680.000000 1 0 0
6.610985 8.779295 4.048777 11.712119 0.925365 1.217821 -0.001209 0.004428 678679.000000 1 0 0
-4.120815 3.324695 0.404377 5.310201 -0.678877 1.494572 0.004507 -0.002880 -1791700.000000 1 0 0
4.944785 6.871895 4.224777 9.461637 0.947059 1.107928 -0.005225 0.004242 -1045630.000000 1 0 0
-8.110115 13.165595 1.252677 15.513738 -1.018689 1.489962 0.000062 -0.001245 -1223620.000000 1 0 0
8.732285 8.070595 -9.280823 15.083799 0.746039 2.233543 0.006462 -0.003945 -752188.000000 1 0 0
7.130285 1.863695 5.995877 9.500782 0.255658 0.887835 -0.004750 0.002108 -1225570.000000 1 0 0
11.555385 -6.221305 3.015277 13.465639 -0.493886 1.344958 0.000243 -0.001712 -246893.000000 1 0 0
11.385885 4.748895 -2.123823 12.518027 0.395149 1.741282 -0.000193 -0.000338 188441.000000 1 0 0
-3.947415 14.431095 -5.855923 16.066438 -1.303792 1.943873 -0.002361 0.006996 600121.000000 1 0 0
7.269485 -3.121405 7.023177 10.578922 -0.405579 0.844796 -0.005243 -0.001175 -1940140.000000 1 0 0
-7.972015 -0.451705 0.935777 8.039449 0.056601 1.454134 0.001833 -0.003786 235348.000000 1 0 0
-3.169815 1.058995 10.868777 11.370994 -0.322429 0.298314 -0.003911 -0.001142 -572902.000000 1 0 0
7.083885 -1.198405 -1.979323 7.452202 -0.167587 1.839625 -0.001471 0.000175 -2155780.000000 1 0 0
-7.632315 5.328995 2.964277 9.769205 -0.609527 1.262505 0.005104 -0.002627 843501.000000 1 0 0
9.431185 -2.142205 2.828877 10.076648 -0.223351 1.286236 -0.007221 -0.002146 -1948090.000000 1 0 0
0.306585 3.427095 1.578577 3.785615 1.481575 1.140661 -0.005068 0.001533 -3533160.000000 1 0 0
-7.520915 -3.085605 4.038977 9.077360 0.389328 1.109677 -0.000140 -0.005041 -440081.000000 1 0 0
-2.269115 8.396395 -6.874123 11.086113 -1.306853 2.239623 0.002060 -0.002514 -954750.000000 1 0 0
4.468585 9.742095 7.474077 13.066694 1.140741 0.961861 -0.004909 0.009190 3035340.000000 1 0 0
-11.750115 -3.014105 6.937177 13.974064 0.251103 1.051312 -0.005608 -0.004931 -2201420.000000 1 0 0
-4.793315 2.360195 -5.564223 7.714076 -0.457544 2.376485 0.007221 -0.007054 -144672.000000 1 0 0
-2.733415 2.802895 -1.950623 4.374095 -0.797947 2.033030 0.004133 -0.002360 567780.000000 1 0 0
2.398585 5.129595 11.479777 12.800439 1.133405 0.458253 -0.004819 0.001157 151877.000000 1 0 0
-0.645315 1.615895 4.510877 4.834828 -1.190846 0.368145 -0.003804 -0.000567 -966292.000000 1 0 0
5.118285 1.628095 7.535477 9.253699 0.307973 0.619239 -0.007816 0.001904 758813.000000 1 0 0
3.361985 -8.185905 1.803077 9.031227 -1.181096 1.369796 -0.002874 -0.001627 2845440.000000 1 0 0
4.971485 6.416195 -4.747823 9.403459 0.911590 2.100064 0.006097 -0.000311 -2511660.000000 1 0 0
-4.258315 2.850695 -7.966123 9.472002 -0.589922 2.569958 0.008747 -0.010245 -99565.000000 1 0 0
-8.793215 -2.175605 -12.676823 15.580620 0.242548 2.521161 -0.003226 -0.002056 877645.000000 1 0 0
-7.848115 8.066195 1.434177 11.345188 -0.799101 1.444044 0.004529 -0.001885 105433.000000 1 0 0
7.357285 0.844495 -6.638323 9.945358 0.114283 2.301615 -0.000821 0.000850 632850.000000 1 0 0
8.976585 8.791095 5.478577 13.706832 0.774959 1.159610 -0.000553 0.003560 318831.000000 1 0 0
9.444985 -1.097105 -1.429723 9.615377 -0.115639 1.720041 -0.002846 0.000471 1780610.000000 1 0 0
5.414885 0.013995 4.277177 6.900392 0.002585 0.902251 -0.008673 0.002345 -1197530.000000 1 0 0
-4.158415 -7.160605 -8.066923 11.560360 1.044663 2.343130 0.011775 -0.008878 -119700.000000 1 0 0
-2.069415 7.409995 -0.496323 7.709530 -1.298461 1.635219 0.000692 0.001085 937419.000000 1 0 0
13.341385 -3.426105 -7.631923 15.747285 -0.251371 2.076759 0.004760 0.002890 591031.000000 1 0 0
-4.747615 -5.062005 1.703777 7.146090 0.817436 1.330057 0.005293 -0.005135 1361960.000000 1 0 0
-8.874815 1.325895 2.483377 9.310613 -0.148303 1.300803 -0.000727 -0.002169 -1394840.000000 1 0 0
-0.915715 11.131295 10.171277 15.106262 -1.488716 0.832113 0.000718 -0.000091 622767.000000 1 0 0
-8.511715 0.393495 7.564477 11.394097 -0.046197 0.844782 -0.001866 -0.004930 522991.000000 1 0 0
-6.090815 12.865695 -1.931823 14.365100 -1.128642 1.705685 0.001715 0.001670 575313.000000 1 0 0
-12.809915 -0.743505 3.393277 13.272568 0.057976 1.312265 -0.006244 -0.004401 705466.000000 1 0 0
-6.585015 12.686295 8.821277 16.796412 -1.092013 1.017860 0.001722 -0.006506 -312529.000000 1 0 0
-8.206915 1.045595 -14.025923 16.284141 -0.126721 2.608666 -0.011499 0.004170 -212264.000000 1 0 0
7.263385 2.751895 3.635877 8.576088 0.362161 1.132988 -0.006921 0.001477 87251.600000 1 0 0
-1.589515 0.635795 -2.104423 2.712820 -0.380501 2.458672 0.006952 -0.006772 358173.000000 1 0 0
-6.392615 9.641495 -10.294223 15.485315 -0.985315 2.297987 -0.003404 -0.003773 -160440.000000 1 0 0
-10.045315 13.611095 5.422177 17.764298 -0.935004 1.260618 -0.003195 -0.005523 917270.000000 1 0 0
-5.527815 8.365695 2.447477 10.321422 -0.986886 1.331390 0.002010 0.000259 -1967080.000000 1 0 0
-2.413015 -10.703505 -1.204323 11.038027 1.349062 1.680121 0.006261 -0.001025 589916.000000 1 0 0
-2.237315 -12.355105 8.796477 15.330760 1.391653 0.959683 -0.006641 -0.002429 301182.000000 1 0 0
-14.764515 -6.365605 -1.612123 16.158922 0.407062 1.670729 0.009375 -0.002554 442617.000000 1 0 0
-2.690815 -9.380705 3.303377 10.302932 1.291451 1.244407 0.001546 -0.001668 -1923990.000000 1 0 0
4.758285 -2.735805 7.440477 9.245896 -0.521801 0.635571 -0.006467 0.002349 -1132940.000000 1 0 0
-15.008015 -1.114405 -0.190823 15.050543 0.074118 1.583475 -0.007356 -0.003953 83707.800000 1 0 0
5.489485 8.783595 -2.893323 10.754409 1.012218 1.843188 0.000815 0.001803 -1764790.000000 1 0 0
-5.532215 -5.612305 8.494677 11.587187 0.792584 0.747914 0.003782 -0.005910 -2777790.000000 1 0 0
3.470585 3.625495 6.955877 8.577494 0.807225 0.625031 -0.009384 0.003827 467579.000000 1 0 0
3.369985 2.373795 9.348477 10.216933 0.613669 0.415292 -0.004351 0.000026 908780.000000 1 0 0
9.857485 -3.274305 5.135677 11.587332 -0.320698 1.111615 -0.000131 -0.004754 -549388.000000 1 0 0
6.566785 10.050295 -5.150923 13.063809 0.992040 1.976091 0.001456 -0.000633 387868.000000 1 0 0
-4.549915 12.083395 -8.381923 15.393726 -1.210674 2.146592 -0.005072 -0.001397 -414089.000000 1 0 0
-3.291015 -7.183205 2.166777 8.192932 1.141182 1.303143 0.003783 -0.003276 974984.000000 1 0 0
-7.506715 -4.145405 1.267377 8.668414 0.504551 1.424064 0.002048 -0.005771 3084040.000000 1 0 0
-1.988515 -3.855605 -10.979123 11.805127 1.094631 2.765291 0.009023 -0.005636 -653655.000000 1 0 0
-5.226115 8.235195 -4.392623 10.697002 -1.005318 1.993953 0.000588 0.000278 -1788430.000000 1 0 0
-11.034715 -3.391705 -10.031123 15.293529 0.298202 2.286179 0.004736 -0.000057 -614431.000000 1 0 0
4.564785 -11.230805 -7.653023 14.336561 -1.184740 2.133898 -0.008454 0.001751 -1337120.000000 1 0 0
-9.329015 -3.954005 7.389277 12.540578 0.400887 0.940692 -0.000128 -0.006321 -677754.000000 1 0 0
-5.793415 -9.690905 -5.150123 12.409716 1.031981 1.998747 0.011032 -0.008830 1145880.000000 1 0 0
4.757285 4.435395 -9.642123 11.630779 0.750397 2.548145 0.001153 0.003810 845506.000000 1 0 0
-3.537815 -7.111205 -14.077323 16.163428 1.109152 2.627902 -0.010895 0.004689 444800.000000 1 0 0
0.577285 -0.674505 -8.777123 8.821910 -0.862907 3.040785 0.004507 -0.011338 -895378.000000 1 0 0
-7.707715 2.158795 -2.942223 8.527951 -0.273085 1.923045 0.002118 -0.001538 -482515.000000 1 0 0
-2.523015 7.443695 -12.507623 14.772097 -1.244002 2.580560 0.002432 -0.005024 51201.900000 1 0 0
-9.677515 8.846295 7.788177 15.250146 -0.740555 1.034803 -0.006119 -0.006707 251940.000000 1 0 0
-10.643115 -3.131705 -14.174123 17.999701 0.286170 2.477481 -0.007454 0.002066 -931966.000000 1 0 0
-3.055015 4.833795 7.921477 9.769774 -1.007171 0.625254 -0.005498 0.000065 -488887.000000 1 0 0
8.694585 -2.258105 -3.660723 9.700296 -0.254100 1.957765 -0.002955 0.001143 -5175200.000000 1 0 0
1.958185 -8.405505 -1.132623 8.704587 -1.341914 1.701284 -0.001124 0.000910 -500107.000000 1 0 0
-13.560315 -2.815405 5.120077 14.765630 0.204712 1.216686 -0.007841 -0.007063 64527.400000 1 0 0
7.061985 2.724895 -1.965123 7.820383 0.368252 1.824801 -0.002287 0.001595 459598.000000 1 0 0
-10.964015 4.357995 8.908577 14.783927 -0.378334 0.924060 -0.010305 -0.006598 -2799630.000000 1 0 0
-1.754215 -2.524305 7.857277 8.437191 0.963481 0.372921 -0.002470 -0.004272 -1163660.000000 1 0 0
2.757785 12.009095 -9.990323 15.862859 1.345069 2.252083 -0.009589 -0.004486 705251.000000 1 0 0
3.488385 -4.972805 -7.094223 9.339465 -0.959069 2.433488 -0.008567 -0.003595 -234103.000000 1 0 0
8.106685 -13.822005 -9.903623 18.837407 -1.040358 2.124384 0.014870 0.013291 149841.000000 1 0 0
-6.263815 -5.807505 -0.327323 8.548078 0.747615 1.609098 0.010800 -0.004949 -31657.500000 1 0 0
-1.031515 -4.131105 9.739177 10.629281 1.326105 0.412156 -0.006036 -0.004118 736034.000000 1 0 0
2.778585 3.340895 1.765377 4.690274 0.877029 1.184899 -0.008722 0.003138 -1466900.000000 1 0 0
-9.025315 13.161995 7.856477 17.788161 -0.969725 1.113338 -0.005614 -0.015983 -363350.000000 1 0 0
4.036985 -11.090205 -0.098423 11.802524 -1.221692 1.579136 -0.001923 -0.000588 -505390.000000 1 0 0
-12.538015 -1.533305 -9.015723 15.518895 0.121688 2.190693 0.000827 0.001232 221749.000000 1 0 0
-4.442515 0.933995 -13.555623 14.295566 -0.207222 2.818442 0.007077 -0.004867 678247.000000 1 0 0
3.952485 -3.233905 4.839477 7.035681 -0.685738 0.812277 -0.004064 0.002280 -300167.000000 1 0 0
1.785885 -1.226305 1.039777 2.402986 -0.601720 1.123309 0.000533 -0.001687 474388.000000 1 0 0
8.152385 -9.114005 7.295577 14.239098 -0.841034 1.032863 -0.000159 -0.002422 -513262.000000 1 0 0
-0.065115 2.427795 -6.515223 6.953169 -1.543982 2.784780 0.004762 -0.009090 -1656550.000000 1 0 0
-3.736215 -9.706005 -3.439923 10.954401 1.203341 1.890223 0.008235 -0.002512 -201880.000000 1 0 0
-9.454115 2.348795 -5.314723 11.097000 -0.243511 2.070236 0.001362 0.000295 -2644900.000000 1 0 0
8.969985 -7.701905 5.200077 12.915911 -0.709483 1.156430 -0.000420 -0.002108 2279410.000000 1 0 0
-5.452515 -4.295905 4.689977 8.377386 0.667304 0.976606 0.002355 -0.006788 -937879.000000 1 0 0
-0.181615 -12.518205 10.413577 16.284380 1.556289 0.876971 -0.003472 -0.001021 -1546530.000000 1 0 0
-14.188615 -8.210705 3.155477 16.693996 0.524597 1.380634 -0.010088 -0.003927 -1305570.000000 1 0 0
11.022185 -1.545805 -3.700723 11.729170 -0.139336 1.891795 0.003269 0.001243 1047400.000000 1 0 0
-13.602615 3.051895 2.835877 14.226293 -0.220706 1.370111 -0.009484 -0.001617 -2287650.000000 1 0 0
-6.232515 6.168195 1.048977 8.831265 -0.780211 1.451735 0.004808 -0.000101 350352.000000 1 0 0
7.021985 -6.937605 -0.294123 9.875482 -0.779354 1.600584 -0.002639 -0.002010 270181.000000 1 0 0
-6.793915 7.684395 10.080777 14.381560 -0.846825 0.794066 -0.008668 -0.006521 527329.000000 1 0 0
-12.653715 -5.063005 -1.866623 13.756264 0.380610 1.706909 0.003139 -0.005117 -1132020.000000 1 0 0
-9.420715 -5.629805 0.225577 10.977042 0.538652 1.550245 0.006068 -0.005123 -962386.000000 1 0 0
-1.727315 1.834895 2.200377 3.345462 -0.815589 0.853009 0.000460 -0.000483 -237548.000000 1 0 0
-6.957215 7.238795 7.520377 12.544284 -0.805231 0.927912 -0.004294 -0.004975 -308904.000000 1 0 0
5.650285 7.145095 -0.364923 9.116538 0.901695 1.610836 -0.002170 0.002204 -1571450.000000 1 0 0
0.030385 -4.045005 7.333577 8.375222 -1.563285 0.504062 -0.002181 -0.002743 -710881.000000 1 0 0
6.469885 0.710295 13.056977 14.589331 0.109347 0.462438 -0.003450 0.002848 543534.000000 1 0 0
5.702085 6.221495 -8.021523 11.643264 0.828932 2.330823 -0.001763 0.001381 -96288.000000 1 0 0
10.051785 5.233195 8.974677 14.455779 0.480010 0.900987 -0.000406 0.004085 -2663790.000000 1 0 0
-1.051515 -4.936705 -8.562023 9.939063 1.360933 2.608918 0.012944 -0.005397 619941.000000 1 0 0
9.912585 -3.547305 -8.012923 13.230633 -0.343659 2.221359 0.004605 -0.002089 391649.000000 1 0 0
8.409885 -5.481805 1.282977 10.120394 -0.577660 1.443683 -0.001397 -0.002625 1097890.000000 1 0 0
15.743585 3.247195 -5.126523 16.872640 0.203403 1.879513 0.004497 0.000841 -626315.000000 1 0 0
-6.822515 3.593695 1.079577 7.786324 -0.484810 1.431698 0.005393 -0.003643 877367.000000 1 0 0
-1.679915 3.665095 0.225377 4.038048 -1.141016 1.514954 0.002141 -0.005617 -1073460.000000 1 0 0
-2.562115 10.098995 6.868877 12.479408 -1.322338 0.987933 -0.003904 0.005881 331441.000000 1 0 0
5.483985 -5.827005 -8.770723 11.872390 -0.815715 2.402009 -0.006974 -0.001027 90284.600000 1 0 0
-1.118015 -0.951405 6.245177 6.415401 0.705061 0.230876 -0.002485 -0.002456 136618.000000 1 0 0
-5.732815 5.023695 -7.763623 10.880098 -0.719569 2.365366 0.004595 -0.004549 -405500.000000 1 0 0
6.817785 -1.314405 2.619177 7.420912 -0.190454 1.210079 -0.005220 0.002985 -1339480.000000 1 0 0
8.820385 7.479395 3.188477 11.996121 0.703313 1.301771 0.000473 0.000862 -336962.000000 1 0 0
-5.424815 -4.804905 -7.659123 10.544093 0.724873 2.383851 0.011228 -0.009449 983473.000000 1 0 0
-2.341715 7.909495 -10.070523 13.017649 -1.282955 2.455308 0.001473 -0.004593 629544.000000 1 0 0
-2.846715 -2.223205 1.673877 3.980991 0.663030 1.136836 0.003481 -0.003659 85328.200000 1 0 0
5.927485 -2.062905 -9.285223 11.207409 -0.334913 2.547202 -0.004897 -0.000203 1153040.000000 1 0 0
1.257385 -7.629805 5.098277 9.262147 -1.407465 0.987902 -0.006401 0.001022 500224.000000 1 0 0
1.886085 11.882195 1.288177 12.099722 1.413378 1.464131 -0.001616 -0.000186 60349.400000 1 0 0
-0.983815 7.038395 2.463277 7.521611 -1.431918 1.237147 -0.004652 0.004291 673566.000000 1 0 0
8.807585 7.927295 -6.681223 13.603467 0.732845 2.084196 0.005011 -0.001494 -38675.400000 1 0 0
3.711385 -11.119605 5.416277 12.913405 -1.248653 1.137978 -0.002598 0.001379 -326523.000000 1 0 0
7.997585 -7.383605 12.321977 16.441110 -0.745502 0.723548 -0.004193 -0.005963 193998.000000 1 0 0
-8.820015 0.027095 -3.938223 9.659348 -0.003072 1.990742 0.002917 -0.002873 -1764170.000000 1 0 0
-3.111115 -5.215605 11.138377 12.686411 1.032953 0.499177 0.000028 -0.007810 259065.000000 1 0 0
-8.320515 0.224295 -11.478123 14.178455 -0.026950 2.514176 -0.000777 -0.003762 -2201990.000000 1 0 0
1.573785 -5.048005 5.351977 7.523484 -1.268582 0.779351 -0.001447 -0.000824 -294653.000000 1 0 0
6.666785 3.815095 -7.734923 10.900918 0.519768 2.359679 -0.000730 0.002522 -704680.000000 1 0 0
16.284285 4.200395 -1.417723 16.876943 0.252439 1.654899 -0.010321 0.006588 -253788.000000 1 0 0
7.970285 7.340895 -0.002523 10.835783 0.744315 1.571029 -0.000790 -0.001753 -1322820.000000 1 0 0
5.637985 -10.487405 13.915177 18.314057 -1.077526 0.707778 -0.000678 0.000231 560689.000000 1 0 0
-5.116415 -9.367805 9.053577 13.996454 1.070898 0.867352 -0.001997 -0.004282 407894.000000 1 0 0
-12.634815 -3.168405 2.904277 13.345867 0.245701 1.351425 -0.004775 -0.005345 -217681.000000 1 0 0
-2.167115 -1.444105 -5.879823 6.430719 0.587798 2.724656 0.011771 -0.010284 -1621310.000000 1 0 0
-2.416415 13.019995 -4.290823 13.920147 -1.387292 1.884145 -0.002538 0.005946 616042.000000 1 0 0
3.977285 -0.367905 -4.965223 6.372408 -0.092239 2.464145 -0.003027 -0.001018 -219133.000000 1 0 0
-8.999315 3.795095 -7.328423 12.210496 -0.399080 2.214515 -0.005333 0.001673 493093.000000 1 0 0
-4.727015 7.937595 -11.260523 14.565352 -1.033676 2.454516 0.000356 -0.005749 -2209730.000000 1 0 0
-9.986615 -6.487405 7.424677 14.033700 0.576101 1.013303 -0.001164 -0.005439 -939869.000000 1 0 0
8.022885 5.148195 4.032977 10.350628 0.570510 1.170560 -0.004311 0.002694 -1502310.000000 1 0 0
-6.676415 -7.474505 4.115877 10.834352 0.841737 1.181117 0.007292 -0.004409 -907738.000000 1 0 0
-4.058715 11.770795 8.243077 14.932284 -1.238751 0.985999 -0.002533 0.000664 -548949.000000 1 0 0
-7.308415 9.977095 -7.714523 14.576324 -0.938577 2.128513 0.001639 -0.005049 516171.000000 1 0 0
13.058085 5.443295 4.644877 14.890196 0.394949 1.253560 -0.002298 0.002191 -305037.000000 1 0 0
5.403285 4.014495 -3.849123 7.754186 0.638989 2.090235 0.000801 0.001013 614517.000000 1 0 0
-2.775415 -4.130005 5.115277 7.136240 0.979102 0.771590 0.000590 -0.003857 -2114030.000000 1 0 0
12.443385 -2.254605 -5.661923 13.855628 -0.179244 1.991757 0.003552 -0.007287 -2299250.000000 1 0 0
-5.219015 9.689795 7.077377 13.085088 -1.076740 0.999321 -0.002881 0.000538 379780.000000 1 0 0
1.736485 3.806595 -0.545923 4.219429 1.142817 1.700543 -0.003568 0.001092 580951.000000 1 0 0
-0.013215 9.629995 7.701677 12.330970 -1.569424 0.896203 -0.004023 0.007811 -857250.000000 1 0 0
-5.272715 2.010895 5.876877 8.147571 -0.364350 0.765113 0.000801 -0.003058 741196.000000 1 0 0
8.899585 0.838295 10.636877 13.894189 0.093918 0.698880 0.001447 0.002834 -609430.000000 1 0 0
0.458985 -2.756705 -10.210223 10.585780 -1.405812 2.874425 0.001107 -0.007246 -2605520.000000 1 0 0
1.269085 10.606795 -2.648123 11.005782 1.451714 1.813793 0.000133 0.003468 14142.900000 1 0 0
2.351885 -4.475305 11.664877 12.713342 -1.086938 0.408971 -0.002321 -0.004659 902610.000000 1 0 0
6.586085 -3.153305 9.418277 11.917373 -0.446530 0.659501 -0.004532 -0.000121 193989.000000 1 0 0
-10.470715 -8.157605 5.645077 14.423914 0.661859 1.168677 0.000119 -0.004240 52886.500000 1 0 0
-3.006915 0.804595 -6.896923 7.566800 -0.261456 2.717644 0.013640 -0.010632 935567.000000 1 0 0
11.112685 2.667495 -5.107523 12.517751 0.235583 1.991083 -0.001962 -0.000363 -3100160.000000 1 0 0
-2.062515 -3.986605 -0.007323 4.488545 1.093356 1.572428 0.004157 -0.003885 1283540.000000 1 0 0
-1.413315 -6.373505 -10.679823 12.517094 1.352579 2.592923 -0.000263 -0.001695 587574.000000 1 0 0
0.249785 6.722795 -6.679823 9.480422 1.533659 2.352643 0.003049 0.000264 -3399870.000000 1 0 0
1.994485 3.883895 -6.287523 7.654774 1.096386 2.534633 0.001136 -0.002179 -1592530.000000 1 0 0
1.579585 -14.789705 6.276977 16.144067 -1.464397 1.171457 0.007417 -0.003226 104813.000000 1 0 0
-1.777415 5.418995 -10.585923 12.024412 -1.253856 2.647437 0.006769 -0.005827 27368.300000 1 0 0
13.648785 4.415395 -0.907723 14.373900 0.312875 1.633989 0.001329 -0.001020 -1799000.000000 1 0 0
-2.419415 3.287595 -6.229423 7.447655 -0.936366 2.561528 0.010017 -0.009148 -1697610.000000 1 0 0
5.664985 7.766295 14.103777 17.068214 0.940589 0.598257 -0.003316 -0.003706 378225.000000 1 0 0
15.840885 0.692695 -5.884823 16.912853 0.043700 1.926180 -0.000948 0.000125 -14303.200000 1 0 0
6.223185 -8.530705 10.561477 14.934716 -0.940542 0.785300 -0.009406 0.002272 384347.000000 1 0 0
0.057285 -5.915705 -6.355723 8.682975 -1.561113 2.392013 -0.001595 -0.003463 -1162070.000000 1 0 0
8.691785 5.593095 -7.603523 12.831344 0.571787 2.205047 -0.000042 0.003360 -31337.200000 1 0 0
-15.821015 -0.680505 5.407977 16.733614 0.042986 1.241708 -0.007661 -0.006242 -830374.000000 1 0 0
-0.441815 4.040595 -12.363923 13.014922 -1.461885 2.823970 0.005567 -0.006753 562464.000000 1 0 0
-11.286415 3.695895 5.909677 13.265259 -0.316459 1.109063 -0.007616 -0.005878 9677.980000 1 0 0
5.118085 -9.523105 -9.641623 14.486035 -1.077648 2.299068 -0.008319 0.000358 59105.100000 1 0 0
1.400485 11.128895 -11.817123 16.292884 1.445612 2.382257 -0.006863 0.000309 -2614460.000000 1 0 0
5.923285 2.337395 1.107577 6.463393 0.375852 1.398585 -0.004030 0.002896 -201646.000000 1 0 0
5.722185 4.485495 4.831377 8.729563 0.664833 0.984295 -0.007057 0.002693 -862520.000000 1 0 0
0.341485 -1.402105 -6.391623 6.552507 -1.331896 2.919537 0.003476 -0.005809 34940.800000 1 0 0
12.817285 6.925395 -4.563123 15.266499 0.495379 1.874334 0.005939 -0.000212 -1742110.000000 1 0 0
7.518285 3.214295 12.753977 15.149925 0.404012 0.570093 -0.000276 0.004327 -495057.000000 1 0 0
-2.303415 -0.203005 8.691877 8.994201 0.087905 0.260013 -0.004400 -0.002789 1111480.000000 1 0 0
2.390585 -15.341405 13.200077 20.379294 -1.416214 0.866208 -0.000083 0.001978 727450.000000 1 0 0
18.866485 4.603995 -1.875823 19.510503 0.239352 1.667089 -0.010496 0.011689 962350.000000 1 0 0
-0.307715 -13.239605 7.295177 15.119571 1.547558 1.067291 -0.008809 -0.001989 -947672.000000 1 0 0
4.321485 1.472195 -0.571223 4.600966 0.328338 1.695270 -0.002049 0.001165 902950.000000 1 0 0
2.688185 -0.377205 -7.385223 7.868300 -0.139409 2.789360 -0.003225 -0.003496 -201389.000000 1 0 0
7.285285 -11.337505 0.853477 13.503437 -0.999653 1.507550 0.003470 -0.001689 315119.000000 1 0 0
-11.750515 -7.345905 1.401277 13.928406 0.558711 1.470020 0.004797 -0.003587 513316.000000 1 0 0
0.317185 -7.049605 9.981877 12.224377 -1.525833 0.615378 -0.005642 -0.003993 -2869180.000000 1 0 0
-4.518915 -7.224505 10.497277 13.520610 1.011839 0.681877 0.001965 -0.006299 -1238750.000000 1 0 0
11.842385 0.811395 -1.735923 11.996411 0.068409 1.716010 -0.002623 -0.000499 1100880.000000 1 0 0
6.411985 -9.650305 -7.455323 13.777655 -0.984341 2.142561 -0.008921 0.000606 -1276970.000000 1 0 0
-10.874915 4.939895 3.511277 12.449715 -0.426380 1.284880 -0.007561 -0.004896 -66143.900000 1 0 0
6.084185 -9.134705 1.967877 11.150456 -0.983220 1.393383 -0.001595 -0.002744 2968760.000000 1 0 0
11.631185 -1.427405 5.750177 13.053217 -0.122112 1.114621 0.000574 -0.006723 -190976.000000 1 0 0
-6.421915 3.489195 4.129977 8.394772 -0.497705 1.056445 0.002147 -0.003561 -976690.000000 1 0 0
9.506785 6.340595 -3.251723 11.880901 0.588202 1.848027 -0.000131 0.001208 1265880.000000 1 0 0
-2.168115 6.480595 10.938477 12.897640 -1.247947 0.558409 -0.007624 -0.000330 -126779.000000 1 0 0
1.941485 9.750195 3.024077 10.391377 1.374245 1.275506 -0.005877 0.003086 96556.700000 1 0 0
2.817185 6.149195 -5.710323 8.851945 1.141195 2.271941 0.001134 -0.000225 -1956300.000000 1 0 0
11.956185 0.159695 -5.440723 13.136869 0.013356 1.997813 0.002290 0.000274 378428.000000 1 0 0
-2.571115 -12.606005 6.271177 14.312570 1.369596 1.117247 -0.004222 0.000026 -302062.000000 1 0 0
10.750585 1.823695 -2.802123 11.258456 0.168037 1.822331 -0.002749 0.001147 476277.000000 1 0 0
-8.776815 5.263895 0.848877 10.269453 -0.540236 1.488042 0.001524 -0.003178 -357928.000000 1 0 0
1.188285 -10.179005 5.670277 11.712224 -1.454584 1.065424 -0.005703 -0.001689 382847.000000 1 0 0
9.283385 -5.862705 -1.261723 11.051900 -0.563279 1.685209 -0.000450 -0.000128 190571.000000 1 0 0
-7.807915 8.608695 -4.356623 12.411823 -0.834138 1.929441 -0.002436 0.000808 24862.600000 1 0 0
-7.523215 -0.068105 -1.651623 7.702679 0.009052 1.786896 0.000378 -0.002917 -1487250.000000 1 0 0
4.208385 8.768395 2.739377 10.104427 1.123318 1.296254 -0.004600 0.002957 -939969.000000 1 0 0
-1.374415 -10.409705 -3.757723 11.152195 1.439524 1.914471 0.001639 0.001254 -126641.000000 1 0 0
3.161685 7.933795 -3.795623 9.346021 1.191576 1.989002 0.002727 0.000511 -477277.000000 1 0 0
-4.531415 1.740095 -11.028023 12.049023 -0.366644 2.726956 0.008897 -0.010145 -587958.000000 1 0 0
1.256485 2.717895 11.010777 11.410649 1.137760 0.265520 -0.003341 0.001886 511731.000000 1 0 0
2.077985 5.566095 -8.177923 10.108307 1.213491 2.513296 0.004225 -0.001852 455862.000000 1 0 0
15.595785 5.938995 4.005377 17.162261 0.363853 1.335241 0.001608 -0.000352 662198.000000 1 0 0
-4.418415 9.023695 4.627677 11.061865 -1.115466 1.139174 -0.000126 0.002772 -258401.000000 1 0 0
-0.903115 -8.205005 -12.310923 14.822164 1.461169 2.550936 -0.009816 -0.000542 516994.000000 1 0 0
14.160885 -4.229105 -5.408923 15.737612 -0.290215 1.921644 0.004933 -0.001951 785171.000000 1 0 0
-6.029715 -6.287505 -5.639323 10.377483 0.806324 2.145301 0.014965 -0.007213 304338.000000 1 0 0
-9.060615 2.678095 -12.131223 15.376395 -0.287393 2.479896 -0.008893 0.000624 263520.000000 1 0 0
10.573285 5.434495 13.758877 18.183366 0.474772 0.712586 0.014452 0.005343 511908.000000 1 0 0
-0.411215 10.927195 5.606677 12.288512 -1.533182 1.097016 -0.003535 0.006823 202534.000000 1 0 0
0.368585 11.256395 -0.504823 11.273737 1.538064 1.615590 0.000576 0.002183 -61633.500000 1 0 0
-1.415315 -0.556605 3.661677 3.964947 0.374693 0.393658 -0.000284 -0.002527 259265.000000 1 0 0
-4.721615 6.601395 8.841977 12.002193 -0.949912 0.742624 -0.005159 -0.000648 -2803220.000000 1 0 0
3.393285 -8.691005 -11.425523 14.750950 -1.198562 2.456818 -0.009183 0.002405 -636718.000000 1 0 0
6.924985 -3.858405 11.997877 14.380256 -0.508333 0.583880 0.004948 -0.000837 137981.000000 1 0 0
-2.620215 -1.684705 -12.482823 12.865638 0.571413 2.897038 0.006469 -0.009103 1071940.000000 1 0 0
-15.921515 -4.749905 5.377377 17.463460 0.289926 1.257789 -0.004952 -0.009250 539117.000000 1 0 0
-8.889215 7.305995 5.884177 12.923593 -0.687949 1.098082 -0.005471 -0.006056 -4455270.000000 1 0 0
-12.846815 1.518795 6.024077 14.270140 -0.117677 1.134985 -0.008146 -0.005442 600202.000000 1 0 0
-3.386515 3.627295 10.214477 11.356113 -0.819714 0.452242 -0.004671 -0.001281 528927.000000 1 0 0
2.069185 -12.216305 -1.202323 12.448502 -1.403010 1.667531 -0.001080 0.003728 -3588980.000000 1 0 0
10.185185 -5.171705 -3.699623 12.007153 -0.469842 1.884011 0.004418 -0.000571 391255.000000 1 0 0
3.085885 -13.373805 0.882277 13.753536 -1.344024 1.506603 0.002088 0.002132 529320.000000 1 0 0
10.048485 -1.560205 -6.253723 11.937979 -0.154038 2.122162 0.000842 0.000575 299824.000000 1 0 0
11.831685 -5.493105 -1.686523 13.153225 -0.434658 1.699372 0.004960 -0.001669 -115709.000000 1 0 0
1.513885 0.891595 5.903177 6.159082 0.532251 0.289275 -0.005586 -0.000377 720844.000000 1 0 0
-10.709515 11.534295 6.714377 17.111883 -0.822460 1.167578 -0.012358 -0.009465 -222938.000000 1 0 0
4.763885 -14.173805 2.875477 15.226940 -1.246553 1.380814 0.007499 -0.000019 -2797860.000000 1 0 0
5.328985 -3.372505 -1.763223 6.548345 -0.564232 1.843423 -0.000612 -0.001905 -1058680.000000 1 0 0
1.996785 -2.791205 -7.643423 8.378537 -0.949820 2.719570 -0.004977 -0.003801 -574507.000000 1 0 0
-2.820315 14.750395 -8.671323 17.341286 -1.381874 2.094440 -0.005274 -0.000433 -1231360.000000 1 0 0
-2.346515 6.129795 -8.168223 10.478568 -1.205201 2.464691 0.005821 -0.003962 -234020.000000 1 0 0
2.474885 -3.473905 -11.518423 12.282798 -0.951782 2.786944 -0.006782 -0.002733 -1676340.000000 1 0 0
14.569785 2.792495 -2.774923 15.092278 0.189367 1.755712 0.003906 0.001000 548822.000000 1 0 0
-3.406215 13.089595 2.285277 13.717226 -1.316219 1.403417 0.001363 -0.002221 -246860.000000 1 0 0
7.959685 -5.229005 13.925177 16.870377 -0.581236 0.599847 -0.001608 -0.004346 -1600940.000000 1 0 0
-11.519715 7.356295 2.972477 13.987657 -0.568307 1.356656 -0.005046 -0.004986 815268.000000 1 0 0
-2.245015 11.838595 4.144177 12.742317 -1.383386 1.239542 0.000770 -0.000012 -710265.000000 1 0 0
1.832885 1.463795 0.635377 2.430199 0.673905 1.306272 -0.004447 0.000600 -1495310.000000 1 0 0
-6.877215 8.614695 5.332477 12.245178 -0.897085 1.120230 0.000024 -0.003066 -533678.000000 1 0 0
-1.107315 9.228195 1.108277 9.360236 -1.451375 1.452115 -0.001623 0.004290 213283.000000 1 0 0
4.695685 12.870795 -8.409223 16.075505 1.220969 2.121290 -0.008125 -0.013274 -294834.000000 1 0 0
8.912985 6.853295 7.156577 13.327623 0.655495 1.003951 -0.005683 0.002080 -1701090.000000 1 0 0
7.273885 -13.863205 2.832377 15.909752 -1.087592 1.391815 0.010494 -0.003293 -33943.200000 1 0 0
4.157885 -13.420005 -1.308123 14.110128 -1.270348 1.663638 0.000503 0.007143 -3159710.000000 1 0 0
12.074885 -11.947805 -4.737623 17.635134 -0.780108 1.842784 0.021037 0.001731 -619361.000000 1 0 0
2.918385 0.060295 -2.080623 3.584633 0.020658 2.190051 -0.000239 -0.002228 661413.000000 1 0 0
-13.653515 -3.365705 -10.552023 17.581002 0.241690 2.214541 -0.000860 -0.000958 386190.000000 1 0 0
-6.474415 13.616395 5.171377 15.939492 -1.126951 1.240379 -0.000357 -0.004641 283279.000000 1 0 0
7.343685 -4.343305 -0.678623 8.558886 -0.534097 1.650168 -0.002458 -0.000715 -1378290.000000 1 0 0
11.583285 2.006195 -7.340423 13.859261 0.171496 2.128973 0.004169 0.001651 -743267.000000 1 0 0
-7.413715 -4.414205 9.724777 13.000756 0.537038 0.725728 0.004386 -0.006640 116894.000000 1 0 0
1.110885 2.737495 8.452577 8.953994 1.185297 0.336243 -0.008178 0.002074 -1443470.000000 1 0 0
1.542285 8.097495 -8.668823 11.962298 1.382586 2.381364 0.002973 -0.001896 -1086880.000000 1 0 0
-8.529315 -2.112905 -5.418623 10.323520 0.242834 2.123372 0.013364 -0.006508 -940435.000000 1 0 0
6.707285 -0.529305 7.168077 9.831030 -0.078752 0.753750 -0.004571 0.000792 401484.000000 1 0 0
-10.835515 6.442695 7.252677 14.543660 -0.536432 1.048718 -0.004203 -0.005985 987497.000000 1 0 0
-5.926315 10.971795 5.032177 13.447093 -1.075554 1.187240 -0.000040 -0.002475 -176789.000000 1 0 0
5.982085 -1.160605 -6.976023 9.262680 -0.191633 2.423607 -0.001608 -0.000566 -612809.000000 1 0 0
4.614385 -5.865705 11.378077 13.607339 -0.904235 0.580530 -0.004863 -0.003851 -1311160.000000 1 0 0
-8.903615 -7.290305 2.853777 11.856093 0.686101 1.327708 0.008147 -0.006126 -3440210.000000 1 0 0
-1.177915 12.740595 -9.192423 15.754710 -1.478605 2.193793 -0.000874 0.001343 590965.000000 1 0 0
-4.545815 9.322495 -2.307623 10.625370 -1.117103 1.789721 0.000736 -0.000065 813396.000000 1 0 0
-3.288115 9.500095 -0.153523 10.054207 -1.237588 1.586066 0.000997 0.000215 50520.300000 1 0 0
-3.515815 10.647895 -6.387723 12.905101 -1.251879 2.088604 -0.001454 0.003863 522568.000000 1 0 0
4.830585 -4.789605 0.265977 6.807761 -0.781138 1.531717 -0.003509 -0.002362 -1305290.000000 1 0 0
-2.390315 3.065095 -10.787923 11.466809 -0.908463 2.795766 0.009789 -0.008509 -1860920.000000 1 0 0
-3.487015 12.127595 -2.113523 12.794719 -1.290821 1.736744 0.000020 0.003149 -89944.300000 1 0 0
-0.176015 0.375095 0.025777 0.415141 -1.132046 1.508664 -0.001048 -0.002100 -1843860.000000 1 0 0
-4.862315 -1.762605 0.117877 5.173276 0.347770 1.548009 0.002878 -0.004669 172748.000000 1 0 0
2.653285 2.587995 -2.506223 4.474237 0.772942 2.165358 -0.007913 -0.001303 1464430.000000 1 0 0
6.034385 -9.965505 8.374677 14.347832 -1.026323 0.947531 -0.005403 0.001556 -1630960.000000 1 0 0
-4.135515 -5.456905 6.594477 9.506178 0.922290 0.804177 0.002756 -0.007385 74491.200000 1 0 0
-6.431615 5.372395 -12.017723 14.651074 -0.695904 2.532666 -0.001142 -0.004665 707976.000000 1 0 0
-12.875815 3.115495 8.019677 15.485740 -0.237402 1.026431 -0.011690 -0.005810 677718.000000 1 0 0
4.636685 -7.525405 -4.897223 10.105115 -1.018595 2.076734 -0.007838 -0.000475 1424220.000000 1 0 0
-6.026115 2.412695 -1.073623 6.579349 -0.380828 1.734710 0.005239 -0.003909 -628623.000000 1 0 0
-6.998015 -2.849505 -14.496223 16.347244 0.386687 2.661103 -0.004382 0.001780 972230.000000 1 0 0
2.701385 -6.063305 0.741577 6.679153 -1.151666 1.459538 0.000657 -0.001997 -188901.000000 1 0 0
4.965385 -8.016505 12.987777 16.049976 -1.016238 0.627993 -0.003890 -0.002914 -193893.000000 1 0 0
-9.944515 -1.604905 8.061877 12.902053 0.160006 0.895854 -0.003271 -0.003693 -737717.000000 1 0 0
-4.421215 13.237195 -0.012223 13.956025 -1.248446 1.571672 0.003198 0.000059 755269.000000 1 0 0
6.863685 2.269195 -4.532723 8.532584 0.319297 2.130842 0.000300 0.002297 -1769010.000000 1 0 0
4.982385 4.476995 -0.070323 6.698701 0.732022 1.581295 -0.005503 0.001411 -792002.000000 1 0 0
-5.825915 12.218695 2.012677 13.685345 -1.125878 1.423193 0.002179 -0.002389 -2372110.000000 1 0 0
6.568485 -7.412505 6.531977 11.864103 -0.845694 0.987754 -0.006339 0.000419 -405561.000000 1 0 0
-0.170715 4.850995 7.638177 9.050030 -1.535619 0.566108 -0.008352 0.002959 -1523960.000000 1 0 0
-5.871815 -3.425905 -1.518423 6.965676 0.528161 1.790547 0.005722 -0.005251 -404458.000000 1 0 0
2.296885 -6.439905 -5.172123 8.573150 -1.228197 2.218420 -0.004816 -0.000334 -1728120.000000 1 0 0
-14.501015 -4.731905 -3.595523 15.671571 0.315421 1.802288 0.001365 -0.002842 -415977.000000 1 0 0
-12.507915 -5.120805 -6.166423 14.855819 0.388588 1.998832 0.007475 -0.006183 -1293380.000000 1 0 0
-14.798515 -3.684305 -1.130423 15.292090 0.244004 1.644786 0.002447 -0.003201 451349.000000 1 0 0
11.938985 2.856695 8.626477 15.003872 0.234859 0.958253 0.007265 0.003343 -1400240.000000 1 0 0
8.792385 -6.561505 7.615977 13.355242 -0.641110 0.963972 -0.002243 -0.002320 38182.400000 1 0 0
-8.962815 -1.708905 -9.677423 13.300561 0.188405 2.385606 0.004172 -0.005140 -366144.000000 1 0 0
-8.836115 5.153095 -3.811323 10.915929 -0.527964 1.927463 0.001193 -0.001435 -594985.000000 1 0 0
-4.082815 -6.257105 4.171677 8.557081 0.992660 1.061559 0.003112 -0.004682 -1294850.000000 1 0 0
-0.118215 -9.209105 3.556777 9.872803 1.557960 1.202250 -0.001871 -0.000652 770152.000000 1 0 0
7.907285 -10.558805 3.353677 13.611049 -0.928012 1.321839 0.003412 -0.002107 560811.000000 1 0 0
-0.025615 6.399895 9.615877 11.550948 -1.566794 0.587236 -0.007451 0.001513 -403315.000000 1 0 0
-0.101115 3.534295 -9.760523 10.381198 -1.542194 2.794047 0.008129 -0.006927 -1353900.000000 1 0 0
4.556685 -3.255605 11.043377 12.382185 -0.620370 0.469320 -0.003872 -0.001771 -1578660.000000 1 0 0
8.615785 -9.156005 1.336177 12.643162 -0.815786 1.464915 0.002896 -0.001149 -1159100.000000 1 0 0
-0.138015 -0.594205 11.350977 11.367357 1.342574 0.053690 -0.000187 -0.000674 -1161720.000000 1 0 0
10.978085 5.925495 11.358277 16.871286 0.494945 0.832226 0.003317 0.006668 -534962.000000 1 0 0
-6.360915 -2.934705 -11.870023 13.783003 0.432265 2.608437 0.008051 -0.005732 1016730.000000 1 0 0
-1.509115 2.891895 8.520077 9.123168 -1.089827 0.365642 -0.003656 -0.001787 -2061620.000000 1 0 0
-1.556215 13.580695 -6.707123 15.226378 -1.456704 2.026945 0.000420 0.006409 170929.000000 1 0 0
7.751885 3.084095 9.771977 12.848926 0.378652 0.706669 -0.001743 0.004117 445901.000000 1 0 0
6.482385 8.440095 -7.980323 13.301958 0.915845 2.214217 0.000236 0.001342 -16432.700000 1 0 0
6.709685 -3.032905 -3.969923 8.365325 -0.424532 2.065270 -0.002405 -0.000491 -2452630.000000 1 0 0
2.111185 8.283195 0.912077 8.596529 1.321234 1.464498 -0.004693 0.005481 1017610.000000 1 0 0
-17.471915 6.542495 6.456077 19.742163 -0.358295 1.237648 0.002423 -0.001655 -165180.000000 1 0 0
-14.366115 3.117395 -9.698423 17.611440 -0.213684 2.153986 -0.016745 -0.002729 514261.000000 1 0 0
-18.368215 0.221895 -4.136423 18.829513 -0.012080 1.792280 -0.001317 0.008309 -42277.000000 1 0 0
-12.956415 7.867795 0.281977 15.160818 -0.545734 1.552196 -0.002041 0.000697 -377730.000000 1 0 0
-12.702615 -4.270405 -12.775523 18.515042 0.324313 2.332296 0.000185 0.005042 -1182680.000000 1 0 0
-17.385815 -0.678905 -8.508823 19.368210 0.039030 2.025637 -0.007732 -0.001310 -1062620.000000 1 0 0
-16.741415 -1.958705 -1.910123 16.963493 0.116468 1.683638 -0.006488 -0.001398 1062750.000000 1 0 0
-15.271615 4.138795 1.827577 15.927708 -0.264655 1.455801 -0.007947 -0.001490 -737248.000000 1 0 0
-13.081715 5.950095 4.537777 15.070711 -0.426872 1.264951 -0.005870 -0.003886 -590586.000000 1 0 0
-9.902215 14.204295 2.931677 17.561623 -0.962000 1.403075 0.009931 -0.004731 59207.800000 1 0 0
-11.810315 2.392795 -6.423023 13.655191 -0.199896 2.060509 -0.004159 0.006188 186507.000000 1 0 0
-15.962715 10.856095 4.045177 19.723756 -0.597239 1.364239 0.008829 0.004289 108467.000000 1 0 0
-12.815015 0.904595 -8.407523 15.353480 -0.070472 2.150286 -0.002975 0.000512 551000.000000 1 0 0
-12.237215 14.412295 4.137977 19.354238 -0.866836 1.355331 0.005878 -0.009692 1002530.000000 1 0 0
-10.556315 11.220895 -0.914223 15.433084 -0.815906 1.630069 0.005464 -0.001567 871377.000000 1 0 0
-16.696615 5.723795 8.895877 19.765511 -0.330257 1.103952 -0.005291 -0.009086 20230.600000 1 0 0
-11.820515 12.805895 -8.989123 19.609178 -0.825390 2.047006 0.007480 -0.002268 -841970.000000 1 0 0
-17.180915 -0.351205 3.238977 17.487086 0.020439 1.384499 0.000490 -0.007438 413404.000000 1 0 0
-12.933615 15.077095 -0.523223 19.871361 -0.861773 1.597130 0.019863 -0.004490 277437.000000 1 0 0
-16.422915 4.632395 -10.258723 19.910114 -0.274926 2.112098 -0.002729 0.005282 565979.000000 1 0 0
-12.076115 7.762195 -8.775923 16.825607 -0.571278 2.119500 -0.001660 0.006004 10689.000000 1 0 0
-14.732715 13.686395 -1.841823 20.193133 -0.748597 1.662134 0.033451 -0.009873 438923.000000 1 0 0
-11.832715 10.709495 -5.149323 16.769674 -0.735612 1.882900 0.003222 -0.000290 607078.000000 1 0 0
-17.721315 3.077195 -0.748823 18.002080 -0.171929 1.612405 0.003847 -0.000855 -498152.000000 1 0 0
-9.377015 15.333995 0.686977 17.986989 -1.021951 1.532594 0.016408 -0.006660 223580.000000 1 0 0
-8.034615 13.247795 -3.542223 15.893598 -1.025621 1.795555 0.003564 -0.002679 -1388690.000000 1 0 0
-17.770015 11.819795 2.336877 21.469560 -0.586955 1.461734 0.021637 0.018104 -291214.000000 1 0 0
-8.055915 15.823895 -7.187323 19.155966 -1.099897 1.955409 0.019497 -0.009888 176820.000000 1 0 0
-6.183915 15.361095 -5.378123 17.410579 -1.188076 1.884832 0.003542 0.002346 -827449.000000 1 0 0
-17.336715 5.475695 -0.032523 18.180924 -0.305928 1.572585 0.006058 0.005666 754419.000000 1 0 0
-5.430515 12.232995 -12.054323 18.012312 -1.153007 2.303964 -0.013979 -0.005322 185308.000000 1 0 0
-11.300715 3.798295 -11.333223 16.449169 -0.324248 2.330883 -0.004852 0.002412 574056.000000 1 0 0
-11.922515 11.048495 1.409977 16.315749 -0.747368 1.484270 0.006853 -0.005219 787495.000000 1 0 0
-13.034015 0.046395 -10.861723 16.966577 -0.003560 2.265533 -0.000523 -0.005524 350007.000000 1 0 0
-14.165615 -2.021505 -12.772323 19.180286 0.141748 2.299508 -0.000645 -0.003906 -230179.000000 1 0 0
-18.787415 -2.229505 -3.544923 19.248484 0.118118 1.756020 -0.013961 0.006911 584388.000000 1 0 0
-18.328915 4.906895 -5.081323 19.642978 -0.261579 1.832456 0.017167 0.003769 382154.000000 1 0 0
-8.168015 15.459995 -2.098423 17.610545 -1.084741 1.690237 0.014538 -0.004226 -582116.000000 1 0 0
-16.058115 9.250195 -5.181223 19.242512 -0.522619 1.843420 0.021388 0.003587 -607712.000000 1 0 0
-18.245715 1.891895 2.159877 18.470259 -0.103321 1.453590 -0.001234 -0.005420 301462.000000 1 0 0
-15.777815 -2.737405 -8.522423 18.140136 0.171787 2.059872 -0.006877 -0.001412 -341702.000000 1 0 0
-9.787715 10.545095 -7.027223 16.011879 -0.822630 2.025143 0.001320 -0.006102 -258705.000000 1 0 0
-13.719615 12.039695 -7.428223 19.706867 -0.720274 1.957282 0.005130 -0.010455 52961.700000 1 0 0
-11.016115 6.583395 -3.807623 13.386332 -0.538664 1.859220 -0.005213 0.002749 -1104500.000000 1 0 0
-13.476615 4.954195 -12.484523 19.026995 -0.352280 2.286499 0.001587 0.006151 763338.000000 1 0 0
-17.469815 9.223795 2.729877 19.943046 -0.485784 1.433482 0.003478 0.001784 646668.000000 1 0 0
-13.494915 8.996695 -6.357823 17.420539 -0.588007 1.944388 0.004599 0.005584 -1499240.000000 1 0 0
-15.723315 7.109795 -3.672323 17.642500 -0.424667 1.780482 0.011488 0.006061 -1485430.000000 1 0 0
-14.991315 -0.405605 -9.129223 17.556958 0.027049 2.117621 -0.001861 -0.004462 -471778.000000 1 0 0
-9.981415 5.933495 -6.011323 13.075589 -0.536332 2.048495 -0.007306 0.003771 422491.000000 1 0 0
-12.901915 12.359495 -0.511823 17.873962 -0.763929 1.599435 0.019984 -0.006129 -582089.000000 1 0 0
-10.836715 3.437995 -13.844423 17.914303 -0.307210 2.454060 -0.008208 0.007018 413178.000000 1 0 0
-11.266215 6.331095 -12.030323 17.656133 -0.511975 2.320426 -0.003674 0.010304 238929.000000 1 0 0
-5.927815 11.639195 -14.650423 19.627653 -1.099738 2.413459 -0.011480 -0.005432 -74479.700000 1 0 0
-15.660115 13.385195 3.695277 20.929829 -0.707235 1.393310 0.006160 -0.007796 291660.000000 1 0 0
-14.983015 11.210095 -2.858323 18.929527 -0.642340 1.722374 0.023962 -0.001184 488080.000000 1 0 0
-18.050015 7.952795 -4.311023 20.189971 -0.415008 1.785976 0.012590 0.004660 -1167840.000000 1 0 0
-4.055815 16.176695 -10.458723 19.685528 -1.325140 2.130919 0.001332 0.005169 77971.100000 1 0 0
-15.818415 4.587295 -4.494323 17.072331 -0.282255 1.837188 0.011087 0.004766 -335518.000000 1 0 0
-18.687015 -1.688405 -6.008723 19.701777 0.090107 1.880718 -0.005862 0.004425 359681.000000 1 0 0
-10.940615 8.632395 -5.739523 15.071743 -0.668012 1.961472 -0.003414 0.002885 -166740.000000 1 0 0
-11.145715 13.626295 -6.563823 18.787939 -0.885202 1.927688 0.005133 -0.006077 497498.000000 1 0 0
-9.430415 10.536395 -4.374523 14.801514 -0.840733 1.870823 -0.003917 0.001129 -780109.000000 1 0 0
-11.004015 6.284895 -0.198823 12.673902 -0.518933 1.586485 -0.004922 0.001273 -491055.000000 1 0 0
-14.483215 9.526395 -1.060223 17.367781 -0.581807 1.631880 0.013817 0.000248 -341617.000000 1 0 0
-18.384715 3.426095 4.894577 19.331135 -0.184242 1.314813 -0.006637 -0.005978 45132.400000 1 0 0
-14.691815 13.698895 0.767577 20.102197 -0.750439 1.532603 0.019856 0.009593 69379.500000 1 0 0
-16.815215 2.485795 -8.901423 19.187652 -0.146767 2.053205 -0.009251 0.002095 300309.000000 1 0 0
-9.231015 8.459295 -8.685823 15.238597 -0.741802 2.177288 -0.003691 -0.000384 -2050230.000000 1 0 0
-17.557815 4.972195 -2.598123 18.432304 -0.275964 1.712222 0.002740 0.005160 681516.000000 1 0 0
-13.523615 5.923095 -4.246023 15.362290 -0.412815 1.850835 0.001228 0.006630 -1651960.000000 1 0 0
-12.180615 9.657595 3.508377 15.935660 -0.670376 1.348819 -0.004291 -0.002980 666870.000000 1 0 0
-17.585415 2.699795 -3.900323 18.213957 -0.152335 1.786607 0.011725 0.002890 792312.000000 1 0 0
-11.409315 1.431795 -12.445023 16.944058 -0.124841 2.395692 -0.005968 0.001746 94393.200000 1 0 0
-11.193515 12.053495 3.600277 16.838751 -0.822374 1.355324 0.002627 -0.006675 518724.000000 1 0 0
-16.353815 13.367595 -3.753723 21.452979 -0.685261 1.746676 0.028691 0.001003 817331.000000 1 0 0
-11.153615 4.153495 -4.697523 12.795366 -0.356481 1.946715 -0.008712 0.003361 179612.000000 1 0 0
-11.174215 15.223395 -8.641223 20.767416 -0.937604 1.999943 0.016823 -0.005514 500564.000000 1 0 0
-15.441515 7.287395 -0.206523 17.075982 -0.440945 1.582891 0.003682 0.002879 146198.000000 1 0 0
-12.796815 8.478295 -3.903123 15.839013 -0.585134 1.819786 -0.000492 0.001820 585228.000000 1 0 0
-19.342815 2.134495 -5.646423 20.262840 -0.109906 1.853194 0.010211 0.006352 -721503.000000 1 0 0
-12.400715 10.265495 -8.744623 18.320114 -0.691473 2.068403 -0.009062 0.000220 612382.000000 1 0 0
-16.566015 11.007095 -0.718823 19.902405 -0.586458 1.606922 0.013610 -0.004910 691009.000000 1 0 0
-10.816015 6.526395 -14.575523 19.287973 -0.542917 2.427487 -0.010260 0.004169 250089.000000 1 0 0
-13.790415 13.113895 -4.192123 19.486500 -0.760258 1.787621 0.022334 -0.002126 -239802.000000 1 0 0
-18.092715 7.914995 0.040277 19.748294 -0.412384 1.568757 0.020390 0.006239 1044970.000000 1 0 0
-12.702915 6.713795 -1.983123 14.504202 -0.486206 1.707953 -0.005853 0.006615 297902.000000 1 0 0
-13.914015 8.752395 -10.399723 19.451439 -0.561495 2.134891 -0.005233 0.005102 -52339.200000 1 0 0
-14.974915 1.522495 -0.793423 15.073009 -0.101322 1.623459 -0.006178 0.000758 -442746.000000 1 0 0
-13.381415 2.875995 -2.338523 13.885327 -0.211704 1.740020 -0.003126 -0.001568 658997.000000 1 0 0
-11.338815 9.201895 -10.773723 18.147086 -0.681738 2.206432 -0.008817 -0.001971 267198.000000 1 0 0
-15.540915 4.544895 -7.797723 17.971661 -0.284513 2.019602 0.008134 0.006208 861534.000000 1 0 0
-18.493015 10.549495 4.578477 21.777188 -0.518414 1.358974 0.015347 -0.002375 48265.700000 1 0 0
-15.235815 6.493395 -6.128423 17.659327 -0.402881 1.925205 0.009479 0.007558 787088.000000 1 0 0
-7.742115 11.248095 -12.880523 18.771464 -0.967963 2.327015 -0.014597 -0.001110 -1893350.000000 1 0 0
-16.582215 9.219095 -2.577923 19.146991 -0.507410 1.705845 0.012614 0.001020 521281.000000 1 0 0
-20.636215 -0.765105 -4.515123 21.138238 0.037059 1.786055 -0.012626 0.009556 -1191020.000000 1 0 0
-15.357115 4.452295 4.250077 16.544699 -0.282181 1.310999 -0.005298 -0.003651 417156.000000 1 0 0
-7.000415 12.491195 -9.269323 17.057436 -1.059982 2.145300 0.001184 -0.009845 -962690.000000 1 0 0
-16.900815 1.635795 5.927977 17.984835 -0.096487 1.234906 -0.006224 -0.008739 120838.000000 1 0 0
-10.350815 14.389395 -2.983223 17.974807 -0.947210 1.737535 0.021477 -0.010853 716100.000000 1 0 0
-10.124115 8.456495 -13.021723 18.535784 -0.695887 2.349726 -0.015861 0.002861 -169112.000000 1 0 0
-13.810415 11.756595 2.931077 18.372161 -0.705239 1.410573 0.010279 -0.005747 285402.000000 1 0 0
-16.674715 6.825995 2.043077 18.133243 -0.388551 1.457886 -0.006291 0.005545 682804.000000 1 0 0
-9.325415 13.338695 -8.258423 18.250636 -0.960658 2.040364 0.011574 -0.014243 374971.000000 1 0 0
-5.713715 9.757595 -12.890523 17.147093 -1.041058 2.421525 -0.002813 -0.002424 -731410.000000 1 0 0
-15.875015 1.895595 3.301177 16.325047 -0.118845 1.367177 -0.008283 -0.004497 -659607.000000 1 0 0
-18.525715 -4.747505 4.626477 19.676006 0.250867 1.333441 0.007806 -0.004493 -450656.000000 1 0 0
-5.341915 14.427295 -9.071023 17.859630 -1.216184 2.103549 0.000575 -0.000510 -518975.000000 1 0 0
-15.544315 -0.869505 -6.615823 16.915995 0.055879 1.972621 -0.001309 0.003985 653017.000000 1 0 0
-9.043715 11.000295 -9.378523 17.051451 -0.882704 2.153176 -0.001959 -0.011550 434193.000000 1 0 0
-16.827315 1.288395 -5.899423 17.877967 -0.076417 1.907082 0.003331 0.001350 1197250.000000 1 0 0
-11.110015 8.687695 -1.419823 14.174780 -0.663650 1.671130 -0.000787 -0.000718 -658553.000000 1 0 0
-10.738915 11.027495 -12.570723 19.873425 -0.798655 2.255624 -0.009860 0.000208 -248167.000000 1 0 0
-14.085515 11.865895 -9.992623 20.953609 -0.700076 2.067912 0.000877 0.000216 -340571.000000 1 0 0
-13.242715 5.807395 -7.569923 16.321737 -0.413279 2.053069 -0.001276 0.008422 -825440.000000 1 0 0
-8.758715 15.480195 -4.679323 18.391509 -1.055903 1.828053 0.012946 -0.007881 1146770.000000 1 0 0
-8.774315 6.115295 -12.959223 16.802586 -0.608679 2.451620 -0.007433 -0.000175 942214.000000 1 0 0
-16.257415 7.716395 4.395177 18.524683 -0.443153 1.331251 -0.001094 0.001931 724593.000000 1 0 0
-12.776215 5.579695 -10.082323 17.205171 -0.411760 2.196917 -0.005678 0.007297 466141.000000 1 0 0
-12.510315 9.329095 -13.102523 20.376852 -0.640751 2.269219 -0.007908 0.001771 -1225750.000000 1 0 0
-10.786615 5.448195 -8.481123 14.763582 -0.467710 2.182744 -0.009314 0.008334 -1082100.000000 1 0 0
-17.807615 -4.261805 -2.274823 18.451259 0.234906 1.694399 -0.007418 0.000055 659659.000000 1 0 0
-8.937515 13.215095 -10.805923 19.268780 -0.976147 2.166147 0.004377 -0.007331 99120.000000 1 0 0
-14.908115 6.327595 6.134377 17.318226 -0.401396 1.208722 -0.008144 -0.004723 -1332780.000000 1 0 0
-16.378315 -3.117905 -4.246423 17.204728 0.188117 1.820191 -0.006374 0.002016 373082.000000 1 0 0
-11.323015 -1.160405 -12.463423 16.878807 0.102125 2.401501 -0.007030 0.002249 893308.000000 1 0 0
-15.379215 7.025595 -8.612723 18.975201 -0.428514 2.041927 0.000633 0.011772 -193031.000000 1 0 0
-14.755415 9.171995 1.487377 17.437318 -0.556152 1.485394 0.005305 -0.003511 -795466.000000 1 0 0
-19.109815 5.376995 8.202077 21.479553 -0.274282 1.178994 0.019977 -0.012700 -101453.000000 1 0 0
-16.212915 0.681995 1.072677 16.262668 -0.042040 1.504789 -0.010528 -0.004679 -1201620.000000 1 0 0
-17.197815 3.980495 7.126277 19.036623 -0.227448 1.187105 -0.005494 -0.003978 620652.000000 1 0 0
-15.409715 4.189195 -1.304923 16.022219 -0.265439 1.652331 0.004461 0.000144 -1006560.000000 1 0 0
-10.717715 13.262595 0.580677 17.061742 -0.891126 1.536756 0.011153 -0.008679 90264.600000 1 0 0
-13.391615 3.483495 0.151777 13.838104 -0.254485 1.559828 -0.007102 0.001172 -122161.000000 1 0 0
-15.126715 0.190595 -4.242823 15.711632 -0.012599 1.844234 -0.002818 0.002422 794304.000000 1 0 0
-18.734615 7.035895 3.614677 20.336065 -0.359258 1.392100 0.010590 0.002388 944218.000000 1 0 0
-14.197115 1.400295 -6.314723 15.601110 -0.098314 1.987514 -0.002109 0.004021 178491.000000 1 0 0
-14.214515 12.208195 5.502177 19.528605 -0.709612 1.285179 -0.002058 -0.008195 -8315.760000 1 0 0
17.751185 5.304095 6.493377 19.631656 0.290358 1.233687 0.017947 -0.000079 124989.000000 1 0 0
18.533985 7.486995 -0.279623 19.991045 0.383916 1.584784 -0.015182 0.015999 -54361.100000 1 0 0
16.452185 5.331095 8.617877 19.322597 0.313359 1.108505 0.017044 0.007558 414284.000000 1 0 0
11.643085 12.444995 10.689477 20.117262 0.818677 1.010593 0.002850 -0.001318 458306.000000 1 0 0
-2.270315 15.980095 -0.364223 16.144672 -1.429669 1.593358 -0.002637 -0.005150 -67346.400000 1 0 0
15.064085 12.547795 3.428277 19.902937 0.694519 1.397683 0.007024 -0.001858 431535.000000 1 0 0
13.499785 11.691895 6.534377 19.016905 0.713756 1.220039 0.011414 -0.000328 992088.000000 1 0 0
-0.625115 15.798395 8.727677 18.059690 -1.531249 1.066412 0.003618 -0.000159 -28468.200000 1 0 0
0.750785 12.939195 9.534377 16.090084 1.512837 0.936560 0.002170 -0.000784 -1660960.000000 1 0 0
0.759385 15.556295 -3.704223 16.009255 1.522020 1.804292 -0.008671 0.002159 -638809.000000 1 0 0
5.364985 10.194095 13.633277 17.848498 1.086344 0.701565 -0.001279 -0.003137 96198.600000 1 0 0
-1.294615 16.645995 -2.677923 16.909656 -1.493179 1.729832 -0.003654 0.005614 -617990.000000 1 0 0
8.640785 10.042395 3.370477 13.670149 0.860278 1.321670 -0.001048 0.001316 453140.000000 1 0 0
12.633085 13.517495 -4.876723 19.133738 0.819205 1.828515 0.032837 -0.007729 -375574.000000 1 0 0
2.370785 11.634095 7.814277 14.213927 1.369770 0.988717 0.000223 0.005017 488370.000000 1 0 0
-0.412015 15.045595 -8.689623 17.379564 -1.543419 2.094385 -0.009443 0.007660 -1332870.000000 1 0 0
2.550085 15.891295 0.424377 16.100195 1.411682 1.544435 -0.001784 -0.006787 -500975.000000 1 0 0
1.889385 13.398995 5.455277 14.589822 1.430710 1.187575 0.002281 0.000934 722926.000000 1 0 0
17.661785 9.343995 -1.901923 20.071527 0.486618 1.665696 -0.017311 0.016773 545843.000000 1 0 0
-7.149115 14.860195 7.386777 18.069303 -1.122390 1.149655 0.000282 -0.008305 -597146.000000 1 0 0
8.434685 15.867795 -0.112623 17.970629 1.082221 1.577063 -0.011981 -0.001821 -474785.000000 1 0 0
15.667185 10.401595 2.003277 18.912086 0.586091 1.464671 -0.000712 0.004223 176066.000000 1 0 0
14.268785 7.683495 8.809877 18.445819 0.493958 1.072866 0.014467 0.005683 -595164.000000 1 0 0
4.331485 18.571195 -1.787923 19.153269 1.341656 1.664281 0.008375 -0.009024 -417743.000000 1 0 0
-0.239515 17.674195 -4.742523 18.300986 -1.557245 1.832928 0.002770 0.003245 209570.000000 1 0 0
1.422285 13.766295 -0.595723 13.852388 1.467845 1.613815 -0.001287 -0.001772 1087190.000000 1 0 0
10.320385 14.772795 4.056177 18.471556 0.961006 1.349402 0.002978 -0.008805 -279494.000000 1 0 0
-1.581915 15.384295 -4.985523 16.249137 -1.468330 1.882644 -0.003871 0.002965 329638.000000 1 0 0
15.099785 8.817695 -6.364723 18.608196 0.528543 1.919882 0.012957 0.005694 -16610.700000 1 0 0
-2.136615 18.366895 0.864877 18.510969 -1.454987 1.524057 -0.007442 -0.003698 -394905.000000 1 0 0
-3.633115 19.044795 3.294877 19.666214 -1.382294 1.402462 -0.003684 -0.005300 172111.000000 1 0 0
1.921785 17.736295 -2.564923 18.023547 1.462864 1.713591 -0.004031 -0.006540 -427110.000000 1 0 0
2.947485 12.134395 3.462177 12.958313 1.332508 1.300333 -0.001710 0.002588 98111.600000 1 0 0
-2.478215 16.087595 2.084577 16.410294 -1.417953 1.443424 0.001267 -0.004096 -675894.000000 1 0 0
11.732485 12.723995 -2.564623 17.496530 0.825918 1.717905 0.009055 0.001828 187243.000000 1 0 0
7.168285 11.600795 4.743777 14.438358 1.017309 1.236024 -0.005239 0.001530 -298579.000000 1 0 0
7.296285 15.887695 2.210177 17.622131 1.140284 1.445045 -0.010423 -0.000781 -236711.000000 1 0 0
5.571885 12.099695 10.376777 16.885675 1.139247 0.909005 -0.006347 0.006789 978565.000000 1 0 0
-1.250015 14.137195 3.277477 14.565874 -1.482605 1.343842 0.002402 -0.002513 -104272.000000 1 0 0
4.804885 16.088195 1.724677 16.878728 1.280570 1.468437 -0.005411 -0.008184 -2713630.000000 1 0 0
7.337885 13.174395 11.945177 19.237892 1.062609 0.900882 -0.002784 0.004271 91773.400000 1 0 0
0.599385 17.359995 -9.359923 19.731621 1.536283 2.065035 -0.011582 0.007531 488904.000000 1 0 0
9.776985 9.554195 15.431877 20.615890 0.773874 0.724934 0.006692 -0.003535 -96838.700000 1 0 0
13.449185 7.382095 -0.282923 15.344574 0.501989 1.589235 -0.002330 0.002777 282600.000000 1 0 0
12.283785 13.627295 -0.109223 18.346838 0.837203 1.576750 0.002790 0.003163 526019.000000 1 0 0
9.373385 12.420195 3.562677 15.962903 0.924301 1.345716 -0.004055 0.003133 869195.000000 1 0 0
-0.540415 12.947795 0.871677 12.988351 -1.529083 1.503634 0.002486 -0.003030 -66025.800000 1 0 0
16.044585 7.529595 -0.807823 17.741930 0.438781 1.616344 -0.008682 0.011001 -289850.000000 1 0 0
-4.152815 18.496495 -2.179523 19.081838 -1.349940 1.685266 0.007621 0.002886 74345.400000 1 0 0
11.570585 9.190495 -3.194023 15.117719 0.671255 1.783677 0.013801 -0.000177 8569.750000 1 0 0
14.757685 9.808995 7.682977 19.314083 0.586619 1.161688 0.012240 0.000885 602673.000000 1 0 0
4.473585 13.816795 4.733677 15.274963 1.257669 1.255711 -0.002624 0.004865 136211.000000 1 0 0
2.258885 15.933595 5.710177 17.075952 1.429966 1.229829 0.002316 0.001728 479455.000000 1 0 0
6.107785 18.439195 5.705577 20.245063 1.250932 1.285100 0.006712 -0.016953 -185707.000000 1 0 0
10.616085 17.171195 -0.914723 20.208610 1.017066 1.616076 -0.014938 -0.001623 311265.000000 1 0 0
10.036185 13.570595 -4.452623 17.455999 0.934014 1.828724 0.021437 -0.000144 752667.000000 1 0 0
16.602085 7.949695 2.344977 18.556018 0.446574 1.444085 -0.007778 0.004092 575960.000000 1 0 0
4.168785 14.132795 -0.403223 14.740328 1.283958 1.598155 -0.005703 -0.001543 569589.000000 1 0 0
5.621885 13.186595 -2.329823 14.523084 1.167797 1.731915 -0.009561 0.001185 -1162740.000000 1 0 0
-6.077515 16.820295 -2.802423 18.102820 -1.224072 1.726227 0.010263 -0.004824 -1873000.000000 1 0 0
18.109585 10.117295 2.912977 20.947605 0.509476 1.431284 -0.009131 0.012353 830883.000000 1 0 0
7.970085 12.878495 9.375877 17.812495 1.016619 1.016476 0.000534 0.003731 881978.000000 1 0 0
-2.525815 15.676995 6.844177 17.291347 -1.411053 1.163841 0.000550 0.000124 297701.000000 1 0 0
11.006985 16.138195 6.128477 20.473234 0.972222 1.266794 0.013653 -0.003482 352349.000000 1 0 0
13.548085 11.897095 1.260577 18.074306 0.720605 1.500996 0.007721 -0.000608 878978.000000 1 0 0
17.508185 7.991395 -5.858823 20.117772 0.428195 1.866305 -0.007769 0.015574 -666359.000000 1 0 0
9.511685 9.161095 8.049077 15.465622 0.766625 1.023419 -0.003408 0.003181 -436397.000000 1 0 0
-1.908015 14.171595 -1.932523 14.429459 -1.436965 1.705129 -0.003557 0.000425 717355.000000 1 0 0
10.913085 11.609395 0.734677 15.950336 0.816305 1.524720 0.003007 0.001632 -57667.600000 1 0 0
11.741785 9.791995 -0.534123 15.298300 0.695099 1.605717 0.006529 0.003532 -1064220.000000 1 0 0
0.002385 16.178095 11.186377 19.668904 1.570649 0.965830 0.005832 -0.003825 43993.600000 1 0 0
2.257585 20.127095 -1.562823 20.313519 1.459097 1.647808 0.014947 -0.007007 -518533.000000 1 0 0
9.211285 14.230095 1.771077 17.043477 0.996314 1.466693 -0.004827 -0.001164 -198422.000000 1 0 0
8.500385 11.727595 -5.223123 15.397209 0.943607 1.916890 0.012836 -0.002396 -833433.000000 1 0 0
10.757385 10.001095 10.203077 17.884239 0.748981 0.963674 -0.000092 0.003263 585554.000000 1 0 0
-5.042415 15.740695 5.942677 17.564477 -1.260783 1.225649 -0.010390 0.000042 1238010.000000 1 0 0
14.367185 9.126495 -1.958223 17.133113 0.565923 1.685341 0.008437 0.006551 -204239.000000 1 0 0
12.144385 9.502395 6.850377 16.873330 0.663949 1.152736 -0.001708 0.001668 -717217.000000 1 0 0
3.207485 12.929495 9.994377 16.653750 1.327630 0.927136 -0.000672 -0.000323 -204112.000000 1 0 0
8.459085 12.606895 -2.642923 15.410223 0.979807 1.743153 0.003643 0.002636 -935136.000000 1 0 0
9.753285 16.791495 1.988977 19.520167 1.044579 1.468726 -0.003244 -0.005731 -303433.000000 1 0 0
9.403485 14.358795 -7.604223 18.772979 0.990989 1.987843 0.029185 -0.010660 274390.000000 1 0 0
6.445785 11.400095 7.338977 15.012358 1.056195 1.060011 -0.008333 0.007388 -729163.000000 1 0 0
5.296585 17.019495 -5.457023 18.641248 1.269090 1.867887 -0.005751 0.002982 -1040820.000000 1 0 0
-4.124115 17.325095 -4.534623 18.377433 -1.337103 1.820121 0.004134 0.006600 443284.000000 1 0 0
0.203685 18.357195 -0.249123 18.360016 1.559701 1.584366 0.009628 -0.012085 -1127570.000000 1 0 0
6.461685 15.666595 -2.852723 17.185273 1.179604 1.737566 -0.014498 0.004054 -608555.000000 1 0 0
-0.599215 20.552895 0.701477 20.573591 -1.541650 1.536694 0.011973 -0.001540 93654.400000 1 0 0
-1.353915 18.751895 4.536277 19.340229 -1.498720 1.334039 0.005984 0.000319 -574082.000000 1 0 0
7.261385 13.823295 -4.397123 16.221772 1.087114 1.845294 0.001249 0.002719 462564.000000 1 0 0
-0.915815 11.988095 7.687077 14.270399 -1.494551 1.001935 0.000022 0.005836 678181.000000 1 0 0
7.812785 10.805795 10.987077 17.277751 0.944788 0.881611 -0.004084 0.002688 263312.000000 1 0 0
1.387885 16.125895 -7.270123 17.743320 1.484942 1.992964 -0.016366 0.006751 -987288.000000 1 0 0
8.857385 7.151895 14.780677 18.656669 0.679267 0.656315 0.007420 0.001748 -201212.000000 1 0 0
11.353285 11.313995 -4.777623 16.725108 0.783665 1.860487 0.021301 0.000270 -280270.000000 1 0 0
-3.221815 16.911595 4.589577 17.817025 -1.382543 1.310264 -0.005643 -0.002949 -992519.000000 1 0 0
3.833385 15.505295 -6.748723 17.339385 1.328426 1.970574 -0.010896 -0.000238 -1073740.000000 1 0 0
-4.390115 14.053295 9.520077 17.532829 -1.268011 0.996808 0.001726 -0.008140 -586934.000000 1 0 0
6.249085 17.889995 0.662077 18.961575 1.234740 1.535872 -0.014880 -0.006657 -98999.800000 1 0 0
9.814985 10.730395 -2.043723 14.685098 0.829924 1.710419 0.012685 0.001973 -1496500.000000 1 0 0
7.162385 18.175595 -2.645323 19.714202 1.195416 1.705386 -0.012952 0.002721 -65762.300000 1 0 0
3.594385 10.319995 10.428877 15.105740 1.235643 0.808766 -0.001351 0.005315 1251950.000000 1 0 0
0.117485 18.566595 2.269677 18.705178 1.564469 1.449157 0.007856 -0.007078 613401.000000 1 0 0
-0.990615 17.252295 -7.296623 18.758031 -1.513440 1.970328 -0.002247 0.010342 -59828.300000 1 0 0
10.051585 8.802695 13.029877 18.662784 0.719256 0.797952 0.000453 0.003210 378832.000000 1 0 0
3.682685 11.404395 5.628777 13.240299 1.258449 1.131697 -0.002993 0.007087 443838.000000 1 0 0
12.871385 13.871295 7.993377 20.542139 0.822771 1.171119 0.011857 -0.003493 -3518.970000 1 0 0
-0.640015 17.464595 6.902977 18.790232 -1.534166 1.194616 0.003425 0.003252 -258714.000000 1 0 0
12.072985 13.702295 5.507477 19.074647 0.848526 1.277893 0.008022 -0.008621 118900.000000 1 0 0
4.770585 14.654895 -4.446623 16.040477 1.256087 1.851688 -0.010390 0.000857 -139519.000000 1 0 0
3.814685 17.707295 4.747477 18.725348 1.358609 1.314466 0.002141 -0.007574 276448.000000 1 0 0
7.197185 11.720195 2.032477 13.903000 1.020085 1.424081 -0.002154 0.002614 836571.000000 1 0 0
6.623385 8.692495 11.781477 16.069596 0.919681 0.747849 0.000877 0.001325 -148114.000000 1 0 0
-5.252215 14.836295 1.820777 15.843505 -1.230553 1.455619 0.000217 -0.000777 1279.180000 1 0 0
6.809085 13.699195 5.999877 16.432593 1.109517 1.197034 -0.003602 -0.000038 -441900.000000 1 0 0
5.870985 15.934695 4.968777 17.693833 1.217789 1.286148 -0.003212 -0.009221 509171.000000 1 0 0
1.263685 17.999395 4.451077 18.584596 1.500704 1.328942 0.011222 -0.004319 -36572.100000 1 0 0
7.220185 18.058895 -7.154523 20.722982 1.190451 1.923297 0.001444 -0.001725 538267.000000 1 0 0
-2.365715 18.884995 -5.616423 19.843988 -1.446176 1.857747 0.002449 0.004903 -1364410.000000 1 0 0
13.572785 10.157995 -4.625023 17.572598 0.642482 1.837129 0.016486 0.007017 -2387700.000000 1 0 0
-1.466715 17.928995 10.003777 20.583384 -1.489171 1.063275 0.008749 -0.002707 -8819.810000 1 0 0
3.471685 11.877295 -1.531923 12.468742 1.286422 1.693969 -0.003944 -0.000312 -544875.000000 1 0 0
4.063285 13.851195 -10.771823 18.011054 1.285449 2.211884 -0.010340 -0.022338 88946.600000 1 0 0
11.586685 13.426395 2.326377 17.886626 0.858816 1.440364 0.007839 -0.001509 -584445.000000 1 0 0
15.883685 6.580595 -7.273923 18.668306 0.392772 1.971037 0.002648 0.003012 246189.000000 1 0 0
2.596885 16.061895 3.108877 16.564824 1.410504 1.381997 0.002105 -0.005868 -206729.000000 1 0 0
13.526985 10.504295 3.471777 17.474918 0.660274 1.370794 0.008641 0.001233 -642188.000000 1 0 0
-4.854315 19.619195 -5.568623 20.963940 -1.328241 1.839652 0.003025 0.002966 540225.000000 1 0 0
5.440785 12.073995 0.060577 13.243382 1.147427 1.566222 -0.006846 0.001603 673611.000000 1 0 0
5.065385 15.179595 9.742577 18.734888 1.248719 1.023918 0.007765 -0.002465 -162541.000000 1 0 0
7.683785 9.434795 14.027277 18.569341 0.887331 0.714532 -0.006459 -0.002580 -1308460.000000 1 0 0
-4.940915 13.523395 7.136177 16.069222 -1.220503 1.110638 -0.003431 -0.000911 -1804780.000000 1 0 0
-4.435115 17.071495 0.636177 17.649672 -1.316619 1.534744 -0.000316 -0.002899 -21811.500000 1 0 0
-0.565415 16.497995 3.828077 16.945729 -1.536538 1.342927 0.005622 -0.004521 -2505450.000000 1 0 0
7.738385 16.904295 -4.849523 19.213424 1.141495 1.825959 -0.007736 0.003791 993159.000000 1 0 0
3.018385 16.547095 -4.535523 17.420906 1.390368 1.834180 -0.012378 0.004032 -578153.000000 1 0 0
9.690885 14.304195 8.197477 19.123856 0.975341 1.127796 0.017624 -0.002276 294048.000000 1 0 0
12.807585 10.979695 8.971977 19.107179 0.708706 1.082003 0.009393 -0.001793 -302442.000000 1 0 0
3.799185 12.179895 12.307577 17.727383 1.268438 0.803392 0.002127 -0.002216 823333.000000 1 0 0
-3.606215 19.058995 6.008577 20.306479 -1.383794 1.270404 0.014654 -0.002530 249481.000000 1 0 0
-2.514915 15.638295 10.528577 19.019254 -1.411344 0.984146 0.002455 -0.006563 142919.000000 1 0 0
2.158685 14.241295 7.861877 16.409861 1.420362 1.071173 0.003607 0.002339 339400.000000 1 0 0
4.531785 17.160795 8.107777 19.513227 1.312612 1.142302 0.013685 -0.002250 -262250.000000 1 0 0
-1.899015 13.326995 9.533277 16.495406 -1.429255 0.954600 0.003886 -0.003849 -921132.000000 1 0 0
5.876785 17.845695 3.223477 19.062955 1.252670 1.400884 -0.010150 -0.010361 670524.000000 1 0 0
7.016385 15.450895 -6.930423 18.330046 1.144531 1.958530 -0.000363 -0.003821 -2245.830000 1 0 0
11.081585 7.570395 9.364577 16.364831 0.599328 0.961564 -0.001889 0.001133 186606.000000 1 0 0
8.950785 16.220095 -2.671023 18.717436 1.066547 1.713988 -0.009659 -0.003011 -1742560.000000 1 0 0
14.766285 11.360195 -6.671223 19.788947 0.655760 1.914651 0.043465 0.002397 539978.000000 1 0 0
10.985885 6.496595 16.030877 20.491082 0.534041 0.672391 0.017562 -0.004271 -805421.000000 1 0 0
8.676585 8.473395 10.291277 15.905720 0.773551 0.867130 0.001032 0.004739 -312985.000000 1 0 0
16.195985 9.418295 4.475077 19.262412 0.526721 1.336332 -0.002351 0.004222 -251183.000000 1 0 0
-3.309315 14.202295 4.794577 15.350724 -1.341868 1.253146 -0.000633 -0.000282 -1001700.000000 1 0 0
4.752785 14.653295 12.741277 19.991202 1.257153 0.879749 0.001345 0.003190 -318621.000000 1 0 0
16.023585 10.544095 -4.673223 19.742650 0.582004 1.809771 0.005059 0.002015 -774118.000000 1 0 0
14.704085 13.905195 6.224577 21.173330 0.757481 1.272406 0.015669 -0.002497 503910.000000 1 0 0
6.334185 9.453895 9.321277 14.710005 0.980484 0.884509 -0.003722 0.004814 598030.000000 1 0 0
10.419685 11.917695 8.550977 17.992234 0.852361 1.075538 0.004131 -0.002165 -1145720.000000 1 0 0
7.955185 11.514895 -0.378123 14.000741 0.966231 1.597807 -0.000873 0.001537 -168107.000000 1 0 0
7.130485 13.611195 -8.753723 17.684347 1.088236 2.088629 0.015647 -0.007553 -241970.000000 1 0 0
2.884985 15.394595 -2.130323 15.806802 1.385543 1.705980 -0.006234 -0.001702 618946.000000 1 0 0
11.999085 13.670495 -7.652723 19.733845 0.850419 1.969037 0.019678 -0.014666 1061730.000000 1 0 0
-8.095915 14.555195 9.867377 19.358788 -1.063189 1.035948 0.006824 -0.017766 390591.000000 1 0 0
11.499385 9.619195 2.222277 15.155965 0.696602 1.423639 0.007440 0.001046 -2540840.000000 1 0 0
12.093285 8.496895 4.431877 15.430045 0.612477 1.279469 -0.000096 0.002353 340678.000000 1 0 0
14.052485 7.950895 6.074277 17.250678 0.514893 1.210963 0.002082 0.002839 -1758600.000000 1 0 0
16.223885 7.392095 7.138577 19.204603 0.427526 1.189944 0.017568 0.001958 141849.000000 1 0 0
13.592885 8.298995 2.202977 16.077716 0.548133 1.433343 0.000126 0.001933 -1478230.000000 1 0 0
-4.206815 17.515495 -7.011823 19.330172 -1.335084 1.942003 -0.000760 0.003097 110751.000000 1 0 0
3.029985 19.622295 -3.883223 20.231033 1.417591 1.763939 -0.002224 -0.005222 281361.000000 1 0 0
-0.034215 14.902095 6.376277 16.208964 -1.568500 1.166492 0.004561 0.001079 495357.000000 1 0 0
6.966185 16.176095 8.215177 19.434066 1.164152 1.134351 0.010304 -0.000066 -595115.000000 1 0 0
12.686985 15.153895 -2.130923 19.878153 0.873775 1.678202 -0.004469 0.001710 -408902.000000 1 0 0
12.722885 15.850895 4.180177 20.750821 0.894435 1.367962 0.005541 -0.002086 735936.000000 1 0 0
3.018185 18.034995 1.434377 18.341972 1.404981 1.492515 0.009186 -0.012171 -474104.000000 1 0 0
10.275585 14.537395 -1.277323 17.848111 0.955496 1.642424 0.004931 0.008257 -1110910.000000 1 0 0
-6.300315 15.765795 -0.377523 16.982250 -1.190618 1.593029 0.006715 -0.004433 -296700.000000 1 0 0
-3.823215 15.868895 -2.532623 16.518262 -1.334377 1.724726 0.002818 0.000416 -634447.000000 1 0 0
-6.718115 17.067995 1.841077 18.434725 -1.195812 1.470760 -0.001914 0.003837 -6334.490000 1 0 0
-0.023915 19.554395 -6.498923 20.606090 -1.569573 1.891662 0.001390 0.002869 17485.800000 1 0 0
4.951785 14.873095 7.153477 17.230826 1.249404 1.142682 0.003546 0.000071 -330512.000000 1 0 0
8.696685 12.360295 6.799477 16.572330 0.957659 1.148023 -0.000405 0.000684 122861.000000 1 0 0
-7.526315 17.593695 -5.451723 19.897357 -1.166569 1.848338 0.019084 -0.003891 411570.000000 1 0 0
-7.678115 17.883695 -1.177523 19.497861 -1.165259 1.631226 0.015038 0.000482 228837.000000 1 0 0
-13.662515 -9.096405 9.249677 18.840526 0.587397 1.057621 -0.003676 -0.002575 -98935.500000 1 0 0
-12.451315 -12.884005 7.578777 19.454323 0.802475 1.170634 -0.000509 0.000517 138235.000000 1 0 0
-3.841815 -15.048005 12.375777 19.858546 1.320832 0.897973 -0.012324 -0.002719 96759.700000 1 0 0
-2.165815 -14.143905 14.881677 20.644736 1.418849 0.765774 -0.010148 0.003027 -308356.000000 1 0 0
-6.946115 -13.723905 12.758677 19.984442 1.102255 0.878339 -0.003748 -0.005388 -325617.000000 1 0 0
-9.867415 -11.520205 9.023277 17.649378 0.862523 1.034156 -0.003816 -0.001185 898396.000000 1 0 0
-10.613915 -10.558105 11.251977 18.727941 0.782762 0.926279 0.005355 -0.005662 155773.000000 1 0 0
-5.873915 -12.309405 10.812577 17.405061 1.125563 0.900483 -0.006095 -0.003047 610381.000000 1 0 0
-12.443215 -10.259605 7.251777 17.682799 0.689511 1.148229 -0.000164 -0.002133 -548540.000000 1 0 0
-7.485515 -11.090505 12.575977 18.362664 0.977082 0.816376 -0.005193 -0.007670 400918.000000 1 0 0
-14.719815 -11.507005 7.146777 20.004013 0.663505 1.205456 0.000191 0.000074 1218.300000 1 0 0
-11.093315 -9.173805 9.139477 17.051404 0.690969 1.005110 -0.000730 -0.003977 -865573.000000 1 0 0
-5.143715 -11.953005 13.310077 18.614249 1.164421 0.774104 -0.004006 -0.004352 -927174.000000 1 0 0
4.008485 -12.398405 14.773977 19.699208 -1.258097 0.722767 -0.000154 -0.000978 -700880.000000 1 0 0
6.516285 -13.029005 14.354677 20.451740 -1.107039 0.792762 0.000902 0.008746 146059.000000 1 0 0
6.901085 -8.650005 15.982377 19.439237 -0.897390 0.605582 0.009913 -0.001471 629813.000000 1 0 0
0.782385 -1.941505 14.340577 14.492540 -1.187725 0.144941 0.003814 -0.003147 -1748200.000000 1 0 0
0.008285 -6.459005 15.565377 16.852293 -1.569514 0.393336 0.006647 -0.006970 53422.900000 1 0 0
-1.264115 -4.670405 18.235777 18.866749 1.306465 0.259352 0.011906 -0.019613 -267524.000000 1 0 0
-5.144615 12.514195 13.041477 18.792346 -1.180756 0.803797 -0.002225 -0.004945 -990462.000000 1 0 0
-3.969915 8.649495 11.606777 15.009706 -1.140503 0.686791 -0.008536 -0.002830 -643529.000000 1 0 0
-0.537715 -4.105005 14.831177 15.398182 1.440548 0.272217 0.003018 -0.008737 -353823.000000 1 0 0
-4.375815 9.080595 14.154077 17.376503 -1.121744 0.618839 -0.011142 -0.004817 282681.000000 1 0 0
-13.211415 -2.291105 16.941777 21.605890 0.171711 0.669507 -0.005061 0.009191 -467198.000000 1 0 0
-0.183115 0.823195 17.287477 17.308034 -1.351916 0.048743 0.004046 0.001790 -874725.000000 1 0 0
-3.292915 -7.384905 15.396677 17.390738 1.151359 0.483576 0.004869 -0.009400 161425.000000 1 0 0
-7.263915 5.273995 12.668377 15.526341 -0.627999 0.616464 -0.014783 -0.008047 -1452590.000000 1 0 0
-9.724515 10.057095 13.474577 19.423583 -0.802209 0.804152 -0.021518 -0.005219 330140.000000 1 0 0
-5.464715 2.325295 11.258877 12.729196 -0.402303 0.485391 -0.003613 -0.001750 -533303.000000 1 0 0
-6.994815 -7.292405 16.791677 19.597628 0.806224 0.541722 0.012169 -0.012535 -124409.000000 1 0 0
-4.715015 2.780595 18.608177 19.396580 -0.532835 0.286094 -0.008263 -0.001687 -454913.000000 1 0 0
1.201485 -8.484005 16.545277 18.632447 -1.430114 0.477858 0.005314 -0.005980 549317.000000 1 0 0
-14.830015 -3.514605 14.017477 20.706797 0.232699 0.827185 0.000582 0.000963 19923.800000 1 0 0
-14.120015 2.262395 13.273077 19.510711 -0.158876 0.822629 -0.001594 -0.003821 -410858.000000 1 0 0
-5.439015 0.923395 16.109877 17.028320 -0.168169 0.329934 0.001139 -0.000190 653769.000000 1 0 0
4.608985 5.679095 15.152177 16.825080 0.889040 0.449715 -0.000214 0.002798 -754271.000000 1 0 0
-0.975215 -12.027805 13.950477 18.445458 1.489893 0.713143 -0.005789 -0.000330 -182344.000000 1 0 0
-5.636715 -4.100805 16.629177 18.031048 0.628956 0.396929 0.010760 -0.010827 112695.000000 1 0 0
-12.726615 -1.552105 10.005377 16.262944 0.121358 0.908124 -0.010909 -0.000073 -972529.000000 1 0 0
-13.752615 10.350995 10.477677 20.150912 -0.645199 1.023992 -0.039487 0.006222 313380.000000 1 0 0
-3.388015 -3.365405 17.734277 18.365979 0.782050 0.263037 0.009333 -0.010178 -204866.000000 1 0 0
-7.809615 9.307595 11.855377 16.975611 -0.872689 0.797669 -0.013270 -0.010558 -457364.000000 1 0 0
-4.211215 10.665495 16.210777 19.856395 -1.194742 0.615646 -0.006520 0.004219 110437.000000 1 0 0
-12.318915 12.804995 8.378977 19.645122 -0.804743 1.130158 -0.013448 -0.008975 247395.000000 1 0 0
-12.491815 3.187395 10.579977 16.677555 -0.249828 0.883585 -0.006524 -0.005654 724174.000000 1 0 0
-9.989015 -3.550305 13.738377 17.353043 0.341496 0.657212 0.003985 0.003840 -994338.000000 1 0 0
-4.207415 -6.611905 17.734777 19.389222 1.004084 0.416101 0.012392 -0.009157 -463942.000000 1 0 0
1.142585 -3.840805 17.799577 18.245060 -1.281648 0.221435 0.014235 -0.014517 -707863.000000 1 0 0
-5.779515 1.691695 13.696777 14.962163 -0.284751 0.414227 -0.007689 0.001348 -570332.000000 1 0 0
-10.317815 8.651495 10.521577 17.088279 -0.697780 0.907498 -0.015359 -0.008079 -1126840.000000 1 0 0
4.647285 2.252595 17.258177 18.014331 0.451343 0.290765 0.008486 -0.000753 -431407.000000 1 0 0
0.646785 -5.572605 13.102077 14.252602 -1.455248 0.404559 0.000319 -0.005809 -1389410.000000 1 0 0
-4.237315 5.527395 20.601777 21.747187 -0.916754 0.326001 0.014911 -0.009013 -67476.800000 1 0 0
-10.756315 10.818595 9.140677 17.784608 -0.788285 1.030995 -0.005428 -0.009526 380269.000000 1 0 0
0.807085 4.069295 13.105177 13.746135 1.375002 0.306578 0.001715 0.001152 -1639930.000000 1 0 0
-3.164215 6.964695 13.306277 15.348493 -1.144354 0.521760 -0.007838 -0.000268 -1378680.000000 1 0 0
0.963985 8.807595 14.329477 16.847460 1.461781 0.553781 0.001099 0.003962 397187.000000 1 0 0
-4.095915 -6.681505 12.990477 15.171405 1.020856 0.542835 0.006633 -0.006810 19523.600000 1 0 0
-5.009015 8.175895 16.487977 19.073250 -1.021123 0.526730 -0.006342 0.005364 303680.000000 1 0 0
1.599285 -10.852705 15.835577 19.264070 -1.424487 0.605836 0.001735 0.003371 -490665.000000 1 0 0
-14.936615 -0.904705 14.244777 20.659977 0.060496 0.810016 -0.003427 0.003060 700060.000000 1 0 0
-13.465715 -5.262605 8.542477 16.792689 0.372563 1.037120 -0.008935 -0.003890 -749239.000000 1 0 0
-14.037415 -1.956705 12.201577 18.701770 0.138500 0.860011 -0.000040 0.002526 206148.000000 1 0 0
9.440285 1.284995 16.908277 19.407731 0.135287 0.513127 0.008070 0.001473 -478954.000000 1 0 0
5.162985 -6.758005 16.498977 18.561877 -0.918407 0.475937 0.009069 -0.015590 -418243.000000 1 0 0
-6.002115 -2.687305 11.116777 12.916258 0.420961 0.534191 0.000785 -0.004707 -36354.300000 1 0 0
0.666785 -6.432405 18.061177 19.184018 -1.467505 0.343832 0.014479 -0.009562 35751.800000 1 0 0
-8.259915 11.843695 12.165877 18.881416 -0.961811 0.870649 -0.013527 -0.008499 22439.500000 1 0 0
-6.432715 -5.700305 14.738977 17.061968 0.725106 0.527934 0.011069 -0.005873 -679749.000000 1 0 0
-4.137915 -9.073905 17.124577 19.816892 1.142944 0.527357 0.009127 -0.006721 -232615.000000 1 0 0
2.600385 -6.183505 16.251177 17.581197 -1.172713 0.391468 0.008560 -0.009457 470166.000000 1 0 0
2.364685 5.090995 16.134177 17.082788 1.135963 0.334819 0.001708 0.003646 -2523890.000000 1 0 0
1.052985 -8.993505 13.997177 16.670719 -1.454244 0.574201 -0.002778 -0.003267 -864941.000000 1 0 0
-9.808515 -2.826805 11.231177 15.176862 0.280595 0.737697 -0.004609 -0.002685 55529.100000 1 0 0
-1.143415 9.977395 12.435077 15.983959 -1.456694 0.679364 -0.005987 0.000253 -296350.000000 1 0 0
-12.247615 -3.684605 11.463877 17.175589 0.292230 0.840015 -0.004839 0.001817 -1355820.000000 1 0 0
-1.878615 6.575695 19.962777 21.101693 -1.292518 0.330046 -0.000258 -0.007128 -253069.000000 1 0 0
0.356685 -13.557805 15.596277 20.668458 -1.544494 0.715762 -0.009463 0.001144 7595.670000 1 0 0
4.238685 -8.847605 15.283077 18.160920 -1.124027 0.570675 0.003246 -0.005124 835061.000000 1 0 0
4.565085 -4.463605 16.020677 17.246039 -0.774159 0.379235 0.012550 -0.007182 -734954.000000 1 0 0
8.143285 1.640195 14.738777 16.918477 0.198758 0.513227 0.002740 0.005334 264808.000000 1 0 0
-6.054515 -0.097405 11.828277 13.288144 0.016087 0.473149 0.000367 -0.001739 157999.000000 1 0 0
-3.177815 -11.096505 18.600577 21.890920 1.291881 0.555392 0.003279 0.009056 -387593.000000 1 0 0
3.340185 -1.692105 13.495777 14.005572 -0.468906 0.270638 0.000811 -0.001057 512298.000000 1 0 0
-2.468115 8.716795 15.890277 18.291392 -1.294874 0.518164 -0.004389 0.004008 -571277.000000 1 0 0
-3.153515 3.948695 14.967377 15.797444 -0.896896 0.325610 -0.006318 0.002608 -895932.000000 1 0 0
-4.723415 -9.350705 19.664377 22.280800 1.103045 0.489495 0.029107 -0.001800 259850.000000 1 0 0
-5.595915 -3.210705 19.045577 20.108627 0.520901 0.326612 0.013453 -0.011824 -701616.000000 1 0 0
-6.493615 -8.609205 11.143677 15.506998 0.924572 0.768977 0.002625 -0.004270 152611.000000 1 0 0
-11.552415 2.416995 12.762477 17.383354 -0.206245 0.746341 -0.003826 -0.011991 -317812.000000 1 0 0
-11.570115 -7.490305 11.605677 18.018434 0.574534 0.870950 -0.003287 -0.000204 -575417.000000 1 0 0
-10.867515 -7.367605 15.606277 20.394616 0.595772 0.699420 0.013188 -0.006136 -405664.000000 1 0 0
0.295585 5.492595 17.689777 18.525231 1.517033 0.301467 0.000048 -0.000331 1734.820000 1 0 0
-2.116415 -0.203705 13.151377 13.322140 0.095954 0.160284 0.000915 0.000844 115569.000000 1 0 0
-5.775015 -10.964505 17.986377 21.842182 1.086017 0.603297 0.003749 0.003242 781613.000000 1 0 0
0.405585 2.398895 19.342077 19.494490 1.403309 0.125128 0.010925 -0.000928 -226356.000000 1 0 0
-0.718515 10.735795 14.875577 18.359095 -1.503969 0.626207 -0.000095 -0.001867 -1173050.000000 1 0 0
-12.590115 -2.141505 14.367677 19.223090 0.168482 0.726630 0.001654 0.001039 -991692.000000 1 0 0
-13.619815 8.223795 11.828777 19.825492 -0.543217 0.931483 -0.006848 -0.010231 697832.000000 1 0 0
-17.864315 -0.562205 7.006277 19.197337 0.031460 1.197206 0.008755 -0.011671 -101168.000000 1 0 0
-1.971915 -7.899305 17.554677 19.350818 1.326165 0.434264 0.009860 -0.010043 -2036330.000000 1 0 0
5.666485 2.627895 14.540477 15.825307 0.434239 0.405737 0.002958 0.002773 -1706160.000000 1 0 0
-14.063915 -6.721105 11.275877 19.238305 0.445809 0.944540 0.000158 0.001055 -229460.000000 1 0 0
3.327485 7.552595 16.405677 18.364642 1.155808 0.466096 0.000983 -0.006210 -201942.000000 1 0 0
1.011385 1.862095 14.542277 14.695854 1.073233 0.144697 0.004792 0.000576 -1812130.000000 1 0 0
-14.219315 0.669695 9.965877 17.376885 -0.047063 0.960008 -0.007627 -0.001397 -1836520.000000 1 0 0
-9.466615 -5.227105 15.625377 19.002417 0.504502 0.605384 0.008407 0.008031 -127850.000000 1 0 0
-2.452415 -0.262805 18.136177 18.303123 0.106754 0.135167 0.000800 -0.001640 217269.000000 1 0 0
6.836985 3.519895 17.432377 19.053131 0.475442 0.415449 0.016079 -0.006644 -633445.000000 1 0 0
-4.065015 -0.961005 14.862777 15.438589 0.232146 0.273975 0.002957 0.002198 -1280820.000000 1 0 0
4.936985 -8.994105 17.762477 20.512760 -1.068788 0.523803 0.008070 -0.002907 -27393.800000 1 0 0
2.012885 6.787795 13.463577 15.211633 1.282513 0.484121 -0.000212 0.000320 -1649110.000000 1 0 0
-3.831015 -0.945105 20.260177 20.640850 0.241869 0.192352 0.004347 -0.005846 -403225.000000 1 0 0
-10.260715 1.636795 16.495577 19.495267 -0.158188 0.562110 -0.008182 -0.003388 -593394.000000 1 0 0
-3.827315 6.994695 18.481277 20.127884 -1.070125 0.407302 0.000472 0.003561 -170040.000000 1 0 0
-12.326015 1.269595 14.993977 19.451526 -0.102639 0.690641 -0.001656 -0.003843 -108684.000000 1 0 0
-15.982415 -4.717905 8.505577 18.709384 0.287041 1.098856 0.001610 -0.007358 -1510720.000000 1 0 0
-2.254515 0.616295 15.641077 15.814738 -0.266841 0.148332 0.001115 0.000486 93419.200000 1 0 0
-13.440615 -8.896605 12.646477 20.487389 0.584709 0.905514 -0.017889 0.000551 367872.000000 1 0 0
6.351785 -3.280105 14.485377 16.153340 -0.476687 0.458445 0.010529 -0.004254 893900.000000 1 0 0
-15.575415 0.339995 7.793377 17.419698 -0.021826 1.106953 -0.004005 -0.002969 -481895.000000 1 0 0
-13.768615 5.725295 12.610577 19.528964 -0.394071 0.868808 -0.008871 -0.011517 342929.000000 1 0 0
0.372485 9.433695 16.741577 19.220139 1.531332 0.513474 0.002918 -0.007692 -332357.000000 1 0 0
-10.206415 -5.452005 10.801277 15.829177 0.490612 0.819803 0.000309 -0.003613 273344.000000 1 0 0
-3.157615 -11.069105 15.079877 18.970986 1.292913 0.651967 -0.001231 -0.000090 -131155.000000 1 0 0
-3.470615 2.864795 12.668677 13.444240 -0.690064 0.341323 -0.001848 -0.000329 -1608120.000000 1 0 0
-12.310115 -7.634305 7.487777 16.306083 0.555115 1.093700 -0.004113 -0.005855 56986.600000 1 0 0
-8.029815 -1.973005 13.135277 15.521153 0.240937 0.561829 0.000744 -0.002372 -168834.000000 1 0 0
-9.714715 6.412895 9.609477 15.094468 -0.583458 0.880686 -0.007492 -0.006786 -641277.000000 1 0 0
-17.832615 -3.468705 6.703477 19.364160 0.192116 1.217300 0.004364 -0.009799 630468.000000 1 0 0
-1.520515 0.030195 20.615177 20.671197 -0.019856 0.073638 0.003035 0.002488 -884817.000000 1 0 0
-2.698115 2.619395 20.290277 20.635804 -0.770595 0.183254 0.004030 0.002186 -506597.000000 1 0 0
-3.747715 11.121395 11.260577 16.264421 -1.245765 0.806064 -0.006783 -0.005824 -346448.000000 1 0 0
-3.941615 -4.830105 14.709777 15.976351 0.886344 0.400870 0.007671 -0.008522 -100912.000000 1 0 0
-0.103815 -14.353805 13.166177 19.477954 1.563564 0.828540 -0.005780 -0.002384 -898925.000000 1 0 0
-12.044515 0.456195 8.447677 14.718754 -0.037858 0.959488 -0.006213 -0.004907 -499794.000000 1 0 0
-7.659915 2.172095 15.389277 17.326920 -0.276313 0.477446 -0.006396 -0.004767 -213392.000000 1 0 0
3.770285 -2.369205 18.393477 18.924803 -0.561032 0.237521 0.021847 -0.006322 -462955.000000 1 0 0
-1.868015 4.877395 12.768877 13.795749 -1.205035 0.388268 -0.004402 0.001863 -855994.000000 1 0 0
-10.202315 -6.230205 13.358677 17.926431 0.548225 0.729970 -0.002220 0.000736 -730346.000000 1 0 0
2.358385 -3.924105 14.266377 14.982993 -1.029642 0.310531 0.002132 -0.002856 -1272910.000000 1 0 0
6.882785 0.943695 16.986677 18.352397 0.136260 0.388222 0.008517 0.001945 -1168550.000000 1 0 0
-1.787115 -5.986305 13.751377 15.103973 1.280685 0.426431 0.001144 -0.006397 -1503060.000000 1 0 0
-12.680115 3.818095 14.678977 19.769561 -0.292474 0.733996 -0.009409 -0.003556 102625.000000 1 0 0
-13.039315 -6.473205 13.574577 19.904654 0.460794 0.820330 -0.014486 0.002096 -656236.000000 1 0 0
-9.411115 6.708695 12.130677 16.754970 -0.619297 0.761206 -0.013132 -0.006462 -873992.000000 1 0 0
-1.061615 -2.567105 12.742477 13.041770 1.178667 0.214649 0.000675 -0.003146 447596.000000 1 0 0
0.217285 6.466895 15.324777 16.634805 1.537209 0.399520 0.000349 0.000097 500664.000000 1 0 0
-16.324315 -0.793505 10.037177 19.179620 0.048571 1.020048 0.007350 0.001597 -170644.000000 1 0 0
-1.261115 2.771095 13.879577 14.209576 -1.143712 0.215936 -0.001011 0.000585 -3485340.000000 1 0 0
-11.000915 -3.331505 16.138077 19.813041 0.294059 0.618899 0.005624 -0.002299 176498.000000 1 0 0
-5.161215 -1.463605 17.165777 17.984554 0.276323 0.302907 0.011947 0.001520 309106.000000 1 0 0
-11.747815 6.566295 11.211077 17.516154 -0.509679 0.876243 -0.013056 -0.006813 -2603200.000000 1 0 0
-2.763215 4.582695 18.595577 19.350244 -1.028198 0.280202 0.004367 -0.005338 267022.000000 1 0 0
5.162985 -1.949905 16.266377 17.177123 -0.361109 0.327097 0.012028 -0.004160 -1441950.000000 1 0 0
-7.905115 -4.254205 12.102577 15.068559 0.493706 0.638203 0.005061 -0.002536 -732501.000000 1 0 0
-11.273315 -0.773005 16.258777 19.799823 0.068462 0.607360 0.005070 0.000805 151210.000000 1 0 0
2.076385 1.932795 17.482577 17.711227 0.749598 0.160859 0.007257 -0.000474 -871754.000000 1 0 0
-8.835515 -7.512605 11.623377 16.419758 0.704653 0.784290 0.003668 -0.005097 879173.000000 1 0 0
-7.161315 6.821795 14.880477 17.867566 -0.761122 0.586612 -0.020943 -0.004951 -798771.000000 1 0 0
-5.476515 3.435995 15.861877 17.128848 -0.560327 0.387033 -0.009124 -0.000347 -512479.000000 1 0 0
-9.213215 4.199295 11.506977 15.327359 -0.427659 0.721603 -0.012868 -0.008476 -317571.000000 1 0 0
-9.895015 0.300295 14.308177 17.399007 -0.030339 0.605257 -0.003616 -0.005382 -15527.500000 1 0 0
8.335285 -0.752205 15.610477 17.712419 -0.090000 0.492128 0.006181 -0.000744 58259.400000 1 0 0
-8.437115 -7.434605 14.748477 18.546586 0.722319 0.651438 0.012632 -0.000134 -2906170.000000 1 0 0
0.121885 3.972395 15.614377 16.112217 1.540123 0.249234 0.005954 -0.001681 -82891.000000 1 0 0
-7.863915 3.034895 9.638577 12.804449 -0.368316 0.718563 -0.008623 -0.004296 -751261.000000 1 0 0
-1.987215 -9.677105 13.159977 16.455406 1.368260 0.643941 -0.006267 -0.004596 252878.000000 1 0 0
-5.922315 10.121295 10.516977 15.751865 -1.041379 0.839728 -0.004082 -0.009941 -3411360.000000 1 0 0
-8.348215 -2.863405 15.609077 17.931399 0.330422 0.514602 0.007215 -0.004846 215662.000000 1 0 0
4.240785 5.568895 17.740077 19.071109 0.919968 0.375820 0.009049 0.000353 -260369.000000 1 0 0
-6.709915 -0.939505 15.075177 16.527752 0.139113 0.422387 0.000218 -0.001883 -282254.000000 1 0 0
-0.835715 -9.933005 15.512977 18.439508 1.486859 0.571131 -0.008457 -0.002745 540455.000000 1 0 0
-4.319815 5.808295 16.271177 17.808658 -0.931319 0.418581 -0.005258 -0.001280 -125730.000000 1 0 0
3.820185 -0.064805 17.432177 17.845974 -0.016962 0.215765 0.011956 -0.002430 -535687.000000 1 0 0
1.308485 0.002495 19.220577 19.265065 0.001907 0.067973 0.010939 -0.001447 -262780.000000 1 0 0
-6.414415 6.512595 17.858077 20.061643 -0.792993 0.473100 -0.011318 0.006803 423941.000000 1 0 0
-12.028515 0.569395 11.046677 16.341312 -0.047302 0.828480 -0.003009 -0.005981 -657103.000000 1 0 0
-5.323615 5.104495 14.028277 15.848953 -0.764389 0.484037 -0.011900 -0.000992 -2175490.000000 1 0 0
-8.609715 -9.473905 9.974677 16.228871 0.833150 0.908885 0.002224 -0.002193 -1034140.000000 1 0 0
6.981885 -3.682905 16.896277 18.649254 -0.485400 0.437053 0.008042 -0.007989 -171690.000000 1 0 0
-16.484715 1.836895 9.705877 19.217806 -0.110972 1.041361 0.008475 -0.005428 30436.400000 1 0 0
-4.003815 -9.576005 11.465877 15.465986 1.174777 0.735700 -0.001846 -0.004633 579317.000000 1 0 0
-11.080215 -3.761805 9.179677 14.872418 0.327296 0.905581 -0.006128 -0.002509 -919713.000000 1 0 0
3.871985 -5.453905 18.391277 19.569783 -0.953425 0.348812 0.020039 -0.013638 55568.700000 1 0 0
2.669185 -1.929705 15.986177 16.321953 -0.625967 0.203190 0.008952 -0.002488 -751802.000000 1 0 0
-2.970915 -4.468505 20.165677 20.867400 0.984048 0.260069 0.014281 -0.011601 -808439.000000 1 0 0
-6.088815 -3.293705 14.284977 15.873964 0.495863 0.451257 0.005669 -0.003982 735034.000000 1 0 0
-9.557915 4.890695 13.981077 17.627909 -0.472956 0.654879 -0.013366 -0.009138 66109.400000 1 0 0
-5.767815 -5.342005 11.658177 14.061216 0.747090 0.593297 0.004888 -0.005771 -1341390.000000 1 0 0
6.300985 1.784895 19.426177 20.500356 0.276041 0.325153 0.019861 -0.002877 82790.400000 1 0 0
-2.653515 11.718595 13.508177 18.078647 -1.348115 0.726973 0.000642 -0.011000 -606686.000000 1 0 0
3.349185 1.347495 15.242777 15.664451 0.382518 0.232555 0.001127 0.002787 -861261.000000 1 0 0
-5.711215 7.328895 12.821377 15.834090 -0.908822 0.627100 -0.014432 -0.010947 -1564010.000000 1 0 0
-1.699015 -1.842505 15.154277 15.360130 0.825892 0.163901 0.004900 -0.001670 -229820.000000 1 0 0
-7.148415 10.369395 14.089477 18.898084 -0.967236 0.729436 -0.009362 -0.003898 426284.000000 1 0 0
-10.055215 2.089595 10.617977 14.772109 -0.204896 0.768743 -0.006082 -0.004878 -1844900.000000 1 0 0
-13.426815 5.313895 9.156277 17.098370 -0.376852 1.005690 -0.011556 -0.008836 -504438.000000 1 0 0
0.519285 -4.950005 20.172377 20.777319 -1.466273 0.241900 0.013639 -0.010435 -394564.000000 1 0 0
-14.342015 -2.921105 7.622677 16.502468 0.200926 1.090647 -0.007228 -0.007045 -232671.000000 1 0 0
-2.363215 2.253895 17.646677 17.946310 -0.761725 0.182990 -0.002253 -0.000059 211006.000000 1 0 0
-6.036715 -8.294305 14.539277 17.794044 0.941646 0.614457 0.006046 -0.008825 -571860.000000 1 0 0
-7.960115 1.817495 12.047577 14.553722 -0.224477 0.595621 -0.008268 -0.003047 734340.000000 1 0 0
-14.446615 -3.458205 10.145277 17.988622 0.234957 0.971595 -0.003834 -0.001377 98825.400000 1 0 0
-0.494815 7.073595 12.852277 14.678611 -1.500958 0.504164 -0.000270 0.001408 641928.000000 1 0 0
-1.664815 -2.297005 19.450777 19.656565 0.943635 0.144828 0.010133 -0.004220 474395.000000 1 0 0
-12.814215 10.411395 7.447477 18.112597 -0.682309 1.147052 -0.008046 -0.008841 63718.400000 1 0 0
-19.193715 2.282995 7.050077 20.574605 -0.118389 1.221050 0.007696 -0.014076 838740.000000 1 0 0
-15.986215 8.557195 6.819277 19.372331 -0.491476 1.211077 -0.005903 0.001062 683205.000000 1 0 0
-11.937415 7.351895 13.647377 19.565356 -0.552007 0.798855 -0.021433 -0.006849 -158067.000000 1 0 0
-15.630315 8.593095 10.246677 20.570426 -0.502667 1.049359 -0.009436 -0.004322 -25548.000000 1 0 0
1.877285 10.987595 15.188677 18.840047 1.401575 0.633111 -0.001570 -0.004406 -641790.000000 1 0 0
2.309685 13.997295 13.437877 19.540610 1.407261 0.812494 -0.003388 0.004045 -1080510.000000 1 0 0
-3.153415 13.528395 11.777277 18.211693 -1.341789 0.867563 -0.002026 -0.011175 69911.900000 1 0 0
8.972285 4.766795 15.695077 18.696515 0.488357 0.574498 0.009783 0.002805 247596.000000 1 0 0
-0.240215 12.476495 13.004077 18.022948 -1.551545 0.764788 -0.006070 -0.002380 -134220.000000 1 0 0
4.433385 13.023595 14.691077 20.127014 1.242689 0.752594 0.006654 -0.004106 374849.000000 1 0 0
-2.915415 -4.023605 -13.693423 14.567048 0.943765 2.793507 -0.002086 -0.005516 -306013.000000 1 0 0
5.855085 -11.540905 16.335577 20.840479 -1.101299 0.669972 -0.002422 -0.000511 55556.800000 1 0 0
7.765785 -13.615405 7.294677 17.288695 -1.052450 1.135220 -0.008390 -0.005207 -276879.000000 1 0 0
0.059985 15.605095 1.541277 15.681139 1.566952 1.472349 0.002696 -0.002496 -2487160.000000 1 0 0
-13.252915 8.151195 9.144877 18.047452 -0.551412 1.039429 -0.023303 -0.004093 495777.000000 1 0 0
-15.270515 -9.598505 5.123177 18.750117 0.561158 1.294043 -0.008108 0.001016 -1450290.000000 1 0 0
9.574285 -11.297105 10.930277 18.405501 -0.867756 0.934949 -0.004815 -0.002725 135227.000000 1 0 0
-5.672815 -10.678705 -16.703423 20.620861 1.082480 2.514992 -0.010004 0.004264 135020.000000 1 0 0
-2.009315 -12.492105 -15.079923 19.684870 1.411315 2.443496 -0.010411 0.008902 83968.700000 1 0 0
5.356485 -15.650105 -12.831823 20.934980 -1.241029 2.230569 0.002444 0.013972 290528.000000 1 0 0
2.604985 -11.737605 -16.713423 20.588730 -1.352401 2.517982 -0.002653 0.003044 277987.000000 1 0 0
0.234885 -13.933005 -14.208623 19.901476 -1.553940 2.365917 -0.009781 0.007888 288540.000000 1 0 0
-6.946615 -6.223905 -14.776023 17.473503 0.730580 2.578530 0.000466 0.009906 15551.600000 1 0 0
-5.860315 -8.318505 -17.424723 20.178250 0.957062 2.613044 -0.031530 0.008314 -63326.300000 1 0 0
-2.233715 -16.234205 -13.222323 21.056322 1.434062 2.249713 -0.007046 0.002376 292095.000000 1 0 0
16.552585 -7.897205 -9.372123 20.595888 -0.445159 2.043223 0.016252 -0.000035 25997.500000 1 0 0
18.727285 -2.870505 -3.522123 19.270608 -0.152096 1.754601 -0.021307 -0.007341 -66969.300000 1 0 0
15.822585 -11.252405 -9.018823 21.408175 -0.618177 2.005652 0.013398 -0.008410 369193.000000 1 0 0
18.156285 -2.569805 -6.560023 19.475330 -0.140604 1.914353 0.092896 -0.001205 -225346.000000 1 0 0
8.774185 -9.527505 -15.842423 20.463187 -0.826536 2.456233 0.026454 -0.003352 257538.000000 1 0 0
-4.930315 9.645995 -16.096123 19.402021 -1.098288 2.549206 -0.005997 -0.000041 540120.000000 1 0 0
1.770085 -9.723805 -18.870123 21.301810 -1.390732 2.659110 -0.000651 0.010861 133970.000000 1 0 0
10.506485 8.178795 -15.307923 20.288209 0.661463 2.425724 0.012761 -0.017036 412340.000000 1 0 0
18.104385 -6.165605 -7.802023 20.655629 -0.328239 1.958128 -0.012849 -0.005748 242872.000000 1 0 0
12.302685 5.580695 -13.716623 19.252168 0.425857 2.363811 0.013711 -0.006349 61395.600000 1 0 0
15.871285 5.763795 -11.373823 20.358852 0.348349 2.163574 0.006675 0.001230 185593.000000 1 0 0
3.166585 -0.165005 -19.066623 19.328492 -0.052061 2.976796 0.014758 -0.012469 127292.000000 1 0 0
9.793585 -1.251505 -15.418923 18.309117 -0.127099 2.572044 -0.008630 0.010960 201441.000000 1 0 0
11.957885 -5.911005 -14.085523 19.399303 -0.459092 2.383406 0.009837 -0.000122 359422.000000 1 0 0
9.951685 6.911395 -13.296123 17.988616 0.607022 2.402590 0.018610 0.005166 501946.000000 1 0 0
10.418285 5.599195 -16.336023 20.168225 0.493149 2.514928 0.017297 -0.004700 419537.000000 1 0 0
11.710985 -10.228405 -15.173523 21.725635 -0.717925 2.343978 0.018346 -0.004494 301142.000000 1 0 0
-1.571315 2.177695 -17.862623 18.063352 -0.945753 2.992374 -0.002893 0.000890 308132.000000 1 0 0
6.031185 -1.107005 -17.086423 18.153416 -0.181526 2.797031 -0.002991 0.002539 -19873.500000 1 0 0
7.044885 -6.268305 -15.898923 18.485070 -0.727133 2.606253 0.001415 -0.001732 339204.000000 1 0 0
-2.412815 -4.645405 -20.394223 21.055303 1.091751 2.890344 0.006463 -0.020866 359209.000000 1 0 0
15.821985 -0.120805 -13.508823 20.804761 -0.007635 2.277478 -0.002198 0.001474 -24544.500000 1 0 0
-4.068015 -0.431305 -18.625123 19.069084 0.105629 2.925386 -0.018642 0.006362 93819.000000 1 0 0
3.174785 8.955195 -17.812223 20.187869 1.230102 2.651572 0.001586 -0.007679 -403330.000000 1 0 0
9.028785 0.019595 -17.609623 19.789345 0.002170 2.667821 -0.009290 0.005036 -45961.300000 1 0 0
4.025185 5.146895 -18.718823 19.826421 0.907090 2.805757 0.004795 0.012279 328056.000000 1 0 0
-2.550215 -10.924005 -18.254723 21.425975 1.341453 2.590571 0.000167 -0.004841 363244.000000 1 0 0
5.666185 -9.612405 -16.070923 19.564727 -1.038159 2.534699 0.001588 -0.005967 170300.000000 1 0 0
10.003385 -12.499205 -10.868223 19.349835 -0.895859 2.167199 0.008477 0.010410 283422.000000 1 0 0
5.916785 7.003895 -17.283923 19.565196 0.869338 2.653868 0.011029 -0.000827 351527.000000 1 0 0
7.644485 1.487195 -20.230223 21.677450 0.192145 2.774120 -0.026951 0.002545 181276.000000 1 0 0
-1.512115 -0.917505 -20.193923 20.271232 0.545382 3.054230 0.005119 -0.012686 237394.000000 1 0 0
-1.114715 6.456995 -19.651423 20.715062 -1.399845 2.819749 -0.003797 -0.005642 128811.000000 1 0 0
8.367285 5.766695 -18.387723 21.008917 0.603438 2.636716 0.013913 -0.002208 90183.200000 1 0 0
11.729885 0.047995 -13.223723 17.676520 0.004092 2.415984 -0.021032 0.003822 50610.700000 1 0 0
-4.236215 -2.648405 -19.786023 20.407015 0.558730 2.894263 -0.036034 0.003775 391695.000000 1 0 0
6.166985 -11.328205 -14.567023 19.456569 -1.072269 2.416887 0.008908 0.000637 130874.000000 1 0 0
11.119885 2.027495 -16.293923 19.830646 0.180349 2.535103 0.016083 0.005612 -65452.700000 1 0 0
-2.975615 -4.073505 -17.066023 17.795979 0.939905 2.854185 -0.012126 -0.004889 249226.000000 1 0 0
-6.907315 -4.755905 -17.550823 19.451504 0.602987 2.695839 -0.021687 0.005282 28888.300000 1 0 0
3.136185 10.433095 -15.401723 18.865265 1.278789 2.525957 -0.007346 -0.003422 152472.000000 1 0 0
16.228285 -6.263805 -11.186123 20.681437 -0.368363 2.142276 -0.013098 0.000033 -24615.200000 1 0 0
8.908485 -3.147805 -17.699123 20.063119 -0.339655 2.651251 -0.037899 -0.001502 142954.000000 1 0 0
-7.433415 -1.431805 -18.694923 20.169429 0.190287 2.756847 -0.024695 0.015145 674293.000000 1 0 0
1.459285 -7.375805 -19.280123 20.694327 -1.375471 2.769758 0.009439 -0.018304 261253.000000 1 0 0
6.109185 11.087695 -14.056623 18.916865 1.067195 2.408448 0.009582 0.002005 396108.000000 1 0 0
5.980785 -3.973705 -17.359123 18.785613 -0.586440 2.749378 0.004478 -0.020141 341207.000000 1 0 0
4.613785 13.446695 -14.825523 20.540126 1.240267 2.377172 -0.008258 -0.003169 66260.700000 1 0 0
8.934885 11.542895 -15.378123 21.202766 0.912074 2.382250 0.033852 -0.016033 -181101.000000 1 0 0
17.135185 1.282095 -11.835123 20.864526 0.074683 2.173943 0.011001 0.016037 204029.000000 1 0 0
14.555685 -2.757105 -12.547223 19.413974 -0.187200 2.273520 -0.003859 0.006899 126002.000000 1 0 0
-8.808215 0.425795 -17.293823 19.412426 -0.048303 2.670039 -0.018665 0.007640 371139.000000 1 0 0
-3.594815 4.283595 -19.228623 20.025280 -0.872603 2.858576 0.003921 0.004669 -29875.200000 1 0 0
3.778185 2.045195 -16.905023 17.442400 0.496152 2.892723 0.006771 -0.009436 280542.000000 1 0 0
-5.031715 14.110395 -13.860823 20.409405 -1.228257 2.317385 -0.011665 0.001604 241425.000000 1 0 0
0.704985 9.671595 -17.713523 20.194199 1.498033 2.640710 -0.002866 0.004618 285648.000000 1 0 0
1.290885 -4.985405 -19.504223 20.172639 -1.317428 2.883448 0.013008 -0.011230 393084.000000 1 0 0
4.366785 -6.094505 -17.988323 19.488242 -0.949074 2.746692 0.020700 -0.022605 205570.000000 1 0 0
-6.989815 7.460295 -15.588923 18.642104 -0.817946 2.561152 -0.013704 0.003423 27566.600000 1 0 0
-11.970915 2.813695 -16.783823 20.806643 -0.230854 2.509270 0.009988 0.000213 270530.000000 1 0 0
-4.496015 6.796295 -17.149023 18.986647 -0.986352 2.697998 -0.008489 0.008130 379127.000000 1 0 0
-8.389615 5.255995 -17.536323 20.137869 -0.559669 2.627650 -0.011228 0.004135 251720.000000 1 0 0
-9.001315 4.517795 -15.098323 18.149201 -0.465170 2.553319 -0.014082 -0.000716 410597.000000 1 0 0
9.300085 14.052395 -12.339123 20.885769 0.986160 2.202835 0.018087 -0.023137 461623.000000 1 0 0
13.598085 10.030895 -12.107423 20.787411 0.635563 2.192524 0.020796 -0.013232 -18259.300000 1 0 0
8.420485 15.482695 -9.973123 20.250472 1.072676 2.085743 0.011653 -0.017638 -20845.600000 1 0 0
7.784385 14.154795 -14.241123 21.535191 1.067994 2.293341 0.015868 -0.016762 -99744.900000 1 0 0
3.865385 15.375095 -12.919523 20.451133 1.324495 2.254575 0.001477 -0.019580 142731.000000 1 0 0
10.442085 12.031895 -11.296423 19.529793 0.856021 2.187587 0.023169 -0.014684 3627.770000 1 0 0
15.924985 10.080795 -10.976323 21.810714 0.564344 2.098156 0.045702 0.000298 182938.000000 1 0 0
12.862885 11.303595 -10.156723 19.909397 0.720965 2.106152 0.031868 -0.011316 116492.000000 1 0 0
10.397785 11.288095 -7.941923 17.280311 0.826430 2.048334 0.014591 -0.005306 -18932.500000 1 0 0
5.576385 16.919695 -10.063823 20.461004 1.252428 2.085014 0.021795 -0.007282 136435.000000 1 0 0
11.628985 14.314395 -10.147123 21.049924 0.888541 2.073790 0.047749 -0.011884 183845.000000 1 0 0
8.692585 -19.470605 -1.684123 21.389290 -1.150901 1.649615 0.029993 0.006666 170791.000000 1 0 0
6.679485 -17.471905 -3.400123 19.011676 -1.205642 1.750608 0.013843 0.003854 281173.000000 1 0 0
3.843085 -18.869605 5.263677 19.963406 -1.369879 1.303975 0.023542 -0.010277 239738.000000 1 0 0
10.465785 -17.881805 -2.170623 20.832743 -1.041274 1.675179 0.023818 -0.001894 482893.000000 1 0 0
-1.928415 -15.629305 7.761977 17.556829 1.448032 1.112851 -0.010802 -0.006797 73845.000000 1 0 0
-15.288115 -12.748405 -4.404123 20.387363 0.695059 1.788535 -0.011591 0.007037 -170534.000000 1 0 0
-9.056615 -12.640105 -7.343223 17.196437 0.949083 2.011991 -0.002700 -0.010718 -36306.900000 1 0 0
-11.463915 -15.078005 6.667077 20.080276 0.920731 1.232351 -0.004697 -0.000135 147722.000000 1 0 0
-14.363015 -8.597705 -7.964323 18.537723 0.539390 2.014877 -0.000866 -0.003090 -166271.000000 1 0 0
4.407285 -15.080505 6.050377 16.836058 -1.286464 1.203203 0.008565 -0.014154 150169.000000 1 0 0
2.950685 -14.223405 8.976277 17.075870 -1.366245 1.017293 0.008537 -0.004746 419499.000000 1 0 0
3.075885 -17.674105 9.863577 20.472547 -1.398489 1.068094 0.008356 0.003593 220062.000000 1 0 0
-7.397815 -17.452705 -5.411723 19.713227 1.169877 1.848889 -0.039468 0.005003 77622.600000 1 0 0
1.606585 -19.797805 -3.946123 20.251076 -1.489824 1.766911 0.016460 -0.007454 -3950.410000 1 0 0
-18.095715 -10.674705 -1.781523 21.085020 0.532962 1.655390 -0.021021 0.003638 58947.700000 1 0 0
-4.296515 -14.900605 2.905777 15.777566 1.290066 1.385568 -0.001804 0.001363 81199.900000 1 0 0
-10.661715 -9.826905 -14.485823 20.495836 0.744676 2.355717 -0.000114 -0.003149 111433.000000 1 0 0
0.161885 -20.276905 2.455077 20.425633 -1.562813 1.450309 0.000305 -0.007975 193393.000000 1 0 0
6.484385 -18.687905 0.991777 19.805773 -1.236812 1.520700 0.021277 0.012460 249027.000000 1 0 0
-7.822215 -18.838205 -3.397823 20.678738 1.177229 1.735860 -0.002850 0.000195 159768.000000 1 0 0
-9.381615 -15.585405 -7.703723 19.755174 1.028945 1.971384 0.004164 -0.009695 36833.400000 1 0 0
-11.841115 -11.192705 -12.481923 20.525278 0.757255 2.224492 0.017705 0.008881 386035.000000 1 0 0
-13.201415 -15.040305 -3.337523 20.288598 0.850419 1.736050 -0.018266 -0.001106 236798.000000 1 0 0
-0.543015 -20.648105 -2.629223 20.821909 1.544504 1.697406 -0.000667 0.002139 343218.000000 1 0 0
-12.222015 -16.890505 -0.422123 20.852937 0.944405 1.591041 -0.006656 0.012313 146565.000000 1 0 0
0.715285 -20.368605 4.953977 20.974594 -1.535694 1.332354 0.006838 -0.004407 -192.306000 1 0 0
-18.145515 -8.916305 2.889877 20.423310 0.456726 1.428821 0.008690 -0.000699 -150161.000000 1 0 0
-14.529415 -14.875905 -0.316723 20.796556 0.797181 1.586027 -0.029567 0.010854 -77262.000000 1 0 0
9.863085 -15.909405 -4.755723 19.313376 -1.015834 1.819595 0.019919 0.009257 151994.000000 1 0 0
-0.547515 -19.184505 -6.929123 20.404846 1.542265 1.917269 -0.008828 0.000663 180380.000000 1 0 0
-10.344715 -16.761605 -2.555623 19.861917 1.017849 1.699824 -0.001134 0.001887 426068.000000 1 0 0
-14.891515 -6.497905 -11.208723 19.738679 0.411444 2.174695 0.021001 -0.005889 53472.600000 1 0 0
-11.857515 -15.325005 2.532477 19.541491 0.912276 1.440836 -0.014750 0.007276 205249.000000 1 0 0
-2.579515 -16.295805 10.245777 19.421202 1.413806 1.015075 -0.008985 -0.008519 329023.000000 1 0 0
-12.345015 -14.308905 -6.527923 19.993947 0.858946 1.903389 -0.004180 -0.005589 243294.000000 1 0 0
5.738885 -16.966905 -6.924823 19.203224 -1.244636 1.939715 0.025515 0.000725 290922.000000 1 0 0
-17.259815 -7.238305 -2.845223 18.931180 0.397095 1.721661 -0.041758 0.002866 -3476.460000 1 0 0
-11.760915 -13.556405 -9.857623 20.476034 0.856199 2.073073 0.000440 -0.013939 -38653.600000 1 0 0
-7.007615 -14.923405 9.076477 18.820125 1.131786 1.067546 -0.013256 0.004320 369588.000000 1 0 0
-16.008615 -8.253705 -5.569423 18.852530 0.476033 1.870692 0.020656 0.003352 349027.000000 1 0 0
-0.783215 -19.638305 0.078577 19.654074 1.530935 1.566798 0.004973 -0.002072 154732.000000 1 0 0
-15.047915 -11.154605 -1.960523 18.833709 0.637892 1.675082 -0.001891 -0.001431 32093.500000 1 0 0
-6.852115 -19.267505 2.319077 20.580727 1.229114 1.457875 -0.016112 0.004218 120632.000000 1 0 0
-2.206715 -20.913005 -4.895923 21.591513 1.465667 1.799538 -0.014788 0.006653 98095.100000 1 0 0
-8.901015 -19.739405 -0.788123 21.667794 1.147172 1.607177 -0.018966 0.021426 22687.200000 1 0 0
-17.599915 -7.486005 5.155377 19.808463 0.402161 1.307503 0.001656 -0.000828 150354.000000 1 0 0
-3.205815 -15.821605 -10.914723 19.486703 1.370880 2.165316 -0.011158 0.005044 31813.100000 1 0 0
-3.010915 -17.986505 -8.755423 20.229617 1.404936 2.018395 -0.018055 0.000285 232572.000000 1 0 0
3.736485 -18.375805 -6.198523 19.749765 -1.370194 1.890045 0.007767 0.048087 449584.000000 1 0 0
0.649185 -17.422305 -9.016223 19.627797 -1.533552 2.048071 -0.004784 0.009929 -180400.000000 1 0 0
-7.599215 -10.089305 -14.633123 19.330557 0.925253 2.429497 -0.017004 -0.002382 247723.000000 1 0 0
-5.343115 -18.897005 -2.012823 19.740748 1.295240 1.672937 -0.010697 -0.008359 175155.000000 1 0 0
-9.810715 -15.972005 8.413477 20.546086 1.019969 1.148898 -0.018989 -0.002693 150185.000000 1 0 0
-7.359215 -15.838505 -9.578523 19.918945 1.135834 2.072449 0.006929 0.007051 277277.000000 1 0 0
-12.650415 -8.212905 -12.141923 19.362621 0.575827 2.248596 0.008605 -0.006121 368877.000000 1 0 0
-15.586015 -12.969505 3.160077 20.521160 0.694024 1.416190 -0.005291 0.006414 160282.000000 1 0 0
-6.296815 -14.228805 -12.770623 20.129520 1.154163 2.258058 -0.009239 0.000915 573289.000000 1 0 0
-14.106115 -11.891105 -6.669423 19.617902 0.700402 1.917677 0.012542 -0.003186 -106086.000000 1 0 0
-11.846815 -10.529905 -8.137823 17.817129 0.726614 2.045125 0.023163 -0.010373 235332.000000 1 0 0
-9.651915 -14.847605 3.534977 18.058430 0.994375 1.373772 -0.010323 0.005124 435732.000000 1 0 0
4.833885 -17.983405 8.225177 20.357378 -1.308206 1.154868 0.023250 -0.019515 213347.000000 1 0 0
-4.878415 -16.799905 5.500877 18.338358 1.288185 1.266140 -0.007781 0.013454 352886.000000 1 0 0
-18.487915 -7.349205 -6.988923 21.086936 0.378361 1.908619 -0.007058 0.001500 63737.100000 1 0 0
-16.945915 -3.595305 -10.679223 20.350333 0.209063 2.123240 -0.000094 -0.000040 -88407.400000 1 0 0
-15.671415 -4.094605 -13.019623 20.781473 0.255565 2.247853 0.001171 0.000359 215602.000000 1 0 0
-19.235215 -4.606605 -5.597223 20.555856 0.235061 1.846572 -0.008945 0.009332 -186029.000000 1 0 0
5.647785 -13.725605 8.746277 17.227509 -1.180434 1.038292 0.014147 -0.002819 234200.000000 1 0 0
19.612785 -3.643305 2.494477 20.103667 -0.183668 1.446395 -0.009543 -0.004771 -157537.000000 1 0 0
17.924285 -2.676905 -0.494623 18.129822 -0.148249 1.598082 0.001377 -0.004821 256088.000000 1 0 0
14.398585 -11.719305 0.142477 18.565604 -0.683172 1.563122 0.022455 0.012344 126957.000000 1 0 0
11.197885 -13.779505 5.153577 18.488557 -0.888391 1.288310 0.004984 -0.000983 433526.000000 1 0 0
10.042185 -13.267705 9.183277 19.005527 -0.922901 1.066502 0.004278 0.002975 337805.000000 1 0 0
17.872185 4.260895 -4.293623 18.868106 0.234040 1.800367 -0.020200 0.003980 -128653.000000 1 0 0
18.925785 -6.018805 -4.601323 20.385865 -0.307907 1.798470 0.022500 -0.010262 -38259.000000 1 0 0
17.743585 -10.216705 -0.618223 20.484093 -0.522433 1.600982 0.018517 0.006488 365092.000000 1 0 0
17.541085 -8.858705 8.430477 21.383153 -0.467660 1.165536 0.030916 -0.001594 -19618.500000 1 0 0
20.046385 0.235395 -2.186823 20.166684 0.011742 1.679447 0.020321 0.001335 -81810.900000 1 0 0
7.546485 -13.757905 11.623277 19.527671 -1.069090 0.933256 0.005460 0.008690 345128.000000 1 0 0
16.165685 -6.487905 -3.661223 17.799630 -0.381659 1.777966 0.017744 -0.002919 209387.000000 1 0 0
14.372185 -7.118205 11.138577 19.526813 -0.459862 0.963773 -0.002164 -0.034512 245856.000000 1 0 0
16.385785 1.233795 10.677577 19.596603 0.075155 0.994564 0.028169 -0.009047 174208.000000 1 0 0
16.650385 -9.851405 2.536877 19.512079 -0.534266 1.440411 0.004668 -0.008603 338631.000000 1 0 0
16.048085 -6.964705 -6.079323 18.520429 -0.409460 1.905246 0.010646 -0.003632 120189.000000 1 0 0
17.440985 -4.365905 5.605177 18.832607 -0.245284 1.268586 0.000343 -0.016462 -49685.800000 1 0 0
13.405585 -13.306905 7.865877 20.461071 -0.781704 1.176205 -0.001016 -0.007548 244809.000000 1 0 0
15.380085 -14.410105 -1.844023 21.156525 -0.752849 1.658068 0.022451 0.008645 221596.000000 1 0 0
18.572285 -6.390605 7.690877 21.093107 -0.331403 1.197576 0.016222 -0.006879 144662.000000 1 0 0
19.522285 3.073195 2.255377 19.890974 0.156139 1.457165 0.001768 -0.003913 210711.000000 1 0 0
15.756285 -10.696205 7.928877 20.628533 -0.596392 1.176277 0.016844 -0.015794 356224.000000 1 0 0
14.363285 -4.100605 10.678677 18.361728 -0.278094 0.950136 0.009954 -0.008768 -159810.000000 1 0 0
18.733585 -7.892005 2.106177 20.436901 -0.398712 1.467555 0.005080 0.000507 -69680.600000 1 0 0
19.004585 -6.090805 -1.293923 19.998659 -0.310149 1.635542 0.005421 -0.009863 229825.000000 1 0 0
14.370485 -13.754905 -6.518923 20.933337 -0.763515 1.887476 0.007387 0.004934 408178.000000 1 0 0
13.806885 -9.795105 10.141577 19.733873 -0.617031 1.031051 -0.008573 -0.002983 318500.000000 1 0 0
14.115085 2.267795 0.322577 14.299740 0.159303 1.548236 -0.006979 -0.003199 -406905.000000 1 0 0
12.867885 2.351695 13.759677 18.985301 0.180762 0.760119 0.008064 0.001954 200666.000000 1 0 0
18.057685 -2.467805 9.736877 20.663417 -0.135821 1.080130 0.007908 -0.005122 -105901.000000 1 0 0
6.982685 -18.390605 5.026977 20.303761 -1.207922 1.320606 0.003083 -0.011062 328156.000000 1 0 0
12.509085 -3.568005 14.491977 19.473707 -0.277855 0.731487 -0.008853 0.000378 31861.100000 1 0 0
10.926385 -13.331805 -6.933023 18.579282 -0.884234 1.953208 0.006629 -0.005747 -291142.000000 1 0 0
10.701385 -17.506905 4.408477 20.986806 -1.022134 1.359161 -0.003544 -0.006824 494983.000000 1 0 0
18.125985 0.006495 -5.083423 18.825317 0.000358 1.844222 0.000574 -0.004111 -79400.400000 1 0 0
4.176885 -13.511005 11.545277 18.256151 -1.270969 0.886143 -0.005378 -0.008361 -79799.800000 1 0 0
9.283085 -3.058105 14.005177 17.078426 -0.318231 0.609297 0.003059 -0.002221 203034.000000 1 0 0
9.069885 -9.546705 14.019777 19.234254 -0.811005 0.754088 -0.003957 -0.002574 385495.000000 1 0 0
20.963685 5.894595 -2.638023 21.935850 0.274104 1.691349 -0.007469 0.023243 286407.000000 1 0 0
14.875085 -13.606205 1.909777 20.249548 -0.740876 1.476344 0.012517 0.012326 217372.000000 1 0 0
11.202685 -0.673705 15.236477 18.923643 -0.060065 0.634859 0.005645 0.003259 -41289.900000 1 0 0
19.780185 -0.120105 7.345777 21.100487 -0.006072 1.215217 0.071833 -0.015162 17066.300000 1 0 0
19.879885 1.222095 0.289277 19.919513 0.061397 1.556274 0.011450 -0.004347 -95284.300000 1 0 0
17.680985 0.187895 3.036677 17.940845 0.010627 1.400717 0.003743 -0.005260 71429.700000 1 0 0
10.288685 -8.580705 16.272977 21.078314 -0.695128 0.688776 -0.000879 0.001537 142372.000000 1 0 0
19.045085 2.817195 5.138577 19.926285 0.146857 1.309970 0.019099 -0.009469 104182.000000 1 0 0
15.124385 2.246595 7.019977 16.824811 0.147463 1.140391 0.011371 -0.004532 109206.000000 1 0 0
11.293185 -16.033505 2.168777 19.731013 -0.957157 1.460657 -0.008609 0.013370 167912.000000 1 0 0
8.416385 -16.209305 6.979577 19.552278 -1.091882 1.205774 -0.004375 -0.002660 367376.000000 1 0 0
6.288285 6.615695 7.034277 11.523498 0.810766 0.914194 -0.002539 0.002923 -941431.000000 1 0 0
18.375385 2.795195 -6.746223 19.773199 0.150959 1.918968 -0.010542 0.010305 173014.000000 1 0 0
13.988885 4.529395 -7.361423 16.443688 0.313133 2.034960 0.006499 -0.000879 352698.000000 1 0 0
-10.448415 -3.928005 -13.694023 17.667056 0.359597 2.457695 -0.010491 -0.007196 -281022.000000 1 0 0
7.561485 -14.411105 -10.411923 19.320045 -1.087586 2.139949 0.005489 0.021385 39894.400000 1 0 0
2.210585 -15.651605 14.079777 21.168362 -1.430487 0.843124 -0.001594 -0.000948 301137.000000 1 0 0
-9.379915 -7.827905 2.231977 12.419365 0.695449 1.390097 0.009582 -0.002155 360010.000000 1 0 0
-13.663515 3.047595 -9.062723 16.676703 -0.219454 2.145321 -0.012027 0.001027 492248.000000 1 0 0
-12.960515 -5.184705 -12.764723 18.915451 0.380540 2.311531 0.005284 -0.009669 132227.000000 1 0 0
-17.527615 0.215095 -8.220323 19.360715 -0.012271 2.009303 -0.003928 -0.005394 390805.000000 1 0 0
-12.221315 15.161495 4.721977 20.038177 -0.892362 1.332910 0.005487 -0.011800 225161.000000 1 0 0
-17.156915 6.306795 9.488177 20.595167 -0.352263 1.092014 0.007474 -0.010749 235322.000000 1 0 0
-13.436815 15.727595 -0.047623 20.685926 -0.863784 1.573099 0.026312 -0.014068 216060.000000 1 0 0
-15.794315 5.037595 -10.844423 19.810080 -0.308750 2.150074 -0.011649 0.015156 31367.400000 1 0 0
-18.438415 3.202295 -0.138323 18.714940 -0.171960 1.578187 0.031028 -0.000680 -107412.000000 1 0 0
-9.859815 15.389795 -0.129223 18.277813 -1.001006 1.577866 0.014503 -0.009328 -20237.900000 1 0 0
-18.177815 12.579895 2.734877 22.274790 -0.605368 1.447707 0.014589 0.004406 -28201.600000 1 0 0
-8.475715 16.559995 -7.616723 20.101882 -1.097739 1.959410 0.028987 -0.013752 -18991.200000 1 0 0
-15.064615 -1.886705 -13.048223 20.018951 0.124592 2.280743 0.000372 -0.005380 144240.000000 1 0 0
-18.807115 5.704195 -4.885923 20.251362 -0.294481 1.814464 0.013805 0.003154 55677.600000 1 0 0
-16.654015 9.124895 -5.910323 19.888486 -0.501237 1.872527 0.022165 0.006508 -64818.500000 1 0 0
-18.971815 1.540595 2.661577 19.219448 -0.081027 1.431866 -0.002698 -0.014779 137569.000000 1 0 0
-13.651715 12.926495 -7.094123 20.094531 -0.758119 1.931612 0.007559 0.022952 -170116.000000 1 0 0
-13.324515 4.793695 -13.408523 19.501557 -0.345348 2.328922 0.004896 0.002851 -71300.900000 1 0 0
-14.098615 9.727795 -6.416823 18.291434 -0.603971 1.929233 0.008159 0.003039 76759.900000 1 0 0
-6.545115 11.135595 -15.167923 19.922497 -1.039422 2.436184 -0.015350 -0.031171 33253.500000 1 0 0
-15.202015 14.014795 3.150877 20.915157 -0.744786 1.419570 0.018879 -0.012397 -11022.900000 1 0 0
-18.561415 8.641595 -4.719123 21.011269 -0.435724 1.797328 0.018055 -0.000262 218659.000000 1 0 0
-3.589415 16.816195 -9.933323 19.857977 -1.360502 2.094647 -0.001353 0.003192 111222.000000 1 0 0
-19.398815 -2.192005 -6.385923 20.540178 0.112520 1.886935 -0.000426 0.004786 -85968.700000 1 0 0
-10.443015 14.080195 -6.113523 18.565657 -0.932641 1.906350 0.004106 -0.006936 -18903.200000 1 0 0
-19.272615 3.172795 4.670777 20.082741 -0.163164 1.336070 0.011764 -0.005946 51831.800000 1 0 0
-15.055415 12.829495 0.887477 19.800230 -0.705742 1.525960 0.013678 0.001937 105671.000000 1 0 0
-17.449615 2.756295 -8.248023 19.496567 -0.156663 2.007605 -0.012172 0.001270 27250.500000 1 0 0
-16.461515 14.295995 -3.583323 22.095184 -0.715108 1.733692 0.011763 0.049550 139916.000000 1 0 0
-10.399215 15.742495 -8.461023 20.677494 -0.987018 1.992362 0.008891 -0.007539 44028.500000 1 0 0
-19.272415 2.230595 -6.588923 20.489399 -0.115228 1.898191 0.018374 0.001561 -252371.000000 1 0 0
-16.968315 10.360195 -0.151123 19.881655 -0.548149 1.578398 0.007174 -0.003257 -9192.900000 1 0 0
-11.744815 6.327895 -14.594723 19.773439 -0.494190 2.401042 -0.006726 -0.002601 324791.000000 1 0 0
-13.648615 12.440095 -4.846723 19.092705 -0.739108 1.827457 0.027936 -0.009941 302565.000000 1 0 0
-18.817015 7.323095 -0.125823 20.192167 -0.371139 1.577028 0.012475 0.009593 -95033.200000 1 0 0
-14.641115 9.361395 -10.346623 20.224999 -0.568881 2.107814 -0.000580 0.008846 641163.000000 1 0 0
-18.918815 11.387795 4.714577 22.579431 -0.541837 1.360449 0.025419 -0.006321 205000.000000 1 0 0
-8.072615 12.101995 -13.133923 19.599116 -0.982530 2.305178 -0.026519 -0.000579 342156.000000 1 0 0
-21.058415 -1.470305 -4.991523 21.691795 0.069707 1.802988 -0.024796 0.004308 159282.000000 1 0 0
-10.595415 13.522595 -3.285523 17.490514 -0.906176 1.759765 0.016365 -0.002239 398473.000000 1 0 0
-18.781115 -4.721305 3.711877 19.717988 0.246282 1.381418 0.015873 -0.006536 -33046.300000 1 0 0
-10.980015 11.257795 -13.460223 20.699669 -0.797889 2.278727 -0.012829 0.003779 140952.000000 1 0 0
-14.992415 11.788695 -9.720523 21.406411 -0.666338 2.042151 0.001468 0.011475 152873.000000 1 0 0
-13.075415 10.078295 -12.954323 20.984590 -0.656669 2.236135 0.015500 -0.013000 201916.000000 1 0 0
-17.928215 -4.997505 -2.863623 18.830727 0.271850 1.723460 -0.049215 0.004032 -218850.000000 1 0 0
-9.274115 12.566895 -11.413423 19.344309 -0.935033 2.201873 0.000159 -0.006393 -134925.000000 1 0 0
-15.459115 7.918695 -8.298823 19.249947 -0.473387 2.016518 -0.012145 0.010203 -210315.000000 1 0 0
-14.187915 8.815695 2.160677 16.842860 -0.555972 1.442157 0.002759 -0.001538 -133112.000000 1 0 0
-19.619915 6.178395 8.193377 22.141478 -0.305074 1.191737 0.028517 -0.009358 287512.000000 1 0 0
-18.664415 6.088495 3.618377 19.963036 -0.315325 1.388535 0.000352 0.001050 193642.000000 1 0 0
-14.597515 12.960595 5.937677 20.403933 -0.726069 1.275518 0.003437 -0.010915 130924.000000 1 0 0
18.174285 5.839395 5.832377 19.960456 0.310882 1.274273 0.014717 0.002669 314498.000000 1 0 0
18.311785 6.797695 0.335177 19.535672 0.355452 1.553638 -0.006948 0.001726 -162101.000000 1 0 0
16.590385 4.394595 8.698477 19.241020 0.258941 1.101701 0.010880 0.004126 -69577.500000 1 0 0
12.101785 13.122695 10.207077 20.563140 0.825849 1.051376 0.016342 -0.006860 52576.500000 1 0 0
15.345085 12.137495 4.237777 20.018721 0.669210 1.357492 0.010055 -0.006965 135734.000000 1 0 0
5.232385 10.456295 14.536677 18.655480 1.106825 0.677380 -0.000419 -0.000553 188763.000000 1 0 0
13.012185 13.086995 -5.633923 19.295789 0.788265 1.867089 0.021213 -0.004462 167952.000000 1 0 0
17.912085 9.405795 -2.816223 20.426524 0.483532 1.709108 -0.009430 0.014288 -213443.000000 1 0 0
14.937285 7.647195 9.483877 19.275528 0.473165 1.056392 0.026895 0.000469 110993.000000 1 0 0
4.805485 19.356895 -1.542023 20.003997 1.327459 1.647959 0.000625 -0.004024 523168.000000 1 0 0
-4.581215 18.987395 3.279577 19.805664 -1.334045 1.404442 -0.006522 -0.006618 320270.000000 1 0 0
7.246085 12.576595 12.677777 19.271806 1.048093 0.852848 0.018305 0.000117 29306.500000 1 0 0
0.818585 16.863395 -10.139623 19.694064 1.522292 2.111637 -0.012420 0.005941 -122644.000000 1 0 0
10.549985 9.083795 15.720977 20.999206 0.710860 0.724779 0.013309 -0.008586 89964.500000 1 0 0
-1.183115 13.334795 0.288877 13.390294 -1.482304 1.549221 -0.002052 0.001925 506255.000000 1 0 0
-4.843615 19.145395 -2.114523 19.861470 -1.323004 1.677462 0.004035 0.013708 21237.400000 1 0 0
5.668385 18.612395 6.529877 20.522942 1.275171 1.246993 0.009314 -0.011339 118489.000000 1 0 0
11.335785 17.275595 -1.526023 20.718952 0.990094 1.644517 -0.012347 0.000326 392229.000000 1 0 0
18.121385 10.806895 3.566377 21.398426 0.537740 1.403350 -0.020537 0.010084 195457.000000 1 0 0
11.603885 16.832595 6.381377 21.417478 0.967240 1.268250 0.021674 0.006392 -125649.000000 1 0 0
18.063685 7.365595 -6.308723 20.502407 0.387176 1.883578 -0.017283 0.010901 264039.000000 1 0 0
0.647785 16.875095 11.195177 20.261304 1.532428 0.985388 0.001338 0.039026 583528.000000 1 0 0
1.331485 20.126795 -1.351523 20.216017 1.504738 1.637700 0.012789 -0.009638 82366.900000 1 0 0
14.303185 9.702795 -1.205723 17.325677 0.596059 1.640444 -0.004351 0.002499 -15808.600000 1 0 0
9.615785 17.088195 2.880977 19.818420 1.058244 1.424911 -0.012205 -0.014279 149533.000000 1 0 0
1.131685 18.227095 -0.092523 18.262428 1.508788 1.575863 -0.000826 0.015810 -204258.000000 1 0 0
-0.258815 20.949895 1.494577 21.004734 -1.558443 1.499582 0.013259 0.002867 236080.000000 1 0 0
6.299385 17.488795 -0.197523 18.589761 1.225068 1.581422 -0.011744 -0.014378 -35436.300000 1 0 0
6.369585 18.545595 -3.015423 19.839443 1.239964 1.723379 -0.036961 -0.001600 -98574.400000 1 0 0
10.295685 9.706395 12.867777 19.125766 0.755945 0.832812 0.000949 0.006177 166015.000000 1 0 0
12.581585 14.775995 7.996477 20.989758 0.865439 1.179951 0.012059 -0.002969 265420.000000 1 0 0
0.305485 17.551395 6.872577 18.851449 1.553393 1.197631 0.001713 -0.001130 75435.300000 1 0 0
6.781885 18.224595 -7.980923 21.019633 1.214546 1.960256 -0.004532 -0.004875 -13672.000000 1 0 0
-1.073715 18.395595 9.275577 20.629763 -1.512494 1.104455 0.025749 -0.012274 89869.000000 1 0 0
15.696485 7.103495 -8.044623 19.014606 0.424975 2.007634 0.014018 0.005067 -533115.000000 1 0 0
-5.050715 20.021395 -6.406623 21.619686 -1.323686 1.871647 -0.008103 0.007031 242534.000000 1 0 0
4.146885 15.286995 9.960277 18.710852 1.305902 1.009450 0.004164 -0.004348 188751.000000 1 0 0
9.235185 14.787095 7.517977 18.985963 1.012525 1.163666 0.011684 -0.001033 47519.700000 1 0 0
-3.068115 18.934595 6.781577 20.345074 -1.410155 1.230965 0.016840 -0.005041 239796.000000 1 0 0
4.977985 17.839195 8.600877 20.420389 1.298671 1.136039 0.014573 -0.002109 377525.000000 1 0 0
15.433485 11.374695 -7.347323 20.531909 0.635138 1.936760 0.047276 -0.017693 -111445.000000 1 0 0
11.784685 6.813895 15.626077 20.723953 0.524235 0.716650 0.029768 -0.004107 417518.000000 1 0 0
16.855685 9.423895 5.158677 19.988393 0.509798 1.309758 0.001217 0.002368 57450.800000 1 0 0
5.622785 14.674695 13.122277 20.473313 1.204889 0.875067 0.000910 0.005312 377481.000000 1 0 0
15.804785 10.394795 -3.760923 19.286978 0.581769 1.767052 0.004623 -0.005870 41788.600000 1 0 0
15.398285 13.453995 6.690477 21.514638 0.718112 1.254579 0.016443 0.007342 382311.000000 1 0 0
12.450685 14.480995 -7.856923 20.650666 0.860643 1.961099 0.029878 -0.011285 267795.000000 1 0 0
-8.191415 15.486895 9.708377 20.029873 -1.084277 1.064782 0.004320 -0.010421 206767.000000 1 0 0
-3.954315 16.600395 -6.974823 18.435235 -1.336948 1.958801 -0.008141 -0.001333 66601.500000 1 0 0
2.366685 19.455595 -4.542623 20.118569 1.449746 1.798553 -0.001223 -0.016057 50447.300000 1 0 0
7.365985 15.642995 8.892277 19.443087 1.130714 1.095784 0.010375 -0.027853 442626.000000 1 0 0
13.299685 15.514095 -1.500523 20.489518 0.862100 1.644096 0.006355 -0.001156 180521.000000 1 0 0
12.657485 16.795295 4.259677 21.457836 0.924974 1.370955 0.002006 -0.006520 188069.000000 1 0 0
3.426285 18.369595 0.644477 18.697508 1.386396 1.536321 0.026866 -0.013539 -27516.200000 1 0 0
-7.531615 17.218295 1.374077 18.843646 -1.158454 1.497812 0.002672 0.004117 263704.000000 1 0 0
0.035885 20.270695 -5.877723 21.105687 1.569026 1.853018 0.008797 0.013360 198740.000000 1 0 0
-7.180715 18.157295 -6.133923 20.466437 -1.194199 1.875181 0.015412 -0.006424 -12748.200000 1 0 0
-7.084715 18.568995 -0.893323 19.894693 -1.206309 1.615714 0.003239 0.006827 8347.140000 1 0 0
-14.463315 -9.101705 8.738677 19.193566 0.561683 1.098096 0.001481 -0.001952 235736.000000 1 0 0
-13.125315 -13.423905 7.974677 20.397808 0.796644 1.169125 0.001622 0.001188 132126.000000 1 0 0
-4.175315 -15.932305 12.280077 20.544388 1.314494 0.930125 0.015808 -0.004036 194831.000000 1 0 0
-2.023015 -14.490505 15.754577 21.500558 1.432083 0.748439 -0.012742 0.004229 522527.000000 1 0 0
-7.888315 -13.770605 12.646877 20.292821 1.050589 0.897944 -0.009992 -0.003642 149057.000000 1 0 0
-10.000415 -11.100005 11.734177 18.997614 0.837463 0.905025 0.009917 0.001938 140293.000000 1 0 0
-7.106615 -10.362405 13.054377 18.119055 0.969659 0.766305 -0.003535 -0.006636 332883.000000 1 0 0
-15.075015 -12.374005 6.990277 20.718013 0.687313 1.226642 -0.001254 -0.000591 153368.000000 1 0 0
-4.529415 -12.676505 13.267977 18.901021 1.227626 0.792634 0.001961 -0.001719 355507.000000 1 0 0
3.660185 -12.396205 13.890077 18.973589 -1.283688 0.749434 0.002689 -0.001216 543567.000000 1 0 0
6.634785 -13.766305 14.941877 21.372674 -1.121686 0.796643 0.003757 0.011716 164390.000000 1 0 0
7.266685 -9.364205 16.491077 20.308832 -0.910858 0.623200 0.001097 -0.002439 530262.000000 1 0 0
-5.109815 13.268995 13.617377 19.687798 -1.203205 0.807003 -0.008889 0.001273 505790.000000 1 0 0
-13.432615 -1.444905 17.312677 21.960230 0.107155 0.662649 0.006418 -0.007834 251671.000000 1 0 0
-10.032915 9.179095 13.283477 19.009628 -0.740985 0.797111 -0.023771 -0.009200 401793.000000 1 0 0
-6.944315 -8.208505 17.037877 20.146769 0.868635 0.562944 0.012404 -0.005559 160078.000000 1 0 0
-4.865715 1.901395 18.281377 19.013133 -0.372528 0.278339 -0.004330 -0.003056 570259.000000 1 0 0
-15.303615 -3.761705 14.803077 21.621336 0.241027 0.816671 0.005467 0.006810 197243.000000 1 0 0
-14.431515 3.001195 12.763677 19.498391 -0.205039 0.857141 0.000694 -0.000064 235312.000000 1 0 0
-14.370915 10.889695 9.998077 20.617231 -0.648449 1.064504 -0.038325 0.018220 -21899.000000 1 0 0
-3.982415 11.299595 15.541477 19.623404 -1.231951 0.656740 -0.016160 0.001598 253857.000000 1 0 0
-13.239015 12.864695 8.150077 20.179090 -0.771059 1.155034 -0.006621 -0.021621 137847.000000 1 0 0
-3.791715 -6.506705 18.582477 20.050505 1.043165 0.385040 0.015184 -0.009151 303538.000000 1 0 0
0.579685 -3.480805 17.124277 17.484076 -1.405773 0.203222 0.005549 -0.026316 291023.000000 1 0 0
-4.461815 6.307095 21.095977 22.466141 -0.955103 0.351050 0.004054 -0.001908 120539.000000 1 0 0
2.254785 -10.703005 16.506777 19.801819 -1.363164 0.585205 0.005556 -0.003626 335340.000000 1 0 0
-14.952315 -0.177505 13.633677 20.235622 0.011871 0.831529 -0.006854 -0.002010 44178.600000 1 0 0
-13.670415 -5.653805 7.701277 16.677992 0.392158 1.090815 -0.007820 -0.005680 141896.000000 1 0 0
10.189585 0.716095 16.776477 19.641553 0.070162 0.546917 0.010927 0.016897 471365.000000 1 0 0
-7.407515 12.262295 12.139577 18.777766 -1.027376 0.867826 -0.008947 -0.002882 -72422.100000 1 0 0
-2.006915 7.506295 20.104477 21.553704 -1.309543 0.368796 0.006069 -0.011208 447230.000000 1 0 0
0.924785 -14.317505 15.647777 21.229675 -1.506295 0.742070 -0.013497 0.018573 454202.000000 1 0 0
-3.565415 -11.951505 18.746977 22.516656 1.280878 0.587042 -0.001001 0.034023 292740.000000 1 0 0
-2.092215 8.662595 16.761077 18.982930 -1.333812 0.488676 0.001628 -0.008477 542795.000000 1 0 0
-5.639415 -9.444805 19.897977 22.736245 1.032518 0.505019 0.069542 -0.019144 174192.000000 1 0 0
-6.545115 -3.224405 19.082677 20.429975 0.457745 0.365199 0.011549 -0.011293 413934.000000 1 0 0
-10.556515 -8.188905 15.968577 20.820510 0.659760 0.696700 0.026954 -0.007798 188500.000000 1 0 0
-0.114515 6.348695 17.728477 18.831302 -1.552761 0.343931 0.004366 -0.004377 172678.000000 1 0 0
-5.753615 -11.758205 18.507977 22.669466 1.115723 0.615599 0.008052 -0.001072 178591.000000 1 0 0
0.046585 3.183195 18.943777 19.209414 1.556163 0.166496 0.006047 0.001047 39061.900000 1 0 0
-18.542415 -0.020705 7.392777 19.961832 0.001117 1.191415 0.019251 -0.011581 315197.000000 1 0 0
-1.606915 -8.776205 17.573877 19.709011 1.389703 0.469782 0.003798 -0.004732 315305.000000 1 0 0
5.818585 3.421995 15.039277 16.484715 0.531634 0.421890 0.003926 0.001628 454886.000000 1 0 0
-13.801215 -6.794405 10.365777 18.549577 0.457473 0.977840 0.000890 0.000688 166820.000000 1 0 0
3.672185 8.016495 17.159577 19.292491 1.141245 0.474671 0.005631 0.002157 182255.000000 1 0 0
6.266785 4.254695 17.626077 19.184723 0.596443 0.405879 0.015066 -0.014629 76082.900000 1 0 0
5.607485 -9.531505 18.167677 21.268708 -1.039016 0.546791 0.016877 0.005177 359374.000000 1 0 0
-4.609615 -0.662305 19.795077 20.335493 0.142702 0.231057 0.002059 -0.004564 975006.000000 1 0 0
-10.783715 1.856695 17.257577 20.434280 -0.170504 0.565090 0.006531 -0.002286 251043.000000 1 0 0
-16.631915 -4.108605 8.836377 19.276483 0.242183 1.094600 0.005055 -0.009285 421029.000000 1 0 0
-12.744315 -9.542105 12.616477 20.313661 0.642691 0.900672 -0.018116 -0.002572 21749.800000 1 0 0
-14.399815 5.930395 13.290377 20.473358 -0.390670 0.864324 -0.005646 -0.012388 154969.000000 1 0 0
1.124585 9.214895 17.279177 19.615018 1.449357 0.493003 0.001439 -0.008234 89342.900000 1 0 0
-3.833315 -10.443005 14.847677 18.552740 1.218996 0.643008 0.001856 -0.004697 577888.000000 1 0 0
-17.225215 -2.878705 7.134077 18.865048 0.165591 1.182984 -0.009414 -0.011456 -78911.000000 1 0 0
-0.795115 -0.349205 21.097277 21.115143 0.413826 0.041139 0.008520 -0.003418 281585.000000 1 0 0
-1.770215 2.508595 20.461277 20.690350 -0.956282 0.148943 0.000848 -0.000870 -21600.600000 1 0 0
-7.954915 2.042195 16.282877 18.236867 -0.251294 0.467151 -0.009909 0.002500 227358.000000 1 0 0
2.921085 -2.402905 18.818077 19.194445 -0.688374 0.198356 0.019558 -0.001672 106171.000000 1 0 0
-11.959215 4.371095 14.401177 19.222986 -0.350416 0.723997 -0.022841 -0.009519 52550.100000 1 0 0
-13.065215 -5.534705 13.429077 19.536451 0.400702 0.812913 -0.013798 0.005210 19945.900000 1 0 0
-17.192115 -1.054705 9.752177 19.793589 0.061271 1.055614 0.009952 -0.011315 209682.000000 1 0 0
-7.410815 7.731295 14.765877 18.240730 -0.806560 0.627496 -0.021111 -0.007584 110886.000000 1 0 0
-9.410815 1.098795 14.133777 17.015712 -0.116233 0.590556 0.003728 -0.007586 -37801.300000 1 0 0
8.238685 -0.923405 14.681077 16.860090 -0.111616 0.514052 0.016275 -0.002685 4285.220000 1 0 0
3.986985 6.209795 18.393877 19.818989 1.000032 0.381537 0.008576 0.001325 20395.100000 1 0 0
1.153185 0.206695 20.135277 20.169332 0.177355 0.058119 0.005556 0.005765 46806.800000 1 0 0
-6.972115 7.278295 17.785977 20.443213 -0.806881 0.515556 -0.016098 0.009196 570011.000000 1 0 0
7.648685 -3.011905 16.808977 18.711378 -0.375133 0.454845 0.000918 0.004126 420701.000000 1 0 0
-16.135315 2.610595 9.279477 18.795539 -0.160404 1.054450 0.007680 -0.010579 157980.000000 1 0 0
4.366685 -6.139505 18.824477 20.276153 -0.952564 0.380700 0.029280 -0.021602 152491.000000 1 0 0
-3.612115 -4.031005 20.713277 21.408788 0.840149 0.255596 0.010471 -0.006248 481384.000000 1 0 0
-9.333215 5.517695 14.658477 18.232521 -0.533916 0.636848 -0.022496 -0.003290 -91989.600000 1 0 0
6.523085 2.570795 19.911577 21.109963 0.375416 0.338568 0.019604 -0.007155 162605.000000 1 0 0
-6.857015 11.216595 14.405377 19.502450 -1.022089 0.739739 -0.023600 -0.002981 308324.000000 1 0 0
-14.309515 4.994095 9.011677 17.632740 -0.335788 1.034360 -0.008224 -0.013138 -53560.000000 1 0 0
0.953385 -5.750305 20.443277 21.257999 -1.406494 0.277751 0.015066 -0.007210 260236.000000 1 0 0
-5.745715 -8.167405 13.643877 16.907842 0.957730 0.631817 0.000527 -0.006221 -43268.700000 1 0 0
-12.614815 9.974095 6.628077 17.393894 -0.669023 1.179856 -0.023586 -0.018846 32408.400000 1 0 0
-19.157415 2.509095 7.972077 20.901104 -0.130231 1.179466 -0.012992 -0.011634 70571.400000 1 0 0
-15.564815 9.283695 6.375377 19.211869 -0.537808 1.232537 -0.018948 -0.002038 -29265.800000 1 0 0
-12.533415 7.673095 14.313777 20.514558 -0.549350 0.798562 -0.015646 -0.006333 303776.000000 1 0 0
-16.258315 9.194695 10.629077 21.490754 -0.514694 1.053435 -0.009300 -0.012190 410348.000000 1 0 0
2.386285 10.800495 14.408577 18.164585 1.353348 0.654712 -0.006499 -0.042354 359800.000000 1 0 0
1.754185 14.077395 12.671477 19.021476 1.446825 0.841739 -0.004709 -0.035697 672899.000000 1 0 0
8.747485 5.001895 16.587677 19.408464 0.519433 0.545897 0.006706 -0.000045 160088.000000 1 0 0
-0.343815 13.267195 13.520377 18.945640 -1.544887 0.776115 -0.002111 0.010974 159880.000000 1 0 0
4.536385 13.722095 15.326677 21.066127 1.251517 0.756051 0.015772 0.025247 165980.000000 1 0 0
-3.663115 -4.535105 -13.407623 14.620190 0.891363 2.731446 -0.006569 -0.002872 72793.200000 1 0 0
5.594185 -12.261205 16.897277 21.613653 -1.142756 0.673269 -0.039745 0.022473 237206.000000 1 0 0
8.644685 -13.952805 7.166977 17.910245 -1.016114 1.159104 -0.006467 -0.002716 451333.000000 1 0 0
-0.201615 15.410095 0.649077 15.425077 -1.557714 1.528705 -0.000692 -0.002556 -484436.000000 1 0 0
-13.884315 8.135795 8.435177 18.169138 -0.530040 1.087999 -0.011751 -0.004784 153102.000000 1 0 0
-15.619515 -9.513505 6.002577 19.248557 0.547068 1.253661 -0.014590 0.003037 143295.000000 1 0 0
9.048285 -10.578905 11.261777 17.905650 -0.863225 0.890593 -0.015276 0.000787 121399.000000 1 0 0
-25.026515 6.150795 31.278219 40.527593 -0.240995 0.689167 0.001996 -0.006971 793094.000000 0 0 1
-23.813115 5.401995 31.076989 39.522466 -0.223074 0.665979 -0.005679 -0.000317 870341.000000 0 0 1
-22.928315 5.419195 32.190229 39.890929 -0.232095 0.631816 0.002497 -0.000147 607300.000000 0 0 1
-21.654615 4.530995 31.893939 38.815920 -0.206263 0.606459 -0.007858 -0.003374 247515.000000 0 0 1
-21.725315 3.108895 31.809519 38.645829 -0.142135 0.603942 0.001833 -0.008925 61402.900000 0 0 1
-20.424615 2.570495 31.610809 37.722879 -0.125195 0.577236 -0.009471 -0.007169 358089.000000 0 0 1
-19.897815 1.672895 32.726259 38.337054 -0.083877 0.547851 -0.009378 -0.008123 -459827.000000 0 0 1
-20.534315 0.443995 32.605619 38.535460 -0.021619 0.562133 -0.007435 -0.003274 145620.000000 0 0 1
-20.223715 -0.508805 33.623497 39.240249 0.025154 0.541644 -0.011014 -0.004121 -249865.000000 0 0 1
-20.760515 -1.876605 33.215512 39.214677 0.090148 0.560447 0.003143 -0.030704 -808103.000000 0 0 1
-19.892115 -2.705205 32.529469 38.225394 0.135165 0.552927 0.002252 -0.038158 -826489.000000 0 0 1
-20.189615 -4.097505 32.525519 38.500903 0.200232 0.564607 0.018595 -0.047913 -1098310.000000 0 0 1
-21.529915 -4.668805 32.042159 38.884894 0.213546 0.602316 0.011675 -0.029851 -194285.000000 0 0 1
-22.652615 -4.416005 32.867259 40.160912 0.192530 0.612194 0.006417 -0.024187 335994.000000 0 0 1
-22.700615 -5.187005 34.069698 41.267024 0.224640 0.599547 0.006160 -0.027771 -308972.000000 0 0 1
-23.904915 -4.727805 -34.299020 42.073981 0.195256 2.523884 0.001747 -0.021449 448648.000000 0 0 1
-23.897215 -5.224905 -32.992143 41.071377 0.215253 2.503592 0.019491 -0.024944 -72094.200000 0 0 1
-24.928215 -4.569405 -32.299763 41.055695 0.181290 2.476291 0.019130 -0.018163 -214236.000000 0 0 1
-25.093625 -5.057805 -30.824953 40.068056 0.198893 2.448564 0.020315 -0.014539 -801267.000000 0 0 1
-25.509895 -6.397405 -30.686513 40.414646 0.245714 2.433021 0.018431 -0.011423 546018.000000 0 0 1
-25.131045 -6.926705 -29.401693 39.293870 0.268946 2.416219 0.012871 -0.009977 -227779.000000 0 0 1
-25.291615 -8.473005 -29.247373 39.583664 0.323261 2.402195 0.011778 -0.004031 211578.000000 0 0 1
-26.634935 -8.920905 -29.322683 40.605690 0.323189 2.377676 0.031413 -0.002748 -99365.000000 0 0 1
-26.729295 -10.198405 -28.688223 40.515143 0.364496 2.357581 0.029891 -0.002367 -81057.100000 0 0 1
-28.162505 -10.724305 -28.565443 41.522547 0.363847 2.329457 0.056465 0.007986 17202.300000 0 0 1
-28.153495 -11.675205 -27.485913 41.041505 0.393113 2.304615 0.052315 0.005318 -266176.000000 0 0 1
-29.457945 -11.872905 -27.001283 41.686997 0.383129 2.275377 0.048543 0.004808 -203218.000000 0 0 1
-29.496385 -12.532905 -25.568323 40.998166 0.401783 2.244194 0.038497 0.013966 -169003.000000 0 0 1
-28.953745 -11.758105 -24.546523 39.737944 0.385754 2.236624 0.031969 0.015454 46847.000000 0 0 1
-29.138215 -12.288605 -23.286823 39.272402 0.399102 2.205522 0.016627 0.014014 129444.000000 0 0 1
-28.318005 -11.512505 -22.169123 37.761319 0.386135 2.198250 0.009203 0.011803 297484.000000 0 0 1
-28.102675 -12.183405 -20.943323 37.105505 0.409075 2.170534 0.006435 0.013354 -366432.000000 0 0 1
-27.091735 -13.125005 -20.868423 36.629482 0.451143 2.176957 0.005021 0.009922 -983670.000000 0 0 1
-26.902055 -13.538805 -19.389723 35.818727 0.466254 2.142814 -0.010753 0.004505 -247201.000000 0 0 1
-26.492185 -12.419205 -18.622723 34.682537 0.438367 2.137612 -0.014204 -0.003072 231553.000000 0 0 1
-26.269565 -12.800505 -17.240723 33.929125 0.453416 2.103819 0.002479 -0.000099 55053.100000 0 0 1
-26.158475 -11.533305 -16.379023 32.947767 0.415262 2.091074 0.006177 -0.009868 458500.000000 0 0 1
-24.901915 -10.844805 -16.479423 31.769271 0.410731 2.116152 -0.015090 -0.007362 883601.000000 0 0 1
-25.012115 -9.567405 -15.832823 31.109796 0.365339 2.104742 -0.006072 -0.015629 -13084.400000 0 0 1
-23.666915 -8.757305 -15.781223 29.763405 0.354400 2.129659 -0.005473 -0.012957 672870.000000 0 0 1
-22.748515 -9.327005 -14.882423 28.739772 0.389101 2.115113 -0.016102 -0.011545 -621626.000000 0 0 1
-21.520015 -8.698805 -14.872423 27.567539 0.384138 2.140628 -0.006540 -0.030362 -846663.000000 0 0 1
-20.481915 -9.170005 -13.838823 26.364955 0.420950 2.123388 -0.008525 -0.007196 -321364.000000 0 0 1
-19.846215 -10.347905 -14.280923 26.549880 0.480624 2.138729 -0.007684 0.002368 -156406.000000 0 0 1
-18.789215 -10.634405 -13.410323 25.415781 0.515033 2.126614 0.007204 -0.003399 -376139.000000 0 0 1
-17.847115 -11.743105 -13.868923 25.470906 0.581967 2.146590 0.010847 0.005020 11483.500000 0 0 1
-17.031115 -11.476105 -15.017123 25.441577 0.592947 2.202176 0.024142 -0.006068 481163.000000 0 0 1
-17.753515 -11.616605 -16.279223 26.742212 0.579411 2.225276 0.012107 -0.008558 -80744.200000 0 0 1
-17.096215 -11.010305 -17.493623 26.824135 0.572160 2.281226 0.017848 -0.005239 -309043.000000 0 0 1
-17.857815 -11.081205 -18.666723 28.109451 0.555374 2.297049 0.013433 -0.001976 292924.000000 0 0 1
-17.195115 -10.404105 -19.726123 28.160918 0.544133 2.346864 0.010764 -0.002231 124263.000000 0 0 1
-17.913015 -10.727305 -21.073523 29.665545 0.539577 2.360821 0.019400 0.003559 785720.000000 0 0 1
-19.163415 -10.045505 -21.218523 30.304692 0.482821 2.346436 -0.006159 -0.008387 799754.000000 0 0 1
-19.982015 -10.662705 -22.234023 31.738399 0.490177 2.346950 -0.005046 0.010687 39377.000000 0 0 1
-20.964615 -9.631805 -22.737623 32.392688 0.430669 2.348910 -0.019595 -0.001568 -1049980.000000 0 0 1
-20.311615 -8.795105 -23.640523 32.385026 0.408634 2.389094 -0.020055 -0.003966 162886.000000 0 0 1
-21.179815 -8.123305 -24.521423 33.404683 0.366237 2.395095 -0.012649 -0.006581 -221145.000000 0 0 1
-20.384015 -7.514305 -25.684473 33.640229 0.353181 2.439519 -0.023607 -0.006792 21206.800000 0 0 1
-19.652015 -8.516005 -26.398513 33.994198 0.408913 2.459983 -0.016406 -0.009351 181760.000000 0 0 1
-18.855315 -7.850905 -27.369803 34.150633 0.394544 2.500501 -0.025780 -0.004213 -36748.000000 0 0 1
-17.835215 -8.818205 -28.044513 34.385322 0.459179 2.524554 -0.007082 -0.003440 -207914.000000 0 0 1
-18.315215 -9.740405 -28.964243 35.626535 0.488779 2.520076 0.002268 -0.007564 248882.000000 0 0 1
-17.218215 -10.522105 -29.410943 35.667705 0.548544 2.540259 -0.008611 -0.002784 228462.000000 0 0 1
-17.540015 -11.595405 -30.495003 37.041203 0.584127 2.537948 -0.004882 0.006127 -252311.000000 0 0 1
-17.950915 -11.100105 -31.763133 38.135866 0.553809 2.555113 -0.001444 0.000781 369369.000000 0 0 1
-17.985915 -12.151205 -32.698823 39.247394 0.594159 2.555569 -0.006013 0.000623 -183478.000000 0 0 1
-18.730915 -11.800205 -34.011353 40.581574 0.562176 2.564584 0.001208 0.002441 176833.000000 0 0 1
-17.973815 -10.970905 34.317838 40.263294 0.548019 0.550361 0.006798 -0.000549 359706.000000 0 0 1
-18.365515 -10.991205 32.967739 39.306114 0.539294 0.575825 0.006893 -0.010116 -232367.000000 0 0 1
-17.980115 -12.342405 32.257889 38.938296 0.601572 0.594487 0.006668 -0.004679 173695.000000 0 0 1
-16.573815 -12.387505 32.061559 38.158685 0.641844 0.573114 0.010302 -0.002599 501698.000000 0 0 1
-16.026115 -13.327205 31.130819 37.464365 0.693710 0.589993 0.012379 0.000917 30391.800000 0 0 1
-16.153615 -14.805805 31.445819 38.327414 0.741891 0.608594 0.006567 0.007394 -80960.100000 0 0 1
-17.440015 -15.436805 31.253429 38.977249 0.724543 0.640432 0.000774 0.003549 854638.000000 0 0 1
-17.345515 -16.799605 31.493109 39.685130 0.769412 0.654135 0.007087 -0.007614 -306743.000000 0 0 1
-17.589215 -17.200405 32.945229 41.117181 0.774223 0.641411 -0.001773 -0.016507 -124405.000000 0 0 1
-16.554415 -16.749605 33.811431 41.204500 0.791259 0.608378 -0.003932 -0.008523 -7834.830000 0 0 1
-16.999515 -16.578505 -34.126009 41.574209 0.772861 2.533686 -0.001551 -0.012979 -298168.000000 0 0 1
-15.974515 -15.909605 -33.228573 40.155183 0.783362 2.545444 -0.008553 -0.000532 -434104.000000 0 0 1
-15.729715 -14.608805 -33.648983 39.913596 0.748468 2.573717 -0.008280 0.003590 380357.000000 0 0 1
-14.507315 -14.025505 -33.154053 38.811960 0.768514 2.594850 -0.000555 0.006842 515387.000000 0 0 1
-14.417915 -13.544805 -31.683213 37.351894 0.754184 2.583442 0.009030 0.007785 -388351.000000 0 0 1
-14.449515 -14.587105 -30.790423 37.008408 0.790137 2.553472 0.001998 0.006003 -118086.000000 0 0 1
-14.908315 -14.206505 -29.514223 35.988498 0.761298 2.532385 -0.000088 0.011110 -295498.000000 0 0 1
-15.027815 -15.422905 -28.520673 35.736956 0.798372 2.494885 0.012636 0.011670 29732.000000 0 0 1
-13.812715 -15.990805 -28.093723 35.153296 0.858350 2.496722 0.000495 0.007170 -355686.000000 0 0 1
-13.159115 -16.747105 -29.111753 36.071069 0.904802 2.509963 0.005217 -0.001659 -669233.000000 0 0 1
-11.717115 -17.043705 -28.700933 35.376860 0.968526 2.517153 -0.014026 0.008694 -61252.800000 0 0 1
-10.905315 -15.875705 -28.580173 34.464332 0.968904 2.548593 -0.015699 0.014147 976795.000000 0 0 1
-9.507615 -16.155505 -28.327823 33.968524 1.038871 2.557011 -0.024122 0.014175 1527530.000000 0 0 1
-8.621415 -14.883105 -28.283203 33.102495 1.045755 2.595216 -0.024715 0.014023 -99857.100000 0 0 1
-8.977115 -14.036505 -27.201963 31.899198 1.001799 2.592019 -0.023950 0.007174 -204708.000000 0 0 1
-8.133315 -12.929905 -26.939593 30.968935 1.009303 2.625777 -0.017769 0.011175 -352737.000000 0 0 1
-8.105815 -11.687305 -27.855823 31.276896 0.964407 2.669503 -0.019748 -0.002781 -421411.000000 0 0 1
-7.492815 -12.024605 -29.055643 32.325900 1.013547 2.687900 -0.001987 -0.005383 6069.940000 0 0 1
-7.486315 -10.812405 -29.790203 32.563925 0.965201 2.725864 0.000394 -0.003108 -465595.000000 0 0 1
-6.496615 -10.824805 -30.956323 33.431667 1.030259 2.754361 0.001973 0.006138 808590.000000 0 0 1
-5.116615 -10.818705 -30.507853 32.771225 1.129029 2.767759 0.005638 0.000056 1736990.000000 0 0 1
-4.079815 -10.582005 -31.460563 33.442350 1.202815 2.795603 0.006376 0.000017 458791.000000 0 0 1
-3.901715 -9.095405 -31.758353 33.264737 1.165562 2.839498 0.005633 -0.005123 -379878.000000 0 0 1
-2.707515 -8.758505 -32.457263 33.727081 1.270985 2.866317 0.003072 -0.002105 266961.000000 0 0 1
-2.637615 -7.355205 -32.675153 33.596453 1.226476 2.906864 0.000085 -0.006455 495437.000000 0 0 1
-1.331115 -6.760405 -33.328193 34.032975 1.376385 2.937727 0.008476 -0.010317 556733.000000 0 0 1
-0.940715 -7.256605 -34.586627 35.352200 1.441880 2.933102 0.002291 -0.005609 -405602.000000 0 0 1
0.193085 -6.536205 34.273325 34.891547 -1.541264 0.188526 -0.007416 0.007570 -150326.000000 0 0 1
0.821285 -6.934405 32.917739 33.650231 -1.452909 0.209032 -0.008495 0.010938 22100.000000 0 0 1
-0.004315 -6.698805 31.781919 32.480216 1.570152 0.207734 -0.010055 0.012482 247668.000000 0 0 1
0.495885 -7.409305 30.666759 31.553032 -1.503969 0.237575 -0.008014 0.015425 -94765.900000 0 0 1
0.071585 -6.863805 29.292629 30.086128 -1.560367 0.230178 -0.012137 0.022631 274864.000000 0 0 1
0.806285 -5.708905 28.812229 29.383435 -1.430491 0.197500 -0.002132 0.015255 405566.000000 0 0 1
0.415085 -5.326205 27.518569 28.032346 -1.493021 0.191751 -0.000776 0.018817 63764.700000 0 0 1
-0.742115 -4.300305 27.296129 27.642757 1.399907 0.158530 -0.003489 0.028273 -146144.000000 0 0 1
-1.983115 -4.875905 27.443799 27.944039 1.184513 0.189500 -0.001112 0.032088 -852699.000000 0 0 1
-3.093915 -3.983205 27.324119 27.785711 0.910400 0.182531 -0.001001 0.015899 277494.000000 0 0 1
-4.395815 -4.712105 27.667749 28.408299 0.820111 0.228832 0.001603 0.015377 -397941.000000 0 0 1
-4.721415 -5.647005 26.689939 27.686338 0.874432 0.269098 -0.009318 0.024491 475383.000000 0 0 1
-6.064415 -6.098405 26.926649 28.266802 0.788193 0.309161 -0.006720 0.016115 951075.000000 0 0 1
-6.118515 -7.632105 26.810319 28.539069 0.895031 0.349847 0.000548 0.013062 182094.000000 0 0 1
-5.482715 -8.340405 27.869549 29.602944 0.989259 0.343905 -0.006106 0.015735 -21381.100000 0 0 1
-5.648315 -9.737605 27.854739 30.043484 1.045174 0.384070 -0.008441 0.013592 -183432.000000 0 0 1
-4.993415 -10.476505 29.009839 31.245194 1.126019 0.380558 -0.004286 0.005128 -339011.000000 0 0 1
-5.318815 -11.819205 29.093439 31.849829 1.147930 0.419097 0.005564 0.000376 308399.000000 0 0 1
-4.672215 -12.428005 30.229889 33.017134 1.211200 0.413844 0.011579 -0.003489 -471345.000000 0 0 1
-4.658015 -14.034505 30.324509 33.737817 1.250339 0.453707 0.005322 -0.008801 527967.000000 0 0 1
-5.996615 -14.532305 30.419309 34.241519 1.179441 0.477003 0.026287 -0.018169 389770.000000 0 0 1
-6.049815 -15.966505 30.509249 34.962034 1.208605 0.510215 0.021627 -0.018804 -57498.900000 0 0 1
-6.102815 -16.611305 31.883289 36.465380 1.218715 0.506714 0.018820 -0.010302 -443751.000000 0 0 1
-7.332715 -16.612505 32.536139 37.260494 1.155119 0.509051 0.032115 -0.009118 -755388.000000 0 0 1
-7.248715 -16.991405 33.885123 38.593436 1.167562 0.499124 0.028688 -0.007446 -1233160.000000 0 0 1
-8.518315 -17.458005 34.541675 39.629168 1.116850 0.512294 0.032089 -0.004344 -709088.000000 0 0 1
-9.048115 -18.662905 33.975052 39.805484 1.119368 0.548079 0.025221 -0.009155 780791.000000 0 0 1
-9.923815 -18.433505 32.819149 38.927789 1.076936 0.567816 0.017777 -0.014019 -370010.000000 0 0 1
-10.368615 -19.743105 32.234069 39.196092 1.087211 0.605215 0.008939 -0.015582 -406209.000000 0 0 1
-11.236915 -20.449805 33.079039 40.480682 1.068347 0.614336 0.017245 -0.011578 81905.300000 0 0 1
-11.270615 -21.795405 32.771129 40.939142 1.093555 0.642694 0.010874 -0.012259 -107153.000000 0 0 1
-10.986115 -22.681705 33.986056 42.310832 1.119739 0.638069 0.006231 -0.014388 -341469.000000 0 0 1
-9.593115 -22.877405 34.088529 42.159593 1.173740 0.629097 0.001911 -0.015185 -109408.000000 0 0 1
-9.291915 -23.821305 -34.102495 42.623637 1.198882 2.498232 -0.001218 -0.017512 135608.000000 0 0 1
-9.773615 -25.268775 -34.327054 43.730781 1.201733 2.473433 0.012250 -0.006844 -670247.000000 0 0 1
-8.975615 -25.873725 33.977218 43.640150 1.236885 0.678401 0.005538 -0.000693 -113023.000000 0 0 1
-9.190815 -27.307915 33.887466 44.480936 1.246143 0.704644 0.009423 0.000264 -973220.000000 0 0 1
-8.464515 -27.987425 32.679129 43.850535 1.277103 0.729903 -0.000831 0.008411 -121177.000000 0 0 1
-7.080215 -27.847175 32.604319 43.458443 1.321819 0.722369 -0.009721 -0.001908 -519400.000000 0 0 1
-6.307015 -28.490285 33.615304 44.513632 1.352936 0.714885 -0.003103 0.004244 -583238.000000 0 0 1
-4.851515 -27.963105 33.597889 43.980571 1.399009 0.701421 0.005504 0.000219 -91745.600000 0 0 1
-4.517215 -26.759625 34.169720 43.635450 1.403566 0.671206 0.000458 0.000684 -59796.900000 0 0 1
-5.039215 -25.600375 33.542109 42.495247 1.376440 0.661105 -0.001096 -0.001342 -206192.000000 0 0 1
-4.669215 -24.332805 34.323754 42.332104 1.381211 0.625243 0.003416 0.000948 -138862.000000 0 0 1
-3.277815 -24.231605 34.475077 42.266366 1.436342 0.616923 -0.006772 0.006393 -359824.000000 0 0 1
-2.983615 -23.021805 -34.089317 41.243023 1.441915 2.543742 -0.008956 -0.004833 -142954.000000 0 0 1
32.790758 -15.919205 1.909677 36.500709 -0.451963 1.518454 0.012754 -0.009857 -500236.000000 0 0 1
33.555648 -16.241105 3.051577 37.404106 -0.450770 1.489122 0.013623 -0.003732 171041.000000 0 0 1
32.876628 -16.951405 4.067477 37.212460 -0.476055 1.461273 0.008115 -0.010135 30970.100000 0 0 1
33.744100 -16.989605 5.346577 38.156217 -0.466431 1.430210 0.003411 0.002492 1405700.000000 0 0 1
-34.798317 -17.838805 5.364977 39.470607 0.473704 1.434451 0.016200 -0.005147 1341610.000000 0 0 1
-34.150307 -17.735505 6.622677 39.046786 0.478997 1.400364 0.007059 0.001475 10509.600000 0 0 1
-32.785365 -18.431205 6.689777 38.201343 0.512145 1.394770 -0.001956 -0.003610 -358116.000000 0 0 1
-32.942555 -19.851305 6.726777 39.045304 0.542332 1.397651 0.004900 -0.006823 184036.000000 0 0 1
-31.787605 -20.477305 7.251177 38.501317 0.572281 1.381329 -0.002189 -0.000874 41314.800000 0 0 1
-31.958445 -21.992905 7.402477 39.494642 0.602743 1.382251 0.001172 -0.003515 -370741.000000 0 0 1
-31.843935 -22.782105 6.239377 39.648333 0.621007 1.412772 0.009550 -0.006471 137370.000000 0 0 1
-31.829185 -24.145605 6.704177 40.509915 0.648982 1.404537 0.029438 -0.012436 -310647.000000 0 0 1
-31.272365 -25.125645 5.633777 40.509237 0.676838 1.431270 0.025111 -0.006372 333073.000000 0 0 1
-32.057965 -25.137935 4.424277 40.978081 0.664995 1.462619 0.013892 -0.000822 422723.000000 0 0 1
-31.487725 -26.044015 3.481377 41.010822 0.691058 1.485805 0.018257 0.002739 -29018.100000 0 0 1
-31.879915 -25.853925 2.012677 41.095076 0.681399 1.521801 0.010727 0.004373 -702860.000000 0 0 1
-33.184825 -26.252585 1.719977 42.348426 0.669292 1.530170 0.002661 0.005441 -697539.000000 0 0 1
-33.628045 -25.881055 0.474377 42.437006 0.655945 1.559618 -0.002635 0.009485 -298981.000000 0 0 1
-34.405308 -24.551305 0.418677 42.268985 0.619789 1.560891 0.002962 0.006149 -833510.000000 0 0 1
33.954293 -24.803605 0.477377 42.051644 -0.630904 1.559444 -0.002461 0.006446 -722689.000000 0 0 1
33.257838 -23.621505 0.756877 40.799904 -0.617575 1.552244 -0.000039 -0.003755 -4144.380000 0 0 1
31.733778 -23.783105 0.582377 39.661164 -0.643154 1.556112 -0.016391 0.000013 47225.200000 0 0 1
31.427698 -23.757905 -0.771123 39.404732 -0.647301 1.590367 -0.014067 -0.001226 -272247.000000 0 0 1
30.030178 -23.717205 -0.930223 38.277705 -0.668477 1.595101 -0.017728 0.003458 -157093.000000 0 0 1
29.641758 -23.604605 -2.430623 37.969977 -0.672499 1.634854 -0.024248 0.008097 -250289.000000 0 0 1
29.920968 -22.335805 -3.031023 37.461175 -0.641253 1.651796 -0.012712 -0.003373 95163.500000 0 0 1
29.624768 -22.298105 -4.407723 37.339796 -0.645217 1.689116 -0.008560 -0.025334 -65363.300000 0 0 1
29.746228 -20.809805 -4.914823 36.633885 -0.610443 1.705363 -0.004732 -0.023890 564679.000000 0 0 1
28.581468 -20.070305 -4.550623 35.219677 -0.612210 1.700365 -0.008378 -0.016804 187970.000000 0 0 1
28.810098 -18.643805 -4.615223 34.625330 -0.574353 1.704485 -0.007068 -0.019232 130278.000000 0 0 1
27.889618 -17.901605 -3.607023 33.336300 -0.570641 1.679210 -0.007719 -0.005858 55874.500000 0 0 1
28.283818 -17.773105 -2.224623 33.478449 -0.561029 1.637295 -0.008217 -0.005279 -99841.600000 0 0 1
28.778618 -18.946905 -1.517823 34.489098 -0.582235 1.614819 -0.018737 0.005571 -1048530.000000 0 0 1
27.929648 -20.199305 -1.219623 34.490066 -0.626141 1.606165 -0.023021 0.010592 -555386.000000 0 0 1
27.130968 -19.799705 -0.106223 33.587632 -0.630436 1.573959 -0.019561 0.025553 36058.700000 0 0 1
26.474468 -21.012105 0.331577 33.801124 -0.670872 1.560987 -0.018115 0.022293 -286065.000000 0 0 1
25.508448 -20.744505 1.472777 32.911768 -0.682762 1.526032 -0.016605 0.026633 -1775610.000000 0 0 1
24.930378 -21.891905 2.073777 33.242741 -0.720595 1.508373 -0.016362 0.035255 430904.000000 0 0 1
23.781388 -21.601005 2.867377 32.254917 -0.737390 1.481781 -0.007451 0.027027 770652.000000 0 0 1
22.548288 -20.970205 2.164977 30.868462 -0.749152 1.500603 0.001105 0.021585 -1271580.000000 0 0 1
22.630388 -19.611405 1.787177 29.998928 -0.714050 1.511186 0.003826 0.008309 -45557.300000 0 0 1
22.504288 -18.693105 2.879377 29.396700 -0.693150 1.472690 0.008704 0.019096 -212760.000000 0 0 1
22.393888 -17.225705 2.460677 28.359585 -0.655685 1.483920 0.000210 0.022435 460926.000000 0 0 1
21.205388 -16.998605 1.697877 27.230568 -0.675726 1.508404 -0.003195 0.013418 156589.000000 0 0 1
21.080888 -15.740905 1.063077 26.330782 -0.641380 1.530411 -0.000793 0.017435 563898.000000 0 0 1
19.683088 -15.369305 0.447177 24.976778 -0.662947 1.552892 -0.021436 0.025575 1258990.000000 0 1 0
18.616288 -15.248605 1.438177 24.107146 -0.686279 1.511103 -0.015693 0.015686 522532.000000 0 1 0
17.894588 -14.080905 1.240877 22.804121 -0.666690 1.516355 -0.005600 0.013224 -487196.000000 0 1 0
18.499988 -12.699705 1.819177 22.513140 -0.601588 1.489903 0.008103 0.010628 -386933.000000 0 1 0
19.512888 -12.137305 1.031877 23.002864 -0.556450 1.525923 0.002872 0.010556 62927.700000 0 1 0
19.947588 -10.916905 1.623277 22.797371 -0.500752 1.499531 0.001145 0.003088 611.768000 0 1 0
20.834688 -10.064605 0.702177 23.148943 -0.450012 1.540459 0.004492 0.002800 -118033.000000 0 1 0
20.108288 -9.552305 -0.403423 22.265501 -0.443484 1.588916 0.001247 0.004081 892927.000000 0 1 0
21.005988 -8.961105 -1.343823 22.877037 -0.403223 1.629571 0.007886 -0.000483 -188131.000000 0 1 0
20.306088 -8.378705 -2.615623 22.121966 -0.391338 1.689310 0.020670 -0.002100 -260331.000000 0 1 0
21.045988 -7.665105 -3.647023 22.693352 -0.349275 1.732205 0.007686 -0.006385 1011780.000000 0 1 0
22.077588 -8.361905 -4.372323 24.009552 -0.362055 1.753926 0.003210 -0.006449 20142.000000 0 1 0
21.677588 -9.695105 -5.090823 24.286403 -0.420557 1.781979 -0.008683 -0.003846 -370276.000000 0 1 0
20.945188 -9.525305 -6.331323 23.864576 -0.426816 1.839314 -0.008389 -0.008955 1750040.000000 0 1 0
19.535688 -9.214205 -6.236123 22.481858 -0.440720 1.851867 -0.011683 -0.003228 795030.000000 0 1 0
18.758088 -9.199905 -7.565123 22.220153 -0.455978 1.918205 -0.008857 -0.001575 -343447.000000 0 1 0
18.636888 -10.424805 -8.240523 22.889220 -0.510004 1.939083 -0.014460 -0.000167 813383.000000 0 1 0
19.747688 -10.694605 -9.102023 24.232057 -0.496342 1.955861 -0.014365 -0.003165 120467.000000 0 1 0
19.733988 -12.120805 -9.750923 25.128166 -0.550802 1.969309 -0.022456 0.003062 727391.000000 0 0 1
18.587188 -12.306405 -10.627923 24.695828 -0.584828 2.015680 -0.014716 -0.000007 1022060.000000 0 1 0
18.712788 -13.553505 -11.345923 25.740938 -0.626843 2.027257 -0.012166 0.007842 205517.000000 0 0 1
17.411688 -14.027405 -12.068323 25.408254 -0.678165 2.065734 -0.013127 0.003293 242814.000000 0 0 1
17.374988 -15.402505 -12.249823 26.252343 -0.725293 2.056260 -0.010760 0.002332 232782.000000 0 0 1
16.417488 -15.671405 -13.263223 26.287638 -0.762152 2.099648 -0.001197 -0.000311 -235186.000000 0 0 1
16.483388 -17.115405 -13.776023 27.466670 -0.804207 2.096191 -0.005063 -0.003571 -943616.000000 0 0 1
16.017788 -18.038605 -12.859823 27.337444 -0.844666 2.060552 -0.000427 -0.003577 61155.000000 0 0 1
16.084688 -19.380505 -13.275723 28.470441 -0.878063 2.055898 -0.004543 -0.006185 -682686.000000 0 0 1
15.214388 -20.277505 -12.358923 28.202798 -0.927098 2.024410 -0.003789 -0.004476 -713597.000000 0 0 1
13.887888 -19.869005 -12.409923 27.233380 -0.960760 2.043941 -0.001766 0.001879 -843212.000000 0 0 1
13.071088 -20.663205 -11.546323 27.039581 -1.006766 2.011986 -0.007834 0.001128 466215.000000 0 0 1
11.567988 -20.444605 -11.851123 26.310632 -1.055888 2.038044 0.010895 -0.000474 144078.000000 0 0 1
10.682188 -21.081205 -10.939623 26.042306 -1.101790 2.004320 0.010466 0.003224 406379.000000 0 0 1
9.351888 -20.919105 -11.442923 25.612638 -1.150398 2.033946 0.015083 0.008318 502473.000000 0 0 1
8.272988 -21.611905 -10.596623 25.452017 -1.205207 2.000209 0.015769 0.005512 -157846.000000 0 0 1
8.420288 -22.981305 -10.645423 26.690198 -1.219589 1.981060 0.024349 0.002958 395016.000000 0 0 1
7.476088 -23.627205 -9.775523 26.640149 -1.264345 1.946521 0.018388 -0.006425 570139.000000 0 0 1
7.430088 -25.152675 -9.968023 28.057526 -1.283565 1.934000 0.020425 -0.006083 866234.000000 0 0 1
8.672488 -25.758945 -9.578523 28.818109 -1.246038 1.909621 0.011903 0.001090 403660.000000 0 0 1
8.734888 -27.114015 -9.907323 30.159959 -1.259141 1.905503 0.003215 0.002886 308111.000000 0 0 1
10.191488 -27.598265 -9.690223 30.974684 -1.217050 1.888981 0.011449 0.009953 345808.000000 0 0 1
10.570488 -27.511955 -8.308923 30.621579 -1.203972 1.845583 0.008856 0.001494 -9405.050000 0 0 1
11.873588 -28.027535 -8.099923 31.498152 -1.170078 1.830874 0.003083 0.016126 -159118.000000 0 0 1
12.238288 -28.164445 -6.597923 31.409302 -1.160882 1.782435 0.006457 0.007306 251391.000000 0 0 1
11.648888 -29.296445 -5.912523 32.077035 -1.192342 1.756179 0.012588 0.004839 -2815.840000 0 0 1
10.259488 -29.196275 -5.728023 31.472048 -1.232877 1.753820 0.013853 0.000849 -488488.000000 0 0 1
9.707188 -30.255995 -4.747823 32.127816 -1.260336 1.719119 0.021518 -0.005771 -133160.000000 0 0 1
9.819188 -31.667425 -5.055023 33.537971 -1.270125 1.722098 0.034519 -0.002838 -275193.000000 0 0 1
8.997888 -32.156495 -6.086023 33.941742 -1.297959 1.751079 0.032383 0.001186 -348483.000000 0 0 1
9.279088 -33.596775 -6.386223 35.434850 -1.301324 1.752011 0.021184 0.003988 -355936.000000 0 0 1
8.934088 -34.526098 -5.358123 36.063539 -1.317587 1.719923 0.018886 0.004117 108704.000000 0 0 1
9.178088 33.629331 -5.763023 35.332444 1.304366 1.734637 0.018056 0.007655 -11251.000000 0 0 1
8.864388 32.659552 -4.620523 34.155130 1.305763 1.706493 0.005380 0.014560 288832.000000 0 0 1
7.488288 32.402942 -4.428923 33.550566 1.343684 1.703190 0.000982 0.009272 -387935.000000 0 0 1
7.218488 31.438532 -3.429423 32.438385 1.345102 1.676715 -0.005410 0.007086 614739.000000 0 0 1
5.952788 30.546122 -3.688923 31.338625 1.378330 1.688782 -0.008378 0.003715 572662.000000 0 0 1
6.009988 29.882202 -4.950823 30.880035 1.372322 1.731816 -0.019031 0.000894 242416.000000 0 0 1
5.331288 30.672802 -5.964623 31.698898 1.398704 1.760090 -0.003826 -0.007940 -92618.500000 0 0 1
5.158388 30.024942 -7.370423 31.343727 1.400654 1.808167 0.006028 -0.018416 -85260.300000 0 0 1
4.366988 28.862502 -7.522623 30.144725 1.420632 1.823012 0.005446 -0.020339 -43949.200000 0 0 1
4.943888 27.666712 -7.008423 28.965617 1.393968 1.815178 0.008231 -0.012360 -633932.000000 0 0 1
4.168388 26.446572 -7.399223 27.776701 1.414467 1.840434 0.010942 -0.013469 647442.000000 0 0 1
2.864088 26.254642 -6.834823 27.280470 1.462137 1.824033 0.014301 -0.014699 -54520.600000 0 0 1
1.710088 26.809382 -7.354623 27.852429 1.507096 1.838022 0.010217 -0.018681 -244179.000000 0 0 1
1.101088 26.225822 -8.668723 27.643315 1.528836 1.889770 0.017660 -0.013415 -410496.000000 0 0 1
1.987888 26.376752 -9.765823 28.196738 1.495573 1.924469 0.012077 -0.017601 76555.400000 0 0 1
1.655588 25.567242 -10.906623 27.845632 1.506132 1.973255 0.010382 -0.006770 -260526.000000 0 0 1
1.736088 24.047992 -10.804123 26.420617 1.498729 1.992075 0.018598 0.000163 -663408.000000 0 0 1
0.785388 23.433092 -10.013223 25.494926 1.537293 1.974420 0.021640 -0.002121 -486140.000000 0 0 1
0.802288 22.040092 -10.201023 24.299592 1.534411 2.004024 0.001881 0.000952 -132959.000000 0 1 0
-0.210612 21.259492 -9.328823 23.217176 -1.560890 1.984286 0.013319 0.002262 396124.000000 0 1 0
-1.557612 21.539092 -9.685623 23.667909 -1.498606 1.992407 0.017938 0.009615 -164652.000000 0 1 0
-2.487112 20.824392 -8.918023 22.789738 -1.451927 1.972859 0.015607 0.005809 614056.000000 0 1 0
-3.870312 20.676492 -9.625623 23.133293 -1.385754 1.999942 0.017892 0.004958 691727.000000 0 1 0
-4.883312 19.928092 -8.967923 22.391945 -1.330485 1.982856 0.016053 -0.003223 -232261.000000 0 1 0
-5.687712 19.399492 -9.930923 22.523623 -1.285600 2.027410 0.009721 0.000932 -1433530.000000 0 1 0
-6.503712 18.188592 -9.428223 21.494523 -1.227393 2.024874 0.017053 -0.004617 92758.500000 0 1 0
-7.595312 18.565992 -8.591523 21.821986 -1.182471 1.975460 0.029387 -0.003628 103632.000000 0 1 0
-8.783812 18.845192 -9.281823 22.769472 -1.134632 1.990668 0.030239 -0.004086 -1238630.000000 0 1 0
-9.939812 19.162092 -8.373723 23.153938 -1.092283 1.940838 0.041041 -0.010795 -622542.000000 0 1 0
-10.321512 18.041592 -7.627623 22.140760 -1.051148 1.922509 0.044260 -0.012440 -307492.000000 0 1 0
-11.248312 18.509592 -6.653423 22.658277 -1.024733 1.868831 0.048414 -0.006626 -348904.000000 0 1 0
-11.859612 17.316792 -5.960623 21.818586 -0.970303 1.847504 0.041537 -0.010454 -450323.000000 0 1 0
-12.645112 17.716492 -4.862723 22.302892 -0.950903 1.790593 0.049612 -0.011542 -176874.000000 0 1 0
-13.137012 16.550292 -4.282023 21.559892 -0.899870 1.770736 0.048460 -0.011408 -160448.000000 0 1 0
-14.256012 16.855792 -3.250123 22.314006 -0.868767 1.716970 0.039329 -0.012458 -223499.000000 0 1 0
-15.457512 17.184092 -3.884623 23.437533 -0.838244 1.737308 0.050617 -0.016541 -656750.000000 0 1 0
-16.510812 17.391592 -2.986723 24.165986 -0.811372 1.694705 0.040746 -0.015066 -60416.300000 0 1 0
-17.854312 17.588592 -3.737423 25.339758 -0.777901 1.718829 0.033337 -0.017555 -144906.000000 0 0 1
-17.905412 18.658292 -4.664323 26.277205 -0.805986 1.749246 0.037151 -0.014706 -296351.000000 0 0 1
-19.124712 18.844892 -5.333423 27.373892 -0.778029 1.766887 0.013952 -0.014037 -363793.000000 0 0 1
-18.989612 19.745392 -6.580623 28.174287 -0.804907 1.806542 0.006721 -0.002045 66842.400000 0 0 1
-18.615612 21.076492 -6.289823 28.815298 -0.847318 1.790849 0.007688 -0.003310 -65790.900000 0 0 1
-18.548112 21.894592 -7.446123 29.645410 -0.867956 1.824688 -0.001607 0.008658 64896.200000 0 0 1
-18.515912 23.375292 -7.067423 30.646235 -0.900882 1.803504 -0.006265 0.004327 104131.000000 0 0 1
-17.243612 23.607292 -6.503723 29.949036 -0.939934 1.789700 0.008823 0.002923 132465.000000 0 0 1
-17.232712 24.931512 -6.000423 30.895820 -0.965999 1.766253 0.004809 -0.000870 342605.000000 0 0 1
-15.937412 25.137442 -5.170223 30.209655 -1.005744 1.742788 0.014153 -0.000432 242608.000000 0 0 1
-15.748612 26.426692 -4.685123 31.118149 -1.033371 1.721930 0.009686 -0.010157 301790.000000 0 0 1
-14.418312 26.645132 -4.219023 30.588411 -1.074793 1.709166 0.012193 -0.011890 753857.000000 0 0 1
-13.695112 27.852372 -4.875423 31.417836 -1.113808 1.726606 0.020715 -0.008539 -284101.000000 0 0 1
-14.366612 28.984332 -4.435523 32.652180 -1.110620 1.707059 0.025931 -0.005977 -111220.000000 0 0 1
-13.872612 30.125802 -5.068223 33.551455 -1.139254 1.722435 0.017659 -0.008361 -533816.000000 0 0 1
-14.672812 31.382682 -4.628923 34.951267 -1.133448 1.703626 0.014162 -0.017487 280585.000000 0 0 1
-16.007612 31.464402 -5.083923 35.666490 -1.100171 1.713824 0.022291 -0.009865 -324040.000000 0 0 1
-16.692912 32.495942 -4.422423 36.799420 -1.096255 1.691264 0.026661 -0.009434 -248768.000000 0 0 1
12.452885 -8.698905 18.841119 24.201923 -0.609749 0.678529 0.001004 -0.000974 -334220.000000 0 1 0
12.887685 -9.968005 19.328219 25.279114 -0.658342 0.700388 0.014588 -0.003565 52583.700000 0 0 1
13.406085 -10.802805 18.293719 25.121383 -0.678276 0.755085 0.011911 -0.004711 1603.170000 0 0 1
13.630585 -12.269605 18.771619 26.243280 -0.732899 0.773754 0.017196 -0.008090 -407746.000000 0 0 1
14.764385 -12.302905 19.605619 27.454122 -0.694708 0.775426 0.011545 -0.003511 46574.200000 0 0 1
14.945785 -13.477705 20.383319 28.644453 -0.733794 0.779027 0.022038 -0.005608 -108099.000000 0 0 1
15.477485 -14.744205 19.625719 29.019183 -0.761140 0.828066 0.007314 -0.002299 -815367.000000 0 0 1
14.649785 -15.113305 18.595419 28.085900 -0.800971 0.847191 0.009560 -0.003619 -170759.000000 0 0 1
15.128785 -16.257705 17.919819 28.536170 -0.821351 0.891856 0.009520 -0.003115 -438451.000000 0 0 1
14.540885 -16.420105 16.516319 27.456256 -0.846020 0.925356 -0.003052 -0.000829 -318047.000000 0 0 1
13.130485 -16.485805 16.561519 26.804390 -0.898210 0.904771 0.008683 -0.007839 -103002.000000 0 0 1
12.566085 -16.364205 15.274719 25.671204 -0.915937 0.933514 0.009762 -0.011869 -50812.500000 0 0 1
12.045185 -17.749105 14.718719 26.014571 -0.974553 0.969408 -0.003065 -0.004447 -427085.000000 0 0 1
13.002685 -18.623505 14.188019 26.780676 -0.961288 1.012448 -0.014087 0.002114 -176240.000000 0 0 1
12.394085 -19.720005 13.504219 26.923147 -1.009682 1.045368 -0.004929 0.001023 -481979.000000 0 0 1
13.370885 -20.760805 12.947419 27.882382 -0.998619 1.087886 -0.005980 -0.003322 -221076.000000 0 0 1
14.158185 -21.378705 13.973919 29.202288 -0.985853 1.071826 0.002505 -0.006972 120885.000000 0 0 1
14.485185 -22.697805 13.597219 30.164471 -1.002778 1.103169 -0.004785 -0.011920 -444267.000000 0 0 1
15.164785 -23.509405 14.686119 31.596596 -0.997907 1.087387 -0.005712 -0.012086 879988.000000 0 0 1
16.519685 -23.033105 14.861119 32.004324 -0.948610 1.087899 -0.031206 -0.008324 891071.000000 0 0 1
17.246785 -23.797705 15.838119 33.386050 -0.943669 1.076522 -0.019362 -0.008230 916174.000000 0 0 1
18.729285 -23.281705 15.936819 33.864526 -0.893340 1.080820 -0.037716 -0.008981 965134.000000 0 0 1
19.558585 -23.849605 14.937219 34.270430 -0.883931 1.119799 -0.026917 -0.007126 -541352.000000 0 0 1
20.794185 -23.192605 14.835119 34.501823 -0.839870 1.126325 -0.018026 0.000558 312294.000000 0 0 1
21.962285 -24.140605 14.405819 35.674057 -0.832612 1.155110 -0.013568 -0.001684 316604.000000 0 0 1
22.339285 -25.037705 15.461819 36.945881 -0.842293 1.139004 -0.010413 -0.005919 -111985.000000 0 0 1
23.456785 -25.782155 15.086119 37.980669 -0.832589 1.162327 -0.003747 -0.004027 -295856.000000 0 0 1
23.775285 -26.982125 15.978219 39.352290 -0.848494 1.152690 -0.000478 -0.008043 -17003.900000 0 0 1
24.057485 -26.711365 17.369419 39.924382 -0.837624 1.120694 -0.003786 0.008206 357703.000000 0 0 1
24.789785 -27.686325 18.116819 41.343502 -0.840540 1.117199 0.001119 0.014078 381943.000000 0 0 1
25.160685 -27.089925 19.507319 41.802627 -0.822304 1.085294 -0.003787 0.006676 264577.000000 0 0 1
23.954585 -27.068335 20.253519 41.433343 -0.846349 1.060058 0.000543 0.021272 354418.000000 0 0 1
24.133085 -26.516765 21.512119 41.812867 -0.832425 1.030389 0.003850 0.018874 674380.000000 0 0 1
22.770485 -26.502885 22.304219 41.453300 -0.861003 1.002667 0.016954 0.007244 698897.000000 0 0 1
22.452885 -27.858235 22.685019 42.365356 -0.892426 1.005742 0.018030 0.010379 -399917.000000 0 0 1
21.304585 -27.979365 23.463819 42.276246 -0.920014 0.982419 0.025368 0.010876 -350984.000000 0 0 1
20.865085 -29.495945 23.484019 43.091318 -0.955129 0.994428 0.046195 0.011401 -592444.000000 0 0 1
21.798585 -30.334615 24.049019 44.426597 -0.947693 0.998790 0.040286 0.007552 -112051.000000 0 0 1
21.563485 -31.663605 23.678719 45.036091 -0.972924 1.017174 0.044524 0.002101 -493986.000000 0 0 1
22.540485 -32.556355 24.404209 46.514031 -0.965221 1.018477 0.027598 0.004638 -352376.000000 0 0 1
22.325285 -32.629075 25.806299 47.212710 -0.970743 0.992502 0.025608 -0.001029 553859.000000 0 0 1
23.370785 -33.355605 26.460929 48.569236 -0.959631 0.994636 0.029394 -0.006533 -274489.000000 0 0 1
23.100785 -33.617875 27.998649 49.474560 -0.968741 0.969247 0.023386 -0.009332 477620.000000 0 0 1
22.283785 -34.756555 28.325569 50.069183 -1.000675 0.969480 0.012421 0.003478 1808840.000000 0 0 1
20.871185 -34.754299 27.988169 49.262615 -1.029983 0.966550 0.019463 0.002695 1231730.000000 0 0 1
20.086885 33.479551 28.476049 48.324410 1.030395 0.940643 0.014346 -0.008143 -52165.000000 0 0 1
19.797585 33.570334 29.871129 49.103931 1.037959 0.916848 -0.007999 -0.010311 219885.000000 0 0 1
19.326385 32.308812 30.350189 48.358065 1.031718 0.892312 -0.005537 -0.009206 -293404.000000 0 0 1
19.224785 32.288002 31.877669 49.277715 1.033754 0.867286 -0.011220 -0.007578 -522441.000000 0 0 1
20.416785 32.439352 32.594999 50.314914 1.009051 0.866077 -0.008643 -0.001961 -483363.000000 0 0 1
20.228285 32.935652 33.852179 51.380061 1.020018 0.851496 -0.014811 -0.000966 -1386740.000000 0 0 1
21.483985 33.038562 -34.615721 52.453373 0.994231 2.291526 -0.017724 0.005503 -1143570.000000 0 0 1
21.902785 31.739462 -34.287328 51.601805 0.966759 2.297567 -0.020448 0.011370 385466.000000 0 0 1
23.204285 31.825812 -33.672983 51.818828 0.940804 2.278146 -0.022541 0.019480 772650.000000 0 0 1
23.616585 30.265182 -33.593073 51.011948 0.908170 2.289665 -0.009829 0.020951 -96681.600000 0 0 1
23.966085 29.597842 34.485540 51.377602 0.890154 0.834946 0.005655 0.018059 385988.000000 0 0 1
23.271985 28.352632 34.505452 50.359540 0.883497 0.815943 0.001962 0.009741 -82888.500000 0 0 1
23.316285 27.661062 33.142369 49.063226 0.870422 0.829149 0.017039 0.001392 -264053.000000 0 0 1
24.576685 27.113462 32.859189 49.182106 0.834435 0.839127 0.016232 -0.004203 171208.000000 0 0 1
24.543185 26.199012 31.782079 47.946394 0.818019 0.846155 0.023570 -0.013382 218350.000000 0 0 1
25.762585 25.216342 31.850829 48.104573 0.774683 0.847157 0.031377 -0.008746 268428.000000 0 0 1
25.708485 24.238792 32.857509 48.249986 0.755982 0.821690 0.040012 -0.020049 271045.000000 0 0 1
26.295385 24.685232 34.061706 49.608545 0.753825 0.813981 0.035521 -0.017467 -1016420.000000 0 0 1
25.877385 23.818192 -33.996393 48.915233 0.743986 2.339225 0.028691 -0.021151 89289.900000 0 0 1
24.654585 24.234492 -33.371923 48.050436 0.776806 2.338547 0.023251 -0.007147 964930.000000 0 0 1
23.443985 23.872192 -33.997003 47.700086 0.794448 2.364171 0.022542 -0.005778 -507501.000000 0 0 1
23.087085 22.344092 -34.029983 46.800766 0.769045 2.384920 0.010004 -0.017732 -899888.000000 0 0 1
23.054885 21.810392 -32.717723 45.581469 0.757667 2.371413 -0.002621 -0.019288 328124.000000 0 0 1
23.238285 20.407592 -32.784863 45.070333 0.720633 2.385344 0.000323 -0.017027 -368965.000000 0 0 1
23.423985 19.791392 -31.394053 43.885861 0.701537 2.367931 -0.009060 -0.020997 21728.300000 0 0 1
22.270585 19.992692 -30.577213 42.786126 0.731553 2.366924 -0.014122 -0.014126 480265.000000 0 0 1
22.405985 19.304192 -29.360563 41.674004 0.711169 2.352556 -0.016713 -0.013838 -568387.000000 0 0 1
21.125985 19.221292 -28.539013 40.376237 0.738226 2.355799 0.001366 -0.025646 -644905.000000 0 0 1
21.290485 18.564592 -27.310233 39.290936 0.717109 2.339324 0.009716 -0.023360 -10091.100000 0 0 1
21.911585 19.313392 -26.308413 39.309760 0.722457 2.304007 0.001807 -0.012592 -644541.000000 0 0 1
21.912285 18.584592 -24.909623 38.026630 0.703411 2.285055 0.008688 -0.007290 -4493.000000 0 0 1
22.835285 17.510592 -24.700523 37.923435 0.654180 2.280127 0.003730 -0.013987 480552.000000 0 0 1
22.709185 16.953592 -23.414623 36.761065 0.641291 2.261320 0.019177 -0.007920 -554427.000000 0 0 1
23.578885 15.720092 -23.300923 36.688119 0.588027 2.258945 0.031877 -0.022079 117793.000000 0 0 1
24.988985 15.961292 -23.243423 37.675840 0.568414 2.235635 0.028935 -0.021344 1071640.000000 0 0 1
25.840685 14.800792 -23.328123 37.828637 0.520157 2.235313 0.026603 -0.020275 433783.000000 0 0 1
25.865285 13.725392 -22.249223 36.775362 0.487865 2.220567 0.039034 -0.016913 -242396.000000 0 0 1
24.643185 12.996192 -22.212523 35.631218 0.485307 2.243881 0.052159 -0.015030 324661.000000 0 0 1
24.287885 12.536292 -20.904023 34.409855 0.476487 2.223707 0.043716 -0.021437 -651064.000000 0 0 1
22.831085 12.090092 -20.861223 33.205713 0.487003 2.250088 0.042907 -0.011628 -366220.000000 0 0 1
21.973085 13.219492 -20.781323 33.006587 0.541611 2.251849 0.062816 -0.014883 -335204.000000 0 0 1
20.707585 12.910592 -21.317123 32.402271 0.557500 2.288810 0.054910 -0.015409 -320198.000000 0 0 1
19.720185 14.067592 -21.211323 32.197873 0.619636 2.289993 0.050312 -0.017185 -1117990.000000 0 0 1
20.110485 15.215092 -21.902723 33.401495 0.647696 2.285960 0.037969 -0.013040 1002530.000000 0 0 1
19.062085 16.220992 -21.994023 33.319974 0.705049 2.291729 0.031392 -0.016401 632740.000000 0 0 1
17.807785 15.923092 -22.829423 33.043072 0.729582 2.333528 0.024555 -0.000732 -540373.000000 0 0 1
16.880385 15.079792 -22.185523 31.694557 0.729119 2.346164 0.015924 -0.010595 -279274.000000 0 0 1
15.783285 14.938792 -23.054723 31.682800 0.757917 2.385720 0.019044 -0.020487 -223907.000000 0 0 1
14.581585 14.209992 -22.420823 30.285967 0.772493 2.404319 -0.009105 -0.014594 120838.000000 0 0 1
13.394785 14.315592 -23.182623 30.361002 0.818616 2.439614 -0.000063 -0.010919 -504345.000000 0 0 1
12.301085 13.729392 -22.540323 29.118363 0.840214 2.456078 0.003814 -0.012326 -468090.000000 0 0 1
11.102885 13.793392 -23.538123 29.454625 0.893049 2.496646 0.006511 -0.009968 -412823.000000 0 0 1
10.638885 15.096592 -23.470523 29.865673 0.956909 2.474897 -0.003258 -0.004680 -80661.600000 0 0 1
10.358385 15.591592 -24.722523 31.009628 0.984394 2.493527 0.010461 -0.009694 -689306.000000 0 0 1
10.292885 17.136292 -24.714723 31.787002 1.029900 2.461493 0.005504 -0.006942 833228.000000 0 0 1
11.527785 17.904992 -24.622323 32.553607 0.998770 2.428531 -0.004080 -0.003635 1474140.000000 0 0 1
12.599485 17.726392 -25.549733 33.552360 0.952875 2.436403 0.006311 -0.011286 92456.200000 0 0 1
12.246785 18.121492 -26.985973 34.736363 0.976487 2.460491 0.017045 -0.023905 -13383.000000 0 0 1
13.335385 18.142792 -27.919043 35.867344 0.936949 2.462905 0.012117 -0.023967 485427.000000 0 0 1
12.884485 17.745692 -29.167503 36.491955 0.942792 2.496902 0.014985 -0.021499 -506011.000000 0 0 1
13.961785 17.998692 -30.206243 37.832545 0.911042 2.495462 0.015096 -0.017934 35962.700000 0 0 1
15.050785 17.079692 -30.139433 37.770722 0.848460 2.494695 -0.000612 -0.016140 -14256.100000 0 0 1
15.971085 17.391392 -31.147153 39.085562 0.827944 2.492937 -0.005701 -0.008106 53027.700000 0 0 1
17.149685 16.383592 -31.299503 39.270761 0.762556 2.493138 -0.000192 -0.003346 272452.000000 0 0 1
18.288885 16.681992 -30.494263 39.276866 0.739481 2.459718 0.000872 -0.008578 274993.000000 0 0 1
19.404185 15.856792 -30.705113 39.632868 0.685132 2.457098 -0.004540 -0.001051 -103097.000000 0 0 1
20.450685 16.457992 -31.666393 41.132183 0.677640 2.449432 -0.004733 -0.002655 -667448.000000 0 0 1
20.125785 16.726592 -33.009533 42.124285 0.693420 2.471272 -0.008904 -0.001159 253944.000000 0 0 1
21.264085 17.331192 -33.610403 43.384222 0.683848 2.457060 -0.002837 -0.010171 118449.000000 0 0 1
20.946385 18.271892 34.443042 44.259872 0.717309 0.679001 0.004179 0.005588 -485331.000000 0 0 1
22.047685 19.002792 33.992503 44.751500 0.711359 0.708124 0.003468 -0.000256 -149332.000000 0 0 1
21.894185 19.403392 32.660609 43.847033 0.725158 0.730447 0.006745 0.000998 -835453.000000 0 0 1
22.840985 20.492692 32.243979 44.512192 0.731260 0.760654 0.015444 -0.008002 -1015410.000000 0 0 1
24.187185 20.163792 32.219789 45.052339 0.694929 0.773938 0.021317 -0.018473 -733385.000000 0 0 1
24.960285 21.349892 32.068939 45.904799 0.707594 0.797362 0.026031 -0.029129 287709.000000 0 0 1
26.485385 21.100092 31.963219 46.565404 0.672707 0.814248 0.036408 -0.029920 247892.000000 0 0 1
27.045185 20.581492 33.184700 47.500149 0.650507 0.797325 0.024347 -0.031347 99886.500000 0 0 1
28.438485 20.350892 33.116729 48.162475 0.621126 0.812612 0.011269 -0.027013 579896.000000 0 0 1
29.108085 19.627892 34.369021 49.130076 0.593276 0.796027 0.010200 -0.024026 68090.800000 0 0 1
29.193885 20.460892 -33.753863 49.094340 0.611304 2.328879 0.008396 -0.020326 37806.900000 0 0 1
28.078885 20.301892 -32.905153 47.784304 0.626016 2.330378 0.001535 -0.021893 -117901.000000 0 0 1
28.453485 20.557392 -31.462763 47.139289 0.625662 2.301565 0.001652 -0.014875 197001.000000 0 0 1
29.339185 19.533792 -30.996883 46.937869 0.587397 2.292123 0.004397 -0.014318 454795.000000 0 0 1
30.066185 19.925792 -29.834153 46.809073 0.585273 2.261862 0.003583 -0.008242 -30077.800000 0 0 1
31.551285 19.569992 -29.829513 47.626337 0.555183 2.247625 -0.014906 0.000350 -100819.000000 0 0 1
32.412985 20.199092 -30.753463 49.034481 0.557289 2.248724 -0.012955 -0.011034 1337.900000 0 0 1
33.594285 20.646192 -30.146893 49.635434 0.551067 2.223538 -0.021418 0.002540 179272.000000 0 0 1
34.555685 21.566092 -30.975353 51.172885 0.557950 2.220949 -0.013024 -0.010964 320413.000000 0 0 1
-34.581119 20.921792 -32.065983 51.592659 -0.544092 2.241481 -0.006416 -0.011883 -432632.000000 0 0 1
-33.512419 21.657892 -32.540293 51.488029 -0.573745 2.254924 0.001014 -0.010415 -881815.000000 0 0 1
-32.549419 20.989692 -33.499993 51.208216 -0.572751 2.283910 -0.004378 -0.011704 -73139.200000 0 0 1
-31.967419 19.798292 -32.910453 49.969852 -0.554510 2.289761 0.000221 -0.011954 107643.000000 0 0 1
-31.014619 19.269792 -33.792503 49.751027 -0.555944 2.317512 -0.000836 -0.002715 -211436.000000 0 0 1
-30.345619 17.927692 -33.300753 48.489162 -0.533615 2.327828 -0.009448 0.007304 -64896.000000 0 0 1
-31.142619 16.781792 -33.098043 48.445554 -0.494257 2.322933 -0.009825 0.005938 -174538.000000 0 0 1
-30.376719 15.644392 -33.313333 47.720752 -0.475585 2.343521 -0.015477 0.015597 -71236.900000 0 0 1
-31.359419 14.482292 -33.643463 48.218591 -0.432637 2.343017 -0.019178 0.010514 512490.000000 0 0 1
-30.810019 13.192892 -33.541263 47.416516 -0.404579 2.356574 -0.012344 0.005413 -144251.000000 0 0 1
-31.922019 12.342692 -33.680153 48.017810 -0.368946 2.348170 -0.010303 0.003223 32710.400000 0 0 1
-31.603819 10.800192 -33.730873 47.468066 -0.329295 2.361149 -0.006612 0.005463 -23394.100000 0 0 1
-31.070819 10.352292 34.253164 47.390347 -0.321616 0.762968 -0.005342 0.000417 294707.000000 0 0 1
-31.449719 9.023192 34.074129 47.239275 -0.279403 0.765105 0.006984 -0.010899 -399615.000000 0 0 1
-30.712319 8.371592 32.903159 45.781524 -0.266116 0.768866 0.013878 -0.014118 -344214.000000 0 0 1
-29.464519 7.884092 33.304499 45.160895 -0.261454 0.741490 0.010756 -0.002528 -486294.000000 0 0 1
-28.729019 7.456492 32.166229 43.767820 -0.253942 0.745235 0.012991 -0.009230 19056.100000 0 0 1
19.311485 -4.310305 -31.997523 37.621186 -0.219600 2.587767 0.017375 -0.007307 -419815.000000 0 0 1
20.572585 -4.403405 -32.624553 38.819875 -0.210861 2.568833 0.013581 -0.012355 -157205.000000 0 0 1
21.484985 -3.478705 -32.080623 38.766897 -0.160520 2.545483 0.006690 -0.008699 -225378.000000 0 0 1
21.396285 -2.008605 -32.462913 38.931687 -0.093602 2.556830 0.008676 -0.000183 -544108.000000 0 0 1
22.443185 -1.175005 -31.982753 39.089304 -0.052307 2.529064 0.007597 -0.001075 461716.000000 0 0 1
22.166985 0.126695 -32.369823 39.232597 0.005715 2.541131 0.004886 0.002176 -316368.000000 0 0 1
23.215685 1.093895 -31.796013 39.384655 0.047084 2.510392 0.004380 0.004903 236262.000000 0 0 1
24.428285 1.046595 -32.546963 40.708000 0.042817 2.497296 0.005921 0.002347 -283351.000000 0 0 1
25.482685 1.660195 -31.869963 40.838928 0.065058 2.466073 0.003108 0.007217 -480627.000000 0 0 1
26.829285 1.366495 -32.534743 42.192266 0.050889 2.451374 -0.009486 -0.001566 -409490.000000 0 0 1
27.123185 2.166795 -33.650963 43.275275 0.079718 2.461640 0.007029 -0.006992 -261233.000000 0 0 1
28.050085 1.469395 -34.450554 44.450051 0.052337 2.457574 0.001259 -0.006274 89634.600000 0 0 1
28.828985 2.442795 33.841215 44.523089 0.084532 0.707356 0.016736 -0.009489 226327.000000 0 0 1
28.000685 3.103895 32.889989 43.306165 0.110400 0.708289 0.023192 -0.002553 301380.000000 0 0 1
27.817085 4.493495 33.274149 43.602187 0.160154 0.702653 0.020685 0.001258 -141365.000000 0 0 1
26.947785 5.307095 32.301249 42.399517 0.194451 0.704662 0.021952 -0.000443 -126575.000000 0 0 1
27.006285 6.671095 32.562909 42.827398 0.242172 0.706977 0.021881 -0.004406 157423.000000 0 0 1
26.271985 7.419895 31.608289 41.765488 0.275257 0.712387 0.014170 -0.000718 -143241.000000 0 0 1
26.515785 8.929695 31.910549 42.439480 0.324839 0.719846 0.017653 -0.005065 -96532.600000 0 0 1
27.781585 9.324095 31.465229 42.997859 0.323808 0.749858 0.016928 -0.011135 -467044.000000 0 0 1
28.137085 10.655595 31.807469 43.783014 0.362013 0.757611 0.012247 -0.013086 262545.000000 0 0 1
29.556985 11.027095 31.297239 44.437927 0.357086 0.789372 0.008656 -0.002397 290545.000000 0 0 1
30.599385 10.440195 32.114049 45.570080 0.328805 0.788771 0.008533 -0.012731 1627080.000000 0 0 1
31.934685 10.835395 31.695639 46.280054 0.327110 0.816376 -0.003060 -0.010760 1298410.000000 0 0 1
32.393785 12.308095 31.748109 46.997755 0.363105 0.829121 0.005137 -0.007066 -815719.000000 0 0 1
32.582285 12.721595 33.125309 48.173960 0.372242 0.812592 0.009985 -0.011884 -57683.300000 0 0 1
33.083985 13.995795 33.322128 48.997924 0.400208 0.822935 0.011202 -0.002056 610354.000000 0 0 1
31.991985 15.149695 33.218636 48.543570 0.442262 0.817145 0.014188 -0.011742 -166056.000000 0 0 1
31.592485 15.413495 31.908709 47.474484 0.453909 0.833724 0.005925 -0.018532 956296.000000 0 0 1
30.563785 16.464695 31.951499 47.181876 0.494126 0.826848 -0.000314 -0.024477 892443.000000 0 0 1
29.111785 16.011595 32.177989 46.252462 0.502846 0.801398 0.007910 -0.018816 -674845.000000 0 0 1
28.761585 15.187795 31.095399 44.998019 0.485842 0.807870 0.002738 -0.002437 132758.000000 0 0 1
27.419485 14.719595 31.251429 44.103815 0.492676 0.783301 -0.001598 -0.003256 636279.000000 0 0 1
26.847185 14.188595 29.867239 42.592717 0.486183 0.793677 0.004127 0.001925 37422.400000 0 0 1
27.081685 12.797195 29.678399 42.166257 0.441440 0.790004 -0.003064 0.001449 22729.400000 0 0 1
26.400485 12.449795 28.483149 40.783242 0.440650 0.797632 -0.004481 -0.005794 -384280.000000 0 0 1
26.087485 10.948595 28.319399 40.030201 0.397362 0.784911 -0.001643 0.006151 -126115.000000 0 0 1
27.163485 10.129595 27.911389 40.243127 0.356939 0.804365 0.001735 0.007329 -272127.000000 0 0 1
26.678785 8.876895 27.579969 39.385423 0.321210 0.795037 0.007036 0.014637 -123379.000000 0 0 1
27.704085 7.854395 27.053409 39.510692 0.276261 0.816589 0.003651 0.001793 -216855.000000 0 0 1
28.175885 8.092195 25.779579 39.037813 0.279675 0.849479 0.001060 0.007932 -95330.800000 0 0 1
29.220385 7.195195 25.475589 39.428510 0.241436 0.868305 -0.005051 0.014754 7477.180000 0 0 1
29.845585 7.588595 24.114719 39.113494 0.248986 0.906466 0.002229 0.016491 -555577.000000 0 0 1
30.534685 8.825895 23.975219 39.812995 0.281376 0.924548 -0.003308 0.010064 98330.000000 0 0 1
29.790085 9.960695 23.566819 39.269066 0.322677 0.927124 -0.000488 0.012512 -555120.000000 0 0 1
29.386085 9.957195 22.096419 38.091199 0.326699 0.951954 -0.005611 0.016374 -96870.100000 0 0 1
30.450385 10.190195 21.203219 38.479118 0.322934 0.987196 -0.011978 0.008595 87226.300000 0 0 1
29.970485 10.225795 19.892819 37.396806 0.328810 1.009908 -0.020719 0.000810 -792854.000000 0 0 1
30.830885 10.999495 18.818619 37.758082 0.342692 1.049044 -0.019112 -0.013606 536554.000000 0 0 1
32.021985 10.332095 18.428119 38.363463 0.312111 1.069736 -0.011919 -0.008977 767237.000000 0 0 1
33.105685 10.338395 19.368619 39.724202 0.302689 1.061484 -0.001116 0.003989 84476.100000 0 0 1
34.421985 9.758995 18.777219 40.406621 0.276261 1.087493 -0.000391 -0.002029 -8606.400000 0 0 1
34.259285 8.366195 18.505719 39.826542 0.239515 1.087548 0.004204 -0.001717 -349150.000000 0 0 1
-34.403019 7.770895 17.879319 39.542693 -0.222150 1.101619 0.011383 0.003077 -996786.000000 0 0 1
-34.578719 6.279395 17.721719 39.359598 -0.179639 1.103749 0.004411 0.002228 -772406.000000 0 0 1
34.046185 5.995995 16.926119 38.491404 0.174326 1.115490 -0.013911 0.010810 -217249.000000 0 0 1
34.133785 4.739295 16.298619 38.121138 0.137963 1.129018 -0.011068 0.010381 -790981.000000 0 0 1
32.961185 3.799495 16.410619 37.016000 0.114765 1.111476 -0.018680 0.013855 -688401.000000 0 0 1
32.956985 3.141095 17.648919 37.516845 0.095022 1.081022 -0.012264 0.018892 416791.000000 0 0 1
31.742485 2.418695 17.899719 36.521711 0.076050 1.058578 -0.014306 0.021260 417853.000000 0 0 1
31.847885 1.424995 19.027319 37.126234 0.044714 1.032699 -0.014962 0.011541 -249056.000000 0 0 1
32.513185 0.226895 18.758819 37.537341 0.006978 1.047501 -0.018347 0.016079 -150001.000000 0 0 1
32.498585 -0.454205 20.014719 38.170058 -0.013975 1.018837 -0.018563 0.014217 244330.000000 0 0 1
32.849385 -1.975205 20.004119 38.511665 -0.060057 1.024612 -0.009353 0.019167 59203.900000 0 0 1
32.383385 -2.684605 21.127019 38.758762 -0.082712 0.994300 0.007821 0.017199 -36107.800000 0 0 1
32.859085 -4.012505 21.183619 39.300959 -0.121511 1.001535 -0.003780 0.017237 -36741.500000 0 0 1
32.255885 -4.872505 22.371119 39.555662 -0.149924 0.969684 -0.002354 0.024315 -172563.000000 0 0 1
32.672285 -4.487205 23.663019 40.590044 -0.136486 0.948410 -0.001801 0.020293 -29546.900000 0 0 1
31.944185 -4.969705 24.781659 40.734010 -0.154337 0.916782 -0.002674 0.011455 -227510.000000 0 0 1
32.414685 -4.336305 26.078029 41.827968 -0.132986 0.897637 -0.010156 0.011091 -376568.000000 0 0 1
31.567285 -4.498305 27.163389 41.887682 -0.141546 0.865208 -0.008260 0.010638 -404787.000000 0 0 1
32.041685 -3.801605 28.282329 42.907015 -0.118094 0.851103 -0.003275 0.006467 -185742.000000 0 0 1
31.190885 -4.122205 29.515219 43.139449 -0.131399 0.817315 -0.009071 0.002625 -49720.900000 0 0 1
31.161285 -5.490405 29.856369 43.503713 -0.174403 0.814414 -0.008663 0.000625 194857.000000 0 0 1
30.280585 -5.695205 30.973489 43.688742 -0.185909 0.782777 -0.001150 -0.003993 -432078.000000 0 0 1
30.256785 -7.161805 31.411589 44.197878 -0.232423 0.780299 -0.005605 0.000569 519660.000000 0 0 1
31.436185 -7.619005 32.082899 45.558703 -0.237779 0.789486 -0.008096 -0.003404 162085.000000 0 0 1
31.542085 -9.059605 31.877089 45.750720 -0.279694 0.799931 -0.014034 0.002089 -337778.000000 0 0 1
32.914285 -9.501005 32.361809 47.126489 -0.281020 0.813855 -0.021855 0.005713 -381740.000000 0 0 1
32.995485 -9.602505 33.813122 48.210345 -0.283202 0.793484 -0.016276 -0.001771 -240761.000000 0 0 1
34.281985 -9.970405 34.225107 49.457269 -0.283028 0.806521 -0.020743 -0.004715 -739921.000000 0 0 1
34.287485 -10.446105 -33.561033 49.102909 -0.295729 2.323321 -0.015665 -0.006942 -595291.000000 0 0 1
34.018985 -9.476405 -32.552843 48.028962 -0.271675 2.315529 -0.023979 -0.004809 754539.000000 0 0 1
-34.762319 -8.409005 -32.549443 48.359037 0.237341 2.309160 -0.007784 -0.002718 173993.000000 0 0 1
34.384085 -7.130705 -31.917873 47.453797 -0.204485 2.308526 -0.009359 -0.005134 -266160.000000 0 0 1
34.203985 -7.230305 -30.517033 46.405594 -0.208321 2.288445 -0.016944 -0.001397 214076.000000 0 0 1
33.527885 -6.141905 -29.905613 45.345206 -0.181179 2.290963 -0.007926 -0.002821 -38460.000000 0 0 1
33.861785 -5.936705 -28.372003 44.573933 -0.173558 2.260768 -0.002928 -0.006658 -759844.000000 0 0 1
-34.587319 -5.474005 -28.188343 44.953643 0.156964 2.248561 0.011251 -0.008392 -1043230.000000 0 0 1
-34.409219 -5.186005 -26.827803 43.938821 0.149590 2.227579 0.010264 0.001777 1101790.000000 0 0 1
-32.882119 -5.043805 -26.458993 42.505906 0.152204 2.242701 0.034847 0.001340 388138.000000 0 0 1
-32.651519 -4.301905 -25.287513 41.522119 0.130998 2.225612 0.043160 -0.003363 103270.000000 0 0 1
-31.309019 -4.326405 -24.857823 40.210494 0.137314 2.237237 0.055730 0.000860 140011.000000 0 0 1
-30.296919 -3.366605 -25.508683 39.748336 0.110666 2.267580 0.060895 0.000403 -450870.000000 0 0 1
-29.986519 -3.683905 -26.818253 40.397787 0.122240 2.296757 0.056078 -0.002172 -272137.000000 0 0 1
-28.926019 -2.906305 -27.307613 39.885673 0.100138 2.324916 0.054680 -0.005854 -314554.000000 0 0 1
-28.398519 -3.578205 -28.575623 40.445589 0.125339 2.355365 0.045377 -0.006445 -568863.000000 0 0 1
-29.279519 -3.553905 -29.624713 41.803637 0.120788 2.358398 0.050871 -0.005827 -405666.000000 0 0 1
-28.794619 -4.414305 -30.638493 42.276866 0.152119 2.381411 0.039452 -0.005548 -1060190.000000 0 0 1
-29.856719 -4.588805 -31.683653 43.775960 0.152501 2.380044 0.028990 0.000126 -308888.000000 0 0 1
-30.930619 -5.436205 -31.210463 44.275823 0.173978 2.353092 0.018116 0.003275 1297860.000000 0 0 1
-32.052319 -4.929405 -30.462853 44.493096 0.152597 2.324940 0.027459 -0.004390 439437.000000 0 0 1
-33.010119 -4.041305 -31.305803 45.673334 0.121820 2.325988 0.033421 -0.011176 -570731.000000 0 0 1
-32.443719 -2.818905 -31.842803 45.546737 0.086668 2.344967 0.049365 -0.007245 82123.300000 0 0 1
-32.108719 -1.824805 -30.880463 44.585903 0.056771 2.335892 0.054165 -0.010857 44895.200000 0 0 1
-31.598419 -0.510005 -31.482703 44.608080 0.016139 2.354295 0.060161 -0.002354 196770.000000 0 0 1
-32.666319 0.327195 -31.883273 45.647985 -0.010016 2.344039 0.058804 -0.000448 100151.000000 0 0 1
-32.227419 1.471895 -32.497893 45.791768 -0.045640 2.359852 0.063452 0.000757 431491.000000 0 0 1
-33.475919 2.314395 -32.892293 46.988259 -0.069026 2.346209 0.044022 -0.001795 494518.000000 0 0 1
-34.321219 1.756895 -33.869003 48.250825 -0.051145 2.348909 0.029556 -0.002321 -919213.000000 0 0 1
34.336585 2.566095 -34.071863 48.440456 0.074595 2.350932 0.005630 -0.001940 -988054.000000 0 0 1
33.346285 2.155895 34.070388 47.722258 0.064562 0.775700 0.003064 0.001116 -92441.800000 0 0 1
33.696985 2.215795 32.691039 47.001070 0.065662 0.801628 -0.000687 -0.002108 151065.000000 0 0 1
34.825785 1.463995 32.262899 47.496034 0.042013 0.824021 -0.003246 0.004050 -5126.900000 0 0 1
-34.619519 1.611895 30.760669 46.339271 -0.046527 0.844889 0.006483 -0.001293 -252524.000000 0 0 1
-34.229819 2.913295 30.335519 45.830247 -0.084905 0.847432 0.007415 -0.007175 78853.800000 0 0 1
-33.903819 2.910395 28.995269 44.706431 -0.085633 0.865092 0.007305 -0.008408 19920.100000 0 0 1
-33.374119 4.281895 28.508209 44.100844 -0.127603 0.867897 0.009817 -0.005263 -205253.000000 0 0 1
-32.824519 4.286295 27.203499 42.846841 -0.129847 0.882916 0.006843 -0.003164 190333.000000 0 0 1
-32.330619 5.591595 26.994379 42.488015 -0.171256 0.882346 0.009149 0.005329 -83930.200000 0 0 1
-31.477019 5.821395 25.697159 41.049182 -0.182875 0.894372 0.012531 0.010073 411017.000000 0 0 1
-30.162119 5.271795 25.737239 39.999384 -0.173034 0.871812 0.014146 0.005734 585238.000000 0 0 1
-29.337519 5.570495 24.615739 38.699549 -0.187642 0.881398 0.016965 0.006089 226377.000000 0 0 1
-29.826719 5.212095 23.150219 38.114718 -0.172999 0.918035 0.030716 -0.000230 -243906.000000 0 0 1
-29.890819 3.848495 22.955019 37.884098 -0.128047 0.919865 0.021052 -0.001048 -147044.000000 0 0 1
-30.670919 3.541795 21.835219 37.815690 -0.114968 0.955241 0.015712 -0.001535 -680965.000000 0 0 1
-30.744619 2.038295 21.533519 37.590939 -0.066201 0.960832 0.010409 0.005376 63827.900000 0 0 1
-29.581019 1.422595 20.997319 36.303552 -0.048054 0.954052 0.014821 0.004874 237840.000000 0 0 1
-29.280119 1.916495 19.703019 35.344127 -0.065361 0.979470 0.007019 0.008385 -649261.000000 0 0 1
-28.120519 1.199495 19.015919 33.967743 -0.042630 0.976624 0.003278 0.010659 -483007.000000 0 0 1
-28.361219 -0.188905 18.759019 34.004341 0.006661 0.986437 0.009205 0.005423 -299885.000000 0 0 1
-27.459719 -0.892405 17.968619 32.828400 0.032487 0.991602 0.018272 0.006894 -671853.000000 0 0 1
-27.573319 -0.679605 16.437319 32.108180 0.024642 1.033360 0.001019 0.014650 79898.100000 0 0 1
-27.056819 0.573095 15.999319 31.438481 -0.021178 1.036880 0.009401 0.015696 298014.000000 0 0 1
-27.331019 0.827595 14.629219 31.011023 -0.030271 1.079530 0.021624 0.009400 -17687.300000 0 0 1
-26.887519 2.241595 14.190819 30.485124 -0.083177 1.086597 0.025810 0.005423 -299330.000000 0 0 1
-25.489819 2.363095 14.093119 29.222100 -0.092443 1.067545 0.017474 -0.001285 -131824.000000 0 0 1
-25.075319 3.600395 13.561519 28.734113 -0.142609 1.079277 0.023766 -0.003482 -12681.000000 0 0 1
-23.562719 3.862695 13.422519 27.391352 -0.162487 1.058675 0.033045 -0.008192 188577.000000 0 0 1
-22.806419 4.301395 14.542919 27.388524 -0.186415 1.011033 0.024868 -0.004442 1198890.000000 0 0 1
-21.482819 4.714995 14.117719 26.135277 -0.216052 1.000147 0.044051 -0.009375 302924.000000 0 0 1
-20.671519 5.228095 15.236719 26.206913 -0.247718 0.950347 0.030802 -0.009087 -889169.000000 0 0 1
-20.846019 6.544495 15.714119 26.913203 -0.304200 0.947295 0.028481 -0.009461 57819.900000 0 0 1
-20.078319 6.773595 16.851519 27.073865 -0.325369 0.898956 0.026882 -0.006783 -593946.000000 0 0 1
-20.055819 8.228095 17.318619 27.746567 -0.389320 0.896726 0.018852 -0.008652 -433480.000000 0 0 1
-19.272319 9.100595 16.519719 26.965612 -0.441170 0.911423 0.014023 -0.009439 542296.000000 0 0 1
-19.621119 10.494395 16.661319 27.797845 -0.491139 0.928077 0.008876 -0.002692 -105358.000000 0 0 1
-19.274819 11.149295 17.985819 28.623681 -0.524414 0.891360 0.029626 -0.007297 -60539.800000 0 0 1
-19.972219 10.603395 19.093819 29.595531 -0.488067 0.869565 0.036460 -0.013499 601262.000000 0 0 1
-19.476119 11.254095 20.265819 30.276679 -0.523967 0.837457 0.049610 -0.004516 162404.000000 0 0 1
-12.349215 -33.212901 -22.612623 42.034874 1.214817 2.138799 0.013868 -0.004608 -253065.000000 0 0 1
-12.794315 -34.141501 -21.682223 42.419988 1.212250 2.107298 0.021648 -0.008431 -555351.000000 0 0 1
-13.887715 -33.655901 -20.983123 42.022372 1.179443 2.093624 0.011212 -0.009397 -632990.000000 0 0 1
-14.553015 -34.591301 -19.972123 42.511576 1.172562 2.059865 0.003514 -0.004627 -477456.000000 0 0 1
-15.288215 33.879395 -20.562423 42.477714 -1.146900 2.076103 -0.010648 -0.004983 71673.400000 0 0 1
-15.896215 32.960995 -19.661123 41.541264 -1.121430 2.063820 -0.012448 0.001789 -98775.500000 0 0 1
-17.262315 33.291495 -19.042123 42.058455 -1.092443 2.040648 -0.003919 0.001103 -596506.000000 0 0 1
-17.218915 34.403495 -18.144123 42.535876 -1.106750 2.011483 0.007115 0.000642 265032.000000 0 0 1
-18.531215 34.714095 -17.691923 43.144855 -1.080457 1.993315 -0.002947 0.003662 447761.000000 0 0 1
-18.742115 34.270995 -16.193623 42.284766 -1.070352 1.963801 0.005142 0.002854 -163658.000000 0 0 1
-18.473015 32.903895 -15.923023 40.956822 -1.059225 1.970099 -0.000717 -0.007097 196618.000000 0 0 1
-18.931615 32.510495 -14.594523 40.352676 -1.043476 1.940859 0.019765 -0.003768 299199.000000 0 0 1
-19.219315 30.973895 -14.482223 39.223705 -1.015439 1.948967 0.002985 -0.005618 302236.000000 0 0 1
-18.006815 30.248095 -14.484723 38.065731 -1.033837 1.961153 -0.010298 -0.005188 112502.000000 0 0 1
-18.262615 28.878995 -14.235523 37.015802 -1.006905 1.965549 -0.012056 -0.006259 -90249.000000 0 0 1
-17.047215 28.117395 -13.665023 35.607981 -1.025767 1.964664 -0.004410 -0.002641 -421555.000000 0 0 1
-15.930915 28.238195 -14.472423 35.505503 -1.057145 1.990632 -0.009507 0.000214 -759457.000000 0 0 1
-14.894715 27.301795 -14.192223 34.185666 -1.071370 1.998905 -0.007202 -0.003656 691530.000000 0 0 1
-13.579815 27.784695 -14.896323 34.326391 -1.116188 2.019681 0.000491 -0.002359 -185967.000000 0 0 1
-13.723715 27.842995 -16.273523 35.048542 -1.112848 2.053656 -0.014800 -0.004510 23199.600000 0 0 1
-12.672315 28.561895 -16.893923 35.521459 -1.153211 2.066440 -0.005541 -0.002210 -25045.700000 0 0 1
-12.676515 28.536895 -18.439923 36.264021 -1.152764 2.104228 0.014033 -0.016142 -164578.000000 0 0 1
-12.635215 27.275695 -19.064223 35.595742 -1.136986 2.135986 0.001545 -0.023713 80440.500000 0 0 1
-12.906215 27.503795 -20.422223 36.607326 -1.132048 2.162617 0.001312 -0.033007 -248331.000000 0 0 1
-12.420215 26.361695 -21.297423 36.094057 -1.130497 2.201921 -0.004441 -0.023973 272139.000000 0 0 1
-11.027915 26.461095 -21.592523 35.889295 -1.175926 2.216352 0.008518 -0.029413 335563.000000 0 0 1
-10.569715 25.336995 -22.314623 35.378307 -1.175580 2.253307 0.008756 -0.028254 346740.000000 0 0 1
-9.199615 25.414995 -23.035223 35.513046 -1.223493 2.276594 0.013496 -0.024973 -8689.650000 0 0 1
-9.221715 26.184295 -24.183723 36.817249 -1.232176 2.287441 0.019432 -0.027781 176007.000000 0 0 1
-8.036115 26.415695 -24.923823 37.196304 -1.275475 2.305088 0.008698 -0.023613 -361543.000000 0 0 1
-8.440715 27.146295 -26.194823 38.656639 -1.269338 2.315329 0.003853 -0.012180 -270336.000000 0 0 1
-9.139015 26.352095 -27.085193 38.878814 -1.236971 2.341523 0.015825 -0.016836 -503637.000000 0 0 1
-9.591015 27.186795 -28.070683 40.237702 -1.231645 2.342869 0.029783 -0.012604 -525828.000000 0 0 1
-10.756615 26.613395 -28.876453 40.716423 -1.186691 2.359172 0.009455 -0.013565 -286519.000000 0 0 1
-11.062415 27.321895 -30.036113 42.083620 -1.186080 2.365598 0.007047 -0.008876 -84643.300000 0 0 1
-12.296815 26.879995 -30.539263 42.501675 -1.141747 2.372501 0.007290 -0.007406 -341558.000000 0 0 1
-12.416815 27.274495 -32.069783 43.892441 -1.143582 2.390062 -0.008487 -0.000668 -364757.000000 0 0 1
-11.567315 26.679095 -33.026183 44.003473 -1.161687 2.419669 -0.007980 -0.000875 33550.500000 0 0 1
-11.548115 25.276595 -33.026353 43.162544 -1.142244 2.442090 0.013521 0.000328 229556.000000 0 0 1
-10.751015 24.740495 -34.246915 43.595041 -1.160864 2.474412 -0.012649 0.009444 725388.000000 0 0 1
-11.629415 24.974895 33.900700 43.683477 -1.135009 0.682413 -0.013676 0.016220 441979.000000 0 0 1
-11.132715 24.190795 32.861169 42.296435 -1.139489 0.681029 -0.013007 0.013760 -271286.000000 0 0 1
-11.886315 24.043895 31.506269 41.376786 -1.111672 0.705252 -0.001253 0.017276 -156218.000000 0 0 1
-13.125815 23.359695 31.533939 41.380572 -1.058863 0.704328 0.006729 0.011660 159505.000000 0 0 1
-13.613715 23.322095 30.197469 40.510993 -1.042429 0.729640 0.019173 0.016569 324659.000000 0 0 1
-14.853315 22.407695 29.988599 40.274581 -0.985429 0.730855 0.010928 0.013276 358592.000000 0 0 1
-14.553615 21.060995 30.113789 39.524847 -0.966121 0.704562 -0.013317 0.006887 256704.000000 0 0 1
-15.728115 20.321495 30.444089 39.839420 -0.912134 0.701043 -0.013753 0.001893 587051.000000 0 0 1
-15.343515 18.847695 30.530569 39.022747 -0.887529 0.672320 -0.027743 -0.008671 -259226.000000 0 0 1
-14.950915 18.215395 29.359359 37.647078 -0.883510 0.676358 -0.016020 -0.007616 -81295.500000 0 0 1
-14.456415 16.910295 29.555159 36.992614 -0.863471 0.645253 -0.026568 -0.020603 -149693.000000 0 0 1
-14.072115 16.230395 28.244289 35.485068 -0.856503 0.650223 -0.012154 -0.016092 -119058.000000 0 0 1
-13.130815 16.922895 27.449929 34.818118 -0.910912 0.662624 -0.025356 -0.012018 -286765.000000 0 0 1
-12.803815 16.005695 26.428889 33.445570 -0.896084 0.659651 -0.029025 -0.007812 273600.000000 0 0 1
-11.667715 16.576895 25.506219 32.580612 -0.957488 0.671539 -0.023597 -0.003319 200456.000000 0 0 1
-12.024515 17.534395 24.536059 32.466324 -0.969687 0.714015 -0.025086 0.003272 -169536.000000 0 0 1
-12.501915 18.848795 24.919029 33.653128 -0.985146 0.737031 -0.017888 0.003462 162443.000000 0 0 1
-11.510615 19.822795 25.630879 34.385745 -1.044707 0.729673 -0.022710 0.007144 290271.000000 0 0 1
-11.105515 19.472295 26.993819 35.088018 -1.052483 0.693024 -0.022443 0.002412 442757.000000 0 0 1
-12.152015 19.765995 27.923749 36.305672 -1.019570 0.693319 -0.012725 0.009376 71244.900000 0 0 1
-11.848015 19.422695 29.373599 37.154070 -1.023050 0.659026 -0.014129 0.007051 -1411150.000000 0 0 1
-10.742615 20.099295 29.834189 37.542833 -1.079949 0.652331 -0.024117 0.005442 -816028.000000 0 0 1
-10.740315 20.098895 31.193049 38.630639 -1.080030 0.630947 -0.026594 0.000238 179222.000000 0 0 1
-9.637615 20.947995 31.905889 39.366076 -1.139597 0.625805 -0.026263 0.002210 630202.000000 0 0 1
-8.347915 20.337595 31.880729 38.725784 -1.181299 0.603696 -0.021726 -0.004786 246602.000000 0 0 1
-7.484515 21.149895 32.638959 39.606031 -1.230670 0.602201 -0.019648 0.007449 -522492.000000 0 0 1
-6.194615 20.500595 33.125069 39.445125 -1.277352 0.573926 -0.020166 0.004307 -685578.000000 0 0 1
-6.362715 19.535195 34.145138 39.849698 -1.255927 0.541672 -0.029911 0.004410 -374.586000 0 0 1
-5.168615 19.231295 -34.429258 39.773498 -1.308240 2.617210 -0.028079 0.009502 193065.000000 0 0 1
-4.282515 18.136995 34.164290 38.916439 -1.338923 0.499362 -0.024895 0.002673 219552.000000 0 0 1
-4.888215 16.825295 34.223532 38.447827 -1.288052 0.473168 -0.024847 -0.001432 73851.500000 0 0 1
-4.469415 16.093095 33.124369 37.096998 -1.299901 0.467023 -0.010530 0.001806 -237387.000000 0 0 1
-5.088415 14.680195 33.040849 36.511612 -1.237138 0.439556 -0.011543 -0.008029 -143195.000000 0 0 1
-4.438915 13.795695 33.936416 36.901294 -1.259497 0.403598 -0.009013 -0.004474 140607.000000 0 0 1
-5.086015 12.492595 33.900853 36.485618 -1.184165 0.378671 -0.006624 0.000569 200454.000000 0 0 1
-4.177715 11.311895 34.297532 36.355646 -1.217014 0.338091 -0.005219 0.004291 -11286.400000 0 0 1
-4.017115 11.106595 -33.538983 35.557799 -1.223748 2.803004 0.006500 -0.002142 -555214.000000 0 0 1
-3.007715 10.187295 -33.324863 34.976761 -1.283711 2.833032 0.011301 0.005113 -311271.000000 0 0 1
-2.977915 9.760095 -31.838423 33.433705 -1.274657 2.831434 0.020089 0.006768 804139.000000 0 0 1
-4.153415 9.026295 -31.425333 32.958708 -1.139537 2.835359 0.017014 0.008522 678377.000000 0 0 1
-4.053815 8.586195 -30.039323 31.504239 -1.129691 2.835443 0.018705 0.018446 310017.000000 0 0 1
-5.370515 7.851895 -29.702213 31.188398 -0.970905 2.831640 0.019187 0.008216 241989.000000 0 0 1
-5.225815 7.032895 -28.583803 29.896564 -0.931756 2.844153 0.019974 0.008219 407895.000000 0 0 1
-6.457815 6.407595 -28.215613 29.645935 -0.781495 2.829696 0.025401 -0.005031 173375.000000 0 0 1
-6.488815 5.649795 -26.824263 28.170303 -0.716388 2.831213 0.022184 -0.010774 -209562.000000 0 0 1
-7.021115 6.410595 -25.728273 27.428741 -0.739976 2.787623 0.003306 -0.001033 252214.000000 0 0 1
-6.248615 7.537495 -25.320163 27.147186 -0.878618 2.772623 0.008941 0.004736 -432487.000000 0 0 1
-6.733215 8.232395 -24.000423 26.251263 -0.885240 2.724469 0.000459 0.001971 153790.000000 0 0 1
-6.639515 7.283595 -22.946323 24.973339 -0.831625 2.735909 -0.007172 0.002942 421580.000000 0 1 0
-7.821015 7.468295 -22.169423 24.666314 -0.762333 2.687760 -0.011552 0.003607 276138.000000 0 1 0
-7.465315 7.601495 -20.677223 23.260723 -0.794436 2.665807 -0.022503 0.004327 -147546.000000 0 1 0
-6.911015 8.893695 -20.456023 23.351848 -0.910195 2.638284 -0.033873 0.006817 96521.100000 0 1 0
-6.689915 9.201595 -19.081823 22.215767 -0.942153 2.603976 -0.024650 0.010190 -929562.000000 0 1 0
-7.985715 9.600895 -18.400323 22.237822 -0.876983 2.545319 -0.033042 0.023780 -838463.000000 0 1 0
-7.906315 9.444095 -16.976223 20.973624 -0.873798 2.513940 -0.027349 0.013677 869554.000000 0 1 0
-9.119615 9.752095 -16.245823 21.028493 -0.818900 2.453663 -0.009959 0.009965 761992.000000 0 1 0
-9.554415 11.221695 -16.262923 21.947573 -0.865476 2.405339 -0.016619 0.003505 -514070.000000 0 1 0
-8.581215 12.137895 -15.789223 21.685602 -0.955403 2.386338 -0.033984 -0.000114 -66298.000000 0 1 0
-9.080215 13.471495 -15.849223 22.696462 -0.977712 2.343834 -0.018763 -0.003910 219364.000000 0 1 0
-7.959415 14.561795 -15.671423 22.825242 -1.070571 2.327575 -0.013101 0.002708 485193.000000 0 1 0
-7.377315 14.609595 -14.377323 21.784684 -1.103186 2.291580 -0.014023 0.004006 637736.000000 0 1 0
-8.262815 15.204695 -13.418523 21.897800 -1.073005 2.230369 -0.012804 -0.008603 -122187.000000 0 1 0
-7.441015 15.845495 -12.264723 21.374561 -1.131765 2.181935 -0.008675 -0.004354 468111.000000 0 1 0
-6.896515 17.178695 -12.421223 22.292516 -1.189034 2.161797 -0.001230 -0.008446 943386.000000 0 1 0
-5.956015 17.394295 -13.513123 22.817540 -1.240897 2.204614 0.004992 0.003549 230638.000000 0 1 0
-6.020015 18.827795 -14.036523 24.243565 -1.261328 2.188273 0.026740 0.011137 -18146.700000 0 1 0
-5.307815 19.806995 -13.332823 24.459234 -1.308971 2.147309 0.018541 0.008250 -20613.600000 0 1 0
-5.347815 21.093395 -14.004723 25.877842 -1.322498 2.142643 0.017875 0.011315 -199774.000000 0 0 1
-4.800915 22.139095 -13.077423 26.157357 -1.357250 2.094340 0.016664 0.006920 -696063.000000 0 0 1
-4.995215 23.496295 -13.497523 27.553787 -1.361319 2.082727 0.010076 0.006489 -153323.000000 0 0 1
-6.289215 24.029695 -13.484223 28.263134 -1.314811 2.068144 0.023170 0.000824 -263886.000000 0 0 1
-7.088715 24.160295 -12.163723 27.962938 -1.285402 2.020828 0.007157 0.005542 -158329.000000 0 0 1
-7.381915 22.924195 -11.507723 26.691555 -1.259267 2.016549 0.017295 0.005775 99010.900000 0 0 1
-8.035215 22.931095 -10.217523 26.359014 -1.233759 1.968855 0.023033 0.003178 104117.000000 0 0 1
-7.316115 23.462595 -8.949623 26.155586 -1.268531 1.920020 0.018911 0.005025 -136039.000000 0 0 1
-7.158015 24.878395 -9.088223 27.436609 -1.290643 1.908418 0.009439 0.004120 -71307.700000 0 0 1
-6.668015 25.441595 -7.872223 27.453763 -1.314471 1.861624 0.007894 0.003749 -29010.100000 0 0 1
-6.643715 27.005895 -7.726623 28.864477 -1.329577 1.841787 -0.007335 -0.002249 -246035.000000 0 0 1
-5.717915 27.726095 -8.496023 29.556951 -1.367419 1.862355 -0.009233 -0.003644 -100395.000000 0 0 1
-5.939215 27.665195 -9.924223 29.985455 -1.359324 1.908125 -0.009349 0.006430 -107005.000000 0 0 1
-5.310515 28.868195 -10.613323 31.212448 -1.388873 1.917750 -0.015058 0.005716 -14472.900000 0 0 1
-6.068815 30.051195 -10.433923 32.384743 -1.371527 1.898834 -0.014290 0.004703 388397.000000 0 0 1
-7.069515 30.188995 -11.459723 33.055691 -1.340766 1.924825 -0.011846 0.005362 370041.000000 0 0 1
-7.986615 31.431295 -11.254723 34.327557 -1.321965 1.904837 -0.003070 0.006236 339161.000000 0 0 1
-8.831015 31.161395 -10.121823 33.933327 -1.294641 1.873692 0.007370 0.003827 -531148.000000 0 0 1
-9.973015 31.933395 -10.191423 34.972387 -1.268088 1.866500 0.011484 0.003848 -615121.000000 0 0 1
-11.134315 31.541295 -9.261923 34.707485 -1.231445 1.840926 0.014264 0.001876 -213628.000000 0 0 1
-11.754315 30.386595 -9.723223 34.000738 -1.201698 1.860816 0.009870 0.001062 -570424.000000 0 0 1
-12.923715 30.211895 -8.948023 34.056543 -1.166583 1.836657 0.020071 0.005131 478361.000000 0 0 1
-13.822815 29.046395 -9.516923 33.546015 -1.126624 1.858444 0.019565 0.005097 142182.000000 0 0 1
-13.473015 27.792895 -9.023223 32.177410 -1.119411 1.855029 0.008824 0.011276 178777.000000 0 0 1
-14.493815 26.912295 -9.463323 31.998388 -1.076781 1.871030 0.017595 0.007745 223652.000000 0 0 1
-14.629215 25.581995 -8.748823 30.740760 -1.051328 1.859386 0.019198 0.004530 -356048.000000 0 0 1
-13.671215 24.660895 -9.195023 29.658225 -1.064606 1.886024 0.016015 0.007927 216305.000000 0 0 1
-14.104015 23.343295 -8.867823 28.678755 -1.027294 1.885161 0.031772 0.002327 -166919.000000 0 0 1
-13.147315 22.236495 -9.310923 27.459186 -1.036836 1.916738 0.038918 0.004233 -342831.000000 0 0 1
-13.091615 21.968995 -10.694823 27.720144 -1.033387 1.966886 0.046026 0.009254 283672.000000 0 0 1
-12.303315 20.804495 -10.938523 26.530169 -1.036741 1.995779 0.041022 0.006384 -73218.500000 0 0 1
-12.386815 20.290995 -12.413623 26.818943 -1.022722 2.052024 0.029015 0.007976 269847.000000 0 0 1
-13.682015 19.964895 -12.915223 27.433512 -0.970002 2.060974 0.028868 0.017602 225245.000000 0 0 1
-13.645315 19.542995 -14.279623 27.785445 -0.961266 2.110550 0.029019 0.020396 586801.000000 0 0 1
-15.039815 19.087495 -14.836523 28.471932 -0.903452 2.118927 0.013470 0.018031 696510.000000 0 0 1
-15.921815 20.193395 -14.893023 29.716654 -0.903128 2.095744 -0.011515 0.012642 -374056.000000 0 0 1
-17.116515 19.825795 -15.541123 30.455931 -0.858605 2.106309 -0.012537 0.017922 -258357.000000 0 0 1
-17.714315 21.045695 -16.248623 31.948959 -0.871136 2.104332 -0.021406 0.012019 -302219.000000 0 0 1
-17.996315 22.038295 -15.327923 32.318710 -0.886019 2.064935 -0.022999 -0.001794 319766.000000 0 0 1
-18.062615 23.327395 -15.957423 33.541986 -0.911918 2.066607 -0.020013 -0.004430 -113478.000000 0 0 1
-18.574815 24.392295 -14.914223 34.094602 -0.919974 2.023542 -0.021798 0.007145 -327701.000000 0 0 1
-19.974215 24.353995 -14.875523 34.833426 -0.883882 2.012021 -0.015649 0.010840 -259309.000000 0 0 1
-20.476115 25.313595 -13.965723 35.427261 -0.890653 1.976003 -0.015608 -0.000266 -94010.800000 0 0 1
-25.132755 -0.632305 4.092777 25.471671 0.025153 1.409417 0.029745 -0.019307 -274566.000000 0 0 1
-25.356395 0.049595 5.297777 25.903970 -0.001956 1.364827 0.034537 -0.011924 812313.000000 0 0 1
-26.694965 -0.325705 5.648277 27.287915 0.012200 1.362301 0.026021 -0.008863 254362.000000 0 0 1
-27.289235 0.421395 6.866177 28.142927 -0.015441 1.324333 0.022057 -0.013967 -588504.000000 0 0 1
-27.677445 1.796395 6.625077 28.515954 -0.064814 1.336325 0.041757 -0.016095 283370.000000 0 0 1
-28.094485 2.560295 7.747977 29.255536 -0.090881 1.302760 0.046030 -0.010097 -606443.000000 0 0 1
-26.964375 3.033395 8.646577 28.478805 -0.112025 1.262312 0.048624 -0.013992 -714858.000000 0 0 1
-26.489725 2.058895 9.456477 28.202297 -0.077568 1.228863 0.042891 -0.017290 -866377.000000 0 0 1
-25.220855 2.426995 9.850877 27.184952 -0.095934 1.199992 0.033679 -0.027745 -1286280.000000 0 0 1
-24.407615 1.312895 10.453177 26.584286 -0.053739 1.166677 0.021554 -0.018535 -532923.000000 0 0 1
-23.620815 0.507095 9.590077 25.498424 -0.021465 1.185208 0.032265 -0.022073 636505.000000 0 0 1
-24.365815 -0.465905 8.870177 25.934341 0.019119 1.221726 0.030348 -0.016271 -551646.000000 0 0 1
-23.435815 -1.337905 8.037077 24.811732 0.057026 1.240924 0.047005 -0.019239 -698380.000000 0 1 0
-22.478415 -1.951805 8.825977 24.227806 0.086613 1.197925 0.031035 -0.022437 -900552.000000 0 1 0
-21.494215 -2.544605 8.041277 23.089791 0.117837 1.215081 0.031288 -0.016830 296495.000000 0 1 0
-20.202415 -2.764505 8.932677 22.261464 0.135996 1.157902 0.029229 -0.013970 504629.000000 0 1 0
-19.583315 -1.545805 9.343077 21.752904 0.078771 1.126847 0.024618 -0.021229 574926.000000 0 1 0
-20.161215 -1.035205 10.544377 22.775648 0.051301 1.089457 0.030626 -0.015839 -494847.000000 0 1 0
-19.608015 0.354895 10.980777 22.476158 -0.018098 1.060367 0.024393 -0.013215 -176963.000000 0 1 0
-19.930215 1.459695 10.157377 22.416880 -0.073110 1.100542 0.017694 -0.013601 209988.000000 0 1 0
-20.335215 2.542195 10.936577 23.229129 -0.124369 1.080584 0.025526 -0.010496 -307885.000000 0 1 0
-21.252115 3.471795 10.115177 23.791229 -0.161932 1.131653 0.024198 -0.015562 -481147.000000 0 1 0
-21.369315 4.753095 10.718077 24.374510 -0.218863 1.115504 0.022633 -0.016231 599581.000000 0 1 0
-22.193015 5.611495 9.957277 24.963296 -0.247659 1.160505 0.035831 -0.020767 -256886.000000 0 1 0
-22.263415 6.998395 10.621277 25.640763 -0.304565 1.143695 0.039432 -0.016877 -9975.010000 0 0 1
-22.945215 6.802395 11.851577 26.706092 -0.288208 1.110986 0.020204 -0.014442 357147.000000 0 0 1
-23.005415 7.980195 12.578977 27.407359 -0.333896 1.093968 0.024445 -0.012694 -208865.000000 0 0 1
-23.666615 7.710895 13.924477 28.521179 -0.314967 1.060753 0.023157 -0.008182 273952.000000 0 0 1
-25.077325 7.572495 13.799977 29.608348 -0.293259 1.085937 0.021716 -0.002613 347782.000000 0 0 1
-25.717825 7.218295 15.023377 30.646569 -0.273633 1.058461 0.011583 -0.000258 982357.000000 0 0 1
-27.241375 6.931695 14.751777 31.745171 -0.249167 1.087508 0.005253 0.007297 772658.000000 0 0 1
-27.481475 5.699995 14.113177 31.415015 -0.204512 1.104871 0.008010 0.004509 -80863.800000 0 0 1
-28.366745 5.866395 13.027777 31.761766 -0.203931 1.148154 0.006007 0.003288 -460603.000000 0 0 1
-28.453215 4.584995 12.156277 31.279110 -0.159768 1.171642 0.012227 0.000365 -84654.400000 0 0 1
-29.382545 3.620095 12.637277 32.189126 -0.122588 1.167345 0.003535 0.004239 223920.000000 0 0 1
-29.471685 2.592495 11.697877 31.814173 -0.087740 1.194268 -0.003614 0.005223 -83579.700000 0 0 1
-30.592845 1.538895 11.927477 32.871798 -0.050260 1.199474 -0.009470 0.013413 -14044.700000 0 0 1
-30.277645 0.596795 12.955177 32.938254 -0.019708 1.166560 -0.012426 0.014089 357734.000000 0 0 1
-31.456435 -0.019505 13.484477 34.224828 0.000620 1.165820 -0.008867 0.019070 66952.400000 0 0 1
-31.248185 -1.093505 14.549777 34.486821 0.034980 1.135263 -0.012419 0.013209 -313914.000000 0 0 1
-31.074585 -2.398305 14.105777 34.210447 0.077026 1.145793 -0.017369 0.016932 195120.000000 0 0 1
-31.099965 -3.302405 15.219777 34.781537 0.105790 1.117888 -0.017823 0.019756 -237967.000000 0 0 1
-30.855335 -4.764405 14.777077 34.541472 0.153201 1.128731 -0.010465 0.016454 -560477.000000 0 0 1
-31.822735 -5.339705 13.950577 35.154196 0.166247 1.162725 -0.005241 0.011393 -129479.000000 0 0 1
-31.711925 -6.740905 13.819777 35.243045 0.209449 1.167853 0.005233 0.005939 -227234.000000 0 0 1
-32.763145 -7.316005 12.780077 35.920440 0.219696 1.207039 0.007752 0.002105 2125590.000000 0 0 1
-34.148443 -7.356205 13.223577 37.350943 0.212176 1.208913 0.000495 0.010699 1574450.000000 0 0 1
-34.814569 -6.106005 13.396277 37.799441 0.173621 1.208520 0.005232 0.015894 518452.000000 0 0 1
33.389028 -6.053305 13.004877 36.340013 -0.179348 1.204814 0.009229 0.014952 1671960.000000 0 0 1
32.509368 -6.876805 13.792777 35.977634 -0.208460 1.177353 0.003328 0.011603 1199530.000000 0 0 1
31.171898 -6.783005 13.245577 34.541883 -0.214260 1.177252 -0.001009 0.011569 1237110.000000 0 0 1
30.154808 -7.879305 13.696477 34.043933 -0.255581 1.156749 -0.019928 -0.000464 143929.000000 0 0 1
29.800118 -7.824305 15.087377 34.305914 -0.256764 1.115432 -0.013707 0.002592 -8802.880000 0 0 1
28.767828 -8.776605 15.255277 33.724475 -0.296114 1.101397 -0.008526 0.008539 -190867.000000 0 0 1
28.273188 -8.732905 16.726377 33.991300 -0.299580 1.056321 -0.031979 0.000570 -195496.000000 0 0 1
29.244948 -9.086805 17.695977 35.369261 -0.301257 1.046827 -0.033905 0.004876 233315.000000 0 0 1
28.702538 -8.867305 18.993477 35.541764 -0.299636 1.007000 -0.031937 0.005591 476339.000000 0 0 1
29.751588 -9.373705 20.048577 37.080572 -0.305221 0.999556 -0.026745 0.010447 1110120.000000 0 0 1
30.811188 -8.446805 20.324677 37.865160 -0.267573 1.004199 -0.016852 0.010019 367488.000000 0 0 1
32.036138 -8.837105 19.717677 38.641886 -0.269154 1.035301 -0.017839 0.008462 -347181.000000 0 0 1
33.203258 -8.091805 20.347277 39.773677 -0.239045 1.033778 -0.003913 0.010697 -415690.000000 0 0 1
33.383168 -8.546605 21.699877 40.723028 -0.250632 1.008814 -0.001916 0.007502 543181.000000 0 0 1
34.685182 -8.195505 22.182277 41.979537 -0.232027 1.014073 -0.010954 0.010115 584514.000000 0 0 1
-34.797128 -8.876005 23.546977 42.942796 0.249753 0.990426 -0.009479 0.005272 -294263.000000 0 0 1
34.345455 -8.324605 24.680377 43.104876 -0.237793 0.961164 -0.005967 0.007314 -172447.000000 0 0 1
34.385843 -9.279105 25.798377 43.977770 -0.263574 0.943914 -0.002078 -0.009883 -189713.000000 0 0 1
33.675333 -8.703305 27.060577 44.068701 -0.252913 0.909609 0.001731 -0.001756 343683.000000 0 0 1
34.455250 -7.715905 27.710177 44.883776 -0.220305 0.905393 -0.007246 -0.008105 -174559.000000 0 0 1
33.701692 -7.209705 28.798977 44.912860 -0.210750 0.874711 -0.004208 -0.005525 -272726.000000 0 0 1
34.374676 -6.431805 29.976177 46.060370 -0.184970 0.862156 -0.003986 -0.005430 84309.000000 0 0 1
-34.602030 -7.148005 30.943677 46.967069 0.203712 0.851524 -0.008022 -0.007559 460787.000000 0 0 1
-33.217055 -7.243505 30.586477 45.731539 0.214705 0.838167 -0.012545 -0.009296 249701.000000 0 0 1
-32.325615 -7.728505 31.683277 45.918463 0.234678 0.809321 -0.014338 -0.007231 -483534.000000 0 0 1
-32.565195 -9.097505 31.938177 46.511329 0.272418 0.813891 -0.010801 -0.003128 340900.000000 0 0 1
-31.790835 -9.617905 33.027777 46.840104 0.293783 0.788207 -0.015094 0.002558 -281915.000000 0 0 1
-31.834445 -11.168205 33.108477 47.268721 0.337406 0.794795 0.003201 -0.005959 279578.000000 0 0 1
-33.115115 -11.769705 33.350677 48.450020 0.341493 0.811581 -0.007334 -0.011729 531140.000000 0 0 1
-33.072125 -13.217505 33.417977 48.838807 0.380211 0.817221 0.002478 -0.009541 564777.000000 0 0 1
-34.545405 -13.710705 33.583077 50.091831 0.377822 0.836008 -0.003857 -0.008959 617012.000000 0 0 1
-34.763889 -15.073305 33.828677 50.794802 0.409125 0.841980 0.000036 -0.011654 -371109.000000 0 0 1
33.608218 -15.398905 33.837777 50.116203 -0.429643 0.829579 -0.000690 -0.009254 -353137.000000 0 0 1
33.365198 -16.858105 34.209577 50.672747 -0.467847 0.829685 -0.005202 -0.002602 -231245.000000 0 0 1
33.569278 -17.157505 -33.674365 50.549375 -0.472494 2.299855 0.001173 -0.013304 90147.500000 0 0 1
33.658618 -18.568805 -33.595765 51.052704 -0.504133 2.289036 -0.000606 -0.014039 -200279.000000 0 0 1
34.218621 -19.093105 -32.252665 50.751307 -0.508945 2.259458 -0.008325 -0.006063 42332.100000 0 0 1
33.273668 -19.001005 -31.210065 49.419059 -0.518862 2.254333 -0.011545 -0.003497 -290556.000000 0 0 1
33.623048 -19.823205 -30.126065 49.305665 -0.532716 2.228127 -0.023691 0.002728 -776568.000000 0 0 1
32.566828 -19.934805 -28.976665 47.933724 -0.549284 2.219953 -0.025059 0.006890 315351.000000 0 0 1
31.363138 -20.598005 -29.273565 47.590607 -0.581112 2.233325 -0.021283 0.009532 59173.700000 0 0 1
30.489388 -19.752205 -30.049065 47.145506 -0.574854 2.261875 -0.021086 0.012635 -1035900.000000 0 0 1
29.120178 -20.426705 -30.206465 46.665465 -0.611707 2.274831 -0.015993 0.011556 -529717.000000 0 0 1
28.294198 -19.805805 -31.130565 46.496706 -0.610723 2.304361 -0.016283 0.012907 153636.000000 0 0 1
27.019068 -20.441805 -31.202665 46.059785 -0.647692 2.315071 -0.008628 0.005797 467018.000000 0 0 1
26.099208 -20.018305 -32.354665 46.138114 -0.654298 2.347955 -0.006860 0.010591 31461.900000 0 0 1
26.552378 -20.285005 -33.686065 47.447457 -0.652377 2.360246 -0.018210 0.007638 -514770.000000 0 0 1
25.551868 -20.049105 -34.612165 47.464372 -0.665307 2.387984 0.012973 -0.002115 -365261.000000 0 0 1
26.080208 -20.097605 33.173877 46.739674 -0.656560 0.781641 0.015376 -0.003638 -328692.000000 0 0 1
26.960828 -19.033705 32.948977 46.634786 -0.614726 0.786210 -0.011062 -0.004943 926.121000 0 0 1
27.309668 -19.008105 31.577977 45.872592 -0.608051 0.811537 -0.007501 -0.009905 -546874.000000 0 0 1
26.243298 -18.359305 30.671077 44.345121 -0.610444 0.807032 -0.013016 -0.002482 -227104.000000 0 0 1
26.204748 -17.007305 30.998177 44.009365 -0.575683 0.789283 -0.013415 -0.005638 -141713.000000 0 0 1
25.360308 -16.300505 30.196277 42.669273 -0.571266 0.784584 0.000362 -0.001599 -754539.000000 0 0 1
24.979598 -14.883005 30.709477 42.291325 -0.537330 0.758103 0.004876 -0.002564 -346699.000000 0 0 1
25.953598 -13.925605 30.404977 42.331718 -0.492464 0.769505 -0.001415 0.001170 -46132.500000 0 0 1
25.888978 -12.809305 31.226477 42.537164 -0.459462 0.746458 0.009183 0.000028 -510302.000000 0 0 1
27.233818 -12.094705 31.288677 43.208148 -0.417942 0.761012 -0.000684 0.003269 -610886.000000 0 0 1
27.507608 -11.505605 30.037077 42.323439 -0.396156 0.781720 -0.012212 0.000628 819704.000000 0 0 1
28.901348 -11.154605 29.961977 43.097949 -0.368340 0.802089 -0.014508 0.004556 734114.000000 0 0 1
29.354738 -10.489305 28.680277 42.358995 -0.343189 0.827014 -0.011596 0.002941 -246851.000000 0 0 1
29.143478 -9.127205 28.580077 41.826654 -0.303506 0.818526 -0.009158 0.007324 37414.300000 0 0 1
29.451498 -8.692905 27.274277 41.071201 -0.287011 0.844543 -0.010416 0.013047 -126392.000000 0 0 1
29.428638 -7.145205 27.154477 40.675107 -0.238189 0.839823 -0.008421 0.012517 273787.000000 0 0 1
28.148678 -6.523305 27.103277 39.616780 -0.227725 0.817377 -0.008846 0.015840 -144566.000000 0 0 1
28.136388 -5.097205 27.104977 39.399462 -0.179217 0.812132 0.002707 0.018665 502127.000000 0 0 1
26.669058 -4.610705 26.926977 38.177996 -0.171194 0.787949 -0.000029 0.016349 699985.000000 0 0 1
26.133528 -4.854005 25.598877 36.902915 -0.183646 0.804208 0.003300 0.015857 481341.000000 0 0 1
24.727408 -4.638605 25.530677 35.843784 -0.185435 0.778060 0.009945 0.016030 -12184.100000 0 0 1
24.348188 -5.233605 24.177277 34.709734 -0.211727 0.800210 0.000886 0.016830 -423313.000000 0 0 1
24.647888 -4.352005 23.131177 34.080929 -0.174766 0.824787 0.010473 0.023132 269693.000000 0 0 1
24.576088 -4.979805 21.890877 33.286530 -0.199921 0.853102 0.007197 0.019715 -39383.100000 0 0 1
24.849068 -3.996005 20.704977 32.590494 -0.159446 0.882390 0.013177 0.013238 -164142.000000 0 0 1
23.976988 -2.906905 20.653377 31.779050 -0.120648 0.863336 0.012737 0.016667 -22949.600000 0 0 1
24.490588 -1.872605 19.784377 31.539137 -0.076314 0.892720 0.016985 0.014100 -590922.000000 0 0 1
23.428188 -0.920105 19.288377 30.360634 -0.039253 0.882388 -0.008718 0.016825 -13478.900000 0 0 1
22.569388 -1.598605 18.331177 29.119837 -0.070713 0.889876 0.012546 0.008107 1029290.000000 0 0 1
21.515188 -0.728405 17.843277 27.960981 -0.033842 0.878704 0.011964 0.012488 370513.000000 0 0 1
20.399288 -1.362605 17.059977 26.627626 -0.066698 0.875403 0.006613 0.008214 -515470.000000 0 0 1
20.872288 -2.089305 15.913877 26.330004 -0.099767 0.921783 0.011518 -0.007843 334172.000000 0 0 1
19.935988 -3.046305 15.398277 25.373816 -0.151631 0.918696 0.021558 -0.012913 107753.000000 0 0 1
20.300088 -3.516505 13.971977 24.893283 -0.171524 0.974871 0.021233 -0.020791 490202.000000 0 1 0
19.112088 -4.024405 13.348677 23.657027 -0.207537 0.971262 0.022884 -0.021427 1102090.000000 0 1 0
19.319788 -4.416505 12.007077 23.171742 -0.224738 1.026078 0.023599 -0.024130 -295052.000000 0 1 0
18.254688 -5.446305 11.592477 22.299807 -0.289943 1.024125 0.012492 -0.020875 -179581.000000 0 1 0
18.409388 -6.733005 12.197577 23.087222 -0.350626 1.014169 0.027909 -0.015005 805152.000000 0 1 0
17.270688 -7.502005 11.839177 22.242366 -0.409787 1.009504 0.014188 -0.008280 -259575.000000 0 1 0
17.161388 -8.961205 12.276377 22.924351 -0.481228 1.005677 0.009397 -0.002953 -520823.000000 0 1 0
18.029288 -9.801805 11.563177 23.554993 -0.497963 1.057672 -0.001385 -0.005138 463126.000000 0 1 0
17.612988 -11.169805 11.546277 23.839010 -0.565173 1.065183 -0.000617 -0.003227 34492.500000 0 1 0
18.307088 -11.969005 10.410377 24.223594 -0.579035 1.126567 -0.000074 -0.000112 37369.400000 0 1 0
17.917188 -11.581805 9.105977 23.196609 -0.573846 1.167387 0.010592 0.003493 668074.000000 0 1 0
18.951088 -11.941405 8.174177 23.844456 -0.562271 1.220887 0.011312 0.000564 119983.000000 0 1 0
18.738288 -11.417805 6.742877 22.955525 -0.547252 1.272663 0.011576 0.007310 -343950.000000 0 1 0
18.976988 -10.034605 6.609777 22.461267 -0.486404 1.272100 0.016002 0.004482 545348.000000 0 1 0
19.142288 -9.591105 5.273877 22.050630 -0.464481 1.329284 -0.024008 0.000256 -535395.000000 0 1 0
19.720888 -8.162005 5.127977 21.950579 -0.392411 1.335003 -0.000553 -0.000981 -476748.000000 0 1 0
20.212788 -7.897405 3.787977 22.028949 -0.372475 1.397983 -0.003249 -0.001947 665352.000000 0 1 0
20.736588 -6.594405 3.692777 22.070996 -0.307895 1.402692 0.015459 -0.004420 -597038.000000 0 1 0
21.573088 -6.331205 2.429177 22.613783 -0.285462 1.463168 0.018201 -0.004265 -138015.000000 0 1 0
20.671988 -6.010805 1.392777 21.573148 -0.282968 1.506191 0.009474 -0.018264 800104.000000 0 1 0
21.365988 -5.284605 0.414477 22.013730 -0.242471 1.551967 0.029449 -0.012689 -5742.350000 0 1 0
-25.079795 -16.248405 -0.231123 29.884113 0.574875 1.578530 0.037087 0.006530 -312216.000000 0 0 1
-24.132815 -15.390705 -0.815023 28.634434 0.567715 1.599263 0.031841 0.007563 40732.000000 0 0 1
-22.785215 -15.799705 -0.658023 27.734990 0.606296 1.594524 0.032939 0.006030 400864.000000 0 0 1
-22.079315 -15.279705 0.605277 26.857623 0.605362 1.548258 0.016838 0.008183 -646919.000000 0 0 1
-22.465815 -15.942605 1.770277 27.604590 0.617165 1.506622 0.025562 0.013855 102761.000000 0 0 1
-21.842615 -15.405105 2.946577 26.890508 0.614259 1.460999 0.026890 0.028678 191262.000000 0 0 1
-22.374915 -16.093705 4.196977 27.879361 0.623545 1.419681 0.035763 0.028601 -487231.000000 0 0 1
-22.019015 -17.474105 4.230877 28.426778 0.670821 1.421407 0.034706 0.026535 257717.000000 0 0 1
-22.355115 -18.105905 5.449877 29.279278 0.680762 1.383570 0.041051 0.016442 -193918.000000 0 0 1
-22.355915 -19.636905 5.357677 30.234081 0.720739 1.392649 0.031884 0.019555 35166.600000 0 0 1
-22.860515 -20.326005 6.507077 31.274457 0.726778 1.361201 0.024163 0.012329 88351.500000 0 0 1
-22.818215 -21.718005 6.433877 32.151788 0.760699 1.369327 0.027837 0.006951 884337.000000 0 0 1
-23.809815 -22.480405 7.441977 33.580633 0.756687 1.347326 0.037232 0.003732 863800.000000 0 0 1
-23.081115 -22.665105 8.622077 33.478128 0.776305 1.310317 0.035418 0.006396 157583.000000 0 0 1
-23.826915 -23.439705 9.538977 34.758218 0.777206 1.292791 0.049154 0.006571 392066.000000 0 0 1
-22.955115 -23.906605 10.747877 34.842215 0.805700 1.257209 0.018635 0.003686 423931.000000 0 0 1
-22.845115 -22.885505 11.735177 34.400000 0.786281 1.222668 0.042817 0.002318 765605.000000 0 0 1
-21.736215 -23.191205 12.617577 34.197928 0.817772 1.192909 0.026536 0.006449 726092.000000 0 0 1
-21.893615 -22.356005 13.936777 34.254271 0.795847 1.151780 0.018099 0.008325 -135488.000000 0 0 1
-22.960315 -22.821105 14.718977 35.561597 0.782357 1.144061 0.030811 0.003916 -162029.000000 0 0 1
-23.381815 -21.820605 15.634777 35.599078 0.750874 1.116099 0.034061 0.017074 -219026.000000 0 0 1
-24.777615 -22.140005 16.205077 36.969103 0.729239 1.117044 0.029576 0.008885 -638886.000000 0 0 1
-25.895445 -21.934805 15.389877 37.263361 0.702780 1.145047 0.029338 0.001993 -8859.130000 0 0 1
-26.254155 -23.022305 14.518177 37.816460 0.719906 1.176768 0.027637 0.002352 -515628.000000 0 0 1
-27.199835 -24.040605 15.164877 39.341520 0.723821 1.175082 0.022562 -0.003470 -516256.000000 0 0 1
-26.703635 -24.716905 16.295577 39.869228 0.746780 1.149739 0.011595 0.003506 41328.400000 0 0 1
-27.562565 -25.786395 16.715377 41.279983 0.752117 1.153897 0.001273 0.008724 140855.000000 0 0 1
-27.457615 -27.140035 15.912477 41.757742 0.779581 1.179847 0.004992 0.006879 123203.000000 0 0 1
-28.086925 -27.188915 14.638077 41.741894 0.769154 1.212498 0.012094 -0.001477 187663.000000 0 0 1
-29.459395 -27.557555 14.671477 42.924667 0.752055 1.221969 0.032463 -0.014160 267368.000000 0 0 1
-30.005685 -27.840085 13.258277 43.025497 0.747978 1.257549 0.036338 -0.024175 25639.700000 0 0 1
-29.401465 -28.961885 12.628577 43.159215 0.777867 1.273847 0.043687 -0.027692 194123.000000 0 0 1
-30.008935 -29.188155 11.392077 43.385066 0.771534 1.305101 0.034599 -0.025971 124879.000000 0 0 1
-29.220765 -30.338235 10.731177 43.467456 0.804158 1.321339 0.034384 -0.023743 259406.000000 0 0 1
-29.393935 -31.541145 11.428477 44.603333 0.820621 1.311682 0.033279 -0.017114 -113717.000000 0 0 1
-28.776205 -32.634515 10.745677 44.816862 0.848144 1.328669 0.034108 -0.021904 -180094.000000 0 0 1
-28.945525 -33.996595 11.419077 46.086953 0.865476 1.320416 0.029043 -0.011905 -119959.000000 0 0 1
-30.289425 -34.401907 11.417677 47.236679 0.848884 1.326666 0.031666 -0.009484 -259522.000000 0 0 1
-30.337385 33.761625 11.827377 46.905129 -0.838769 1.315889 0.027274 -0.008004 -990465.000000 0 0 1
-31.661875 33.221262 12.354677 47.526462 -0.809427 1.307822 0.047966 -0.008193 -664624.000000 0 0 1
-32.658965 32.928202 11.438777 47.767354 -0.789503 1.328978 0.033350 -0.007043 -87310.600000 0 0 1
-33.360045 34.067313 10.891577 48.909108 -0.795887 1.346223 0.045138 -0.004106 -1571470.000000 0 0 1
-34.720628 33.619110 10.453477 49.447363 -0.769281 1.357783 0.035470 0.007395 -1214180.000000 0 0 1
34.823095 32.890602 9.228677 48.781227 0.756867 1.380464 0.025527 0.004858 -1026340.000000 0 0 1
33.501178 32.543582 9.086977 47.581370 0.770900 1.378638 0.028005 0.004601 -1007470.000000 0 0 1
33.193768 32.053292 7.619277 46.768506 0.767921 1.407152 0.031171 0.003813 65489.700000 0 0 1
33.661868 30.746742 7.310777 46.172838 0.740169 1.411792 0.031335 0.004440 -120021.000000 0 0 1
33.335568 30.375382 6.015777 45.498500 0.738969 1.438189 0.042462 0.000616 101638.000000 0 0 1
33.535398 28.918382 5.655877 44.641737 0.711605 1.443760 0.033438 0.004841 79358.500000 0 0 1
32.692908 28.054352 6.401577 43.552877 0.709188 1.423278 0.038198 -0.000656 92892.100000 0 0 1
33.297768 27.472382 7.572877 43.827179 0.689831 1.397135 0.024374 0.000162 155840.000000 0 0 1
32.399498 26.369072 8.161677 42.563698 0.683143 1.377849 0.018035 -0.008014 2035.090000 0 0 1
32.410568 25.210172 7.333977 41.710729 0.661081 1.394048 0.024831 -0.012077 246812.000000 0 0 1
31.392328 24.278092 7.679677 40.421300 0.658295 1.379644 0.011434 -0.007923 -371303.000000 0 0 1
31.447468 22.943492 6.786577 39.514614 0.630305 1.398192 0.003719 -0.004457 460470.000000 0 0 1
32.469768 21.955292 7.041077 39.823328 0.594557 1.393054 0.005243 -0.006179 -86322.900000 0 0 1
33.810639 22.312692 6.971377 41.104935 0.583325 1.400373 0.026308 -0.009642 -934352.000000 0 0 1
34.762751 21.132892 6.886877 41.261084 0.546221 1.403102 0.017583 -0.012676 -504085.000000 0 0 1
34.767908 20.344892 5.729477 40.688438 0.529438 1.429513 0.022962 -0.013783 -35513.300000 0 0 1
-34.504231 19.030392 5.970877 39.854098 -0.504023 1.420412 0.027414 -0.015085 -323688.000000 0 0 1
34.780573 18.021392 4.870777 39.473831 0.478058 1.447088 0.017363 -0.011429 -574265.000000 0 0 1
-34.416765 18.038492 3.589377 39.022872 -0.482756 1.478685 0.020351 -0.004632 -385572.000000 0 0 1
-34.857916 16.916492 2.883877 38.853041 -0.451817 1.496503 0.006010 -0.005429 -907871.000000 0 0 1
-33.958365 16.322992 1.749577 37.718320 -0.448070 1.524394 0.010061 0.009399 462824.000000 0 0 1
-32.800075 15.558592 2.070777 36.362107 -0.442915 1.513817 0.024762 -0.003801 204220.000000 0 0 1
-31.720905 16.336992 2.490577 35.767529 -0.475594 1.501108 0.028535 -0.003684 -731551.000000 0 0 1
-30.424035 15.529792 2.764577 34.270092 -0.471969 1.490038 0.015084 0.001009 152963.000000 0 0 1
-30.441685 14.663992 3.939977 34.018411 -0.448907 1.454717 0.018364 -0.004096 496383.000000 0 0 1
-29.140965 14.161892 4.215577 32.673018 -0.452368 1.441412 0.009872 0.006543 242796.000000 0 0 1
-29.098375 13.606092 5.655777 32.616391 -0.437385 1.396512 0.012537 0.006498 -336747.000000 0 0 1
-29.394675 12.241292 5.766277 32.359637 -0.394603 1.391646 0.007541 0.004903 479169.000000 0 0 1
-29.022265 11.711392 7.050877 32.080577 -0.383547 1.349201 0.006046 0.005554 -276827.000000 0 0 1
-29.137125 10.149392 7.150077 31.671846 -0.335188 1.343078 0.008253 -0.000074 576915.000000 0 0 1
-30.488285 9.687792 7.093677 32.767501 -0.307665 1.352584 -0.007849 0.001015 525609.000000 0 0 1
-30.509365 8.263692 7.027477 32.380479 -0.264511 1.352027 -0.008903 0.000495 -331340.000000 0 0 1
-31.953365 7.792092 6.912777 33.608343 -0.239190 1.363631 -0.012279 0.006429 -712217.000000 0 0 1
-32.673475 7.870092 8.081277 34.565899 -0.236368 1.334819 -0.021976 0.006596 -178966.000000 0 0 1
-33.938035 7.233692 7.945577 35.598437 -0.210002 1.345700 -0.031208 0.004360 279655.000000 0 0 1
-34.529879 6.633392 9.231877 36.353019 -0.189794 1.314034 -0.019557 0.004959 -295434.000000 0 0 1
34.687763 7.603092 10.124677 36.926373 0.215774 1.293054 -0.012165 0.008616 -239812.000000 0 0 1
-34.130739 8.325492 10.890877 36.780870 -0.239257 1.270188 -0.002730 0.003504 -555836.000000 0 0 1
-34.861597 9.292092 11.813277 37.963501 -0.260486 1.254368 -0.002078 -0.007283 -377210.000000 0 0 1
34.141020 8.657192 12.844677 37.490558 0.248337 1.221102 -0.015774 -0.002750 392134.000000 0 0 1
33.585558 9.590692 13.728777 37.529327 0.278157 1.196288 -0.001575 -0.009787 -517934.000000 0 0 1
32.918518 8.950592 14.951577 37.246364 0.265483 1.157725 -0.021434 -0.004682 -1148100.000000 0 0 1
31.612818 8.547092 14.782277 35.929636 0.264055 1.146782 -0.023624 -0.002679 -772612.000000 0 0 1
31.169628 8.007592 16.035477 35.955581 0.251466 1.108527 -0.027962 0.004955 29439.600000 0 0 1
29.696238 7.547392 16.000877 34.566715 0.248884 1.089534 -0.029411 0.017290 -349267.000000 0 0 1
28.826418 8.645592 16.016977 34.091820 0.291383 1.081711 -0.039112 0.010698 -408054.000000 0 0 1
27.457718 8.403392 16.190577 32.964801 0.296997 1.057390 -0.032150 0.015059 -51624.800000 0 0 1
26.848318 7.813892 17.468277 32.970135 0.283215 1.012407 -0.026646 0.023042 -615372.000000 0 0 1
26.897868 8.705692 18.557877 33.818326 0.313017 0.989926 -0.016295 0.002648 149020.000000 0 0 1
26.268348 8.341392 19.782877 33.925907 0.307475 0.948232 -0.007079 0.009758 -208159.000000 0 0 1
26.791528 7.084492 20.580777 34.518754 0.258513 0.932012 -0.012645 0.015171 -251558.000000 0 0 1
26.203288 6.941292 21.824977 34.801199 0.258954 0.892929 -0.011822 0.018381 -191252.000000 0 0 1
26.529298 5.718692 22.442477 35.216074 0.212313 0.879834 -0.012487 0.021521 -331848.000000 0 0 1
25.844898 5.576792 23.861077 35.614749 0.212521 0.836618 0.001540 0.026591 -75557.500000 0 0 1
24.492988 5.234592 23.942377 34.648879 0.210550 0.807925 -0.011017 0.025461 -579390.000000 0 0 1
23.689488 6.397992 23.832377 34.206847 0.263784 0.799990 -0.007119 0.028665 -404823.000000 0 0 1
22.174988 6.121792 23.909977 33.179714 0.269358 0.766100 -0.001102 0.024369 33631.100000 0 0 1
21.691088 5.332292 22.852177 31.955573 0.241049 0.773996 -0.009999 0.034243 797670.000000 0 0 1
20.255488 5.359292 22.798977 30.964499 0.258658 0.743219 -0.009485 0.019563 85051.000000 0 0 1
19.720988 4.363492 21.719777 29.659841 0.217753 0.749109 0.004990 0.019184 983111.000000 0 0 1
18.335188 4.452792 21.334377 28.480908 0.238243 0.724129 0.009954 0.009010 1486710.000000 0 0 1
17.435288 3.887192 22.301677 28.573840 0.219362 0.675343 0.018696 0.003628 530900.000000 0 0 1
15.970588 3.669092 21.804977 27.275977 0.225822 0.644466 0.029527 0.006097 266677.000000 0 0 1
15.894488 2.613492 20.903177 26.389542 0.162969 0.656553 0.021921 0.005137 -34734.300000 0 0 1
14.618088 2.497292 20.321577 25.157334 0.169202 0.630421 0.026135 -0.006555 -22876.500000 0 0 1
13.624588 1.567792 21.077277 25.146351 0.114567 0.576851 0.013709 -0.003768 -405788.000000 0 0 1
14.041888 0.192992 20.997077 25.260426 0.013743 0.589490 0.002795 -0.003289 -115428.000000 0 0 1
13.188288 -0.601508 21.719477 25.417090 -0.045578 0.546165 -0.011000 -0.003732 -563017.000000 0 0 1
13.569988 -2.037308 21.909177 25.851639 -0.149020 0.559545 -0.025389 0.000824 -133223.000000 0 0 1
13.448388 -2.748008 20.685177 24.825133 -0.201563 0.585863 -0.015057 0.005239 50763.100000 0 1 0
13.907488 -4.051408 20.811077 25.356125 -0.283467 0.608071 -0.006822 0.010743 -280342.000000 0 0 1
13.796388 -4.850008 19.522777 24.392657 -0.338048 0.642910 -0.009994 0.009490 190410.000000 0 1 0
12.484888 -4.809608 18.965877 23.210111 -0.367713 0.614367 -0.000708 -0.000722 179878.000000 0 1 0
12.371688 -5.416208 17.729877 22.287721 -0.412654 0.650964 0.009034 -0.000091 -256506.000000 0 1 0
10.921488 -5.427308 17.243777 21.120664 -0.461195 0.615576 0.012323 -0.007698 308576.000000 0 1 0
10.126588 -6.359008 18.009777 21.617975 -0.560719 0.586121 0.006434 -0.002839 -861384.000000 0 1 0
8.765488 -6.268008 17.773477 20.785047 -0.620774 0.545036 0.010629 -0.015788 -663350.000000 0 1 0
7.938988 -6.865508 18.928677 21.643880 -0.713014 0.506287 0.018758 -0.012444 -331653.000000 0 1 0
7.865588 -8.308708 18.928877 22.117968 -0.812788 0.543673 0.003498 -0.006136 -29486.000000 0 1 0
8.998388 -9.011608 19.408477 23.213553 -0.786132 0.580691 0.012963 -0.011631 -278735.000000 0 1 0
9.019088 -10.543008 19.069877 23.583028 -0.863143 0.628981 0.015122 -0.012073 141461.000000 0 1 0
9.228988 -10.669108 17.668277 22.609116 -0.857647 0.673783 0.007141 -0.004778 198928.000000 0 1 0
9.722388 -11.933108 17.208777 23.088220 -0.887132 0.729738 0.000572 -0.008524 197409.000000 0 1 0
9.811988 -12.024808 15.658177 22.046533 -0.886388 0.780967 0.003210 -0.011309 334571.000000 0 1 0
10.417588 -13.185908 15.100877 22.592716 -0.902149 0.838746 -0.006324 -0.007327 419377.000000 0 1 0
9.955688 -13.210308 13.717077 21.489211 -0.924976 0.878477 -0.008347 -0.004656 -350565.000000 0 1 0
10.455088 -14.396908 12.872277 21.960769 -0.942700 0.944499 -0.014056 -0.007649 301726.000000 0 1 0
11.843088 -14.372208 12.582177 22.475104 -0.881575 0.976619 -0.028531 -0.001944 244177.000000 0 1 0
12.212488 -13.423608 11.576977 21.525904 -0.832606 1.002952 -0.031192 -0.001949 -793.066000 0 1 0
13.688488 -13.415008 11.055677 22.126119 -0.775308 1.047583 -0.021243 0.001173 677588.000000 0 1 0
14.094588 -14.358408 10.078377 22.503222 -0.794670 1.106422 -0.021934 -0.001239 -738177.000000 0 1 0
15.442688 -14.147908 9.798977 23.122714 -0.741670 1.133180 -0.014240 -0.004096 -857625.000000 0 1 0
16.161388 -15.473908 9.461577 24.293080 -0.763670 1.170733 -0.014874 0.000127 -92057.600000 0 1 0
16.404688 -16.385908 10.525977 25.463856 -0.784825 1.144645 -0.015324 0.004118 589644.000000 0 0 1
15.273788 -17.208308 10.861877 25.443955 -0.844884 1.129741 -0.017578 0.007480 602651.000000 0 0 1
15.385788 -17.757008 12.298177 26.519408 -0.856822 1.088582 -0.024331 0.008078 142592.000000 0 0 1
16.471688 -18.682208 12.436377 27.838910 -0.848197 1.107693 -0.011714 0.000031 351886.000000 0 0 1
16.653088 -19.312508 13.702177 28.949058 -0.859207 1.077740 -0.025829 -0.003383 -486104.000000 0 0 1
17.889988 -20.244908 13.778177 30.327317 -0.847072 1.099192 -0.032184 -0.009215 -145185.000000 0 0 1
19.006188 -19.464508 13.451377 30.348671 -0.797311 1.111600 -0.027362 -0.007399 -706507.000000 0 0 1
20.049688 -20.311508 12.986777 31.356080 -0.791885 1.143765 -0.036125 -0.007206 493641.000000 0 0 1
21.099488 -19.687808 12.031277 31.265793 -0.750801 1.175798 -0.008213 -0.002603 -40742.600000 0 0 1
20.835288 -19.621108 10.643777 30.535015 -0.755395 1.214745 -0.009535 0.001468 256997.000000 0 0 1
19.742388 -18.797208 10.198677 29.105153 -0.760878 1.212790 -0.007155 0.007037 490334.000000 0 0 1
19.916988 -17.292808 10.287577 28.311868 -0.714991 1.198918 -0.001027 0.006609 23600.100000 0 0 1
20.669488 -16.626108 9.289877 28.106174 -0.677406 1.233933 0.006885 0.013933 -81042.100000 0 0 1
20.605388 -15.251108 9.467077 27.327713 -0.637168 1.217036 0.000906 0.005885 87519.000000 0 0 1
-33.283205 24.964395 8.108477 42.387972 -0.643539 1.378318 0.036677 0.001241 -96744.500000 0 0 1
-32.214735 24.240795 8.672277 41.238498 -0.645083 1.358919 0.031148 -0.007839 -119665.000000 0 0 1
-31.345235 25.141095 9.329077 41.250820 -0.676002 1.342668 0.028715 0.005414 -338332.000000 0 0 1
-30.161065 24.385895 9.971177 40.047299 -0.679916 1.319164 0.023567 -0.010061 -195047.000000 0 0 1
-29.235825 23.818395 9.090877 38.790379 -0.683640 1.334237 0.012936 -0.007386 -152679.000000 0 0 1
-28.410515 22.870295 9.680477 37.734857 -0.677779 1.311356 0.015854 -0.008127 217072.000000 0 0 1
-27.666705 21.798595 8.815677 36.308973 -0.667319 1.325549 0.023063 -0.012605 406360.000000 0 0 1
-28.621595 20.924295 8.240877 36.399642 -0.631273 1.342416 0.021609 -0.018069 529248.000000 0 0 1
-28.042785 20.226095 7.130077 35.303410 -0.624851 1.367432 0.018880 -0.015925 -198750.000000 0 0 1
-29.016345 19.479295 6.212177 35.496231 -0.591218 1.394881 0.016372 -0.009403 -703782.000000 0 0 1
-29.618935 18.348795 6.778377 35.495155 -0.554631 1.378650 0.016368 -0.005937 251307.000000 0 0 1
-30.592075 17.917195 5.838777 35.930381 -0.529824 1.407570 0.007634 -0.006544 -85963.800000 0 0 1
-31.404325 16.704595 6.351977 36.133402 -0.488856 1.394086 0.023572 0.001005 -336599.000000 0 0 1
-32.201355 17.011095 7.478477 37.178384 -0.486009 1.368263 0.019632 -0.007010 17061.800000 0 0 1
-32.941525 15.840595 7.814877 37.378347 -0.448227 1.360167 0.020599 -0.008155 -222791.000000 0 0 1
-33.806905 16.265295 9.023577 38.586158 -0.448433 1.334755 0.022433 -0.020902 -429075.000000 0 0 1
-34.757299 17.247195 8.698977 39.764404 -0.460617 1.350250 0.018052 -0.020018 -246523.000000 0 0 1
34.339961 17.600695 9.910377 39.840093 0.473631 1.319403 0.018219 -0.017178 86624.400000 0 0 1
33.355838 18.778195 9.797077 39.512217 0.512743 1.320232 0.011280 -0.021180 544590.000000 0 0 1
32.114908 18.590495 9.125277 38.213146 0.524741 1.329667 -0.005068 -0.018304 594610.000000 0 0 1
31.288958 19.747795 9.230377 38.133636 0.563004 1.326315 -0.008223 -0.011567 1039040.000000 0 0 1
29.956958 19.714395 8.388677 36.829969 0.582042 1.341012 -0.024460 -0.012326 1092530.000000 0 0 1
29.257098 21.008595 8.416177 36.988794 0.622750 1.341253 -0.034333 -0.007424 1105490.000000 0 0 1
28.072278 21.242695 7.619877 36.018987 0.647784 1.357634 -0.022691 -0.016248 753132.000000 0 0 1
28.154968 20.983995 6.141777 35.647605 0.640489 1.397641 -0.046133 0.004637 -593369.000000 0 0 1
28.074078 19.582395 5.924177 34.737875 0.609064 1.399419 -0.032495 -0.003760 -46244.200000 0 0 1
28.040358 19.170495 4.563977 34.272430 0.599685 1.437232 -0.029351 -0.003787 -268279.000000 0 0 1
26.713168 19.370795 3.798477 33.215200 0.627400 1.456186 -0.002995 0.004145 -362794.000000 0 0 1
25.630678 18.613895 4.331677 31.971428 0.628117 1.434892 -0.005829 -0.001497 -183847.000000 0 0 1
24.356488 19.050195 4.012777 31.180937 0.663756 1.441745 0.022168 -0.002568 -468840.000000 0 0 1
23.808488 20.369895 4.642577 31.675389 0.707720 1.423699 0.041364 -0.004300 -531321.000000 0 0 1
24.436888 21.529295 4.135977 32.829535 0.722227 1.444477 0.035501 -0.006676 205351.000000 0 0 1
23.749488 22.668195 4.585177 33.149798 0.762108 1.432035 0.031783 -0.004078 -46168.600000 0 0 1
24.509288 23.967095 4.265677 34.544506 0.774214 1.446997 0.009064 -0.001270 573180.000000 0 0 1
25.701038 24.096595 5.045877 35.590029 0.753190 1.428539 -0.005496 -0.002349 -6587.000000 0 0 1
26.496428 25.173595 4.726877 36.852598 0.759802 1.442178 -0.008295 0.000052 -10682.800000 0 0 1
27.837438 25.101995 5.595177 37.899065 0.733773 1.422621 -0.016581 0.001065 780471.000000 0 0 1
28.727268 24.023095 5.309177 37.822644 0.696455 1.429961 -0.012083 -0.004300 332109.000000 0 0 1
29.177858 23.832695 3.916277 37.877196 0.684906 1.467217 -0.004340 -0.005464 -568012.000000 0 0 1
30.088418 24.926095 3.333677 39.213984 0.691836 1.485681 -0.000069 -0.003407 -1081010.000000 0 0 1
29.487778 26.176395 3.261277 39.564740 0.725980 1.488274 0.002448 -0.004613 -577630.000000 0 0 1
30.294808 27.040795 2.509377 40.685096 0.728705 1.509079 0.015632 0.000734 -642590.000000 0 0 1
29.732058 28.503695 2.281977 41.251223 0.764308 1.515449 0.017339 0.002914 889302.000000 0 0 1
28.472478 28.721595 1.656177 40.476598 0.789754 1.529868 0.026624 0.005161 343003.000000 0 0 1
27.340808 28.254295 2.352277 39.387285 0.801828 1.511039 0.013266 0.000143 -390561.000000 0 0 1
25.991408 28.914895 2.026677 38.932402 0.838593 1.518716 -0.003856 0.000040 -59855.000000 0 0 1
25.897948 30.235195 2.487777 39.888091 0.862512 1.508387 0.000108 -0.008330 820420.000000 0 0 1
24.623988 30.872495 2.228477 39.552723 0.897519 1.514425 -0.004136 0.001397 885358.000000 0 0 1
24.520988 32.354695 2.762277 40.690728 0.922271 1.502859 -0.011457 -0.011483 -142053.000000 0 0 1
24.210488 32.519495 4.125377 40.751491 0.930830 1.469390 -0.014344 -0.023472 414615.000000 0 0 1
25.351508 32.228795 4.941277 41.301458 0.904273 1.450870 -0.013602 -0.019995 108744.000000 0 0 1
25.117278 31.943395 6.458277 41.145687 0.904461 1.413183 -0.012144 -0.020082 -184866.000000 0 0 1
24.323988 30.842695 6.794477 39.863432 0.903017 1.399516 -0.011545 -0.020999 274739.000000 0 0 1
25.014858 29.609095 6.545377 39.310096 0.869307 1.403511 -0.002833 -0.020230 105332.000000 0 0 1
24.220688 28.480795 7.207777 38.075576 0.866057 1.380345 0.011459 -0.016960 -312396.000000 0 0 1
23.014488 28.334295 6.510377 37.079428 0.888631 1.394302 -0.006250 -0.023939 -549626.000000 0 0 1
22.625988 26.985795 6.660177 35.840291 0.873051 1.383881 0.010157 -0.017630 12661.000000 0 0 1
21.366488 26.706495 5.790377 34.688502 0.896026 1.403086 0.020858 -0.010531 -102176.000000 0 0 1
21.626888 26.522095 4.404477 34.504250 0.886718 1.442797 0.023907 -0.008547 362521.000000 0 0 1
22.079988 27.680895 3.676677 35.598817 0.897483 1.467331 0.014772 -0.007410 -116681.000000 0 0 1
22.374488 27.448795 2.169977 35.479049 0.886894 1.509596 0.013641 0.003817 -574156.000000 0 0 1
23.391688 26.537995 1.936977 35.428635 0.848330 1.516096 0.006718 0.013751 -447561.000000 0 0 1
23.378188 26.186395 0.566777 35.108236 0.841995 1.554652 0.014552 0.016061 264631.000000 0 0 1
24.693828 25.425795 0.188677 35.444207 0.800002 1.565473 0.022715 0.012211 -303057.000000 0 0 1
25.759088 26.370595 0.014977 36.863792 0.797128 1.570390 0.026752 0.016471 570168.000000 0 0 1
26.742278 26.010995 -0.970923 37.318414 0.771537 1.596817 0.011450 0.026770 277458.000000 0 0 1
27.654688 24.828295 -0.673223 37.170947 0.731597 1.588909 0.005916 0.015035 -1438780.000000 0 0 1
26.936868 23.628695 -0.468023 35.834748 0.720068 1.583857 0.011599 0.009777 -160812.000000 0 0 1
27.468558 22.646295 0.400677 35.602485 0.689469 1.559542 0.003187 0.004936 -107744.000000 0 0 1
26.310908 21.720695 0.830377 34.128317 0.690121 1.546463 0.007214 -0.003017 208048.000000 0 0 1
25.912708 20.666195 -0.031123 33.144548 0.673234 1.571735 0.027680 -0.010707 912719.000000 0 0 1
24.763088 20.011195 0.530277 31.842419 0.679664 1.554142 0.037502 -0.006396 257264.000000 0 0 1
24.202188 18.857395 -0.293123 30.682783 0.661904 1.580350 0.045476 -0.019219 822334.000000 0 0 1
22.832788 18.530795 0.043177 29.406266 0.681766 1.569328 0.044166 -0.012007 998891.000000 0 0 1
22.343488 17.466495 -0.688723 28.368720 0.663499 1.595076 0.036821 -0.030194 1144080.000000 0 0 1
20.798588 17.247195 -0.355523 27.021721 0.692323 1.583954 0.014025 -0.007948 541420.000000 0 0 1
20.255988 16.460495 -1.387223 26.137662 0.682391 1.623895 0.008022 -0.010855 815231.000000 0 0 1
18.916788 16.034695 -1.076823 24.821682 0.703124 1.614192 0.010876 -0.005746 1025490.000000 0 1 0
17.740688 17.033495 -1.295223 24.628228 0.765064 1.623412 -0.000767 -0.005231 -295125.000000 0 1 0
17.796288 18.236195 -0.564523 25.486965 0.797606 1.592948 0.012826 -0.016193 -43964.600000 0 0 1
16.593388 18.918295 -0.828323 25.177938 0.850774 1.603701 -0.021694 -0.024742 -62222.400000 0 0 1
16.666288 20.364495 -0.370123 26.317576 0.884937 1.584861 -0.011572 -0.015434 -91159.500000 0 0 1
16.386888 20.501895 1.018477 26.265855 0.896491 1.532011 0.000094 -0.009452 -42400.400000 0 0 1
16.526288 21.783695 1.532677 27.386067 0.921780 1.514801 0.002558 -0.006809 381116.000000 0 0 1
15.433888 22.832095 1.117477 27.581846 0.976378 1.530270 -0.016249 -0.005286 -121670.000000 0 0 1
14.185888 22.587795 1.651077 26.724034 1.010019 1.508974 -0.019172 -0.004207 -989563.000000 0 0 1
13.128188 23.376395 1.185177 26.836725 1.059091 1.526619 -0.015555 -0.006360 335973.000000 0 0 1
11.820788 23.154795 1.981277 26.072995 1.098775 1.494733 -0.011312 -0.002900 205482.000000 0 0 1
12.009588 23.528295 3.345677 26.627137 1.098838 1.444814 -0.008928 0.000226 607353.000000 0 0 1
10.745388 23.574495 4.007977 26.216103 1.143125 1.417312 -0.008315 0.003502 585208.000000 0 0 1
10.968288 24.253295 5.406277 27.161618 1.146082 1.370417 -0.013065 0.005440 23838.700000 0 0 1
11.751288 23.561095 6.365077 27.087492 1.108143 1.333596 -0.015660 -0.003188 289918.000000 0 0 1
10.955388 22.772195 7.245577 26.288625 1.122394 1.291565 -0.011014 -0.006628 -705611.000000 0 0 1
11.755988 21.617695 7.875777 25.837103 1.072715 1.261042 0.001483 -0.006350 304877.000000 0 0 1
12.866188 22.036895 8.669577 26.950420 1.042338 1.243287 0.014819 0.003284 581864.000000 0 0 1
14.036888 22.202895 7.881377 27.424786 1.007029 1.279304 0.010639 0.003869 -799783.000000 0 0 1
15.394888 22.141495 8.585177 28.301125 0.963235 1.262589 0.029435 0.001680 -513360.000000 0 0 1
15.632688 20.859895 9.124977 27.618497 0.927671 1.234076 0.035868 0.004799 1440900.000000 0 0 1
16.902488 20.702495 9.832677 28.477517 0.886107 1.218261 0.037272 0.006591 1182460.000000 0 0 1
17.039688 21.510395 11.157577 29.623295 0.900854 1.184620 0.021199 0.006275 30854.500000 0 0 1
16.182788 21.024795 12.240077 29.218900 0.914806 1.138552 0.020982 0.006127 632887.000000 0 0 1
16.362488 21.684995 13.465177 30.319648 0.924387 1.110619 0.010443 0.020791 -332598.000000 0 0 1
17.565288 21.203695 14.290477 31.021828 0.878972 1.092059 0.016769 0.014597 556842.000000 0 0 1
18.780088 21.782095 13.806177 31.902381 0.859273 1.123241 0.026742 0.016258 743843.000000 0 0 1
19.900688 21.684195 14.706577 32.901750 0.828260 1.107405 0.017417 0.009090 1228210.000000 0 0 1
21.216088 22.325995 14.154577 33.895789 0.810883 1.140004 0.019073 0.007256 270322.000000 0 0 1
21.808388 21.619795 13.122777 33.395039 0.781056 1.166952 0.031980 0.014744 662343.000000 0 0 1
23.139888 22.110695 12.853277 34.489767 0.762658 1.188912 0.001253 0.007894 788024.000000 0 0 1
23.718788 21.412995 11.553477 33.979113 0.734352 1.223861 0.004037 0.010682 -167224.000000 0 0 1
23.282688 21.972195 10.378777 33.653825 0.756448 1.257288 0.011670 0.009628 190912.000000 0 0 1
24.077788 21.550795 9.311877 33.628674 0.730073 1.290227 0.019762 0.009599 -253681.000000 0 0 1
23.659588 22.401095 8.065977 33.565536 0.758082 1.328116 0.010382 0.001719 86259.800000 0 0 1
23.958488 23.783495 8.145877 34.727786 0.781733 1.334027 0.022444 0.001057 585079.000000 0 0 1
25.329608 24.162295 8.187177 35.950458 0.761817 1.341045 0.005704 -0.003302 -68839.700000 0 0 1
25.567058 25.571895 8.861177 37.230589 0.785493 1.330482 0.016683 -0.001297 -620033.000000 0 0 1
26.838208 26.105595 8.641477 38.424818 0.771561 1.343963 -0.007323 -0.002173 -189763.000000 0 0 1
27.276248 27.013995 9.638877 39.581026 0.780568 1.324800 -0.004186 -0.005137 -439522.000000 0 0 1
28.520298 27.737995 9.180277 40.829907 0.771493 1.344015 -0.003731 -0.003934 -706342.000000 0 0 1
28.293418 28.477995 7.982277 40.929580 0.788649 1.374514 0.000976 -0.002666 -212280.000000 0 0 1
29.419188 28.554195 7.155377 41.617666 0.770479 1.398007 0.013253 -0.003741 -374322.000000 0 0 1
29.245988 29.481395 5.969677 41.953755 0.789407 1.428020 0.038660 0.005483 70448.300000 0 0 1
29.206388 30.861795 6.308977 42.956568 0.812950 1.423394 0.037177 -0.002206 73066.900000 0 0 1
29.191178 31.743895 5.223877 43.440634 0.827266 1.450251 0.039740 -0.006581 -12170.700000 0 0 1
29.211028 33.162895 5.722377 44.562399 0.848671 1.442028 0.013930 0.003398 759044.000000 0 0 1
27.940968 33.557495 6.257177 44.112985 0.876473 1.428472 -0.007676 -0.000007 291591.000000 0 0 1
27.998958 -34.571001 6.553477 44.967142 -0.890050 1.424536 -0.012151 0.000250 -362239.000000 0 0 1
26.679098 -33.998401 7.061077 43.789546 -0.905444 1.408839 -0.009116 -0.006426 -261157.000000 0 0 1
25.771468 -33.945801 5.998777 43.040345 -0.921437 1.430965 -0.008937 -0.013486 -241062.000000 0 0 1
24.469588 -33.433201 6.263277 41.901889 -0.938984 1.420759 -0.012473 -0.015782 855802.000000 0 0 1
23.474388 -33.803101 5.111977 41.470819 -0.963808 1.447215 0.002253 -0.019868 10828.600000 0 0 1
23.820888 -33.181101 3.916077 41.033594 -0.948154 1.475215 -0.012668 -0.005824 -775348.000000 0 0 1
22.872688 -33.253401 2.913377 40.465248 -0.968285 1.498737 -0.004003 -0.007620 -560457.000000 0 0 1
23.408588 -32.443701 1.746777 40.045062 -0.945777 1.527162 -0.000581 -0.000265 -252439.000000 0 0 1
23.590288 -31.086001 1.915377 39.070575 -0.921641 1.521753 0.010675 0.003520 19082.900000 0 0 1
24.389888 -30.591001 0.841877 39.132911 -0.897710 1.549281 0.000880 -0.000524 -58466.800000 0 0 1
24.812438 -29.091401 1.088777 38.251172 -0.864613 1.542329 -0.012025 0.007289 32465.300000 0 0 1
23.739688 -28.148001 1.049677 36.837272 -0.870153 1.542297 0.006153 0.003144 209206.000000 0 0 1
23.288488 -27.910401 -0.273723 36.351329 -0.875428 1.578326 0.010885 0.010143 -245176.000000 0 0 1
22.118888 -26.925001 -0.427323 34.848006 -0.883082 1.583059 0.016051 0.008624 -244791.000000 0 0 1
22.422988 -25.572701 -0.151623 34.011416 -0.850929 1.575254 0.009199 0.002337 -127946.000000 0 0 1
22.433788 -25.115001 1.217177 33.697473 -0.841727 1.534668 0.005663 0.011110 118909.000000 0 0 1
21.050488 -24.844101 1.839777 32.614984 -0.867870 1.514357 0.017013 0.008784 101828.000000 0 0 1
21.260288 -24.068801 2.980577 32.251990 -0.847277 1.478249 0.004865 0.015046 -1656880.000000 0 0 1
20.148088 -23.941601 3.719477 31.511589 -0.871228 1.452485 0.011068 0.015621 -1653630.000000 0 0 1
20.281088 -23.150101 5.025377 31.184999 -0.851361 1.408943 0.005276 0.020457 -57005.700000 0 0 1
20.245988 -21.727801 4.967077 30.110949 -0.820687 1.405080 0.015832 0.025593 676203.000000 0 0 1
18.990788 -21.189301 4.511377 28.809530 -0.840060 1.413556 0.012087 0.020830 412020.000000 0 0 1
18.840588 -19.671401 4.702177 27.641314 -0.806968 1.399851 0.006033 0.017671 76254.100000 0 0 1
18.760388 -19.148201 6.038477 27.478519 -0.795628 1.349235 0.002226 0.021017 543676.000000 0 0 1
17.495188 -19.324501 6.695877 26.913802 -0.835040 1.319366 -0.006911 0.023490 755775.000000 0 0 1
18.193985 -26.740365 -12.370923 34.628138 -0.973350 1.936119 0.026218 -0.019845 27806.700000 0 0 1
18.516085 -25.400245 -12.685323 33.895947 -0.940889 1.954377 0.017744 -0.016282 -272300.000000 0 0 1
17.325585 -24.796205 -13.110023 32.968172 -0.960930 1.979758 0.011423 -0.014369 -321229.000000 0 0 1
17.441185 -23.329405 -13.646123 32.166329 -0.928830 2.008915 0.008730 -0.018052 -76932.900000 0 0 1
17.642085 -22.338005 -12.690323 31.165268 -0.902319 1.990177 0.006829 -0.015936 13394.100000 0 0 1
18.906285 -22.229605 -12.033623 31.565979 -0.866012 1.961913 0.007985 -0.015214 -258214.000000 0 0 1
19.052785 -23.086905 -10.708223 31.791191 -0.880839 1.914344 0.008660 -0.015410 -19315.000000 0 0 1
18.276285 -22.702905 -9.563323 30.674120 -0.893002 1.887853 -0.004899 -0.007113 643141.000000 0 0 1
16.855985 -22.705205 -9.643423 29.877184 -0.932187 1.899450 -0.004771 0.007102 275753.000000 0 0 1
16.092285 -22.038705 -8.483823 28.576938 -0.940099 1.872216 -0.012669 0.001507 -837031.000000 0 0 1
16.039485 -20.616405 -8.385523 27.433888 -0.909617 1.881431 -0.004366 -0.015269 -384184.000000 0 0 1
15.105685 -20.009005 -7.556823 26.184873 -0.924138 1.863555 -0.004743 -0.014133 -1184550.000000 0 0 1
13.629385 -20.090905 -7.858823 25.517948 -0.974724 1.883857 0.007809 0.000040 -1139970.000000 0 0 1
13.125185 -21.341805 -7.594623 26.180554 -1.019421 1.865113 -0.004172 -0.000625 -1038720.000000 0 0 1
11.762985 -21.389105 -7.872023 25.648204 -1.067990 1.882755 0.002811 -0.003754 -792987.000000 0 0 1
11.040885 -22.722505 -7.707823 26.412571 -1.118492 1.866930 0.007000 0.001411 -162911.000000 0 0 1
11.032385 -23.135205 -6.358423 26.407968 -1.125827 1.813962 0.004527 -0.000590 234709.000000 0 0 1
10.514885 -24.437905 -6.213923 27.320081 -1.164471 1.800253 -0.006533 0.002656 53511.700000 0 0 1
10.585585 -24.838105 -4.688123 27.403732 -1.167924 1.742718 0.006179 -0.003977 498306.000000 0 0 1
9.826285 -26.031405 -4.364323 28.164467 -1.209855 1.726382 0.012046 -0.004751 -122945.000000 0 0 1
10.389985 -26.561375 -3.217123 28.702061 -1.197926 1.683119 0.009641 -0.005949 482941.000000 0 0 1
9.338785 -27.287535 -2.275823 28.930984 -1.241055 1.649542 0.014139 -0.006765 524617.000000 0 0 1
8.546985 -26.465695 -1.455723 27.849651 -1.258424 1.623091 0.011438 0.000068 -444333.000000 0 0 1
7.858185 -27.256025 -0.531723 28.371195 -1.290098 1.589539 0.021252 -0.008413 65909.300000 0 0 1
6.969085 -26.471785 0.476877 27.377928 -1.313373 1.553377 0.019329 0.000773 425404.000000 0 0 1
5.741785 -25.977055 -0.051823 26.604100 -1.353261 1.572744 0.027353 -0.008742 407666.000000 0 0 1
4.944885 -25.633585 1.128077 26.130540 -1.380231 1.527612 0.039275 -0.006325 834328.000000 0 0 1
3.498785 -25.118325 0.891677 25.376501 -1.432395 1.535651 0.021073 -0.012969 355309.000000 0 0 1
2.515285 -26.062805 0.603777 26.190857 -1.474586 1.547741 0.004563 -0.014065 167950.000000 0 0 1
1.199685 -25.500435 0.757077 25.539863 -1.523785 1.541149 -0.003403 -0.007822 1102210.000000 0 0 1
0.149485 -26.547595 0.244477 26.549141 -1.565166 1.561588 0.002923 0.001494 88934.600000 0 0 1
-0.062915 -27.600225 1.135977 27.623664 1.568517 1.529661 -0.000469 0.002369 -392491.000000 0 0 1
0.832285 -28.697765 0.998177 28.727178 -1.541803 1.536043 -0.005479 -0.004099 -105901.000000 0 0 1
0.503985 -29.958895 1.844777 30.019870 -1.553975 1.509306 -0.002317 0.003716 -36498.600000 0 0 1
0.763585 -29.864605 3.213877 30.046742 -1.545234 1.463629 -0.022301 0.001410 -198737.000000 0 0 1
0.183685 -30.938985 3.855577 31.178839 -1.564859 1.446819 -0.010715 0.007402 -312643.000000 0 0 1
0.328785 -30.877895 5.354677 31.340470 -1.560149 1.399099 -0.021886 0.003643 -56992.700000 0 0 1
1.627285 -31.257125 5.775077 31.827777 -1.518782 1.388338 -0.025320 0.010753 56824.500000 0 0 1
1.708185 -31.221825 7.201277 32.087048 -1.516140 1.344439 -0.020331 0.008194 29544.800000 0 0 1
3.080585 -31.756865 7.635577 32.806867 -1.474094 1.335899 -0.012004 0.006264 72975.000000 0 0 1
3.163085 -33.140815 7.214377 34.064144 -1.475641 1.357392 -0.016014 0.003482 851728.000000 0 0 1
4.437985 -33.755875 7.563577 34.876389 -1.440073 1.352191 -0.004604 0.007097 1204080.000000 0 0 1
4.393185 34.198278 7.347077 35.253394 1.443034 1.360850 -0.014742 0.012063 -303174.000000 0 0 1
4.660585 33.936556 6.003177 34.777133 1.434318 1.397309 -0.018719 0.014028 92495.900000 0 0 1
4.602285 32.566442 5.649977 33.371790 1.430406 1.400673 -0.019977 0.012063 -768378.000000 0 0 1
4.891085 32.212042 4.240477 32.856049 1.420107 1.441373 -0.016663 0.016170 1408370.000000 0 0 1
6.285185 32.392912 3.818977 33.217298 1.379148 1.455572 -0.004439 0.013068 1095550.000000 0 0 1
6.993885 31.219642 4.101677 32.255297 1.350413 1.443288 -0.004206 0.014673 -900101.000000 0 0 1
8.383985 31.451112 3.463677 32.733174 1.310282 1.464782 -0.008685 0.011049 -443518.000000 0 0 1
9.340285 31.759042 4.445077 33.401143 1.284763 1.437319 -0.002515 0.007623 293796.000000 0 0 1
10.618585 31.857452 3.803977 33.795293 1.249062 1.457998 0.005489 0.006017 -47113.600000 0 0 1
11.835485 32.218352 4.604777 34.630981 1.218747 1.437434 0.001295 0.008044 -586981.000000 0 0 1
12.177485 31.215312 5.527077 33.959320 1.198843 1.407313 0.007462 0.007375 -596813.000000 0 0 1
13.203285 31.708692 6.316777 34.923767 1.176238 1.388922 0.014942 0.006356 -549529.000000 0 0 1
13.806385 30.677542 7.288877 34.421731 1.147902 1.357429 0.015069 -0.001847 -461956.000000 0 0 1
13.153885 30.548442 8.535977 34.337951 1.164200 1.319575 0.013866 -0.001736 104407.000000 0 0 1
13.519485 29.324872 9.182277 33.571398 1.138812 1.293751 0.004246 -0.002552 13278.800000 0 0 1
13.265885 29.367072 10.705577 33.956118 1.146508 1.250048 -0.002530 0.006153 336077.000000 0 0 1
14.132785 30.287802 11.406677 35.315702 1.134210 1.241907 0.016037 0.000333 518070.000000 0 0 1
13.740785 30.458562 12.754377 35.766007 1.147003 1.206164 0.005647 0.004509 70926.000000 0 0 1
14.643785 31.482922 13.496777 37.252890 1.135428 1.200060 0.011692 -0.001528 -447628.000000 0 0 1
15.890485 31.079292 13.928477 37.582341 1.098159 1.191128 0.005661 0.000173 -792873.000000 0 0 1
16.475085 32.071382 14.719977 38.944572 1.096248 1.183191 0.018135 -0.001834 405715.000000 0 0 1
17.602085 31.554562 15.723977 39.405167 1.061961 1.160334 0.018836 0.000387 1068630.000000 0 0 1
18.851385 31.240132 15.142677 39.504698 1.027855 1.177415 0.018906 0.003610 254283.000000 0 0 1
18.857985 29.867482 14.807577 38.300841 1.007616 1.173841 0.015545 0.011226 427679.000000 0 0 1
20.282385 29.356432 14.369977 38.466498 0.966203 1.187940 0.026207 0.005249 545083.000000 0 0 1
21.278985 29.494442 15.334677 39.469857 0.945814 1.171776 0.016210 0.002176 -365484.000000 0 0 1
22.551985 29.329382 14.735577 39.823886 0.915295 1.191767 0.017002 0.002346 351978.000000 0 0 1
23.676585 29.291492 15.822877 40.852608 0.891009 1.173078 0.018004 0.003670 52345.600000 0 0 1
23.901385 28.089682 16.511077 40.409430 0.865783 1.149883 0.015439 0.001709 -415689.000000 0 0 1
24.529085 28.393982 17.705677 41.489579 0.858297 1.129900 0.005685 0.000845 -1246200.000000 0 0 1
25.357685 27.192652 18.139377 41.370152 0.820302 1.116906 -0.014145 0.005318 -824522.000000 0 0 1
24.823885 26.008622 18.600177 40.480122 0.808701 1.093376 -0.013635 0.002934 -485751.000000 0 0 1
24.243985 25.947302 19.858077 40.686318 0.819322 1.060911 -0.005543 0.007701 -438273.000000 0 0 1
23.825485 24.558012 20.306777 39.788376 0.800537 1.035182 0.000978 0.000348 -982882.000000 0 0 1
24.835785 23.630792 20.440777 39.913104 0.760541 1.033131 -0.011031 0.005089 -530150.000000 0 0 1
24.284485 22.325692 20.323977 38.745797 0.743398 1.018614 -0.003423 -0.000160 26489.200000 0 0 1
25.287885 21.207092 20.750777 38.984774 0.697854 1.009506 -0.008798 0.005894 -20344.500000 0 0 1
24.822585 19.887592 20.601777 37.896045 0.675466 0.996029 -0.002588 0.012257 612218.000000 0 0 1
25.845585 18.858392 20.751477 38.134721 0.630353 0.995406 -0.002075 0.007557 708637.000000 0 0 1
26.519185 18.645792 22.135477 39.254453 0.612807 0.971699 0.009265 0.017946 -608305.000000 0 0 1
25.700285 18.095392 23.143977 39.033210 0.613468 0.936103 0.014097 0.022500 -131350.000000 0 0 1
26.241485 17.917192 24.451977 40.094145 0.599076 0.914907 0.014036 0.027039 67345.400000 0 0 1
25.190385 17.206492 25.370977 39.677516 0.599265 0.877040 -0.000359 0.020100 612372.000000 0 0 1
24.823885 15.873692 25.024677 38.657907 0.568925 0.866711 0.006524 0.014886 605660.000000 0 0 1
23.574285 15.454592 25.567777 38.056570 0.580281 0.834111 0.003480 0.015169 186937.000000 0 0 1
23.040285 14.100992 24.975677 36.789633 0.549207 0.824563 -0.004988 0.019465 352548.000000 0 0 1
21.788985 13.648792 25.475277 36.194462 0.559611 0.790001 -0.008300 0.014576 370406.000000 0 0 1
21.411785 12.473692 24.765177 35.033862 0.527499 0.785701 -0.005076 0.015132 -50942.800000 0 0 1
20.341385 11.631692 25.494877 34.627402 0.519444 0.743265 -0.008799 0.014483 -136583.000000 0 0 1
19.130985 12.343492 25.619977 34.274474 0.573000 0.726514 -0.006585 0.016898 -400629.000000 0 0 1
18.058085 11.447892 25.820477 33.523808 0.565008 0.691621 -0.011551 0.023266 730520.000000 0 0 1
16.688185 12.239592 25.826477 33.095468 0.632811 0.675550 -0.014881 0.017927 622749.000000 0 0 1
16.486585 13.167692 26.873777 34.167169 0.673942 0.665614 -0.003824 0.013397 -261767.000000 0 0 1
15.189985 13.679592 27.027077 33.887015 0.733128 0.647549 0.005075 0.016845 -219812.000000 0 0 1
14.858285 14.025392 28.483377 35.054001 0.756570 0.622271 0.003663 0.019576 -169092.000000 0 0 1
14.594885 12.948592 29.357077 35.249321 0.725698 0.586576 -0.003348 0.024512 -104861.000000 0 0 1
14.756485 13.245592 30.742677 36.582943 0.731494 0.572858 -0.007729 0.025428 432981.000000 0 0 1
16.231285 13.224692 31.285077 37.644430 0.683680 0.589771 0.000523 0.023865 296381.000000 0 0 1
16.981485 14.268292 30.810877 37.963998 0.698793 0.623942 0.012899 0.015538 -961913.000000 0 0 1
18.312685 13.928492 30.599077 38.283950 0.650246 0.644723 0.003116 0.019832 -537900.000000 0 0 1
19.204785 15.137692 30.135577 38.808845 0.667520 0.681683 0.008795 0.010409 -187037.000000 0 0 1
19.011185 15.695592 28.794777 37.906674 0.690156 0.708063 0.013098 0.005038 178172.000000 0 0 1
19.292585 14.817792 27.715477 36.877072 0.654957 0.720367 0.019926 0.008380 -293435.000000 0 0 1
19.063685 15.449592 26.310577 35.977221 0.681062 0.750553 0.000227 0.013662 237082.000000 0 0 1
20.099685 16.386492 26.014677 36.732518 0.683977 0.783824 0.001864 0.019300 830239.000000 0 0 1
19.850685 16.860292 24.692177 35.889033 0.704120 0.812047 -0.001092 0.010230 233639.000000 0 0 1
21.169685 17.570192 24.264477 36.682857 0.692750 0.848024 -0.002206 0.015440 147239.000000 0 0 1
20.982985 18.202092 23.013877 36.072709 0.714549 0.878917 -0.003295 0.010739 -1001900.000000 0 0 1
22.160985 18.766292 22.637077 36.820106 0.702643 0.908661 0.005206 0.011184 -995382.000000 0 0 1
22.554585 20.188792 23.164477 38.116789 0.730106 0.917605 0.012486 0.003501 -128082.000000 0 0 1
21.659085 21.196092 22.691977 37.859161 0.774595 0.928072 -0.001283 0.005574 160276.000000 0 0 1
21.909885 22.453192 23.204677 39.021096 0.797644 0.933941 0.009336 0.001973 -208359.000000 0 0 1
20.849485 23.534392 22.868177 38.878299 0.845817 0.941966 -0.007790 -0.000088 -267140.000000 0 0 1
21.000985 24.187992 21.675377 38.677154 0.855808 0.975906 0.006990 -0.001621 156271.000000 0 0 1
20.104085 25.292142 21.669477 38.902865 0.899188 0.980009 0.007872 -0.001062 -80195.000000 0 0 1
20.465285 26.388892 20.640277 39.258407 0.911157 1.017195 0.003670 -0.001270 -314789.000000 0 0 1
20.469085 25.987142 19.310777 38.304322 0.903624 1.042409 -0.002413 -0.000165 88436.600000 0 0 1
20.962185 26.909212 18.413777 38.763205 0.908994 1.075796 0.008783 0.001909 -445901.000000 0 0 1
21.042085 26.329922 16.948177 37.726315 0.896562 1.104882 0.014667 0.007139 919399.000000 0 0 1
19.727685 26.085202 16.389277 36.581795 0.923289 1.106250 0.024505 0.005362 997631.000000 0 0 1
19.898785 25.629142 15.029577 35.758953 0.910604 1.137018 0.027673 0.009802 463717.000000 0 0 1
18.508385 25.286772 14.376077 34.476843 0.938955 1.140679 0.032142 0.013062 985600.000000 0 0 1
17.628285 26.322172 14.000577 34.635665 0.980688 1.154666 0.025327 0.017436 -274158.000000 0 0 1
16.892285 26.836332 15.084177 35.115102 1.008999 1.126787 0.020547 0.023126 -112621.000000 0 0 1
15.400785 27.074172 14.598077 34.399110 1.053606 1.132526 0.001933 0.023500 677445.000000 0 0 1
14.634385 25.934932 14.247577 33.011806 1.057061 1.124541 0.001207 0.019797 304822.000000 0 0 1
14.345785 24.905782 15.250877 32.537498 1.048209 1.082959 0.002789 0.011591 -96397.500000 0 0 1
13.406985 25.343862 16.451577 33.056209 1.084216 1.049869 0.009023 0.010562 16816.300000 0 0 1
13.937985 26.290592 17.352777 34.446792 1.083320 1.042855 0.003214 0.014176 461110.000000 0 0 1
12.875485 26.880102 18.102077 34.871237 1.124092 1.024985 0.002710 0.008247 332082.000000 0 0 1
13.369685 28.170992 18.807077 36.415098 1.127682 1.028080 0.006772 0.000833 -340483.000000 0 0 1
13.540785 29.297412 18.006277 36.958317 1.137857 1.061910 0.009954 -0.002116 266158.000000 0 0 1
14.179885 30.290092 18.782277 38.357955 1.132963 1.059099 0.009706 -0.001779 -397572.000000 0 0 1
14.264385 31.667842 18.158477 39.192540 1.147579 1.089064 0.010791 -0.012559 -183368.000000 0 0 1
12.962285 32.154602 17.907777 39.020862 1.187600 1.094008 0.004027 -0.006487 113959.000000 0 0 1
12.959285 33.363362 17.189677 39.705692 1.200305 1.123059 0.007324 -0.004103 257527.000000 0 0 1
11.524385 33.978172 17.132877 39.760069 1.243802 1.125299 0.001454 -0.005341 280508.000000 0 0 1
11.289085 -34.315402 16.447377 39.692650 -1.252969 1.143548 0.002294 -0.002054 -262426.000000 0 0 1
11.850985 -33.126285 17.052577 39.097148 -1.227233 1.119470 0.006288 -0.011375 -106478.000000 0 0 1
11.537785 -32.700255 18.490977 39.298134 -1.231598 1.080904 0.006448 -0.020182 -947835.000000 0 0 1
12.154085 -33.634875 19.329877 40.653053 -1.224043 1.075282 0.025301 -0.019147 198820.000000 0 0 1
11.918585 -33.384765 20.675977 41.037680 -1.227893 1.042770 0.020904 -0.021875 -391696.000000 0 0 1
12.836885 -34.209280 21.626577 42.459030 -1.211810 1.036365 0.042046 -0.019513 913323.000000 0 0 1
14.185385 -33.726325 21.523577 42.449434 -1.172656 1.039049 0.044144 -0.022335 346069.000000 0 0 1
14.989585 -33.879405 22.648477 43.421829 -1.154248 1.022081 0.035343 -0.018442 -75200.300000 0 0 1
16.379185 -33.245495 22.443077 43.327039 -1.113027 1.026294 0.058577 -0.017215 -42709.000000 0 0 1
16.340685 -31.848165 22.399277 42.226191 -1.096739 1.011654 0.063887 -0.017988 353419.000000 0 0 1
17.532185 -31.335585 21.805377 42.009176 -1.060691 1.025043 0.057759 -0.011845 394344.000000 0 0 1
-4.545015 13.290395 18.251319 23.030467 -1.241286 0.655922 -0.010397 0.016711 -320319.000000 0 1 0
-4.290815 14.674995 18.110919 23.701730 -1.286336 0.701123 -0.010457 0.019195 402112.000000 0 1 0
-5.458315 15.402895 17.715319 24.101347 -1.230234 0.745079 -0.006909 0.015591 430431.000000 0 1 0
-5.106315 16.906595 17.503119 24.864968 -1.277477 0.789885 -0.000465 0.015140 25973.100000 0 1 0
-4.746415 17.483995 18.717519 26.049263 -1.305713 0.769091 0.004077 0.019635 139680.000000 0 0 1
-4.521315 18.872295 18.555819 26.850033 -1.335654 0.807799 0.008278 0.013613 -580724.000000 0 0 1
-4.001615 19.656495 19.750719 28.151051 -1.369963 0.793159 0.007351 0.011095 103666.000000 0 0 1
-4.903815 19.725595 20.855219 29.121928 -1.327134 0.772548 0.013483 0.017412 307861.000000 0 0 1
-4.352515 20.548095 21.857319 30.313545 -1.362061 0.765492 0.015562 0.012844 189322.000000 0 0 1
-5.337415 20.618795 23.046619 31.381035 -1.317495 0.745996 0.005893 0.010799 134141.000000 0 0 1
-5.512115 19.346095 23.672419 31.065065 -1.293230 0.704359 -0.001921 0.007811 -27129.200000 0 0 1
-6.167615 19.504795 24.945559 32.260773 -1.264535 0.686850 -0.014426 0.008110 322313.000000 0 0 1
-5.265115 20.085795 26.082659 33.338652 -1.314433 0.672358 -0.017623 0.008489 -117123.000000 0 0 1
-5.000115 21.449595 25.879919 33.983180 -1.341776 0.705094 -0.006806 0.007761 356655.000000 0 0 1
-3.891715 22.012595 26.598229 34.744289 -1.395810 0.698912 -0.006534 0.013258 1148440.000000 0 0 1
-2.456315 21.681495 26.072489 33.998462 -1.457986 0.696842 -0.003374 0.016305 274917.000000 0 0 1
-1.927815 20.408495 26.483739 33.490470 -1.476614 0.658707 0.009296 0.014619 -119032.000000 0 0 1
-0.621115 20.205495 25.997519 32.932034 -1.540066 0.660917 0.019148 0.009881 -119123.000000 0 0 1
0.027485 18.983895 26.654569 32.723923 1.569349 0.618880 0.013960 0.014557 -202986.000000 0 0 1
-0.715215 17.848895 26.211119 31.719353 -1.530747 0.598211 0.019615 0.009807 121620.000000 0 0 1
-0.232415 16.650195 26.779989 31.534915 -1.556839 0.556295 0.012255 0.015404 512981.000000 0 0 1
1.234085 16.195795 26.480589 31.065228 1.494745 0.550202 0.014877 0.015278 199119.000000 0 0 1
1.561885 15.837395 25.160349 29.770888 1.472494 0.563983 0.021994 0.009418 -178582.000000 0 0 1
1.034685 14.602495 24.704029 28.715719 1.500058 0.534946 0.026292 0.003239 -355869.000000 0 0 1
1.119085 14.342495 23.162219 27.266242 1.492928 0.555791 0.026785 -0.005706 -383299.000000 0 0 1
2.449285 14.246795 22.748519 26.953020 1.400542 0.566087 0.022563 -0.011511 -560064.000000 0 0 1
2.534485 13.557995 21.528919 25.568285 1.385993 0.569786 0.021282 -0.018051 995436.000000 0 0 1
4.005285 13.393495 20.961719 25.195668 1.280214 0.588170 0.015619 -0.016524 1095760.000000 0 0 1
4.421385 14.636195 20.446819 25.531143 1.277427 0.642070 0.015463 -0.009121 -996306.000000 0 0 1
5.788485 14.516295 20.227419 25.561257 1.191361 0.657813 0.013448 -0.013011 -604886.000000 0 0 1
6.441285 15.616395 19.381419 25.709947 1.179587 0.716896 0.021344 -0.015023 -120183.000000 0 0 1
6.102485 15.454995 18.053919 24.536528 1.194733 0.743953 0.017835 -0.020520 -794.152000 0 1 0
6.697185 16.397195 17.191419 24.683298 1.183040 0.800316 0.010992 -0.005878 -186030.000000 0 1 0
6.678185 16.116595 15.672019 23.451119 1.177966 0.838896 0.000523 -0.003864 30390.300000 0 1 0
7.613685 15.171695 15.167519 22.764055 1.105682 0.841571 0.004404 -0.003187 194181.000000 0 1 0
7.702585 13.837195 15.690419 22.293206 1.062856 0.790035 0.015559 -0.010439 -1384850.000000 0 1 0
8.697685 13.068295 14.926619 21.661810 0.983563 0.810584 0.008720 -0.013154 -757211.000000 0 1 0
10.017885 13.531795 15.161819 22.657190 0.933518 0.837687 0.001642 -0.012392 -135785.000000 0 1 0
10.906385 12.792495 14.337819 22.094575 0.864817 0.864620 0.001022 -0.004784 -420000.000000 0 1 0
12.294685 13.429295 14.367319 23.193213 0.829477 0.902739 0.009425 0.004898 -1222930.000000 0 1 0
12.945985 13.257695 15.612419 24.230407 0.797293 0.870647 0.010113 -0.000866 -434344.000000 0 1 0
14.211185 13.822495 15.666619 25.267808 0.771534 0.902024 0.025981 -0.000228 -382574.000000 0 0 1
15.359985 13.068695 14.944219 25.100789 0.704974 0.933072 0.030057 -0.003044 -1776300.000000 0 0 1
16.606885 13.432595 15.363719 26.310969 0.680118 0.947237 0.039216 -0.014176 -512350.000000 0 0 1
17.591685 13.229695 14.343019 26.271932 0.644807 0.993280 0.040116 -0.007218 1082240.000000 0 0 1
18.957885 13.991995 14.410319 27.619461 0.635814 1.021901 0.037098 -0.006586 652257.000000 0 0 1
19.834785 13.557895 15.403719 28.539618 0.599594 1.000679 0.021252 -0.017172 644289.000000 0 0 1
21.132285 14.175995 15.320519 29.702704 0.590874 1.028860 0.004290 -0.008476 836920.000000 0 0 1
22.013885 13.841595 16.535919 30.816189 0.561303 1.004395 -0.006945 -0.015715 -277861.000000 0 0 1
22.292985 12.446895 16.675819 30.495661 0.509218 0.992228 0.010615 -0.013484 80394.700000 0 0 1
23.240885 12.219795 17.675619 31.652640 0.484065 0.978311 -0.000539 -0.016035 -765416.000000 0 0 1
23.466485 10.665695 17.899319 31.381820 0.426596 0.963837 0.004957 -0.003072 -1308130.000000 0 0 1
22.365785 9.959495 18.291419 30.561346 0.418939 0.929150 -0.014828 0.002240 -709805.000000 0 0 1
22.478385 8.555795 18.131819 30.120463 0.363691 0.924822 -0.018689 0.004095 55738.000000 0 0 1
21.151485 7.833695 18.480419 29.159527 0.354698 0.884380 0.006904 0.006312 100900.000000 0 0 1
21.247285 6.467395 18.255619 28.749643 0.295477 0.882806 0.003806 0.012664 335471.000000 0 0 1
20.014985 5.833395 18.523319 27.888017 0.283596 0.844368 -0.002406 0.013335 -301604.000000 0 0 1
19.900785 4.389895 18.008519 27.195941 0.217112 0.847076 0.038783 0.014910 -1175070.000000 0 0 1
19.488685 4.315095 16.650619 25.993692 0.217900 0.875564 0.045478 0.002045 324155.000000 0 0 1
19.170185 3.073195 16.128919 25.240494 0.158959 0.877586 0.028741 0.000710 54188.900000 0 0 1
17.977685 2.305895 16.752219 24.680988 0.127568 0.824737 0.033775 0.010474 -55827.800000 0 1 0
18.380885 1.594295 17.885919 25.696397 0.086520 0.800918 0.026183 0.006211 144104.000000 0 0 1
17.264285 0.836995 18.314519 25.182885 0.048443 0.756474 0.025058 -0.002419 -411937.000000 0 0 1
17.386685 0.056395 19.637119 26.228161 0.003244 0.724692 0.011495 0.000551 -255034.000000 0 0 1
18.153485 -1.136705 19.605619 26.743624 -0.062535 0.747935 0.009335 0.003870 56815.800000 0 0 1
17.474585 -2.310205 20.091919 26.727951 -0.131441 0.720131 0.012462 0.002454 171380.000000 0 0 1
17.718085 -3.578205 19.202619 26.371854 -0.199272 0.755180 0.005903 0.006400 59650.600000 0 0 1
17.056985 -3.593605 17.952919 25.023230 -0.207646 0.770661 -0.006645 0.001696 233849.000000 0 0 1
17.135585 -4.921705 17.433419 24.935428 -0.279692 0.796599 0.004267 0.007106 -314755.000000 0 1 0
16.727685 -5.018005 15.950019 23.651616 -0.291440 0.830681 0.002810 -0.003433 -205489.000000 0 1 0
15.397385 -4.636905 15.649919 22.438813 -0.292510 0.798965 -0.007352 -0.003121 190232.000000 0 1 0
15.133585 -4.742305 14.308619 21.360043 -0.303671 0.836752 -0.003271 -0.004399 -81980.300000 0 1 0
15.522185 -3.465905 13.451819 20.830318 -0.219684 0.868751 -0.005103 -0.003310 26941.100000 0 1 0
14.859585 -2.255305 13.778119 20.389464 -0.150625 0.828819 -0.003723 0.002706 490375.000000 0 1 0
15.602285 -1.218405 13.178119 20.459194 -0.077933 0.870928 0.012410 -0.001954 450865.000000 0 1 0
14.641785 -0.026905 12.961619 19.554697 -0.001838 0.846192 0.016138 -0.002670 206840.000000 0 1 0
15.295985 1.190795 12.594419 19.849548 0.077693 0.883443 0.030759 -0.001264 -165835.000000 0 1 0
16.032985 1.823095 13.566719 21.081654 0.113223 0.871692 0.036983 -0.004464 -343638.000000 0 1 0
16.204085 3.299095 13.208019 21.163841 0.200851 0.896837 0.033631 0.001438 143397.000000 0 1 0
15.059585 4.116295 13.357519 20.546491 0.266817 0.863065 0.029942 0.002580 330733.000000 0 1 0
15.363085 5.417995 12.795619 20.714896 0.339045 0.904980 0.039699 0.002233 533542.000000 0 1 0
14.194485 6.429895 12.956219 20.265502 0.425334 0.877178 0.035362 -0.000710 381560.000000 0 1 0
14.531585 7.601995 12.244819 20.466873 0.481985 0.929450 0.025260 -0.005628 800780.000000 0 1 0
13.427185 8.516195 12.334019 20.123193 0.565224 0.911038 0.014049 -0.000882 381509.000000 0 1 0
13.394285 9.392395 13.613119 21.282410 0.611547 0.876764 0.010266 -0.004869 -189604.000000 0 1 0
13.113585 8.825995 14.840819 21.682117 0.592403 0.816916 0.025161 -0.009991 379807.000000 0 1 0
13.558385 9.711995 15.843219 23.003483 0.621588 0.811059 0.033026 -0.013943 -40299.600000 0 1 0
13.201585 9.092595 17.207219 23.516920 0.603136 0.749991 0.041965 -0.016299 954382.000000 0 1 0
11.867585 9.420195 17.667619 23.274974 0.670934 0.708894 0.025501 -0.015790 1130320.000000 0 1 0
11.330585 8.614095 18.747219 23.538119 0.650030 0.649375 0.031397 -0.011983 160931.000000 0 1 0
11.907485 8.923495 20.153019 25.051171 0.643118 0.636007 0.026769 -0.003371 -1251090.000000 0 0 1
13.186585 8.442395 20.283519 25.623841 0.569474 0.657393 0.032838 -0.003563 -1093620.000000 0 0 1
13.617885 8.702595 21.596919 26.974226 0.568643 0.642417 0.025592 0.006827 -530593.000000 0 0 1
15.128585 8.459695 21.746519 27.809200 0.509869 0.672944 0.023791 0.005338 -254335.000000 0 0 1
15.858785 9.416495 21.023919 27.967421 0.535827 0.720116 0.029935 0.008368 -235079.000000 0 0 1
16.667285 8.836495 20.041419 27.523454 0.487491 0.755166 0.026512 -0.001834 -238958.000000 0 0 1
17.313785 9.882295 19.085919 27.598899 0.518654 0.807169 0.022996 -0.006101 396495.000000 0 0 1
18.446185 10.506995 19.680619 28.947979 0.517769 0.823222 0.007308 0.003177 324852.000000 0 0 1
19.138085 11.383095 18.827219 29.159995 0.536578 0.868919 0.001723 -0.002728 379918.000000 0 0 1
20.094485 12.289095 19.621119 30.656133 0.548880 0.876247 -0.002124 -0.002728 -52227.900000 0 0 1
19.250985 13.138795 20.384119 30.963538 0.598884 0.852203 -0.003789 -0.001978 651982.000000 0 0 1
19.931885 13.681195 21.471419 32.333837 0.601538 0.844568 -0.002820 0.003300 242726.000000 0 0 1
21.122185 14.720095 21.380619 33.465785 0.608644 0.877755 -0.012724 -0.000359 454226.000000 0 0 1
22.321785 14.077695 21.079019 33.775267 0.562667 0.896822 -0.015816 0.001819 -1069310.000000 0 0 1
23.454785 14.871995 21.094719 34.875355 0.565096 0.921206 -0.015256 0.000887 -671208.000000 0 0 1
24.715985 14.009995 21.131519 35.407640 0.515680 0.931281 -0.018214 -0.002632 -579836.000000 0 0 1
25.021485 13.449995 19.858119 34.660092 0.493225 0.960709 -0.023308 -0.008138 612393.000000 0 0 1
26.231685 12.691495 20.064319 35.380111 0.450623 0.967807 -0.016537 -0.011558 474950.000000 0 0 1
26.841685 12.029495 18.840319 34.930537 0.421327 1.001113 -0.009691 -0.014301 -508992.000000 0 0 1
27.454785 12.940195 17.932919 35.253418 0.440448 1.037138 -0.014034 -0.019346 370567.000000 0 0 1
27.957285 12.346195 16.704419 34.829240 0.415854 1.070587 -0.019789 -0.025729 222253.000000 0 0 1
26.873085 11.952695 15.664719 33.322861 0.418507 1.081404 -0.017514 -0.031791 229400.000000 0 0 1
26.266585 12.992195 14.899919 32.874583 0.459341 1.100405 -0.017170 -0.029946 611818.000000 0 0 1
25.122085 12.498995 14.182219 31.440092 0.461670 1.102813 -0.016155 -0.021347 557885.000000 0 0 1
24.702085 13.378395 13.020919 30.963184 0.496363 1.136768 -0.022520 -0.016520 -108394.000000 0 0 1
24.148085 14.618195 13.482219 31.282453 0.544349 1.125214 -0.014149 -0.004647 290310.000000 0 0 1
23.752585 15.404795 12.405519 30.909382 0.575357 1.157805 -0.019220 0.006417 -251967.000000 0 0 1
23.056085 16.700395 12.784119 31.207691 0.626874 1.148730 -0.009439 0.007768 -1064210.000000 0 0 1
21.796985 16.546695 13.380319 30.462019 0.649317 1.116037 0.004872 0.001324 -155302.000000 0 0 1
21.255085 17.824595 13.636419 30.910302 0.697841 1.113904 0.023152 0.001414 -771161.000000 0 0 1
20.518685 18.471795 12.455219 30.287888 0.732949 1.146996 0.012938 0.011873 -575353.000000 0 0 1
19.350485 17.896695 11.933719 28.933486 0.746387 1.145651 0.032716 0.021768 628359.000000 0 0 1
18.182085 17.833595 12.760819 28.486204 0.775722 1.106309 0.028167 0.015643 70360.100000 0 0 1
16.946685 17.301395 12.005319 27.030651 0.795755 1.110585 0.039850 0.024614 -171628.000000 0 0 1
16.911985 15.951495 11.730119 26.039607 0.756180 1.103502 0.044300 0.021637 1509270.000000 0 0 1
15.638585 15.617195 11.076019 24.721253 0.784714 1.106229 0.038951 0.009470 1467960.000000 0 1 0
15.606485 14.250695 10.329219 23.523126 0.740020 1.116189 0.037593 0.004032 -69330.100000 0 1 0
15.745485 13.127295 11.185119 23.352796 0.694965 1.071324 0.042596 0.005285 516681.000000 0 1 0
16.062685 11.980895 10.309819 22.535396 0.640861 1.095621 0.031094 0.008942 42822.100000 0 1 0
16.294885 10.659495 11.082119 22.404497 0.579296 1.053378 0.026818 0.001810 -680627.000000 0 1 0
16.869485 9.646995 10.278819 21.984043 0.519472 1.084270 0.012481 -0.000939 486115.000000 0 1 0
17.325785 8.552395 11.084919 22.275586 0.458533 1.049936 0.004266 0.002678 -10330.100000 0 1 0
18.642185 8.700295 11.879719 23.756134 0.436654 1.047117 0.017855 -0.003188 -350641.000000 0 1 0
18.512385 9.465695 13.028919 24.536921 0.472660 1.011025 0.032061 -0.008715 -234869.000000 0 1 0
19.702085 9.513095 13.764019 25.848005 0.449831 1.009247 0.030610 -0.010622 -944139.000000 0 0 1
19.416385 9.709695 15.292619 26.554442 0.463710 0.957096 0.037308 -0.005512 85598.600000 0 0 1
18.879585 8.559495 15.920619 26.137517 0.425655 0.915859 0.038541 -0.008747 310684.000000 0 0 1
17.550385 8.204995 15.604219 24.876286 0.437320 0.892750 0.041689 -0.014672 -521957.000000 0 1 0
17.139985 7.034095 16.510919 24.816689 0.389432 0.842880 0.041066 0.000515 150497.000000 0 1 0
15.773485 6.639795 16.440419 23.731353 0.398432 0.805470 0.039840 -0.012551 464569.000000 0 1 0
15.467885 5.742395 17.511619 24.060078 0.355476 0.755646 0.040912 0.005697 -400182.000000 0 1 0
13.965085 5.496695 17.717819 23.219784 0.374979 0.702780 0.031786 -0.008791 -309561.000000 0 1 0
13.627485 4.161595 17.784319 22.788357 0.296388 0.675471 0.034477 -0.003050 60634.900000 0 1 0
13.491785 3.493195 16.532819 21.623246 0.253349 0.700398 0.048076 -0.004497 -299359.000000 0 1 0
13.214985 1.990995 16.642019 21.343774 0.149537 0.676589 0.028241 -0.005507 383001.000000 0 1 0
14.376885 1.224495 16.982419 22.284451 0.084966 0.704285 0.018706 0.003721 461540.000000 0 1 0
14.257585 -0.176905 16.805419 22.039332 -0.012407 0.703598 0.015216 0.007032 -404470.000000 0 1 0
13.372785 -1.026705 17.771519 22.264600 -0.076625 0.646501 0.012938 0.006735 -995572.000000 0 1 0
12.034085 -0.802405 17.567019 21.308759 -0.066579 0.601649 0.011871 0.005032 -1365990.000000 0 1 0
11.289985 -1.607705 18.443019 21.683944 -0.141450 0.553789 0.005147 -0.002569 -33566.500000 0 1 0
-25.206245 14.249595 29.207219 41.127454 -0.514529 0.781066 0.019643 -0.009271 -170739.000000 0 0 1
-24.227915 14.190595 30.227429 41.256058 -0.529848 0.748547 0.018829 -0.010748 403135.000000 0 0 1
-23.359915 13.069195 30.086749 40.270361 -0.510086 0.727079 0.020997 -0.004125 682528.000000 0 0 1
-22.133815 13.170695 31.064529 40.353166 -0.536771 0.692243 0.026818 -0.012354 254889.000000 0 0 1
-22.596415 13.177995 32.396099 41.638501 -0.527967 0.679269 0.027677 -0.015826 -210541.000000 0 0 1
-21.551615 13.278595 33.325700 41.849678 -0.552195 0.649611 0.018280 -0.007747 -680954.000000 0 0 1
-22.005715 13.408895 -34.413647 42.992430 -0.547257 2.498856 0.013833 0.001820 -23455.600000 0 0 1
-22.471915 12.204595 -33.835393 42.411943 -0.497534 2.494400 0.006004 0.003047 -230284.000000 0 0 1
-23.230015 12.480595 -32.716983 42.021421 -0.493011 2.463194 -0.010117 0.007971 -178789.000000 0 0 1
-24.049915 11.332295 -32.030633 41.626684 -0.440342 2.448813 -0.012413 0.002470 292804.000000 0 0 1
-23.328515 10.260895 -31.396263 40.437989 -0.414376 2.459738 -0.006570 -0.000588 -38651.100000 0 0 1
-22.850415 9.199295 -32.142513 40.495798 -0.382735 2.487704 -0.007048 -0.001833 83858.600000 0 0 1
-22.127415 8.155495 -31.231703 39.135072 -0.353121 2.494847 -0.003072 0.003670 441604.000000 0 0 1
-22.988015 7.463795 -30.307263 38.764511 -0.313944 2.468392 -0.005921 0.003636 786995.000000 0 0 1
-22.174915 6.712695 -29.389553 37.423695 -0.293946 2.474008 -0.005195 0.009579 421837.000000 0 0 1
-22.977015 5.775795 -28.428613 37.006609 -0.246270 2.446827 -0.003997 0.015798 -38839.200000 0 0 1
-23.357615 4.595195 -29.022333 37.536513 -0.194251 2.454630 -0.003725 0.008076 -72568.300000 0 0 1
-23.689615 3.561495 -28.128073 36.946862 -0.149222 2.436130 0.002426 0.020187 4728.970000 0 0 1
-24.532915 2.390595 -28.794083 37.903537 -0.097138 2.433598 0.009588 0.018087 2073350.000000 0 0 1
-25.942725 2.628995 -29.098033 39.072140 -0.100994 2.410920 0.016632 0.000748 1628620.000000 0 0 1
-26.098995 3.409895 -30.244513 40.093834 -0.129916 2.425449 0.014631 -0.005301 -113901.000000 0 0 1
-27.547045 3.515295 -30.829843 41.493086 -0.126925 2.408355 0.020198 -0.014118 120537.000000 0 0 1
-28.459635 4.208995 -30.011453 41.573475 -0.146829 2.377325 0.017194 -0.000007 -96645.000000 0 0 1
-29.778755 4.076695 -30.503713 42.823711 -0.136054 2.363579 0.026257 -0.014345 83067.900000 0 0 1
-30.194035 5.312695 -31.284543 43.802136 -0.174169 2.366311 0.022913 -0.028894 -1122410.000000 0 0 1
-29.416305 5.577395 -32.423113 44.132580 -0.187378 2.395984 0.020019 -0.019408 -13787.200000 0 0 1
-29.473015 6.882395 -32.915073 44.714964 -0.229404 2.398100 0.016141 -0.016904 -591088.000000 0 0 1
-28.891285 8.004295 -32.042653 43.880596 -0.270270 2.389446 0.001837 -0.013713 736913.000000 0 0 1
-27.459785 8.056695 -31.851283 42.818855 -0.285391 2.409626 -0.006664 -0.017188 1350240.000000 0 0 1
-26.944385 7.496295 -30.608263 41.461550 -0.271351 2.401243 -0.011583 -0.014442 -89123.300000 0 0 1
-27.194805 8.374895 -29.342833 40.874175 -0.298743 2.371551 -0.012504 -0.009177 -579873.000000 0 0 1
-28.527865 8.632695 -29.028423 41.605431 -0.293846 2.342989 -0.009976 -0.010868 -133699.000000 0 0 1
-29.111325 7.715795 -28.078213 41.175099 -0.259087 2.321184 0.001948 0.002263 698693.000000 0 0 1
-30.374365 8.205095 -27.264623 41.632743 -0.263835 2.284826 -0.014007 0.003442 292508.000000 0 0 1
-30.153425 9.170695 -26.248803 41.016221 -0.295246 2.265245 -0.027774 0.000925 -69700.500000 0 0 1
-29.749385 8.550095 -25.030423 39.807689 -0.279861 2.250784 -0.026458 0.009147 -126642.000000 0 0 1
-29.361275 9.478595 -23.866823 39.007095 -0.312265 2.229204 -0.021367 -0.002915 -364684.000000 0 0 1
-30.407345 10.220095 -23.299823 39.647683 -0.324244 2.198975 -0.026068 0.005329 35687.900000 0 0 1
-29.815995 11.278195 -22.586323 39.068315 -0.361626 2.187224 -0.021176 0.005048 -52528.400000 0 0 1
-30.704585 12.036695 -21.569423 39.406771 -0.373605 2.149995 -0.025532 0.002944 -183283.000000 0 0 1
-30.865775 11.364695 -20.352423 38.679109 -0.352793 2.124906 -0.034454 0.005333 51019.000000 0 0 1
-31.437315 12.156495 -19.305023 38.842877 -0.368980 2.090938 -0.036066 0.015418 -455510.000000 0 0 1
-30.511865 13.016995 -18.428723 37.947779 -0.403243 2.077884 -0.030335 0.011079 -603219.000000 0 0 1
-29.964695 12.413595 -17.258923 36.740315 -0.392751 2.059809 -0.023267 0.007199 701841.000000 0 0 1
-30.826625 12.340795 -16.083423 36.895156 -0.380790 2.021859 -0.029365 0.000396 151532.000000 0 0 1
-31.441205 13.667595 -15.540323 37.641124 -0.410061 1.996383 -0.039404 0.005206 -187994.000000 0 0 1
-32.387515 14.336495 -16.354023 39.012053 -0.416729 2.003365 -0.035394 0.009442 223354.000000 0 0 1
-32.848335 15.452795 -15.592023 39.508394 -0.439712 1.976484 -0.027605 0.009218 -6772.660000 0 0 1
-33.626435 16.549995 -16.344223 40.887322 -0.457366 1.982028 -0.022889 -0.002184 745972.000000 0 0 1
34.845243 16.108195 -16.878123 41.934902 0.433017 1.985025 -0.032394 0.003806 740521.000000 0 0 1
34.096045 17.145595 -17.387923 41.938665 0.465934 1.998304 -0.029965 -0.001085 -1136430.000000 0 0 1
33.837193 17.114695 -18.909323 42.372526 0.468273 2.033382 -0.041337 0.003726 -121257.000000 0 0 1
32.904078 16.165395 -19.377023 41.466461 0.456654 2.057024 -0.025173 0.007072 563766.000000 0 0 1
31.557648 16.533495 -19.084623 40.416141 0.482595 2.062585 -0.007122 -0.003329 -532578.000000 0 0 1
30.576488 15.409695 -19.412223 39.360065 0.466820 2.086556 0.012055 -0.010812 -412389.000000 0 0 1
30.536948 14.974095 -20.771823 39.852194 0.455906 2.119078 0.007852 -0.007441 226896.000000 0 0 1
29.726028 13.850395 -21.060423 38.974500 0.436026 2.141666 -0.001447 -0.008027 -49618.000000 0 0 1
30.398868 12.438995 -20.837723 38.897693 0.388406 2.136140 0.001168 0.007948 20206.600000 0 0 1
30.478598 12.138095 -19.469523 38.148927 0.378997 2.106395 0.008895 0.001365 -172487.000000 0 0 1
31.244098 11.003995 -19.301723 38.338468 0.338628 2.098390 -0.009169 0.010528 -423312.000000 0 0 1
31.612568 10.712395 -17.829823 37.841941 0.326721 2.061408 -0.010942 0.014699 -365418.000000 0 0 1
30.453848 10.331595 -17.132523 36.437647 0.327070 2.060299 -0.000337 0.009294 54237.700000 0 0 1
30.707998 10.126795 -15.791423 35.984749 0.318547 2.025100 -0.028923 0.006253 -100430.000000 0 0 1
30.290628 11.242495 -14.747123 35.516102 0.355395 1.998985 -0.019886 -0.000028 -244172.000000 0 0 1
28.896228 11.366595 -14.567823 34.298877 0.374768 2.009462 0.003953 0.004946 110243.000000 0 0 1
28.636448 12.352095 -13.644223 34.040935 0.407230 1.983206 -0.016063 0.006748 -367478.000000 0 0 1
27.133938 12.669695 -13.516023 32.855055 0.436845 1.994768 0.012194 0.010585 -152476.000000 0 0 1
26.420318 11.507195 -13.055423 31.636890 0.410767 1.996174 -0.009611 0.011981 874420.000000 0 0 1
25.069658 11.498595 -13.538823 30.724668 0.430037 2.027119 -0.003665 0.008006 242377.000000 0 0 1
24.893128 10.511395 -14.742523 30.781476 0.399548 2.070245 0.011626 0.006324 -433949.000000 0 0 1
25.182268 9.167295 -14.464723 30.453475 0.349125 2.065735 0.002928 0.007299 965120.000000 0 0 1
26.579138 8.936195 -14.682523 31.652530 0.324338 2.053150 0.001314 0.002898 100926.000000 0 0 1
27.179448 7.789195 -13.867923 31.491479 0.279104 2.026808 0.008988 0.004692 -603509.000000 0 0 1
26.730858 6.476795 -14.020323 30.871623 0.237715 2.042213 -0.005083 -0.001369 42234.000000 0 0 1
25.864798 6.106595 -12.974423 29.573873 0.231851 2.024962 0.013482 -0.003356 -205203.000000 0 0 1
25.374138 4.652695 -13.319323 29.032720 0.181349 2.047406 0.018085 -0.002284 91989.200000 0 0 1
24.539388 4.055495 -12.332223 27.761707 0.163784 2.031096 0.009398 -0.004807 308409.000000 0 0 1
24.060988 2.768495 -12.700323 27.347650 0.114558 2.053756 0.004790 -0.006456 -346985.000000 0 0 1
23.295088 2.129595 -11.556123 26.091000 0.091165 2.029645 0.002650 -0.003964 -170839.000000 0 0 1
24.080488 1.783195 -10.417023 26.297606 0.073917 1.978084 0.002702 -0.000753 702888.000000 0 0 1
23.235188 1.838095 -9.298323 25.094051 0.078944 1.950386 -0.005405 0.009238 -437692.000000 0 0 1
23.904588 1.331695 -7.990323 25.239810 0.055651 1.892914 -0.004218 0.018374 -262631.000000 0 0 1
24.092188 -0.114105 -7.763323 25.312363 -0.004736 1.882521 -0.011713 0.011297 369484.000000 0 0 1
24.879748 -0.885005 -8.610323 26.342414 -0.035556 1.903777 0.001104 0.004534 -692917.000000 0 0 1
24.918348 -2.347105 -8.227223 26.346161 -0.093915 1.888382 0.009500 0.002829 -737195.000000 0 0 1
25.663678 -2.514905 -7.089523 26.743419 -0.097683 1.839098 0.011675 0.000968 140428.000000 0 0 1
25.700618 -3.873405 -6.758423 26.855192 -0.149587 1.825193 0.012566 -0.003319 3855.390000 0 0 1
26.834068 -4.191105 -5.723823 27.755986 -0.154934 1.778506 0.002521 -0.005009 577313.000000 0 0 1
28.156878 -4.009705 -6.200623 29.109024 -0.141455 1.785455 0.009341 -0.000972 -116282.000000 0 0 1
29.143618 -4.453205 -5.334523 29.960618 -0.151629 1.749802 0.012114 -0.004495 -968440.000000 0 0 1
30.427038 -4.522705 -6.148923 31.369871 -0.147561 1.768087 0.004161 0.004920 -911173.000000 0 0 1
30.579598 -5.643905 -6.990823 31.872200 -0.182511 1.791933 -0.006919 0.006274 178364.000000 0 0 1
31.422178 -5.375305 -8.105423 32.892934 -0.169427 1.819779 -0.005366 -0.009420 -657138.000000 0 0 1
31.218958 -6.410905 -9.240723 33.183038 -0.202537 1.853005 -0.007850 -0.010807 437365.000000 0 0 1
29.960688 -6.459205 -9.935623 32.219261 -0.212339 1.884281 0.019002 -0.003234 -435311.000000 0 0 1
28.945208 -7.008605 -9.228023 31.178551 -0.237561 1.871271 0.003651 -0.001764 -1199030.000000 0 0 1
27.682138 -6.096805 -9.250423 29.816810 -0.216782 1.886244 0.002672 -0.002912 -479195.000000 0 0 1
26.799838 -6.397305 -10.315023 29.420342 -0.234322 1.929017 0.003737 -0.000092 102085.000000 0 0 1
25.743038 -5.455005 -10.340223 28.273332 -0.208813 1.945206 0.024446 -0.005867 480860.000000 0 0 1
24.369488 -6.020405 -9.868623 26.972337 -0.242197 1.945374 0.026410 -0.001803 -932692.000000 0 0 1
24.425388 -6.594905 -8.581223 26.715721 -0.263714 1.897798 0.013978 -0.006255 -74515.800000 0 0 1
23.282788 -7.316105 -8.221223 25.752711 -0.304458 1.895721 0.019463 -0.007851 -87599.900000 0 0 1
22.157188 -6.359505 -7.625623 24.280330 -0.279504 1.890269 0.021125 -0.004414 157853.000000 0 1 0
21.641888 -5.548005 -8.708023 23.978769 -0.250951 1.942449 0.011666 -0.000734 101767.000000 0 1 0
21.349088 -4.188905 -8.269223 23.274676 -0.193749 1.934019 0.006617 0.002585 -47879.300000 0 1 0
20.892288 -3.345805 -9.458623 23.176447 -0.158797 1.991183 -0.015188 0.008867 -692475.000000 0 1 0
22.031488 -3.002205 -10.175323 24.452749 -0.135435 1.999973 -0.008437 0.008812 125316.000000 0 1 0
21.819088 -2.330705 -11.399323 24.727502 -0.106416 2.049916 -0.013596 0.013206 -811678.000000 0 1 0
23.061588 -2.156605 -12.257623 26.205670 -0.093244 2.057536 0.003905 -0.001169 -452569.000000 0 0 1
24.066388 -1.330105 -11.690623 26.788634 -0.055212 2.022393 0.000456 -0.002666 667808.000000 0 0 1
25.315488 -1.613805 -12.308923 28.195530 -0.063662 2.022563 0.005874 0.000552 -260699.000000 0 0 1
26.305218 -0.541005 -11.872023 28.865241 -0.020564 1.994667 0.015415 -0.004157 -1365590.000000 0 0 1
27.629548 -0.716105 -12.273723 30.241512 -0.025912 1.988712 0.020777 -0.002989 248538.000000 0 0 1
28.418518 0.487395 -11.984323 30.845968 0.017149 1.969823 0.012339 -0.003614 505682.000000 0 0 1
28.258008 1.559795 -13.073223 31.174624 0.055142 2.003531 0.017976 -0.005632 -634667.000000 0 0 1
28.836708 1.302495 -14.298823 32.213485 0.045137 2.030717 0.019399 -0.005615 230347.000000 0 0 1
28.615238 2.423195 -15.098023 32.444630 0.084480 2.054823 0.017399 -0.003806 -200768.000000 0 0 1
28.958358 2.179195 -16.613923 33.456806 0.075111 2.090449 0.013292 -0.006314 -392374.000000 0 0 1
28.032158 1.416595 -17.339023 32.991671 0.050492 2.124167 0.019459 -0.007760 -97102.700000 0 0 1
28.279068 1.352895 -18.718823 33.940100 0.047804 2.154988 0.011192 -0.002708 -275708.000000 0 0 1
27.078248 0.737595 -19.497723 33.375692 0.027233 2.194677 -0.000342 0.004578 -137162.000000 0 0 1
26.917858 -0.646005 -19.452923 33.217535 -0.023995 2.196444 0.010489 0.009918 52011.200000 0 0 1
26.287918 -1.103705 -20.633123 33.436486 -0.041961 2.235828 -0.010584 0.006311 -186012.000000 0 0 1
26.170088 -2.663505 -20.598123 33.410335 -0.101427 2.235111 -0.005237 0.007657 286538.000000 0 0 1
24.988438 -3.116105 -19.943123 32.122583 -0.124061 2.240616 0.009246 0.000585 399708.000000 0 0 1
24.808778 -4.549605 -20.027523 32.206771 -0.181372 2.241889 0.008585 -0.003865 -443080.000000 0 0 1
25.542538 -5.344505 -18.979423 32.267685 -0.206264 2.199611 0.004959 0.000391 -1232350.000000 0 0 1
26.905038 -5.353105 -19.149523 33.455060 -0.196398 2.180221 0.005765 -0.007658 -974540.000000 0 0 1
27.668498 -5.512905 -17.969023 33.448822 -0.196673 2.137921 0.002707 0.000798 722565.000000 0 0 1
29.219338 -5.462305 -18.070423 34.787163 -0.184808 2.117011 0.011539 -0.002657 912578.000000 0 0 1
29.915918 -6.442905 -18.875923 35.955162 -0.212127 2.123494 0.007828 -0.005119 369817.000000 0 0 1
31.301528 -6.215605 -18.973023 37.126743 -0.196022 2.107183 0.017501 -0.000676 200360.000000 0 0 1
32.161668 -7.229205 -19.785723 38.446185 -0.221102 2.111377 0.007731 0.000697 125003.000000 0 0 1
32.652108 -8.258305 -18.962823 38.651629 -0.247723 2.083584 0.000114 -0.002188 -181425.000000 0 0 1
33.301848 -9.236505 -19.694223 39.776734 -0.270556 2.088768 0.004184 0.001055 -482852.000000 0 0 1
33.866175 -10.321605 -18.740623 40.058261 -0.295833 2.057635 0.002745 0.003236 -747517.000000 0 0 1
32.953698 -11.119605 -18.062123 39.189694 -0.325434 2.049794 -0.012059 -0.000723 -146975.000000 0 0 1
33.565528 -11.891905 -17.043823 39.478526 -0.340491 2.017199 -0.000844 -0.001411 -297626.000000 0 0 1
34.164866 -11.193605 -15.782823 39.263627 -0.316613 1.984464 0.013534 -0.009244 -381056.000000 0 0 1
34.574886 -11.971705 -14.675723 39.422345 -0.333334 1.952249 -0.008416 -0.009568 1004490.000000 0 0 1
-34.290829 -13.139105 -14.859123 39.614272 0.365911 1.955296 0.002513 -0.007426 235847.000000 0 0 1
-32.856185 -12.854705 -15.335123 38.469967 0.372933 1.980814 0.010660 -0.009269 -590552.000000 0 0 1
-32.776275 -12.470305 -16.691723 38.838207 0.363555 2.015041 0.012087 -0.005044 606425.000000 0 0 1
-31.377645 -12.466305 -17.011823 37.806977 0.378176 2.037523 0.005291 0.002197 789815.000000 0 0 1
-30.864965 -11.720805 -18.272523 37.734711 0.362924 2.076287 0.021895 0.008089 247744.000000 0 0 1
-30.851505 -10.292705 -18.141523 37.240704 0.322009 2.079611 0.027786 -0.002687 -217677.000000 0 0 1
-32.115765 -9.765105 -18.435023 38.296602 0.295177 2.073019 0.029063 -0.009055 -724202.000000 0 0 1
-32.367565 -8.309005 -18.193023 38.048455 0.251282 2.069348 0.022344 -0.009302 108668.000000 0 0 1
-33.632355 -7.871805 -18.672123 39.265109 0.229916 2.066374 0.021835 -0.006872 77133.300000 0 0 1
-33.815605 -6.526705 -18.321423 39.009839 0.190664 2.059704 0.025104 -0.008559 -76520.800000 0 0 1
23.108085 27.969295 -27.303493 45.406451 0.880286 2.215940 0.021923 0.035116 -96201.300000 0 0 1
23.716585 26.942995 -26.558493 44.651483 0.849000 2.207807 0.022091 0.026639 -310931.000000 0 0 1
24.995685 26.626495 -27.036353 45.439178 0.816979 2.208063 0.016220 0.024834 -440823.000000 0 0 1
25.769685 25.642195 -26.198163 44.810072 0.782918 2.195244 0.006376 0.018642 -505315.000000 0 0 1
26.141685 26.178795 -24.922723 44.607837 0.786107 2.163623 0.009149 0.023946 258057.000000 0 0 1
26.437985 25.153195 -24.003323 43.678482 0.760500 2.152617 0.000931 0.022583 -157243.000000 0 0 1
27.079085 25.682695 -22.671123 43.667579 0.758938 2.116682 0.012371 0.023986 -83918.300000 0 0 1
26.279085 26.599795 -21.950023 43.358309 0.791463 2.101624 0.023982 0.017094 -203077.000000 0 0 1
26.976785 27.220295 -20.908123 43.655939 0.789891 2.070231 0.014525 0.010943 -46127.700000 0 0 1
26.206685 28.358595 -20.165623 43.562055 0.824815 2.052080 0.029592 0.011359 -400475.000000 0 0 1
25.325785 27.828195 -19.222723 42.253011 0.832442 2.043105 0.035334 0.009871 -336008.000000 0 0 1
24.560085 28.909695 -18.716823 42.299973 0.866567 2.029157 0.030413 0.009912 -154473.000000 0 0 1
23.458485 28.409895 -17.783623 40.910633 0.880571 2.020495 0.026112 0.011372 -12617.100000 0 0 1
22.465185 27.545195 -18.291023 39.974790 0.886630 2.046050 0.026103 0.010999 1029640.000000 0 0 1
21.254085 27.479995 -17.502923 38.900367 0.912463 2.037497 0.015509 0.011399 1037210.000000 0 0 1
20.194585 26.595195 -18.197623 38.029977 0.921349 2.069750 0.002230 0.009844 -144843.000000 0 0 1
19.778585 26.934495 -19.514423 38.697185 0.937405 2.099350 0.007034 0.016336 -342668.000000 0 0 1
18.890385 25.988995 -20.013723 37.852657 0.942269 2.127896 0.004494 0.022849 -302261.000000 0 0 1
18.029185 26.516995 -21.170623 38.423923 0.973681 2.154329 -0.000017 0.028652 341214.000000 0 0 1
17.078185 27.518695 -20.780623 38.480869 1.015365 2.141263 -0.008652 0.030190 -181423.000000 0 0 1
16.164585 27.655795 -21.841623 38.771037 1.041858 2.169230 -0.011771 0.020336 42382.300000 0 0 1
15.022485 28.665995 -21.483423 38.845229 1.088092 2.156819 -0.009262 0.029066 -302268.000000 0 0 1
14.054985 28.076495 -20.705123 37.610295 1.106672 2.153780 -0.004547 0.034578 -295803.000000 0 0 1
13.240285 28.992895 -19.945223 37.599269 1.142407 2.129949 -0.025053 0.025307 500495.000000 0 0 1
13.308185 28.718095 -18.417223 36.620089 1.136849 2.097778 -0.019467 0.023738 -100922.000000 0 0 1
12.511385 27.628595 -18.066423 35.302545 1.145582 2.108028 -0.019717 0.032235 -243989.000000 0 0 1
12.013385 27.712595 -16.740323 34.533285 1.161749 2.076884 -0.000085 0.030185 -148291.000000 0 0 1
11.248285 26.496895 -16.284623 33.072622 1.169338 2.085630 0.021862 0.025212 -782462.000000 0 0 1
11.999785 25.330195 -16.241923 32.394655 1.128381 2.095985 -0.013442 0.029106 -553109.000000 0 0 1
11.229385 24.228595 -15.847423 31.052612 1.136792 2.106378 0.032941 0.021132 -10614.800000 0 0 1
11.868385 22.905295 -16.287023 30.508658 1.092734 2.133943 -0.002351 0.020967 -34030.000000 0 0 1
12.061485 22.808295 -17.678423 31.276579 1.084359 2.171507 -0.003650 0.022205 -362569.000000 0 0 1
12.830585 21.680795 -18.011423 30.969213 1.036432 2.191480 -0.007139 0.025353 -207064.000000 0 0 1
12.061085 20.356795 -18.240223 29.875987 1.035921 2.227527 -0.000213 0.011732 117669.000000 0 0 1
11.545485 19.885195 -16.981623 28.584869 1.044758 2.206914 -0.000891 0.007608 -247931.000000 0 0 1
11.133885 18.541195 -17.094123 27.567161 1.030013 2.239654 0.013723 0.001806 -277829.000000 0 0 1
12.220685 17.433695 -17.201123 27.370742 0.959412 2.250354 -0.001828 0.001204 -154014.000000 0 0 1
12.938985 17.301695 -15.990323 26.878549 0.928676 2.207950 0.001744 -0.002656 -219748.000000 0 0 1
13.838985 16.257095 -16.236223 26.822110 0.865572 2.220976 -0.003442 0.000701 -1061860.000000 0 0 1
14.378485 15.570495 -14.973723 25.949827 0.825179 2.185879 0.014369 0.008420 155361.000000 0 0 1
15.312485 16.268395 -14.094923 26.415899 0.815658 2.133621 0.006868 0.016689 1820650.000000 0 0 1
16.611985 16.674095 -14.561523 27.677092 0.787264 2.124830 -0.004533 0.019462 260329.000000 0 0 1
17.602485 15.549695 -15.016923 27.877383 0.723557 2.139663 -0.006001 0.010028 -355258.000000 0 0 1
18.108085 14.636195 -14.051623 27.195019 0.679762 2.113787 0.007646 0.008487 361897.000000 0 0 1
18.753985 15.292095 -12.982123 27.460802 0.684064 2.063206 -0.004353 0.010026 -912779.000000 0 0 1
19.430885 14.232395 -12.046623 26.930308 0.632182 2.034569 0.000409 0.009303 239038.000000 0 0 1
18.516785 13.432695 -11.258023 25.496112 0.627592 2.028131 0.013413 0.004609 777790.000000 0 0 1
19.159085 12.381795 -10.527123 25.123688 0.573743 2.003153 0.017025 0.001649 155869.000000 0 0 1
19.792585 11.208795 -11.349223 25.420235 0.515281 2.033606 0.019662 -0.002211 -1287530.000000 0 0 1
20.786485 11.522195 -12.271223 26.747371 0.506148 2.047421 0.017251 0.004595 181509.000000 0 0 1
21.423785 10.399595 -12.868223 27.068825 0.451918 2.066203 0.012368 0.001061 -121515.000000 0 0 1
22.147685 9.403595 -11.977823 26.877794 0.401520 2.032686 0.012814 0.002743 -985460.000000 0 0 1
21.225185 8.649995 -11.176423 25.499869 0.386985 2.024495 0.010619 -0.001125 848992.000000 0 0 1
21.801685 7.580295 -10.402523 25.317718 0.334618 1.994215 0.001177 0.010064 -498380.000000 0 0 1
22.284985 6.338095 -11.249223 25.755330 0.277094 2.022804 0.016394 0.001151 908472.000000 0 0 1
21.199585 5.453395 -11.668623 24.805618 0.251782 2.060543 0.029535 -0.007016 1433050.000000 0 1 0
20.286585 5.936695 -12.627523 24.622027 0.284692 2.109303 0.001577 -0.012543 -154648.000000 0 1 0
19.116885 5.040795 -13.062923 23.696094 0.257815 2.154681 -0.002895 -0.013743 305035.000000 0 1 0
19.552285 3.989695 -13.901723 24.320103 0.201289 2.179268 -0.008259 -0.001495 299835.000000 0 1 0
18.402485 3.207595 -14.049523 23.373686 0.172569 2.215652 -0.015512 0.007703 -570265.000000 0 1 0
18.514885 1.957395 -14.953223 23.879515 0.105329 2.247459 -0.024017 0.010096 -218641.000000 0 1 0
19.380585 0.937495 -14.468423 24.203744 0.048335 2.211521 -0.034130 0.003145 -63418.500000 0 1 0
20.678985 1.004195 -14.986423 25.558202 0.048523 2.197360 -0.006545 0.002808 -658855.000000 0 0 1
21.186385 -0.418905 -15.227923 26.094598 -0.019770 2.193910 0.008637 -0.001703 -275602.000000 0 0 1
20.625985 -1.136705 -16.283623 26.303607 -0.055055 2.238347 -0.001622 -0.003259 -90921.400000 0 0 1
21.397585 -2.259205 -16.526423 27.130855 -0.105193 2.225769 0.009168 -0.011698 -579925.000000 0 0 1
20.802785 -2.977705 -17.719423 27.488189 -0.142174 2.271322 0.008997 -0.003427 271660.000000 0 0 1
19.676485 -3.718405 -17.259223 26.436175 -0.186774 2.282155 0.008071 -0.000854 269378.000000 0 0 1
19.021185 -4.365905 -18.319723 26.767122 -0.225621 2.324592 0.009276 -0.001937 -236318.000000 0 0 1
18.124385 -5.542105 -17.883123 26.057904 -0.296753 2.327164 0.004380 0.004337 24732.000000 0 0 1
18.781785 -6.650505 -17.248423 26.353230 -0.340317 2.284329 0.003020 0.006887 265263.000000 0 0 1
17.796885 -7.481605 -16.708123 25.531645 -0.397958 2.284196 0.012188 0.008733 -347832.000000 0 0 1
18.401585 -8.639905 -15.972723 25.853320 -0.438967 2.236765 0.000530 0.006353 -93535.600000 0 0 1
19.057585 -9.536905 -16.821923 27.149976 -0.463988 2.239020 0.011160 0.000690 -55558.300000 0 0 1
19.796885 -10.477705 -16.130323 27.602287 -0.486781 2.194917 0.009151 -0.000984 -67124.700000 0 0 1
20.598085 -11.495005 -17.013923 29.084185 -0.509012 2.195663 0.011799 -0.000942 466872.000000 0 0 1
21.679285 -10.960305 -17.784423 30.106567 -0.468090 2.202742 0.010095 -0.000752 297038.000000 0 0 1
22.176685 -11.853905 -18.709123 31.342490 -0.490882 2.210459 0.017546 0.001583 -666131.000000 0 0 1
21.422885 -11.879105 -20.060923 31.662182 -0.506296 2.256984 0.025220 0.003554 -399606.000000 0 0 1
20.157485 -12.455505 -20.058023 31.044936 -0.553484 2.273255 0.013905 -0.001461 -383603.000000 0 0 1
20.169185 -13.854805 -19.969123 31.583500 -0.601900 2.255269 0.006992 0.008365 113782.000000 0 0 1
18.687185 -14.350005 -19.979523 30.891987 -0.654863 2.274117 0.002665 0.013050 841149.000000 0 0 1
18.043185 -14.108905 -21.237023 31.235058 -0.663639 2.318436 0.001332 0.017036 754064.000000 0 0 1
16.618985 -13.953005 -21.102523 30.268688 -0.698415 2.342243 -0.001470 0.024888 899163.000000 0 0 1
15.961585 -13.310705 -22.306023 30.487796 -0.695085 2.391518 0.005644 0.018961 -504763.000000 0 0 1
16.102585 -14.064105 -23.528023 31.790881 -0.717927 2.403996 -0.007260 0.022477 126813.000000 0 0 1
15.576285 -13.454205 -24.649923 32.113159 -0.712430 2.445878 0.004913 0.012029 -260493.000000 0 0 1
15.669985 -14.300405 -25.972203 33.535136 -0.739732 2.456685 0.006507 0.008638 -275545.000000 0 0 1
14.786385 -15.404005 -25.969073 33.620132 -0.805853 2.453449 0.003473 0.011453 207562.000000 0 0 1
14.809385 -16.003505 -27.274773 34.919096 -0.824133 2.467197 0.009815 0.004778 -133129.000000 0 0 1
15.577885 -17.374405 -27.433203 36.015567 -0.839863 2.436735 0.003906 0.001080 1384990.000000 0 0 1
17.001285 -17.071905 -27.502613 36.563470 -0.787471 2.422173 0.005142 0.001455 1149260.000000 0 0 1
17.767585 -18.255505 -27.374323 37.393904 -0.798942 2.392127 0.001925 -0.001872 685178.000000 0 0 1
19.298885 -17.956905 -27.294633 37.945940 -0.749393 2.373595 -0.005247 -0.000542 514329.000000 0 0 1
19.705185 -17.358805 -26.081023 37.011379 -0.722176 2.352762 -0.002579 0.004408 -413228.000000 0 0 1
21.098785 -17.222005 -26.006153 37.657352 -0.684575 2.333114 0.006440 0.004702 -293893.000000 0 0 1
21.527985 -16.489105 -24.707723 36.685369 -0.653624 2.309735 0.007183 0.013201 -151774.000000 0 0 1
21.218985 -15.152805 -24.550523 35.813140 -0.620137 2.326110 0.008299 0.011236 639378.000000 0 0 1
19.823185 -14.896205 -24.254623 34.686342 -0.644431 2.345152 0.016450 0.010139 1169220.000000 0 0 1
19.728385 -13.479205 -23.694423 33.650019 -0.599388 2.352012 0.015099 0.009766 -140182.000000 0 0 1
20.084385 -12.420305 -24.564723 34.074508 -0.553844 2.375914 0.024158 -0.001940 189626.000000 0 0 1
19.768585 -11.215205 -23.982823 33.041694 -0.516047 2.383044 0.033617 -0.000991 -66129.000000 0 0 1
19.670485 -10.044905 -25.011423 33.367639 -0.472138 2.418210 0.048514 -0.008295 -248813.000000 0 0 1
19.244785 -8.836805 -24.394623 32.304001 -0.430461 2.426691 0.059702 -0.007321 134490.000000 0 0 1
19.016285 -7.823105 -25.355513 32.645399 -0.390286 2.460198 0.056844 -0.005368 -399837.000000 0 0 1
18.603485 -6.585905 -24.588923 31.529017 -0.340247 2.465274 0.055439 -0.009440 -145378.000000 0 0 1
17.364785 -6.766105 -23.934323 30.334267 -0.371548 2.480007 0.040901 -0.007010 -162892.000000 0 0 1
17.135085 -5.920205 -22.792423 29.123092 -0.332662 2.469666 0.022280 -0.002468 136487.000000 0 0 1
17.961885 -6.260205 -21.522623 28.723558 -0.335362 2.417804 0.023963 -0.011680 85753.800000 0 0 1
17.458685 -7.357505 -20.747323 28.096084 -0.398838 2.401553 0.026373 -0.013116 329480.000000 0 0 1
17.698485 -8.644905 -21.271223 28.990268 -0.454369 2.394602 0.035191 -0.007064 -361874.000000 0 0 1
17.390685 -9.778105 -20.247923 28.425792 -0.512208 2.363578 0.028392 -0.005263 -253040.000000 0 0 1
16.018085 -9.842305 -19.988523 27.440682 -0.550976 2.386819 0.017242 -0.002416 -514587.000000 0 0 1
15.650285 -10.867805 -19.081523 26.965628 -0.606968 2.356926 0.014283 0.001904 324984.000000 0 0 1
14.245985 -10.736505 -18.415723 25.639022 -0.645834 2.372108 0.003708 0.001884 276066.000000 0 0 1
14.111485 -9.711905 -17.433523 24.441416 -0.602781 2.364960 0.020322 -0.001914 131659.000000 0 1 0
14.051185 -8.401505 -17.907023 24.262781 -0.538890 2.400965 0.029805 -0.012232 -439783.000000 0 1 0
12.847985 -7.723305 -17.240023 22.845974 -0.541250 2.425871 0.029545 -0.002864 -153095.000000 0 1 0
11.639485 -7.820805 -17.950323 22.778426 -0.591631 2.478416 0.016791 -0.009552 -287639.000000 0 1 0
10.737785 -6.840005 -17.508523 21.647957 -0.567184 2.512878 0.005480 -0.009044 -800183.000000 0 1 0
9.330285 -6.910005 -18.060823 21.470811 -0.637458 2.570259 0.009163 -0.004249 -638823.000000 0 1 0
9.036685 -6.491105 -19.349823 22.320658 -0.622906 2.619750 -0.002648 -0.006281 277131.000000 0 1 0
7.612385 -6.400805 -19.422323 21.820755 -0.699153 2.668328 -0.003964 -0.015354 580109.000000 0 1 0
7.151785 -6.077605 -20.857623 22.871942 -0.704379 2.718761 -0.009814 -0.013952 -14629.300000 0 1 0
7.138585 -7.120005 -21.787623 24.007382 -0.784095 2.708182 -0.002690 -0.008006 -201497.000000 0 1 0
6.442585 -6.642105 -22.884523 24.684526 -0.800645 2.757342 0.003837 -0.008065 -235175.000000 0 1 0
6.396885 -7.676005 -24.042323 26.036023 -0.876042 2.747708 0.006718 0.000796 -270981.000000 0 0 1
5.694385 -8.812705 -23.630323 25.855018 -0.997128 2.723722 0.007733 -0.005687 45424.200000 0 0 1
5.659785 -9.733305 -24.724323 27.167306 -1.044101 2.714265 0.010076 0.005622 -360978.000000 0 0 1
4.851885 -10.987105 -24.401623 27.197361 -1.154951 2.684197 0.010407 0.001096 -132093.000000 0 0 1
5.424385 -11.985505 -23.521223 26.950403 -1.145800 2.631624 0.012666 -0.004194 -112665.000000 0 0 1
4.720085 -13.219005 -23.524223 27.393619 -1.227839 2.603618 0.019245 -0.006701 -581770.000000 0 0 1
5.377985 -14.369705 -22.704523 27.402673 -1.212676 2.547312 0.022329 -0.005935 -28163.800000 0 0 1
6.479285 -15.032905 -23.297823 28.473811 -1.163849 2.529103 0.022276 -0.001985 -68397.400000 0 0 1
7.718085 -14.417805 -23.548923 28.670432 -1.079297 2.534598 0.036582 0.000715 93243.600000 0 0 1
8.550285 -13.980105 -22.320523 27.690367 -1.021888 2.508287 0.024198 0.005371 -327643.000000 0 0 1
9.101485 -15.015605 -21.483523 27.746120 -1.025878 2.456388 0.021393 0.013998 411406.000000 0 0 1
8.096085 -15.544505 -20.649623 27.084777 -1.090622 2.437821 0.014576 0.004031 16272.100000 0 0 1
8.690485 -15.846005 -19.276323 26.423418 -1.069156 2.388411 0.010930 0.000317 85010.700000 0 0 1
9.605585 -16.904005 -19.260123 27.367224 -1.054055 2.351481 0.014618 0.000233 -490243.000000 0 0 1
10.199285 -17.201405 -18.013623 26.914761 -1.035589 2.304041 0.004323 0.006772 111296.000000 0 0 1
9.375085 -18.094205 -16.985423 26.529174 -1.092753 2.265626 0.007308 -0.001853 159108.000000 0 0 1
8.889585 -19.363605 -17.385023 27.499326 -1.140411 2.255183 -0.003556 -0.005047 374870.000000 0 0 1
8.017585 -19.535905 -18.511723 28.082328 -1.181355 2.290544 0.005399 -0.002013 614464.000000 0 0 1
6.514885 -19.236705 -18.208123 27.276918 -1.244251 2.301681 0.002124 -0.001955 252089.000000 0 0 1
6.196185 -17.845605 -18.100923 26.162984 -1.236609 2.334848 0.002518 -0.006322 473052.000000 0 0 1
4.783885 -17.637305 -18.214423 25.801653 -1.305932 2.354546 0.003226 -0.004286 951333.000000 0 0 1
4.362485 -16.129605 -17.915123 24.497899 -1.306652 2.391011 0.001681 0.002171 126680.000000 0 1 0
4.606485 -15.859605 -16.569123 23.394072 -1.288120 2.357829 -0.005911 0.006954 -5718.610000 0 1 0
4.305085 -14.545705 -16.173123 22.173885 -1.283041 2.388207 -0.006279 0.013019 90163.200000 0 1 0
9.945985 30.584895 -18.232623 36.970082 1.256390 2.086529 0.010669 -0.000577 -329300.000000 0 0 1
8.997385 30.029695 -19.113223 36.715812 1.279692 2.118317 0.028369 0.002606 -436456.000000 0 0 1
8.128685 29.220095 -18.362923 35.455415 1.299469 2.115209 0.021199 0.004437 -540796.000000 0 0 1
6.998185 28.746495 -19.292523 35.320490 1.331997 2.148633 0.018994 0.002131 -131732.000000 0 0 1
6.306985 29.884395 -19.810323 36.404725 1.362802 2.146195 0.020663 -0.008295 -365123.000000 0 0 1
5.228685 29.427795 -20.575223 36.286004 1.394953 2.173691 0.016993 -0.011522 -260920.000000 0 0 1
4.251085 30.458395 -21.106723 37.299857 1.432122 2.172280 0.013178 -0.007849 -107445.000000 0 0 1
3.410285 31.118495 -20.152523 37.230565 1.461642 2.142767 0.012841 -0.016121 -584257.000000 0 0 1
2.407585 31.863495 -20.731723 38.090460 1.495380 2.146322 0.001577 -0.015845 571758.000000 0 0 1
0.997985 31.167895 -20.419523 37.274530 1.538788 2.150546 -0.012853 -0.010038 812529.000000 0 0 1
0.742885 29.826395 -20.890523 36.422242 1.545895 2.181648 -0.009715 -0.013207 28606.700000 0 0 1
0.459285 29.666295 -22.266223 37.095616 1.555316 2.214596 -0.009919 -0.009399 -268795.000000 0 0 1
-0.084415 28.298095 -22.700323 36.278010 -1.567813 2.246866 -0.010353 -0.002942 126625.000000 0 0 1
-1.293315 27.874295 -22.114623 35.604853 -1.524431 2.240958 -0.013590 0.000031 32196.100000 0 0 1
-1.711715 26.575995 -22.476023 34.848029 -1.506477 2.271784 -0.003699 -0.006398 -431287.000000 0 0 1
-2.781115 25.996595 -21.566723 33.892198 -1.464222 2.260532 -0.006561 -0.006837 -198115.000000 0 0 1
-3.890915 26.887995 -21.473423 34.629632 -1.427086 2.239651 -0.002739 -0.012185 172094.000000 0 0 1
-4.912615 26.247495 -20.721323 33.799971 -1.385772 2.230721 0.000905 -0.016381 -41306.800000 0 0 1
-6.191615 27.103395 -20.620123 34.613864 -1.346206 2.208956 0.009081 -0.026599 600896.000000 0 0 1
-7.280015 26.405395 -19.962223 33.892977 -1.301778 2.200590 0.008068 -0.022835 559727.000000 0 0 1
-8.294715 27.341795 -19.589223 34.642658 -1.276249 2.171794 0.015194 -0.018762 261061.000000 0 0 1
-9.447815 26.659495 -18.836723 33.982525 -1.230217 2.158325 0.010468 -0.015133 -452081.000000 0 0 1
-9.106715 26.228895 -17.545923 32.844278 -1.236617 2.134376 0.008696 -0.016580 -10272.600000 0 0 1
-10.179715 25.434195 -17.043023 32.264369 -1.190085 2.127312 -0.001201 -0.019208 36766.800000 0 0 1
-9.996015 24.687695 -15.702523 30.918794 -1.186074 2.103499 0.008083 -0.005907 20151.700000 0 0 1
-9.231015 23.505295 -15.680023 29.724967 -1.196581 2.126456 0.016794 -0.007353 85881.700000 0 0 1
-9.722415 22.770695 -14.542023 28.714114 -1.167258 2.101849 0.032024 0.003736 43273.100000 0 0 1
-9.291815 21.305695 -14.469623 27.379563 -1.159546 2.127609 0.054985 0.006539 -162250.000000 0 0 1
-9.973415 20.322795 -15.260823 27.301607 -1.114576 2.163941 0.017452 0.008394 -189728.000000 0 0 1
-9.858815 20.355795 -16.662823 28.092780 -1.119767 2.205744 0.014595 0.006458 -185311.000000 0 0 1
-8.524715 20.199195 -17.424723 28.005343 -1.171442 2.242337 0.000249 0.001490 -174399.000000 0 0 1
-7.953515 18.923095 -17.269023 26.824636 -1.172907 2.270217 0.003438 0.006032 -178863.000000 0 0 1
-6.998715 18.651495 -18.276523 27.035007 -1.211819 2.313160 -0.002287 0.001981 95642.200000 0 0 1
-6.422015 17.210695 -18.192723 25.853926 -1.213657 2.351351 -0.017921 0.011503 -222839.000000 0 0 1
-7.371015 16.228995 -18.492423 25.684273 -1.144465 2.374584 -0.014021 -0.000631 -571694.000000 0 0 1
-7.296315 15.706495 -19.803523 26.307979 -1.135916 2.423037 -0.009626 0.000150 219209.000000 0 0 1
-6.188215 14.662095 -20.116723 25.650606 -1.171422 2.472297 -0.019686 0.010375 162670.000000 0 0 1
-6.363015 13.416195 -19.480323 24.494188 -1.127937 2.490305 -0.028157 0.007262 166202.000000 0 1 0
-5.144215 12.845395 -19.003923 23.507791 -1.189884 2.512241 -0.029034 0.017051 337104.000000 0 1 0
-4.763115 13.344495 -17.588723 22.585969 -1.227957 2.463460 -0.006381 0.015341 -321579.000000 0 1 0
-4.042315 14.516795 -17.595423 23.166281 -1.299218 2.433382 -0.016337 0.008414 -507039.000000 0 1 0
-3.648115 15.007195 -16.262823 22.427752 -1.332331 2.382006 -0.001558 0.009454 224332.000000 0 1 0
-2.859815 16.334895 -16.264823 23.228255 -1.397479 2.346498 0.006863 0.013706 283337.000000 0 1 0
-3.560015 17.473395 -16.795123 24.496314 -1.369808 2.326249 0.000583 0.019081 -3.893610 0 1 0
-2.709615 18.595395 -16.737923 25.165230 -1.426100 2.298452 0.000787 0.016354 135824.000000 0 0 1
-3.339015 19.812495 -17.430223 26.598810 -1.403834 2.285377 0.014202 0.008444 124487.000000 0 0 1
-3.497315 19.785895 -18.847123 27.548628 -1.395845 2.324220 0.009790 0.007729 -160531.000000 0 0 1
-4.011315 20.987395 -19.346323 28.824324 -1.381944 2.306596 0.025825 0.000819 -506981.000000 0 0 1
-3.071415 22.216395 -19.298323 29.587617 -1.433417 2.281336 0.005255 0.001137 -319311.000000 0 0 1
-1.996215 22.059495 -20.245723 30.008257 -1.480550 2.311316 0.000938 0.010557 318989.000000 0 0 1
-0.979715 23.032095 -20.038723 30.544847 -1.528285 2.286360 -0.001119 0.010814 885968.000000 0 0 1
0.056085 22.735195 -18.865023 29.542873 1.568329 2.263428 0.016419 0.009874 33212.700000 0 0 1
-0.516515 22.497795 -17.592723 28.564339 -1.547842 2.234322 0.013963 0.008874 -136345.000000 0 0 1
0.557485 22.171395 -16.714923 27.771752 1.545657 2.216634 0.029539 0.004987 369506.000000 0 0 1
0.146185 22.147695 -15.236723 26.883071 1.564196 2.173386 0.027843 -0.000396 204427.000000 0 0 1
-0.720315 21.030995 -14.954423 25.815817 -1.536560 2.188634 0.027527 0.008580 170409.000000 0 0 1
-0.832815 21.066495 -13.518423 25.044731 -1.531284 2.140962 0.040352 0.002034 -290352.000000 0 0 1
-1.678615 19.939395 -13.023923 23.875088 -1.486809 2.147785 0.016422 0.008166 -393187.000000 0 1 0
-1.057115 18.686695 -13.174023 22.888096 -1.514286 2.184115 0.015098 0.008021 -39183.200000 0 1 0
-1.703415 17.736295 -12.373623 21.692956 -1.475049 2.177787 0.003191 0.002427 -121728.000000 0 1 0
-1.292115 16.304295 -12.690423 20.701363 -1.491712 2.230678 -0.004294 0.006589 -233794.000000 0 1 0
-0.071615 15.915295 -12.093723 19.988994 -1.566297 2.220586 0.002074 0.005863 194140.000000 0 1 0
0.090085 14.492895 -11.965323 18.794177 1.564581 2.260943 0.005265 0.001256 -221720.000000 0 1 0
0.685285 13.820795 -13.223923 19.140432 1.521253 2.333515 -0.003081 -0.004286 172525.000000 0 1 0
-0.291515 13.579995 -14.259223 19.693316 -1.549333 2.380473 -0.002363 -0.009056 660273.000000 0 1 0
0.238685 12.674495 -15.211423 19.801192 1.551967 2.446833 -0.003181 -0.008394 -305768.000000 0 1 0
-0.522415 12.702895 -16.579723 20.893149 -1.529694 2.487415 -0.010065 0.001345 168808.000000 0 1 0
-0.188415 13.807895 -17.401423 22.214927 -1.557152 2.470787 -0.008282 -0.000500 -117836.000000 0 1 0
-0.690315 13.727995 -18.712523 23.218374 -1.520553 2.508051 -0.014420 0.001997 -212752.000000 0 1 0
-1.282315 15.036595 -19.293323 24.494404 -1.485723 2.477802 -0.015356 0.009498 -558910.000000 0 1 0
-0.349615 16.019895 -19.534023 25.265339 -1.548976 2.454597 -0.012256 0.012065 -678555.000000 0 0 1
-0.984115 17.279695 -19.752023 26.262117 -1.513906 2.422056 -0.008345 0.011285 -89012.200000 0 0 1
-0.057915 18.426195 -20.191523 27.335428 -1.567653 2.401873 0.005489 0.011656 -44254.800000 0 0 1
0.351385 18.317895 -21.523723 28.265516 1.551616 2.436395 0.010594 0.001006 -79607.800000 0 0 1
1.213385 19.359995 -21.907023 29.260885 1.508203 2.416864 0.012692 0.002268 -60127.900000 0 0 1
1.664385 19.269195 -23.364223 30.330826 1.484635 2.450128 0.018929 -0.001099 -61817.600000 0 0 1
2.506585 18.183195 -23.661123 29.945956 1.433808 2.481813 0.010398 -0.003679 -223145.000000 0 0 1
2.885485 18.179495 -24.999323 31.044907 1.413387 2.506916 0.016940 -0.014279 320368.000000 0 0 1
4.091185 17.241095 -25.361633 30.938739 1.337813 2.531748 0.013147 -0.010534 -1466600.000000 0 0 1
5.296585 17.796795 -24.982423 31.127178 1.281529 2.502424 0.003837 0.006611 -1257260.000000 0 0 1
6.293285 16.828195 -25.167963 30.922806 1.212927 2.521624 0.009657 0.000161 -319889.000000 0 0 1
6.806085 16.606995 -26.608143 32.095301 1.181843 2.548177 0.001993 -0.014101 -1657430.000000 0 0 1
7.847985 17.464295 -26.990523 33.092005 1.148464 2.524597 -0.000948 -0.008044 104115.000000 0 0 1
8.280485 17.449895 -28.363123 34.315186 1.127732 2.543742 0.009939 -0.013979 206644.000000 0 0 1
8.948885 16.156595 -28.932853 34.325327 1.064976 2.573449 0.009489 -0.016538 124547.000000 0 0 1
10.210285 15.807595 -28.359433 34.035091 0.997302 2.555740 0.022687 -0.012876 651905.000000 0 0 1
10.715185 14.556495 -28.835783 34.032472 0.936244 2.581681 0.014056 -0.007820 -140840.000000 0 0 1
10.323785 13.464995 -27.854553 32.615376 0.916685 2.594482 0.003424 -0.007979 -1253960.000000 0 0 1
8.952885 13.310795 -27.855303 32.144196 0.978695 2.619091 0.002146 -0.001426 -1005960.000000 0 0 1
8.553285 12.819595 -26.616073 30.755748 0.982422 2.616748 -0.003587 -0.000373 -685967.000000 0 0 1
7.160285 12.234095 -26.497483 30.050946 1.041276 2.650360 0.009686 -0.003852 -384680.000000 0 0 1
6.103185 13.172695 -26.670393 30.365748 1.136920 2.643102 0.017840 -0.006990 188842.000000 0 0 1
4.889985 12.470995 -26.424133 29.625538 1.197111 2.672409 0.017444 -0.002105 893059.000000 0 0 1
3.568085 13.293795 -26.621283 29.969133 1.308574 2.664405 0.034664 -0.003155 255650.000000 0 0 1
3.135185 13.595295 -27.930693 31.221548 1.344151 2.678324 0.040371 -0.009702 176861.000000 0 0 1
3.811185 14.679995 -28.543543 32.322767 1.316787 2.653180 0.040232 -0.016397 -24892.600000 0 0 1
3.668085 14.699695 -30.094323 33.692791 1.326256 2.675203 0.049976 -0.017490 -174368.000000 0 0 1
4.358185 13.565595 -30.575803 33.732757 1.259944 2.705509 0.044067 -0.015428 139264.000000 0 0 1
4.278285 13.554295 -31.974103 34.990940 1.265053 2.723296 0.039795 -0.006196 -634559.000000 0 0 1
5.264885 12.468595 -32.515483 35.219902 1.171256 2.747156 0.029496 -0.004247 -629146.000000 0 0 1
6.614485 12.772195 -32.416173 35.463906 1.092946 2.723983 0.026933 -0.005461 -341507.000000 0 0 1
7.285585 12.726895 -31.138933 34.419279 1.050876 2.701459 0.024056 -0.006470 -346117.000000 0 0 1
7.327085 11.366895 -30.406143 33.278011 0.998228 2.723096 0.021831 -0.000098 -367230.000000 0 0 1
8.238985 10.444195 -30.953453 33.690924 0.902886 2.735693 0.008979 0.000885 -219964.000000 0 0 1
8.132285 9.224695 -30.322913 32.721676 0.848253 2.756309 0.006154 -0.001028 -439455.000000 0 0 1
9.195685 8.164295 -30.650583 33.025363 0.726056 2.760052 -0.005037 0.002122 521903.000000 0 0 1
10.428785 8.470195 -29.965593 32.839618 0.682132 2.720109 -0.003344 0.004496 373705.000000 0 0 1
11.168985 7.273995 -29.905843 32.741666 0.577266 2.722327 -0.020167 0.009455 -275514.000000 0 0 1
12.363285 7.298695 -28.904933 32.274090 0.533296 2.680592 -0.011075 0.026323 267598.000000 0 0 1
12.989185 6.078895 -28.623033 32.014839 0.437719 2.677114 0.006995 0.010609 -444626.000000 0 0 1
14.092085 5.877395 -29.479633 33.199087 0.395135 2.663698 -0.006661 0.018984 -781225.000000 0 0 1
14.847585 4.633295 -29.117823 33.011601 0.302481 2.650988 0.005233 0.012818 -334363.000000 0 0 1
15.538785 4.834995 -27.898413 32.297871 0.301661 2.613530 0.004586 0.008329 155869.000000 0 0 1
16.344385 3.678795 -27.611233 32.296325 0.221391 2.596220 0.014296 0.010612 277689.000000 0 0 1
17.237285 3.889695 -26.369733 31.742976 0.221939 2.551208 0.019599 0.005595 293084.000000 0 0 1
18.324285 4.800195 -26.406673 32.498210 0.256201 2.519323 0.035228 -0.002690 565828.000000 0 0 1
18.949785 5.099595 -25.139153 31.891648 0.262883 2.478785 0.038921 -0.011121 489762.000000 0 0 1
19.986485 6.238995 -25.254143 32.804822 0.302576 2.449371 0.023017 -0.009603 24447.100000 0 0 1
19.306885 7.387195 -25.775533 33.040953 0.365434 2.465636 0.030112 -0.012667 254159.000000 0 0 1
20.168085 8.281295 -26.396053 34.235699 0.389623 2.451221 0.030468 -0.019850 -1020770.000000 0 0 1
20.028085 8.312095 -27.939063 35.366741 0.393389 2.481575 0.033065 -0.009295 104696.000000 0 0 1
18.905885 8.899795 -28.570423 35.396439 0.439969 2.510114 0.024296 0.002805 -454703.000000 0 0 1
17.715785 8.209995 -28.389603 34.456097 0.433965 2.539118 0.024026 0.002751 -1272400.000000 0 0 1
16.525685 8.853395 -29.088863 34.606976 0.491826 2.569092 0.006944 0.013029 -414077.000000 0 0 1
16.629185 8.605095 -30.469693 35.762825 0.477525 2.590577 -0.003619 0.022695 189187.000000 0 0 1
15.655585 9.327995 -31.185363 36.119741 0.537344 2.612744 -0.017361 0.025055 -122676.000000 0 0 1
15.284485 8.739795 -32.574083 37.027968 0.519432 2.646060 -0.023275 0.031068 282188.000000 0 0 1
14.513585 7.528395 -32.565693 36.439611 0.478506 2.676298 -0.019673 0.029928 536203.000000 0 0 1
13.335285 7.641895 -33.363813 36.733805 0.520374 2.709901 -0.027746 0.027409 588674.000000 0 0 1
12.843485 6.194895 -33.738903 36.628478 0.449418 2.741722 -0.026431 0.013201 328359.000000 0 0 1
12.204285 5.437995 -32.661843 35.288983 0.419173 2.753291 -0.021643 0.016304 125422.000000 0 0 1
11.465185 4.430895 -33.280933 35.478216 0.368784 2.787804 -0.014261 0.004186 -319980.000000 0 0 1
11.180085 3.271995 -32.308093 34.344041 0.284712 2.795540 -0.006212 0.004061 -525989.000000 0 0 1
12.318485 2.575395 -31.904713 34.297062 0.206099 2.765880 -0.002073 0.004136 -246449.000000 0 0 1
11.986785 1.591195 -30.929583 33.209246 0.131974 2.768912 0.002803 -0.000928 459819.000000 0 0 1
11.192585 0.320695 -31.470873 33.403483 0.028645 2.799765 0.001114 0.002351 596260.000000 0 0 1
11.991285 -0.700805 -32.076743 34.252000 -0.058376 2.783288 -0.000743 0.002954 361302.000000 0 0 1
12.900185 -1.386905 -31.217393 33.806270 -0.107099 2.747695 0.000916 -0.000579 474730.000000 0 0 1
13.548785 -2.683205 -31.772873 34.645124 -0.195510 2.731528 0.006318 -0.000525 995623.000000 0 0 1
12.656385 -3.851205 -31.821943 34.462326 -0.295387 2.747599 0.006966 0.002560 867054.000000 0 0 1
13.255185 -4.767105 -32.676243 35.583171 -0.345238 2.734576 0.022851 -0.002567 113962.000000 0 0 1
12.331985 -5.992505 -32.932373 35.672527 -0.452330 2.747085 0.023746 -0.003095 123471.000000 0 0 1
12.297485 -6.786705 -31.822443 34.784413 -0.504283 2.725927 0.027156 -0.008667 293383.000000 0 0 1
11.539185 -7.962905 -32.012813 34.948259 -0.604034 2.728805 0.040879 -0.011686 -206992.000000 0 0 1
11.656385 -8.694805 -30.617543 33.895499 -0.640889 2.698179 0.034746 -0.009219 495337.000000 0 0 1
12.989085 -9.141405 -30.357943 34.262024 -0.613256 2.659555 0.014866 -0.009062 631196.000000 0 0 1
13.071385 -9.582805 -29.003103 33.224558 -0.632606 2.631997 0.018670 -0.007382 -97202.000000 0 0 1
13.577085 -11.020605 -28.923703 33.798987 -0.681838 2.597808 0.023416 -0.009251 -256421.000000 0 0 1
12.783685 -11.900805 -29.648493 34.410535 -0.749647 2.609231 0.017906 -0.003143 -188640.000000 0 0 1
13.140985 -13.196705 -29.264613 34.687982 -0.787514 2.574847 0.027596 -0.013693 210197.000000 0 0 1
-9.868915 -3.499705 -17.507723 20.400093 0.340784 2.602584 -0.026037 0.018613 -82537.600000 0 1 0
-10.520615 -2.918705 -18.579023 21.549531 0.270621 2.610303 -0.031932 0.015808 -544403.000000 0 1 0
-11.436715 -3.783805 -19.133823 22.610149 0.319511 2.579702 -0.030315 0.017065 -678370.000000 0 1 0
-12.388915 -3.268205 -20.208523 23.928033 0.257925 2.576529 -0.020799 0.008508 -167483.000000 0 1 0
-13.167615 -2.193505 -19.754623 23.842036 0.165068 2.547332 -0.022546 0.005673 268017.000000 0 1 0
-14.212415 -1.842505 -20.672423 25.154257 0.128921 2.535405 -0.023132 0.021702 955508.000000 0 0 1
-14.861315 -0.407505 -20.511523 25.332732 0.027414 2.514411 -0.019191 0.019783 417904.000000 0 0 1
-13.988415 0.531395 -21.136523 25.351741 -0.037970 2.556626 -0.013333 0.012791 546121.000000 0 0 1
-14.672015 1.800095 -21.200323 25.844962 -0.122079 2.532711 -0.020828 0.020164 408258.000000 0 0 1
-13.930615 2.877195 -22.046623 26.237261 -0.203674 2.568594 -0.004874 0.005972 -199524.000000 0 0 1
-12.893815 3.542995 -21.382523 25.219349 -0.268164 2.582736 -0.010652 0.007469 -34602.000000 0 0 1
-12.614015 4.794295 -21.994623 25.804304 -0.363214 2.591283 -0.006330 0.003441 -118721.000000 0 0 1
-11.479315 5.543795 -21.251323 24.781587 -0.449905 2.601274 -0.017064 0.003140 -123199.000000 0 1 0
-11.919415 6.058495 -19.999023 24.056990 -0.470256 2.552272 -0.005099 0.000769 631332.000000 0 1 0
-10.880315 6.517495 -19.138523 22.959575 -0.539696 2.556344 -0.009746 0.000781 -9885.310000 0 1 0
-11.503915 6.966495 -17.817123 22.323127 -0.544509 2.495009 0.007249 0.002130 105039.000000 0 1 0
-11.988615 8.268495 -17.848423 23.036083 -0.603777 2.457200 0.007955 0.000886 96064.900000 0 1 0
-12.987115 8.471995 -16.879223 22.920472 -0.578017 2.398568 0.008921 0.003418 -401576.000000 0 1 0
-13.588515 9.837295 -16.834023 23.765615 -0.626614 2.357933 0.009385 0.008336 -141645.000000 0 1 0
-12.705315 10.865695 -16.350823 23.384563 -0.707510 2.345094 -0.010539 0.025181 593985.000000 0 1 0
-13.373715 12.078295 -16.517023 24.444908 -0.734545 2.312688 0.003320 0.014001 -90479.200000 0 1 0
-12.705715 13.241995 -15.717223 24.162300 -0.806063 2.279020 0.002195 0.020520 -520834.000000 0 1 0
-12.745015 13.095295 -14.322523 23.217598 -0.798953 2.235572 0.017152 0.017966 207985.000000 0 1 0
-12.109315 14.164295 -13.666523 23.109233 -0.863454 2.203575 0.017684 0.006215 -1378890.000000 0 1 0
-12.416915 14.230495 -12.127123 22.444462 -0.853352 2.141610 0.011380 -0.002491 213241.000000 0 1 0
-13.712615 14.649995 -11.751923 23.254373 -0.818436 2.100600 -0.003488 -0.002403 134413.000000 0 1 0
-14.761115 13.825595 -12.196923 23.617844 -0.752684 2.113471 0.003793 0.007517 -1233870.000000 0 1 0
-16.159515 14.413595 -11.927823 24.721542 -0.728354 2.074288 -0.001100 0.018189 309485.000000 0 1 0
-17.218515 13.612295 -12.437423 25.228185 -0.668959 2.086328 -0.001033 0.011838 210778.000000 0 0 1
-18.493015 14.052395 -12.016523 26.150684 -0.649792 2.048241 0.022555 0.013836 252003.000000 0 0 1
-19.638815 13.364295 -12.831423 26.998757 -0.597521 2.066056 0.020067 0.010797 -102561.000000 0 0 1
-19.911515 12.027295 -12.536623 26.425200 -0.543383 2.065101 0.017705 0.009099 304373.000000 0 0 1
-21.069315 11.655295 -13.266923 27.491330 -0.505288 2.074401 0.027904 0.004525 548574.000000 0 0 1
-21.883915 10.429895 -12.645423 27.342187 -0.444754 2.051595 0.020697 -0.001385 429758.000000 0 0 1
-21.151115 9.238095 -12.854723 26.418857 -0.411794 2.078960 0.019589 -0.007436 316581.000000 0 0 1
-21.532915 8.297895 -11.929323 25.977495 -0.367821 2.047911 0.012193 -0.004315 391206.000000 0 0 1
-20.503515 7.098395 -11.790823 24.694227 -0.333289 2.068573 0.009870 0.000705 220995.000000 0 1 0
-20.404015 6.270895 -12.930123 24.956683 -0.298174 2.115427 0.013042 -0.000910 554446.000000 0 1 0
-19.259915 5.422195 -12.932623 23.824300 -0.274425 2.144603 0.003901 -0.000905 138579.000000 0 1 0
-19.401415 4.266695 -14.011723 24.309422 -0.216471 2.185101 0.010956 -0.008739 -7555.730000 0 1 0
-20.157415 3.181895 -13.502523 24.469654 -0.156561 2.155326 0.015008 -0.012828 448419.000000 0 1 0
-19.897015 2.123595 -14.428423 24.669420 -0.106327 2.195517 0.015741 -0.017961 -203636.000000 0 1 0
-20.686615 0.832095 -14.135323 25.068622 -0.040202 2.169855 0.021502 -0.013214 40679.600000 0 0 1
-22.051215 0.836795 -14.538923 26.426059 -0.037930 2.153369 0.024768 -0.009854 441376.000000 0 0 1
-22.512215 -0.516405 -14.472623 26.767953 0.022935 2.142029 0.017740 -0.018857 519147.000000 0 0 1
-23.970315 -0.476305 -15.054423 28.309690 0.019868 2.131493 0.027968 -0.011115 271211.000000 0 0 1
-25.005215 -0.000805 -14.241423 28.776360 0.000032 2.088516 0.039994 -0.010181 -465621.000000 0 0 1
-26.214835 -0.122805 -14.936123 30.171517 0.004685 2.088678 0.015942 -0.004393 -914983.000000 0 0 1
-27.405345 0.308795 -14.114623 30.828086 -0.011267 2.046371 0.017365 0.004568 -865868.000000 0 0 1
-27.810075 -0.643005 -13.171723 30.778369 0.023117 2.013024 0.013178 -0.003104 -205817.000000 0 0 1
-29.075285 -0.333605 -12.647523 31.708727 0.011473 1.981076 0.011996 0.001241 -157136.000000 0 0 1
-29.348725 -1.056705 -11.306023 31.468881 0.035990 1.938289 0.007012 -0.006647 -430953.000000 0 0 1
-29.477915 -2.462605 -11.231523 31.641097 0.083347 1.933674 0.011145 -0.014894 -417189.000000 0 0 1
-28.409635 -3.213605 -11.665423 30.879066 0.112638 1.958191 0.011395 -0.014341 -893504.000000 0 0 1
-28.651115 -4.705305 -11.252723 31.139205 0.162775 1.940531 0.008084 -0.019849 58792.000000 0 0 1
-29.654925 -5.410905 -11.979923 32.437803 0.180477 1.949073 0.006466 -0.013846 252682.000000 0 0 1
-30.033965 -6.622505 -11.406023 32.802347 0.217028 1.925934 0.016522 -0.011957 -179251.000000 0 0 1
-29.201155 -7.803805 -11.904823 32.485868 0.261140 1.946000 0.018476 -0.022855 410739.000000 0 0 1
-27.847515 -7.784605 -11.445823 31.098087 0.272586 1.947713 0.017797 -0.019073 254890.000000 0 0 1
-27.073115 -8.703705 -12.191923 30.941090 0.311053 1.975816 0.018278 -0.019498 -76314.200000 0 0 1
-25.611235 -8.814105 -11.720923 29.512774 0.331454 1.979203 0.016992 -0.020626 -110332.000000 0 0 1
-24.906315 -7.561205 -11.935923 28.634989 0.294743 2.000751 0.011988 -0.027136 848823.000000 0 0 1
-23.522915 -7.521805 -11.599423 27.284642 0.309490 2.009898 0.008755 -0.026837 352741.000000 0 0 1
-23.186515 -7.499405 -10.064723 26.365777 0.312819 1.962468 -0.002382 -0.017441 -361401.000000 0 0 1
-23.545615 -6.260705 -9.394023 26.112068 0.259884 1.938805 -0.005032 -0.014669 814838.000000 0 0 1
-24.951815 -6.031005 -9.293923 27.300973 0.237157 1.918165 0.000166 -0.022991 -48027.100000 0 0 1
-25.358315 -4.708905 -8.700123 27.219663 0.183603 1.896132 -0.000202 -0.017139 -405392.000000 0 0 1
-25.164555 -4.518005 -7.278823 26.582861 0.177646 1.848155 -0.009677 -0.008235 419511.000000 0 0 1
-25.337355 -3.123405 -6.903523 26.446093 0.122654 1.834897 0.005689 -0.005898 -183776.000000 0 0 1
-25.222975 -2.873205 -5.403123 25.954721 0.113423 1.780505 0.003973 -0.000636 113363.000000 0 0 1
-23.897715 -3.122405 -4.937923 24.601490 0.129921 1.772885 -0.022436 0.007077 481468.000000 0 1 0
-23.825615 -3.077805 -3.532923 24.281976 0.128469 1.716810 -0.028711 0.010122 30133.700000 0 1 0
-22.521215 -3.655405 -2.939523 23.004519 0.160906 1.698927 -0.037498 0.009281 104950.000000 0 1 0
-22.577615 -5.096605 -2.980523 23.336829 0.222016 1.698864 -0.020582 0.006296 -180173.000000 0 1 0
-21.431615 -5.677405 -2.464123 22.307375 0.258960 1.681484 -0.013090 0.000682 -642392.000000 0 1 0
-21.487915 -7.228305 -2.538023 22.812726 0.324498 1.682282 0.011666 -0.001685 113985.000000 0 1 0
-22.212815 -7.826605 -1.459823 23.596525 0.338764 1.632702 0.025263 0.012112 431670.000000 0 1 0
-22.604315 -9.120505 -1.836223 24.444026 0.383507 1.645987 0.018093 0.000420 -47333.500000 0 1 0
-22.897315 -9.956105 -0.577323 24.974875 0.410155 1.593915 0.013835 -0.000014 175845.000000 0 1 0
-21.729715 -10.175605 0.202877 23.995096 0.437952 1.562341 0.004227 0.005233 501399.000000 0 1 0
-21.989115 -11.120205 1.289677 24.674752 0.468208 1.518505 -0.006109 0.012447 -175843.000000 0 1 0
-20.702415 -11.517705 2.017777 23.776437 0.507702 1.485830 -0.010043 0.012297 89741.100000 0 1 0
-19.908415 -12.413505 1.221277 23.493225 0.557542 1.518789 -0.008928 0.012410 269729.000000 0 1 0
-18.758815 -12.814605 1.922277 22.799175 0.599310 1.486383 -0.031076 0.017105 -453610.000000 0 1 0
-17.948015 -13.882905 1.175277 22.721082 0.658376 1.519047 -0.035932 0.018397 -347333.000000 0 1 0
-18.719215 -15.070905 0.997477 24.052778 0.677845 1.529314 -0.020200 0.019870 568474.000000 0 1 0
-18.041615 -16.169105 0.377877 24.229788 0.730718 1.555200 -0.031683 0.024757 -470475.000000 0 1 0
-16.949915 -16.907705 1.100977 23.966273 0.784151 1.524842 -0.028167 0.024424 -141630.000000 0 1 0
-15.690215 -16.234505 1.184077 22.608495 0.802446 1.518399 -0.027547 0.020456 753314.000000 0 1 0
-14.719215 -16.826005 2.027877 22.447316 0.852085 1.480334 -0.016682 0.012705 52927.000000 0 1 0
-14.925115 -16.652805 3.556277 22.643367 0.840056 1.413087 -0.002786 0.007931 -555590.000000 0 1 0
-14.676115 -15.307605 3.956577 21.572335 0.806456 1.386342 -0.006076 0.003453 -70260.600000 0 1 0
-13.781615 -15.340505 5.028477 21.226153 0.838877 1.331622 -0.021193 0.008416 -719973.000000 0 1 0
-14.394915 -15.732805 6.377377 22.257710 0.829776 1.280199 0.001282 0.006807 -984754.000000 0 1 0
-15.336615 -14.822505 6.916277 22.422161 0.768353 1.257226 0.001530 0.008972 159867.000000 0 1 0
-15.676315 -15.107905 8.277077 23.291751 0.766936 1.207492 0.006105 0.008701 254924.000000 0 1 0
-16.453715 -16.427705 8.581177 24.783681 0.784607 1.217233 0.006832 0.008814 -481221.000000 0 1 0
-15.590615 -17.510405 8.401277 24.905080 0.843331 1.226715 0.001094 0.009195 -129333.000000 0 1 0
-16.177915 -18.749105 8.728977 26.257359 0.858882 1.231908 0.001346 0.010247 -161435.000000 0 0 1
-16.083015 -19.169905 10.177877 27.013660 0.872739 1.184492 0.007172 0.004459 176910.000000 0 0 1
-14.725815 -19.361805 10.547177 26.513620 0.920571 1.161676 -0.002329 0.004325 233088.000000 0 0 1
-14.588715 -19.749005 11.874977 27.273960 0.934562 1.120318 -0.000608 0.004766 -183934.000000 0 0 1
-13.279815 -20.439505 12.297777 27.301322 0.994623 1.103531 -0.014449 0.014317 468459.000000 0 0 1
-12.106315 -19.636005 12.299377 26.142116 1.018306 1.080960 -0.014114 0.008326 -573209.000000 0 0 1
-10.935615 -20.380705 12.241177 26.168821 1.078325 1.084022 -0.011183 0.009885 -86573.000000 0 0 1
-9.768915 -19.495305 12.772277 25.271123 1.106277 1.040939 -0.016860 0.007125 196408.000000 0 0 1
-9.279215 -18.611505 11.743977 23.883319 1.108290 1.056729 -0.021391 -0.001396 291643.000000 0 1 0
-8.014515 -18.084405 12.160177 23.219562 1.153634 1.019603 -0.014873 0.005139 781528.000000 0 1 0
-7.256315 -17.250005 11.067277 21.741697 1.172611 1.036733 -0.017335 0.000135 -226021.000000 0 1 0
-6.419415 -18.041705 10.344277 21.765019 1.228955 1.075525 -0.013142 -0.001537 -817557.000000 0 1 0
-5.753715 -17.348405 9.317677 20.515640 1.250555 1.099351 -0.012242 -0.003593 529207.000000 0 1 0
-4.611515 -18.269605 8.696277 20.752584 1.323546 1.138403 -0.013955 -0.003240 669700.000000 0 1 0
-3.415015 -18.325605 9.431977 20.891441 1.386558 1.102378 -0.002364 -0.005354 -115393.000000 0 1 0
-2.363115 -18.814405 8.628477 20.833069 1.445849 1.143763 -0.000451 -0.011326 -380537.000000 0 1 0
-1.065415 -19.161205 9.326077 21.336883 1.515251 1.118439 -0.001131 -0.009225 -560682.000000 0 1 0
-0.138715 -19.676505 8.406577 21.397538 1.563747 1.167039 0.011164 -0.004133 -40901.300000 0 1 0
1.052785 -20.114705 9.073977 22.091780 -1.518505 1.147531 0.009274 0.003730 423898.000000 0 1 0
1.924185 -20.777405 8.007477 22.350005 -1.478450 1.204375 0.016953 -0.004483 -377748.000000 0 1 0
1.419385 -22.042005 7.666977 23.380487 -1.506491 1.236693 -0.006292 -0.002108 -133760.000000 0 1 0
1.637985 -23.086105 8.567877 24.679136 -1.499964 1.216244 0.001551 0.001097 76202.900000 0 1 0
1.142485 -24.483805 8.093677 25.812198 -1.524167 1.251856 -0.022612 -0.004335 202795.000000 0 0 1
1.472485 -25.473375 9.077177 27.082396 -1.513056 1.229012 -0.008420 -0.003319 -165302.000000 0 0 1
0.896485 -26.705285 8.698977 28.100678 -1.537239 1.256061 -0.011337 0.002781 -594271.000000 0 0 1
1.129185 -27.812465 9.749777 29.493498 -1.530219 1.233885 -0.001642 0.002899 314359.000000 0 0 1
0.526085 -27.628415 11.040677 29.757396 -1.551757 1.190686 -0.014684 -0.004526 -127936.000000 0 0 1
-0.882515 -27.684075 11.069277 29.828103 1.538929 1.190601 -0.032645 0.000119 -80908.800000 0 0 1
-1.492915 -27.886085 12.459977 30.579626 1.517311 1.151125 -0.023341 -0.005620 -241262.000000 0 0 1
-1.199915 -29.161955 12.941077 31.926962 1.529673 1.153452 -0.033653 -0.007520 -81762.100000 0 0 1
-1.097115 -29.133485 14.320877 32.481550 1.533156 1.114203 -0.032801 -0.008891 -160804.000000 0 0 1
-0.830515 -30.473945 15.073177 34.008113 1.543550 1.111605 -0.035507 -0.003614 168548.000000 0 0 1
-0.566915 -30.122365 16.433877 34.318371 1.551978 1.071435 -0.027545 -0.008319 -88086.700000 0 0 1
-0.673215 -31.218505 17.292277 35.694133 1.549235 1.065054 -0.032723 -0.004064 -33580.400000 0 0 1
-0.852715 -30.862015 18.775777 36.134760 1.543173 1.024409 -0.019743 -0.008028 -626464.000000 0 0 1
-2.135015 -30.386925 19.012977 35.908450 1.500651 1.012803 -0.027944 0.001603 -689428.000000 0 0 1
-2.407315 -30.222495 20.377977 36.530211 1.491311 0.979017 -0.010610 -0.003536 -1379880.000000 0 0 1
-3.874715 -30.255235 20.647877 36.833782 1.443422 0.975724 0.004630 -0.005193 -1709260.000000 0 0 1
-4.637615 -29.284655 19.959977 35.742120 1.413737 0.978287 0.007614 -0.001720 707890.000000 0 0 1
-5.909515 -29.143465 20.642677 36.199227 1.370736 0.963984 0.005717 -0.003747 843781.000000 0 0 1
-6.099315 -28.158435 21.840977 36.154216 1.357485 0.922153 0.013415 -0.009814 -322501.000000 0 0 1
-5.289415 -28.561695 22.933577 37.009421 1.387678 0.902476 0.006199 -0.008716 216177.000000 0 0 1
-5.360615 -27.583085 23.947077 36.919172 1.378845 0.865006 0.010585 -0.015448 80718.200000 0 0 1
-4.263615 -27.951745 25.008977 37.748210 1.419428 0.846617 0.009557 -0.018054 340174.000000 0 0 1
-4.432215 -29.188315 25.633077 39.098042 1.420099 0.855806 -0.001089 -0.014386 45696.800000 0 0 1
-3.555915 -30.153235 25.118577 39.405647 1.453410 0.879630 0.008010 -0.017302 -200954.000000 0 0 1
-3.735915 -31.518285 25.841077 40.928237 1.452815 0.887471 0.000396 -0.013890 -218286.000000 0 0 1
-3.339215 -31.439625 27.223777 41.722109 1.464983 0.859914 0.002323 -0.012927 333988.000000 0 0 1
-3.744115 -32.579825 27.969377 43.101617 1.456377 0.864636 0.003961 -0.002492 -471465.000000 0 0 1
-3.481915 -32.632745 29.476777 44.112358 1.464498 0.838982 0.008423 -0.004324 -794251.000000 0 0 1
-2.109315 -32.803085 29.641177 44.261619 1.506582 0.837017 -0.005276 -0.000504 -458786.000000 0 0 1
-1.792715 -32.766745 30.985977 45.133182 1.516139 0.814069 0.004920 -0.006720 -114485.000000 0 0 1
-27.502655 2.956395 -10.202123 29.482531 -0.107084 1.924143 0.018882 0.005580 -346408.000000 0 0 1
-28.494825 2.678695 -11.125923 30.706948 -0.093731 1.941558 0.005277 0.000968 -667563.000000 0 0 1
-29.164925 3.812495 -11.475723 31.572460 -0.129985 1.942789 -0.011686 -0.000145 -293876.000000 0 0 1
-30.089565 3.687095 -12.703223 32.868655 -0.121929 1.967613 -0.008898 -0.003592 -1032210.000000 0 0 1
-31.154705 2.864995 -12.514423 33.696211 -0.091702 1.951302 -0.008805 0.000068 -808579.000000 0 0 1
-31.824555 2.705495 -13.769323 34.780976 -0.084809 1.977829 -0.008472 0.004110 -269584.000000 0 0 1
-32.903115 1.638195 -13.610223 35.644591 -0.049747 1.962573 -0.019774 0.001787 -489496.000000 0 0 1
-32.402345 0.345395 -13.528123 35.114689 -0.010659 1.966281 -0.008454 0.000788 -94204.900000 0 0 1
-33.377605 -0.631405 -13.220123 35.905917 0.018915 1.947856 -0.011585 0.002685 -178911.000000 0 0 1
-32.813305 -2.056105 -12.926523 35.327547 0.062579 1.945401 -0.011061 -0.004598 210425.000000 0 0 1
-32.134035 -2.644605 -14.057623 35.173952 0.082114 1.981942 -0.010646 -0.007315 248234.000000 0 0 1
-31.827805 -3.981605 -13.894023 34.955775 0.124452 1.979559 0.000099 -0.009060 176380.000000 0 0 1
-32.982755 -4.984505 -14.263023 36.278661 0.149990 1.974853 -0.008779 -0.009988 335413.000000 0 0 1
-32.730645 -6.298005 -13.752723 36.056863 0.190096 1.962126 0.000494 -0.014050 -19186.300000 0 0 1
-33.193485 -7.356605 -14.579823 36.993220 0.218103 1.975908 0.010413 -0.017397 -508962.000000 0 0 1
-32.961055 -8.697605 -13.848523 36.794851 0.257994 1.956673 0.018199 -0.019476 303231.000000 0 0 1
-31.651095 -9.229005 -13.661023 35.687391 0.283719 1.963618 0.022423 -0.023157 709357.000000 0 0 1
-30.930885 -9.636405 -14.845923 35.636798 0.302016 2.000487 0.013939 -0.018796 -383361.000000 0 0 1
-29.671425 -10.411405 -14.483423 34.620231 0.337467 2.002426 0.015942 -0.011827 -667366.000000 0 0 1
-29.878895 -11.715105 -14.087023 35.049055 0.373666 1.984412 0.023224 -0.016865 -339307.000000 0 0 1
-28.680535 -12.398705 -13.872023 34.186752 0.408041 1.988620 0.029242 -0.016529 -599224.000000 0 0 1
-28.760255 -13.970705 -13.987523 34.899623 0.452194 1.983179 0.024737 -0.014322 -86969.400000 0 0 1
-28.923305 -14.239105 -15.367423 35.713686 0.457473 2.015616 0.010483 -0.007108 -25500.200000 0 0 1
-29.356695 -15.526905 -15.738823 36.750658 0.486503 2.013362 0.017198 -0.004938 -141951.000000 0 0 1
-28.337865 -16.711405 -15.570123 36.396901 0.532826 2.012839 0.008074 -0.000820 402096.000000 0 0 1
-27.268835 -16.442105 -16.473623 35.851254 0.542595 2.048228 -0.001381 -0.002229 -1021670.000000 0 0 1
-26.204755 -17.288105 -16.200623 35.327439 0.583186 2.047198 -0.008166 -0.000048 -625667.000000 0 0 1
-24.909215 -16.726305 -16.787823 34.381234 0.591335 2.080919 -0.008737 -0.005725 -316777.000000 0 0 1
-24.854515 -16.684805 -18.220923 35.044710 0.591203 2.117570 -0.018325 -0.001027 -74936.700000 0 0 1
-23.681215 -16.030505 -18.688323 34.161827 0.595074 2.149636 -0.026393 0.008826 -119845.000000 0 0 1
-23.766715 -15.562005 -20.168123 34.839431 0.579729 2.188160 -0.024498 0.008568 -275666.000000 0 0 1
-24.082715 -16.526305 -21.118223 36.042687 0.601425 2.196814 -0.014114 0.003147 -286480.000000 0 0 1
-25.455275 -16.759305 -21.234523 37.144990 0.582245 2.179331 -0.003797 -0.001273 -655932.000000 0 0 1
-25.783195 -18.082005 -21.997523 38.413840 0.611604 2.180526 0.003178 -0.001257 -169984.000000 0 0 1
-25.432965 -18.090705 -23.357823 38.983294 0.618276 2.213267 0.014996 0.006303 119620.000000 0 0 1
-25.957555 -19.228605 -23.987023 40.235695 0.637568 2.209509 0.017894 0.005958 -332396.000000 0 0 1
-25.234405 -19.389205 -25.379003 40.703934 0.655151 2.244011 0.036019 0.005955 875774.000000 0 0 1
-23.859015 -19.757605 -25.360243 40.034454 0.691641 2.256814 0.037052 0.001772 179163.000000 0 0 1
-23.644115 -21.100705 -24.935523 40.324487 0.728617 2.237465 0.028099 0.004900 -31217.100000 0 0 1
-22.107815 -21.367105 -24.853823 39.535063 0.768362 2.250616 0.031149 0.003280 726314.000000 0 0 1
-21.549315 -21.523105 -26.119773 40.123055 0.784790 2.279686 0.030533 0.002973 -875351.000000 0 0 1
-20.187715 -21.816905 -26.151103 39.590420 0.824165 2.292336 0.021544 0.000384 -326299.000000 0 0 1
-19.565115 -21.782905 -27.597763 40.235870 0.838984 2.326635 0.027736 0.001964 11885.100000 0 0 1
-20.065715 -22.786205 -28.510783 41.649836 0.848799 2.324762 0.053921 -0.000177 -241082.000000 0 0 1
-20.264915 -22.274905 -29.830263 42.387295 0.832613 2.351465 0.041330 -0.000460 -325781.000000 0 0 1
-19.116715 -22.476305 -30.833393 42.677057 0.865996 2.378181 0.034912 -0.008818 -76368.400000 0 0 1
-18.882715 -23.812805 -31.278453 43.611331 0.900360 2.370586 0.030064 -0.015488 -171308.000000 0 0 1
-18.293315 -23.766805 -32.545703 44.257532 0.914806 2.397010 0.030988 -0.015598 19953.500000 0 0 1
-17.866015 -25.200835 -33.074063 45.256715 0.954092 2.390304 0.035063 -0.010825 57253.000000 0 0 1
-17.272215 -25.272985 -34.376852 46.030654 0.971281 2.414072 0.032240 -0.015059 -106504.000000 0 0 1
-18.123515 -25.093095 33.757518 45.800603 0.945292 0.742095 0.034039 -0.019090 -960489.000000 0 0 1
-17.402115 -25.056495 32.426639 44.521326 0.963761 0.754901 0.033301 -0.017057 -224675.000000 0 0 1
-16.822515 -23.761805 32.167559 43.386314 0.954745 0.735610 0.021313 -0.014331 -165053.000000 0 0 1
-16.297515 -23.668005 30.883979 42.185349 0.967770 0.749394 0.025733 -0.013450 -110131.000000 0 0 1
-15.323515 -22.497605 30.731689 41.053490 0.972856 0.724883 0.006110 -0.004182 -382837.000000 0 0 1
-15.983015 -21.310805 30.792519 40.715923 0.927298 0.713192 0.007860 -0.006695 -223977.000000 0 0 1
-15.115615 -20.264205 30.432149 39.563058 0.929907 0.693198 0.007687 -0.006039 20787.900000 0 0 1
-14.495015 -19.528805 31.655319 39.919155 0.932282 0.655102 0.005164 -0.008516 21744.400000 0 0 1
-13.956215 -18.268005 31.334229 38.862963 0.918414 0.632969 0.006701 -0.006155 58387.000000 0 0 1
-13.496415 -17.575305 32.505279 39.340027 0.915925 0.598352 0.003886 -0.005078 -265564.000000 0 0 1
-13.021415 -16.123805 32.263899 38.347015 0.891445 0.570989 -0.000682 -0.002264 -133732.000000 0 0 1
-11.813115 -16.104805 31.509509 37.306348 0.937929 0.564950 0.006187 -0.005783 190837.000000 0 0 1
-11.678515 -14.906905 30.829889 36.181288 0.906241 0.550821 0.001734 -0.000939 -188177.000000 0 0 1
-10.220715 -14.520905 30.542059 35.328984 0.957483 0.526633 0.017853 -0.002463 -125335.000000 0 0 1
-10.050215 -13.131005 30.505819 34.699209 0.917524 0.496720 0.016002 -0.005189 167106.000000 0 0 1
-8.650915 -12.899705 30.559129 34.279748 0.980056 0.470232 0.015636 -0.005908 -31652.300000 0 0 1
-8.319915 -11.424205 30.503809 33.618683 0.941348 0.433867 0.011824 -0.004163 -671694.000000 0 0 1
-8.808415 -10.667805 31.568569 34.466865 0.880579 0.413025 0.009718 0.000432 -12436.900000 0 0 1
-8.563115 -9.290405 31.450669 33.893704 0.826112 0.382001 0.005436 0.004924 243160.000000 0 0 1
-9.338815 -8.459105 32.565009 34.917757 0.736011 0.369189 -0.004776 0.004671 380871.000000 0 0 1
-10.715115 -8.219705 32.305809 35.014891 0.654364 0.395950 0.007537 0.001513 340391.000000 0 0 1
-11.402615 -7.616005 33.382623 36.089094 0.588868 0.389745 0.001701 -0.006229 43232.000000 0 0 1
-11.152215 -6.122105 33.587470 35.916156 0.502043 0.362077 -0.008235 -0.006554 -303436.000000 0 0 1
-11.715015 -5.339005 32.511309 34.967582 0.427617 0.377048 0.002428 -0.003542 410354.000000 0 0 1
-12.051215 -4.007005 32.856689 35.225700 0.320999 0.368836 -0.002618 -0.009896 -253717.000000 0 0 1
-11.595915 -2.975705 31.811019 33.989131 0.251196 0.359942 -0.006883 -0.002891 612995.000000 0 0 1
-10.217715 -2.596505 31.854459 33.553690 0.248851 0.319611 0.004038 -0.001283 622151.000000 0 0 1
-9.915415 -1.488505 31.037519 32.616847 0.149008 0.312463 0.000624 0.002223 388495.000000 0 0 1
-8.463015 -0.961405 31.259229 32.398863 0.113116 0.266020 0.013778 0.002839 507360.000000 0 0 1
-8.186015 -0.357205 32.489449 33.506757 0.043608 0.247047 0.011352 -0.009303 450076.000000 0 0 1
-6.799015 -0.021905 32.619719 33.320762 0.003222 0.205492 0.029806 -0.015420 605587.000000 0 0 1
-6.462615 0.571695 34.046429 34.659077 -0.088232 0.188301 0.039467 -0.020722 -80773.800000 0 0 1
-7.101815 1.821295 34.378607 35.151693 -0.251045 0.210114 0.019905 -0.015312 279579.000000 0 0 1
-6.440315 2.900895 33.692012 34.424476 -0.423209 0.206656 0.029751 -0.013657 -167624.000000 0 0 1
-7.167215 4.246295 33.745926 34.758992 -0.534858 0.242025 0.035722 -0.011596 54914.400000 0 0 1
-8.434515 4.189395 33.121439 34.434312 -0.461001 0.277026 0.013630 -0.000023 339943.000000 0 0 1
-9.183115 5.394395 33.294587 34.956525 -0.531122 0.309595 0.006876 0.005220 711529.000000 0 0 1
-10.455415 5.484195 32.370989 34.456829 -0.483080 0.349730 -0.010586 0.015713 602645.000000 0 0 1
-11.206415 6.618395 32.676409 35.172925 -0.533472 0.379036 -0.009557 0.015451 -491868.000000 0 0 1
-12.378715 6.760595 31.928119 34.904771 -0.499880 0.415980 -0.016581 0.014934 -16478.000000 0 0 1
-13.078115 8.145995 32.200919 35.697248 -0.557068 0.446287 -0.005541 0.009515 204722.000000 0 0 1
-13.616315 8.254195 33.523142 37.112489 -0.544965 0.443432 -0.001026 0.006721 9016.580000 0 0 1
-14.223815 9.460695 33.774143 37.848572 -0.586938 0.468273 0.007212 0.006177 -176263.000000 0 0 1
-15.071315 9.608495 -34.241126 38.625412 -0.567563 2.660505 0.019028 0.009499 289271.000000 0 0 1
-14.190415 9.613695 -33.130933 37.302141 -0.595450 2.664161 0.019174 0.002222 -38839.200000 0 0 1
-14.924215 9.814095 -32.004453 36.651517 -0.581696 2.632546 0.023109 -0.002741 -884467.000000 0 0 1
-14.102115 10.021195 -30.732583 35.267346 -0.617816 2.628881 0.021828 -0.006358 299396.000000 0 0 1
-13.275715 11.177295 -30.655453 35.226884 -0.699794 2.626463 0.026710 -0.007585 1140040.000000 0 0 1
-11.938315 11.013295 -31.194763 35.170005 -0.745117 2.661540 0.023010 -0.012881 1011570.000000 0 0 1
-11.195515 12.357195 -31.418273 35.568915 -0.834681 2.653667 0.020767 -0.012670 -231126.000000 0 0 1
-11.735015 13.166895 -32.448753 36.932361 -0.842836 2.643718 0.015507 -0.013763 22716.400000 0 0 1
-10.979615 14.293195 -32.906383 37.519028 -0.915767 2.640501 0.008805 -0.012523 5198.760000 0 0 1
-10.906215 15.485395 -31.900303 37.099492 -0.957197 2.605788 0.009703 -0.012074 2181050.000000 0 0 1
-12.276815 16.050195 -31.738453 37.625236 -0.917826 2.574640 0.009535 -0.008129 2345600.000000 0 0 1
-12.389715 17.156395 -30.816233 37.382980 -0.945350 2.539829 0.009066 -0.008464 666853.000000 0 0 1
-13.831015 17.791595 -30.814563 38.175583 -0.909995 2.510155 -0.001146 -0.013363 550342.000000 0 0 1
-14.234915 18.406695 -32.047343 39.603932 -0.912515 2.513579 0.002032 -0.011035 -335132.000000 0 0 1
-15.543415 18.889595 -32.089193 40.350104 -0.882273 2.490248 0.000768 -0.011773 -201220.000000 0 0 1
-15.906015 20.140095 -31.212123 40.408185 -0.902325 2.453440 -0.004604 -0.015165 -589802.000000 0 0 1
-15.291415 21.293595 -31.718653 41.149940 -0.948011 2.450903 -0.002329 -0.013699 180685.000000 0 0 1
-15.781615 22.487095 -31.065243 41.470208 -0.958858 2.417496 -0.005928 -0.020270 221108.000000 0 0 1
-17.041415 23.141695 -31.702533 42.790168 -0.936060 2.405181 -0.004702 -0.020682 310572.000000 0 0 1
-18.163015 22.282995 -31.542813 42.677583 -0.886912 2.402523 0.000576 -0.016140 -353768.000000 0 0 1
-19.226915 22.729695 -32.339063 43.955982 -0.868691 2.397518 0.020784 -0.016396 -929329.000000 0 0 1
-20.485315 21.849495 -32.176983 43.959149 -0.817611 2.392012 0.015524 -0.017267 -1110820.000000 0 0 1
-21.403115 22.202195 -31.140013 43.826148 -0.803721 2.361055 0.041329 -0.017610 260809.000000 0 0 1
-22.252115 23.272995 -31.520593 45.059258 -0.807819 2.345545 0.032213 -0.009190 -1142860.000000 0 0 1
-23.488615 22.644295 -32.162353 45.813711 -0.767098 2.349033 0.024159 -0.016593 -1657880.000000 0 0 1
-23.237615 21.898095 -33.375723 46.189309 -0.755729 2.378331 0.025943 -0.008822 -375638.000000 0 0 1
-24.418715 21.563295 -34.064363 47.134172 -0.723379 2.378512 0.031447 -0.007600 -307161.000000 0 0 1
-24.282415 20.665795 33.940947 46.569289 -0.705109 0.754189 0.028641 -0.001720 -260562.000000 0 0 1
-23.949415 19.323795 34.296407 46.078489 -0.678909 0.731304 0.025986 -0.004798 259142.000000 0 0 1
-23.718615 18.570995 33.141669 44.786436 -0.664271 0.737736 0.007514 -0.006075 -652059.000000 0 0 1
-23.452315 17.061495 33.501104 44.310605 -0.628943 0.713537 0.015700 -0.001315 923529.000000 0 0 1
-24.595115 16.271095 33.964021 44.980251 -0.584457 0.715009 0.011861 0.000957 1221310.000000 0 0 1
-24.855715 15.309095 32.984019 44.046799 -0.552042 0.724486 0.016745 -0.003509 -564925.000000 0 0 1
-25.659115 14.077795 33.480629 44.469395 -0.501804 0.718352 0.010249 0.007247 -1243640.000000 0 0 1
-26.973975 14.450095 33.689603 45.512525 -0.491802 0.737388 0.014091 0.009324 -839975.000000 0 0 1
-27.948365 13.413095 33.652429 45.754871 -0.447458 0.744401 0.005181 0.010748 195547.000000 0 0 1
-27.882335 12.223495 -34.571567 46.065515 -0.413162 2.419595 -0.003485 0.006805 -1376110.000000 0 0 1
-26.764615 11.463595 34.443437 45.101098 -0.404672 0.701780 0.002131 -0.007900 -920607.000000 0 0 1
-27.125475 10.098295 34.218694 44.818367 -0.356385 0.702085 0.004026 -0.001986 -1114760.000000 0 0 1
-26.002395 9.078695 34.397429 44.065070 -0.335916 0.675163 -0.002315 -0.004527 -73873.600000 0 0 1
-24.999415 8.974695 33.408766 42.680928 -0.344667 0.671714 -0.004060 -0.006225 -233796.000000 0 0 1
-24.100815 10.025895 33.413247 42.400625 -0.394221 0.663183 -0.009756 -0.009176 -1519770.000000 0 0 1
-22.819215 9.716095 32.624049 40.981065 -0.402536 0.650013 0.004519 -0.003331 -393632.000000 0 0 1
-22.995715 9.538095 31.248849 39.953332 -0.393180 0.672713 0.001664 -0.001837 695464.000000 0 0 1
-21.738015 9.121995 30.694569 38.702825 -0.397316 0.654942 0.004276 -0.001839 855575.000000 0 0 1
-21.856815 9.036295 29.136369 37.527364 -0.392031 0.681858 0.016058 -0.010759 -6793.250000 0 0 1
-22.133715 10.261895 28.463769 37.488585 -0.434132 0.708613 0.018691 -0.012402 128686.000000 0 0 1
-22.428115 10.069895 27.115689 36.601691 -0.422010 0.736489 0.006589 -0.011555 -616364.000000 0 0 1
-22.853215 11.359895 26.410439 36.726393 -0.461310 0.768271 0.007530 -0.012709 655164.000000 0 0 1
-24.146615 11.871595 26.742849 37.936444 -0.456942 0.788460 0.010010 -0.007339 648785.000000 0 0 1
-25.181155 11.351595 25.890989 37.858851 -0.423517 0.817726 0.011289 0.001866 503588.000000 0 0 1
-26.513175 12.119395 26.156549 39.166226 -0.428750 0.839501 0.001260 0.001749 -231176.000000 0 0 1
-26.410965 13.514595 25.837709 39.341716 -0.472967 0.854294 0.012179 -0.005036 53769.200000 0 0 1
-27.520865 14.345895 26.151899 40.584783 -0.480521 0.870588 -0.013997 0.000209 -2608.870000 0 0 1
-27.317205 15.765595 25.595249 40.618967 -0.523434 0.889075 -0.019298 -0.001966 -418888.000000 0 0 1
-26.256935 16.445895 26.174669 40.558691 -0.559566 0.869311 0.002694 -0.005970 -383013.000000 0 0 1
-26.165075 17.715295 25.581599 40.655394 -0.595163 0.890234 -0.007308 -0.001450 -783842.000000 0 0 1
-21.925115 -9.550305 32.427729 40.292389 0.410804 0.635441 0.016747 -0.013439 -311965.000000 0 0 1
-21.016415 -8.922205 31.595919 38.982016 0.401477 0.625747 0.015967 -0.020298 -290027.000000 0 0 1
-21.551115 -8.878905 30.281369 38.213176 0.390802 0.656009 0.011595 -0.021394 -205960.000000 0 0 1
-20.629915 -8.344105 29.202259 36.714976 0.384351 0.651166 0.008371 -0.004992 -759427.000000 0 0 1
-20.122115 -7.026105 29.266789 36.205119 0.335938 0.629435 0.011794 -0.012657 1199050.000000 0 0 1
-18.710015 -6.898105 29.541119 35.641637 0.353223 0.593770 0.019801 -0.016546 1139910.000000 0 0 1
-17.628515 -7.435005 28.552419 34.369820 0.399123 0.590359 0.034829 -0.015083 -689259.000000 0 0 1
-17.395415 -8.838805 28.479519 34.522572 0.470115 0.600676 0.026079 -0.009282 118677.000000 0 0 1
-16.925015 -9.462005 29.637509 35.417053 0.509768 0.579357 0.031474 -0.010143 -814365.000000 0 0 1
-15.592415 -9.098305 30.303679 35.273440 0.528205 0.537273 0.034159 -0.012992 -1170460.000000 0 0 1
-14.514215 -9.471105 29.516989 34.228890 0.578159 0.530920 0.028487 0.001011 -313939.000000 0 0 1
-13.283015 -8.998005 30.110099 34.117747 0.595401 0.489571 0.023864 -0.005271 755503.000000 0 0 1
-12.182615 -10.014405 29.726769 33.650932 0.688027 0.487757 0.016272 -0.002715 -333637.000000 0 0 1
-11.887015 -9.927705 28.352649 32.306860 0.695823 0.499954 0.030059 -0.000963 -1123290.000000 0 0 1
-10.904815 -10.799305 28.029639 31.956230 0.780537 0.500952 0.027748 0.005184 -1515660.000000 0 0 1
-10.350915 -10.637405 26.597789 30.458796 0.799047 0.508987 0.028015 -0.002554 -202612.000000 0 0 1
-11.091815 -11.115705 25.477519 29.928101 0.786474 0.552356 0.033199 -0.009680 -109863.000000 0 0 1
-10.556515 -10.721905 24.239999 28.530279 0.793171 0.555525 0.021145 -0.010552 736469.000000 0 0 1
-11.621315 -10.987505 23.069119 28.070705 0.757372 0.606195 0.024349 -0.011875 6671.550000 0 0 1
-11.884915 -12.341305 22.812119 28.529841 0.804235 0.644187 0.032555 -0.009232 24268.600000 0 0 1
-13.065315 -12.679405 22.119719 28.648765 0.770409 0.688657 0.033482 -0.007477 -193628.000000 0 0 1
-14.300615 -12.535805 23.031619 29.868202 0.719731 0.690216 0.022662 -0.003446 -1170110.000000 0 0 1
-15.394115 -13.377705 22.720219 30.531134 0.715430 0.731511 0.017293 0.004021 739999.000000 0 0 1
-16.451715 -13.131805 23.666719 31.673598 0.673644 0.726948 0.006932 0.010825 491513.000000 0 0 1
-17.769115 -13.904205 23.499519 32.577535 0.663974 0.765059 0.011627 0.007115 -132333.000000 0 0 1
-17.577915 -15.294905 23.785419 33.296597 0.716060 0.775102 0.012972 0.008743 175636.000000 0 0 1
-18.801615 -15.996605 23.639619 34.179288 0.704964 0.807045 -0.001060 0.014921 -177832.000000 0 0 1
-19.556915 -16.138805 24.951279 35.573871 0.689932 0.793446 -0.001082 0.011899 -804116.000000 0 0 1
-18.946215 -16.899705 25.993419 36.334790 0.728368 0.773619 0.014143 0.010498 54404.700000 0 0 1
-19.591015 -16.854805 27.269889 37.570456 0.710463 0.758551 0.007889 0.001048 -371392.000000 0 0 1
-18.948015 -17.779205 28.271669 38.398108 0.753585 0.743243 0.009104 -0.004629 -229261.000000 0 0 1
-19.255015 -19.150405 27.977929 38.990488 0.782674 0.770507 0.018140 -0.003685 337643.000000 0 0 1
-18.797215 -19.932105 29.077319 39.951403 0.814693 0.755663 0.016431 -0.007853 -263538.000000 0 0 1
-18.867915 -21.434305 28.720419 40.500495 0.848991 0.782522 0.026714 -0.002342 208424.000000 0 0 1
-20.152615 -21.943205 28.405269 41.164201 0.827909 0.809241 0.024654 -0.004530 460698.000000 0 0 1
-19.904215 -23.370705 28.298069 41.751028 0.865331 0.826055 0.027895 0.005476 511743.000000 0 0 1
-21.178715 -24.108205 27.827939 42.475142 0.849995 0.856404 0.029352 0.008196 407429.000000 0 0 1
-22.012215 -24.652205 28.840879 43.864167 0.841912 0.853295 0.024808 0.009412 62206.900000 0 0 1
-23.193015 -25.214195 28.329169 44.454622 0.827128 0.879858 0.003606 0.009750 -36307.800000 0 0 1
-24.135615 -25.851805 29.364989 45.968971 0.819717 0.877858 -0.011837 0.007039 -323961.000000 0 0 1
-24.616415 -25.012005 30.379059 46.416113 0.793369 0.857283 -0.014673 0.016714 -105204.000000 0 0 1
-25.301455 -25.853865 31.264459 47.812680 0.796196 0.858076 -0.019977 0.017065 -692679.000000 0 0 1
-26.382455 -25.129125 32.036679 48.516551 0.761072 0.849545 -0.008200 0.011558 -558135.000000 0 0 1
-27.449815 -24.785205 31.173449 48.369233 0.734430 0.870441 -0.009408 0.011668 -158034.000000 0 0 1
-28.520435 -24.284705 31.949669 49.233561 0.705355 0.864605 -0.001756 0.004958 -884486.000000 0 0 1
-29.701405 -23.975505 31.064319 49.213720 0.679127 0.887681 -0.001974 0.004587 -1441090.000000 0 0 1
-30.023395 -25.064315 30.230009 49.431545 0.695619 0.912774 0.000100 0.008045 -71436.200000 0 0 1
-31.249495 -24.881505 29.568659 49.698349 0.672432 0.933577 -0.004290 0.000140 314494.000000 0 0 1
-32.518265 -25.308995 30.358629 51.182313 0.661369 0.935834 -0.000645 0.002950 -267065.000000 0 0 1
-32.599945 -26.662595 30.461619 51.976539 0.685544 0.944603 0.009885 -0.002945 172434.000000 0 0 1
-33.607735 -27.029795 31.398439 53.347462 0.677341 0.941514 0.013825 -0.001309 264427.000000 0 0 1
-33.588115 -28.529405 31.647399 54.255380 0.704140 0.948005 0.026428 -0.006509 -317159.000000 0 0 1
-32.461925 -28.912535 32.365349 54.196191 0.727631 0.930805 0.021094 0.001762 -546430.000000 0 0 1
-32.178055 -30.320285 32.322229 54.767449 0.755682 0.939524 0.023925 -0.004342 569733.000000 0 0 1
-30.996705 -30.791415 33.241732 54.899178 0.782076 0.920396 0.017478 0.001439 485489.000000 0 0 1
-31.423895 -30.790235 34.583918 55.960228 0.775213 0.904589 0.009816 0.003674 -37720.600000 0 0 1
-30.358995 -30.972625 -33.779023 54.972670 0.795403 2.232510 0.003175 -0.007850 -185581.000000 0 0 1
-30.837875 -30.919125 -32.342753 54.341701 0.786714 2.208278 0.001992 -0.012021 82.596800 0 0 1
-31.162975 -29.603455 -31.770423 53.449559 0.759740 2.207316 0.000887 0.003549 836826.000000 0 0 1
-29.973485 -28.869865 -31.390653 52.127267 0.766645 2.217041 0.007963 -0.002894 448289.000000 0 0 1
-30.076715 -27.324765 -31.317393 51.303320 0.737493 2.227407 -0.007406 0.007245 -218712.000000 0 0 1
-31.024185 -26.916095 -30.347093 51.067820 0.714614 2.207130 -0.013950 -0.006049 -205709.000000 0 0 1
-31.052325 -25.531635 -30.100663 50.221123 0.688140 2.213501 -0.007770 0.010682 137982.000000 0 0 1
-29.915005 -24.854605 -29.269003 48.675799 0.693265 2.215930 -0.000539 -0.003013 302865.000000 0 0 1
-30.064725 -23.449505 -29.184513 48.015651 0.662406 2.224099 -0.006015 0.004204 96203.700000 0 0 1
-29.038725 -22.908605 -28.360133 46.608464 0.667935 2.224935 0.036203 -0.000915 274590.000000 0 0 1
-28.764265 -21.387805 -28.583703 45.845929 0.639363 2.243973 0.048458 -0.008453 68772.100000 0 0 1
-28.294265 -20.934105 -29.849073 46.149424 0.636987 2.274167 0.053302 -0.001258 156499.000000 0 0 1
-27.745245 -19.662305 -29.778023 45.201057 0.616523 2.290006 0.042063 -0.004120 -403304.000000 0 0 1
-27.123265 -19.239505 -31.123953 45.547014 0.616964 2.323120 0.046608 0.003075 352481.000000 0 0 1
-27.961565 -18.988505 -32.293643 46.747105 0.596556 2.333413 0.036730 -0.003595 326327.000000 0 0 1
-28.705515 -17.791105 -32.185903 46.652571 0.554837 2.332156 0.035879 -0.007122 -446458.000000 0 0 1
-28.944825 -16.941805 -33.437123 47.358936 0.529551 2.354682 0.036757 -0.003596 204228.000000 0 0 1
-29.853065 -17.416305 -34.437625 48.790196 0.528125 2.354392 0.027270 -0.008483 1512350.000000 0 0 1
-31.223545 -17.081505 -34.128370 49.309565 0.500592 2.335225 0.012548 0.000068 451189.000000 0 0 1
-32.314825 -17.645205 34.240948 50.279655 0.499798 0.821655 0.004752 -0.004136 -344777.000000 0 0 1
-32.572825 -18.984405 34.497418 51.102529 0.527698 0.829746 -0.003839 -0.000755 -4027.930000 0 0 1
-33.209295 -19.602905 33.411653 51.024207 0.533245 0.856852 -0.001529 -0.002974 -198878.000000 0 0 1
-33.698485 -21.068905 33.638510 52.067610 0.558756 0.868392 -0.001538 -0.008159 522195.000000 0 0 1
-32.654965 -22.040405 33.565943 51.757113 0.593714 0.865147 -0.003995 -0.004980 453722.000000 0 0 1
-33.173235 -23.271905 34.049597 52.928444 0.611750 0.871978 -0.006017 -0.000147 -2181.990000 0 0 1
-32.013145 -24.360905 34.194330 52.797229 0.650482 0.866295 0.000287 0.004094 1372560.000000 0 0 1
-31.167505 -24.252605 -33.895233 52.043146 0.661267 2.280081 -0.019686 0.001691 123346.000000 0 0 1
-30.425835 -23.063805 -33.848953 51.023741 0.648623 2.296145 -0.010288 -0.002003 -1491590.000000 0 0 1
-29.170575 -23.325005 -32.990713 49.833377 0.674501 2.294308 -0.002533 0.006611 -455575.000000 0 0 1
-28.307175 -24.345605 -33.503753 50.164790 0.710300 2.302145 -0.005655 0.009650 -135814.000000 0 0 1
-27.009995 -24.199805 -32.994503 49.028641 0.730577 2.309005 0.005674 0.007894 -416590.000000 0 0 1
-26.743455 -24.801205 -31.617133 48.269610 0.747735 2.284994 0.017178 0.011615 -739449.000000 0 0 1
-26.884875 -26.183295 -31.495083 48.992874 0.772179 2.269010 0.004665 -0.004635 76505.600000 0 0 1
-26.118765 -26.668735 -30.414543 48.150345 0.795816 2.254486 0.003719 -0.014456 -192057.000000 0 0 1
-26.129705 -28.210565 -30.259973 48.931211 0.823673 2.237525 -0.004349 -0.014670 -439268.000000 0 0 1
-27.247165 -28.825625 -29.624483 49.506915 0.813541 2.212287 -0.005033 -0.003032 169481.000000 0 0 1
-26.938625 -30.119385 -29.139503 49.819449 0.841087 2.195556 -0.002881 0.003795 -230444.000000 0 0 1
-27.675765 -31.220615 -29.873773 51.313907 0.845514 2.192200 0.001884 0.006074 -351326.000000 0 0 1
-27.066755 -31.444905 -31.126273 51.867486 0.860084 2.214437 0.000312 -0.004435 292798.000000 0 0 1
-27.489975 -32.703885 -31.618813 53.150655 0.871801 2.207926 0.013769 0.000927 -384905.000000 0 0 1
-27.192195 -33.035265 -33.090343 54.089879 0.882112 2.229087 0.007118 -0.012746 -83475.800000 0 0 1
-25.807825 -33.171785 -33.333433 53.642603 0.909611 2.241323 0.000484 -0.009195 -191624.000000 0 0 1
-25.526405 -33.684265 -34.625294 54.636417 0.922313 2.257175 0.009523 -0.016220 525088.000000 0 0 1
-24.019515 -34.070777 34.506538 54.115212 0.956730 0.879353 0.010988 -0.013315 546210.000000 0 0 1
-23.741615 -34.613814 33.232037 53.536424 0.969596 0.901114 0.010503 -0.002574 -81806.300000 0 0 1
-22.575415 34.107608 33.180349 52.667959 -0.986109 0.889254 0.011470 0.006769 -487544.000000 0 0 1
-22.579315 33.222522 31.925349 51.310714 -0.973867 0.899251 0.015890 0.002524 -665610.000000 0 0 1
-23.734315 32.429362 31.750209 51.215789 -0.938995 0.902143 0.009057 -0.014936 -8675.400000 0 0 1
-23.708715 31.794202 30.495059 50.029222 -0.930057 0.915310 0.001785 -0.008569 300701.000000 0 0 1
-25.148735 31.348742 30.077669 50.198294 -0.894700 0.928323 0.007561 -0.009429 440927.000000 0 0 1
-25.624835 30.309332 30.880849 50.288315 -0.868953 0.909582 0.012032 -0.011095 332251.000000 0 0 1
-26.934995 29.839652 30.595969 50.517444 -0.836515 0.920212 0.010265 -0.014741 366840.000000 0 0 1
-27.394185 28.716462 31.517429 50.679630 -0.808959 0.899636 0.012626 -0.020436 96811.000000 0 0 1
-26.629885 27.508362 31.339429 49.477476 -0.801623 0.884847 0.006009 -0.010110 299610.000000 0 0 1
-27.274225 26.437112 31.965609 49.644782 -0.769814 0.871229 0.011614 -0.007291 278771.000000 0 0 1
-28.266885 25.733932 30.996039 49.213885 -0.738527 0.889471 0.020944 -0.012592 -95340.000000 0 0 1
-27.548195 25.171202 29.899259 47.816923 -0.740341 0.895298 0.006562 -0.004459 -338775.000000 0 0 1
-28.243865 24.216992 29.144739 47.260919 -0.708789 0.906281 0.006709 0.007853 -172090.000000 0 0 1
-27.676835 23.978992 27.713399 45.924196 -0.713934 0.922964 0.022479 -0.003141 46569.000000 0 0 1
-26.600495 23.072892 27.757479 44.837733 -0.714501 0.903245 0.017770 -0.005308 211923.000000 0 0 1
-25.836815 22.943392 26.515659 43.554798 -0.726152 0.916264 0.007965 0.007219 735329.000000 0 0 1
-24.509615 22.175792 26.754579 42.524046 -0.735449 0.890320 0.003458 -0.000221 77389.500000 0 0 1
-24.786615 20.860792 27.258369 42.338725 -0.699606 0.871321 0.022473 -0.013695 837995.000000 0 0 1
-23.522715 20.231992 27.435399 41.416817 -0.710331 0.846749 0.019444 -0.004623 116489.000000 0 0 1
-23.635715 18.860792 28.046489 41.242964 -0.673507 0.822992 0.023796 -0.007724 -455445.000000 0 0 1
-22.457515 18.140692 28.306149 40.430963 -0.679466 0.795244 0.011187 -0.006390 -226196.000000 0 0 1
-22.692915 17.082792 29.193379 40.731359 -0.645278 0.771695 0.012686 -0.004109 187537.000000 0 0 1
-21.370315 16.346492 29.542219 39.957989 -0.652979 0.738719 0.013896 -0.011672 -25322.800000 0 0 1
-20.515615 17.062892 30.362729 40.421876 -0.693775 0.721000 0.026241 -0.009938 -76614.300000 0 0 1
-19.261015 16.392992 30.442599 39.578640 -0.705131 0.693259 0.019105 -0.010281 289218.000000 0 0 1
-18.316215 16.923492 31.521229 40.192987 -0.745897 0.669315 0.008492 -0.013478 -303601.000000 0 0 1
-18.537815 16.398392 32.828829 41.113135 -0.724237 0.645997 0.011900 -0.016534 464698.000000 0 0 1
-17.400715 16.702192 33.617133 41.374627 -0.764918 0.622358 0.011557 -0.015564 -304150.000000 0 0 1
-17.616315 16.384792 -34.135548 41.761604 -0.749194 2.527663 0.010193 -0.017247 324926.000000 0 0 1
-18.469415 17.208292 -33.353963 41.829791 -0.750065 2.493727 0.024267 -0.017285 -2294.050000 0 0 1
-19.838415 17.213692 -33.656033 42.691948 -0.714678 2.478912 0.031257 -0.015863 -614615.000000 0 0 1
-20.693515 18.015492 -32.670783 42.663328 -0.716325 2.443052 0.040537 -0.011557 -43483.100000 0 0 1
-20.876915 17.357692 -31.416393 41.522582 -0.693614 2.428909 0.045539 -0.015032 -116063.000000 0 0 1
-21.759815 18.103192 -30.648613 41.719930 -0.693924 2.395914 0.043255 -0.015724 -774623.000000 0 0 1
-21.877515 17.672792 -29.160323 40.512685 -0.679483 2.374285 0.050060 -0.020927 532104.000000 0 0 1
-22.643215 16.494192 -28.814133 40.187409 -0.629558 2.370277 0.028813 -0.013954 -199035.000000 0 0 1
-24.006415 16.485292 -29.153923 41.207087 -0.601746 2.356748 0.035548 -0.013652 -127894.000000 0 0 1
-24.739915 15.370092 -28.347883 40.643642 -0.555910 2.342663 0.036995 -0.015519 112430.000000 0 0 1
-24.302615 14.085492 -28.737603 40.185420 -0.525275 2.367599 0.018045 -0.004320 119466.000000 0 0 1
-25.087225 13.125092 -28.061233 39.863137 -0.482018 2.351725 0.001910 -0.004510 130617.000000 0 0 1
-24.484815 11.733492 -28.313033 39.227654 -0.446882 2.377141 0.000741 -0.001050 481312.000000 0 0 1
-23.234015 11.469792 -27.688773 37.921547 -0.458566 2.389351 -0.002634 -0.000575 14975.800000 0 0 1
-22.695815 10.272192 -28.249793 37.665219 -0.425016 2.418894 -0.015729 0.007323 467914.000000 0 0 1
-21.610815 9.684492 -27.293273 36.135017 -0.421299 2.426929 -0.002735 0.006858 427409.000000 0 0 1
-22.234715 8.868392 -26.323033 35.579952 -0.379518 2.403611 -0.010471 0.013745 -431014.000000 0 0 1
-21.309515 8.412792 -25.421243 34.221486 -0.376007 2.408106 0.002779 0.027935 -1259250.000000 0 0 1
-21.868815 7.439292 -24.363023 33.572981 -0.327898 2.382809 0.004766 0.036721 19964.800000 0 0 1
-22.256315 6.146492 -24.905023 33.961494 -0.269452 2.394005 0.003115 0.013690 284833.000000 0 0 1
-22.697215 5.205092 -23.900123 33.368734 -0.225429 2.369200 0.007315 0.025264 -96397.500000 0 0 1
33.242318 25.616295 -10.495323 43.259659 0.656551 1.815854 -0.014081 0.004390 -99118.300000 0 0 1
34.279523 24.897195 -9.873323 43.502167 0.628159 1.799753 -0.014560 0.000011 28038.800000 0 0 1
34.651024 23.734895 -10.573523 43.310947 0.600567 1.817419 -0.008611 -0.005592 -410805.000000 0 0 1
-34.095749 22.867695 -9.845823 42.218383 -0.590783 1.806176 0.010362 -0.006802 -374824.000000 0 0 1
-34.581521 22.223295 -8.675223 42.012093 -0.571180 1.778786 -0.012625 -0.001198 -98380.000000 0 0 1
-33.488825 21.701295 -7.958823 40.691406 -0.574979 1.767655 0.018668 0.010242 -170297.000000 0 0 1
-33.909195 20.820895 -6.774623 40.363829 -0.550664 1.739433 -0.009624 0.022460 -310212.000000 0 0 1
-34.448309 19.640995 -7.211323 40.304564 -0.518188 1.750686 -0.015987 0.009231 -43476.500000 0 0 1
-34.560091 18.678095 -6.225623 39.774735 -0.495484 1.727965 0.001499 -0.014061 -252997.000000 0 0 1
34.466762 17.409395 -6.732423 39.196559 0.467725 1.743413 -0.001595 -0.000244 -305855.000000 0 0 1
33.215868 17.699895 -7.289123 38.336817 0.489600 1.762095 0.008649 -0.009046 -532067.000000 0 0 1
32.714168 16.555095 -7.946823 37.515863 0.468478 1.784239 0.025719 -0.005596 202235.000000 0 0 1
31.411268 16.797095 -8.757223 36.681046 0.491058 1.811864 0.024998 -0.010235 25435.000000 0 0 1
31.090428 15.707295 -9.567923 36.123109 0.467809 1.838865 0.030667 -0.017549 -307468.000000 0 0 1
30.234298 16.124695 -10.583723 35.862708 0.489951 1.870375 0.029897 -0.015164 -682204.000000 0 0 1
29.626138 14.956395 -11.393623 35.088695 0.467510 1.901501 0.009240 -0.005907 -187821.000000 0 0 1
28.496818 14.285895 -10.882323 33.683533 0.464699 1.899774 0.001936 0.005187 130101.000000 0 0 1
28.639048 13.687495 -9.610823 33.164899 0.445837 1.864803 0.013132 0.001421 -476548.000000 0 0 1
27.560868 12.604295 -9.263423 31.690389 0.428929 1.867438 -0.005625 0.017824 270633.000000 0 0 1
27.854678 11.458195 -10.024923 31.743857 0.390258 1.892103 -0.000979 0.020655 804894.000000 0 0 1
26.910788 10.422895 -9.760623 30.464685 0.369522 1.896939 -0.004196 0.018152 -190290.000000 0 0 1
27.412258 9.157695 -10.447823 30.731943 0.322416 1.917677 -0.003918 0.016238 -8567.360000 0 0 1
28.592558 8.709095 -9.797823 31.454413 0.295665 1.887560 0.001545 0.016183 530720.000000 0 0 1
28.807378 7.329895 -9.946023 31.345108 0.249158 1.893685 -0.002693 0.013522 -457308.000000 0 0 1
29.943928 6.868195 -9.017423 32.017571 0.225469 1.856299 0.007071 0.011771 -1068640.000000 0 0 1
31.194028 7.239295 -9.479623 33.396677 0.228036 1.858602 0.004070 0.009821 -601818.000000 0 0 1
32.116208 7.052395 -8.370523 33.930116 0.216159 1.820069 0.017258 0.009556 -122761.000000 0 0 1
33.536808 7.129795 -8.927823 35.429614 0.209477 1.825530 0.006973 0.008627 -726913.000000 0 0 1
33.815681 6.123195 -9.829823 35.743800 0.179135 1.849394 0.000554 0.011817 1091060.000000 0 0 1
-34.560771 6.268695 -10.315923 36.608219 -0.179431 1.856458 -0.008055 0.005671 196951.000000 0 0 1
-34.178799 5.536995 -11.589023 36.512383 -0.160606 1.893783 -0.011262 0.008262 -473267.000000 0 0 1
-32.878185 5.619195 -12.106823 35.484160 -0.169274 1.918978 -0.009642 0.004695 -20699.300000 0 0 1
-32.486815 6.870495 -12.642623 35.530730 -0.208415 1.934590 -0.023877 0.006641 -304002.000000 0 0 1
-31.636135 7.771095 -11.712223 34.618075 -0.240871 1.915935 -0.016519 0.008842 -325814.000000 0 0 1
-32.446155 8.448995 -10.724523 35.201618 -0.254743 1.880378 -0.018827 0.001153 495618.000000 0 0 1
-32.835085 9.770295 -11.130123 36.020565 -0.289214 1.884931 -0.018179 0.000925 5818.390000 0 0 1
-33.861885 10.445095 -10.194423 36.873480 -0.299202 1.850916 0.003923 -0.001285 -50787.900000 0 0 1
-33.240645 10.975995 -9.034223 36.152872 -0.318926 1.823362 0.003545 -0.003077 -314170.000000 0 0 1
-33.928185 12.040095 -8.400923 36.968381 -0.341007 1.800045 0.019043 -0.005823 -599885.000000 0 0 1
-33.116215 13.046895 -7.571623 36.390035 -0.375300 1.780396 0.019481 -0.004713 -197671.000000 0 0 1
-32.262915 13.857295 -8.366923 36.096063 -0.405686 1.804720 0.003390 -0.008775 -188495.000000 0 0 1
-31.514695 14.697295 -7.524423 35.578132 -0.436378 1.783896 -0.007423 -0.004155 -69979.800000 0 0 1
-30.595855 15.667195 -8.275023 35.355952 -0.473256 1.807037 -0.014273 -0.002881 232096.000000 0 0 1
-31.371785 16.723395 -8.858423 36.637856 -0.489753 1.815000 -0.005978 -0.004487 389484.000000 0 0 1
-30.529335 17.786195 -9.189623 36.508057 -0.527522 1.825248 -0.000803 -0.000624 -25971.200000 0 0 1
-31.315985 18.726095 -10.078123 37.854011 -0.538927 1.840283 -0.012880 -0.009254 98290.200000 0 0 1
-31.170935 18.514195 -11.458023 38.022216 -0.535964 1.876905 -0.011784 -0.013596 -508924.000000 0 0 1
-32.236775 19.056195 -12.204823 39.386622 -0.533874 1.885855 -0.010940 -0.023960 -751063.000000 0 0 1
-31.939035 19.210995 -13.745723 39.725423 -0.541514 1.924120 -0.010860 -0.010120 -21845.700000 0 0 1
-30.925145 20.161895 -14.035623 39.495131 -0.577750 1.934113 -0.007791 -0.013940 254164.000000 0 0 1
-30.877335 20.398595 -15.441923 40.099445 -0.583814 1.966102 -0.015383 -0.015332 -632145.000000 0 0 1
-30.003525 21.618495 -15.836823 40.229042 -0.624373 1.975413 0.005370 -0.019394 -1399570.000000 0 0 1
-28.674545 21.322495 -15.608323 38.993565 -0.639395 1.982618 0.005704 -0.014446 -803562.000000 0 0 1
-27.873875 22.494095 -15.560323 39.052028 -0.678992 1.980624 0.010353 -0.012932 -149485.000000 0 0 1
-27.362515 23.154195 -16.840323 39.603289 -0.702285 2.010007 0.012786 -0.016614 -910798.000000 0 0 1
-28.270885 23.862895 -17.673423 41.000373 -0.701047 2.016458 0.018914 -0.013346 120271.000000 0 0 1
-27.683825 24.734095 -18.673023 41.555402 -0.729184 2.036837 0.016060 -0.017473 -319774.000000 0 0 1
-26.679905 25.844295 -18.244623 41.383707 -0.769490 2.027358 0.007545 -0.005132 366843.000000 0 0 1
-27.344245 26.989695 -17.784023 42.337015 -0.778873 2.004306 0.009974 -0.004473 642244.000000 0 0 1
-26.374005 28.005295 -17.473623 42.251772 -0.815388 1.997156 0.003055 -0.006690 710866.000000 0 0 1
-27.037695 29.371795 -17.051923 43.410913 -0.826752 1.974474 -0.005937 0.000249 495354.000000 0 0 1
-27.555325 29.471895 -15.700323 43.294211 -0.818994 1.941898 -0.004215 -0.001094 -178704.000000 0 0 1
-26.499925 29.558595 -14.810723 42.371147 -0.839906 1.927884 -0.005728 0.003294 -470467.000000 0 0 1
-26.841535 30.150895 -13.377923 42.526619 -0.843400 1.890808 -0.008032 0.003869 -201939.000000 0 0 1
-26.656275 31.537095 -13.377923 43.406385 -0.869075 1.884098 -0.004953 0.005692 80313.800000 0 0 1
-27.306115 32.133295 -12.255823 43.913299 -0.866432 1.853644 -0.019394 0.012634 94047.100000 0 0 1
-26.803985 33.556795 -12.083023 44.615150 -0.896809 1.845049 -0.036022 0.011369 -99674.000000 0 0 1
-27.024445 34.362295 -13.218623 45.670778 -0.904368 1.864431 -0.036500 -0.000328 151477.000000 0 0 1
-26.109285 -34.065401 -13.247923 44.918301 0.916853 1.870183 -0.016143 0.011051 97755.300000 0 0 1
-26.419195 -33.090001 -14.424323 44.732350 0.897029 1.899122 -0.017786 0.007511 -59503.200000 0 0 1
-25.757895 -33.460501 -15.635623 45.028291 0.914743 1.925423 -0.015804 0.004520 90774.600000 0 0 1
-26.242425 -32.782901 -16.790423 45.225013 0.895756 1.951166 -0.006600 0.012275 -104187.000000 0 0 1
-25.384845 -33.073501 -18.035823 45.426179 0.916171 1.979081 -0.013048 0.006379 -166448.000000 0 0 1
-25.575205 -34.279501 -18.761623 46.703039 0.929810 1.984192 -0.010193 0.007124 -279689.000000 0 0 1
-24.903115 34.118295 -18.273723 46.023387 -0.940281 1.979100 -0.017747 0.009113 -736697.000000 0 0 1
-24.885215 32.880695 -19.191323 45.483194 -0.922936 2.006384 -0.014215 0.000728 518182.000000 0 0 1
-26.077095 32.087195 -19.317723 45.637456 -0.888362 2.007866 -0.004600 0.005252 209553.000000 0 0 1
-27.042905 32.654395 -20.175523 46.954020 -0.879122 2.014942 0.000626 0.002494 200199.000000 0 0 1
-28.467295 32.083895 -19.899723 47.283847 -0.845055 2.005186 0.008852 -0.000734 288622.000000 0 0 1
-28.775805 30.825295 -20.352523 46.823829 -0.819771 2.020459 0.001713 0.004178 705442.000000 0 0 1
-30.192725 30.700095 -20.527223 47.701818 -0.793730 2.015648 0.008142 0.001871 628253.000000 0 0 1
-30.589745 29.293695 -21.097623 47.317680 -0.763759 2.032944 0.008859 -0.001809 116728.000000 0 0 1
-31.953085 29.177695 -21.494623 48.315178 -0.740028 2.031840 0.015638 -0.006275 537545.000000 0 0 1
-32.224515 27.859795 -21.909323 47.902046 -0.712882 2.045840 0.011200 0.004880 -358255.000000 0 0 1
-33.642175 27.417495 -22.300723 48.793824 -0.683805 2.045461 0.006580 0.006889 -306791.000000 0 0 1
-34.199468 28.041195 -23.405623 50.037341 -0.686776 2.057555 -0.003144 0.011500 -509505.000000 0 0 1
34.501478 27.301695 -23.966123 50.100994 0.669426 2.069578 -0.001709 0.014033 -306465.000000 0 0 1
33.756850 27.955595 -25.142853 50.529232 0.691669 2.091615 0.006656 0.015898 -18178.200000 0 0 1
34.460015 27.930595 -26.354913 51.596436 0.681124 2.106899 -0.003736 0.012566 36433.900000 0 0 1
33.609888 28.367695 -27.425953 51.831782 0.701017 2.128376 0.025443 0.010135 287283.000000 0 0 1
34.395242 28.437195 -28.737773 53.080753 0.690856 2.142894 0.022536 0.002332 108591.000000 0 0 1
34.628211 27.134695 -29.205183 52.804805 0.664661 2.156851 0.004168 0.004148 126709.000000 0 0 1
-34.625857 27.117995 -30.572533 53.563191 -0.664395 2.178246 -0.003053 0.000048 -1153770.000000 0 0 1
-34.152910 25.690095 -31.022133 52.808854 -0.644913 2.198691 -0.006965 0.001685 529124.000000 0 0 1
-33.066155 25.126395 -30.298913 51.407495 -0.649796 2.201096 -0.007421 0.009161 -599892.000000 0 0 1
-31.830805 25.742895 -30.437293 51.012995 -0.680048 2.210126 -0.024539 0.009425 -1251780.000000 0 0 1
-30.843595 25.014295 -29.517063 49.480293 -0.681415 2.209982 -0.019091 0.016095 -389442.000000 0 0 1
-30.421035 23.683095 -29.845063 48.755063 -0.661500 2.229564 -0.002929 0.002370 180713.000000 0 0 1
-31.299705 22.773995 -29.248993 48.516286 -0.629017 2.217889 -0.016329 0.005518 -180350.000000 0 0 1
-31.039365 21.341995 -29.743893 47.996064 -0.602341 2.239176 -0.020016 -0.003862 -971384.000000 0 0 1
-29.808165 20.812395 -29.422393 46.769218 -0.609524 2.251188 0.015729 -0.010933 -864412.000000 0 0 1
-29.641715 19.597595 -30.100653 46.569801 -0.584173 2.273595 0.005371 -0.010642 -391377.000000 0 0 1
-28.189585 19.099295 -30.270723 45.560427 -0.595486 2.297498 0.014358 -0.013895 -594438.000000 0 0 1
-27.498965 19.830595 -31.241053 46.102592 -0.624773 2.315348 0.015579 -0.009341 204529.000000 0 0 1
-26.224525 19.313195 -31.614553 45.389483 -0.634776 2.341328 0.025507 -0.012522 464011.000000 0 0 1
-26.201945 17.982295 -32.423353 45.400206 -0.601469 2.366230 0.023143 -0.002702 -278191.000000 0 0 1
-26.666055 16.793295 -31.717043 44.710895 -0.562017 2.359415 0.006014 -0.004698 203801.000000 0 0 1
-26.648205 15.634195 -32.524673 44.859885 -0.530574 2.381871 -0.003100 0.005042 -68967.800000 0 0 1
-27.102695 14.370895 -31.725263 44.131293 -0.487545 2.372991 0.000693 0.003581 580073.000000 0 0 1
-28.423265 14.398895 -31.178003 44.578897 -0.468904 2.345339 -0.003430 0.001799 215212.000000 0 0 1
-29.011845 13.153895 -30.842453 44.339249 -0.425676 2.340053 -0.011717 0.003454 -113399.000000 0 0 1
-28.446845 12.225595 -29.728833 42.924255 -0.405904 2.335867 -0.017660 -0.012360 -384380.000000 0 0 1
-28.527685 12.803595 -28.452483 42.276526 -0.421866 2.309066 -0.028384 -0.009975 143679.000000 0 0 1
-28.794255 11.833695 -27.435333 41.495096 -0.389931 2.293174 -0.017752 -0.002367 -3919.150000 0 0 1
-28.875105 12.538995 -26.079403 40.879498 -0.409679 2.262640 -0.019807 -0.009567 -83032.200000 0 0 1
-27.574435 12.910095 -25.694733 39.840173 -0.437878 2.271748 -0.008708 -0.017345 -129910.000000 0 0 1
-27.495075 13.726895 -24.529323 39.320408 -0.463047 2.244432 -0.005838 -0.007821 401316.000000 0 0 1
-26.026575 14.158095 -24.211623 38.262736 -0.498214 2.255925 0.011733 -0.004592 -631749.000000 0 0 1
-25.351905 14.915795 -25.154853 38.703575 -0.531809 2.278297 0.031995 -0.012939 790144.000000 0 0 1
-23.941815 15.063795 -24.892723 37.679916 -0.561602 2.292462 0.029742 -0.018206 1058300.000000 0 0 1
-23.563715 15.774495 -23.588223 36.884789 -0.589920 2.264658 0.030549 -0.016579 -1660840.000000 0 0 1
-24.146415 17.030495 -23.471423 37.735856 -0.614275 2.242081 0.044770 -0.020736 63908.300000 0 0 1
-24.117915 17.370295 -22.115123 37.046993 -0.624170 2.210488 0.045099 -0.019189 -676065.000000 0 0 1
-25.538535 17.473895 -21.602423 37.738819 -0.600054 2.180249 0.039594 -0.017706 -559610.000000 0 0 1
-26.346925 16.276095 -21.627323 37.773176 -0.553377 2.180418 0.035740 -0.009385 566866.000000 0 0 1
-27.619305 16.642295 -21.110923 38.541706 -0.542300 2.150460 0.027763 -0.002670 -873629.000000 0 0 1
-28.579715 15.435595 -21.147223 38.759035 -0.495202 2.147910 -0.014485 -0.004588 -386061.000000 0 0 1
-29.135985 15.205795 -22.419723 39.783990 -0.481006 2.169457 -0.016952 -0.005512 108062.000000 0 0 1
-30.302685 15.996395 -22.569423 41.030675 -0.485708 2.153235 -0.024395 -0.001245 -732862.000000 0 0 1
-30.723245 16.055695 -24.051823 42.192337 -0.481557 2.177365 -0.025150 -0.006229 252213.000000 0 0 1
-31.610475 14.951695 -24.428923 42.656156 -0.441814 2.180585 -0.020769 0.000656 790082.000000 0 0 1
-32.151535 15.232895 -25.718373 43.899852 -0.442456 2.196715 -0.022253 0.001518 -224889.000000 0 0 1
-33.376075 14.442995 -26.168843 44.803692 -0.408404 2.194540 -0.024158 0.005233 -297469.000000 0 0 1
-33.098605 13.061495 -26.453003 44.338265 -0.375863 2.210077 -0.030944 0.003484 131847.000000 0 0 1
-32.963805 12.242095 -25.283593 43.309831 -0.355593 2.194178 -0.037188 0.003314 -343243.000000 0 0 1
-32.962805 10.729895 -25.665143 43.132085 -0.314698 2.208107 -0.034688 -0.003788 -457000.000000 0 0 1
-34.179928 10.243795 -26.117343 44.218983 -0.291183 2.202644 -0.029009 0.000466 -554062.000000 0 0 1
-33.832555 8.912995 -26.549963 43.920198 -0.257592 2.219940 -0.021063 0.011599 -470619.000000 0 0 1
34.762109 8.008595 -26.972663 44.722102 0.226432 2.218199 -0.009878 0.008421 -146043.000000 0 0 1
33.920074 7.510295 -25.920313 43.345572 0.217896 2.211790 -0.011637 0.014110 -42771.800000 0 0 1
33.020868 6.564095 -26.435273 42.805242 0.196228 2.236447 -0.000673 0.009836 -73768.500000 0 0 1
32.158498 5.961895 -25.329743 41.367972 0.183310 2.229767 0.004386 0.006459 -33802.300000 0 0 1
32.939898 5.014395 -24.622223 41.429880 0.151069 2.207205 0.006959 -0.000236 266735.000000 0 0 1
32.223578 4.262695 -23.643323 40.193735 0.131521 2.199670 0.019969 0.001512 255970.000000 0 0 1
33.146588 3.275095 -22.842123 40.387933 0.098487 2.171918 0.013438 -0.003546 377564.000000 0 0 1
33.517128 2.162695 -23.671523 41.090341 0.064436 2.184727 0.015552 -0.007960 -43296.800000 0 0 1
34.505705 1.393595 -23.032423 41.509979 0.040365 2.158997 0.020278 -0.004768 -1650.660000 0 0 1
-34.601725 0.305995 -23.906623 42.058289 -0.008843 2.175376 0.036274 0.003017 882225.000000 0 0 1
34.092502 -0.612005 -24.342723 41.895602 -0.017949 2.190794 0.016279 0.003164 780263.000000 0 0 1
34.684989 -1.806105 -24.791823 42.672532 -0.052025 2.190727 0.022611 0.002197 160307.000000 0 0 1
-22.134115 29.931995 27.964999 46.560548 -0.934062 0.926525 -0.007418 0.002614 -880205.000000 0 0 1
-23.138315 30.294595 27.062759 46.749728 -0.918536 0.953435 -0.019943 0.001079 228764.000000 0 0 1
-23.315515 29.521695 25.822889 45.628559 -0.902321 0.969227 -0.022984 0.014904 -249062.000000 0 0 1
-23.722415 27.986595 25.962289 44.944888 -0.867677 0.954953 -0.018239 0.011753 349983.000000 0 0 1
-25.020015 27.608895 26.434639 45.684159 -0.834550 0.953737 -0.001061 0.007788 625542.000000 0 0 1
-25.181035 27.636095 27.855669 46.623777 -0.831847 0.930471 -0.002535 0.004413 -772806.000000 0 0 1
-24.677415 26.385995 28.615709 46.087465 -0.818846 0.900906 0.000751 0.011046 607474.000000 0 0 1
-23.262815 26.286295 28.811849 45.412009 -0.846342 0.883494 0.000585 0.012078 376696.000000 0 0 1
-22.961915 26.933995 30.070449 46.442670 -0.864838 0.866530 -0.005582 0.001750 -590764.000000 0 0 1
-21.554415 26.626695 30.554869 45.903962 -0.890287 0.842464 0.007062 0.008661 -905175.000000 0 0 1
-20.521715 27.129195 29.724319 45.173767 -0.923184 0.852637 0.015005 0.004675 828321.000000 0 0 1
-19.204515 26.937895 30.281659 44.849108 -0.951453 0.829574 0.020934 0.004222 978538.000000 0 0 1
-18.623515 25.489195 30.152229 43.654225 -0.939799 0.808332 0.018155 0.011365 -668228.000000 0 0 1
-18.003315 25.286195 28.910689 42.418616 -0.952074 0.820909 0.021872 0.013731 33337.800000 0 0 1
-18.751215 24.451895 28.018329 41.647689 -0.916591 0.832882 0.015682 0.013006 142520.000000 0 0 1
-18.898015 22.903795 28.207759 40.956031 -0.880934 0.811057 0.011527 0.021320 -395190.000000 0 0 1
-19.735215 22.411495 29.163289 41.740284 -0.848812 0.797239 0.005151 0.009187 -517247.000000 0 0 1
-19.850315 21.001495 29.092189 41.005528 -0.813570 0.782051 0.003190 0.014738 135227.000000 0 0 1
-20.263315 20.327395 30.450379 41.845317 -0.786977 0.755850 0.006320 0.001424 -207569.000000 0 0 1
-19.329815 20.519395 31.452919 42.237110 -0.815241 0.730749 0.007319 -0.006997 -317073.000000 0 0 1
-19.854115 20.063295 32.648379 43.158295 -0.790638 0.712882 0.006923 -0.007646 168624.000000 0 0 1
-18.974515 20.595995 33.838551 43.923511 -0.826352 0.691332 0.009507 -0.008556 194554.000000 0 0 1
-18.989815 22.008695 33.968563 44.708602 -0.858899 0.707826 0.016166 -0.011790 327304.000000 0 0 1
-18.048315 22.699395 33.111929 44.015953 -0.899050 0.719294 0.029000 -0.006429 812665.000000 0 0 1
-16.630115 22.925195 33.763432 44.069203 -0.943221 0.697974 0.017498 0.002466 733752.000000 0 0 1
-15.937315 21.684795 33.812748 43.214932 -0.936995 0.672235 0.009948 -0.002838 449075.000000 0 0 1
-14.560515 21.882895 34.185138 43.121843 -0.983683 0.655478 0.002820 0.000681 114623.000000 0 0 1
-13.753115 20.589295 33.939753 42.011595 -0.981889 0.630274 0.002445 -0.002167 900034.000000 0 0 1
-12.377715 20.690795 34.384399 41.995283 -1.031684 0.611534 -0.014821 -0.000984 1151780.000000 0 0 1
-12.244415 20.633995 -33.469673 41.181385 -1.035237 2.519632 -0.010860 -0.006471 -679166.000000 0 0 1
-10.765115 20.523595 -33.071583 40.383602 -1.087723 2.530351 -0.015346 -0.004913 156778.000000 0 0 1
-9.936615 21.655295 -33.300843 40.946725 -1.140604 2.520550 -0.029568 0.002520 24269.300000 0 0 1
-8.612815 21.387195 -32.876713 40.155585 -1.187957 2.529998 -0.036755 0.006205 -286103.000000 0 0 1
-7.767915 22.641495 -32.995823 40.763981 -1.240297 2.513987 -0.037719 0.007545 -564159.000000 0 0 1
-7.984515 23.767295 -32.137643 40.761071 -1.246697 2.479064 -0.029340 0.011823 110414.000000 0 0 1
-7.592415 23.561995 -30.762423 39.485935 -1.259071 2.463982 -0.031469 0.008062 -52857.100000 0 0 1
-7.233815 24.930695 -30.156323 39.790344 -1.288394 2.430854 -0.035050 0.008037 652245.000000 0 0 1
-6.034715 25.503095 -30.716463 40.377305 -1.338443 2.435242 -0.038959 0.009634 746508.000000 0 0 1
-5.823915 26.825695 -30.164033 40.784860 -1.357012 2.403256 -0.024810 0.013542 1057.070000 0 0 1
-4.452215 27.382195 -30.598063 41.301916 -1.409612 2.405115 -0.023140 0.016483 -1101660.000000 0 0 1
-3.366315 26.690495 -30.090763 40.362961 -1.445335 2.412088 -0.021801 0.007770 -315554.000000 0 0 1
-2.126515 27.148295 -30.601043 40.963103 -1.492626 2.414393 -0.012515 0.011639 340934.000000 0 0 1
-1.548015 28.468095 -30.004483 41.389586 -1.516473 2.381727 -0.005131 0.003851 -652202.000000 0 0 1
-1.150015 28.454895 -28.627303 40.379773 -1.530403 2.358807 -0.004871 -0.003293 418684.000000 0 0 1
-0.414015 29.590795 -28.233793 40.901512 -1.556806 2.332682 -0.007906 -0.001488 -837104.000000 0 0 1
0.012385 29.512395 -26.718603 39.810368 1.570377 2.306551 -0.000960 -0.002790 981035.000000 0 0 1
1.159485 28.684595 -26.426843 39.019591 1.530396 2.314844 0.005945 -0.004358 2236080.000000 0 0 1
2.443385 28.984195 -27.085613 39.745240 1.486695 2.320580 0.001310 -0.000240 1170070.000000 0 0 1
3.577785 28.996295 -26.022163 39.124655 1.448029 2.298436 0.002392 -0.007281 -154906.000000 0 0 1
3.742885 27.729995 -25.440963 37.818044 1.436631 2.308675 0.014348 -0.001518 25054.100000 0 0 1
4.573785 27.829795 -24.294423 37.224132 1.407904 2.281876 0.010566 0.008117 290817.000000 0 0 1
5.283285 26.495495 -23.888923 36.063902 1.373975 2.294821 0.014232 0.009196 45481.600000 0 0 1
6.159485 26.630595 -22.793023 35.590023 1.343500 2.265858 0.007090 0.007377 208199.000000 0 0 1
7.036285 25.486995 -22.691023 34.842198 1.301432 2.280028 0.011102 0.014850 224536.000000 0 0 1
8.516085 25.824195 -22.523323 35.308821 1.252255 2.262558 0.002258 0.023618 -1004980.000000 0 0 1
8.726185 26.504395 -21.300623 35.104783 1.252738 2.222790 0.009373 0.021256 842902.000000 0 0 1
10.099485 26.827795 -20.998323 35.533924 1.210750 2.203017 0.013499 0.018022 1023020.000000 0 0 1
10.984885 25.675095 -20.505823 34.646313 1.166521 2.204163 -0.004664 0.023761 -419255.000000 0 0 1
11.189085 24.632495 -21.466223 34.536273 1.144421 2.241524 -0.012100 0.019085 -433015.000000 0 0 1
11.728985 23.504695 -20.869323 33.549492 1.107944 2.242149 -0.003881 0.017371 -461663.000000 0 0 1
11.853885 22.375895 -21.890823 33.472428 1.083624 2.283651 -0.013739 0.013583 -208052.000000 0 0 1
10.634085 22.031195 -22.501723 33.238304 1.121098 2.314450 -0.011298 0.006360 -204264.000000 0 0 1
10.823185 20.981795 -23.440723 33.269273 1.094560 2.352621 -0.013854 0.005139 -183124.000000 0 0 1
10.114185 21.001395 -24.813823 34.045281 1.121980 2.387434 0.005322 0.003856 -1260540.000000 0 0 1
8.748985 20.882895 -24.735723 33.533506 1.174057 2.400368 -0.007375 0.003977 -1261170.000000 0 0 1
8.222385 20.877495 -26.070343 34.396805 1.195612 2.430929 -0.021054 0.003500 672362.000000 0 0 1
6.674585 20.559795 -26.102333 33.890811 1.256888 2.449934 0.006370 0.000058 652553.000000 0 0 1
5.797485 21.566695 -25.742523 34.079476 1.308188 2.427011 0.015961 0.002235 -208609.000000 0 0 1
5.681285 21.717195 -24.354823 33.122062 1.314927 2.396913 0.021180 0.007475 -413365.000000 0 0 1
4.201485 22.070995 -24.057023 32.916890 1.382685 2.390350 0.028233 0.003904 84181.000000 0 0 1
3.855585 23.400795 -24.306923 33.960113 1.407500 2.368493 0.020081 0.008949 -769845.000000 0 0 1
2.473485 23.399495 -24.480823 33.955341 1.465481 2.375999 0.020136 0.004811 -792439.000000 0 0 1
1.788885 24.743395 -24.192123 34.651039 1.498624 2.343627 0.011032 0.015014 -373621.000000 0 0 1
0.512585 24.886195 -24.756623 35.106635 1.550202 2.353478 0.006325 -0.001576 -201923.000000 0 0 1
0.444685 25.451095 -26.041953 36.416196 1.553326 2.367592 0.003290 -0.000610 -785322.000000 0 0 1
-0.996915 25.486995 -26.518183 36.793951 -1.531702 2.375639 0.008755 0.000423 -643900.000000 0 0 1
-1.470015 24.171795 -27.007153 36.274274 -1.510056 2.410621 0.016785 -0.005922 960350.000000 0 0 1
-2.564115 24.414695 -27.950853 37.200836 -1.466156 2.420902 0.012694 -0.004151 965053.000000 0 0 1
-3.311615 23.088495 -28.302253 36.675100 -1.428337 2.452310 0.008121 -0.011644 -435766.000000 0 0 1
-2.602315 22.258795 -29.178693 36.791604 -1.454413 2.486646 0.017889 -0.009182 13804.200000 0 0 1
-3.266915 21.034695 -29.470903 36.354715 -1.416717 2.516056 0.002998 -0.000052 840078.000000 0 0 1
-4.543115 21.059295 -30.424383 37.279712 -1.358323 2.525445 -0.017337 0.003813 767362.000000 0 0 1
-4.264515 21.235895 -31.808203 38.482608 -1.372616 2.543765 -0.007874 0.006969 344507.000000 0 0 1
-3.557015 22.450995 -32.132843 39.360121 -1.413668 2.525912 -0.007992 0.004672 187027.000000 0 0 1
-3.167015 22.599195 -33.622093 40.634945 -1.431565 2.545291 -0.015957 0.007075 -97574.500000 0 0 1
-2.123715 21.746295 -34.029773 40.440536 -1.473446 2.570807 -0.010763 0.010529 63734.500000 0 0 1
-1.777415 22.066695 33.917479 40.503008 -1.490422 0.578276 -0.009117 0.018610 -81556.300000 0 0 1
-0.652015 21.166895 33.378009 39.529155 -1.540003 0.565371 0.008543 0.020460 -284362.000000 0 0 1
-1.068715 19.805995 33.197231 38.671382 -1.516889 0.538567 -0.001516 0.032890 178710.000000 0 0 1
-0.060215 19.027995 32.602379 37.748952 -1.567632 0.528304 0.015344 0.023113 -101415.000000 0 0 1
-0.610715 17.589595 32.293509 36.778222 -1.536090 0.499002 0.008946 0.030484 535832.000000 0 0 1
-1.431515 17.557795 31.108539 35.750058 -1.489445 0.515254 0.007339 0.025080 375141.000000 0 0 1
-1.808515 16.227395 30.745669 34.812286 -1.459806 0.488187 -0.003739 0.023946 -632866.000000 0 0 1
-2.826315 16.117695 29.593379 33.816213 -1.397206 0.505104 0.009472 0.018473 199046.000000 0 0 1
-4.147015 16.531495 29.895909 34.412984 -1.325013 0.518145 0.000879 0.010173 44671.700000 0 0 1
-4.316415 17.890095 29.782279 35.009586 -1.334047 0.553501 0.001571 0.007829 -1491000.000000 0 0 1
-5.740515 18.306695 30.009569 35.618294 -1.266933 0.568829 -0.003611 -0.002608 -486004.000000 0 0 1
-6.634515 17.851395 28.996249 34.691088 -1.214964 0.581133 -0.006915 -0.000481 416616.000000 0 0 1
-7.995215 18.266595 29.119219 35.291938 -1.158221 0.600425 -0.022026 0.005663 94018.100000 0 0 1
-8.885815 17.380895 28.222489 34.315625 -1.098197 0.605112 -0.018321 -0.004221 -264450.000000 0 0 1
-9.246515 16.082195 28.667619 34.146266 -1.048997 0.574335 -0.007703 -0.016009 73738.500000 0 0 1
-9.881015 15.997395 29.932449 35.348305 -1.017490 0.560883 -0.012966 -0.018979 -621844.000000 0 0 1
-10.327315 14.534895 30.222539 35.090148 -0.953046 0.533008 -0.007792 -0.029769 -172105.000000 0 0 1
-9.296915 13.609495 30.430099 34.606964 -0.971489 0.496394 0.005266 -0.020552 -13251.300000 0 0 1
-8.434815 13.637395 31.540839 35.382894 -1.016880 0.470339 -0.001064 -0.013511 -228683.000000 0 0 1
-9.082115 13.111595 32.794049 36.467087 -0.965001 0.452680 0.017815 -0.021611 -623039.000000 0 0 1
-9.302615 11.719195 32.932809 36.172477 -0.899852 0.426454 0.016258 -0.014030 319204.000000 0 0 1
-9.744815 11.340595 34.229046 37.352351 -0.860936 0.411848 0.016082 -0.009007 -402560.000000 0 0 1
-10.075615 9.839495 34.436607 37.205021 -0.773542 0.388204 0.019463 -0.000791 178154.000000 0 0 1
-8.955215 8.935595 34.315458 36.573097 -0.784302 0.353200 0.007963 0.009577 572003.000000 0 0 1
-8.290715 8.447795 -33.776753 35.790645 -0.794782 2.804534 0.016371 -0.001912 586357.000000 0 0 1
-7.407215 9.513895 -33.035463 35.167071 -0.909261 2.791632 0.020719 -0.010009 -338178.000000 0 0 1
-8.229915 10.344995 -32.258143 34.861701 -0.898777 2.752668 0.018961 -0.008093 -163115.000000 0 0 1
-7.562215 11.124495 -31.327953 34.093726 -0.973770 2.736022 0.007268 0.003304 -498635.000000 0 0 1
-6.763215 12.323295 -31.837623 34.802858 -1.068863 2.725807 -0.014084 0.007856 -72151.500000 0 0 1
-7.526115 13.371695 -32.392453 35.842930 -1.058149 2.699208 -0.009257 0.004987 996254.000000 0 0 1
-6.542715 14.382995 -32.710753 36.327277 -1.143881 2.691590 -0.015931 0.004033 908264.000000 0 0 1
-7.239915 15.700695 -33.094303 37.338467 -1.138733 2.660160 -0.024205 0.003722 -108272.000000 0 0 1
-7.978715 15.748795 -34.290806 38.568690 -1.101864 2.666137 -0.025142 -0.005875 308396.000000 0 0 1
-8.542415 17.062395 -34.463392 39.393192 -1.106623 2.635936 -0.014475 -0.003634 -543901.000000 0 0 1
-9.109315 17.419495 33.404167 38.758958 -1.088967 0.531902 -0.016415 -0.008975 1024180.000000 0 0 1
-10.287715 16.740895 32.928099 38.345200 -1.019764 0.538014 -0.007976 -0.019110 2380350.000000 0 0 1
-11.545015 16.987595 33.661397 39.432923 -0.973883 0.547868 -0.002860 -0.023004 1387390.000000 0 0 1
-12.822315 16.676895 32.815239 38.979104 -0.915329 0.570062 -0.010916 -0.022669 83252.000000 0 0 1
-13.021715 15.386195 32.300269 38.073711 -0.868440 0.557914 -0.011786 -0.020636 225020.000000 0 0 1
-13.684115 14.491295 33.152909 38.682917 -0.814039 0.541294 0.007426 -0.022016 -384864.000000 0 0 1
-13.040215 13.142295 33.058609 37.889824 -0.789297 0.510515 -0.000031 -0.013134 -388284.000000 0 0 1
-13.360115 12.392595 31.898689 36.736841 -0.747846 0.519027 -0.017923 -0.015719 -33071.900000 0 0 1
-12.286915 11.617595 31.415279 35.677116 -0.757406 0.493787 -0.009069 -0.016197 -494590.000000 0 0 1
-12.472615 11.102495 29.960019 34.299188 -0.727346 0.508470 -0.013394 -0.011764 -152529.000000 0 0 1
-13.538715 10.184895 29.881439 34.350099 -0.644958 0.515780 -0.015886 0.000608 17076.400000 0 0 1
-13.594915 9.607595 28.588649 33.082299 -0.615212 0.527303 -0.029217 0.009432 246622.000000 0 0 1
-14.554015 8.404495 28.436079 33.031281 -0.523688 0.533793 -0.017952 0.017497 13601.200000 0 0 1
-14.029515 7.231595 28.947309 32.970744 -0.475936 0.499192 -0.026513 0.020338 -55279.000000 0 0 1
-14.798615 6.098595 28.544539 32.725871 -0.390899 0.511050 -0.016256 0.028237 -121383.000000 0 0 1
-14.056415 4.746395 28.660189 32.272551 -0.325646 0.477673 -0.015332 0.026733 796126.000000 0 0 1
-13.016415 4.440395 27.702689 30.928679 -0.328758 0.460803 -0.014474 0.024227 555602.000000 0 0 1
-13.493115 4.418595 26.371549 29.950739 -0.316465 0.493886 -0.010867 0.025296 -337120.000000 0 0 1
-12.399215 4.272295 25.290269 28.488432 -0.331822 0.478388 -0.009557 0.031127 -319064.000000 0 0 1
-11.885615 2.943695 25.158649 27.980186 -0.242783 0.452951 -0.012076 0.027967 -372986.000000 0 0 1
-11.161915 2.806295 24.013719 26.629352 -0.246312 0.446934 -0.013164 0.020859 -962479.000000 0 0 1
-10.238515 1.598895 24.149419 26.278853 -0.154914 0.405342 -0.018648 0.015719 236551.000000 0 0 1
-8.879715 1.916495 24.473199 26.104785 -0.212568 0.355425 -0.018936 0.007160 361450.000000 0 0 1
-8.152515 0.742895 24.746469 26.065363 -0.090874 0.319475 -0.013349 0.005853 -476855.000000 0 0 1
-6.658215 1.025395 24.609359 25.514777 -0.152804 0.267200 -0.000495 -0.003000 -985724.000000 0 0 1
-6.203715 1.055495 23.217219 24.054925 -0.168525 0.264684 -0.000864 0.001120 289540.000000 0 1 0
-4.812615 1.205795 23.005019 23.533936 -0.245495 0.212411 -0.009032 -0.002918 51148.800000 0 1 0
-4.235815 2.572195 23.371319 23.890937 -0.545733 0.208944 0.003052 -0.008505 -1000410.000000 0 1 0
-4.125515 2.864995 24.769849 25.273969 -0.606997 0.200064 0.010044 -0.015146 18691.700000 0 0 1
-3.797915 4.219595 24.943879 25.581756 -0.837945 0.223782 0.012090 -0.025064 -291282.000000 0 0 1
3.919085 -23.806705 12.961877 27.388477 -1.407639 1.077808 0.006415 0.011727 345688.000000 0 0 1
3.605485 -25.093545 13.503077 28.723137 -1.428091 1.081379 -0.006358 0.002056 174473.000000 0 0 1
2.260085 -25.547725 13.347877 28.912974 -1.482561 1.090934 -0.023742 0.000553 521610.000000 0 0 1
2.012585 -26.884895 14.081677 30.416142 -1.496076 1.089456 -0.030971 0.002002 -211614.000000 0 0 1
1.958285 -26.919225 15.490977 31.119928 -1.498178 1.049755 -0.024381 -0.009029 107547.000000 0 0 1
2.216585 -28.232515 16.030777 32.541880 -1.492445 1.055699 -0.026745 -0.012007 -776400.000000 0 0 1
1.865685 -28.309525 17.541077 33.355649 -1.504988 1.017047 -0.033419 -0.015448 -303952.000000 0 0 1
2.624585 -27.458235 18.361277 33.135775 -1.475501 0.983488 -0.027998 -0.012735 51946.400000 0 0 1
2.439285 -27.763555 19.700577 34.130306 -1.483162 0.955480 -0.037439 -0.012470 101514.000000 0 0 1
3.228185 -26.796165 20.623977 33.967691 -1.450902 0.918309 -0.034395 -0.005045 261332.000000 0 0 1
2.460585 -25.635755 20.939077 33.191736 -1.475107 0.888145 -0.041930 0.001478 601235.000000 0 0 1
3.234585 -24.807405 21.800977 33.183617 -1.441140 0.853990 -0.019786 0.002004 357208.000000 0 0 1
2.437885 -23.542305 22.254477 32.487615 -1.467611 0.816173 -0.012587 0.005002 52630.900000 0 0 1
2.103685 -22.540305 21.285777 31.073705 -1.477736 0.816180 -0.014405 0.004338 376824.000000 0 0 1
3.188785 -21.892805 20.638777 30.255948 -1.426159 0.820112 -0.006969 0.012789 148826.000000 0 0 1
2.602285 -20.692305 19.819577 28.770801 -1.445692 0.810856 -0.016622 0.002239 219121.000000 0 0 1
2.204085 -19.624705 20.651577 28.574021 -1.458953 0.763038 -0.022883 0.003878 -93023.800000 0 0 1
1.534885 -18.625905 19.923077 27.316830 -1.488576 0.753449 -0.034432 -0.007841 -124448.000000 0 0 1
1.255285 -17.458605 20.872977 27.240774 -1.499019 0.697827 -0.027766 -0.003295 -203703.000000 0 0 1
2.273285 -16.504905 20.998177 26.804909 -1.433924 0.670726 -0.030289 0.014310 -44561.300000 0 0 1
1.694885 -15.220805 21.295077 26.230247 -1.459900 0.623479 -0.019430 0.012138 242930.000000 0 0 1
2.666585 -14.068005 21.051777 25.459708 -1.383469 0.597284 -0.017728 0.013219 -487230.000000 0 0 1
2.971885 -13.674505 19.696677 24.161607 -1.356794 0.617712 -0.019507 0.013621 1085110.000000 0 1 0
1.829885 -13.248205 18.879077 23.136183 -1.433542 0.616343 -0.006994 0.020141 1137560.000000 0 1 0
1.076085 -11.976405 19.343477 22.776355 -1.481187 0.556178 -0.013281 0.017240 -135798.000000 0 1 0
1.809985 -10.744805 19.104577 21.993448 -1.403911 0.518328 -0.006541 0.010517 137566.000000 0 1 0
1.441185 -9.674605 19.979777 22.245595 -1.422918 0.455263 -0.002851 -0.001677 -234169.000000 0 1 0
0.000185 -9.171905 20.024577 22.025156 -1.570776 0.429514 0.001342 -0.005228 -321404.000000 0 1 0
-0.321715 -8.305305 21.085177 22.664207 1.532080 0.375486 0.000122 -0.002982 1560840.000000 0 1 0
-1.679615 -7.721505 21.033177 22.468584 1.356609 0.359380 0.000986 -0.007104 1986310.000000 0 1 0
-1.834715 -6.930305 22.288377 23.412968 1.311995 0.311199 0.006475 -0.004840 -405473.000000 0 1 0
-2.017515 -7.825805 23.339677 24.699273 1.318487 0.333342 -0.003203 0.006746 60340.400000 0 1 0
-1.960315 -7.203705 24.589877 25.698215 1.305104 0.294763 -0.002099 0.016812 -488300.000000 0 0 1
-2.100715 -8.179705 25.781477 27.129414 1.319409 0.316552 -0.007785 0.021192 703044.000000 0 0 1
-0.922615 -8.979005 25.967177 27.491235 1.468403 0.334538 -0.010267 0.023102 741197.000000 0 0 1
-1.217015 -9.944905 26.970777 28.771602 1.449026 0.355681 -0.007373 0.021375 -389736.000000 0 0 1
-0.052515 -10.882805 27.235577 29.329420 1.565971 0.380149 -0.009390 0.023374 -302150.000000 0 0 1
0.842085 -10.423505 28.247277 30.120877 -1.490184 0.354566 -0.013980 0.023079 -65250.100000 0 0 1
1.870585 -11.381905 28.415877 30.667718 -1.407905 0.385600 -0.008553 0.016490 -160668.000000 0 0 1
2.799885 -10.852605 29.556277 31.609997 -1.318310 0.362454 -0.011473 0.016669 -245558.000000 0 0 1
2.317985 -10.890205 30.840277 32.788600 -1.361076 0.346464 -0.017775 0.012693 29716.800000 0 0 1
3.177385 -10.149305 31.700377 33.436777 -1.267397 0.323687 -0.025041 0.020950 44382.900000 0 0 1
2.585085 -10.229805 33.122377 34.762385 -1.323277 0.308394 -0.032902 0.023320 -147229.000000 0 0 1
2.745285 -11.490805 33.807177 35.812015 -1.336281 0.336192 -0.037636 0.015850 160971.000000 0 0 1
2.287485 -11.456305 -34.083865 36.030395 -1.373718 2.811386 -0.033212 0.012125 -230992.000000 0 0 1
3.099485 -10.568405 -33.086865 34.871746 -1.285517 2.820262 -0.038157 0.017746 52258.100000 0 0 1
2.861085 -9.176905 -33.069465 34.438219 -1.268577 2.858710 -0.038071 0.015364 79030.900000 0 0 1
3.834085 -8.659805 -32.205165 33.568811 -1.153992 2.855584 -0.040388 0.012420 -327302.000000 0 0 1
3.462685 -7.189305 -31.854765 32.839037 -1.121941 2.896140 -0.047482 0.012874 45364.400000 0 0 1
3.747985 -6.256605 -32.854165 33.653955 -1.031080 2.923144 -0.044845 0.013050 81519.400000 0 0 1
3.645685 -4.934705 -32.238365 32.816985 -0.934512 2.953530 -0.038987 0.011377 111248.000000 0 0 1
3.692585 -3.755005 -33.243765 33.658330 -0.793779 2.984480 -0.036235 0.017343 -79935.400000 0 0 1
2.519485 -3.560705 -33.999665 34.278327 -0.955001 3.013996 -0.030101 0.012491 -53289.300000 0 0 1
2.776485 -2.639905 34.227777 34.441526 -0.760187 0.111468 -0.015452 0.009622 -377597.000000 0 0 1
2.171885 -3.020705 32.888277 33.098044 -0.947433 0.112645 0.004506 0.003316 588908.000000 0 0 1
0.783185 -2.748605 32.648877 32.773730 -1.293214 0.087315 0.012500 -0.002332 417548.000000 0 0 1
0.374185 -3.162705 31.337277 31.498693 -1.453032 0.101281 0.010998 0.007911 1028350.000000 0 0 1
-1.148915 -3.513205 31.175277 31.393638 1.254732 0.118014 0.020152 -0.002209 1163470.000000 0 0 1
-2.041915 -2.383105 31.127077 31.284877 0.862351 0.100481 0.028392 -0.005874 150405.000000 0 0 1
-3.337515 -2.887505 30.855077 31.169095 0.713233 0.142068 0.013896 -0.004216 201960.000000 0 0 1
-4.358315 -1.809805 30.420177 30.784046 0.393586 0.153905 0.027172 -0.007763 -173268.000000 0 0 1
-4.304215 -1.513505 28.998577 29.355314 0.338129 0.156058 0.016651 -0.002389 63647.200000 0 0 1
-5.339915 -0.794405 28.337677 28.847352 0.147684 0.188257 0.007450 -0.006360 218668.000000 0 0 1
-5.618215 0.720395 28.567177 29.123305 -0.127529 0.195738 0.016847 -0.006148 -249823.000000 0 0 1
-6.409915 1.088595 29.630977 30.335900 -0.168225 0.215999 0.022144 0.000708 -608587.000000 0 0 1
-6.648115 2.492695 29.597877 30.437564 -0.358725 0.235436 0.022452 -0.006171 -446993.000000 0 0 1
-8.131415 2.751395 29.927377 31.134193 -0.326273 0.279338 0.018201 -0.001682 608229.000000 0 0 1
-8.987915 2.196795 28.879277 30.325256 -0.239717 0.310052 -0.000136 0.009186 1411550.000000 0 0 1
-10.406415 2.333795 29.107677 30.999951 -0.220615 0.351205 -0.018285 0.020605 1028750.000000 0 0 1
-11.211215 1.484495 28.121077 30.309900 -0.131646 0.382364 -0.020542 0.024268 -247977.000000 0 0 1
-11.498815 0.250095 28.653677 30.875856 -0.021746 0.381711 -0.020969 0.025239 139866.000000 0 0 1
-11.979215 -0.637005 27.630777 30.122537 0.053126 0.409602 -0.014848 0.027325 -764811.000000 0 0 1
-11.763715 -2.141005 27.941777 30.392627 0.180030 0.404345 -0.011217 0.018983 375376.000000 0 0 1
-10.450115 -2.622305 28.211477 30.198822 0.245859 0.364811 -0.002411 0.010946 1380540.000000 0 0 1
-9.348315 -2.363905 27.296677 28.949743 0.247678 0.339568 0.002834 0.005333 401180.000000 0 0 1
-9.351515 -3.099905 25.905077 27.715217 0.320088 0.363416 -0.008270 0.011607 309864.000000 0 0 1
-10.505915 -2.803605 25.066977 27.323759 0.260783 0.409284 -0.015114 0.014171 1040980.000000 0 0 1
-10.481115 -3.419905 23.794277 26.224362 0.315400 0.433896 -0.009206 0.011423 -219599.000000 0 0 1
-9.379315 -2.930405 22.820377 24.846095 0.302824 0.406604 -0.000591 0.009725 1358310.000000 0 1 0
-7.999715 -3.144405 23.220277 24.760129 0.374513 0.354532 0.002996 0.006700 859588.000000 0 1 0
-7.135915 -2.366605 22.415977 23.643141 0.320232 0.323601 0.001342 0.003690 -9153.620000 0 1 0
-5.634415 -2.515405 22.765277 23.586685 0.419886 0.264685 0.005141 0.005105 242614.000000 0 1 0
-5.062115 -3.786805 22.540977 23.410693 0.642263 0.273433 0.008807 -0.002980 -90433.400000 0 1 0
-5.404915 -4.666805 23.589577 24.646710 0.712243 0.293944 0.001451 0.004325 -467202.000000 0 1 0
-5.270015 -6.146905 23.154677 24.529504 0.862054 0.336391 0.002917 0.008011 -452005.000000 0 1 0
-6.129215 -6.634205 22.151177 23.921843 0.824943 0.387170 0.008331 -0.004444 13862.100000 0 1 0
-5.893615 -6.134905 20.847077 22.516047 0.805455 0.387448 0.017771 -0.010200 203769.000000 0 1 0
-7.234815 -6.281105 20.063577 22.233802 0.714953 0.445511 0.028570 -0.005979 429225.000000 0 1 0
-8.218115 -5.321705 20.388477 22.617426 0.574656 0.447689 0.030031 -0.001984 -198552.000000 0 1 0
-9.139215 -5.227405 19.317177 22.000099 0.519558 0.499025 0.027027 0.000430 152431.000000 0 1 0
-9.834415 -3.872905 19.327977 22.029204 0.375160 0.500423 0.018244 -0.003683 -90579.300000 0 1 0
-8.966915 -2.878805 18.831777 21.055377 0.310653 0.463725 0.017549 -0.008851 -28478.200000 0 1 0
-9.467515 -1.583505 18.909477 21.206359 0.165723 0.469733 0.009625 -0.009392 -617070.000000 0 1 0
-8.383015 -0.585605 18.544977 20.360109 0.069743 0.425461 0.003682 -0.001019 -135373.000000 0 1 0
-7.455315 -0.374805 19.619977 20.992039 0.050231 0.363554 0.007293 0.014176 300714.000000 0 1 0
-7.774515 0.592995 20.650577 22.073538 -0.076127 0.361024 0.016694 0.013954 -394675.000000 0 1 0
-7.535815 2.050395 20.321277 21.770322 -0.265656 0.366912 -0.004738 0.004783 -201933.000000 0 1 0
-8.293415 2.526295 19.234577 21.098148 -0.295685 0.423463 -0.015737 -0.008758 -69320.100000 0 1 0
-8.068115 3.901595 18.929077 20.943421 -0.450427 0.442183 -0.021903 -0.004937 -530567.000000 0 1 0
-8.917715 4.389195 17.763877 20.355491 -0.457379 0.510127 -0.015376 -0.005313 -966609.000000 0 1 0
-10.228815 4.427895 18.264777 21.397126 -0.408530 0.547922 -0.019331 -0.000661 -1048200.000000 0 1 0
-11.156815 4.908895 17.356277 21.208775 -0.414499 0.612256 -0.011354 0.007845 -334174.000000 0 1 0
-11.306415 6.483995 17.255277 21.624565 -0.520691 0.646913 -0.012485 0.012759 -639757.000000 0 1 0
-10.195715 7.131095 16.672077 20.802963 -0.610337 0.641117 -0.016630 0.002983 173035.000000 0 1 0
-10.393915 8.538195 16.630677 21.389569 -0.687691 0.680094 -0.018568 0.003771 -278452.000000 0 1 0
-9.098015 9.344995 16.706377 21.194477 -0.798789 0.662849 -0.027398 0.011358 -443817.000000 0 1 0
-8.539715 9.576195 17.995277 22.101137 -0.842550 0.619405 -0.015557 0.024638 238131.000000 0 1 0
-7.454415 10.491195 17.997577 22.125692 -0.953031 0.620781 -0.020366 0.016237 303421.000000 0 1 0
-7.883815 11.989895 17.744477 22.820574 -0.989140 0.680012 -0.025002 0.022109 -213104.000000 0 1 0
-7.878215 12.343595 16.375777 21.968084 -1.002730 0.729609 -0.028735 0.007504 -104956.000000 0 1 0
-8.518215 13.585095 16.263577 22.838974 -1.010741 0.778315 -0.020940 0.005614 -232976.000000 0 1 0
-8.461615 14.174495 14.828877 22.190332 -1.032615 0.838931 -0.018430 0.004242 -542108.000000 0 1 0
-7.212515 14.659795 14.483877 21.833751 -1.113575 0.845482 -0.014726 0.008302 -863067.000000 0 1 0
-7.148515 15.238795 13.228777 21.408472 -1.132173 0.904699 -0.011365 -0.010451 -165614.000000 0 1 0
-6.467815 16.616895 13.243077 22.211099 -1.199608 0.931991 -0.012559 0.001039 -1617730.000000 0 1 0
-5.134315 16.442195 13.431177 21.842699 -1.268126 0.908531 -0.013060 0.002175 -2316740.000000 0 1 0
-4.513915 17.721095 13.639477 22.813329 -1.321380 0.929951 -0.009843 0.000676 -130435.000000 0 1 0
-2.981715 17.624395 13.716177 22.530944 -1.403202 0.916286 -0.002010 0.000974 22881.000000 0 1 0
-2.363515 16.828895 14.765277 22.512470 -1.431265 0.855460 0.003824 -0.007126 61536.600000 0 1 0
-2.587915 15.458095 14.606877 21.424539 -1.404920 0.820600 0.000145 -0.005222 -748679.000000 0 1 0
-1.935915 14.578595 15.662977 21.485159 -1.438777 0.753916 -0.012647 -0.009456 -1324670.000000 0 1 0
-0.586815 14.478695 15.522277 21.234831 -1.530289 0.751037 0.003113 -0.006340 -1702210.000000 0 1 0
0.113185 13.666195 16.459577 21.393816 1.562514 0.692955 0.001359 -0.001572 1120780.000000 0 1 0
1.486785 14.310895 16.871077 22.173080 1.467276 0.706126 -0.008342 -0.011824 565825.000000 0 1 0
1.269185 15.370095 17.762577 23.523601 1.488408 0.714996 0.002262 -0.010057 -38335.700000 0 1 0
2.364585 16.253295 17.931577 24.316709 1.426326 0.741557 0.011535 -0.015124 -257800.000000 0 1 0
1.905285 17.456895 18.857877 25.768058 1.462084 0.749791 0.008505 -0.005399 682480.000000 0 0 1
1.007385 18.377295 18.232177 25.906603 1.516034 0.790112 0.006620 0.001361 335624.000000 0 0 1
-0.329015 17.921095 18.106177 25.477589 -1.552439 0.780345 0.006621 0.001871 -153502.000000 0 0 1
-1.150915 18.705795 17.033777 25.325500 -1.509347 0.833088 -0.001408 0.000610 -247696.000000 0 0 1
-1.424015 20.017395 17.418577 26.573121 -1.499777 0.855957 0.003091 0.007391 -37478.200000 0 0 1
-2.242715 20.564495 16.410777 26.405337 -1.462168 0.900147 -0.001570 0.004978 -362435.000000 0 0 1
-2.894015 21.910395 16.672077 27.683910 -1.439472 0.924505 0.002713 0.001957 -601008.000000 0 0 1
-3.934415 21.836495 17.601677 28.321921 -1.392533 0.900158 0.000006 0.011970 -323322.000000 0 0 1
-4.280715 23.042895 18.153477 29.645375 -1.387119 0.911761 0.004531 0.007050 -227706.000000 0 0 1
-5.433015 23.049295 19.181377 30.474791 -1.339309 0.889993 -0.003393 0.016716 1173980.000000 0 0 1
-6.773415 22.837595 18.673077 30.267453 -1.282470 0.905953 -0.008066 0.012677 987032.000000 0 0 1
-7.641015 22.660995 19.761377 31.022860 -1.245581 0.880204 -0.013737 0.011369 589589.000000 0 0 1
-9.188515 22.782895 19.556977 31.400071 -1.187442 0.898439 -0.014215 0.007201 734794.000000 0 0 1
-9.462615 24.135295 19.484677 32.430020 -1.197149 0.926267 -0.010792 0.012187 -782834.000000 0 0 1
-10.766515 24.276995 19.035977 32.675048 -1.153372 0.948891 -0.015967 0.013334 -792593.000000 0 0 1
-11.360415 25.663195 19.193777 34.000878 -1.154052 0.970959 -0.010123 0.012329 -230997.000000 0 0 1
-11.874115 25.956695 20.487877 35.135420 -1.141757 0.948242 -0.012146 0.021856 90682.400000 0 0 1
-12.468315 27.231595 20.483977 36.285148 -1.141424 0.970935 -0.005462 0.021390 -318586.000000 0 0 1
-13.374815 27.465495 21.722277 37.484616 -1.117629 0.952683 0.021070 0.010488 -343101.000000 0 0 1
-14.454815 26.578195 21.835077 37.311027 -1.072679 0.945648 0.019440 0.008773 100022.000000 0 0 1
-15.184015 26.729195 23.057577 38.427283 -1.054187 0.927256 0.012529 0.010067 887961.000000 0 0 1
-16.681615 26.293095 22.920877 38.664839 -1.005431 0.936254 0.021527 0.012318 641067.000000 0 0 1
-16.985615 24.925395 22.974177 37.915686 -0.972623 0.919864 0.020495 0.018543 -716326.000000 0 0 1
-18.351315 24.682795 23.063877 38.444162 -0.931477 0.927380 0.029730 0.027305 -687491.000000 0 0 1
26.391285 24.254995 23.962419 43.116148 0.743243 0.981514 0.006512 -0.004376 21419.700000 0 0 1
26.225885 23.557395 25.182889 43.323502 0.731847 0.950501 0.006192 -0.011937 94937.800000 0 0 1
25.852885 22.237895 24.910809 42.230843 0.710369 0.939895 -0.003163 -0.000820 -397135.000000 0 0 1
25.633385 21.371495 26.150859 42.399041 0.694976 0.906152 0.010716 -0.000928 496322.000000 0 0 1
24.441585 21.785795 26.834449 42.333198 0.728011 0.884228 0.006332 -0.001418 450357.000000 0 0 1
24.271585 21.087895 28.044079 42.664734 0.715325 0.853549 0.024275 -0.008553 -253908.000000 0 0 1
22.882985 21.387595 28.606599 42.419309 0.751633 0.830676 0.022238 -0.011098 -279337.000000 0 0 1
22.592485 22.707895 29.121139 43.290988 0.787946 0.832967 0.017156 -0.013741 165677.000000 0 0 1
21.363385 22.695595 29.841879 43.151153 0.815626 0.807141 0.017837 -0.012351 179688.000000 0 0 1
20.989085 24.135495 30.339049 44.085391 0.855013 0.811807 0.005695 -0.013290 -168688.000000 0 0 1
20.666485 25.022595 29.274619 43.706261 0.880453 0.836852 -0.000176 -0.012694 -71999.100000 0 0 1
20.578185 26.385995 29.679719 44.727712 0.908438 0.845223 -0.000392 -0.008686 547539.000000 0 0 1
19.264185 26.844095 30.429679 44.918589 0.948334 0.826519 0.000865 -0.011551 -125345.000000 0 0 1
18.135285 26.735495 29.571799 43.796879 0.974768 0.829556 -0.004025 -0.007135 671018.000000 0 0 1
16.935685 27.160495 30.252979 44.042624 1.013247 0.813578 -0.007021 -0.003941 705965.000000 0 0 1
16.284685 26.019195 31.114779 43.707196 1.011570 0.778609 -0.019164 0.004334 -837577.000000 0 0 1
16.787785 25.678895 32.395699 44.617449 0.991784 0.758197 -0.015904 -0.001901 406499.000000 0 0 1
15.818685 24.822295 33.006929 44.224818 1.003417 0.728244 -0.012342 -0.006365 313377.000000 0 0 1
16.152785 24.404295 34.442288 45.196829 0.986113 0.704322 -0.013601 -0.007104 -232189.000000 0 0 1
16.212585 25.552795 -33.978203 45.500676 1.005413 2.413977 -0.007404 -0.006875 248846.000000 0 0 1
16.392585 25.115895 -32.612443 44.306845 0.992541 2.398026 -0.014418 0.007791 34898.400000 0 0 1
16.808785 26.386795 -31.761893 44.582688 1.003604 2.363746 0.002052 0.018822 -224106.000000 0 0 1
15.781785 27.271295 -31.550803 44.589701 1.046189 2.356865 0.009053 0.004538 158610.000000 0 0 1
16.498585 28.437195 -31.114733 45.265925 1.045081 2.328667 0.021119 0.002787 553109.000000 0 0 1
15.928085 29.153295 -29.848443 44.660363 1.070755 2.302775 0.020596 0.014153 -321118.000000 0 0 1
16.120185 28.394895 -28.635333 43.429399 1.054455 2.290755 0.015511 0.015543 247516.000000 0 0 1
15.697285 29.014795 -27.413753 42.892621 1.074882 2.264157 0.014875 0.014840 -262263.000000 0 0 1
16.156685 28.234295 -26.146733 41.735663 1.051042 2.247831 0.010341 0.020770 441523.000000 0 0 1
17.557485 27.986295 -26.199373 42.165212 1.010502 2.241261 0.029701 0.023237 12766.800000 0 0 1
18.004985 27.218895 -25.118473 41.182344 0.986387 2.226772 0.028843 0.019357 146950.000000 0 0 1
19.501985 26.868595 -25.257913 41.715836 0.942945 2.221159 0.023794 0.026373 145030.000000 0 0 1
20.035585 26.225295 -24.117623 40.876038 0.918408 2.201878 0.020907 0.026344 18440.900000 0 0 1
21.452085 26.182795 -24.233723 41.629365 0.884385 2.192143 0.016334 0.028478 425768.000000 0 0 1
22.156485 26.225295 -22.844123 41.237482 0.869299 2.157916 0.015956 0.025668 214158.000000 0 0 1
21.899285 25.047295 -22.074423 39.927758 0.852353 2.156588 0.011329 0.028060 -167585.000000 0 0 1
22.616585 25.139095 -20.913823 39.760181 0.838170 2.124686 0.008923 0.020358 -618744.000000 0 0 1
22.280685 24.012195 -19.896323 38.325946 0.822784 2.116634 0.010581 0.005877 -626926.000000 0 0 1
22.852085 22.721795 -20.033623 37.945274 0.782539 2.126994 0.008038 0.013288 17277.700000 0 0 1
22.479385 21.913195 -18.947423 36.667638 0.772645 2.113828 0.003686 0.010904 -1086230.000000 0 0 1
22.733585 20.389895 -19.180523 36.061838 0.731103 2.131614 0.023445 0.006597 278774.000000 0 0 1
22.049285 19.833995 -20.306423 35.943138 0.732555 2.171181 0.007708 0.002339 140238.000000 0 0 1
20.645285 19.973095 -20.285023 35.165814 0.768851 2.185650 0.005943 0.005496 -613316.000000 0 0 1
19.978285 19.747095 -21.655823 35.469061 0.779579 2.227558 0.026270 -0.001988 -55024.000000 0 0 1
20.036585 20.711095 -22.709823 36.689920 0.801950 2.238222 0.017637 -0.001884 -55585.900000 0 0 1
19.789585 22.103295 -22.412023 37.181744 0.840571 2.217764 0.013206 0.008874 -88693.300000 0 0 1
19.326185 23.041595 -23.615623 38.237602 0.872869 2.236487 0.018632 0.013828 1004660.000000 0 0 1
17.972685 22.666395 -23.934823 37.545421 0.900386 2.262032 0.030681 0.005820 347055.000000 0 0 1
17.483785 23.395995 -25.003823 38.447971 0.929027 2.278814 0.026625 0.009361 592406.000000 0 0 1
15.930385 23.474895 -25.202463 37.947490 0.974568 2.297140 0.027324 0.003650 519872.000000 0 0 1
15.361885 24.383795 -24.300823 37.697307 1.008607 2.271336 0.010924 0.007292 347458.000000 0 0 1
13.986585 24.486995 -24.674623 37.470982 1.051834 2.289620 0.009525 0.006506 784857.000000 0 0 1
13.079785 25.499295 -23.905523 37.319819 1.096845 2.266022 -0.002319 0.017138 303123.000000 0 0 1
13.304685 26.817495 -24.370823 38.602198 1.110258 2.254067 -0.013173 0.028023 589332.000000 0 0 1
12.188185 27.665695 -24.081723 38.650639 1.155827 2.243447 -0.018497 0.032334 547512.000000 0 0 1
12.307085 29.076395 -24.735123 40.108944 1.170394 2.235338 -0.014196 0.017848 31110.600000 0 0 1
12.410685 28.949195 -26.162223 40.945609 1.165791 2.263930 -0.016079 0.007868 -38818.800000 0 0 1
11.895985 30.074495 -26.875283 42.050809 1.194132 2.264143 -0.009345 0.000761 -343098.000000 0 0 1
12.457385 31.515795 -26.722223 43.156795 1.194370 2.238506 0.011412 -0.004535 -188630.000000 0 0 1
13.632285 31.634695 -27.497143 44.075912 1.163915 2.244467 0.014054 0.012492 -205428.000000 0 0 1
14.186285 32.934295 -27.221153 45.021213 1.164070 2.220097 0.006608 0.000844 464377.000000 0 0 1
15.666185 33.101095 -27.701993 45.918540 1.128750 2.218411 0.015226 0.017682 767908.000000 0 0 1
16.596685 32.362895 -26.903833 45.239619 1.096937 2.207684 0.011999 0.017625 -14616.600000 0 0 1
17.802585 32.170595 -27.591033 45.968950 1.065361 2.214560 0.020654 0.013954 -834928.000000 0 0 1
18.807985 31.323195 -26.809333 45.316919 1.030047 2.203834 0.014773 0.021800 -1005870.000000 0 0 1
19.267385 31.919695 -25.594083 45.223403 1.027719 2.172379 0.020930 0.014768 -52508.600000 0 0 1
20.213885 32.949095 -25.677763 46.406805 1.020518 2.157140 0.023587 0.004931 -304921.000000 0 0 1
21.650985 32.575795 -26.119793 47.033936 0.984202 2.159567 0.022648 0.009010 -427551.000000 0 0 1
21.698385 32.126595 -27.434413 47.493000 0.976770 2.186645 0.017366 0.012675 444143.000000 0 0 1
22.972785 32.348495 -28.051873 48.590962 0.953280 2.186222 0.014097 0.021355 225997.000000 0 0 1
23.027785 31.664695 -29.425743 48.977609 0.942022 2.215298 0.000083 0.021213 152808.000000 0 0 1
22.130185 32.182195 -30.384543 49.483929 0.968405 2.231951 0.000207 0.015798 -951971.000000 0 0 1
20.981985 31.473895 -30.582173 48.642770 0.982807 2.250689 0.000838 0.011756 -1050190.000000 0 0 1
19.910085 32.131895 -31.459503 49.178964 1.016063 2.264897 -0.005097 0.008555 -467831.000000 0 0 1
19.300685 33.315195 -30.960353 49.406094 1.045710 2.248044 -0.003876 0.001752 -211359.000000 0 0 1
18.471485 34.039695 -31.791713 50.105984 1.073617 2.258144 -0.012155 0.003365 -6982.510000 0 0 1
16.963685 33.653395 -31.654833 49.217335 1.103898 2.269420 -0.007090 0.001291 -12633.900000 0 0 1
16.545185 32.378595 -32.067013 48.481026 1.098394 2.293526 -0.004049 -0.001013 52061.000000 0 0 1
16.839085 31.885595 -33.424263 49.167340 1.084915 2.318295 0.003309 -0.011959 -431502.000000 0 0 1
16.335785 32.827995 -34.612044 50.423494 1.109057 2.327360 0.008388 -0.015577 -255863.000000 0 0 1
17.062885 34.055295 34.505268 51.395707 1.106321 0.834748 0.001627 -0.005857 130965.000000 0 0 1
16.940685 34.737995 33.261574 50.990660 1.117061 0.860172 0.011229 -0.017976 342821.000000 0 0 1
15.492085 -34.335801 32.831349 49.968484 -1.146950 0.853909 0.008763 -0.016351 -220430.000000 0 0 1
14.652185 34.070095 32.586909 49.369673 1.164648 0.849899 0.020864 -0.022026 -1304370.000000 0 0 1
13.305385 34.351595 32.589709 49.184901 1.201260 0.846517 0.014816 -0.018428 -903151.000000 0 0 1
12.786385 -34.470601 31.348629 48.316152 -1.215593 0.864760 0.001599 -0.011727 -1432870.000000 0 0 1
13.288485 -33.174801 31.073179 47.357087 -1.189808 0.855096 0.007810 -0.003228 91837.100000 0 0 1
12.519685 -32.555501 30.059709 46.045513 -1.203667 0.859487 0.016557 -0.008718 -317271.000000 0 0 1
12.854285 -31.108201 29.711459 44.896811 -1.178952 0.847616 0.013425 -0.005691 -312817.000000 0 0 1
12.678985 -30.204401 30.771909 44.944109 -1.173362 0.816645 -0.003963 0.004343 366960.000000 0 0 1
13.193685 -28.912801 30.395889 43.976510 -1.142694 0.807669 0.004443 -0.004535 -437460.000000 0 0 1
12.919785 -27.844501 31.460789 43.954731 -1.136363 0.773093 0.002200 0.003691 -35798.200000 0 0 1
11.577285 -27.404601 31.540539 43.357252 -1.171081 0.756188 -0.003784 0.007383 88983.600000 0 0 1
11.121085 -26.450801 30.559459 41.919017 -1.172791 0.753919 -0.012490 0.002713 -249507.000000 0 0 1
11.223585 -24.970201 31.008969 41.364671 -1.148376 0.723265 -0.023625 0.005995 622042.000000 0 0 1
10.222685 -24.543101 31.984379 41.591677 -1.176130 0.693507 -0.017840 0.003107 881239.000000 0 0 1
10.580385 -23.327101 32.600569 41.459562 -1.144981 0.665963 -0.027393 0.001106 -270700.000000 0 0 1
9.673185 -22.992001 33.793177 42.002160 -1.172557 0.635865 -0.019273 0.000455 -506509.000000 0 0 1
9.764485 -23.847001 -34.310364 42.909506 -1.182158 2.497422 -0.026516 0.004236 334411.000000 0 0 1
10.985085 -23.864001 -33.569083 42.626822 -1.139393 2.477556 -0.022046 0.005121 317169.000000 0 0 1
11.341885 -22.605101 -32.729883 41.362715 -1.105758 2.483711 -0.016762 -0.007793 -210951.000000 0 0 1
11.792085 -21.567901 -33.586493 41.620670 -1.070458 2.509794 -0.031611 0.001568 112943.000000 0 0 1
12.787685 -20.789801 -32.953513 41.008228 -1.019352 2.504087 -0.020752 -0.003797 -239011.000000 0 0 1
13.287885 -19.597401 -33.781573 41.253129 -0.974959 2.530262 -0.030983 -0.003956 -818303.000000 0 0 1
13.910485 -20.039701 34.286787 42.079389 -0.964010 0.618392 -0.022570 0.004538 274009.000000 0 0 1
13.581485 -19.246701 33.156379 40.672321 -0.956287 0.617709 -0.032957 0.006681 -67724.600000 0 0 1
14.262885 -17.816101 32.995719 40.119332 -0.895713 0.605110 -0.005718 -0.003759 -658359.000000 0 0 1
13.767685 -16.753901 33.784790 40.145416 -0.882927 0.570631 -0.005690 -0.007295 536295.000000 0 0 1
14.489985 -15.512901 33.571561 39.719762 -0.819479 0.563837 0.020244 -0.017424 -14015.700000 0 0 1
15.904885 -15.409101 34.166069 40.715182 -0.769567 0.575081 0.027337 -0.005315 -225165.000000 0 0 1
16.781285 -16.229001 33.430965 40.775255 -0.768669 0.609589 0.040236 -0.002174 -303877.000000 0 0 1
18.151385 -16.020201 33.709012 41.502014 -0.723112 0.622838 0.051106 -0.002294 613784.000000 0 0 1
19.109385 -16.781901 32.705739 41.430257 -0.720641 0.660938 0.076087 -0.013576 52808.400000 0 0 1
19.221185 -16.181101 31.410009 40.222763 -0.699736 0.674689 0.052403 0.000933 40908.100000 0 0 1
20.139485 -16.864401 30.608019 40.334324 -0.697122 0.709239 0.051654 -0.003127 -613460.000000 0 0 1
20.475085 -16.095101 29.292629 39.196167 -0.666197 0.726756 0.031497 0.004784 -372424.000000 0 0 1
21.310985 -14.988101 29.471539 39.336661 -0.612940 0.723923 0.019407 0.003798 155167.000000 0 0 1
21.695285 -14.458901 28.241029 38.435673 -0.587855 0.745482 0.001903 0.006814 -194047.000000 0 0 1
22.454885 -13.125201 28.485899 38.573815 -0.528955 0.739987 -0.005888 0.010179 -385045.000000 0 0 1
21.703485 -11.964201 28.810019 38.002639 -0.503808 0.710393 -0.002237 0.011314 -321480.000000 0 0 1
22.419285 -10.829801 29.178209 38.357226 -0.450002 0.706411 -0.013774 0.010295 -819942.000000 0 0 1
21.613885 -9.554501 29.191299 37.557695 -0.416226 0.680531 -0.004408 0.007405 -416322.000000 0 0 1
20.604785 -9.534801 30.156449 37.747596 -0.433404 0.645337 0.009034 -0.003250 -508098.000000 0 0 1
19.715585 -8.463801 29.947139 36.839807 -0.405503 0.621679 0.014815 -0.002143 524655.000000 0 0 1
18.538985 -8.329901 30.979109 37.051133 -0.422287 0.580629 0.005931 0.001850 226738.000000 0 0 1
18.854485 -7.922101 32.293439 38.224567 -0.397773 0.564540 0.008921 -0.001221 105177.000000 0 0 1
19.250385 -9.050001 33.107119 39.351762 -0.439460 0.571090 0.024590 -0.009852 -770107.000000 0 0 1
19.290285 -8.672501 34.582862 40.537658 -0.422504 0.548889 0.034257 -0.015788 -327655.000000 0 0 1
18.028985 -8.510301 -34.065283 39.470407 -0.441026 2.612091 0.028659 -0.016479 -50394.900000 0 0 1
18.037985 -7.504201 -33.091143 38.427928 -0.394242 2.608269 0.026577 -0.015913 221243.000000 0 0 1
16.763485 -7.380201 -32.204183 37.048498 -0.414720 2.624467 0.019615 -0.014488 98703.900000 0 0 1
16.888385 -6.504801 -31.104393 35.986292 -0.367652 2.614633 0.017174 -0.009971 -491342.000000 0 0 1
15.821085 -6.484101 -30.215383 34.717714 -0.388960 2.626640 0.017902 -0.002563 -513378.000000 0 0 1
15.741185 -5.249001 -29.214593 33.598056 -0.321861 2.625051 0.011018 -0.000626 -205012.000000 0 0 1
16.394385 -5.222501 -27.947013 32.818987 -0.308391 2.589731 0.010309 0.001672 139255.000000 0 0 1
15.945385 -6.142401 -26.963113 31.921683 -0.367696 2.576734 0.032996 -0.005812 234981.000000 0 0 1
14.588985 -5.947201 -26.205133 30.576407 -0.387084 2.600289 0.007129 -0.000376 513398.000000 0 0 1
14.471285 -4.800201 -25.415543 29.637980 -0.320285 2.601251 0.008333 0.009579 -857174.000000 0 0 1
13.169385 -4.743701 -24.925323 28.586835 -0.345739 2.629898 -0.021518 0.005474 -481168.000000 0 0 1
12.896885 -3.507801 -24.012023 27.481113 -0.265564 2.633686 -0.019421 0.007343 -23080.100000 0 0 1
13.088385 -2.257801 -24.673923 28.021527 -0.170823 2.647785 -0.015844 0.000115 104239.000000 0 0 1
12.849985 -1.167801 -23.798023 27.070866 -0.090631 2.644769 -0.010843 0.001922 -72492.900000 0 0 1
13.346385 0.173199 -24.287123 27.713180 0.012976 2.639079 -0.002217 -0.003880 -975857.000000 0 0 1
12.509985 0.682199 -25.301223 28.233261 0.054478 2.681811 -0.011589 -0.004017 -514023.000000 0 0 1
12.940185 1.909199 -25.834423 28.957052 0.146484 2.672909 0.005580 0.006319 -497282.000000 0 0 1
12.161285 2.658199 -26.907203 29.647267 0.215194 2.708275 0.000935 0.005850 -344234.000000 0 0 1
10.943785 3.268199 -26.557853 28.909637 0.290204 2.735447 -0.001842 -0.006385 296680.000000 0 0 1
10.247985 3.809199 -27.691003 29.771175 0.355876 2.765558 -0.009118 -0.000867 -12588.800000 0 0 1
9.031085 4.692199 -27.420663 29.248418 0.479174 2.786198 -0.009622 -0.002990 -313718.000000 0 0 1
9.282585 5.967199 -26.854903 29.033768 0.571324 2.751711 -0.001314 -0.010673 126690.000000 0 0 1
8.221985 6.877199 -27.130953 29.171656 0.696569 2.765332 0.006942 -0.011024 102771.000000 0 0 1
7.747285 4.998695 -32.104913 33.402587 0.573007 2.861937 -0.009737 -0.009212 -177414.000000 0 0 1
7.606585 4.156795 -30.966583 32.156933 0.500132 2.868655 -0.016008 0.003833 313337.000000 0 0 1
7.502585 2.792395 -31.447633 32.450576 0.356306 2.892324 -0.018218 0.007167 -252442.000000 0 0 1
7.136285 1.754695 -30.354063 31.230989 0.241101 2.904059 -0.014405 0.002938 -301169.000000 0 0 1
8.215285 1.502395 -29.481463 30.641553 0.180879 2.865544 -0.003492 -0.005843 57289.400000 0 0 1
7.977985 0.657795 -28.370883 29.478601 0.082265 2.866584 -0.016663 0.001604 755696.000000 0 0 1
9.288285 0.239595 -27.569413 29.092992 0.025790 2.816530 -0.015111 -0.001801 978376.000000 0 0 1
10.148885 -0.654505 -28.210913 29.988062 -0.064401 2.795597 -0.002726 0.006337 164709.000000 0 0 1
11.258185 -1.078605 -27.423713 29.664291 -0.095515 2.750436 -0.005986 0.000594 295162.000000 0 0 1
12.088885 -2.248405 -27.946783 30.532264 -0.183888 2.727097 -0.002398 0.003634 135282.000000 0 0 1
11.291085 -3.432705 -28.034043 30.416766 -0.295140 2.743144 -0.004080 -0.000329 -59127.500000 0 0 1
11.944085 -4.537005 -28.586273 31.311668 -0.363019 2.721274 0.004712 0.001002 -544025.000000 0 0 1
11.257585 -5.854705 -28.266103 30.983598 -0.479572 2.719644 -0.008993 0.010077 -290567.000000 0 0 1
11.194485 -6.157405 -26.893653 29.774128 -0.502873 2.698094 -0.016616 0.008994 -194616.000000 0 0 1
10.696885 -7.429005 -26.661683 29.672526 -0.607026 2.687207 -0.013314 0.003866 -371750.000000 0 0 1
10.077585 -7.436505 -25.237963 28.174707 -0.635728 2.680949 -0.016217 0.006710 -517631.000000 0 0 1
11.021285 -7.190605 -24.252923 27.593075 -0.578081 2.644452 -0.012445 0.011845 -308760.000000 0 0 1
10.461585 -7.128205 -22.924523 26.187589 -0.598113 2.637052 -0.022007 0.012824 91617.100000 0 0 1
11.530585 -7.021405 -21.814023 25.653579 -0.546965 2.587410 -0.018046 0.005392 239999.000000 0 0 1
12.203285 -5.780805 -21.663423 25.527275 -0.442394 2.584202 -0.019177 0.002391 -936777.000000 0 0 1
13.273585 -5.974205 -20.829223 25.411330 -0.422922 2.531653 -0.019994 0.003152 -600849.000000 0 0 1
13.628185 -4.769605 -19.940023 24.618714 -0.336658 2.514870 -0.016205 -0.004090 145605.000000 0 1 0
14.404785 -3.800305 -20.655223 25.467202 -0.257945 2.516744 -0.005527 -0.004643 445676.000000 0 0 1
14.958585 -2.740705 -19.835223 24.994135 -0.181210 2.487491 -0.005949 -0.005240 337572.000000 0 1 0
15.979185 -1.928205 -20.713123 26.231389 -0.120089 2.481004 0.017562 -0.002185 1101600.000000 0 0 1
17.273185 -2.501505 -20.913523 27.239601 -0.143820 2.446137 0.015050 -0.004751 309766.000000 0 0 1
18.076585 -1.806805 -21.807623 28.383091 -0.099622 2.447027 0.010664 -0.011411 39277.200000 0 0 1
19.459085 -2.436505 -22.090423 29.539454 -0.124563 2.415580 0.017072 -0.008957 -703946.000000 0 0 1
20.401885 -2.233705 -21.087923 29.426635 -0.109051 2.369751 0.009518 -0.006547 -18499.700000 0 0 1
21.706685 -2.730005 -21.331623 30.556034 -0.125111 2.343558 0.006328 -0.004228 939629.000000 0 0 1
22.569385 -1.888605 -22.392323 31.849020 -0.083485 2.350512 0.004714 -0.007360 -608664.000000 0 0 1
22.287385 -2.111005 -23.731223 32.624451 -0.094436 2.385331 0.004140 -0.005802 250948.000000 0 0 1
23.205585 -1.487905 -24.629023 33.871844 -0.064031 2.384919 0.001335 0.006755 691682.000000 0 0 1
24.390185 -2.406605 -25.134223 35.105584 -0.098353 2.368796 0.002827 -0.007437 916673.000000 0 0 1
25.391285 -2.664405 -24.097423 35.107011 -0.104551 2.327322 0.002320 -0.000435 1033970.000000 0 0 1
26.521785 -3.412905 -24.556123 36.305043 -0.127980 2.313637 -0.012921 0.009316 1457380.000000 0 0 1
27.648685 -2.538405 -25.272043 37.544233 -0.091553 2.309226 -0.014603 0.006597 -194477.000000 0 0 1
27.244085 -2.102605 -26.529453 38.085076 -0.077024 2.341422 -0.011571 0.005235 38373.800000 0 0 1
28.016885 -1.115805 -27.181833 39.051798 -0.039805 2.340672 -0.016921 0.004893 -624840.000000 0 0 1
27.316685 -0.830905 -28.526943 39.505419 -0.030408 2.377632 -0.018173 0.000355 438733.000000 0 0 1
25.966285 -0.397805 -28.472333 38.536735 -0.015319 2.402138 -0.010612 0.008061 215613.000000 0 0 1
25.761885 0.890695 -27.898613 37.984216 0.034560 2.395695 -0.005867 0.009599 -1808500.000000 0 0 1
24.342985 1.326695 -28.038363 37.154957 0.054446 2.425891 -0.008344 0.004408 -1270880.000000 0 0 1
23.397885 0.630295 -27.265913 35.934500 0.026932 2.432214 -0.004994 0.001387 -128210.000000 0 0 1
22.117385 1.202695 -27.449523 35.271823 0.054324 2.462636 -0.000289 0.002020 229600.000000 0 0 1
21.181885 0.852495 -26.238933 33.732486 0.040225 2.462039 0.005516 0.001012 -58292.200000 0 0 1
21.465085 1.564595 -25.049423 33.025315 0.072762 2.431792 0.002687 0.001667 59396.700000 0 0 1
20.467285 1.308895 -24.093723 31.640645 0.063864 2.436390 0.009631 -0.000664 -217485.000000 0 0 1
20.671285 2.039195 -22.785723 30.832605 0.098331 2.402402 0.002682 -0.006478 -364352.000000 0 0 1
20.521385 3.453695 -22.799123 30.868354 0.166735 2.401776 0.015894 -0.005923 390134.000000 0 0 1
20.883185 4.048395 -21.575023 30.298160 0.191484 2.363267 0.012110 -0.005093 -528216.000000 0 0 1
20.336585 5.473195 -21.385323 30.014406 0.262901 2.363854 0.008334 0.000530 -404900.000000 0 0 1
20.976985 6.521195 -22.075723 31.143176 0.301403 2.358657 0.012925 -0.001566 254280.000000 0 0 1
20.615385 7.871595 -21.659623 30.920792 0.364746 2.346876 0.008997 -0.006076 -190915.000000 0 0 1
21.004985 8.323795 -20.240823 30.334566 0.377293 2.301311 0.011171 0.002003 -651815.000000 0 0 1
22.356485 8.431395 -19.886323 31.086439 0.360640 2.264918 0.016468 0.008886 -111755.000000 0 0 1
22.552985 8.557095 -18.460523 30.375186 0.362642 2.224021 0.018134 0.001153 -87708.500000 0 0 1
22.225785 9.946595 -17.885723 30.212900 0.420794 2.204322 0.037673 -0.008515 353366.000000 0 0 1
20.843685 10.227195 -17.664723 29.173569 0.456149 2.221196 0.027260 -0.010310 403515.000000 0 0 1
20.594785 11.530195 -17.180123 29.193273 0.510382 2.199994 0.010409 -0.009361 -818641.000000 0 0 1
19.110885 11.815295 -17.024823 28.189922 0.553730 2.219223 0.019896 -0.010586 -6569.880000 0 0 1
18.250785 11.810595 -18.202623 28.353426 0.574354 2.267888 0.005137 -0.018570 1024440.000000 0 0 1
17.896585 10.500395 -18.720523 27.946449 0.530602 2.304832 0.010323 -0.006533 -379933.000000 0 0 1
17.065085 10.544995 -20.033823 28.350804 0.553498 2.355535 -0.007930 -0.020738 78220.500000 0 0 1
17.830885 10.726195 -21.193123 29.700845 0.541560 2.365353 0.005053 -0.022448 2238.450000 0 0 1
16.986885 10.990695 -22.250223 30.073611 0.574271 2.403657 0.006266 -0.018998 -661548.000000 0 0 1
17.712385 11.026595 -23.588423 31.491714 0.556825 2.417402 0.024522 -0.022626 -601456.000000 0 0 1
18.778185 11.916995 -23.582723 32.415734 0.565487 2.385480 0.024458 -0.023605 -227509.000000 0 0 1
19.300985 12.130595 -24.874423 33.740425 0.561109 2.399756 0.037042 -0.022742 -425663.000000 0 0 1
20.231185 13.318795 -24.922223 34.753537 0.582209 2.370448 0.020925 -0.028105 -368937.000000 0 0 1
20.576885 13.780895 -26.218433 36.065600 0.590118 2.384688 0.023071 -0.035996 184137.000000 0 0 1
20.609985 15.198195 -26.242713 36.666560 0.635401 2.368440 0.024327 -0.024525 447276.000000 0 0 1
19.376985 15.879495 -26.942773 36.790473 0.686520 2.392534 0.021112 -0.018805 309894.000000 0 0 1
18.143685 15.506995 -26.394283 35.585367 0.707203 2.406423 0.034321 -0.026161 -438246.000000 0 0 1
17.109785 16.054595 -27.186883 35.911299 0.753592 2.429592 0.027437 -0.025301 668121.000000 0 0 1
15.645785 15.655395 -26.817573 34.771601 0.785705 2.451598 0.019081 -0.028540 472187.000000 0 0 1
15.518485 14.253795 -26.692753 34.007310 0.742945 2.473351 0.005369 -0.016955 -474041.000000 0 0 1
14.273685 13.754795 -26.295913 32.930343 0.766887 2.495648 0.000484 -0.018481 -506334.000000 0 0 1
14.080385 12.199895 -26.083333 32.053626 0.713965 2.521355 0.000665 -0.017992 135640.000000 0 0 1
12.740785 11.803395 -25.849383 31.142228 0.747225 2.549981 -0.003735 -0.013374 266364.000000 0 0 1
12.741285 10.415595 -25.689113 30.508286 0.685302 2.571845 0.000466 -0.016342 1233920.000000 0 0 1
11.256985 9.849595 -25.584453 29.636101 0.718817 2.612542 -0.005133 -0.021413 1202290.000000 0 0 1
10.555685 10.205995 -24.438123 28.509765 0.768557 2.600574 -0.000653 -0.019722 199284.000000 0 0 1
9.308385 9.530995 -24.308623 27.719940 0.797214 2.640246 0.010747 -0.014595 527887.000000 0 0 1
8.476185 10.126795 -23.097623 26.606350 0.873895 2.622207 0.011612 -0.009908 236336.000000 0 0 1
7.730585 11.275095 -23.545823 27.226742 0.969777 2.615558 0.007683 -0.012221 640296.000000 0 0 1
6.965985 12.042495 -22.565623 26.509507 1.046373 2.589116 0.020591 -0.001213 796312.000000 0 0 1
7.777185 12.973995 -21.594223 26.365121 1.030786 2.530541 0.026663 -0.003808 82945.900000 0 0 1
8.681685 12.309095 -20.767023 25.654526 0.956518 2.514075 0.020598 -0.014211 -816138.000000 0 0 1
9.536085 13.138595 -20.093923 25.832641 0.942959 2.462034 0.022560 -0.009587 -554049.000000 0 0 1
10.670185 12.369695 -19.335623 25.312616 0.859029 2.440090 0.015773 -0.016363 494033.000000 0 0 1
11.756085 11.851095 -20.113023 26.137859 0.789423 2.448851 0.019811 -0.024547 365622.000000 0 0 1
11.436285 10.772295 -20.927323 26.168374 0.755509 2.497622 0.017586 -0.028176 -624142.000000 0 0 1
12.604085 10.109095 -21.714523 27.066165 0.675989 2.501894 0.021497 -0.030087 -15069.000000 0 0 1
13.184985 9.037795 -21.056423 26.436689 0.600902 2.492256 0.035390 -0.032111 342706.000000 0 0 1
14.243585 8.503195 -21.872023 27.451219 0.538199 2.492710 0.034092 -0.027158 313217.000000 0 0 1
14.788285 7.159595 -21.343323 26.934933 0.450879 2.485535 0.044299 -0.020908 -32803.500000 0 0 1
15.552185 7.251695 -20.169723 26.481602 0.436311 2.436653 0.011482 -0.018003 119965.000000 0 0 1
16.275885 6.038795 -19.905223 26.411917 0.355283 2.424387 0.004732 -0.016759 254895.000000 0 0 1
17.071085 6.210295 -18.597723 25.997404 0.348907 2.367948 0.019553 -0.014418 -1300610.000000 0 0 1
18.307985 6.838495 -18.727623 27.067900 0.357477 2.334880 0.000216 -0.015311 -165350.000000 0 0 1
18.946385 6.868295 -17.448323 26.656762 0.347778 2.284390 0.005294 -0.009053 -34769.100000 0 0 1
19.515385 5.586395 -16.833523 26.370922 0.278800 2.263132 0.003803 -0.015646 -1276650.000000 0 0 1
20.531385 4.993195 -17.573823 27.482886 0.238567 2.264574 0.006486 -0.008978 248950.000000 0 0 1
21.263685 4.070095 -16.758023 27.377752 0.189123 2.229514 0.011116 -0.012853 731640.000000 0 0 1
22.728785 3.696595 -17.194823 28.738901 0.161228 2.212189 -0.002836 0.000352 586572.000000 0 0 1
23.174185 2.636395 -16.317123 28.464749 0.113277 2.181251 -0.003713 -0.001418 543426.000000 0 0 1
24.526785 2.326295 -16.659723 29.740901 0.094564 2.165378 -0.005180 0.002620 353046.000000 0 0 1
25.061085 1.357695 -15.564523 29.532282 0.054123 2.125903 0.007619 -0.005747 -446579.000000 0 0 1
24.551185 0.040795 -15.604723 29.090715 0.001662 2.136981 0.015862 -0.013353 -182829.000000 0 0 1
25.509985 -0.834305 -16.116723 30.186158 -0.032693 2.134016 0.013360 0.000807 -545544.000000 0 0 1
25.096185 -2.287005 -16.393923 30.063426 -0.090879 2.147557 0.004102 -0.004459 -556320.000000 0 0 1
24.731885 -3.015105 -15.268223 29.221150 -0.121313 2.120584 0.013476 -0.004167 266151.000000 0 0 1
24.602685 -4.373805 -15.625623 29.471721 -0.175939 2.129621 0.012949 -0.000834 -682328.000000 0 0 1
24.029885 -5.219005 -14.417623 28.505109 -0.213867 2.101095 0.013708 0.003646 665585.000000 0 0 1
22.667185 -5.000105 -14.042123 27.129016 -0.217111 2.114846 0.013533 0.005063 658445.000000 0 0 1
21.739385 -5.755705 -14.781923 26.911600 -0.258821 2.152295 0.000709 0.012367 -172064.000000 0 0 1
20.310585 -5.757305 -14.199523 25.441951 -0.276217 2.162908 0.006894 0.009578 -95228.500000 0 0 1
20.113785 -6.725905 -13.179323 24.969916 -0.322704 2.126814 0.006166 0.013518 327543.000000 0 1 0
20.292485 -6.230805 -11.854623 24.313370 -0.297912 2.080108 0.013581 0.012645 -425740.000000 0 1 0
19.968285 -7.296005 -10.837623 23.862484 -0.350310 2.042237 0.013249 0.005684 -246732.000000 0 1 0
18.686785 -7.886905 -10.766123 22.963201 -0.399376 2.058776 0.015015 0.000559 393116.000000 0 1 0
18.460285 -8.882005 -11.812623 23.647625 -0.448447 2.093849 0.006834 0.000508 -656362.000000 0 1 0
17.049585 -9.506205 -11.882623 22.852855 -0.508631 2.117603 0.017664 -0.002739 -199050.000000 0 1 0
16.117385 -8.452105 -12.039823 21.821217 -0.482984 2.155256 0.016664 -0.001967 -165463.000000 0 1 0
14.856085 -9.023605 -12.366823 21.332300 -0.545844 2.189185 0.010128 -0.005286 -52495.300000 0 1 0
13.966685 -7.962305 -13.013323 20.683645 -0.518138 2.251268 0.012494 0.001315 -241601.000000 0 1 0
14.495885 -7.339705 -14.215923 21.589220 -0.468699 2.289585 0.034590 0.009560 1129300.000000 0 1 0
15.423385 -6.223705 -14.046923 21.769964 -0.383541 2.272138 0.036344 0.008365 734575.000000 0 1 0
14.955485 -4.995205 -14.938623 21.720521 -0.322355 2.329203 0.004917 0.003612 212800.000000 0 1 0
13.820685 -4.307005 -14.444523 20.450082 -0.302096 2.355098 0.007767 -0.005544 9651.310000 0 1 0
13.390785 -3.271505 -15.327923 20.614584 -0.239616 2.409156 -0.002650 -0.013029 -257968.000000 0 1 0
14.263785 -1.982305 -15.564123 21.204410 -0.138090 2.394995 -0.009311 -0.006659 -1153540.000000 0 1 0
15.202585 -2.276605 -16.564723 22.598486 -0.148647 2.393520 -0.018501 0.004072 -139752.000000 0 1 0
16.362985 -1.472305 -16.433423 23.237305 -0.089736 2.356326 -0.004831 0.004335 -146435.000000 0 1 0
17.413485 -1.981505 -15.466723 23.374673 -0.113304 2.293863 0.004905 0.003364 -1460870.000000 0 1 0
17.023485 -1.903905 -14.106623 22.190554 -0.111377 2.259716 -0.005329 0.007731 23626.100000 0 1 0
18.089585 -2.291505 -13.240123 22.534084 -0.126004 2.198836 -0.006826 0.011083 -36851.700000 0 1 0
17.884285 -2.472205 -11.722123 21.525975 -0.137363 2.146657 0.000272 0.018557 -653200.000000 0 1 0
17.733385 -1.309405 -10.953623 20.884667 -0.073705 2.122902 0.000886 0.010550 637992.000000 0 1 0
17.469885 -1.744805 -9.604523 20.012198 -0.099545 2.071375 0.006327 0.008459 -1093530.000000 0 1 0
17.498485 -0.583605 -8.610923 19.511165 -0.033339 2.027880 0.003915 0.005898 233098.000000 0 1 0
18.753985 -0.099005 -8.137923 20.443765 -0.005279 1.980202 0.002272 0.008647 990282.000000 0 1 0
19.742785 0.417195 -9.017723 21.708775 0.021128 1.999174 0.002781 0.011108 -43792.500000 0 1 0
19.316085 1.695595 -9.861823 21.754120 0.087557 2.041296 -0.006496 0.009472 -615306.000000 0 1 0
19.242485 2.845695 -9.081223 21.467180 0.146822 2.007581 -0.007167 0.015062 635856.000000 0 1 0
18.515285 3.815295 -9.816523 21.301089 0.203217 2.049745 -0.017120 0.006040 -374310.000000 0 1 0
18.674785 5.272295 -9.315323 21.524868 0.275160 2.018360 0.007525 0.011454 -298621.000000 0 1 0
17.947985 6.226695 -10.068723 21.500723 0.333937 2.058159 0.009629 0.006450 395554.000000 0 1 0
18.161985 7.559895 -9.569523 21.876597 0.394435 2.023537 0.004998 -0.000757 -288510.000000 0 1 0
-24.855715 -29.779825 5.700877 39.206435 0.875282 1.424872 0.028478 -0.012491 33105.500000 0 0 1
-25.254975 -28.685175 6.559877 38.777378 0.848905 1.400811 0.027586 -0.008948 -506243.000000 0 0 1
-24.091815 -27.954915 6.774777 37.520533 0.859486 1.389239 0.031382 -0.003080 -852187.000000 0 0 1
-24.216415 -26.769115 7.737877 36.917408 0.835424 1.359631 0.029544 0.003493 368543.000000 0 0 1
-25.303245 -25.848415 7.406277 36.922184 0.796056 1.368835 0.025013 -0.002534 809334.000000 0 0 1
-26.589075 -26.314785 7.750377 38.203601 0.780214 1.366508 0.021048 -0.003108 -305203.000000 0 0 1
-27.057075 -26.416885 9.238877 38.926777 0.773427 1.331170 0.016433 -0.003234 -274519.000000 0 0 1
-26.130405 -27.158965 9.997177 38.991678 0.804697 1.311508 0.015950 -0.002769 -96357.000000 0 0 1
-26.576185 -27.314245 11.317077 39.754721 0.799093 1.282132 0.018730 -0.004039 -86679.500000 0 0 1
-25.450505 -27.985215 12.138577 39.727138 0.832797 1.260282 0.009535 -0.000351 462910.000000 0 0 1
-24.310015 -27.200145 12.387777 38.526377 0.841447 1.243441 0.022213 0.010642 -92967.300000 0 0 1
-24.484715 -26.436655 13.571577 38.504359 0.823712 1.210589 0.032417 0.008173 -563761.000000 0 0 1
-23.141515 -25.997675 14.180377 37.583133 0.843457 1.183910 0.032317 0.009076 -376256.000000 0 0 1
-22.495015 -27.098855 14.718777 38.170879 0.877964 1.174936 0.021979 0.008201 -966911.000000 0 0 1
-21.450015 -26.692445 15.521677 37.596705 0.893865 1.145219 0.020967 0.007257 -461190.000000 0 0 1
-20.740315 -27.824205 16.343177 38.359438 0.930242 1.130670 0.017598 -0.002698 -279517.000000 0 0 1
-21.586315 -28.511335 17.211977 39.687748 0.922758 1.122218 0.017257 0.000233 56706.500000 0 0 1
-20.991515 -29.693585 17.706977 40.446134 0.955429 1.117655 0.016151 0.001117 -330054.000000 0 0 1
-21.980115 -30.427575 18.605377 41.894186 0.945211 1.110622 0.020103 -0.005220 -603137.000000 0 0 1
-23.063915 -30.963225 17.905877 42.559205 0.930579 1.136548 0.005871 -0.003986 -237627.000000 0 0 1
-23.590515 -32.013065 18.662977 43.927843 0.935730 1.131994 0.006458 0.000624 -549057.000000 0 0 1
-24.600515 -32.851475 17.878877 44.766717 0.928038 1.159957 0.000025 0.000780 -257433.000000 0 0 1
-24.030215 -33.615925 16.837877 44.620575 0.950176 1.183856 0.000536 0.000249 -234255.000000 0 0 1
-24.922615 -34.498061 16.285177 45.568190 0.945171 1.205335 0.003486 0.000809 -986978.000000 0 0 1
-24.275315 34.422980 15.032377 44.723649 -0.956584 1.228005 -0.003194 -0.002231 204867.000000 0 0 1
-23.126915 33.605937 15.238477 43.547955 -0.968048 1.213306 -0.009781 -0.004758 100172.000000 0 0 1
-21.995215 34.375111 14.900077 43.444793 -1.001583 1.220724 -0.005416 -0.006303 -827711.000000 0 0 1
-20.693115 33.569593 15.032577 42.203092 -1.018388 1.206603 0.002448 -0.006023 -210171.000000 0 0 1
-20.592215 32.719542 13.903777 41.084337 -1.009071 1.225559 0.003682 -0.013559 264330.000000 0 0 1
-19.480315 31.832322 13.870877 39.814327 -1.021624 1.214944 -0.000014 -0.004236 164165.000000 0 0 1
-19.485915 31.035752 12.550377 38.735394 -1.010147 1.240839 -0.001860 -0.009260 140063.000000 0 0 1
-18.903315 31.590722 11.398477 38.538738 -1.031567 1.270538 -0.011925 -0.010673 -88566.400000 0 0 1
-18.972615 30.615512 10.335877 37.471323 -1.016013 1.291339 -0.005937 -0.006815 72373.100000 0 0 1
-18.543615 31.135682 8.967777 37.332524 -1.033637 1.328211 -0.012112 -0.009032 -249934.000000 0 0 1
-17.172115 31.462372 8.913577 36.935271 -1.071185 1.327061 -0.015293 -0.010071 -431284.000000 0 0 1
-16.714815 31.964372 7.680677 36.879519 -1.088981 1.360997 -0.020605 -0.011322 -79518.700000 0 0 1
-16.191215 30.864612 6.699377 35.491708 -1.087672 1.380898 -0.022572 -0.007415 -701968.000000 0 0 1
-17.169715 29.984032 6.272677 35.116773 -1.050746 1.391209 -0.015356 -0.004665 -491394.000000 0 0 1
-17.005915 28.739002 6.886277 34.096219 -1.036475 1.367431 -0.012306 -0.004797 322375.000000 0 0 1
-18.057015 27.648632 6.418577 33.640760 -0.992253 1.378822 -0.000534 -0.000016 458064.000000 0 0 1
-17.770715 27.214302 5.106277 32.901225 -0.992321 1.414966 0.002552 -0.001373 -20626.600000 0 0 1
-18.773915 26.371892 4.618877 32.699703 -0.952134 1.429071 0.013149 -0.003585 -1027240.000000 0 0 1
-18.507215 25.515982 3.369277 31.700700 -0.943279 1.464311 0.020964 -0.008958 -1238750.000000 0 0 1
-18.228715 26.215452 2.165077 32.003492 -0.963203 1.503093 0.025791 -0.004312 699417.000000 0 0 1
-17.010115 26.957162 2.005477 31.938292 -1.007890 1.507963 0.014331 -0.007236 720748.000000 0 0 1
-15.647415 26.238782 2.270977 30.634500 -1.033067 1.496597 0.012888 -0.010242 -300914.000000 0 0 1
-15.425615 25.100132 1.459177 29.497380 -1.019737 1.521308 0.020389 -0.008098 -32524.600000 0 0 1
-15.237215 25.187682 0.028477 29.437949 -1.026747 1.569829 0.021719 -0.005670 -100145.000000 0 0 1
-15.112015 23.809992 -0.679823 28.209056 -1.005258 1.594898 0.029979 -0.013724 -564512.000000 0 0 1
-16.263315 23.028792 -0.661723 28.200329 -0.955910 1.594264 0.036950 -0.015267 -501314.000000 0 0 1
-16.235615 21.868692 -1.579523 27.282408 -0.932168 1.628724 0.036544 -0.016758 -324989.000000 0 0 1
-15.394315 20.601292 -1.310623 25.751037 -0.929058 1.621714 0.044905 -0.021813 -207890.000000 0 0 1
-15.775215 19.830292 -0.178423 25.340279 -0.898799 1.577837 0.050565 -0.023713 33987.900000 0 0 1
-14.792315 18.900292 0.164677 24.001265 -0.906724 1.563935 0.062812 -0.036126 2402.500000 0 1 0
-15.498015 17.797792 0.985677 23.620360 -0.854360 1.529054 0.047650 -0.034589 510375.000000 0 1 0
-16.279515 16.846492 0.269577 23.428606 -0.802512 1.559290 0.044614 -0.031079 461488.000000 0 1 0
-17.031315 16.071892 1.183777 23.447233 -0.756423 1.520288 0.041146 -0.038528 144166.000000 0 1 0
-17.833815 14.892692 0.510777 23.240011 -0.695769 1.548816 0.068920 -0.032580 -271704.000000 0 1 0
-18.917615 15.323192 -0.258223 24.346315 -0.680806 1.581403 0.069979 -0.030949 -195048.000000 0 1 0
-19.607715 14.209292 -0.718823 24.225672 -0.627097 1.600473 0.040584 -0.015620 -1495610.000000 0 1 0
-20.339615 14.532592 -2.068723 25.083377 -0.620389 1.653364 0.025989 -0.001396 -392732.000000 0 0 1
-21.359315 13.636392 -2.430123 25.457357 -0.568197 1.666400 0.016919 0.001457 1512050.000000 0 0 1
-22.454115 13.481192 -1.474223 26.231720 -0.540705 1.627026 0.004032 0.006010 -162853.000000 0 0 1
-23.474915 14.601792 -1.157523 27.669908 -0.556451 1.612642 -0.029765 0.012961 -1096440.000000 0 0 1
-22.949115 15.686792 -0.466823 27.802073 -0.599598 1.587588 -0.038037 0.001798 78338.400000 0 0 1
-23.893515 16.659892 -0.068223 29.128280 -0.608882 1.573138 -0.044499 0.007137 -309049.000000 0 0 1
-23.198815 17.667092 0.876377 29.173262 -0.650853 1.540751 -0.043914 -0.001965 32785.100000 0 0 1
-22.926015 17.074292 2.155577 28.666708 -0.640137 1.495531 -0.037408 -0.003912 132590.000000 0 0 1
-22.513415 18.000192 3.130077 28.994105 -0.674455 1.462630 -0.031321 -0.007493 -255387.000000 0 0 1
-23.652115 18.921092 3.640777 30.507139 -0.674725 1.451169 -0.024100 -0.012887 -649372.000000 0 0 1
-24.587115 18.182692 4.427577 30.898867 -0.636761 1.427009 -0.016619 -0.007416 -818446.000000 0 0 1
-25.833475 18.737892 4.418777 32.218048 -0.627527 1.433210 -0.006978 -0.013888 -925822.000000 0 0 1
-26.697755 18.562092 3.110177 32.664883 -0.607543 1.475437 0.000204 -0.006694 -590146.000000 0 0 1
-27.918035 19.266292 3.076977 34.059866 -0.604052 1.480333 0.004203 -0.007442 218140.000000 0 0 1
-28.674425 19.099892 1.908077 34.506076 -0.587607 1.515471 0.001799 -0.004534 -113163.000000 0 0 1
-29.963655 19.926292 1.777777 36.028298 -0.586859 1.521432 0.012913 -0.011358 -9166.870000 0 0 1
-31.128945 19.268992 2.287777 36.681592 -0.554277 1.508387 0.008224 -0.001780 635460.000000 0 0 1
-32.177905 20.242492 2.426477 38.092832 -0.561528 1.507054 0.014391 -0.004908 223503.000000 0 0 1
-32.340125 20.862992 3.823777 38.675178 -0.572931 1.471766 0.015008 -0.011321 -559772.000000 0 0 1
-31.334675 21.787392 4.180077 38.393038 -0.607573 1.461704 0.016853 -0.008236 329283.000000 0 0 1
-31.621455 22.236692 5.511477 39.048217 -0.612881 1.429178 0.019170 -0.011614 -628272.000000 0 0 1
-30.666725 23.272092 6.021777 38.965370 -0.649154 1.415633 0.016445 -0.011385 -707228.000000 0 0 1
-30.592615 24.479262 5.316877 39.539999 -0.674844 1.435919 0.016121 -0.003053 -280722.000000 0 0 1
-29.595825 25.293512 5.812677 39.363204 -0.707176 1.422587 0.010996 -0.002480 -610402.000000 0 0 1
-29.873845 26.815982 5.646577 40.539207 -0.731510 1.431055 0.015334 0.000038 -467259.000000 0 0 1
-30.734005 27.335252 6.619877 41.660747 -0.726936 1.411220 0.025870 0.005752 -144324.000000 0 0 1
-30.968285 28.710202 6.386477 42.709454 -0.747579 1.420700 0.028869 0.007206 -409655.000000 0 0 1
-32.013555 29.337652 7.272577 44.027899 -0.741810 1.404855 0.030296 0.007871 -1070120.000000 0 0 1
-31.561115 29.573182 8.618677 44.101685 -0.752892 1.374103 0.028647 0.005113 -144193.000000 0 0 1
-32.518125 30.009492 9.551777 45.268471 -0.745299 1.358196 0.037780 0.010386 -1225730.000000 0 0 1
-33.739675 29.170862 9.732277 45.651091 -0.712901 1.355959 0.040570 0.009983 -1529550.000000 0 0 1
-33.473595 27.872442 10.214577 44.740275 -0.694346 1.340457 0.037302 0.003704 -186385.000000 0 0 1
-34.525531 27.279262 10.917877 45.336194 -0.668687 1.327585 0.039490 0.008193 -367569.000000 0 0 1
-34.005715 26.030912 11.666877 44.385956 -0.653339 1.304821 0.038261 0.004053 -390461.000000 0 0 1
-33.169155 26.420052 12.719577 44.271883 -0.672618 1.279383 0.026776 0.011297 -67763.400000 0 0 1
-32.937295 25.375332 13.626077 43.754347 -0.656438 1.254107 0.027627 0.012437 494527.000000 0 0 1
-31.878045 25.745062 14.744477 43.547877 -0.679365 1.225388 0.016604 0.014823 614215.000000 0 0 1
-32.353905 26.751072 15.642677 44.800540 -0.690886 1.214119 0.011850 0.007565 -154208.000000 0 0 1
-31.333755 27.114472 16.530977 44.612465 -0.713335 1.191199 0.015059 0.012000 -339149.000000 0 0 1
-31.483865 28.414722 17.335677 45.816546 -0.734204 1.182760 0.014667 0.005246 -603799.000000 0 0 1
-31.179605 29.562902 16.597777 46.061037 -0.758789 1.202161 0.024525 0.004613 105240.000000 0 0 1
-31.574185 30.737942 17.299677 47.339508 -0.771979 1.196693 0.014310 0.008481 -151254.000000 0 0 1
-31.183675 31.974282 16.494777 47.611490 -0.797915 1.217017 0.016612 0.006536 -566853.000000 0 0 1
-29.814095 32.149852 16.345977 46.794062 -0.823076 1.213954 -0.001214 0.010998 -763008.000000 0 0 1
-29.621465 33.328932 15.567277 47.229112 -0.844225 1.234904 0.012196 0.007601 -696049.000000 0 0 1
-28.162265 33.507913 15.158077 46.321277 -0.871863 1.237417 0.016165 0.003370 -373223.000000 0 0 1
-27.598815 32.651752 14.123677 45.025656 -0.869068 1.251729 0.013961 0.006866 519821.000000 0 0 1
-27.229325 31.310902 14.431277 43.932567 -0.855008 1.236095 0.012464 0.005549 443131.000000 0 0 1
-28.398115 30.277532 14.148977 43.856304 -0.817418 1.242299 0.020818 0.011804 660464.000000 0 0 1
-28.564715 30.071782 12.761477 43.394819 -0.811094 1.272305 0.027456 0.008495 -245561.000000 0 0 1
-29.396195 28.995852 12.466377 43.131268 -0.778542 1.277579 0.019584 0.013469 -183234.000000 0 0 1
-29.402905 28.664972 10.923277 42.491522 -0.772691 1.310808 0.029325 0.010257 164746.000000 0 0 1
-28.195725 28.076092 10.454177 41.140681 -0.783272 1.313871 0.008190 0.010036 113717.000000 0 0 1
-28.281595 27.882982 9.076177 40.739247 -0.778301 1.346124 0.010083 0.005234 -641235.000000 0 0 1
-27.044275 27.372842 8.381577 39.381672 -0.791436 1.356327 -0.002352 0.005552 -508410.000000 0 0 1
-27.048745 27.755012 7.029177 39.387620 -0.798285 1.391374 -0.007003 0.002755 -404452.000000 0 0 1
-26.039725 27.051402 6.346177 38.080436 -0.804451 1.403363 -0.014336 0.003509 -768415.000000 0 0 1
-25.861355 27.430582 4.835977 38.008330 -0.814836 1.443216 -0.015591 0.003711 -166787.000000 0 0 1
-25.118975 28.604282 4.568677 38.341109 -0.850183 1.451354 -0.014861 0.000728 270384.000000 0 0 1
-24.933415 28.698302 3.188077 38.150119 -0.855482 1.487132 -0.007607 0.004711 52462.600000 0 0 1
-23.877515 29.786652 2.817777 38.279501 -0.895070 1.497119 -0.000110 -0.000929 541123.000000 0 0 1
-22.562915 29.454612 3.236877 37.244284 -0.917119 1.483777 0.002297 -0.004045 -11551.900000 0 0 1
-21.659015 30.516712 3.087977 37.548878 -0.953561 1.488464 0.011649 -0.007114 244.156000 0 0 1
-20.186515 30.122472 3.326577 36.413251 -0.980387 1.479313 0.003809 -0.011341 -65458.200000 0 0 1
-19.327115 31.128902 2.872177 36.753167 -1.015170 1.492569 -0.001274 -0.009920 -563312.000000 0 0 1
-17.999515 30.620622 2.891777 35.636602 -1.039378 1.489561 -0.007589 -0.004486 638238.000000 0 0 1
-16.954615 31.754002 2.605777 36.091075 -1.080370 1.498533 -0.008324 -0.009115 174794.000000 0 0 1
-16.834015 32.782172 3.527977 37.020285 -1.096398 1.475353 -0.004836 -0.014376 551569.000000 0 0 1
-15.623815 33.487778 3.201177 37.091541 -1.134263 1.484384 0.004984 -0.008737 584954.000000 0 0 1
-15.333215 34.707133 4.011077 38.154702 -1.154792 1.465475 0.005211 -0.007905 -157695.000000 0 0 1
-16.145715 -33.686915 3.707177 37.539786 1.123856 1.471882 0.009310 -0.012478 13014.500000 0 0 1
-15.985515 -32.652755 4.663777 36.653648 1.115535 1.443211 0.004634 -0.008405 -340798.000000 0 0 1
-17.138215 -31.652855 4.700777 36.300399 1.074547 1.440935 0.003652 -0.005817 -253586.000000 0 0 1
-17.270015 -30.786975 3.545877 35.477662 1.059584 1.470682 0.008944 -0.002010 -92851.400000 0 0 1
-18.502715 -30.114035 3.695377 35.536761 1.019840 1.466621 0.021115 -0.008735 -92262.800000 0 0 1
-18.896115 -29.141735 2.529277 34.823858 0.995532 1.498102 0.009289 -0.010046 -139023.000000 0 0 1
-18.225415 -27.915365 2.544177 33.435104 0.992398 1.494630 0.002473 0.003118 -186474.000000 0 0 1
-18.666215 -27.013485 1.490777 32.869110 0.966139 1.525426 0.000198 0.010446 62520.400000 0 0 1
-17.833515 -25.744065 1.401077 31.348910 0.964971 1.526088 -0.002426 0.009396 231660.000000 0 0 1
-16.504315 -25.889565 0.934277 30.717012 1.003266 1.540376 -0.015891 0.016860 -294080.000000 0 0 1
-15.762815 -24.689305 0.984677 29.308663 1.002586 1.537193 -0.015518 0.018052 1134470.000000 0 0 1
-14.297715 -24.926405 0.435077 28.739165 1.050017 1.555657 -0.004783 0.010628 879125.000000 0 0 1
-14.225115 -25.076845 -0.977623 28.847145 1.054798 1.604693 0.001176 0.016989 -62195.100000 0 0 1
-14.176215 -23.853005 -1.661423 27.797324 1.034567 1.630601 0.004875 0.013145 -319733.000000 0 0 1
-14.448815 -24.039805 -3.164623 28.225792 1.029615 1.683151 0.015602 0.012848 -532424.000000 0 0 1
-13.414915 -24.552705 -3.946723 28.255475 1.070743 1.710935 0.014710 0.013029 -673098.000000 0 0 1
-13.745915 -24.772205 -5.305923 28.822997 1.064204 1.755939 0.018574 0.006965 199646.000000 0 0 1
-12.542015 -25.207065 -6.173823 28.823850 1.109103 1.786660 0.028987 0.005542 223073.000000 0 0 1
-12.049615 -26.557585 -6.065823 29.787459 1.144856 1.775867 0.029941 0.004740 -408082.000000 0 0 1
-11.050215 -26.794115 -7.004023 29.817582 1.179636 1.807908 0.030372 0.001314 -441591.000000 0 0 1
22.468685 13.182795 28.690209 38.752497 0.530597 0.737213 0.007354 0.004852 -193051.000000 0 0 1
23.061485 11.871795 28.764409 38.731936 0.475409 0.733772 0.000067 0.002221 75471.800000 0 0 1
22.399585 10.887095 29.531039 38.630979 0.452417 0.700625 -0.006056 -0.004615 -445978.000000 0 0 1
22.215085 11.116395 31.104909 39.807030 0.463966 0.673902 0.003138 0.013068 304600.000000 0 0 1
21.397785 12.238895 31.426729 39.941145 0.519554 0.665147 -0.001335 0.008919 142109.000000 0 0 1
21.723785 12.622995 32.759659 41.285083 0.526383 0.654260 0.007149 0.006234 326827.000000 0 0 1
20.759985 13.679595 33.456638 41.682790 0.582635 0.639073 -0.004105 0.017288 -33149.100000 0 0 1
19.531885 13.118895 33.817813 41.197627 0.591455 0.607867 -0.009441 0.027609 -345328.000000 0 0 1
18.884585 14.017895 -34.546739 41.792417 0.638550 2.543884 -0.010338 0.027123 -1103020.000000 0 0 1
17.646185 13.496295 -33.900423 40.531179 0.652924 2.561485 -0.011253 0.034850 -1435960.000000 0 0 1
16.529185 13.368995 34.527972 40.547810 0.680091 0.551886 -0.017819 0.036539 -613877.000000 0 0 1
15.575285 12.762295 -33.888093 39.419139 0.686455 2.605452 -0.018610 0.028801 -646852.000000 0 0 1
14.366885 12.222595 34.598917 39.406653 0.704928 0.499135 -0.011638 0.030397 -48268.800000 0 0 1
14.608785 11.161595 33.610855 38.310409 0.652422 0.500527 -0.020354 0.038171 301590.000000 0 0 1
13.327685 10.714795 33.160429 37.310161 0.677145 0.476125 -0.015413 0.028605 515310.000000 0 0 1
13.346785 9.544295 32.170709 36.113499 0.620789 0.471645 -0.013918 0.020209 -161791.000000 0 0 1
13.808485 8.274495 32.660089 36.411852 0.539855 0.457944 -0.022977 0.020650 9763.510000 0 0 1
14.120485 7.453395 31.562989 35.371789 0.485673 0.468335 -0.027311 0.003542 -38243.800000 0 0 1
14.594585 6.020195 31.925299 35.615578 0.391231 0.459249 -0.010804 0.003491 11965.600000 0 0 1
13.643685 5.142195 32.494469 35.615767 0.360428 0.421779 -0.010594 0.004882 -442024.000000 0 0 1
14.142285 3.838695 32.648309 35.786197 0.265048 0.421892 -0.009874 -0.000906 -96273.900000 0 0 1
13.081085 2.763495 32.929169 35.539863 0.208198 0.385683 -0.008437 -0.002621 -111867.000000 0 0 1
13.690085 1.559295 33.328864 36.064706 0.113411 0.392016 0.001712 -0.006373 72714.100000 0 0 1
12.681685 0.686395 33.812681 36.119160 0.054072 0.359302 0.000409 -0.005680 -238036.000000 0 0 1
13.214085 -0.665805 34.290643 36.754640 -0.050343 0.368244 -0.010780 -0.001025 -8918.300000 0 0 1
13.579585 -1.526105 33.188546 35.891694 -0.111913 0.390586 -0.016612 0.005940 16627.400000 0 0 1
13.992185 -2.801805 33.626928 36.529463 -0.197627 0.401329 0.004936 0.000807 -234232.000000 0 0 1
13.878285 -3.936005 32.552129 35.605337 -0.276352 0.417147 0.004852 0.001080 -869596.000000 0 0 1
14.341085 -5.251205 32.837199 36.214963 -0.351003 0.435332 0.014596 -0.001471 1616890.000000 0 0 1
15.755085 -5.443305 33.154889 37.109284 -0.332656 0.465852 0.012453 0.000591 1716670.000000 0 0 1
16.790085 -5.056405 32.069739 36.550545 -0.292515 0.500364 0.006786 -0.005871 -652480.000000 0 0 1
16.942085 -3.630105 32.051829 36.435308 -0.211074 0.495583 0.005954 -0.006200 -441007.000000 0 0 1
18.007985 -3.169805 31.282469 36.234349 -0.174237 0.528950 0.013589 -0.007191 -164072.000000 0 0 1
18.031485 -1.619705 31.304989 36.162968 -0.089586 0.524321 0.022321 -0.015444 -322184.000000 0 0 1
18.386585 -1.064905 32.573629 37.419806 -0.057853 0.514596 0.017606 -0.012359 102976.000000 0 0 1
18.300485 0.350095 32.609659 37.395457 0.019128 0.511478 0.013760 -0.009870 -292421.000000 0 0 1
19.422385 1.121295 31.914299 37.376581 0.057668 0.547443 0.019026 -0.011579 -1004000.000000 0 0 1
19.451785 1.163895 30.492949 36.187657 0.059764 0.568640 0.030456 -0.009085 96807.500000 0 0 1
20.538785 1.930895 30.005149 36.412622 0.093737 0.602306 0.025720 -0.001369 140996.000000 0 0 1
20.146585 3.443095 29.907589 36.224352 0.169267 0.599494 0.023783 -0.002142 -179939.000000 0 0 1
19.802485 3.986095 31.169719 37.142681 0.198638 0.575007 0.015771 0.001131 255027.000000 0 0 1
19.427085 5.328895 31.018599 36.985974 0.267718 0.575981 0.010399 0.002049 -932454.000000 0 0 1
18.975085 5.785995 32.420629 38.008273 0.295970 0.549111 0.010035 0.015388 60920.900000 0 0 1
17.891585 5.153595 33.091949 37.970323 0.280454 0.512500 -0.004155 0.023820 379795.000000 0 0 1
17.902485 5.572995 34.436264 39.209865 0.301789 0.498595 -0.004542 0.027316 -296796.000000 0 0 1
16.703285 5.165695 -33.965213 38.201045 0.299932 2.666209 -0.002952 0.021455 -352711.000000 0 0 1
16.673685 3.786095 -33.817793 37.894451 0.223284 2.673478 -0.003649 0.014568 406754.000000 0 0 1
15.487185 3.396195 -33.136423 36.734310 0.215874 2.695307 -0.000710 0.008025 298921.000000 0 0 1
15.555385 1.874495 -33.263093 36.768425 0.119926 2.701388 -0.001588 0.000789 519288.000000 0 0 1
16.587785 1.208695 -32.500213 36.508621 0.072738 2.668595 0.001040 0.009756 594119.000000 0 0 1
16.882485 -0.062505 -33.010663 37.077299 -0.003702 2.668844 0.007881 0.001292 -239957.000000 0 0 1
17.884485 -0.808305 -32.105973 36.760055 -0.045165 2.632923 0.012154 0.000412 -457117.000000 0 0 1
17.554685 -1.197805 -30.750013 35.428308 -0.068127 2.621857 0.017596 0.000920 52881.800000 0 0 1
17.757885 -0.177605 -29.797393 34.688019 -0.010001 2.604131 0.014898 0.007313 -110890.000000 0 0 1
17.471585 -0.552205 -28.344623 33.301334 -0.031595 2.588980 0.008303 0.004249 262690.000000 0 0 1
16.126785 -0.947905 -28.100763 32.413340 -0.058711 2.619847 0.006144 0.000247 255556.000000 0 0 1
15.782385 -1.226305 -26.737653 31.072328 -0.077545 2.607041 0.012215 0.001619 4489.740000 0 0 1
16.568785 -2.298405 -25.898833 30.831102 -0.137839 2.568122 0.013407 -0.000766 1184010.000000 0 0 1
17.944885 -1.906805 -25.656333 31.367216 -0.105862 2.528608 0.018713 -0.002638 868380.000000 0 0 1
18.859885 -2.982905 -25.600453 31.937066 -0.156862 2.500747 0.021367 -0.002199 611979.000000 0 0 1
19.616485 -3.349405 -26.927843 33.483335 -0.169114 2.505152 0.020129 -0.001187 672936.000000 0 0 1
20.805785 -2.554905 -27.130273 34.284981 -0.122186 2.483756 0.014354 0.003316 343987.000000 0 0 1
21.229985 -2.818805 -28.429403 35.593382 -0.132003 2.495973 0.005553 -0.002718 128466.000000 0 0 1
22.748085 -2.598305 -28.621403 36.652575 -0.113728 2.466876 0.005514 -0.005386 250305.000000 0 0 1
23.577685 -3.730105 -28.393013 37.094259 -0.156904 2.442504 0.012277 -0.007988 549217.000000 0 0 1
24.932585 -3.422105 -28.754363 38.212013 -0.136402 2.422639 0.000613 -0.003386 45916.000000 0 0 1
25.850685 -4.589105 -28.492463 38.744525 -0.175693 2.397043 0.003275 -0.004198 -721915.000000 0 0 1
25.781085 -5.703405 -29.345663 39.476083 -0.217718 2.408903 0.016617 -0.013690 473605.000000 0 0 1
26.870785 -6.620105 -29.235993 40.256778 -0.241558 2.383630 0.013890 -0.013797 189868.000000 0 0 1
26.760885 -7.575805 -28.035523 39.490864 -0.275874 2.360187 0.011360 -0.013454 -174135.000000 0 0 1
26.870385 -6.960105 -26.768773 38.562000 -0.253455 2.338069 0.007071 -0.004433 215030.000000 0 0 1
26.673985 -7.898305 -25.746063 37.904412 -0.287880 2.317518 0.001593 -0.000531 -550082.000000 0 0 1
26.458485 -7.159505 -24.427223 36.715108 -0.264265 2.298716 -0.013892 -0.003798 308235.000000 0 0 1
27.692285 -6.864105 -23.766423 37.132485 -0.242974 2.265352 -0.017010 0.000606 745779.000000 0 0 1
27.464385 -6.364605 -22.484923 36.060676 -0.227721 2.244047 -0.013389 0.000078 262087.000000 0 0 1
28.776485 -5.764905 -21.898423 36.617771 -0.197717 2.211834 -0.005949 0.000109 182936.000000 0 0 1
29.186585 -4.601205 -22.508523 37.143794 -0.156361 2.221798 -0.007499 -0.000259 715876.000000 0 0 1
30.560485 -4.308305 -22.222723 38.030963 -0.140053 2.194853 -0.001374 -0.001286 968446.000000 0 0 1
31.180685 -3.031305 -22.883323 38.795237 -0.096913 2.201668 0.008880 -0.004564 22720.500000 0 0 1
30.524785 -1.905705 -22.382123 37.899256 -0.062350 2.202560 0.008933 -0.003747 -40983.600000 0 0 1
30.960285 -0.777205 -23.068523 38.617354 -0.025098 2.211003 0.011609 -0.002470 -409764.000000 0 0 1
30.040985 0.388895 -22.779723 37.703154 0.012945 2.219540 0.015388 -0.000479 -541048.000000 0 0 1
28.827385 0.278295 -23.466423 37.172148 0.009654 2.254012 0.002847 0.003651 338195.000000 0 0 1
27.882185 1.315095 -23.156823 36.268225 0.047131 2.263328 -0.004638 0.011584 461176.000000 0 0 1
26.581085 1.328095 -23.974023 35.819990 0.049922 2.304051 -0.011087 0.015678 -212204.000000 0 0 1
25.643685 2.307695 -23.678623 34.980012 0.089749 2.314365 -0.012232 0.010927 -235705.000000 0 0 1
24.717885 2.483195 -24.727823 35.051467 0.100126 2.353885 -0.013615 0.005911 98865.300000 0 0 1
23.699985 3.606495 -24.441723 34.235857 0.151014 2.365879 -0.002336 0.004700 -430372.000000 0 0 1
24.425185 4.781295 -24.300123 34.784284 0.193308 2.344228 -0.010746 0.005807 286692.000000 0 0 1
23.561985 5.908895 -24.006123 34.152249 0.245713 2.350284 0.010996 0.005005 82441.500000 0 0 1
24.163085 7.256295 -23.447023 34.442290 0.291737 2.319600 0.024670 -0.000643 -232724.000000 0 0 1
24.838985 8.039395 -24.381023 35.721721 0.313020 2.322010 0.015993 0.003495 -97426.400000 0 0 1
25.235685 9.263595 -23.790223 35.897475 0.351812 2.295251 0.026342 -0.000689 -387944.000000 0 0 1
25.911185 10.222495 -24.837423 37.320055 0.375774 2.298993 0.042751 -0.003995 -200054.000000 0 0 1
25.220285 10.534195 -26.031733 37.744975 0.395661 2.331835 0.035932 -0.017463 1293890.000000 0 0 1
23.900985 11.139295 -25.945213 36.993176 0.436129 2.348088 0.040573 -0.026298 1295160.000000 0 0 1
23.259185 11.389695 -27.352073 37.667635 0.455362 2.383491 0.022146 -0.019828 -163519.000000 0 0 1
22.955985 10.240095 -28.170483 37.754641 0.419585 2.413051 0.028348 -0.007389 758264.000000 0 0 1
24.033285 9.491595 -28.794063 38.688334 0.376133 2.410218 0.030762 -0.012299 414613.000000 0 0 1
24.689485 10.047895 -30.043383 40.163861 0.386501 2.415870 0.025086 -0.007742 -307061.000000 0 0 1
25.568885 11.158495 -29.806033 40.824986 0.411494 2.389254 0.014625 -0.004376 1008520.000000 0 0 1
26.377685 11.697395 -30.865373 42.252604 0.417400 2.389845 0.013575 -0.003847 719436.000000 0 0 1
27.451785 10.776595 -31.519763 43.165159 0.374080 2.389430 0.014260 -0.009536 -306755.000000 0 0 1
26.890385 9.793495 -32.363143 43.201601 0.349269 2.417528 0.016767 -0.003528 116765.000000 0 0 1
27.684885 8.629995 -32.433833 43.507277 0.302176 2.412052 0.016041 -0.004884 -45695.800000 0 0 1
26.972685 7.544595 -33.295193 43.508810 0.272742 2.442229 0.025991 -0.002927 469707.000000 0 0 1
25.892685 6.987595 -32.547723 42.173592 0.263588 2.452394 0.026667 0.000238 -31229.000000 0 0 1
25.255885 6.015495 -33.287883 42.215270 0.233825 2.479207 0.010735 0.007711 -733674.000000 0 0 1
24.058185 5.304195 -32.685173 40.929834 0.217002 2.495705 0.018239 0.017144 1621960.000000 0 0 1
22.751385 6.000695 -32.707033 40.291238 0.257878 2.517965 0.019541 0.016218 1887070.000000 0 0 1
22.529485 6.947495 -31.683103 39.492587 0.299121 2.501858 0.021945 0.013798 -695601.000000 0 0 1
21.060985 7.367895 -31.571713 38.660368 0.336529 2.526366 0.014064 0.016312 -144371.000000 0 0 1
20.793785 8.296695 -32.627523 39.569836 0.379643 2.540212 0.013446 0.017869 418416.000000 0 0 1
19.469685 8.836595 -32.530743 38.928181 0.426063 2.560131 0.004906 0.023917 621153.000000 0 0 1
18.957285 9.681095 -33.755123 39.906272 0.472155 2.578972 0.000700 0.027575 -197172.000000 0 0 1
18.470685 8.982895 34.394185 40.060187 0.452654 0.538336 0.006546 0.025890 -189370.000000 0 0 1
18.250785 9.910995 33.381715 39.314856 0.497488 0.556543 -0.007968 0.029031 -171992.000000 0 0 1
17.307985 9.522695 32.240539 37.811380 0.502990 0.549726 -0.018978 0.025601 -412911.000000 0 0 1
17.795185 8.577295 31.326679 37.035111 0.449145 0.562613 -0.021788 0.016256 -123647.000000 0 0 1
18.895185 8.877195 30.499819 36.960406 0.439207 0.600236 -0.010918 0.013970 -585079.000000 0 0 1
18.656785 9.857895 29.332519 36.133785 0.486094 0.623610 -0.008770 0.004359 -626276.000000 0 0 1
17.797585 9.393195 28.361359 34.775751 0.485623 0.617118 -0.015026 0.017292 -21223.200000 0 0 1
16.432185 9.729795 28.557529 34.354302 0.534604 0.589417 -0.016849 0.017498 -161093.000000 0 0 1
15.470185 8.885195 27.709949 32.956253 0.521341 0.572018 -0.004653 0.016308 -667534.000000 0 0 1
15.439985 9.094895 26.326649 31.846550 0.532328 0.597629 -0.007160 0.019638 421803.000000 0 0 1
14.428985 8.322995 25.653069 30.586726 0.523205 0.575906 0.003238 0.019612 259545.000000 0 0 1
14.328185 6.790395 25.741099 30.232607 0.442566 0.552081 -0.001002 0.020435 -351553.000000 0 0 1
13.934585 6.278795 27.000829 31.026452 0.423345 0.515083 0.001957 0.007280 36860.000000 0 0 1
13.737385 4.905895 26.977729 30.668900 0.343004 0.495682 0.001922 0.004525 -298421.000000 0 0 1
14.263885 4.189695 28.232499 31.907460 0.285692 0.484679 -0.006049 -0.007003 -18191.900000 0 0 1
15.679985 4.194095 28.352469 32.669785 0.261362 0.519938 -0.006433 0.000442 439630.000000 0 0 1
16.167585 3.556495 29.521049 33.845706 0.216528 0.511064 -0.000882 -0.002456 -390068.000000 0 0 1
16.615285 2.070995 29.252589 33.705648 0.124004 0.519870 0.007292 -0.000638 -1133020.000000 0 0 1
15.642685 1.135195 28.907449 32.888036 0.072443 0.497108 -0.004145 -0.011673 -157144.000000 0 0 1
14.867185 0.767695 30.064269 33.548217 0.051591 0.459778 -0.012740 -0.006076 -232865.000000 0 0 1
14.498085 -0.714005 30.109729 33.426039 -0.049208 0.449219 -0.012044 -0.000328 -165346.000000 0 0 1
13.770785 -1.245105 28.950629 32.083076 -0.090171 0.445571 -0.013647 0.002087 586983.000000 0 0 1
14.399785 -1.282405 27.648649 31.200099 -0.088823 0.481779 -0.008253 0.000366 200764.000000 0 0 1
15.631485 -2.268205 27.412099 31.637182 -0.144099 0.522745 -0.000956 -0.000328 2230830.000000 0 0 1
16.922285 -1.963105 28.014989 32.788064 -0.115491 0.546350 0.001879 0.000630 1281750.000000 0 0 1
17.610685 -0.885605 27.451129 32.626447 -0.050246 0.570971 0.010219 -0.002942 -1138080.000000 0 0 1
19.075985 -0.684305 27.820809 33.739575 -0.035857 0.601346 0.024133 -0.000824 -715594.000000 0 0 1
19.925385 -1.547905 27.148199 33.711151 -0.077529 0.634585 0.012851 -0.000113 -657804.000000 0 0 1
21.251485 -1.087005 27.259279 34.581433 -0.051105 0.662815 0.029526 -0.002689 -334454.000000 0 0 1
22.182985 -1.933505 26.399449 34.536273 -0.086942 0.700690 0.016528 0.006054 -415976.000000 0 0 1
22.391085 -1.477305 25.106349 33.673014 -0.065882 0.729373 0.015268 0.016283 170632.000000 0 0 1
21.510685 -2.178005 24.260229 32.496338 -0.100908 0.727931 0.011483 0.030288 -148853.000000 0 0 1
21.333085 -1.493605 22.898619 31.331743 -0.069899 0.751239 0.012564 0.009148 -63688.700000 0 0 1
20.550085 -0.304805 22.964919 30.818605 -0.014831 0.730015 0.008520 0.015999 251990.000000 0 0 1
20.639385 0.536295 21.802519 30.027016 0.025978 0.758168 0.016030 0.017949 -58217.400000 0 0 1
-29.141485 -28.123601 -10.827823 41.921413 0.767625 1.832047 -0.014407 0.019131 -282404.000000 0 0 1
-28.938265 -26.941201 -10.016123 40.786937 0.749675 1.818906 -0.018104 0.020574 -53974.300000 0 0 1
-29.549275 -27.045101 -8.724023 40.996411 0.741179 1.785236 -0.013730 0.008881 -328555.000000 0 0 1
-29.771795 -25.782401 -7.922523 40.172856 0.713710 1.769308 -0.010841 0.006976 860670.000000 0 0 1
-28.654875 -25.246201 -7.164323 38.856146 0.722243 1.756238 -0.016795 0.002339 141210.000000 0 0 1
-28.309295 -25.923601 -6.023323 38.855240 0.741437 1.726444 -0.015109 0.002439 -405446.000000 0 0 1
-27.189515 -25.296401 -5.203523 37.500057 0.749345 1.710006 -0.010284 0.012822 -430883.000000 0 0 1
-27.389375 -24.169201 -4.433423 36.796513 0.723023 1.691575 -0.008592 0.006782 -481781.000000 0 0 1
-27.810635 -23.036401 -5.112823 36.472567 0.691779 1.711442 -0.014803 0.000556 -302569.000000 0 0 1
-27.982975 -21.866201 -4.109123 35.750001 0.663303 1.685991 -0.009737 -0.012715 -528860.000000 0 0 1
-26.951955 -20.894101 -4.116223 34.349886 0.659457 1.690917 0.001815 -0.014871 221387.000000 0 0 1
-27.147635 -19.869401 -3.141523 33.788406 0.631817 1.663907 0.010340 -0.005748 -92057.300000 0 0 1
-26.040735 -18.784101 -3.156523 32.263385 0.624902 1.668789 0.014355 -0.008789 109044.000000 0 0 1
-26.085795 -17.822101 -4.213823 31.872438 0.599369 1.703394 0.010725 -0.012707 -279834.000000 0 0 1
-25.185635 -16.787101 -3.976923 30.527674 0.587911 1.701440 0.020266 -0.010966 -167989.000000 0 0 1
-25.150805 -15.797801 -5.154223 30.144644 0.560842 1.742624 0.016279 -0.018324 686574.000000 0 0 1
-26.449435 -15.202901 -5.316823 30.967232 0.521677 1.743343 0.009235 -0.012326 657120.000000 0 0 1
-26.389855 -13.960201 -6.007723 30.453315 0.486577 1.769375 0.021335 -0.021281 -216728.000000 0 0 1
-27.767665 -13.306101 -6.176623 31.404557 0.446865 1.768766 0.025158 -0.013220 445635.000000 0 0 1
-28.747315 -14.137301 -6.830723 32.755613 0.457049 1.780874 0.021880 -0.007479 319494.000000 0 0 1
-30.013615 -13.514601 -6.850323 33.621250 0.423089 1.775983 0.004934 -0.003259 -286422.000000 0 0 1
-31.060625 -14.366601 -7.551023 35.045394 0.433228 1.787963 0.000570 -0.009806 -423984.000000 0 0 1
-31.653755 -15.394501 -6.765023 35.842941 0.452660 1.760676 0.000091 -0.010046 107224.000000 0 0 1
-31.964315 -16.472201 -7.637223 36.761094 0.475837 1.780073 0.000168 -0.000240 -672287.000000 0 0 1
-32.877685 -17.596001 -7.037923 37.948568 0.491406 1.757336 -0.007173 -0.002570 1774450.000000 0 0 1
-34.281236 -17.220401 -6.896323 38.978259 0.465508 1.748660 -0.002291 -0.015995 1224290.000000 0 0 1
-34.576209 -16.224301 -5.942223 38.652972 0.438733 1.725141 0.003988 -0.014141 -316898.000000 0 0 1
33.649498 -16.139601 -5.548723 37.730144 -0.447226 1.718395 0.021367 -0.017482 103695.000000 0 0 1
32.932098 -15.446201 -6.573723 36.963794 -0.438568 1.749590 0.022804 -0.015828 -489290.000000 0 0 1
31.545198 -15.426201 -6.536923 35.718323 -0.454824 1.754847 0.018638 -0.018618 -259145.000000 0 0 1
30.820428 -14.653501 -5.364023 34.545573 -0.443814 1.726701 0.025754 -0.020993 -586723.000000 0 0 1
30.880018 -15.446901 -4.165423 34.778341 -0.463826 1.690855 0.016575 -0.016320 282099.000000 0 0 1
30.562468 -14.662301 -3.042223 34.033846 -0.447316 1.660304 0.001209 -0.016136 -1008810.000000 0 0 1
30.579078 -15.498901 -1.665023 34.322999 -0.469110 1.619326 0.002173 -0.007790 -100412.000000 0 0 1
31.839318 -15.891601 -1.141323 35.603199 -0.462942 1.602859 0.007449 -0.006359 68968.500000 0 0 1
32.545328 -16.792801 -1.970423 36.675320 -0.476351 1.624548 0.010334 -0.012740 -819805.000000 0 0 1
32.114908 -18.263701 -1.980123 36.997986 -0.517086 1.624342 0.017103 -0.018639 -1559280.000000 0 0 1
32.506198 -18.942901 -0.809023 37.631648 -0.527637 1.592296 0.009573 -0.020784 232183.000000 0 0 1
32.507238 -20.352501 -0.954623 38.364777 -0.559384 1.595682 -0.000871 -0.017946 315910.000000 0 0 1
33.662658 -20.908401 -1.860923 39.671134 -0.555801 1.617722 0.003353 -0.030792 -273878.000000 0 0 1
33.656788 -20.400701 -3.198623 39.486696 -0.544921 1.651890 -0.011864 -0.032758 -650586.000000 0 0 1
34.607743 -20.868701 -4.095323 40.619826 -0.542627 1.671789 0.003602 -0.030198 -785164.000000 0 0 1
34.521347 -20.185001 -5.486423 40.364075 -0.529102 1.707142 0.031808 -0.033439 332989.000000 0 0 1
33.281518 -20.344001 -6.181723 39.493690 -0.548665 1.727967 0.017404 -0.042120 453928.000000 0 0 1
33.144938 -19.378701 -7.201523 39.063831 -0.529068 1.756210 0.018352 -0.029230 107284.000000 0 0 1
31.951628 -19.613201 -8.176723 38.372425 -0.550534 1.785531 0.018317 -0.029486 242935.000000 0 0 1
32.047578 -20.736501 -9.053723 39.230341 -0.574301 1.803679 0.021676 -0.033093 -418283.000000 0 0 1
31.087848 -20.674201 -10.046923 38.662871 -0.586865 1.833673 0.014826 -0.034000 -682640.000000 0 0 1
31.028048 -22.076401 -10.775823 39.575569 -0.618401 1.846563 0.012645 -0.018369 -100705.000000 0 0 1
30.711468 -23.045301 -9.819723 39.632148 -0.643745 1.821176 0.008485 -0.025607 -119839.000000 0 0 1
30.736638 -24.390001 -10.340023 40.577447 -0.670774 1.828460 -0.007346 -0.016096 -290807.000000 0 0 1
29.908398 -25.359301 -9.450723 40.335129 -0.703273 1.807300 -0.003247 -0.016384 24159.300000 0 0 1
28.529548 -25.092901 -9.492423 39.162417 -0.721396 1.815621 -0.000096 -0.024925 69057.100000 0 0 1
27.692688 -26.136501 -8.966223 39.120261 -0.756496 1.802048 -0.013739 -0.020067 260531.000000 0 0 1
26.192158 -25.830001 -8.915523 37.851085 -0.778437 1.808573 0.000252 -0.031388 -449997.000000 0 0 1
25.647008 -25.720201 -10.226923 37.734437 -0.786823 1.845253 -0.002371 -0.031629 155593.000000 0 0 1
24.446788 -24.959001 -10.039123 36.350807 -0.795765 1.850607 0.006288 -0.030658 153950.000000 0 0 1
23.766788 -24.664001 -11.406023 36.100838 -0.803922 1.892253 0.025152 -0.034663 -233452.000000 0 0 1
23.211988 -25.865401 -11.877723 36.727315 -0.839411 1.900120 0.023243 -0.031691 235795.000000 0 0 1
22.301288 -25.683501 -12.947523 36.395440 -0.855767 1.934508 0.029678 -0.020236 73844.700000 0 0 1
21.784988 -27.068401 -13.454823 37.260117 -0.893128 1.940249 0.028961 -0.020105 -444594.000000 0 0 1
22.701688 -27.898901 -14.095823 38.631691 -0.887750 1.944297 0.021205 -0.012115 -144327.000000 0 0 1
22.275588 -29.227601 -14.048423 39.342251 -0.919569 1.935939 0.035665 -0.017264 -213586.000000 0 0 1
23.168988 -30.187901 -14.871823 40.856854 -0.916194 1.943353 0.030865 -0.009469 18657.000000 0 0 1
22.872388 -30.072901 -16.260123 41.132920 -0.920568 1.977198 0.024092 -0.002596 160044.000000 0 0 1
23.581588 -31.050201 -16.910423 42.499044 -0.921264 1.980024 0.026483 -0.000547 -704010.000000 0 0 1
23.456388 -30.946001 -18.413223 42.975620 -0.922209 2.013581 0.012904 0.008685 -585630.000000 0 0 1
22.148588 -31.128001 -18.855823 42.603456 -0.952372 2.029280 0.020927 0.014452 -673800.000000 0 0 1
21.985688 -30.986801 -20.254623 43.055802 -0.953711 2.060571 0.014510 0.013698 -352724.000000 0 0 1
20.526088 -31.064001 -20.709323 42.604795 -0.986889 2.078394 0.012521 0.007087 -214006.000000 0 0 1
20.461188 -30.958001 -22.111823 43.197115 -0.986773 2.108170 0.010372 0.003384 656092.000000 0 0 1
19.121888 -30.614901 -22.487323 42.527620 -1.012489 2.127947 0.021215 0.001554 299308.000000 0 0 1
18.894988 -30.571001 -24.048123 43.242559 -1.017197 2.160508 0.012790 0.006038 -531106.000000 0 0 1
19.498188 -29.543601 -24.752723 43.193761 -0.987437 2.181034 0.006517 -0.000341 57009.600000 0 0 1
19.315988 -29.789301 -26.154163 44.097053 -0.995532 2.205706 0.000562 -0.002392 -404936.000000 0 0 1
19.855888 -28.723701 -27.122873 44.214902 -0.965952 2.231196 -0.014284 -0.005524 63623.400000 0 0 1
19.094388 -27.542801 -27.234163 43.184502 -0.964607 2.253183 0.001691 -0.014609 -64084.600000 0 0 1
17.924388 -27.652001 -28.031083 43.262668 -0.995678 2.275657 -0.010649 -0.012895 -379181.000000 0 0 1
17.397388 -26.258701 -28.413613 42.420772 -0.985657 2.304741 -0.013025 -0.013343 -653729.000000 0 0 1
16.724588 -25.662301 -27.314953 41.041104 -0.993214 2.299028 -0.022524 -0.005895 -162902.000000 0 0 1
16.181188 -24.443701 -27.720513 40.345411 -0.986047 2.328258 -0.022722 -0.005803 -963084.000000 0 0 1
15.164488 -23.893401 -26.753433 38.943581 -1.005272 2.328120 -0.015542 -0.013516 -783352.000000 0 0 1
13.986788 -24.676501 -26.937523 39.117644 -1.055142 2.330392 -0.011996 -0.016501 348083.000000 0 0 1
12.894888 -24.224101 -26.087903 37.863754 -1.081631 2.330897 -0.014587 -0.015978 532397.000000 0 0 1
12.911388 -24.638801 -24.597523 37.132366 -1.088113 2.294852 -0.009833 -0.008576 -525420.000000 0 0 1
13.937088 -24.130201 -23.786423 36.637453 -1.047026 2.277378 -0.036263 -0.016708 -242220.000000 0 0 1
13.815588 -24.603401 -22.506623 36.093572 -1.059143 2.244089 -0.018315 -0.016150 539259.000000 0 0 1
14.869588 -23.970901 -21.524123 35.482342 -1.015571 2.222592 -0.022509 -0.017036 426432.000000 0 0 1
14.545788 -22.695701 -21.021623 34.184550 -1.000841 2.233113 -0.025015 -0.016730 12452.100000 0 0 1
15.702688 -22.039501 -20.545323 33.976820 -0.951744 2.220168 -0.015651 -0.008179 -310001.000000 0 0 1
15.415988 -20.713501 -19.813123 32.546300 -0.930986 2.225302 -0.015816 0.012514 121043.000000 0 0 1
14.744788 -20.918701 -18.586123 31.629809 -0.956815 2.198903 -0.005324 -0.009087 466421.000000 0 0 1
13.351688 -20.628501 -18.594723 30.815035 -0.996360 2.218592 -0.026604 -0.006360 80259.100000 0 0 1
12.801088 -20.522901 -17.179923 29.668284 -1.013099 2.188380 -0.008641 -0.008899 -240005.000000 0 0 1
13.197288 -19.286401 -16.547423 28.634785 -0.970699 2.186923 -0.003389 -0.000581 315290.000000 0 0 1
12.850188 -19.200601 -15.177823 27.643385 -0.981001 2.152033 -0.000748 -0.005082 -245257.000000 0 0 1
13.080988 -17.766901 -14.598423 26.455415 -0.936150 2.155332 0.002101 0.000686 -881806.000000 0 0 1
12.101988 -16.882301 -15.069123 25.662203 -0.948854 2.198405 0.013931 -0.003026 120397.000000 0 0 1
12.499588 -15.536501 -14.915723 24.901835 -0.893299 2.213024 0.025819 -0.003940 -215258.000000 0 1 0
11.304588 -14.638101 -14.566923 23.542790 -0.913193 2.237937 0.028137 -0.005620 75871.800000 0 1 0
10.445088 -14.371201 -15.667523 23.687604 -0.942305 2.293511 0.022970 0.008399 369954.000000 0 1 0
9.191388 -13.916501 -15.149123 22.531013 -0.987098 2.308199 0.028441 0.002548 1168090.000000 0 1 0
8.145188 -13.323601 -16.172223 22.481175 -1.022084 2.373687 0.030219 0.002194 515354.000000 0 1 0
8.434988 -12.039201 -16.706423 22.252999 -0.959650 2.419992 0.023655 -0.001565 -422193.000000 0 1 0
9.588788 -12.026501 -17.499823 23.298614 -0.897701 2.420538 0.022787 -0.000791 -260833.000000 0 1 0
9.708388 -10.866701 -18.522723 23.567547 -0.841636 2.475014 0.016731 -0.001726 186484.000000 0 1 0
8.879988 -11.117601 -19.656923 24.266229 -0.896829 2.515038 0.016389 0.001227 319245.000000 0 1 0
8.837688 -9.947201 -20.466723 24.411847 -0.844394 2.565125 -0.002052 0.000989 130815.000000 0 1 0
8.449588 -10.317301 -21.941123 25.675964 -0.884593 2.595460 0.008444 0.008455 520823.000000 0 0 1
9.521488 -11.013301 -22.580523 26.866923 -0.857919 2.568924 0.012094 0.009299 -151169.000000 0 0 1
9.376888 -10.943301 -23.990123 27.985851 -0.862333 2.600649 0.002703 0.015571 304640.000000 0 0 1
10.514188 -11.512201 -24.891423 29.371106 -0.830677 2.582016 0.023220 0.013213 383103.000000 0 0 1
10.421788 -12.890701 -24.787023 29.819127 -0.890910 2.552141 0.018233 0.013907 155958.000000 0 0 1
11.535088 -13.518301 -25.422833 31.018110 -0.864393 2.531531 0.015754 0.004658 297301.000000 0 0 1
11.616888 -15.071401 -25.202173 31.579246 -0.914122 2.494867 0.007321 0.005927 -423341.000000 0 0 1
10.547788 -15.755901 -25.758713 31.984614 -0.980869 2.507057 0.006285 0.000875 -397988.000000 0 0 1
10.758888 -17.111801 -25.281723 32.368703 -1.009511 2.467149 0.000726 0.003723 -195854.000000 0 0 1
9.561488 -17.952501 -25.649953 32.735828 -1.081411 2.471145 0.010156 -0.004683 -428216.000000 0 0 1
9.546988 -18.544801 -26.907913 34.045417 -1.095374 2.482182 0.015218 -0.015582 -238907.000000 0 0 1
8.422088 -19.381601 -27.063453 34.336694 -1.160873 2.478640 0.022783 -0.015705 -261673.000000 0 0 1
8.475288 -20.323201 -28.278903 35.840750 -1.175700 2.480001 0.013153 -0.013638 -549411.000000 0 0 1
9.267288 -21.445001 -27.925953 36.409196 -1.162892 2.444953 0.004076 -0.007568 65876.200000 0 0 1
9.499788 -22.340401 -28.957593 37.787322 -1.168732 2.443907 0.006850 -0.007453 88915.400000 0 0 1
10.386588 -23.559301 -28.569323 38.459434 -1.155561 2.408103 -0.000704 -0.011628 99284.700000 0 0 1
10.342688 -24.522301 -29.635523 39.831880 -1.171668 2.409856 -0.009755 -0.006638 -340627.000000 0 0 1
11.144688 -25.659401 -29.468443 40.632476 -1.161048 2.382184 -0.000587 -0.008625 -685705.000000 0 0 1
10.636488 -26.772301 -28.594753 40.590034 -1.192624 2.352483 0.007090 -0.000972 -604289.000000 0 0 1
10.971088 -26.544101 -27.259863 39.598664 -1.178864 2.330082 0.001655 0.001077 -1041520.000000 0 0 1
10.019288 -26.827201 -26.302483 38.883229 -1.213363 2.313725 0.004033 0.001636 -264216.000000 0 0 1
8.991688 -25.725501 -25.963033 37.639487 -1.234545 2.331984 0.009511 -0.000102 115812.000000 0 0 1
9.585988 -24.626301 -25.329113 36.604779 -1.199584 2.334999 -0.001399 0.001175 -97043.600000 0 0 1
8.574488 -23.703501 -25.008123 35.507521 -1.223702 2.352240 0.001293 -0.000370 63763.900000 0 0 1
9.252688 -22.331401 -24.738823 34.587759 -1.177993 2.367775 -0.004426 0.001646 197658.000000 0 0 1
9.952488 -22.398901 -23.526523 33.974403 -1.152668 2.335714 -0.012520 -0.004009 105584.000000 0 0 1
10.986388 -21.428201 -23.464923 33.622480 -1.097035 2.343249 -0.011813 -0.004763 207639.000000 0 0 1
11.765988 -21.252201 -22.142823 32.869426 -1.065166 2.309947 -0.016671 0.005143 22023.200000 0 0 1
11.065188 -20.529201 -21.125023 31.466698 -1.076440 2.306819 -0.020163 0.005801 -159849.000000 0 0 1
10.848588 -19.177501 -21.282523 30.633547 -1.055984 2.338863 -0.022910 0.011859 -342905.000000 0 0 1
12.054288 -18.226401 -21.222023 30.461153 -0.986474 2.341571 -0.015335 0.010571 302668.000000 0 0 1
12.958388 -18.332301 -22.351523 31.679389 -0.955481 2.354001 -0.015377 0.008788 -28609.100000 0 0 1
13.752288 -17.173201 -22.317023 31.338376 -0.895568 2.363325 -0.009816 0.018038 -374292.000000 0 0 1
14.969388 -17.347301 -23.254223 32.646138 -0.858847 2.363583 -0.022432 0.022362 -1122680.000000 0 0 1
15.986488 -18.110801 -22.733423 33.171938 -0.847619 2.325841 -0.018578 0.026512 -957337.000000 0 0 1
17.142888 -17.608201 -23.368023 33.911530 -0.798787 2.331026 -0.016350 0.023873 -1036020.000000 0 0 1
18.390788 -17.980001 -22.600023 34.238320 -0.774104 2.291721 -0.014688 0.021027 -906146.000000 0 0 1
18.572588 -19.364701 -22.489023 35.009839 -0.806275 2.268374 -0.014734 0.011750 -759564.000000 0 0 1
19.691888 -19.720101 -21.777823 35.368438 -0.786114 2.234123 -0.016022 0.012388 -778475.000000 0 0 1
19.965588 -21.213901 -21.597723 36.264528 -0.815703 2.208760 -0.003781 0.006368 67360.500000 0 0 1
19.050788 -21.834801 -20.701923 35.612648 -0.853386 2.191132 -0.010453 0.009546 347724.000000 0 0 1
19.307088 -23.197001 -20.689223 36.591098 -0.876662 2.171735 0.001940 0.003614 -177636.000000 0 0 1
-15.577515 13.201095 29.479539 35.860440 -0.703009 0.605772 0.000810 -0.009750 -721234.000000 0 0 1
-16.775615 13.819695 29.152379 36.362982 -0.689084 0.640654 0.017034 -0.012051 -634815.000000 0 0 1
-16.838515 13.837895 27.754669 35.289441 -0.687893 0.665697 0.011568 -0.012374 -408991.000000 0 0 1
-18.119715 14.421895 27.176189 35.705188 -0.672250 0.705747 0.025701 -0.007391 -437716.000000 0 0 1
-18.190415 15.789595 27.343119 36.439658 -0.714861 0.722179 0.017052 -0.002553 -84868.400000 0 0 1
-19.210815 16.368895 26.559089 36.638523 -0.705693 0.759914 0.014888 -0.005148 -581543.000000 0 0 1
-19.369915 17.891095 26.606439 37.459145 -0.745731 0.780902 0.018230 0.003260 553688.000000 0 0 1
-18.247215 18.653595 26.107219 36.912117 -0.796410 0.785153 -0.013552 0.014542 689120.000000 0 0 1
-17.151215 18.722995 27.029519 37.085168 -0.829184 0.754156 -0.006933 0.015769 270957.000000 0 0 1
-16.057315 19.634295 26.358619 36.580319 -0.885284 0.766175 -0.000909 0.014066 217939.000000 0 0 1
-16.397715 21.022295 26.224629 37.397235 -0.908360 0.793654 0.005237 0.014997 858133.000000 0 0 1
-15.223015 21.740995 25.781249 37.001134 -0.959937 0.799913 0.015912 0.013838 932397.000000 0 0 1
-15.358315 23.266295 25.782079 37.972542 -0.987347 0.824442 0.017321 0.014384 -206036.000000 0 0 1
-14.960715 23.892295 26.944999 38.996125 -1.011354 0.807972 0.021453 0.017490 -42245.300000 0 0 1
-15.214215 25.273795 26.770739 39.836033 -1.028925 0.833859 0.018785 0.017746 -299455.000000 0 0 1
-14.654315 26.089995 27.964179 40.956466 -1.059027 0.819238 0.005015 0.018417 -261776.000000 0 0 1
-13.258615 26.140295 27.893499 40.461750 -1.101397 0.810164 0.002905 0.016593 -610726.000000 0 0 1
-12.723715 27.221595 28.697879 41.550890 -1.133557 0.808384 0.021194 0.019456 337017.000000 0 0 1
-11.184015 27.244295 28.782369 41.179590 -1.181264 0.796872 0.030417 0.013530 101161.000000 0 0 1
-10.591215 27.724395 27.591219 40.522726 -1.205887 0.821829 0.037543 0.012074 -11477.700000 0 0 1
-9.185315 27.778495 27.681529 40.277561 -1.251451 0.813073 0.017662 0.013046 33374.300000 0 0 1
-8.395615 28.431395 26.523599 39.778536 -1.283663 0.840914 0.040488 -0.001781 89842.800000 0 0 1
-6.993715 28.245995 26.606689 39.429231 -1.328078 0.830108 0.018131 0.001046 331627.000000 0 0 1
-6.419615 28.802195 25.405159 38.938413 -1.351495 0.859991 0.037241 -0.001725 -206444.000000 0 0 1
-4.910415 28.550795 25.316499 38.473175 -1.400474 0.852597 0.001394 -0.000450 -916116.000000 0 0 1
-4.166815 29.170595 26.364739 39.539669 -1.428913 0.840900 0.002539 0.001104 -98357.500000 0 0 1
-2.777615 29.043295 26.189529 39.206117 -1.475449 0.839284 -0.016179 0.009906 65729.400000 0 0 1
-2.141315 30.069395 25.218849 39.303233 -1.499704 0.874151 -0.021608 0.010891 -936082.000000 0 0 1
-2.528015 29.753495 23.912619 38.255388 -1.486035 0.895564 -0.016579 0.011576 -167261.000000 0 0 1
-2.171115 30.744295 22.968519 38.437980 -1.500295 0.930357 -0.017365 0.008038 -343870.000000 0 0 1
-2.562015 30.462295 21.484019 37.364133 -1.486889 0.958204 -0.009392 0.008453 862098.000000 0 0 1
-3.953315 30.279295 21.193719 37.170394 -1.440969 0.964075 -0.006520 0.011618 370929.000000 0 0 1
-4.537815 29.041295 21.505219 36.420641 -1.415796 0.939158 -0.003865 0.009939 839225.000000 0 0 1
-6.084815 29.063695 21.177719 36.472170 -1.364416 0.951264 0.014047 0.012289 726275.000000 0 0 1
-6.326315 29.089995 19.758519 35.730228 -1.356657 0.984846 0.009725 0.012744 104355.000000 0 0 1
-7.286815 28.196295 19.222119 34.894392 -1.317898 0.987395 -0.000127 0.015964 -797945.000000 0 0 1
-6.858415 26.708695 18.863319 33.409835 -1.319441 0.970843 -0.010675 0.017067 -176641.000000 0 0 1
-5.930515 26.594295 17.817119 32.555757 -1.351387 0.991685 -0.007680 0.015436 -60111.200000 0 0 1
-4.602315 26.623595 18.291219 32.627685 -1.399622 0.975681 -0.000544 0.016458 -213345.000000 0 0 1
-3.498515 26.994695 17.258219 32.230410 -1.441915 1.005739 0.005997 0.016973 198683.000000 0 0 1
-3.128815 25.995495 16.334419 30.860469 -1.451013 1.013022 0.006573 0.007567 -859559.000000 0 0 1
-2.445715 26.539295 15.341719 30.751977 -1.478901 1.048484 0.010351 0.003506 -714352.000000 0 0 1
-1.818115 25.367495 14.517819 29.284509 -1.499248 1.052097 0.005881 -0.003640 111176.000000 0 0 1
-0.835515 24.615795 15.231719 28.959295 -1.536867 1.016941 -0.000479 -0.001135 -71844.200000 0 0 1
-0.353615 23.568495 14.473119 27.659902 -1.555794 1.020133 -0.002895 -0.008754 -265543.000000 0 0 1
1.007785 23.079495 15.030319 27.560646 1.527158 0.993984 -0.013710 -0.003360 -165093.000000 0 0 1
1.980985 24.106295 14.977719 28.449426 1.488803 1.016355 -0.009288 -0.001722 -252818.000000 0 0 1
3.164085 23.494995 15.480319 28.313716 1.436931 0.992327 -0.001842 0.005423 -428996.000000 0 0 1
4.334285 24.490095 15.452219 29.280059 1.395629 1.014860 0.006208 0.003646 128331.000000 0 0 1
5.544885 23.723895 15.520019 28.886674 1.341192 1.003596 0.007405 0.004836 559515.000000 0 0 1
6.676885 24.586695 15.614519 29.881426 1.305626 1.020958 0.008611 0.004673 -315324.000000 0 0 1
8.042885 23.916795 15.641919 29.687889 1.246391 1.015872 0.002155 0.015756 -533921.000000 0 0 1
8.465685 23.268195 14.436819 28.661795 1.221854 1.042925 0.008921 0.006982 -116074.000000 0 0 1
9.297185 24.111895 13.699819 29.249037 1.202778 1.083334 0.004113 0.003579 -745519.000000 0 0 1
10.005385 23.387695 12.531319 28.357115 1.166552 1.113069 0.013055 -0.000629 -21309.400000 0 0 1
10.957285 22.403295 12.902419 28.079212 1.115913 1.093363 0.020958 0.004946 36417.600000 0 0 1
11.547885 21.992795 11.656119 27.439056 1.087290 1.132055 0.046994 0.004127 63487.900000 0 0 1
12.573985 20.899695 11.954419 27.162667 1.029176 1.115081 0.009846 0.008560 -329309.000000 0 0 1
11.912985 19.724295 12.350319 26.143784 1.027459 1.078785 0.013907 0.011988 -361004.000000 0 0 1
12.736785 18.676395 12.702119 25.930238 0.972272 1.058870 0.035772 0.005041 -423704.000000 0 0 1
13.446185 18.781995 14.085919 27.055062 0.949473 1.023197 0.017908 0.009792 -297915.000000 0 0 1
14.408785 17.810395 14.323219 27.018103 0.890586 1.012038 0.029178 0.009179 -145352.000000 0 0 1
14.972885 17.821295 15.627119 28.035561 0.872038 0.979541 0.020707 0.002382 151632.000000 0 0 1
16.221485 16.898795 15.711819 28.205799 0.805845 0.979976 0.011706 -0.004184 -5308.610000 0 0 1
16.599685 16.834995 17.080219 29.166770 0.792436 0.945170 0.017261 -0.015166 -377571.000000 0 0 1
17.502085 15.791595 17.285819 29.231781 0.734067 0.938081 0.015082 -0.013576 -209038.000000 0 0 1
17.994485 15.735695 18.749619 30.380287 0.718532 0.905663 0.016697 -0.014022 386310.000000 0 0 1
18.842985 16.750095 19.328519 31.768151 0.726665 0.916723 0.010639 -0.007230 634284.000000 0 0 1
18.045885 17.721695 19.929619 32.200965 0.776335 0.903437 0.000272 -0.004021 -171996.000000 0 0 1
18.811585 18.902095 20.522219 33.650058 0.787798 0.914898 -0.014424 0.005514 -466415.000000 0 0 1
17.878985 19.747395 21.161619 34.021050 0.835014 0.899482 -0.006628 -0.000461 249150.000000 0 0 1
18.478985 20.977095 21.578719 35.315047 0.848627 0.913429 -0.010387 0.015796 203246.000000 0 0 1
17.558085 22.002095 22.344519 35.939617 0.897265 0.899855 -0.005824 0.007594 256888.000000 0 0 1
16.906185 21.535695 23.526919 36.098770 0.905250 0.860923 -0.008507 -0.001190 -110467.000000 0 0 1
16.086585 22.531895 24.042719 36.667654 0.950771 0.855696 -0.012888 0.001069 -373546.000000 0 0 1
15.496885 22.013195 25.351079 36.978527 0.957403 0.815421 0.002105 0.000890 -695818.000000 0 0 1
14.401985 21.189395 25.154399 35.904755 0.973839 0.794577 0.006609 0.000287 -282674.000000 0 0 1
13.521385 21.140895 26.302379 36.353548 1.001778 0.761914 0.014717 0.007147 833772.000000 0 0 1
12.371085 20.079595 26.214129 35.262083 1.018621 0.732644 0.021872 0.010913 286797.000000 0 0 1
12.752785 18.715195 26.283399 34.694512 0.972654 0.711219 0.014326 0.009592 -136086.000000 0 0 1
13.479185 18.190995 25.179239 33.861406 0.933092 0.732362 0.014706 0.004928 -343516.000000 0 0 1
12.735585 17.969095 23.857419 32.469370 0.954222 0.745473 0.022183 0.006483 -733397.000000 0 0 1
12.519285 19.092195 23.042119 32.437381 0.990405 0.780791 0.019252 0.008062 529953.000000 0 0 1
13.695385 19.566795 22.349219 32.709489 0.960117 0.818573 0.010248 0.004405 743788.000000 0 0 1
14.377585 18.566395 21.387719 31.762565 0.911869 0.832049 0.005139 0.003135 -645084.000000 0 0 1
13.564985 18.130295 20.313819 30.419857 0.928452 0.839572 0.025845 -0.006706 39155.100000 0 0 1
14.146385 17.025895 19.629619 29.585863 0.877511 0.845336 0.022250 -0.008250 -194407.000000 0 0 1
13.159585 16.217595 18.776119 28.084297 0.889119 0.838522 0.020946 -0.005317 30292.800000 0 0 1
12.552385 16.851595 17.685419 27.464754 0.930581 0.871170 0.023786 0.002818 752242.000000 0 0 1
11.339485 16.213495 17.226619 26.233905 0.960483 0.854422 0.015449 0.000304 976966.000000 0 0 1
10.785285 16.819795 15.908919 25.540587 1.000614 0.898368 0.017430 0.007816 -47340.400000 0 0 1
10.232085 18.099195 15.983619 26.225036 1.056257 0.915393 0.013318 0.005724 310738.000000 0 0 1
9.628585 18.499895 14.724119 25.529502 1.090910 0.956053 0.002757 0.017140 -374697.000000 0 0 1
8.748385 19.761395 14.765619 26.173851 1.154029 0.971410 0.005777 0.016531 -286021.000000 0 0 1
7.434685 19.392295 15.088819 25.671154 1.204696 0.942493 -0.013409 0.011123 -827822.000000 0 0 1
6.589985 20.504295 15.070919 26.286625 1.259828 0.960231 -0.004662 0.009870 -571384.000000 0 0 1
5.220485 20.200295 15.653319 26.083171 1.317894 0.927131 0.004209 0.003456 -539492.000000 0 0 1
4.360285 19.407095 14.839719 24.816622 1.349791 0.929824 0.008433 -0.002865 -75944.100000 0 1 0
3.190385 19.249795 15.638519 25.005929 1.406553 0.895162 -0.001428 -0.000329 258568.000000 0 0 1
1.916885 18.873695 14.858719 24.097144 1.469580 0.906358 -0.000737 -0.002006 -360198.000000 0 1 0
1.366785 19.822195 14.038819 24.328501 1.501953 0.955681 0.001452 -0.010484 -525819.000000 0 1 0
0.511485 19.167395 13.156319 23.253804 1.544118 0.969429 0.002855 -0.015337 -297062.000000 0 1 0
-0.393315 20.067495 12.279119 23.529467 -1.551199 1.021765 0.002636 -0.016936 -37116.000000 0 1 0
-1.318215 20.828395 13.042119 24.610092 -1.507591 1.012255 0.006040 -0.010479 -283171.000000 0 1 0
-2.373515 21.057495 12.144319 24.424090 -1.458554 1.050396 0.005830 -0.014786 -1090770.000000 0 1 0
-3.626015 21.669995 12.663519 25.359444 -1.405003 1.047935 0.007448 -0.019549 -1143270.000000 0 0 1
-4.341315 20.938395 13.584819 25.333984 -1.366356 1.004833 0.011229 -0.017800 -236212.000000 0 0 1
-5.506615 21.695495 13.886819 26.341243 -1.322231 1.015507 0.002366 -0.008713 -169694.000000 0 0 1
-6.309915 21.124495 15.057319 26.697981 -1.280531 0.971590 0.001283 -0.009320 -530513.000000 0 0 1
-7.042615 19.912695 14.762619 25.769144 -1.230852 0.960781 -0.000113 -0.007706 549447.000000 0 0 1
-7.701115 19.384895 15.942219 26.253299 -1.192642 0.918206 -0.004104 0.010254 937606.000000 0 0 1
-8.896315 20.146895 16.609719 27.584862 -1.154973 0.924628 -0.011131 0.017195 967511.000000 0 0 1
-10.147215 20.263195 15.899619 27.683225 -1.106532 0.958997 -0.010367 -0.001423 49516.300000 0 0 1
-11.220715 20.120595 16.757919 28.488079 -1.062081 0.941912 -0.009768 0.012674 -568132.000000 0 0 1
-12.515615 19.936895 15.927819 28.422101 -1.010214 0.975925 -0.003665 -0.002164 -395562.000000 0 0 1
-12.867315 21.093895 15.269919 29.046354 -1.023055 1.017248 -0.010689 -0.001513 -274761.000000 0 0 1
-13.725315 20.925195 14.177719 28.762055 -0.990269 1.055341 -0.011360 -0.006528 -524832.000000 0 0 1
-14.608115 22.136295 13.906319 29.946591 -0.987481 1.087872 -0.011991 0.002167 -115824.000000 0 0 1
-15.770715 22.154495 14.728019 30.926553 -0.952160 1.074439 -0.014006 -0.000225 -8164.530000 0 0 1
-16.603315 23.256195 14.525119 32.054638 -0.950782 1.100516 -0.001590 0.009936 -400925.000000 0 0 1
-17.830715 23.267895 15.431719 33.128044 -0.916930 1.086235 0.032051 0.006580 -318558.000000 0 0 1
-18.764415 22.236495 15.047119 32.756386 -0.869880 1.093517 0.014243 -0.001658 779127.000000 0 0 1
-19.940915 22.088595 15.846019 33.714129 -0.836453 1.081493 0.017257 0.008534 1258880.000000 0 0 1
-21.004315 23.268595 15.809519 35.107687 -0.836497 1.103678 0.027106 -0.000630 -517120.000000 0 0 1
-21.784415 23.200895 14.666519 35.042104 -0.816875 1.138959 0.024646 0.012286 -274212.000000 0 0 1
-22.719215 24.245595 14.568819 36.280327 -0.817887 1.157574 0.031006 0.003564 -167554.000000 0 0 1
-22.245415 25.507895 13.865519 36.575454 -0.853612 1.181980 0.017453 0.001325 164143.000000 0 0 1
-21.163115 26.186395 14.510419 36.662747 -0.891092 1.163878 0.016109 0.001016 434148.000000 0 0 1
-20.598615 27.191595 13.708219 36.764128 -0.922490 1.188697 0.005697 -0.001923 -35328.600000 0 0 1
-19.096515 27.423795 13.966619 36.218889 -0.962525 1.174920 0.014860 -0.007702 220195.000000 0 0 1
-18.149215 26.531195 13.368319 34.813938 -0.970841 1.176679 0.009075 -0.003185 197951.000000 0 0 1
-16.839115 26.963795 13.651919 34.597355 -1.012551 1.165170 -0.001954 -0.001113 -210230.000000 0 0 1
-15.777615 26.338495 12.739219 33.240596 -1.031089 1.177492 -0.006218 -0.002046 -701996.000000 0 0 1
-14.498815 26.842895 12.949719 33.142901 -1.075558 1.169379 -0.012608 -0.000637 -717484.000000 0 0 1
-13.569615 26.093395 12.236919 31.855014 -1.091245 1.176516 -0.016000 0.001766 -401450.000000 0 0 1
-12.128015 26.599995 12.218719 31.685101 -1.143013 1.174906 -0.014434 -0.000404 -635747.000000 0 0 1
-11.177815 25.943395 11.410019 30.466241 -1.163978 1.186924 -0.012201 -0.006231 510774.000000 0 0 1
-9.865415 26.451795 11.621419 30.530006 -1.213817 1.180291 0.001220 -0.004068 295301.000000 0 0 1
-9.456015 27.721595 10.859319 31.238244 -1.242066 1.215755 -0.001522 -0.007796 -601945.000000 0 0 1
-8.452415 28.478795 11.507319 31.857550 -1.282281 1.201229 0.020188 -0.013005 -51370.500000 0 0 1
-7.864715 29.327095 10.571219 32.150940 -1.308789 1.235764 0.022706 -0.011139 -766623.000000 0 0 1
-6.600015 29.983695 11.125819 32.655261 -1.354131 1.223129 0.025518 -0.007952 -453216.000000 0 0 1
-5.536215 29.090595 11.285919 31.690446 -1.382736 1.206673 0.022818 -0.015798 -516397.000000 0 0 1
-4.455115 29.629295 12.020919 32.283830 -1.421553 1.189255 0.016790 -0.015437 392261.000000 0 0 1
-3.113015 29.320195 11.291419 31.573104 -1.465020 1.205070 0.011151 -0.014183 34536.700000 0 0 1
-3.004215 30.078395 10.091319 31.868007 -1.471247 1.248590 0.022865 -0.020877 982359.000000 0 0 1
-1.734915 29.816995 9.449119 31.326490 -1.512676 1.264391 0.007008 -0.014350 947777.000000 0 0 1
-1.465815 30.621195 8.188919 31.731130 -1.522964 1.309770 -0.001885 -0.010238 166645.000000 0 0 1
-2.390215 30.328895 7.128119 31.246842 -1.492149 1.340647 0.014493 -0.013305 469939.000000 0 0 1
-2.277215 31.164895 5.978319 31.814725 -1.497856 1.381762 0.010866 -0.009153 -53928.200000 0 0 1
9.968185 -34.573801 -26.795853 44.863461 -1.290093 2.210896 0.010547 -0.001890 -54713.200000 0 0 1
10.682385 -34.708501 -25.599953 44.431419 -1.272222 2.184829 -0.004822 -0.002826 -574769.000000 0 0 1
11.856985 -33.987101 -25.630573 44.188657 -1.235131 2.189557 -0.005171 -0.004250 -620729.000000 0 0 1
12.592285 -33.950701 -24.270923 43.592355 -1.215626 2.161289 -0.000736 0.005888 -786140.000000 0 0 1
12.196085 -32.801301 -23.531123 42.170885 -1.214819 2.162763 0.000331 0.011783 374598.000000 0 0 1
12.793785 -32.648401 -22.222323 41.514222 -1.197322 2.135652 0.010618 0.010855 231765.000000 0 0 1
14.332985 -32.450401 -22.247923 41.874014 -1.154875 2.130938 0.011409 0.012670 -79293.200000 0 0 1
15.077885 -33.622801 -22.511323 43.180957 -1.149239 2.119200 0.016635 0.009143 877194.000000 0 0 1
16.492585 -33.347401 -22.404223 43.428144 -1.111503 2.112845 0.015262 0.006393 900942.000000 0 0 1
17.348785 -34.639601 -22.264923 44.683432 -1.106480 2.092412 0.022346 0.014154 80922.800000 0 0 1
18.720485 -34.300401 -22.129423 44.907521 -1.071199 2.086075 0.020467 0.019253 742863.000000 0 0 1
19.605685 34.093195 -22.083023 45.104199 1.048916 2.082427 0.025817 0.021256 1008720.000000 0 0 1
21.106385 34.426395 -21.754823 45.868600 1.020809 2.064949 0.024414 0.021077 606930.000000 0 0 1
21.792785 -34.548801 -22.860523 46.809707 -1.008049 2.081019 0.021297 0.014322 -477696.000000 0 0 1
23.160385 -34.728001 -22.618523 47.476679 -0.982627 2.067367 0.022823 0.016958 -489780.000000 0 0 1
24.115285 -34.070801 -23.611323 47.956866 -0.954855 2.085578 0.025050 0.000587 -139565.000000 0 0 1
24.165585 -32.657401 -23.668523 47.017872 -0.933744 2.098319 0.019287 0.000303 35900.800000 0 0 1
23.035685 -32.142801 -24.364123 46.447959 -0.948972 2.122979 0.015824 -0.003479 335712.000000 0 0 1
22.783285 -30.625701 -24.227723 45.210554 -0.931193 2.136354 0.007041 -0.006117 -343078.000000 0 0 1
23.695785 -29.859701 -24.967223 45.568127 -0.899988 2.150660 0.019151 -0.008906 -209748.000000 0 0 1
23.468085 -28.472601 -24.679423 44.390471 -0.881452 2.160316 0.011038 -0.006611 550103.000000 0 0 1
24.069785 -27.545101 -25.766393 44.743649 -0.852628 2.184461 0.005253 -0.003681 -60715.200000 0 0 1
23.123585 -27.420901 -26.783373 44.765557 -0.870215 2.212178 -0.000449 -0.008515 -536846.000000 0 0 1
23.712685 -26.694901 -27.865093 45.292081 -0.844491 2.233475 -0.006345 -0.002241 -317751.000000 0 0 1
22.783285 -26.140501 -28.947223 45.170185 -0.853912 2.266399 -0.009843 -0.003735 63048.400000 0 0 1
22.144885 -24.906101 -28.637373 43.940971 -0.844017 2.280651 0.006354 -0.004130 -861692.000000 0 0 1
20.861985 -25.098001 -28.133233 43.088408 -0.877306 2.282228 -0.011143 -0.008168 -784677.000000 0 0 1
20.096285 -23.768301 -27.779023 41.718904 -0.868916 2.299445 -0.013111 -0.010773 18249.900000 0 0 1
19.859685 -23.008501 -29.002263 42.011064 -0.858720 2.332767 0.002686 -0.009452 40340.100000 0 0 1
19.274385 -21.746601 -28.798593 40.911802 -0.845592 2.351696 -0.002970 0.004334 -533744.000000 0 0 1
18.347785 -21.361901 -29.948623 41.108297 -0.861157 2.386970 0.010557 -0.006317 302411.000000 0 0 1
17.141585 -22.143001 -29.900813 40.965901 -0.912029 2.388965 -0.010205 -0.013616 -80877.100000 0 0 1
16.168285 -21.577601 -30.704693 40.862996 -0.927738 2.420986 -0.016296 -0.012035 -1198000.000000 0 0 1
14.951685 -22.477701 -30.714723 40.892470 -0.983825 2.420537 -0.022929 -0.015115 -1028660.000000 0 0 1
15.095085 -23.688201 -31.433983 42.155518 -1.003443 2.412332 -0.031292 -0.003525 -308881.000000 0 0 1
14.203385 -24.597301 -30.920433 41.986147 -1.047133 2.398595 -0.028043 -0.004555 -892733.000000 0 0 1
14.608085 -26.038901 -31.254113 43.223143 -1.059539 2.379058 -0.017016 0.004021 285081.000000 0 0 1
13.777485 -27.061801 -30.670113 43.160352 -1.099886 2.361159 -0.017814 0.002513 247065.000000 0 0 1
14.309685 -28.315501 -30.974423 44.339030 -1.102865 2.344209 -0.007116 -0.000578 18977.800000 0 0 1
13.725585 -29.434701 -30.122433 44.296211 -1.134465 2.318590 -0.007960 -0.005647 -567552.000000 0 0 1
14.108185 -29.409401 -28.767013 43.491318 -1.123507 2.293537 -0.007286 -0.011364 52308.400000 0 0 1
13.745385 -28.289301 -27.946643 42.074161 -1.118503 2.297251 -0.020110 -0.008446 -647352.000000 0 0 1
14.698385 -28.102901 -26.756413 41.493628 -1.088903 2.271600 -0.026798 -0.005646 -648231.000000 0 0 1
14.603885 -29.162101 -25.795283 41.582427 -1.106523 2.239974 -0.019769 -0.016009 -163814.000000 0 0 1
15.413285 -29.004301 -24.658523 41.071421 -1.082335 2.214774 0.000572 -0.012012 -776345.000000 0 0 1
14.837785 -28.013501 -23.597623 39.519159 -1.083699 2.210700 -0.005851 -0.005194 1030090.000000 0 0 1
13.609385 -28.380901 -22.969523 38.965239 -1.123662 2.201221 -0.002038 -0.004279 771352.000000 0 0 1
12.402985 -28.485401 -23.737823 39.099058 -1.160137 2.223228 0.000968 -0.002359 -1027820.000000 0 0 1
11.266985 -28.362201 -22.785423 38.085888 -1.192660 2.212129 0.000495 -0.000534 -1143020.000000 0 0 1
11.060785 -27.007801 -22.375123 36.775106 -1.182093 2.224879 -0.007987 -0.001705 277585.000000 0 0 1
9.788985 -26.749201 -21.800523 35.869301 -1.219980 2.224054 0.003497 -0.003956 -262464.000000 0 0 1
9.538885 -25.261501 -21.460723 34.491976 -1.209743 2.242339 -0.008696 -0.005377 -142307.000000 0 0 1
10.024685 -24.765701 -20.240223 33.518665 -1.186175 2.219118 -0.009815 -0.009171 18630.500000 0 0 1
9.780185 -23.389001 -20.140523 32.378049 -1.174739 2.242145 -0.011533 -0.005673 -684607.000000 0 0 1
10.112685 -22.778801 -18.750923 31.188736 -1.152984 2.215808 -0.023282 -0.010543 -101282.000000 0 0 1
9.171385 -23.065901 -17.735623 30.507416 -1.192346 2.191189 -0.012245 -0.014279 96556.300000 0 0 1
9.507785 -22.452801 -16.510723 29.447075 -1.170234 2.166017 -0.007958 -0.014541 -178737.000000 0 0 1
8.928885 -23.005201 -15.176423 28.970469 -1.200569 2.122171 0.004402 -0.011787 -83734.300000 0 0 1
9.357685 -24.260101 -14.773523 29.906116 -1.202658 2.087477 0.003251 -0.007968 101838.000000 0 0 1
8.605985 -24.788401 -13.684623 29.593863 -1.236638 2.051512 0.008525 -0.003127 -59679.300000 0 0 1
8.903485 -26.336301 -13.495223 30.902975 -1.244790 2.022720 0.009209 -0.000649 852955.000000 0 0 1
10.245485 -26.712001 -13.138523 31.482086 -1.204548 2.001305 0.007259 -0.005633 726530.000000 0 0 1
10.579885 -28.075801 -13.399423 32.859232 -1.210420 1.990821 0.011086 -0.006496 -1172030.000000 0 0 1
11.963685 -28.536401 -12.870923 33.512932 -1.173812 1.964984 0.000483 -0.011002 87233.200000 0 0 1
13.075285 -27.967201 -13.572323 33.724403 -1.133467 1.984986 0.001228 -0.006007 221093.000000 0 0 1
13.112785 -28.134601 -15.003323 34.476087 -1.134657 2.021035 0.015182 -0.014713 -1082190.000000 0 0 1
14.464685 -27.748201 -15.685723 35.003309 -1.090267 2.035459 0.019139 -0.013322 601138.000000 0 0 1
15.507585 -28.648001 -15.360123 36.015643 -1.074646 2.011399 0.026850 -0.009620 476097.000000 0 0 1
16.776985 -28.224501 -15.856223 36.462439 -1.034496 2.020684 0.031308 -0.011578 577416.000000 0 0 1
18.001385 -29.082101 -15.559623 37.575528 -1.016534 1.997738 0.034308 -0.016174 -30842.900000 0 0 1
18.131985 -30.254501 -16.294123 38.853599 -1.030880 2.003550 0.043301 -0.011045 445801.000000 0 0 1
19.424185 -30.862801 -16.151723 39.883450 -1.009059 1.987746 0.045898 -0.005532 695142.000000 0 0 1
19.729685 -32.053301 -17.121823 41.350107 -1.019038 1.997717 0.029811 -0.003107 67378.500000 0 0 1
19.006785 -33.262801 -16.909623 41.876093 -1.051662 1.986465 0.039521 -0.002328 367724.000000 0 0 1
19.542185 -34.203801 -17.869723 43.256491 -1.051713 1.996664 0.031373 0.003605 344950.000000 0 0 1
19.206985 33.899195 -17.486423 42.706425 1.055304 1.992655 0.031319 0.006807 -197389.000000 0 0 1
20.098385 33.279695 -16.578223 42.264887 1.027497 1.973868 0.032717 -0.002650 133594.000000 0 0 1
19.648385 32.036195 -16.194223 40.922240 1.020641 1.977661 0.024948 -0.002440 -476633.000000 0 0 1
20.563785 31.533395 -15.069423 40.550114 0.992927 1.951555 0.025463 -0.005050 469896.000000 0 0 1
21.840285 31.109395 -15.565023 41.073866 0.958697 1.959460 0.031042 -0.004625 1169690.000000 0 0 1
22.891285 30.770795 -14.645623 41.052978 0.931192 1.935582 0.037856 -0.014812 760717.000000 0 0 1
22.618685 29.593395 -13.710223 39.690605 0.918196 1.923491 0.036284 -0.003811 -896116.000000 0 0 1
22.423485 28.420995 -14.478123 38.989507 0.902814 1.951241 0.044162 0.002196 304759.000000 0 0 1
22.184385 27.282395 -13.619223 37.708875 0.888095 1.940316 0.008657 0.011430 -479760.000000 0 0 1
20.717585 27.024095 -13.300523 36.557133 0.916734 1.943171 0.011499 0.009624 -1220930.000000 0 0 1
19.936785 26.593295 -14.367623 36.209216 0.927492 1.978819 0.011768 0.005539 149862.000000 0 0 1
18.549485 26.875095 -14.235523 35.623086 0.966670 1.981893 0.017306 0.001207 258744.000000 0 0 1
17.983185 28.313395 -14.317623 36.469681 1.004933 1.974242 0.004565 -0.001372 -654606.000000 0 0 1
18.081085 28.945895 -15.616623 37.532245 1.012448 1.999933 0.007201 -0.000146 684949.000000 0 0 1
17.232485 28.479695 -16.737623 37.258551 1.026650 2.036699 -0.010254 0.014010 556982.000000 0 0 1
17.421685 29.328595 -17.955723 38.549833 1.034788 2.055312 -0.009213 0.019886 -156525.000000 0 0 1
16.685585 30.513295 -17.849523 39.090605 1.070390 2.044988 -0.003713 0.011001 26356.600000 0 0 1
16.992485 31.356895 -18.958523 40.390903 1.074189 2.059380 -0.007014 0.022604 266688.000000 0 0 1
15.869085 32.419495 -19.240723 40.903019 1.115590 2.060539 -0.003959 0.021199 440148.000000 0 0 1
15.889285 33.522695 -18.383223 41.402697 1.128176 2.030866 0.009814 0.000192 167618.000000 0 0 1
14.974385 34.518195 -18.832923 42.076323 1.161486 2.034864 0.008346 0.005349 -1644.810000 0 0 1
15.078885 -33.631101 -18.173023 41.093582 -1.149306 2.028885 0.015949 0.009144 548277.000000 0 0 1
14.076985 -32.679501 -18.592623 40.147191 -1.164058 2.052299 0.017544 0.008273 418992.000000 0 0 1
13.817185 -31.759201 -17.523023 38.815175 -1.160435 2.039183 0.012217 0.003344 284296.000000 0 0 1
12.677385 -30.775901 -17.898123 37.791732 -1.180052 2.064169 0.002847 -0.000490 1051010.000000 0 0 1
11.348285 -31.329801 -17.974723 37.860674 -1.223277 2.065487 0.005610 0.004173 -106079.000000 0 0 1
10.441885 -30.295801 -18.004123 36.756183 -1.238883 2.082686 -0.007707 0.007573 620712.000000 0 0 1
9.007285 -30.915101 -18.318923 37.046695 -1.287289 2.088035 0.001432 0.005549 56893.600000 0 0 1
8.411085 -31.719601 -17.299423 37.096489 -1.311592 2.055940 0.004589 0.000318 206807.000000 0 0 1
7.314285 -32.550101 -17.643823 37.740063 -1.349759 2.057267 0.008877 0.001197 811163.000000 0 0 1
6.029185 -31.883001 -18.254023 37.230178 -1.383900 2.083232 0.008789 0.010375 -420797.000000 0 0 1
6.164385 -31.486401 -19.622923 37.609204 -1.377462 2.119707 0.003481 0.013390 -63923.000000 0 0 1
6.172685 -32.518301 -20.553623 38.961434 -1.383206 2.126496 0.001572 0.005026 -1242410.000000 0 0 1
6.545785 -32.009101 -21.932523 39.350545 -1.369080 2.162002 0.003602 0.017883 -165150.000000 0 0 1
7.913385 -31.714001 -22.114923 39.464786 -1.326266 2.165630 0.008359 0.016177 346619.000000 0 0 1
8.948285 -32.666201 -21.992023 40.383184 -1.303424 2.146689 0.006870 0.008047 -471298.000000 0 0 1
8.849285 -33.901801 -22.933223 41.875705 -1.315467 2.150349 0.006362 0.008009 -212726.000000 0 0 1
7.698385 -34.707901 -22.614923 42.134763 -1.352525 2.137351 -0.002722 0.002671 537511.000000 0 0 1
7.678685 33.609595 -23.310723 41.616786 1.346184 2.165337 -0.006786 -0.007069 -95957.400000 0 0 1
6.399785 32.834995 -22.879023 40.528309 1.378302 2.170647 -0.000956 -0.009088 443706.000000 0 0 1
5.183085 33.382095 -23.343823 41.062912 1.416761 2.175465 -0.001230 -0.006462 -134365.000000 0 0 1
4.556285 34.241695 -22.444523 41.194782 1.438511 2.146993 -0.007157 -0.002622 549566.000000 0 0 1
3.211185 -34.622101 -23.007023 41.693221 -1.478311 2.155338 -0.004063 0.002982 1829810.000000 0 0 1
2.004585 34.121495 -22.840023 41.109141 1.512115 2.159874 -0.008431 -0.005967 1161310.000000 0 0 1
0.891685 -34.570401 -23.243223 41.667195 -1.545009 2.162566 -0.006517 -0.002603 -551238.000000 0 0 1
-0.468615 34.461795 -22.869923 41.362644 -1.557199 2.156652 -0.010395 -0.008417 -1108940.000000 0 0 1
-0.670715 34.604995 -21.499023 40.745105 -1.551417 2.126624 -0.015235 -0.006071 -548278.000000 0 0 1
-1.899215 34.097295 -21.072723 40.128447 -1.515154 2.123666 -0.011991 -0.010708 -169102.000000 0 0 1
-2.215115 34.303795 -19.583523 39.562248 -1.506312 2.088637 -0.016589 -0.012213 103239.000000 0 0 1
-1.237015 33.690895 -18.781423 38.592078 -1.534096 2.079065 -0.031539 -0.010982 -71896.200000 0 0 1
-1.574515 33.761695 -17.413723 38.020638 -1.524194 2.046548 -0.034513 -0.009967 -100183.000000 0 0 1
-0.953315 32.676395 -16.517123 36.626097 -1.541630 2.038644 -0.036824 -0.004622 37228.000000 0 0 1
0.394585 32.935795 -16.193723 36.703664 1.558816 2.027734 -0.027479 -0.011917 -293335.000000 0 0 1
0.723185 31.915295 -15.287023 35.394945 1.548141 2.017393 -0.016983 -0.002863 129870.000000 0 0 1
1.728085 32.190595 -14.156223 35.208228 1.517165 1.984574 -0.004100 -0.012913 390939.000000 0 0 1
2.971785 32.775195 -14.555923 35.984994 1.480372 1.987228 0.000876 -0.015706 195120.000000 0 0 1
3.795985 33.119195 -13.513123 35.970753 1.456678 1.955916 0.008193 -0.017397 -529906.000000 0 0 1
5.211185 33.599495 -13.848923 36.713420 1.416925 1.957586 0.015241 -0.017166 -310109.000000 0 0 1
6.052685 32.602795 -14.301323 36.112395 1.387237 1.977978 0.018804 -0.013561 -719580.000000 0 0 1
7.046985 33.034895 -15.193323 37.037837 1.360627 1.993482 0.013335 -0.006540 -425354.000000 0 0 1
8.046685 31.933895 -15.483423 36.390372 1.323956 2.010290 0.008006 -0.000937 -50342.600000 0 0 1
8.777085 31.514295 -14.315623 35.708894 1.299169 1.983293 0.013214 -0.009264 392903.000000 0 0 1
9.698985 30.411195 -14.474823 35.048989 1.262066 1.996529 0.022185 -0.008962 330739.000000 0 0 1
9.166485 28.991595 -14.201123 33.559037 1.264565 2.007736 0.025980 -0.007188 -101430.000000 0 0 1
8.402485 28.400095 -15.264023 33.319027 1.283141 2.046672 0.031568 -0.010143 316406.000000 0 0 1
7.973585 27.150495 -14.802223 31.934828 1.285147 2.052753 0.025717 0.000703 -89889.900000 0 0 1
7.262085 26.134795 -15.723423 31.352694 1.299764 2.096130 0.027544 -0.000247 163119.000000 0 0 1
8.160085 25.631595 -16.671323 31.646464 1.262581 2.125626 0.025488 0.010120 -105298.000000 0 0 1
7.458685 24.679895 -17.469323 31.143321 1.277307 2.166309 0.011646 0.019822 357540.000000 0 0 1
8.329385 23.806995 -18.448823 31.249172 1.234236 2.202323 0.005942 0.030165 245484.000000 0 0 1
7.546085 22.933695 -19.241823 30.873055 1.252915 2.243696 0.027695 0.020791 151477.000000 0 0 1
8.394185 22.095695 -20.032023 30.983286 1.207736 2.273840 0.009673 0.021295 -16159.500000 0 0 1
7.617185 21.246795 -21.042323 30.858178 1.226561 2.321159 0.012279 0.009884 -50901.000000 0 0 1
6.849285 20.248095 -20.404723 29.550817 1.244611 2.332971 0.009367 0.011158 361227.000000 0 0 1
6.059885 19.481295 -21.349023 29.530050 1.269222 2.378872 0.007943 0.013098 356590.000000 0 0 1
24.380685 -12.364005 -9.588523 28.969401 -0.469330 1.908147 0.012864 -0.000717 -171460.000000 0 0 1
24.869785 -11.911905 -8.381523 28.820992 -0.446683 1.865873 0.005771 0.000223 304640.000000 0 0 1
23.829585 -11.880705 -7.434523 27.645477 -0.462503 1.843072 -0.007473 -0.001747 -521178.000000 0 0 1
24.426885 -11.611305 -6.015923 27.707155 -0.443733 1.789665 -0.019827 0.001619 -316480.000000 0 0 1
24.799285 -10.254805 -5.777623 27.450801 -0.392100 1.782854 -0.011511 -0.001696 1151930.000000 0 0 1
25.948685 -9.772005 -6.515223 28.482880 -0.360164 1.801581 0.001122 -0.008744 -340421.000000 0 0 1
26.150085 -8.253905 -6.224923 28.119451 -0.305739 1.794020 0.028921 -0.012734 -303688.000000 0 0 1
26.451485 -7.841805 -4.905723 28.022153 -0.288206 1.746769 0.004565 -0.011932 1158350.000000 0 0 1
27.738485 -8.317105 -4.466623 29.300998 -0.291310 1.723832 0.000375 -0.010200 264490.000000 0 0 1
28.120685 -7.933505 -3.012423 29.373255 -0.274977 1.673534 -0.001831 -0.001894 -552015.000000 0 0 1
28.453185 -6.573405 -2.883023 29.344594 -0.227042 1.669202 0.007766 -0.003202 324032.000000 0 0 1
29.231385 -6.336005 -1.735123 29.960465 -0.213452 1.628743 0.004081 0.002091 -226870.000000 0 0 1
29.413285 -4.807905 -1.550723 29.843961 -0.162027 1.622781 0.009511 -0.000248 -327369.000000 0 0 1
28.253185 -4.274305 -0.957123 28.590702 -0.150147 1.604279 0.005865 -0.000633 -58571.100000 0 0 1
28.365885 -3.034005 -0.314023 28.529410 -0.106555 1.581804 0.011027 0.001076 -434072.000000 0 0 1
28.936685 -2.972205 1.134077 29.111026 -0.102355 1.531830 0.016620 -0.002951 -419469.000000 0 0 1
28.192385 -3.531105 2.230277 28.500060 -0.124601 1.492461 0.016018 -0.011498 535115.000000 0 0 1
28.903785 -3.470105 3.524777 29.323957 -0.119485 1.450304 0.015326 -0.007224 -237716.000000 0 0 1
28.274485 -4.146405 4.732577 28.966126 -0.145610 1.406677 0.011788 -0.004872 -493206.000000 0 0 1
28.470485 -5.532005 4.646677 29.372831 -0.191915 1.411933 0.013929 -0.005671 231697.000000 0 0 1
28.476085 -6.188905 5.906977 29.733522 -0.214009 1.370802 0.009200 -0.000385 -130643.000000 0 0 1
29.296085 -7.502105 5.938577 30.818969 -0.250692 1.376891 -0.001657 0.003395 2267.450000 0 0 1
30.693585 -7.293305 5.936277 32.101835 -0.233290 1.384806 0.004663 -0.000441 18208.700000 0 0 1
31.337085 -8.579105 5.905177 33.022493 -0.267221 1.391006 0.006151 0.002806 806917.000000 0 0 1
32.871385 -8.423805 5.615177 34.395038 -0.250867 1.406807 0.008255 0.003315 671029.000000 0 0 1
33.247085 -8.066605 4.277477 34.478045 -0.238026 1.446412 0.009625 0.003185 -797889.000000 0 0 1
34.572785 -7.679205 4.361777 35.682947 -0.218569 1.448253 0.011799 0.002076 -698252.000000 0 0 1
-34.514119 -7.232705 3.033577 35.394053 0.206569 1.484982 0.001584 0.007563 -202221.000000 0 0 1
-34.378819 -8.320705 2.155477 35.437034 0.237464 1.509933 0.005641 0.008641 542829.000000 0 0 1
-33.301019 -8.050705 1.254477 34.283311 0.237204 1.534197 0.017820 0.005667 224619.000000 0 0 1
-32.905119 -9.387305 0.573177 34.222754 0.277902 1.554047 0.017163 0.007984 -55385.900000 0 0 1
-32.469119 -10.399705 1.480077 34.126063 0.309971 1.527412 0.015467 0.009874 325646.000000 0 0 1
-32.452819 -11.676205 0.870377 34.500388 0.345370 1.545566 0.015997 0.004508 -578127.000000 0 0 1
-32.449719 -12.898005 1.817077 34.966335 0.378329 1.518806 0.012495 -0.007002 339944.000000 0 0 1
-31.174819 -13.109205 2.385977 33.903001 0.398058 1.500362 0.011169 -0.001153 64806.700000 0 0 1
-30.265819 -13.801805 1.553277 33.300485 0.427848 1.524135 0.027066 0.005564 -245809.000000 0 0 1
-28.975319 -14.190005 2.322977 32.346894 0.455396 1.498920 0.022485 0.009041 29577.500000 0 0 1
-28.226419 -13.058905 2.685777 31.216648 0.433322 1.484653 0.020972 0.010319 665849.000000 0 0 1
-26.939619 -13.402905 3.218477 30.261188 0.461659 1.464238 0.028971 0.012082 830492.000000 0 0 1
-26.054719 -12.162605 3.607677 28.979176 0.436745 1.445980 0.026624 0.015587 -279718.000000 0 0 1
-24.849919 -12.533605 4.206677 28.147928 0.467139 1.420785 0.034044 0.021837 -387441.000000 0 0 1
-24.388419 -11.584805 5.093477 27.476284 0.443459 1.384341 0.029587 0.020812 -341004.000000 0 0 1
-22.967619 -11.844605 5.596877 26.441089 0.476136 1.357509 0.032121 0.028923 -352616.000000 0 0 1
-22.934519 -12.979105 6.421677 27.123555 0.514984 1.331770 0.029922 0.025113 -447984.000000 0 0 1
-21.668819 -13.360605 6.871177 26.367718 0.552523 1.307163 0.031748 0.027845 -26621.800000 0 0 1
-21.095419 -12.813305 8.266777 26.029542 0.545841 1.247607 0.031160 0.015607 -146356.000000 0 0 1
-20.791219 -11.460205 8.395477 25.181245 0.503767 1.230887 0.030866 0.014298 161464.000000 0 0 1
-21.824619 -10.675805 8.945277 25.890245 0.454941 1.218017 0.039459 0.012638 -706436.000000 0 0 1
-22.083319 -10.891405 10.487377 26.763422 0.458190 1.168150 0.050875 0.014054 -162926.000000 0 0 1
-22.811419 -12.086105 10.807477 27.986360 0.487223 1.174321 0.041318 0.006523 798181.000000 0 0 1
-24.195219 -12.101805 10.454177 29.002622 0.463786 1.202039 0.038246 0.001005 104309.000000 0 0 1
-25.115619 -11.591205 11.570677 29.983844 0.432387 1.174616 0.033105 -0.000702 -645571.000000 0 0 1
-25.081119 -12.432705 12.713377 30.745156 0.460202 1.144492 0.025933 0.000254 554983.000000 0 0 1
-26.184819 -12.189505 13.594377 31.922341 0.435684 1.130887 0.014251 -0.003563 410095.000000 0 0 1
-26.211919 -13.011305 14.871277 32.825503 0.460755 1.100624 0.010115 -0.003989 -6937.970000 0 0 1
-26.506819 -14.440805 14.761477 33.601332 0.498839 1.115963 0.007156 -0.011366 269624.000000 0 0 1
-25.985419 -15.143405 15.878777 34.010296 0.527651 1.085035 -0.011959 0.003898 -396389.000000 0 0 1
-25.946219 -16.678905 15.761077 34.638182 0.571315 1.098401 0.007974 -0.011655 -459365.000000 0 0 1
-27.189919 -17.286405 15.943677 35.948746 0.566303 1.111284 0.003703 -0.012905 -388326.000000 0 0 1
-26.960219 -18.683405 15.785277 36.401895 0.606012 1.122269 0.006467 -0.004989 -434830.000000 0 0 1
-27.896219 -19.624005 16.536677 37.904647 0.613047 1.119347 -0.002669 0.003773 -447651.000000 0 0 1
-27.906919 -19.499205 17.961077 38.491757 0.609868 1.085329 -0.008830 0.014319 -85833.000000 0 0 1
-28.409019 -20.587805 18.669077 39.742477 0.627107 1.081787 -0.002644 0.011241 -83514.900000 0 0 1
-27.320819 -21.666605 18.914477 39.668959 0.670485 1.073777 0.001705 0.013226 391349.000000 0 0 1
-26.249419 -21.167105 19.729977 39.068533 0.678621 1.041403 0.009294 0.017573 652168.000000 0 0 1
-25.511419 -22.287305 20.250777 39.467080 0.718048 1.031997 0.018933 0.021799 254244.000000 0 0 1
-24.087719 -22.006105 20.792877 38.688895 0.740268 1.003400 0.028322 0.026628 -255928.000000 0 0 1
-23.150719 -21.799605 19.813077 37.466473 0.755349 1.013585 0.030929 0.022052 -147218.000000 0 0 1
-21.841019 -21.612905 20.337977 36.848081 0.780149 0.986106 0.028960 0.027763 621191.000000 0 0 1
-20.724819 -21.529605 19.265677 35.555707 0.804442 0.998166 0.023174 0.024790 89256.400000 0 0 1
-20.515019 -22.656305 18.424777 35.688185 0.834957 1.028305 0.021516 0.026426 810206.000000 0 0 1
-19.432319 -22.454805 17.485077 34.461010 0.857431 1.038646 0.011006 0.021742 628815.000000 0 0 1
-19.238619 -23.650005 16.566277 34.697099 0.887895 1.073041 0.004906 0.027604 -298316.000000 0 0 1
-18.869619 -24.928905 17.184877 35.676782 0.922870 1.068223 0.007591 0.020718 299904.000000 0 0 1
-17.560619 -25.109525 17.705577 35.388572 0.960499 1.046829 0.008083 0.019567 328774.000000 0 0 1
-16.437419 -25.303325 16.656877 34.465904 0.994692 1.066392 0.007898 0.016347 -128807.000000 0 0 1
-16.140719 -24.074605 16.033777 33.123880 0.980182 1.065514 0.003094 0.019449 26438.400000 0 0 1
-14.852319 -24.150005 15.421977 32.274626 1.019418 1.072607 -0.005621 0.021099 322481.000000 0 0 1
-14.256719 -22.725505 15.471977 30.969092 1.010513 1.047666 -0.006813 0.022357 -260978.000000 0 0 1
-14.953319 -21.725205 14.707677 30.197716 0.967970 1.062092 0.003923 0.018468 -20135.500000 0 0 1
-15.843019 -20.929105 15.489277 30.478622 0.922840 1.037701 0.002356 0.018957 -116219.000000 0 0 1
-15.259819 -19.882205 16.497577 30.005569 0.916182 0.988651 0.016348 0.008517 -503978.000000 0 0 1
-14.650119 -18.768805 15.889577 28.624686 0.908024 0.982313 0.016100 0.002413 -40387.000000 0 0 1
-14.449819 -17.659905 16.737977 28.298929 0.885039 0.937915 0.007974 -0.005727 -6164.570000 0 0 1
-13.684319 -16.362905 16.114577 26.733590 0.874309 0.923811 0.006199 -0.005578 499301.000000 0 0 1
-14.427819 -15.613705 15.157577 26.109421 0.824853 0.951404 0.006003 -0.009715 199836.000000 0 0 1
-14.495019 -16.315405 13.939677 25.896189 0.844413 1.002389 -0.000656 -0.008472 -235249.000000 0 0 1
-15.379219 -15.543405 12.949977 25.412983 0.790708 1.036098 0.003330 -0.004613 -721952.000000 0 0 1
-16.737519 -15.815105 13.075477 26.480751 0.757070 1.054373 0.012744 -0.010936 -826603.000000 0 0 1
-17.514419 -14.975505 12.260577 26.102535 0.707412 1.081836 0.015996 -0.009283 312177.000000 0 0 1
-19.046519 -15.117605 12.592077 27.383796 0.670900 1.092985 0.027364 -0.012559 831846.000000 0 0 1
-19.724819 -16.181205 11.909777 28.155686 0.687025 1.134046 0.035618 -0.011790 204041.000000 0 0 1
-19.957619 -15.946405 10.493077 27.617006 0.674139 1.181054 0.033332 0.003414 -868745.000000 0 0 1
-20.750619 -17.096905 9.934277 28.663255 0.689159 1.216867 0.035100 0.005280 -129354.000000 0 0 1
-20.028319 -18.323405 9.764977 28.848492 0.740973 1.225483 0.034919 0.011943 -524549.000000 0 0 1
-20.809319 -19.295305 9.227377 29.840929 0.747664 1.256425 0.029054 0.008470 -602421.000000 0 0 1
-20.325919 -20.724905 9.370477 30.503614 0.795117 1.258555 0.027010 0.016449 -116261.000000 0 0 1
-19.109419 -21.021405 8.735877 29.721792 0.833006 1.272469 0.028949 0.019334 -268230.000000 0 0 1
-18.761819 -22.421205 8.875077 30.552958 0.874022 1.276066 0.017073 0.015155 890903.000000 0 0 1
-17.475819 -22.810905 8.046777 29.841117 0.917060 1.297763 0.010536 0.017678 140464.000000 0 0 1
-16.317019 -22.142705 8.399577 28.759301 0.935730 1.274411 0.002649 0.004553 -666701.000000 0 0 1
-15.193419 -22.644905 7.705277 28.337307 0.979840 1.295416 0.011885 0.013027 465212.000000 0 0 1
-13.845519 -22.062505 8.264577 27.326832 1.010359 1.263551 -0.045895 0.012592 99067.600000 0 0 1
-12.813219 -22.396705 7.366077 26.833748 1.051142 1.292718 -0.019813 0.012595 235861.000000 0 0 1
-11.582819 -21.831205 7.900777 25.945818 1.082999 1.261372 -0.013205 0.008790 1207050.000000 0 0 1
-10.362419 -22.606805 7.317777 25.922909 1.140999 1.284616 -0.011351 0.014408 154060.000000 0 0 1
-10.404719 -23.987805 7.679677 27.251613 1.161537 1.285120 -0.015824 0.014141 317775.000000 0 0 1
-9.253019 -24.664805 7.140177 27.293829 1.211894 1.306113 -0.008039 0.013047 659166.000000 0 0 1
-9.201119 -26.167135 7.484277 28.729670 1.232671 1.307249 -0.022048 0.015761 -391923.000000 0 0 1
-9.964119 -26.903025 6.574277 29.432593 1.216090 1.345529 -0.012449 0.011540 -370140.000000 0 0 1
-9.805019 -28.301625 6.696277 30.691375 1.237290 1.350846 -0.005691 0.007537 263843.000000 0 0 1
-8.678119 -28.939795 5.813977 30.767252 1.279461 1.380687 -0.012072 0.005199 410356.000000 0 0 1
-7.393519 -28.405665 6.185577 29.996788 1.316163 1.363098 -0.015390 0.006182 448321.000000 0 0 1
-6.249419 -29.205735 5.936177 30.451082 1.359996 1.374599 -0.017427 0.010401 443561.000000 0 0 1
-6.240519 -30.643495 6.434077 31.927499 1.369895 1.367885 -0.018084 0.007022 -1103140.000000 0 0 1
-6.317519 -30.707045 7.803677 32.306826 1.367892 1.326835 -0.015713 0.001335 106573.000000 0 0 1
-6.174919 -32.075255 8.176977 33.672163 1.380610 1.325503 -0.000295 -0.002395 -167548.000000 0 0 1
-6.378919 -32.347305 9.653677 34.354508 1.376094 1.285959 0.003482 -0.003299 -319678.000000 0 0 1
-5.385319 -31.785105 10.479377 33.898553 1.402961 1.256508 -0.015184 -0.000213 -9073.540000 0 0 1
-5.627719 -32.112395 11.788377 34.667607 1.397307 1.223837 -0.006609 0.000481 -424946.000000 0 0 1
-4.944419 -31.271095 12.829677 34.160346 1.413980 1.185782 -0.012798 0.013284 -187490.000000 0 0 1
-5.479319 -29.949095 12.787077 33.022425 1.389843 1.173177 -0.017049 0.011598 -62040.700000 0 0 1
-4.817219 -29.001325 13.578377 32.382939 1.406196 1.138115 -0.024614 0.004418 -222769.000000 0 0 1
-5.635319 -28.458695 14.817677 32.576336 1.375308 1.098581 -0.014478 0.001824 210868.000000 0 0 1
-5.884719 -29.388405 15.833477 33.897009 1.373171 1.084782 -0.002807 0.004750 237166.000000 0 0 1
-4.705519 -29.905075 16.430877 34.444580 1.414727 1.073531 -0.001308 0.002509 305278.000000 0 0 1
-5.049219 -31.275665 17.058577 35.981340 1.410735 1.076860 0.008366 0.005227 66566.900000 0 0 1
-5.079719 -32.267755 16.073077 36.405430 1.414654 1.113524 0.005055 0.007209 167724.000000 0 0 1
-5.456119 -33.552675 16.498277 37.785505 1.409594 1.118947 0.002225 0.007455 -271472.000000 0 0 1
-5.027219 -34.716125 15.571377 38.379031 1.426987 1.153023 -0.003166 0.004589 -460760.000000 0 0 1
-5.747919 34.632163 14.406277 37.946885 -1.406325 1.181386 0.015902 -0.001858 -355177.000000 0 0 1
-5.415619 33.482433 13.675177 36.570653 -1.410440 1.187544 0.005391 -0.002107 -501777.000000 0 0 1
-4.152519 33.504454 12.792277 36.103105 -1.447486 1.208603 0.002682 -0.008989 -150424.000000 0 0 1
-4.365519 34.114154 11.557677 36.282408 -1.443520 1.246599 -0.000157 -0.011984 -265639.000000 0 0 1
-3.208519 34.507676 10.884877 36.325678 -1.478083 1.266474 -0.010759 -0.007843 -804990.000000 0 0 1
-3.606519 -34.644265 9.419077 36.082559 1.467068 1.306694 -0.012760 -0.008323 -955007.000000 0 0 1
-3.739519 33.828812 8.450577 35.068287 -1.460701 1.327426 -0.000774 -0.022114 -31797.900000 0 0 1
-4.620519 32.764192 8.687077 34.209747 -1.430697 1.314049 0.009277 -0.020279 634059.000000 0 0 1
-6.110819 33.064452 9.098177 34.833560 -1.388043 1.306542 0.011186 -0.016795 12722.800000 0 0 1
-6.869219 33.675112 8.116177 35.313902 -1.369572 1.338894 0.015088 -0.012119 -758890.000000 0 0 1
-8.113719 34.092568 8.637277 36.093464 -1.337152 1.329148 0.016561 -0.008799 94073.100000 0 0 1
-9.128719 34.354877 7.496777 36.328952 -1.311080 1.362945 0.019055 -0.012827 -149289.000000 0 0 1
-8.726919 -34.038555 6.783377 35.788218 1.319819 1.380100 0.016523 -0.012017 252967.000000 0 0 1
-9.433619 -33.948845 5.550077 35.669603 1.299757 1.414565 0.002962 -0.000029 -312404.000000 0 0 1
-9.278719 -32.562205 4.926377 34.214923 1.293200 1.426311 -0.009575 0.007268 36260.900000 0 0 1
-10.178919 -31.585945 5.355577 33.614945 1.259044 1.410793 0.004834 0.004429 -378771.000000 0 0 1
-11.483419 -31.588315 4.831477 33.956350 1.222116 1.428027 0.002153 0.007076 -52194.400000 0 0 1
-12.532319 -30.758005 5.599577 33.681881 1.183885 1.403772 0.004648 0.001575 -118199.000000 0 0 1
-12.841819 -31.418845 6.868077 34.629851 1.182787 1.371144 0.005445 0.002662 -2005.140000 0 0 1
-13.802119 -30.705745 7.611177 34.514798 1.148361 1.348450 -0.000209 0.000237 53481.500000 0 0 1
31.686448 -13.321705 -13.093123 36.782179 -0.397987 1.934742 -0.017329 -0.004118 423050.000000 0 0 1
30.722478 -13.285005 -11.998623 35.557404 -0.408138 1.914996 -0.011400 0.001300 753484.000000 0 0 1
30.485668 -14.573505 -11.486823 35.689076 -0.445929 1.898488 -0.009104 -0.002829 -281463.000000 0 0 1
31.499708 -15.043905 -10.446623 36.437380 -0.445558 1.861578 -0.006684 -0.007088 735574.000000 0 0 1
32.791088 -15.386105 -10.976323 37.847951 -0.438719 1.865035 0.002542 -0.012167 483497.000000 0 0 1
33.719329 -15.785105 -9.976423 38.544672 -0.437830 1.832605 0.001925 -0.013267 218503.000000 0 0 1
-34.592329 -15.949805 -10.535723 39.522487 0.432029 1.840634 0.001481 -0.018909 24806.800000 0 0 1
-34.018705 -14.734905 -11.017223 38.675172 0.408746 1.859662 -0.005020 -0.016561 -875288.000000 0 0 1
-32.698995 -14.793305 -11.409023 37.659421 0.424855 1.878586 0.004440 -0.011800 -666281.000000 0 0 1
-32.081115 -13.399605 -11.696223 36.681726 0.395653 1.895320 0.014148 -0.023951 -89279.300000 0 0 1
-31.841275 -12.526605 -10.596623 35.819981 0.374811 1.871121 0.017916 -0.016373 515395.000000 0 0 1
-31.307425 -11.239405 -11.043323 35.049024 0.344671 1.891340 0.023405 -0.015607 94626.300000 0 0 1
-31.781345 -10.080705 -10.109123 34.840621 0.307151 1.865183 0.018661 -0.016125 -171388.000000 0 0 1
-31.228015 -10.137705 -8.844923 34.002862 0.313902 1.833946 0.020115 -0.008905 -101413.000000 0 0 1
-32.049235 -9.503505 -7.891423 34.347411 0.288269 1.802620 0.015705 -0.006672 -184566.000000 0 0 1
-31.457465 -9.368405 -6.430823 33.446892 0.289448 1.764271 0.018901 0.000056 -770276.000000 0 0 1
-30.348315 -8.499305 -6.329723 32.145354 0.273063 1.769001 0.023943 -0.010707 142681.000000 0 0 1
-29.831145 -8.318105 -4.979523 31.366921 0.271932 1.730222 0.022236 -0.007057 -15079.600000 0 0 1
-29.086655 -9.610605 -4.484123 30.959725 0.319120 1.716145 0.020915 0.000719 -1317420.000000 0 0 1
-29.855545 -10.688805 -4.073523 31.971827 0.343799 1.698553 0.035560 0.001761 -391141.000000 0 0 1
-30.470475 -10.482905 -2.868723 32.350745 0.331351 1.659589 0.028581 -0.001364 -313666.000000 0 0 1
-31.133625 -11.792805 -2.352223 33.375228 0.362081 1.641333 0.029200 0.001834 -27814.100000 0 0 1
-32.296845 -12.226905 -3.025323 34.666064 0.361905 1.658178 0.024382 -0.005120 48910.600000 0 0 1
-32.587735 -13.547105 -2.635023 35.389658 0.393977 1.645323 0.019494 -0.009628 508552.000000 0 0 1
-34.133959 -13.802505 -2.538223 36.906353 0.384262 1.639625 0.005181 -0.003750 482255.000000 0 0 1
-34.618972 -12.969105 -1.561623 37.001481 0.358441 1.613013 0.009851 -0.001914 559813.000000 0 0 1
33.704535 -13.142805 -1.370023 36.202293 -0.371805 1.608649 0.014444 -0.001431 616229.000000 0 0 1
33.109428 -12.144305 -0.328323 35.267920 -0.351556 1.580106 0.011673 -0.003065 -182428.000000 0 0 1
33.539588 -12.356205 0.985277 35.756825 -0.352978 1.543238 0.014568 0.005821 203186.000000 0 0 1
33.220268 -11.280405 1.888477 35.134031 -0.327348 1.517020 0.015511 0.008319 -68062.300000 0 0 1
33.672271 -11.557305 3.366077 35.759245 -0.330630 1.476525 0.012366 0.007279 345176.000000 0 0 1
32.964408 -12.554805 4.117277 35.513762 -0.363898 1.454600 0.011665 -0.000921 98179.700000 0 0 1
33.674367 -12.730205 5.306077 36.389223 -0.361432 1.424460 0.000300 0.004640 -172768.000000 0 0 1
32.832448 -12.782505 6.637777 35.852785 -0.371270 1.384582 0.004753 -0.004613 146856.000000 0 0 1
32.288288 -11.565205 7.060577 35.016272 -0.343949 1.367767 0.010648 -0.002459 -7351.000000 0 0 1
31.902948 -11.601505 8.419777 34.975501 -0.348783 1.327675 0.000071 0.011895 -248232.000000 0 0 1
31.077528 -10.361905 8.902277 33.947494 -0.321830 1.305457 -0.002135 -0.005985 272191.000000 0 0 1
29.738948 -10.376305 8.403377 32.598919 -0.335706 1.310072 -0.008651 0.001123 516625.000000 0 0 1
28.982028 -9.533905 9.309677 31.898642 -0.317809 1.274634 -0.007281 0.006738 -488217.000000 0 0 1
27.483098 -9.747805 9.131277 30.556842 -0.340841 1.267331 -0.015267 0.008114 -547150.000000 0 0 1
26.967758 -9.051205 7.997277 29.548955 -0.323817 1.296733 0.004724 0.002024 -70341.600000 0 0 1
26.371238 -9.950005 7.104177 29.067407 -0.360790 1.323892 0.003230 -0.003900 4082.970000 0 0 1
25.465908 -9.216805 6.015777 27.742595 -0.347261 1.352217 0.006550 -0.005368 334959.000000 0 0 1
24.515588 -8.422005 6.708277 26.775833 -0.330905 1.317564 0.001591 -0.002372 -360794.000000 0 0 1
23.690588 -7.650105 5.896977 25.584027 -0.312347 1.338211 0.007095 -0.003639 -660301.000000 0 0 1
24.136588 -6.367005 5.178977 25.493832 -0.257915 1.366226 0.006038 -0.001784 -838814.000000 0 0 1
24.577588 -6.633505 3.887177 25.752114 -0.263619 1.419271 -0.005721 -0.007286 2819.670000 0 0 1
25.023738 -5.435105 3.329177 25.822689 -0.213876 1.441512 -0.002733 -0.012962 -385041.000000 0 0 1
25.600698 -5.628805 1.874177 26.279112 -0.216426 1.499418 -0.000142 -0.012497 281387.000000 0 0 1
24.686848 -5.983605 0.836777 25.415432 -0.237794 1.537866 -0.004406 -0.013591 98518.000000 0 0 1
25.389718 -5.962505 -0.399123 26.083492 -0.230660 1.586099 -0.001953 -0.011670 -477958.000000 0 0 1
24.640888 -6.061305 -1.709023 25.432923 -0.241197 1.638044 -0.003293 -0.012534 -745585.000000 0 0 1
23.861488 -4.949705 -1.990423 24.450603 -0.204534 1.652292 0.004606 -0.007387 -199166.000000 0 1 0
23.335388 -5.019805 -3.314423 24.098220 -0.211887 1.708772 0.008233 -0.008622 1357490.000000 0 1 0
22.133188 -3.942505 -3.413923 22.739310 -0.176278 1.721499 -0.006343 -0.006874 833090.000000 0 1 0
22.717488 -2.650605 -3.440523 23.128925 -0.116152 1.720105 -0.012945 -0.004232 618826.000000 0 1 0
22.933388 -2.023905 -4.742623 23.505935 -0.088023 1.773954 -0.014363 0.000537 -323852.000000 0 1 0
21.722988 -1.233405 -5.253223 22.383160 -0.056718 1.807701 -0.031205 0.006943 -153481.000000 0 1 0
21.610188 0.043195 -4.613423 22.097189 0.001999 1.781122 -0.034407 0.013909 468272.000000 0 1 0
20.803488 0.931295 -5.367123 21.504847 0.044736 1.823040 -0.022660 0.014491 -794063.000000 0 1 0
20.877288 2.334795 -4.723023 21.531823 0.111371 1.791945 0.002457 0.015146 -839344.000000 0 1 0
22.158188 2.894495 -4.769423 22.849744 0.129893 1.781072 0.010248 0.016547 28473.300000 0 1 0
22.826188 2.764895 -3.522023 23.261216 0.120541 1.722793 0.011322 0.019990 -167746.000000 0 1 0
23.847788 3.878395 -3.227923 24.375776 0.161220 1.703610 -0.000517 0.016376 -258085.000000 0 1 0
23.304888 5.175995 -3.182123 24.083909 0.218552 1.703310 -0.017019 0.023789 87397.800000 0 1 0
24.266588 6.093595 -2.773023 25.173178 0.246024 1.681178 -0.010823 0.022588 -326102.000000 0 0 1
23.734188 7.553195 -2.862123 25.070983 0.308107 1.685207 -0.022832 0.016949 673222.000000 0 0 1
22.535188 7.848295 -2.126523 23.957307 0.335131 1.659676 -0.018258 0.016085 862640.000000 0 1 0
22.024088 9.092595 -2.438723 23.951683 0.391533 1.672792 -0.023648 0.017846 -27319.200000 0 1 0
20.973788 9.535995 -1.377923 23.081024 0.426725 1.630531 -0.034550 0.022547 -611490.000000 0 1 0
21.620088 9.824895 -0.210323 23.748706 0.426535 1.579653 -0.033660 0.021037 780802.000000 0 1 0
20.634388 10.117395 0.794777 22.995029 0.455871 1.536226 -0.033900 0.019908 334187.000000 0 1 0
21.196588 10.821995 2.088977 23.890893 0.472055 1.483246 -0.013056 0.015305 -529328.000000 0 1 0
21.859488 12.077095 1.915577 25.047213 0.504751 1.494243 -0.011106 0.011098 774379.000000 0 0 1
21.078788 13.197095 1.404277 24.908847 0.559379 1.514390 -0.008184 0.004770 -132986.000000 0 1 0
20.148188 13.930895 2.395477 24.612144 0.604946 1.473313 -0.001228 0.010290 516248.000000 0 1 0
18.911888 13.225495 2.625977 23.226472 0.610271 1.457494 0.007891 0.008895 754437.000000 0 1 0
18.116888 13.887895 3.591577 23.108325 0.654023 1.414740 0.013649 0.007509 -332183.000000 0 1 0
18.389088 13.590395 5.116577 23.431534 0.636454 1.350660 0.018141 0.013284 -622319.000000 0 1 0
18.042688 12.293095 5.525677 22.520921 0.598088 1.322908 0.021200 0.010108 594835.000000 0 1 0
18.480288 12.184195 6.885577 23.181606 0.582891 1.269218 0.035386 0.008442 -565551.000000 0 1 0
18.396588 10.731995 7.474177 22.571520 0.528101 1.233292 0.015724 0.003112 -486813.000000 0 1 0
19.099088 9.838495 6.701177 22.505043 0.475677 1.268447 -0.013468 -0.008165 -1104.170000 0 1 0
19.437288 8.690495 7.372977 22.532059 0.420443 1.237434 0.009062 -0.000135 -14667.900000 0 1 0
20.434288 7.832195 6.538077 22.839656 0.366016 1.280475 0.015368 -0.004943 225997.000000 0 1 0
19.891388 7.406995 5.279877 21.872540 0.356465 1.326995 0.000669 -0.006831 186447.000000 0 1 0
20.900588 6.973295 4.427277 22.473589 0.322028 1.372500 0.005869 -0.005004 -72524.200000 0 1 0
20.363088 6.799695 2.955677 21.670885 0.322281 1.433981 -0.011201 0.000264 102403.000000 0 1 0
21.234788 5.882895 2.308077 22.155178 0.270262 1.466429 -0.013197 0.001727 771695.000000 0 1 0
21.005588 5.832095 0.938077 21.820359 0.270824 1.527792 -0.011721 0.016229 -234656.000000 0 1 0
22.036288 4.848595 0.268877 22.564999 0.216577 1.558880 -0.008809 0.012016 443697.000000 0 1 0
21.822688 3.497295 0.681477 22.111653 0.158908 1.539972 -0.015226 0.011290 818456.000000 0 1 0
23.014888 2.757195 0.483877 23.184507 0.119232 1.549924 -0.010675 0.012263 226078.000000 0 1 0
22.777688 1.224395 0.578077 22.817897 0.053702 1.545459 -0.001300 0.004662 -242909.000000 0 1 0
21.977888 0.706295 -0.491223 21.994721 0.032126 1.593132 -0.009986 -0.000904 692517.000000 0 1 0
22.259888 -0.631605 -0.835223 22.284505 -0.028367 1.608285 -0.001839 -0.000860 -1304520.000000 0 1 0
22.136488 -1.781805 0.231177 22.209286 -0.080319 1.560387 0.011351 -0.006373 645133.000000 0 1 0
23.129388 -1.757405 1.303877 23.232675 -0.075836 1.514644 0.015373 -0.007325 1268260.000000 0 1 0
24.429088 -2.128605 0.824877 24.535520 -0.086915 1.537170 0.016205 -0.004432 -176778.000000 0 1 0
25.402458 -1.913305 2.014577 25.553946 -0.075178 1.491878 0.016317 -0.005018 -630516.000000 0 0 1
25.356458 -0.584905 2.440077 25.480308 -0.023063 1.474886 0.012659 -0.007182 387476.000000 0 0 1
26.261858 -0.286705 3.481077 26.493118 -0.010917 1.439020 0.019138 -0.005540 111110.000000 0 0 1
25.887338 1.089095 4.081977 26.229810 0.042046 1.414538 0.024050 -0.003349 -45723.900000 0 0 1
25.891958 2.183395 3.140777 26.172986 0.084128 1.450506 0.017575 0.006304 -660558.000000 0 0 1
27.107228 2.828595 2.974077 27.416198 0.103972 1.462104 0.021421 0.000125 -573425.000000 0 0 1
27.093538 3.903495 1.873877 27.437356 0.143090 1.502447 0.024075 0.000468 -199279.000000 0 0 1
26.760278 3.404095 0.555277 26.981636 0.126527 1.550215 0.030756 0.006733 326803.000000 0 0 1
27.129668 4.229695 -0.558123 27.463079 0.154662 1.591120 0.029660 0.011741 -672430.000000 0 0 1
28.580918 4.105495 -0.975423 28.890750 0.142669 1.604565 0.024421 0.016306 -960742.000000 0 0 1
29.560688 4.453395 -0.043223 29.894295 0.149528 1.572242 0.028518 0.005381 -44036.100000 0 0 1
30.848788 4.424695 -0.641923 31.171104 0.142460 1.591391 0.013384 0.009048 35144.900000 0 0 1
31.977238 4.743395 0.334877 32.328868 0.147263 1.560438 -0.010941 0.007544 -368225.000000 0 0 1
32.105688 3.803495 1.424377 32.361561 0.117918 1.526768 -0.024332 0.007885 -175653.000000 0 0 1
31.411648 4.110795 2.608477 31.786702 0.130129 1.488642 -0.008675 0.008548 -136545.000000 0 0 1
31.388838 2.971395 3.603277 31.734397 0.094383 1.457006 -0.014576 0.007853 -13725.200000 0 0 1
30.440698 1.930895 3.355977 30.685942 0.063347 1.461212 0.001919 0.001680 177856.000000 0 0 1
30.461188 0.855895 4.266077 30.770375 0.028091 1.431706 -0.005519 0.001692 488401.000000 0 0 1
31.739848 -0.074605 4.406177 32.044312 -0.002351 1.432857 0.000238 0.002165 814168.000000 0 0 1
32.859578 0.656295 4.860177 33.223545 0.019970 1.423982 -0.010363 0.004855 380421.000000 0 0 1
34.078610 -0.087905 4.868777 34.424764 -0.002579 1.428888 -0.015426 0.002034 420443.000000 0 0 1
-34.424582 0.846295 4.778377 34.764939 -0.024579 1.432912 -0.018757 0.003374 -138794.000000 0 0 1
-34.568444 1.815995 3.792277 34.823218 -0.052485 1.461679 -0.038559 0.005454 146257.000000 0 0 1
-34.317597 1.426395 2.470877 34.435989 -0.041541 1.498982 -0.012670 0.008463 -669146.000000 0 0 1
-34.620147 2.420095 1.404477 34.733039 -0.069791 1.530349 -0.034010 0.001042 270736.000000 0 0 1
-33.725685 3.533795 1.411877 33.939696 -0.104400 1.529185 -0.010281 0.002102 61016.700000 0 0 1
-32.451185 3.319295 0.857577 32.631773 -0.101931 1.544513 0.029021 0.005951 -886059.000000 0 0 1
-31.501615 4.379095 1.404977 31.835549 -0.138127 1.526650 0.032115 0.001689 -635016.000000 0 0 1
-31.098265 4.150995 2.713077 31.491168 -0.132696 1.484536 0.026766 0.000634 92566.500000 0 0 1
-30.469375 5.367195 3.151477 31.098576 -0.174362 1.469284 0.041931 -0.014335 -146972.000000 0 0 1
-29.789125 5.165595 4.545977 30.573539 -0.171698 1.421553 0.016349 -0.002713 382071.000000 0 0 1
-30.635185 5.142395 5.717377 31.585554 -0.166309 1.388781 -0.005245 0.005816 310908.000000 0 0 1
-31.617505 4.118295 5.703377 32.390670 -0.129524 1.393793 -0.010638 0.004884 -90921.000000 0 0 1
-31.834545 3.335895 7.014177 32.768356 -0.104407 1.355074 -0.017422 0.003607 -71000.800000 0 0 1
-32.531385 4.027895 8.087277 33.762687 -0.123189 1.328912 -0.020742 0.012687 631635.000000 0 0 1
-32.665595 3.228195 9.284277 34.112463 -0.098506 1.295152 -0.018459 0.013051 44423.900000 0 0 1
-33.629965 1.981295 9.333877 34.957422 -0.058847 1.300510 -0.020421 0.017625 -386853.000000 0 0 1
-33.240305 0.871795 8.537877 34.330355 -0.026221 1.319461 -0.014322 0.011478 -134032.000000 0 0 1
-34.071774 -0.261005 8.561877 35.132032 0.007660 1.324611 0.004036 0.005991 -512794.000000 0 0 1
-34.037755 -1.241305 9.759077 35.430907 0.036452 1.291749 0.005777 0.014831 1026420.000000 0 0 1
-32.738295 -1.880005 9.995777 34.281860 0.057362 1.274922 0.005482 0.003972 1498390.000000 0 0 1
-32.736365 -2.748505 11.033977 34.655051 0.083762 1.246761 -0.002390 0.017073 -547089.000000 0 0 1
-31.461575 -3.574705 11.049277 33.536484 0.113136 1.235054 -0.004280 0.013915 -585610.000000 0 0 1
-31.470515 -4.472505 9.938877 33.304323 0.141172 1.267753 -0.000024 0.003799 151732.000000 0 0 1
-30.349425 -5.317405 10.129777 32.434161 0.173446 1.253164 0.008475 -0.009557 92810.300000 0 0 1
-30.244925 -6.393605 9.064177 32.214795 0.208327 1.285578 0.003703 -0.002503 446941.000000 0 0 1
-31.204335 -7.434505 9.296577 33.397736 0.233892 1.288711 0.008612 -0.000220 363451.000000 0 0 1
-31.233205 -8.328805 8.143177 33.334568 0.260601 1.324013 0.001574 0.003960 392109.000000 0 0 1
-32.149065 -9.562305 8.479577 34.596290 0.289103 1.323173 0.002604 0.004177 1013800.000000 0 0 1
-33.529865 -9.229205 8.625077 35.830462 0.268602 1.327690 0.007438 0.005907 563278.000000 0 0 1
-34.332114 -10.387205 8.826077 36.938973 0.293795 1.329526 0.014247 0.005401 -12461.200000 0 0 1
7.111685 -24.428505 10.660777 27.585867 -1.287504 1.174008 0.050503 -0.004152 193273.000000 0 0 1
6.515285 -25.114815 9.581077 27.658631 -1.316972 1.217061 0.045947 -0.008681 -406883.000000 0 0 1
5.235085 -25.613545 9.879477 27.947520 -1.369186 1.209485 0.038157 -0.003768 305842.000000 0 0 1
4.729585 -26.633285 8.782777 28.440077 -1.395047 1.256847 0.024019 0.001253 -176162.000000 0 0 1
4.268485 -25.972815 7.654777 27.411725 -1.407908 1.287781 0.036072 0.004300 -430237.000000 0 0 1
4.126185 -26.912095 6.631977 28.022658 -1.418660 1.331865 0.032128 -0.002884 -482697.000000 0 0 1
3.645585 -26.347065 5.252877 27.111821 -1.433302 1.375815 0.025228 -0.001162 123660.000000 0 0 1
2.268485 -26.170985 5.055877 26.751231 -1.484333 1.380657 -0.006240 -0.000462 -424711.000000 0 0 1
1.489885 -27.331825 4.888977 27.805584 -1.516339 1.394050 -0.018144 -0.001523 231668.000000 0 0 1
-0.057215 -27.127105 4.799477 27.548467 1.568687 1.395683 -0.016832 -0.000851 -32878.100000 0 0 1
-0.500115 -26.996795 6.108877 27.683848 1.552273 1.348299 -0.021487 0.001276 -867663.000000 0 0 1
-1.897415 -27.020055 6.264677 27.801614 1.500689 1.343509 -0.041579 -0.000569 -169440.000000 0 0 1
-2.325715 -28.509305 6.451577 29.322555 1.489399 1.348960 -0.041902 0.004191 -732917.000000 0 0 1
-1.874815 -29.143365 7.624877 30.182601 1.506554 1.315404 -0.041835 0.000617 95325.500000 0 0 1
-2.455315 -30.441165 7.749577 31.507920 1.490313 1.322290 -0.031238 0.002130 -32086.700000 0 0 1
-2.258315 -31.100125 9.148777 32.496428 1.498309 1.285406 -0.031530 0.002176 -1074710.000000 0 0 1
-0.937615 -31.217625 9.480777 32.639000 1.540771 1.276074 -0.027535 0.002957 -1420170.000000 0 0 1
-0.818515 -31.445465 10.882177 33.285267 1.544773 1.237736 -0.032798 0.004289 53894.100000 0 0 1
0.614085 -31.657805 11.403777 33.654715 -1.551401 1.225106 -0.020156 0.003815 245522.000000 0 0 1
1.278985 -32.849745 10.944977 34.648724 -1.531882 1.249408 -0.014782 0.000842 844513.000000 0 0 1
2.653185 -33.028605 11.316177 35.014054 -1.490639 1.241698 -0.013360 0.006834 863142.000000 0 0 1
2.957085 -33.679125 12.682177 36.109076 -1.483219 1.211924 -0.004155 0.009092 -441200.000000 0 0 1
2.595185 -32.847705 13.784677 35.717279 -1.491954 1.174571 -0.005376 0.003818 250012.000000 0 0 1
3.274685 -33.259285 14.930777 36.603711 -1.472653 1.150640 -0.013386 0.003400 -400560.000000 0 0 1
3.016885 -32.181675 16.021077 36.075431 -1.477324 1.110627 -0.013891 0.003856 208355.000000 0 0 1
3.541285 -30.883195 15.643577 34.799913 -1.456628 1.104558 -0.022859 -0.001593 -109698.000000 0 0 1
4.907385 -30.706305 15.926677 34.937353 -1.412320 1.097454 -0.017433 0.005844 -631555.000000 0 0 1
5.406885 -29.471585 15.183977 33.591098 -1.389353 1.101763 -0.007550 -0.002423 -676675.000000 0 0 1
5.499385 -29.570515 13.827277 33.103658 -1.386922 1.139888 -0.001404 0.003729 380507.000000 0 0 1
4.279685 -29.621965 13.062777 32.655974 -1.427312 1.159267 -0.017491 0.011641 -23006.300000 0 0 1
4.500285 -29.590085 11.533177 32.075533 -1.419865 1.202997 -0.006129 0.004447 317679.000000 0 0 1
4.992985 -30.825435 10.909977 33.078164 -1.410215 1.234679 -0.000537 -0.002565 1117120.000000 0 0 1
6.357285 -31.194575 11.236977 33.760720 -1.369755 1.231481 0.011210 0.003417 852295.000000 0 0 1
6.753085 -32.592515 10.626977 34.940075 -1.366490 1.261752 0.001383 0.008950 118187.000000 0 0 1
6.253785 -33.719225 11.385477 36.134817 -1.387414 1.250252 -0.017547 0.011635 287889.000000 0 0 1
6.600085 34.668285 10.650277 36.862983 1.382669 1.277703 -0.007422 0.013178 -126888.000000 0 0 1
6.407385 33.305462 11.323377 35.756499 1.380736 1.248569 -0.007731 0.015966 -103918.000000 0 0 1
5.097585 33.096632 11.791177 35.502172 1.417976 1.232240 -0.009626 0.012249 -170710.000000 0 0 1
4.882985 31.789512 12.306377 34.436369 1.418384 1.205351 -0.005671 0.018059 -449056.000000 0 0 1
3.725785 31.685252 13.279677 34.557003 1.453746 1.176365 -0.004216 0.014658 -324290.000000 0 0 1
3.925585 32.382982 14.515077 35.703714 1.450161 1.152130 0.007985 0.008997 -55743.700000 0 0 1
2.917785 31.933602 15.373977 35.561602 1.479679 1.123733 0.010424 0.007139 -292792.000000 0 0 1
3.242385 32.081752 16.851377 36.382973 1.470072 1.089232 0.001668 0.003958 -141175.000000 0 0 1
3.423385 33.364892 17.321777 37.748901 1.468550 1.094075 -0.008602 0.001466 200812.000000 0 0 1
3.973685 33.263832 18.611577 38.323145 1.451900 1.063691 -0.009840 0.005142 -290945.000000 0 0 1
4.532685 34.591769 19.203077 39.823283 1.440505 1.067624 -0.018847 -0.000536 -167987.000000 0 0 1
3.546685 -33.939305 19.496477 39.300992 -1.466673 1.051717 -0.027805 -0.009733 79117.500000 0 0 1
4.006385 -32.963645 20.401177 38.972567 -1.449850 1.019872 -0.027422 -0.013895 686412.000000 0 0 1
2.773385 -32.059495 20.840477 38.338340 -1.484504 0.996084 -0.032413 -0.010440 165758.000000 0 0 1
1.852085 -32.906385 21.410077 39.302058 -1.514572 0.994697 -0.036586 -0.007146 -589905.000000 0 0 1
0.763385 -32.068095 21.838477 38.805470 -1.546996 0.973066 -0.021465 -0.010433 334220.000000 0 0 1
-0.354315 -32.905195 22.523677 39.877229 1.560029 0.970575 -0.027259 -0.000365 -901816.000000 0 0 1
-1.125215 -33.688325 21.646777 40.059359 1.537408 0.999922 -0.029679 -0.000342 -488108.000000 0 0 1
-1.989115 -34.552348 22.290677 41.166681 1.513292 0.998607 -0.025798 0.004714 -133294.000000 0 0 1
-3.243015 -33.929715 22.993477 41.114993 1.475505 0.977318 -0.009860 0.007252 -884118.000000 0 0 1
-4.246715 -33.566635 22.113577 40.419845 1.444949 0.991904 -0.005779 -0.000682 -1401830.000000 0 0 1
-5.325815 -33.123725 22.853877 40.593659 1.411375 0.972796 -0.004315 0.005635 -180581.000000 0 0 1
-6.651515 -33.019405 22.035977 40.250565 1.372014 0.991458 0.021773 -0.005145 183359.000000 0 0 1
-7.265015 -34.186643 21.576477 41.073731 1.361401 1.017716 0.032446 0.002382 196235.000000 0 0 1
-8.525915 -33.776485 21.061777 40.707992 1.323540 1.027002 0.032483 0.003529 -173536.000000 0 0 1
-9.550915 34.631644 20.829177 41.526201 -1.301700 1.045359 0.043269 -0.001593 -379806.000000 0 0 1
-10.124615 34.327092 22.044777 42.033668 -1.283983 1.018721 0.063263 -0.010239 -1224440.000000 0 0 1
-11.486615 34.083438 21.864177 42.091155 -1.245736 1.024591 0.056851 -0.011385 -691857.000000 0 0 1
-12.020715 33.809542 23.259977 42.762241 -1.229193 0.995674 0.061441 -0.014588 -445587.000000 0 0 1
-11.972815 -34.619749 24.146677 43.874108 1.237834 0.987998 0.055392 -0.017274 574424.000000 0 0 1
-10.701915 -34.366565 24.764077 43.690402 1.268909 0.968170 0.042723 -0.016782 487351.000000 0 0 1
-10.761015 -33.014615 25.464177 43.060290 1.255708 0.938051 0.025630 -0.012491 -372799.000000 0 0 1
-11.363815 -32.834025 26.750177 43.849532 1.237601 0.914679 0.040277 -0.007974 142729.000000 0 0 1
-11.822215 -31.469475 26.756977 42.965433 1.211436 0.898536 0.030644 -0.005492 -270102.000000 0 0 1
-12.659215 -31.161965 27.991077 43.758704 1.184923 0.876729 0.014522 -0.007645 -182438.000000 0 0 1
-11.990015 -30.977225 29.257377 44.264467 1.201495 0.848689 0.007618 -0.006188 -183683.000000 0 0 1
-12.883215 -30.562705 30.275577 44.907312 1.171865 0.830943 0.006909 -0.003905 -548706.000000 0 0 1
-12.256515 -30.137135 31.570577 45.333987 1.184535 0.800428 0.004031 0.003330 -200073.000000 0 0 1
-13.201615 -29.564425 32.485677 45.865641 1.150826 0.783739 0.009186 0.004053 722012.000000 0 0 1
-12.555115 -29.051255 33.649177 46.193868 1.162867 0.754763 0.004860 0.009703 -761.533000 0 0 1
-11.869215 -30.014755 -34.604765 47.320752 1.194222 2.390994 0.003662 0.016673 -331874.000000 0 0 1
-10.586915 -30.476575 34.365277 47.136786 1.236459 0.753857 -0.011773 0.021020 -631013.000000 0 0 1
-10.367915 -31.636455 -34.140865 47.686032 1.254106 2.368782 -0.006332 0.030907 275831.000000 0 0 1
-8.959615 -32.237945 -34.426965 48.008080 1.299716 2.370440 -0.001991 0.022167 317492.000000 0 0 1
-7.957815 -31.371125 -33.947165 46.902925 1.322369 2.380054 0.007834 0.014092 -195654.000000 0 0 1
-6.719315 -32.031785 -33.740565 47.006491 1.364024 2.371412 0.006980 0.012678 643253.000000 0 0 1
-5.727215 -31.236215 -32.820365 45.669229 1.389459 2.372661 0.011126 0.017840 84725.400000 0 0 1
-6.217815 -31.114605 -31.541865 44.740017 1.373559 2.353224 0.015217 0.006954 -4567.300000 0 0 1
-5.457115 -30.212005 -30.750965 43.453046 1.392096 2.357009 0.012434 0.006139 176450.000000 0 0 1
-5.981515 -30.238545 -29.304065 42.530887 1.375507 2.330914 0.011221 0.010036 -22147.500000 0 0 1
-5.796515 -31.441315 -28.570965 42.877219 1.388484 2.300091 0.013666 0.006955 -48073.100000 0 0 1
-6.651515 -31.500505 -27.458865 42.314463 1.362697 2.276966 0.015899 0.006076 -162972.000000 0 0 1
-6.387815 -32.751275 -26.560665 42.648788 1.378174 2.243083 0.015910 -0.003811 -681397.000000 0 0 1
-5.264615 -32.733695 -25.785465 42.001204 1.411330 2.231816 0.000510 -0.008409 -1049930.000000 0 0 1
-5.097015 -33.989565 -25.169165 42.599964 1.421947 2.202879 0.000592 -0.013613 301295.000000 0 0 1
-4.012215 -33.931285 -24.039265 41.776982 1.453098 2.183913 0.001298 -0.014335 148234.000000 0 0 1
-4.410615 -33.482075 -22.755765 40.722570 1.439820 2.163734 0.005986 -0.018234 -158069.000000 0 0 1
-4.703215 -32.096385 -22.696665 39.590867 1.425298 2.181300 -0.005636 -0.007797 -309906.000000 0 0 1
-5.035015 -31.671385 -21.258365 38.475266 1.413139 2.156181 0.004787 -0.009289 -456602.000000 0 0 1
-6.416115 -31.830115 -21.014465 38.677261 1.371888 2.145193 0.000676 -0.014365 416061.000000 0 0 1
-7.104915 -30.668925 -20.428265 37.528346 1.343147 2.146401 0.006269 -0.012468 584908.000000 0 0 1
-7.606415 -29.640355 -21.517865 37.408912 1.319593 2.183653 0.014835 -0.009032 343062.000000 0 0 1
-6.432715 -29.132715 -22.162565 37.165497 1.353476 2.209707 0.008051 0.001325 314255.000000 0 0 1
-6.738415 -28.307135 -23.268565 37.257566 1.337099 2.245329 0.016736 0.003497 -848153.000000 0 0 1
-5.628515 -28.369725 -24.376565 37.825103 1.374941 2.271106 0.010599 0.005027 449243.000000 0 0 1
-4.527015 -27.529855 -24.178965 36.918954 1.407815 2.284873 0.010167 0.005746 -204230.000000 0 0 1
-3.705715 -27.844575 -23.070965 36.349995 1.438488 2.258403 0.003990 0.002055 -812490.000000 0 0 1
-2.219715 -27.374275 -23.212965 35.959975 1.489886 2.272503 -0.003344 -0.002677 265494.000000 0 0 1
-1.951715 -26.005505 -23.425865 35.055194 1.495887 2.302659 0.005709 -0.001430 -142632.000000 0 0 1
-2.046215 -25.192685 -22.297765 33.705322 1.489752 2.293681 0.005076 0.003236 -727933.000000 0 0 1
-1.840215 -23.706905 -22.762465 32.917071 1.493328 2.334373 0.009072 0.006112 -275675.000000 0 0 1
-2.592715 -23.317005 -23.880465 33.476582 1.460057 2.365061 0.017771 0.006817 -250216.000000 0 0 1
-3.947115 -23.138005 -23.539865 33.242627 1.401833 2.357633 0.013858 0.011830 -82963.100000 0 0 1
-5.001115 -23.170005 -24.698265 34.232508 1.358213 2.376742 0.005287 0.014459 291430.000000 0 0 1
-4.738115 -22.104805 -25.557965 34.121573 1.359644 2.417388 0.011058 0.013506 237838.000000 0 0 1
-5.247915 -22.331205 -26.877565 35.335914 1.339981 2.435080 0.005657 0.017017 -53420.300000 0 0 1
-5.085115 -21.107805 -27.857565 35.319142 1.334390 2.479550 0.006620 0.013002 53673.200000 0 0 1
-5.515315 -21.342405 -29.194165 36.581638 1.317908 2.494857 0.012437 0.006558 321520.000000 0 0 1
-4.573915 -22.056605 -29.988865 37.506620 1.366323 2.497362 0.015947 0.004070 243029.000000 0 0 1
-5.205615 -22.449905 -31.338765 38.900063 1.342946 2.507522 0.019121 -0.010894 -233179.000000 0 0 1
-5.514515 -21.348905 -32.125965 38.964898 1.318017 2.540087 0.022539 -0.013624 -459756.000000 0 0 1
-6.580015 -21.601705 -32.984965 39.974219 1.275119 2.541275 0.018910 -0.016342 -409254.000000 0 0 1
-6.527115 -20.688205 -34.270365 40.559376 1.265181 2.577255 0.025853 -0.016769 -1113700.000000 0 0 1
-5.447815 -20.955605 34.241477 40.512897 1.316457 0.563858 0.025441 -0.010649 -1757680.000000 0 0 1
-5.548115 -20.343305 33.009677 39.169764 1.304547 0.568455 0.016690 -0.002462 1048940.000000 0 0 1
-4.347915 -20.666105 32.014977 38.352979 1.363432 0.583126 -0.003988 0.002823 -350863.000000 0 0 1
-4.340615 -22.018105 31.609877 38.766251 1.376154 0.617382 -0.011067 0.000109 668682.000000 0 0 1
-3.139815 -22.443305 30.949077 38.358907 1.431799 0.632032 -0.015966 0.012117 1410060.000000 0 0 1
-1.741515 -22.256005 31.638977 38.721925 1.492706 0.614465 -0.023958 0.001654 -31495.700000 0 0 1
-1.218015 -20.921505 31.463077 37.803679 1.512644 0.587596 -0.019386 -0.004386 875139.000000 0 0 1
-0.056215 -20.569905 32.264277 38.263660 1.568063 0.567571 -0.015235 0.000092 632438.000000 0 0 1
-0.289515 -20.083905 33.693377 39.226148 1.556382 0.537577 -0.026887 -0.004192 -488991.000000 0 0 1
-1.169615 -19.003905 33.713377 38.718318 1.509328 0.514102 -0.035054 -0.002708 -287121.000000 0 0 1
-1.417715 -18.603505 -34.226865 38.981773 1.494736 2.642511 -0.029971 -0.009977 -300710.000000 0 0 1
-2.399115 -17.448405 -34.152665 38.426646 1.434155 2.665463 -0.023163 -0.015138 -163538.000000 0 0 1
-1.974315 -16.204805 34.579277 38.238985 1.449559 0.441074 -0.001840 -0.009261 784935.000000 0 0 1
-3.027715 -15.254705 -34.311865 37.671968 1.374865 2.716029 0.006133 -0.008575 1028400.000000 0 0 1
-2.743615 -13.795205 34.507577 37.264030 1.374476 0.387043 -0.003885 -0.009355 63089.900000 0 0 1
-1.761915 -13.147805 -33.914865 36.416853 1.437582 2.768751 0.000603 -0.007639 297197.000000 0 0 1
-1.687015 -11.705705 -34.024765 36.021580 1.427663 2.807067 -0.007030 -0.001819 -80571.900000 0 0 1
-1.244715 -11.038705 33.907977 35.681273 1.458511 0.316593 -0.009234 0.002374 508851.000000 0 0 1
-2.236515 -11.277705 32.837277 34.791887 1.375023 0.336791 -0.011047 0.001084 1235480.000000 0 0 1
-1.740115 -10.966405 31.480877 33.381666 1.413431 0.339087 -0.017665 0.008026 127314.000000 0 0 1
-0.678115 -11.977605 30.969977 33.212382 1.514241 0.369570 -0.019992 0.005028 -79636.700000 0 0 1
-1.277415 -13.222405 30.586077 33.346242 1.474485 0.409733 -0.022011 0.002371 1080250.000000 0 0 1
-0.254715 -14.175205 30.175377 33.339986 1.552829 0.439227 -0.014384 0.001287 568310.000000 0 0 1
-0.477315 -15.602405 30.674877 34.418177 1.540213 0.470723 -0.018480 -0.003686 162144.000000 0 0 1
-1.453515 -16.292905 29.890677 34.073803 1.481820 0.500728 -0.015837 -0.006433 523918.000000 0 0 1
-1.849115 -17.500605 30.576477 35.279050 1.465527 0.522241 -0.012302 0.000359 -43713.300000 0 0 1
-2.521615 -18.593005 29.715877 35.143872 1.435997 0.563203 -0.010906 0.003194 -277979.000000 0 0 1
-3.808415 -18.299305 29.218577 34.685643 1.365607 0.569107 -0.009867 0.003826 220156.000000 0 0 1
-4.349815 -19.293205 28.309377 34.533599 1.349046 0.609799 -0.003549 0.006804 -175783.000000 0 0 1
-3.679415 -19.409305 26.934177 33.402232 1.383450 0.632827 -0.006347 0.000909 -424025.000000 0 0 1
-4.300115 -20.208505 25.885577 33.120051 1.361136 0.673621 0.005639 0.002998 49671.900000 0 0 1
-4.281315 -21.603005 26.074477 34.130599 1.375150 0.701365 -0.006856 0.002963 -615412.000000 0 0 1
-28.143075 34.321095 -0.302323 44.385377 -0.883983 1.577608 -0.005765 -0.012766 -4297.950000 0 0 1
-27.356535 -34.027901 -0.091423 43.661040 0.893655 1.572890 0.005626 0.008196 107128.000000 0 0 1
-27.940275 -33.171201 0.881077 43.379302 0.870786 1.550484 -0.006853 0.000125 56598.300000 0 0 1
-27.277605 -31.754301 0.892977 41.871241 0.861088 1.549468 0.006089 -0.006960 145415.000000 0 0 1
-25.916425 -31.803701 1.260577 41.045408 0.887044 1.540080 0.009291 -0.015433 -601953.000000 0 0 1
-25.383325 -30.542601 1.552577 39.743857 0.877390 1.531722 0.027050 -0.009591 997378.000000 0 0 1
-23.876515 -30.649801 1.992777 38.903335 0.908986 1.519550 0.034418 -0.011845 729620.000000 0 0 1
-23.581015 -31.303601 3.168377 39.319440 0.925186 1.490128 0.026959 -0.015156 -97830.000000 0 0 1
-22.183815 -31.264701 3.410177 38.486783 0.953691 1.482074 0.027711 -0.009573 142588.000000 0 0 1
-21.674815 -31.852901 4.747177 38.819333 0.973301 1.448200 0.024395 -0.017304 -202965.000000 0 0 1
-21.956515 -31.112801 5.930477 38.539143 0.956251 1.416301 0.018256 -0.013262 90016.900000 0 0 1
-21.328215 -31.665801 7.122077 38.837349 0.978050 1.386370 0.008020 -0.010609 -248903.000000 0 0 1
-21.807315 -31.055001 8.489377 38.884979 0.958585 1.350703 0.007928 0.001091 -254156.000000 0 0 1
-21.420915 -29.701101 8.682677 37.635089 0.945973 1.337992 0.011820 -0.000883 11254.600000 0 0 1
-21.990915 -29.177501 9.878677 37.848582 0.924935 1.306733 0.001933 0.003946 -43234.200000 0 0 1
-21.260115 -27.973201 10.553477 36.686078 0.920915 1.279003 0.003249 0.003483 1089320.000000 0 0 1
-19.994615 -28.377101 11.133977 36.455589 0.956987 1.260425 -0.003591 0.001835 609959.000000 0 0 1
-19.615415 -27.370701 12.039077 35.761140 0.948978 1.227437 0.006019 0.001867 -50792.900000 0 0 1
-18.357915 -27.710601 12.864777 35.642572 0.985693 1.201522 0.003565 0.005391 -42301.400000 0 0 1
-18.488315 -28.709001 13.889077 36.863681 0.998658 1.184491 0.007411 -0.000884 -345087.000000 0 0 1
-17.351715 -28.802001 14.712877 36.702943 1.028579 1.158337 0.003199 0.002971 -11306.600000 0 0 1
-17.460915 -30.053201 15.593077 38.094914 1.044464 1.149086 0.010622 -0.010712 110237.000000 0 0 1
-17.152215 -31.246801 14.923777 38.642984 1.068777 1.174292 0.020697 -0.011650 -70183.900000 0 0 1
-17.101915 -32.252501 15.883777 39.811979 1.083242 1.160403 0.034360 -0.014948 50812.800000 0 0 1
-16.784615 -33.618001 15.258977 40.555267 1.107729 1.185049 0.021997 -0.012778 40118.000000 0 0 1
-16.804715 -34.650001 16.217977 41.785689 1.119233 1.172203 0.029490 -0.003999 71113.300000 0 0 1
-16.570515 33.585595 15.596677 40.568837 -1.112457 1.176185 0.013856 0.001469 -262696.000000 0 0 1
-16.535915 32.380895 16.609377 39.972869 -1.098650 1.142286 0.001734 0.002553 -73376.200000 0 0 1
-17.837015 32.147695 17.097377 40.545699 -1.064240 1.135497 0.011523 0.001846 107745.000000 0 0 1
-17.814415 31.152395 18.084677 40.185578 -1.051335 1.103998 0.004959 0.009084 -8528.890000 0 0 1
-18.780415 31.364795 19.249877 41.316004 -1.031279 1.086124 0.008847 0.004136 51681.000000 0 0 1
-18.206715 32.242295 20.250477 42.203458 -1.056749 1.070336 0.004131 0.006931 110898.000000 0 0 1
-19.103515 32.502295 21.314577 43.308829 -1.039426 1.056235 -0.001636 0.007281 -313565.000000 0 0 1
-18.587115 33.243595 22.564777 44.269478 -1.060979 1.035944 -0.014431 0.013953 -415958.000000 0 0 1
-17.544415 32.590395 23.222977 43.694931 -1.076956 1.010450 -0.011154 0.006810 -302871.000000 0 0 1
-17.164915 33.274095 24.437077 44.709848 -1.094538 0.992533 -0.014486 0.003250 74019.900000 0 0 1
-18.075415 32.886995 25.669077 45.466214 -1.068243 0.970878 -0.017842 0.011113 -834914.000000 0 0 1
-19.303915 33.491095 25.552877 46.338366 -1.047918 0.986706 -0.022323 0.003736 -1320860.000000 0 0 1
-20.201415 32.690995 26.290177 46.561484 -1.017282 0.970807 -0.034743 0.006446 -252677.000000 0 0 1
-21.674815 32.896295 25.871277 47.130530 -0.988202 0.989715 -0.031906 0.003632 -317138.000000 0 0 1
-21.887915 32.562395 24.544777 46.279979 -0.978984 1.011778 -0.019046 0.015586 143431.000000 0 0 1
-23.105115 33.022195 24.007577 46.911358 -0.960282 1.033559 -0.027402 0.013514 -102358.000000 0 0 1
-23.301615 32.448395 22.568577 45.882505 -0.948017 1.056551 -0.037515 0.013481 314545.000000 0 0 1
-22.448815 33.103895 21.596477 45.455748 -0.974898 1.075707 -0.029729 0.009375 628097.000000 0 0 1
-22.747515 32.587195 20.280577 44.616998 -0.961380 1.098931 -0.034338 0.021654 -107487.000000 0 0 1
-22.523615 33.724795 19.240277 44.887229 -0.981964 1.127814 -0.018628 0.013424 -129355.000000 0 0 1
-21.258415 34.306095 19.463777 44.806997 -1.016040 1.121434 -0.004129 0.009721 -120501.000000 0 0 1
-20.824615 -34.520301 18.281477 44.266558 1.027985 1.145066 -0.002424 0.014137 -815412.000000 0 0 1
-19.520615 -33.839001 18.617077 43.275027 1.047560 1.126078 0.013206 0.002174 -630237.000000 0 0 1
-19.705515 -32.864501 19.624477 43.052327 1.030672 1.097494 0.001136 -0.001417 825561.000000 0 0 1
-18.422615 -32.303301 19.902977 42.178484 1.052500 1.079380 0.013466 -0.001029 90292.900000 0 0 1
-18.453515 -31.348101 21.096877 42.051324 1.038753 1.045241 0.016674 -0.002573 -28610.000000 0 0 1
-19.247215 -30.195001 20.802777 41.411942 1.003308 1.044496 0.009556 0.005197 539271.000000 0 0 1
-19.413715 -29.436901 21.957377 41.539739 0.987770 1.013861 0.018830 0.004424 48654.700000 0 0 1
-20.158515 -28.112601 21.637977 40.803016 0.948710 1.011838 0.018757 -0.001865 -92097.900000 0 0 1
-19.285815 -27.254201 20.901377 39.390376 0.954970 1.011463 0.018516 0.007471 494711.000000 0 0 1
-19.688615 -25.879901 20.790177 38.595885 0.920439 1.001947 0.023287 0.020971 112804.000000 0 0 1
-20.909615 -25.654901 19.808477 38.571514 0.886955 1.031477 0.022766 0.017760 -181634.000000 0 0 1
-22.078115 -26.177601 20.344577 39.832296 0.870148 1.034733 0.015317 0.012856 -236408.000000 0 0 1
-23.160815 -25.873301 19.433977 39.793599 0.840660 1.060576 0.014646 0.016123 299877.000000 0 0 1
-24.542215 -26.203301 20.048077 41.120052 0.818120 1.061515 0.010404 0.007388 141059.000000 0 0 1
-25.018015 -27.585601 20.054577 42.297193 0.834170 1.076815 -0.001651 0.009981 208286.000000 0 0 1
-25.185145 -28.209801 18.794677 42.229425 0.841985 1.109554 -0.001660 0.002165 -555492.000000 0 0 1
-26.229855 -29.332001 18.830477 43.622912 0.841173 1.124459 -0.008851 -0.004449 219756.000000 0 0 1
-27.554735 -28.880701 19.043777 44.226957 0.808889 1.125648 -0.020774 -0.002717 -73844.500000 0 0 1
-28.522425 -29.681301 18.402877 45.090734 0.805306 1.150392 -0.012742 0.001943 932745.000000 0 0 1
-30.017085 -29.263801 18.645977 45.881019 0.772692 1.152287 -0.006808 0.000267 837114.000000 0 0 1
-30.324115 -28.048001 18.028577 45.069634 0.746425 1.159262 0.006919 0.004529 -830374.000000 0 0 1
-31.542535 -27.527401 18.427177 45.741121 0.717530 1.156159 -0.020464 0.014122 -780698.000000 0 0 1
-32.008185 -26.300801 17.643377 45.028267 0.687827 1.168178 -0.014513 0.004960 -460370.000000 0 0 1
-32.338005 -26.603101 16.312977 44.939791 0.688405 1.199315 0.007478 -0.006841 388850.000000 0 0 1
-32.858165 -25.520801 15.484177 44.392905 0.660369 1.214508 -0.006863 -0.005087 61575.900000 0 0 1
-31.890825 -24.329301 15.193177 42.892566 0.651702 1.208722 -0.010615 0.001867 139557.000000 0 0 1
-31.778965 -23.375001 16.221577 42.654811 0.634188 1.180677 -0.026103 0.005425 159160.000000 0 0 1
-31.012425 -22.269501 15.878977 41.350249 0.622760 1.176659 -0.010249 0.004156 -200004.000000 0 0 1
-31.828035 -20.992301 16.138677 41.402384 0.583062 1.170381 -0.020959 0.001971 92611.900000 0 0 1
-32.255025 -20.851101 17.494277 42.204322 0.573872 1.143388 -0.014954 0.005753 386706.000000 0 0 1
-32.834945 -19.592801 17.839477 42.193109 0.537994 1.134257 -0.008277 0.005116 -86709.600000 0 0 1
-33.079675 -19.373701 19.332777 42.934386 0.529814 1.103710 -0.025720 0.006144 -274448.000000 0 0 1
-34.167558 -20.086701 19.878377 44.340134 0.531466 1.105916 -0.017342 0.006186 385465.000000 0 0 1
-34.169159 -19.997501 21.243177 44.929991 0.529503 1.078324 -0.016541 0.015163 -414396.000000 0 0 1
34.256391 -20.563101 21.815677 45.522140 -0.540618 1.071017 -0.011363 0.007126 -834958.000000 0 0 1
34.053005 -21.910201 21.921377 46.045747 -0.571732 1.074607 -0.004348 -0.001482 357840.000000 0 0 1
-34.845648 -22.588501 22.861077 47.403464 0.575140 1.067557 -0.000881 0.010211 -81095.400000 0 0 1
34.206150 -23.898901 23.275077 47.780199 -0.609835 1.061998 -0.005249 0.012597 567789.000000 0 0 1
33.082678 -23.603401 24.119077 47.257952 -0.619707 1.035180 0.009090 -0.004996 533229.000000 0 0 1
32.533578 -24.754801 24.681677 47.753734 -0.650441 1.027625 0.009171 -0.019201 -660616.000000 0 0 1
31.766168 -24.599001 25.977977 47.844076 -0.658921 0.996825 0.014310 -0.027175 -114621.000000 0 0 1
30.483268 -24.002101 25.797277 46.592167 -0.667002 0.984016 0.018048 -0.027107 79021.500000 0 0 1
29.723208 -24.269301 26.954777 46.893796 -0.684727 0.958431 0.000864 -0.021476 -190373.000000 0 0 1
28.442728 -25.047901 26.624877 46.317062 -0.722017 0.958388 0.002894 -0.015467 -729896.000000 0 0 1
27.343948 -24.352501 26.120077 44.977708 -0.727597 0.951167 0.000410 -0.013385 -592429.000000 0 0 1
26.319298 -25.246701 25.785377 44.665278 -0.764601 0.955375 -0.000918 -0.002403 327547.000000 0 0 1
24.980448 -24.537401 25.384277 43.248912 -0.776451 0.943529 -0.000523 0.006036 14079.900000 0 0 1
24.960478 -23.974301 24.080777 42.162500 -0.765248 0.962900 0.011499 -0.000131 -150088.000000 0 0 1
25.685088 -22.769501 24.025677 41.897579 -0.725299 0.960100 0.004174 0.003087 -371216.000000 0 0 1
25.691428 -22.132101 22.575577 40.737404 -0.711109 0.983427 0.014301 0.007432 -90086.000000 0 0 1
25.078038 -20.872101 22.539777 39.655947 -0.694120 0.966257 0.007364 0.005620 -56633.000000 0 0 1
24.932718 -20.351501 21.244577 38.563663 -0.684575 0.987359 -0.003131 0.011123 -228687.000000 0 0 1
24.178188 -19.010701 21.056677 37.274324 -0.666316 0.970471 0.006573 0.019408 -201793.000000 0 0 1
24.640288 -17.783701 21.616277 37.291651 -0.625163 0.952492 0.005773 0.000141 -107568.000000 0 0 1
24.847628 -17.660201 23.006077 38.191189 -0.617898 0.924302 0.004134 0.005015 -97480.500000 0 0 1
24.959298 -16.227001 23.616377 38.000203 -0.576473 0.900166 0.017081 0.017311 -489303.000000 0 0 1
23.734088 -15.572101 23.443777 36.815866 -0.580656 0.880475 -0.004465 0.014230 -476802.000000 0 0 1
23.642888 -14.252301 23.974177 36.563307 -0.542487 0.855701 -0.014322 0.018237 -261220.000000 0 0 1
22.279988 -13.593401 23.636577 35.211734 -0.547825 0.834876 -0.033431 0.021578 104026.000000 0 0 1
21.261288 -14.295401 24.307377 35.316419 -0.591939 0.811689 -0.008182 0.019734 -566037.000000 0 0 1
20.001188 -13.700601 24.088477 34.176143 -0.600581 0.788608 0.002985 0.022572 163396.000000 0 0 1
18.843488 -14.485601 24.776977 34.333778 -0.655382 0.764613 0.010718 0.018521 172708.000000 0 0 1
18.531188 -15.649701 23.997777 34.120542 -0.701296 0.790734 0.019583 0.021909 -708862.000000 0 0 1
17.326988 -16.197401 24.398977 34.027789 -0.751716 0.771263 0.019081 0.026666 -680811.000000 0 0 1
16.848988 -17.404801 23.598877 33.818967 -0.801623 0.798475 0.013527 0.017219 -48822.000000 0 0 1
17.624988 -18.584301 23.783177 34.952195 -0.811886 0.822422 0.002402 0.019352 318087.000000 0 0 1
17.045588 -19.632501 22.996177 34.710392 -0.855812 0.846624 0.005515 0.016139 150744.000000 0 0 1
17.556988 -21.027501 23.375877 36.011599 -0.875103 0.864368 -0.003373 0.013227 -110603.000000 0 0 1
16.768888 -21.577701 24.428077 36.654110 -0.910151 0.841361 -0.003670 0.005528 291649.000000 0 0 1
17.021888 -22.918901 24.763977 37.792529 -0.931983 0.856268 0.012958 0.003841 -222020.000000 0 0 1
16.612688 -24.054901 23.765977 37.675474 -0.966396 0.888203 0.005518 0.006851 26589.400000 0 0 1
17.404888 -24.131001 22.604277 37.365608 -0.945940 0.921095 0.007923 0.010319 329371.000000 0 0 1
18.513388 -25.027601 22.650477 38.498967 -0.933908 0.941792 0.012497 0.007298 154464.000000 0 0 1
19.400888 -25.112401 21.420677 38.286715 -0.913011 0.977037 0.010345 0.016411 -544261.000000 0 0 1
18.801988 -25.758901 20.346577 37.828811 -0.940269 1.002901 0.026465 -0.001795 -457196.000000 0 0 1
19.771188 -26.230601 19.474477 38.186379 -0.924903 1.035629 0.014880 0.008670 -263482.000000 0 0 1
19.228088 -26.796801 18.129577 37.636013 -0.948388 1.068193 0.014155 0.000100 -51935.100000 0 0 1
18.503288 -27.958601 18.315077 38.203365 -0.986163 1.070814 0.039338 -0.011466 -105311.000000 0 0 1
17.769888 -28.479201 17.210677 37.723219 -1.012945 1.097036 0.036497 -0.012976 547611.000000 0 0 1
16.827088 -29.657301 17.709477 38.423066 -1.054704 1.091779 0.049602 -0.017084 262678.000000 0 0 1
15.726788 -29.238501 18.478377 37.995687 -1.077306 1.062914 0.055013 -0.021020 -431983.000000 0 0 1
15.037888 -30.392801 18.889177 38.815737 -1.111330 1.062560 0.061211 -0.027167 -389754.000000 0 0 1
13.826788 -30.128101 19.786077 38.605329 -1.140538 1.032677 0.051497 -0.021374 -249455.000000 0 0 1
12.906688 -29.287501 19.107377 37.275088 -1.155712 1.032581 0.053916 -0.025898 -756245.000000 0 0 1
11.680788 -29.273401 19.784877 37.213092 -1.191132 1.010232 0.020380 -0.017937 -634750.000000 0 0 1
10.679988 -28.532901 18.902377 35.853709 -1.212636 1.015484 0.011999 -0.020005 -659974.000000 0 0 1
10.440088 -29.358301 17.811377 35.890813 -1.229133 1.051504 0.006835 -0.019754 320661.000000 0 0 1
9.766788 -28.712001 16.686677 34.615233 -1.242911 1.067790 0.017724 -0.018239 390073.000000 0 0 1
9.647588 -29.666701 15.440477 34.808008 -1.256384 1.111196 0.014815 -0.017868 191116.000000 0 0 1
8.886788 -30.840101 15.755077 35.753451 -1.290240 1.114464 0.001117 -0.012124 230165.000000 0 0 1
8.739988 -31.548201 14.586877 35.839271 -1.300538 1.151620 0.002655 -0.001421 -368194.000000 0 0 1
7.741788 -32.705101 14.544977 36.621241 -1.338360 1.162362 -0.014145 0.006487 -402496.000000 0 0 1
8.016688 -33.835001 15.376077 38.019710 -1.338152 1.154448 -0.021123 0.003595 -355608.000000 0 0 1
7.001288 34.723895 15.206677 38.548800 1.371836 1.165296 -0.026699 0.008838 -25040.800000 0 0 1
7.052488 33.716595 16.380577 38.142754 1.364600 1.126908 -0.004579 0.008544 -215858.000000 0 0 1
8.165688 32.880295 16.284277 37.589493 1.327375 1.122741 -0.005804 0.006731 -478493.000000 0 0 1
8.187788 31.960995 17.356877 37.280106 1.320009 1.086506 0.013883 0.003945 -270969.000000 0 0 1
9.448188 31.100995 17.403777 36.870471 1.275866 1.079210 -0.000255 0.000298 -409218.000000 0 0 1
9.455588 30.157195 16.348377 35.582777 1.266961 1.093425 0.013355 0.001109 -202247.000000 0 0 1
10.530188 29.270995 16.493677 35.209621 1.225464 1.083269 0.011298 0.000857 -95764.300000 0 0 1
11.324888 28.748095 15.255377 34.459144 1.195529 1.112179 0.007421 0.000463 241892.000000 0 0 1
10.571988 27.827795 14.447277 33.088925 1.207730 1.118958 0.003105 0.005342 -30204.800000 0 0 1
11.361488 27.089895 13.570677 32.359066 1.173679 1.138036 0.005525 0.009364 -230785.000000 0 0 1
-9.148315 -9.249505 19.083619 23.096094 0.790898 0.598342 0.017869 -0.014692 -204557.000000 0 1 0
-9.477415 -9.447905 17.736419 22.218571 0.783839 0.646379 0.019869 -0.015991 147934.000000 0 1 0
-9.391015 -10.806105 17.390219 22.525159 0.855348 0.688759 0.015134 -0.017478 -145681.000000 0 1 0
-9.723915 -11.106005 15.922619 21.712385 0.851652 0.747571 0.011576 -0.014037 -1051560.000000 0 1 0
-11.062315 -11.365905 15.743019 22.347288 0.798933 0.789119 0.018220 -0.001730 -1021300.000000 0 1 0
-11.402215 -12.018505 14.527619 22.034216 0.811706 0.850881 0.016257 -0.000354 29423.000000 0 1 0
-11.213215 -13.544105 14.489519 22.784318 0.879271 0.881567 0.005666 0.000315 208964.000000 0 1 0
-9.884215 -13.946805 14.120219 22.171867 0.954250 0.880387 -0.012818 0.003267 558539.000000 0 1 0
-9.631515 -15.320805 14.346619 23.093692 1.009572 0.900478 -0.018180 0.001514 254097.000000 0 1 0
-9.292215 -15.629405 15.840819 24.115454 1.034406 0.854131 -0.006784 -0.000796 737210.000000 0 1 0
-10.511315 -15.510705 16.621719 25.046981 0.975207 0.845147 0.020870 -0.011852 809737.000000 0 0 1
-10.221215 -15.682505 17.998119 25.968182 0.993185 0.805038 0.027145 -0.003734 186782.000000 0 0 1
-11.379015 -15.176005 18.923519 26.793520 0.927421 0.786578 0.022867 -0.011720 -100390.000000 0 0 1
-11.532315 -13.809405 19.128819 26.260344 0.875013 0.754769 0.033723 -0.013138 161910.000000 0 0 1
-12.454215 -13.197505 18.250719 25.736557 0.814366 0.782524 0.020740 -0.014145 452360.000000 0 0 1
-13.970215 -13.181005 18.627819 26.756335 0.756339 0.800703 0.015928 -0.012125 102922.000000 0 0 1
-14.380715 -14.458905 18.916219 27.815252 0.788109 0.822943 0.020349 -0.007954 -355082.000000 0 0 1
-15.483415 -14.359705 19.801219 28.948671 0.747762 0.817549 0.028452 -0.002960 -196553.000000 0 0 1
-15.919015 -15.724005 20.336819 30.236494 0.779235 0.833091 0.016722 0.019886 -202417.000000 0 0 1
-16.724315 -16.477205 19.463219 30.496195 0.777956 0.878615 0.008740 0.010523 -244985.000000 0 0 1
-16.887215 -17.748505 20.038419 31.650051 0.810260 0.885213 -0.008075 0.014036 389685.000000 0 0 1
-18.057315 -18.538405 19.337619 32.306077 0.798543 0.929075 0.011890 0.012068 391879.000000 0 0 1
-17.881215 -18.737205 17.960719 31.518378 0.808770 0.964474 0.019844 0.010308 -1385.230000 0 0 1
-18.317215 -17.587405 17.180019 30.659260 0.765075 0.975984 0.030513 0.010909 -407395.000000 0 0 1
-17.906315 -17.622905 15.645419 29.596994 0.777422 1.013828 0.034142 0.001338 -516207.000000 0 0 1
-18.578815 -18.577605 14.878019 30.193629 0.785366 1.055545 0.031808 -0.008472 -67329.500000 0 0 1
-18.059415 -18.585905 13.559019 29.247655 0.799764 1.088750 0.026450 -0.011110 -316110.000000 0 0 1
-18.546015 -19.723205 12.722519 29.913575 0.816149 1.131493 0.033515 0.003730 -205029.000000 0 0 1
-18.031215 -20.966705 13.198319 30.641852 0.860529 1.125496 0.025834 0.009891 39421.700000 0 0 1
-18.005815 -21.925605 12.216719 30.889962 0.883248 1.164193 0.014970 0.006694 -269806.000000 0 0 1
-17.587515 -23.311305 12.826819 31.894591 0.924445 1.156918 0.003311 0.012967 -23241.200000 0 0 1
-17.551815 -24.455205 11.980819 32.398508 0.948281 1.192008 -0.000555 0.006994 377174.000000 0 0 1
-16.405715 -24.517105 11.135519 31.531503 0.981074 1.209855 -0.006132 0.007049 20670.200000 0 0 1
-16.412115 -25.761175 10.227319 32.211701 1.003552 1.247701 -0.002501 0.006683 95632.500000 0 0 1
-17.535215 -25.837805 9.346619 32.595018 0.974533 1.279964 0.002878 0.008898 258634.000000 0 0 1
-17.317715 -26.950175 8.475519 33.136832 0.999653 1.312149 0.008604 0.008954 -39212.100000 0 0 1
-18.452315 -27.047335 7.482319 33.586178 0.972101 1.346131 -0.001390 0.000384 -224759.000000 0 0 1
-18.341315 -26.020065 6.588419 32.509305 0.956795 1.366720 0.000139 0.001178 54860.300000 0 0 1
-19.420815 -25.947855 5.665419 32.902222 0.928284 1.397744 0.005466 0.005035 210099.000000 0 0 1
-19.538015 -24.564405 4.966619 31.777529 0.898879 1.413859 0.005314 0.005073 -215039.000000 0 0 1
-20.481515 -24.536505 3.938219 32.203138 0.875231 1.448196 0.009947 0.006021 -334848.000000 0 0 1
-20.297415 -23.347705 3.197219 31.101810 0.855173 1.467816 0.005823 0.011057 174381.000000 0 0 1
-21.172015 -23.251605 1.931419 31.505900 0.832177 1.509454 -0.000055 0.015228 58539.800000 0 0 1
-20.595715 -24.065705 0.910419 31.688649 0.862938 1.542062 -0.004814 0.005264 -31384.500000 0 0 1
-20.918915 -23.586405 -0.351681 31.528450 0.845263 1.581951 -0.001574 0.009632 -269661.000000 0 0 1
-20.336815 -24.263705 -1.628781 31.701204 0.873218 1.622198 -0.003509 0.011624 619660.000000 0 0 1
-18.929515 -23.974905 -1.783281 30.599064 0.902457 1.629108 -0.021037 0.012947 847738.000000 0 0 1
-18.390515 -24.285305 -3.056381 30.615822 0.922659 1.670793 -0.007327 0.009471 156426.000000 0 0 1
-18.138015 -25.769275 -3.349581 31.690106 0.957483 1.676692 0.010358 0.009389 -219842.000000 0 0 1
-19.352615 -26.442185 -3.566781 32.961110 0.938991 1.679220 0.020033 0.010143 -483857.000000 0 0 1
-19.014015 -27.744745 -4.021081 33.874367 0.969991 1.689783 0.018079 0.000094 -693348.000000 0 0 1
-20.005815 -28.650935 -4.681681 35.256586 0.961239 1.703979 0.023913 -0.002297 -555677.000000 0 0 1
-20.547015 -28.194315 -5.908581 35.383761 0.941025 1.738568 0.011746 0.007985 -357295.000000 0 0 1
-21.273915 -29.172165 -6.554681 36.695483 0.940705 1.750384 0.007045 0.001682 -321015.000000 0 0 1
-21.807715 -28.714755 -7.944981 36.922030 0.921268 1.787675 -0.006239 0.019027 480326.000000 0 0 1
-20.729815 -28.566895 -8.881581 36.396088 0.943057 1.817311 0.002331 0.017524 968292.000000 0 0 1
-21.274815 -28.405885 -10.204181 36.927461 0.927962 1.850770 0.007739 0.023536 289029.000000 0 0 1
-22.040815 -27.110645 -10.605981 36.513989 0.888182 1.865507 -0.000280 0.029510 -105620.000000 0 0 1
-21.299015 -25.905275 -10.734481 35.213071 0.882672 1.880571 -0.004469 0.026558 24431.500000 0 0 1
-21.206015 -25.195055 -9.529681 34.282659 0.871156 1.852480 -0.012455 0.026216 -150746.000000 0 0 1
-21.024215 -23.671105 -9.648181 33.097224 0.844550 1.866602 -0.008289 0.011561 -245803.000000 0 0 1
-22.098615 -23.031605 -10.283481 33.534364 0.806068 1.882473 -0.020466 0.020452 -446371.000000 0 0 1
-22.006015 -21.574405 -10.386681 32.520805 0.775495 1.895878 -0.005488 0.016952 -23966.300000 0 0 1
-23.302315 -20.781805 -10.646581 32.988346 0.728285 1.899417 0.011846 0.021614 -250333.000000 0 0 1
-23.738715 -20.822305 -11.972181 33.770225 0.720044 1.933196 0.001924 0.019552 637259.000000 0 0 1
-24.992415 -20.188405 -12.279781 34.394556 0.679468 1.935879 0.000928 0.012257 594857.000000 0 0 1
-24.911815 -18.620005 -12.310781 33.449341 0.641859 1.947699 -0.000710 0.013887 -433902.000000 0 0 1
-23.982515 -17.927505 -13.139181 32.698540 0.641915 1.984308 0.002352 0.023010 421248.000000 0 0 1
-23.760815 -16.551905 -12.761381 31.644821 0.608444 1.985883 -0.000699 0.006490 381452.000000 0 0 1
-22.832915 -16.297505 -11.493981 30.316040 0.619910 1.959662 -0.004436 0.005694 -156303.000000 0 0 1
-23.400115 -16.625105 -10.304881 30.498362 0.617719 1.915463 0.013029 0.000161 396080.000000 0 0 1
-22.369415 -16.723805 -9.315181 29.442299 0.641976 1.892715 0.012986 -0.004764 583451.000000 0 0 1
-23.086415 -17.295805 -8.109581 29.964858 0.642974 1.844850 0.001909 -0.005171 291035.000000 0 0 1
-23.461815 -18.660405 -8.134781 31.061908 0.671900 1.835776 -0.003762 -0.000905 -222679.000000 0 0 1
-24.267715 -18.925905 -7.032381 31.568438 0.662352 1.795447 -0.003762 0.005074 -132627.000000 0 0 1
-24.830615 -20.358005 -6.922181 32.846985 0.686743 1.783128 -0.013330 0.006488 292050.000000 0 0 1
-25.682435 -20.748905 -8.006681 33.973688 0.679541 1.808707 -0.018992 -0.003734 224071.000000 0 0 1
-26.136725 -22.087105 -8.122581 35.170228 0.701619 1.803851 -0.023281 0.010338 -93595.600000 0 0 1
-25.079225 -23.205505 -8.252081 35.150531 0.746612 1.807772 -0.028593 0.021912 117248.000000 0 0 1
-25.717405 -24.485905 -8.166481 36.436738 0.760873 1.796844 -0.029829 0.019918 -692774.000000 0 0 1
-24.900715 -25.492515 -8.616481 36.662756 0.797141 1.808035 -0.024921 0.032984 -692183.000000 0 0 1
-25.195665 -26.995715 -8.331381 37.855014 0.819874 1.792700 -0.028875 0.025069 -316589.000000 0 0 1
-24.941415 -27.480445 -7.028281 37.770965 0.833795 1.757963 -0.015672 0.003967 -3062.810000 0 0 1
-25.495655 -28.755875 -6.727481 39.015225 0.845420 1.744095 -0.007807 0.004290 -121127.000000 0 0 1
-25.169505 -29.455505 -5.362281 39.113742 0.863700 1.708324 0.001567 0.004991 -84346.700000 0 0 1
-25.703125 -28.720045 -4.265981 38.777445 0.840776 1.681031 -0.011187 -0.004308 168626.000000 0 0 1
-25.263305 -29.130005 -2.954481 38.671963 0.856367 1.647269 -0.015938 0.007998 -262196.000000 0 0 1
-25.772975 -30.520065 -2.475481 40.023101 0.869527 1.632687 -0.014275 0.015768 -219377.000000 0 0 1
-25.114285 -31.615375 -3.083481 40.494038 0.899498 1.647017 0.011182 -0.008401 -158375.000000 0 0 1
-25.168265 -32.868725 -2.363581 41.465421 0.917310 1.627828 0.016024 -0.008195 -164228.000000 0 0 1
-24.291815 -32.951865 -1.075381 40.952095 0.935544 1.597059 0.018667 -0.012415 -58351.600000 0 0 1
-22.966915 -32.663575 -1.484181 39.957366 0.957969 1.607949 0.026140 -0.021035 -42961.500000 0 0 1
-22.017415 -32.814155 -0.402981 39.518321 0.979818 1.580994 0.045017 -0.019345 1275420.000000 0 0 1
-20.775315 -31.868175 -0.600481 38.046746 0.993077 1.586580 0.032575 -0.011305 457851.000000 0 0 1
-21.026215 -30.510825 -0.257081 37.055070 0.967397 1.577734 0.036979 -0.007808 -151720.000000 0 0 1
-21.555615 -29.687955 -1.281781 36.710518 0.942785 1.605719 0.029834 -0.005790 20551.200000 0 0 1
-22.050215 -28.316445 -0.756281 35.897145 0.909174 1.591866 0.023994 -0.007617 94031.600000 0 0 1
-23.385315 -28.435085 -0.287981 36.817251 0.882539 1.578618 0.027194 -0.011021 115186.000000 0 0 1
-23.980115 -27.151435 0.012619 36.224943 0.847342 1.570448 0.023692 -0.009082 297146.000000 0 0 1
-23.401215 -26.322695 1.195319 35.241026 0.844085 1.536871 0.028806 -0.000845 -237775.000000 0 0 1
-23.473615 -26.993625 2.391419 35.852270 0.855034 1.504045 0.028148 0.000266 -317622.000000 0 0 1
-23.124315 -26.253345 3.552619 35.165227 0.848683 1.469597 0.032309 -0.002374 317979.000000 0 0 1
-24.098015 -25.102945 4.078719 35.035812 0.805820 1.454116 0.038684 -0.000677 159020.000000 0 0 1
-24.222315 -24.057905 3.154019 34.284853 0.781993 1.478672 0.029962 0.004970 56122.900000 0 0 1
-25.038715 -23.003305 3.675619 34.199407 0.743056 1.463112 0.022644 0.008230 149862.000000 0 0 1
-25.235555 -21.901205 2.612319 33.515970 0.714778 1.492775 0.032344 0.005492 1401670.000000 0 0 1
-23.985515 -21.148505 2.561419 32.079979 0.722623 1.490866 0.010914 0.013091 1176810.000000 0 0 1
-23.987215 -20.131905 1.551019 31.354198 0.698235 1.521308 0.013320 0.011456 -259266.000000 0 0 1
-22.859515 -19.071205 1.589119 29.812641 0.695296 1.517468 0.027961 0.016666 447448.000000 0 0 1
-21.674115 -19.759105 1.138519 29.351077 0.739212 1.531997 0.014315 0.017816 143479.000000 0 0 1
-20.534215 -19.059805 1.589019 28.061631 0.748177 1.514140 0.007139 0.020205 326251.000000 0 0 1
-19.208015 -19.795705 1.190119 27.608588 0.800465 1.527676 -0.015325 0.017952 224021.000000 0 0 1
-18.840715 -19.701905 -0.148381 27.260954 0.807738 1.576239 -0.011588 0.005269 -80880.900000 0 0 1
-17.867915 -20.675005 -0.424281 27.329439 0.858100 1.586322 -0.005521 0.009663 -415317.000000 0 0 1
-17.711815 -20.906205 -1.938181 27.468788 0.867928 1.641414 -0.002529 0.005964 319329.000000 0 0 1
-16.853315 -19.914605 -2.538781 26.212042 0.868466 1.667804 -0.028558 0.005058 325537.000000 0 0 1
-16.923515 -20.096205 -3.918781 26.563502 0.870892 1.718862 -0.000152 0.002438 -180920.000000 0 0 1
-16.030915 -19.124505 -4.665981 25.387168 0.873170 1.755640 -0.001879 0.001010 -508028.000000 0 0 1
-14.708015 -19.578605 -4.804981 24.954665 0.926509 1.764555 0.003018 0.012714 -589258.000000 0 1 0
-14.023015 -18.557205 -5.445881 23.888751 0.923680 1.800787 0.006857 0.000845 -41334.200000 0 1 0
-12.471815 -18.605805 -5.341181 23.027166 0.980270 1.804880 0.009352 0.004030 650841.000000 0 1 0
-11.866615 -19.809605 -5.870281 23.826397 1.031088 1.819737 0.017237 -0.000201 124842.000000 0 1 0
-10.459115 -19.699605 -6.023981 23.103157 1.082712 1.834588 0.004968 0.001246 452382.000000 0 1 0
-9.809715 -21.106805 -6.112481 24.064292 1.135731 1.827616 0.004996 0.007202 -76255.300000 0 1 0
-10.199815 -21.900605 -7.209281 25.212030 1.134937 1.860790 0.027819 0.001677 -215849.000000 0 0 1
-9.482215 -23.132705 -7.294181 26.043032 1.181780 1.854676 0.026803 0.006040 36554.700000 0 0 1
-9.873115 -24.090505 -8.444681 27.370485 1.181841 1.884446 0.034401 -0.004814 -341748.000000 0 0 1
-9.663515 -23.579405 -9.714581 27.271687 1.181846 1.935010 0.037909 0.006313 123761.000000 0 0 1
-10.272715 -24.421005 -10.696781 28.571581 1.172615 1.954530 0.049209 0.004389 202793.000000 0 0 1
-11.076215 -23.622405 -11.779981 28.626360 1.132348 1.994905 0.057212 -0.002922 595195.000000 0 0 1
-10.299515 -22.844905 -12.711581 28.099003 1.147240 2.040235 0.038798 0.005536 65254.700000 0 0 1
-11.231815 -22.320905 -13.603481 28.450503 1.104594 2.069338 0.043829 0.004070 -98738.000000 0 0 1
-10.737815 -21.028405 -14.339281 27.624436 1.098678 2.116570 0.039126 0.005450 39600.800000 0 0 1
-10.452215 -19.896805 -13.502781 26.219396 1.087097 2.111795 0.040256 0.006512 -112538.000000 0 0 1
-10.274015 -18.692205 -14.185881 25.616267 1.068228 2.157698 0.031026 0.012670 -97956.200000 0 0 1
-9.713515 -17.640005 -13.198481 24.077418 1.067452 2.150969 0.022671 0.002518 290076.000000 0 1 0
-10.698415 -17.140305 -12.228281 23.617303 1.012796 2.115036 0.017672 -0.004481 731167.000000 0 1 0
-10.248215 -16.112505 -11.376681 22.227631 1.004297 2.108105 0.012520 -0.014324 -123605.000000 0 1 0
-10.012215 -14.746205 -12.079981 21.531859 0.974325 2.166424 0.016515 -0.005155 449079.000000 0 1 0
-11.201015 -14.152705 -12.598581 22.011043 0.901297 2.180196 0.019610 0.000720 276998.000000 0 1 0
-11.191815 -14.202505 -13.969581 22.849881 0.903405 2.228579 0.020412 -0.002487 365884.000000 0 1 0
-12.494415 -13.614405 -14.594281 23.546878 0.828269 2.239280 0.021832 -0.000769 311527.000000 0 1 0
-12.581515 -12.220905 -14.422281 22.707867 0.770860 2.258964 0.017224 0.013664 -405415.000000 0 1 0
-13.772515 -11.663705 -14.919081 23.415874 0.702682 2.261572 0.026508 0.005716 -354564.000000 0 1 0
-14.130615 -10.299705 -14.291681 22.583408 0.629855 2.256012 0.017724 -0.002180 -733438.000000 0 1 0
-13.212515 -9.277305 -14.395981 21.630608 0.612174 2.299010 0.019229 -0.000259 -454148.000000 0 1 0
-13.112915 -8.646105 -15.680381 22.194099 0.582926 2.355353 0.009647 -0.001893 365274.000000 0 1 0
-12.094615 -7.415305 -15.704881 21.163878 0.550002 2.406936 0.006697 0.005187 1160700.000000 0 1 0
-10.747415 -7.899905 -15.698381 20.599869 0.633865 2.437288 -0.005601 0.005106 -2796.020000 0 1 0
-9.874215 -6.869805 -15.397681 19.539266 0.607856 2.478412 -0.010979 0.008767 -283984.000000 0 1 0
11.362085 22.415795 15.895519 29.736045 1.101661 1.006816 0.014950 0.017132 -687093.000000 0 0 1
11.864285 22.161095 17.164919 30.438624 1.079258 0.971673 0.020541 0.011309 -438921.000000 0 0 1
12.372185 20.860395 17.150719 29.704785 1.035470 0.955290 0.019669 0.010613 -100270.000000 0 0 1
13.405685 20.652295 18.309619 30.683413 0.995045 0.931380 0.014577 0.005512 -1126590.000000 0 0 1
14.525885 21.331095 17.999719 31.464374 0.972955 0.961773 0.001017 0.009164 -1474360.000000 0 0 1
15.691385 20.808795 18.616519 32.028118 0.924693 0.950526 0.006262 0.009625 652036.000000 0 0 1
17.016485 21.377595 18.033719 32.738011 0.898501 0.987414 0.010096 0.008222 -936671.000000 0 0 1
17.103385 22.785395 18.312219 33.867940 0.926893 0.999533 0.014129 0.008489 57054.300000 0 0 1
18.238385 23.417395 17.732219 34.575203 0.909092 1.032284 0.017382 0.007482 634502.000000 0 0 1
19.589185 23.069795 18.424519 35.431829 0.866809 1.023946 -0.003521 0.001908 -444752.000000 0 0 1
19.961485 21.731295 18.173719 34.655362 0.827822 1.018771 0.006097 -0.000077 102149.000000 0 0 1
21.244185 21.412195 18.710819 35.494961 0.789337 1.015565 0.012010 -0.001570 -438746.000000 0 0 1
21.651185 19.955495 18.744119 34.904693 0.744665 1.003909 0.001614 -0.005784 -540731.000000 0 0 1
21.780285 19.317195 17.463819 33.948782 0.725537 1.030469 -0.005919 -0.005413 9358.950000 0 0 1
21.502585 17.884295 17.549119 33.017885 0.693790 1.010422 -0.002145 -0.011783 -342490.000000 0 0 1
22.657485 17.002195 18.023419 33.574989 0.643758 1.004144 -0.012153 -0.001925 -305819.000000 0 0 1
23.717985 16.969995 17.103819 33.809232 0.621047 1.040381 -0.017149 -0.002308 -139211.000000 0 0 1
24.707485 16.026395 17.459619 34.236581 0.575422 1.035647 -0.020055 -0.003495 -518159.000000 0 0 1
25.813685 15.938195 16.384619 34.479387 0.553139 1.075605 -0.016135 -0.014698 -426633.000000 0 0 1
26.744285 17.040795 16.323319 35.666458 0.567307 1.095428 -0.021493 -0.008712 626224.000000 0 0 1
27.883785 17.041395 17.164719 36.912629 0.548583 1.087151 -0.021051 -0.021789 89797.500000 0 0 1
28.926585 15.964695 16.805019 37.067877 0.504304 1.100267 -0.016463 -0.026854 -760021.000000 0 0 1
29.483185 16.123995 15.464819 36.991919 0.500451 1.139488 -0.003375 -0.024496 48873.800000 0 0 1
29.098685 15.092295 14.676119 35.915168 0.478463 1.149841 0.009677 -0.036849 -703313.000000 0 0 1
28.257885 15.395295 13.471119 34.885444 0.498853 1.174339 -0.005595 -0.022005 -1011410.000000 0 0 1
29.006985 15.920595 12.439319 35.349783 0.501963 1.211204 -0.010225 -0.013387 -551146.000000 0 0 1
28.382485 16.145395 11.193619 34.518638 0.517201 1.240548 -0.020050 -0.010423 254328.000000 0 0 1
27.185985 17.168795 11.077219 34.008089 0.563282 1.239020 -0.033562 -0.003921 289240.000000 0 0 1
27.384285 18.595395 11.265519 34.965693 0.596529 1.242757 -0.044893 0.001932 -54926.600000 0 0 1
27.678385 19.078395 12.587419 35.895979 0.603501 1.212517 -0.029542 0.001505 -843438.000000 0 0 1
26.661285 18.797395 13.727619 35.392283 0.614104 1.172476 -0.044653 -0.001427 -277641.000000 0 0 1
25.471385 19.548495 13.564619 34.855903 0.654588 1.171074 -0.041736 0.005133 573281.000000 0 0 1
24.573285 19.521295 14.699719 34.655577 0.671324 1.132756 -0.034509 0.004158 331077.000000 0 0 1
25.168885 19.971595 16.065219 35.922537 0.670767 1.107143 -0.016995 0.000902 -444074.000000 0 0 1
25.290285 21.389995 16.306519 36.919276 0.702039 1.113326 -0.023628 -0.000329 24666.200000 0 0 1
24.087285 21.957495 16.745619 36.643480 0.739176 1.096191 -0.010619 0.001021 -663914.000000 0 0 1
24.196885 23.515195 16.701119 37.648121 0.771112 1.111173 -0.011035 0.005622 -98770.800000 0 0 1
24.266685 23.900095 15.345319 37.357267 0.777787 1.147496 0.010047 0.004089 342995.000000 0 0 1
24.219785 25.277195 15.233319 38.178379 0.806758 1.160366 0.006189 0.006405 -324269.000000 0 0 1
24.088185 25.806995 13.804819 37.905339 0.819833 1.198031 0.011055 -0.003544 -698344.000000 0 0 1
22.825885 25.674995 13.239319 36.817197 0.844074 1.202961 0.019780 0.001050 -539162.000000 0 0 1
22.807285 25.980895 11.858319 36.548583 0.850355 1.240362 0.026305 -0.006458 -98304.000000 0 0 1
22.042085 24.918195 11.086519 35.066806 0.846567 1.249123 0.023505 -0.005224 929936.000000 0 0 1
20.596885 25.067095 11.069319 34.280034 0.882981 1.241995 0.034330 0.000118 1610500.000000 0 0 1
19.920785 23.828495 10.685519 32.845322 0.874482 1.239437 0.033720 0.009651 279189.000000 0 0 1
19.740085 23.490595 9.184619 32.028679 0.871937 1.279951 0.029237 0.025429 -340742.000000 0 0 1
18.551685 23.984895 8.625519 31.525225 0.912441 1.293655 0.021408 0.023901 -104033.000000 0 0 1
18.854585 24.425495 7.302819 31.708538 0.913412 1.338399 0.022536 0.006243 -125692.000000 0 0 1
17.630685 24.754695 6.438119 31.065823 0.951919 1.362042 0.018997 0.005126 -422480.000000 0 0 1
16.872085 23.581495 6.000619 29.610160 0.949757 1.366729 0.047968 0.011470 749630.000000 0 0 1
15.940585 23.703395 4.952919 28.991112 0.978765 1.399111 0.049520 -0.000766 340110.000000 0 0 1
14.760285 24.682495 5.084019 29.205117 1.031844 1.395825 0.009444 0.002044 -569807.000000 0 0 1
15.219685 25.993095 4.872319 30.512609 1.041086 1.410428 0.019770 -0.008718 232666.000000 0 0 1
14.189385 26.872095 5.257919 30.839810 1.084974 1.399468 0.011520 -0.010466 -231245.000000 0 0 1
14.062585 28.210195 4.534619 31.845473 1.108355 1.427916 0.007959 -0.008448 -404150.000000 0 0 1
13.558185 28.071795 3.254319 31.343909 1.120855 1.466783 0.005595 -0.000933 189485.000000 0 0 1
13.435185 29.327095 2.646519 32.366445 1.141214 1.488938 0.003940 0.002411 -531009.000000 0 0 1
12.866585 29.241595 1.255319 31.971796 1.156281 1.531523 0.013631 -0.001772 -255739.000000 0 0 1
13.772285 28.954995 0.186219 32.064034 1.126822 1.564989 0.022067 0.001676 -93638.100000 0 0 1
14.217885 27.603495 0.159719 31.050390 1.095161 1.565652 0.006012 0.004416 303915.000000 0 0 1
15.267385 27.366995 -0.962781 31.352391 1.061927 1.601510 0.013549 0.005289 592788.000000 0 0 1
14.645685 27.634395 -2.235281 31.355261 1.083453 1.642146 0.016556 0.005271 387723.000000 0 0 1
15.610685 27.590895 -3.282081 31.870410 1.055910 1.673961 0.007283 0.009926 144455.000000 0 0 1
14.942885 27.978495 -4.623781 32.054100 1.080254 1.715551 0.017779 0.018559 24811.200000 0 0 1
13.922285 27.044295 -5.015381 30.828201 1.095382 1.734211 0.022437 0.008855 -143076.000000 0 0 1
13.423685 27.477995 -6.235981 31.210943 1.116371 1.771951 0.022503 0.012310 -801517.000000 0 0 1
12.201985 26.720695 -6.638181 30.115601 1.142427 1.793045 0.000367 0.003052 -1000060.000000 0 0 1
12.454785 25.406695 -7.078381 29.167196 1.115006 1.815927 0.022213 -0.009405 37019.500000 0 0 1
11.273885 24.697795 -7.414581 28.143517 1.142572 1.837399 0.013979 0.012649 -179321.000000 0 0 1
11.505185 23.271095 -7.852881 27.121594 1.111640 1.864546 0.006716 -0.003500 -648144.000000 0 0 1
12.081085 23.131095 -9.134381 27.648455 1.089478 1.907498 0.010901 -0.000380 102553.000000 0 0 1
11.811585 21.883095 -9.730381 26.703253 1.075850 1.943773 0.011349 -0.001457 -763373.000000 0 0 1
12.106885 21.773595 -11.225081 27.325236 1.063331 1.994123 0.011017 0.004251 -15403.100000 0 0 1
11.632485 20.546495 -11.691181 26.346857 1.055635 2.030565 0.020689 -0.001030 -153578.000000 0 0 1
11.626385 20.543495 -13.086481 26.990072 1.055798 2.077003 0.020742 0.000592 983728.000000 0 0 1
12.994285 20.173295 -13.799181 27.680872 0.998557 2.092675 0.006235 0.014040 853870.000000 0 0 1
14.058085 21.049295 -13.586381 28.727901 0.981965 2.063413 0.002447 0.012685 77790.000000 0 0 1
15.323385 20.438395 -13.859981 29.062574 0.927465 2.067922 0.009165 0.021988 630217.000000 0 0 1
16.532985 21.378395 -13.771081 30.331799 0.912518 2.042062 0.000229 0.023475 -455027.000000 0 0 1
16.676285 22.430095 -14.696481 31.578382 0.931482 2.054879 0.002307 0.022491 -749012.000000 0 0 1
15.681785 23.429795 -14.747881 31.817820 0.980966 2.052749 0.008997 0.022204 -368534.000000 0 0 1
15.987785 24.809095 -15.448681 33.313094 0.998345 2.053010 0.005577 0.016984 -189215.000000 0 0 1
16.169185 24.725395 -16.870081 34.020396 0.991649 2.089646 -0.007654 0.021406 220907.000000 0 0 1
14.915885 24.887495 -17.540481 33.904860 1.030868 2.114541 -0.008368 0.026479 448694.000000 0 0 1
14.921485 24.786595 -19.083381 34.658353 1.028909 2.153896 -0.011557 0.026284 -31328.900000 0 0 1
15.309485 23.498695 -19.492381 34.154383 0.993365 2.178171 -0.008797 0.030393 -13252.400000 0 0 1
15.650685 23.530695 -20.829681 35.107167 0.983867 2.205970 -0.018185 0.033619 -122744.000000 0 0 1
16.100685 22.165195 -21.433181 34.783749 0.942574 2.234684 -0.000672 0.025118 -447459.000000 0 0 1
15.014085 21.295295 -21.527081 33.798336 0.956694 2.261302 0.015537 0.026928 -202438.000000 0 0 1
15.229285 20.253495 -22.413481 33.830449 0.926059 2.294980 0.020604 0.021772 -316323.000000 0 0 1
14.070785 19.266395 -22.360481 32.698197 0.940005 2.323815 0.020392 0.007842 -856977.000000 0 0 1
13.955785 18.516195 -21.091181 31.344079 0.924927 2.308908 0.012490 0.005637 11502.700000 0 0 1
13.172685 17.360295 -21.224081 30.419748 0.921698 2.342988 0.009143 -0.000744 136758.000000 0 0 1
11.645685 17.453895 -21.476381 30.024912 0.982407 2.367829 0.006539 0.001746 -316931.000000 0 0 1
10.917285 17.782695 -20.306781 29.116605 1.020199 2.342601 -0.005977 0.006393 68905.500000 0 0 1
9.540785 17.765595 -20.635781 28.852702 1.077960 2.367723 0.000003 0.012862 402165.000000 0 0 1
8.503785 17.393095 -19.537581 27.505475 1.116054 2.360743 0.006102 0.005260 47054.700000 0 0 1
8.434885 16.038995 -19.255781 26.442045 1.086645 2.386526 -0.004988 -0.000886 129994.000000 0 0 1
7.267285 15.603995 -18.573581 25.323428 1.134937 2.394186 0.008055 0.001654 227642.000000 0 0 1
7.109085 15.817995 -17.050281 24.319953 1.148416 2.347710 -0.004106 -0.002920 -108430.000000 0 1 0
6.877285 17.183595 -16.725681 24.946370 1.190097 2.305632 -0.001114 -0.002722 -196681.000000 0 1 0
6.527585 17.128095 -15.369381 23.920679 1.206685 2.268571 -0.000048 -0.013904 -114138.000000 0 1 0
6.098985 18.540295 -14.811281 24.501310 1.252988 2.219947 0.005096 -0.017577 295167.000000 0 1 0
7.107385 19.569295 -14.682881 25.476641 1.222419 2.185024 0.010254 -0.014161 306026.000000 0 0 1
7.623985 20.142295 -15.881581 26.759331 1.208955 2.206193 0.017117 -0.003043 65758.100000 0 0 1
8.696985 21.221895 -15.622481 27.750104 1.181860 2.168772 0.008728 0.010923 -411128.000000 0 0 1
8.265485 22.411495 -14.980381 28.195836 1.217467 2.130928 0.015660 0.006268 58251.100000 0 0 1
8.071085 22.315195 -13.513481 27.307957 1.223749 2.088464 0.004840 0.002673 -57375.700000 0 0 1
7.729485 23.631095 -12.762781 27.947489 1.254676 2.045045 0.014908 -0.000695 -64384.200000 0 0 1
6.440885 24.157695 -13.072981 28.213154 1.310239 2.052585 0.013931 0.002329 7570.300000 0 0 1
5.971985 25.175995 -12.181681 28.598753 1.337892 2.010810 0.013232 0.003624 204425.000000 0 0 1
5.367185 24.653695 -10.877181 27.475888 1.356438 1.977823 0.009606 -0.001818 170557.000000 0 0 1
6.445385 24.179895 -10.039381 26.962928 1.310294 1.952326 -0.005201 -0.003538 800675.000000 0 0 1
5.902285 23.571295 -8.882681 25.871702 1.325440 1.921263 0.001240 -0.007592 319366.000000 0 0 1
6.926485 23.420895 -7.720281 25.614786 1.283253 1.876956 -0.008136 -0.009642 144654.000000 0 0 1
6.965785 24.689995 -7.042481 26.602905 1.295814 1.838716 -0.020148 -0.006697 570933.000000 0 0 1
7.929785 24.679495 -5.967881 26.600274 1.259905 1.797077 -0.007663 -0.003920 277479.000000 0 0 1
8.057385 26.071795 -5.322381 27.802656 1.271061 1.763420 -0.017250 0.000215 489245.000000 0 0 1
8.778585 27.109095 -6.080881 29.136639 1.257628 1.781044 -0.003814 0.000303 490602.000000 0 0 1
8.935985 28.295795 -5.324281 30.147169 1.264902 1.748337 -0.007950 0.006925 44540.800000 0 0 1
9.162785 29.476595 -6.306481 31.505523 1.269416 1.772328 -0.006577 0.010587 93295.000000 0 0 1
10.377285 29.441195 -7.019081 31.995930 1.231918 1.791969 -0.001466 0.009497 -243293.000000 0 0 1
10.409885 30.502195 -7.870481 33.176710 1.241908 1.810309 0.000869 0.008396 -115923.000000 0 0 1
11.630685 30.611295 -8.811381 33.911129 1.207695 1.833650 -0.001897 0.007477 628377.000000 0 0 1
12.783385 30.953595 -8.026381 34.437810 1.179146 1.806029 0.013724 0.015210 263318.000000 0 0 1
13.825885 31.474295 -8.858881 35.500227 1.156897 1.823006 0.012100 0.005947 668458.000000 0 0 1
15.150485 31.769895 -8.102181 36.117984 1.125814 1.797047 0.006542 0.010384 354003.000000 0 0 1
15.816985 30.628995 -7.626181 35.305396 1.094111 1.788518 0.014921 0.023373 -197008.000000 0 0 1
17.046185 30.976295 -7.001781 36.043421 1.067725 1.766299 0.023262 0.031047 323177.000000 0 0 1
18.005085 29.810695 -6.786881 35.481296 1.027455 1.763263 0.023818 0.024825 -232448.000000 0 0 1
17.608385 28.941495 -5.698881 34.353204 1.024214 1.737458 0.016991 0.022958 -593155.000000 0 0 1
18.508985 27.909295 -5.478381 33.934112 0.985209 1.732948 0.010229 0.021694 -758898.000000 0 0 1
18.645485 26.689095 -6.475781 33.194844 0.960998 1.767139 0.004507 0.024561 -86536.900000 0 0 1
19.147185 27.024695 -7.738081 34.012156 0.954384 1.800315 0.020355 0.026875 258765.000000 0 0 1
19.319385 25.867995 -8.532381 33.394510 0.929317 1.829164 0.010145 0.016790 -1357180.000000 0 0 1
19.900485 26.163395 -9.937181 34.340939 0.920531 1.864363 0.018855 0.010609 1521550.000000 0 0 1
21.309485 26.526295 -10.063481 35.482561 0.894026 1.858361 0.012135 0.010880 1115550.000000 0 0 1
22.101185 25.449295 -9.724781 35.081339 0.855694 1.851682 0.016379 0.005391 -1743670.000000 0 0 1
23.600785 25.738095 -9.690881 36.240306 0.828690 1.841496 0.018189 0.002586 -336761.000000 0 0 1
24.243285 25.912395 -10.927881 37.129606 0.818664 1.869537 0.027402 0.004355 350529.000000 0 0 1
25.632385 26.160295 -10.752781 38.170702 0.795591 1.856364 0.020387 0.015568 75228.400000 0 0 1
26.483285 26.319095 -12.003781 39.219254 0.782289 1.881857 0.011591 0.006590 -73343.100000 0 0 1
26.180985 27.539195 -12.623281 40.039961 0.810676 1.891534 0.018148 0.003330 78422.400000 0 0 1
26.860285 27.561495 -13.872381 40.909093 0.798282 1.916759 0.008432 0.006120 77234.300000 0 0 1
26.470885 28.640195 -14.929381 41.759489 0.824740 1.936395 0.016622 -0.000881 -93378.200000 0 0 1
26.761385 29.956595 -14.482481 42.700252 0.841674 1.916827 0.023426 -0.008590 50902.300000 0 0 1
27.079685 30.726795 -15.615881 43.832648 0.848406 1.935060 0.029707 -0.000283 -325897.000000 0 0 1
27.493585 32.171695 -15.320981 45.007195 0.863644 1.918151 0.016142 -0.005606 375746.000000 0 0 1
28.639385 32.344995 -14.486281 45.566055 0.846087 1.894329 0.021183 -0.007982 212729.000000 0 0 1
29.075985 33.670895 -14.658881 46.840419 0.858497 1.889098 0.016234 -0.008904 -179737.000000 0 0 1
14.186885 -33.300501 -29.431113 46.651704 -1.168057 2.253469 -0.002759 0.004063 555634.000000 0 0 1
15.393085 -33.523501 -28.674503 46.722578 -1.140340 2.231558 -0.003733 -0.000088 928612.000000 0 0 1
15.390285 -32.594501 -27.624203 45.413202 -1.129656 2.224695 0.008890 -0.003134 -69128.500000 0 0 1
16.556885 -32.777601 -26.603973 45.346146 -1.103055 2.197757 0.013574 0.000008 1634820.000000 0 0 1
17.918385 -32.409201 -26.937853 45.793807 -1.065745 2.199680 0.023324 -0.010142 1217170.000000 0 0 1
18.563785 -33.366301 -27.748523 47.200685 -1.063081 2.199237 0.011527 -0.007341 -782230.000000 0 0 1
20.089285 -33.215201 -27.697863 47.686482 -1.026839 2.190547 0.022662 -0.005956 -327996.000000 0 0 1
20.607985 -32.135901 -28.417243 47.591437 -1.000578 2.210688 0.003420 -0.005944 -569176.000000 0 0 1
21.989885 -32.036401 -28.256713 48.045061 -0.969254 2.199540 0.003388 -0.000445 -661390.000000 0 0 1
22.593685 -30.749501 -28.891683 47.861631 -0.937117 2.218868 -0.006736 0.001027 -165610.000000 0 0 1
22.623985 -30.758401 -30.287893 48.736848 -0.936615 2.241398 -0.016277 0.004548 13751.800000 0 0 1
23.067285 -29.540601 -30.857223 48.548068 -0.907831 2.259584 -0.012139 -0.003535 -31926.700000 0 0 1
23.260585 -29.564401 -32.390303 49.641115 -0.904170 2.281661 -0.006174 -0.000210 240476.000000 0 0 1
24.286985 -30.446401 -32.802813 50.920188 -0.897462 2.270774 0.003140 -0.007109 -254260.000000 0 0 1
24.590885 -30.384101 -34.187698 51.929798 -0.890390 2.289414 0.001599 -0.010209 -373812.000000 0 0 1
25.788085 -31.158701 34.551356 53.194795 -0.879429 0.863837 -0.005758 -0.004740 -585198.000000 0 0 1
26.993185 -30.446901 -34.516120 53.357364 -0.845453 2.274290 -0.005465 -0.016155 -752336.000000 0 0 1
28.027985 -31.302001 34.306950 54.243433 -0.840525 0.886068 0.000093 -0.007425 -466128.000000 0 0 1
29.390885 -30.621201 34.338218 54.594829 -0.805896 0.890576 0.005656 -0.011583 -518388.000000 0 0 1
29.509785 -29.497601 33.510559 53.515357 -0.785192 0.894145 -0.013493 -0.013380 103065.000000 0 0 1
30.825485 -29.001201 33.311700 53.860464 -0.754915 0.903988 -0.007962 -0.014305 37968.700000 0 0 1
30.913685 -27.796701 32.438539 52.731123 -0.732357 0.908196 -0.014144 -0.022641 -281408.000000 0 0 1
32.140685 -27.615701 31.785869 52.971616 -0.709819 0.927227 -0.014749 -0.017668 59391.300000 0 0 1
31.956285 -26.622201 30.831839 51.774009 -0.694590 0.932898 -0.008644 -0.016501 -1562.360000 0 0 1
32.684285 -26.938001 29.468579 51.597631 -0.689317 0.962923 -0.004203 -0.003076 122663.000000 0 0 1
32.146585 -27.988901 28.707739 51.389841 -0.716369 0.978067 -0.011235 -0.008627 458121.000000 0 0 1
31.000585 -27.667301 27.921249 50.061082 -0.728643 0.979132 -0.001185 -0.016499 -49961.500000 0 0 1
30.464085 -28.868401 27.113069 49.965624 -0.758511 0.997226 -0.013141 -0.005549 -413938.000000 0 0 1
29.421585 -28.531501 26.249249 48.669285 -0.770041 1.001144 -0.005323 -0.004384 -376318.000000 0 0 1
28.898685 -29.660801 25.614199 48.692754 -0.798412 1.016862 -0.001012 0.005394 651691.000000 0 0 1
27.474885 -29.387401 25.014939 47.373366 -0.819020 1.014508 -0.004263 0.000486 1010750.000000 0 0 1
26.444685 -29.138101 25.956259 47.138919 -0.833818 0.987674 0.001359 0.006179 789816.000000 0 0 1
25.114885 -28.987901 25.440499 46.024720 -0.856863 0.985127 0.005622 0.014679 765942.000000 0 0 1
24.080685 -28.927901 26.549589 46.060651 -0.876587 0.956474 0.013922 0.016462 -393038.000000 0 0 1
24.037785 -27.625401 27.138479 45.579326 -0.854729 0.933018 0.008901 0.007701 256483.000000 0 0 1
23.030285 -27.482001 28.127089 45.571785 -0.873302 0.905612 0.019565 -0.000422 -72972.700000 0 0 1
22.942985 -26.073701 28.793849 45.114346 -0.849182 0.878584 0.021183 0.009041 -357809.000000 0 0 1
22.076085 -26.150801 29.919979 45.457926 -0.869689 0.852384 0.038289 0.005216 377289.000000 0 0 1
21.929285 -24.945101 30.694209 45.224839 -0.849648 0.824802 0.039817 -0.002897 -202479.000000 0 0 1
21.229585 -23.689601 30.057719 43.764814 -0.840109 0.813718 0.038933 -0.004756 -83809.200000 0 0 1
21.975285 -23.080101 28.982769 43.076735 -0.809915 0.832786 0.042622 -0.004114 467903.000000 0 0 1
21.577385 -21.742001 28.646429 41.939433 -0.789198 0.818876 0.049292 0.001807 226296.000000 0 0 1
22.345785 -20.620601 29.446689 42.327896 -0.745268 0.801430 0.051265 0.002059 53781.000000 0 0 1
21.981085 -20.657801 30.810219 43.118238 -0.754373 0.774813 0.064299 0.000913 370324.000000 0 0 1
22.676985 -19.704301 31.622149 43.617261 -0.715371 0.759774 0.053059 -0.001996 -300965.000000 0 0 1
21.955385 -19.397701 32.935489 44.080111 -0.723627 0.726997 0.068339 -0.010988 -348800.000000 0 0 1
22.019285 -20.462601 33.867522 45.283286 -0.748771 0.725898 0.044957 -0.011344 303393.000000 0 0 1
21.368585 -20.242701 -34.143551 45.079546 -0.758348 2.430129 0.049838 -0.012262 -368286.000000 0 0 1
21.397885 -21.478101 -33.179353 44.944941 -0.787269 2.401227 0.032074 -0.005980 -889742.000000 0 0 1
22.529785 -21.698901 -32.412603 45.044537 -0.766614 2.373976 0.017457 -0.003082 -841270.000000 0 0 1
22.415485 -22.697701 -31.386103 44.751839 -0.791654 2.348067 0.006466 -0.004842 306579.000000 0 0 1
23.661285 -22.808001 -30.438913 44.794963 -0.767038 2.317900 -0.005607 0.001281 1060830.000000 0 0 1
24.820485 -23.281901 -31.112813 46.109766 -0.753423 2.311430 0.001694 -0.000359 -12128.000000 0 0 1
25.764585 -23.956401 -30.320153 46.443887 -0.749048 2.282116 -0.000219 -0.004461 425903.000000 0 0 1
26.909185 -24.694601 -31.039473 47.930955 -0.742509 2.275210 -0.008094 -0.000922 223165.000000 0 0 1
27.877785 -23.930301 -31.791743 48.585441 -0.709351 2.284115 -0.006684 0.001761 408430.000000 0 0 1
27.808385 -23.879901 -33.219203 49.467882 -0.709541 2.307069 -0.004427 -0.000164 -12140.300000 0 0 1
28.066885 -25.196701 -34.014283 50.789716 -0.731564 2.304612 -0.010590 -0.009677 147682.000000 0 0 1
26.983485 -26.089301 -33.780943 50.496655 -0.768552 2.303624 0.005571 -0.017682 17503.600000 0 0 1
26.952985 -27.274401 -34.551956 51.615831 -0.791325 2.304205 0.004183 -0.017465 -237748.000000 0 0 1
26.571385 -27.224601 33.200616 50.492557 -0.797540 0.853254 0.003970 -0.024280 -557453.000000 0 0 1
27.509885 -26.706501 32.318989 50.145269 -0.770581 0.870418 -0.017321 -0.023281 -453680.000000 0 0 1
27.080185 -26.782401 30.961929 49.084361 -0.779870 0.888225 -0.013563 -0.017407 196479.000000 0 0 1
28.293285 -26.304601 30.048879 48.942590 -0.748990 0.909726 -0.021780 -0.019162 598673.000000 0 0 1
28.558685 -24.930401 30.083019 48.395366 -0.717670 0.900001 -0.020066 -0.021970 154249.000000 0 0 1
28.845585 -24.371001 31.355209 49.083221 -0.701513 0.877836 -0.022853 -0.015278 -3335220.000000 0 0 1
29.083085 -22.840201 31.181379 48.371262 -0.665740 0.870262 -0.027177 -0.008186 351569.000000 0 0 1
30.400885 -22.577901 30.676649 48.734302 -0.638795 0.889929 -0.021596 -0.015863 1049820.000000 0 0 1
31.350885 -22.960101 31.724029 50.164313 -0.632115 0.886146 -0.022090 -0.011939 -1162730.000000 0 0 1
32.800285 -22.467201 31.418549 50.673060 -0.600567 0.902022 -0.021064 -0.015070 313276.000000 0 0 1
33.355985 -23.179101 30.300999 50.675862 -0.607295 0.929871 -0.014598 -0.023132 -152034.000000 0 0 1
34.427485 -22.432201 29.811859 50.766153 -0.577484 0.943153 -0.017641 -0.021502 -479682.000000 0 0 1
34.659885 -22.768101 28.349049 50.233083 -0.581211 0.971150 -0.001440 -0.022325 -251862.000000 0 0 1
-34.612519 -24.064401 28.168439 50.700916 0.607532 0.981735 0.001859 -0.018393 184302.000000 0 0 1
-34.166219 -24.249401 26.838669 49.756187 0.617238 1.001068 0.002601 -0.003212 -205782.000000 0 0 1
-33.915619 -25.724701 26.485249 50.134797 0.648913 1.014222 -0.009720 -0.009994 -160616.000000 0 0 1
34.591385 -26.413101 26.373679 50.889948 -0.652132 1.025994 0.000344 -0.010142 52004.200000 0 0 1
34.668885 -27.706501 25.869619 51.369436 -0.674238 1.043036 0.002690 0.006883 19717.900000 0 0 1
-34.403619 -28.772501 26.778189 52.235402 0.696499 1.032534 0.000912 0.004285 -576162.000000 0 0 1
-34.216019 -30.024801 26.054939 52.450782 0.720248 1.050946 0.006278 0.005690 133111.000000 0 0 1
-33.285419 -30.991101 26.492179 52.632718 0.749719 1.043336 0.016205 0.000377 -872109.000000 0 0 1
-31.856919 -30.534901 26.605209 51.527475 0.764212 1.028236 0.023922 0.005113 -1795400.000000 0 0 1
-31.271219 -30.231301 25.383839 50.360302 0.768491 1.042521 0.010487 0.009742 -774690.000000 0 0 1
-29.935019 -29.883401 25.512669 49.396552 0.784535 1.028053 -0.011851 0.009728 -718278.000000 0 0 1
-29.187419 -29.721901 24.186409 48.169277 0.794471 1.044756 -0.021220 0.010442 -428748.000000 0 0 1
-29.132619 -30.940001 23.441119 48.533280 0.815476 1.066729 -0.020321 0.008176 380837.000000 0 0 1
-28.654819 -30.755901 22.119819 47.500637 0.820749 1.086400 -0.020169 0.005438 -699441.000000 0 0 1
-28.874519 -32.069401 21.308519 48.127303 0.837774 1.112129 -0.024400 0.009612 393491.000000 0 0 1
-28.023219 -33.138601 21.753719 48.545772 0.868841 1.106149 -0.020705 0.005032 1038090.000000 0 0 1
-26.635219 -32.927001 21.436419 47.467277 0.890642 1.102234 -0.011893 0.006561 343769.000000 0 0 1
-25.862219 -34.263501 21.643419 48.075768 0.924228 1.103814 -0.020374 0.019283 -293297.000000 0 0 1
-25.997719 34.400895 20.500219 47.744759 -0.923639 1.127000 -0.032637 0.014199 24236.600000 0 0 1
-27.224619 33.750995 20.242919 47.854836 -0.892025 1.134035 -0.026658 0.017279 62761.600000 0 0 1
-27.620719 32.528395 21.131719 47.618801 -0.866810 1.110997 -0.018195 0.024037 35488.800000 0 0 1
-26.660119 31.499095 21.002119 46.303822 -0.868409 1.100027 -0.020792 0.018683 141516.000000 0 0 1
-26.809719 30.511395 22.018719 46.200977 -0.849887 1.074030 -0.010702 0.015802 -130714.000000 0 0 1
-25.849919 29.322895 21.835119 44.775249 -0.848262 1.061388 -0.004843 0.018040 1098220.000000 0 0 1
-24.452519 29.676595 21.877119 44.240641 -0.881612 1.053534 -0.009301 0.019439 944603.000000 0 0 1
-23.607519 28.594695 21.559719 42.892809 -0.880645 1.044144 -0.004178 0.011232 778623.000000 0 0 1
-22.064419 28.856895 21.633219 42.279489 -0.918007 1.033667 -0.010482 0.021253 610135.000000 0 0 1
-21.585919 28.734295 22.974219 42.654735 -0.926512 1.002011 -0.011032 0.022895 -364790.000000 0 0 1
-20.257819 29.151795 22.995619 42.296630 -0.963496 0.995987 0.011376 0.017804 -588354.000000 0 0 1
-19.682219 29.161895 24.445179 42.841250 -0.977095 0.963561 0.002125 0.014940 -625643.000000 0 0 1
-19.497419 27.882195 24.983679 42.210785 -0.960555 0.937408 0.007971 0.008520 357023.000000 0 0 1
-19.437919 27.910995 26.384649 43.046557 -0.962474 0.911029 0.009409 0.004547 -30818.000000 0 0 1
-18.048919 28.292495 26.955049 43.044203 -1.002946 0.894104 0.017169 0.009655 -324253.000000 0 0 1
-17.687919 29.654095 26.918909 43.781909 -1.032973 0.908612 -0.003464 0.007331 1065650.000000 0 0 1
-16.319119 29.878395 27.329499 43.657000 -1.070887 0.894377 0.003005 0.005139 893080.000000 0 0 1
-16.148619 30.036795 28.879089 44.687680 -1.077501 0.868146 -0.004208 0.014504 -344243.000000 0 0 1
-16.194519 28.805495 29.559639 44.337245 -1.058633 0.841024 0.000106 0.011869 240229.000000 0 0 1
-16.068419 29.151395 30.944739 45.448595 -1.067028 0.821842 -0.004131 0.017211 -211856.000000 0 0 1
-15.901319 27.928795 31.909589 45.288977 -1.053217 0.788969 -0.003784 0.017823 99938.400000 0 0 1
-14.566619 27.465195 32.064899 44.661853 -1.083152 0.769946 0.009838 0.024173 340160.000000 0 0 1
-14.459419 26.294695 32.897529 44.527893 -1.068031 0.739498 0.015354 0.021511 -264185.000000 0 0 1
-14.623219 26.267795 34.453629 45.726231 -1.062826 0.717463 0.025030 0.014606 11144.500000 0 0 1
-15.952319 26.083395 -34.337837 45.977245 -1.021899 2.414100 0.029406 0.013790 93961.800000 0 0 1
-16.425619 27.269995 -33.645393 46.319176 -1.028663 2.383839 0.022698 0.004276 -44219.100000 0 0 1
-17.846719 27.039695 -33.092013 46.311249 -0.987410 2.366787 0.010129 0.004487 -460471.000000 0 0 1
-18.785319 26.880195 -34.115339 47.321131 -0.960840 2.375943 0.000366 0.007761 -219316.000000 0 0 1
-20.001319 26.429195 -33.521883 47.140978 -0.922965 2.361856 0.016048 0.003064 247122.000000 0 0 1
-21.215619 26.531095 -34.485123 48.406872 -0.896268 2.363711 0.010360 -0.003775 -478708.000000 0 0 1
-21.311819 25.705895 33.678291 47.425879 -0.878583 0.781121 0.013481 -0.002528 2631.610000 0 0 1
-21.605619 24.302995 33.914920 46.985744 -0.844086 0.764378 0.015062 -0.003584 -137091.000000 0 0 1
-21.681719 23.528195 32.645949 45.710293 -0.826218 0.775327 0.006350 -0.001862 -335357.000000 0 0 1
-23.003819 23.504695 32.182639 46.014874 -0.796167 0.796244 0.004853 -0.001203 -504657.000000 0 0 1
-23.100619 23.047495 30.853299 44.908259 -0.784247 0.813403 0.007716 -0.000917 575358.000000 0 0 1
-24.488419 22.513295 30.375429 45.046618 -0.743400 0.830765 -0.001031 0.002213 538763.000000 0 0 1
-24.844219 21.277495 30.889329 44.990195 -0.708219 0.814023 0.000507 -0.005106 -286784.000000 0 0 1
-26.183119 21.001395 30.568659 45.398868 -0.676018 0.832086 -0.001263 -0.002904 -238617.000000 0 0 1
-26.670619 19.639795 31.138279 45.460267 -0.634729 0.816253 0.012838 -0.014039 -588940.000000 0 0 1
-27.167319 19.717495 32.429209 46.674366 -0.627819 0.802659 0.020415 -0.009134 -166785.000000 0 0 1
-27.290919 18.469595 33.083849 46.695410 -0.594963 0.783421 0.017995 0.000495 -238807.000000 0 0 1
-28.217819 17.321595 32.573679 46.447040 -0.550543 0.793566 0.002163 -0.003268 423502.000000 0 0 1
-29.620419 17.534995 32.536129 47.365019 -0.534509 0.813550 -0.006704 -0.007753 165281.000000 0 0 1
-30.306219 16.371195 32.135089 47.107822 -0.495282 0.820083 -0.002913 0.000091 -142594.000000 0 0 1
-31.789519 16.629295 31.827179 47.959111 -0.481961 0.845133 -0.007758 0.006304 -124957.000000 0 0 1
-32.459919 16.938995 33.069279 49.337138 -0.480969 0.836222 -0.004175 0.003386 1513510.000000 0 0 1
-33.885319 17.206395 32.942679 50.294085 -0.469855 0.856612 0.004633 -0.007705 1351040.000000 0 0 1
-34.427419 17.488695 34.356737 51.686430 -0.470017 0.843684 0.003070 0.000509 645265.000000 0 0 1
33.905285 17.805295 34.384601 51.467443 0.483563 0.839165 0.004496 -0.011558 629272.000000 0 0 1
33.652185 18.426695 -33.635143 51.022892 0.500970 2.290573 -0.012569 -0.009187 -119652.000000 0 0 1
32.156185 18.232595 -33.357553 49.791305 0.515802 2.304934 -0.003154 -0.004084 -422887.000000 0 0 1
31.691085 16.913095 -33.243403 48.943861 0.490232 2.317489 0.001125 0.001767 -714923.000000 0 0 1
30.584085 16.880595 -32.413693 47.654887 0.504332 2.318799 -0.006835 0.003709 -803205.000000 0 0 1
29.892885 15.519895 -32.560213 46.846763 0.478876 2.339267 -0.005911 0.002021 -406347.000000 0 0 1
29.109485 15.389795 -33.719753 47.129923 0.486333 2.368084 -0.000797 -0.015424 63253.200000 0 0 1
28.412185 14.170195 -33.914393 46.456783 0.462636 2.389148 0.002033 -0.013047 -117052.000000 0 0 1
29.328585 13.040695 -34.414118 47.059081 0.418389 2.391016 0.001336 -0.006100 15342.800000 0 0 1
30.134885 12.542595 -33.345663 46.662203 0.394406 2.366875 0.006660 0.005642 175804.000000 0 0 1
30.904785 11.459395 -33.839293 47.238980 0.355081 2.369343 0.011209 0.005282 -309083.000000 0 0 1
16.863585 -21.368205 10.314077 29.109463 -0.902681 1.208609 -0.024958 0.001158 -146553.000000 0 0 1
16.719685 -22.669205 10.792677 30.164923 -0.935311 1.204897 -0.017363 -0.010867 327462.000000 0 0 1
17.942485 -23.343205 11.066077 31.453077 -0.915473 1.211273 -0.014836 -0.015663 -116131.000000 0 0 1
17.716685 -24.632505 11.859277 32.577349 -0.947274 1.198200 -0.000433 -0.026918 135466.000000 0 0 1
17.029685 -25.651855 11.117677 32.735769 -0.984727 1.224285 0.001212 -0.026297 372029.000000 0 0 1
15.673685 -25.748385 11.527777 32.272796 -1.023986 1.205530 0.010662 -0.025110 -43636.500000 0 0 1
14.813885 -26.721705 10.720277 32.379392 -1.064599 1.233345 0.037029 -0.017328 -187571.000000 0 0 1
14.625285 -26.232145 9.414877 31.474820 -1.062188 1.267022 0.035576 -0.019736 330784.000000 0 0 1
13.814385 -27.151235 8.670577 31.673422 -1.100138 1.293507 0.041208 -0.008675 -19696.300000 0 0 1
13.549485 -26.653505 7.193477 30.752950 -1.100486 1.334697 0.042762 -0.011823 382729.000000 0 0 1
12.536685 -25.628695 7.232577 29.433121 -1.115853 1.322524 0.051779 -0.014602 259688.000000 0 0 1
12.447785 -24.948105 6.009977 28.521485 -1.107991 1.358487 0.041982 0.005003 -135720.000000 0 0 1
11.691985 -23.619005 6.188777 27.071403 -1.111137 1.340147 0.030720 0.014586 -252579.000000 0 0 1
11.448085 -22.997005 4.947577 26.161028 -1.108904 1.380530 0.032167 0.009358 41144.900000 0 0 1
10.853785 -21.742705 5.274777 24.867109 -1.107795 1.357054 0.032298 0.009295 22644.900000 0 1 0
10.045685 -21.082005 4.126377 23.714841 -1.126121 1.395906 0.011742 0.008390 158843.000000 0 1 0
10.885985 -20.506905 3.137377 23.428208 -1.082778 1.436478 0.000430 0.015770 -21685.100000 0 1 0
10.099585 -20.001105 2.079077 22.502630 -1.103195 1.478272 0.005854 0.021487 -67902.900000 0 1 0
10.850585 -19.448105 0.806177 22.284835 -1.061889 1.534612 0.003196 0.020375 2175.440000 0 1 0
11.613785 -18.292305 1.098177 21.695493 -1.005110 1.520157 -0.004686 0.021380 -240768.000000 0 1 0
12.286885 -17.947305 -0.074923 21.750377 -0.970475 1.574241 -0.001458 0.010963 38876.800000 0 1 0
13.552885 -17.051405 0.196977 21.782330 -0.899219 1.561753 0.005562 0.018453 1060250.000000 0 1 0
14.597385 -17.804105 0.845277 23.038756 -0.884045 1.534099 0.002902 0.009437 294426.000000 0 1 0
15.858885 -17.197905 0.766877 23.406415 -0.825883 1.538027 0.009481 0.003745 -623767.000000 0 1 0
17.021385 -17.963205 1.331977 24.782623 -0.812313 1.517024 0.011715 0.014399 -651165.000000 0 1 0
17.291985 -19.146805 0.637177 25.807341 -0.836257 1.546104 0.013101 0.002310 -371025.000000 0 0 1
18.527185 -19.613705 1.097577 27.002938 -0.813877 1.530139 0.013295 0.013546 -126140.000000 0 0 1
18.892485 -20.949705 0.485677 28.214393 -0.836987 1.553582 0.012455 0.010575 2999.430000 0 0 1
18.063285 -21.982005 0.982177 28.468499 -0.882945 1.536289 0.021564 0.009764 -19680.500000 0 0 1
17.964485 -23.116705 0.146577 29.276718 -0.910162 1.565790 0.025283 0.005675 421376.000000 0 0 1
16.749485 -24.029405 0.573177 29.296520 -0.962059 1.551230 0.019498 0.008807 275937.000000 0 0 1
16.882985 -24.793605 1.733577 30.046020 -0.972976 1.513067 0.020752 0.006320 -709630.000000 0 0 1
15.769085 -25.561055 2.040077 30.103047 -1.018030 1.502975 0.016795 0.007391 -924886.000000 0 0 1
15.810985 -26.181965 3.433377 30.777761 -1.027523 1.459010 0.024294 0.005006 -189832.000000 0 0 1
16.665385 -27.262685 3.468577 32.140629 -1.022117 1.462667 0.030716 -0.000202 -613324.000000 0 0 1
17.969785 -26.910125 3.840677 32.585561 -0.982030 1.452657 0.022714 0.008111 120785.000000 0 0 1
19.053985 -28.093325 3.872777 34.165591 -0.974825 1.457199 0.022782 0.006744 770102.000000 0 0 1
19.475785 -28.440975 2.579677 34.566602 -0.970359 1.496098 0.030262 0.005336 -64499.900000 0 0 1
20.453685 -29.457715 2.561977 35.953774 -0.963879 1.499478 0.025705 0.004507 521244.000000 0 0 1
19.800385 -30.890885 2.845977 36.802195 -1.000789 1.493387 0.023976 0.004684 420184.000000 0 0 1
19.930685 -31.294865 4.219077 37.341684 -1.003709 1.457569 0.038528 0.000752 -539709.000000 0 0 1
19.062385 -32.336995 4.516577 37.808137 -1.038139 1.451050 0.035181 -0.009564 -756230.000000 0 0 1
18.916185 -32.718615 5.991877 38.265290 -1.046600 1.413561 0.034526 -0.015227 -983861.000000 0 0 1
19.974285 -33.343035 6.583677 39.421756 -1.031073 1.403004 0.026923 -0.025897 -792028.000000 0 0 1
19.511785 -34.284180 7.554077 40.164397 -1.053393 1.381591 0.021596 -0.020621 -36351.600000 0 0 1
20.603485 34.308586 8.137177 40.838662 1.029984 1.370202 0.028358 -0.024596 180695.000000 0 0 1
21.492085 -34.498489 8.998377 41.629631 -1.013646 1.352924 0.018929 -0.020808 -317248.000000 0 0 1
22.589285 34.232840 9.360077 42.068684 0.987513 1.346423 0.027126 -0.019893 -367373.000000 0 0 1
23.523485 -34.442162 10.253077 42.950465 -0.971581 1.329750 0.022642 -0.009042 -251251.000000 0 0 1
24.250385 -33.447745 9.527077 42.398089 -0.943473 1.344156 0.008674 -0.007700 323651.000000 0 0 1
25.058285 -32.624295 10.377377 42.425843 -0.915820 1.323689 -0.005920 -0.000387 320774.000000 0 0 1
25.665085 -31.509305 9.499477 41.734553 -0.887262 1.341167 -0.008309 -0.003418 45713.800000 0 0 1
24.766185 -30.437415 9.342877 40.337197 -0.887772 1.337054 -0.005748 -0.005527 237876.000000 0 0 1
25.318585 -29.658515 8.312877 39.871821 -0.864175 1.360766 -0.012840 -0.005877 50721.200000 0 0 1
24.863685 -28.194955 8.440577 38.527933 -0.848101 1.349928 -0.016102 0.001505 -260465.000000 0 0 1
25.459585 -27.608145 9.536077 38.747089 -0.825863 1.322131 -0.000990 -0.014211 -52913.600000 0 0 1
25.023585 -26.234715 9.736177 37.539755 -0.809022 1.308441 -0.004524 -0.005871 -66866.800000 0 0 1
25.906485 -25.602115 10.865577 38.008880 -0.779489 1.280883 0.019144 -0.005363 183396.000000 0 0 1
27.157985 -25.255165 10.322477 38.495883 -0.749110 1.299329 0.014931 -0.005699 -616974.000000 0 0 1
27.922485 -24.476005 11.229277 38.792224 -0.719718 1.277121 0.017381 -0.007196 -646780.000000 0 0 1
29.242085 -24.087105 10.606777 39.341986 -0.689034 1.297814 0.018474 -0.006427 -644064.000000 0 0 1
29.201485 -23.247405 9.464877 38.506525 -0.672361 1.322452 0.021280 -0.006880 140238.000000 0 0 1
30.524185 -23.122705 8.953777 39.326269 -0.648297 1.341103 0.011342 -0.006606 267065.000000 0 0 1
30.493085 -22.340005 7.614477 38.560139 -0.632288 1.372020 0.013702 0.005040 -384597.000000 0 0 1
30.074985 -21.040705 7.782377 37.520412 -0.610463 1.361862 0.017303 0.012135 -176387.000000 0 0 1
30.294585 -20.214905 6.667977 37.025210 -0.588426 1.389715 0.008895 0.016701 -73413.100000 0 0 1
29.813585 -18.735505 6.755277 35.853908 -0.561056 1.381252 0.016014 0.015664 -370269.000000 0 0 1
30.484785 -18.055305 7.774677 36.273430 -0.534718 1.354785 0.020847 0.009561 18574.000000 0 0 1
30.275185 -16.680505 7.670277 35.407050 -0.503582 1.352434 0.023963 0.006974 149800.000000 0 0 1
30.772485 -15.923305 8.960977 35.788218 -0.477512 1.317714 0.021936 -0.003249 -111976.000000 0 0 1
32.158385 -15.728805 9.046977 36.924312 -0.454893 1.323262 0.014434 0.001103 -459142.000000 0 0 1
32.514185 -15.080105 10.225677 37.271252 -0.434271 1.292874 0.020419 -0.010469 170263.000000 0 0 1
34.040285 -15.041105 10.432277 38.649815 -0.416066 1.297489 0.012895 -0.011322 352423.000000 0 0 1
34.801385 -14.169105 9.600277 38.782280 -0.386648 1.320653 0.009415 -0.001013 1586700.000000 0 0 1
-33.663519 -14.750805 9.134677 37.871639 0.412984 1.327193 0.010681 -0.005827 1918330.000000 0 0 1
-32.825619 -13.735205 8.267577 36.531219 0.396292 1.342503 0.009605 -0.000404 -268066.000000 0 0 1
-33.382119 -13.436605 6.987777 36.657022 0.382667 1.378997 0.007170 -0.001538 -240615.000000 0 0 1
-32.511419 -13.070805 5.936677 35.539871 0.382261 1.402967 -0.001339 0.002631 -943669.000000 0 0 1
-31.608219 -14.165805 5.403077 35.056280 0.421330 1.416054 -0.012011 0.011352 -980430.000000 0 0 1
-30.603119 -14.432105 6.311077 34.418981 0.440662 1.386393 0.000068 0.004386 -724994.000000 0 0 1
-29.892219 -15.597305 5.853277 34.221068 0.480923 1.398908 -0.002152 0.012813 11919.400000 0 0 1
-29.251219 -16.301505 7.072877 34.225699 0.508425 1.362642 -0.003412 0.001576 45571.100000 0 0 1
-30.245919 -16.950205 7.848577 35.548913 0.510803 1.348180 -0.017804 -0.006203 37102.200000 0 0 1
-29.843419 -16.992505 9.168477 35.544843 0.517607 1.309906 -0.017294 -0.012088 -139534.000000 0 0 1
-30.776119 -17.802105 10.088777 36.957649 0.524415 1.294305 -0.032597 -0.012183 -755884.000000 0 0 1
-32.040419 -17.136905 10.232577 37.748743 0.491139 1.296291 -0.015595 -0.004304 61018.300000 0 0 1
-32.926019 -17.834605 11.049977 39.042257 0.496415 1.283849 -0.000769 -0.011955 -423898.000000 0 0 1
-33.359719 -19.228705 10.625077 39.943788 0.522889 1.301554 0.001606 -0.009120 -2216160.000000 0 0 1
-32.495719 -20.295705 10.776577 39.799774 0.558287 1.296604 -0.004756 -0.005753 -868851.000000 0 0 1
-32.501019 -20.821405 12.138477 40.462201 0.569766 1.266108 -0.013162 -0.013742 -300057.000000 0 0 1
-33.777919 -21.555205 12.607777 42.006317 0.567996 1.265957 -0.031399 -0.014278 92423.600000 0 0 1
-33.906119 -22.801905 11.996977 42.584965 0.592031 1.285212 -0.008147 -0.012505 -1038670.000000 0 0 1
34.513285 -23.226205 12.026877 43.304378 -0.592350 1.289367 -0.004609 -0.005384 -715129.000000 0 0 1
34.325385 -24.715305 11.794177 43.911057 -0.624043 1.298865 -0.005448 -0.007323 -100313.000000 0 0 1
34.776385 -25.499245 12.906277 45.013114 -0.632685 1.279992 -0.007441 -0.001111 260679.000000 0 0 1
34.028385 -26.696865 12.926477 45.141415 -0.665247 1.280376 -0.011869 -0.003836 78121.900000 0 0 1
33.194585 -26.700795 14.249977 44.920761 -0.677401 1.247995 -0.017592 -0.013063 92514.000000 0 0 1
32.504485 -25.485975 14.478777 43.768841 -0.664955 1.233644 -0.020693 -0.006232 185363.000000 0 0 1
31.687885 -25.520195 15.670277 43.599999 -0.678001 1.203161 -0.005727 0.004754 -102764.000000 0 0 1
31.116585 -24.130105 16.041177 42.518504 -0.659606 1.183944 0.002139 0.003160 -679575.000000 0 0 1
31.994085 -23.214005 16.601777 42.873424 -0.627683 1.173174 0.001694 -0.000607 -152075.000000 0 0 1
32.968285 -22.784105 15.637477 43.018065 -0.604722 1.198764 -0.010811 0.000417 677579.000000 0 0 1
34.102185 -21.832405 16.181077 43.605506 -0.569459 1.190626 -0.014755 -0.000260 347363.000000 0 0 1
33.746685 -20.481005 16.388077 42.742009 -0.545481 1.177301 -0.003465 -0.000793 -357838.000000 0 0 1
32.812085 -20.264505 17.395077 42.306876 -0.553255 1.147065 -0.002808 -0.000457 -258925.000000 0 0 1
32.985185 -18.935005 18.124877 42.131556 -0.521117 1.126085 -0.007501 0.002252 -391505.000000 0 0 1
32.664585 -17.806505 17.269577 41.015668 -0.499098 1.136196 0.000842 -0.003875 260855.000000 0 0 1
32.698885 -16.551905 17.906777 40.790137 -0.468589 1.116313 0.000004 -0.008221 273555.000000 0 0 1
34.096585 -16.065805 18.404877 41.945520 -0.440331 1.116555 -0.011768 -0.007650 108771.000000 0 0 1
34.542785 -16.546805 19.678777 43.061061 -0.446726 1.096180 -0.011048 0.009539 251602.000000 0 0 1
-34.080219 -15.784305 20.080977 42.589332 0.433737 1.079803 -0.017613 -0.000820 -236924.000000 0 0 1
-33.663619 -15.843205 21.556777 42.999314 0.439879 1.045663 -0.017710 0.003812 -294970.000000 0 0 1
-33.070119 -17.023705 22.020777 43.224460 0.475398 1.036249 -0.028133 0.012260 48545.700000 0 0 1
-32.649419 -16.861205 23.327177 43.525188 0.476707 1.005168 -0.018428 0.014501 -333170.000000 0 0 1
-31.825419 -18.071605 23.777977 43.644385 0.516433 0.994632 -0.022419 0.015891 -976209.000000 0 0 1
-32.567419 -19.287805 23.982177 44.808492 0.534696 1.006034 -0.021103 0.018115 91319.900000 0 0 1
-31.918719 -20.514705 24.254577 45.032680 0.571238 1.002022 -0.021699 0.017073 -660495.000000 0 0 1
-30.700319 -20.964205 23.408477 43.931358 0.599134 1.008841 -0.030185 0.024877 -74496.200000 0 0 1
-29.533019 -20.220305 23.615577 42.880711 0.600362 0.987561 -0.025699 0.027837 -489850.000000 0 0 1
-28.521419 -20.572105 22.710377 41.862203 0.624870 0.997382 -0.021030 0.021672 -332537.000000 0 0 1
-27.307519 -19.650105 22.816177 40.649786 0.623750 0.974857 -0.003768 0.025853 -357793.000000 0 0 1
-26.699519 -19.557605 24.080777 40.929794 0.632212 0.941788 -0.003998 0.021916 254049.000000 0 0 1
-25.657919 -18.594505 24.051977 39.781679 0.627117 0.921534 0.002295 0.022350 -362868.000000 0 0 1
-25.272519 -18.360605 25.488977 40.317490 0.628294 0.886399 0.002089 0.006100 -823235.000000 0 0 1
-24.473119 -17.165605 25.563677 39.333105 0.611669 0.863307 -0.001440 0.004713 346589.000000 0 0 1
-24.233119 -16.702505 26.912677 39.881197 0.603470 0.830074 -0.010419 -0.002322 311124.000000 0 0 1
-23.226219 -17.581205 27.745377 40.228870 0.647938 0.809738 0.000707 -0.005773 -197368.000000 0 0 1
-23.607819 -18.868105 28.116377 41.277901 0.674272 0.821466 0.007645 -0.005822 -196695.000000 0 0 1
-22.544219 -19.449205 28.841977 41.453263 0.711829 0.801304 0.013321 -0.012608 -199521.000000 0 0 1
-22.953719 -20.716505 29.635677 42.828964 0.734213 0.806604 0.011451 0.000205 137125.000000 0 0 1
-23.902419 -20.462705 30.701277 43.961532 0.708021 0.797683 0.010758 -0.007018 606639.000000 0 0 1
-24.237519 -21.717905 31.212477 45.092609 0.730626 0.806283 0.002551 0.001156 379718.000000 0 0 1
-25.541619 -21.667205 32.112577 46.401074 0.703512 0.806450 -0.000490 0.000286 -311136.000000 0 0 1
-25.280619 -21.007405 33.344277 46.821593 0.693341 0.778232 0.010173 -0.000248 898338.000000 0 0 1
-26.385119 -20.943805 34.278377 48.060634 0.670933 0.776698 0.021415 -0.006540 903780.000000 0 0 1
-27.630319 -20.160805 33.775177 48.069274 0.630357 0.791702 0.011869 -0.008105 -164314.000000 0 0 1
-28.362719 -20.739905 32.697577 47.997073 0.631385 0.821340 0.007792 -0.008316 168185.000000 0 0 1
-29.355119 -19.858105 32.189977 47.877572 0.594765 0.833432 0.018798 -0.016298 7954.970000 0 0 1
-30.322319 -20.561205 31.183077 48.110191 0.595868 0.865631 0.011111 -0.002807 -220965.000000 0 0 1
-31.007219 -19.644605 30.376077 47.645190 0.564724 0.879486 0.010807 -0.009988 568023.000000 0 0 1
-31.860419 -20.284705 29.410277 47.869823 0.566950 0.909196 0.006260 -0.003270 423524.000000 0 0 1
-32.615119 -19.285605 28.466577 47.392262 0.534004 0.926472 -0.008248 0.001177 342921.000000 0 0 1
-33.464219 -19.993805 27.536677 47.727086 0.538556 0.955793 -0.009658 0.000837 442973.000000 0 0 1
-34.173019 -19.126005 26.676777 47.384066 0.510246 0.972797 -0.006007 0.002752 -856883.000000 0 0 1
34.338985 -19.796705 26.094677 47.455322 -0.522967 0.988577 -0.001582 0.005548 -361792.000000 0 0 1
33.263685 -19.952805 27.009977 47.266542 -0.540300 0.962537 -0.010002 0.002143 -408784.000000 0 0 1
32.201485 -20.609905 26.437077 46.482500 -0.569334 0.965807 -0.001470 -0.004380 -920405.000000 0 0 1
31.029985 -20.935205 27.357577 46.363561 -0.593527 0.939655 -0.007979 -0.010028 -311884.000000 0 0 1
30.199685 -19.820805 27.640277 45.484834 -0.580809 0.917659 -0.019048 -0.008347 457894.000000 0 0 1
29.408485 -20.125005 28.805077 45.821471 -0.600129 0.890997 -0.018912 -0.005807 -238138.000000 0 0 1
-29.240075 -6.138905 34.545883 45.673693 0.206943 0.713061 -0.001743 -0.001667 10541.800000 0 0 1
-30.013695 -5.875105 33.407131 45.292110 0.193303 0.741298 -0.004858 0.002434 13542.900000 0 0 1
-29.430765 -4.857905 32.642689 44.218937 0.163587 0.740389 0.005703 0.001776 -52324.200000 0 0 1
-30.090825 -4.578905 31.255419 43.627117 0.151011 0.772136 -0.001257 -0.003902 159443.000000 0 0 1
-29.802845 -5.570605 30.319019 42.877548 0.184783 0.785398 -0.002025 -0.001336 328674.000000 0 0 1
-28.484375 -5.573605 29.768289 41.576144 0.193231 0.772749 0.003494 -0.006441 360620.000000 0 0 1
-28.228175 -6.500305 28.561519 40.679777 0.226332 0.792445 0.011325 -0.015757 111193.000000 0 0 1
-28.974135 -6.029805 27.438429 40.357483 0.205181 0.823191 0.005059 -0.010299 93761.000000 0 0 1
-28.584045 -6.756205 26.295899 39.422941 0.232103 0.840594 0.010045 -0.005016 -190236.000000 0 0 1
-29.377225 -6.238005 25.087289 39.131907 0.209234 0.874871 0.009153 0.004035 -215083.000000 0 0 1
-28.969615 -5.045005 24.363399 38.187248 0.172419 0.878900 0.010211 -0.009505 -73734.000000 0 0 1
-29.709065 -4.943205 23.156619 37.990694 0.164877 0.915324 0.014798 -0.003998 131457.000000 0 0 1
-29.245485 -3.654205 22.400519 37.019385 0.124305 0.920902 0.012731 -0.007702 -159159.000000 0 0 1
-27.885075 -3.686105 22.076519 35.756643 0.131427 0.905350 0.017016 -0.003262 -431875.000000 0 0 1
-27.515065 -2.409305 21.525219 35.017405 0.087340 0.908790 0.016845 -0.002115 -860520.000000 0 0 1
-26.065365 -2.408705 21.133519 33.642693 0.092148 0.891590 0.012275 0.000290 -1052710.000000 0 0 1
-25.959475 -3.204405 19.936219 32.887922 0.122817 0.919539 0.017017 0.004647 -19086.600000 0 0 1
-24.740215 -2.959105 19.250219 31.486592 0.119042 0.912995 0.019265 0.000480 -79816.100000 0 0 1
-24.553415 -3.919105 18.091019 30.749221 0.158280 0.941791 0.023604 0.001055 -317399.000000 0 0 1
-25.508125 -3.779605 17.072119 30.925833 0.147102 0.985994 0.014270 0.007244 46242.100000 0 0 1
-24.946715 -4.348605 15.891719 29.896416 0.172582 1.010356 0.027274 0.000917 84347.000000 0 0 1
-26.054995 -4.733205 14.894719 30.382868 0.179702 1.058438 0.019087 0.000979 -38222.900000 0 0 1
-26.552765 -3.525305 14.361419 30.392885 0.131994 1.078642 0.011627 0.003435 -1021010.000000 0 0 1
-27.601925 -3.688205 13.512819 30.952632 0.132834 1.119020 -0.003023 0.000792 -1152270.000000 0 0 1
-27.964155 -2.309205 12.954119 30.905268 0.082390 1.138281 -0.005210 0.006672 -476781.000000 0 0 1
-27.124985 -1.979305 11.881319 29.679087 0.072841 1.158923 0.008628 -0.006067 24878.900000 0 0 1
-27.499755 -0.837605 11.102519 29.668233 0.030449 1.187238 0.004233 -0.005318 32247.300000 0 0 1
-28.736005 -1.100505 10.168319 30.501866 0.038278 1.230924 -0.019962 -0.001887 344230.000000 0 0 1
-28.636025 -1.787905 8.960819 30.058523 0.062355 1.268082 -0.010952 -0.009118 435680.000000 0 0 1
-29.971865 -1.909205 8.464219 31.202576 0.063614 1.296088 -0.012407 -0.000768 330388.000000 0 0 1
-29.952635 -2.582705 7.112319 30.893621 0.086014 1.338493 -0.001910 -0.009336 -473751.000000 0 0 1
-29.595845 -1.736805 5.977219 30.243308 0.058617 1.371849 0.007763 -0.006816 315780.000000 0 0 1
-30.559215 -0.778805 5.582619 31.074713 0.025480 1.390164 -0.002293 -0.004347 -559344.000000 0 0 1
-30.187215 -0.028005 4.308919 30.493205 0.000928 1.429014 0.007656 -0.002751 -178790.000000 0 0 1
-30.535355 -0.737605 3.104119 30.701589 0.024151 1.469517 0.015085 0.004288 453998.000000 0 0 1
-30.167155 0.153495 2.038619 30.236349 -0.005088 1.503322 0.016398 0.004623 -150949.000000 0 0 1
-30.562525 -0.313905 0.642419 30.570888 0.010271 1.549781 0.017992 0.004919 634008.000000 0 0 1
-31.965525 -0.078505 0.462819 31.968972 0.002456 1.556319 0.010560 0.007862 938531.000000 0 0 1
-32.517585 -0.688905 -0.719681 32.532843 0.021182 1.592920 0.010009 0.004331 337667.000000 0 0 1
-34.052175 -0.590505 -0.926581 34.069897 0.017339 1.597996 0.001238 0.005897 145985.000000 0 0 1
-34.743383 -1.311205 0.068619 34.768184 0.037722 1.568823 -0.002144 0.005779 -358059.000000 0 0 1
33.611088 -1.094705 0.022219 33.628918 -0.032558 1.570136 0.006707 0.008098 -465629.000000 0 0 1
32.795408 -2.283605 0.553119 32.879471 -0.069520 1.553973 0.004395 -0.001770 -579066.000000 0 0 1
33.014228 -2.594705 1.922819 33.171810 -0.078432 1.512798 0.003606 -0.001692 48298.600000 0 0 1
32.409298 -3.766805 2.301319 32.708524 -0.115707 1.500380 0.006520 0.001867 -711022.000000 0 0 1
32.638528 -4.142305 3.805919 33.119741 -0.126240 1.455628 0.012119 0.006382 17948.700000 0 0 1
32.054518 -3.219105 4.722519 32.560052 -0.100090 1.425243 0.011110 -0.000932 332286.000000 0 0 1
32.236278 -3.778305 6.029019 33.012154 -0.116674 1.387135 0.013399 0.003968 -403449.000000 0 0 1
31.788248 -2.810105 7.040019 32.679524 -0.088172 1.353668 0.005777 0.006611 -388767.000000 0 0 1
30.385578 -2.745905 7.003719 31.302962 -0.090124 1.345146 0.005102 0.000610 -266391.000000 0 0 1
29.867608 -1.585305 7.592419 30.858257 -0.053028 1.322202 0.006938 -0.000187 -123830.000000 0 0 1
28.359518 -1.638405 7.916219 29.489205 -0.057709 1.299018 0.005766 -0.008041 -1039080.000000 0 0 1
27.538468 -1.569505 6.813819 28.412299 -0.056932 1.328617 -0.000057 -0.006823 -158739.000000 0 0 1
26.176528 -1.673805 7.188219 27.197109 -0.063856 1.303317 0.001408 -0.004901 45899.800000 0 0 1
25.633778 -3.124705 7.373019 26.855461 -0.121299 1.292680 -0.001010 -0.004624 -1241370.000000 0 0 1
26.056938 -3.842005 8.474619 27.668470 -0.146392 1.259501 -0.003133 -0.006544 305565.000000 0 0 1
25.470058 -5.114805 8.437319 27.314345 -0.198180 1.256763 -0.000692 -0.003771 -308831.000000 0 0 1
26.002588 -6.086105 9.485419 28.339874 -0.229919 1.229507 -0.008466 -0.005173 -374808.000000 0 0 1
25.750868 -5.727805 10.819319 28.512675 -0.218868 1.181588 -0.027230 -0.004777 334100.000000 0 0 1
26.264188 -6.611505 11.764519 29.528351 -0.246607 1.161009 -0.023036 -0.000397 -329498.000000 0 0 1
25.270618 -6.907105 12.932219 29.215656 -0.266809 1.112248 -0.006126 -0.007361 821636.000000 0 0 1
24.079288 -7.522105 12.440419 28.127535 -0.302784 1.112650 -0.000507 -0.008948 1014090.000000 0 0 1
22.857888 -7.173905 13.117219 27.313173 -0.304113 1.069854 0.009926 -0.010387 1208980.000000 0 0 1
21.773888 -8.270705 12.926919 26.638544 -0.363012 1.064123 0.025819 -0.007704 235840.000000 0 0 1
22.009788 -9.341905 13.788519 27.601182 -0.401399 1.047702 0.012835 -0.009694 -560002.000000 0 0 1
21.013788 -10.276805 13.712819 27.115188 -0.454850 1.040575 0.034248 -0.013237 -712678.000000 0 0 1
21.282788 -11.388905 14.740219 28.283180 -0.491349 1.022580 0.019650 -0.010832 -310737.000000 0 0 1
21.169188 -11.113205 16.111819 28.831035 -0.483424 0.977815 0.025134 -0.009997 242120.000000 0 0 1
21.541488 -12.228905 16.901119 29.987158 -0.516324 0.972044 0.017981 -0.016529 -226684.000000 0 0 1
21.476088 -12.004305 18.420519 30.735016 -0.509697 0.928128 0.027390 -0.012114 -645584.000000 0 0 1
20.163488 -11.899505 18.870019 30.070619 -0.533146 0.892428 0.029182 -0.015227 -663467.000000 0 0 1
20.063788 -12.089805 20.291719 30.991497 -0.542306 0.856943 0.050138 -0.006919 331472.000000 0 0 1
20.555288 -10.912105 21.222419 31.495793 -0.488034 0.831433 0.023466 -0.001995 -156734.000000 0 0 1
19.629088 -9.861105 21.349219 30.632200 -0.465543 0.799656 0.027229 -0.001202 -258902.000000 0 0 1
19.927088 -8.646105 20.637119 29.962221 -0.409374 0.811003 0.020555 0.001138 -1234550.000000 0 0 1
20.907788 -7.658605 21.270919 30.793536 -0.351125 0.808258 0.005510 0.007594 1698600.000000 0 0 1
22.317388 -8.027105 21.290919 31.871672 -0.345272 0.839251 -0.006759 0.007788 1633740.000000 0 0 1
22.989188 -8.248605 20.070019 31.612465 -0.344496 0.882947 -0.005134 -0.008872 -665043.000000 0 0 1
24.250288 -9.156105 20.160819 32.838535 -0.361019 0.909757 -0.029089 0.001398 45833.300000 0 0 1
24.081388 -10.515805 20.555119 33.361780 -0.411720 0.906979 -0.029186 -0.001370 82089.700000 0 0 1
25.179248 -11.323405 20.180119 34.197241 -0.422614 0.939602 -0.024067 -0.006480 -22531.200000 0 0 1
24.954928 -12.774505 20.557519 34.764177 -0.473125 0.938074 -0.031173 -0.000467 -293967.000000 0 0 1
24.039188 -13.369605 19.683119 33.823869 -0.507559 0.949697 0.005169 -0.015718 -135214.000000 0 0 1
23.879688 -14.802105 19.897619 34.427563 -0.554896 0.954574 0.002408 -0.007293 -568034.000000 0 0 1
22.677688 -15.375205 19.192119 33.451635 -0.595800 0.959747 0.016113 -0.008097 -961106.000000 0 0 1
22.919088 -15.431005 17.790919 32.862096 -0.592568 0.998717 0.010449 -0.012027 532378.000000 0 0 1
21.857888 -15.859305 16.922319 31.869260 -0.627678 1.011026 0.002262 -0.008817 46331.200000 0 0 1
21.476688 -17.358905 17.045519 32.451956 -0.679762 1.017783 0.005991 -0.009942 -1040060.000000 0 0 1
22.527988 -18.184805 16.757219 33.451484 -0.679122 1.046111 0.033286 -0.007122 -404836.000000 0 0 1
22.111788 -19.521605 16.992719 34.040810 -0.723264 1.048136 0.025194 0.003184 136517.000000 0 0 1
23.276888 -20.491305 16.734619 35.238538 -0.721840 1.075951 0.015019 0.005051 51860.100000 0 0 1
23.624088 -20.527105 15.348819 34.857508 -0.715368 1.114830 0.017084 -0.007392 -286309.000000 0 0 1
24.743868 -21.343205 15.187019 36.033831 -0.711744 1.135735 0.020135 0.001763 -109589.000000 0 0 1
25.285178 -21.490205 13.751519 35.920376 -0.704444 1.177935 0.024334 -0.011244 -385607.000000 0 0 1
24.217288 -21.856005 12.946119 35.096496 -0.734192 1.193001 0.021282 -0.008872 -17901.400000 0 0 1
24.649388 -21.988805 11.597619 35.008637 -0.728413 1.233138 0.030600 -0.009835 -208178.000000 0 0 1
23.524188 -22.340405 10.632719 34.139945 -0.759593 1.254083 -0.006954 0.001306 -343589.000000 0 0 1
22.908088 -23.574205 10.940519 34.644171 -0.799728 1.249500 -0.011509 0.004804 237455.000000 0 0 1
21.664688 -23.806505 10.300319 33.796523 -0.832466 1.261095 -0.024381 0.006997 10475.900000 0 0 1
21.595088 -24.453905 8.870119 33.808583 -0.847401 1.305326 -0.020486 0.003898 -750110.000000 0 0 1
21.892088 -25.822985 8.802319 34.979578 -0.867595 1.316420 -0.024285 0.003057 -32956.400000 0 0 1
21.446088 -26.559395 7.674319 34.989017 -0.891513 1.349663 -0.012848 0.005206 1066560.000000 0 0 1
19.887688 -26.793215 7.487019 34.197251 -0.932263 1.350072 -0.000227 -0.002988 966640.000000 0 0 1
19.155488 -25.645705 7.216619 32.813328 -0.929264 1.349054 -0.002405 0.001271 -381009.000000 0 0 1
17.826688 -25.842875 7.656319 32.315077 -0.966942 1.331595 0.006636 -0.008993 -53819.300000 0 0 1
16.964688 -24.588205 7.756219 30.863237 -0.966846 1.316764 0.006780 -0.002644 -254493.000000 0 0 1
16.399988 -24.235705 6.522919 29.981285 -0.975889 1.351476 0.009071 0.005679 207742.000000 0 0 1
15.685988 -22.995805 6.599919 28.607974 -0.972169 1.337997 0.007047 0.006409 -139704.000000 0 0 1
15.267188 -22.516305 5.227019 27.701855 -0.974954 1.380970 0.015459 0.007556 -242664.000000 0 0 1
14.653188 -21.253705 5.283719 26.350590 -0.967192 1.368912 0.019555 0.011970 -23700.500000 0 0 1
14.557088 -20.717705 3.964819 25.629122 -0.958301 1.415473 0.015462 0.014343 275872.000000 0 0 1
13.840088 -19.316905 3.879919 24.077887 -0.949098 1.408950 0.000510 0.019028 4564.130000 0 1 0
14.661388 -18.268505 4.293119 23.814396 -0.894502 1.389531 -0.000424 0.016630 -240408.000000 0 1 0
14.096388 -17.030705 4.015019 22.469389 -0.879389 1.391143 -0.012417 0.015612 183944.000000 0 1 0
15.128588 -15.860105 4.150019 22.307841 -0.809000 1.383672 -0.013243 0.013549 -317801.000000 0 1 0
15.491388 -15.434605 5.454219 22.537938 -0.783562 1.326368 -0.014734 0.001840 -93339.200000 0 1 0
16.546188 -14.513405 5.493919 22.684762 -0.720044 1.326179 -0.009932 -0.004492 481420.000000 0 1 0
17.979888 -15.156705 5.285519 24.102672 -0.700405 1.349708 -0.010990 0.004731 -127631.000000 0 1 0
18.920888 -14.132205 5.062719 24.152647 -0.641521 1.359617 -0.004259 0.001013 -511414.000000 0 1 0
20.159888 -14.760005 5.234519 25.528005 -0.631977 1.364281 0.002709 0.005211 -692757.000000 0 0 1
21.418288 -13.915505 5.364919 26.099171 -0.576166 1.363761 0.005599 0.002377 -609950.000000 0 0 1
21.478488 -13.401805 6.666319 26.179642 -0.557854 1.313323 0.007617 0.006357 442163.000000 0 0 1
22.596588 -12.521905 6.703219 26.689643 -0.506024 1.316924 0.014802 0.009412 89589.000000 0 0 1
22.683088 -11.738605 8.028319 26.772584 -0.477553 1.266239 0.015548 0.005547 -283932.000000 0 0 1
23.029088 -12.591505 9.146019 27.794506 -0.500356 1.235490 0.012166 -0.004409 412283.000000 0 0 1
23.221588 -11.744505 10.335319 27.999900 -0.468243 1.192734 0.010024 -0.006496 -288842.000000 0 0 1
23.420588 -12.711605 11.535919 29.037670 -0.497263 1.162252 0.009025 -0.007510 -803828.000000 0 0 1
22.292888 -13.442805 11.870819 28.611156 -0.542629 1.142961 0.014269 -0.009848 -392960.000000 0 0 1
22.489688 -14.252805 12.966619 29.615228 -0.564866 1.117606 0.009292 -0.019877 -246749.000000 0 0 1
21.458288 -15.358105 13.194619 29.503008 -0.621198 1.107131 0.010774 -0.016149 -731500.000000 0 0 1
20.242288 -15.043905 13.768219 28.733833 -0.639130 1.071094 0.002729 -0.017753 -438541.000000 0 0 1
19.366988 -16.137205 13.970519 28.821260 -0.694679 1.064742 -0.020020 -0.009818 1089780.000000 0 0 1
17.985188 -15.813905 14.679019 28.089503 -0.721245 1.020922 -0.011620 -0.015199 627499.000000 0 0 1
18.098188 -15.285505 15.970619 28.570120 -0.701343 0.977620 -0.012153 -0.005135 137785.000000 0 0 1
18.008088 -13.868205 16.136719 27.874936 -0.656248 0.953421 0.011387 -0.014206 -1195920.000000 0 0 1
16.620688 -13.292905 16.258219 26.782052 -0.674607 0.918445 0.011633 -0.012678 -969860.000000 0 0 1
15.999688 -13.408505 14.943919 25.672919 -0.697514 0.949501 -0.001012 -0.014806 220921.000000 0 0 1
14.615788 -13.095505 15.025119 24.715738 -0.730592 0.917362 0.010407 -0.012558 349847.000000 0 1 0
14.272088 -11.658505 14.498719 23.448371 -0.684946 0.904186 0.009456 -0.015381 -212562.000000 0 1 0
14.607488 -10.636805 15.356219 23.713578 -0.629386 0.866404 0.000268 -0.009796 76776.700000 0 1 0
14.316988 -9.396605 14.715019 22.578843 -0.580809 0.860950 -0.003161 -0.010600 -1043380.000000 0 1 0
14.850988 -8.275105 15.652819 23.109305 -0.508361 0.826658 0.005301 -0.008669 337064.000000 0 1 0
16.239888 -8.153805 15.911619 24.153636 -0.465314 0.851618 0.007217 -0.011076 530548.000000 0 1 0
16.762288 -9.054005 16.924619 25.483172 -0.495243 0.844442 0.017416 -0.007681 -635185.000000 0 0 1
18.277188 -9.113105 17.079319 26.623438 -0.462531 0.874325 0.020749 -0.000558 -363062.000000 0 0 1
18.805688 -7.855605 17.469919 26.843296 -0.395692 0.862144 0.021514 -0.014064 602213.000000 0 0 1
19.986288 -7.597405 16.688119 27.123156 -0.363261 0.908065 0.019465 -0.007087 617395.000000 0 0 1
20.729488 -6.236205 16.924519 27.478015 -0.292225 0.907231 0.015563 -0.001636 -156419.000000 0 0 1
21.489888 -6.236405 18.100019 28.780527 -0.282444 0.890661 0.011703 0.002137 113023.000000 0 0 1
21.686088 -4.878805 18.402319 28.857140 -0.221290 0.879282 0.017831 0.003433 -120124.000000 0 0 1
-5.183215 -33.226101 -6.560523 34.261932 1.416045 1.763468 -0.006224 -0.005333 -386393.000000 0 0 1
-6.046515 -32.106701 -6.613523 33.333756 1.384651 1.770525 -0.003838 -0.015466 -42791.300000 0 0 1
-5.740915 -31.033701 -5.801623 32.089056 1.387875 1.752594 -0.000885 -0.013586 -287128.000000 0 0 1
-6.756415 -29.855801 -5.910223 31.176092 1.348243 1.761526 0.005167 -0.014995 813209.000000 0 0 1
-8.101915 -30.028501 -5.505723 31.585834 1.307264 1.746001 0.010846 -0.012910 715650.000000 0 0 1
-8.977515 -30.745501 -6.380523 32.658731 1.286700 1.767431 0.010899 -0.012023 931969.000000 0 0 1
-10.513815 -30.416001 -6.266723 32.786358 1.237987 1.763118 -0.018876 -0.003968 925550.000000 0 0 1
-11.243415 -31.145801 -7.211223 33.889188 1.224362 1.785224 0.007097 -0.005753 -144532.000000 0 0 1
-12.633815 -31.035901 -6.940823 34.220103 1.184209 1.775042 0.015100 0.002125 326902.000000 0 0 1
-13.495815 -31.338301 -8.183123 35.088312 1.164150 1.806179 0.020156 -0.009699 -3452.850000 0 0 1
-13.454115 -30.232701 -9.063823 34.310091 1.152093 1.838143 0.030979 -0.021052 445459.000000 0 0 1
-14.384915 -30.535601 -10.107823 35.235164 1.130546 1.861752 0.041003 -0.017042 95757.700000 0 0 1
-14.398615 -29.509801 -11.246423 34.707787 1.116854 1.900784 0.043713 -0.018019 -495683.000000 0 0 1
-14.860215 -28.183201 -10.908523 33.676619 1.085570 1.900666 0.046761 -0.016804 436205.000000 0 0 1
-14.083915 -27.532201 -9.907423 32.473617 1.097957 1.880831 0.037244 -0.011164 131551.000000 0 0 1
-14.600215 -26.092301 -9.655123 31.419673 1.060643 1.883146 0.045098 -0.002748 -47948.900000 0 0 1
-14.466015 -25.243501 -10.789723 31.030921 1.050422 1.925923 0.050050 -0.010125 18886.700000 0 0 1
-15.058615 -24.020001 -10.539723 30.245795 1.010818 1.926734 0.044041 -0.002412 -341045.000000 0 0 1
-15.388715 -23.268501 -11.816423 30.296263 0.986481 1.971459 0.055683 0.000747 -58441.000000 0 0 1
-16.626815 -23.712101 -12.341623 31.480635 0.959269 1.973643 0.046419 -0.001882 -227976.000000 0 0 1
-16.940915 -23.226701 -13.619123 31.811236 0.940628 2.013211 0.044290 -0.010838 885769.000000 0 0 1
-18.447115 -23.654901 -13.923123 33.071192 0.908467 2.005349 0.022136 0.016048 1200900.000000 0 0 1
-18.753815 -25.009701 -14.147123 34.312269 0.927384 1.995779 0.040216 0.011435 -63947.000000 0 0 1
-18.621715 -25.879001 -12.996423 34.429609 0.947057 1.957868 0.041406 0.002005 -1029420.000000 0 0 1
-18.824215 -27.377901 -13.326923 35.798148 0.968462 1.952260 0.041459 0.001181 -65645.200000 0 0 1
-18.025115 -27.920901 -14.348623 36.198957 0.997536 1.978369 0.049424 -0.003952 422335.000000 0 0 1
-16.631915 -27.956301 -14.040023 35.430179 1.034116 1.978250 0.061220 -0.011154 -59.462400 0 0 1
-15.963015 -29.310001 -14.324323 36.319144 1.072088 1.976213 0.053665 -0.013779 -316623.000000 0 0 1
-15.890115 -29.729201 -15.718123 37.193824 1.079935 2.007109 0.044646 -0.007003 154191.000000 0 0 1
-15.092115 -30.887301 -15.938223 37.892272 1.116295 2.004924 0.038498 -0.003742 144787.000000 0 0 1
-15.791515 -32.256601 -15.666223 39.182787 1.115536 1.982121 0.030611 -0.004592 -46475.000000 0 0 1
-15.866915 -32.513901 -14.274423 38.893083 1.116791 1.946597 0.037246 -0.006922 135367.000000 0 0 1
-16.229615 -33.882101 -14.109823 40.130840 1.124087 1.930071 0.019530 0.004203 -1475290.000000 0 0 1
-16.677015 -34.182201 -12.637123 40.077956 1.116887 1.891583 0.035068 -0.003400 518081.000000 0 0 1
-18.049215 -33.935101 -12.302723 40.357431 1.081975 1.880571 0.037038 0.002864 668919.000000 0 0 1
-18.593615 -32.666801 -12.537923 39.623755 1.053339 1.892754 0.036592 -0.003939 -863534.000000 0 0 1
-17.977415 -31.515001 -11.725223 38.129563 1.052396 1.883371 0.046382 -0.003773 -429070.000000 0 0 1
-18.257515 -31.641301 -10.321823 37.961149 1.047449 1.846168 0.032649 -0.003172 173376.000000 0 0 1
-18.013115 -30.476101 -9.562523 36.670245 1.036978 1.834617 0.036360 -0.000168 -508502.000000 0 0 1
-18.225015 -30.731601 -8.076523 36.630762 1.035511 1.793108 0.029832 0.003991 -197702.000000 0 0 1
-17.362415 -31.645501 -7.442823 36.854943 1.068987 1.774144 0.035182 -0.003485 74031.300000 0 0 1
-17.759115 -31.794001 -6.061923 36.918716 1.061399 1.735740 0.033025 -0.006764 -137754.000000 0 0 1
-16.913015 -32.791901 -5.283023 37.272902 1.094614 1.713014 0.030190 -0.006224 77751.100000 0 0 1
-15.621315 -32.291401 -4.972523 36.214445 1.120224 1.708539 0.021193 -0.009294 281313.000000 0 0 1
-15.307615 -32.582201 -3.620823 36.180565 1.131587 1.671041 0.015358 -0.002445 176600.000000 0 0 1
-14.036515 -31.811701 -3.150523 34.913234 1.155253 1.661158 0.005167 0.005285 675956.000000 0 0 1
-12.815715 -32.502601 -3.428423 35.105779 1.195215 1.668612 -0.016856 0.000267 -261479.000000 0 0 1
-11.780815 -31.799301 -2.800823 34.026868 1.216000 1.653202 -0.018125 0.007681 -623123.000000 0 0 1
-10.511115 -32.636101 -2.758423 34.397784 1.259217 1.651074 -0.008524 -0.003685 -774125.000000 0 0 1
-10.454615 -33.521801 -1.672923 35.154072 1.268481 1.618403 -0.012424 0.005012 903195.000000 0 0 1
-9.177915 -34.216201 -1.669723 35.465061 1.308732 1.617895 -0.000524 -0.003537 999603.000000 0 0 1
-8.130915 -33.559801 -0.760323 34.539110 1.333095 1.592811 -0.006524 0.002339 -706163.000000 0 0 1
-8.506215 -33.559301 0.572677 34.625285 1.322556 1.554256 -0.006774 0.008078 -593323.000000 0 0 1
-7.448015 -33.396701 1.451177 34.247898 1.351371 1.528411 -0.003091 0.004169 -437452.000000 0 0 1
-6.865615 -34.750101 1.916277 35.473628 1.375737 1.516750 0.001857 -0.004297 -43620.500000 0 0 1
-7.668915 34.066395 2.882777 35.037722 -1.349371 1.488427 0.001896 -0.003729 -323004.000000 0 0 1
-6.885315 33.200595 3.622877 34.100034 -1.366310 1.464353 0.012322 -0.001408 -284065.000000 0 0 1
-6.058015 33.820295 4.767277 34.687733 -1.393552 1.432926 0.010435 -0.002944 412032.000000 0 0 1
-4.958215 34.680695 4.455977 35.315581 -1.428791 1.444283 0.003172 -0.002445 277897.000000 0 0 1
-4.458515 -34.241301 5.635977 34.987273 1.441316 1.409005 -0.001690 -0.006698 310596.000000 0 0 1
-3.272015 -33.278901 5.337277 33.862632 1.472790 1.412521 -0.012306 0.001051 163841.000000 0 0 1
-3.596915 -32.018901 4.761077 32.570165 1.458928 1.424092 -0.014743 0.007302 192.758000 0 0 1
-3.353715 -32.065701 3.352577 32.414447 1.466586 1.467183 -0.008141 0.003655 -6288.870000 0 0 1
-3.862315 -30.847401 2.534877 31.191429 1.446237 1.489438 -0.017710 0.007113 93173.200000 0 0 1
-3.208715 -29.708501 3.023777 30.033883 1.463207 1.469947 -0.010014 0.010333 -258972.000000 0 0 1
-3.586015 -28.561601 2.328177 28.879837 1.445896 1.490093 -0.009813 0.007366 -287595.000000 0 0 1
-2.874415 -27.264901 2.602177 27.539216 1.465759 1.476165 -0.015799 0.002962 -600018.000000 0 0 1
-3.400315 -26.155701 1.893377 26.443671 1.441519 1.499135 -0.001931 0.000051 -322254.000000 0 0 1
-2.902915 -24.908301 2.405677 25.192016 1.454776 1.475157 -0.014560 -0.001093 314744.000000 0 0 1
-3.842715 -24.176501 3.416077 24.717185 1.413171 1.432146 -0.030460 0.003352 194951.000000 0 1 0
-3.948415 -24.885601 4.627477 25.618288 1.413445 1.389168 -0.023646 -0.000351 414411.000000 0 0 1
-4.788715 -24.196301 5.610177 25.295590 1.375410 1.347152 -0.037811 0.003343 335341.000000 0 0 1
-5.561315 -25.101501 6.556877 26.533115 1.352765 1.321089 -0.026549 0.002697 -874684.000000 0 0 1
-4.806515 -25.706601 7.555277 27.221575 1.385955 1.289556 -0.025911 -0.006762 -662455.000000 0 0 1
-5.474615 -26.643001 8.333077 28.447515 1.368137 1.273508 -0.025136 -0.004188 210999.000000 0 0 1
-4.567315 -27.251901 9.498177 29.218861 1.404743 1.239711 -0.033275 -0.001728 804394.000000 0 0 1
-4.134715 -26.369001 10.548077 28.699861 1.415261 1.194444 -0.030034 -0.003357 265362.000000 0 0 1
-5.247515 -25.932901 11.298177 28.769786 1.371142 1.167220 -0.018197 0.001272 382144.000000 0 0 1
-4.743415 -24.948701 12.390477 28.257063 1.382912 1.116877 -0.024255 0.002561 -15244.900000 0 0 1
-3.827615 -25.446301 13.290777 28.962210 1.421496 1.094039 -0.024359 -0.000228 -596319.000000 0 0 1
-3.359415 -24.555001 14.262977 28.594864 1.434829 1.048588 -0.015343 -0.002080 669392.000000 0 0 1
-2.183615 -25.132201 15.130777 29.416596 1.484129 1.030533 -0.007170 -0.011564 800010.000000 0 0 1
-2.656015 -26.097801 15.997577 30.725756 1.469374 1.023176 -0.009591 -0.013875 -428550.000000 0 0 1
-1.566415 -26.391301 16.794077 31.320847 1.511512 1.004874 -0.014741 -0.020418 -37990.600000 0 0 1
-2.027515 -26.987801 18.185777 32.606360 1.495810 0.979139 -0.018080 -0.017559 269435.000000 0 0 1
-2.642715 -26.048701 19.029077 32.367029 1.469689 0.942317 -0.001958 -0.019558 -244459.000000 0 0 1
-2.820115 -26.548501 20.359577 33.575115 1.464968 0.919285 0.017577 -0.016990 -30395.300000 0 0 1
-3.071715 -25.449501 21.375677 33.377119 1.450679 0.875740 0.019898 -0.022323 -300694.000000 0 0 1
-2.791515 -25.765701 22.702177 34.453632 1.462875 0.851415 0.014538 -0.018334 17706.600000 0 0 1
-2.928915 -24.692501 23.602677 34.283881 1.452732 0.811449 0.008590 -0.012002 -10694.700000 0 0 1
-1.854415 -23.591201 23.455577 33.318879 1.492351 0.789821 -0.007020 -0.000365 -37204.300000 0 0 1
-2.164415 -22.611801 22.445277 31.933817 1.475366 0.791374 0.008394 -0.004152 -335733.000000 0 0 1
-1.075015 -21.761701 22.229877 31.127074 1.521437 0.775365 0.001584 -0.006790 -543692.000000 0 0 1
-1.486215 -20.426601 21.611377 29.774259 1.498165 0.758540 -0.009336 0.012195 -456644.000000 0 0 1
-2.178815 -19.460101 22.375377 29.733824 1.459297 0.718912 -0.008804 -0.000210 752381.000000 0 0 1
-3.553515 -19.694901 22.715977 30.274283 1.392289 0.722221 0.015161 -0.006582 853510.000000 0 0 1
-4.612015 -19.485001 21.558977 29.423213 1.338378 0.748486 0.017913 -0.006053 -266554.000000 0 0 1
-4.479115 -20.377801 20.417777 29.192514 1.354433 0.796213 0.023137 -0.010193 -89310.200000 0 0 1
-4.853015 -21.713001 20.667077 30.366663 1.350903 0.822236 0.024745 -0.010656 -336873.000000 0 0 1
-4.804315 -22.501001 19.319577 30.043677 1.360439 0.872322 0.027839 -0.015959 -226663.000000 0 0 1
-5.529215 -23.689101 19.269977 31.033494 1.341494 0.900853 0.031920 -0.019293 -320702.000000 0 0 1
-5.297215 -24.364401 18.069777 30.792879 1.356712 0.943674 0.030562 -0.020430 75076.600000 0 0 1
-6.000215 -25.757701 18.068577 32.030224 1.341929 0.971441 0.019039 -0.013234 619002.000000 0 0 1
-7.409815 -25.671101 18.216777 32.338240 1.289790 0.972398 0.026609 -0.011113 -260922.000000 0 0 1
-7.980615 -26.958801 18.034477 33.402238 1.282986 1.000456 0.025269 -0.001285 421882.000000 0 0 1
-9.499515 -26.990401 18.350677 33.992203 1.232377 1.000538 0.027565 -0.002863 270034.000000 0 0 1
-10.299715 -26.347401 17.330077 33.175311 1.198142 1.021158 0.032286 0.003020 851741.000000 0 0 1
-11.710315 -26.473101 17.533477 33.843454 1.154324 1.026196 0.029438 0.002653 873300.000000 0 0 1
-12.421515 -25.606801 18.581677 33.989425 1.119150 0.992390 0.025888 0.006947 -647602.000000 0 0 1
-12.602815 -24.227001 18.165677 32.798938 1.091122 0.983816 0.024303 0.007985 154281.000000 0 0 1
-12.756815 -23.320901 19.268277 32.830889 1.070250 0.943578 0.013522 0.010462 -84362.700000 0 0 1
-11.388115 -22.813001 19.730377 32.239882 1.107794 0.912226 0.004254 0.002666 290310.000000 0 0 1
-10.458115 -23.708301 20.326477 32.933590 1.155355 0.905623 0.009377 0.002859 -122322.000000 0 0 1
-9.123715 -23.315001 20.128377 32.124492 1.197792 0.893647 0.021835 -0.007151 -90064.900000 0 0 1
-8.203515 -24.171001 21.008377 33.058839 1.243600 0.882161 0.014366 -0.011903 -339958.000000 0 0 1
-8.104915 -23.755601 22.353677 33.611086 1.242001 0.843211 0.016885 -0.011579 -51058.500000 0 0 1
-7.376915 -24.636101 23.155177 34.605181 1.279858 0.837766 0.008995 -0.009748 -170798.000000 0 0 1
-7.376015 -24.216601 24.599077 35.298215 1.275138 0.799740 0.000686 -0.008700 -317354.000000 0 0 1
-6.651415 -25.003501 25.488877 36.319406 1.310798 0.792878 0.004050 -0.010929 -99835.800000 0 0 1
-6.657815 -24.454701 26.748777 36.849097 1.304988 0.758454 0.009601 -0.005966 -955173.000000 0 0 1
-5.572415 -25.091701 27.549677 37.677977 1.352261 0.750735 -0.007513 -0.003683 -1283830.000000 0 0 1
-4.324415 -24.704501 27.067377 36.900621 1.397506 0.747308 -0.004557 -0.005857 -725748.000000 0 0 1
-3.278215 -24.939701 27.987977 37.630602 1.440100 0.732125 -0.006431 -0.003745 -234745.000000 0 0 1
-1.964315 -24.325201 27.532577 36.791531 1.490219 0.725240 -0.014821 -0.000036 -777413.000000 0 0 1
-2.024515 -22.902801 27.771877 36.054322 1.482630 0.691518 -0.015350 0.001339 111072.000000 0 0 1
-0.877915 -22.219301 27.290477 35.202815 1.531305 0.683708 -0.011067 -0.002394 -75882.600000 0 0 1
0.218885 -21.977501 28.340477 35.864204 -1.560837 0.659635 0.006401 -0.002143 -555492.000000 0 0 1
0.703285 -23.213801 28.767777 36.972424 -1.540510 0.679181 0.010631 0.000650 -223769.000000 0 0 1
1.631085 -23.071801 29.811777 37.732088 -1.500218 0.659839 -0.001274 -0.007939 -287175.000000 0 0 1
2.106685 -24.389201 30.391577 39.024597 -1.484632 0.678078 0.021837 -0.016189 -1756050.000000 0 0 1
2.896285 -25.071701 29.476177 38.804944 -1.455786 0.708101 0.016304 -0.020193 -392638.000000 0 0 1
3.639385 -26.038201 30.147977 40.001669 -1.431925 0.717171 0.016042 -0.005742 -483076.000000 0 0 1
4.926385 -25.438001 30.834277 40.275474 -1.379502 0.698847 0.009594 -0.013420 -440439.000000 0 0 1
5.946885 -24.953101 29.975877 39.453465 -1.336838 0.707825 0.018562 -0.013171 91515.400000 0 0 1
6.608485 -25.909601 29.200877 39.593822 -1.321062 0.741419 0.007885 -0.004690 -693238.000000 0 0 1
7.899385 -25.363801 28.537877 38.988884 -1.268874 0.749618 0.000754 0.001124 -127156.000000 0 0 1
7.631885 -24.438001 27.543877 37.604876 -1.268098 0.748875 0.014879 -0.004382 -96158.900000 0 0 1
8.736685 -24.021101 26.761577 37.007093 -1.221961 0.762448 -0.004041 0.008024 -250820.000000 0 0 1
8.478285 -22.915701 25.733477 35.485525 -1.216437 0.759497 0.019313 -0.001184 -278787.000000 0 0 1
7.827285 -23.242101 24.558577 34.707137 -1.245954 0.784708 0.014309 0.007763 -336240.000000 0 0 1
7.374285 -22.109301 23.883677 33.371115 -1.248862 0.773172 0.008619 0.014872 -118679.000000 0 0 1
6.545985 -22.483101 22.669677 32.592238 -1.287477 0.801605 0.000530 0.019510 259468.000000 0 0 1
7.325185 -23.327401 21.762777 32.732926 -1.266531 0.843491 -0.009778 0.015154 850195.000000 0 0 1
6.629085 -23.515801 20.518577 31.905323 -1.296027 0.872246 -0.010582 0.004351 260754.000000 0 0 1
7.331385 -24.538601 19.531577 32.208301 -1.280469 0.919253 0.000437 -0.004720 59333.900000 0 0 1
8.648985 -24.188001 19.211477 32.077175 -1.227391 0.928652 0.014904 -0.008297 -734861.000000 0 0 1
9.092685 -24.986301 18.185377 32.213353 -1.221786 0.970934 0.016313 -0.014312 126119.000000 0 0 1
10.492185 -24.561801 17.669077 32.024433 -1.167085 0.986350 0.011896 -0.009673 446950.000000 0 0 1
10.340685 -23.360701 16.971177 30.670392 -1.154069 0.984427 0.025869 -0.005890 35495.100000 0 0 1
11.580485 -23.029501 16.372177 30.537088 -1.104868 1.004938 0.019527 -0.013911 199187.000000 0 0 1
-12.122715 22.813995 11.383977 28.231782 -1.082367 1.155750 -0.002514 -0.010700 -23819.900000 0 0 1
-13.129715 21.960795 10.826377 27.782664 -1.031944 1.170511 -0.020613 -0.009735 361287.000000 0 0 1
-12.516115 20.814295 10.264177 26.367430 -1.029405 1.170952 -0.005760 -0.017561 -454644.000000 0 0 1
-13.475015 20.004095 9.418977 25.893184 -0.978000 1.198492 -0.013588 -0.006580 -968236.000000 0 0 1
-13.742115 20.782295 8.279877 26.254636 -0.986559 1.249952 -0.008036 -0.001863 88510.100000 0 0 1
-14.536615 20.189195 7.272477 25.919215 -0.946760 1.286395 -0.002315 -0.000469 902231.000000 0 0 1
-16.062415 19.924595 7.552577 26.683930 -0.892310 1.283836 -0.017160 -0.001992 260395.000000 0 0 1
-16.332215 18.976395 8.558177 26.459162 -0.860146 1.241425 -0.023692 -0.006386 -580714.000000 0 0 1
-17.700915 18.950195 8.824477 27.391672 -0.819471 1.242787 -0.009660 -0.001514 -635255.000000 0 0 1
-18.142815 17.761195 9.701577 27.179816 -0.774770 1.205806 -0.023646 0.002093 -389640.000000 0 0 1
-18.117915 16.504495 9.082877 26.137251 -0.738831 1.215885 -0.024163 0.000396 50821.800000 0 0 1
-18.404215 15.463495 9.999877 26.035214 -0.698786 1.176574 -0.021922 -0.003524 -475399.000000 0 0 1
-17.307515 15.075395 11.033677 25.466834 -0.716578 1.122693 -0.017234 -0.000870 379385.000000 0 0 1
-16.373515 14.160595 10.417977 24.023919 -0.713051 1.122257 -0.027905 0.001821 604184.000000 0 1 0
-15.560515 13.315795 11.242577 23.363124 -0.707818 1.068761 -0.034448 0.003805 476583.000000 0 1 0
-16.403815 12.285795 12.045577 23.772292 -0.642835 1.039436 -0.013542 -0.000542 -278554.000000 0 1 0
-17.362215 11.585095 11.317277 23.743246 -0.588413 1.073953 -0.030068 0.001448 73573.800000 0 1 0
-18.292315 10.927895 12.191677 24.549230 -0.538508 1.051094 -0.001578 0.002957 48010.700000 0 1 0
-19.410215 10.237995 11.415977 24.736563 -0.485369 1.091109 0.011266 -0.003225 -738987.000000 0 1 0
-19.065015 9.041795 10.722677 23.668643 -0.442845 1.100632 0.010208 -0.005028 169601.000000 0 1 0
-18.669215 9.186195 9.365777 22.817615 -0.457268 1.147835 0.014475 -0.003399 -766699.000000 0 1 0
-19.717515 9.559295 8.263477 23.418915 -0.451424 1.210176 0.016504 -0.001053 -23442.200000 0 1 0
-20.727715 8.582795 8.128377 23.861540 -0.392579 1.223191 0.038635 0.004455 478709.000000 0 1 0
-21.350115 8.569795 6.857477 24.006120 -0.381707 1.281106 0.028603 0.004866 -135034.000000 0 1 0
-21.118415 7.238995 6.105877 23.144594 -0.330229 1.303822 0.003154 0.002187 -545044.000000 0 1 0
-21.855115 6.150995 6.603477 23.645015 -0.274347 1.287757 0.005653 0.002705 441626.000000 0 1 0
-21.633415 4.902995 5.993077 22.977402 -0.222875 1.306920 0.017464 -0.013675 -319397.000000 0 1 0
-22.819415 3.916095 6.181277 23.963925 -0.169957 1.309906 0.051107 -0.010490 826870.000000 0 1 0
-24.043415 4.325195 5.551177 25.052120 -0.177987 1.347357 0.055041 -0.012832 1297980.000000 0 0 1
-24.941415 3.214695 5.342777 25.709020 -0.128183 1.361453 0.059629 -0.012135 627455.000000 0 0 1
-25.954325 3.342695 4.161077 26.497456 -0.128086 1.413107 0.057101 -0.008492 578813.000000 0 0 1
-25.275475 3.246795 2.925977 25.650588 -0.127757 1.456477 0.041533 -0.010078 557518.000000 0 0 1
-26.277115 3.250995 1.943577 26.548696 -0.123094 1.497523 0.037358 -0.001413 -183859.000000 0 0 1
-25.816375 3.223295 0.507077 26.021760 -0.124212 1.551308 0.034598 -0.001762 -347281.000000 0 0 1
-25.257585 4.450595 0.058277 25.646770 -0.174418 1.568524 0.032571 -0.009429 340605.000000 0 0 1
-25.204595 4.718695 -1.331323 25.677035 -0.185073 1.622668 0.037453 -0.003840 -694758.000000 0 0 1
-26.471345 5.178795 -2.061223 27.051815 -0.193198 1.647066 0.038353 -0.013962 -326914.000000 0 0 1
-27.481775 4.204795 -2.138423 27.883707 -0.151826 1.647562 0.027182 -0.010014 -497441.000000 0 0 1
-28.732575 4.777095 -2.368423 29.223124 -0.164754 1.651932 0.011110 -0.002084 -139541.000000 0 0 1
-29.814175 3.634095 -2.466423 30.135941 -0.121293 1.652731 0.002770 0.005598 4450.630000 0 0 1
-29.775115 2.899295 -3.641323 30.136732 -0.097067 1.691919 0.004552 0.004527 -142842.000000 0 0 1
-30.717785 1.888495 -3.770323 31.005872 -0.061402 1.692698 0.010752 0.007859 -408681.000000 0 0 1
-30.769315 1.327095 -5.222423 31.237568 -0.043104 1.738769 0.004147 0.002472 -799421.000000 0 0 1
-29.631815 0.628295 -5.618023 30.166230 -0.021200 1.758126 0.011260 0.005564 -342071.000000 0 0 1
-29.679875 -0.115805 -6.839423 30.457940 0.003902 1.797281 0.007709 0.006799 -405817.000000 0 0 1
-30.005345 0.646395 -8.126123 31.092965 -0.021539 1.835216 0.003386 0.006970 -803862.000000 0 0 1
-31.354425 0.936495 -8.305723 32.449377 -0.029859 1.829636 -0.007570 0.003003 -366233.000000 0 0 1
-31.693655 1.650995 -9.511523 33.131294 -0.052045 1.861979 -0.008245 0.004820 -746305.000000 0 0 1
-33.207195 1.796495 -9.560923 34.602839 -0.054047 1.850743 0.001718 0.009714 -668125.000000 0 0 1
-33.543025 2.740495 -8.575423 34.730142 -0.081520 1.820293 -0.010717 0.013836 -920811.000000 0 0 1
34.859600 2.708095 -8.234323 35.921158 0.077530 1.802086 0.000715 0.014615 -1106900.000000 0 0 1
34.463815 3.709795 -7.087823 35.380141 0.107230 1.772495 0.004294 0.016527 -1080860.000000 0 0 1
33.143348 3.628295 -6.704123 34.008695 0.109039 1.769226 0.022076 0.016199 -717172.000000 0 0 1
32.903008 4.496295 -5.614823 33.680126 0.135812 1.738289 0.016974 0.010369 -676979.000000 0 0 1
31.578188 4.170995 -4.944323 32.233919 0.131325 1.724793 0.028350 0.006037 -371426.000000 0 0 1
31.654978 3.167295 -3.992123 32.062540 0.099725 1.695631 0.025260 0.004773 -505711.000000 0 0 1
30.447718 2.457795 -3.984923 30.805583 0.080547 1.700517 0.047777 0.008549 -474451.000000 0 0 1
30.457338 1.125395 -3.144823 30.639939 0.036933 1.673615 0.041630 0.002258 -114450.000000 0 0 1
31.217558 0.113595 -3.772123 31.444837 0.003639 1.691046 0.028154 -0.000459 72890.300000 0 0 1
31.023468 -1.109805 -3.145523 31.202269 -0.035758 1.671779 0.024004 0.002821 14165.900000 0 0 1
32.116678 -2.100005 -3.580223 32.383778 -0.065294 1.681579 0.017979 0.007498 -28233.100000 0 0 1
32.042238 -3.370005 -2.882923 32.347693 -0.104789 1.660038 0.014918 0.009360 -236204.000000 0 0 1
33.077708 -4.246805 -3.236823 33.505927 -0.127690 1.667552 0.028649 0.001362 -239091.000000 0 0 1
32.848498 -5.666405 -2.683223 33.441466 -0.170820 1.651119 0.016551 0.003083 -342215.000000 0 0 1
32.893528 -5.741605 -1.285523 33.415607 -0.172810 1.609277 0.016055 0.001846 -164318.000000 0 0 1
33.077068 -7.120405 -0.866223 33.845871 -0.212031 1.596392 0.011288 0.001793 -308492.000000 0 0 1
32.498578 -7.316505 0.584477 33.317119 -0.221441 1.553253 0.007361 0.009158 -975291.000000 0 0 1
31.126918 -7.050805 0.576477 31.920702 -0.222759 1.552736 0.004445 0.001854 -808708.000000 0 0 1
30.533828 -7.376205 1.812477 31.464395 -0.237034 1.513160 0.002786 0.001523 -386160.000000 0 0 1
30.461058 -8.873605 2.233877 31.805772 -0.283465 1.500503 0.006143 0.001455 23242.200000 0 0 1
29.421738 -9.708305 1.638577 31.025390 -0.318721 1.517958 0.001069 -0.004133 -409113.000000 0 0 1
28.214608 -9.530005 2.242577 29.864934 -0.325737 1.495635 -0.005810 -0.003941 -3119860.000000 0 0 1
27.251028 -10.664505 1.857977 29.322385 -0.373021 1.507390 -0.007358 -0.002587 -900383.000000 0 0 1
25.999178 -10.492005 2.492177 28.146943 -0.383564 1.482139 0.002583 -0.004211 971069.000000 0 0 1
25.148238 -9.371605 2.067877 26.917225 -0.356713 1.493897 -0.002722 0.000342 -446051.000000 0 0 1
24.592388 -9.537705 0.629777 26.384655 -0.369973 1.546925 -0.006949 0.005108 -922393.000000 0 0 1
25.615748 -9.407005 -0.358723 27.290786 -0.351946 1.583941 -0.006867 -0.002056 526893.000000 0 0 1
25.179398 -9.585405 -1.697923 26.995648 -0.363745 1.633734 -0.009763 0.002719 -628257.000000 0 0 1
24.735128 -11.048705 -2.022823 27.166013 -0.420090 1.645327 -0.003149 0.005717 -1349690.000000 0 0 1
23.483188 -11.330005 -1.541823 26.119080 -0.449528 1.629861 0.000616 0.005707 -960648.000000 0 0 1
23.144388 -12.694805 -1.832623 26.460901 -0.501694 1.640110 -0.007882 0.015694 -644750.000000 0 0 1
21.679888 -12.956005 -1.518023 25.301779 -0.538656 1.630829 0.001930 0.016469 -591766.000000 0 0 1
20.835888 -12.463605 -2.539823 24.411604 -0.539080 1.675027 -0.001218 0.017671 531377.000000 0 1 0
19.441588 -12.579005 -2.295323 23.269620 -0.574274 1.669597 0.005968 0.014248 788191.000000 0 1 0
18.450488 -11.958705 -3.320423 22.236374 -0.575074 1.720681 0.008481 0.010867 188368.000000 0 1 0
18.376288 -12.633705 -4.545823 22.758800 -0.602288 1.771888 -0.002056 0.007578 433203.000000 0 1 0
17.325088 -12.084805 -5.330223 21.785602 -0.609068 1.817973 0.000314 -0.001120 -256687.000000 0 1 0
17.306888 -12.666305 -6.747723 22.483225 -0.631793 1.875617 -0.003503 -0.008368 -682182.000000 0 1 0
16.752288 -13.958605 -6.880123 22.865212 -0.694681 1.876432 -0.005540 -0.001885 134528.000000 0 1 0
16.921988 -14.373905 -8.238623 23.682013 -0.704158 1.926111 -0.005333 -0.009508 -280539.000000 0 1 0
16.151188 -15.678805 -8.475723 24.052519 -0.770558 1.930914 0.003944 -0.011395 834988.000000 0 1 0
14.709488 -15.505405 -8.408123 22.967001 -0.811734 1.945606 0.010216 -0.007453 1151530.000000 0 1 0
14.053688 -16.498105 -9.148623 23.524262 -0.865237 1.970235 0.016064 -0.006940 -49272.900000 0 1 0
13.874088 -16.191305 -10.637723 23.828761 -0.862319 2.033561 0.010368 -0.015115 -796496.000000 0 1 0
13.013288 -15.135405 -11.002323 22.792044 -0.860645 2.074562 0.012435 -0.009498 -2229.410000 0 1 0
13.471988 -13.828105 -10.763623 22.103541 -0.798442 2.079406 0.020124 -0.007473 -278159.000000 0 1 0
13.367288 -12.838405 -11.962723 22.059369 -0.765219 2.143965 0.026242 0.002052 -215330.000000 0 1 0
14.314488 -13.060605 -12.975923 23.320775 -0.739626 2.160856 0.011381 0.004866 -104705.000000 0 1 0
14.210588 -12.136705 -14.055523 23.383715 -0.706847 2.215650 0.022239 -0.002753 -623918.000000 0 1 0
15.460988 -12.144505 -14.922223 24.682056 -0.665833 2.220032 0.017465 -0.003122 -374243.000000 0 1 0
15.723888 -13.367505 -15.567623 25.851146 -0.704575 2.217053 0.006003 0.001045 86064.100000 0 0 1
16.747388 -13.253905 -16.538323 27.012166 -0.669476 2.229705 0.002196 -0.000755 18115.800000 0 0 1
17.853888 -14.336005 -16.392723 28.160322 -0.676545 2.192131 0.004155 0.002563 -254662.000000 0 0 1
18.681588 -14.064105 -15.306523 27.947995 -0.645311 2.150384 -0.002521 -0.004328 -557954.000000 0 0 1
19.760988 -14.943005 -15.285823 29.110933 -0.647449 2.123616 -0.002552 -0.000449 -94109.200000 0 0 1
20.828188 -14.740405 -14.160823 29.182561 -0.615885 2.077445 -0.007389 0.006843 172311.000000 0 0 1
21.557788 -13.547505 -14.338823 29.221139 -0.561060 2.083690 0.002145 0.002386 -295486.000000 0 0 1
22.374788 -13.283105 -13.249823 29.199826 -0.535748 2.041781 -0.007902 0.010346 -20162.700000 0 0 1
23.055088 -11.883205 -13.267223 29.133604 -0.475913 2.043609 0.008727 -0.000388 -285493.000000 0 0 1
22.118788 -10.860305 -13.021823 27.870323 -0.456421 2.056950 0.009809 0.001565 190573.000000 0 0 1
22.659788 -9.552505 -13.034823 27.832049 -0.398955 2.058206 0.020034 0.000551 188552.000000 0 0 1
23.672988 -9.193005 -11.890823 28.041280 -0.370408 2.008706 0.015114 -0.003740 200149.000000 0 0 1
24.869068 -9.905805 -12.032723 29.349309 -0.379056 1.993232 0.007835 0.008409 163771.000000 0 0 1
25.940588 -9.352405 -11.249423 29.781389 -0.346026 1.958143 0.002752 0.005499 758962.000000 0 0 1
27.318098 -10.056705 -11.421723 31.270938 -0.352737 1.944698 -0.008763 0.014212 244791.000000 0 0 1
27.934478 -9.815505 -12.670223 32.205803 -0.337900 1.975139 -0.017043 0.011156 -680498.000000 0 0 1
28.999978 -10.673605 -12.798223 33.447258 -0.352669 1.963447 -0.017727 0.012606 -845059.000000 0 0 1
29.864068 -10.504605 -14.059823 34.639398 -0.338231 1.988750 -0.016894 0.011036 -277378.000000 0 0 1
29.190938 -10.898405 -15.240023 34.686372 -0.357322 2.025689 -0.014481 0.008014 367918.000000 0 0 1
29.949998 -10.499305 -16.391423 35.719974 -0.337175 2.047538 -0.006631 0.006821 55666.800000 0 0 1
29.469698 -10.985805 -17.769023 36.123250 -0.356826 2.085067 -0.017007 0.006401 918422.000000 0 0 1
28.214478 -10.459805 -18.285623 35.211196 -0.355017 2.116843 -0.008046 0.002589 1200900.000000 0 0 1
28.337828 -9.353905 -19.179423 35.473628 -0.318825 2.142026 -0.005661 0.002089 -410424.000000 0 0 1
27.032808 -8.997105 -19.893323 34.748596 -0.321290 2.180339 -0.030501 0.001585 -245811.000000 0 0 1
26.607428 -9.828805 -20.932823 35.252570 -0.353853 2.206564 -0.023923 0.003380 -193722.000000 0 0 1
25.254098 -9.584705 -21.185223 34.328556 -0.362737 2.235888 0.004699 0.005658 -414947.000000 0 0 1
24.768288 -10.133505 -22.530223 34.982381 -0.388354 2.270570 0.016250 -0.002105 -150583.000000 0 0 1
24.425588 -11.493505 -22.425023 35.094040 -0.439813 2.263991 0.015697 0.001451 26124.200000 0 0 1
23.685388 -11.875605 -23.554423 35.451917 -0.464759 2.297493 0.016899 -0.003651 -909063.000000 0 0 1
23.776388 -13.402605 -23.837923 36.238005 -0.513296 2.288711 0.013224 0.004381 302448.000000 0 0 1
24.948158 -13.936605 -24.432923 37.597969 -0.509439 2.278179 0.010219 0.006033 -437647.000000 0 0 1
26.122008 -13.756805 -23.715423 37.868592 -0.484729 2.247538 -0.000476 0.009026 -331247.000000 0 0 1
27.455688 -14.276805 -24.359623 39.383159 -0.479515 2.237665 -0.008530 0.010089 757797.000000 0 0 1
27.836038 -13.608305 -25.528233 40.146254 -0.454707 2.259946 -0.015168 -0.007966 420102.000000 0 0 1
29.218518 -13.828805 -25.812513 41.367179 -0.442051 2.244629 -0.032675 -0.002674 361628.000000 0 0 1
29.704258 -13.261305 -27.172383 42.385653 -0.419893 2.266694 -0.028530 -0.005624 -49794.300000 0 0 1
29.503958 -14.056005 -28.330013 43.250948 -0.444599 2.284999 -0.019557 -0.005158 -92779.100000 0 0 1
30.270158 -13.499405 -29.345433 44.268170 -0.419493 2.295484 -0.027498 -0.003125 -108841.000000 0 0 1
30.153088 -14.214805 -30.667703 45.296550 -0.440524 2.314533 -0.014959 -0.010337 122355.000000 0 0 1
30.887238 -15.433505 -30.639473 46.162667 -0.463386 2.296589 -0.009329 -0.017101 -68110.200000 0 0 1
31.032978 -16.096405 -31.867873 47.304348 -0.478485 2.309970 -0.016832 -0.012651 -248066.000000 0 0 1
29.828128 -16.845605 -32.450863 47.186334 -0.514101 2.329137 -0.017362 -0.004008 191897.000000 0 0 1
28.989798 -16.116505 -33.356663 47.040590 -0.507390 2.359023 -0.025097 -0.009061 532935.000000 0 0 1
27.916968 -16.908805 -33.887353 47.049097 -0.544587 2.374966 -0.021537 -0.007518 552548.000000 0 0 1
26.921158 -16.095205 34.519257 46.641007 -0.538848 0.737569 -0.002338 -0.010560 -94695.500000 0 0 1
26.215818 -14.992005 -34.156336 45.592594 -0.519478 2.417596 -0.005084 -0.013782 145139.000000 0 0 1
27.002308 -13.806405 -33.914463 45.496508 -0.472650 2.411976 -0.014577 -0.011357 -339505.000000 0 0 1
26.297738 -12.444305 -33.798413 44.595566 -0.441985 2.430865 -0.004597 -0.013207 -281205.000000 0 0 1
25.699548 -11.981805 34.312902 44.512984 -0.436265 0.690619 0.006591 -0.014121 -404016.000000 0 0 1
25.163328 -10.758805 -34.587153 44.104604 -0.404036 2.472214 -0.006430 -0.013056 -322123.000000 0 0 1
19.930785 -30.180001 8.871677 37.239432 -0.987147 1.330250 0.004086 -0.018402 -25789.300000 0 0 1
20.471685 -29.817701 7.637577 36.966441 -0.969147 1.362689 0.010889 -0.017180 142333.000000 0 0 1
21.692285 -30.486001 7.385577 38.137884 -0.952361 1.375910 0.011410 -0.014116 186244.000000 0 0 1
22.372285 -30.260301 5.992277 38.106592 -0.934160 1.412891 0.005729 -0.007491 88047.500000 0 0 1
22.716685 -28.892101 5.774877 37.204173 -0.904490 1.414945 0.001066 0.005498 -270501.000000 0 0 1
23.647285 -28.746501 4.761077 37.526301 -0.882417 1.443580 -0.008292 0.006857 -285626.000000 0 0 1
23.826485 -27.227401 4.427277 36.450426 -0.851914 1.449035 -0.014121 0.007055 16361.600000 0 0 1
24.442785 -26.427301 5.384777 36.398459 -0.824390 1.422312 -0.014111 0.009615 30657.600000 0 0 1
24.070885 -25.083901 5.125877 35.140919 -0.806004 1.424408 -0.010008 0.012845 55721.600000 0 0 1
24.826185 -24.109101 6.029577 35.127539 -0.770745 1.398294 -0.016172 0.016245 454877.000000 0 0 1
26.210685 -23.869901 5.747377 35.913848 -0.738692 1.410073 -0.022612 0.014991 721265.000000 0 0 1
26.816585 -23.016201 6.745577 35.977459 -0.709283 1.382186 -0.008870 0.008000 53926.000000 0 0 1
26.468085 -21.480401 6.780077 34.755382 -0.681749 1.374457 -0.005811 0.018884 -198741.000000 0 0 1
26.749585 -20.797101 5.610577 34.344407 -0.660854 1.406699 -0.010274 0.030083 -13040.900000 0 0 1
26.370885 -19.453501 5.714177 33.264306 -0.635575 1.398159 0.001473 0.022230 -226598.000000 0 0 1
26.520585 -18.682001 4.321877 32.726705 -0.613696 1.438350 -0.006200 0.034591 468265.000000 0 0 1
27.848185 -18.476801 3.834377 33.639501 -0.585795 1.456564 -0.007726 0.024757 532248.000000 0 0 1
27.809885 -17.820901 2.570777 33.129792 -0.569889 1.493121 -0.011360 0.031146 -248781.000000 0 0 1
28.853785 -16.723801 2.534777 33.446248 -0.525288 1.494937 -0.010531 0.018494 -367476.000000 0 0 1
28.481285 -15.574201 3.224277 32.621086 -0.500400 1.471794 -0.008631 0.013347 -387298.000000 0 0 1
29.573085 -14.748501 3.478077 33.229244 -0.462618 1.465935 0.000377 0.009706 -343907.000000 0 0 1
29.290885 -13.597201 4.486577 32.603208 -0.434610 1.432747 0.006849 0.005752 95326.400000 0 0 1
28.859585 -14.033801 5.765177 32.604608 -0.452610 1.393041 0.004728 0.006081 119347.000000 0 0 1
28.757185 -12.948301 6.706177 32.242937 -0.423073 1.361278 -0.007247 0.002045 -244606.000000 0 0 1
28.262185 -13.360101 8.104877 32.294464 -0.441586 1.317116 0.009689 0.001411 -407517.000000 0 0 1
26.887885 -13.646101 8.058177 31.210713 -0.469644 1.309652 0.003376 0.003604 -472719.000000 0 0 1
26.189785 -13.758901 9.266077 31.001167 -0.483724 1.267262 0.005151 0.003318 -155619.000000 0 0 1
26.434085 -14.960901 10.258977 32.059882 -0.515022 1.245073 0.011894 -0.008031 659282.000000 0 0 1
27.646085 -14.818801 11.048577 33.256186 -0.492045 1.232133 0.003964 -0.001896 920975.000000 0 0 1
27.971185 -16.024001 11.703177 34.294608 -0.520236 1.222546 0.016577 -0.008946 97003.500000 0 0 1
28.566585 -15.894801 13.161577 35.240908 -0.507753 1.188045 0.016684 -0.010196 729499.000000 0 0 1
29.964385 -15.589901 13.060477 36.214437 -0.479740 1.201839 0.016187 -0.009859 406544.000000 0 0 1
30.488785 -15.375101 14.354177 37.040547 -0.467071 1.172850 0.023087 -0.008793 1725880.000000 0 0 1
32.082985 -15.271201 14.440077 38.354182 -0.444256 1.184789 0.017942 -0.012934 1553600.000000 0 0 1
32.673385 -14.085001 13.961077 38.221054 -0.407013 1.196871 0.021491 -0.019404 904065.000000 0 0 1
33.951485 -13.904701 14.615877 39.492631 -0.388709 1.191689 0.012253 -0.021789 1033490.000000 0 0 1
34.779585 -12.633301 14.154077 39.617644 -0.348420 1.205456 0.016301 -0.021737 193051.000000 0 0 1
-34.028819 -12.857101 13.103777 38.664901 0.361249 1.225042 0.017711 -0.018735 211426.000000 0 0 1
-33.402519 -11.694501 12.623077 37.574349 0.336771 1.228183 0.017220 -0.016990 -212195.000000 0 0 1
-32.317619 -11.878901 11.527277 36.309983 0.352238 1.247738 0.009960 -0.013850 233401.000000 0 0 1
-31.112419 -12.525901 11.881377 35.581567 0.382747 1.230338 -0.000366 -0.009306 157642.000000 0 0 1
-31.291319 -13.926301 12.122477 36.332395 0.418733 1.230618 -0.010512 -0.011626 204748.000000 0 0 1
-29.969019 -14.648901 12.598777 35.657560 0.454649 1.209671 -0.013695 -0.010854 227218.000000 0 0 1
-28.938019 -14.697101 11.710277 34.504265 0.469933 1.224532 -0.007588 -0.012051 -522795.000000 0 0 1
-27.844819 -15.479101 12.210777 34.118024 0.507366 1.204780 0.000004 -0.005721 1017510.000000 0 0 1
-26.487419 -15.329601 11.438277 32.671306 0.524648 1.213117 0.009329 0.001637 525440.000000 0 0 1
-26.571819 -15.584901 10.062377 32.406822 0.530449 1.255075 0.004323 0.005029 281600.000000 0 0 1
-25.304119 -15.408801 9.443677 31.095219 0.546970 1.262221 0.023666 0.005357 354679.000000 0 0 1
-25.453619 -15.008101 7.971777 30.605213 0.532756 1.307286 0.026664 0.018416 40958.400000 0 0 1
-25.820419 -16.066701 7.107777 31.230649 0.556618 1.341195 0.033609 0.024036 196940.000000 0 0 1
-25.638619 -15.685301 5.757277 30.602511 0.549039 1.381538 0.035583 0.020893 -437187.000000 0 0 1
-25.947819 -16.828101 4.799177 31.297067 0.575346 1.416846 0.030178 0.021079 -858806.000000 0 0 1
-27.301919 -17.155701 4.774577 32.596157 0.561019 1.423791 0.007086 0.011539 -562659.000000 0 0 1
-27.612619 -18.153301 3.801977 33.263405 0.581579 1.456247 0.012085 0.011836 92603.200000 0 0 1
-29.075219 -18.655501 3.904577 34.765526 0.570468 1.458247 0.014485 0.005541 160309.000000 0 0 1
-29.989819 -17.783501 3.250877 35.017286 0.535245 1.477826 0.018932 0.006880 -117493.000000 0 0 1
-31.290619 -18.206401 3.603577 36.380787 0.526966 1.471582 0.017238 0.005696 -239749.000000 0 0 1
-32.448519 -17.403101 3.006577 36.943387 0.492287 1.489323 0.013423 -0.003682 -113089.000000 0 0 1
-32.566619 -17.577301 1.582377 37.041195 0.494927 1.528064 0.016632 -0.011097 -282307.000000 0 0 1
-33.422019 -16.648801 0.982477 37.352097 0.462157 1.544490 0.019137 -0.009896 -488213.000000 0 0 1
-33.807619 -17.063101 -0.441023 37.872140 0.467410 1.582442 0.016860 -0.010701 -367894.000000 0 0 1
-32.757719 -17.269201 -1.366623 37.056189 0.485154 1.607684 0.018835 -0.006575 -162443.000000 0 0 1
-33.140819 -18.074801 -2.459023 37.829342 0.499300 1.635845 0.011712 -0.005756 -456070.000000 0 0 1
-31.962119 -18.604501 -3.275123 37.127226 0.527139 1.659125 0.004282 -0.001917 -432807.000000 0 0 1
-32.234619 -19.588301 -4.258823 37.959317 0.546047 1.683227 -0.001696 -0.009433 -935732.000000 0 0 1
-31.113019 -20.345601 -4.549623 37.452136 0.579130 1.692575 -0.013761 -0.005349 -1142240.000000 0 0 1
-31.336819 -21.356601 -5.661123 38.342521 0.598214 1.718984 -0.016831 -0.010804 -709046.000000 0 0 1
-31.977019 -22.463501 -5.175423 39.419838 0.612394 1.702466 -0.013591 -0.012346 -328881.000000 0 0 1
-32.324019 -23.362501 -6.213523 40.364050 0.625838 1.725348 -0.002191 -0.010117 214611.000000 0 0 1
-33.038919 -24.577001 -5.610423 41.558104 0.639573 1.706212 -0.001601 -0.006108 -525142.000000 0 0 1
-32.151419 -25.311901 -4.849523 41.205873 0.666931 1.688760 -0.000345 0.000109 -556557.000000 0 0 1
-32.750819 -26.518901 -4.493323 42.379927 0.680638 1.677021 -0.002468 0.009772 -55307.100000 0 0 1
-31.756019 -27.563101 -3.990523 42.238532 0.714831 1.665413 -0.008371 0.007967 -492183.000000 0 0 1
-30.853519 -28.095501 -4.951823 42.021630 0.738646 1.688911 -0.012680 0.006386 588392.000000 0 0 1
-29.998619 -29.153101 -4.518723 42.074212 0.771105 1.678403 -0.006945 0.000804 1047930.000000 0 0 1
-29.002719 -28.950701 -3.290123 41.111138 0.784501 1.650912 -0.000362 -0.004437 -380343.000000 0 0 1
-29.684019 -28.903901 -2.060623 41.482799 0.772084 1.620491 -0.002329 0.001448 12851.900000 0 0 1
-28.818319 -28.665001 -0.966023 40.658468 0.782731 1.594558 0.003913 -0.005067 114619.000000 0 0 1
-29.566219 -28.676901 0.419477 41.191042 0.770130 1.560612 -0.003499 0.002404 260059.000000 0 0 1
-29.877019 -29.943601 0.969477 42.310701 0.786511 1.547881 -0.001394 0.004391 -230230.000000 0 0 1
-30.686719 -29.701501 2.106377 42.758516 0.769085 1.521514 0.002502 0.011283 -276011.000000 0 0 1
-31.384019 -30.998701 2.531177 44.184646 0.779222 1.513479 -0.009573 0.004777 -774543.000000 0 0 1
-32.312119 -30.790801 3.570677 44.776067 0.761294 1.490966 -0.009163 0.001364 -75890.300000 0 0 1
-32.787319 -31.996401 4.182277 46.002928 0.773190 1.479757 0.002647 -0.002811 31761.000000 0 0 1
-33.756319 -32.846301 3.344277 47.218140 0.771736 1.499911 0.007067 0.004000 -370969.000000 0 0 1
-34.391419 -33.969001 3.980477 48.502649 0.779219 1.488637 0.015403 -0.003408 -68861.500000 0 0 1
34.382885 -34.466001 3.061277 48.779703 -0.786605 1.507998 0.016369 0.009607 303024.000000 0 0 1
33.188685 34.354295 3.860477 47.922956 0.802654 1.490153 0.017677 0.005972 565311.000000 0 0 1
32.345485 -34.388201 4.711077 47.444420 -0.815999 1.471336 0.013910 0.001977 541884.000000 0 0 1
31.829785 -33.106401 4.275077 46.124237 -0.805055 1.477977 0.009725 0.002922 -157684.000000 0 0 1
30.702585 -33.130501 3.228777 45.284697 -0.823415 1.499436 0.005497 0.009750 -84692.800000 0 0 1
31.253085 -33.616301 2.020377 45.944455 -0.821812 1.526808 0.009909 0.010279 -234801.000000 0 0 1
30.404485 -33.217201 0.981477 45.041963 -0.829579 1.549004 0.008028 0.005273 -868968.000000 0 0 1
30.693285 -34.011501 -0.323223 45.814456 -0.836636 1.577851 0.019034 0.012278 509437.000000 0 0 1
31.856885 -33.732701 -1.072623 46.410201 -0.813990 1.593910 0.010670 0.020737 -417663.000000 0 0 1
33.092385 -33.751901 -0.423323 47.270244 -0.795264 1.579752 -0.000461 0.019481 -575071.000000 0 0 1
34.340185 -33.410501 -1.290123 47.928846 -0.771677 1.597717 -0.010516 0.026047 328848.000000 0 0 1
34.841185 -34.524201 -2.019823 49.090817 -0.780828 1.611953 -0.009997 0.017511 331067.000000 0 0 1
-34.123119 -34.036001 -3.133423 48.297567 0.784120 1.635719 -0.005722 0.014283 -150236.000000 0 0 1
-33.556519 34.285595 -3.943123 48.136163 -0.796144 1.652804 -0.001041 0.008597 132898.000000 0 0 1
-32.440819 33.675195 -3.296523 46.875287 -0.804066 1.641180 0.001006 0.013689 335878.000000 0 0 1
-31.895319 32.679295 -4.224523 45.859506 -0.797538 1.663046 0.001395 0.009595 -89994.200000 0 0 1
-30.679519 31.928095 -3.686723 44.432286 -0.805338 1.653866 0.005611 0.004854 -467271.000000 0 0 1
-29.484819 32.714695 -3.692023 44.195439 -0.837279 1.654432 0.000365 -0.005498 475574.000000 0 0 1
-28.302919 31.919395 -3.803123 42.829508 -0.845378 1.659710 0.011669 -0.007049 622575.000000 0 0 1
-27.804719 31.448895 -2.407923 42.046801 -0.846822 1.628095 0.004810 -0.013465 -911744.000000 0 0 1
-28.703619 30.571695 -1.810423 41.973848 -0.816903 1.613942 0.021709 -0.004011 -513610.000000 0 0 1
-28.690619 30.585095 -0.367823 41.937274 -0.817348 1.579567 0.005837 0.006993 -57224.700000 0 0 1
-30.012019 30.126895 0.302677 42.525789 -0.787308 1.563679 0.004584 0.013469 42732.900000 0 0 1
-30.369219 28.833795 -0.010423 41.876931 -0.759469 1.571045 0.001966 0.011449 805230.000000 0 0 1
-31.606419 28.777595 -0.767423 42.751663 -0.738585 1.588748 0.006513 0.012108 1052260.000000 0 0 1
-32.002619 27.292995 -1.227423 42.078282 -0.706138 1.599970 0.013830 0.016262 51638.300000 0 0 1
-32.336419 26.472395 -0.098023 41.790445 -0.686013 1.573142 0.008831 0.016171 212436.000000 0 0 1
-32.707419 25.139995 -0.587623 41.256998 -0.655320 1.585040 0.022958 0.019336 -38453.400000 0 0 1
-32.684419 23.961095 0.409477 40.528669 -0.632600 1.560693 0.013969 0.014612 709574.000000 0 0 1
-31.361119 23.496695 0.725377 39.193630 -0.643008 1.552288 0.014348 0.005774 848946.000000 0 0 1
-30.896219 24.032095 1.995377 39.193105 -0.661078 1.519863 0.014770 0.000822 -1652390.000000 0 0 1
-29.429319 23.842095 2.218177 37.940093 -0.680898 1.512298 0.004200 -0.008396 -909414.000000 0 0 1
-28.509219 24.604695 1.431477 37.685750 -0.712018 1.532803 0.012896 -0.006725 304706.000000 0 0 1
-28.366219 25.965495 1.811577 38.498456 -0.741240 1.523723 -0.005056 -0.002199 -354210.000000 0 0 1
-27.727119 26.947295 0.798277 38.672821 -0.771136 1.550153 -0.012190 -0.003524 -363255.000000 0 0 1
-26.398719 26.814195 0.422577 37.630732 -0.793206 1.559567 -0.005003 -0.011383 -864578.000000 0 0 1
-25.993319 27.698295 -0.571723 37.989144 -0.817142 1.585847 0.003815 -0.010690 238970.000000 0 0 1
-24.857919 27.101395 -1.446823 36.803465 -0.828549 1.610119 0.008139 -0.006768 81559.100000 0 0 1
-25.269419 25.992795 -2.254223 36.321488 -0.799509 1.632899 0.010208 -0.013810 249150.000000 0 0 1
-24.169719 25.396795 -2.940523 35.182655 -0.810149 1.654473 -0.002506 -0.009119 857101.000000 0 0 1
-23.200019 24.436995 -2.127023 33.762877 -0.811359 1.633837 -0.006820 -0.009573 701716.000000 0 0 1
-23.847219 23.211495 -1.713023 33.322632 -0.771890 1.622226 -0.014376 -0.009468 -308329.000000 0 0 1
-22.883119 22.496395 -1.049323 32.106479 -0.776876 1.603485 -0.017563 -0.020601 -1192950.000000 0 0 1
-23.399619 21.159495 -0.442323 31.550944 -0.735167 1.584816 -0.020108 -0.018669 -11038.500000 0 0 1
-24.419419 21.184895 0.612377 32.333927 -0.714591 1.551856 -0.027826 -0.019829 1087870.000000 0 0 1
-25.726819 21.648395 0.341977 33.624979 -0.699522 1.560626 -0.030488 -0.020244 308770.000000 0 0 1
-26.432119 20.894895 -0.845423 33.704129 -0.668928 1.595883 -0.036459 -0.014978 -1126470.000000 0 0 1
-26.563419 19.503295 -0.688923 32.961620 -0.633323 1.591699 -0.042296 -0.007602 24979.000000 0 0 1
-27.387119 19.009195 -1.697223 33.380898 -0.606750 1.621662 -0.012852 0.001458 -146949.000000 0 0 1
-27.527819 17.467895 -1.653823 32.644193 -0.565440 1.621480 -0.037286 0.011059 -323038.000000 0 0 1
-28.308719 16.916095 -0.645723 32.984160 -0.538622 1.590374 -0.012332 0.002746 -59636.600000 0 0 1
-28.440619 15.483795 -0.613923 32.388171 -0.498553 1.589753 -0.006294 -0.000117 -16803.400000 0 0 1
-27.216619 14.593495 -0.243023 30.883224 -0.492185 1.578666 -0.014362 0.003292 -260851.000000 0 0 1
-26.887919 14.791695 1.137177 30.709080 -0.502939 1.533757 0.009873 0.006515 -214847.000000 0 0 1
-25.693019 14.201195 1.550777 29.397450 -0.504934 1.518020 -0.015119 0.006701 -770870.000000 0 0 1
-25.635319 12.649195 1.743077 28.639309 -0.458377 1.509896 -0.020794 0.016920 -397763.000000 0 0 1
-25.709919 11.956495 0.503377 28.358616 -0.435302 1.553045 -0.029433 0.019973 346596.000000 0 0 1
-25.207119 10.643295 0.558277 27.367686 -0.399525 1.550396 -0.019880 0.013571 -460890.000000 0 0 1
-25.118919 9.913295 -0.780523 27.015602 -0.375890 1.599692 -0.014118 0.004605 182929.000000 0 0 1
-26.424419 9.611195 -1.271923 28.146808 -0.348848 1.616001 -0.007522 -0.014993 609498.000000 0 0 1
-26.309819 9.041495 -2.598523 27.941144 -0.331011 1.663931 -0.004018 -0.015491 947761.000000 0 0 1
-27.762719 8.839995 -3.187223 29.309938 -0.308262 1.679754 0.008238 -0.023339 881810.000000 0 0 1
-27.748919 8.270795 -4.452023 29.295547 -0.289674 1.723357 0.004847 -0.010927 62348.100000 0 0 1
-29.045119 7.957795 -4.895123 30.510780 -0.267418 1.731932 0.000199 -0.012306 -236853.000000 0 0 1
-10.691015 18.525395 -19.933223 29.237330 -1.047385 2.320980 0.028698 0.007025 87923.700000 0 0 1
-10.925715 17.413795 -20.709123 29.180118 -1.010461 2.359868 0.034203 0.003278 -10398.900000 0 0 1
-10.096315 17.384595 -21.860423 29.699122 -1.044642 2.398032 0.024254 -0.002466 -140131.000000 0 0 1
-10.344115 16.210595 -22.817923 29.840270 -1.002826 2.441324 0.018416 0.004151 -50239.400000 0 0 1
-9.781415 14.998395 -22.354123 28.641487 -0.992901 2.466230 0.025025 0.004382 10594.600000 0 0 1
-9.899215 13.985395 -23.352323 28.964059 -0.954838 2.508585 0.011740 0.001934 94222.400000 0 0 1
-9.175615 12.631595 -23.019723 27.814686 -0.942570 2.545633 0.011288 0.003642 1963310.000000 0 0 1
-7.714015 12.743795 -23.034523 27.431726 -1.026478 2.567534 -0.005699 0.005141 1179260.000000 0 0 1
-7.195915 11.628495 -22.454223 26.290592 -1.016655 2.594572 -0.015900 0.007583 -464349.000000 0 0 1
-5.665415 11.576695 -22.433323 25.872201 -1.115680 2.620111 -0.016666 0.011184 -358028.000000 0 0 1
-5.174715 11.393295 -23.701523 26.801997 -1.144464 2.655830 -0.014621 0.003673 -519503.000000 0 0 1
-3.766015 11.484395 -23.725223 26.626311 -1.253922 2.670437 -0.012711 0.008411 -16591.500000 0 0 1
-3.237615 10.776895 -25.022423 27.436204 -1.278953 2.718984 0.005880 -0.000325 -435546.000000 0 0 1
-3.148615 9.358595 -25.018923 26.896907 -1.246251 2.765695 0.002457 0.000015 76483.800000 0 0 1
-3.039015 8.740095 -26.263583 27.846017 -1.236163 2.802846 0.010563 -0.002242 -292268.000000 0 0 1
-2.571415 7.237595 -26.202223 27.304788 -1.229420 2.856445 0.022969 0.006875 261159.000000 0 0 1
-1.182515 7.051095 -25.976223 26.942169 -1.404636 2.873008 0.021546 0.001784 138542.000000 0 0 1
-0.884915 5.745095 -25.647443 26.297919 -1.417968 2.918714 0.017494 0.005617 -392311.000000 0 0 1
0.543285 5.626795 -25.115413 25.743736 1.474542 2.920203 0.013637 0.005350 -359393.000000 0 0 1
0.712885 6.156395 -23.850523 24.642582 1.455514 2.887366 0.007033 -0.005327 -162137.000000 0 1 0
1.567585 5.435995 -22.998423 23.684063 1.290042 2.900387 0.013679 -0.007448 -102908.000000 0 1 0
1.763985 5.949595 -21.568823 22.443784 1.282564 2.861448 0.008127 -0.010682 118562.000000 0 1 0
2.446885 7.190795 -21.507423 22.809297 1.242807 2.802099 0.009279 -0.011052 -29468.000000 0 1 0
1.807985 8.148895 -20.667323 22.289270 1.352464 2.757749 -0.003024 -0.002206 -156278.000000 0 1 0
2.570185 9.470595 -20.595323 22.813710 1.305793 2.696942 -0.006158 -0.008688 -569833.000000 0 1 0
2.098785 10.426095 -19.705423 22.392232 1.372150 2.646683 0.001792 -0.004298 -176977.000000 0 1 0
2.788485 11.669895 -19.781523 23.135919 1.336247 2.596373 -0.007717 0.005138 301153.000000 0 1 0
4.040885 11.806395 -18.841423 22.599092 1.241031 2.556616 -0.000301 -0.000069 241130.000000 0 1 0
5.144885 11.161695 -19.424723 22.986369 1.138881 2.577462 0.008192 0.000555 -564302.000000 0 1 0
6.068985 10.848495 -18.393523 22.200093 1.060741 2.547280 0.011943 -0.004031 741183.000000 0 1 0
7.370085 10.107795 -18.904223 22.668377 0.940774 2.557018 0.025793 -0.004869 629548.000000 0 1 0
7.189685 8.720295 -19.177523 22.260110 0.881307 2.609052 0.019733 -0.001193 215583.000000 0 1 0
6.445785 8.359495 -20.354923 22.929287 0.913944 2.663178 0.013600 0.000336 284230.000000 0 1 0
6.000185 6.858695 -20.421923 22.362890 0.852063 2.721880 0.016425 -0.003779 182077.000000 0 1 0
7.128885 6.004995 -20.432823 22.458433 0.700034 2.713613 0.018505 -0.006783 251252.000000 0 1 0
6.728585 4.655095 -20.571823 22.139189 0.605228 2.763049 0.011043 -0.010745 -141238.000000 0 1 0
6.945985 4.260695 -22.044123 23.501991 0.550217 2.787520 0.010404 -0.015546 24692.600000 0 1 0
5.990985 4.747495 -22.979523 24.217537 0.670114 2.820463 0.009388 -0.011419 110702.000000 0 1 0
6.449185 4.434995 -24.255723 25.487277 0.602412 2.829456 0.000734 -0.004903 207214.000000 0 0 1
5.536785 5.143395 -25.303643 26.408045 0.748581 2.851367 -0.003329 -0.007592 161034.000000 0 0 1
5.453385 6.593395 -25.497753 26.895124 0.879749 2.817826 -0.018081 -0.002011 -77214.600000 0 0 1
4.963885 7.304495 -24.389223 25.938967 0.973917 2.794173 0.004712 -0.006694 -638800.000000 0 0 1
4.893785 8.780395 -24.727523 26.692599 1.062325 2.755483 0.006971 -0.004210 594935.000000 0 0 1
3.729185 9.314595 -25.389223 27.299838 1.189980 2.765246 0.011028 -0.001002 590756.000000 0 0 1
2.668285 9.579195 -24.490423 26.432207 1.299133 2.755898 0.009474 -0.004044 35603.900000 0 0 1
1.317285 9.912495 -25.172263 27.085709 1.438679 2.763461 0.018652 0.001918 109147.000000 0 0 1
1.271285 11.149495 -25.880353 28.208511 1.457265 2.732460 0.014039 0.004145 -257926.000000 0 0 1
0.019885 11.348795 -26.465513 28.796162 1.569044 2.736495 0.020379 -0.005671 -624664.000000 0 0 1
-0.142615 12.795195 -26.837113 29.731599 -1.559651 2.696675 0.010012 -0.005100 -205820.000000 0 0 1
0.001485 13.673995 -25.753393 29.158453 1.570688 2.653486 0.000038 -0.002859 160090.000000 0 0 1
-0.047315 14.994795 -26.273853 30.251636 -1.567641 2.622985 0.001522 -0.005823 -129513.000000 0 0 1
-0.361815 16.037795 -25.167993 29.845765 -1.548240 2.574132 0.000297 -0.006521 155500.000000 0 0 1
-1.645015 15.743395 -24.634823 29.281992 -1.466685 2.570473 -0.007130 0.007250 116753.000000 0 0 1
-1.855315 16.287895 -23.335823 28.518386 -1.457378 2.529196 -0.008729 0.006720 -389363.000000 0 0 1
-3.009215 15.680695 -22.487223 27.579245 -1.381196 2.524160 -0.020973 0.001662 1390840.000000 0 0 1
-4.354915 15.965495 -22.925323 28.274242 -1.304504 2.516348 -0.026040 0.000303 764810.000000 0 0 1
-4.705215 15.194595 -24.079723 28.859103 -1.270497 2.557820 -0.015876 0.001330 -1289710.000000 0 0 1
-6.167615 15.360895 -24.458323 29.533136 -1.188985 2.546623 -0.023953 0.006849 -510261.000000 0 0 1
-6.566515 16.632695 -24.953423 30.699169 -1.194785 2.519803 -0.012414 0.006066 295867.000000 0 0 1
-7.797215 16.507195 -25.661123 31.492496 -1.129510 2.523237 0.010170 0.003168 420821.000000 0 0 1
-8.591115 17.749695 -26.133653 32.738765 -1.120018 2.495177 0.009636 0.002865 200553.000000 0 0 1
-9.291215 18.419995 -25.100993 32.491272 -1.103628 2.453637 0.016917 -0.003355 -175191.000000 0 0 1
-10.388515 19.190895 -25.498303 33.561513 -1.074638 2.433722 0.017027 -0.002745 -156834.000000 0 0 1
-11.055215 19.872295 -24.312723 33.290155 -1.063119 2.389598 0.026143 -0.007159 -347592.000000 0 0 1
-10.386815 20.970995 -23.672123 33.287205 -1.110920 2.361926 0.014554 -0.018267 -103990.000000 0 0 1
-10.657615 22.261295 -24.194023 34.561551 -1.124292 2.346232 0.007338 -0.015855 -220885.000000 0 0 1
-10.210015 22.702795 -25.607853 35.713071 -1.148171 2.370349 0.001718 -0.010312 -556480.000000 0 0 1
-10.941915 22.181295 -26.670563 36.373813 -1.112527 2.393864 -0.008696 -0.014802 -120996.000000 0 0 1
-10.767915 23.024095 -27.819983 37.682999 -1.133337 2.401289 0.007458 0.003108 -278096.000000 0 0 1
-11.298215 22.443495 -29.177213 38.505453 -1.104427 2.430643 0.004469 0.007393 188576.000000 0 0 1
-10.519615 21.386195 -29.817213 38.171951 -1.113659 2.467268 -0.013473 0.008194 443430.000000 0 0 1
-10.310115 20.239495 -29.012253 36.846255 -1.099652 2.477355 -0.015279 0.009460 -369767.000000 0 0 1
-9.450715 19.161795 -29.624683 36.525502 -1.112599 2.516773 -0.023022 0.005277 -531141.000000 0 0 1
-8.131415 19.578495 -29.967503 36.708155 -1.177150 2.525897 -0.026201 0.007503 1005120.000000 0 0 1
-7.279015 18.633495 -30.682823 36.628225 -1.198384 2.563822 -0.032611 0.013356 572300.000000 0 0 1
-6.895715 17.412495 -29.903523 35.284084 -1.193725 2.582068 -0.018268 0.002649 -1271390.000000 0 0 1
-7.885115 16.431595 -29.792693 34.925305 -1.123378 2.592580 -0.025688 -0.000769 35760.300000 0 0 1
-7.442215 15.270695 -29.072503 33.671815 -1.117318 2.612782 -0.023923 0.002760 -603819.000000 0 0 1
-8.613015 14.294395 -29.061253 33.512240 -1.028508 2.620314 -0.005784 0.004943 -214746.000000 0 0 1
-9.551315 14.799295 -28.124633 33.184963 -0.997669 2.582075 0.000080 0.004127 -951568.000000 0 0 1
-10.668415 14.004995 -28.017173 33.089529 -0.919813 2.580564 0.031258 -0.006549 -812785.000000 0 0 1
-11.664415 14.460395 -26.959123 32.740738 -0.892016 2.538195 0.017363 -0.003760 -431147.000000 0 0 1
-12.296815 15.616795 -27.336513 33.799126 -0.903780 2.512894 0.007889 -0.004585 -458969.000000 0 0 1
-13.383315 15.835695 -26.441133 33.600832 -0.869133 2.476596 0.006224 -0.006331 -43434.400000 0 0 1
-14.241315 17.026995 -26.839273 34.829301 -0.874253 2.450570 -0.002084 -0.010447 -608977.000000 0 0 1
-13.605615 18.272195 -26.784903 35.162721 -0.930755 2.436793 -0.007835 -0.008150 136671.000000 0 0 1
-14.418515 19.298595 -27.380383 36.469367 -0.929136 2.420035 -0.013556 -0.010451 -269784.000000 0 0 1
-13.992615 20.752195 -27.246303 36.997404 -0.977547 2.398587 -0.006925 -0.008581 125009.000000 0 0 1
-15.013115 21.720595 -27.608873 38.202458 -0.966006 2.378496 -0.016850 -0.008088 696319.000000 0 0 1
-14.606315 23.074395 -27.671813 38.878032 -1.006458 2.362796 -0.007993 -0.009432 -341669.000000 0 0 1
-14.194615 23.780095 -26.314303 38.202390 -1.032651 2.330647 -0.030420 -0.013495 146187.000000 0 0 1
-13.301815 24.857995 -26.573463 38.742834 -1.079455 2.326627 -0.006474 -0.022837 306353.000000 0 0 1
-12.950815 25.512795 -25.350773 38.226797 -1.101071 2.295839 0.007724 -0.028086 -145826.000000 0 0 1
-12.656715 27.030995 -25.484973 39.247306 -1.132886 2.277517 0.022513 -0.024188 51798.300000 0 0 1
-13.765715 27.747995 -25.971733 40.422482 -1.110275 2.268562 0.016792 -0.025842 -139066.000000 0 0 1
-14.227615 28.775195 -25.142113 40.774536 -1.111606 2.235230 0.015608 -0.026808 -517124.000000 0 0 1
-15.585015 29.318295 -25.573633 41.910212 -1.082205 2.227110 0.010007 -0.026273 -11008.300000 0 0 1
-16.672115 28.407895 -25.425723 41.610520 -1.040077 2.228171 0.005129 -0.021632 -220811.000000 0 0 1
-17.826315 28.954895 -26.025023 42.818983 -1.018943 2.224073 -0.005518 -0.014917 239009.000000 0 0 1
-19.062115 28.016395 -25.803813 42.592481 -0.973352 2.221605 -0.020443 -0.001153 181139.000000 0 0 1
-19.351815 27.939295 -24.419823 41.850027 -0.965028 2.193838 -0.015496 -0.005824 58519.500000 0 0 1
-20.253315 26.844995 -24.196323 41.428403 -0.924451 2.194507 -0.004319 -0.012350 -237867.000000 0 0 1
-20.814715 26.786795 -22.814223 40.881213 -0.910206 2.162844 0.009805 -0.007350 -431721.000000 0 0 1
-21.734815 27.862095 -22.725123 42.013447 -0.908317 2.142305 0.004197 -0.003286 -194059.000000 0 0 1
-22.108615 27.999595 -21.364223 41.583629 -0.902426 2.110364 -0.001707 -0.002676 -301178.000000 0 0 1
-23.442715 28.732995 -21.111123 42.671131 -0.886446 2.088332 -0.002774 0.001425 -328592.000000 0 0 1
-24.533515 27.919995 -21.472623 42.924271 -0.849870 2.094677 -0.001562 -0.005824 -685663.000000 0 0 1
-25.667595 28.735295 -21.375423 44.061904 -0.841727 2.077300 -0.000250 0.002657 -219696.000000 0 0 1
-27.030775 28.044995 -21.599923 44.539210 -0.803811 2.077119 -0.000615 0.001115 -53052.300000 0 0 1
-27.168995 27.529495 -22.888223 44.943277 -0.791989 2.105132 0.000655 0.003389 -199185.000000 0 0 1
-28.522325 27.202395 -23.096723 45.683169 -0.761716 2.100856 -0.014083 0.011943 -235525.000000 0 0 1
-28.758355 26.805795 -24.546723 46.347980 -0.750272 2.128946 -0.016933 0.018588 -213243.000000 0 0 1
-28.159545 25.577695 -24.929523 45.482520 -0.737389 2.150902 0.001042 0.010302 -95457.800000 0 0 1
-28.305505 25.420595 -26.329903 46.267398 -0.731753 2.176184 0.004756 0.012367 -213683.000000 0 0 1
-28.333735 23.977695 -26.945393 45.867032 -0.702319 2.198722 0.005944 0.005109 -998221.000000 0 0 1
-27.257795 23.133195 -26.788343 44.673789 -0.703728 2.213852 0.025335 -0.004376 -772808.000000 0 0 1
-27.527995 21.844595 -27.270023 44.481806 -0.670790 2.230725 0.022056 -0.010350 -71333.700000 0 0 1
-26.322745 20.871895 -27.194493 43.221099 -0.670410 2.251313 0.040930 -0.011229 152289.000000 0 0 1
-26.218715 20.370995 -25.857013 42.083056 -0.660536 2.232457 0.042071 -0.017109 195543.000000 0 0 1
-25.526225 19.152195 -25.778583 41.023531 -0.643690 2.250272 0.042485 -0.019715 518468.000000 0 0 1
-26.539755 17.927095 -25.721463 41.077159 -0.594080 2.247433 0.040202 -0.020389 842946.000000 0 0 1
-27.334655 17.736295 -26.907373 42.258328 -0.575572 2.261053 0.031654 -0.017919 608379.000000 0 0 1
-28.154985 16.572495 -26.758023 42.229641 -0.532007 2.257034 0.013935 -0.020340 12738.200000 0 0 1
-28.928365 16.147195 -28.024083 43.392758 -0.509101 2.272898 -0.008727 -0.015149 1039660.000000 0 0 1
-30.202815 16.766195 -28.306543 44.660673 -0.506766 2.257270 -0.016897 -0.008870 659438.000000 0 0 1
-30.774035 16.278695 -29.501363 45.632966 -0.486558 2.273774 -0.008458 -0.003365 386692.000000 0 0 1
-32.109225 17.022095 -29.825103 47.013730 -0.487461 2.258017 -0.005373 -0.002535 -143510.000000 0 0 1
-33.114235 16.711795 -28.921883 47.035221 -0.467377 2.233053 -0.023435 0.001573 -580026.000000 0 0 1
-34.371395 17.178695 -29.379963 48.370266 -0.463485 2.223576 -0.022441 -0.000114 820023.000000 0 0 1
34.148400 16.677995 -28.511363 47.509647 0.454323 2.214444 -0.007995 0.013859 381587.000000 0 0 1
33.748960 17.684995 -27.644363 47.074008 0.482675 2.198457 -0.029062 0.015438 -274072.000000 0 0 1
32.768498 17.288495 -26.731143 45.686109 0.485479 2.195805 -0.030242 0.018013 -216441.000000 0 0 1
32.348028 18.414495 -25.792683 45.285219 0.517511 2.176768 -0.026196 0.019589 -7978.210000 0 0 1
31.647458 19.462195 -26.454373 45.608908 0.551353 2.189557 -0.018797 0.015922 162823.000000 0 0 1
31.360608 20.544995 -25.570333 45.380905 0.579967 2.169365 -0.009283 0.012836 -733606.000000 0 0 1
30.702378 21.719295 -26.348793 45.919742 0.615685 2.181936 -0.000924 0.009950 -501874.000000 0 0 1
29.460358 21.478495 -26.906603 45.312292 0.629967 2.206574 -0.004305 0.008310 -936092.000000 0 0 1
28.400628 21.643295 -26.000263 44.170597 0.651182 2.200163 -0.017379 0.010925 -568367.000000 0 0 1
27.033048 21.144495 -26.493603 43.356503 0.663775 2.228201 -0.008911 0.013125 -18235.700000 0 0 1
26.815468 19.739595 -26.586483 42.609413 0.634563 2.244594 -0.016742 0.008300 -999932.000000 0 0 1
25.575028 19.425695 -27.095573 42.019160 0.649590 2.271608 -0.012612 0.003640 -1244120.000000 0 0 1
25.154478 17.908295 -26.992183 41.012593 0.618690 2.289147 -0.011447 -0.004124 -658226.000000 0 0 1
25.924328 17.001695 -27.718433 41.586536 0.580456 2.300333 -0.010826 -0.004517 -537830.000000 0 0 1
27.055698 16.569295 -27.019183 41.672396 0.549498 2.276239 -0.011468 0.003905 -554695.000000 0 0 1
27.997138 15.720495 -27.909633 42.543170 0.511632 2.286344 -0.018655 0.014818 -340186.000000 0 0 1
27.501008 14.530595 -28.508363 42.192066 0.486082 2.312684 -0.008685 0.020300 -271545.000000 0 0 1
27.069748 13.533595 -27.570033 40.939421 0.463610 2.309642 -0.001581 0.009822 -312830.000000 0 0 1
28.035408 12.719895 -26.671343 40.732547 0.425933 2.284704 -0.005793 0.003868 -217908.000000 0 0 1
28.436198 13.379595 -25.487543 40.462894 0.439781 2.252220 -0.006551 0.009389 -134987.000000 0 0 1
29.387488 12.643395 -24.778423 40.465419 0.406293 2.229808 -0.008801 0.007443 -621736.000000 0 0 1
-13.787915 -31.959301 -25.739343 43.289922 1.163500 2.207540 0.011021 0.011998 124464.000000 0 0 1
-13.280215 -30.613501 -25.662223 42.096321 1.161494 2.226361 0.006928 0.018540 -28194.400000 0 0 1
-13.524615 -30.008701 -26.879473 42.496393 1.147369 2.255588 -0.000226 0.023112 -228005.000000 0 0 1
-12.745915 -28.689301 -27.208663 41.543299 1.152714 2.284909 0.011825 0.015090 -277300.000000 0 0 1
-13.095915 -27.584201 -26.442253 40.392869 1.127543 2.284485 0.017344 0.007784 -19237.000000 0 0 1
-12.384015 -26.460501 -26.884213 39.702429 1.133059 2.314669 0.008585 0.001535 -524386.000000 0 0 1
-12.838615 -25.167401 -26.164393 38.507189 1.099079 2.317833 0.008981 -0.000008 -69516.800000 0 0 1
-12.255215 -24.899301 -24.883923 37.274323 1.113415 2.301762 0.006285 0.001527 152398.000000 0 0 1
-12.724515 -23.663301 -24.376323 36.277682 1.077421 2.307618 0.015596 0.002769 -205837.000000 0 0 1
-12.309015 -23.328501 -22.987523 34.987956 1.085283 2.287645 0.009971 0.001290 800085.000000 0 0 1
-10.906815 -23.001001 -23.000523 34.307852 1.128010 2.305565 0.003385 0.002969 613571.000000 0 0 1
-10.422815 -22.593201 -21.760423 33.054558 1.138564 2.289379 0.008156 0.004194 322279.000000 0 0 1
-8.926215 -22.198301 -21.898623 32.434420 1.188470 2.311986 0.005737 0.012498 149746.000000 0 0 1
-8.752315 -20.992401 -22.644923 32.094804 1.175783 2.354014 0.001440 0.013614 752913.000000 0 0 1
-7.455115 -20.369901 -22.712223 31.406316 1.219951 2.379183 0.004492 0.012718 719730.000000 0 0 1
-7.477515 -19.167101 -23.722523 31.401419 1.198834 2.427153 0.010631 0.015626 -172171.000000 0 0 1
-8.048615 -17.996501 -23.270923 30.499018 1.150246 2.438747 0.002004 0.025095 -380553.000000 0 0 1
-8.382915 -17.005901 -24.286923 30.811176 1.112811 2.478757 -0.001974 0.023820 561102.000000 0 0 1
-7.204915 -16.321901 -25.114063 30.806354 1.155095 2.523911 -0.001107 0.022936 550203.000000 0 0 1
-6.767015 -17.175101 -26.109443 31.976235 1.195472 2.526165 -0.019910 0.023584 -84144.900000 0 0 1
-5.691015 -16.567101 -26.835813 32.047111 1.239912 2.563280 -0.005799 0.015889 118833.000000 0 0 1
-5.252915 -17.407001 -28.003123 33.388197 1.277716 2.565712 -0.008501 0.018319 -309153.000000 0 0 1
-6.189215 -17.458001 -29.060603 34.461672 1.230100 2.574141 0.005964 0.011279 48339.100000 0 0 1
-5.687115 -18.205701 -30.125453 35.655767 1.268020 2.577169 0.008466 0.004002 -494235.000000 0 0 1
-6.338115 -17.880301 -31.477133 36.751691 1.230141 2.599210 0.005240 0.000407 -173484.000000 0 0 1
-5.933715 -16.810501 -32.274873 36.870982 1.231472 2.636948 0.013318 -0.002558 -81170.900000 0 0 1
-6.302115 -15.553001 -31.753473 35.915116 1.185813 2.655416 0.015511 0.000769 -219667.000000 0 0 1
-6.963915 -14.598301 -32.761413 36.536512 1.125688 2.682999 0.006070 -0.002464 -641535.000000 0 0 1
-6.055515 -13.955601 -33.611903 36.894283 1.161401 2.716578 0.013160 -0.006144 -267821.000000 0 0 1
-6.608115 -13.288601 34.524817 37.579477 1.109330 0.405983 0.013159 -0.002354 -231405.000000 0 0 1
-7.191115 -11.852401 -34.551984 37.229439 1.025449 2.760026 0.003648 -0.002876 1038350.000000 0 0 1
-6.199715 -10.779101 -34.369172 36.549493 1.048841 2.794442 -0.005224 -0.005445 860447.000000 0 0 1
-5.576115 -10.372301 33.668448 35.668503 1.077526 0.336468 0.000179 -0.001432 215203.000000 0 0 1
-4.520615 -9.249201 33.792512 35.325877 1.116183 0.295716 -0.003130 0.000256 -137509.000000 0 0 1
-4.258915 -8.625501 32.545229 33.937142 1.112154 0.287395 0.002213 0.002432 -86393.800000 0 0 1
-3.311715 -7.594901 32.689089 33.722790 1.159608 0.248237 -0.005563 -0.007501 -559591.000000 0 0 1
-3.448415 -6.690601 31.406219 32.295608 1.094895 0.235229 0.001462 0.000596 1226250.000000 0 0 1
-4.576215 -5.735101 31.375109 32.221586 0.897318 0.229723 0.011247 0.002940 934777.000000 0 0 1
-5.695915 -6.340501 30.780219 31.938493 0.838900 0.270137 0.003593 0.007628 21167.200000 0 0 1
-7.023315 -5.500101 30.794749 32.060796 0.664363 0.281963 0.000769 0.006397 -104602.000000 0 0 1
-8.023815 -6.185501 30.135419 31.792854 0.656739 0.324320 -0.001349 0.011038 -1310650.000000 0 0 1
-9.066015 -5.279801 29.901859 31.688959 0.527358 0.337441 -0.004635 0.004295 -1035430.000000 0 0 1
-10.138115 -5.945701 29.087159 31.371892 0.530412 0.384002 0.008981 0.002042 -849747.000000 0 0 1
-9.777715 -6.166101 27.709709 30.024199 0.562636 0.395218 0.000986 0.003826 678994.000000 0 0 1
-10.740415 -7.024301 27.074679 29.962236 0.579187 0.442634 0.006984 -0.005991 267318.000000 0 0 1
-10.833415 -6.961701 25.518739 28.583811 0.571165 0.467342 0.006348 -0.007042 -66951.200000 0 0 1
-9.715315 -7.472101 24.817629 27.679132 0.655617 0.458723 0.002572 0.002986 9905.500000 0 0 1
-9.462515 -6.938101 23.527519 26.291075 0.632675 0.462620 0.002030 -0.004212 -442191.000000 0 0 1
-10.452415 -7.056601 22.354719 25.666751 0.593830 0.513643 0.012956 -0.009296 316457.000000 0 0 1
-11.561015 -6.157601 22.519719 26.052080 0.489400 0.526817 0.012325 -0.007168 -102330.000000 0 0 1
-12.481615 -6.216801 21.491019 25.618416 0.462108 0.575557 0.016883 -0.006566 97403.200000 0 0 1
-13.464915 -4.985901 21.494119 25.848797 0.354634 0.588935 0.008524 0.002567 684462.000000 0 0 1
-12.836115 -3.876801 20.876619 24.811866 0.293312 0.570934 0.000182 0.001766 70052.400000 0 1 0
-13.801115 -2.859801 20.751819 25.085599 0.204324 0.596618 -0.008935 0.005335 65124.700000 0 0 1
-13.326415 -1.635801 20.056319 24.135558 0.122138 0.589918 -0.010941 0.007182 -170165.000000 0 1 0
-12.450615 -0.779801 20.765519 24.224630 0.062550 0.540975 -0.008225 0.003962 -240808.000000 0 1 0
-12.795215 0.561199 20.754019 24.387739 -0.043832 0.552906 -0.001785 0.000277 -371700.000000 0 1 0
-12.400315 1.480199 19.553519 23.201270 -0.118806 0.568373 0.012823 -0.005912 242580.000000 0 1 0
-13.120315 1.264199 18.351219 22.594427 -0.096058 0.622881 0.017093 -0.000092 360961.000000 0 1 0
-14.465215 1.735199 18.285219 23.379534 -0.119386 0.672762 0.016786 -0.009281 230212.000000 0 1 0
-15.313115 0.906199 17.333119 23.146268 -0.059109 0.724469 0.028613 -0.008961 -302751.000000 0 1 0
-15.548215 -0.367801 17.914719 23.723816 0.023651 0.714934 0.006069 0.002048 -107110.000000 0 1 0
-16.557715 -1.094801 17.279619 23.957082 0.066024 0.765157 0.005012 0.012697 -213614.000000 0 1 0
-16.613015 -2.574801 17.696919 24.409073 0.153764 0.759742 0.000963 0.015612 -63839.600000 0 1 0
-17.018915 -2.824801 19.045619 25.697443 0.164481 0.736017 -0.006950 0.016559 4784.540000 0 0 1
-17.052815 -4.264801 19.188619 26.022877 0.245067 0.741620 -0.006608 0.018525 -367984.000000 0 0 1
-17.792915 -4.738301 20.414819 27.491893 0.260263 0.733888 -0.013407 0.020696 -712415.000000 0 0 1
-17.183215 -4.397801 21.627919 27.970886 0.250558 0.686878 -0.007557 0.016445 -346818.000000 0 0 1
-17.947115 -4.440801 22.814319 29.365164 0.242566 0.681041 0.001850 0.013200 -465024.000000 0 0 1
-18.252315 -5.856901 23.437819 30.278403 0.310506 0.685540 0.000916 0.012576 807164.000000 0 0 1
-17.136315 -6.536101 24.073319 30.263817 0.364386 0.651048 0.008334 -0.000647 1280650.000000 0 0 1
-16.189315 -7.075901 23.119319 29.097512 0.412051 0.652536 0.004700 -0.001362 49902.500000 0 0 1
-14.955015 -7.678201 23.800219 29.138595 0.474326 0.614965 0.014767 -0.004282 -260572.000000 0 0 1
-15.327715 -8.815001 24.548139 30.253169 0.521911 0.624212 0.013899 -0.006444 -139937.000000 0 0 1
-14.244715 -9.359701 25.239739 30.455876 0.581326 0.593959 0.034849 0.004160 -443515.000000 0 0 1
-14.571715 -10.175401 26.485619 31.896108 0.609583 0.591022 0.022084 0.001312 -132104.000000 0 0 1
-14.789315 -11.545301 26.273259 32.284702 0.662831 0.620137 0.013904 -0.004253 -103290.000000 0 0 1
-14.159815 -12.225201 27.298289 33.093089 0.712207 0.600782 0.025954 -0.003010 -468137.000000 0 0 1
-14.247915 -13.789501 27.211989 33.669657 0.769050 0.629698 0.006233 -0.005416 733983.000000 0 0 1
-15.433015 -14.368301 27.817889 34.906461 0.749686 0.648606 -0.003813 0.001498 713392.000000 0 0 1
-15.543015 -15.779901 27.703619 35.469439 0.792961 0.674441 0.002555 0.010822 49099.900000 0 0 1
-14.458015 -16.725701 28.289579 35.903810 0.857991 0.663361 0.004374 0.005334 822263.000000 0 0 1
-13.161115 -16.703701 27.668629 34.896728 0.903467 0.655289 0.012080 0.000854 946126.000000 0 0 1
-12.311815 -17.605401 28.358889 35.577487 0.960527 0.648316 0.015154 0.002885 -36708.900000 0 0 1
-11.027315 -18.047901 27.624679 34.791541 1.022326 0.653426 0.018114 0.002411 -214735.000000 0 0 1
-10.106515 -18.611501 28.553119 35.550109 1.073324 0.638183 0.017183 -0.001955 -88511.000000 0 0 1
-9.083415 -19.166101 27.758559 34.934016 1.128220 0.652448 0.009468 0.000275 -331674.000000 0 0 1
-8.007315 -19.841901 28.654469 35.761666 1.187228 0.641395 0.007513 0.002601 -99563.700000 0 0 1
-8.385515 -21.100501 29.162689 36.959579 1.192526 0.661547 -0.001038 0.003758 843966.000000 0 0 1
-7.310215 -21.596501 29.988519 37.671732 1.244411 0.650059 0.012818 -0.003281 594579.000000 0 0 1
-7.694715 -22.944001 30.689309 39.082855 1.247214 0.667717 0.006291 -0.004072 21335.500000 0 0 1
-7.751915 -24.044401 29.809979 39.075060 1.258918 0.703025 0.004035 -0.004340 42639.300000 0 0 1
-8.026115 -25.256301 30.521109 40.420754 1.263102 0.715012 -0.004922 -0.001912 -311180.000000 0 0 1
-8.338915 -26.453501 29.612169 40.573462 1.265427 0.752707 -0.014232 0.001332 -287562.000000 0 0 1
-9.429315 -26.353301 28.718769 40.102072 1.227186 0.772538 -0.005309 -0.000946 1775.720000 0 0 1
-9.540715 -27.522401 27.990719 40.397873 1.237107 0.805326 0.001302 -0.000885 -180527.000000 0 0 1
-10.883015 -27.600001 27.230299 40.270203 1.195203 0.828218 -0.001571 -0.000854 -175623.000000 0 0 1
-10.959815 -26.956301 25.970209 39.002711 1.184633 0.842155 0.013428 -0.000172 102047.000000 0 0 1
-10.974615 -25.534001 26.050119 38.092468 1.164864 0.817749 0.002883 0.007014 -419459.000000 0 0 1
-11.254415 -24.888401 24.661859 36.800838 1.146118 0.836394 0.007457 -0.008765 -476295.000000 0 0 1
-12.533415 -25.223701 24.213099 37.142910 1.109639 0.860722 0.003390 0.000804 -216368.000000 0 0 1
-12.655615 -24.798901 22.856619 36.021870 1.098919 0.883408 0.002854 0.000721 1332530.000000 0 0 1
-14.103215 -25.077201 22.239619 36.364369 1.058489 0.912744 0.003021 0.004035 1148130.000000 0 0 1
-14.297915 -26.370101 21.739219 37.046002 1.073960 0.943674 0.018272 0.006298 -323541.000000 0 0 1
-15.578815 -26.550001 21.212719 37.384241 1.040160 0.967422 0.014180 0.006996 -243604.000000 0 0 1
-15.834615 -27.929101 20.506919 38.095977 1.055027 1.002382 0.014667 0.000765 -121389.000000 0 0 1
-14.872715 -28.165001 19.531919 37.362559 1.084956 1.020703 0.013544 0.002930 -302715.000000 0 0 1
-15.014015 -29.517401 19.054719 38.207067 1.100253 1.048672 0.019405 0.005934 -125495.000000 0 0 1
-13.994615 -29.868601 17.969919 37.561957 1.132632 1.071956 0.016290 -0.000309 -224744.000000 0 0 1
-14.184915 -29.207101 16.757119 36.538577 1.118681 1.094361 0.024682 -0.005556 498094.000000 0 0 1
-13.078515 -29.432701 15.848819 35.895912 1.152648 1.113503 0.029857 -0.003891 583747.000000 0 0 1
-13.304515 -29.065901 14.394119 35.057487 1.141528 1.147700 0.003820 -0.000864 -141974.000000 0 0 1
-13.297215 -27.659101 14.152419 33.795455 1.122664 1.138709 0.003910 0.005093 -29617.200000 0 0 1
-13.874615 -27.270401 12.902019 33.206051 1.100150 1.171745 -0.003238 0.008465 370755.000000 0 0 1
-12.988915 -27.512001 11.623819 32.568931 1.129702 1.205850 -0.010609 0.018394 525825.000000 0 0 1
-13.553515 -26.940201 10.430019 31.910147 1.104675 1.237822 -0.022944 0.015246 -418768.000000 0 0 1
-12.592815 -26.880701 9.422819 31.143870 1.132689 1.263421 -0.011318 0.012345 -380197.000000 0 0 1
-12.988615 -26.111601 8.181119 30.289446 1.109209 1.297301 -0.011254 0.003885 -236299.000000 0 0 1
-13.887415 -26.868201 7.394919 31.135918 1.093743 1.331000 -0.012983 0.008778 -182585.000000 0 0 1
-14.235115 -26.136501 6.243419 30.409464 1.072074 1.364014 -0.007306 0.009255 -233072.000000 0 0 1
-15.052015 -26.918401 5.221619 31.279846 1.060939 1.403079 -0.009522 0.010233 -288919.000000 0 0 1
-14.329315 -27.869901 4.498019 31.659009 1.095893 1.428237 -0.008051 0.009105 -541357.000000 0 0 1
-15.004215 -28.254001 3.338919 32.164630 1.082620 1.466802 0.000028 0.013373 -376107.000000 0 0 1
-14.469415 -29.526601 2.693619 32.991510 1.115143 1.489060 0.002140 0.011962 22806.300000 0 0 1
-13.137415 -29.401401 2.218719 32.279355 1.150582 1.502007 -0.015087 0.018703 -29007.900000 0 0 1
-12.806915 -30.497901 1.400719 33.107417 1.173230 1.528475 -0.017945 0.021654 350023.000000 0 0 1
-11.526215 -30.225701 0.559019 32.353657 1.206480 1.553517 -0.024809 0.022077 133192.000000 0 0 1
-11.709815 -29.396701 -0.580981 31.648434 1.191724 1.589155 -0.023089 0.030600 -98004.000000 0 0 1
-11.670715 -28.008401 -0.297681 30.344105 1.175989 1.580607 -0.016252 0.021315 -362708.000000 0 0 1
-11.521115 -27.134201 -1.579781 29.521122 1.169267 1.624335 -0.001475 0.023354 646636.000000 0 0 1
-10.220315 -27.381601 -2.131681 29.304453 1.213557 1.643603 -0.011516 0.021445 323693.000000 0 0 1
-10.068415 -26.611901 -3.330481 28.647135 1.209098 1.687319 0.009806 0.012636 366141.000000 0 0 1
-8.616815 -26.765101 -3.835881 28.378409 1.259333 1.706380 -0.001941 0.010195 354448.000000 0 0 1
-8.114315 -25.841601 -4.797481 27.507204 1.266544 1.746101 0.007750 0.004910 -758299.000000 0 0 1
-6.772515 -26.129501 -5.051881 27.461597 1.317187 1.755812 0.005793 0.008408 -199618.000000 0 0 1
-6.036015 -25.089701 -5.890281 26.469265 1.334705 1.795208 -0.004958 0.008357 -428205.000000 0 0 1
-6.373315 -25.262601 -7.254081 27.045145 1.323670 1.842342 0.004883 0.010807 -29905.700000 0 0 1
-5.817315 -24.226901 -8.080581 26.193123 1.335140 1.884412 -0.022641 0.020684 -303476.000000 0 0 1
-6.102515 -24.188201 -9.550981 26.712001 1.323661 1.936444 -0.000115 0.009516 -390110.000000 0 0 1
-5.431015 -25.177501 -10.262081 27.725670 1.358343 1.949944 -0.016281 0.012905 -416066.000000 0 0 1
-5.650615 -25.198901 -11.706181 28.353990 1.350205 1.996386 -0.020985 0.017175 208753.000000 0 0 1
-7.009615 -25.824701 -12.147981 29.387469 1.305752 1.996951 -0.012011 0.007013 298467.000000 0 0 1
-7.171015 -25.818801 -13.568581 30.035651 1.299881 2.039521 -0.003555 0.003462 -109998.000000 0 0 1
-8.139615 -26.704401 -14.078181 31.266172 1.274938 2.037863 0.012748 -0.003905 -1050940.000000 0 0 1
-8.424715 -26.811701 -15.566781 32.127368 1.266347 2.076626 0.011676 -0.005443 678369.000000 0 0 1
-7.437415 -27.596401 -16.272881 32.888952 1.307544 2.088381 -0.004573 -0.001169 42631.000000 0 0 1
-6.130215 -27.129301 -16.238481 32.206626 1.348566 2.099248 -0.005550 0.004020 -1254650.000000 0 0 1
-5.168415 -28.045901 -17.037681 33.219989 1.388557 2.109326 -0.016717 0.001026 -264871.000000 0 0 1
-5.394415 -27.966501 -18.447581 33.934321 1.380248 2.145548 0.003856 0.005497 -72311.300000 0 0 1
-4.330815 -28.470501 -19.217381 34.621281 1.419838 2.159249 0.003985 -0.001229 -691460.000000 0 0 1
-24.082715 14.728095 -6.084723 28.877635 -0.548878 1.783095 -0.024661 -0.000082 34750.200000 0 0 1
-24.504415 13.548395 -5.397723 28.515974 -0.505064 1.761233 -0.041440 0.002366 566115.000000 0 0 1
-23.383515 12.690295 -5.171723 27.103120 -0.497223 1.762790 -0.017431 0.000009 -260945.000000 0 0 1
-23.671015 11.256395 -4.664423 26.622927 -0.443885 1.746909 -0.010873 -0.009524 -142249.000000 0 0 1
-24.217515 10.307195 -5.595023 26.907817 -0.402386 1.780258 0.002938 -0.014448 215313.000000 0 0 1
-25.566545 10.509395 -5.945623 28.274477 -0.390005 1.782660 -0.017037 -0.015475 -459497.000000 0 0 1
-25.947725 9.818495 -7.288123 28.684561 -0.361744 1.827691 0.002858 -0.011354 -347888.000000 0 0 1
-25.300955 10.418095 -8.382023 28.617012 -0.390609 1.868058 0.015346 -0.009631 -133901.000000 0 0 1
-25.711535 9.903895 -9.640423 29.190888 -0.367677 1.907370 0.028554 -0.007426 -407380.000000 0 0 1
-26.174155 10.973395 -10.729623 30.341830 -0.396986 1.932240 0.001091 -0.007763 -22526.300000 0 0 1
-25.231075 11.960195 -11.138523 30.061938 -0.442654 1.950364 0.014870 -0.007272 360151.000000 0 0 1
-25.627935 12.437995 -12.405823 31.070874 -0.451843 1.981522 0.002992 -0.007865 -244724.000000 0 0 1
-24.646115 13.456695 -12.974423 30.932981 -0.499764 2.003621 0.010456 -0.000685 -264428.000000 0 0 1
-24.627115 14.627195 -12.239123 31.148769 -0.535957 1.974606 0.014410 0.001111 -9931.080000 0 0 1
-23.879915 15.611395 -12.879723 31.302608 -0.579004 1.994850 0.010526 0.003912 -176262.000000 0 0 1
-23.955915 16.975195 -12.057423 31.739952 -0.616475 1.960465 0.015584 0.004183 64515.200000 0 0 1
-23.063715 17.052595 -10.953123 30.703369 -0.636662 1.935572 0.012925 0.009210 102479.000000 0 0 1
-22.916515 18.333095 -10.479423 31.162275 -0.674738 1.913766 -0.003721 0.014797 -13338.100000 0 0 1
-21.784815 18.556295 -9.422323 30.127968 -0.705538 1.888876 -0.014454 0.015264 -377006.000000 0 0 1
-21.995915 18.258995 -8.070123 29.704176 -0.692832 1.845938 -0.012385 0.005025 153662.000000 0 0 1
-23.000815 19.034695 -7.424023 30.764805 -0.691325 1.814517 -0.029307 -0.000503 -149833.000000 0 0 1
-23.367415 18.435695 -6.028523 30.368636 -0.667966 1.770635 -0.042221 0.000097 -234510.000000 0 0 1
-22.377815 18.475195 -5.033523 29.452263 -0.690159 1.742544 -0.020719 -0.010984 -298450.000000 0 0 1
-22.916315 18.150695 -3.816923 29.481760 -0.669870 1.700628 -0.046334 -0.011071 -189513.000000 0 0 1
-21.809715 17.919195 -2.779223 28.363450 -0.687783 1.668940 -0.027924 -0.021329 -416622.000000 0 0 1
-21.230515 19.081095 -2.247423 28.633440 -0.732128 1.649367 -0.007217 -0.028319 246111.000000 0 0 1
-20.431815 18.739395 -1.122123 27.746769 -0.742219 1.611249 0.040037 -0.037300 83395.300000 0 0 1
-19.471915 19.814095 -0.509123 27.785123 -0.794108 1.589121 0.047041 -0.035094 330983.000000 0 0 1
-20.179115 20.712995 0.349477 28.919665 -0.798453 1.558712 0.028661 -0.031331 224663.000000 0 0 1
-19.405315 21.867295 0.545877 29.241116 -0.844979 1.552127 0.039416 -0.028127 -32897.200000 0 0 1
-20.033215 22.903495 1.525377 30.466811 -0.852148 1.520709 0.018750 -0.015666 -22824.000000 0 0 1
-20.048715 22.279195 2.791377 30.101583 -0.838045 1.477931 0.022974 -0.014452 192012.000000 0 0 1
-21.143215 22.626895 3.624477 31.179300 -0.819282 1.454287 -0.000428 -0.016591 6719.430000 0 0 1
-20.969815 22.160395 5.087377 30.930530 -0.812995 1.405568 0.004853 -0.009517 14786.300000 0 0 1
-20.176115 23.191095 5.690677 31.261579 -0.854809 1.387741 0.005129 -0.009822 299995.000000 0 0 1
-19.444415 22.709095 6.824677 30.665363 -0.862691 1.346364 0.001661 0.002762 39857.900000 0 0 1
-20.179215 22.466995 8.218777 31.297203 -0.838992 1.305076 -0.009025 0.001083 -871843.000000 0 0 1
-21.102015 21.450795 7.967577 31.127383 -0.793594 1.311949 -0.009489 0.003205 118026.000000 0 0 1
-21.757315 20.832595 9.080677 31.461667 -0.763689 1.278004 -0.000138 0.003871 101457.000000 0 0 1
-22.288915 21.635995 10.266677 32.715695 -0.770535 1.251588 -0.003863 0.002353 -734878.000000 0 0 1
-23.484215 22.373795 10.059877 33.960215 -0.761189 1.270058 0.003775 -0.001673 648419.000000 0 0 1
-23.841015 23.093095 11.222077 35.037410 -0.769464 1.244762 0.001916 0.001979 -28598.400000 0 0 1
-24.968115 24.113495 10.981977 36.407022 -0.767988 1.264379 0.005371 -0.007006 -95059.600000 0 0 1
-25.718085 24.417795 12.140877 37.483990 -0.759469 1.240953 0.008807 -0.001334 -55223.100000 0 0 1
-26.344235 25.662395 11.988677 38.682110 -0.772288 1.255679 0.005546 0.000142 210928.000000 0 0 1
-27.130225 26.016095 13.309477 39.875162 -0.764438 1.230487 0.005743 0.008381 6374.970000 0 0 1
-26.191455 26.042095 14.338077 39.620241 -0.782539 1.200504 0.005076 0.001257 243845.000000 0 0 1
-26.711065 26.611795 15.522677 40.775264 -0.783536 1.180256 -0.008611 0.009275 -14266.400000 0 0 1
-25.585775 26.774595 16.553577 40.565155 -0.808099 1.150453 0.006926 0.002776 131795.000000 0 0 1
-25.126475 25.553695 17.140177 39.725518 -0.793828 1.124680 0.025007 -0.005367 -79162.800000 0 0 1
-23.934315 25.776695 17.835477 39.438480 -0.822443 1.101526 0.033818 -0.001404 -382601.000000 0 0 1
-23.444215 24.530095 18.633377 38.711233 -0.808029 1.068610 0.042867 0.006874 -17240.300000 0 0 1
-22.128415 24.629695 19.153777 38.251220 -0.838841 1.046347 0.053739 0.002217 492249.000000 0 0 1
-21.821215 23.489495 19.975477 37.774879 -0.822200 1.013606 0.056199 0.001159 -820206.000000 0 0 1
-20.315115 23.388395 20.105677 36.931818 -0.855604 0.995123 0.039140 0.002032 -1301940.000000 0 0 1
-19.604315 23.012195 18.973877 35.691712 -0.865195 1.010302 0.032295 0.002008 497999.000000 0 0 1
-18.255715 22.623795 19.268377 34.876605 -0.891847 0.985468 0.029271 0.003790 595739.000000 0 0 1
-18.054315 21.111995 19.521377 33.952302 -0.863309 0.958235 0.026649 0.011442 -199278.000000 0 0 1
-18.784315 20.688795 20.690977 34.770581 -0.833608 0.933442 0.039690 0.012363 426472.000000 0 0 1
-18.017615 20.715295 21.910577 35.125935 -0.854934 0.897237 0.030735 0.017274 -2569.880000 0 0 1
-18.846515 20.457295 23.170777 36.201892 -0.826358 0.876242 0.022765 0.018052 -18211.500000 0 0 1
-19.822915 21.450795 23.448377 37.455453 -0.824819 0.894340 0.026628 0.017617 -89326.500000 0 0 1
-20.189015 21.413095 24.804177 38.488494 -0.814813 0.870483 0.020362 0.011073 -83581.800000 0 0 1
-21.275715 22.464095 25.068477 39.821102 -0.812561 0.889851 0.021017 0.011647 -664877.000000 0 0 1
-20.815115 23.793995 24.964177 40.281924 -0.852077 0.902389 0.018519 0.016214 -32092.100000 0 0 1
-21.749915 24.856895 25.011277 41.430521 -0.851963 0.922672 0.009759 0.017017 431508.000000 0 0 1
-22.677915 25.243395 23.776177 41.434568 -0.838882 0.959628 0.011623 0.010989 294199.000000 0 0 1
-23.632215 24.283695 23.471177 41.219845 -0.798994 0.965003 0.015865 0.001924 -324219.000000 0 0 1
-24.440315 24.765695 22.409477 41.386632 -0.792011 0.998616 0.019773 0.002473 -227439.000000 0 0 1
-25.537985 23.789895 21.992077 41.252870 -0.749975 1.008531 0.022382 0.000076 89352.300000 0 0 1
-26.688365 23.775395 22.845877 42.420188 -0.727738 1.002067 0.006160 -0.000189 583193.000000 0 0 1
-27.619975 22.838195 22.323077 42.222813 -0.690913 1.013732 0.013118 -0.003827 77138.500000 0 0 1
-29.075605 22.930395 22.799977 43.486007 -0.667780 1.018896 0.027784 -0.001795 -855691.000000 0 0 1
-29.749575 24.108995 22.491377 44.408816 -0.681049 1.039720 0.011875 0.003270 1276250.000000 0 0 1
-31.197685 24.053995 22.515077 45.374210 -0.656818 1.051570 -0.001394 0.001580 1644020.000000 0 0 1
-31.969955 23.178395 21.487877 44.956033 -0.627312 1.072448 -0.000270 -0.005953 -957930.000000 0 0 1
-31.766955 21.815195 21.718177 44.234844 -0.601762 1.057588 0.003268 0.000116 126520.000000 0 0 1
-32.269655 21.011595 20.674377 43.706380 -0.577166 1.078071 -0.016570 0.005064 -377133.000000 0 0 1
-33.778865 20.757495 20.612377 44.685069 -0.551021 1.091358 -0.034829 0.017217 -543243.000000 0 0 1
-34.078929 19.976295 19.498377 44.052384 -0.530194 1.112280 -0.019261 0.009942 -390921.000000 0 0 1
34.286221 19.956395 19.219677 44.081727 0.527119 1.119646 -0.015560 0.004083 -574399.000000 0 0 1
33.847362 18.940195 18.171677 42.832053 0.510166 1.132658 0.003393 -0.005784 -327612.000000 0 0 1
34.031791 17.635095 18.519077 42.568951 0.478097 1.120717 0.009066 -0.008993 190850.000000 0 0 1
33.545228 16.821295 17.507677 41.409625 0.464808 1.134272 0.007818 -0.016096 9552.150000 0 0 1
33.808218 15.276195 17.709577 41.109450 0.424390 1.125427 0.011422 -0.016558 -717623.000000 0 0 1
32.860518 14.567895 17.019477 39.770590 0.417289 1.128583 0.005453 -0.027140 -487883.000000 0 0 1
33.227648 13.222395 16.722877 39.478639 0.378724 1.133388 -0.001912 -0.032025 93659.800000 0 0 1
32.186318 12.601095 15.734977 37.978102 0.373161 1.143604 -0.011538 -0.032991 285485.000000 0 0 1
32.312188 13.286895 14.504177 37.828432 0.390127 1.177300 -0.003197 -0.033686 526733.000000 0 0 1
31.514728 12.794595 13.395677 36.555765 0.385658 1.195611 -0.002315 -0.032961 -80351.500000 0 0 1
31.848598 13.492395 12.010477 36.614608 0.400720 1.236585 0.007397 -0.031449 1441.750000 0 0 1
33.087838 13.044995 11.471477 37.370734 0.375543 1.258795 0.011730 -0.028410 456842.000000 0 0 1
33.145268 13.280195 10.116477 37.112202 0.381081 1.294711 0.011916 -0.018545 -222101.000000 0 0 1
34.539090 13.012295 9.489977 38.109425 0.360296 1.319129 0.019505 -0.017369 -38574.200000 0 0 1
-34.853204 11.622695 9.474577 37.942068 -0.321879 1.318414 0.011165 -0.009480 12369.500000 0 0 1
-33.535695 11.317395 9.098577 36.544636 -0.325472 1.319178 0.005779 -0.003121 -85587.500000 0 0 1
-33.206365 11.323495 7.551877 35.887534 -0.328638 1.358780 0.018462 -0.010375 -234943.000000 0 0 1
-33.369595 12.576895 6.941777 36.330379 -0.360433 1.378541 0.025924 -0.018024 326196.000000 0 0 1
-32.866345 12.477795 5.595577 35.597788 -0.362843 1.412953 0.025828 -0.015304 -23077.000000 0 0 1
-33.788345 13.319295 4.701377 36.621836 -0.375495 1.442065 0.029843 -0.019486 958363.000000 0 0 1
34.582286 12.825995 4.625177 37.173013 0.355157 1.446050 0.021648 -0.024752 1171150.000000 0 0 1
33.659688 13.915495 4.585277 36.710222 0.392019 1.445565 0.012548 -0.021379 238325.000000 0 0 1
33.199708 14.563995 5.930777 36.735606 0.413399 1.408642 0.013337 -0.015410 -1152960.000000 0 0 1
32.609068 15.826795 5.724777 36.696210 0.451859 1.414152 0.005701 -0.013475 101942.000000 0 0 1
32.118248 16.370695 6.962377 36.715885 0.471378 1.380013 0.000149 -0.012266 -386616.000000 0 0 1
30.871628 15.816995 7.620877 35.514962 0.473477 1.354532 -0.002277 -0.011314 -888741.000000 0 0 1
31.145688 14.555095 8.199277 35.343074 0.437166 1.336672 0.004824 -0.009830 791017.000000 0 0 1
29.926788 13.791895 8.362577 33.996496 0.431844 1.322262 0.005973 -0.013868 446822.000000 0 0 1
29.931208 12.505795 7.463077 33.286178 0.395772 1.344665 0.019326 -0.013479 -111309.000000 0 0 1
29.886248 12.745995 6.090877 33.056724 0.403127 1.385482 0.019441 -0.015088 204819.000000 0 0 1
30.172938 11.591395 5.336377 32.760396 0.366782 1.407176 0.032514 -0.021836 -168536.000000 0 0 1
29.863108 11.684395 3.814777 32.293697 0.372954 1.452392 0.020696 -0.027466 197084.000000 0 0 1
28.467748 11.730195 3.552677 30.994059 0.390853 1.455919 0.021930 -0.021289 296677.000000 0 0 1
28.127688 11.764095 2.190077 30.567257 0.396130 1.499087 0.023263 -0.015354 422920.000000 0 0 1
26.618258 11.674295 1.787077 29.120688 0.413318 1.509390 0.042026 -0.006719 556515.000000 0 0 1
26.214588 10.333095 1.794277 28.234676 0.375473 1.507205 0.016535 -0.001986 306274.000000 0 0 1
24.810848 10.098595 1.842177 26.850576 0.386546 1.502134 0.014746 0.002442 208477.000000 0 0 1
24.533788 8.530095 1.902677 26.043991 0.334613 1.497675 0.006008 0.004228 103702.000000 0 0 1
24.969578 7.839295 3.105977 26.354914 0.304209 1.452670 0.020392 0.002431 1415370.000000 0 0 1
26.343458 7.386495 3.068077 27.530914 0.273372 1.459123 0.037662 -0.002047 822085.000000 0 0 1
26.779428 6.603695 4.331777 27.919722 0.241772 1.415016 0.041584 -0.001421 137272.000000 0 0 1
28.181698 6.349795 4.342277 29.212727 0.221615 1.421600 0.050568 -0.013614 653661.000000 0 0 1
28.598298 5.842795 5.590577 29.719614 0.201532 1.381558 0.036493 -0.001677 -410721.000000 0 0 1
30.103878 5.979395 5.818777 31.238675 0.196073 1.383434 0.027715 -0.005964 -398875.000000 0 0 1
30.369398 7.320195 6.190677 31.846665 0.236527 1.375161 0.031001 -0.015900 634778.000000 0 0 1
31.767868 7.460395 6.485377 33.270333 0.230661 1.374611 -0.005008 -0.006606 815166.000000 0 0 1
32.054608 8.813795 7.273577 34.030660 0.268331 1.355399 0.001934 -0.010607 41945.200000 0 0 1
31.420458 8.732695 8.532277 33.709122 0.271088 1.314898 0.005682 -0.014050 165601.000000 0 0 1
31.742398 9.844695 9.286977 34.507185 0.300736 1.298305 0.012517 -0.009961 -144526.000000 0 0 1
31.400898 9.664695 10.772877 34.575680 0.298583 1.253947 -0.002976 -0.010169 -487322.000000 0 0 1
30.044018 9.929595 11.030077 33.509737 0.319200 1.235382 -0.007499 -0.010498 -268063.000000 0 0 1
29.730368 9.603095 12.367977 33.601802 0.312428 1.193859 -0.012445 -0.009065 -765173.000000 0 0 1
28.285728 10.022395 12.621277 32.554991 0.340524 1.172671 -0.016433 -0.017638 -754708.000000 0 0 1
28.057458 11.407995 12.649477 32.823354 0.386178 1.175176 -0.020355 -0.025975 92072.000000 0 0 1
28.123808 12.224895 11.462977 32.738303 0.410042 1.213076 -0.011234 -0.028038 -846540.000000 0 0 1
26.980318 12.107495 10.446077 31.363188 0.421816 1.231241 -0.012020 -0.015379 -475979.000000 0 0 1
26.988538 13.152795 9.506177 31.491977 0.453474 1.264153 -0.015609 -0.001037 125374.000000 0 0 1
25.834528 13.295095 8.697977 30.328818 0.475279 1.279923 -0.013321 0.003378 -26597.200000 0 0 1
26.047358 14.410995 7.629177 30.730213 0.505344 1.319910 -0.012437 0.007821 -68200.300000 0 0 1
25.753798 15.698895 8.154677 31.244395 0.547431 1.306742 -0.018211 0.011816 280631.000000 0 0 1
26.177378 16.714595 7.332677 31.912396 0.568258 1.338950 -0.006061 0.010787 -597560.000000 0 0 1
25.690818 18.154095 7.860477 32.424935 0.615167 1.325936 -0.017094 0.007417 764900.000000 0 0 1
24.340888 18.621595 7.832277 31.632060 0.653053 1.320588 -0.008109 0.014225 566324.000000 0 0 1
23.394588 17.827495 8.510677 30.619569 0.651159 1.289138 -0.004202 0.018564 -161133.000000 0 0 1
22.042588 18.550695 8.744977 30.107783 0.699588 1.276093 0.009632 0.015822 48985.700000 0 0 1
21.411988 18.993895 7.587977 29.611125 0.725624 1.311651 0.016867 0.013577 270754.000000 0 0 1
20.284888 19.846295 7.773377 29.424098 0.774470 1.303439 0.045886 0.006666 423114.000000 0 0 1
19.537888 20.101195 6.441177 28.762404 0.799608 1.344937 0.036195 0.005143 308332.000000 0 0 1
20.253288 20.953195 5.585177 29.671978 0.802382 1.381436 0.029460 0.009586 177262.000000 0 0 1
19.334988 21.186795 4.565377 29.044186 0.831065 1.412954 0.032365 -0.005733 163993.000000 0 0 1
17.080485 17.128195 33.311680 41.167780 0.786793 0.628060 -0.003463 0.005651 142751.000000 0 0 1
16.478885 17.918395 32.266329 40.419532 0.827223 0.646353 -0.006789 0.000559 247860.000000 0 0 1
15.960085 17.103995 31.240379 39.028608 0.819981 0.642754 0.002010 0.002765 -576146.000000 0 0 1
15.472385 17.785495 29.947169 38.112353 0.854837 0.666872 0.002881 0.004065 228431.000000 0 0 1
16.515185 18.249295 29.087879 38.103712 0.835239 0.702256 -0.005182 0.007666 -175862.000000 0 0 1
16.008385 18.652695 27.848759 37.144917 0.861541 0.723138 0.006077 0.002718 -537414.000000 0 0 1
17.108785 18.865295 26.818249 36.984164 0.834187 0.759576 0.003416 0.005892 -893545.000000 0 0 1
17.847185 20.003095 27.071109 38.098436 0.842296 0.780507 -0.000393 0.003209 -716679.000000 0 0 1
18.578685 20.209495 25.913499 37.750506 0.827417 0.814213 0.002633 0.002840 -605577.000000 0 0 1
19.524485 21.432695 26.122729 39.025158 0.831955 0.837420 0.001922 -0.002163 147573.000000 0 0 1
18.799485 22.659195 26.149849 39.378603 0.878228 0.844557 -0.012129 0.001401 54576.300000 0 0 1
19.633385 23.705295 26.472069 40.597799 0.879079 0.860502 -0.011833 0.001417 -435313.000000 0 0 1
18.854285 25.015495 26.584829 41.085426 0.924929 0.867071 -0.004166 -0.002730 -6268.050000 0 0 1
18.879585 25.585095 25.271949 40.616588 0.935076 0.899237 -0.001113 0.001080 1001290.000000 0 0 1
17.760685 26.488995 25.166809 40.626064 0.980149 0.902723 0.003074 -0.002667 545463.000000 0 0 1
17.706785 27.314795 23.871219 40.366612 0.995653 0.938051 0.001442 -0.007191 625753.000000 0 0 1
18.745985 28.330695 23.854319 41.509864 0.986251 0.958600 0.006638 -0.008833 958409.000000 0 0 1
18.454085 29.049695 22.678619 41.215990 1.004854 0.988147 0.011054 -0.005164 475162.000000 0 0 1
19.591485 30.059795 22.333519 42.263503 0.993192 1.014040 0.011922 -0.006529 1126990.000000 0 0 1
20.808685 29.497995 21.800819 42.171185 0.956437 1.027500 0.005886 -0.004530 933652.000000 0 0 1
21.851285 30.454095 21.598919 43.260188 0.948411 1.048029 0.005181 -0.009798 444539.000000 0 0 1
22.252085 30.631395 20.099219 42.865094 0.942540 1.082757 0.010784 -0.012953 304417.000000 0 0 1
21.455985 31.538695 19.328419 42.762558 0.973410 1.101797 0.002886 -0.007526 515686.000000 0 0 1
22.185485 31.809095 18.163319 42.824297 0.961779 1.132789 0.011385 0.001242 -115014.000000 0 0 1
21.425485 32.714095 17.231119 42.733768 0.990962 1.155763 0.012069 -0.004302 -526638.000000 0 0 1
21.524585 34.076595 17.486819 43.935304 1.007427 1.161447 0.027928 -0.006223 61538.100000 0 0 1
21.514285 -34.655201 16.289119 43.922464 -1.015216 1.190861 0.020745 -0.003127 102084.000000 0 0 1
22.719685 34.753095 15.292419 44.247258 0.991792 1.217905 0.001913 -0.000396 166209.000000 0 0 1
22.804185 33.563395 14.523119 43.098183 0.974005 1.227092 0.016933 -0.000607 310461.000000 0 0 1
21.802885 33.543295 13.491419 42.220100 0.994426 1.245542 0.016358 -0.000185 346526.000000 0 0 1
21.656785 32.243995 12.592319 40.832072 0.979349 1.257293 0.024865 -0.009128 -230437.000000 0 0 1
22.737485 31.999395 11.728819 40.969741 0.953018 1.280454 0.016737 -0.020296 -95329.900000 0 0 1
22.443285 30.872895 10.968219 39.713203 0.942206 1.290973 0.014194 -0.020840 -207369.000000 0 0 1
23.707685 30.205995 10.355719 39.770559 0.905351 1.307374 0.012254 -0.017178 115136.000000 0 0 1
24.487085 29.504095 11.260419 39.961306 0.878055 1.285144 0.008396 -0.013815 104910.000000 0 0 1
25.409085 30.262095 12.060219 41.314221 0.872351 1.274568 0.007832 -0.008315 -719776.000000 0 0 1
26.694985 29.524695 12.400419 41.690529 0.835689 1.268786 0.008698 -0.000923 -473618.000000 0 0 1
26.491785 28.331995 13.187519 40.968613 0.818951 1.243068 0.012680 -0.005112 314420.000000 0 0 1
27.725385 27.617195 13.261719 41.319241 0.783443 1.244056 0.007919 0.008945 463027.000000 0 0 1
27.863585 26.640695 14.418919 41.158368 0.762965 1.212875 -0.008461 -0.004806 -235220.000000 0 0 1
28.616085 27.226795 15.446719 42.412025 0.760525 1.198016 -0.026936 0.001115 -109539.000000 0 0 1
28.939385 26.316795 16.457519 42.437149 0.737971 1.172543 -0.015777 -0.005579 940494.000000 0 0 1
30.306285 26.634695 17.166319 43.847011 0.721007 1.168530 -0.017542 -0.004360 356090.000000 0 0 1
31.516885 26.661995 16.494819 44.455091 0.702143 1.190663 -0.003173 0.002002 -277971.000000 0 0 1
32.593285 26.865595 17.402119 45.682778 0.689364 1.179990 -0.001089 0.002465 262153.000000 0 0 1
33.911685 27.297595 16.748719 46.644192 0.677759 1.203521 0.008231 -0.004967 -174454.000000 0 0 1
33.823985 28.578095 16.213019 47.155397 0.701529 1.219813 0.014456 -0.004044 88557.100000 0 0 1
-34.759319 28.923195 15.451819 47.786193 -0.694009 1.241525 0.033162 -0.000751 245460.000000 0 0 1
34.671585 30.107795 14.462219 48.143057 0.715063 1.265683 0.031537 -0.001937 161715.000000 0 0 1
34.539885 31.323195 15.152719 49.028064 0.736598 1.256590 0.032664 -0.005757 -40356.200000 0 0 1
34.300685 32.374095 14.287519 49.282372 0.756511 1.276662 0.030865 0.002794 214175.000000 0 0 1
33.457985 33.544695 14.910919 49.669093 0.786692 1.265889 0.010597 0.008179 -471642.000000 0 0 1
33.055185 34.531095 14.003319 49.810990 0.807232 1.285826 -0.002999 -0.004370 768082.000000 0 0 1
31.652185 -34.723801 13.891719 48.995745 -0.831641 1.283324 -0.008447 0.007077 933675.000000 0 0 1
30.684785 33.697895 13.395019 47.502955 0.832164 1.284936 -0.022763 0.018564 -544074.000000 0 0 1
30.349585 32.788395 14.436919 46.953177 0.824006 1.258258 -0.018506 0.006148 241926.000000 0 0 1
29.612385 31.661595 13.921919 45.532074 0.818829 1.260059 -0.022005 0.014162 -57541.200000 0 0 1
29.264985 30.736995 15.083419 45.041223 0.809926 1.229318 -0.019691 0.010432 63082.400000 0 0 1
28.320385 31.438195 15.895019 45.200177 0.837524 1.211454 -0.017646 -0.000523 163224.000000 0 0 1
27.930985 30.580195 16.917419 44.737985 0.830644 1.183005 -0.016591 -0.002354 101008.000000 0 0 1
26.851485 31.164095 17.877819 44.853311 0.859597 1.160824 -0.008546 -0.006111 92989.800000 0 0 1
26.580185 30.270995 18.918119 44.505445 0.850228 1.131752 -0.014026 -0.002910 41118.900000 0 0 1
27.410985 30.516795 20.038619 45.652855 0.838962 1.116384 -0.005838 -0.010565 39323.800000 0 0 1
27.323385 29.333595 21.046719 45.276833 0.820864 1.087337 0.001576 -0.013279 -297473.000000 0 0 1
26.066385 29.289295 21.652619 44.790123 0.843554 1.066234 0.000180 -0.013258 -309933.000000 0 0 1
26.047085 28.227595 22.620319 44.574955 0.825552 1.038554 -0.007944 -0.012279 591528.000000 0 0 1
24.783585 28.286895 23.548319 44.372265 0.851315 1.011371 -0.005472 -0.011355 927595.000000 0 0 1
23.616085 27.635595 23.037919 43.037092 0.863665 1.005929 -0.001984 -0.002525 730060.000000 0 0 1
22.515185 27.567595 23.950119 42.901213 0.885939 0.978507 0.002924 -0.003086 528573.000000 0 0 1
22.455485 26.396495 24.894909 42.670602 0.865896 0.947862 0.001632 -0.003547 -867665.000000 0 0 1
23.534085 26.390395 25.755929 43.745560 0.842548 0.941264 -0.002798 -0.007055 -636921.000000 0 0 1
23.362785 25.361095 26.798719 43.671229 0.826388 0.910125 0.000682 -0.007371 -603629.000000 0 0 1
24.614385 25.187195 27.683829 44.795727 0.796900 0.904598 0.017579 -0.013323 -112572.000000 0 0 1
24.920285 26.330995 28.526369 46.131287 0.812917 0.904125 0.006303 -0.006424 91647.300000 0 0 1
25.465985 27.381195 27.797709 46.593550 0.821623 0.931539 -0.001199 -0.005348 -1052360.000000 0 0 1
25.838685 28.608795 28.682929 48.050091 0.836231 0.931117 0.000706 -0.001198 429966.000000 0 0 1
26.978085 28.351095 29.536079 49.030416 0.810208 0.924288 0.004584 0.003451 575191.000000 0 0 1
27.209985 29.492695 30.295619 50.279488 0.825634 0.924111 0.000977 0.005610 -129383.000000 0 0 1
28.696285 29.877995 30.339979 51.348668 0.805570 0.938669 -0.011834 0.006614 -194470.000000 0 0 1
29.193885 30.172795 29.087429 51.076012 0.801886 0.964907 -0.019399 -0.000150 -886610.000000 0 0 1
30.573085 30.355695 29.086689 51.982855 0.781830 0.976961 -0.008428 -0.003957 -618610.000000 0 0 1
31.164085 30.965795 27.817719 51.999098 0.782207 1.006330 -0.009302 -0.008464 -453630.000000 0 0 1
30.846885 32.362995 27.589509 52.536414 0.809379 1.017905 -0.015533 -0.009317 183187.000000 0 0 1
31.427985 32.766395 26.384149 52.511696 0.806244 1.044374 -0.001924 -0.016910 -185884.000000 0 0 1
31.167885 34.273195 26.101029 53.172857 0.832815 1.057707 -0.007171 -0.013453 37281.400000 0 0 1
31.977685 -34.410701 26.924899 54.144426 -0.822030 1.050336 -0.006554 -0.006337 243631.000000 0 0 1
31.613785 -33.117801 26.653439 52.977599 -0.808629 1.043605 -0.011018 0.000601 -50108.600000 0 0 1
32.514885 -32.041301 27.337849 53.209216 -0.778062 1.031211 -0.014547 0.010497 -74926.800000 0 0 1
32.296285 -31.963601 28.741159 53.765938 -0.780221 1.006808 -0.018557 0.009236 651802.000000 0 0 1
33.188385 -31.048201 29.424849 54.141310 -0.752093 0.996216 -0.011454 0.005527 166946.000000 0 0 1
32.796185 -30.671901 30.872139 54.492607 -0.751941 0.968498 -0.012368 -0.003888 -369632.000000 0 0 1
32.955085 -31.717001 31.871059 55.747378 -0.766256 0.962214 -0.004414 -0.001358 793528.000000 0 0 1
31.911085 -32.717801 31.904749 55.737643 -0.797880 0.961355 -0.010866 -0.003552 297066.000000 0 0 1
32.046385 -33.648601 33.086759 57.043254 -0.809782 0.952032 0.004612 -0.004150 -499089.000000 0 0 1
31.609485 -33.029101 34.282383 57.143354 -0.807357 0.927375 0.007672 -0.010467 209313.000000 0 0 1
31.881085 -33.734401 -33.767533 57.399126 -0.813636 2.199743 0.011379 -0.011869 -90822.500000 0 0 1
31.127985 34.454495 -33.576523 57.301366 0.836077 2.196865 0.002027 -0.009179 -268360.000000 0 0 1
31.621985 33.487795 -34.515971 57.556360 0.814047 2.213910 0.004795 -0.006291 120212.000000 0 0 1
30.782185 32.377495 34.622683 56.520574 0.810651 0.911491 0.003948 0.002616 -746620.000000 0 0 1
31.059385 31.484795 33.395653 55.418836 0.792200 0.924035 -0.005139 0.006812 -56468.000000 0 0 1
32.304785 30.829695 33.506120 55.827675 0.762038 0.927082 -0.002945 0.001182 67504.100000 0 0 1
32.518885 29.869095 32.508379 54.830972 0.742951 0.936161 -0.000168 0.001628 198308.000000 0 0 1
33.860685 29.119695 32.767319 55.391334 0.710263 0.937804 0.007089 -0.001834 95509.900000 0 0 1
33.893385 28.077795 33.728330 55.450197 0.691829 0.916925 0.010295 0.001918 -550553.000000 0 0 1
-34.644119 27.421295 33.988270 55.743564 -0.669545 0.915082 0.006315 -0.008910 -499779.000000 0 0 1
-34.826019 26.079995 -34.540986 55.552655 -0.642774 2.241797 0.005592 -0.007839 17293.300000 0 0 1
34.447585 25.072795 33.840255 54.409963 0.629176 0.899566 0.002350 -0.013199 112696.000000 0 0 1
34.095285 23.936895 -34.625843 54.170217 0.612106 2.264260 0.002164 -0.020823 -307226.000000 0 0 1
33.729985 22.724595 33.748974 52.849904 0.592870 0.878143 -0.002720 -0.028800 -176841.000000 0 0 1
-34.818319 22.338095 33.093619 52.976348 -0.570420 0.896066 0.005862 -0.026018 257395.000000 0 0 1
34.738185 21.178095 32.254319 51.919113 0.547484 0.900470 0.014443 -0.020646 -382062.000000 0 0 1
-33.698219 20.674795 31.624269 50.627182 -0.550307 0.896113 0.006110 -0.026859 -289122.000000 0 0 1
-33.272419 21.380095 30.468839 49.925069 -0.571139 0.914368 0.002834 -0.019163 540100.000000 0 0 1
-32.173819 20.708395 29.805139 48.500913 -0.571892 0.909010 0.019923 -0.018722 500113.000000 0 0 1
-32.573519 19.644895 28.773219 47.695432 -0.542691 0.923202 0.019990 -0.010430 -1013380.000000 0 0 1
-33.253519 18.562095 29.344909 48.077766 -0.509117 0.914277 0.007955 -0.010053 57638.300000 0 0 1
-33.653119 17.705795 28.337569 47.424102 -0.484330 0.930373 -0.003855 -0.007652 -398030.000000 0 0 1
-34.434519 16.512895 28.896269 47.889521 -0.447150 0.923045 -0.012898 -0.002448 -525433.000000 0 0 1
-33.615719 15.462095 29.358549 47.233647 -0.431111 0.900064 0.001039 -0.000235 148154.000000 0 0 1
-34.363719 14.308595 29.646209 47.586750 -0.394553 0.898233 0.002182 -0.000622 177362.000000 0 0 1
-33.398819 13.196195 30.162269 46.897582 -0.376283 0.872189 0.001703 0.003946 -337069.000000 0 0 1
-33.144719 13.097095 31.544189 47.593510 -0.376317 0.846267 -0.002316 0.006768 704030.000000 0 0 1
-32.259619 11.986995 31.834099 46.880497 -0.355768 0.824332 0.009339 0.003779 2096670.000000 0 0 1
-30.699219 12.213695 31.565319 45.694483 -0.378652 0.808214 -0.008222 0.006772 -14189.200000 0 0 1
-30.331719 12.218795 30.199969 44.512361 -0.382951 0.825129 -0.004583 0.004215 450289.000000 0 0 1
-29.000719 12.674995 29.945459 43.570951 -0.412039 0.813058 0.008818 0.003463 1539760.000000 0 0 1
-27.817419 11.748295 30.478309 42.904063 -0.399612 0.780754 0.004127 -0.001784 31932.200000 0 0 1
-27.420819 10.749295 29.555429 41.724957 -0.373601 0.783654 0.002382 -0.005840 -740553.000000 0 0 1
-26.249419 10.144895 29.976019 41.115844 -0.368798 0.753845 0.003687 -0.010199 -553430.000000 0 0 1
-25.678519 9.070195 28.965879 39.757728 -0.339542 0.754579 0.007549 -0.009447 566930.000000 0 0 1
-26.471719 7.860295 28.862959 39.945044 -0.288640 0.763288 0.002030 -0.012511 1419680.000000 0 0 1
-27.850419 7.979395 28.425449 40.587224 -0.279034 0.794902 0.001146 -0.009190 744354.000000 0 0 1
-28.528519 6.636495 28.241179 40.687635 -0.228562 0.803631 0.004702 -0.004736 -323588.000000 0 0 1
-28.880119 6.095495 29.460469 41.702945 -0.208009 0.786346 0.012561 -0.005849 -41393.500000 0 0 1
-29.593919 4.892595 29.315089 41.941769 -0.163842 0.796872 0.014944 -0.006153 -438585.000000 0 0 1
-30.202519 4.320695 30.595209 43.207955 -0.142093 0.784004 0.008611 -0.001949 -519225.000000 0 0 1
-31.271619 5.061395 31.083719 44.381635 -0.160461 0.794876 0.010976 -0.008701 -708539.000000 0 0 1
-31.673419 4.609395 32.321469 45.487684 -0.144514 0.780511 0.008943 -0.013417 676567.000000 0 0 1
-33.192219 4.903095 32.592019 46.776099 -0.146658 0.799917 0.016800 -0.011391 724523.000000 0 0 1
-33.456919 6.267195 32.677129 47.185145 -0.185175 0.805806 0.009112 -0.006808 -1108910.000000 0 0 1
-34.805019 6.412395 32.976759 48.373286 -0.182195 0.820693 -0.003416 0.002757 -429852.000000 0 0 1
34.470385 7.879295 33.203226 48.505102 0.224721 0.816837 0.000480 -0.004604 -145632.000000 0 0 1
34.841885 8.312495 34.479846 49.718350 0.234200 0.804456 -0.001435 -0.006427 116744.000000 0 0 1
34.466185 9.692595 -34.576671 49.773592 0.274140 2.338770 0.003442 -0.002446 -151352.000000 0 0 1
34.364285 10.055095 -33.092913 48.756024 0.284657 2.316849 -0.002470 -0.004132 -458230.000000 0 0 1
33.239685 9.457095 -32.498513 47.439083 0.277188 2.325479 0.016903 -0.005719 -214309.000000 0 0 1
33.222485 9.754895 -31.142253 46.569640 0.285596 2.303288 -0.001087 0.003198 -322587.000000 0 0 1
32.031785 9.271095 -30.322853 45.071763 0.281735 2.308740 0.002198 0.006745 -288314.000000 0 0 1
32.039485 7.842095 -30.281413 44.777126 0.240044 2.313483 0.005226 0.007815 55143.100000 0 0 1
30.876885 7.334295 -29.670083 43.445227 0.233212 2.322564 0.005588 0.008348 -113398.000000 0 0 1
33.985155 6.094295 -20.212723 40.008567 0.177436 2.100421 0.004979 -0.005774 -379379.000000 0 0 1
33.437468 6.947895 -19.237223 39.197044 0.204872 2.083784 0.000090 -0.004092 286366.000000 0 0 1
33.945927 8.282895 -19.349723 39.941759 0.239326 2.076529 -0.018444 0.000578 -1746330.000000 0 0 1
-34.407351 8.527995 -18.856023 40.151490 -0.242958 2.059659 -0.024100 -0.000749 -1679110.000000 0 0 1
-33.378765 7.943795 -19.596923 39.513102 -0.233643 2.089737 -0.020879 -0.007510 -362725.000000 0 0 1
-32.878185 8.730995 -20.666823 39.803554 -0.259565 2.116735 -0.027796 -0.000933 -919262.000000 0 0 1
-31.845315 7.972395 -21.479523 39.230767 -0.245306 2.150191 -0.032194 0.005469 -754862.000000 0 0 1
-32.293115 6.848195 -22.238823 39.803371 -0.208968 2.163634 -0.027850 0.011886 129927.000000 0 0 1
-33.132085 7.144995 -23.347123 41.156703 -0.212399 2.173988 -0.019640 0.014640 228353.000000 0 0 1
-33.362675 5.874595 -24.229723 41.649231 -0.174296 2.191683 0.006384 0.010119 344188.000000 0 0 1
-32.262695 5.695695 -25.120463 41.283897 -0.174741 2.224941 -0.007453 0.009187 298127.000000 0 0 1
-32.025415 4.313895 -25.595293 41.223245 -0.133896 2.240680 -0.001056 0.011616 -167696.000000 0 0 1
-30.755105 4.193895 -26.435753 40.771489 -0.135528 2.276262 0.013687 0.006794 -212062.000000 0 0 1
-29.517635 4.434495 -25.830933 39.473949 -0.149117 2.284158 0.016736 0.009520 -152652.000000 0 0 1
-28.446665 4.131795 -26.707303 39.237285 -0.144238 2.319461 0.018021 0.008406 109873.000000 0 0 1
-27.086155 4.625695 -26.180153 37.953357 -0.169145 2.332006 0.001458 0.013135 -180290.000000 0 0 1
-26.996345 6.004795 -26.183143 38.084343 -0.218867 2.328843 -0.010083 0.014022 983502.000000 0 0 1
-25.724815 6.415495 -25.627163 36.873787 -0.244404 2.339212 -0.009627 0.027701 633830.000000 0 0 1
-25.452175 7.958795 -25.626523 36.984785 -0.303063 2.336291 -0.015038 0.013530 -410849.000000 0 0 1
-26.278395 8.808495 -24.874023 37.240578 -0.323429 2.302217 -0.008825 0.002404 -86357.300000 0 0 1
-25.879585 10.226395 -24.930723 37.361384 -0.376321 2.301355 -0.009640 -0.004763 -69757.500000 0 0 1
-24.511315 10.666995 -24.371323 36.173896 -0.410467 2.310037 0.004309 -0.002864 2760.740000 0 0 1
-24.480215 10.799495 -22.968623 35.262837 -0.415472 2.280165 0.007832 -0.002919 -442257.000000 0 0 1
-23.208315 11.230195 -22.622323 34.300331 -0.450674 2.290998 0.011957 -0.003953 -1060860.000000 0 0 1
-23.039915 11.587295 -21.120923 33.334614 -0.465983 2.256998 0.017477 -0.005187 -936318.000000 0 0 1
-23.482315 12.819595 -20.573823 33.749716 -0.499710 2.226352 0.023619 -0.006751 172086.000000 0 0 1
-24.739415 13.396295 -20.858223 35.022348 -0.496291 2.208770 0.015958 -0.013554 1044720.000000 0 0 1
-25.993435 12.493395 -20.387223 35.318302 -0.448037 2.186144 0.009267 -0.009517 220978.000000 0 0 1
-25.895635 12.111295 -18.979123 34.314348 -0.437472 2.156872 0.014901 -0.012816 79192.600000 0 0 1
-27.044075 11.539095 -18.406923 34.689300 -0.403291 2.130131 -0.000227 -0.012429 -856255.000000 0 0 1
-26.748185 10.780495 -17.062123 33.508216 -0.383121 2.105042 0.023703 -0.010395 249438.000000 0 0 1
-25.862485 9.663695 -17.080823 32.465515 -0.357593 2.124830 0.036825 -0.008713 663403.000000 0 0 1
-24.491815 10.018195 -17.201023 31.560869 -0.388277 2.147199 0.028762 -0.005995 -293616.000000 0 0 1
-23.603715 8.756695 -16.987623 30.370947 -0.355249 2.164383 0.022702 -0.011549 -289112.000000 0 0 1
-22.257115 9.015795 -16.679023 29.237879 -0.384873 2.177861 0.025979 -0.008460 -112936.000000 0 0 1
-21.590115 7.912595 -16.132723 28.089268 -0.351290 2.182591 0.014443 -0.006379 295885.000000 0 0 1
-20.070315 8.182095 -15.990723 26.934503 -0.387102 2.206432 0.015100 -0.004058 718174.000000 0 0 1
-19.254415 8.210995 -17.201623 27.093335 -0.403096 2.258679 0.016838 -0.000251 1026520.000000 0 0 1
-17.903015 8.507295 -16.862223 26.023578 -0.443602 2.275699 0.022247 0.002592 -86297.200000 0 0 1
-17.081215 9.237395 -17.934923 26.434047 -0.495747 2.316485 0.019289 -0.000125 -352434.000000 0 0 1
-16.869615 8.574395 -19.181423 26.944965 -0.470245 2.362959 0.026158 -0.002720 520120.000000 0 0 1
-15.984215 7.454195 -19.084523 25.986134 -0.436365 2.395596 0.029970 -0.000501 -443947.000000 0 0 1
-15.615915 6.832795 -20.476623 26.642747 -0.412455 2.447388 0.016348 0.001587 136701.000000 0 0 1
-16.463115 5.851595 -21.056523 27.361515 -0.341510 2.448959 0.012566 0.005325 1107020.000000 0 0 1
-17.713015 6.373195 -21.613323 28.661896 -0.345381 2.425046 0.014543 0.002671 1139910.000000 0 0 1
-18.541515 5.195095 -22.247823 29.423501 -0.273182 2.428167 0.011309 0.010174 -99574.500000 0 0 1
-19.230815 4.435495 -21.290723 29.030893 -0.226681 2.394079 0.021121 0.006931 -84060.900000 0 0 1
-19.889215 3.388095 -21.891323 29.770625 -0.168729 2.396954 0.003813 0.020810 -369425.000000 0 0 1
-20.815915 2.569995 -20.944123 29.640572 -0.122841 2.355483 0.014809 0.017949 -775.065000 0 0 1
-21.364715 1.444795 -21.575723 30.398196 -0.067522 2.359968 0.009163 0.024518 -43467.600000 0 0 1
-22.290615 0.843195 -20.728023 30.450508 -0.037809 2.319530 0.024325 0.011867 -706944.000000 0 0 1
-22.716915 -0.545005 -21.171523 31.057828 0.023987 2.320854 0.027742 0.024846 -345536.000000 0 0 1
-21.814315 -1.636005 -21.081023 30.380099 0.074857 2.337700 0.005055 0.012214 -145170.000000 0 0 1
-22.243615 -2.835905 -21.680923 31.191076 0.126809 2.339356 0.011413 0.002964 -681878.000000 0 0 1
-22.494515 -2.897405 -23.207323 32.449623 0.128100 2.367678 0.014538 -0.000238 183031.000000 0 0 1
-21.365715 -2.800205 -24.048023 32.289973 0.130318 2.410960 -0.012112 0.002659 69191.400000 0 0 1
-20.395315 -3.824205 -23.910123 31.658923 0.185352 2.426818 -0.031475 -0.005725 -592045.000000 0 0 1
-19.413815 -3.874305 -25.055023 31.932125 0.196977 2.472901 -0.009705 0.000952 -1046060.000000 0 0 1
-20.018615 -4.088605 -26.288793 33.295079 0.201469 2.480904 -0.013252 -0.004083 -147185.000000 0 0 1
-19.267415 -4.103905 -27.506263 33.832970 0.209861 2.520085 -0.013265 -0.001240 -578900.000000 0 0 1
-20.175215 -4.101005 -28.726193 35.341926 0.200537 2.519752 -0.013825 -0.010740 -475065.000000 0 0 1
-20.902115 -5.303705 -28.799133 35.978018 0.248496 2.498866 -0.012549 -0.002663 159947.000000 0 0 1
-21.700115 -5.380905 -29.961023 37.383312 0.243064 2.500520 -0.013311 -0.016209 -799784.000000 0 0 1
-21.286215 -6.590405 -30.762393 37.985013 0.300249 2.514703 -0.000664 -0.016518 -64267.300000 0 0 1
-19.958315 -6.381105 -31.201783 37.584626 0.309450 2.550216 -0.009231 -0.024263 -2517.170000 0 0 1
-19.360415 -7.641205 -31.514293 37.767239 0.375913 2.557902 -0.001873 -0.018953 357594.000000 0 0 1
-18.073315 -7.437005 -32.384883 37.825050 0.390373 2.598618 0.008942 -0.023260 -126334.000000 0 0 1
-18.286415 -6.816805 -33.655713 38.904612 0.356823 2.616112 0.008609 -0.030929 307677.000000 0 0 1
-18.803915 -7.742105 -34.603978 40.136800 0.390576 2.610296 0.012333 -0.028402 -282845.000000 0 0 1
-18.655215 -7.194905 33.225397 38.777709 0.368099 0.541732 0.022375 -0.028414 523114.000000 0 0 1
-17.341015 -7.142605 32.652969 37.655597 0.390715 0.521350 0.021517 -0.024538 454979.000000 0 0 1
-16.688415 -5.942205 32.809169 37.286118 0.342070 0.495082 0.014030 -0.030369 -384230.000000 0 0 1
-15.347615 -5.818305 32.071129 36.027202 0.362362 0.473030 0.003093 -0.021773 -168954.000000 0 0 1
-15.561415 -5.518105 30.708509 34.865738 0.340768 0.493322 0.010144 -0.019595 47094.900000 0 0 1
-14.359115 -5.181705 30.065669 33.719115 0.346321 0.469818 0.011467 -0.013417 -229758.000000 0 0 1
-14.495915 -5.002205 28.544959 32.403215 0.332282 0.492973 0.014282 -0.008669 -6889.140000 0 0 1
-15.293615 -3.907205 28.165759 32.287318 0.250129 0.510813 0.002643 -0.014448 -16355.900000 0 0 1
-15.962515 -4.023605 26.929169 31.562184 0.246922 0.548687 0.012863 -0.010774 13684.100000 0 0 1
-15.099215 -3.813205 25.664259 30.019678 0.247371 0.545410 0.021673 -0.006161 98598.100000 0 0 1
-14.684515 -2.460205 25.500049 29.528632 0.165996 0.528488 0.011687 0.007721 2581.490000 0 0 1
-13.861515 -2.264705 24.370019 28.127715 0.161950 0.522837 0.002760 0.014733 -147834.000000 0 0 1
-13.541215 -0.793005 24.181619 27.726235 0.058495 0.511203 0.013722 0.013188 349344.000000 0 0 1
-14.735415 -0.078805 23.853919 28.038333 0.005348 0.553365 0.011255 0.005796 397389.000000 0 0 1
-14.661115 1.272495 24.261609 28.375927 -0.086577 0.545232 0.007695 0.014240 -104327.000000 0 0 1
-15.383815 2.395995 23.433219 28.133936 -0.154506 0.586439 0.001960 0.013926 -193536.000000 0 0 1
-14.737315 2.760895 22.269219 26.846399 -0.185194 0.592576 -0.003390 0.015392 -377597.000000 0 0 1
-15.314515 3.961595 21.712519 26.863770 -0.253133 0.629630 0.003586 0.011373 -116776.000000 0 0 1
-14.482515 4.847295 20.764019 25.775648 -0.322980 0.634164 0.013855 0.011113 -358031.000000 0 0 1
-13.506915 5.627795 21.404619 25.928104 -0.394786 0.599643 -0.009383 0.011937 461891.000000 0 0 1
-12.435815 5.797595 20.454919 24.630577 -0.436245 0.590848 -0.012713 0.014399 8623.660000 0 1 0
-11.465915 6.915795 20.738419 24.685572 -0.542741 0.573324 -0.009942 0.017907 -345536.000000 0 1 0
-11.913915 8.238395 20.370719 24.995574 -0.604994 0.618114 -0.000192 0.016014 800609.000000 0 1 0
-10.941615 9.268295 20.705019 25.185672 -0.702790 0.605715 -0.018230 0.021568 543687.000000 0 0 1
-11.530015 10.704395 20.727019 26.021811 -0.748283 0.649271 -0.011364 0.022967 -194853.000000 0 0 1
-11.875715 11.187095 19.456119 25.391422 -0.755549 0.697815 -0.011161 0.023537 116319.000000 0 0 1
-12.409015 12.459095 19.567019 26.307432 -0.787412 0.732084 -0.014712 0.018149 -268375.000000 0 0 1
-12.654415 13.206395 18.184119 25.791574 -0.806739 0.788315 -0.013882 0.016372 -173265.000000 0 0 1
-11.490115 13.797895 17.645819 25.174980 -0.876406 0.794100 -0.016071 0.017564 83635.000000 0 0 1
-11.272215 15.197095 17.915519 26.057252 -0.932606 0.812694 -0.011639 0.015497 -72309.300000 0 0 1
-12.400615 16.214295 17.501819 26.888516 -0.917893 0.862023 -0.004212 0.013505 316021.000000 0 0 1
-12.557415 16.492495 16.107619 26.251600 -0.920038 0.910202 -0.010384 0.001479 167419.000000 0 0 1
-13.177615 15.494895 15.305019 25.455548 -0.866042 0.925738 -0.000785 0.001771 -372650.000000 0 0 1
-13.821615 15.974195 14.013119 25.349151 -0.857517 0.985071 -0.006176 -0.001199 -86148.500000 0 0 1
-14.739715 17.049895 14.142819 26.607846 -0.857942 1.010393 -0.009939 0.000536 -369709.000000 0 0 1
-15.167115 17.492695 12.910019 26.508572 -0.856484 1.062130 -0.020807 -0.001056 25720.700000 0 0 1
-16.423415 18.377495 13.060919 27.893521 -0.841490 1.083496 -0.014096 -0.000034 90503.100000 0 0 1
-17.675115 17.742795 13.179019 28.300230 -0.787309 1.086387 -0.007970 0.008769 773275.000000 0 0 1
-18.762915 18.719995 13.237319 29.626202 -0.784253 1.107599 -0.004646 0.014237 1020400.000000 0 0 1
-20.175715 18.117795 13.309719 30.206996 -0.731709 1.114510 0.010955 0.020136 58263.900000 0 0 1
-20.466415 17.572895 12.053119 29.545871 -0.709478 1.150593 0.008577 0.014073 -133941.000000 0 0 1
-21.825015 17.181595 11.967719 30.245079 -0.666914 1.163976 0.020744 0.013500 49379.700000 0 0 1
-22.027515 16.427295 10.645119 29.468390 -0.640784 1.201201 0.014942 0.010176 -260158.000000 0 0 1
-21.636215 15.101395 10.633519 28.447314 -0.609361 1.187697 0.013336 0.000970 74737.400000 0 0 1
-22.153715 14.451595 9.493619 28.102749 -0.578013 1.226199 0.011758 -0.000962 172089.000000 0 0 1
-21.394815 13.070195 9.274919 26.731858 -0.548399 1.216467 0.021827 0.000271 -578549.000000 0 0 1
-21.692615 11.933695 10.145119 26.756421 -0.502941 1.181902 0.021357 -0.001860 109784.000000 0 0 1
-22.991915 11.391395 10.251219 27.631134 -0.460003 1.190708 0.022898 0.004783 -16468.900000 0 0 1
-23.790015 11.032095 8.996419 27.723772 -0.434211 1.240311 0.017205 0.009559 -440726.000000 0 0 1
-24.128815 12.171295 8.151519 28.227423 -0.467185 1.277844 0.020876 0.005019 226582.000000 0 0 1
-25.172505 11.839395 7.248519 28.746606 -0.439632 1.315893 0.004439 0.014199 -517146.000000 0 0 1
-25.439175 12.954095 6.207419 29.214590 -0.470995 1.356687 -0.005656 0.013408 -500065.000000 0 0 1
-24.464815 13.283795 5.234819 28.326485 -0.497434 1.384925 -0.004835 0.014400 525109.000000 0 0 1
-23.228415 13.824595 5.698919 27.625285 -0.536852 1.363011 0.001821 0.011846 -230011.000000 0 0 1
-23.137315 15.333895 6.175319 28.435862 -0.585275 1.351885 0.003479 0.006489 -945785.000000 0 0 1
-21.838615 15.856495 6.216119 27.694651 -0.628013 1.344416 -0.024160 0.004716 -181618.000000 0 0 1
-21.724215 17.198595 6.622019 28.488320 -0.669646 1.336204 -0.012878 -0.000606 -634298.000000 0 0 1
-20.291515 17.699095 6.526019 27.705460 -0.717265 1.333012 -0.021228 -0.001804 -678548.000000 0 0 1
-19.980215 18.064095 5.183919 27.429793 -0.735075 1.380664 -0.012697 -0.013804 -620274.000000 0 0 1
-18.634915 18.337395 5.029019 26.623508 -0.777351 1.380761 -0.019278 -0.011303 -1078910.000000 0 0 1
-18.234715 19.350995 3.906219 26.874233 -0.815089 1.424928 0.003644 -0.017286 -638634.000000 0 0 1
-16.876115 19.668695 3.994419 26.222437 -0.861665 1.417873 -0.004847 -0.017841 -545807.000000 0 0 1
-16.509215 20.750495 3.168619 26.705381 -0.898740 1.451865 0.007698 -0.002902 -47774.400000 0 0 1
-16.638215 22.155395 3.828619 27.970522 -0.926670 1.433485 0.015611 -0.010423 101060.000000 0 0 1
-15.848615 22.413295 5.009019 27.903847 -0.955316 1.390308 -0.002372 -0.008171 368633.000000 0 0 1
-15.944815 23.748795 5.446619 29.118861 -0.979528 1.382640 -0.008208 -0.008529 -246832.000000 0 0 1
-15.182115 24.033895 6.730019 29.213317 -1.007396 1.338333 -0.006296 0.008425 62869.800000 0 0 1
-15.974315 23.487495 7.797219 29.455692 -0.973538 1.302893 -0.008117 0.006043 690681.000000 0 0 1
-15.371915 23.765695 9.032519 29.710107 -0.996666 1.261885 -0.007292 0.002028 -104299.000000 0 0 1
-16.110215 23.010695 10.135619 29.862383 -0.959991 1.224506 -0.013311 0.005720 201214.000000 0 0 1
-17.291115 23.693095 10.526119 31.163193 -0.940352 1.226245 -0.010066 0.006923 468151.000000 0 0 1
-18.204515 22.826395 11.254719 31.290852 -0.897569 1.202871 -0.015106 0.004990 642564.000000 0 0 1
-19.432815 23.592895 11.805419 32.766247 -0.881787 1.202215 -0.010391 0.004400 103659.000000 0 0 1
-20.255715 24.249295 10.832719 33.401649 -0.874892 1.240507 -0.002554 0.007363 438322.000000 0 0 1
-19.798215 25.549895 10.429619 33.963855 -0.911558 1.258673 -0.010984 -0.001153 -354745.000000 0 0 1
-20.926215 26.312995 9.718519 34.996140 -0.898940 1.289395 -0.003835 -0.006355 -37890.900000 0 0 1
-21.868815 26.803895 10.651219 36.195889 -0.886446 1.272109 0.005261 -0.011773 -22540.200000 0 0 1
-22.691815 27.799795 10.119219 37.284658 -0.886220 1.295944 -0.011311 -0.009749 -605831.000000 0 0 1
-23.594215 28.380995 11.202919 38.570368 -0.877236 1.276095 -0.018664 0.001189 -584036.000000 0 0 1
-22.986715 29.250795 12.135619 39.131463 -0.904744 1.255472 -0.013497 -0.006058 521288.000000 0 0 1
-23.789215 29.479695 13.308819 40.151013 -0.891820 1.232936 -0.009886 -0.001936 -7092.450000 0 0 1
7.776885 -33.154601 28.257069 44.251209 -1.340397 0.878170 0.001228 0.004814 172044.000000 0 0 1
9.174885 -33.236701 28.008579 44.422262 -1.301457 0.888589 -0.000287 -0.001793 617596.000000 0 0 1
9.459685 -32.810901 26.699679 43.346439 -1.290099 0.907192 -0.003437 0.000008 -189144.000000 0 0 1
10.957585 -32.967201 26.375759 43.618639 -1.249905 0.921420 -0.007795 0.002021 -260547.000000 0 0 1
11.404585 -34.261601 26.254439 44.645464 -1.249465 0.942132 0.007817 -0.009328 -309983.000000 0 0 1
12.768485 -34.224601 25.920629 44.791032 -1.213711 0.953661 0.013312 -0.009771 -40900.800000 0 0 1
13.493885 33.891095 25.886909 44.730564 1.191882 0.953626 0.022529 -0.009157 -37472.100000 0 0 1
13.532085 33.188595 24.660969 43.505903 1.183641 0.968129 0.021683 -0.012504 181677.000000 0 0 1
14.630785 32.310995 24.565939 43.145633 1.145607 0.965054 0.013767 -0.007199 -527551.000000 0 0 1
15.028185 31.828095 23.174019 42.141537 1.129662 0.988541 0.019269 -0.021687 199793.000000 0 0 1
14.077085 30.941795 22.544419 40.789825 1.143831 0.985199 0.010883 -0.014219 463190.000000 0 0 1
14.493985 29.581495 22.476019 39.878715 1.115207 0.972047 0.009318 -0.008180 4726.520000 0 0 1
14.150385 28.762995 23.766919 39.905009 1.113597 0.932800 0.009651 -0.004050 -355989.000000 0 0 1
14.823785 29.155595 24.913229 41.115232 1.100422 0.919853 0.011811 -0.005025 34954.200000 0 0 1
14.355885 28.437095 26.039639 41.143926 1.103293 0.885514 0.010369 -0.000848 -240274.000000 0 0 1
15.154185 28.825895 27.270799 42.476794 1.086790 0.873671 0.010346 -0.004357 -108890.000000 0 0 1
14.931385 30.178195 27.569599 43.517267 1.111338 0.884686 0.013867 -0.004576 294663.000000 0 0 1
15.436385 30.443095 28.875039 44.708298 1.101519 0.868655 0.020415 -0.011497 46767.000000 0 0 1
15.211985 31.940595 29.221559 45.885789 1.126322 0.880413 0.032833 -0.020333 -151775.000000 0 0 1
16.115585 32.868295 28.685649 46.507025 1.114932 0.906122 0.028180 -0.013227 -208603.000000 0 0 1
15.866685 34.170795 29.058059 47.579047 1.136086 0.913811 0.034626 -0.003366 -197369.000000 0 0 1
16.574385 -34.236501 28.258679 47.385664 -1.119938 0.931844 0.036966 -0.010154 -505485.000000 0 0 1
16.117285 -34.123701 26.912349 46.351574 -1.129537 0.951314 0.040681 -0.010765 42792.800000 0 0 1
16.352885 -32.788001 26.350899 45.131361 -1.108152 0.947307 0.034901 -0.011678 -649494.000000 0 0 1
17.777185 -32.254601 26.199939 45.197615 -1.067069 0.952466 0.039352 -0.000479 -192430.000000 0 0 1
18.457285 -31.829001 27.410639 45.881367 -1.045296 0.930511 0.033057 -0.000642 -372934.000000 0 0 1
19.387985 -30.888301 27.065399 45.414942 -1.010272 0.932338 0.033638 0.002188 -332567.000000 0 0 1
20.004785 -29.962701 28.187069 45.743478 -0.982109 0.906889 0.036816 0.004436 464553.000000 0 0 1
18.954785 -29.151001 28.710339 45.092664 -0.994261 0.880590 0.029081 0.002682 808832.000000 0 0 1
19.422285 -28.273701 29.755209 45.409248 -0.968891 0.856259 0.046486 -0.000408 151293.000000 0 0 1
18.194885 -27.652201 30.453029 44.978718 -0.988824 0.827044 0.026518 -0.001854 216643.000000 0 0 1
17.473785 -26.793501 29.593419 43.577463 -0.992901 0.824262 0.030722 0.000833 436591.000000 0 0 1
16.252185 -26.388601 30.217849 43.285219 -1.018783 0.798042 0.013707 -0.001283 235417.000000 0 0 1
15.346785 -25.635601 29.199069 41.776710 -1.031369 0.796894 0.007389 0.008335 -642771.000000 0 0 1
14.857685 -26.453701 28.143249 41.383470 -1.059054 0.822952 0.002159 0.010981 312521.000000 0 0 1
14.345885 -25.661101 27.084979 39.973649 -1.061030 0.826342 -0.000544 0.003165 1531640.000000 0 0 1
12.833385 -25.054901 27.205189 39.148003 -1.097428 0.802471 -0.010079 0.008061 2771480.000000 0 0 1
11.798785 -26.078301 27.212179 39.494200 -1.145918 0.810664 -0.009000 0.011027 827617.000000 0 0 1
11.496785 -26.605201 25.951909 38.903912 -1.162906 0.840518 -0.004083 0.002992 -171357.000000 0 0 1
10.624185 -27.917401 25.940659 39.562260 -1.207162 0.855697 -0.006162 0.001116 740490.000000 0 0 1
9.235585 -27.803401 26.257319 39.341733 -1.250089 0.840062 -0.011670 0.004101 534139.000000 0 0 1
8.620285 -29.060301 26.312759 40.139403 -1.282430 0.855906 -0.005330 0.009957 -227248.000000 0 0 1
7.135685 -28.974201 26.752809 40.076616 -1.329325 0.839894 -0.007571 0.001638 3976.440000 0 0 1
6.118985 -28.636201 25.859619 39.066532 -1.360282 0.847395 -0.010732 -0.001688 22874.100000 0 0 1
6.251085 -27.370401 25.183479 37.715018 -1.346259 0.839640 0.003214 -0.005675 -612867.000000 0 0 1
5.091885 -27.209701 24.149719 36.735597 -1.385801 0.853443 -0.005971 -0.002142 -432226.000000 0 0 1
4.954985 -28.156801 23.109219 36.761302 -1.396602 0.891007 -0.027865 0.000994 -20003.900000 0 0 1
4.325985 -29.388501 23.399319 37.814366 -1.424646 0.903589 -0.029045 0.000112 -139915.000000 0 0 1
2.876585 -29.383001 23.958319 38.021528 -1.473208 0.889082 -0.018895 -0.005223 -786155.000000 0 0 1
1.935985 -29.253301 22.910819 37.207651 -1.504713 0.907452 -0.021722 -0.006033 -179151.000000 0 0 1
0.679585 -28.756501 23.282419 37.006341 -1.547168 0.890341 -0.009624 -0.013243 -119652.000000 0 0 1
0.499785 -27.292801 23.756219 36.187080 -1.552486 0.854649 -0.000613 -0.015350 -695713.000000 0 0 1
1.218885 -27.077801 24.925339 36.823437 -1.525813 0.827270 -0.002979 -0.016552 -138622.000000 0 0 1
1.105885 -25.776501 25.281349 36.121982 -1.527920 0.795555 0.004147 -0.007619 -176731.000000 0 0 1
2.177685 -25.269801 26.278579 36.522170 -1.484831 0.767680 0.017497 0.000095 164081.000000 0 0 1
3.356985 -24.829001 25.609389 35.827217 -1.436407 0.774454 0.008033 -0.001360 457559.000000 0 0 1
4.285085 -24.103601 26.416529 36.016365 -1.394857 0.747399 0.020939 0.002237 419228.000000 0 0 1
3.933885 -22.566801 26.766159 35.230147 -1.398209 0.707865 0.013830 0.008936 -243342.000000 0 0 1
3.822185 -21.819601 25.588829 33.845122 -1.397384 0.713529 0.006085 0.015622 110185.000000 0 0 1
3.482585 -20.525001 25.907439 33.235515 -1.402722 0.676912 0.009098 0.002251 -154667.000000 0 0 1
3.391385 -19.599201 24.679849 31.697400 -1.399456 0.678352 0.008488 0.003962 521620.000000 0 0 1
4.663885 -19.345301 24.074519 31.234196 -1.334225 0.690741 0.032898 0.009682 371577.000000 0 0 1
4.610685 -18.601501 22.867819 29.836411 -1.327827 0.697516 0.032337 0.008936 -36571.300000 0 0 1
6.002485 -18.022701 22.549319 29.484223 -1.249300 0.700077 0.031987 0.007827 -98916.400000 0 0 1
6.838485 -18.999201 21.911119 29.796504 -1.225298 0.744600 0.015348 0.016006 -287790.000000 0 0 1
8.084085 -18.519901 21.482519 29.493013 -1.159219 0.754822 0.003310 0.013934 280910.000000 0 0 1
9.212185 -18.598501 22.565619 30.659024 -1.110901 0.743626 0.007999 0.021507 -221292.000000 0 0 1
8.937685 -17.791401 23.665819 30.927127 -1.105263 0.699425 0.019744 0.024816 -549720.000000 0 0 1
9.907585 -17.852501 24.663319 32.017985 -1.064146 0.691491 0.007763 0.027194 -273514.000000 0 0 1
9.886385 -16.795001 25.797179 32.331210 -1.038764 0.646987 0.015658 0.011409 -162145.000000 0 0 1
10.261585 -15.499501 25.459319 31.523191 -0.985990 0.630661 0.023799 0.016343 173412.000000 0 0 1
10.359385 -14.658601 26.601009 32.090577 -0.955581 0.593595 0.015717 0.014087 -74938.000000 0 0 1
10.744485 -13.191701 26.283579 31.309607 -0.887283 0.574483 0.016454 0.013111 -307554.000000 0 0 1
9.717085 -12.376901 25.781059 30.203848 -0.905208 0.547999 0.020534 0.012052 -111594.000000 0 0 1
10.085485 -10.970901 25.757349 29.757667 -0.827423 0.524508 0.023656 0.021653 -164858.000000 0 0 1
9.069185 -10.048101 25.053869 28.476496 -0.836559 0.495337 0.034051 0.015638 -659991.000000 0 0 1
7.833485 -10.022601 25.691949 28.668664 -0.907387 0.459739 0.020632 0.017461 -1141680.000000 0 0 1
6.993785 -9.363001 24.823879 27.437270 -0.929244 0.440003 0.023573 0.016914 -36553.000000 0 0 1
5.480485 -9.286901 25.194169 27.404898 -1.037665 0.404420 0.015341 0.011435 -280849.000000 0 0 1
5.159485 -8.351901 26.162919 27.944103 -1.017419 0.358970 0.013559 0.017555 394159.000000 0 0 1
3.845785 -8.453001 26.700289 28.269219 -1.143825 0.334726 0.003938 0.020659 1254490.000000 0 0 1
2.585585 -8.233901 25.781209 27.187371 -1.266530 0.323027 0.004042 0.021364 -1767.040000 0 0 1
2.538585 -6.982801 25.135339 26.210479 -1.222103 0.287413 0.014001 0.017113 -841755.000000 0 0 1
1.567385 -6.928501 24.175619 25.197647 -1.348318 0.285789 0.011920 0.007236 -965166.000000 0 0 1
1.705585 -5.670601 23.253319 23.995450 -1.278627 0.249354 0.014247 -0.009187 -120641.000000 0 1 0
1.265185 -4.526801 23.960419 24.417091 -1.298263 0.193709 0.002793 -0.001807 281105.000000 0 1 0
1.729885 -3.289801 23.368019 23.661776 -1.086697 0.157738 0.010009 -0.011587 -778134.000000 0 1 0
0.704385 -2.672801 22.377819 22.547878 -1.313117 0.122895 -0.004706 -0.016896 217300.000000 0 1 0
-0.246715 -1.799801 22.918119 22.990005 1.434566 0.079101 0.001399 -0.015239 118248.000000 0 1 0
-1.254715 -2.413801 23.728019 23.883460 1.091427 0.114152 0.013729 -0.007449 -487950.000000 0 1 0
-2.140015 -1.368801 24.433709 24.565411 0.569045 0.103596 0.010894 -0.000904 -451702.000000 0 1 0
-1.453115 -0.534801 25.322249 25.369546 0.352653 0.061072 0.011696 -0.007771 -453987.000000 0 0 1
-2.185315 0.534199 25.819579 25.917401 -0.239748 0.086911 0.012866 -0.010269 -1005660.000000 0 0 1
-1.650715 1.372199 26.988599 27.073830 -0.693523 0.079369 0.034164 -0.020750 -404810.000000 0 0 1
-1.655515 0.729199 28.262689 28.320524 -0.414898 0.063919 0.038813 -0.017065 212131.000000 0 0 1
-0.825115 -0.399801 28.437559 28.452336 0.451203 0.032230 0.042036 -0.016621 -673753.000000 0 0 1
0.522785 -0.274801 29.177589 29.183566 -0.483955 0.020239 0.044790 -0.021123 135953.000000 0 0 1
1.524485 0.563199 28.579019 28.625192 0.353883 0.056805 0.044918 -0.013906 319044.000000 0 0 1
2.119985 0.108199 27.412229 27.494297 0.050993 0.077284 0.033449 -0.013219 -346600.000000 0 0 1
3.235185 -0.970801 27.619239 27.825011 -0.291526 0.121691 0.021095 -0.010741 -193327.000000 0 0 1
2.703685 -2.213801 28.066979 28.283673 -0.686105 0.123865 0.034000 -0.006247 120010.000000 0 0 1
3.684485 -3.200801 28.346589 28.763687 -0.715264 0.170505 0.011895 0.012621 120131.000000 0 0 1
3.993885 -4.122801 27.072209 27.674051 -0.801280 0.208934 0.017426 0.008511 -41689.100000 0 0 1
4.788585 -3.383801 26.182879 26.831396 -0.615168 0.220309 0.023839 0.007604 -240791.000000 0 0 1
5.170585 -4.123801 25.033289 25.892205 -0.673245 0.258294 0.017074 0.010674 -326498.000000 0 0 1
6.477085 -3.600801 24.360289 25.462563 -0.507384 0.295317 0.020874 0.007475 1137880.000000 0 0 1
7.624985 -3.562801 25.280429 26.644588 -0.437109 0.321376 0.011420 0.009793 1275400.000000 0 0 1
8.227585 -4.836701 25.581979 27.304294 -0.531448 0.357080 0.013531 0.010972 -7767.860000 0 0 1
9.223985 -5.394901 24.507999 26.736284 -0.529226 0.411162 0.014292 0.002691 -396929.000000 0 0 1
8.576685 -5.885601 23.361719 25.572832 -0.601426 0.418901 0.014261 -0.001778 159347.000000 0 0 1
9.387985 -5.810701 22.173819 24.770482 -0.554238 0.461981 0.023344 -0.004488 370576.000000 0 1 0
9.511485 -4.373801 21.549819 23.958155 -0.431010 0.452224 0.014826 -0.005615 56576.000000 0 1 0
8.268785 -3.961801 21.046719 22.957201 -0.446811 0.410852 0.022745 -0.019300 -388563.000000 0 1 0
8.291385 -2.651801 20.497219 22.269152 -0.309545 0.401614 0.014644 -0.012829 890224.000000 0 1 0
6.839985 -2.054801 20.292519 21.512646 -0.291833 0.338411 0.017420 -0.010683 954768.000000 0 1 0
6.348485 -1.552801 21.511619 22.482531 -0.239884 0.294956 0.022069 -0.004632 -138677.000000 0 1 0
5.062085 -1.006801 21.330219 21.945765 -0.196329 0.237405 0.021294 -0.000427 73927.100000 0 1 0
4.307385 -0.581801 22.631219 23.044829 -0.134258 0.189747 0.010209 -0.009625 438960.000000 0 1 0
3.052285 0.075199 22.442019 22.648760 0.024632 0.135219 0.012162 -0.010015 410724.000000 0 1 0
2.681485 0.603199 23.698819 23.857666 0.221266 0.115460 0.025353 -0.012421 -626038.000000 0 1 0
1.251385 1.121199 23.688719 23.748231 0.730582 0.070809 0.026413 -0.016643 -661400.000000 0 1 0
0.980185 2.433199 23.237719 23.385312 1.187846 0.112410 0.030884 -0.010852 -709170.000000 0 1 0
-0.371115 2.707199 23.157219 23.317879 -1.434561 0.117455 0.014338 -0.011103 -966123.000000 0 1 0
-0.757515 4.094199 22.645219 23.024818 -1.387844 0.181835 0.014488 -0.013778 -416249.000000 0 1 0
-0.797115 5.117199 23.581619 24.143610 -1.416266 0.216184 0.013989 -0.013098 -329689.000000 0 1 0
-1.542015 6.198199 23.183819 24.047556 -1.326962 0.268831 0.009141 -0.013852 -618833.000000 0 1 0
-1.413315 7.467199 24.082219 25.252917 -1.383739 0.305685 0.017751 -0.010937 -204987.000000 0 0 1
-0.338815 8.265199 23.687219 25.090091 -1.529826 0.335983 0.011635 -0.010309 -167741.000000 0 0 1
-0.386515 9.428199 24.411849 26.172098 -1.529824 0.368848 0.018953 -0.006047 -563195.000000 0 0 1
0.399985 10.626199 23.729119 26.002831 1.533173 0.421298 0.021061 -0.009407 -136009.000000 0 0 1
1.795185 10.459199 23.722919 25.988352 1.400816 0.420637 0.019864 -0.007445 -450836.000000 0 0 1
2.332785 10.878199 24.972199 27.338395 1.359550 0.419119 0.024330 -0.010715 -171548.000000 0 0 1
3.608285 11.829199 24.840529 27.748902 1.274729 0.461940 0.021219 -0.012243 -38035.100000 0 0 1
4.798685 11.209199 24.563439 27.423276 1.166301 0.460760 0.022173 -0.007301 -902157.000000 0 0 1
4.919885 10.655199 23.234519 26.030394 1.138226 0.467735 0.022257 -0.013667 -331420.000000 0 0 1
6.365785 10.188199 22.823119 25.791809 1.012327 0.484521 0.022031 -0.011781 508677.000000 0 0 1
7.143785 11.266199 22.400619 26.071990 1.005687 0.537125 0.021561 -0.009940 -158742.000000 0 0 1
8.363285 10.737199 21.897519 25.782423 0.909050 0.556101 0.019786 -0.007430 343244.000000 0 0 1
9.207085 11.787199 21.118219 25.878324 0.907681 0.616239 0.020903 -0.017634 -402629.000000 0 0 1
8.643385 11.991199 19.840919 24.741848 0.946240 0.640299 0.015214 -0.023726 249519.000000 0 1 0
9.311985 12.957199 19.028919 24.833482 0.947648 0.697795 0.018854 -0.026893 -357265.000000 0 1 0
10.729385 12.616199 18.568819 24.881504 0.866044 0.728325 0.010639 -0.023147 -1036980.000000 0 1 0
11.661685 12.786199 19.568319 26.122804 0.831362 0.724110 0.010888 -0.017155 -778066.000000 0 0 1
12.928585 12.376199 19.094519 26.170962 0.763572 0.753049 0.017090 -0.018414 42284.300000 0 0 1
13.995485 12.246199 20.203919 27.459813 0.718836 0.744003 0.011410 -0.002523 -29040.100000 0 0 1
14.497985 13.498199 20.626019 28.597650 0.749702 0.765193 0.005113 0.001527 -395703.000000 0 0 1
15.574685 13.266199 21.480319 29.664237 0.705526 0.761046 0.001380 0.004827 -266032.000000 0 0 1
16.345985 14.505199 21.933719 30.962559 0.725802 0.783575 -0.003513 0.011439 -110994.000000 0 0 1
15.615185 15.318199 22.840919 31.625762 0.775798 0.763782 -0.002962 0.016982 635552.000000 0 0 1
16.453285 16.394199 23.271419 32.879162 0.783599 0.784437 -0.001162 0.020990 -41168.700000 0 0 1
-20.653115 12.856995 -25.217053 35.039310 -0.556815 2.374136 0.002310 -0.005089 134110.000000 0 0 1
-20.323215 12.701695 -26.568883 35.780884 -0.558588 2.407657 -0.000111 -0.012585 366419.000000 0 0 1
-21.039115 13.748895 -27.277153 37.090694 -0.578826 2.397079 0.011144 -0.011189 354839.000000 0 0 1
-20.637215 13.706495 -28.790013 37.981937 -0.586268 2.431026 0.017173 -0.005811 356348.000000 0 0 1
-19.289615 14.082895 -28.997023 37.566535 -0.630628 2.452596 0.021199 -0.014442 -304936.000000 0 0 1
-19.044315 14.455895 -30.326483 38.618058 -0.649278 2.473965 0.035483 -0.012010 -196148.000000 0 0 1
-17.648515 15.041895 -30.634253 38.421168 -0.705830 2.493650 0.020710 -0.017261 -517470.000000 0 0 1
-16.839515 13.945195 -30.916623 37.866546 -0.691656 2.526054 0.020380 -0.019499 -1176930.000000 0 0 1
-15.498415 14.360895 -30.878473 37.415455 -0.747321 2.541506 0.017512 -0.011536 161148.000000 0 0 1
-14.651415 13.720695 -29.720053 35.863672 -0.752606 2.547569 0.023835 -0.007616 -37245.700000 0 0 1
-15.190715 14.096095 -28.463773 35.208580 -0.748040 2.512281 0.024306 -0.010193 -309817.000000 0 0 1
-15.959615 13.085595 -27.880833 34.688369 -0.686769 2.504371 0.027564 -0.003894 -131499.000000 0 0 1
-16.840915 13.586795 -26.677493 34.349761 -0.678857 2.460115 0.025098 -0.015522 -216735.000000 0 0 1
-16.055415 13.958895 -25.597483 33.284505 -0.715661 2.448152 0.047883 -0.006511 -165100.000000 0 0 1
-16.808815 14.526495 -24.521423 33.088601 -0.712691 2.405479 0.027468 -0.002014 -264818.000000 0 0 1
-15.970515 15.057995 -23.362423 32.056254 -0.755998 2.387356 0.030086 -0.004023 -14301.500000 0 0 1
-15.218415 16.208595 -23.702023 32.497763 -0.816895 2.388158 0.008963 -0.008901 386141.000000 0 0 1
-14.516315 16.826395 -22.560723 31.667605 -0.858969 2.363741 0.011075 -0.002006 291409.000000 0 0 1
-14.135015 18.339895 -22.868823 32.544331 -0.914163 2.349978 0.005714 -0.010715 466469.000000 0 0 1
-15.177315 19.353395 -22.957023 33.644163 -0.905752 2.321766 -0.021572 -0.005009 981130.000000 0 0 1
-15.991815 19.150995 -24.141923 34.717880 -0.875053 2.339737 -0.026934 -0.003877 34144.300000 0 0 1
-17.177715 20.123795 -24.246723 35.887945 -0.864215 2.312606 -0.028971 -0.001367 -137622.000000 0 0 1
-16.922115 21.416395 -24.761423 36.853060 -0.902092 2.307562 -0.038484 -0.004613 561927.000000 0 0 1
-18.167715 22.121695 -24.915323 37.950080 -0.883224 2.287004 -0.011360 -0.004671 579965.000000 0 0 1
-18.020915 23.641495 -25.026223 38.858532 -0.919496 2.270556 -0.020667 -0.011274 -131673.000000 0 0 1
-17.669915 24.342995 -23.860023 38.394114 -0.942916 2.241388 -0.020777 -0.008014 -82119.500000 0 0 1
-16.851615 25.489595 -24.130423 38.935507 -0.986645 2.239225 -0.020668 -0.007478 -520983.000000 0 0 1
-15.859415 25.669495 -22.984223 37.930444 -1.017369 2.221765 -0.016936 -0.009823 -261319.000000 0 0 1
-14.794715 24.747795 -22.777323 36.744298 -1.031982 2.239395 -0.018502 -0.020295 497993.000000 0 0 1
-15.241815 23.412095 -22.493423 35.866324 -0.993702 2.248680 -0.033145 -0.012430 -1544540.000000 0 0 1
-14.139915 22.441895 -22.165223 34.566935 -1.008561 2.266891 -0.007733 -0.015455 -616092.000000 0 0 1
-13.468215 22.805295 -20.990323 33.794496 -1.037337 2.240963 -0.003804 -0.021013 160160.000000 0 0 1
-12.270415 22.030895 -20.868423 32.732469 -1.062622 2.262104 0.000895 -0.015937 835239.000000 0 0 1
-11.272815 22.532895 -19.742423 32.008921 -1.106923 2.235440 0.009367 -0.024600 293233.000000 0 0 1
-11.725215 22.448595 -18.388723 31.298007 -1.089457 2.198807 0.013111 -0.016533 306868.000000 0 0 1
-12.853015 23.275695 -18.066723 32.145987 -1.066260 2.167624 -0.001649 -0.019304 118810.000000 0 0 1
-13.613415 22.872795 -16.782723 31.466643 -1.033929 2.133352 0.000447 -0.011208 -61241.300000 0 0 1
-13.154615 23.429395 -15.572523 31.056142 -1.059199 2.096049 0.011990 -0.019827 -279655.000000 0 0 1
-14.112115 23.297495 -14.580523 30.895254 -1.026170 2.062280 0.009018 -0.010095 -333730.000000 0 0 1
-13.498815 23.650095 -13.250123 30.283837 -1.052145 2.023648 0.008065 -0.002006 -182061.000000 0 0 1
-13.106515 24.971195 -13.029723 31.066300 -1.087455 2.003599 -0.004672 0.007069 -103831.000000 0 0 1
-12.019815 24.987695 -12.163823 30.279027 -1.122440 1.984195 0.004951 0.007754 -246939.000000 0 0 1
-11.318515 26.372495 -11.918723 31.075284 -1.165392 1.964427 0.005423 0.004532 250987.000000 0 0 1
-10.641315 26.881295 -13.054123 31.721472 -1.193861 1.994921 0.013188 -0.007762 164921.000000 0 0 1
-10.420715 28.250095 -12.923123 32.766848 -1.217408 1.976207 0.005484 0.016111 -686261.000000 0 0 1
-10.144115 28.911795 -14.310923 33.817118 -1.233352 2.007755 0.010612 0.000632 58081.100000 0 0 1
-8.813015 29.227895 -14.695523 33.880636 -1.277939 2.019440 0.007122 -0.004199 229034.000000 0 0 1
-8.019215 28.101895 -15.015923 32.855780 -1.292822 2.045444 0.006651 -0.003294 -509447.000000 0 0 1
-6.597515 28.406795 -15.472623 33.013259 -1.342591 2.058591 0.008409 -0.002656 -81146.000000 0 0 1
-5.738815 29.003695 -14.513523 32.936161 -1.375455 2.027126 0.000148 -0.004487 28991.900000 0 0 1
-4.473115 29.161795 -15.133123 33.157661 -1.418593 2.044740 0.000483 -0.005487 677010.000000 0 0 1
-3.354115 30.028395 -14.443623 33.489892 -1.459559 2.016711 -0.013081 -0.007833 329055.000000 0 0 1
-3.416315 31.423495 -14.679223 34.850923 -1.462503 2.005565 -0.012149 -0.012356 267369.000000 0 0 1
-4.545315 32.118795 -14.141423 35.387240 -1.430214 1.981898 -0.016611 -0.014407 285669.000000 0 0 1
-4.430715 33.674695 -14.310823 36.856695 -1.439974 1.969564 -0.017309 -0.013374 288867.000000 0 0 1
-3.422115 34.210595 -13.468123 36.925141 -1.471097 1.944151 -0.021204 -0.017567 35805.500000 0 0 1
-3.391815 -33.929801 -13.723523 36.756916 1.471162 1.953423 -0.023908 -0.015702 -99702.400000 0 0 1
-2.553915 -33.126401 -12.744823 35.585270 1.493852 1.937081 -0.018415 -0.014007 45748.100000 0 0 1
-3.105515 -33.019601 -11.429623 35.079546 1.477022 1.902675 -0.013836 -0.014837 -396796.000000 0 0 1
-2.159515 -32.393601 -10.626723 34.160447 1.504230 1.887128 -0.019646 -0.009577 -256138.000000 0 0 1
-2.498315 -32.431101 -9.078123 33.770256 1.493914 1.842964 -0.016698 -0.013850 -397675.000000 0 0 1
-1.571415 -31.709901 -8.323923 32.821866 1.521281 1.827206 -0.021004 -0.008402 -464678.000000 0 0 1
-1.818615 -31.843201 -6.948923 32.643289 1.513747 1.785312 -0.015868 -0.013389 -188120.000000 0 0 1
-0.804415 -31.171501 -5.997223 31.753366 1.544996 1.760807 -0.005633 -0.005970 -35216.300000 0 0 1
-1.088415 -31.266901 -4.604823 31.622905 1.536000 1.716933 0.009567 -0.005301 -359466.000000 0 0 1
-0.066715 -30.683801 -3.838423 30.923027 1.568622 1.695246 0.015495 -0.002586 -408162.000000 0 0 1
-0.075715 -30.898101 -2.324923 30.985539 1.568346 1.645899 0.012986 0.007053 -290418.000000 0 0 1
0.080885 -32.223901 -1.934523 32.282019 -1.568286 1.630758 0.003680 0.006444 1172220.000000 0 0 1
1.262085 -32.958301 -2.400123 33.069670 -1.532522 1.643438 0.000774 0.001904 648861.000000 0 0 1
2.599285 -32.663601 -1.709223 32.811409 -1.491386 1.622912 -0.000018 0.002707 -903910.000000 0 0 1
2.665785 -32.986601 -0.333123 33.095819 -1.490157 1.580862 -0.006234 0.003448 1998.290000 0 0 1
3.852385 -32.530601 0.289477 32.759192 -1.452922 1.561960 -0.010842 -0.001025 5183.100000 0 0 1
4.129385 -30.969301 0.464877 31.246848 -1.438240 1.555918 -0.018285 -0.002751 -1071780.000000 0 0 1
4.375485 -30.324701 -0.776323 30.648573 -1.427497 1.596129 -0.016460 -0.012943 113379.000000 0 0 1
4.255585 -28.939801 -0.567923 29.256531 -1.424793 1.590209 0.007263 -0.001465 -309166.000000 0 0 1
3.790485 -28.035701 -1.733923 28.343867 -1.436409 1.632009 0.011427 -0.006812 1161840.000000 0 0 1
2.465885 -28.353601 -2.250423 28.549460 -1.484046 1.649704 0.010083 0.001530 1188050.000000 0 0 1
1.889885 -27.516301 -3.193623 27.765405 -1.502222 1.686073 0.009800 0.004218 26086.000000 0 0 1
2.565785 -27.511801 -4.606423 28.012525 -1.477804 1.735988 0.002470 -0.001255 -52282.400000 0 0 1
2.240885 -28.619801 -5.374623 29.206183 -1.492657 1.755875 -0.003346 -0.004534 10354.700000 0 0 1
2.744685 -28.496001 -6.703323 29.402209 -1.474774 1.800806 0.007897 -0.005168 -573807.000000 0 0 1
2.174885 -29.474401 -7.753623 30.554690 -1.497141 1.827364 -0.003169 -0.002427 -292619.000000 0 0 1
0.819385 -29.162501 -7.983023 30.246512 -1.542707 1.837893 -0.001641 0.002587 -180486.000000 0 0 1
0.481485 -29.137001 -9.398823 30.619186 -1.554273 1.882792 -0.009864 0.010555 -299529.000000 0 0 1
-0.820315 -28.433601 -9.754823 30.071567 1.541954 1.901160 -0.020895 0.004935 -705672.000000 0 0 1
-0.803915 -27.071501 -9.371723 28.659059 1.541109 1.903931 -0.023001 0.007678 -192209.000000 0 0 1
-2.048015 -26.422001 -9.528423 28.162162 1.493439 1.915950 -0.016575 0.002164 1081500.000000 0 0 1
-3.217015 -26.756201 -8.513223 28.261607 1.451136 1.876778 -0.009260 -0.000953 11324.100000 0 0 1
-2.927715 -26.523401 -7.128423 27.620223 1.460859 1.831838 -0.001513 -0.002113 -254421.000000 0 0 1
-2.276015 -27.670701 -6.534423 28.522739 1.488727 1.801944 0.006884 -0.000540 772695.000000 0 0 1
-1.688915 -27.267801 -5.117123 27.795150 1.508937 1.755954 0.007806 0.006179 1214370.000000 0 0 1
-2.790315 -27.265401 -4.173123 27.723689 1.468812 1.721896 0.007268 -0.003280 796080.000000 0 0 1
-2.316315 -27.149001 -2.852823 27.396572 1.485684 1.675116 0.006992 0.006931 1108530.000000 0 0 1
-3.523415 -27.235101 -1.809223 27.521600 1.442141 1.636582 0.008666 0.007918 1040160.000000 0 0 1
-4.444215 -26.170901 -1.814323 26.607497 1.402586 1.639038 0.005626 0.011518 -500664.000000 0 0 1
-5.224015 -26.208401 -0.666923 26.732291 1.374049 1.595747 0.006935 0.011568 -673388.000000 0 0 1
-6.272015 -25.119701 -0.626623 25.898460 1.326114 1.594994 -0.008890 0.009387 -414710.000000 0 0 1
-5.685515 -23.846101 -0.554423 24.520787 1.336741 1.593409 -0.012584 0.011030 387788.000000 0 1 0
-6.458515 -22.907101 0.251377 23.801489 1.295986 1.560235 -0.002222 0.004862 175653.000000 0 1 0
-5.672415 -21.634001 0.494277 22.370753 1.314370 1.548700 -0.009542 0.001107 254390.000000 0 1 0
-4.849515 -21.652701 1.670177 22.251893 1.350464 1.495668 -0.013262 0.002202 219155.000000 0 1 0
-4.164715 -20.450501 1.844677 20.951627 1.369895 1.482638 -0.014666 0.001735 -185595.000000 0 1 0
-3.128615 -20.381201 2.984177 20.834752 1.418480 1.427071 -0.010102 0.006801 59951.100000 0 1 0
-3.779315 -20.197401 4.267677 20.986455 1.385817 1.366014 -0.011100 0.008799 275040.000000 0 1 0
-2.937715 -20.219001 5.393577 21.131229 1.426511 1.312698 -0.005469 0.010460 128819.000000 0 1 0
-2.178015 -21.543701 5.727977 22.398315 1.470041 1.312191 -0.018143 0.002024 643289.000000 0 1 0
-1.237615 -21.972701 4.740477 22.512295 1.514531 1.358635 -0.001940 0.000881 550.145000 0 1 0
-0.425815 -23.074401 5.063377 23.627253 1.552344 1.354819 -0.004432 -0.006269 -871620.000000 0 1 0
0.545485 -23.414701 3.857777 23.736643 -1.547504 1.407548 0.002271 -0.011926 631235.000000 0 1 0
1.672185 -22.577701 3.693477 22.938844 -1.496868 1.409078 -0.010155 -0.014761 -39497.900000 0 1 0
2.589685 -22.787201 4.736877 23.417963 -1.457635 1.367116 0.009052 -0.017335 -2072930.000000 0 1 0
3.876885 -21.989901 4.689777 22.816222 -1.396287 1.363775 0.021125 -0.014555 -659935.000000 0 1 0
4.722285 -22.393001 3.629377 23.171509 -1.362959 1.413518 0.016430 0.004672 -401457.000000 0 1 0
5.937085 -21.699201 3.845677 22.823092 -1.303724 1.401489 0.034922 0.007421 181525.000000 0 1 0
6.602585 -21.295101 2.511577 22.436209 -1.270143 1.458618 0.040912 0.014529 102392.000000 0 1 0
7.349485 -22.197701 1.707777 23.445028 -1.251064 1.497890 0.030862 0.016306 45914.200000 0 1 0
7.082085 -21.831201 0.365377 22.954101 -1.257105 1.554878 0.034698 -0.001011 -100056.000000 0 1 0
7.931885 -22.637601 -0.609823 23.994742 -1.233778 1.596214 0.021144 0.004531 808269.000000 0 1 0
9.240685 -22.049001 -0.744723 23.918681 -1.173936 1.601937 0.013708 0.010254 -97069.400000 0 1 0
9.996185 -22.776401 -1.642323 24.927603 -1.157225 1.636728 0.009904 0.005485 -190839.000000 0 1 0
11.261085 -22.095401 -2.206023 24.897496 -1.099453 1.659517 0.006441 0.009977 -1984.610000 0 1 0
11.078585 -21.027401 -3.062323 23.963816 -1.085889 1.698936 0.012615 0.014437 344771.000000 0 1 0
12.367685 -20.788701 -3.641123 24.461960 -1.034118 1.720200 0.008257 0.010755 586530.000000 0 1 0
12.471985 -19.584001 -4.576423 23.664893 -1.003724 1.765407 0.010584 -0.011872 -177143.000000 0 1 0
12.563085 -18.301601 -3.956323 22.548441 -0.969224 1.747168 0.030300 -0.000827 14363.600000 0 1 0
12.799685 -17.328001 -4.976923 22.110208 -0.934586 1.797838 0.029628 -0.008328 -876295.000000 0 1 0
13.486985 -16.059901 -4.409123 21.430342 -0.872258 1.778018 0.071861 -0.004272 654435.000000 0 1 0
14.808285 -16.144701 -3.883123 22.248940 -0.828547 1.746225 0.042235 0.002134 560943.000000 0 1 0
15.746585 -16.371101 -4.934923 23.244813 -0.804840 1.784727 0.031847 0.010739 -940094.000000 0 1 0
17.231985 -16.162301 -4.607023 24.070437 -0.753377 1.763382 0.020181 0.015410 -71724.200000 0 1 0
17.652485 -17.177901 -3.659723 24.901487 -0.771773 1.718299 0.016489 0.006346 -745790.000000 0 1 0
18.993285 -16.903601 -3.458023 25.659979 -0.727250 1.705971 -0.007765 0.015914 -1427550.000000 0 0 1
19.657385 -17.654901 -2.310223 26.522546 -0.731781 1.658011 -0.000776 0.003405 -733372.000000 0 0 1
21.025385 -17.495901 -2.500423 27.466807 -0.694029 1.661957 -0.014075 0.009956 -416063.000000 0 0 1
21.788085 -18.195901 -1.500223 28.426433 -0.695798 1.623596 -0.018704 0.011138 107652.000000 0 0 1
23.312185 -18.037701 -1.548723 29.516354 -0.658526 1.623290 -0.008746 0.007161 -90143.100000 0 0 1
23.842485 -16.794901 -1.054023 29.182936 -0.613680 1.606922 -0.017710 0.009550 -591030.000000 0 0 1
25.157085 -16.982901 -0.654523 30.359945 -0.593801 1.592357 -0.010552 0.016167 -627488.000000 0 0 1
25.726085 -15.644501 -0.122723 30.109748 -0.546367 1.574872 -0.022321 0.017496 -227375.000000 0 0 1
25.008485 -15.260601 1.033177 29.315145 -0.547898 1.535545 -0.010864 0.019648 160202.000000 0 0 1
25.571785 -14.262301 1.876877 29.340281 -0.508763 1.506783 -0.021398 0.012044 239463.000000 0 0 1
24.563985 -13.821001 2.994477 28.343894 -0.512506 1.464951 -0.019162 0.007431 497296.000000 0 0 1
24.138485 -14.689801 4.060677 28.547256 -0.546692 1.428068 -0.005182 0.007964 290559.000000 0 0 1
25.233485 -15.119701 4.866977 29.816465 -0.539825 1.406831 0.005498 0.012737 384687.000000 0 0 1
24.765585 -15.776501 6.159077 30.002773 -0.567206 1.364043 0.011787 0.013423 386563.000000 0 0 1
23.968685 -16.954101 6.015577 29.968760 -0.615638 1.368695 0.007461 0.017160 -186425.000000 0 0 1
23.008285 -17.093401 7.010977 29.507954 -0.638957 1.330906 0.011878 0.018523 -456430.000000 0 0 1
22.228185 -18.396401 6.804977 29.645025 -0.691355 1.339182 0.017907 0.021772 -255190.000000 0 0 1
22.988585 -19.552001 7.076577 30.997318 -0.704790 1.340469 0.030307 0.022743 -215893.000000 0 0 1
22.218385 -20.723001 7.213977 31.227245 -0.750588 1.337675 0.010701 0.031683 -3835.900000 0 0 1
2.047785 22.929195 -3.189423 23.240349 1.481724 1.708467 0.006601 -0.012889 -299340.000000 0 1 0
2.981585 23.877295 -2.840223 24.229774 1.446568 1.688287 0.007966 -0.009386 -547706.000000 0 1 0
3.342185 24.686495 -3.987623 25.228840 1.436229 1.729520 0.017799 -0.009060 -135751.000000 0 0 1
4.127085 25.867395 -3.465123 26.422756 1.412582 1.702317 0.015314 0.001897 -753448.000000 0 0 1
5.379985 25.553895 -2.969923 26.282432 1.363292 1.684039 0.011735 -0.004914 -865597.000000 0 0 1
5.900785 26.599195 -2.156823 27.331087 1.352491 1.649793 0.005357 0.000643 147267.000000 0 0 1
6.970285 25.985695 -1.199623 26.931029 1.308730 1.615355 -0.002262 -0.012620 710391.000000 0 0 1
8.137285 25.608495 -1.946223 26.940643 1.263129 1.643100 -0.014649 -0.006930 -263453.000000 0 0 1
8.854785 24.599995 -1.306323 26.177728 1.225284 1.620719 -0.026509 -0.001864 -566669.000000 0 0 1
10.152485 24.389495 -2.084523 26.500296 1.176348 1.649538 -0.024848 0.001230 -1012550.000000 0 0 1
11.068185 25.448495 -1.973723 27.821327 1.160549 1.641799 -0.021246 0.006294 854134.000000 0 0 1
12.261385 25.409595 -2.798023 28.351685 1.121206 1.669647 -0.025860 0.006894 1526510.000000 0 0 1
13.366185 24.344095 -2.491123 27.883607 1.068681 1.660256 -0.006146 -0.000680 -306453.000000 0 0 1
12.971485 23.009195 -2.805723 26.562277 1.057456 1.676622 0.006379 -0.004675 -28912.400000 0 0 1
12.978685 22.654395 -4.145223 26.435786 1.050542 1.728250 -0.000242 -0.005399 -1059620.000000 0 0 1
12.251285 21.378795 -4.444923 25.038055 1.050423 1.749269 0.007923 -0.016154 242114.000000 0 0 1
10.849085 21.516795 -4.643923 24.540602 1.103783 1.761179 0.025674 -0.011633 656535.000000 0 1 0
10.034685 20.334895 -4.758723 23.169987 1.112385 1.777651 0.014684 -0.006462 563901.000000 0 1 0
8.529885 20.671995 -4.712423 22.853824 1.179450 1.778485 -0.002388 -0.002417 20277.700000 0 1 0
8.103285 21.169595 -3.451923 22.928819 1.205223 1.721920 0.006490 -0.003924 1572170.000000 0 1 0
6.682085 21.508095 -3.434923 22.782606 1.269573 1.722143 0.005388 -0.001405 1703470.000000 0 1 0
6.118685 22.297195 -2.251523 23.230854 1.302974 1.667868 0.013181 -0.003154 91699.300000 0 1 0
5.657685 21.450395 -1.198423 22.216324 1.312913 1.624766 0.011803 -0.006817 222233.000000 0 1 0
4.755085 22.098095 -0.291023 22.605781 1.358847 1.583671 0.009834 -0.002943 538941.000000 0 1 0
4.412685 21.249295 0.951377 21.723477 1.366044 1.526987 -0.001245 -0.003411 30882.800000 0 1 0
3.510885 21.849695 1.865977 22.208498 1.411475 1.486676 0.002163 -0.000539 328136.000000 0 1 0
3.066885 20.944795 2.897177 21.365483 1.425403 1.434776 0.004315 -0.005580 428286.000000 0 1 0
2.133085 21.618395 3.992377 22.087194 1.472445 1.389042 0.006580 -0.000407 316582.000000 0 1 0
0.855985 21.914795 3.482577 22.206290 1.531756 1.413318 0.010103 0.005781 -145933.000000 0 1 0
-0.041115 22.258295 4.525377 22.713706 -1.568949 1.370219 0.003552 -0.002787 338782.000000 0 1 0
-1.452215 22.606895 4.005977 23.004967 -1.506647 1.395769 0.000152 0.009318 -872735.000000 0 1 0
-2.376215 22.938195 4.926577 23.581314 -1.467572 1.360327 0.005220 0.004292 -303772.000000 0 1 0
-3.652715 22.931595 4.239677 23.604560 -1.412836 1.390204 0.005876 0.008326 1098780.000000 0 1 0
-4.869115 23.228495 5.162077 24.288234 -1.364170 1.356629 0.014851 -0.004558 -36965.500000 0 1 0
-5.039515 24.560295 5.487177 25.665423 -1.368416 1.355337 0.017715 0.002868 -204951.000000 0 0 1
-5.959315 24.729995 6.523077 26.260934 -1.334329 1.319774 0.026802 -0.004495 -199942.000000 0 0 1
-6.224115 26.183995 7.034777 27.817788 -1.337421 1.315132 0.027524 -0.011042 -252628.000000 0 0 1
-5.155815 26.764895 7.745777 28.336180 -1.380494 1.293919 0.025892 -0.014095 -168052.000000 0 0 1
-5.401715 28.088395 8.225977 29.762446 -1.380805 1.290763 0.035177 -0.019717 -252799.000000 0 0 1
-5.613215 29.252595 7.208177 30.646049 -1.381213 1.333364 0.026061 -0.023259 -705927.000000 0 0 1
-6.917015 29.319795 6.754377 30.872595 -1.339116 1.350230 0.030362 -0.022771 -1258060.000000 0 0 1
-7.135915 30.382895 5.892777 31.761084 -1.340111 1.384181 0.028431 -0.021739 769655.000000 0 0 1
-8.655615 30.550095 5.457477 32.218194 -1.294707 1.400584 0.027870 -0.018776 1290300.000000 0 0 1
-9.439515 31.140695 6.479877 33.178851 -1.276475 1.374232 0.025249 -0.012297 -119189.000000 0 0 1
-9.926415 30.178195 7.433277 32.626842 -1.253017 1.340951 0.010795 -0.004959 -703298.000000 0 0 1
-10.905215 30.698695 8.484277 33.664767 -1.229466 1.316027 -0.001885 -0.008150 21947.000000 0 0 1
-10.221515 31.499195 9.468577 34.443180 -1.257016 1.292306 0.012951 -0.018707 156666.000000 0 0 1
-11.082615 31.929095 10.469477 35.382219 -1.236707 1.270402 0.009065 -0.006896 -111246.000000 0 0 1
-10.236915 32.300195 11.695977 35.845403 -1.263880 1.238421 0.014635 -0.008894 174146.000000 0 0 1
-9.566815 33.535595 11.684077 36.778768 -1.292904 1.247509 0.014786 -0.011156 333113.000000 0 0 1
-8.943015 33.920795 12.904777 37.378218 -1.313018 1.218293 0.019966 -0.010164 -114441.000000 0 0 1
-8.484715 -34.139601 12.981177 37.496849 1.327202 1.217285 0.013793 -0.006245 -379524.000000 0 0 1
-9.523515 -33.263501 13.288477 37.064018 1.291950 1.204106 0.015051 0.000562 50478.900000 0 0 1
-8.912715 -32.036201 13.632577 35.938862 1.299450 1.181728 0.028660 0.007598 576194.000000 0 0 1
-9.881615 -31.106501 14.434677 35.687822 1.263208 1.154396 0.021451 0.003898 298927.000000 0 0 1
-10.152515 -31.368601 15.801677 36.561670 1.257784 1.123874 0.021752 0.003122 -526253.000000 0 0 1
-9.070215 -31.081101 16.621677 36.394832 1.286857 1.096509 0.027745 0.009049 -428533.000000 0 0 1
-9.269915 -31.426301 18.120777 37.442039 1.283958 1.065612 0.015902 -0.000145 -189786.000000 0 0 1
-9.964815 -30.476801 18.849577 37.194616 1.254789 1.039348 0.040010 -0.000456 496556.000000 0 0 1
-10.919715 -31.066901 19.776377 38.412206 1.232794 1.029968 0.035029 -0.003738 528322.000000 0 0 1
-11.275815 -30.157101 21.005877 38.442706 1.212988 0.992712 0.052079 -0.010414 249736.000000 0 0 1
-10.162815 -29.880701 21.846777 38.385163 1.242957 0.965329 0.047051 -0.014715 443830.000000 0 0 1
-10.598015 -29.352001 23.099277 38.825694 1.224297 0.933595 0.038058 -0.011296 333750.000000 0 0 1
-9.486515 -29.313501 24.187877 39.170508 1.257811 0.905233 0.020721 -0.013489 370720.000000 0 0 1
-9.086115 -30.527001 24.792177 40.362202 1.281504 0.909371 0.027343 -0.012901 321599.000000 0 0 1
-7.737415 -30.513701 25.247577 40.353360 1.322459 0.894816 0.010227 -0.005497 382946.000000 0 0 1
-7.365115 -31.797401 26.102077 41.792799 1.343184 0.896229 0.022193 -0.004999 -508877.000000 0 0 1
-7.137315 -33.075401 25.517877 42.380249 1.358266 0.924646 0.031144 -0.003243 354274.000000 0 0 1
-6.996515 -34.038501 26.582277 43.751437 1.368073 0.917793 0.023368 -0.003505 -324501.000000 0 0 1
-6.912915 34.073995 25.964677 43.393433 -1.370634 0.929350 0.023844 -0.007809 -25333.800000 0 0 1
-5.648015 33.893095 25.349377 42.699331 -1.405672 0.935183 0.025849 -0.004150 225035.000000 0 0 1
-5.380715 32.688895 24.640177 41.287459 -1.407655 0.931295 0.030361 -0.001273 31631.800000 0 0 1
-6.383215 32.355995 23.487477 40.488485 -1.376017 0.951942 0.033255 -0.001187 584994.000000 0 0 1
-7.560215 31.687595 23.944477 40.430169 -1.336589 0.936957 0.035651 -0.011193 370974.000000 0 0 1
-8.461815 31.598195 22.863877 39.909963 -1.309142 0.960773 0.042164 -0.001969 212849.000000 0 0 1
-9.506415 30.451995 22.924377 39.283877 -1.268206 0.947694 0.041071 -0.005969 578505.000000 0 0 1
-8.894615 29.232795 22.499177 37.945796 -1.275428 0.936105 0.026171 0.003358 -245415.000000 0 0 1
-9.710715 28.187995 22.859377 37.568766 -1.239031 0.916668 0.010192 0.010017 -696080.000000 0 0 1
-9.187515 26.761895 22.569577 36.193857 -1.240098 0.897489 0.006063 0.010615 -250810.000000 0 0 1
-8.004115 26.498895 23.304377 36.184960 -1.277456 0.871035 0.006919 0.005995 128111.000000 0 0 1
-7.481115 25.244395 22.922077 34.909428 -1.282694 0.854474 0.008628 0.001662 831662.000000 0 0 1
-6.063315 25.001195 23.578377 34.896467 -1.332869 0.828928 -0.003643 0.003443 1100740.000000 0 0 1
-4.988615 25.540595 22.826577 34.615905 -1.377904 0.850743 -0.008345 0.002638 -203183.000000 0 0 1
-3.735915 25.228095 23.381777 34.599441 -1.423779 0.828767 0.005661 0.003419 26576.700000 0 0 1
-2.583715 25.605895 22.423577 34.134356 -1.470234 0.854069 0.003020 0.004850 -226631.000000 0 0 1
-2.422915 24.672195 21.372977 32.732123 -1.472906 0.859302 0.006022 0.008414 146123.000000 0 0 1
-1.558615 25.195295 20.382677 32.445118 -1.509014 0.891533 0.005792 0.012020 -74764.500000 0 0 1
-1.029415 24.245495 19.305077 31.009510 -1.528364 0.898795 0.003050 0.009997 -855817.000000 0 0 1
-0.034215 23.412395 19.770977 30.643645 -1.569335 0.869524 0.009119 0.003620 -441797.000000 0 0 1
0.255185 22.385695 18.827677 29.251767 1.559397 0.871548 0.008040 0.003963 -97125.300000 0 0 1
1.423185 21.451795 19.254077 28.860431 1.504550 0.840427 0.007343 0.005935 -372867.000000 0 0 1
2.638385 22.149395 19.248577 29.462934 1.452237 0.858841 0.005960 0.002184 -725250.000000 0 0 1
3.615085 21.203595 19.663977 29.143323 1.401926 0.830193 0.013857 0.006901 -122184.000000 0 0 1
5.026785 21.720595 19.346177 29.518255 1.343371 0.856088 0.013155 0.004760 -88750.600000 0 0 1
5.960885 20.719595 18.990977 28.731359 1.290668 0.848667 0.022118 0.006323 48967.100000 0 0 1
7.272185 21.254195 18.959977 29.395684 1.241129 0.869784 0.016651 0.008751 486165.000000 0 0 1
8.412185 20.214495 18.657577 28.766228 1.176449 0.865062 0.010158 0.014578 386390.000000 0 0 1
8.791085 19.443395 19.786477 29.100403 1.146166 0.823118 0.015196 0.008197 -138415.000000 0 0 1
9.830985 18.535895 19.501277 28.644851 1.083145 0.821949 0.012412 0.000645 44669.100000 0 0 1
10.240985 17.805295 20.767677 29.209634 1.048838 0.779895 0.026546 -0.008782 -402374.000000 0 0 1
9.298985 16.813795 21.102477 28.539260 1.065609 0.738589 0.024281 -0.005857 43872.600000 0 0 1
9.775985 16.027695 22.210477 29.081991 1.023098 0.701741 0.035192 -0.007925 -133541.000000 0 0 1
8.731085 15.142295 22.908577 28.815340 1.047759 0.651767 0.025001 -0.003215 36038.300000 0 0 1
7.782685 15.890695 23.705577 29.581054 1.115371 0.641203 0.026090 0.003803 759902.000000 0 0 1
6.599085 15.157395 24.036177 29.172459 1.160175 0.602478 0.015671 -0.001207 691676.000000 0 0 1
6.757385 13.953895 24.989777 29.408543 1.119816 0.555294 0.018280 0.004610 -492264.000000 0 0 1
7.493285 14.358595 26.128677 30.741281 1.089808 0.554898 0.020298 0.006863 -232787.000000 0 0 1
7.769985 13.198995 26.931877 30.982449 1.038742 0.517088 0.019477 0.003574 -288904.000000 0 0 1
8.577985 13.638395 28.198977 32.477222 1.009356 0.519093 0.004783 0.014077 828886.000000 0 0 1
9.943985 14.040795 27.998377 32.862378 0.954574 0.551024 0.013175 0.014922 934290.000000 0 0 1
10.074585 15.298695 27.247077 32.832157 0.988451 0.591886 0.014110 0.015402 -1326610.000000 0 0 1
11.346985 15.331595 26.426377 32.590877 0.933658 0.625190 0.020124 0.014008 -521228.000000 0 0 1
11.233385 14.465195 25.283877 31.220270 0.910500 0.626892 0.018327 0.010643 -340692.000000 0 0 1
12.421685 14.251995 24.574877 31.005519 0.853909 0.655740 0.019585 0.015587 -514887.000000 0 0 1
12.258185 13.090995 23.583977 29.628385 0.818240 0.650151 0.010996 0.010638 -27460.400000 0 0 1
12.100985 11.807395 24.154977 29.484086 0.773119 0.610686 0.014655 0.010794 612706.000000 0 0 1
10.761485 11.517395 24.569577 29.191164 0.819315 0.570412 0.021397 0.010685 253136.000000 0 0 1
10.546785 10.170595 25.233677 29.179002 0.767242 0.526066 0.010517 0.009751 -68092.900000 0 0 1
10.635985 9.128395 24.294677 28.047872 0.709267 0.523277 0.012914 0.009472 151686.000000 0 0 1
10.412385 7.915095 24.895977 28.122520 0.649973 0.483726 0.015004 0.005369 -24226.800000 0 0 1
10.428685 6.716795 23.861277 26.892998 0.572195 0.479410 0.013279 0.005017 -1276260.000000 0 0 1
11.728285 6.482795 23.501177 27.053366 0.504951 0.518231 0.012713 0.005503 -890738.000000 0 0 1
11.869785 5.531695 22.410077 25.955789 0.436106 0.528838 0.013184 -0.003524 -16498.700000 0 0 1
11.586985 4.070995 22.871677 25.960447 0.337870 0.492782 0.001968 -0.005890 -290771.000000 0 0 1
12.579085 3.605195 23.754977 27.120651 0.279121 0.503498 -0.002656 -0.000333 317878.000000 0 0 1
12.189085 2.362795 24.372977 27.353219 0.191471 0.471152 -0.011569 0.001374 804754.000000 0 0 1
13.405485 1.699495 25.176477 28.573594 0.126103 0.492592 -0.020893 0.007819 726876.000000 0 0 1
14.389085 1.276195 24.288177 28.259334 0.088460 0.536556 -0.002819 0.003501 -948330.000000 0 0 1
15.645085 1.154795 24.847977 29.385782 0.073678 0.563149 0.002041 0.001487 -1127720.000000 0 0 1
16.589485 0.338695 24.024477 29.197623 0.020413 0.604436 0.012401 -0.004629 -310800.000000 0 0 1
16.293885 -1.030805 24.165177 29.163488 -0.063179 0.594175 0.002061 -0.001791 651147.000000 0 0 1
17.455385 -1.703505 23.690077 29.475619 -0.097284 0.637279 0.023831 0.004379 256855.000000 0 0 1
17.606585 -3.232605 23.947177 29.898308 -0.181580 0.641909 0.020843 0.013102 265086.000000 0 0 1
16.734285 -4.067705 23.154777 28.856996 -0.238452 0.639495 0.012481 0.009872 559664.000000 0 0 1
16.839485 -5.438205 23.582277 29.483319 -0.312371 0.643749 0.015653 0.014358 66543.300000 0 0 1
16.066485 -6.446405 22.695677 28.544383 -0.381569 0.651622 0.006270 0.011470 48143.400000 0 0 1
16.650985 -6.628305 21.406177 27.917989 -0.378844 0.697030 0.000461 0.009181 25079.000000 0 0 1
15.911585 -7.503005 20.628777 27.111253 -0.440624 0.706107 0.009919 0.003221 -377174.000000 0 0 1
16.178285 -8.998305 20.866477 27.894735 -0.507588 0.725687 0.013594 0.001875 42237.600000 0 0 1
15.743585 -9.615105 22.098377 28.786263 -0.548273 0.695598 0.008351 0.004540 709080.000000 0 0 1
16.738785 -10.553105 22.593077 30.033349 -0.562515 0.719301 0.007387 0.001765 523811.000000 0 0 1
16.176685 -11.283705 23.803777 30.913216 -0.609066 0.691925 0.019538 0.010662 -519608.000000 0 0 1
15.211485 -12.204705 23.467677 30.513537 -0.676163 0.693379 0.030456 0.001388 -477722.000000 0 0 1
14.994385 -13.141505 24.522277 31.604949 -0.719638 0.682656 0.024347 0.015249 59272.300000 0 0 1
13.867585 -14.172805 24.232077 31.310890 -0.796283 0.685791 0.025318 0.011542 -175576.000000 0 0 1
14.160685 -15.154405 23.314077 31.204602 -0.819283 0.727054 0.018200 0.011019 128347.000000 0 0 1
13.043485 -15.960005 22.933577 30.835097 -0.885619 0.732135 0.015546 0.017850 119511.000000 0 0 1
13.219085 -16.893605 21.732277 30.535716 -0.906823 0.778881 0.002032 0.006545 -61658.200000 0 0 1
14.131785 -17.941505 22.046277 31.743397 -0.903626 0.803050 0.015177 0.007462 84766.800000 0 0 1
14.283785 -18.722705 20.870577 31.466604 -0.919082 0.845628 0.006610 0.011119 -19329.100000 0 0 1
-22.729615 -32.460501 26.803279 47.840729 0.959920 0.976096 -0.018222 -0.008737 -236048.000000 0 0 1
-23.224315 -33.466501 27.669259 49.243918 0.964138 0.974137 -0.008438 -0.011119 -730853.000000 0 0 1
-24.293515 -34.082701 27.056179 49.838160 0.951544 0.996933 -0.004075 -0.012394 -809111.000000 0 0 1
-25.131605 34.500695 27.891849 50.988732 -0.941239 0.991996 -0.001490 -0.009389 -242592.000000 0 0 1
-25.913635 -34.413201 28.947919 51.901512 0.925369 0.979127 0.018550 -0.013073 302909.000000 0 0 1
-25.199205 -34.106101 30.108729 52.007323 0.934471 0.953377 0.006610 -0.009382 -48983.300000 0 0 1
-26.097475 -33.324101 31.124579 52.538684 0.906420 0.936746 0.008404 -0.015617 234399.000000 0 0 1
-26.412505 -31.999101 30.746089 51.641891 0.880750 0.933069 0.012100 -0.008183 66281.100000 0 0 1
-27.139255 -31.357201 31.774859 52.244186 0.857380 0.917007 -0.002120 0.002219 -161730.000000 0 0 1
-27.400915 -29.889301 31.439029 51.308801 0.828806 0.911271 -0.005473 0.002742 -349274.000000 0 0 1
-28.125005 -29.794101 30.251869 50.930148 0.814208 0.934790 -0.006370 0.015128 191049.000000 0 0 1
-28.756065 -28.508901 30.118039 50.465483 0.781082 0.931283 -0.002663 0.014812 -200077.000000 0 0 1
-29.226275 -28.185801 28.736029 49.743079 0.767277 0.954902 -0.015810 0.004310 -516051.000000 0 0 1
-28.320615 -27.951201 27.696099 48.480932 0.778833 0.962734 -0.019064 0.002139 -360235.000000 0 0 1
-27.746395 -26.648501 27.738269 47.428015 0.765217 0.946101 -0.008776 0.007646 567057.000000 0 0 1
-26.763695 -26.364301 26.515959 45.983343 0.777881 0.956183 -0.026191 0.012202 484025.000000 0 0 1
-27.482065 -26.440501 25.309739 45.770590 0.766085 0.984872 -0.026519 0.009947 118659.000000 0 0 1
-26.646295 -26.390401 24.156019 44.609322 0.780573 0.998574 -0.012020 0.021429 -595162.000000 0 0 1
-27.332265 -26.794601 22.890819 44.598128 0.775465 1.031807 -0.027111 0.023817 -601013.000000 0 0 1
-27.895705 -25.666901 22.267019 43.963398 0.743811 1.039687 -0.025691 0.018184 -177987.000000 0 0 1
-28.434405 -26.105101 21.060819 43.972148 0.742716 1.071329 -0.029064 0.025737 -476314.000000 0 0 1
-28.948025 -24.948601 20.158419 43.206281 0.711328 1.085396 -0.034349 0.018594 199035.000000 0 0 1
-30.217845 -24.450201 20.541619 43.964629 0.680284 1.084640 -0.021374 0.012116 147687.000000 0 0 1
-30.762405 -23.540001 19.603119 43.413587 0.653171 1.102302 -0.022210 0.007877 1065450.000000 0 0 1
-32.297745 -23.222001 19.820619 44.443927 0.623363 1.108540 -0.019048 0.011271 1373650.000000 0 0 1
-33.175225 -24.319901 19.526419 45.533880 0.632580 1.127596 -0.016987 0.011822 -30472.000000 0 0 1
-34.505244 -23.884201 19.390219 46.228212 0.605465 1.137962 -0.016042 0.011782 -259511.000000 0 0 1
34.398122 -24.984401 18.711419 46.449632 -0.628180 1.156187 -0.016458 0.004260 -364225.000000 0 0 1
34.085979 -26.010701 19.669419 47.173050 -0.651827 1.140695 -0.023304 0.005075 -59975.000000 0 0 1
33.564128 -27.102101 18.986519 47.133454 -0.679281 1.156195 -0.018186 -0.000027 -165573.000000 0 0 1
33.249648 -28.346601 19.910619 48.015640 -0.705966 1.143217 -0.012861 -0.003693 -459151.000000 0 0 1
32.082078 -28.324601 20.675619 47.529191 -0.723275 1.120748 -0.005064 -0.002796 -674095.000000 0 0 1
32.176438 -27.713101 21.904019 47.782060 -0.711010 1.094585 0.004176 -0.012383 -360841.000000 0 0 1
30.904448 -27.533601 22.733319 47.222748 -0.727780 1.068538 0.009604 -0.010772 -237240.000000 0 0 1
29.796498 -27.033101 22.031719 45.869560 -0.736810 1.069785 0.020167 -0.008059 -451801.000000 0 0 1
28.769768 -26.634201 22.895219 45.401226 -0.746872 1.042241 0.023793 -0.007231 -151349.000000 0 0 1
27.816118 -25.515701 22.368119 43.876192 -0.742291 1.035843 0.018819 0.001016 -186786.000000 0 0 1
28.299048 -24.240601 21.948319 43.245481 -0.708306 1.038482 0.020976 0.007942 -105398.000000 0 0 1
29.191898 -23.611001 22.885519 43.970368 -0.680096 1.023388 0.018752 -0.003210 -4023.090000 0 0 1
30.237028 -22.743001 22.181419 43.858150 -0.644880 1.040541 0.016310 0.005457 -23054.800000 0 0 1
29.734258 -21.459801 21.771219 42.645459 -0.625155 1.035011 0.021384 -0.004204 343636.000000 0 0 1
30.785178 -20.541601 21.466219 42.784146 -0.588411 1.045195 0.014317 -0.001566 -205593.000000 0 0 1
30.150938 -19.102201 21.326319 41.578661 -0.564726 1.032219 0.017088 0.004538 501925.000000 0 0 1
29.761618 -18.428001 22.542419 41.635391 -0.554408 0.998666 0.001663 -0.003855 782784.000000 0 0 1
28.627738 -19.036301 23.208919 41.479900 -0.586820 0.976987 0.013856 0.000156 323082.000000 0 0 1
28.518058 -18.687501 24.676179 42.088195 -0.580083 0.944316 0.001757 0.001934 -223835.000000 0 0 1
27.987468 -17.444901 24.896929 41.321666 -0.557384 0.924148 -0.007151 0.002482 -31254.300000 0 0 1
28.203288 -17.115701 26.236829 42.151440 -0.545455 0.898937 -0.006634 -0.003831 -275447.000000 0 0 1
27.876498 -15.650201 26.472829 41.507092 -0.511563 0.879170 -0.018537 0.004371 -20513.200000 0 0 1
26.484868 -15.384401 26.498159 40.500377 -0.526238 0.857580 -0.004165 0.003933 317291.000000 0 0 1
26.057488 -14.149901 27.133169 40.192304 -0.497473 0.829718 -0.014428 0.000451 72727.200000 0 0 1
26.463968 -12.806801 26.406159 39.517604 -0.450712 0.838993 -0.009996 0.004383 -351251.000000 0 0 1
25.907398 -12.599601 25.099199 38.208809 -0.452654 0.854102 -0.013105 0.007205 23794.800000 0 0 1
26.735998 -11.871301 24.212209 37.973313 -0.417869 0.879403 -0.011767 0.005120 711330.000000 0 0 1
27.920058 -12.732701 23.616919 38.722219 -0.427867 0.914854 -0.003939 0.006110 563290.000000 0 0 1
27.403408 -13.590301 22.602619 38.033163 -0.460390 0.934417 0.002826 0.001892 204565.000000 0 0 1
28.273218 -14.690701 22.467719 38.987049 -0.479203 0.956619 -0.004454 -0.001539 -235623.000000 0 0 1
27.782098 -15.752601 21.423819 38.457372 -0.515805 0.979931 0.016348 -0.006077 -162619.000000 0 0 1
27.909518 -15.285401 20.067019 37.620074 -0.501058 1.008166 0.007684 -0.009982 -70948.800000 0 0 1
27.603918 -16.347601 19.152819 37.363764 -0.534679 1.032581 0.012616 -0.013348 -210370.000000 0 0 1
28.010248 -16.128501 17.636119 36.820311 -0.522441 1.071306 0.016237 -0.014636 539990.000000 0 0 1
27.220408 -16.823301 16.645819 36.070173 -0.553579 1.091129 0.015342 -0.016153 -314195.000000 0 0 1
25.855208 -16.574801 16.598119 34.910076 -0.570066 1.075317 0.011173 -0.012437 -917298.000000 0 0 1
25.376648 -15.781701 15.381919 33.610115 -0.556366 1.095438 0.015223 -0.020586 -444383.000000 0 0 1
25.551828 -16.429301 14.087919 33.485629 -0.571424 1.136563 0.022858 -0.019452 58386.100000 0 0 1
24.506588 -17.320601 13.758019 33.013015 -0.615257 1.140934 0.009894 -0.026317 -322679.000000 0 0 1
24.723718 -18.046801 12.441519 33.041499 -0.630538 1.184735 0.034098 -0.016963 -211501.000000 0 0 1
24.515288 -17.315701 11.262119 32.057264 -0.614957 1.211824 0.023004 -0.021340 -218657.000000 0 0 1
24.388488 -18.130501 10.153419 32.040683 -0.639266 1.248346 0.016479 -0.011455 -193102.000000 0 0 1
25.681938 -18.479301 9.372119 32.998229 -0.623723 1.282813 0.017305 -0.000420 41285.200000 0 0 1
26.397798 -19.334301 10.230219 34.282887 -0.632155 1.267774 0.031206 0.005957 -847014.000000 0 0 1
27.775068 -19.348701 9.927019 35.275663 -0.608455 1.285530 0.035343 0.013111 -53763.200000 0 0 1
28.591278 -20.161701 10.924519 36.651064 -0.614187 1.268128 0.041028 0.001897 -326555.000000 0 0 1
28.657488 -19.591701 12.223519 36.803544 -0.599669 1.232237 0.043008 -0.010910 -378.551000 0 0 1
28.990978 -20.463601 13.262719 37.883183 -0.614649 1.213124 0.022758 -0.001698 -111307.000000 0 0 1
28.990198 -19.760101 14.655319 38.021988 -0.598279 1.175108 0.033174 0.002794 180968.000000 0 0 1
28.996628 -20.677801 15.742919 38.938611 -0.619471 1.154582 0.033134 0.008465 -118172.000000 0 0 1
28.727758 -20.044401 16.992419 38.933333 -0.609205 1.119148 0.039001 0.001151 166795.000000 0 0 1
28.574238 -21.157901 18.104519 39.898841 -0.637363 1.099816 0.031140 0.007010 240730.000000 0 0 1
27.379148 -21.885801 17.908819 39.361553 -0.674351 1.098444 0.022896 0.011775 -344124.000000 0 0 1
27.193358 -22.913401 18.859019 40.251277 -0.700188 1.083168 0.017820 0.008661 1044050.000000 0 0 1
25.801718 -23.648301 18.761319 39.710929 -0.741878 1.078731 0.018385 0.015450 1335050.000000 0 0 1
24.621988 -22.871801 18.905319 38.558692 -0.748564 1.058363 0.021540 0.019060 76219.700000 0 0 1
23.468488 -23.628501 18.670419 38.179321 -0.788796 1.059831 0.005053 0.020036 -13731.000000 0 0 1
22.194588 -23.289801 19.473119 37.606076 -0.809472 1.026497 -0.003917 0.021466 -19732.300000 0 0 1
21.751188 -21.983601 19.070019 36.332610 -0.790712 1.018230 -0.002902 0.018224 220437.000000 0 0 1
20.678788 -21.432701 19.855019 35.793781 -0.803299 0.982787 -0.002417 0.014526 496033.000000 0 0 1
20.928488 -21.075601 21.345819 36.576312 -0.788900 0.947645 -0.014387 0.022724 -320688.000000 0 0 1
21.079688 -22.228801 22.124119 37.788219 -0.811925 0.945328 0.002701 0.021373 -15076.500000 0 0 1
21.653788 -21.938001 23.400319 38.700612 -0.791918 0.921470 0.002098 0.013494 114005.000000 0 0 1
21.864288 -23.199501 24.278139 40.071087 -0.815019 0.919929 0.015813 0.010085 -831599.000000 0 0 1
20.719988 -23.698301 24.926809 40.153122 -0.852349 0.901041 0.020086 0.013915 -100218.000000 0 0 1
21.032888 -24.684601 25.883039 41.492694 -0.865105 0.897204 0.021367 0.019624 356240.000000 0 0 1
19.727388 -25.228101 26.558479 41.605045 -0.907152 0.878447 0.041796 0.012172 455612.000000 0 0 1
19.033488 -26.167701 25.781719 41.372930 -0.941939 0.898027 0.031193 0.013151 -111448.000000 0 0 1
17.987788 -26.768901 26.501179 41.742629 -0.979134 0.882955 0.033497 0.003578 -202315.000000 0 0 1
17.181488 -27.807501 25.629779 41.537287 -1.017339 0.905833 0.044556 0.001586 91286.400000 0 0 1
16.559988 -27.190701 24.498809 40.171621 -1.023763 0.914920 0.037185 -0.002155 355895.000000 0 0 1
16.109288 -28.192401 23.606919 40.144829 -1.051668 0.942158 0.046681 -0.006759 -97258.700000 0 0 1
15.108388 -27.625201 22.554819 38.731576 -1.070332 0.949196 0.032795 -0.014538 128625.000000 0 0 1
13.803188 -27.354001 23.030619 38.329868 -1.103465 0.926228 0.014944 -0.012316 -84667.700000 0 0 1
13.207488 -26.594301 22.015319 36.964427 -1.109850 0.932807 0.000350 -0.012508 1019140.000000 0 0 1
11.757088 -26.057301 22.384619 36.308171 -1.146944 0.906485 0.010623 -0.009663 1480830.000000 0 0 1
10.684988 -26.963401 22.185419 36.515569 -1.193503 0.917811 0.007099 -0.017116 3940.220000 0 0 1
9.442888 -26.287601 22.224219 35.694846 -1.225936 0.898714 0.008302 -0.007267 694330.000000 0 0 1
8.210488 -27.233701 21.996319 35.957262 -1.277980 0.912544 0.002412 -0.007612 294919.000000 0 0 1
8.087288 -27.793301 20.708019 35.590643 -1.287635 0.949808 0.004339 -0.006327 -905232.000000 0 0 1
6.840488 -28.331301 20.451319 35.604935 -1.333884 0.958931 -0.019116 -0.001816 -814239.000000 0 0 1
6.695388 -29.360501 19.357419 35.799119 -1.346590 0.999500 -0.008172 -0.013743 -78949.700000 0 0 1
7.100088 -30.650901 19.795119 37.171706 -1.343167 1.009207 0.002571 -0.012762 187397.000000 0 0 1
7.273888 -31.500101 18.687519 37.341521 -1.343858 1.046679 -0.025874 -0.010599 -323504.000000 0 0 1
8.147488 -32.712401 18.952819 38.674179 -1.326699 1.058633 -0.022309 -0.008570 -727891.000000 0 0 1
7.522088 -33.720601 19.793419 39.817587 -1.351319 1.050540 -0.016024 -0.007964 895682.000000 0 0 1
8.441388 34.697895 20.089819 40.973184 1.332150 1.058344 -0.016337 -0.009176 626096.000000 0 0 1
7.781688 33.593095 20.971619 40.359132 1.343166 1.024384 -0.000081 -0.008506 -96323.100000 0 0 1
6.802888 32.765795 20.412719 39.198925 1.366083 1.023071 0.000876 -0.008922 -210330.000000 0 0 1
6.907788 31.579795 21.191319 38.653241 1.355447 0.990536 -0.004669 -0.017452 -263791.000000 0 0 1
6.005088 30.398995 20.782719 37.310607 1.375765 0.980004 -0.000875 -0.014277 915964.000000 0 0 1
4.628388 30.723995 21.090219 37.552406 1.421277 0.974453 -0.004644 -0.010231 652499.000000 0 0 1
3.813988 29.675695 20.633919 36.344904 1.442975 0.967056 0.000232 -0.003276 89479.800000 0 0 1
2.443588 29.492395 21.327119 36.477644 1.488130 0.946332 -0.005801 -0.000581 -32240.600000 0 0 1
2.465388 29.077795 22.686119 36.962905 1.486213 0.909990 -0.011543 -0.000896 -639166.000000 0 0 1
1.213288 28.704595 23.162619 36.904374 1.528553 0.892280 -0.017320 0.006801 -626520.000000 0 0 1
1.177088 28.358295 24.624679 37.575967 1.529312 0.856176 -0.008810 0.004174 -427524.000000 0 0 1
1.388888 29.361295 25.597919 38.977790 1.523528 0.854321 -0.014449 0.003195 157659.000000 0 0 1
1.272288 28.839795 26.899299 39.457887 1.526709 0.820683 -0.010618 0.008781 -510209.000000 0 0 1
2.463388 28.080495 27.481899 39.367973 1.483294 0.798087 -0.008162 0.003018 -652836.000000 0 0 1
2.793088 26.843495 26.927149 38.124086 1.467119 0.786535 -0.000278 0.004543 140917.000000 0 0 1
3.720388 26.186295 27.773139 38.352453 1.429667 0.760987 0.004027 0.006059 82660.800000 0 0 1
4.281288 24.884395 27.130809 37.062695 1.400417 0.749507 0.004944 0.013126 -404648.000000 0 0 1
3.313488 23.890895 26.942369 36.161379 1.432983 0.730173 0.015147 0.012539 -207356.000000 0 0 1
3.839988 22.627595 26.682629 35.195402 1.402694 0.710358 0.026694 0.013776 172587.000000 0 0 1
2.631588 21.677795 26.504189 34.341289 1.449992 0.689148 0.021172 0.014578 -1244.100000 0 0 1
2.988088 20.319595 26.577929 33.588703 1.424788 0.657904 0.023267 0.023658 -27632.500000 0 0 1
3.664288 19.765295 25.467179 32.444894 1.387487 0.668203 0.029690 0.016943 -384576.000000 0 0 1
4.201188 18.339895 25.798189 31.930367 1.345608 0.630129 0.024527 0.015293 573083.000000 0 0 1
5.228688 18.220195 26.818019 32.840841 1.291334 0.615291 0.018087 0.017263 1066930.000000 0 0 1
6.511288 18.366495 26.193379 32.646870 1.230101 0.639617 0.015548 0.015260 -312511.000000 0 0 1
7.746388 18.329995 27.104009 33.624732 1.170954 0.633309 0.014270 0.015652 -109174.000000 0 0 1
7.943188 19.473695 27.928919 34.962031 1.183504 0.645439 0.012125 0.012139 -11340.100000 0 0 1
8.363088 20.613495 27.256079 35.181690 1.185378 0.684519 0.011364 0.009795 -644557.000000 0 0 1
8.925288 21.774795 28.043379 36.609201 1.181793 0.698170 0.003406 0.016376 -192930.000000 0 0 1
10.152588 21.471695 28.663679 37.225197 1.129115 0.691943 0.010840 0.009966 -188756.000000 0 0 1
10.481788 22.336495 29.714509 38.623037 1.132036 0.692978 0.013819 -0.003577 4881.810000 0 0 1
11.760188 21.930495 30.455859 39.329480 1.078572 0.685066 0.013528 -0.008360 48531.600000 0 0 1
13.020588 22.155395 29.869759 39.403043 1.039475 0.710467 -0.001560 -0.008138 116154.000000 0 0 1
14.054788 21.629395 30.712739 40.107857 0.994561 0.698584 -0.009836 0.001187 583690.000000 0 0 1
15.443388 21.722195 30.038179 40.157742 0.952759 0.725746 -0.009220 -0.005535 133835.000000 0 0 1
15.957888 23.087795 29.911029 41.016706 0.966012 0.753585 0.001402 -0.020657 33310.200000 0 0 1
17.260688 23.052795 29.381259 41.141477 0.928098 0.775385 -0.017642 -0.000678 -200655.000000 0 0 1
-8.619415 16.603695 4.730877 19.296586 -1.091965 1.323105 0.004194 -0.011417 -190248.000000 0 1 0
-8.494015 17.919295 5.197277 20.500271 -1.128152 1.314476 0.001545 -0.007786 651504.000000 0 1 0
-7.148215 18.184595 5.620877 20.331521 -1.196259 1.290686 -0.004714 -0.000893 488558.000000 0 1 0
-6.908315 19.704295 5.917877 21.702657 -1.233588 1.294619 -0.007118 0.002693 -184854.000000 0 1 0
-6.822315 20.696495 4.906577 22.337489 -1.252377 1.349334 -0.013608 -0.001709 236246.000000 0 1 0
-8.132615 20.963295 4.437177 22.919156 -1.200725 1.375965 -0.022159 -0.010058 319582.000000 0 1 0
-8.173015 22.157395 3.456477 23.868297 -1.217418 1.425471 -0.014370 0.000548 118742.000000 0 1 0
-7.549915 22.002795 2.187277 23.364683 -1.240251 1.477044 -0.027132 -0.001029 -370383.000000 0 1 0
-8.251915 21.153995 1.342477 22.746162 -1.198864 1.511742 0.000267 -0.002434 -487139.000000 0 1 0
-7.554915 21.209695 -0.038823 22.515093 -1.228608 1.572521 -0.012083 0.006570 472398.000000 0 1 0
-6.205315 20.843895 -0.128123 21.748341 -1.281447 1.576688 -0.017145 0.014644 88694.400000 0 1 0
-5.200615 21.716895 0.428677 22.335033 -1.335749 1.551602 -0.005413 0.010786 32566.200000 0 1 0
-3.862615 21.379995 -0.288223 21.728025 -1.392059 1.584062 0.000029 0.011609 -52328.900000 0 1 0
-3.890815 21.779395 -1.613223 22.182944 -1.394015 1.643584 0.003314 0.007718 234824.000000 0 1 0
-2.718815 21.437595 -2.346923 21.736386 -1.444645 1.678979 0.012934 0.004374 267712.000000 0 1 0
-2.734715 21.989895 -3.854823 22.492084 -1.447069 1.743032 0.009212 0.008089 -222856.000000 0 1 0
-1.513215 22.514495 -4.307223 22.972690 -1.503687 1.759406 0.021564 0.012941 -304540.000000 0 1 0
-1.475115 22.920295 -5.686823 23.661273 -1.506526 1.813516 0.020633 0.010536 -80575.800000 0 1 0
-0.128215 23.445295 -6.251323 24.264735 -1.565328 1.831365 0.017334 -0.003699 210312.000000 0 1 0
0.838885 22.398095 -6.196623 23.254603 1.533360 1.840524 0.015743 0.005728 -1525250.000000 0 1 0
1.974785 22.840095 -6.797323 23.911782 1.484549 1.859038 0.017368 -0.007129 -853661.000000 0 1 0
3.065785 21.704695 -6.744023 22.934138 1.430475 1.869269 0.007374 -0.007882 363098.000000 0 1 0
2.780285 20.718595 -7.752423 22.295521 1.437401 1.925926 0.006895 -0.010969 -146282.000000 0 1 0
3.622385 19.603195 -7.637223 21.347930 1.388072 1.936654 -0.002940 -0.010372 144518.000000 0 1 0
3.578585 18.732295 -8.886523 21.039854 1.382033 2.006851 -0.009465 -0.003979 -226910.000000 0 1 0
4.034085 19.357995 -10.053023 22.182630 1.365343 2.041141 -0.002448 -0.006413 -178692.000000 0 1 0
3.088385 19.112395 -11.054123 22.293842 1.410590 2.089595 -0.008714 -0.005638 -83018.400000 0 1 0
3.537185 19.633495 -12.455223 23.518469 1.392548 2.128917 0.001440 -0.002387 -65057.700000 0 1 0
3.367485 21.031595 -12.567823 24.730914 1.412028 2.103870 0.025865 -0.009463 134286.000000 0 1 0
3.737085 21.447795 -13.878823 25.818510 1.398287 2.138329 0.034167 -0.000923 40092.000000 0 0 1
3.961385 22.943495 -14.193123 27.267953 1.399824 2.118239 0.029395 -0.002332 -574192.000000 0 0 1
2.806785 23.714395 -14.377223 27.873915 1.452987 2.112732 0.032924 -0.000508 -512685.000000 0 0 1
3.116285 24.964195 -14.928823 29.253923 1.446609 2.106352 0.030528 -0.002009 -80224.700000 0 0 1
1.875685 25.756395 -15.396123 30.065773 1.498101 2.108403 0.019930 0.004609 174795.000000 0 0 1
1.039285 26.146995 -14.317523 29.828459 1.531069 2.071446 0.018456 -0.005119 -32832.200000 0 0 1
0.875085 27.525495 -14.269123 31.016553 1.539015 2.048846 0.007763 -0.001438 -174545.000000 0 0 1
-0.167015 27.864795 -13.118123 30.798699 -1.564803 2.010787 0.005971 -0.006459 2901040.000000 0 0 1
-1.620715 27.773095 -13.413523 30.885177 -1.512507 2.020061 -0.013330 -0.008122 2123620.000000 0 0 1
-2.180015 26.503795 -13.665623 29.899045 -1.488728 2.045482 -0.013367 -0.005125 -324829.000000 0 0 1
-1.954815 25.338295 -12.668823 28.396295 -1.493800 2.033248 0.012711 -0.005143 -265622.000000 0 0 1
-2.616615 25.561195 -11.433423 28.123736 -1.468785 1.989460 0.017295 -0.007414 -101064.000000 0 0 1
-2.464615 24.424595 -10.612023 26.744162 -1.470230 1.978822 0.028765 -0.005686 -62203.100000 0 0 1
-3.311815 24.288495 -9.321523 26.225749 -1.435279 1.934175 0.016275 -0.002584 -128118.000000 0 0 1
-2.897015 24.935295 -8.144223 26.391097 -1.455134 1.884514 0.020299 -0.008524 -180452.000000 0 0 1
-2.674815 26.325695 -8.213923 27.706775 -1.469539 1.871779 0.016002 -0.014222 -388191.000000 0 0 1
-2.506515 26.894495 -6.826423 27.860304 -1.477867 1.818340 0.007255 -0.010440 175374.000000 0 0 1
-1.349315 26.525895 -6.078223 27.246808 -1.519972 1.795769 0.012895 -0.010743 75481.100000 0 0 1
-1.191015 27.016795 -4.775223 27.461400 -1.526741 1.745573 0.015275 -0.015162 -118824.000000 0 0 1
-1.935615 26.172695 -3.672123 26.499832 -1.496975 1.709815 0.014663 -0.002583 748333.000000 0 0 1
-3.350015 26.251595 -3.852023 26.743353 -1.443870 1.715336 0.004120 -0.000270 453351.000000 0 0 1
-4.015215 25.548895 -2.788923 26.012422 -1.414913 1.678218 0.005102 0.006890 -210673.000000 0 0 1
-5.227915 24.742295 -3.272623 25.499458 -1.362564 1.699492 -0.005269 0.010118 195482.000000 0 0 1
-6.260015 25.659895 -3.668223 26.665969 -1.331509 1.708796 -0.019485 0.011060 -1148640.000000 0 0 1
-7.356515 25.052695 -4.205423 26.446955 -1.285183 1.730488 -0.008978 0.012019 -572488.000000 0 0 1
-8.529515 26.068895 -4.269523 27.759120 -1.254584 1.725215 -0.011658 0.005325 -218195.000000 0 0 1
-9.066715 26.361995 -3.019423 28.040632 -1.239538 1.678686 -0.012521 0.004679 153724.000000 0 0 1
-10.362015 26.974695 -3.135523 29.066081 -1.204038 1.678882 -0.001012 0.000869 854314.000000 0 0 1
-11.046615 27.202995 -1.725123 29.410996 -1.185059 1.629486 0.000303 0.005569 298841.000000 0 0 1
-11.541715 26.061395 -1.058223 28.522401 -1.153891 1.607906 0.008176 -0.000210 88098.000000 0 0 1
-10.481115 25.228495 -0.664823 27.327143 -1.177044 1.595127 0.000965 -0.002265 -238562.000000 0 0 1
-10.850815 23.740895 -0.520523 26.108260 -1.142094 1.590735 -0.001844 0.002306 494952.000000 0 0 1
-11.834615 23.562395 0.526777 26.372753 -1.105337 1.550821 0.012132 0.000499 418911.000000 0 0 1
-12.122315 22.182695 0.709777 25.288857 -1.070663 1.542726 0.019471 -0.003143 -291253.000000 0 0 1
-12.980115 21.922295 1.974077 25.553227 -1.036208 1.493466 0.015594 -0.003777 -136861.000000 0 0 1
-12.382615 21.935795 3.276977 25.401710 -1.056894 1.441430 0.023911 -0.010790 37562.500000 0 0 1
-12.128415 23.246295 3.702177 26.480083 -1.089912 1.430527 0.008302 -0.007644 -54874.200000 0 0 1
-12.016115 23.284795 5.260177 26.725235 -1.094391 1.372678 -0.000376 -0.008449 -241819.000000 0 0 1
-10.822315 22.778295 5.814077 25.880045 -1.127254 1.344208 -0.008854 -0.000874 149754.000000 0 0 1
-11.132715 22.382695 7.138477 25.997697 -1.109247 1.292642 -0.006516 -0.004816 -320063.000000 0 0 1
-9.921015 22.088795 8.016477 25.506966 -1.148656 1.251092 -0.001824 -0.010774 -324499.000000 0 0 1
-9.142415 23.281595 8.296477 26.352381 -1.196609 1.250521 0.004868 -0.017571 1200880.000000 0 0 1
-7.927815 22.986795 9.022277 25.935391 -1.238685 1.215493 0.017211 -0.015987 620620.000000 0 0 1
-8.065315 22.874095 10.574677 26.459353 -1.231811 1.159653 0.012679 -0.022753 -154548.000000 0 0 1
-8.960715 21.821995 10.914077 25.992518 -1.181162 1.137469 0.016426 -0.023391 -30480.400000 0 0 1
-8.737715 21.256695 12.187677 26.014116 -1.180794 1.083201 0.018237 -0.019167 -661668.000000 0 0 1
-9.817915 20.356095 12.800877 25.973535 -1.121402 1.055442 0.020583 -0.017012 -553239.000000 0 0 1
-10.177915 19.232095 12.065877 24.880692 -1.084051 1.064491 0.026926 -0.015884 -7302.620000 0 1 0
-10.338615 18.072195 12.865977 24.474979 -1.051165 1.017283 0.008549 -0.012246 -54234.400000 0 1 0
-10.848215 16.957795 11.919577 23.395019 -1.001683 1.036202 -0.003902 -0.009353 -143295.000000 0 1 0
-10.790715 15.659195 12.389077 22.696677 -0.967425 0.993388 -0.010297 -0.008073 68987.300000 0 1 0
-11.217915 14.718095 11.450277 21.761728 -0.919542 1.016711 -0.012907 -0.006962 -112110.000000 0 1 0
-11.382515 13.243495 11.885277 21.123722 -0.860824 0.973208 -0.021396 -0.006200 407227.000000 0 1 0
-12.460015 13.197595 12.822277 22.222495 -0.814137 0.955751 -0.019898 -0.005159 361536.000000 0 1 0
-12.743715 11.833395 13.243877 21.859364 -0.748376 0.919941 -0.014995 -0.002356 -197610.000000 0 1 0
-13.419415 11.804995 14.612277 23.085867 -0.721483 0.885434 -0.012011 0.002008 112265.000000 0 1 0
-14.686415 12.419695 14.604677 24.150284 -0.701968 0.921355 0.001372 -0.004089 -327010.000000 0 1 0
-15.320015 12.474195 15.870477 25.341280 -0.683365 0.894037 0.017177 -0.004269 -695220.000000 0 0 1
-16.377515 13.525895 15.892377 26.528108 -0.690325 0.928449 0.023437 -0.003529 -957910.000000 0 0 1
-17.477715 13.249695 15.083377 26.618287 -0.648659 0.968356 0.015170 -0.004086 -418222.000000 0 0 1
-18.416915 14.279595 14.979377 27.703273 -0.659530 0.999518 0.026803 -0.002347 107496.000000 0 0 1
-19.581115 13.998495 13.993777 27.842481 -0.620655 1.044187 0.020330 -0.000663 211359.000000 0 0 1
-20.564815 13.135795 14.536677 28.403798 -0.568427 1.033533 0.020346 0.002087 -342749.000000 0 0 1
-21.699815 13.125595 13.733177 28.840308 -0.543994 1.074491 0.013104 0.001675 -93555.800000 0 0 1
-22.899615 12.280695 14.264477 29.642590 -0.492252 1.068755 0.016693 0.000607 504232.000000 0 0 1
-23.452215 12.767895 15.523177 30.886803 -0.498550 1.044213 0.010358 0.005502 243557.000000 0 0 1
-24.361615 11.899995 16.141677 31.553953 -0.454384 1.033799 -0.002172 0.006830 -415617.000000 0 0 1
-24.963915 12.493895 17.427677 32.909245 -0.464030 1.012705 -0.001883 0.003086 -1062350.000000 0 0 1
-25.933845 13.431295 17.191577 33.889738 -0.477870 1.038771 0.001408 0.007527 -596203.000000 0 0 1
-26.269945 13.970095 18.498377 35.035176 -0.488755 1.014559 -0.021069 0.012363 798491.000000 0 0 1
-27.494385 14.975695 18.447577 36.339039 -0.498751 1.038339 -0.017756 0.008187 1065060.000000 0 0 1
-27.079195 16.257195 17.968577 36.337983 -0.540682 1.053554 -0.007260 0.016177 452101.000000 0 0 1
-28.251915 16.895495 17.504177 37.283035 -0.538970 1.082078 -0.002178 0.003313 109937.000000 0 0 1
-27.974715 18.435695 17.354277 37.731028 -0.582685 1.092861 0.013655 0.006217 -102908.000000 0 0 1
-27.677685 19.209995 18.508577 38.440156 -0.606729 1.068442 0.013052 0.010883 -254476.000000 0 0 1
-28.713995 19.370095 19.417177 39.707945 -0.593466 1.059854 0.007041 0.004790 -864707.000000 0 0 1
-28.114435 19.691195 20.830277 40.150530 -0.610991 1.025344 0.010897 -0.004287 1206950.000000 0 0 1
-27.320115 18.733795 21.618977 39.556592 -0.601074 0.992578 -0.006497 -0.002277 1171710.000000 0 0 1
-26.208735 18.062495 20.999177 38.132886 -0.603426 0.987613 0.005094 0.006180 190206.000000 0 0 1
-25.695665 16.784895 21.713377 37.596152 -0.578635 0.955081 -0.005917 0.001648 -640997.000000 0 0 1
-26.628695 15.786295 21.921477 37.932119 -0.535131 0.954627 -0.044554 0.014143 -512883.000000 0 0 1
-26.062855 14.559195 22.298777 37.262287 -0.509436 0.929259 -0.038086 0.019540 -640687.000000 0 0 1
-27.107155 13.459895 22.499477 37.711976 -0.460879 0.931522 -0.026954 0.008846 40684.600000 0 0 1
-27.816825 13.128795 21.308877 37.419370 -0.440976 0.964946 -0.023752 0.009283 -378542.000000 0 0 1
-28.904675 12.292695 21.500677 38.064021 -0.402111 0.970538 -0.014383 0.013644 -644035.000000 0 0 1
-29.693925 12.218595 20.164877 37.916296 -0.390368 1.010041 -0.003760 0.012779 -419530.000000 0 0 1
-29.126355 11.550695 19.035577 36.662192 -0.377548 1.024864 0.012058 0.001050 75780.700000 0 0 1
-28.638545 10.268195 19.205077 35.978286 -0.344267 1.007713 0.024347 -0.001246 -67261.600000 0 0 1
-27.928505 9.715095 17.939077 34.586052 -0.334763 1.025491 0.029065 -0.005292 428532.000000 0 0 1
-28.822705 9.426795 16.832677 34.683596 -0.316095 1.064066 0.020499 -0.001989 813623.000000 0 0 1
-29.201525 10.512895 15.943277 34.891806 -0.345566 1.096250 0.022488 -0.001693 -159261.000000 0 0 1
-28.050505 11.309295 15.285677 33.887799 -0.383241 1.102836 0.023853 0.000412 -154023.000000 0 0 1
-27.764895 11.012495 13.916477 32.951977 -0.377601 1.134786 0.015068 -0.006073 -72513.500000 0 0 1
-26.708875 11.701095 13.299677 32.049353 -0.412912 1.142881 0.010205 0.001662 -429333.000000 0 0 1
-26.608625 11.503595 11.741877 31.276562 -0.408059 1.185945 0.022091 0.007503 -476829.000000 0 0 1
-26.072785 10.223195 11.341677 30.214855 -0.373679 1.186003 0.020928 0.007815 857211.000000 0 0 1
-27.043235 9.176595 11.178377 30.667615 -0.327138 1.197699 0.009170 0.006772 -11554.500000 0 0 1
-26.445725 7.942895 10.487877 29.537460 -0.291775 1.207807 0.015060 -0.010021 -169596.000000 0 0 1
-26.193765 8.199695 9.127977 28.925219 -0.303377 1.249737 0.025719 -0.001089 104006.000000 0 0 1
-25.735165 7.055295 8.486777 28.001809 -0.267576 1.262874 0.036696 -0.018391 -138289.000000 0 0 1
-25.115295 7.431195 7.095577 27.135732 -0.287676 1.306236 0.027554 -0.004542 26732.600000 0 0 1
-26.049785 8.079395 6.223677 27.975026 -0.300744 1.346446 0.027651 0.000470 95329.900000 0 0 1
-25.493505 8.756395 5.135977 27.440327 -0.330851 1.382517 0.025891 0.003018 71403.300000 0 0 1
-26.399935 8.856995 3.844777 28.110234 -0.323693 1.433591 0.011988 0.010699 -252101.000000 0 0 1
-26.890335 7.646095 3.290477 28.149248 -0.277032 1.453635 0.022885 0.000902 307725.000000 0 0 1
-25.996165 6.601995 2.894477 26.977119 -0.248703 1.463296 0.028293 -0.000815 318937.000000 0 0 1
-24.899715 6.906395 1.829277 25.904447 -0.270567 1.500121 0.026929 -0.000170 -112733.000000 0 0 1
-23.908415 7.866195 2.022377 25.250334 -0.317858 1.490617 0.017002 0.005171 909163.000000 0 0 1
-22.922015 7.750395 0.943877 24.215250 -0.326052 1.531808 0.022781 0.009490 1196110.000000 0 1 0
-21.641315 8.620595 1.219977 23.327013 -0.379074 1.518474 0.004833 0.009871 799594.000000 0 1 0
-22.088715 9.951495 0.992477 24.247239 -0.423290 1.529853 -0.000845 0.013287 1242920.000000 0 1 0
-21.034315 10.818395 1.458977 23.698285 -0.475039 1.509193 0.013715 0.015995 450400.000000 0 1 0
-21.518115 12.208095 1.910377 24.813634 -0.516059 1.493731 0.009992 0.014666 -315945.000000 0 1 0
-20.455815 12.923795 2.464377 24.321555 -0.563468 1.469297 0.009871 0.002150 361587.000000 0 1 0
-20.957315 14.159995 2.974177 25.466846 -0.594202 1.453743 0.001414 -0.000979 256903.000000 0 0 1
-19.898915 14.700395 3.980777 25.058233 -0.636264 1.411259 -0.002490 -0.001604 67863.300000 0 0 1
-19.489415 13.736695 4.921177 24.346501 -0.613959 1.367263 -0.002416 -0.008176 226549.000000 0 1 0
-18.541115 14.394995 5.751877 24.167601 -0.660173 1.330491 -0.011004 -0.012773 197472.000000 0 1 0
-18.081515 13.549595 7.020777 23.660601 -0.643092 1.269531 -0.013365 -0.012620 -228704.000000 0 1 0
-17.170215 12.541295 6.744977 22.306840 -0.630845 1.263616 -0.012037 -0.011401 -24666.200000 0 1 0
-16.815915 11.936295 7.965477 22.106537 -0.617287 1.202183 -0.008266 -0.003904 -207579.000000 0 1 0
9.222685 -33.650101 -14.634123 37.835760 -1.303289 1.967934 -0.001795 -0.004866 -612533.000000 0 0 1
10.422685 -33.402801 -13.974123 37.678317 -1.268339 1.950752 0.009906 -0.013049 -480750.000000 0 0 1
11.129285 -32.346301 -14.508323 37.156905 -1.239417 1.971929 0.008291 -0.017162 79970.800000 0 0 1
12.403685 -31.900501 -13.735223 36.880208 -1.199961 1.952420 -0.005282 -0.021872 500857.000000 0 0 1
13.585785 -32.609201 -14.022123 38.007282 -1.176041 1.948657 0.009475 -0.016044 96188.300000 0 0 1
14.757885 -32.099001 -13.400123 37.784975 -1.139854 1.933327 0.006225 -0.016027 -141254.000000 0 0 1
15.990785 -32.676701 -14.064223 39.003517 -1.115694 1.939695 0.031765 -0.019826 -589004.000000 0 0 1
16.181685 -33.986401 -13.673723 40.048634 -1.126433 1.919232 0.032325 -0.025490 -904800.000000 0 0 1
17.106385 -34.693701 -14.396023 41.273802 -1.112709 1.927079 0.036718 -0.007469 -411126.000000 0 0 1
17.043985 33.326595 -14.013023 39.969040 1.098052 1.929005 0.029186 -0.009171 -23108.500000 0 0 1
17.784885 33.038595 -12.811523 39.648279 1.076975 1.899831 0.027024 -0.017168 162446.000000 0 0 1
17.737185 31.655095 -12.388423 38.342220 1.060060 1.899801 0.016174 -0.006627 -175301.000000 0 0 1
18.498085 31.434695 -11.096223 38.124079 1.038905 1.866126 0.021574 -0.009208 -147842.000000 0 0 1
19.792785 30.886695 -11.225823 38.363542 1.000902 1.867759 0.020968 -0.008869 40367.500000 0 0 1
20.293485 30.544095 -9.944123 37.995432 0.984365 1.835599 0.019879 0.005681 -366534.000000 0 0 1
21.630785 29.815395 -9.950223 38.155676 0.943167 1.834626 0.018738 0.011122 -305948.000000 0 0 1
22.732085 30.560695 -10.442123 39.493565 0.931253 1.838379 0.018805 -0.005907 -143742.000000 0 0 1
23.897385 29.813995 -10.234223 39.556272 0.895111 1.832499 0.023364 0.003595 -397782.000000 0 0 1
25.070885 30.236095 -11.139123 40.827084 0.878520 1.847137 0.015580 0.000636 -230993.000000 0 0 1
25.583985 31.509295 -10.730023 41.982251 0.888811 1.829249 0.020641 -0.011497 300462.000000 0 0 1
26.591785 31.892895 -11.675723 43.134699 0.875792 1.844896 0.020882 -0.007318 208364.000000 0 0 1
27.197885 33.262995 -11.385323 44.449717 0.885378 1.829823 0.016757 -0.014443 -203734.000000 0 0 1
26.503385 34.387695 -11.929523 45.025065 0.914164 1.838951 0.015573 -0.009047 -26909.000000 0 0 1
27.077685 -33.942601 -11.471223 44.909800 -0.897429 1.829087 0.022413 -0.011827 -258727.000000 0 0 1
26.184585 -32.756701 -11.860523 43.581027 -0.896442 1.846422 0.013756 -0.010147 423524.000000 0 0 1
24.872385 -32.914401 -11.296223 42.773800 -0.923677 1.838059 0.018673 -0.013416 439121.000000 0 0 1
23.917885 -31.906701 -11.610323 41.531944 -0.927539 1.854123 0.015536 -0.015997 331763.000000 0 0 1
24.239485 -30.499401 -11.160423 40.525561 -0.899263 1.849794 -0.006165 -0.020016 -1069710.000000 0 0 1
25.041785 -29.802101 -12.059023 40.751396 -0.871979 1.871211 -0.005859 -0.007639 -441256.000000 0 0 1
25.520085 -28.630201 -11.481823 40.034927 -0.842770 1.861676 -0.000298 -0.007810 -425229.000000 0 0 1
26.503985 -27.835501 -12.346423 40.369673 -0.809897 1.881611 -0.003503 -0.002899 558187.000000 0 0 1
27.690985 -28.580201 -12.682423 41.766762 -0.801199 1.879316 -0.015687 0.005437 628296.000000 0 0 1
27.520585 -29.278801 -13.903923 42.519994 -0.816343 1.903921 -0.014648 -0.003997 -865434.000000 0 0 1
28.787485 -29.977401 -14.355123 43.970824 -0.805644 1.903362 -0.021701 0.008512 -443526.000000 0 0 1
29.120885 -31.048601 -13.488923 44.654144 -0.817425 1.877665 -0.024963 0.000425 -379936.000000 0 0 1
30.126985 -31.870901 -13.967223 46.026871 -0.813519 1.879116 -0.021583 -0.000386 -620726.000000 0 0 1
30.644785 -32.848901 -12.943723 46.751397 -0.820098 1.851324 -0.013292 -0.004456 -514265.000000 0 0 1
31.668485 -33.665901 -13.416423 48.127811 -0.815961 1.853306 -0.012156 -0.012132 -11555.500000 0 0 1
32.560785 -34.114501 -12.382423 48.757854 -0.808697 1.827566 -0.003495 -0.011801 238995.000000 0 0 1
32.140885 34.106495 -11.600323 48.278950 0.815060 1.813448 -0.010185 -0.013144 -27903.800000 0 0 1
31.269185 34.443695 -10.544623 47.700305 0.833669 1.793697 -0.005501 -0.022710 -106579.000000 0 0 1
30.765585 33.365695 -9.817323 46.434585 0.825920 1.783827 0.005210 -0.016749 106317.000000 0 0 1
29.983685 33.744995 -8.532823 45.940778 0.844350 1.757616 -0.005852 -0.011698 401044.000000 0 0 1
28.875985 34.621095 -8.647223 45.904436 0.875631 1.760303 -0.005464 -0.020014 -199846.000000 0 0 1
28.223485 -34.683101 -7.402023 45.324083 -0.887725 1.734844 -0.012597 -0.012447 304686.000000 0 0 1
27.140485 -33.612101 -7.461823 43.841282 -0.891522 1.741830 -0.013893 -0.013985 -427159.000000 0 0 1
27.754685 -32.372101 -7.819423 43.352264 -0.862042 1.752158 -0.027470 -0.021041 340978.000000 0 0 1
26.926785 -31.345501 -8.377423 42.163650 -0.861082 1.770816 -0.012980 -0.010797 682037.000000 0 0 1
25.813885 -30.693101 -7.470323 40.794961 -0.871532 1.754954 -0.011417 -0.006378 1097210.000000 0 0 1
24.969985 -29.753301 -8.165023 39.691645 -0.872586 1.777987 0.005172 -0.016928 125488.000000 0 0 1
24.191985 -28.891701 -7.381423 38.398801 -0.873702 1.764231 0.004534 -0.013354 502290.000000 0 0 1
23.184885 -28.160701 -8.403123 37.432291 -0.882005 1.797215 0.015384 -0.019749 502164.000000 0 0 1
22.103585 -28.986301 -8.835723 37.507921 -0.919310 1.808601 0.019046 -0.022516 352298.000000 0 0 1
21.406885 -28.312501 -9.893323 36.847392 -0.923407 1.842626 0.022946 -0.023572 430285.000000 0 0 1
20.184785 -29.157901 -10.380823 36.950916 -0.965285 1.855565 0.028832 -0.022648 84505.700000 0 0 1
20.482085 -30.102401 -11.439123 38.164432 -0.973337 1.875209 0.040818 -0.028984 -839916.000000 0 0 1
19.440885 -30.789301 -12.018723 38.345518 -1.007596 1.889602 0.042850 -0.028712 -714793.000000 0 0 1
19.029485 -32.141001 -11.398423 39.052392 -1.036234 1.866983 0.042664 -0.031735 -189408.000000 0 0 1
19.950885 -33.158001 -11.669223 40.418580 -1.029134 1.863675 0.035856 -0.027833 -377469.000000 0 0 1
19.756285 -34.344301 -10.935023 41.102512 -1.048780 1.840082 0.026984 -0.020210 -711849.000000 0 0 1
20.886285 34.154895 -10.957123 41.507256 1.021952 1.837944 0.015763 -0.010684 327367.000000 0 0 1
21.918085 34.546195 -9.994423 42.115680 1.005425 1.810391 0.019712 -0.006046 1460780.000000 0 0 1
23.161685 33.854995 -10.285123 42.289574 0.970792 1.816467 0.023172 -0.009129 906989.000000 0 0 1
24.331085 34.310695 -9.368523 43.092862 0.953962 1.789950 0.015278 -0.008663 -372253.000000 0 0 1
24.267585 33.868995 -8.026023 42.431610 0.949073 1.761095 -0.005667 -0.007555 73091.000000 0 0 1
24.705485 32.535195 -7.871923 41.603691 0.921340 1.761156 -0.000757 -0.002068 -296087.000000 0 0 1
24.721885 32.066495 -6.462023 41.002310 0.914017 1.729058 -0.004685 0.000421 -284763.000000 0 0 1
25.658285 32.632195 -5.600323 41.887604 0.904473 1.704897 -0.011349 0.000078 215173.000000 0 0 1
26.634085 31.742595 -5.008223 41.737862 0.872685 1.691078 -0.008302 0.002594 532491.000000 0 0 1
26.057385 30.809795 -3.846423 40.534254 0.868775 1.665832 -0.007218 0.013908 -241358.000000 0 0 1
25.670685 31.441995 -2.615223 40.674593 0.886108 1.635137 -0.010686 0.007829 63375.400000 0 0 1
25.594085 30.541195 -1.563723 39.878152 0.873299 1.610019 -0.000039 0.016057 -440594.000000 0 0 1
24.382885 29.609795 -1.615323 38.391071 0.881905 1.612884 0.007752 0.017395 -344038.000000 0 0 1
23.241185 30.234995 -1.046423 38.149739 0.915444 1.598229 0.004681 0.019738 525167.000000 0 0 1
22.002885 29.637095 -1.471723 36.941174 0.932170 1.610647 0.005086 0.028374 933377.000000 0 0 1
20.801785 30.236695 -0.697123 36.707737 0.968193 1.589789 0.004019 0.027460 39449.600000 0 0 1
20.701985 29.693295 0.612277 36.202746 0.961956 1.553883 0.008456 0.009247 -400145.000000 0 0 1
19.618785 30.265395 1.247877 36.089445 0.995670 1.536212 0.011043 0.002959 -651987.000000 0 0 1
18.971285 29.488595 2.425777 35.147849 0.999115 1.501725 0.013564 -0.010337 -119537.000000 0 0 1
18.461885 28.241295 1.937277 33.795932 0.991811 1.513442 0.024000 -0.003486 267556.000000 0 0 1
17.946085 27.441695 2.990677 32.924956 0.991634 1.479838 0.031958 -0.008454 -223186.000000 0 0 1
17.439285 26.124495 2.401777 31.502166 0.982186 1.494481 0.011689 -0.001852 99927.700000 0 0 1
18.438385 25.238895 1.916077 31.315287 0.939857 1.509571 0.021249 -0.001397 597352.000000 0 0 1
19.333885 24.629995 2.879777 31.444060 0.905286 1.479084 0.030120 -0.002726 110439.000000 0 0 1
20.578985 24.082895 2.192177 31.753521 0.863692 1.501704 0.029738 0.001789 -629488.000000 0 0 1
20.201985 22.950195 1.412277 30.607616 0.848999 1.524639 0.038353 -0.001017 45164.000000 0 0 1
21.268185 22.263595 0.818877 30.800551 0.808260 1.544207 0.044879 -0.010921 -534770.000000 0 0 1
20.901485 21.135795 -0.163323 29.725756 0.790972 1.576291 0.058450 -0.016560 -152138.000000 0 0 1
20.494385 21.705295 -1.437323 29.886545 0.814085 1.618908 0.046892 -0.008137 120945.000000 0 0 1
20.499285 20.727795 -2.491723 29.258689 0.790941 1.656061 0.083319 -0.021732 2600.650000 0 0 1
20.308785 21.288295 -3.890323 29.677818 0.808941 1.702260 0.048771 -0.013582 -913531.000000 0 0 1
21.303785 22.194595 -4.189723 31.048431 0.805874 1.706151 0.040191 0.004829 -327843.000000 0 0 1
20.983185 22.955795 -5.337223 31.555483 0.830262 1.740751 0.033170 -0.002172 -831962.000000 0 0 1
21.879985 24.117395 -5.656723 33.051188 0.834002 1.742793 0.029183 0.016101 -598060.000000 0 0 1
21.739885 25.286995 -4.851523 33.698546 0.860683 1.715267 0.021948 0.025198 158279.000000 0 0 1
22.369385 25.259795 -3.567123 33.928911 0.846010 1.676126 0.021831 0.017832 -489020.000000 0 0 1
21.535185 24.820295 -2.374723 32.946177 0.856148 1.642938 0.024735 0.007901 -937502.000000 0 0 1
20.511585 25.759595 -2.112123 32.996105 0.898334 1.634851 0.020388 0.023260 544485.000000 0 0 1
19.550285 25.377595 -1.148323 32.055493 0.914382 1.606627 0.019489 0.015044 -97043.100000 0 0 1
18.579085 24.217595 -1.393623 30.555139 0.916395 1.616422 0.024155 0.008703 -1198010.000000 0 0 1
17.686485 24.549395 -2.421623 30.353728 0.946480 1.650661 0.003941 0.022551 -159490.000000 0 0 1
17.342685 23.474895 -3.228623 29.364322 0.934517 1.680970 -0.000081 0.003471 1611.720000 0 0 1
16.654085 23.969295 -4.544623 29.538775 0.963563 1.725263 -0.006097 -0.002250 -171335.000000 0 0 1
16.051185 22.910195 -5.198823 28.452510 0.959659 1.754548 -0.011569 -0.012053 -302491.000000 0 0 1
15.563985 23.452595 -6.389723 28.863306 0.984895 1.794024 -0.005896 -0.013574 -315647.000000 0 0 1
14.818285 22.422695 -7.254923 27.838691 0.986824 1.834446 0.000224 -0.009849 -687934.000000 0 0 1
15.707485 21.386395 -7.674523 27.622478 0.937314 1.852337 -0.019517 0.000125 196542.000000 0 0 1
15.051885 20.256695 -8.259023 26.553802 0.931753 1.887073 -0.003688 0.002354 -149268.000000 0 0 1
16.034985 19.130995 -8.678923 26.428005 0.873212 1.905404 -0.009265 0.006902 -427237.000000 0 0 1
16.852585 19.503995 -9.750023 27.558636 0.858197 1.932418 -0.013285 0.004319 -252648.000000 0 0 1
17.503085 18.293995 -10.102723 27.259737 0.807489 1.950462 -0.012663 0.008079 -329449.000000 0 0 1
18.766385 18.593595 -10.945923 28.595668 0.780773 1.963603 -0.017168 0.005512 -40693.000000 0 0 1
18.575985 18.859895 -12.303723 29.191513 0.792982 2.005876 -0.016920 0.011054 503469.000000 0 0 1
19.826085 19.378795 -12.750823 30.515485 0.773990 2.001871 -0.012269 0.013043 379135.000000 0 0 1
19.886885 19.588395 -14.283123 31.356036 0.777837 2.043746 0.001475 0.014121 -182972.000000 0 0 1
19.985185 18.439895 -15.082723 31.095432 0.745204 2.077212 0.004927 0.013848 283582.000000 0 0 1
20.193085 18.855795 -16.420923 32.139515 0.751165 2.107058 0.011250 0.009294 -139426.000000 0 0 1
20.307885 17.661795 -17.398723 32.047851 0.715821 2.144681 0.018014 -0.001699 77959.600000 0 0 1
21.590285 17.063395 -17.334623 32.523668 0.668815 2.132921 0.021046 -0.004250 145307.000000 0 0 1
21.734685 15.929195 -18.216023 32.526286 0.632462 2.165230 0.035195 -0.016669 -852829.000000 0 0 1
22.602785 16.201695 -19.407923 33.912362 0.621913 2.180100 0.037079 -0.015507 -282308.000000 0 0 1
23.949985 16.505295 -19.080723 34.786499 0.603412 2.151377 0.040514 -0.011176 289708.000000 0 0 1
24.727085 17.023595 -20.119523 36.138992 0.602939 2.161236 0.038167 -0.014527 60433.300000 0 0 1
26.108885 17.484995 -19.587223 37.027803 0.590096 2.128203 0.013695 -0.009534 53272.500000 0 0 1
26.069385 18.659395 -18.813923 37.171892 0.621224 2.101492 0.003600 -0.007555 59571.100000 0 0 1
27.307385 19.038595 -18.236523 37.956978 0.608842 2.071967 0.001471 -0.014967 -83651.400000 0 0 1
27.246385 20.290395 -17.295023 38.120643 0.640101 2.041700 -0.000366 -0.014715 141472.000000 0 0 1
26.512285 19.986695 -16.079023 36.890435 0.645970 2.021789 -0.009721 -0.009137 808661.000000 0 0 1
25.124285 20.305795 -16.139123 36.111304 0.679729 2.034124 -0.012456 -0.004711 333461.000000 0 0 1
24.289285 19.703095 -14.972823 34.675160 0.681524 2.017287 -0.012592 -0.001586 -9556.770000 0 0 1
24.755285 20.041395 -13.681123 34.664893 0.680555 1.976503 -0.008568 0.000846 -59800.500000 0 0 1
23.836285 19.684995 -12.681323 33.413821 0.690301 1.960077 0.001888 0.001325 -358181.000000 0 0 1
24.247385 20.016995 -11.240723 33.391161 0.690117 1.914140 0.011750 -0.001424 -354286.000000 0 0 1
24.239185 21.420395 -11.110423 34.202528 0.723742 1.901641 0.012692 -0.007858 69047.600000 0 0 1
24.702785 22.002295 -9.894923 34.528801 0.727642 1.861441 0.009886 -0.001893 -98914.300000 0 0 1
23.822885 21.745195 -8.675223 33.401240 0.739834 1.833536 0.018300 -0.003971 -545702.000000 0 0 1
24.029885 20.443795 -8.177523 32.592269 0.704938 1.824410 0.021739 -0.005547 300532.000000 0 0 1
23.231385 20.153395 -7.016923 31.545107 0.714571 1.795114 0.028201 -0.008096 1003340.000000 0 0 1
21.769885 19.663395 -7.387323 30.251439 0.734601 1.817488 0.016155 -0.013013 540688.000000 0 0 1
21.012785 20.817595 -7.668423 30.556736 0.780732 1.824465 0.026482 -0.005951 -444252.000000 0 0 1
19.664885 20.519895 -7.957323 29.514281 0.806672 1.843784 0.028503 -0.009444 -341055.000000 0 0 1
18.744885 21.742195 -7.955223 29.788913 0.859295 1.841130 0.012343 -0.009809 -1087360.000000 0 0 1
19.015885 22.739895 -8.914223 30.954323 0.874348 1.862913 -0.000626 -0.003108 205267.000000 0 0 1
18.419785 22.484895 -10.194323 30.802325 0.884453 1.908117 -0.009979 0.002173 -90258.400000 0 0 1
16.975885 22.981695 -10.370423 30.395471 0.934586 1.918972 0.008936 0.002755 -339350.000000 0 0 1
16.897485 24.426495 -10.291523 31.433964 0.965616 1.904348 0.016879 -0.000341 -989271.000000 0 0 1
15.601285 24.872095 -10.223023 31.089088 1.010573 1.905861 0.013966 0.005030 -915422.000000 0 0 1
15.539485 26.348695 -9.855323 32.138088 1.037938 1.882474 0.004659 0.010477 -28593.100000 0 0 1
16.039185 27.128795 -10.909523 33.350332 1.036855 1.904049 0.028014 0.018249 79834.000000 0 0 1
16.228985 28.447895 -10.459023 34.381010 1.052365 1.879905 0.030679 0.015032 53905.000000 0 0 1
19.615985 29.052795 34.595090 49.251112 0.976920 0.792001 -0.012383 0.012875 -525517.000000 0 0 1
18.290985 29.467995 34.439779 48.877615 1.015290 0.788919 0.003895 0.003649 -762294.000000 0 0 1
17.500785 28.350595 34.160267 47.717477 1.017754 0.772904 -0.005129 -0.001176 -792287.000000 0 0 1
16.004885 28.567395 34.307942 47.426652 1.060118 0.762097 0.026023 -0.012522 -568785.000000 0 0 1
15.385285 29.325895 33.286478 46.954284 1.087638 0.782841 0.015247 -0.010660 -1122530.000000 0 0 1
14.057985 29.573495 33.566206 46.892524 1.127056 0.773011 0.037282 -0.025680 -949131.000000 0 0 1
13.290085 29.833495 32.249839 45.898975 1.151712 0.791714 0.028962 -0.025767 -428508.000000 0 0 1
12.923685 28.737495 31.461889 44.527696 1.148179 0.786158 0.030017 -0.020872 480202.000000 0 0 1
11.513985 28.591895 31.284489 43.917964 1.187964 0.777971 0.029696 -0.007654 354748.000000 0 0 1
10.967685 27.139295 31.281349 42.841035 1.186738 0.752222 0.017066 -0.003152 -116319.000000 0 0 1
11.264185 26.301095 30.187269 41.592075 1.166152 0.758609 0.016982 -0.005615 16494.600000 0 0 1
12.585485 25.811995 30.088969 41.593264 1.117132 0.762068 0.006203 0.000754 -45554.000000 0 0 1
12.895385 25.054295 28.744539 40.252419 1.095460 0.775449 0.009425 0.003676 -191533.000000 0 0 1
12.704885 25.853895 27.572239 39.875636 1.114044 0.807294 0.001041 0.006476 181506.000000 0 0 1
12.777085 25.252795 26.266929 38.612293 1.102386 0.822660 0.003817 0.012916 -368042.000000 0 0 1
11.530385 24.501695 25.793029 37.397369 1.130948 0.809719 0.004509 0.010661 -749347.000000 0 0 1
11.742985 23.810795 24.558999 36.166229 1.112620 0.824316 0.010017 0.011604 272526.000000 0 0 1
10.759585 22.830895 24.238089 34.992905 1.130393 0.805630 0.017750 0.005585 17022.200000 0 0 1
11.000885 22.236495 22.807119 33.699345 1.111380 0.827413 0.016957 0.010469 39187.100000 0 0 1
10.568985 23.180195 21.826619 33.547373 1.143006 0.862395 0.017314 0.001315 175458.000000 0 0 1
10.609285 22.577595 20.537619 32.312514 1.131515 0.882019 0.019191 0.007364 -700658.000000 0 0 1
10.271085 23.559895 19.313019 32.148975 1.159682 0.926376 0.009573 0.004855 -279220.000000 0 0 1
8.931085 23.915295 19.130719 31.901255 1.213388 0.927688 0.011119 0.004569 -512941.000000 0 0 1
8.300685 24.699295 20.141519 32.933833 1.246585 0.912746 0.008606 0.004289 -478017.000000 0 0 1
6.934185 25.227395 19.661419 32.727294 1.302554 0.926338 0.014851 0.001079 -252816.000000 0 0 1
6.979085 26.212995 18.640819 32.913658 1.310587 0.968720 0.018646 -0.008346 1180880.000000 0 0 1
5.700085 26.859995 18.331419 33.015016 1.361684 0.982139 0.011077 -0.006584 987718.000000 0 0 1
5.814985 28.070495 17.378019 33.522564 1.366529 1.025820 0.013034 -0.003391 4736.820000 0 0 1
5.988385 27.763095 16.024819 32.610505 1.358355 1.057099 0.010701 -0.000756 81166.800000 0 0 1
6.624485 28.904595 15.440819 33.433192 1.345503 1.090727 0.007491 0.004230 273652.000000 0 0 1
7.296385 28.653095 14.054019 32.737632 1.321450 1.127087 0.006555 -0.000731 -218034.000000 0 0 1
6.349385 28.396695 13.072019 31.899290 1.350819 1.148572 -0.005847 0.003594 -418888.000000 0 0 1
6.529885 27.128595 12.417219 30.541569 1.334588 1.152102 -0.013359 -0.003171 -137901.000000 0 0 1
5.809485 27.021395 11.080219 29.777125 1.359024 1.189520 -0.019387 -0.006505 -369173.000000 0 0 1
6.248985 27.855195 9.999519 30.248175 1.350112 1.233876 -0.017690 -0.004530 168975.000000 0 0 1
6.270385 29.262095 10.277219 31.641890 1.359705 1.239998 -0.021104 0.004239 -203507.000000 0 0 1
6.529785 30.049095 8.936219 32.022527 1.356819 1.287981 -0.011950 0.013425 742110.000000 0 0 1
5.442885 29.940095 7.949919 31.452115 1.390968 1.315262 -0.015549 0.002137 1084430.000000 0 0 1
5.568785 28.896695 7.005919 30.250839 1.380417 1.337080 -0.020686 0.010624 341064.000000 0 0 1
4.152485 28.535195 6.469319 29.552540 1.426289 1.350100 -0.019803 0.013397 567422.000000 0 0 1
3.592785 29.483895 5.584719 30.222463 1.449538 1.384941 -0.017852 0.008866 -137051.000000 0 0 1
2.252985 29.210195 5.243919 29.762563 1.493819 1.393680 -0.019392 -0.002876 85654.300000 0 0 1
1.517585 30.439795 4.661519 30.832028 1.520982 1.419024 -0.016355 -0.001314 -456172.000000 0 0 1
1.902285 30.733195 3.321519 30.970639 1.508978 1.463342 -0.013811 0.000062 264707.000000 0 0 1
0.864985 31.357295 2.584219 31.475488 1.543219 1.488601 -0.006239 -0.005981 483960.000000 0 0 1
-0.279815 30.426595 2.076919 30.498682 -1.561600 1.502645 -0.000756 -0.002183 230930.000000 0 0 1
0.034985 29.561595 0.978619 29.577810 1.569613 1.537704 0.005319 0.004460 -370227.000000 0 0 1
-1.027215 28.653195 0.997519 28.688949 -1.534962 1.536019 0.006478 0.007843 -13844.000000 0 0 1
-1.374215 28.132395 -0.429881 28.169220 -1.521987 1.586058 0.005201 -0.002364 127363.000000 0 0 1
-2.139915 29.082595 -1.208281 29.186239 -1.497348 1.612207 0.006717 -0.007224 29566.200000 0 0 1
-1.456915 29.779095 -2.210381 29.896537 -1.521911 1.644798 0.005509 -0.000870 -677908.000000 0 0 1
-2.217915 30.976595 -2.737681 31.176329 -1.499319 1.658722 -0.003605 -0.005377 1075680.000000 0 0 1
-3.395615 30.769695 -3.594281 31.164454 -1.460885 1.686386 -0.007986 -0.009225 936262.000000 0 0 1
-3.284115 30.060195 -4.831081 30.622542 -1.461977 1.729220 -0.007937 -0.004807 -8546.010000 0 0 1
-4.655815 29.753695 -5.517181 30.616961 -1.415576 1.751986 -0.012805 -0.005072 524779.000000 0 0 1
-5.306515 30.910895 -6.005681 31.932910 -1.400782 1.759995 -0.012169 -0.003827 -609870.000000 0 0 1
-6.196315 30.610095 -7.025181 32.011333 -1.371068 1.792056 -0.019286 0.010956 -595125.000000 0 0 1
-6.825215 31.894895 -7.515381 33.471613 -1.359985 1.797257 -0.011503 0.004303 -773410.000000 0 0 1
-7.760315 32.517495 -6.685181 34.092545 -1.336528 1.768164 -0.009066 0.000107 -167816.000000 0 0 1
-8.083015 33.794395 -7.208981 35.487543 -1.336025 1.775361 -0.001066 -0.009359 165321.000000 0 0 1
-9.163215 34.497495 -6.354781 36.254999 -1.311172 1.746987 0.005953 -0.011768 729204.000000 0 0 1
-10.522015 34.087695 -6.488381 36.259935 -1.271400 1.750706 0.007067 -0.005990 173685.000000 0 0 1
-11.357015 -34.472601 -5.858281 36.764949 1.252544 1.730823 0.017003 -0.005244 346011.000000 0 0 1
-12.860715 34.721595 -6.095981 37.525300 -1.216069 1.733969 0.019006 -0.009824 234899.000000 0 0 1
-13.219815 -34.646301 -7.408781 37.815602 1.206283 1.767990 0.027364 -0.012477 -1077220.000000 0 0 1
-14.529215 34.463895 -7.564581 38.158630 -1.171828 1.770359 0.029402 -0.017858 -1442360.000000 0 0 1
-14.942715 34.470195 -9.102581 38.656643 -1.161751 1.808501 0.029035 -0.003789 508475.000000 0 0 1
-16.285715 34.113795 -9.386781 38.949804 -1.125397 1.814189 0.043276 -0.004966 897881.000000 0 0 1
-17.304015 -34.475101 -8.997781 39.609615 1.105608 1.799958 0.045543 -0.005997 -32920.800000 0 0 1
-18.818815 34.676395 -9.072281 40.483410 -1.073576 1.796814 0.045622 0.004184 624704.000000 0 0 1
-19.268715 33.672295 -8.215681 39.656075 -1.051037 1.779481 0.032485 0.002128 -56615.000000 0 0 1
-19.189315 34.110695 -6.867381 39.735756 -1.058361 1.744495 0.020540 -0.003882 -707149.000000 0 0 1
-19.951915 33.153895 -5.920181 39.144709 -1.029057 1.722617 0.025174 -0.007200 -478550.000000 0 0 1
-19.731415 33.476995 -4.536881 39.123155 -1.038206 1.687022 0.032227 -0.013169 712915.000000 0 0 1
-20.863815 33.886395 -3.717981 39.967611 -1.018913 1.663956 0.029333 -0.006597 797086.000000 0 0 1
-21.598715 -34.319901 -4.058481 40.753299 1.009086 1.670548 0.019837 -0.009353 183336.000000 0 0 1
-22.269415 -34.257901 -5.339181 41.207250 0.994385 1.700731 0.013434 -0.005039 362875.000000 0 0 1
-22.965515 -33.060801 -5.570581 40.638194 0.963673 1.708307 0.010914 0.003366 -151586.000000 0 0 1
-23.418715 -32.997801 -7.049181 41.072887 0.953586 1.743276 0.016433 0.000801 -394908.000000 0 0 1
-22.434215 -32.697401 -8.012181 40.455025 0.969449 1.770166 0.027994 0.002298 -66208.500000 0 0 1
-22.769515 -33.100801 -9.336781 41.246689 0.968248 1.799140 0.008376 0.016008 82109.600000 0 0 1
-23.987315 -32.481401 -10.086881 41.619441 0.934700 1.815594 -0.001817 0.014253 -1033140.000000 0 0 1
-25.177705 -32.863101 -9.467681 42.468073 0.917046 1.795622 -0.004048 0.017706 -371260.000000 0 0 1
-26.262425 -32.124301 -10.070881 42.697873 0.885460 1.808904 -0.032035 0.019181 363362.000000 0 0 1
-26.418345 -30.595201 -9.725081 41.576105 0.858528 1.806894 -0.024753 0.022896 -433190.000000 0 0 1
-25.536285 -29.696201 -10.435281 40.532225 0.860573 1.831185 -0.023488 0.021802 38411.400000 0 0 1
-25.774085 -29.623401 -11.805881 41.002783 0.854772 1.862860 -0.026136 0.024062 -62605.900000 0 0 1
-24.651315 -29.042701 -12.711981 40.159187 0.867002 1.892876 -0.021064 0.037357 326616.000000 0 0 1
-23.550015 -29.893101 -13.011481 40.218147 0.903534 1.900246 -0.009760 0.032614 134976.000000 0 0 1
-22.676615 -29.290801 -13.942981 39.580129 0.911993 1.930794 -0.003588 0.031836 183312.000000 0 0 1
-21.448915 -30.164101 -14.312981 39.683629 0.952677 1.939790 0.013387 0.015092 127664.000000 0 0 1
-21.792315 -31.367301 -14.986381 41.029309 0.963605 1.944709 0.016749 0.014883 -10742.400000 0 0 1
-22.218415 -32.431301 -14.116781 41.769974 0.970146 1.915550 0.007137 0.015103 12301.800000 0 0 1
-22.487615 -33.695901 -14.920081 43.170770 0.982307 1.923681 0.001576 0.015697 -90420.400000 0 0 1
-22.855415 34.718195 -14.132781 43.902831 -0.988600 1.898543 -0.001243 0.006355 -159656.000000 0 0 1
-23.115315 33.584395 -14.840581 43.387466 -0.967983 1.919891 0.005089 -0.002021 -332980.000000 0 0 1
-23.629715 32.398595 -14.002281 42.474655 -0.940647 1.906742 0.001054 -0.002548 -615501.000000 0 0 1
-22.886515 31.825595 -12.968681 41.289802 -0.947351 1.890293 0.008632 -0.003731 -127797.000000 0 0 1
-22.512215 32.657595 -11.847581 41.396661 -0.967260 1.861051 0.017473 0.000811 48119.100000 0 0 1
-21.649515 31.990195 -10.764581 40.099256 -0.975842 1.842578 0.014380 0.000627 -87077.100000 0 0 1
-22.353715 31.148195 -9.912581 39.599974 -0.948318 1.823805 0.016160 -0.003293 69952.300000 0 0 1
-21.447215 30.665595 -8.940681 38.474635 -0.960480 1.805319 0.008204 0.001707 -116835.000000 0 0 1
-22.067315 29.641795 -8.008581 37.811900 -0.930846 1.784213 0.005774 -0.000483 -166776.000000 0 0 1
-22.324115 28.469795 -8.768681 37.226135 -0.905805 1.808583 0.010082 0.001299 117646.000000 0 0 1
-22.887815 27.405295 -7.988581 36.588519 -0.874981 1.790905 0.003187 -0.000106 305223.000000 0 0 1
-22.044915 26.976195 -6.730581 35.482307 -0.885656 1.761641 0.005968 -0.001787 219245.000000 0 0 1
-22.217315 27.892095 -5.701081 36.112053 -0.898166 1.729332 0.007180 0.003677 370703.000000 0 0 1
-21.197215 27.763395 -4.726081 35.248601 -0.918714 1.705280 0.002708 0.003821 47287.400000 0 0 1
-19.954715 28.664995 -4.787181 35.253223 -0.962669 1.707011 0.001352 0.010420 -44330.300000 0 0 1
-19.050015 28.355995 -5.811681 34.651713 -0.979237 1.739310 0.004000 0.004278 -731492.000000 0 0 1
-17.833415 29.013695 -5.683881 34.527260 -1.019671 1.736169 0.008998 0.003266 -151503.000000 0 0 1
-16.768315 28.674695 -6.779981 33.902547 -1.041645 1.772138 0.010931 0.007722 -187291.000000 0 0 1
-17.076015 29.079495 -8.136381 34.690172 -1.039828 1.807546 0.007296 0.003416 159379.000000 0 0 1
-17.249415 30.496295 -8.287481 36.003454 -1.056037 1.803065 0.015553 -0.001758 -116141.000000 0 0 1
-17.404015 30.852495 -9.787381 36.750089 -1.057189 1.840372 0.022570 -0.001357 338390.000000 0 0 1
-16.154615 30.797995 -10.478381 36.321957 -1.087714 1.863442 0.009248 0.002126 475246.000000 0 0 1
-16.265215 31.548895 -11.696681 37.372481 -1.094782 1.889121 0.016560 0.008223 -178400.000000 0 0 1
-14.873915 31.981095 -12.209581 37.324224 -1.135469 1.904053 0.014511 0.009077 50990.400000 0 0 1
-14.870415 32.588495 -13.502081 38.281137 -1.142708 1.931260 0.015579 0.008392 -99451.700000 0 0 1
-14.994915 31.589295 -14.524481 37.864120 -1.127606 1.964482 0.006017 0.002735 -277252.000000 0 0 1
-14.749715 31.979095 -16.000181 38.681034 -1.138643 1.997249 0.019787 0.005010 630964.000000 0 0 1
-13.349315 32.143195 -16.202081 38.391362 -1.177164 2.006473 0.009468 -0.001348 100537.000000 0 0 1
-13.080115 32.290795 -17.574881 39.021293 -1.185925 2.038001 -0.015000 -0.008141 1067090.000000 0 0 1
-11.575215 32.438795 -18.067881 38.893565 -1.228048 2.053919 0.008819 -0.014908 1546280.000000 0 0 1
-10.906615 31.140395 -18.083281 37.625570 -1.233908 2.072148 0.010271 -0.009880 1702370.000000 0 0 1
-9.507215 31.075195 -18.483681 37.385844 -1.273897 2.087944 0.014097 -0.011583 1570440.000000 0 0 1
-9.150115 31.228895 -19.999581 38.196227 -1.285772 2.121868 0.021501 -0.025238 -381451.000000 0 0 1
-9.803415 30.207695 -20.690581 37.903983 -1.256986 2.148221 0.012234 -0.026592 144294.000000 0 0 1
-9.454115 30.137895 -22.050481 38.521380 -1.266823 2.180253 0.026312 -0.036442 -968518.000000 0 0 1
-10.609815 29.579495 -22.883181 38.873573 -1.226403 2.200192 0.022737 -0.032675 579768.000000 0 0 1
-11.597215 30.545795 -23.316581 40.139805 -1.207941 2.190611 0.015528 -0.031519 761076.000000 0 0 1
-12.526515 30.946895 -22.309181 40.153748 -1.186181 2.159874 0.014677 -0.027152 37533.800000 0 0 1
-13.511715 32.106795 -22.684981 41.569473 -1.172457 2.148035 0.014315 -0.024604 345950.000000 0 0 1
-14.460715 31.805995 -23.669181 42.201466 -1.144079 2.166222 0.017424 -0.031371 -372491.000000 0 0 1
-15.204015 32.955495 -23.983481 43.502116 -1.138544 2.154739 0.003383 -0.021735 126527.000000 0 0 1
-15.592815 33.049895 -25.484281 44.551992 -1.129965 2.179753 -0.006624 -0.021289 435304.000000 0 0 1
-14.457015 33.364795 -26.312481 44.883867 -1.161915 2.197200 0.001280 -0.021331 604086.000000 0 0 1
-14.757515 33.580395 -27.698481 45.963388 -1.156735 2.217577 0.007207 -0.001785 -16585.000000 0 0 1
-15.114515 -34.494801 -28.112381 46.996232 1.157825 2.212029 0.001318 0.009679 783440.000000 0 0 1
-16.393415 -34.062501 -27.611381 46.812246 1.122241 2.201648 0.008974 0.011280 548550.000000 0 0 1
-16.804015 -32.852301 -28.237681 46.465204 1.097990 2.223979 0.009729 0.019260 -614383.000000 0 0 1
-18.193915 -32.485701 -27.757781 46.441724 1.060263 2.211414 0.002583 0.003871 254299.000000 0 0 1
-19.211715 -33.437301 -28.176881 47.760650 1.049293 2.201806 -0.004134 0.003594 937576.000000 0 0 1
-20.508515 -33.163101 -27.583781 47.762490 1.016947 2.186484 -0.000692 -0.002906 1030480.000000 0 0 1
-21.377715 -34.375101 -27.929381 49.180327 1.014433 2.174745 -0.000436 0.000161 -532458.000000 0 0 1
-21.072115 33.960295 -27.238081 48.365781 -1.015445 2.169011 -0.000100 -0.005442 -163681.000000 0 0 1
-22.090715 32.972795 -27.367781 48.209961 -0.980512 2.174480 -0.002679 -0.000986 211436.000000 0 0 1
-21.726215 31.587795 -26.822981 46.789844 -0.968303 2.181281 -0.014650 0.005277 -178539.000000 0 0 1
-21.841815 31.398295 -25.429381 45.930069 -0.963005 2.157542 -0.013712 0.005197 -365998.000000 0 0 1
-22.175515 30.042495 -25.104881 44.995111 -0.934930 2.162706 -0.007664 0.000531 -420504.000000 0 0 1
30.350838 9.551795 -26.814693 41.610551 0.304899 2.271062 -0.018879 0.009675 -33916.700000 0 0 1
29.905388 8.225895 -26.647623 40.891239 0.268426 2.280581 -0.014102 0.007155 61249.500000 0 0 1
28.491888 8.158595 -26.614143 39.832939 0.278885 2.302508 -0.005185 0.002752 113938.000000 0 0 1
27.997138 6.770595 -26.172523 38.918912 0.237276 2.308362 -0.005912 0.006660 -120467.000000 0 0 1
28.161218 6.556795 -24.792523 38.088253 0.228755 2.279596 -0.010307 0.012486 117166.000000 0 0 1
27.700778 5.259595 -24.441023 37.314341 0.187638 2.284984 -0.008988 0.008765 -156088.000000 0 0 1
27.681168 5.143595 -22.928723 36.310191 0.183720 2.254241 -0.010210 0.006999 -202548.000000 0 0 1
28.927008 5.119095 -22.275923 36.867244 0.175153 2.219583 0.001860 0.004359 138459.000000 0 0 1
28.720568 4.914995 -20.871723 35.842113 0.169490 2.192381 0.009118 -0.006537 645515.000000 0 0 1
30.063528 4.581895 -20.097923 36.451831 0.151243 2.154785 0.006012 -0.006911 614038.000000 0 0 1
30.519928 3.296395 -20.357623 36.834292 0.107591 2.156374 0.022328 0.001747 422480.000000 0 0 1
31.552378 3.062095 -19.394323 37.162734 0.096745 2.119845 0.028093 -0.002651 -158286.000000 0 0 1
32.181848 1.677195 -19.471923 37.651562 0.052069 2.114327 0.031875 -0.008192 -524410.000000 0 0 1
31.346778 0.630895 -19.051023 36.687328 0.020124 2.116805 0.039941 -0.001756 -465281.000000 0 0 1
32.028218 -0.608605 -19.043523 37.267049 -0.019000 2.107146 0.057214 -0.003569 -298660.000000 0 0 1
31.258538 -1.940705 -18.770323 36.512841 -0.062006 2.110725 0.020219 0.001357 44935.700000 0 0 1
30.923718 -2.161205 -17.386323 35.541967 -0.069775 2.081943 0.032606 0.000566 627027.000000 0 0 1
29.601928 -1.674405 -17.082023 34.218026 -0.056504 2.093485 0.018291 -0.004473 573871.000000 0 0 1
29.062738 -2.041005 -15.671423 33.081747 -0.070112 2.064304 0.018159 -0.000531 -214861.000000 0 0 1
28.819318 -3.412405 -15.491923 32.896767 -0.117858 2.061136 0.012286 -0.003585 555966.000000 0 0 1
28.045538 -3.604505 -14.299423 31.686246 -0.127823 2.038997 0.018706 -0.004729 -175900.000000 0 0 1
28.109928 -5.094605 -13.882723 31.762447 -0.179292 2.023146 0.011223 -0.005954 -68170.200000 0 0 1
27.421818 -5.901905 -14.822123 31.725131 -0.211993 2.056923 0.006125 -0.001562 314091.000000 0 0 1
27.335758 -7.231105 -14.432423 31.746297 -0.258606 2.042739 -0.004080 0.000991 55748.200000 0 0 1
26.550948 -8.201205 -15.414723 31.777764 -0.299589 2.077250 -0.000367 0.005316 514023.000000 0 0 1
25.165098 -7.912305 -15.537323 30.615276 -0.304629 2.103080 0.000760 0.003566 200037.000000 0 0 1
24.666188 -8.676805 -16.625823 30.985896 -0.338250 2.137153 -0.010669 0.002950 375781.000000 0 0 1
23.223288 -8.399205 -17.121723 30.050311 -0.347035 2.177021 -0.005551 0.002944 70092.300000 0 0 1
23.113688 -7.113105 -17.669023 29.950513 -0.298546 2.201782 -0.003949 0.000723 418976.000000 0 0 1
21.855988 -6.876405 -18.318723 29.335044 -0.304818 2.245243 0.032575 -0.007000 399112.000000 0 0 1
21.640788 -7.494105 -19.754723 30.244577 -0.333371 2.282554 0.023207 -0.005007 20058.300000 0 0 1
22.416388 -6.806705 -20.724523 31.278292 -0.294801 2.295061 0.007724 -0.006880 544370.000000 0 0 1
22.012588 -7.267505 -22.017023 31.970611 -0.318885 2.330442 0.013741 -0.011279 209785.000000 0 0 1
22.575488 -6.262405 -23.074923 32.883468 -0.270595 2.348602 0.011356 -0.010788 99591.600000 0 0 1
22.267988 -6.673705 -24.366923 33.677122 -0.291181 2.379721 0.024035 -0.012061 38366.500000 0 0 1
22.783388 -5.839105 -25.364183 34.590746 -0.250888 2.393908 0.021146 -0.014372 -325396.000000 0 0 1
22.544688 -6.303405 -26.790233 35.576853 -0.272634 2.423443 0.030556 -0.015215 -545097.000000 0 0 1
21.242588 -6.605905 -27.187213 35.128764 -0.301495 2.455820 0.037377 -0.010966 -541002.000000 0 0 1
21.278488 -6.796105 -28.556073 36.254798 -0.309148 2.477781 0.029705 -0.006079 -348533.000000 0 0 1
19.982988 -7.475005 -28.940933 35.955154 -0.357954 2.506333 0.045546 -0.014965 -619138.000000 0 0 1
19.978088 -8.881305 -28.861063 36.207217 -0.418314 2.493287 0.046593 -0.006661 151736.000000 0 0 1
19.016888 -9.526105 -29.673903 36.509303 -0.464390 2.519699 0.033572 -0.008627 -128179.000000 0 0 1
18.927488 -11.009705 -29.427763 36.680467 -0.526839 2.501890 0.030843 -0.004166 -311926.000000 0 0 1
18.277688 -11.452305 -28.264783 35.554566 -0.559730 2.489753 0.029306 -0.000652 16208.300000 0 0 1
18.490688 -12.768205 -27.719813 35.683619 -0.604336 2.460399 0.026170 -0.003287 -574781.000000 0 0 1
18.327788 -13.947405 -28.701863 36.799930 -0.650503 2.465372 0.023086 -0.002190 193822.000000 0 0 1
17.026288 -14.075805 -29.259883 36.662836 -0.690817 2.494899 0.024888 -0.001836 453271.000000 0 0 1
17.043988 -15.078505 -30.244493 37.849547 -0.724287 2.496546 0.023359 -0.008269 -787352.000000 0 0 1
15.885388 -15.167605 -31.219773 38.171665 -0.762287 2.528510 0.018101 -0.012444 -488472.000000 0 0 1
14.762588 -15.813805 -30.654113 37.519130 -0.819765 2.527031 0.012188 -0.013624 -63205.800000 0 0 1
13.790488 -16.149105 -31.610263 38.081227 -0.864015 2.550038 0.000099 -0.015117 299966.000000 0 0 1
12.554588 -16.856405 -30.949943 37.411964 -0.930634 2.545034 0.000298 -0.016684 433828.000000 0 0 1
12.899188 -18.168005 -30.436103 37.720310 -0.953394 2.509663 -0.009309 -0.022612 -324690.000000 0 0 1
12.007888 -18.529405 -29.459393 36.815541 -0.995797 2.498407 0.000620 -0.019637 -452352.000000 0 0 1
12.399588 -19.847005 -28.730413 37.055229 -1.012371 2.458050 -0.005612 -0.018757 3388.670000 0 0 1
13.318688 -19.677905 -27.667983 36.470874 -0.975787 2.432008 -0.012896 -0.014440 9616.630000 0 0 1
12.975788 -20.507205 -26.595463 36.003266 -1.006648 2.401930 -0.009589 -0.005309 -2029.470000 0 0 1
14.014988 -20.414605 -25.471863 35.524524 -0.969176 2.370317 -0.024638 0.007953 -69652.900000 0 0 1
15.284488 -20.979005 -25.737223 36.553233 -0.941158 2.351955 -0.018538 0.000002 81355.700000 0 0 1
16.174588 -20.747105 -24.679723 36.071435 -0.908614 2.324289 -0.013532 0.009980 -318881.000000 0 0 1
17.634988 -21.142805 -25.008623 37.194653 -0.875612 2.308204 -0.027045 0.004792 -938.717000 0 0 1
17.920588 -22.532305 -25.133303 38.216949 -0.898910 2.288489 -0.023450 -0.000148 16620.900000 0 0 1
17.609188 -23.341705 -24.067523 37.870363 -0.924480 2.259483 -0.021580 -0.001506 -843656.000000 0 0 1
18.074188 -24.798105 -24.207123 39.084614 -0.940967 2.238713 -0.019530 -0.009257 -632046.000000 0 0 1
19.483388 -24.805705 -24.257623 39.791427 -0.904997 2.226377 -0.013761 -0.007209 -323669.000000 0 0 1
19.889888 -26.142305 -24.147323 40.769118 -0.920399 2.204700 -0.009882 -0.015147 -193514.000000 0 0 1
20.176388 -26.577615 -22.713923 40.365561 -0.921465 2.168451 0.007877 -0.013019 -75304.900000 0 0 1
18.965588 -26.732275 -21.971023 39.459269 -0.953747 2.161328 -0.002460 -0.009860 296340.000000 0 0 1
19.226588 -26.948535 -20.642923 39.013017 -0.951097 2.128370 0.001053 -0.006165 -203223.000000 0 0 1
18.034888 -27.432635 -19.782523 38.329556 -0.989219 2.113107 0.006355 -0.007640 -258272.000000 0 0 1
17.626088 -28.730905 -20.264923 39.329518 -1.020518 2.112107 0.014318 -0.003870 240132.000000 0 0 1
16.513188 -29.278195 -19.594623 38.908191 -1.057261 2.098571 0.016028 0.003290 1500730.000000 0 0 1
15.045488 -28.767915 -19.939723 38.099241 -1.088922 2.121589 0.017821 0.002352 840460.000000 0 0 1
14.618088 -27.657285 -19.213923 36.712242 -1.084575 2.121592 0.014548 0.003785 -689282.000000 0 0 1
13.395488 -27.301755 -19.789323 36.282809 -1.114660 2.147685 0.014460 0.012102 -381871.000000 0 0 1
12.580088 -26.307695 -18.933223 34.768094 -1.124748 2.146658 0.005711 -0.006057 -577376.000000 0 0 1
12.036488 -26.940935 -17.798423 34.459757 -1.150629 2.113553 0.004811 0.000986 -553149.000000 0 0 1
11.161988 -26.095985 -17.123723 33.148338 -1.166617 2.113647 -0.000842 -0.012067 -340035.000000 0 0 1
9.676488 -26.298585 -17.460723 33.017069 -1.218223 2.128029 -0.004355 -0.003170 -910293.000000 0 0 1
9.053388 -27.448525 -16.924023 33.493401 -1.252201 2.100519 0.002525 0.006807 101613.000000 0 0 1
7.646988 -27.266775 -16.861523 32.958525 -1.297370 2.107840 0.001657 0.015927 229944.000000 0 0 1
6.888988 -27.991375 -17.933423 33.949711 -1.329481 2.127317 0.003625 0.017998 -681760.000000 0 0 1
7.234988 -27.491725 -19.194823 34.301330 -1.313462 2.164692 0.001157 0.015455 -214953.000000 0 0 1
6.626988 -28.322125 -20.120123 35.367769 -1.340945 2.175943 -0.001012 0.015415 -105589.000000 0 0 1
6.399288 -27.626165 -21.467723 35.567106 -1.343172 2.218785 0.011290 0.008772 -303051.000000 0 0 1
5.497088 -26.525225 -21.518623 34.595616 -1.366449 2.242096 0.010122 0.004608 218802.000000 0 0 1
5.549088 -25.991755 -22.846123 35.047240 -1.360460 2.280840 0.013776 0.002309 -706110.000000 0 0 1
4.275388 -25.264395 -23.220423 34.579714 -1.403159 2.307033 0.006518 0.004249 -645286.000000 0 0 1
3.245488 -26.175475 -23.517323 35.337702 -1.447436 2.298963 0.001363 0.009845 -19163.400000 0 0 1
2.066188 -25.519075 -23.958423 35.064203 -1.490006 2.323032 0.004591 0.003757 472385.000000 0 0 1
1.028388 -26.423935 -24.649723 36.150944 -1.531897 2.321093 -0.003464 0.000629 -398947.000000 0 0 1
1.567688 -26.972225 -25.779953 37.343869 -1.512739 2.332755 -0.003924 0.008434 -158632.000000 0 0 1
0.752488 -27.955425 -26.353883 38.426542 -1.543885 2.326533 0.004816 0.000584 -283549.000000 0 0 1
1.538888 -28.822905 -27.343703 39.759352 -1.517456 2.329154 0.009848 0.007596 -371336.000000 0 0 1
1.914088 -28.084525 -28.536253 40.083937 -1.502747 2.363014 0.016905 0.003009 129808.000000 0 0 1
2.397188 -28.925585 -29.541073 41.413898 -1.488111 2.365010 0.020437 0.004260 -455595.000000 0 0 1
3.851188 -29.407525 -29.550933 41.867551 -1.440578 2.354376 0.029413 0.006337 -398043.000000 0 0 1
4.205588 -30.449395 -28.616373 41.997017 -1.433547 2.320457 0.007171 0.011797 567142.000000 0 0 1
5.306888 -31.275775 -29.032333 43.002483 -1.402717 2.311939 0.006928 0.017269 643743.000000 0 0 1
5.781288 -32.325735 -27.972963 43.137722 -1.393823 2.276352 0.022604 0.002464 293170.000000 0 0 1
4.987488 -33.536205 -28.042893 43.999499 -1.423159 2.261845 0.017591 -0.000695 608822.000000 0 0 1
5.488588 -34.588415 -27.224163 44.358067 -1.413426 2.231581 0.014375 -0.003108 43792.300000 0 0 1
4.353088 33.956926 -26.823473 43.491619 1.443297 2.235404 0.003551 -0.001003 152181.000000 0 0 1
3.759288 33.358202 -27.945063 43.678695 1.458575 2.265017 -0.000847 -0.002173 609373.000000 0 0 1
2.363988 33.081892 -27.743633 43.240134 1.499459 2.267402 -0.023072 0.005773 544204.000000 0 0 1
1.527188 33.277202 -28.993223 44.162331 1.524936 2.286985 -0.019597 0.005749 -504664.000000 0 0 1
1.307188 32.174212 -29.806133 43.878175 1.530190 2.317595 -0.014658 0.001987 583291.000000 0 0 1
0.446788 32.546782 -30.911423 44.888848 1.557070 2.330383 -0.014770 -0.002558 499333.000000 0 0 1
0.127388 31.389522 -31.902123 44.755600 1.566738 2.364289 -0.014360 -0.003652 -531214.000000 0 0 1
1.146888 31.169002 -32.827743 45.282256 1.534017 2.381770 -0.011557 -0.006165 -264731.000000 0 0 1
0.770588 30.240772 -33.810533 45.367943 1.545320 2.411708 -0.007566 -0.005292 -397965.000000 0 0 1
1.863588 29.855622 34.455438 45.629030 1.508457 0.714958 -0.009863 -0.002781 -199565.000000 0 0 1
2.234888 30.907702 33.535918 45.661128 1.498613 0.745937 -0.008965 -0.001956 229614.000000 0 0 1
3.140088 30.394072 32.540749 44.638102 1.467849 0.753950 -0.009024 -0.003607 32675.400000 0 0 1
2.552688 29.337972 31.517069 43.134191 1.484005 0.751486 -0.012668 0.001527 15427.900000 0 0 1
2.277788 28.019222 31.999389 42.593732 1.489681 0.720812 -0.001821 0.003891 -104407.000000 0 0 1
3.406488 27.160562 32.029589 42.133061 1.446027 0.707174 -0.003719 0.007002 -74141.600000 0 0 1
3.063788 25.646692 32.050739 41.162963 1.451898 0.678316 0.005037 0.000667 -407553.000000 0 0 1
2.483888 25.124762 30.898009 39.901257 1.472254 0.685090 0.014785 0.012335 -11850.700000 0 0 1
2.643288 23.761292 30.924429 39.088442 1.460008 0.658126 0.014151 0.010932 54611.900000 0 0 1
1.693188 23.031292 29.927229 37.801407 1.497411 0.657216 0.014570 0.015982 419406.000000 0 0 1
0.373888 22.817792 30.385599 38.001001 1.554412 0.644168 -0.005963 0.026112 40552.300000 0 0 1
-0.309012 21.794292 29.652309 36.801441 -1.556619 0.633876 0.011281 0.018430 68971.400000 0 0 1
-1.732612 21.545292 30.134219 37.084670 -1.490552 0.622233 0.008207 0.022179 194637.000000 0 0 1
-2.712812 22.599192 30.027009 37.678961 -1.451328 0.648622 0.015450 0.018093 1022660.000000 0 0 1
-4.015312 22.136192 30.374109 37.798416 -1.391356 0.637508 -0.002164 0.017011 524597.000000 0 0 1
-5.110712 23.187692 30.555459 38.696570 -1.353859 0.660612 -0.025984 0.010707 -355712.000000 0 0 1
-5.317612 23.677192 31.856689 40.046661 -1.349874 0.650982 -0.042647 0.013637 181457.000000 0 0 1
-4.473212 24.787352 32.072459 40.780695 -1.392254 0.665737 -0.032689 0.006054 -436599.000000 0 0 1
-4.716812 25.433282 33.444384 42.280338 -1.387422 0.658330 -0.027470 0.011914 -434966.000000 0 0 1
-5.906812 26.095982 33.760475 43.077377 -1.348198 0.670168 -0.036981 0.011833 -329836.000000 0 0 1
-6.125012 26.179982 -34.080233 43.409325 -1.340972 2.473638 -0.035337 0.012926 -120700.000000 0 0 1
-7.481612 26.762062 -33.640033 43.632949 -1.298195 2.451171 -0.014690 0.013680 -331958.000000 0 0 1
-7.648912 28.169412 -34.038783 44.840388 -1.305657 2.432741 -0.012463 0.004526 -310385.000000 0 0 1
-8.828412 28.772612 -33.590113 45.100995 -1.273082 2.410995 -0.002493 -0.002798 -503249.000000 0 0 1
-9.057712 28.976632 -32.099563 44.182228 -1.267832 2.384050 0.002446 0.000296 -547807.000000 0 0 1
-8.509012 30.138562 -31.509233 44.424857 -1.295629 2.359259 0.003281 0.003537 197995.000000 0 0 1
-8.668512 30.251752 -30.078893 43.532188 -1.291728 2.333609 0.012150 -0.005174 -555716.000000 0 0 1
-8.142312 31.571992 -29.485363 43.959920 -1.318399 2.305993 0.009565 -0.011947 503460.000000 0 0 1
-6.734712 31.712972 -29.709863 43.974366 -1.361541 2.312599 -0.011099 -0.008819 570572.000000 0 0 1
-6.267112 32.992652 -29.283713 44.557015 -1.383078 2.287919 -0.000104 -0.003495 -184618.000000 0 0 1
-4.751112 33.227802 -29.259123 44.528150 -1.428773 2.287752 -0.000557 -0.003016 -523608.000000 0 0 1
-4.304912 34.506292 -28.868783 45.195388 -1.446680 2.263675 0.002021 -0.002261 -32880.200000 0 0 1
-4.091412 -33.987915 -29.868703 45.431899 1.450994 2.288211 0.010834 -0.004510 205908.000000 0 0 1
-2.900712 -34.134621 -30.871953 46.115767 1.486021 2.304257 0.008310 -0.005706 -54068.300000 0 0 1
-2.987512 34.349531 -31.849303 46.938189 -1.484041 2.316566 0.008348 -0.006501 387047.000000 0 0 1
-3.922112 34.589332 -32.922323 47.913299 -1.457888 2.328318 0.013804 -0.005113 203526.000000 0 0 1
-3.451412 -34.115364 -34.139900 48.387013 1.469971 2.354008 0.000172 0.000937 -569131.000000 0 0 1
-3.178912 -32.771115 -33.796373 47.183114 1.474095 2.369255 0.007431 0.001033 364460.000000 0 0 1
-2.075212 -32.223765 -34.524232 47.271557 1.506485 2.389614 0.008082 0.001861 466263.000000 0 0 1
30.943358 20.085995 12.763019 39.036307 0.575757 1.237719 0.026659 -0.016753 -1207210.000000 0 0 1
31.805448 19.133595 13.231019 39.404833 0.541582 1.228372 0.018815 -0.021028 -452944.000000 0 0 1
31.360938 17.789295 13.143919 38.376166 0.515986 1.221217 0.018378 -0.020399 -944905.000000 0 0 1
32.309908 16.866995 13.889919 39.004558 0.481122 1.206694 0.029628 -0.030827 -803245.000000 0 0 1
33.489128 16.778295 13.158219 39.701028 0.464453 1.232975 0.025736 -0.015139 -672483.000000 0 0 1
34.424063 15.943495 13.813419 40.373528 0.433735 1.221602 0.018922 -0.018858 581385.000000 0 0 1
-34.175054 15.356195 12.890919 39.622252 -0.422304 1.239419 0.022322 -0.027584 435291.000000 0 0 1
-33.394045 14.371995 13.489019 38.777186 -0.406415 1.215509 0.024288 -0.020821 -216715.000000 0 0 1
-34.013195 13.086795 13.512219 38.868261 -0.367297 1.215742 0.021216 -0.019711 56102.700000 0 0 1
-33.331375 12.182495 14.583219 38.367487 -0.350413 1.180899 0.020597 -0.014823 112059.000000 0 0 1
-33.441275 12.714895 15.853019 39.131901 -0.363335 1.153689 0.022375 -0.018755 -107016.000000 0 0 1
-32.854325 11.971595 16.917919 38.845100 -0.349431 1.120178 0.022170 -0.013760 -114010.000000 0 0 1
-32.747555 12.836495 18.201319 39.603864 -0.373576 1.093269 0.018137 -0.007130 426145.000000 0 0 1
-33.987465 12.878995 18.905719 40.968800 -0.362215 1.091149 0.021060 -0.004221 532876.000000 0 0 1
-33.702275 13.569695 20.152619 41.546457 -0.382775 1.064362 0.018892 -0.005514 193626.000000 0 0 1
34.769460 13.734395 21.024119 42.890122 0.376200 1.058494 0.019994 -0.000913 109936.000000 0 0 1
34.516474 12.494095 21.619219 42.601409 0.347303 1.038543 0.011149 0.014696 283021.000000 0 0 1
33.497128 12.507495 22.627119 42.314083 0.357358 1.006594 0.006526 0.004585 438550.000000 0 0 1
33.390438 11.179895 23.456719 42.309918 0.323091 0.983152 -0.002875 0.010854 106504.000000 0 0 1
34.402356 11.040695 24.445609 43.623467 0.310545 0.975955 0.006344 0.020836 250921.000000 0 0 1
34.007204 11.685295 25.613609 44.148534 0.330973 0.951860 0.001253 0.020114 -41433.700000 0 0 1
-34.555430 11.830495 26.657349 45.217836 -0.329855 0.940317 0.003507 0.015512 856250.000000 0 0 1
-33.494925 12.745995 26.578089 44.617992 -0.363615 0.932683 -0.004848 0.009505 -124109.000000 0 0 1
-32.661755 12.514995 25.484489 43.276721 -0.365914 0.941133 0.000413 0.006933 -661102.000000 0 0 1
-31.716585 13.745095 25.190079 42.771597 -0.408941 0.941045 -0.005350 0.004569 715142.000000 0 0 1
-30.770125 14.102495 26.204149 42.805822 -0.429749 0.912003 -0.022272 0.002193 357594.000000 0 0 1
-31.366765 14.785995 27.334249 44.154964 -0.440499 0.903260 -0.019237 0.007565 -462581.000000 0 0 1
-30.386195 15.601795 28.239979 44.319672 -0.474350 0.879952 -0.021186 0.020087 -85045.700000 0 0 1
-29.859605 16.758395 27.573479 43.962900 -0.511432 0.892845 -0.013017 0.005548 -29753.200000 0 0 1
-29.481105 17.739095 28.518559 44.689141 -0.541676 0.878698 0.004495 -0.003032 -91730.100000 0 0 1
-28.794245 18.982295 27.904809 44.363436 -0.582843 0.890524 0.002725 0.005798 -370932.000000 0 0 1
-29.760845 19.787195 27.287789 44.965147 -0.586760 0.918686 -0.004058 -0.011234 -80419.800000 0 0 1
-29.289305 20.755695 26.364169 44.539103 -0.616504 0.937341 0.000553 -0.020622 -517568.000000 0 0 1
-30.381395 21.747895 25.991489 45.514368 -0.621271 0.962998 0.010186 -0.001795 -237910.000000 0 0 1
-30.860375 22.474895 27.128689 46.834277 -0.629453 0.952990 0.017365 -0.011631 290388.000000 0 0 1
-31.978815 23.281295 26.771559 47.763791 -0.629286 0.975808 0.017894 -0.006795 -262972.000000 0 0 1
-31.778415 24.793095 26.567719 48.274310 -0.662542 0.988014 0.015736 -0.012093 -646117.000000 0 0 1
-32.925995 25.220595 25.923649 48.910481 -0.653649 1.012169 0.014572 -0.004260 -631145.000000 0 0 1
-32.901515 26.568495 25.617619 49.443474 -0.679307 1.026146 0.024342 -0.013946 350478.000000 0 0 1
-33.967545 27.080095 24.610499 49.927972 -0.673052 1.055354 0.023153 -0.006749 279353.000000 0 0 1
-33.529515 26.769595 23.273719 48.810917 -0.673758 1.073770 0.016002 -0.005936 -288899.000000 0 0 1
-34.494227 27.101595 22.333219 49.225206 -0.665951 1.099889 0.019703 -0.014490 -473332.000000 0 0 1
-33.986345 27.071995 20.867519 48.201846 -0.672637 1.123067 0.020963 -0.017064 110842.000000 0 0 1
-33.995065 25.724195 20.417619 47.268149 -0.647778 1.124139 0.009253 -0.010075 -194406.000000 0 0 1
-33.458335 25.622395 19.140419 46.285235 -0.653537 1.144467 0.008075 -0.004503 -302242.000000 0 0 1
-33.672525 24.300495 18.346819 45.397784 -0.625123 1.154764 0.002144 0.005577 816747.000000 0 0 1
34.747167 24.021795 17.836819 45.853728 0.604884 1.171257 -0.005989 0.000722 434013.000000 0 0 1
34.834080 23.018195 16.857319 45.026877 0.583927 1.187065 -0.002635 0.005799 774210.000000 0 0 1
33.482658 22.791595 16.062819 43.572461 0.597654 1.193244 -0.007212 0.007328 682407.000000 0 0 1
32.714128 21.789595 16.703419 42.708370 0.587583 1.168965 -0.007591 0.000200 64630.900000 0 0 1
31.580468 21.607995 15.846519 41.416707 0.600057 1.178175 -0.002303 -0.000842 -111123.000000 0 0 1
30.480268 20.640695 16.419819 40.307512 0.595247 1.151231 -0.009951 -0.004332 1617220.000000 0 0 1
29.494138 21.213795 17.361119 40.265839 0.623532 1.125016 -0.015174 -0.000908 1207350.000000 0 0 1
28.643488 22.222895 16.835919 39.971924 0.659838 1.136035 -0.015716 0.000521 -411422.000000 0 0 1
27.977308 23.039895 17.957519 40.447980 0.688919 1.110777 -0.015031 0.003995 -303301.000000 0 0 1
28.910818 23.588595 18.787619 41.775973 0.684367 1.104341 -0.027414 0.009832 -318665.000000 0 0 1
28.139188 24.314495 19.760719 42.112880 0.712611 1.082375 -0.022712 0.010286 391269.000000 0 0 1
28.999618 24.959595 20.831019 43.564787 0.710666 1.072236 -0.018630 -0.001251 -257857.000000 0 0 1
29.695568 26.085895 20.335519 44.450355 0.720777 1.095628 -0.013237 -0.008447 -203770.000000 0 0 1
30.201358 26.733495 21.420119 45.668625 0.724564 1.082600 -0.003239 -0.011320 -496568.000000 0 0 1
31.246348 27.789295 21.047719 46.814375 0.726906 1.104479 0.006244 -0.015258 -547180.000000 0 0 1
32.186098 28.288895 21.930119 48.136646 0.721044 1.097772 0.014510 -0.018761 -111226.000000 0 0 1
31.719198 29.260895 22.865919 48.838077 0.745107 1.083545 0.010897 -0.015704 -18575.300000 0 0 1
32.707738 29.541695 24.041119 50.204415 0.734581 1.071435 0.009081 -0.021093 1700910.000000 0 0 1
33.992428 30.168695 23.721819 51.267534 0.725873 1.089751 0.024257 -0.016993 1139410.000000 0 0 1
34.570558 30.564995 24.930989 52.448991 0.723980 1.075448 0.030436 -0.011938 -454706.000000 0 0 1
-33.877445 31.373895 24.869839 52.445319 -0.747049 1.076735 0.033629 -0.009196 -693360.000000 0 0 1
-32.728425 30.639895 24.616699 51.146211 -0.752452 1.068659 0.021463 -0.008200 -711016.000000 0 0 1
-31.617715 31.494295 24.480889 50.900732 -0.783443 1.069054 0.024790 -0.002643 513577.000000 0 0 1
-30.226335 30.821395 24.255999 49.517101 -0.795145 1.058878 0.029343 -0.004998 141081.000000 0 0 1
-30.004625 30.250495 22.955919 48.397771 -0.789479 1.076607 0.008590 0.000159 553901.000000 0 0 1
-30.828995 29.106095 22.614819 48.052282 -0.756660 1.080792 0.007029 0.002832 53700.200000 0 0 1
-30.361475 27.841395 23.358319 47.355819 -0.742127 1.054973 0.007832 -0.002398 300280.000000 0 0 1
-29.009845 27.447095 22.976219 46.074080 -0.757725 1.048721 -0.006150 0.008986 1368000.000000 0 0 1
-28.421555 26.563595 23.939019 45.678070 -0.751621 1.019160 -0.003101 0.008946 212862.000000 0 0 1
-28.088495 27.180195 25.364699 46.595006 -0.768965 0.995164 0.015063 -0.001722 108713.000000 0 0 1
-29.256765 27.529895 26.139859 47.928548 -0.754998 0.993939 0.007731 -0.000658 642308.000000 0 0 1
-28.876985 28.103495 27.339569 48.694340 -0.771824 0.974656 0.021361 -0.002588 -602072.000000 0 0 1
-30.023195 28.350395 28.310539 50.066194 -0.756749 0.969803 0.023843 -0.011009 -82759.100000 0 0 1
-30.592915 27.108495 28.809599 50.007899 -0.725084 0.956846 0.013479 -0.007905 -108408.000000 0 0 1
-31.748235 27.308195 29.573909 51.266988 -0.710356 0.955916 0.013160 -0.010668 -119565.000000 0 0 1
-32.211655 25.943095 30.185639 51.203591 -0.678022 0.940329 0.011692 -0.004786 -269759.000000 0 0 1
-31.428515 25.510695 31.244719 51.134916 -0.681838 0.913441 0.012539 -0.006767 -294006.000000 0 0 1
-31.815225 24.167895 31.545439 50.905898 -0.649638 0.902460 0.005180 -0.020408 141819.000000 0 0 1
-31.006045 23.526095 32.725789 50.851050 -0.649083 0.871654 0.006625 -0.022631 339159.000000 0 0 1
-29.684275 23.164695 32.299829 49.608853 -0.662656 0.861777 0.015654 -0.015583 442194.000000 0 0 1
-28.979315 22.234495 33.082709 49.281225 -0.654453 0.834829 0.009796 -0.016352 -193292.000000 0 0 1
-28.453255 22.744395 34.453399 50.139126 -0.674351 0.813229 0.009416 -0.012576 -700542.000000 0 0 1
-29.364495 23.261195 -33.824173 50.472086 -0.669938 2.305215 0.018715 -0.015265 254260.000000 0 0 1
-28.915145 23.074295 -32.490203 49.235374 -0.673520 2.291476 0.006709 0.000177 -188034.000000 0 0 1
-27.561985 23.545795 -31.905073 48.290798 -0.706977 2.292529 0.017939 -0.012856 41794.900000 0 0 1
-27.570595 24.901795 -31.643433 48.801065 -0.734581 2.276299 0.009788 -0.007616 315362.000000 0 0 1
-26.841765 25.157795 -30.440113 47.749299 -0.753025 2.262044 0.013344 -0.001205 85774.200000 0 0 1
-27.259985 26.527995 -29.809243 48.326311 -0.771790 2.235508 -0.000823 0.010410 -236969.000000 0 0 1
-26.935305 27.678995 -30.573433 49.258220 -0.799014 2.240402 0.005494 0.012086 191445.000000 0 0 1
-27.911825 28.146595 -31.486383 50.623049 -0.789586 2.242062 -0.001052 0.005379 -288224.000000 0 0 1
-27.558565 29.541595 -32.046113 51.566789 -0.820113 2.241387 0.005963 0.002057 -203722.000000 0 0 1
-27.701885 30.526295 -31.016193 51.587337 -0.833866 2.215844 0.007670 -0.005625 257705.000000 0 0 1
-27.643165 31.824095 -31.460023 52.598961 -0.855589 2.211938 0.006539 -0.019429 -70969.000000 0 0 1
-27.945345 32.858395 -30.363573 52.750005 -0.866025 2.184150 0.005139 -0.011341 157816.000000 0 0 1
-26.918855 32.897695 -29.379523 51.672425 -0.885020 2.175566 -0.005948 -0.000320 120973.000000 0 0 1
-27.146165 33.952495 -28.529453 51.996307 -0.896340 2.151584 -0.021111 0.001667 -490662.000000 0 0 1
-26.208045 34.179795 -27.298463 50.993393 -0.916648 2.135699 -0.005591 0.004261 -323965.000000 0 0 1
-25.013415 -34.721701 -27.705373 50.978968 0.946512 2.145358 -0.015303 -0.009625 -379285.000000 0 0 1
-24.984915 -33.304601 -27.832513 50.080847 0.927171 2.160063 -0.004286 0.000941 -685809.000000 0 0 1
-25.320885 -32.486201 -26.604213 49.033505 0.908721 2.144292 -0.005688 0.007603 459105.000000 0 0 1
-26.734465 -32.441701 -26.397083 49.638711 0.881546 2.131502 -0.012408 0.006339 214653.000000 0 0 1
-27.083035 -31.454301 -25.409463 48.667285 0.859935 2.120114 -0.019951 0.004101 1575410.000000 0 0 1
-28.669045 -31.303801 -25.447843 49.491765 0.829302 2.110852 -0.023758 -0.000691 1466360.000000 0 0 1
-29.113335 -30.657401 -26.635283 49.968999 0.811226 2.132981 -0.013022 0.000017 572698.000000 0 0 1
-30.540765 -30.557401 -26.544983 50.706304 0.785670 2.121755 -0.013759 -0.000041 170697.000000 0 0 1
-31.039665 -29.685001 -27.663953 51.087713 0.763094 2.143016 -0.006039 -0.005178 -537906.000000 0 0 1
-32.433515 -29.726201 -27.755903 52.018940 0.741872 2.133616 -0.004291 -0.000148 -318672.000000 0 0 1
-33.015595 -28.767901 -28.631163 52.319835 0.716755 2.149852 -0.002757 -0.005206 761731.000000 0 0 1
-34.562058 -28.866201 -28.831623 53.470140 0.695838 2.140295 -0.005506 -0.006482 684048.000000 0 0 1
34.423958 -28.427301 -27.737683 52.559485 -0.690276 2.126733 -0.008061 0.004560 -1205570.000000 0 0 1
33.088498 -28.745801 -27.881743 51.947679 -0.715282 2.137350 -0.007677 -0.003448 -577100.000000 0 0 1
32.133898 -28.057901 -26.857303 50.409800 -0.717785 2.132678 -0.018960 0.006154 38195.600000 0 0 1
31.961698 -28.889701 -25.751503 50.192678 -0.734957 2.109534 -0.014447 0.009702 -137388.000000 0 0 1
31.063668 -28.338001 -24.826323 48.829705 -0.739545 2.104153 -0.011318 0.014250 -147905.000000 0 0 1
30.990058 -28.996301 -23.392723 48.460176 -0.752174 2.074555 -0.009770 0.017541 -193398.000000 0 0 1
30.264308 -30.222901 -23.347323 48.728324 -0.784714 2.070462 -0.000759 0.016099 -171829.000000 0 0 1
29.854408 -30.754801 -22.115323 48.231017 -0.800253 2.047136 0.002040 -0.001364 -1447490.000000 0 0 1
30.871968 -31.103801 -21.068323 48.625087 -0.789139 2.018926 -0.003708 0.005308 -761286.000000 0 0 1
31.897968 -32.014301 -21.596923 50.088152 -0.787218 2.016595 -0.015790 0.003287 626506.000000 0 0 1
33.004758 -32.150101 -20.747923 50.531370 -0.772282 1.993903 -0.035618 0.005879 10596.400000 0 0 1
34.035468 -31.001101 -20.848323 50.538440 -0.738776 1.996019 -0.037225 0.014611 -939738.000000 0 0 1
33.516988 -29.765001 -20.405923 49.251858 -0.726178 1.997989 -0.039165 0.020066 -493636.000000 0 0 1
34.140675 -28.605401 -20.926723 49.211609 -0.697409 2.010023 -0.039110 0.021167 -360580.000000 0 0 1
33.437498 -27.314601 -20.463923 47.779974 -0.684952 2.013401 -0.046460 0.019552 -183562.000000 0 0 1
32.278518 -27.133901 -21.226523 47.209285 -0.699022 2.037143 -0.019780 0.015479 -660091.000000 0 0 1
31.565918 -26.005101 -20.761023 45.866028 -0.689106 2.040526 0.017823 0.009499 -285279.000000 0 0 1
30.346358 -25.676001 -21.628623 45.254346 -0.702225 2.069098 0.012709 0.006264 213812.000000 0 0 1
29.364288 -26.710501 -21.607023 45.194864 -0.738108 2.069270 0.023002 0.002496 671736.000000 0 0 1
28.229348 -26.453501 -22.453923 44.731001 -0.752934 2.096679 0.015143 -0.004029 912317.000000 0 0 1
27.648898 -27.804901 -23.019823 45.469620 -0.788211 2.101648 0.016959 -0.004050 -95968.100000 0 0 1
27.055248 -28.736001 -22.076323 45.222873 -0.815515 2.080785 0.018642 -0.005165 325878.000000 0 0 1
26.514358 -29.918901 -22.729123 45.986573 -0.845654 2.087775 0.013869 -0.001253 -228222.000000 0 0 1
25.816048 -30.812401 -21.715123 45.688281 -0.873401 2.066088 0.016104 0.011945 -363424.000000 0 0 1
26.714358 -31.414701 -20.819923 46.195342 -0.866083 2.038338 0.017718 0.003324 -73795.400000 0 0 1
27.063338 -32.771501 -21.109623 47.455366 -0.880509 2.031782 0.021089 0.005028 76869.400000 0 0 1
27.968948 -33.575601 -20.122623 48.109282 -0.876246 2.002335 0.005446 -0.001615 -24576.000000 0 0 1
27.469688 -33.995101 -18.848323 47.597373 -0.891167 1.977948 0.001278 0.004127 -246240.000000 0 0 1
27.300278 -32.972601 -17.895123 46.397554 -0.879232 1.966753 -0.004946 0.002323 -203153.000000 0 0 1
26.784498 -33.478301 -16.512923 45.944343 -0.896022 1.938433 0.001071 0.006897 563764.000000 0 0 1
25.433478 -33.934901 -16.422623 45.476828 -0.927629 1.940266 0.011818 0.002838 502880.000000 0 0 1
25.196898 -34.257101 -15.027723 45.102828 -0.936625 1.910479 0.027074 -0.000669 -130258.000000 0 0 1
23.733488 -34.597201 -14.702423 44.456788 -0.969532 1.907855 0.031913 -0.003465 -58961.700000 0 0 1
22.805988 -33.577801 -14.931723 43.249719 -0.974168 1.923296 0.023439 -0.002033 124845.000000 0 0 1
21.511688 -33.912201 -14.442923 42.677724 -1.005513 1.916032 0.035787 -0.014219 362570.000000 0 0 1
-0.191615 -6.841505 -29.427673 30.213091 1.542796 2.913079 0.027947 -0.002421 87213.300000 0 0 1
-0.235715 -8.264905 -29.386373 30.527416 1.542284 2.867320 0.017377 0.000745 -66745.900000 0 0 1
0.103685 -8.797705 -30.660553 31.897960 -1.559011 2.862143 0.008557 0.004647 -352128.000000 0 0 1
0.087785 -10.363205 -30.564103 32.273334 -1.562326 2.814682 0.009583 0.008825 -272002.000000 0 0 1
1.309085 -10.930805 -30.181553 32.126661 -1.451603 2.791833 -0.026898 0.012728 -281463.000000 0 0 1
1.216785 -12.304305 -29.880863 32.337941 -1.472226 2.749257 -0.024628 0.015386 28166.600000 0 0 1
2.577785 -12.769905 -29.331723 32.094632 -1.371609 2.723620 -0.018635 0.013790 -76080.000000 0 0 1
3.595485 -12.856905 -30.344823 33.151709 -1.298109 2.727128 -0.011111 0.011163 1491830.000000 0 0 1
4.904185 -13.299505 -29.873883 33.066248 -1.217517 2.698559 0.006551 0.003610 1323850.000000 0 0 1
5.042585 -14.714805 -29.341903 33.209944 -1.240650 2.654137 0.013008 -0.008401 -1366590.000000 0 0 1
4.470985 -14.907705 -28.048273 32.077016 -1.279421 2.635003 0.017844 -0.003810 -232905.000000 0 0 1
5.154885 -15.874205 -27.311313 32.007359 -1.256806 2.593044 0.027757 -0.005397 -242191.000000 0 0 1
4.994485 -17.378905 -27.675433 33.059050 -1.290950 2.562851 0.007291 -0.005858 -403067.000000 0 0 1
5.522885 -17.689705 -28.959983 34.381805 -1.268177 2.572343 0.013293 -0.016553 42159.600000 0 0 1
5.341785 -19.082805 -29.300393 35.372322 -1.297856 2.546939 0.015599 -0.012386 -599463.000000 0 0 1
5.586985 -19.571705 -30.734833 36.863206 -1.292730 2.556668 0.003668 -0.017954 383494.000000 0 0 1
6.975385 -19.537605 -31.077663 37.365695 -1.227878 2.552988 0.005587 -0.017820 577041.000000 0 0 1
7.191285 -20.069505 -32.389083 38.775666 -1.226730 2.559464 0.013531 -0.022777 649584.000000 0 0 1
8.643385 -19.911505 -32.957953 39.463943 -1.161252 2.559185 0.000208 -0.016067 546605.000000 0 0 1
8.878985 -18.557305 -33.282603 39.127249 -1.124526 2.587969 -0.006224 -0.018921 -381214.000000 0 0 1
10.053685 -18.490805 -34.023603 40.007399 -1.072793 2.587604 -0.009814 -0.006577 -1066600.000000 0 0 1
10.275785 -17.059005 34.624865 39.943494 -1.028638 0.521955 -0.018833 -0.007960 92290.700000 0 0 1
9.296485 -16.947705 33.621439 38.782090 -1.069075 0.521782 -0.009148 -0.003084 112801.000000 0 0 1
9.371285 -15.634405 33.099569 37.786732 -1.030817 0.503379 -0.022942 0.003184 -347920.000000 0 0 1
8.285985 -15.334305 32.090739 36.518680 -1.075387 0.497562 -0.006286 -0.003308 -429300.000000 0 0 1
8.454085 -16.098805 30.892739 35.846958 -1.087242 0.531998 -0.002199 -0.001287 784696.000000 0 0 1
7.340185 -15.800105 30.018109 34.707471 -1.135896 0.525867 0.010658 0.001844 245157.000000 0 0 1
7.391185 -16.713205 28.794179 34.103747 -1.154417 0.565518 0.021090 0.012750 -294819.000000 0 0 1
7.262285 -18.084605 29.155589 35.069105 -1.188935 0.589218 0.023270 0.001020 327966.000000 0 0 1
7.031185 -18.742705 27.944359 34.374609 -1.211901 0.621620 0.022851 0.005137 -236214.000000 0 0 1
6.759685 -20.269005 28.144669 35.336218 -1.248897 0.649341 0.023957 0.000819 -153823.000000 0 0 1
7.742785 -20.940105 28.903039 36.521561 -1.216629 0.657706 0.029062 -0.000875 320930.000000 0 0 1
7.126585 -22.003605 29.573769 37.544036 -1.257575 0.663715 0.016625 0.001750 -221451.000000 0 0 1
7.511585 -22.119705 31.069789 38.872060 -1.243427 0.644695 0.013844 -0.007572 -595058.000000 0 0 1
7.049985 -21.231005 32.087489 39.116043 -1.250191 0.608834 0.023782 -0.013250 135746.000000 0 0 1
7.204585 -19.842405 31.913949 38.263916 -1.222508 0.584391 0.006270 -0.013142 -518143.000000 0 0 1
6.618385 -18.963505 33.026119 38.654134 -1.235007 0.546400 -0.001161 -0.012699 525760.000000 0 0 1
5.191285 -18.957605 33.050359 38.453432 -1.303512 0.536524 0.008684 -0.013483 252908.000000 0 0 1
4.691785 -18.088305 34.077513 38.864850 -1.317007 0.501586 -0.000763 -0.014454 110465.000000 0 0 1
3.237685 -18.357805 34.484535 39.200444 -1.396226 0.495570 0.002782 -0.013185 -144875.000000 0 0 1
3.168485 -19.416105 -33.888333 39.184736 -1.409034 2.615618 -0.000924 -0.010098 -40303.300000 0 0 1
2.371185 -19.146805 -32.761693 38.020405 -1.447581 2.609381 -0.014372 -0.020156 -277819.000000 0 0 1
1.926785 -20.378305 -31.933403 37.930595 -1.476526 2.571573 -0.009280 -0.003189 -1326960.000000 0 0 1
0.829885 -21.020605 -32.501413 38.715583 -1.531337 2.567144 -0.008942 0.001486 42875.100000 0 0 1
-0.068615 -21.665405 -31.596383 38.310911 1.567629 2.540531 -0.014304 0.001741 584987.000000 0 0 1
-0.753015 -20.753605 -30.510693 36.907743 1.534529 2.543968 -0.007272 0.000351 -945647.000000 0 0 1
-1.465515 -19.708905 -31.122923 36.867669 1.496575 2.575829 -0.009237 -0.000823 -155616.000000 0 0 1
-1.876115 -18.813305 -30.096993 35.542780 1.471402 2.580703 -0.001368 0.006869 90122.200000 0 0 1
-2.060515 -17.313005 -30.490293 35.123266 1.452338 2.622146 -0.007318 0.011458 -333257.000000 0 0 1
-2.549515 -16.386305 -29.555273 33.889898 1.416446 2.630268 -0.000427 0.011412 -387469.000000 0 0 1
-2.352815 -15.052105 -30.005713 33.651811 1.415740 2.671778 -0.001956 0.010389 -389397.000000 0 0 1
-3.392415 -14.059105 -29.537393 32.888060 1.334026 2.686270 0.009126 0.007357 -412527.000000 0 0 1
-3.492815 -13.860105 -28.114403 31.539212 1.323932 2.671246 0.008039 0.005688 102325.000000 0 0 1
-4.260815 -12.724505 -27.702793 30.781688 1.247680 2.690512 0.016639 0.000894 44692.500000 0 0 1
-4.394115 -12.501005 -26.172133 29.335370 1.232785 2.672923 0.016668 -0.003301 -261758.000000 0 0 1
-4.863815 -13.683805 -25.483753 29.331295 1.229281 2.623620 0.013420 0.000565 291668.000000 0 0 1
-4.700515 -13.598905 -24.100523 28.068849 1.237998 2.603371 0.007617 -0.001848 -44259.100000 0 0 1
-5.785615 -12.741905 -23.385523 27.252746 1.144570 2.602350 -0.000804 -0.004683 355698.000000 0 0 1
-7.055915 -13.371105 -23.431423 27.885551 1.085236 2.568579 -0.007633 0.000423 -650089.000000 0 0 1
-8.086215 -12.543705 -23.058823 27.467084 0.998196 2.567172 -0.008541 -0.004722 -366818.000000 0 0 1
-9.498115 -13.154205 -23.146423 28.266662 0.945418 2.530217 -0.014352 -0.004405 104002.000000 0 0 1
-9.938315 -14.053305 -22.147123 28.049252 0.955263 2.480920 -0.011053 -0.000606 208730.000000 0 0 1
-11.041515 -14.870805 -22.562823 29.191384 0.932115 2.454239 -0.022260 0.007566 516329.000000 0 0 1
-11.525815 -15.917405 -21.484123 29.116589 0.944077 2.400699 0.000340 0.004943 67533.100000 0 0 1
-10.601015 -17.009205 -21.310123 29.254332 1.013455 2.386843 0.000697 0.007344 -58495.000000 0 0 1
-11.064815 -18.355405 -21.471223 30.337509 1.028313 2.357098 -0.002427 0.017157 -151139.000000 0 0 1
-11.481315 -18.830205 -22.931823 31.816124 1.023254 2.375696 -0.005262 0.019137 101695.000000 0 0 1
-12.438115 -17.921905 -23.444823 32.024383 0.964097 2.392186 -0.009015 0.013772 -481051.000000 0 0 1
-12.840615 -18.328105 -24.746323 33.364372 0.959670 2.406396 -0.001644 0.010972 41401.600000 0 0 1
-14.067515 -17.544205 -25.250603 33.812528 0.894939 2.414007 0.002832 0.007353 19946.100000 0 0 1
-15.312115 -18.127305 -24.866023 34.371197 0.869388 2.379591 0.015594 0.010777 325273.000000 0 0 1
-16.464215 -17.574905 -25.476753 35.057276 0.818016 2.384328 0.022293 0.007595 462862.000000 0 0 1
-16.941015 -16.209005 -24.964923 34.248755 0.763320 2.387553 0.011767 0.010317 -642563.000000 0 0 1
-17.769215 -16.219305 -23.822723 33.857540 0.739829 2.351271 0.014133 0.012371 304235.000000 0 0 1
-18.523915 -14.994505 -23.672623 33.591125 0.680487 2.352837 -0.001259 0.006615 392743.000000 0 0 1
-19.548215 -15.127805 -22.505923 33.429026 0.658605 2.309385 -0.001514 -0.003278 90396.600000 0 0 1
-18.894915 -15.363905 -21.263823 32.329825 0.682692 2.288578 0.002007 -0.000310 -41976.300000 0 0 1
-19.715115 -15.330005 -20.125623 32.073907 0.660918 2.249104 -0.022229 0.002017 -204403.000000 0 0 1
-20.170815 -13.993205 -19.513823 31.360179 0.606509 2.242408 -0.017951 -0.003586 55126.100000 0 0 1
-21.346315 -13.352405 -19.988523 32.147985 0.558968 2.241792 -0.018031 -0.005812 285877.000000 0 0 1
-21.544815 -12.172305 -19.261823 31.358602 0.514268 2.232224 -0.024463 -0.003401 -140342.000000 0 0 1
-22.943415 -11.580205 -19.496423 32.258518 0.467424 2.219785 -0.021800 0.002554 -229778.000000 0 0 1
-23.131615 -11.072405 -20.769623 33.000712 0.446438 2.251537 -0.021362 -0.000672 -605446.000000 0 0 1
-24.438115 -10.715105 -21.090923 34.012674 0.413215 2.239654 -0.017690 0.000551 -829976.000000 0 0 1
-24.540315 -9.801205 -22.319223 34.589571 0.379982 2.272158 -0.014211 -0.001844 -303030.000000 0 0 1
-24.161615 -10.420005 -23.499923 35.278981 0.407163 2.299787 -0.020844 0.005291 311545.000000 0 0 1
-25.147875 -10.057305 -24.425723 36.471646 0.380443 2.304626 -0.000512 -0.002234 -38958.700000 0 0 1
-24.733215 -10.595805 -25.792673 37.272845 0.404750 2.335047 -0.007525 -0.003939 -147927.000000 0 0 1
-23.678215 -9.884205 -26.384703 36.803640 0.395449 2.370149 -0.011709 -0.011466 -13824.100000 0 0 1
-22.571815 -10.745105 -26.612603 36.512666 0.444297 2.387451 -0.010844 0.001245 577471.000000 0 0 1
-21.740915 -10.377505 -27.919403 36.876186 0.445344 2.429677 0.008573 -0.009519 360936.000000 0 0 1
-22.419315 -10.815205 -29.103403 38.296245 0.449473 2.434039 0.025180 0.003264 -44777.400000 0 0 1
-21.667715 -10.713805 -30.282663 38.746809 0.459205 2.467947 0.019202 0.010332 -213796.000000 0 0 1
-22.308815 -11.347105 -31.557233 40.277773 0.470534 2.471059 0.017326 0.004970 803654.000000 0 0 1
-23.336415 -10.540905 -32.205153 41.144512 0.424261 2.469841 0.015406 -0.001607 647464.000000 0 0 1
-22.883315 -9.318905 -32.747803 41.023246 0.386729 2.495221 0.010547 -0.005140 -697060.000000 0 0 1
-24.013315 -8.301805 -33.075283 41.707717 0.332854 2.486556 0.025081 -0.015885 -872926.000000 0 0 1
-24.925015 -8.685105 -34.076777 43.103528 0.335293 2.482552 0.026117 -0.015948 669612.000000 0 0 1
-26.036635 -9.458605 -33.639613 43.577461 0.348457 2.452699 0.034886 -0.009170 -128912.000000 0 0 1
-27.065435 -8.755305 -32.725733 43.360890 0.312862 2.426038 0.027524 0.002625 -1542080.000000 0 0 1
-28.366165 -9.236505 -32.820803 44.352649 0.314790 2.403861 0.010935 0.005046 -825617.000000 0 0 1
-29.174685 -8.684505 -31.816573 44.032683 0.289320 2.378305 0.020250 0.010901 498844.000000 0 0 1
-30.645125 -9.176505 -32.023933 45.264381 0.290947 2.356731 0.008791 0.008412 359946.000000 0 0 1
-30.721755 -10.618605 -32.005253 45.617072 0.332784 2.348446 0.012340 0.006837 742445.000000 0 0 1
-32.058555 -11.151205 -32.026603 46.666944 0.334748 2.327159 0.003759 0.006825 472477.000000 0 0 1
-32.099095 -12.657505 -32.129493 47.147308 0.375605 2.320566 0.004394 0.000623 -185215.000000 0 0 1
-33.350355 -13.279105 -31.874663 48.005989 0.378928 2.296915 -0.015813 -0.007592 -10666.800000 0 0 1
-33.294835 -14.634705 -32.067783 48.487765 0.414129 2.293424 -0.017002 -0.007679 103965.000000 0 0 1
-34.515522 -15.311705 -31.446933 49.139385 0.417534 2.265234 -0.017325 -0.012218 -44075.800000 0 0 1
-34.355913 -15.340005 -30.061913 48.159767 0.419942 2.244919 -0.017963 -0.011272 -158019.000000 0 0 1
34.402672 -16.083205 -29.354623 47.999034 -0.437310 2.228836 -0.019442 -0.005214 28138.600000 0 0 1
34.517558 -16.072905 -27.784293 47.135624 -0.435787 2.201179 -0.014879 -0.002003 -402805.000000 0 0 1
-34.443175 -17.148505 -27.295383 47.174585 0.461949 2.187812 -0.012542 -0.012002 171446.000000 0 0 1
-34.143641 -16.993805 -25.910333 46.107732 0.461818 2.167540 -0.008164 -0.001493 -221584.000000 0 0 1
-32.926285 -16.117505 -25.551533 44.685513 0.455215 2.179504 0.013584 0.001257 289344.000000 0 0 1
-31.719185 -16.889605 -25.548783 44.092015 0.489287 2.188841 0.006107 0.008863 -397835.000000 0 0 1
-30.622115 -16.376605 -24.894423 42.727502 0.491096 2.192760 0.015281 0.022684 152593.000000 0 0 1
-29.326075 -17.223405 -25.194263 42.325114 0.531034 2.208380 0.012380 0.016070 563188.000000 0 0 1
-29.260565 -18.554005 -24.665923 42.530454 0.565113 2.189475 0.009662 0.002724 -29824.400000 0 0 1
-29.912235 -19.540105 -25.477123 43.882130 0.578655 2.190238 0.004282 -0.000757 3181.210000 0 0 1
-29.792855 -20.929505 -24.802423 44.054723 0.612402 2.168797 0.006535 -0.015064 43881.200000 0 0 1
-28.431245 -21.332505 -24.653023 43.257173 0.643705 2.177202 0.010038 -0.000523 461709.000000 0 0 1
-28.393765 -22.461905 -23.755023 43.301780 0.669282 2.151476 -0.003452 0.008677 -672414.000000 0 0 1
-27.111565 -23.317105 -23.922323 43.023271 0.710296 2.160401 0.021119 -0.001964 1079860.000000 0 0 1
-25.897305 -22.750105 -23.367523 41.644673 0.720794 2.166531 0.016471 -0.006305 780538.000000 0 0 1
-25.855885 -22.607505 -21.963823 40.768071 0.718471 2.139750 0.000591 -0.003654 -657448.000000 0 0 1
-25.844055 -23.881505 -21.069623 41.014272 0.745951 2.110305 0.004067 -0.003822 -182876.000000 0 0 1
-25.744465 -23.530905 -19.711523 40.062765 0.740506 2.085200 -0.007701 -0.002497 12437.400000 0 0 1
-25.863355 -24.650805 -18.862823 40.402740 0.761399 2.056544 -0.001593 0.024740 -25559.800000 0 0 1
-25.591555 -24.316905 -17.352423 39.336321 0.759864 2.027654 -0.011432 0.017536 58483.700000 0 0 1
-26.640295 -23.491905 -16.901623 39.334969 0.722679 2.014940 -0.008763 0.015065 -16184.000000 0 0 1
-26.276195 -22.855805 -15.712923 38.206311 0.715894 1.994638 -0.010446 0.015964 91713.400000 0 0 1
-27.486115 -22.105005 -15.133923 38.381680 0.677311 1.976103 -0.009477 0.016813 149857.000000 0 0 1
-28.097985 -21.134605 -15.972423 38.617180 0.644892 1.997211 -0.002442 0.015378 211212.000000 0 0 1
-29.214305 -20.583005 -15.261823 38.859477 0.613775 1.974410 -0.007822 0.012476 44672.200000 0 0 1
-30.254485 -19.959505 -16.164923 39.686527 0.583178 1.990309 0.000661 0.001479 -689376.000000 0 0 1
-31.143065 -20.819005 -16.804523 41.057441 0.589268 1.992475 -0.011168 0.015355 -561964.000000 0 0 1
-31.994395 -20.079305 -17.664323 41.699498 0.560458 2.008223 -0.018898 0.011651 -89063.400000 0 0 1
-32.775485 -21.035805 -18.626123 43.170244 0.570600 2.016904 -0.022402 0.021984 448890.000000 0 0 1
-33.918265 -21.715905 -18.147223 44.174098 0.569485 1.994140 -0.020158 0.021085 -26735.800000 0 0 1
-33.602845 -22.742905 -17.257623 44.093270 0.594995 1.972937 -0.017845 0.015754 29755.700000 0 0 1
-34.506627 -24.026105 -17.438823 45.520035 0.608222 1.963949 -0.020585 0.031083 -349376.000000 0 0 1
33.897813 -23.795605 -17.137223 44.821613 -0.612054 1.963127 -0.024994 0.022666 -1279020.000000 0 0 1
33.235198 -24.998705 -16.984123 44.921866 -0.644892 1.958519 -0.026937 0.018040 42964.800000 0 0 1
31.722738 -24.803005 -16.718523 43.600805 -0.663587 1.964320 -0.027603 0.008037 -45743.700000 0 0 1
30.867158 -24.613605 -17.822923 43.315905 -0.673156 1.994856 -0.015262 -0.002770 178738.000000 0 0 1
29.571788 -24.863405 -17.279023 42.323093 -0.699118 1.991349 -0.004737 -0.002561 350926.000000 0 0 1
28.366958 -24.985005 -18.222423 41.964169 -0.722093 2.019988 0.011760 -0.008324 -108252.000000 0 0 1
27.854918 -23.774705 -18.672323 41.107040 -0.706534 2.042311 0.029535 -0.002057 -365629.000000 0 0 1
26.614468 -24.034605 -19.268223 40.709416 -0.734506 2.063842 0.046827 0.001933 -468544.000000 0 0 1
33.145058 29.417795 -18.284323 47.940776 0.725892 1.962100 0.006822 -0.006460 -583572.000000 0 0 1
32.261938 29.461595 -19.376923 47.794178 0.740060 1.988239 0.005660 -0.014431 -244098.000000 0 0 1
32.850388 29.090895 -20.586523 48.468888 0.724778 2.009468 0.009382 -0.008078 -160694.000000 0 0 1
31.997268 29.353695 -21.860823 48.614403 0.742335 2.037201 0.010736 -0.002216 -289930.000000 0 0 1
30.876208 28.544395 -22.075923 47.491780 0.746176 2.054247 0.010506 0.005186 360463.000000 0 0 1
30.125618 28.731295 -23.291523 47.702571 0.761713 2.080898 0.017638 0.007220 778680.000000 0 0 1
29.077538 29.877595 -23.398223 47.808480 0.798968 2.082216 0.025690 0.006921 203982.000000 0 0 1
29.700538 31.146295 -23.306523 48.942903 0.809154 2.067122 0.016975 -0.001446 468813.000000 0 0 1
28.687428 32.140495 -23.460923 49.055019 0.842105 2.069466 0.019690 0.003515 -18575.200000 0 0 1
29.165638 33.574395 -23.031723 50.083278 0.855553 2.048643 0.018670 0.000211 3430.720000 0 0 1
29.572238 33.633495 -21.700823 49.766003 0.849565 2.022009 0.021663 0.002440 204746.000000 0 0 1
30.918678 33.251595 -21.444223 50.214420 0.821737 2.012028 0.017935 -0.002465 10023.600000 0 0 1
31.371708 33.125395 -19.981823 49.807120 0.812582 1.983605 0.009405 -0.004907 -214141.000000 0 0 1
31.664298 34.353095 -19.398623 50.587247 0.826104 1.964345 0.012757 -0.006130 -93814.700000 0 0 1
31.214578 34.526195 -18.111623 49.944359 0.835729 1.941891 -0.000470 -0.012645 -551409.000000 0 0 1
30.877238 -33.476501 -17.762023 48.883222 -0.825766 1.942664 -0.000223 -0.007443 29330.300000 0 0 1
32.021218 -32.666001 -17.507423 48.978933 -0.795366 1.936330 -0.003311 -0.008808 423740.000000 0 0 1
32.922198 -33.074401 -16.488623 49.494059 -0.787704 1.910432 -0.002619 -0.008189 581501.000000 0 0 1
34.283888 -32.273601 -16.611023 49.928914 -0.755204 1.909955 0.003580 0.000252 1010310.000000 0 0 1
-34.584530 -32.724801 -17.678023 50.788924 0.757776 1.926306 -0.007795 -0.005639 -541891.000000 0 0 1
-33.457535 -31.910801 -17.697923 49.506791 0.761741 1.936370 -0.015009 0.001908 -329099.000000 0 0 1
-32.468905 -32.349801 -18.809823 49.543404 0.783561 1.960229 -0.006139 -0.005543 -812286.000000 0 0 1
-31.946875 -33.593701 -18.492123 49.910903 0.810520 1.950346 -0.005555 -0.007160 -56332.400000 0 0 1
-30.883695 -34.064601 -19.282223 49.859842 0.834335 1.967878 0.000606 0.000643 1182170.000000 0 0 1
-29.469555 -33.366701 -19.322523 48.529901 0.847339 1.980303 -0.003901 0.001910 -32925.000000 0 0 1
-29.563515 -32.269101 -20.182723 48.193761 0.829127 2.002901 -0.013295 0.004699 495741.000000 0 0 1
-28.346835 -31.764001 -20.761723 47.366064 0.842185 2.024530 -0.007653 0.009118 600318.000000 0 0 1
-27.616015 -32.796801 -21.704223 48.055673 0.870945 2.039407 -0.015350 0.012187 -12312.300000 0 0 1
-28.379355 -33.318201 -22.790323 49.344596 0.865277 2.050888 -0.013003 0.013613 -199731.000000 0 0 1
-27.733195 -34.464601 -23.159123 49.932793 0.893204 2.053083 -0.013760 0.007444 -114241.000000 0 0 1
-28.345505 34.351495 -24.378523 50.772092 -0.880901 2.071629 -0.014143 0.002125 -288788.000000 0 0 1
-29.455375 33.501095 -24.134223 50.718865 -0.849572 2.066719 -0.012762 -0.001047 -39581.000000 0 0 1
-29.906555 32.721095 -25.212543 50.997495 -0.830309 2.087927 -0.007552 -0.003985 -50019.600000 0 0 1
-30.827055 33.462495 -26.169943 52.487254 -0.826369 2.092775 -0.004701 -0.015635 -1023950.000000 0 0 1
-30.217245 34.408195 -27.021683 53.171206 -0.850157 2.103891 -0.006044 -0.020299 -432069.000000 0 0 1
-31.057725 -34.529201 -28.012133 54.235852 0.838278 2.113540 -0.008457 -0.024668 77183.600000 0 0 1
-30.245925 -33.641001 -28.999613 53.735561 0.838490 2.140845 -0.015736 -0.020568 -143037.000000 0 0 1
-30.124535 -34.200601 -30.326923 54.743867 0.848680 2.157932 -0.012790 -0.015984 328827.000000 0 0 1
-31.337765 -34.253601 -31.074803 55.865983 0.829823 2.160649 0.003971 -0.012725 218417.000000 0 0 1
-31.296885 34.162995 -32.173423 56.406865 -0.829154 2.177766 0.015811 -0.010677 -663383.000000 0 0 1
-30.257575 34.399395 -33.040693 56.484747 -0.849369 2.195613 0.013048 -0.008025 -518082.000000 0 0 1
-30.516285 33.678495 -34.213232 56.886114 -0.834618 2.216091 0.011794 -0.018292 -684345.000000 0 0 1
-29.825125 34.410495 33.896142 56.767673 -0.856661 0.930912 0.019970 -0.022920 490354.000000 0 0 1
-28.445815 34.066695 33.838938 55.810195 -0.875073 0.919369 0.008249 -0.015268 156496.000000 0 0 1
-28.169805 32.836295 33.220001 54.546574 -0.861742 0.915971 0.010856 -0.022187 -395883.000000 0 0 1
-26.671795 32.470495 33.423819 53.692359 -0.883132 0.898856 0.007876 -0.018196 110686.000000 0 0 1
-26.414545 31.902195 -34.566055 53.947108 -0.879223 2.266258 0.004546 -0.013013 498556.000000 0 0 1
-25.027515 31.595195 -34.467809 53.034543 -0.900872 2.278266 0.013104 -0.012063 260144.000000 0 0 1
-24.600115 30.155295 34.408578 51.946682 -0.886507 0.846802 0.014123 -0.010125 -390885.000000 0 0 1
-25.022415 29.171095 -33.928863 51.266381 -0.861802 2.294034 0.006055 -0.002868 83911.300000 0 0 1
-24.694115 27.867795 -34.284118 50.614366 -0.845705 2.314964 0.000137 0.000316 -463704.000000 0 0 1
-24.554315 26.922795 -33.022813 49.175781 -0.831376 2.307063 0.009660 0.002267 386834.000000 0 0 1
-23.373115 26.926595 -32.186423 48.034466 -0.855927 2.305099 0.009207 0.002335 606322.000000 0 0 1
-23.297315 28.104095 -31.279063 48.072704 -0.878642 2.279252 -0.004259 0.009214 107135.000000 0 0 1
-21.997615 28.165495 -30.453063 46.952947 -0.907741 2.276523 0.001221 0.008192 320332.000000 0 0 1
-20.831515 28.700295 -31.074233 47.151532 -0.942945 2.290324 0.011081 0.006547 -74952.100000 0 0 1
-19.732315 28.742995 -30.221013 46.139286 -0.969182 2.284973 0.012471 0.003090 -426721.000000 0 0 1
-19.617815 30.000295 -29.275673 46.281113 -0.991670 2.255653 0.002186 -0.000490 -504125.000000 0 0 1
-19.073815 31.114795 -30.048163 47.274021 -1.020862 2.259604 0.001467 0.002795 483006.000000 0 0 1
-18.790915 32.198895 -29.129193 47.311492 -1.042531 2.234057 -0.009191 0.005934 -230264.000000 0 0 1
-18.257115 33.381695 -29.935203 48.412563 -1.070321 2.237419 -0.015569 0.017435 -39032.000000 0 0 1
-16.992115 33.244495 -30.538293 48.233969 -1.098288 2.256384 -0.002512 0.016363 -299591.000000 0 0 1
-16.704015 34.170595 -31.532093 49.405734 -1.116115 2.262990 0.002826 0.022434 -38293.900000 0 0 1
-15.263315 34.093995 -32.064773 49.229249 -1.149871 2.280140 0.003653 0.021338 -184506.000000 0 0 1
-14.276115 34.526995 -31.133723 48.633626 -1.178726 2.265514 0.008875 0.026913 484437.000000 0 0 1
-12.923515 34.230895 -31.485103 48.270935 -1.209801 2.281356 0.018027 0.036450 749232.000000 0 0 1
-12.506715 32.734195 -31.314513 46.995151 -1.205843 2.300079 0.018482 0.014376 -1036780.000000 0 0 1
-12.430215 32.287195 -29.995113 45.789519 -1.203297 2.285065 0.028688 -0.004859 139461.000000 0 0 1
-12.288215 30.906595 -29.933943 44.746607 -1.192368 2.303613 0.023892 -0.012179 -443945.000000 0 0 1
-12.239115 30.431395 -28.453573 43.422017 -1.188406 2.285349 0.026707 -0.026716 -246228.000000 0 0 1
-10.943115 30.616795 -27.951833 42.877091 -1.227525 2.280892 0.021929 -0.016600 -208103.000000 0 0 1
-10.929915 30.362595 -26.585543 41.810780 -1.225259 2.259911 0.012983 -0.024298 10064.500000 0 0 1
-9.707315 31.070395 -25.964653 41.638500 -1.267975 2.244101 0.022327 -0.017540 345937.000000 0 0 1
-8.507015 30.370595 -26.177213 40.987667 -1.297688 2.263553 0.027778 -0.006863 -471904.000000 0 0 1
-7.318715 31.015695 -25.823653 41.017045 -1.339067 2.251813 0.021574 -0.013592 1146720.000000 0 0 1
-6.019215 30.285095 -26.435433 40.647879 -1.374601 2.278844 0.002885 -0.008831 932622.000000 0 0 1
-5.760815 29.059195 -25.842423 39.312271 -1.375090 2.288110 0.005322 -0.015104 419333.000000 0 0 1
-4.611115 28.439795 -26.444363 39.107399 -1.410059 2.313387 0.006477 -0.012304 606147.000000 0 0 1
-4.066515 27.227695 -25.627423 37.611817 -1.422540 2.320424 0.013016 -0.012143 -126980.000000 0 0 1
-4.984215 26.163095 -25.583673 36.930669 -1.382546 2.336090 0.016976 -0.010059 141944.000000 0 0 1
-4.367115 25.110495 -24.888023 35.623340 -1.398603 2.344296 0.014494 -0.007299 -48218.300000 0 0 1
-5.363915 23.926795 -24.749423 34.839590 -1.350262 2.360837 0.017340 -0.013544 13880.700000 0 0 1
-5.636315 23.310895 -25.973823 35.352587 -1.333561 2.396032 0.005955 -0.004419 71958.200000 0 0 1
-6.543115 22.251995 -25.820973 34.708591 -1.284811 2.409738 0.005945 -0.012613 -518721.000000 0 0 1
-6.512115 21.219995 -26.979573 34.936989 -1.273034 2.453148 -0.007924 -0.000766 -995112.000000 0 0 1
-5.406615 20.422195 -27.071343 34.338829 -1.311992 2.478934 -0.003755 0.000736 -1051680.000000 0 0 1
-5.316615 19.379195 -26.135343 32.967799 -1.303038 2.486110 -0.005577 0.000317 -266764.000000 0 0 1
-4.114615 18.438795 -26.342183 32.416506 -1.351244 2.519424 -0.010727 -0.008290 103450.000000 0 0 1
-4.300715 17.924595 -27.622683 33.208431 -1.335314 2.553134 -0.020183 -0.008264 464757.000000 0 0 1
-3.270815 16.959795 -27.835733 32.759135 -1.380278 2.586230 -0.017470 -0.008295 199788.000000 0 0 1
-3.130015 16.730195 -29.379083 33.953305 -1.385847 2.616503 -0.013488 -0.003233 -282182.000000 0 0 1
-2.607315 17.816995 -30.086273 35.063189 -1.425489 2.602274 -0.002906 -0.010849 149235.000000 0 0 1
-2.420615 17.544995 -31.457393 36.100607 -1.433696 2.628807 -0.002877 -0.017081 985.961000 0 0 1
-1.567915 18.660195 -32.119863 37.179925 -1.486969 2.613765 0.005260 0.004409 541375.000000 0 0 1
-0.186115 18.635595 -31.717703 36.787671 -1.560810 2.610359 0.017160 -0.001728 629887.000000 0 0 1
0.567185 19.675695 -32.267403 37.797354 1.541978 2.593836 0.034286 0.019217 -4735.970000 0 0 1
0.331085 21.044395 -31.652913 38.011618 1.555065 2.554793 0.022554 0.014575 -616876.000000 0 0 1
1.138385 21.281295 -30.543973 37.244110 1.517355 2.532386 0.028076 -0.006596 -388176.000000 0 0 1
1.002485 22.602595 -30.058463 37.621716 1.526473 2.496370 0.025629 -0.006163 180307.000000 0 0 1
1.860785 22.901495 -28.787833 36.833142 1.489723 2.467982 0.032586 -0.011379 806582.000000 0 0 1
3.262185 22.868395 -29.061413 37.123727 1.429102 2.469991 0.022111 -0.005298 374374.000000 0 0 1
4.077685 23.304095 -27.981533 36.642524 1.397573 2.439722 0.012058 -0.009299 189372.000000 0 0 1
4.332385 24.800295 -27.683353 37.419143 1.397851 2.403596 0.014003 -0.001909 -89840.000000 0 0 1
5.166385 25.364995 -28.698263 38.647960 1.369863 2.407674 0.004570 -0.002638 603178.000000 0 0 1
5.482785 26.793195 -28.592913 39.566285 1.368949 2.378437 -0.000000 -0.005661 -177123.000000 0 0 1
6.312985 27.303295 -29.784663 40.895597 1.343572 2.386648 0.002120 -0.004466 -91587.300000 0 0 1
7.666685 26.906595 -29.722403 40.818674 1.293215 2.386426 0.002877 -0.001416 -124783.000000 0 0 1
8.492285 27.483195 -30.688993 42.062563 1.271104 2.388538 0.011827 -0.010654 -107931.000000 0 0 1
9.930985 27.669195 -30.165283 42.120697 1.226199 2.369085 0.014655 -0.005707 -57155.000000 0 0 1
10.700985 28.453495 -31.055113 43.457249 1.211073 2.366867 0.022733 -0.015770 526931.000000 0 0 1
11.931585 28.931895 -30.491673 43.693929 1.179644 2.343183 0.018171 -0.015751 664043.000000 0 0 1
12.708785 29.940395 -31.348683 45.173891 1.169375 2.337765 0.031728 -0.014076 -118558.000000 0 0 1
12.084585 31.222995 -31.407063 45.905514 1.201511 2.324258 0.026734 -0.017456 605867.000000 0 0 1
12.998385 32.111795 -32.035533 47.184752 1.186171 2.317112 0.041392 -0.020239 162238.000000 0 0 1
12.471085 33.559295 -32.069743 48.064776 1.214998 2.301266 0.028725 -0.017271 -88327.900000 0 0 1
11.529785 33.610495 -33.126963 48.579800 1.240334 2.321165 0.019086 -0.021457 -321933.000000 0 0 1
10.622785 34.637595 -32.832653 48.893657 1.273219 2.307043 0.007080 -0.007295 -398139.000000 0 0 1
9.565385 34.672295 -33.959943 49.466578 1.301612 2.327493 0.001359 -0.001350 212556.000000 0 0 1
10.027085 -34.198501 34.088056 49.316077 -1.285587 0.807626 -0.008501 0.000675 530087.000000 0 0 1
8.949285 -34.237201 33.165539 48.499780 -1.315126 0.817799 -0.000620 0.002071 435895.000000 0 0 1
9.167985 -33.239001 32.038009 47.067156 -1.301668 0.822096 -0.003029 0.018622 -13484.200000 0 0 1
9.158785 -31.847601 32.431519 46.367623 -1.290771 0.796178 -0.013005 0.013981 80994.800000 0 0 1
9.396085 -31.086201 31.260669 45.076244 -1.277268 0.804451 -0.002318 0.012246 -774297.000000 0 0 1
9.053985 -29.612201 31.360979 44.072306 -1.274071 0.779052 -0.012818 -0.000761 -134908.000000 0 0 1
7.711285 -29.196501 31.291129 43.486025 -1.312576 0.767617 -0.002384 0.005235 -227578.000000 0 0 1
7.010285 -29.263201 32.524619 44.309479 -1.335668 0.746555 -0.002019 0.013950 457649.000000 0 0 1
5.483685 -28.876001 32.387289 43.735921 -1.383126 0.736954 -0.000254 0.011523 947269.000000 0 0 1
4.641185 -29.940301 31.974719 44.049346 -1.417006 0.758477 0.012479 0.001504 -174397.000000 0 0 1
4.855885 -30.612801 30.739179 43.653412 -1.413484 0.789551 0.007785 0.001942 -895159.000000 0 0 1
4.542185 -29.796201 29.444069 42.135475 -1.419519 0.797084 0.000483 0.000028 -34210.400000 0 0 1
3.152285 -29.647401 29.234969 41.756302 -1.464868 0.795212 0.005616 -0.005663 402161.000000 0 0 1
2.836585 -29.103901 27.937639 40.442490 -1.473639 0.808203 0.008574 -0.015761 10794.000000 0 0 1
1.334485 -29.161301 27.562439 40.147857 -1.525066 0.814100 0.006940 -0.021205 108258.000000 0 0 1
0.935985 -30.356201 26.934349 40.593524 -1.539973 0.845291 -0.000680 -0.020020 245240.000000 0 0 1
0.323085 -31.302301 27.781039 41.853609 -1.560475 0.844952 0.015734 -0.018332 -603246.000000 0 0 1
0.319885 -32.614901 26.991169 42.336241 -1.560989 0.879492 -0.001932 -0.008188 -76709.000000 0 0 1
1.536985 -33.315801 26.797199 42.783114 -1.524695 0.893934 -0.007226 -0.004643 154663.000000 0 0 1
2.296385 -32.869301 25.676339 41.772464 -1.501046 0.908827 -0.008211 -0.008263 -1494540.000000 0 0 1
3.761685 -32.871901 25.975029 42.064407 -1.456857 0.905228 -0.012378 0.009908 -1046440.000000 0 0 1
4.488485 -32.501401 24.769769 41.109963 -1.433563 0.924136 -0.018549 -0.001183 1192770.000000 0 0 1
5.907785 -32.408201 24.994849 41.351371 -1.390483 0.921721 -0.015478 -0.005041 485470.000000 0 0 1
6.695485 -32.400301 23.685519 40.689223 -1.367016 0.949478 -0.018774 -0.003772 -343798.000000 0 0 1
7.985085 -31.865901 23.851819 40.596878 -1.325268 0.942795 -0.021277 0.003101 70825.000000 0 0 1
8.728885 -31.742701 22.654719 39.962843 -1.302441 0.968065 -0.022048 -0.003354 668541.000000 0 0 1
9.976185 -30.807801 22.778019 39.591452 -1.257632 0.957793 -0.015080 0.000473 927001.000000 0 0 1
11.204585 -31.378101 23.246419 40.626641 -1.227826 0.961615 -0.002375 -0.001535 296914.000000 0 0 1
12.121885 -30.319901 23.435419 40.192728 -1.190463 0.948286 0.008504 -0.000797 -280816.000000 0 0 1
13.447385 -30.845601 24.028119 41.347718 -1.159681 0.950688 0.043462 -0.000039 -399852.000000 0 0 1
13.494185 -31.024901 25.450559 42.336373 -1.160531 0.925856 0.024413 -0.002497 193803.000000 0 0 1
13.641385 -29.820001 26.202099 41.974633 -1.141758 0.896642 0.015152 0.003187 -580400.000000 0 0 1
-10.542715 -14.270405 26.063669 31.529481 0.934514 0.597678 0.035217 -0.010426 -406160.000000 0 0 1
-9.158615 -14.111205 26.086239 31.040268 0.995102 0.572776 0.024573 -0.008417 -892117.000000 0 0 1
-8.512715 -14.514405 27.239679 32.017720 1.040362 0.553350 0.026411 -0.005334 254016.000000 0 0 1
-6.965815 -14.431105 27.053269 31.442944 1.121089 0.534757 0.029576 0.004692 269994.000000 0 0 1
-6.354415 -15.358705 26.196809 31.024849 1.178507 0.565387 0.020370 -0.003472 92922.400000 0 0 1
-6.430115 -15.001205 24.820169 29.705611 1.165847 0.581685 0.022903 -0.007716 -794089.000000 0 0 1
-5.797915 -16.017705 23.900119 29.349589 1.223499 0.619230 0.020420 -0.008228 238404.000000 0 0 1
-6.493415 -17.312305 23.717119 30.072946 1.211960 0.662181 0.026927 -0.004253 298227.000000 0 0 1
-6.543215 -18.163805 24.845309 31.464692 1.225034 0.660599 0.018367 -0.002703 72871.300000 0 0 1
-7.255115 -19.559505 24.581359 32.240567 1.215603 0.703727 0.012073 -0.000129 394576.000000 0 0 1
-8.664315 -19.515305 24.438359 32.452286 1.152964 0.718103 0.014675 0.002484 76410.100000 0 0 1
-9.117715 -20.808005 24.048419 33.082205 1.157813 0.756957 0.005507 -0.002486 -268668.000000 0 0 1
-10.644915 -20.926205 24.170819 33.696421 1.100222 0.770861 0.007666 -0.003467 -177631.000000 0 0 1
-11.059615 -20.975905 25.520089 34.836455 1.085585 0.748709 0.001137 -0.003504 509631.000000 0 0 1
-12.478415 -20.926105 25.667869 35.390002 1.033096 0.759347 0.010330 0.000005 310118.000000 0 0 1
-12.886515 -21.096605 27.127589 36.701977 1.022449 0.739016 0.013064 -0.000349 -753201.000000 0 0 1
-12.579515 -22.359905 27.735409 37.781774 1.058337 0.746463 0.011199 0.005554 124332.000000 0 0 1
-11.636715 -22.223405 28.778229 38.176948 1.088428 0.716953 0.004706 0.005932 202008.000000 0 0 1
-11.169715 -23.558105 29.424269 39.313286 1.128054 0.725065 -0.005600 -0.000548 827071.000000 0 0 1
-12.279015 -24.084805 30.210089 40.540123 1.099320 0.729977 0.000520 0.001652 1121510.000000 0 0 1
-11.847215 -25.316365 30.831689 41.615717 1.133102 0.736437 -0.009007 0.008598 265581.000000 0 0 1
-12.869115 -25.951105 31.811289 43.023623 1.110435 0.738631 0.005090 -0.014899 445551.000000 0 0 1
-12.650615 -25.348635 33.055489 43.534546 1.107897 0.708570 0.000292 -0.012182 -131566.000000 0 0 1
-13.757415 -25.645855 33.866623 44.653382 1.078425 0.709890 0.011543 -0.013504 -204635.000000 0 0 1
-13.688515 -25.089375 -33.954863 44.382259 1.071345 2.441923 0.006903 -0.017706 -242768.000000 0 0 1
-13.774915 -23.685005 -33.749503 43.471332 1.044025 2.459670 0.008056 -0.021539 -114933.000000 0 0 1
-14.874715 -22.970205 -34.280710 43.864046 0.996134 2.467898 0.015883 -0.023345 -245460.000000 0 0 1
-14.987415 -21.514705 -33.791863 42.771429 0.962347 2.481698 0.004650 -0.023355 -19775.200000 0 0 1
-15.469415 -21.402705 -32.469363 41.852576 0.944946 2.458783 0.009687 -0.015160 219896.000000 0 0 1
-15.813015 -20.048605 -32.166953 41.069586 0.902963 2.470641 0.004704 -0.016448 -659380.000000 0 0 1
-15.607615 -19.625605 -30.742313 39.671801 0.898947 2.457378 0.000736 -0.008648 -383974.000000 0 0 1
-16.493315 -20.190605 -29.849203 39.631615 0.885847 2.423659 0.013442 -0.005223 -410964.000000 0 0 1
-16.316915 -19.676005 -28.562293 38.330033 0.878455 2.411582 0.006962 0.002473 13840.600000 0 0 1
-15.459915 -20.519405 -27.596963 37.704739 0.925104 2.391936 0.015429 0.000683 144415.000000 0 0 1
-14.085415 -20.523405 -27.919043 37.404305 0.969318 2.413451 0.016877 0.004769 -229924.000000 0 0 1
-13.367015 -21.576905 -27.326823 37.296048 1.016158 2.393078 0.006873 -0.005635 -143641.000000 0 0 1
-11.867315 -21.521705 -27.614953 36.967588 1.066870 2.414341 -0.006396 -0.001983 -834168.000000 0 0 1
-11.174215 -20.479005 -26.924243 35.625378 1.071305 2.427611 -0.001572 0.006872 1115120.000000 0 0 1
-9.741715 -20.504605 -27.098463 35.350623 1.127267 2.444267 0.008266 -0.002266 1135830.000000 0 0 1
-8.981715 -21.567505 -26.292633 35.172873 1.176193 2.415126 0.003249 0.007517 -953037.000000 0 0 1
-9.119015 -22.894205 -26.754153 36.374246 1.191747 2.397237 -0.002002 0.001009 91696.400000 0 0 1
-8.762315 -23.832705 -25.743963 36.159751 1.218477 2.363069 -0.003018 0.001347 -78736.900000 0 0 1
-9.089415 -25.283935 -26.098943 37.457304 1.225689 2.341674 0.000106 0.003177 -488408.000000 0 0 1
-8.358315 -25.786485 -27.218503 38.414205 1.257347 2.358242 -0.001136 0.001221 218399.000000 0 0 1
-8.825515 -27.005285 -27.870513 39.798751 1.254931 2.346595 0.000323 0.004857 -266136.000000 0 0 1
-8.701915 -28.349935 -27.107233 40.177658 1.272979 2.311333 0.016867 0.012616 -29610.500000 0 0 1
-9.622115 -28.392495 -26.021203 39.696623 1.244047 2.285643 0.005043 0.010152 -15127.000000 0 0 1
-9.594015 -29.598415 -25.289323 40.095650 1.257343 2.253283 0.025043 0.012041 -27698.300000 0 0 1
-10.665615 -29.625945 -24.161223 39.688999 1.225233 2.225298 0.021960 0.007880 54678.100000 0 0 1
-10.382915 -28.693995 -23.131523 38.291221 1.223604 2.219426 0.017317 0.000102 89814.100000 0 0 1
-11.085115 -27.460835 -23.262323 37.657840 1.187130 2.236647 0.011649 0.006288 -184445.000000 0 0 1
-10.672415 -26.485825 -22.172823 36.152917 1.187751 2.231037 0.027960 -0.001350 -36161.700000 0 0 1
-11.129915 -26.859025 -20.845423 35.774486 1.177953 2.192831 0.031516 -0.003243 225928.000000 0 0 1
-10.920715 -25.901105 -19.796623 34.380744 1.171782 2.184385 0.035238 0.005434 -307180.000000 0 0 1
-11.596915 -26.322565 -18.440923 34.167726 1.155813 2.140898 0.045949 -0.001191 505810.000000 0 0 1
-13.011415 -26.231005 -18.509523 34.640511 1.110328 2.134513 0.052465 -0.002888 264919.000000 0 0 1
-13.652215 -26.930925 -17.462723 34.879856 1.101617 2.095150 0.054416 -0.007914 -8665.840000 0 0 1
-15.164515 -27.129945 -17.691823 35.763068 1.061101 2.088281 0.057435 -0.012038 -649312.000000 0 0 1
-15.878815 -25.903995 -17.586023 35.105867 1.020882 2.095484 0.055294 -0.005793 1260870.000000 0 0 1
-17.291215 -26.067435 -17.288123 35.740404 0.985110 2.075689 0.049071 -0.001476 2336910.000000 0 0 1
-18.296915 -26.785425 -18.328723 37.258263 0.971508 2.085110 0.040641 0.005709 23906.700000 0 0 1
-17.987415 -28.172555 -18.583923 38.243982 1.002567 2.078224 0.042151 0.005068 144459.000000 0 0 1
-18.508315 -29.078735 -17.612023 38.708060 1.003977 2.043164 0.047149 -0.001781 -373011.000000 0 0 1
-19.957115 -29.553225 -17.794423 39.853745 0.976845 2.033639 0.030353 0.015886 -213480.000000 0 0 1
-20.160515 -30.562455 -18.741123 41.130763 0.987667 2.043896 0.028923 0.007694 931252.000000 0 0 1
-21.457715 -31.149485 -18.447123 42.083492 0.967584 2.024554 0.018267 0.019035 1050490.000000 0 0 1
-21.938715 -32.179355 -19.440923 43.528928 0.972415 2.033781 0.010289 0.015463 -34286.800000 0 0 1
-21.230715 -33.401345 -19.434223 44.091747 1.004593 2.027250 0.008336 0.012499 45145.200000 0 0 1
-21.784715 -34.229986 -20.426823 45.425993 1.004026 2.037195 0.002426 0.006700 186981.000000 0 0 1
-21.111015 33.891810 -20.334123 44.808551 -1.013713 2.041821 -0.002169 0.007463 207792.000000 0 0 1
-21.452615 33.199782 -19.145423 43.920239 -0.997120 2.021849 0.003069 0.002986 68701.600000 0 0 1
-20.762815 31.955022 -19.067523 42.612068 -0.994596 2.034728 -0.006613 0.000186 -271630.000000 0 0 1
-21.636415 30.850742 -18.512623 41.983567 -0.959181 2.027452 -0.004645 -0.009697 -27280.800000 0 0 1
-22.148815 30.896012 -17.157323 41.707401 -0.948829 1.994757 -0.012394 -0.006571 -34205.100000 0 0 1
-22.612815 29.623052 -16.746223 40.857075 -0.918805 1.993111 -0.007796 -0.004840 -296456.000000 0 0 1
-21.578615 28.505032 -16.507023 39.378361 -0.922823 2.003350 0.002319 -0.015470 -308013.000000 0 0 1
-20.941915 28.026072 -17.643023 39.182914 -0.929071 2.037868 -0.001273 -0.015433 -157318.000000 0 0 1
-20.556115 26.661252 -17.471623 37.929327 -0.913983 2.049508 0.005709 -0.012622 37497.300000 0 0 1
-20.265915 25.996872 -18.817623 37.955864 -0.908649 2.089525 -0.001724 -0.017440 -810931.000000 0 0 1
-19.967215 24.623702 -18.613223 36.762324 -0.889448 2.101700 0.003290 -0.014648 32899.000000 0 0 1
-19.336515 24.020492 -19.706223 36.595356 -0.893014 2.139440 -0.000017 -0.008402 1216920.000000 0 0 1
-17.858315 24.513482 -20.093323 36.380927 -0.941191 2.155922 -0.017838 -0.011718 373766.000000 0 0 1
-16.912115 24.103992 -19.115723 35.106024 -0.958976 2.146606 -0.024816 -0.005206 -672978.000000 0 0 1
-15.873515 25.013702 -19.147723 35.274482 -1.005329 2.144589 -0.016500 -0.008991 -1009870.000000 0 0 1
-15.921415 26.199272 -18.149523 35.627216 -1.024731 2.105317 -0.024083 -0.010335 -866163.000000 0 0 1
-16.956015 27.074292 -18.420223 36.875850 -1.011279 2.093841 -0.030022 -0.007887 -541298.000000 0 0 1
-16.724415 28.361742 -17.769223 37.414432 -1.037998 2.065680 -0.023843 -0.014948 96442.400000 0 0 1
-17.743915 29.508232 -18.094723 38.897317 -1.029406 2.054648 -0.013472 -0.013451 122141.000000 0 0 1
-17.642715 30.066482 -19.440023 39.914574 -1.040147 2.079495 -0.024392 -0.013189 376140.000000 0 0 1
-18.209215 29.260302 -20.503023 40.101306 -1.014128 2.107471 -0.022833 -0.010214 -191552.000000 0 0 1
-18.116815 29.976622 -21.820923 41.267051 -1.027174 2.127951 -0.016089 -0.015094 40987.200000 0 0 1
-18.979815 31.065822 -22.036523 42.554988 -1.022361 2.115116 -0.020164 -0.010991 -206195.000000 0 0 1
-19.322315 31.227582 -23.363323 43.524230 -1.016698 2.137423 -0.011635 -0.013340 -132395.000000 0 0 1
-19.722915 32.696862 -23.601723 44.890082 -1.028023 2.124413 -0.013599 -0.014942 83611.900000 0 0 1
-18.589415 33.526810 -23.720123 45.080567 -1.064532 2.124889 -0.006887 -0.008423 -199605.000000 0 0 1
-18.935015 34.564520 -24.607823 46.462735 -1.069631 2.128955 -0.010004 -0.007857 -244519.000000 0 0 1
-17.970915 -33.740865 -24.618123 45.469239 1.081398 2.142926 0.012624 0.000277 -153802.000000 0 0 1
-18.018715 -32.842045 -23.499223 44.220894 1.068992 2.131055 -0.000298 -0.000518 -16707.100000 0 0 1
-17.602215 -33.493385 -22.335123 43.937484 1.086924 2.104051 -0.007844 -0.001796 -415472.000000 0 0 1
-17.635215 -32.501005 -21.138823 42.593027 1.073648 2.090125 0.010333 0.003594 -121180.000000 0 0 1
-16.560215 -31.611335 -21.270123 41.544378 1.088236 2.108291 0.007597 0.006055 -106358.000000 0 0 1
-16.482315 -30.736295 -20.115923 40.262102 1.078572 2.093961 0.025313 0.013433 -78856.900000 0 0 1
-15.306815 -29.755875 -20.286123 39.131029 1.095685 2.115793 0.027604 0.001761 1450370.000000 0 0 1
-14.007215 -30.400565 -20.203223 39.096888 1.139035 2.113844 0.027080 0.003384 698720.000000 0 0 1
-12.904615 -29.556405 -20.354323 38.136710 1.159133 2.133790 0.023863 -0.006476 535037.000000 0 0 1
-11.541615 -30.363815 -20.355823 38.334445 1.207552 2.130584 0.026898 -0.006289 722972.000000 0 0 1
-11.144515 -31.006835 -19.125023 38.097120 1.225753 2.096714 0.028000 -0.011149 179996.000000 0 0 1
-10.443615 -30.127855 -18.242223 36.736024 1.237115 2.090446 0.029742 -0.011974 232121.000000 0 0 1
-9.530515 -30.975175 -17.264823 36.720107 1.272306 2.060284 0.028560 -0.009858 90299.500000 0 0 1
-10.257215 -31.680725 -16.270223 37.062096 1.257679 2.025281 0.037687 -0.014880 38729.200000 0 0 1
-10.807415 -32.897145 -16.789423 38.482556 1.253383 2.022264 0.036067 -0.010586 -728780.000000 0 0 1
-11.900415 -33.423395 -15.888623 38.874047 1.228742 1.991848 0.033890 -0.010070 -835633.000000 0 0 1
-11.568815 -33.685705 -14.536123 38.468988 1.239983 1.958287 0.029759 -0.010864 -735069.000000 0 0 1
-12.665415 -34.121755 -13.796923 38.923797 1.215376 1.933133 0.020893 -0.003292 -751869.000000 0 0 1
-12.348915 -34.507220 -12.325723 38.667394 1.227132 1.895220 0.020259 -0.006694 -71895.400000 0 0 1
-11.732815 -33.478745 -11.605223 37.325146 1.233716 1.886960 0.031736 -0.007560 29007.600000 0 0 1
-11.419215 -33.862445 -10.313723 37.194576 1.245549 1.851770 0.035954 -0.009953 266202.000000 0 0 1
-10.202215 -33.084735 -9.660323 35.944495 1.271682 1.842898 0.025738 -0.016672 1002180.000000 0 0 1
-9.000615 -33.449975 -10.350723 36.153137 1.307945 1.861162 0.010017 -0.017124 -871474.000000 0 0 1
-7.926415 -32.901865 -9.724823 35.212682 1.334390 1.850607 0.003161 -0.018888 -893064.000000 0 0 1
-6.543215 -33.314985 -10.257323 35.467091 1.376860 1.864194 0.000138 -0.021637 63332.100000 0 0 1
-6.223215 -34.684362 -9.850923 36.589261 1.393261 1.843390 -0.003504 -0.013109 -7977.710000 0 0 1
-4.981415 34.448463 -10.416423 36.331983 -1.427187 1.861578 0.000358 -0.011692 -233247.000000 0 0 1
-4.305715 33.313192 -9.641423 34.946602 -1.442259 1.850312 -0.009825 -0.013330 -479704.000000 0 0 1
-3.932915 33.836525 -8.423623 35.090393 -1.455083 1.813219 -0.006458 -0.013831 -55204.600000 0 0 1
-3.220015 32.849522 -7.665323 33.885347 -1.473085 1.798985 -0.011275 -0.015823 -111743.000000 0 0 1
-2.862615 33.365512 -6.270823 34.070151 -1.485210 1.755908 -0.006968 -0.008632 27219.100000 0 0 1
-1.820415 34.332084 -6.127323 34.922056 -1.517822 1.747166 -0.003344 -0.010651 110870.000000 0 0 1
-1.632815 -34.704902 -4.815223 35.075385 1.523782 1.708513 -0.002396 -0.006024 310386.000000 0 0 1
-0.603915 33.977250 -3.983023 34.215240 -1.553024 1.687472 0.001920 -0.004960 -116665.000000 0 0 1
0.702485 33.923879 -4.519523 34.230821 1.550092 1.703214 0.006299 -0.010993 -318049.000000 0 0 1
1.517985 33.189672 -3.607623 33.419658 1.525092 1.678956 -0.001725 -0.007433 -32441.200000 0 0 1
2.968585 33.259332 -4.134123 33.646495 1.481777 1.693977 -0.009936 -0.001464 -193501.000000 0 0 1
3.467285 34.541566 -3.858223 34.928896 1.470751 1.681482 -0.012659 0.006755 358542.000000 0 0 1
4.864185 34.622627 -4.187123 35.212477 1.431218 1.689989 -0.004077 0.007269 866384.000000 0 0 1
5.579785 -33.590505 -3.833423 34.265889 -1.406187 1.682904 -0.000802 0.007959 -79055.300000 0 0 1
5.221285 -32.453195 -4.644023 33.196967 -1.411277 1.711150 0.002461 0.000233 23337.700000 0 0 1
5.805885 -31.250975 -4.138123 32.053951 -1.387108 1.700256 0.006343 -0.005947 68313.400000 0 0 1
5.677585 -30.146035 -5.191323 31.112187 -1.384641 1.738439 0.006930 -0.006445 339194.000000 0 0 1
6.684585 -30.064015 -6.224223 31.420847 -1.352010 1.770207 0.021420 -0.002018 394797.000000 0 0 1
6.300785 -28.944425 -7.033523 30.445854 -1.356455 1.803920 0.019507 -0.001804 182602.000000 0 0 1
6.854385 -27.600725 -6.463823 29.164424 -1.327380 1.794286 0.022429 -0.004752 -36227.500000 0 0 1
6.187985 -27.195365 -5.315523 28.392495 -1.347067 1.759123 0.025055 -0.011780 -500334.000000 0 0 1
6.765085 -26.042765 -4.733823 27.320341 -1.316645 1.744946 0.032476 -0.009804 11326.000000 0 0 1
5.983985 -25.525665 -3.445823 26.443172 -1.340524 1.701478 0.022080 -0.009090 -399807.000000 0 0 1
4.818985 -24.866205 -3.788423 25.610601 -1.379373 1.719265 0.039144 -0.010467 -871149.000000 0 0 1
4.171785 -24.319305 -2.659123 24.817399 -1.400908 1.678150 0.035415 -0.003198 500195.000000 0 1 0
2.924285 -23.446505 -2.978823 23.815193 -1.446715 1.696206 0.031672 -0.010847 1058970.000000 0 1 0
1.924785 -24.087105 -3.789923 24.459291 -1.491056 1.726371 0.019436 -0.005464 -216178.000000 0 1 0
0.701685 -23.417005 -3.784723 23.731258 -1.540841 1.730963 0.002358 -0.004223 -235523.000000 0 1 0
-14.582815 23.144295 18.150019 32.828952 -1.008551 0.984996 -0.002494 0.002554 -230177.000000 0 0 1
-14.780515 22.556295 19.376219 33.206746 -0.990724 0.947761 -0.005263 0.004978 203437.000000 0 0 1
-14.654715 23.443895 20.430419 34.377012 -1.012127 0.934396 -0.007477 0.015672 -1005250.000000 0 0 1
-14.604615 22.748195 21.844519 34.755693 -1.000057 0.891152 0.001881 0.008637 -1021970.000000 0 0 1
-13.544715 21.895195 22.102019 33.931669 -1.016801 0.861410 0.001286 0.002421 523254.000000 0 0 1
-12.210115 22.447195 22.094119 33.780373 -1.072611 0.857868 -0.007397 0.001694 579713.000000 0 0 1
-11.867115 23.669795 23.031419 35.093217 -1.106060 0.854902 0.011645 0.020900 -901197.000000 0 0 1
-11.963115 23.264995 24.400129 35.773488 -1.095845 0.820203 0.001668 0.019317 153546.000000 0 0 1
-11.823715 24.359395 25.329559 37.077850 -1.118908 0.818735 0.014016 0.019990 -339463.000000 0 0 1
-11.331715 23.916495 26.739679 37.622028 -1.128325 0.780239 0.000034 0.015059 -490155.000000 0 0 1
-10.035615 23.413095 26.759389 36.945250 -1.165853 0.760780 -0.017743 0.011573 -772733.000000 0 0 1
-9.703715 22.673495 27.920199 37.253013 -1.166408 0.723528 -0.026524 0.013896 325339.000000 0 0 1
-8.186415 22.291395 27.887459 36.628324 -1.218841 0.705383 -0.028781 0.010516 1282200.000000 0 0 1
-7.215015 23.302295 28.188689 37.278085 -1.270531 0.713351 -0.016904 0.012001 203451.000000 0 0 1
-6.931015 24.162995 27.123409 36.980652 -1.291452 0.747415 -0.013339 0.010226 -149944.000000 0 0 1
-5.842015 25.239495 27.498659 37.780121 -1.343339 0.755600 -0.015349 0.004086 462885.000000 0 0 1
-4.537515 24.703595 27.540219 37.273588 -1.389143 0.739409 -0.013996 0.005242 -282592.000000 0 0 1
-3.620115 25.712495 27.955289 38.154107 -1.430924 0.748524 -0.013565 0.008565 -253027.000000 0 0 1
-2.173815 25.233395 27.914129 37.691489 -1.484860 0.736841 -0.013635 0.010125 -480099.000000 0 0 1
-1.643915 25.125395 26.583349 36.615057 -1.505461 0.758276 -0.007155 0.002433 -1374460.000000 0 0 1
-0.324515 24.776495 26.678229 36.410273 -1.557699 0.748498 0.006783 0.007885 -888215.000000 0 0 1
0.374785 24.594495 25.291979 35.280503 1.555559 0.771476 0.008011 0.000286 -162753.000000 0 0 1
-0.140815 23.516695 24.638109 34.060112 -1.564809 0.762124 0.009302 0.000683 -303985.000000 0 0 1
0.299585 23.361495 23.328719 33.016335 1.557973 0.786141 0.011127 0.003024 -107243.000000 0 0 1
-0.193115 22.051095 22.576419 31.559195 -1.562039 0.773647 0.009438 0.007712 -18144.800000 0 0 1
0.335285 20.894595 23.121319 31.165557 1.554751 0.734916 0.017880 0.003114 -130568.000000 0 0 1
-0.082515 19.699295 22.435819 29.856909 -1.566608 0.720547 0.021511 0.007121 -34014.200000 0 0 1
0.763785 18.428095 22.763319 29.297556 1.529373 0.680958 0.021744 0.008787 -134323.000000 0 0 1
2.016585 18.565595 22.154119 28.975040 1.462601 0.700386 0.029894 0.006434 -939286.000000 0 0 1
2.870485 17.514295 22.372319 28.557151 1.408347 0.670642 0.015287 0.001171 -457748.000000 0 0 1
4.277285 17.754595 21.816919 28.451692 1.334390 0.696947 0.016610 0.005941 -391116.000000 0 0 1
5.224585 18.375095 22.613219 29.602333 1.293777 0.701461 0.009431 0.013634 -590832.000000 0 0 1
6.372985 18.774995 21.889819 29.534380 1.243560 0.735994 0.018916 0.007961 -76380.500000 0 0 1
7.533785 19.244995 22.769319 30.750116 1.197667 0.737038 0.018758 0.001686 -551750.000000 0 0 1
7.371385 20.466395 23.566019 32.071294 1.225090 0.745423 0.009421 0.007078 -21769.800000 0 0 1
7.090285 21.651995 22.868519 32.280803 1.254336 0.783533 0.005289 0.006264 -289945.000000 0 0 1
5.980385 22.522995 23.466519 33.071557 1.311262 0.781911 0.002277 0.007900 -117253.000000 0 0 1
5.876785 23.770695 22.766819 33.435170 1.328428 0.821772 -0.002176 0.005904 32906.000000 0 0 1
4.893285 24.574495 23.362319 34.258547 1.374247 0.820383 -0.021174 0.008940 -579502.000000 0 0 1
4.670985 25.976695 22.709119 34.818255 1.392883 0.860289 -0.008932 0.011980 146666.000000 0 0 1
4.191385 26.110295 21.370819 34.000399 1.411628 0.891114 0.002344 0.000323 675480.000000 0 0 1
3.050885 25.308695 21.010019 33.034208 1.450828 0.881482 0.005629 0.002009 142598.000000 0 0 1
2.579285 25.629695 19.562519 32.345419 1.470497 0.921281 0.004085 0.005169 -552621.000000 0 0 1
1.626485 26.667095 19.537419 33.098190 1.509880 0.939382 -0.002422 0.001116 295866.000000 0 0 1
1.412985 27.104995 18.208019 32.683471 1.518713 0.979905 0.004736 0.001740 -522141.000000 0 0 1
0.367285 28.179695 18.098719 33.493190 1.557763 0.999919 0.001680 0.009333 -158398.000000 0 0 1
0.898485 29.437395 18.430219 34.742488 1.540284 1.011629 0.002239 0.006611 930871.000000 0 0 1
-0.284015 30.228895 18.529819 35.457312 -1.561401 1.020904 -0.000252 0.007924 484775.000000 0 0 1
-0.066015 31.695795 18.945019 36.926164 -1.568714 1.032060 -0.003677 0.009719 -316309.000000 0 0 1
0.377585 31.783495 20.257019 37.691909 1.558917 1.003402 -0.012652 0.007634 -267317.000000 0 0 1
0.842085 33.053995 20.521119 38.915191 1.545326 1.015342 -0.021294 0.005165 -398034.000000 0 0 1
1.387585 33.213495 21.973219 39.848263 1.529043 0.986728 -0.026421 -0.001727 -411302.000000 0 0 1
0.460585 33.129895 23.014219 40.341745 1.556895 0.963704 -0.034495 0.005228 -169102.000000 0 0 1
1.080985 33.241195 24.288949 41.183718 1.538288 0.940021 -0.032331 -0.005743 -44823.500000 0 0 1
0.049285 33.011295 25.419439 41.664085 1.569303 0.914604 -0.030414 0.009327 256256.000000 0 0 1
-1.054415 33.914595 25.435609 42.406153 -1.539716 0.927533 -0.029048 0.008634 793479.000000 0 0 1
-2.061315 33.650395 26.440639 42.845134 -1.509616 0.905717 -0.028203 0.011801 522623.000000 0 0 1
-1.747415 33.920095 27.933639 43.976295 -1.519326 0.882532 -0.013578 0.005116 -440413.000000 0 0 1
-0.817615 33.013595 28.527379 43.639172 -1.546035 0.858319 -0.017841 0.009033 188565.000000 0 0 1
-0.369915 33.597695 29.677519 44.829646 -1.559787 0.847304 -0.002446 0.001559 -244102.000000 0 0 1
0.762385 32.804695 30.454139 44.768112 1.547560 0.822673 -0.010423 0.002891 1710850.000000 0 0 1
2.108685 32.675395 29.933239 44.363575 1.506351 0.830203 -0.021767 0.005085 1324660.000000 0 0 1
2.191585 32.124095 28.649529 43.099374 1.502679 0.843661 -0.025388 0.007409 -1611800.000000 0 0 1
3.644585 31.977895 28.264679 42.834109 1.457314 0.850159 -0.025397 0.003621 -658951.000000 0 0 1
4.344585 30.943395 28.920659 42.576680 1.431304 0.824042 -0.020436 -0.003082 -453555.000000 0 0 1
5.682785 30.845695 28.547779 42.411398 1.388607 0.832382 -0.013792 -0.008897 -686310.000000 0 0 1
6.429985 29.764495 29.294609 42.254515 1.358037 0.804753 -0.011005 -0.003047 -215149.000000 0 0 1
6.578585 29.998895 30.704409 43.427782 1.354919 0.785518 -0.005753 -0.014237 360917.000000 0 0 1
7.311585 29.016795 31.456679 43.416084 1.323957 0.760430 0.002777 -0.010095 -126398.000000 0 0 1
7.105385 29.075995 32.986739 44.542395 1.331121 0.736879 0.015525 -0.018741 -752830.000000 0 0 1
5.772485 28.946595 33.397776 44.571722 1.373960 0.723786 0.008694 -0.018274 -524554.000000 0 0 1
5.746985 28.794995 -34.458721 45.272321 1.373802 2.435870 0.022079 -0.015250 -18376.300000 0 0 1
5.711085 27.296095 -34.028003 43.995435 1.364544 2.455053 0.017314 -0.011895 -62593.600000 0 0 1
6.924385 26.646995 -34.357490 44.027793 1.316563 2.466036 0.016951 -0.017231 252583.000000 0 0 1
6.917785 25.283795 -34.043753 42.966303 1.303727 2.485425 0.010816 -0.009241 90927.300000 0 0 1
8.332985 24.754595 -34.367440 43.166533 1.246087 2.491718 0.019069 -0.016549 -399196.000000 0 0 1
8.569185 24.397795 33.524584 42.338884 1.233028 0.657021 0.025152 -0.020690 -723900.000000 0 0 1
9.824985 23.869295 33.289813 42.124640 1.180316 0.659548 0.021142 -0.021547 -1234320.000000 0 0 1
10.042585 22.439695 33.826731 41.816757 1.149993 0.628471 0.021563 -0.014940 -684844.000000 0 0 1
9.375585 21.417795 33.066199 40.496877 1.158178 0.615452 0.021947 -0.014128 272257.000000 0 0 1
9.173785 20.204395 33.774456 40.411506 1.144580 0.581275 0.013502 -0.001095 -69835.600000 0 0 1
7.856385 20.095595 34.561399 40.743663 1.198115 0.558097 0.027073 -0.012252 -371970.000000 0 0 1
7.803185 20.983295 -33.609453 40.382963 1.214767 2.553983 0.026345 -0.019050 -1113760.000000 0 0 1
6.571485 20.993995 -33.028703 39.684096 1.267440 2.554024 0.027896 -0.009722 -1205280.000000 0 0 1
6.581785 21.628595 -31.608863 38.861758 1.275391 2.520713 0.031538 -0.016811 -318396.000000 0 0 1
6.854685 23.014795 -31.716713 39.782124 1.281324 2.493539 0.021740 -0.010150 145875.000000 0 0 1
7.174685 23.679095 -30.520443 39.289605 1.276593 2.460376 0.004241 -0.012541 792207.000000 0 0 1
8.675285 23.559395 -30.056163 39.162209 1.217974 2.445695 0.002159 -0.011708 716213.000000 0 0 1
9.125285 22.251295 -29.799593 38.293690 1.181612 2.462568 0.010702 -0.017512 -749528.000000 0 0 1
10.506485 22.284695 -29.567743 38.486950 1.130235 2.446905 0.011953 -0.013068 -444690.000000 0 0 1
11.036885 20.853395 -29.555013 37.817664 1.084015 2.467884 0.017660 -0.021602 -148006.000000 0 0 1
11.318485 20.245795 -30.797243 38.554773 1.061029 2.496081 0.015120 -0.020230 1205340.000000 0 0 1
10.094685 19.733195 -31.420363 38.451799 1.097945 2.527222 0.020568 -0.021029 1133770.000000 0 0 1
10.389985 18.506195 -32.378223 38.714085 1.059218 2.561373 0.027420 -0.020231 -232631.000000 0 0 1
10.846085 17.305495 -31.749583 37.751209 1.010945 2.569965 0.027851 -0.017348 295909.000000 0 0 1
11.052085 16.128895 -32.608003 38.020675 0.970049 2.601457 0.019594 -0.008547 -34421.000000 0 0 1
12.158185 16.094195 -33.700213 39.275297 0.923823 2.602259 0.014557 0.003776 -203974.000000 0 0 1
11.943385 16.860295 34.401255 40.129296 0.954473 0.540871 0.016022 0.000798 295388.000000 0 0 1
12.980585 16.697595 33.436699 39.564102 0.909993 0.563993 0.013996 0.002110 236096.000000 0 0 1
12.442885 16.838695 31.991419 38.233728 0.934407 0.579507 0.011504 -0.000917 -1041670.000000 0 0 1
12.367685 18.156795 31.521819 38.422050 0.972827 0.608669 0.011872 0.005205 378764.000000 0 0 1
11.462185 18.298095 30.421609 37.305178 1.011181 0.617239 0.008764 0.001281 367964.000000 0 0 1
9.954985 18.271895 30.734959 37.116056 1.071935 0.595127 0.004077 0.013513 -619331.000000 0 0 1
9.470985 16.994395 31.107459 36.690367 1.062365 0.558903 0.010142 0.013200 1449700.000000 0 0 1
8.010385 17.012995 31.129819 36.368584 1.130748 0.543404 0.017455 0.013593 1525410.000000 0 0 1
7.440485 16.070895 32.181329 36.732444 1.137202 0.503082 0.018948 0.020493 -213052.000000 0 0 1
7.441685 16.564895 33.495956 38.101883 1.148571 0.496793 0.023455 0.015940 55852.000000 0 0 1
6.957085 15.580295 34.353510 38.357663 1.150831 0.460996 0.032950 0.009548 -200008.000000 0 0 1
7.125285 15.857595 -33.423253 37.674220 1.148500 2.661961 0.033710 0.001251 259665.000000 0 0 1
6.259785 16.923395 -32.943723 37.561617 1.216514 2.640500 0.035744 -0.000255 569296.000000 0 0 1
6.185085 16.952295 -31.531863 36.330345 1.220952 2.621797 0.038096 -0.017071 -9115.940000 0 0 1
5.295585 18.128295 -30.990273 36.291532 1.286587 2.594279 0.045445 -0.022638 -161565.000000 0 0 1
5.301285 18.179895 -29.551313 35.098324 1.287062 2.571698 0.043442 -0.034349 595384.000000 0 0 1
4.442385 19.181495 -28.952713 35.013199 1.343211 2.544384 0.041919 -0.029701 2230290.000000 0 0 1
2.855185 19.129395 -29.118113 34.956406 1.422634 2.555275 0.041036 -0.032628 774606.000000 0 0 1
2.184885 18.138095 -28.334843 33.713907 1.450916 2.568909 0.037487 -0.030148 1195280.000000 0 0 1
0.764085 18.010795 -28.552943 33.767486 1.528398 2.578438 0.034834 -0.029749 1190040.000000 0 0 1
-0.107915 19.193695 -28.091703 34.022836 -1.565174 2.542189 0.022769 -0.026613 -952515.000000 0 0 1
-0.157815 19.595595 -26.734833 33.147603 -1.562743 2.509070 0.012158 -0.019480 -230255.000000 0 0 1
-1.008615 20.698895 -26.656593 33.764412 -1.522107 2.480770 0.008319 -0.012016 -318134.000000 0 0 1
-1.196615 21.089295 -25.142553 32.838061 -1.514117 2.442852 0.005049 -0.009226 -177018.000000 0 0 1
-1.978115 20.171495 -24.429723 31.742929 -1.473044 2.449029 0.000930 -0.004201 -12428.900000 0 0 1
-2.308815 20.675395 -23.153223 31.126746 -1.459587 2.409589 0.000530 0.004657 -278854.000000 0 0 1
-3.429915 19.815895 -22.565723 30.226576 -1.399405 2.413661 -0.006144 -0.002204 1194770.000000 0 0 1
-4.813415 20.228195 -22.741323 30.814228 -1.337185 2.400918 -0.000658 -0.006678 1161180.000000 0 0 1
-5.700615 19.176595 -22.402023 30.034804 -1.281847 2.412635 -0.001983 -0.009324 1524010.000000 0 0 1
-7.207115 19.714795 -22.374323 30.679407 -1.220320 2.388087 0.017048 -0.012338 1324250.000000 0 0 1
-7.561915 20.549695 -21.305223 30.551351 -1.218193 2.342501 0.005078 -0.019851 144100.000000 0 0 1
-7.203715 21.926395 -21.562023 31.584508 -1.253365 2.322216 0.012054 -0.020474 -132218.000000 0 0 1
-7.558215 22.810895 -20.346023 31.486890 -1.250839 2.273357 0.011275 -0.017233 -242146.000000 0 0 1
-6.706015 22.638595 -19.241023 30.458063 -1.282811 2.254569 0.015206 -0.008160 -61637.300000 0 0 1
-6.978315 23.609195 -18.246623 30.643600 -1.283403 2.208618 0.021954 -0.007739 -110596.000000 0 0 1
-5.897615 23.675595 -17.116823 29.804384 -1.326664 2.182552 0.009016 0.001820 456373.000000 0 0 1
-4.768515 24.389295 -17.610423 30.458225 -1.377715 2.187296 0.004242 0.000929 -232621.000000 0 0 1
-3.903515 24.775595 -16.559723 30.054816 -1.414526 2.154339 0.010123 0.011403 -153350.000000 0 0 1
-2.578315 25.354095 -17.042523 30.658204 -1.469452 2.160227 0.011979 0.009938 -163725.000000 0 0 1
-2.703815 26.786195 -17.111623 31.900134 -1.470196 2.136977 -0.008080 0.011000 -595519.000000 0 0 1
-1.522315 27.360495 -17.540223 32.535728 -1.515214 2.140172 -0.015226 0.007203 -824399.000000 0 0 1
-1.443415 28.908295 -17.293423 33.716991 -1.520907 2.109355 -0.030264 -0.008424 -135276.000000 0 0 1
-2.538315 29.653195 -17.836823 34.697367 -1.485404 2.110718 -0.027913 -0.005003 289426.000000 0 0 1
-2.515915 29.738495 -19.255723 35.517472 -1.486396 2.143788 -0.028694 -0.011730 -976624.000000 0 0 1
-3.890315 29.983395 -19.874323 36.181864 -1.441768 2.152310 -0.016647 -0.016366 -346859.000000 0 0 1
-4.481615 31.191395 -19.541723 37.079198 -1.428092 2.125894 0.000413 -0.017757 -119953.000000 0 0 1
-5.257615 31.204495 -18.362323 36.586035 -1.403875 2.096584 0.006452 -0.020083 -294969.000000 0 0 1
-5.669015 32.623495 -17.824523 37.605103 -1.398743 2.064615 0.009246 -0.018510 -19827.000000 0 0 1
-6.502415 33.382495 -18.667223 38.796103 -1.378420 2.072776 0.012000 -0.017480 -198140.000000 0 0 1
-7.018415 34.450495 -17.995123 39.495813 -1.369822 2.043866 0.016956 -0.019901 -335530.000000 0 0 1
-7.830815 -34.132101 -18.910523 39.798616 1.345273 2.065937 0.019299 -0.018400 -1775550.000000 0 0 1
-9.097215 -34.567601 -19.058023 40.507859 1.313460 2.060628 0.020201 -0.011293 -1994030.000000 0 0 1
-9.789815 -33.762101 -19.975023 40.431689 1.288572 2.087531 0.030862 -0.016966 -51316.600000 0 0 1
28.582985 -21.000705 -26.271963 44.138789 -0.633655 2.208327 0.018848 0.018440 355581.000000 0 0 1
27.893285 -22.233305 -25.990553 44.134612 -0.672961 2.200484 0.034940 0.005806 -295369.000000 0 0 1
26.591285 -22.224505 -26.526273 43.642504 -0.696181 2.224094 0.027275 0.003758 -178293.000000 0 0 1
25.968085 -23.602905 -26.364503 43.892204 -0.737721 2.215129 0.021758 0.005207 -353862.000000 0 0 1
26.460285 -24.717905 -27.077653 45.214166 -0.751366 2.212892 0.009703 0.020017 -684156.000000 0 0 1
27.545685 -25.362495 -26.484973 45.863653 -0.744158 2.186425 0.017180 0.025126 -174395.000000 0 0 1
27.862685 -26.781805 -27.060023 47.178799 -0.765621 2.181645 0.012009 0.022332 158379.000000 0 0 1
27.071285 -27.797315 -26.466093 46.968066 -0.798630 2.169402 0.023555 0.005701 -422914.000000 0 0 1
27.362585 -29.073735 -27.080263 48.242447 -0.815709 2.166797 0.009670 0.009509 919948.000000 0 0 1
26.386685 -29.478705 -28.296723 48.641091 -0.840689 2.191669 0.025943 0.000697 381539.000000 0 0 1
26.456985 -28.596865 -29.424083 48.821403 -0.824247 2.217662 0.001726 0.003173 445787.000000 0 0 1
27.527385 -28.855175 -30.370243 50.127135 -0.808943 2.221648 -0.010826 0.007831 200997.000000 0 0 1
27.530485 -30.231145 -31.115043 51.380888 -0.832119 2.221286 0.004915 0.012094 -285919.000000 0 0 1
28.079585 -31.300635 -30.305113 51.832352 -0.839590 2.195276 0.010052 0.004735 1767620.000000 0 0 1
29.454485 -31.205905 -29.795973 52.241508 -0.814263 2.177729 0.014084 0.001469 2338750.000000 0 0 1
30.684385 -30.987535 -30.759093 53.365537 -0.790314 2.185094 0.018682 0.001629 282540.000000 0 0 1
30.636185 -29.657515 -31.265143 52.873936 -0.769168 2.203485 0.018600 -0.006729 -197300.000000 0 0 1
31.867785 -29.100875 -31.706453 53.551058 -0.740047 2.204432 0.008576 -0.007638 2082.940000 0 0 1
31.801585 -27.742875 -32.385403 53.196073 -0.717341 2.225335 -0.004623 0.001339 -112510.000000 0 0 1
31.732785 -26.525875 -31.547203 52.017475 -0.696259 2.222414 -0.020629 0.013832 -426889.000000 0 0 1
30.500985 -26.383785 -30.878143 50.792459 -0.713146 2.224244 -0.002660 0.011339 -232105.000000 0 0 1
30.329985 -25.098865 -30.083893 49.546964 -0.691301 2.223302 -0.009567 0.016004 -621598.000000 0 0 1
30.936785 -25.068725 -28.826933 49.158089 -0.681003 2.197419 -0.012298 0.018787 -120408.000000 0 0 1
30.725485 -23.827005 -28.248713 48.060081 -0.659610 2.199107 -0.020150 0.022111 66736.400000 0 0 1
31.921885 -23.470105 -27.351103 48.144941 -0.633985 2.174991 -0.029613 0.026097 -123846.000000 0 0 1
31.986285 -24.240605 -26.163943 47.909094 -0.648502 2.148518 -0.018586 0.018831 200048.000000 0 0 1
31.112685 -23.782905 -25.069523 46.498459 -0.652661 2.140221 0.016693 0.015193 612647.000000 0 0 1
31.633185 -22.636605 -24.161623 45.791465 -0.621117 2.126622 0.019600 0.017753 16133.500000 0 0 1
31.824285 -21.411705 -24.835223 45.695016 -0.592244 2.145397 0.007336 0.016018 -37629.500000 0 0 1
31.791985 -20.307005 -23.938423 44.678326 -0.568423 2.136245 -0.010860 0.011874 -50820.900000 0 0 1
31.947385 -18.956705 -24.715723 44.619043 -0.535532 2.157871 -0.018066 0.005469 99962.600000 0 0 1
30.854185 -18.728505 -25.577213 44.237218 -0.545551 2.187296 0.002814 0.004448 186034.000000 0 0 1
31.033785 -17.395705 -26.069613 44.105907 -0.510900 2.203179 -0.005592 -0.003519 171316.000000 0 0 1
30.021085 -17.100605 -27.204193 43.974587 -0.517782 2.237800 -0.013898 0.003271 -156478.000000 0 0 1
28.674385 -17.127105 -26.826503 42.839460 -0.538429 2.247479 -0.010403 0.006973 -177432.000000 0 0 1
27.843485 -17.112005 -27.991053 43.029983 -0.551070 2.279040 -0.007887 0.003851 106217.000000 0 0 1
26.345885 -16.922505 -27.688773 41.798863 -0.570958 2.294853 -0.011879 0.005068 43201.200000 0 0 1
25.693385 -17.975705 -26.978663 41.365737 -0.610473 2.281277 0.003130 0.013425 -5722.440000 0 0 1
25.540085 -17.698905 -25.617793 40.271807 -0.606003 2.260258 0.004263 0.014914 -11039.000000 0 0 1
24.783185 -18.822205 -24.866523 39.834980 -0.649537 2.244953 0.016885 0.014447 -68602.600000 0 0 1
24.619585 -18.500005 -23.504523 38.740634 -0.644419 2.222718 0.016959 0.030820 235970.000000 0 0 1
23.724785 -19.368705 -22.822123 38.195045 -0.684656 2.211195 0.038424 0.018248 121351.000000 0 0 1
23.660285 -18.920805 -21.336123 37.054501 -0.674550 2.184383 0.024851 0.015331 -63285.100000 0 0 1
23.049085 -17.677505 -20.959723 35.819889 -0.654261 2.195852 0.002492 0.014067 302256.000000 0 0 1
23.638385 -16.482005 -21.518723 35.965055 -0.608882 2.212203 0.005652 0.020065 1138270.000000 0 0 1
25.014385 -15.974605 -20.905723 36.303673 -0.568331 2.184448 0.008825 0.015126 905527.000000 0 0 1
24.900285 -15.192105 -19.741023 35.221190 -0.547826 2.165770 0.006870 0.003038 349836.000000 0 0 1
25.980285 -14.281405 -19.564123 35.520257 -0.502614 2.154104 0.001585 0.008565 26959.000000 0 0 1
25.688285 -13.265905 -18.479823 34.312914 -0.476696 2.139532 0.003844 0.009277 -296139.000000 0 0 1
26.032285 -13.652305 -17.194523 34.054616 -0.483006 2.100074 -0.007015 0.015972 118748.000000 0 0 1
25.821585 -12.626905 -16.324823 33.055904 -0.454814 2.087314 -0.017833 0.015529 -231680.000000 0 0 1
26.547585 -12.762805 -15.009723 33.059873 -0.448131 2.042064 -0.015614 0.019849 -274394.000000 0 0 1
26.062985 -13.925705 -14.260323 32.810993 -0.490717 2.020413 -0.003267 0.013940 410546.000000 0 0 1
26.565085 -13.904905 -12.968723 32.668607 -0.482214 1.979018 0.000599 0.010877 -214629.000000 0 0 1
26.118885 -15.179505 -12.278823 32.609554 -0.526459 1.956856 -0.009213 0.003002 -223463.000000 0 0 1
24.767485 -15.342205 -11.946823 31.488698 -0.554598 1.959944 -0.011997 0.000997 -136372.000000 0 0 1
24.531585 -16.613205 -11.301023 31.709783 -0.595271 1.935197 -0.014543 0.000015 -140158.000000 0 0 1
23.093285 -16.809405 -10.793323 30.534435 -0.629201 1.932085 -0.014358 0.000424 -200889.000000 0 0 1
22.904985 -16.222205 -9.597123 29.663159 -0.616234 1.900261 -0.013744 0.000818 460031.000000 0 0 1
21.518785 -16.311205 -9.293823 28.556762 -0.648600 1.902285 -0.025273 0.000210 -35877.400000 0 0 1
21.210885 -15.937405 -7.820423 27.659745 -0.644383 1.857442 -0.021444 0.002791 -427472.000000 0 0 1
21.240685 -14.528105 -7.575723 26.825810 -0.599890 1.857096 -0.012756 0.007610 349458.000000 0 0 1
20.955085 -14.041205 -6.275423 25.993306 -0.590349 1.814630 -0.023901 0.009393 -190258.000000 0 0 1
21.731885 -14.742405 -5.110123 26.753068 -0.596066 1.762988 -0.019206 0.010296 -217337.000000 0 0 1
23.123385 -14.560005 -5.163323 27.809073 -0.561947 1.757550 -0.015283 0.011255 -75317.900000 0 0 1
23.774585 -15.217905 -4.080523 28.521328 -0.569378 1.714358 -0.027159 0.002800 -522653.000000 0 0 1
25.286685 -15.115705 -4.278123 29.769167 -0.538781 1.715006 -0.024056 0.002749 -671400.000000 0 0 1
25.724685 -13.801605 -3.961123 29.460723 -0.492429 1.705659 -0.026752 0.008650 -364527.000000 0 0 1
27.062285 -13.658405 -4.343123 30.623226 -0.467403 1.713101 -0.023936 -0.000699 -697224.000000 0 0 1
27.764785 -12.386605 -3.838123 30.643799 -0.419628 1.696376 -0.007275 -0.000049 -1193920.000000 0 0 1
28.017485 -12.520005 -2.417123 30.782665 -0.420243 1.649399 -0.006141 -0.003700 432764.000000 0 0 1
28.495085 -11.314805 -1.767923 30.710262 -0.377986 1.628396 -0.010305 -0.004729 1128180.000000 0 0 1
29.954585 -10.818205 -2.195123 31.923804 -0.346576 1.639612 -0.003099 -0.002037 704863.000000 0 0 1
29.976785 -10.458905 -3.559523 31.947872 -0.335695 1.682445 -0.009215 -0.001126 -929813.000000 0 0 1
31.249185 -10.645705 -4.051123 33.260399 -0.328340 1.692900 0.002423 -0.003880 -1088650.000000 0 0 1
31.221185 -10.518905 -5.596223 33.417472 -0.324971 1.739053 0.001731 -0.002502 343871.000000 0 0 1
30.261585 -11.462105 -6.163923 32.941422 -0.362070 1.759024 -0.012825 -0.007073 852481.000000 0 0 1
29.959685 -11.166805 -7.543923 32.851043 -0.356777 1.802504 -0.009695 -0.006226 443604.000000 0 0 1
28.701585 -11.913105 -8.099223 32.113867 -0.393428 1.825753 -0.017914 -0.004053 231952.000000 0 0 1
28.783585 -13.314505 -8.063723 32.722995 -0.433260 1.819785 -0.008389 -0.004207 -873053.000000 0 0 1
27.605885 -14.033205 -8.170823 32.027770 -0.470298 1.828765 -0.008429 -0.007057 -829262.000000 0 0 1
27.715685 -15.578505 -8.154023 32.822813 -0.512072 1.821851 -0.003715 -0.008439 -257974.000000 0 0 1
28.069185 -16.098905 -9.399023 33.695630 -0.520739 1.853485 -0.001892 -0.014260 156473.000000 0 0 1
28.172785 -17.541305 -9.340823 34.476864 -0.556895 1.845156 -0.000227 -0.014360 -397468.000000 0 0 1
28.310885 -18.088205 -10.813123 35.293243 -0.568542 1.882184 -0.004500 -0.017038 492472.000000 0 0 1
29.626385 -17.888505 -11.364223 36.426183 -0.543211 1.888072 -0.001446 -0.007683 920770.000000 0 0 1
29.842085 -18.315505 -12.683523 37.240831 -0.550467 1.918331 -0.008908 0.005460 -88856.700000 0 0 1
29.121385 -17.562305 -13.862923 36.724246 -0.542676 1.957877 -0.010307 0.002236 291131.000000 0 0 1
29.785785 -16.363305 -14.271423 36.859520 -0.502357 1.968372 -0.009134 0.003634 723018.000000 0 0 1
29.039285 -15.752905 -15.363523 36.434488 -0.497043 2.006088 -0.009972 0.005285 -321382.000000 0 0 1
29.883485 -14.592105 -15.927123 36.873099 -0.454244 2.017444 -0.010031 0.008354 474089.000000 0 0 1
30.926985 -14.956605 -16.822823 38.251612 -0.450450 2.026165 -0.016127 0.008409 289152.000000 0 0 1
32.099585 -15.450705 -16.201723 39.135705 -0.448606 1.997627 0.003071 -0.002325 -125336.000000 0 0 1
33.256685 -15.555705 -17.267823 40.572956 -0.437514 2.010420 0.012316 0.003105 -1206990.000000 0 0 1
34.521385 -15.608605 -16.796423 41.442422 -0.424635 1.988098 0.014675 -0.000765 -1651300.000000 0 0 1
-34.316119 -15.977005 -17.845923 41.848986 0.435737 2.011345 0.013282 0.005901 466709.000000 0 0 1
-32.860219 -16.116005 -17.302923 40.483463 0.455971 2.012419 0.010105 0.000442 67249.400000 0 0 1
-32.633819 -17.056805 -16.284523 40.262717 0.481621 1.987181 0.003375 -0.010904 42928.600000 0 0 1
-33.137819 -16.715605 -14.988423 40.027232 0.467183 1.954606 0.005767 -0.011757 -447020.000000 0 0 1
-32.747119 -17.737405 -13.856723 39.736609 0.496408 1.926995 0.000485 -0.017051 -808220.000000 0 0 1
-31.409619 -17.504505 -13.560823 38.430037 0.508429 1.931433 0.021871 -0.011935 -711640.000000 0 0 1
-31.078819 -17.969605 -12.272723 37.939681 0.524232 1.900201 0.023382 -0.002930 -566570.000000 0 0 1
-29.654119 -17.741405 -11.800223 36.515332 0.539152 1.899861 0.021268 -0.001203 -611830.000000 0 0 1
-29.480719 -16.326105 -11.525523 35.615898 0.505748 1.900335 0.009342 -0.008099 -6634.890000 0 0 1
-28.192619 -16.014905 -11.046023 34.253694 0.516598 1.899141 0.021376 -0.007462 68684.800000 0 0 1
-28.091319 -16.137905 -9.528523 33.769023 0.521443 1.856849 0.008641 -0.001964 -137379.000000 0 0 1
-28.008119 -17.428405 -9.055323 34.208228 0.556628 1.838701 -0.001140 -0.001139 -232682.000000 0 0 1
-28.202219 -17.399105 -7.653523 34.009858 0.552783 1.797779 0.011161 -0.001722 -192631.000000 0 0 1
-28.523819 -18.800705 -7.074123 34.887218 0.582762 1.774983 -0.000579 -0.009032 965886.000000 0 0 1
-29.758219 -19.408405 -7.534123 36.318050 0.577922 1.779762 -0.012702 -0.004514 684116.000000 0 0 1
-29.566519 -20.175405 -8.691123 36.834245 0.598798 1.808995 -0.006206 0.000043 -128757.000000 0 0 1
-30.895719 -20.794105 -9.129023 38.344221 0.592403 1.811186 -0.013187 -0.000371 -40134.700000 0 0 1
-31.859719 -19.933405 -9.677723 38.807739 0.559075 1.822832 -0.015373 -0.003075 -61827.500000 0 0 1
-33.099619 -20.612405 -9.809923 40.208091 0.556971 1.817263 -0.006625 -0.006282 757437.000000 0 0 1
-34.260419 -19.632805 -10.224823 40.789341 0.520365 1.824173 0.007284 -0.019858 396312.000000 0 0 1
-34.445119 -19.493105 -11.617323 41.248146 0.514982 1.856304 0.002057 -0.013422 1876300.000000 0 0 1
33.868585 -19.204005 -11.882923 40.707231 -0.515813 1.867021 0.007595 -0.016475 1862370.000000 0 0 1
33.557485 -19.160305 -13.412023 40.903599 -0.518800 1.904869 -0.008325 -0.008609 -263933.000000 0 0 1
33.639085 -20.411605 -13.986223 41.759263 -0.545392 1.912322 -0.010246 -0.001428 -58500.300000 0 0 1
33.373585 -20.476105 -15.406323 42.076381 -0.550318 1.945666 -0.004496 -0.002745 711903.000000 0 0 1
32.037585 -21.300005 -15.585923 41.509252 -0.586740 1.955712 -0.003171 0.001745 339660.000000 0 0 1
30.930285 -20.570805 -15.055423 40.081246 -0.586896 1.955865 0.006015 -0.004657 -526927.000000 0 0 1
29.872285 -21.478205 -14.897323 39.693789 -0.623365 1.955523 0.005725 -0.004641 -371046.000000 0 0 1
28.843585 -21.364705 -16.045023 39.317245 -0.637528 1.991159 0.021596 -0.005593 -694118.000000 0 0 1
28.215485 -20.083705 -16.036723 38.166022 -0.618600 2.004444 -0.002845 0.004292 329324.000000 0 0 1
27.253485 -19.986505 -17.090523 37.872137 -0.632764 2.038983 0.009615 0.001224 15473.400000 0 0 1
26.578985 -18.615305 -17.005523 36.635499 -0.610979 2.053507 0.009234 -0.000063 -237758.000000 0 0 1
25.711785 -18.371305 -15.925423 35.386718 -0.620397 2.037606 -0.002042 0.004236 33313.800000 0 0 1
25.245285 -17.048705 -15.929823 34.376474 -0.593971 2.052617 -0.009214 0.010414 -941215.000000 0 0 1
23.803985 -16.827305 -15.427123 32.981571 -0.615349 2.057540 -0.017974 0.010632 -344727.000000 0 0 1
22.891385 -17.404605 -16.310523 33.060080 -0.650068 2.086745 -0.008240 0.010175 -125427.000000 0 0 1
22.504685 -16.570905 -17.402623 32.922743 -0.634696 2.127735 -0.000486 0.014450 -711580.000000 0 0 1
21.400585 -17.093105 -18.337823 32.961114 -0.673961 2.160780 0.000028 0.011558 -244803.000000 0 0 1
20.120085 -17.147905 -17.773123 31.855178 -0.705815 2.162692 -0.004254 0.008857 -426566.000000 0 0 1
19.262685 -17.889105 -18.622123 32.215750 -0.748443 2.187126 -0.013015 0.006079 -131462.000000 0 0 1
17.855485 -18.163305 -18.098423 31.245430 -0.793944 2.188585 -0.010625 0.008190 -289215.000000 0 0 1
17.040985 -17.009005 -18.002423 30.063078 -0.784459 2.212825 -0.018466 0.009776 154481.000000 0 0 1
15.689185 -17.433905 -17.921423 29.517265 -0.838023 2.223266 -0.016306 0.008671 -211862.000000 0 0 1
14.712285 -16.303205 -17.711623 28.212540 -0.836648 2.249510 -0.010557 0.016931 -639756.000000 0 0 1
14.355285 -15.460905 -18.864623 28.301727 -0.822462 2.300373 -0.007019 0.018742 -368983.000000 0 0 1
13.224085 -14.737605 -18.543623 27.128202 -0.839474 2.323419 -0.000085 0.018281 -573487.000000 0 0 1
12.421285 -14.251105 -19.746123 27.336636 -0.853894 2.377965 0.005861 0.017574 -22765.000000 0 0 1
13.012185 -13.124105 -20.373023 27.506711 -0.789680 2.404843 0.004577 0.013998 275171.000000 0 0 1
12.141485 -12.563605 -21.352423 27.589596 -0.802483 2.455820 0.010681 0.010117 272644.000000 0 0 1
12.612985 -11.153405 -21.752423 27.507340 -0.724062 2.482889 0.009683 0.012378 150837.000000 0 0 1
13.742885 -11.070905 -22.607723 28.679975 -0.678130 2.478798 0.007584 0.015866 -41742.600000 0 0 1
14.162585 -9.746505 -22.794023 28.550668 -0.602754 2.495381 0.014893 0.014560 63911.900000 0 0 1
15.331385 -9.556705 -23.788523 29.870986 -0.557407 2.492075 0.013875 0.011059 92386.400000 0 0 1
14.984885 -9.961605 -25.152563 30.926231 -0.586693 2.520612 0.019148 0.009989 -137412.000000 0 0 1
16.127085 -10.196605 -25.915813 32.182029 -0.563807 2.506958 0.026837 0.001925 -638618.000000 0 0 1
21.586585 4.963795 -7.195823 23.289478 0.226019 1.884909 0.008156 0.021562 -380102.000000 0 1 0
21.625385 6.339895 -7.436023 23.730697 0.285178 1.889515 -0.005423 0.017319 694185.000000 0 1 0
21.459085 7.152995 -6.281623 23.475869 0.321749 1.841675 -0.010771 0.021000 -411935.000000 0 1 0
21.335985 8.636795 -6.701623 23.973532 0.384637 1.854114 -0.020203 0.022650 -585127.000000 0 1 0
20.096285 8.869895 -7.330023 23.157395 0.415654 1.892866 -0.021038 0.018911 462452.000000 0 1 0
19.895185 10.201295 -7.650423 23.630780 0.473797 1.900485 -0.008501 0.019246 -171658.000000 0 1 0
19.197685 11.026995 -6.544923 23.086397 0.521377 1.858235 -0.011426 0.012998 -149447.000000 0 1 0
20.120985 11.419495 -5.525123 23.786254 0.516211 1.805220 -0.021319 0.013140 411277.000000 0 1 0
19.523385 12.262995 -4.621223 23.513811 0.560839 1.768616 -0.009684 0.009327 201750.000000 0 1 0
20.488085 12.684195 -3.448623 24.342215 0.554346 1.712947 -0.014889 -0.000557 644034.000000 0 1 0
21.732885 13.332495 -3.762423 25.772651 0.550266 1.717305 -0.010888 -0.004625 1201570.000000 0 0 1
22.406485 13.765395 -2.554723 26.420887 0.550903 1.667641 -0.003742 -0.011347 28385.500000 0 0 1
23.180285 12.694495 -1.751823 26.486689 0.501031 1.636984 -0.009034 -0.008533 -931601.000000 0 0 1
24.383785 12.345295 -2.412423 27.437111 0.468668 1.658836 -0.006849 -0.010444 180294.000000 0 0 1
25.007585 11.323995 -1.685623 27.503700 0.425199 1.632122 -0.001654 -0.011777 -767888.000000 0 0 1
26.436485 11.032095 -2.139623 28.725822 0.395335 1.645350 0.008340 -0.008535 -783320.000000 0 0 1
27.331485 12.008995 -1.697823 29.901649 0.413990 1.627607 0.015080 -0.023636 -1626860.000000 0 0 1
28.552685 11.774595 -2.246623 30.966824 0.391134 1.643409 0.015905 -0.018919 -1574230.000000 0 0 1
29.571885 12.853295 -1.873923 32.298841 0.410012 1.628847 0.007455 -0.016764 -1131170.000000 0 0 1
29.859085 12.854495 -0.494623 32.512269 0.406524 1.586010 0.012477 -0.021096 107306.000000 0 0 1
30.728785 13.880995 -0.132923 33.718806 0.424288 1.574738 0.009737 -0.019971 -197843.000000 0 0 1
32.213485 13.801895 -0.529923 35.049704 0.404790 1.585916 0.015684 -0.025081 -967604.000000 0 0 1
32.966285 14.953895 -0.274623 36.200419 0.425853 1.578383 0.011204 -0.016270 -71768.100000 0 0 1
33.786685 15.269195 -1.403223 37.103334 0.424457 1.608625 0.007379 -0.006186 -271644.000000 0 0 1
33.152785 16.211095 -2.445223 36.984941 0.454794 1.636959 -0.021410 0.012808 113360.000000 0 0 1
32.048685 15.595195 -3.088823 35.775259 0.452878 1.657244 -0.001676 0.005149 -498498.000000 0 0 1
31.560585 16.396095 -4.054223 35.795798 0.479135 1.684300 -0.015410 0.010204 140255.000000 0 0 1
30.078885 16.106395 -4.440923 34.407515 0.491621 1.700226 -0.000124 -0.002046 -151052.000000 0 0 1
29.798585 14.815395 -4.990123 33.650452 0.461393 1.719638 0.000530 -0.001243 729894.000000 0 0 1
28.589785 14.660495 -5.754823 32.640832 0.473826 1.748030 0.001912 -0.010921 629793.000000 0 0 1
27.291985 14.569795 -4.911823 31.325028 0.490359 1.728248 0.006659 -0.015302 -124651.000000 0 0 1
26.166185 14.324895 -5.738323 30.377627 0.500890 1.760838 0.001519 -0.012645 -145311.000000 0 0 1
25.171785 13.573095 -5.165823 29.060857 0.494528 1.749505 0.002750 -0.003932 -489852.000000 0 0 1
24.045485 13.019695 -6.061123 28.007767 0.496264 1.788931 -0.006602 -0.001358 -93059.000000 0 0 1
24.486185 12.071495 -7.050723 28.195867 0.458026 1.823541 -0.012756 0.006823 644910.000000 0 0 1
23.467385 11.721495 -7.995023 27.423202 0.463232 1.866635 -0.010950 0.001726 87033.800000 0 0 1
23.131385 12.776295 -9.103523 27.949397 0.504635 1.902564 -0.004747 0.007149 -441683.000000 0 0 1
22.556785 13.897295 -8.565523 27.844417 0.552176 1.883488 -0.010874 0.002056 -141727.000000 0 0 1
22.681785 14.943795 -9.523523 28.783291 0.582568 1.908022 -0.008089 0.002631 -875510.000000 0 0 1
21.858785 16.236395 -9.239823 28.754153 0.638868 1.897939 -0.004543 -0.001672 844335.000000 0 0 1
20.447685 16.022795 -9.132423 27.536139 0.664660 1.908851 -0.015471 0.005754 913943.000000 0 0 1
20.010985 15.381195 -7.904323 26.448043 0.655323 1.874297 -0.017586 -0.002803 -1869100.000000 0 0 1
18.594385 14.906995 -7.874323 25.099295 0.675773 1.889912 -0.009469 0.000341 -1607910.000000 0 0 1
17.632385 15.906995 -7.749623 24.979795 0.734000 1.886237 -0.003279 0.000714 957823.000000 0 1 0
16.287285 15.378395 -7.621823 23.661422 0.756703 1.898765 0.010842 0.000557 819319.000000 0 1 0
15.784485 15.244095 -6.182623 22.798185 0.767984 1.845425 0.021033 -0.002159 -312596.000000 0 1 0
16.588485 14.511995 -5.238923 22.654407 0.718730 1.804163 0.038377 0.000238 542377.000000 0 1 0
15.995385 14.675195 -3.980823 22.069450 0.742381 1.752166 0.024386 0.001539 -28967.800000 0 1 0
15.877685 13.435695 -3.066823 21.024371 0.702284 1.717189 0.018300 0.003501 -99910.500000 0 1 0
17.108985 13.108295 -2.447623 21.691833 0.653766 1.683873 0.028702 0.005796 521245.000000 0 1 0
16.985285 12.353795 -1.276923 21.041547 0.628829 1.631519 0.020885 0.005007 -201938.000000 0 1 0
16.953085 13.268495 -0.029723 21.528143 0.664078 1.572177 0.026307 0.001714 -450825.000000 0 1 0
15.798785 14.069795 0.094277 21.155841 0.727576 1.566340 0.011933 -0.000855 255655.000000 0 1 0
15.739385 14.929995 1.211677 21.727889 0.759013 1.515001 0.010273 -0.003477 -991304.000000 0 1 0
14.417485 15.661595 1.354777 21.330374 0.826736 1.507240 0.003607 -0.004750 -937707.000000 0 1 0
14.170985 16.811795 0.595977 21.995646 0.870427 1.543698 0.003874 -0.004600 -317095.000000 0 1 0
13.168285 17.531695 1.217377 21.960102 0.926583 1.515332 -0.008706 -0.011584 -668289.000000 0 1 0
13.049085 19.031795 0.824877 23.090437 0.969769 1.535065 -0.026287 -0.009739 -405736.000000 0 1 0
12.768885 19.099195 -0.529523 22.980515 0.981487 1.593841 -0.018179 -0.007278 -144381.000000 0 1 0
12.364385 20.368795 -0.946023 23.846610 1.025227 1.610478 -0.022414 -0.005508 -319.826000 0 1 0
10.846285 20.645595 -1.007423 23.343037 1.087070 1.613967 -0.025034 -0.003876 -189658.000000 0 1 0
10.314585 20.856095 0.241077 23.268551 1.111510 1.560436 -0.030040 -0.002023 -1263690.000000 0 1 0
8.981585 20.481995 0.229677 22.365906 1.157537 1.560527 -0.016329 -0.007788 -491022.000000 0 1 0
8.407985 20.352295 1.711077 22.087053 1.179029 1.493249 -0.005712 -0.016924 80439.500000 0 1 0
8.171385 21.622895 2.290577 23.228600 1.209482 1.472026 -0.006793 -0.009320 -269404.000000 0 1 0
7.150685 21.482295 3.225177 22.869698 1.249468 1.429301 -0.018807 -0.007164 -242761.000000 0 1 0
6.458885 22.836795 3.612777 24.006011 1.295167 1.419728 -0.024381 -0.003545 512916.000000 0 1 0
7.381585 23.680195 4.324877 25.178245 1.268622 1.398170 -0.018909 0.002648 692079.000000 0 0 1
6.751685 24.868695 4.810477 26.214079 1.305693 1.386243 -0.018348 0.006544 82933.500000 0 0 1
7.354485 25.394195 6.164677 27.146949 1.288896 1.341712 -0.022739 0.007090 -74230.300000 0 0 1
7.059485 24.546595 7.254677 26.551874 1.290759 1.294051 -0.015772 -0.002407 492782.000000 0 0 1
7.863285 24.944895 8.364577 27.459883 1.265430 1.261267 -0.009979 0.003561 18971.200000 0 0 1
7.636785 23.920495 9.488577 26.842945 1.261768 1.209502 -0.003720 -0.006340 705672.000000 0 0 1
6.374885 24.109095 10.159077 26.927578 1.312294 1.183945 -0.008968 -0.004347 922584.000000 0 0 1
5.997885 22.969495 11.010077 26.168571 1.315376 1.136539 -0.020605 -0.009177 588519.000000 0 0 1
4.700885 23.292495 11.834877 26.546242 1.371652 1.108705 -0.008727 -0.001611 542533.000000 0 0 1
3.568985 23.477795 11.022777 26.181026 1.419936 1.136225 -0.019811 -0.001011 298296.000000 0 0 1
2.488785 24.104095 11.727577 26.920950 1.467909 1.120058 -0.024252 0.004577 42421.500000 0 0 1
1.239785 24.448895 10.948577 26.817101 1.520130 1.150240 0.002857 0.005761 -854436.000000 0 0 1
1.504185 25.309495 9.835677 27.195104 1.511435 1.200737 0.006524 0.000575 271713.000000 0 0 1
0.648785 25.207295 8.672777 26.665441 1.545064 1.239526 -0.007745 -0.000983 -213885.000000 0 0 1
-0.760815 25.803295 8.789277 27.269769 -1.541320 1.242629 0.003664 -0.003132 -240587.000000 0 0 1
-1.612315 25.046795 9.634977 26.884462 -1.506513 1.204259 0.006430 -0.004465 -489060.000000 0 0 1
-2.914415 25.542495 9.469077 27.396648 -1.457187 1.217887 0.016326 -0.009040 -649723.000000 0 0 1
-4.007215 24.668595 10.153677 26.975814 -1.409761 1.184890 0.031041 -0.016507 172185.000000 0 0 1
-4.353115 25.061595 11.487277 27.910405 -1.398816 1.146613 0.020914 -0.012059 179240.000000 0 0 1
-5.354715 26.053995 11.624877 29.027942 -1.368095 1.158764 0.026952 -0.006958 -246962.000000 0 0 1
-5.746115 26.221695 13.073277 29.858093 -1.355070 1.117594 0.014181 0.006081 229506.000000 0 0 1
-6.666115 25.212595 13.531077 29.380301 -1.312315 1.092182 0.018193 -0.015039 312709.000000 0 0 1
-6.988215 25.419495 14.877377 30.270815 -1.302509 1.057013 0.002768 0.010036 357541.000000 0 0 1
-8.123315 24.444095 15.303677 29.961719 -1.249956 1.034711 0.000118 0.001856 621143.000000 0 0 1
-9.428415 24.628895 14.769977 30.226308 -1.205188 1.060259 -0.007348 0.012725 -117274.000000 0 0 1
-10.247015 23.608195 15.232977 29.906384 -1.161290 1.036361 -0.010639 0.004963 1004620.000000 0 0 1
-11.767315 24.082095 15.136677 30.782073 -1.116283 1.056713 -0.016016 -0.002128 991478.000000 0 0 1
-12.173515 24.990895 16.138477 32.143269 -1.117507 1.044795 -0.008032 0.001292 -458151.000000 0 0 1
-13.402515 25.564895 15.822077 32.917008 -1.087934 1.069383 -0.012343 0.004419 -581958.000000 0 0 1
-13.940815 26.675195 16.737577 34.439205 -1.089222 1.063285 -0.008235 0.009700 -621106.000000 0 0 1
-15.065115 26.322595 17.470177 35.000626 -1.050974 1.048191 -0.001892 -0.001158 -363431.000000 0 0 1
-15.497915 27.407495 18.295277 36.415290 -1.056159 1.044417 0.002331 0.009501 -315372.000000 0 0 1
-16.743115 27.177395 19.165177 37.232335 -1.018646 1.030086 0.013844 -0.000853 -128883.000000 0 0 1
-17.917415 27.459795 18.442277 37.619034 -0.992668 1.058434 0.013694 0.000960 467304.000000 0 0 1
-19.094215 26.949895 19.116277 38.161734 -0.954383 1.046126 0.023283 0.000742 1350900.000000 0 0 1
-20.425715 27.289095 18.360677 38.717167 -0.928260 1.076712 0.023745 -0.001121 239371.000000 0 0 1
-20.721015 28.704395 18.221877 39.816323 -0.945539 1.095448 0.020335 -0.001910 118271.000000 0 0 1
-21.334715 28.899795 16.971777 39.729202 -0.934870 1.129418 0.022458 -0.003687 -206480.000000 0 0 1
-22.380215 30.046995 17.014777 41.148494 -0.930606 1.144505 0.003438 -0.005456 468847.000000 0 0 1
-23.654415 29.581295 17.482877 41.716129 -0.896274 1.138352 -0.006272 -0.002618 692522.000000 0 0 1
-24.515915 30.719795 17.563977 43.049149 -0.897246 1.150536 -0.021030 0.006383 213197.000000 0 0 1
-25.898645 30.462395 18.213577 43.936679 -0.866195 1.143357 -0.016841 0.009271 -94259.700000 0 0 1
-26.690665 29.574695 17.442277 43.488932 -0.836611 1.158107 -0.009589 0.012711 486059.000000 0 0 1
-28.025455 29.415795 17.940977 44.413892 -0.809598 1.154966 0.007165 0.005773 275456.000000 0 0 1
-28.307245 28.541395 19.166077 44.533694 -0.789517 1.125891 0.007447 0.003399 -864803.000000 0 0 1
-28.320145 27.155995 18.829377 43.520388 -0.764417 1.123359 0.000720 0.006600 342900.000000 0 0 1
-28.710835 26.279895 19.910077 43.719059 -0.741221 1.097964 -0.001833 0.008819 -20694.100000 0 0 1
-28.874595 24.831595 19.308077 42.698387 -0.710260 1.101569 0.008756 0.003804 460287.000000 0 0 1
-29.920385 24.608995 18.323877 42.855531 -0.688300 1.128990 0.012598 0.004572 734422.000000 0 0 1
-29.550675 23.860295 17.171777 41.682443 -0.679259 1.146185 0.014648 0.007936 -336730.000000 0 0 1
-29.784425 22.380695 17.264577 41.061821 -0.644411 1.136851 0.008789 0.006622 -595355.000000 0 0 1
-31.102595 22.065595 16.933377 41.725306 -0.617037 1.152910 0.000159 0.013153 -448449.000000 0 0 1
-31.247115 20.661595 16.896377 41.094663 -0.584231 1.147073 -0.001991 0.008624 974086.000000 0 0 1
-32.616025 20.185595 16.254677 41.659067 -0.554191 1.169966 0.001378 0.001337 821410.000000 0 0 1
-32.704115 20.244095 14.847577 41.229032 -0.554279 1.202395 0.009124 -0.005242 -272719.000000 0 0 1
-34.027345 20.144595 14.383777 42.077999 -0.534525 1.221926 0.011441 -0.003322 5676.560000 0 0 1
-34.312472 20.283395 12.871477 41.885998 -0.533878 1.258444 0.027388 -0.000991 -39721.400000 0 0 1
-34.135335 21.651195 12.565077 42.330563 -0.565241 1.269423 0.023464 -0.000845 6899.250000 0 0 1
-34.234519 21.967395 11.187977 42.186960 -0.570500 1.302385 0.017280 -0.007151 -372112.000000 0 0 1
-32.995035 21.683795 10.330177 40.811419 -0.581409 1.314893 0.031858 -0.010974 -429802.000000 0 0 1
-32.954825 20.300095 10.025777 39.982879 -0.552100 1.317340 0.031390 -0.010409 48865.400000 0 0 1
-31.782085 19.925295 9.330277 38.654526 -0.559989 1.327013 0.046630 -0.008765 111120.000000 0 0 1
-30.991245 18.814195 10.084277 37.631421 -0.545610 1.299506 0.041741 -0.011635 -82797.200000 0 0 1
-30.715825 19.273495 11.343777 37.994879 -0.560379 1.267612 0.039556 -0.003903 32995.500000 0 0 1
-30.187215 18.327995 12.234977 37.374832 -0.545656 1.237289 0.032614 -0.006364 -26628.200000 0 0 1
-29.862135 18.815195 13.672477 37.850962 -0.562236 1.201222 0.016078 -0.001607 -50753.300000 0 0 1
-28.753635 19.686695 13.719277 37.450715 -0.600362 1.195736 0.012879 0.006574 -139383.000000 0 0 1
-28.982935 21.039495 13.396977 38.238069 -0.627916 1.212844 0.008454 0.016233 15927.600000 0 0 1
-27.705255 21.854795 13.697877 37.852940 -0.667894 1.200522 0.009017 0.012124 255313.000000 0 0 1
-27.379925 21.743695 15.081977 38.077744 -0.671162 1.163548 0.012964 0.010862 -248360.000000 0 0 1
-26.220965 22.472495 15.399377 37.811280 -0.708569 1.151334 0.019711 0.003375 -473994.000000 0 0 1
-25.827345 22.157295 16.816877 37.957935 -0.709063 1.111810 0.030860 0.004119 -241048.000000 0 0 1
-24.827615 21.158295 16.939777 36.756496 -0.705775 1.091827 0.036473 0.007333 50587.100000 0 0 1
-24.739315 20.697795 18.268577 37.069844 -0.696684 1.055474 0.031562 0.011932 113566.000000 0 0 1
-23.686015 19.559295 18.417677 35.816256 -0.690260 1.030691 0.026858 0.015427 241620.000000 0 0 1
-23.231515 19.523895 19.754777 36.209626 -0.698898 0.993731 0.015280 0.016583 283973.000000 0 0 1
-22.326915 18.421395 19.959977 35.160200 -0.689845 0.967103 0.008811 0.021800 302182.000000 0 0 1
-21.791815 18.469195 21.418477 35.703579 -0.703058 0.927424 0.015735 0.013709 189759.000000 0 0 1
-22.747315 18.026395 22.377777 36.649095 -0.670128 0.913984 0.018960 0.013249 688761.000000 0 0 1
-22.187715 18.183195 23.706577 37.214582 -0.686528 0.880165 0.040219 0.010215 190521.000000 0 0 1
-22.885015 17.221595 24.688477 37.813069 -0.645117 0.859378 0.025251 0.019260 -680406.000000 0 0 1
-22.559315 15.847195 24.520977 36.896268 -0.612380 0.843848 0.027417 -0.008821 -29998.500000 0 0 1
-23.017515 15.026795 25.546577 37.526500 -0.578370 0.821995 0.023995 -0.022544 17241.700000 0 0 1
19.928785 24.879595 34.153288 46.718281 0.895440 0.750940 -0.015829 -0.000314 -102941.000000 0 0 1
19.667285 23.852095 33.214578 45.375464 0.881263 0.749552 -0.032294 -0.004319 1295.350000 0 0 1
19.499685 22.583395 33.784322 45.073583 0.858544 0.723434 -0.012925 -0.009624 -142280.000000 0 0 1
18.675685 21.584995 32.874819 43.536731 0.857535 0.714982 0.004580 -0.011504 -195870.000000 0 0 1
19.302685 21.103495 31.731609 42.718218 0.829936 0.733535 0.007783 -0.013507 33865.900000 0 0 1
18.539885 20.037495 31.170599 41.434705 0.824200 0.719277 -0.013821 -0.011980 -395246.000000 0 0 1
19.157985 19.455395 29.857529 40.460015 0.793100 0.740766 -0.005072 0.000963 -527162.000000 0 0 1
20.398885 18.819695 30.044479 40.901909 0.745154 0.745794 -0.004732 -0.003313 -275412.000000 0 0 1
20.889985 18.222995 28.846709 40.007520 0.717317 0.765506 0.004223 -0.007852 204614.000000 0 0 1
22.071585 17.233795 29.076879 40.368595 0.662932 0.766584 0.023053 -0.007963 806693.000000 0 0 1
23.316185 17.926995 29.284299 41.504118 0.655466 0.787561 0.035204 -0.014251 -304305.000000 0 0 1
24.229685 17.056195 29.845389 42.056375 0.613364 0.781792 0.039732 -0.001311 -123572.000000 0 0 1
25.628285 17.757595 29.866649 43.175895 0.605939 0.806896 0.028111 -0.013296 -40088.400000 0 0 1
26.394285 17.713695 28.703539 42.829037 0.591078 0.836333 0.023803 0.000667 -315121.000000 0 0 1
27.623785 18.311195 29.080639 44.091461 0.585375 0.850573 0.002619 0.002574 401611.000000 0 0 1
28.731485 18.201595 27.978719 44.040947 0.564693 0.882414 0.011501 0.017372 182680.000000 0 0 1
28.773685 19.269595 27.054859 43.945508 0.590096 0.907591 0.000699 0.017194 -152184.000000 0 0 1
29.691685 18.958595 26.044579 43.810325 0.568259 0.934171 0.007802 0.016432 -318415.000000 0 0 1
29.992985 20.085195 25.035009 43.928873 0.590074 0.964414 -0.004807 0.016200 -746488.000000 0 0 1
28.887385 20.386095 24.260359 42.879353 0.614547 0.969415 0.002037 0.010111 -435150.000000 0 0 1
28.989185 21.569395 23.443519 43.072152 0.639682 0.995260 -0.007777 -0.000927 -502787.000000 0 0 1
29.593085 21.372695 22.030819 42.636836 0.625483 1.027794 -0.009175 0.011875 -89697.700000 0 0 1
28.908285 20.335895 21.308219 41.270786 0.613046 1.028268 -0.009534 0.017993 228493.000000 0 0 1
29.604785 19.888895 20.173519 40.975387 0.591557 1.056029 -0.010295 0.009685 241731.000000 0 0 1
30.760285 18.853195 20.316319 41.405204 0.549856 1.057937 -0.000833 0.005158 364545.000000 0 0 1
30.189485 17.561995 20.582719 40.539820 0.526874 1.038265 -0.002037 0.008491 1079840.000000 0 0 1
31.222985 16.554995 20.515119 40.863343 0.487529 1.044838 -0.003310 0.016089 199073.000000 0 0 1
30.713685 15.067995 20.525319 39.895660 0.456096 1.030401 -0.008861 0.017225 117481.000000 0 0 1
30.117385 14.524595 21.694719 39.858269 0.449360 0.995246 -0.005059 0.008244 1314010.000000 0 0 1
28.733385 14.916595 21.842419 39.053854 0.478841 0.977268 0.003774 0.013115 476199.000000 0 0 1
28.067685 14.492095 23.175219 39.177883 0.476624 0.937831 -0.003960 0.008128 -25842.900000 0 0 1
27.626285 13.166095 23.175819 38.388491 0.444736 0.922640 -0.001608 0.007048 -13432.600000 0 0 1
27.077385 12.773695 24.424279 38.638032 0.440791 0.886497 0.005117 0.009728 -64346.500000 0 0 1
26.456985 11.373995 24.265399 37.658325 0.406018 0.870614 -0.001526 0.010220 -507986.000000 0 0 1
25.260485 11.393895 23.542519 36.361562 0.423732 0.866554 -0.002467 0.013829 -154544.000000 0 0 1
24.871885 10.092095 23.048719 35.379436 0.385465 0.861273 -0.009583 0.016485 202590.000000 0 0 1
23.712585 10.107695 22.008519 33.894352 0.402936 0.864097 -0.009743 0.010521 1454630.000000 0 0 1
22.405785 9.976395 22.653219 33.387363 0.418905 0.825082 -0.017983 0.014233 1619300.000000 0 0 1
21.412085 9.536795 21.693119 31.937740 0.419016 0.824081 -0.030432 0.027483 1161050.000000 0 0 1
20.007485 9.590695 22.411719 31.536741 0.446996 0.780369 -0.016794 0.014748 545303.000000 0 0 1
19.874485 8.583395 23.430519 31.900769 0.407684 0.745894 -0.004911 0.021307 598946.000000 0 0 1
18.522685 8.455395 23.869819 31.374382 0.428237 0.706242 -0.003087 0.024542 443220.000000 0 0 1
18.125985 7.674195 25.200229 31.976494 0.400498 0.663103 -0.002115 0.020102 -575963.000000 0 0 1
18.117585 6.273095 24.978159 31.488205 0.333324 0.654661 0.002341 0.012217 256406.000000 0 0 1
17.980185 5.588695 26.221039 32.281008 0.301358 0.622755 -0.001251 0.000365 -268972.000000 0 0 1
18.338185 4.083595 26.105739 32.163246 0.219108 0.623802 0.008734 -0.006275 1221020.000000 0 0 1
19.738385 3.808895 25.850019 32.746527 0.190626 0.660970 0.029015 -0.002019 1136360.000000 0 0 1
20.027685 2.464995 25.553519 32.560201 0.122463 0.668409 0.014438 -0.000622 -461102.000000 0 0 1
21.518985 2.129295 25.459099 33.403089 0.098629 0.704125 0.013211 0.008973 -364455.000000 0 0 1
22.162185 2.371595 26.698919 34.779580 0.106605 0.695613 0.016722 0.000842 560736.000000 0 0 1
23.544985 2.669495 26.442219 35.506105 0.112896 0.730676 0.017976 0.007759 805103.000000 0 0 1
24.246785 2.977395 27.793559 37.003424 0.122184 0.721058 0.008779 -0.000465 -507519.000000 0 0 1
24.618285 1.836395 28.543839 37.738350 0.074457 0.713063 0.004479 -0.009787 77224.700000 0 0 1
25.323585 2.069195 29.741839 39.117036 0.081529 0.706976 0.009461 0.002274 670140.000000 0 0 1
26.849385 2.370295 29.618589 40.047080 0.088053 0.738329 0.026718 -0.003736 -379513.000000 0 0 1
27.059085 3.677195 29.020899 39.848820 0.135068 0.754995 0.008725 0.012892 624784.000000 0 0 1
28.388485 3.793895 28.496929 40.402657 0.132855 0.787917 -0.000478 0.008784 542003.000000 0 0 1
28.812685 2.805995 27.329679 39.811503 0.097081 0.814163 -0.003542 0.009605 -571222.000000 0 0 1
28.252085 3.141195 26.043819 38.552924 0.110730 0.829107 -0.008352 0.021777 23876.500000 0 0 1
28.419185 2.058195 25.105319 37.975825 0.072297 0.848530 -0.000318 0.028468 -413784.000000 0 0 1
28.002885 2.571095 23.699019 36.775204 0.091559 0.870520 -0.003057 0.028447 108838.000000 0 0 1
28.860685 3.527095 23.136719 37.157601 0.121608 0.898653 -0.005073 0.028885 -371192.000000 0 0 1
30.182285 3.089295 22.891819 38.007229 0.101999 0.924415 -0.010373 0.024161 -381055.000000 0 0 1
30.953885 4.143095 22.071119 38.241895 0.133057 0.955568 -0.011759 0.018706 -596787.000000 0 0 1
30.517085 4.377795 20.762319 37.168958 0.142482 0.978108 -0.014662 0.011166 -285541.000000 0 0 1
30.837585 5.650395 20.286019 37.341749 0.181221 0.996489 -0.011122 0.016284 138909.000000 0 0 1
32.337485 6.004795 19.981819 38.484329 0.183600 1.024859 -0.020921 0.013258 595626.000000 0 0 1
33.102185 6.182495 21.201719 39.793100 0.184643 1.008892 -0.017060 0.017457 318748.000000 0 0 1
32.842285 7.391195 21.866319 40.142015 0.221363 0.994736 -0.008487 0.017804 -807176.000000 0 0 1
33.458185 7.350895 23.267519 41.410907 0.216268 0.974152 -0.000956 0.014875 -310931.000000 0 0 1
32.891485 6.387295 24.144719 41.299089 0.191806 0.946371 -0.000914 0.018584 -211014.000000 0 0 1
33.588385 6.309895 25.335889 42.542939 0.185695 0.932863 0.001957 0.006766 -121856.000000 0 0 1
33.000485 5.252595 26.331139 42.543515 0.157843 0.903426 0.007733 0.009041 169338.000000 0 0 1
33.097085 3.954795 25.768809 42.131805 0.118927 0.912685 0.002400 0.009900 -164638.000000 0 0 1
32.582285 2.982795 26.651229 42.199412 0.091292 0.887240 0.001561 0.015811 -172219.000000 0 0 1
32.740685 1.514295 26.235809 41.982892 0.046218 0.895772 -0.009104 0.014225 -103958.000000 0 0 1
31.932685 1.077895 25.163129 40.669906 0.033742 0.903689 -0.004560 0.012319 -148188.000000 0 0 1
32.103485 -0.325405 25.033939 40.711641 -0.010136 0.908526 0.004057 0.011420 -269709.000000 0 0 1
31.156185 -0.963305 24.008219 39.345017 -0.030909 0.914487 0.006331 0.021328 -206744.000000 0 0 1
29.835085 -0.959305 24.501419 38.618287 -0.032143 0.883498 0.002736 0.019256 -422531.000000 0 0 1
28.987585 -1.581505 23.520019 37.362716 -0.054504 0.889880 0.013631 0.009325 -577255.000000 0 0 1
27.586485 -1.837905 24.010319 36.618130 -0.066525 0.855694 0.011317 0.015801 -816992.000000 0 0 1
26.820785 -0.665305 24.073619 36.046307 -0.024800 0.839476 0.004761 0.024773 299388.000000 0 0 1
25.505985 -0.888105 23.553819 34.729330 -0.034805 0.825471 0.018027 0.025105 689608.000000 0 0 1
24.576085 0.349295 23.405319 33.939872 0.014212 0.809844 0.020769 0.025695 56361.400000 0 0 1
24.949985 1.268795 22.365919 33.531268 0.050810 0.840599 -0.000649 0.024657 176657.000000 0 0 1
23.923185 2.215495 22.203519 32.714270 0.092345 0.824791 -0.005834 0.026537 -149942.000000 0 0 1
24.074585 3.078395 20.902819 32.031079 0.127179 0.859813 -0.015023 0.021389 -140602.000000 0 0 1
23.773985 2.464795 19.711719 30.981114 0.103307 0.881169 -0.001218 0.025018 138102.000000 0 0 1
23.366585 3.493595 18.787819 30.185835 0.148413 0.898984 -0.004578 0.019521 -175008.000000 0 0 1
23.066385 2.978295 17.341219 29.011140 0.128408 0.930113 -0.009815 0.024377 -1026280.000000 0 0 1
24.203285 2.667795 16.615819 29.478833 0.109781 0.971995 -0.021606 0.014707 -634822.000000 0 0 1
24.173285 2.874595 15.203819 28.701343 0.118360 1.012520 -0.026006 0.006473 -491120.000000 0 0 1
23.475985 1.861495 14.302219 27.552504 0.079128 1.025011 -0.024646 0.025028 -558654.000000 0 0 1
22.080085 1.838195 14.405219 26.427627 0.083060 0.994310 -0.003610 0.017459 -97230.900000 0 0 1
21.602185 0.625095 13.834319 25.659960 0.028929 1.001380 0.005511 0.010348 66639.500000 0 0 1
20.068185 0.367095 13.726319 24.316222 0.018290 0.970978 0.007683 -0.009087 848226.000000 0 1 0
19.307985 1.134695 12.750619 23.166012 0.058701 0.987951 0.030194 -0.008946 864804.000000 0 1 0
19.705085 0.910995 11.367919 22.767298 0.046199 1.047995 0.046499 -0.015278 -770358.000000 0 1 0
19.566185 -0.487605 10.721619 22.316507 -0.024916 1.069646 0.054524 -0.019309 -302087.000000 0 1 0
20.547685 -1.401805 11.127719 23.409369 -0.068116 1.075431 0.038520 -0.016931 -363791.000000 0 1 0
21.731785 -1.384505 10.396619 24.130417 -0.063623 1.125361 0.043890 -0.015793 -1003670.000000 0 1 0
22.600185 -2.579805 10.808219 25.184149 -0.113658 1.127225 0.018255 -0.015577 -397762.000000 0 0 1
23.036085 -2.426705 12.165219 26.163766 -0.104957 1.087202 0.012781 -0.018783 -138403.000000 0 0 1
23.977185 -3.368905 12.557219 27.275239 -0.139591 1.092363 0.001290 -0.019798 -401332.000000 0 0 1
24.296285 -3.168905 14.018619 28.228941 -0.129695 1.051114 -0.004339 -0.008228 -44781.900000 0 0 1
25.113485 -2.055705 14.346619 28.995491 -0.081675 1.053206 -0.011783 -0.009937 214256.000000 0 0 1
25.111185 -1.867605 15.744219 29.697474 -0.074237 1.012015 -0.008591 -0.007003 -576363.000000 0 0 1
26.024785 -0.746705 16.211419 30.670134 -0.028684 1.013877 0.006429 -0.002308 77325.200000 0 0 1
27.341085 -1.294305 16.129919 31.770811 -0.047304 1.038288 0.008684 -0.001733 431016.000000 0 0 1
28.324685 -0.286705 16.389119 32.725727 -0.010122 1.046271 -0.000370 0.005756 918188.000000 0 0 1
29.820285 -0.733105 16.369319 34.025600 -0.024579 1.068901 -0.000967 0.009103 580967.000000 0 0 1
30.224185 -1.275505 15.145419 33.830637 -0.042176 1.106623 -0.000621 0.010286 -210498.000000 0 0 1
31.569385 -1.677905 15.083019 35.027687 -0.053100 1.125636 -0.002397 0.007546 -140035.000000 0 0 1
32.047385 -2.217605 13.743119 34.940320 -0.069088 1.166544 -0.002462 0.008766 -175850.000000 0 0 1
32.090685 -1.166805 12.786819 34.564089 -0.036344 1.191846 0.006777 0.004296 110372.000000 0 0 1
32.434985 -1.628905 11.514919 34.456856 -0.050178 1.230057 0.005066 -0.001144 -433504.000000 0 0 1
31.917185 -0.681905 10.448119 33.590696 -0.021362 1.254507 0.002802 0.009192 -233780.000000 0 0 1
32.638785 0.523095 10.243719 34.212537 0.016025 1.266718 -0.000110 0.008457 427756.000000 0 0 1
31.730285 1.477095 9.730819 33.221704 0.046518 1.273532 -0.008189 0.010171 53337.700000 0 0 1
32.394685 2.721095 9.157219 33.773875 0.083801 1.296226 -0.008381 0.006027 -261602.000000 0 0 1
32.950485 2.624495 7.859919 33.976474 0.079482 1.337347 -0.007409 -0.001290 233889.000000 0 0 1
33.388085 3.948795 7.506919 34.448672 0.117723 1.351118 -0.017093 0.002076 -128017.000000 0 0 1
33.938485 4.023795 6.055019 34.708427 0.118011 1.395445 -0.029178 0.012716 -276858.000000 0 0 1
34.350785 5.343195 5.719319 35.231190 0.154311 1.407738 -0.028317 0.010328 253212.000000 0 0 1
34.767085 5.313495 4.363019 35.440363 0.151658 1.447374 -0.028572 0.006871 -127872.000000 0 0 1
-34.427919 6.625295 3.796519 35.264567 -0.190115 1.462929 -0.029079 -0.008986 -2016.360000 0 0 1
34.251285 7.568695 3.885819 35.292141 0.217481 1.460468 -0.015668 -0.005542 224988.000000 0 0 1
34.573985 8.921395 3.636219 35.891138 0.252529 1.469310 -0.021486 -0.013805 -570455.000000 0 0 1
33.369485 9.905395 3.667119 35.001245 0.288555 1.465833 0.010051 -0.021866 667961.000000 0 0 1
32.310285 9.761095 2.707119 33.860921 0.293387 1.490763 0.019358 -0.024590 860711.000000 0 0 1
31.429885 8.643195 2.947819 32.729683 0.268366 1.480608 0.014879 -0.006037 194945.000000 0 0 1
30.092485 8.694595 2.134119 31.395988 0.281269 1.502770 0.036033 -0.015144 352193.000000 0 0 1
30.289585 8.630195 0.726519 31.503445 0.277568 1.547733 0.035927 -0.014589 668787.000000 0 0 1
29.099485 8.162195 0.083319 30.222647 0.273466 1.568039 0.046112 -0.009587 331863.000000 0 0 1
29.305585 8.069195 -1.450881 30.430811 0.268688 1.618492 0.034533 0.000529 183244.000000 0 0 1
28.375685 7.237495 -2.145381 29.362620 0.249735 1.643927 0.022296 0.004422 935990.000000 0 0 1
28.845985 7.280895 -3.449581 29.949990 0.247242 1.686231 0.032740 0.007338 -17437.800000 0 0 1
27.909985 6.453295 -4.369181 28.977612 0.227225 1.722151 0.018880 0.011478 -306080.000000 0 0 1
27.997485 5.078095 -4.284781 28.775086 0.179426 1.720258 0.024015 0.014026 677308.000000 0 0 1
27.194285 4.512295 -5.328481 28.076372 0.164430 1.761740 0.011201 0.014869 -135682.000000 0 0 1
27.179885 2.956695 -5.576281 27.903102 0.108356 1.771996 0.019547 0.016166 -30956.000000 0 0 1
26.262785 2.277995 -4.677381 26.773140 0.086522 1.746402 0.009308 0.015212 831210.000000 0 0 1
26.414085 0.870295 -4.749081 26.851723 0.032936 1.748595 0.011361 0.011115 -104997.000000 0 0 1
26.109485 0.212895 -3.398581 26.330607 0.008154 1.700231 0.009485 0.011344 -149569.000000 0 0 1
26.999785 0.680595 -2.435581 27.117958 0.025202 1.660732 0.020450 0.008237 384908.000000 0 0 1
26.660685 0.099295 -1.143881 26.685397 0.003724 1.613675 0.016932 0.007236 -553331.000000 0 0 1
27.669485 0.522095 -0.098081 27.674584 0.018867 1.574340 0.016244 0.005607 -600559.000000 0 0 1
28.967985 0.129495 -0.442081 28.971647 0.004470 1.586056 0.015102 0.009520 -348327.000000 0 0 1
29.958885 0.641495 0.417519 29.968661 0.021409 1.556864 0.009571 0.005257 90459.000000 0 0 1
-2.700215 -21.355005 -8.476523 23.133932 1.445020 1.945945 -0.015083 0.014575 324918.000000 0 1 0
-3.167315 -21.925305 -7.307423 23.327008 1.427329 1.889420 -0.021852 0.016503 -185570.000000 0 1 0
-2.307615 -22.995005 -6.970223 24.138752 1.470778 1.863724 -0.012555 0.016687 323848.000000 0 1 0
-2.845215 -23.728705 -5.697523 24.568444 1.451460 1.804831 -0.013669 0.023161 -395346.000000 0 1 0
-2.835915 -22.968805 -4.553923 23.587001 1.447950 1.765086 -0.014954 0.020471 -132719.000000 0 1 0
-3.262615 -23.672405 -3.411423 24.138459 1.433836 1.712598 -0.013369 0.017897 -184457.000000 0 1 0
-2.945115 -22.854305 -2.155823 23.143909 1.442638 1.664080 -0.019394 0.008241 266109.000000 0 1 0
-1.580815 -23.045005 -1.811923 23.170116 1.502307 1.649077 -0.002969 0.005756 -562117.000000 0 1 0
-1.352815 -22.413505 -0.607223 22.462503 1.510512 1.597832 -0.004989 -0.008734 810770.000000 0 1 0
0.127585 -22.271105 -0.100823 22.271698 -1.565068 1.575323 0.013186 -0.018900 731858.000000 0 1 0
0.874085 -21.287605 -0.770223 21.319460 -1.529759 1.606932 0.015156 -0.014903 -617029.000000 0 1 0
2.081185 -21.077705 -0.087823 21.180384 -1.472377 1.574943 0.021971 -0.015435 -232836.000000 0 1 0
2.981985 -19.965505 -0.706123 20.199312 -1.422535 1.605761 0.025389 -0.017676 224995.000000 0 1 0
3.641285 -20.581605 -1.787123 20.977493 -1.395689 1.656092 0.025819 -0.009272 -860733.000000 0 1 0
4.632985 -19.759205 -2.296223 20.424577 -1.340485 1.683459 0.036165 -0.003141 -462965.000000 0 1 0
5.314485 -20.416905 -3.509023 21.387075 -1.316149 1.735614 0.032224 0.003898 611425.000000 0 1 0
6.397585 -21.285105 -3.080823 22.438276 -1.278820 1.708534 0.035929 -0.003082 624280.000000 0 1 0
7.207885 -21.970305 -4.026523 23.470423 -1.253787 1.743207 0.033873 0.002171 433695.000000 0 1 0
8.335785 -21.147605 -4.724123 23.216887 -1.195325 1.775705 0.024586 0.004471 -337254.000000 0 1 0
7.987385 -19.996205 -5.491323 22.221637 -1.190768 1.820499 0.026913 0.004190 -748407.000000 0 1 0
9.075685 -19.621205 -6.264323 22.507809 -1.137559 1.852839 0.028952 0.010469 -720737.000000 0 1 0
8.859685 -18.229705 -6.825823 21.387099 -1.118409 1.895635 0.032876 0.005147 361921.000000 0 1 0
9.906185 -17.989205 -7.774023 21.958584 -1.067436 1.932674 0.036765 0.010468 590062.000000 0 1 0
9.765185 -16.700705 -8.366223 21.077620 -1.041690 1.978960 0.036124 0.007590 72068.300000 0 1 0
10.035285 -16.727705 -9.856723 21.855847 -1.030436 2.038668 0.025809 0.010899 863684.000000 0 1 0
9.010185 -17.337705 -10.710223 22.282018 -1.091523 2.072211 0.018152 0.009404 699815.000000 0 1 0
9.135285 -16.909505 -12.042623 22.680598 -1.075473 2.130536 0.019462 0.021614 77300.300000 0 1 0
8.602085 -17.872605 -13.075923 23.757223 -1.122220 2.153637 0.016172 0.020297 -225535.000000 0 1 0
7.213985 -18.065605 -13.087423 23.445432 -1.190875 2.163020 0.010198 0.020388 -140350.000000 0 1 0
6.894385 -18.820505 -14.274223 24.606856 -1.219654 2.189637 0.005945 0.026299 55898.700000 0 1 0
5.617385 -19.669205 -14.131323 24.862158 -1.292609 2.175340 0.005962 0.038331 -145363.000000 0 1 0
5.826585 -20.803005 -13.365923 25.403976 -1.297710 2.124846 0.014158 0.024337 -171645.000000 0 0 1
4.631785 -21.467005 -13.052823 25.547249 -1.358291 2.107061 0.007835 0.017432 -247470.000000 0 0 1
4.788185 -22.905005 -12.778723 26.661990 -1.364719 2.070638 0.008893 0.013022 -203503.000000 0 0 1
5.114785 -23.592605 -13.958623 27.885752 -1.357304 2.095047 0.011353 0.007090 -146477.000000 0 0 1
4.868085 -25.007205 -13.861823 29.003598 -1.378534 2.069098 0.002333 0.012380 -495111.000000 0 0 1
3.465585 -25.426815 -14.324323 29.389104 -1.435335 2.079909 0.002950 0.006573 -558898.000000 0 0 1
2.530685 -24.955505 -13.369823 28.424175 -1.469734 2.060504 0.011824 0.008416 624258.000000 0 0 1
1.145685 -25.114085 -13.753623 28.656448 -1.525209 2.071392 -0.002439 0.003517 1008190.000000 0 0 1
0.557185 -26.446085 -13.243323 29.581945 -1.549731 2.034968 -0.011913 0.009960 -919442.000000 0 0 1
1.099285 -27.590055 -13.868923 30.899297 -1.530974 2.036266 -0.008126 0.016816 26167.300000 0 0 1
0.621785 -28.811615 -13.329923 31.751891 -1.549219 2.004038 -0.018439 0.022573 -605035.000000 0 0 1
-0.771415 -29.267905 -13.727523 32.336515 1.544445 2.009229 -0.030827 0.009922 -698169.000000 0 0 1
-1.815715 -28.445455 -13.305423 31.455921 1.507051 2.007535 -0.031631 0.006517 -403568.000000 0 0 1
-3.063815 -29.026135 -13.615123 32.206754 1.465632 2.007264 -0.026083 0.005767 -132773.000000 0 0 1
-4.338315 -28.458505 -12.982923 31.579483 1.419517 1.994477 -0.025237 -0.001523 -166662.000000 0 0 1
-4.411115 -28.514885 -11.577423 31.090084 1.417318 1.952372 -0.020484 -0.013116 -162705.000000 0 0 1
-4.692515 -29.775765 -11.049823 32.104742 1.414487 1.922162 -0.022496 -0.009809 -601590.000000 0 0 1
-5.235215 -29.685255 -9.583123 31.630019 1.396234 1.878610 -0.008654 -0.013629 -342608.000000 0 0 1
-6.571915 -29.301455 -9.456823 31.483278 1.350161 1.875883 0.008585 -0.020871 -989985.000000 0 0 1
-6.738815 -27.878605 -9.400923 30.182869 1.333626 1.887531 0.006078 -0.012392 -149249.000000 0 0 1
-8.259315 -27.510925 -9.256823 30.178735 1.279138 1.882555 0.012112 -0.013582 939443.000000 0 0 1
-9.178215 -27.872145 -10.293523 31.097471 1.252683 1.908168 0.023776 -0.019249 184495.000000 0 0 1
-9.249015 -29.278005 -10.566223 32.471386 1.264814 1.902232 0.020253 -0.025628 -667705.000000 0 0 1
-10.628615 -29.642685 -11.222323 33.430476 1.226518 1.913135 0.028251 -0.024517 390248.000000 0 0 1
-10.747115 -29.040195 -12.497723 33.392012 1.216348 1.954409 0.033526 -0.025980 -69990.300000 0 0 1
-11.464815 -29.745025 -13.468923 34.606652 1.202907 1.970560 0.037220 -0.019887 -380888.000000 0 0 1
-11.804615 -28.884755 -14.723723 34.503131 1.182830 2.011677 0.044164 -0.020496 -6936.260000 0 0 1
-12.807015 -27.893275 -14.538723 33.962168 1.140365 2.013170 0.042259 -0.025933 365033.000000 0 0 1
-12.406315 -26.789225 -13.769223 32.575615 1.137095 2.007202 0.043882 -0.011448 -325855.000000 0 0 1
-13.356115 -25.640985 -14.042323 32.140827 1.090577 2.022946 0.063981 -0.009588 -33072.500000 0 0 1
-12.918115 -24.851805 -15.133023 31.835488 1.091430 2.066159 0.051150 -0.006307 700685.000000 0 0 1
-14.029815 -24.068405 -15.591223 31.925069 1.043035 2.081016 0.063324 -0.004356 219601.000000 0 0 1
-13.719715 -23.117705 -16.780723 31.689928 1.035190 2.128841 0.062261 -0.009979 -230683.000000 0 0 1
-13.145615 -21.904905 -16.473523 30.397517 1.030287 2.143536 0.047107 -0.005069 78592.400000 0 0 1
-13.044315 -21.134905 -17.660123 30.474880 1.017831 2.188909 0.041452 0.006492 -170476.000000 0 0 1
-13.172915 -19.571805 -17.500023 29.374003 0.978384 2.209015 0.030161 0.006721 699276.000000 0 0 1
-11.933515 -18.893805 -17.233223 28.220004 1.007458 2.227708 0.035439 0.003038 742372.000000 0 0 1
-12.157615 -17.505405 -17.376523 27.498916 0.963767 2.254797 0.031768 0.006317 630975.000000 0 0 1
-10.835515 -16.778005 -17.786623 26.744603 0.997368 2.298363 0.031267 -0.001936 760047.000000 0 0 1
-10.270415 -16.112705 -16.618323 25.323296 1.003322 2.286630 0.028996 -0.003065 762419.000000 0 0 1
-8.931915 -15.712305 -16.938023 24.769987 1.053886 2.323771 0.032804 0.000669 772657.000000 0 1 0
-8.028915 -14.969505 -15.823123 23.214667 1.078492 2.320744 0.018686 0.000276 610108.000000 0 1 0
-7.596015 -15.756705 -14.737123 22.872603 1.121586 2.270921 0.011641 0.001148 -571586.000000 0 1 0
-6.556515 -16.619905 -15.067123 23.371507 1.195042 2.271400 0.014376 0.009877 -891780.000000 0 1 0
-6.191615 -17.421905 -13.776123 23.057329 1.229326 2.211142 0.006459 0.009772 -631810.000000 0 1 0
-5.601415 -16.668205 -12.707023 21.695007 1.246599 2.196554 -0.003938 0.003457 212328.000000 0 1 0
-5.370815 -17.466605 -11.547823 21.616664 1.272482 2.134368 -0.012921 0.003599 -704523.000000 0 1 0
-4.391415 -18.613205 -11.610723 22.372859 1.339103 2.116436 -0.008465 0.007800 -973386.000000 0 1 0
-3.074815 -18.120805 -11.666423 21.769784 1.402713 2.136369 -0.009614 0.009739 -771533.000000 0 1 0
-2.153615 -19.202105 -11.553323 22.513066 1.459108 2.109686 -0.008667 0.016110 691388.000000 0 1 0
-0.698415 -18.687805 -11.749223 22.085427 1.533441 2.131745 -0.002008 0.020553 -271926.000000 0 1 0
-0.503215 -18.196605 -13.043823 22.394441 1.543149 2.192546 0.001120 0.006101 442838.000000 0 1 0
0.758585 -17.552005 -13.316423 22.044851 -1.527604 2.219383 0.003855 0.007121 1295390.000000 0 1 0
1.977385 -18.440505 -13.710523 23.063840 -1.463974 2.207390 0.008498 0.005945 52788.600000 0 1 0
1.824885 -19.216905 -14.893523 24.381072 -1.476118 2.227948 0.007635 0.000569 70240.700000 0 1 0
1.142685 -20.422905 -14.568123 25.112367 -1.514903 2.189669 -0.002658 0.001262 -724273.000000 0 0 1
1.048185 -21.498505 -15.709823 26.647381 -1.522079 2.201291 -0.000499 0.006817 68900.800000 0 0 1
2.199985 -22.143105 -16.204523 27.527143 -1.471768 2.200214 -0.003165 0.010805 -377663.000000 0 0 1
3.301685 -21.407405 -16.638923 27.313584 -1.417771 2.225824 -0.001763 0.010557 -3290.580000 0 0 1
4.583785 -22.280705 -16.841023 28.303020 -1.367898 2.208094 -0.001327 0.002430 504613.000000 0 0 1
4.512985 -22.971805 -18.084423 29.582380 -1.376809 2.228529 -0.006767 0.007831 -125622.000000 0 0 1
5.771385 -23.571105 -18.239423 30.357576 -1.330671 2.215322 0.000979 0.003427 21207.900000 0 0 1
6.103985 -23.540705 -19.737723 31.320937 -1.317089 2.252577 -0.002532 0.008142 -266726.000000 0 0 1
6.152085 -22.198805 -20.175423 30.621606 -1.300446 2.290102 -0.000663 -0.006230 181051.000000 0 0 1
6.789385 -22.149805 -21.466523 31.583559 -1.273368 2.318114 0.005119 -0.003199 -133119.000000 0 0 1
7.170685 -20.745405 -21.931123 31.028450 -1.238000 2.355771 -0.001830 -0.001859 128831.000000 0 0 1
6.061585 -19.874105 -21.823023 30.132494 -1.274760 2.380721 0.010701 -0.004026 237461.000000 0 0 1
6.361185 -18.692905 -22.582923 29.997963 -1.242789 2.423125 0.019176 -0.006489 84861.600000 0 0 1
5.056585 -18.001805 -22.990723 29.634564 -1.296960 2.458791 0.020783 -0.006904 -1233940.000000 0 0 1
4.407085 -18.613205 -24.112523 30.778037 -1.338306 2.470967 0.016257 -0.002983 14112.100000 0 0 1
3.224385 -18.008105 -24.537623 30.606918 -1.393622 2.500933 0.018654 0.007641 649252.000000 0 0 1
2.024385 -17.816305 -23.522223 29.577252 -1.457656 2.490267 0.028725 0.015459 -291780.000000 0 0 1
2.260085 -16.844905 -22.553323 28.240240 -1.437423 2.495801 0.024803 0.003439 -197776.000000 0 0 1
1.142985 -15.975705 -22.450423 27.578090 -1.499373 2.521918 0.018300 0.004465 344774.000000 0 0 1
1.215985 -15.179905 -21.167823 26.076519 -1.490862 2.517952 0.013300 0.006650 37121.600000 0 0 1
1.962485 -14.012205 -21.340923 25.605238 -1.431646 2.556135 0.010915 0.007504 -329384.000000 0 0 1
1.929185 -13.394105 -20.098323 24.229453 -1.427748 2.549008 0.011816 0.000832 -137874.000000 0 1 0
3.076585 -12.406205 -19.826123 23.589287 -1.327713 2.568949 0.009075 -0.004490 -521784.000000 0 1 0
4.303185 -13.088405 -19.683823 24.026582 -1.253151 2.530902 0.013619 -0.004817 412591.000000 0 1 0
5.455285 -12.209605 -19.577023 23.708530 -1.150604 2.542305 0.017654 -0.007869 974180.000000 0 1 0
5.681285 -11.256205 -18.380023 22.289109 -1.103376 2.540325 0.018553 -0.008506 -421255.000000 0 1 0
4.745785 -10.182805 -18.119023 21.319263 -1.134669 2.586572 0.006828 -0.005838 160869.000000 0 1 0
4.837885 -8.951505 -18.865523 21.434610 -1.075311 2.646960 0.009964 -0.017458 -354203.000000 0 1 0
4.500085 -8.918305 -20.377323 22.694101 -1.103484 2.685801 0.014339 -0.012444 -883471.000000 0 1 0
3.126185 -9.047705 -20.499523 22.624421 -1.238116 2.704720 0.017192 -0.020495 -995347.000000 0 1 0
2.724185 -8.903905 -21.866323 23.766295 -1.273886 2.739020 0.020667 -0.021646 606420.000000 0 1 0
1.184685 -8.776305 -22.048823 23.760842 -1.436621 2.759665 0.010993 -0.018388 316821.000000 0 1 0
0.595885 -7.651505 -21.430123 22.762925 -1.493075 2.797698 0.010106 -0.022440 10492.500000 0 1 0
-0.800615 -7.542205 -21.651123 22.941163 1.465041 2.804643 0.012007 -0.019142 390050.000000 0 1 0
-1.174215 -6.615805 -22.841723 23.809493 1.395139 2.855499 0.024113 -0.017025 -397784.000000 0 1 0
-0.610615 -7.090305 -24.036223 25.067614 1.484889 2.853740 0.025054 -0.020731 -46133.000000 0 0 1
-1.187115 -6.597605 -25.250613 26.125296 1.392770 2.882098 0.018362 -0.008737 -83358.400000 0 0 1
-0.659715 -5.164505 -25.682473 26.204899 1.443744 2.941579 0.027690 -0.013100 127628.000000 0 0 1
-1.167415 -4.620205 -26.896953 27.315842 1.323301 2.966239 0.024360 -0.006830 -227021.000000 0 0 1
-0.667515 -3.334005 -27.246193 27.457534 1.373195 3.017440 0.008797 -0.005895 -428997.000000 0 0 1
-1.141815 -2.096805 -26.371023 26.478882 1.072147 3.051302 0.009590 -0.008146 561352.000000 0 0 1
-2.564115 -2.027405 -26.292223 26.494642 0.669035 3.017902 0.001291 -0.007010 682349.000000 0 0 1
-3.166815 -1.344305 -27.443273 27.658075 0.401445 3.016882 0.013883 -0.005088 -183084.000000 0 0 1
-4.691815 -1.270905 -27.323083 27.752103 0.264529 2.965530 0.015881 -0.003084 -73298.200000 0 0 1
-5.258615 -0.246905 -26.536713 27.053856 0.046918 2.945753 0.013017 -0.001990 -451356.000000 0 0 1
-6.644715 -0.362505 -26.377093 27.203579 0.054501 2.894463 0.013157 -0.006970 -302930.000000 0 0 1
-7.285715 0.950395 -25.834353 26.858866 -0.129714 2.864503 0.002662 -0.000404 -753853.000000 0 0 1
-7.429315 2.102595 -26.692813 27.787082 -0.275801 2.860020 0.004639 -0.002113 932985.000000 0 0 1
-8.410815 2.024995 -27.765793 29.082326 -0.236264 2.839550 0.008983 -0.003485 1089390.000000 0 0 1
-9.889415 1.645895 -27.454193 29.227422 -0.164918 2.791468 0.002673 -0.002079 -685.699000 0 0 1
-10.806815 2.019995 -28.480413 30.528701 -0.184786 2.773197 0.002195 -0.016886 1543180.000000 0 0 1
-12.167315 1.692795 -28.080483 30.650002 -0.138239 2.729203 -0.018246 -0.008453 925676.000000 0 0 1
-13.217015 2.139195 -29.095963 32.028748 -0.160460 2.710316 -0.026655 -0.004700 -1281710.000000 0 0 1
-14.495515 1.684495 -28.765673 32.255564 -0.115689 2.672116 -0.021689 -0.000023 -1024110.000000 0 0 1
-15.511715 2.300595 -29.443363 33.358922 -0.147240 2.652210 -0.017860 -0.004465 -637581.000000 0 0 1
-15.931715 3.705995 -28.810023 33.129615 -0.228553 2.625219 -0.009896 0.006597 -237193.000000 0 0 1
-15.000315 4.822395 -29.021343 33.022770 -0.311051 2.644197 -0.007046 0.005130 842335.000000 0 0 1
-14.732015 5.325595 -30.343773 34.148775 -0.346881 2.665027 -0.015209 -0.002237 -409959.000000 0 0 1
-15.984015 5.863795 -31.060053 35.420329 -0.351610 2.640169 -0.005610 0.001172 43149.100000 0 0 1
-16.655315 6.842895 -30.252243 35.205439 -0.389828 2.604707 -0.000501 0.005050 -44073.200000 0 0 1
-17.642615 7.490095 -31.014283 36.458869 -0.401486 2.588045 -0.000798 0.006385 -305833.000000 0 0 1
-18.365115 8.515395 -30.080973 36.258163 -0.434165 2.549247 0.003295 -0.000962 -230270.000000 0 0 1
-17.561015 9.623795 -29.688883 35.811122 -0.501322 2.548187 0.005218 -0.003321 299922.000000 0 0 1
-18.280715 10.680095 -29.064243 35.958020 -0.528741 2.512026 0.014897 -0.005242 -192706.000000 0 0 1
-8.139515 25.234395 30.881699 40.702651 -1.258776 0.709459 -0.021978 0.016748 -237684.000000 0 0 1
-9.112615 26.276795 30.899449 41.572656 -1.236981 0.732860 -0.016189 0.016116 250427.000000 0 0 1
-8.707515 27.241095 31.847039 42.803411 -1.261414 0.731714 -0.016000 0.010998 63086.400000 0 0 1
-7.381615 27.985595 31.598589 42.850352 -1.312905 0.741558 -0.016091 0.009282 -170169.000000 0 0 1
-7.340515 28.740595 30.416889 42.486376 -1.320736 0.772854 0.008055 0.015006 639734.000000 0 0 1
-5.984515 29.071095 30.097749 42.270764 -1.367775 0.778421 0.002930 0.012064 580723.000000 0 0 1
-5.810215 30.252495 29.076079 42.360246 -1.381049 0.814269 0.020094 0.003505 -232848.000000 0 0 1
-6.192715 31.500095 29.628429 43.685805 -1.376678 0.825464 0.022896 0.003855 358917.000000 0 0 1
-5.717215 32.608695 28.920319 43.959054 -1.397232 0.852780 0.025116 0.006234 -182146.000000 0 0 1
-6.085915 33.863695 29.720669 45.465442 -1.392977 0.858335 0.016833 0.002447 427592.000000 0 0 1
-5.310915 34.085695 30.957319 46.350794 -1.416228 0.839424 0.015443 -0.004119 695058.000000 0 0 1
-5.960015 -34.506601 31.857669 47.340663 1.399763 0.832613 0.009141 0.002282 697055.000000 0 0 1
-7.218115 34.549795 32.677579 48.100039 -1.364840 0.823897 -0.007312 0.000579 375720.000000 0 0 1
-7.022615 33.554095 33.598818 48.000782 -1.364482 0.795449 -0.001688 0.004071 -48596.200000 0 0 1
-6.876515 32.248695 33.107009 46.726212 -1.360709 0.783381 0.017004 0.007005 -201302.000000 0 0 1
-6.591915 31.222995 34.229516 46.797313 -1.362728 0.750362 0.013132 0.000204 602025.000000 0 0 1
-5.311515 31.397695 -34.384972 46.865273 -1.403214 2.394545 0.009652 -0.004468 743735.000000 0 0 1
-5.345615 31.134595 -33.015733 45.694390 -1.400760 2.378256 0.005977 -0.001588 647040.000000 0 0 1
-3.872015 30.881695 -32.508513 45.005278 -1.446065 2.377957 -0.010848 0.002301 1534880.000000 0 0 1
-3.203915 29.589395 -32.752003 44.254843 -1.462937 2.403982 -0.013610 0.010016 539632.000000 0 0 1
-3.176115 29.113095 -34.072893 44.929078 -1.462130 2.431606 -0.016814 0.007306 -606447.000000 0 0 1
-2.499315 27.740895 -34.201444 44.108306 -1.480944 2.458140 -0.018898 0.004079 -979492.000000 0 0 1
-1.164315 27.699095 -33.775753 43.696648 -1.528787 2.454289 0.004108 0.010996 -214256.000000 0 0 1
-0.554515 26.418295 -33.868173 42.956803 -1.549810 2.479039 0.007569 0.015447 121380.000000 0 0 1
-0.180815 25.953395 33.969515 42.749730 -1.563830 0.652426 0.004967 0.016564 -827264.000000 0 0 1
-1.294315 25.708095 33.143219 41.964919 -1.520492 0.660340 -0.002355 0.020162 -52915.600000 0 0 1
-0.931015 25.448695 31.837449 40.769180 -1.534229 0.674660 0.015000 0.019320 -359185.000000 0 0 1
-0.482515 26.592595 30.886659 40.760087 -1.552654 0.710912 -0.007533 0.018497 586423.000000 0 0 1
-1.570515 27.521895 30.708929 41.266931 -1.513794 0.731530 -0.017499 0.013933 798232.000000 0 0 1
-1.058615 28.769395 30.225749 41.742002 -1.534016 0.761055 -0.007092 0.012044 802324.000000 0 0 1
-2.079215 29.985895 30.398269 42.749641 -1.501567 0.779768 -0.003883 0.009661 578237.000000 0 0 1
-1.982815 30.603395 31.672179 44.086577 -1.506096 0.769284 0.006369 0.007209 284605.000000 0 0 1
-2.846915 31.752495 31.748769 44.992335 -1.481376 0.787459 0.002575 0.009043 154605.000000 0 0 1
-2.622215 32.606795 32.993349 46.461169 -1.490550 0.781117 0.017197 0.009423 -163398.000000 0 0 1
-1.392015 33.273995 32.928109 46.833288 -1.528986 0.791060 0.005021 0.005581 -563303.000000 0 0 1
-0.816115 33.442395 34.214405 47.850657 -1.546398 0.774137 -0.003260 0.000370 580836.000000 0 0 1
0.650985 34.009095 34.017844 48.106716 1.551657 0.785361 0.007352 -0.001402 1000980.000000 0 0 1
0.561785 -34.243301 33.422042 47.853445 -1.554392 0.797602 0.017370 -0.003202 -465705.000000 0 0 1
1.844185 -33.889501 33.056629 47.377632 -1.516432 0.798577 0.007702 0.000965 -711273.000000 0 0 1
1.865785 -32.466301 32.379539 45.890919 -1.513391 0.787560 0.007893 0.000171 -161005.000000 0 0 1
1.734385 -31.490001 33.399154 45.936171 -1.515775 0.756741 0.004923 0.010162 144715.000000 0 0 1
1.603585 -30.214801 32.866999 44.673766 -1.517773 0.744080 0.007871 0.012912 -296923.000000 0 0 1
1.349085 -29.309301 34.095918 44.982072 -1.524800 0.710572 0.000969 0.015072 -323706.000000 0 0 1
-0.011615 -29.276501 34.427270 45.192373 1.570400 0.704719 -0.003475 0.016360 -412125.000000 0 0 1
-0.200515 -28.445001 -33.685693 44.089502 1.563747 2.440333 -0.004483 0.020358 200251.000000 0 0 1
-1.693215 -28.189501 -33.369993 43.715802 1.510803 2.439263 -0.009100 0.023208 90310.200000 0 0 1
-1.786415 -27.524001 -32.136793 42.350152 1.505983 2.432319 0.004340 0.019560 423132.000000 0 0 1
-3.067115 -26.922201 -31.978903 41.914942 1.457360 2.438657 0.003719 0.008878 174093.000000 0 0 1
-3.354215 -26.356901 -30.596953 40.522963 1.444215 2.426530 0.006524 -0.002189 -96647.400000 0 0 1
-3.910115 -27.346401 -29.699213 40.560546 1.428774 2.392371 0.000342 0.006839 115642.000000 0 0 1
-4.504115 -26.699201 -28.555943 39.351954 1.403671 2.382782 0.006068 0.002713 582305.000000 0 0 1
-3.504215 -26.160301 -27.446663 38.078343 1.437637 2.375744 0.007596 -0.000009 670737.000000 0 0 1
-2.906415 -24.891901 -27.779283 37.413133 1.454561 2.407592 0.005103 0.004036 -2809.370000 0 0 1
-2.007215 -24.482601 -26.790203 36.347512 1.488994 2.399502 0.012754 0.008067 -316341.000000 0 0 1
-0.916715 -23.483401 -27.301033 36.023005 1.531779 2.430850 0.016224 0.007434 591545.000000 0 0 1
-0.126315 -23.810401 -28.416633 37.073659 1.565491 2.444156 -0.002031 -0.002391 -164154.000000 0 0 1
0.923685 -24.718601 -28.219603 37.526103 -1.533446 2.421886 0.002609 -0.001433 -375270.000000 0 0 1
1.600585 -25.002601 -29.597213 38.777403 -1.506867 2.439139 -0.003610 -0.002184 647721.000000 0 0 1
2.642485 -24.043201 -29.893803 38.453839 -1.461330 2.461309 0.005102 0.002718 660174.000000 0 0 1
3.368685 -24.410601 -31.040243 39.632337 -1.433662 2.470600 0.021032 0.002489 -1007980.000000 0 0 1
4.273285 -23.274401 -31.510783 39.406702 -1.389214 2.497475 0.023732 0.001030 -298189.000000 0 0 1
5.496985 -23.165401 -30.792653 38.923516 -1.337813 2.483412 0.015628 -0.008328 542656.000000 0 0 1
6.551285 -24.066001 -31.022763 39.805823 -1.305015 2.464428 0.019672 -0.001349 -227709.000000 0 0 1
7.121585 -24.385701 -32.436963 41.201164 -1.286659 2.477186 0.013256 0.003817 -665994.000000 0 0 1
6.231385 -25.259301 -33.110953 42.109354 -1.328929 2.475608 0.004576 0.009190 63059.400000 0 0 1
6.412385 -25.406801 -34.494496 43.318523 -1.323571 2.491948 0.007650 0.014088 -102857.000000 0 0 1
5.848485 -24.229701 33.936501 42.106642 -1.333950 0.633492 0.011182 0.006210 -1102610.000000 0 0 1
4.481885 -24.068801 33.914074 41.827729 -1.386694 0.625273 0.025935 0.005638 -1296170.000000 0 0 1
4.138585 -22.787301 33.469898 40.701635 -1.391137 0.605314 0.020201 -0.005506 -987811.000000 0 0 1
2.807985 -22.315001 34.007911 40.772320 -1.445620 0.584310 -0.004162 -0.007634 -312243.000000 0 0 1
1.629485 -23.017401 33.625043 40.781117 -1.500121 0.601434 0.001217 -0.005212 287770.000000 0 0 1
1.433185 -24.178901 34.394990 42.067667 -1.511591 0.613547 0.008718 0.003053 -673417.000000 0 0 1
0.181585 -25.009101 34.077269 42.269947 -1.563536 0.633126 -0.006748 0.004327 136548.000000 0 0 1
0.377885 -25.641601 32.825349 41.654988 -1.556060 0.663195 -0.000136 -0.003231 -643474.000000 0 0 1
-0.826315 -26.101701 32.323849 41.554938 1.539149 0.679546 -0.007738 -0.008530 -744310.000000 0 0 1
-0.756515 -26.757301 30.955789 40.924154 1.542531 0.712976 -0.005097 -0.028151 -383787.000000 0 0 1
-1.979115 -27.119601 30.360309 40.757061 1.497948 0.730398 -0.000837 -0.023961 -25923.700000 0 0 1
-1.854915 -28.311101 29.615869 41.012911 1.505371 0.763947 0.000591 -0.023409 -135431.000000 0 0 1
-3.170715 -28.618101 28.880539 40.781548 1.460452 0.783884 0.006022 -0.012041 728462.000000 0 0 1
-4.223615 -29.146701 29.747949 41.860597 1.426889 0.780384 0.014896 -0.006246 502046.000000 0 0 1
-5.358415 -29.377101 28.963579 41.600668 1.390379 0.800666 -0.005709 0.002757 -374964.000000 0 0 1
-6.528215 -29.948401 29.809149 42.756400 1.356172 0.799332 -0.010445 0.006484 615300.000000 0 0 1
-7.693315 -30.306301 29.033019 42.668199 1.322196 0.822438 -0.003503 0.006247 1603840.000000 0 0 1
-8.884115 -30.710501 29.757579 43.675805 1.289198 0.821220 -0.003749 0.005849 606259.000000 0 0 1
-8.873115 -31.907901 30.786729 45.218017 1.299564 0.821872 0.000429 0.012217 -674676.000000 0 0 1
-8.810115 -33.292101 30.323449 45.885659 1.312096 0.848848 0.013820 0.004835 1117630.000000 0 0 1
-9.998015 -33.682301 29.574829 45.925246 1.282248 0.871110 0.010641 0.004297 765254.000000 0 0 1
-9.984715 34.339595 29.014009 46.051222 -1.287834 0.889194 0.029564 0.002395 -362096.000000 0 0 1
-10.183615 33.450595 30.082359 46.125879 -1.275273 0.860340 0.016364 0.006062 322962.000000 0 0 1
-9.825715 32.127295 29.673399 44.824306 -1.273993 0.847321 0.024044 -0.001376 -42370.600000 0 0 1
-10.280215 31.107595 30.720809 44.912509 -1.251622 0.817544 0.022951 0.012801 664244.000000 0 0 1
-11.708515 31.113295 30.850369 45.352748 -1.210870 0.822718 0.010882 0.020219 723098.000000 0 0 1
-12.208915 29.903895 31.469629 45.095877 -1.183180 0.798421 0.009765 0.018060 -9365.660000 0 0 1
-12.149415 29.817095 32.987939 46.096330 -1.183871 0.773270 0.007360 0.001269 -307374.000000 0 0 1
-13.036715 30.655095 33.719732 47.399485 -1.168696 0.779316 0.009880 0.014685 333709.000000 0 0 1
-13.315815 29.928795 -34.386641 47.491945 -1.152178 2.380455 0.008968 0.012245 -54279.000000 0 0 1
-14.430615 30.496395 -33.478323 47.529684 -1.128825 2.352327 0.005601 0.010961 -37901.300000 0 0 1
-14.629815 29.747795 -32.316983 46.296330 -1.113734 2.343462 0.010173 0.001671 735965.000000 0 0 1
-15.847015 30.101495 -31.627893 46.449451 -1.086211 2.319801 0.019482 0.001562 664243.000000 0 0 1
-15.888015 29.479695 -30.193673 45.090347 -1.076478 2.304502 0.019111 -0.005684 -397916.000000 0 0 1
-16.068415 28.061395 -30.194173 44.241654 -1.050755 2.321951 0.017831 -0.015291 266908.000000 0 0 1
-15.932215 27.600695 -28.841223 42.981973 -1.047281 2.306363 0.018030 -0.013233 -373567.000000 0 0 1
-16.558415 26.265395 -28.514913 42.156285 -1.008304 2.313673 -0.000619 -0.016033 408344.000000 0 0 1
-17.974315 26.260095 -28.688603 42.845123 -0.970568 2.304451 0.003532 -0.006598 578891.000000 0 0 1
-18.585215 24.988795 -28.432723 42.169537 -0.931312 2.310742 -0.006932 -0.007343 -847548.000000 0 0 1
-20.031315 24.880095 -28.809433 43.014604 -0.892945 2.304681 0.009674 -0.005986 -723144.000000 0 0 1
-20.945015 25.556695 -27.930433 43.266008 -0.884247 2.272541 0.006419 -0.007716 716387.000000 0 0 1
-22.303015 25.263895 -28.235833 43.965340 -0.847565 2.268200 0.002004 -0.008783 568922.000000 0 0 1
-23.231415 25.423495 -26.996373 43.759078 -0.830421 2.235635 0.016040 -0.011969 91214.900000 0 0 1
-23.419615 26.793595 -26.623013 44.442772 -0.852490 2.213098 0.005634 -0.001750 321252.000000 0 0 1
-24.521415 26.968295 -25.724793 44.613381 -0.832884 2.185377 0.011203 0.004773 470245.000000 0 0 1
-24.344415 26.538095 -24.238223 43.409820 -0.828484 2.163202 0.016230 -0.000873 -608996.000000 0 0 1
-24.081915 25.135895 -24.087423 42.331499 -0.806809 2.176109 0.017497 -0.003463 793919.000000 0 0 1
-25.253795 24.278695 -23.927823 42.423460 -0.765715 2.170046 0.022543 -0.008887 772940.000000 0 0 1
-25.978975 24.390895 -22.577023 42.184652 -0.753880 2.135535 0.019277 -0.006795 -151943.000000 0 0 1
-25.271525 23.784995 -21.485523 40.816708 -0.755105 2.125146 0.022957 -0.011796 1324300.000000 0 0 1
-24.149515 24.589995 -21.000523 40.359496 -0.794435 2.118041 0.019959 -0.007333 735792.000000 0 0 1
-23.333215 23.845195 -19.920323 38.856808 -0.796250 2.109076 0.023603 -0.013151 -206591.000000 0 0 1
-23.930315 23.830295 -18.644023 38.576451 -0.783304 2.075217 0.021400 -0.017985 788691.000000 0 0 1
-22.871515 23.735495 -17.671923 37.400225 -0.803934 2.062931 0.015568 -0.015526 376799.000000 0 0 1
-23.338715 23.780295 -16.173823 37.037692 -0.794769 2.022707 0.005633 -0.008923 254871.000000 0 0 1
-23.855315 25.096995 -15.812923 38.065520 -0.810758 1.999193 0.014245 -0.015703 170675.000000 0 0 1
-24.350415 25.140595 -14.512423 37.889348 -0.801363 1.963861 -0.001591 -0.013726 -163365.000000 0 0 1
-24.442815 26.546395 -14.042223 38.721394 -0.826630 1.941904 -0.003905 -0.010844 426620.000000 0 0 1
-23.241715 27.298795 -13.795423 38.415039 -0.865500 1.938116 0.000859 -0.007704 538638.000000 0 0 1
-23.367915 27.949495 -12.554823 38.533847 -0.874441 1.902668 0.002958 -0.008543 -650595.000000 0 0 1
-22.068515 28.414495 -11.927923 37.903539 -0.910448 1.890928 0.003228 -0.004684 -1128490.000000 0 0 1
-21.279215 27.399895 -11.412423 36.521263 -0.910477 1.888606 -0.001801 -0.005966 432012.000000 0 0 1
-20.109215 28.104595 -10.904323 36.237454 -0.949734 1.876446 -0.008974 -0.002347 418073.000000 0 0 1
-19.097215 27.155595 -10.245923 34.743473 -0.957891 1.870149 -0.010390 0.001152 24937.000000 0 0 1
-18.433415 26.236495 -11.123623 33.939350 -0.958336 1.904717 -0.018981 0.003891 178412.000000 0 0 1
-18.090215 25.070995 -10.456523 32.636629 -0.945747 1.896940 -0.009958 0.007787 -222285.000000 0 0 1
-17.362415 24.100595 -11.442723 31.831244 -0.946500 1.938508 -0.013696 0.010280 35480.100000 0 0 1
-17.295815 22.766095 -10.935623 30.610916 -0.921105 1.936114 -0.014546 0.005562 155284.000000 0 0 1
-16.842315 21.909795 -11.965023 30.114191 -0.915427 1.979393 0.004717 0.013017 -101918.000000 0 0 1
-16.646915 20.437595 -11.487623 28.753792 -0.887262 1.981786 -0.002623 0.020549 45545.000000 0 0 1
-17.848715 19.705195 -11.343623 28.905867 -0.834793 1.974072 -0.014075 0.025670 79705.100000 0 0 1
-17.585815 18.370195 -10.950723 27.688324 -0.807210 1.977408 0.003149 0.022020 -1087790.000000 0 0 1
-18.822215 17.484695 -10.812323 27.872867 -0.748576 1.969165 0.011045 0.025348 -634796.000000 0 0 1
-19.355115 16.970995 -12.026223 28.412413 -0.719861 2.007852 0.003205 0.025046 168788.000000 0 0 1
-19.999415 17.891595 -12.879823 29.765343 -0.729827 2.018295 0.004792 0.032004 -831302.000000 0 0 1
-20.481115 17.278295 -14.208623 30.329862 -0.700779 2.058354 0.019670 0.018730 -337864.000000 0 0 1
-19.502415 17.169495 -15.198723 30.102109 -0.721868 2.100069 0.020592 0.019162 -145802.000000 0 0 1
-20.092415 16.911895 -16.447623 30.987766 -0.699659 2.130315 0.014258 0.016091 -115922.000000 0 0 1
-19.081815 16.721495 -17.581623 30.868067 -0.719569 2.176783 0.022233 0.015338 -585234.000000 0 0 1
-18.439315 17.882795 -17.971923 31.349525 -0.770078 2.181295 0.010190 0.003281 120212.000000 0 0 1
-17.523615 17.556395 -19.002223 31.247217 -0.786333 2.224493 0.006119 0.011622 -941578.000000 0 0 1
-16.490915 18.566595 -19.402623 31.513974 -0.844537 2.234049 0.002246 0.014414 -983550.000000 0 0 1
-15.478115 18.707795 -18.452223 30.496528 -0.879593 2.220637 0.011447 0.009859 -256791.000000 0 0 1
-14.645715 19.799695 -18.742123 30.948216 -0.933924 2.221311 0.003193 0.002322 -73645.400000 0 0 1
31.228918 32.220395 1.846277 44.908885 0.801023 1.529673 0.026097 0.006585 771008.000000 0 0 1
32.562328 31.731795 1.619177 45.495426 0.772481 1.535199 0.023566 0.008243 607061.000000 0 0 1
32.973198 32.121595 0.347877 46.034223 0.772316 1.563239 0.013169 0.015996 178843.000000 0 0 1
34.393022 31.683295 -0.111023 46.762416 0.744412 1.573171 0.003324 0.019485 589743.000000 0 0 1
-34.308111 32.539595 0.385577 47.286578 -0.758948 1.562642 -0.003382 0.016292 -20192.800000 0 0 1
-33.144175 32.382595 -0.394423 46.339232 -0.773776 1.579308 0.005477 0.018144 -345784.000000 0 0 1
-32.028285 33.361795 -0.032123 46.247394 -0.805788 1.571491 0.005641 0.016382 -208223.000000 0 0 1
-31.484865 33.117095 1.271477 45.712749 -0.810659 1.542978 0.009544 0.010306 -160852.000000 0 0 1
-31.133805 34.324595 1.837777 46.377463 -0.834105 1.531159 -0.007513 0.002384 -244884.000000 0 0 1
-30.238885 34.221195 3.096377 45.771912 -0.847099 1.503097 0.006312 0.006412 -143706.000000 0 0 1
-30.104135 -34.046801 3.741777 45.600927 0.846780 1.488649 -0.008191 0.007589 26206.400000 0 0 1
-29.376985 -34.275001 4.952777 45.412696 0.862197 1.461517 0.007997 0.002242 -284583.000000 0 0 1
-29.168865 -32.978301 5.715977 44.396660 0.846619 1.441690 0.011535 -0.005751 -384925.000000 0 0 1
-30.286135 -32.423301 6.379377 44.824289 0.819465 1.427992 0.012487 -0.008780 -67415.300000 0 0 1
-30.648375 -33.190601 7.504477 45.795809 0.825200 1.406186 0.020038 -0.015139 -539526.000000 0 0 1
-31.695325 -32.557701 8.538677 46.233176 0.798819 1.385043 0.025586 -0.016940 1647050.000000 0 0 1
-33.041695 -32.337301 8.080877 46.933519 0.774625 1.397757 0.024664 -0.017244 1058150.000000 0 0 1
-33.743755 -33.486201 7.545277 48.134165 0.781567 1.413392 0.024984 -0.015253 -603395.000000 0 0 1
34.487736 -33.244801 7.310477 48.456824 -0.767050 1.419352 0.016465 -0.007673 136834.000000 0 0 1
33.758973 -32.877301 8.457277 47.875993 -0.772168 1.393215 0.006282 0.000547 839662.000000 0 0 1
32.342838 -32.815801 8.226577 46.803980 -0.792657 1.394112 -0.002404 0.004893 839700.000000 0 0 1
31.482758 -33.072901 9.473177 46.633914 -0.810025 1.366233 -0.011093 0.010541 -732761.000000 0 0 1
30.134768 -32.748501 9.319977 45.469007 -0.826939 1.364359 -0.015806 0.007616 -274962.000000 0 0 1
29.344128 -33.018301 10.472677 45.397831 -0.844247 1.338013 -0.022831 0.017895 214648.000000 0 0 1
29.332728 -31.739201 11.403677 44.697088 -0.824782 1.312812 -0.017233 0.015776 -336296.000000 0 0 1
28.589478 -30.631001 10.913777 43.298118 -0.819858 1.315987 -0.014256 0.005583 32980.700000 0 0 1
29.231598 -29.953801 9.849777 42.996914 -0.797600 1.339663 -0.009195 -0.000503 -322151.000000 0 0 1
28.713328 -28.566601 9.484977 41.598927 -0.782837 1.340763 -0.011607 -0.004960 -424158.000000 0 0 1
29.248738 -28.087701 8.300377 41.392075 -0.765151 1.368897 -0.005090 -0.021263 188516.000000 0 0 1
28.555098 -26.847801 8.040377 40.010570 -0.754592 1.368462 -0.001606 -0.017188 174295.000000 0 0 1
28.822718 -26.290601 6.656277 39.575887 -0.739487 1.401803 -0.006592 -0.006062 -127612.000000 0 0 1
30.177248 -26.054301 6.388777 40.377090 -0.712208 1.411901 -0.006300 -0.012390 -673749.000000 0 0 1
30.302318 -25.374101 5.192077 39.862679 -0.697113 1.440176 -0.011821 -0.002239 -571067.000000 0 0 1
31.670288 -24.999401 4.641077 40.614244 -0.668222 1.456274 -0.007734 -0.006951 -756143.000000 0 0 1
32.376788 -26.107501 4.219677 41.805068 -0.678610 1.469687 -0.004838 -0.005694 -562175.000000 0 0 1
33.734252 -25.739801 4.054477 42.626001 -0.651780 1.475535 -0.002742 -0.008402 572314.000000 0 0 1
34.673576 -27.006901 4.063377 44.137746 -0.661736 1.478605 0.000976 -0.006898 -50640.200000 0 0 1
34.632343 -27.744901 5.286377 44.689199 -0.675428 1.452227 -0.000131 -0.007693 -433760.000000 0 0 1
-34.601838 -29.053701 5.126877 45.471855 0.698459 1.457808 0.002661 -0.008921 -1060190.000000 0 0 1
34.328608 -30.108401 5.934177 46.045452 -0.719998 1.441560 0.008255 -0.013012 765089.000000 0 0 1
32.961198 -30.290401 5.577277 45.111584 -0.743198 1.446846 0.005062 -0.010201 229724.000000 0 0 1
32.100198 -29.249001 5.949977 43.832967 -0.738957 1.434634 0.000264 -0.013825 -939592.000000 0 0 1
30.624328 -29.453001 5.543977 42.849323 -0.765904 1.441050 -0.010814 -0.013704 -698586.000000 0 0 1
30.384288 -29.540501 4.168877 42.581988 -0.771318 1.472737 -0.022113 -0.007415 821866.000000 0 0 1
29.049728 -29.178201 3.750377 41.343917 -0.787605 1.479960 -0.018683 -0.003563 1608650.000000 0 0 1
27.886568 -30.124201 4.194477 41.264050 -0.823952 1.468971 -0.007928 -0.007721 -99164.000000 0 0 1
27.892548 -31.321201 3.423077 42.080035 -0.843237 1.489360 -0.005848 -0.004014 196740.000000 0 0 1
26.638478 -32.012101 3.465477 41.789863 -0.876764 1.487775 -0.007169 -0.002522 177102.000000 0 0 1
26.752858 -33.404001 2.816177 42.889085 -0.895514 1.505087 -0.003935 -0.002162 -508725.000000 0 0 1
26.853778 -33.456001 1.402877 42.923158 -0.894436 1.538107 -0.005852 -0.000647 20695.600000 0 0 1
26.815028 34.725295 0.969377 43.884298 0.913235 1.548705 -0.007747 0.002981 -109460.000000 0 0 1
26.597028 34.513495 -0.589223 43.576719 0.914224 1.584318 -0.013371 -0.001034 -411552.000000 0 0 1
27.660658 -34.486701 -1.343323 44.229505 -0.894796 1.601173 -0.015543 0.002959 -217116.000000 0 0 1
27.437988 -34.738601 -2.707023 44.350215 -0.902280 1.631872 -0.009422 0.002043 -508568.000000 0 0 1
28.437448 -34.031301 -3.653623 44.499066 -0.874706 1.652994 -0.015344 0.010540 17246.800000 0 0 1
28.493528 -32.579001 -3.800623 43.447868 -0.852194 1.658384 -0.019901 0.010769 -252235.000000 0 0 1
29.362948 -32.295701 -4.852423 43.917434 -0.832927 1.681512 -0.012645 0.008090 -593765.000000 0 0 1
29.796628 -30.868901 -4.841523 43.176017 -0.803071 1.683167 -0.012882 0.019274 31787.500000 0 0 1
28.709468 -29.969001 -5.169023 41.822164 -0.806860 1.694708 -0.019188 0.009151 738509.000000 0 0 1
29.020158 -28.587201 -5.151923 41.060199 -0.777883 1.696600 -0.007631 -0.000138 -94625.100000 0 0 1
30.020658 -28.162001 -6.247523 41.633758 -0.753464 1.721424 0.003084 -0.008801 -19591.600000 0 0 1
31.403328 -28.270801 -5.951423 42.671146 -0.732952 1.710724 0.000599 0.009181 540616.000000 0 0 1
32.258198 -27.705701 -6.967823 43.089996 -0.709623 1.733213 0.009409 0.009328 398723.000000 0 0 1
32.413268 -28.510801 -8.278323 43.954708 -0.721431 1.760265 0.004138 -0.011583 -897339.000000 0 0 1
31.271668 -28.499301 -9.105723 43.278651 -0.739048 1.782778 -0.004193 -0.009331 -238000.000000 0 0 1
31.135608 -29.478401 -10.164523 44.064949 -0.758065 1.803564 -0.012905 0.004650 295678.000000 0 0 1
30.882168 -30.932501 -9.737223 44.781039 -0.786212 1.789988 -0.012273 -0.002179 618802.000000 0 0 1
32.137218 -31.404301 -9.250023 45.875853 -0.773864 1.773820 -0.003585 0.005944 186655.000000 0 0 1
31.938318 -32.549101 -8.446523 46.377192 -0.794869 1.753945 0.003777 -0.002037 555082.000000 0 0 1
33.240678 -33.116701 -7.801023 47.565897 -0.783530 1.735545 0.004639 -0.000883 99167.400000 0 0 1
33.136998 -34.324001 -7.041623 48.226364 -0.802992 1.717332 0.000270 0.003526 151869.000000 0 0 1
32.488638 -34.100501 -5.738923 47.447772 -0.809600 1.692046 0.007150 0.006743 237061.000000 0 0 1
32.234628 34.029795 -5.067423 47.146336 0.812482 1.678487 0.000470 0.008747 124819.000000 0 0 1
31.257788 33.202095 -5.694523 45.954935 0.815552 1.695031 -0.001784 0.000211 232276.000000 0 0 1
31.224458 31.911895 -5.124223 44.939888 0.796286 1.685069 -0.000817 0.002723 -290391.000000 0 0 1
30.083788 31.057695 -5.669323 43.609127 0.801326 1.701168 -0.001411 0.006508 -427416.000000 0 0 1
30.184158 30.748095 -7.058223 43.661737 0.794653 1.733166 -0.004868 0.003929 -341610.000000 0 0 1
28.988758 30.100095 -7.382123 42.436536 0.804204 1.745643 -0.011170 0.002644 -347601.000000 0 0 1
28.896048 29.884095 -8.846923 42.500692 0.802206 1.780489 -0.010132 0.006779 83404.300000 0 0 1
29.761548 28.805395 -9.185823 42.424992 0.769074 1.789044 -0.016506 0.004347 100812.000000 0 0 1
30.072578 28.728795 -10.575423 42.913206 0.762549 1.819799 -0.017327 0.005786 612544.000000 0 0 1
31.340968 29.511695 -11.072923 44.450040 0.755347 1.822557 -0.018851 0.005587 107229.000000 0 0 1
32.565538 28.876795 -10.693423 44.818890 0.725434 1.811712 -0.017268 0.004884 763750.000000 0 0 1
33.732548 29.562995 -11.125723 46.212955 0.719619 1.813934 -0.006428 0.004527 141734.000000 0 0 1
34.039263 30.921795 -10.492223 47.169011 0.737445 1.795112 -0.017737 -0.003910 -1264920.000000 0 0 1
34.368712 30.747695 -9.128123 47.010124 0.729847 1.766211 -0.011606 0.007686 19471.900000 0 0 1
34.091029 31.875495 -8.329623 47.409156 0.751825 1.747410 -0.013241 0.003256 -658121.000000 0 0 1
-34.738470 31.919995 -7.067123 47.703162 -0.743141 1.719492 -0.009092 0.012743 1394900.000000 0 0 1
-33.343685 32.150895 -7.380323 46.903631 -0.767188 1.728804 0.000368 0.011712 1068520.000000 0 0 1
-32.616805 30.969795 -7.749823 45.640376 -0.759502 1.741425 0.003953 0.012588 -1065750.000000 0 0 1
-31.248715 31.370895 -8.272623 45.044995 -0.787349 1.755497 0.004723 0.014584 -97255.800000 0 0 1
-30.317405 32.015395 -7.376023 44.704992 -0.812632 1.736548 0.013821 0.009532 1272750.000000 0 0 1
-29.075365 32.431695 -7.991123 44.283742 -0.839912 1.752243 0.007355 0.006897 951531.000000 0 0 1
-29.031655 33.732695 -8.824723 45.371880 -0.860158 1.766542 -0.013530 0.011203 -287774.000000 0 0 1
-29.283425 -34.550801 -8.121923 46.013503 0.867728 1.748238 -0.024226 0.009095 379633.000000 0 0 1
-28.105215 -34.059301 -7.486723 44.788281 0.880886 1.738743 -0.011073 0.003869 309310.000000 0 0 1
-28.303265 -32.699401 -6.700223 43.763211 0.857338 1.724503 -0.019827 -0.001074 -78711.200000 0 0 1
-29.216785 -32.715001 -5.620123 44.220783 0.841823 1.698233 -0.020735 -0.004250 3935.550000 0 0 1
-28.822655 -33.423301 -4.449023 44.358272 0.859175 1.671263 -0.015871 -0.005175 474841.000000 0 0 1
-29.970685 -33.497601 -3.372123 45.074410 0.840911 1.645679 -0.004605 -0.004036 456944.000000 0 0 1
-30.214155 -32.258801 -2.652823 44.278244 0.818115 1.630745 0.004098 0.000958 -377547.000000 0 0 1
-31.130915 -32.441101 -1.621923 44.990994 0.806005 1.606854 -0.003228 0.005425 -264579.000000 0 0 1
-32.034595 -31.182001 -1.527023 44.731021 0.771912 1.604941 -0.002733 0.012462 -289742.000000 0 0 1
-32.971815 -31.166001 -0.512123 45.373147 0.757250 1.582083 -0.000774 0.015452 -544643.000000 0 0 1
-33.693825 -29.948101 -0.482223 45.082094 0.726610 1.581493 0.006260 0.016408 98508.100000 0 0 1
-34.498364 -29.643001 0.772977 45.491122 0.709844 1.553804 0.002415 0.013313 -332064.000000 0 0 1
34.191911 -30.598301 1.035877 45.895706 -0.729990 1.548224 -0.003186 0.015340 817505.000000 0 0 1
33.168288 -30.139601 1.925977 44.858001 -0.737594 1.527848 -0.006021 0.015332 831225.000000 0 0 1
32.347278 -28.862101 1.591377 43.380869 -0.728521 1.534104 -0.019123 0.016560 -776721.000000 0 0 1
31.353258 -29.018701 0.589377 42.725393 -0.746748 1.557001 -0.029615 0.016742 56592.900000 0 0 1
30.829748 -27.756701 0.310177 41.484986 -0.732993 1.563319 -0.032406 0.014006 -880039.000000 0 0 1
29.660458 -27.784101 -0.704223 40.647202 -0.752746 1.588122 -0.039347 0.012593 -141740.000000 0 0 1
28.478598 -28.230101 -0.038723 40.099510 -0.781016 1.571762 -0.033313 0.012867 108075.000000 0 0 1
28.235218 -29.591401 -0.105223 40.900974 -0.808846 1.573369 -0.027605 0.013455 -790001.000000 0 0 1
27.683388 -30.191001 -1.388723 40.985303 -0.828700 1.604686 -0.031621 -0.000188 -315749.000000 0 0 1
26.320968 -29.961601 -1.681923 39.916410 -0.849993 1.612945 -0.025372 0.009018 -59088.800000 0 0 1
26.175788 -30.223401 -3.035723 40.097899 -0.857043 1.646577 -0.026096 0.012828 638082.000000 0 0 1
24.701798 -30.528701 -3.483023 39.424762 -0.890511 1.659258 -0.019090 0.009966 1298660.000000 0 0 1
23.785288 -29.467201 -3.198123 38.003735 -0.891694 1.655049 -0.010053 0.006863 386764.000000 0 0 1
22.419288 -29.839301 -3.285923 37.467395 -0.926442 1.658610 0.001079 0.006520 129296.000000 0 0 1
21.502688 -28.664301 -3.522523 36.005776 -0.927196 1.668785 0.012479 0.008748 -454745.000000 0 0 1
21.426788 -28.246001 -4.877823 35.787386 -0.921828 1.707522 0.006007 0.011045 60797.700000 0 0 1
20.977888 -26.929701 -4.981623 34.497785 -0.909000 1.715707 0.002550 0.000724 -210110.000000 0 0 1
20.496088 -26.387901 -6.378423 34.016103 -0.910411 1.759425 0.004630 -0.020186 422500.000000 0 0 1
19.187188 -26.840401 -6.721923 33.671050 -0.950165 1.771782 0.007289 -0.012269 322124.000000 0 0 1
18.640288 -26.086401 -7.814923 33.000510 -0.950366 1.809880 0.009377 -0.009154 1884480.000000 0 0 1
17.041088 -26.066401 -7.815523 32.108229 -0.991785 1.816678 0.001947 -0.003326 1813790.000000 0 0 1
16.470188 -25.144301 -6.894623 30.838917 -0.990896 1.796271 -0.006518 -0.003708 -445844.000000 0 0 1
15.080888 -25.283301 -6.816823 30.218332 -1.032972 1.798341 0.001367 -0.000377 -380981.000000 0 0 1
14.557388 -24.423701 -5.653723 28.989641 -1.033297 1.767080 -0.004909 0.005213 -364496.000000 0 0 1
14.812588 -24.966001 -4.405223 29.361880 -1.035310 1.721397 -0.004778 0.009431 172443.000000 0 0 1
14.319288 -24.126901 -3.384623 28.259601 -1.035171 1.690853 -0.007468 0.012650 -168084.000000 0 0 1
14.296188 -24.940101 -2.096823 28.823364 -1.050300 1.643608 -0.000625 0.005100 -359516.000000 0 0 1
13.552888 -26.091901 -2.263023 29.488801 -1.091727 1.647614 0.008964 0.005349 -118129.000000 0 0 1
13.966988 -27.141901 -1.401923 30.556913 -1.095544 1.616692 0.019591 0.000274 -173665.000000 0 0 1
13.386488 -28.551101 -1.749123 31.582002 -1.132369 1.626208 0.015618 0.007260 -370336.000000 0 0 1
12.065388 -28.777401 -1.356823 31.233850 -1.173792 1.614251 0.018075 -0.004655 -641697.000000 0 0 1
11.638288 -30.146801 -1.492623 32.349765 -1.202370 1.616953 0.022222 -0.005109 54977.800000 0 0 1
12.353088 -31.330301 -0.726723 33.685526 -1.195226 1.592372 0.023499 -0.004555 -374517.000000 0 0 1
13.679188 -31.522701 -1.114623 34.380856 -1.161372 1.603222 0.023661 0.006337 -730853.000000 0 0 1
14.078788 -32.867901 -0.963823 35.769263 -1.166096 1.597745 0.029180 0.004465 -353078.000000 0 0 1
15.424888 -33.136501 -1.660423 36.588412 -1.135131 1.616193 0.022970 0.013101 -169964.000000 0 0 1
16.426588 -32.365001 -1.004823 36.308894 -1.101134 1.598474 0.024447 0.017042 -889169.000000 0 0 1
17.426688 -32.077901 -1.895923 36.555105 -1.073141 1.622684 0.023170 0.014945 -921639.000000 0 0 1
18.409588 -31.067001 -1.281523 36.134662 -1.035853 1.606269 0.021415 0.016994 -232545.000000 0 0 1
17.966588 -29.759101 -1.435323 34.791702 -1.027636 1.612063 0.012973 0.019926 383704.000000 0 0 1
18.691488 -28.860301 -0.616323 34.389949 -0.996072 1.588719 0.019728 0.009345 112534.000000 0 0 1
18.158688 -27.448701 -1.028323 32.927596 -0.986344 1.602031 0.025974 0.010727 143198.000000 0 0 1
18.641888 -27.096401 -2.295723 32.969763 -0.968180 1.640484 0.018619 0.003279 809226.000000 0 0 1
17.566888 -26.922601 -3.246223 32.310370 -0.992668 1.671436 0.015330 0.009491 506291.000000 0 0 1
31.873148 -29.751001 13.559377 45.660446 -0.750975 1.269288 -0.014099 -0.009042 -43686.200000 0 0 1
32.343388 -29.816601 14.889877 46.441715 -0.744771 1.244418 -0.019297 0.000849 151728.000000 0 0 1
31.494658 -30.627701 15.686477 46.647992 -0.771443 1.227839 -0.020316 0.008050 -179025.000000 0 0 1
32.095198 -30.895701 17.026977 47.692390 -0.766358 1.205724 -0.019712 0.007513 55917.600000 0 0 1
31.208868 -31.464101 18.031477 47.844721 -0.789471 1.184376 -0.016387 0.002613 655503.000000 0 0 1
31.862328 -31.606601 19.300377 48.853759 -0.781369 1.164658 -0.017881 0.010485 287380.000000 0 0 1
32.676318 -32.980301 19.477177 50.346822 -0.790028 1.173572 -0.017991 0.008570 248425.000000 0 0 1
33.738683 -33.121001 18.565877 50.793614 -0.776160 1.196609 -0.019653 0.014700 -301138.000000 0 0 1
34.214942 -34.427201 18.533277 51.955527 -0.788490 1.206048 -0.003356 0.010419 -697708.000000 0 0 1
-34.335122 -34.515301 17.579977 51.761590 0.788015 1.224269 -0.002515 0.010766 -579840.000000 0 0 1
-33.220225 -33.815501 18.130977 50.752377 0.794278 1.205481 0.000906 0.012159 -422549.000000 0 0 1
-32.263145 -33.851001 17.127877 49.801255 0.809410 1.219703 0.005550 0.013316 -551587.000000 0 0 1
-30.860335 -33.306801 17.580477 48.690620 0.823506 1.201387 -0.005396 0.004302 1035490.000000 0 0 1
-29.896165 -33.165901 16.525077 47.611300 0.837201 1.216337 0.006058 -0.006272 131262.000000 0 0 1
-30.156335 -32.099101 15.677877 46.749895 0.816594 1.228813 0.019573 -0.007743 -905441.000000 0 0 1
-29.061405 -31.690501 14.691977 45.439051 0.828647 1.241546 0.022059 -0.007531 27664.400000 0 0 1
-27.818285 -31.394201 15.314877 44.654208 0.845716 1.220724 0.011757 -0.007950 -376401.000000 0 0 1
-26.843835 -31.443201 14.320877 43.753330 0.864144 1.237342 0.018392 -0.003068 -193912.000000 0 0 1
-25.497365 -30.806701 14.693177 42.603496 0.879418 1.218683 0.020212 -0.004888 478172.000000 0 0 1
-24.405915 -31.080101 13.807077 41.859966 0.905109 1.234663 0.014370 -0.003806 563097.000000 0 0 1
-23.240015 -30.458701 14.362677 40.915978 0.919026 1.212127 0.003726 0.000451 -78749.700000 0 0 1
-22.008215 -30.500101 13.475377 39.952515 0.945735 1.226765 0.006962 -0.001963 -466778.000000 0 0 1
-21.527015 -31.780401 13.234277 40.602369 0.975422 1.238782 -0.002246 -0.009907 -34545.700000 0 0 1
-20.251315 -31.616401 12.631477 39.613972 1.001106 1.246265 -0.001405 -0.011843 233666.000000 0 0 1
-19.632815 -32.956801 12.245377 40.268442 1.033535 1.261809 0.003383 -0.012643 -30456.700000 0 0 1
-20.384415 -33.535301 11.185277 40.807490 1.024625 1.293144 -0.001590 -0.007601 121974.000000 0 0 1
-20.346115 34.540695 11.101777 41.596556 -1.038469 1.300630 -0.008913 -0.004697 -278257.000000 0 0 1
-21.383115 33.922995 10.147177 41.363903 -1.008364 1.322952 -0.007771 -0.005385 -240386.000000 0 0 1
-21.242415 34.213595 8.779077 41.217502 -1.015168 1.356158 -0.006286 -0.010230 -174698.000000 0 0 1
-22.321215 33.703695 8.005077 41.209914 -0.985838 1.375302 0.000349 -0.008735 -335433.000000 0 0 1
-22.195115 34.003195 6.521777 41.126318 -0.992500 1.411545 0.008506 -0.008527 165495.000000 0 0 1
-21.348815 33.122295 5.781977 39.828252 -0.998265 1.425109 0.002751 -0.015093 1518130.000000 0 0 1
-19.912615 33.130195 5.995177 39.116036 -1.029612 1.416923 -0.007496 -0.012233 1807780.000000 0 0 1
-18.993315 34.401495 5.599877 39.693419 -1.066337 1.429246 -0.006986 -0.012159 334154.000000 0 0 1
-19.147015 -33.977901 6.469377 39.534274 1.057637 1.406417 -0.001364 -0.013132 -724.825000 0 0 1
-18.533815 -34.154501 7.726977 39.619925 1.073616 1.374511 -0.008851 -0.008481 -622256.000000 0 0 1
-18.468015 -32.865501 8.545477 38.655322 1.058842 1.347886 -0.006444 -0.007310 -1063320.000000 0 0 1
-17.455215 -31.978501 8.182577 37.339840 1.071151 1.349865 -0.009486 -0.011675 -494782.000000 0 0 1
-17.603915 -30.679401 8.793277 36.447842 1.049863 1.327136 -0.005769 -0.007210 79398.700000 0 0 1
-17.215815 -30.630601 10.299277 36.615477 1.058752 1.285666 -0.016159 0.000168 -154994.000000 0 0 1
-15.986815 -31.270001 10.514877 36.659976 1.098189 1.279889 -0.009730 -0.007082 -625027.000000 0 0 1
-15.553715 -31.212001 11.860777 36.834564 1.108490 1.242954 -0.004864 -0.001450 -642755.000000 0 0 1
-14.226515 -31.901601 12.054577 36.951573 1.151316 1.238488 0.002580 -0.006520 -689414.000000 0 0 1
-13.134315 -31.226301 11.473777 35.766460 1.172644 1.244225 -0.002157 -0.002893 -320978.000000 0 0 1
-12.208115 -32.227701 11.024277 36.182834 1.208691 1.261191 0.015025 -0.003509 380610.000000 0 0 1
-11.107615 -31.571401 10.139477 34.970580 1.232496 1.276629 0.017515 -0.000669 290595.000000 0 0 1
-10.191515 -30.793801 10.912977 34.223066 1.251183 1.246251 0.014559 0.000957 214951.000000 0 0 1
-9.366415 -30.004601 10.020277 32.991086 1.268216 1.262195 0.006330 0.002713 375568.000000 0 0 1
-8.387215 -29.166701 10.802377 32.213866 1.290790 1.228838 0.003798 0.014164 244295.000000 0 0 1
-9.151915 -28.148001 11.461777 31.740193 1.256442 1.201336 0.006814 0.009495 331821.000000 0 0 1
-8.518715 -27.781801 12.654177 31.694245 1.273269 1.160089 0.009887 0.011091 -39123.200000 0 0 1
-9.171015 -26.465101 13.115177 30.927608 1.237214 1.132872 0.013889 0.005869 151793.000000 0 0 1
-8.740015 -25.304801 12.466877 29.532082 1.238235 1.134984 0.009078 0.005117 96463.800000 0 0 1
-9.463115 -24.986601 11.275277 29.000218 1.208762 1.171468 0.006527 0.007732 160376.000000 0 0 1
-9.100715 -23.552201 10.868277 27.489064 1.202063 1.164329 -0.007062 0.010217 928713.000000 0 0 1
-7.793215 -23.395201 10.293977 26.721445 1.249245 1.175336 -0.011990 0.001788 408312.000000 0 0 1
-7.433615 -22.057901 10.210177 25.417658 1.245745 1.157428 -0.013877 0.007270 -372529.000000 0 0 1
-6.195415 -21.879201 9.333077 24.580255 1.294856 1.181326 -0.012495 -0.005413 -118419.000000 0 1 0
-5.067015 -22.547701 9.874477 25.131231 1.349744 1.166995 -0.019031 -0.003064 -615364.000000 0 0 1
-3.948115 -22.313401 9.053077 24.401510 1.395670 1.190706 -0.024892 -0.006507 -45938.200000 0 1 0
-2.822415 -23.301301 9.478477 25.313202 1.450257 1.186995 -0.013781 -0.003229 -165556.000000 0 0 1
-2.107715 -22.787101 10.564577 25.205252 1.478563 1.138296 -0.007838 -0.000507 -637.168000 0 0 1
-1.115915 -23.705301 11.062077 26.183126 1.523757 1.134607 -0.013123 0.000411 540558.000000 0 0 1
-0.077915 -23.135601 12.048377 26.084967 1.567429 1.090672 -0.012624 0.006024 -536565.000000 0 0 1
-0.548315 -22.845001 13.316277 26.448402 1.546799 1.043173 -0.006061 0.003856 -232737.000000 0 0 1
0.379985 -22.313201 14.271977 26.489859 -1.553768 1.001818 -0.010521 0.000630 45296.900000 0 0 1
0.879085 -20.876201 14.076177 25.193795 -1.528712 0.977959 0.000336 -0.011137 -289802.000000 0 0 1
1.709185 -20.693601 12.945477 24.468997 -1.488389 1.013308 -0.002521 -0.017784 -391039.000000 0 1 0
2.097785 -19.396801 12.932777 23.407121 -1.463064 0.985418 -0.003022 -0.009123 164161.000000 0 1 0
3.598485 -19.295001 12.535577 23.289200 -1.386416 1.002429 0.008303 -0.012787 354996.000000 0 1 0
3.851485 -19.739201 11.219277 23.029159 -1.378099 1.061942 0.020126 -0.011253 -773594.000000 0 1 0
5.227885 -19.991101 11.102077 23.457003 -1.315014 1.077769 0.033691 -0.004782 -96874.100000 0 1 0
5.620185 -20.927201 9.954377 23.845835 -1.308428 1.140162 0.029188 -0.005034 -504087.000000 0 1 0
5.468185 -20.372501 8.611577 22.783746 -1.308567 1.183193 0.025463 -0.008034 -304435.000000 0 1 0
5.814585 -21.262501 7.609077 23.319550 -1.303856 1.238414 0.027695 -0.007592 546543.000000 0 1 0
7.291985 -21.827701 7.510377 24.208001 -1.248383 1.255347 0.029910 0.004153 798734.000000 0 1 0
8.279585 -20.968701 6.975777 23.598716 -1.194734 1.270713 0.029432 -0.000289 4695.200000 0 1 0
8.734185 -19.809801 7.695477 22.976827 -1.155534 1.229272 0.028489 -0.002757 -113609.000000 0 1 0
9.465085 -19.985101 9.062577 23.898167 -1.128485 1.181847 0.012617 0.003225 -561308.000000 0 1 0
8.648485 -20.218501 10.154377 24.221797 -1.166598 1.138205 0.019500 0.000253 -917375.000000 0 1 0
9.436385 -20.128901 11.318777 24.946597 -1.132421 1.099861 0.016499 0.004945 -104962.000000 0 1 0
8.706485 -20.247001 12.662377 25.418098 -1.164687 1.049316 0.017941 0.005352 -335551.000000 0 0 1
8.434785 -21.534901 13.091477 26.576010 -1.197483 1.055716 0.018973 0.006739 52945.000000 0 0 1
7.730085 -21.541301 14.333477 27.004267 -1.226260 1.011269 0.026841 0.005511 201430.000000 0 0 1
7.784685 -22.903201 15.000877 28.463736 -1.243152 1.015709 0.015484 0.000937 32770.700000 0 0 1
7.337985 -24.013201 14.218477 28.855588 -1.274227 1.055554 0.022129 0.006329 -208023.000000 0 0 1
7.562285 -25.251801 14.808077 30.234430 -1.279821 1.058964 0.022664 -0.003853 123208.000000 0 0 1
7.356185 -26.465101 13.876077 30.774349 -1.299682 1.103026 0.027581 -0.010341 357100.000000 0 0 1
8.399185 -26.742601 12.958377 30.880941 -1.266477 1.137766 0.038311 -0.014107 -67870.900000 0 0 1
8.083585 -27.986701 12.383677 31.653676 -1.289612 1.168835 0.036820 -0.011790 196534.000000 0 0 1
9.294685 -28.545701 11.615377 32.189520 -1.256015 1.201624 0.043449 -0.018058 469125.000000 0 0 1
10.302385 -29.244501 12.315577 33.362455 -1.232088 1.192708 0.041456 -0.024901 -305203.000000 0 0 1
11.495385 -29.407201 11.633777 33.649251 -1.198156 1.217773 0.035513 -0.025450 406993.000000 0 0 1
12.563185 -30.320701 12.425277 35.093675 -1.177986 1.208887 0.021006 -0.022802 343855.000000 0 0 1
13.254085 -29.624301 13.495277 35.148150 -1.150102 1.176721 0.024623 -0.022084 599816.000000 0 0 1
14.129585 -30.499501 14.232277 36.502362 -1.136960 1.170273 0.035090 -0.021524 1181530.000000 0 0 1
15.534185 -30.661801 13.543477 36.944319 -1.101859 1.195453 0.037764 -0.015703 337303.000000 0 0 1
16.308385 -29.464001 13.488777 36.277236 -1.065268 1.189822 0.031953 -0.022672 -207883.000000 0 0 1
17.505585 -29.568501 12.803577 36.669788 -1.036254 1.214123 0.018339 -0.017139 -539569.000000 0 0 1
18.401885 -28.312101 12.761377 36.097883 -0.994445 1.209463 -0.002519 -0.018906 856692.000000 0 0 1
19.750185 -28.590801 12.348677 36.878090 -0.966280 1.229349 -0.012148 -0.016751 1262630.000000 0 0 1
20.520485 -27.363801 12.166477 36.302769 -0.927351 1.229043 -0.011378 -0.004878 516148.000000 0 0 1
21.979085 -27.583301 11.720077 37.165560 -0.897994 1.249973 -0.007481 0.001669 -241078.000000 0 0 1
22.794385 -28.152301 12.676277 38.377390 -0.890180 1.234169 -0.000421 -0.000527 -72979.800000 0 0 1
23.811785 -28.984601 12.131777 39.424462 -0.883063 1.257998 -0.010516 -0.006863 643676.000000 0 0 1
24.834385 -29.598901 13.206977 40.832167 -0.872705 1.241428 -0.003550 -0.002514 639261.000000 0 0 1
25.780585 -28.772401 13.836877 41.035945 -0.840186 1.226867 -0.007595 -0.007815 1078940.000000 0 0 1
27.037285 -28.760901 13.104677 41.592508 -0.816279 1.250263 -0.015267 -0.007472 802246.000000 0 0 1
28.246985 -28.073101 13.761577 42.135165 -0.782311 1.238086 -0.002931 -0.006474 -94938.500000 0 0 1
28.229185 -26.660301 13.842177 41.222135 -0.756823 1.228347 0.013071 -0.005323 -149490.000000 0 0 1
27.362885 -26.011701 14.757277 40.535334 -0.760088 1.198173 0.007586 -0.008212 -253769.000000 0 0 1
27.915085 -25.758901 16.180977 41.286765 -0.745248 1.168082 0.008785 0.006615 -505606.000000 0 0 1
28.098685 -26.993701 16.793177 42.428844 -0.765344 1.163862 0.002876 0.001770 110005.000000 0 0 1
28.685585 -26.784401 18.074677 43.208342 -0.751137 1.139207 0.020659 0.009685 -279477.000000 0 0 1
29.165185 -28.063801 18.730377 44.598340 -0.766155 1.137374 0.012886 0.009132 -466047.000000 0 0 1
28.151885 -28.950201 19.071077 44.658132 -0.799378 1.129573 -0.004036 0.004548 -320911.000000 0 0 1
28.669485 -29.955201 19.907577 45.995272 -0.807326 1.123180 0.004715 -0.004136 -7377.590000 0 0 1
27.534585 -30.827401 20.493977 46.135508 -0.841759 1.110501 0.001571 0.004495 -746455.000000 0 0 1
26.641685 -30.058001 21.236277 45.433933 -0.845578 1.084437 -0.004209 0.014478 671461.000000 0 0 1
25.443585 -30.670401 21.767777 45.407991 -0.878277 1.070846 -0.000878 0.010488 1484020.000000 0 0 1
24.394385 -31.259001 20.786477 44.769284 -0.908124 1.087950 0.016277 0.001989 -730119.000000 0 0 1
24.788885 -32.522901 20.263277 45.638014 -0.919534 1.110738 0.007652 -0.003343 96914.200000 0 0 1
24.211685 -32.943501 19.011977 45.088083 -0.937000 1.135518 0.019819 -0.000370 -479702.000000 0 0 1
24.546085 -32.058801 17.763377 44.111388 -0.917349 1.156339 0.012399 0.004612 -14480.600000 0 0 1
25.927885 -32.160301 17.478577 44.855778 -0.892282 1.170532 -0.003693 0.004080 -867.923000 0 0 1
26.344085 -31.074501 16.661377 44.014053 -0.867597 1.182571 -0.003287 -0.001093 179404.000000 0 0 1
27.772985 -31.239501 16.064177 44.780608 -0.844073 1.203889 -0.002143 0.006272 124684.000000 0 0 1
27.955185 -32.200401 15.043377 45.217932 -0.855852 1.231646 0.007350 0.007722 128358.000000 0 0 1
27.937685 -33.558301 15.449077 46.317899 -0.876543 1.230736 0.006453 0.004812 -677862.000000 0 0 1
26.906885 -34.364101 14.652977 46.038914 -0.906511 1.246888 -0.004758 0.003892 -199100.000000 0 0 1
27.127985 -34.577001 13.218377 45.893595 -0.905537 1.278635 -0.001646 0.011423 -352306.000000 0 0 1
26.342885 33.923195 12.724477 44.795570 0.910522 1.282774 -0.006338 0.004217 -388725.000000 0 0 1
26.750585 33.482695 11.285477 44.317566 0.896704 1.313310 -0.000910 0.001831 -394620.000000 0 0 1
28.011685 32.898295 11.115677 44.615139 0.865453 1.318998 -0.015429 0.009259 -90615.000000 0 0 1
28.017285 32.034495 10.019277 43.721425 0.852194 1.339580 -0.015264 -0.001013 443437.000000 0 0 1
29.411685 31.362595 9.759777 44.089827 0.817488 1.347586 -0.017908 0.002812 571304.000000 0 0 1
29.902985 30.582995 10.844977 44.126201 0.796640 1.322480 -0.019849 0.008132 267168.000000 0 0 1
31.197985 30.091695 10.557377 44.612583 0.767350 1.331884 -0.007273 0.013773 -15884.700000 0 0 1
31.798285 29.263895 11.728277 44.777885 0.743917 1.305784 -0.011094 0.013918 -76591.300000 0 0 1
31.287585 27.955895 11.947877 43.625644 0.729220 1.293379 -0.012975 0.017474 165648.000000 0 0 1
31.887985 27.422395 13.078077 44.043926 0.710248 1.269318 -0.012897 0.004288 -139663.000000 0 0 1
31.758785 25.913395 13.120977 43.038175 0.684388 1.260996 -0.018336 0.006200 -148709.000000 0 0 1
32.604185 25.297795 12.192877 43.031123 0.659876 1.283511 -0.004361 0.007799 -289558.000000 0 0 1
32.611185 23.858195 12.172777 42.200466 0.631618 1.278187 -0.000296 0.003861 -757247.000000 0 0 1
31.588885 23.281995 11.217777 40.813570 0.635149 1.292358 -0.012603 -0.000219 529241.000000 0 0 1
30.246585 23.436595 11.711377 40.016075 0.659217 1.273782 -0.011388 -0.001462 626242.000000 0 0 1
29.256285 23.381195 10.715577 38.954256 0.674244 1.292122 -0.019565 0.000415 310013.000000 0 0 1
27.926285 22.733295 11.205077 37.712516 0.683247 1.269123 -0.023961 0.003339 566864.000000 0 0 1
27.218385 23.520195 12.206177 37.987245 0.712640 1.243670 -0.022320 0.002628 460818.000000 0 0 1
26.812485 22.697295 13.280077 37.555785 0.702470 1.209369 0.003176 -0.001607 -238707.000000 0 0 1
23.110485 9.350495 26.285009 36.227448 0.384465 0.758956 -0.016294 0.013121 -381405.000000 0 0 1
22.758285 8.343895 27.132009 36.382771 0.351413 0.729155 -0.001250 0.005392 1092060.000000 0 0 1
21.384585 7.898895 27.070749 35.390938 0.353829 0.699901 -0.005385 0.008429 736167.000000 0 0 1
21.266985 6.610395 27.902249 35.700385 0.301362 0.673622 0.005098 0.001588 -202029.000000 0 0 1
21.267785 6.771195 29.283059 36.819361 0.308231 0.651266 0.005710 0.003319 1146170.000000 0 0 1
22.618685 6.854395 29.832279 38.059855 0.294245 0.669994 0.000060 -0.004910 963067.000000 0 0 1
22.683185 6.713395 31.337959 39.264032 0.287750 0.646605 0.007297 -0.002877 -738811.000000 0 0 1
22.414785 7.897695 32.037299 39.889657 0.338761 0.638236 0.019110 0.000676 136155.000000 0 0 1
22.392685 7.674495 33.433568 40.965030 0.330178 0.616081 0.026642 0.001388 -73447.700000 0 0 1
22.589285 8.999895 34.213242 41.974037 0.379139 0.617886 0.027592 0.007635 -601801.000000 0 0 1
23.686485 9.710695 33.758179 42.366990 0.389070 0.648809 0.018769 0.007817 -809366.000000 0 0 1
24.268585 10.456395 -34.444473 43.413387 0.406825 2.487182 0.025538 0.009507 283191.000000 0 0 1
25.377585 11.477395 34.446531 44.298035 0.424736 0.679943 0.016079 0.000934 -31034.700000 0 0 1
24.900285 12.686695 33.917590 43.947461 0.471219 0.689167 0.007472 0.004490 237990.000000 0 0 1
24.750385 13.688895 -34.285457 44.446147 0.505203 2.451824 0.009942 -0.003077 -446536.000000 0 0 1
24.263685 15.077495 34.513820 44.802467 0.556008 0.691398 0.005255 -0.001893 -125436.000000 0 0 1
25.155685 15.707495 33.559700 44.786018 0.558176 0.723740 0.000008 -0.004364 580663.000000 0 0 1
25.088085 17.110995 33.555342 45.256592 0.598568 0.735573 0.006848 -0.013578 -149193.000000 0 0 1
25.765885 17.836895 -34.501216 46.608685 0.605518 2.404211 0.009230 -0.016245 -221933.000000 0 0 1
25.175085 17.644095 -33.234513 45.272860 0.611300 2.395127 0.002539 -0.023762 733510.000000 0 0 1
26.205085 17.175295 -32.338173 45.027266 0.580175 2.371995 -0.002275 -0.012322 536624.000000 0 0 1
25.592385 16.796295 -30.971673 43.546874 0.580792 2.362037 -0.009404 -0.002318 -3145.540000 0 0 1
24.771585 15.680695 -31.061753 42.712388 0.564340 2.385075 -0.006829 0.005241 -38192.800000 0 0 1
23.909285 15.437195 -29.964093 41.325631 0.573316 2.381937 -0.001200 0.000839 169231.000000 0 0 1
23.428185 13.960595 -30.057473 40.586078 0.537391 2.404738 0.017979 0.003420 -305143.000000 0 0 1
22.382785 13.889695 -31.015363 40.692326 0.555395 2.437489 0.010837 -0.005006 154382.000000 0 0 1
21.821785 12.612995 -31.297133 40.184431 0.524086 2.463606 0.010399 0.019154 178924.000000 0 0 1
20.956285 11.955195 -30.195773 38.650709 0.518433 2.467458 0.005902 0.022969 -1447250.000000 0 0 1
19.758385 12.598295 -30.007243 38.072896 0.567621 2.478598 0.001576 0.029200 -1124390.000000 0 0 1
19.110385 12.025095 -28.923403 36.692955 0.561645 2.478764 -0.000769 0.042322 -2973.000000 0 0 1
17.705185 12.637395 -28.698983 36.011234 0.619907 2.493018 0.007050 0.019584 598318.000000 0 0 1
16.717485 12.433095 -29.716423 36.292175 0.639469 2.530133 -0.008055 0.024455 267151.000000 0 0 1
15.526485 13.110595 -29.452833 35.783080 0.701235 2.537634 -0.004214 0.005889 -952449.000000 0 0 1
14.629685 13.450195 -30.671833 36.547186 0.743418 2.566679 -0.003782 0.006511 6907.970000 0 0 1
13.920985 12.412895 -31.268023 36.408283 0.728193 2.603751 -0.018434 0.015484 -59354.000000 0 0 1
12.798085 12.015895 -30.461183 35.157594 0.753886 2.618780 -0.009771 0.008009 -331463.000000 0 0 1
11.870985 11.148695 -31.366273 35.341997 0.754031 2.662703 -0.001494 0.016873 51028.400000 0 0 1
11.377785 11.953695 -32.434043 36.391097 0.810077 2.670919 0.008268 0.012974 187574.000000 0 0 1
10.419285 11.263495 -33.245583 36.615524 0.824313 2.709196 0.011845 0.014673 196621.000000 0 0 1
9.823585 12.249495 -34.282075 37.706944 0.894862 2.712086 0.015734 0.009411 -438060.000000 0 0 1
10.668385 12.623995 33.940757 37.751221 0.869161 0.453170 0.007300 0.013481 11762.900000 0 0 1
9.931385 13.148895 32.840259 36.742462 0.923911 0.465057 0.004082 0.014936 -333346.000000 0 0 1
10.780085 13.270995 31.566999 35.899930 0.888598 0.496395 0.004985 0.020190 -363074.000000 0 0 1
11.076885 11.979995 31.088089 35.109642 0.824547 0.483319 -0.001246 0.015753 99270.100000 0 0 1
11.399785 11.961995 29.717239 34.002334 0.809459 0.507471 0.001584 0.014135 -783928.000000 0 0 1
11.969185 10.655495 29.209459 33.316565 0.727399 0.501786 0.001627 0.016853 132114.000000 0 0 1
11.091885 9.508795 29.149889 32.606183 0.708702 0.464605 -0.001461 0.010875 421343.000000 0 0 1
11.783785 8.400395 28.601499 32.054173 0.619316 0.468412 -0.009728 0.003531 -158957.000000 0 0 1
11.075285 7.013995 28.737119 31.586074 0.564547 0.427986 -0.020078 0.009088 233902.000000 0 0 1
9.930885 6.956595 27.887119 30.409014 0.611062 0.410134 -0.013366 0.003329 153080.000000 0 0 1
9.176185 5.733395 28.005769 30.023279 0.558465 0.368686 -0.018469 -0.002210 -68448.300000 0 0 1
9.715085 4.467995 27.332989 29.350267 0.431059 0.372916 -0.028712 0.007535 -58658.300000 0 0 1
10.616385 3.748495 28.175619 30.341792 0.339421 0.380154 -0.034720 0.008259 476782.000000 0 0 1
10.964185 2.432595 27.812219 29.994173 0.218331 0.383785 -0.051609 0.012130 -380412.000000 0 0 1
11.581385 1.534095 28.899759 31.171750 0.131695 0.384159 -0.040168 0.011920 -648561.000000 0 0 1
10.602385 1.205795 29.831869 31.682881 0.113242 0.343514 -0.023285 0.007394 -191614.000000 0 0 1
10.896585 0.073895 30.588519 32.471503 0.006781 0.342222 -0.017313 0.008593 -415381.000000 0 0 1
9.799085 -0.117105 31.622509 33.106176 -0.011950 0.300514 -0.021335 0.014072 -155164.000000 0 0 1
9.795785 0.877095 32.681909 34.129663 0.089300 0.292310 -0.031216 0.004543 394434.000000 0 0 1
8.513685 0.957495 33.333727 34.417103 0.111995 0.251573 -0.023940 -0.000349 723157.000000 0 0 1
8.583185 2.077895 34.405502 35.520801 0.237519 0.251254 -0.008553 -0.002385 -153365.000000 0 0 1
8.600785 3.460795 33.986294 35.228097 0.382558 0.266306 -0.021862 -0.003388 -144135.000000 0 0 1
9.587485 3.809395 33.042869 34.615929 0.378203 0.302627 -0.025900 -0.006128 -684967.000000 0 0 1
9.307285 5.092995 32.233159 33.934359 0.500695 0.317983 -0.023092 -0.006152 -288332.000000 0 0 1
9.391885 6.251295 33.025689 34.899604 0.587268 0.329187 -0.018396 -0.006351 2510.740000 0 0 1
9.455585 7.375695 32.171539 34.333903 0.662449 0.356799 -0.018306 -0.002615 -243756.000000 0 0 1
9.715685 8.711795 32.905779 35.398873 0.730974 0.377548 -0.012582 0.002507 242222.000000 0 0 1
8.559085 9.200395 33.580119 35.854283 0.821493 0.358078 -0.007213 -0.003247 245567.000000 0 0 1
8.245485 8.588895 -34.416559 36.417807 0.805795 2.808536 -0.007145 -0.002860 218917.000000 0 0 1
6.825385 8.948595 -33.873843 35.694544 0.919196 2.820820 -0.001742 -0.000497 488027.000000 0 0 1
6.372485 8.023795 -32.920613 34.478350 0.899603 2.839849 0.001098 0.005685 227859.000000 0 0 1
4.988385 8.215295 -32.649863 34.035109 1.025094 2.855307 0.002660 0.003782 342849.000000 0 0 1
4.519285 7.418895 -31.451523 32.629162 1.023670 2.872109 -0.004436 0.011287 -637495.000000 0 0 1
5.080185 7.920995 -30.272213 31.701062 1.000521 2.840211 0.005047 0.006130 -1752.320000 0 0 1
4.615585 7.510095 -28.986903 30.297619 1.019722 2.846374 -0.003131 0.012374 -458534.000000 0 0 1
3.181685 7.885095 -28.567263 29.805811 1.187271 2.852301 0.000214 0.007892 -805361.000000 0 0 1
2.279785 7.237195 -29.366953 30.331376 1.265627 2.888744 -0.006460 0.012140 -597008.000000 0 0 1
0.955185 7.709195 -29.100813 30.119784 1.447523 2.880736 0.009429 0.021109 675532.000000 0 0 1
0.009485 7.016795 -30.162743 30.968154 1.569445 2.913026 0.012056 0.018198 44651.900000 0 0 1
0.044385 7.642595 -31.412103 32.328493 1.564989 2.902925 0.003794 0.020256 188116.000000 0 0 1
-0.339415 6.792295 -32.510353 33.214056 -1.520867 2.935378 0.006355 0.012036 -271900.000000 0 0 1
-0.111915 7.348895 -33.941373 34.728023 -1.555569 2.928343 0.013331 0.005484 883279.000000 0 0 1
1.276885 7.350595 -34.329489 35.130834 1.398801 2.927595 0.011578 0.002922 759361.000000 0 0 1
1.828185 6.191495 34.417618 35.017843 1.283681 0.185417 0.013124 0.007245 -415132.000000 0 0 1
1.592985 5.947095 32.896069 33.467252 1.309081 0.185017 0.026302 0.000628 168270.000000 0 0 1
0.284985 5.439795 32.637949 33.089399 1.518455 0.165375 0.029867 -0.006466 68662.500000 0 0 1
0.060785 5.430695 31.212049 31.681038 1.559604 0.172280 0.043998 -0.009346 418950.000000 0 0 1
0.815285 4.405395 30.218769 30.549079 1.387802 0.147187 0.052941 -0.023980 266407.000000 0 0 1
0.619285 4.678295 28.870859 29.253999 1.439187 0.162023 0.053008 -0.022715 14685.800000 0 0 1
1.504085 3.918595 28.078569 28.390557 1.204305 0.148387 0.044528 -0.023219 -19219.600000 0 0 1
1.553585 4.223295 26.545509 26.924225 1.218299 0.167923 0.046128 -0.025498 44623.700000 0 0 1
2.225585 5.454795 26.373649 27.023645 1.183408 0.219772 0.038971 -0.017203 68261.100000 0 0 1
2.096185 5.867295 25.030939 25.794710 1.227663 0.243954 0.031742 -0.014092 -484506.000000 0 0 1
2.748785 7.197395 24.628619 25.805565 1.205978 0.303180 0.036403 -0.011875 987495.000000 0 0 1
4.181585 7.350495 24.639419 26.050267 1.053570 0.330620 0.030351 -0.004877 1148740.000000 0 0 1
4.793485 6.808295 23.439319 24.874326 0.957347 0.341332 0.029506 -0.011955 1129370.000000 0 1 0
6.388185 6.796195 23.427019 25.215519 0.816335 0.378902 0.025871 -0.006581 1648050.000000 0 0 1
7.084585 5.956695 24.353519 26.053166 0.699127 0.363207 0.019572 -0.000167 188000.000000 0 0 1
6.905285 4.541395 24.306649 25.673341 0.581748 0.327759 0.026127 -0.004274 -946915.000000 0 0 1
6.997485 3.742895 22.947019 24.280440 0.491170 0.332949 0.016639 -0.003374 22246.000000 0 1 0
5.980785 3.884395 21.967119 23.095728 0.576009 0.313910 0.022705 -0.006094 133560.000000 0 1 0
4.742485 3.281695 22.370019 23.101482 0.605322 0.252315 0.021363 -0.004038 423217.000000 0 1 0
3.630285 3.685895 21.342319 21.960405 0.792999 0.237817 0.012842 -0.002213 44837.000000 0 1 0
3.141885 4.981895 21.509919 22.301734 1.008137 0.267270 0.010684 -0.003267 218160.000000 0 1 0
2.110085 5.199595 20.538619 21.291386 1.185285 0.266705 0.007823 -0.008135 114748.000000 0 1 0
1.573085 6.622395 20.661719 21.754019 1.337579 0.318237 0.008072 -0.007417 -468418.000000 0 1 0
2.396185 7.572395 20.064419 21.579245 1.264329 0.376922 0.007708 -0.005179 -278975.000000 0 1 0
2.255785 8.893995 20.572219 22.525717 1.322404 0.419539 0.016540 0.001886 45071.500000 0 1 0
3.202785 9.878295 19.866019 22.416451 1.257266 0.481665 0.030087 -0.014355 -660107.000000 0 1 0
2.816085 10.130695 18.539219 21.313469 1.299666 0.515927 0.002612 -0.012320 188871.000000 0 1 0
3.607085 11.141995 17.893519 21.385349 1.257706 0.579533 -0.001481 -0.017886 217710.000000 0 1 0
5.140885 10.955895 17.837419 21.555368 1.132063 0.596127 0.001727 -0.020486 -639649.000000 0 1 0
5.579785 9.929995 17.062319 20.514910 1.058854 0.588628 0.002902 -0.019924 -993920.000000 0 1 0
6.893185 9.681395 17.449019 21.111932 0.952060 0.597934 -0.004863 -0.003741 -540049.000000 0 1 0
7.077185 8.211395 17.770519 20.815977 0.859449 0.547754 0.007971 -0.008367 -178935.000000 0 1 0
6.701785 7.979895 19.129119 21.783385 0.872234 0.498811 0.015462 -0.011653 -42615.100000 0 1 0
6.709085 6.643895 19.628719 21.781639 0.780516 0.448361 0.017574 -0.017049 -776616.000000 0 1 0
8.026285 5.966095 19.981019 22.344052 0.639212 0.464059 0.017625 -0.012052 -624597.000000 0 1 0
8.857185 5.896195 18.816519 21.616573 0.587331 0.514646 0.011604 -0.013631 58177.200000 0 1 0
10.141085 5.359295 19.102419 22.281519 0.486166 0.540753 0.013360 -0.012332 174422.000000 0 1 0
10.249485 3.817795 19.037819 21.956003 0.356565 0.521467 0.013410 -0.008379 -564014.000000 0 1 0
9.671785 3.124195 20.068919 22.495901 0.312441 0.468792 0.019687 -0.012582 -106398.000000 0 1 0
10.096585 1.777095 20.068119 22.535051 0.174225 0.472289 0.022885 -0.018976 177144.000000 0 1 0
9.173285 0.884295 20.972019 22.907569 0.096102 0.414032 0.031265 -0.020616 106455.000000 0 1 0
9.151585 1.129295 22.351319 24.178674 0.122778 0.391277 0.011349 -0.016804 180314.000000 0 1 0
8.367085 0.226395 23.118719 24.587284 0.027051 0.347370 0.012381 -0.020042 -447033.000000 0 1 0
8.850285 0.326895 24.585309 26.131817 0.036919 0.345758 -0.003900 -0.005142 361707.000000 0 0 1
10.074685 -0.221605 25.071959 27.021316 -0.021993 0.382167 -0.016595 -0.007404 497028.000000 0 0 1
10.296485 -1.592105 24.802329 26.901820 -0.153411 0.397692 -0.016326 -0.010094 -207093.000000 0 0 1
11.626785 -2.199205 25.315039 27.944048 -0.186941 0.437252 -0.021644 0.001514 90569.700000 0 0 1
11.736485 -3.563205 25.051029 27.892572 -0.294757 0.455308 -0.014968 0.012424 -859082.000000 0 0 1
12.975285 -4.070205 25.387709 28.800354 -0.303968 0.491752 -0.017362 0.015811 -867021.000000 0 0 1
12.996185 -5.591605 25.517319 29.177053 -0.406309 0.506252 -0.007932 0.010002 -232852.000000 0 0 1
12.736985 -6.289005 24.289999 28.138700 -0.458643 0.529175 -0.001802 0.005200 376763.000000 0 0 1
12.362485 -7.646005 24.468669 28.460643 -0.553900 0.536042 -0.003438 0.002204 -64907.300000 0 0 1
12.514385 -8.501805 23.190119 27.688845 -0.596741 0.578057 0.022155 -0.001907 104796.000000 0 0 1
12.129085 -9.842705 23.405519 28.139152 -0.681712 0.588494 0.023266 0.004780 -168396.000000 0 0 1
12.389785 -10.647905 22.210319 27.571415 -0.709932 0.634183 0.023280 -0.000135 73650.700000 0 0 1
11.718185 -12.033805 22.255419 27.882468 -0.798686 0.646517 0.033266 0.006489 700941.000000 0 0 1
10.294185 -11.936305 22.232019 27.252675 -0.859132 0.616730 0.031548 0.007384 272221.000000 0 0 1
9.617685 -13.184005 22.432819 27.740750 -0.940547 0.628927 0.025888 0.011868 528339.000000 0 0 1
8.135385 -12.938205 22.814519 27.460588 -1.009478 0.590236 0.015365 0.015485 570548.000000 0 0 1
7.281485 -12.477805 21.743719 26.105650 -1.042557 0.586447 0.013268 0.003633 1042020.000000 0 0 1
5.919485 -12.339105 22.208319 26.086457 -1.123493 0.552271 0.003238 0.010974 1104100.000000 0 0 1
5.177385 -11.262505 21.423419 24.751004 -1.139904 0.524534 -0.000085 0.014967 95133.600000 0 1 0
5.605585 -9.954405 21.910919 24.710345 -1.057931 0.480616 0.008261 0.011973 41161.800000 0 1 0
5.106185 -8.935505 21.093619 23.470346 -1.051635 0.453920 0.007671 0.006214 130746.000000 0 1 0
5.528385 -7.597805 21.669919 23.619379 -0.941767 0.409139 0.014573 -0.003559 372617.000000 0 1 0
4.744485 -6.531605 21.131619 22.621170 -0.942578 0.364920 0.011559 -0.009622 34502.600000 0 1 0
5.176185 -5.332305 21.644719 22.884935 -0.800254 0.330727 0.022319 -0.015361 -11960.700000 0 1 0
-7.797015 -15.721605 -20.540923 27.016510 1.110400 2.434587 0.018913 0.012855 -127119.000000 0 0 1
-7.283215 -15.159305 -19.350223 25.637490 1.122915 2.426089 0.026354 -0.002171 -345737.000000 0 0 1
-6.658715 -13.915905 -19.637123 24.972134 1.124499 2.475693 0.018007 -0.006521 -152147.000000 0 1 0
-5.963915 -13.340305 -18.411623 23.505741 1.150390 2.470724 0.020503 -0.013571 -29694.400000 0 1 0
-4.855315 -14.179505 -18.122123 23.516883 1.240892 2.450579 0.012086 0.001254 -564746.000000 0 1 0
-4.247515 -13.782605 -16.935523 22.244404 1.271852 2.436172 0.008705 -0.001853 -291203.000000 0 1 0
-3.179115 -14.733805 -16.414223 22.284939 1.358284 2.398768 -0.000903 0.011308 -62661.300000 0 1 0
-1.979815 -14.733905 -17.170723 22.712141 1.437225 2.428000 -0.005473 0.001426 115198.000000 0 1 0
-1.014015 -15.519405 -16.407923 22.607523 1.505551 2.382953 -0.001907 0.006918 2003810.000000 0 1 0
0.396985 -15.624305 -17.190223 23.233172 -1.545394 2.403718 -0.000880 0.008745 1598610.000000 0 1 0
0.558585 -16.423105 -18.406223 24.674267 -1.536797 2.412784 0.007529 0.003285 -308650.000000 0 1 0
0.374185 -17.763805 -18.216123 25.446412 -1.549735 2.368654 0.005663 0.007754 -194710.000000 0 0 1
-0.036315 -18.395905 -19.528723 26.828747 1.568822 2.386055 0.007240 0.000856 269584.000000 0 0 1
-1.410915 -18.237505 -19.838323 26.984372 1.493587 2.396726 0.022491 0.010609 -3043.500000 0 0 1
-1.644615 -18.519305 -21.221223 28.213644 1.482223 2.422133 0.031397 0.011638 -87497.100000 0 0 1
-2.809515 -17.635705 -21.695823 28.100181 1.412816 2.452917 0.029726 0.014131 -132635.000000 0 0 1
-2.616215 -16.205605 -21.765623 27.261852 1.410738 2.495415 0.029366 0.022248 -266580.000000 0 0 1
-3.097215 -15.496505 -20.622323 25.981043 1.373530 2.487738 0.026095 0.008602 182709.000000 0 0 1
-2.428015 -14.099205 -20.449623 24.957362 1.400260 2.531129 0.011342 -0.002284 89039.900000 0 1 0
-2.474415 -13.288205 -21.588223 25.470581 1.386693 2.582195 0.012333 -0.013206 474033.000000 0 0 1
-1.621415 -12.107805 -21.519923 24.745404 1.437673 2.625296 -0.002587 -0.002887 568202.000000 0 1 0
-1.669715 -11.322505 -22.812823 25.522773 1.424383 2.676594 0.008329 0.003113 -373601.000000 0 0 1
-2.755315 -10.460305 -22.922123 25.346271 1.313240 2.700671 0.008895 -0.000879 -369717.000000 0 0 1
-2.746915 -9.732305 -24.142423 26.174795 1.295705 2.744926 0.010120 -0.005179 32893.100000 0 0 1
-3.910915 -8.713305 -24.314623 26.123128 1.148904 2.767310 0.008125 -0.005049 7664.860000 0 0 1
-5.191515 -9.306505 -24.465023 26.685206 1.061956 2.730791 -0.008827 -0.002585 485409.000000 0 0 1
-6.159215 -8.269905 -24.301123 26.398330 0.930648 2.740296 0.001666 -0.010266 566770.000000 0 0 1
-7.659615 -8.753005 -24.127423 26.784647 0.851919 2.692389 -0.015454 -0.012296 1152830.000000 0 0 1
-8.458715 -9.061505 -25.278513 28.154288 0.819790 2.685673 -0.019552 -0.020022 357691.000000 0 0 1
-8.660015 -7.951205 -26.125933 28.649291 0.742753 2.718741 -0.017922 -0.018657 -364019.000000 0 0 1
-9.097515 -8.271705 -27.612043 30.225995 0.737889 2.722650 -0.016946 -0.009971 -13206.400000 0 0 1
-9.810615 -7.229805 -28.179673 30.701990 0.635088 2.733414 -0.011723 -0.010812 -155564.000000 0 0 1
-10.198715 -7.536905 -29.507183 32.116858 0.636427 2.735685 -0.004147 -0.009847 -124319.000000 0 0 1
-11.096415 -6.487005 -30.172283 32.796011 0.529022 2.738873 -0.003987 -0.014691 174917.000000 0 0 1
-10.310415 -5.443205 -30.716403 32.854688 0.485743 2.778821 -0.014820 -0.012737 242868.000000 0 0 1
-11.134915 -4.670305 -31.558803 33.789882 0.397142 2.776168 0.005785 -0.022161 -310679.000000 0 0 1
-10.348515 -3.655305 -32.348723 34.159814 0.339541 2.814504 -0.001033 -0.015745 -343003.000000 0 0 1
-9.533115 -4.255805 -33.343213 34.939405 0.419876 2.838157 0.009636 -0.008418 -109549.000000 0 0 1
-9.045515 -3.229405 -34.199376 35.522496 0.342913 2.867801 0.013712 -0.006689 -126047.000000 0 0 1
-7.847415 -3.830905 34.280122 35.374914 0.454142 0.249436 0.016171 -0.008289 642486.000000 0 0 1
-6.607915 -3.885205 -34.269068 35.115928 0.531521 2.921531 0.020441 -0.009032 -38026.100000 0 0 1
-5.630415 -4.601405 34.301552 35.063813 0.685166 0.208895 0.012196 -0.004280 218211.000000 0 0 1
-4.196115 -4.071605 34.599694 35.090229 0.770339 0.167403 0.028918 -0.008703 307971.000000 0 0 1
-3.936415 -2.741705 34.193911 34.528768 0.608372 0.139382 0.042824 -0.017807 -765586.000000 0 0 1
-2.626015 -2.397405 34.500956 34.683707 0.739921 0.102700 0.042776 -0.018655 -457950.000000 0 0 1
-2.533415 -0.945205 -34.292500 34.398941 0.357100 3.062904 0.045124 -0.019767 -29657.700000 0 0 1
-2.929315 -0.814405 -32.948843 33.088826 0.271171 3.049576 0.034874 -0.011394 -38064.500000 0 0 1
-3.502915 0.412795 -32.671943 32.861781 -0.117302 3.034052 0.034231 -0.012643 -606865.000000 0 0 1
-3.929315 0.439995 -31.199453 31.448990 -0.111513 3.015536 0.041680 -0.008987 -63126.000000 0 0 1
-5.053815 -0.295505 -30.822093 31.235073 0.058405 2.978799 0.029350 -0.013267 -198511.000000 0 0 1
-6.281315 0.402095 -30.858563 31.493928 -0.063927 2.940384 0.027906 -0.013299 238209.000000 0 0 1
-7.568015 -0.456505 -30.786683 31.706515 0.060247 2.900130 0.022707 -0.013305 226270.000000 0 0 1
-7.709715 -1.117105 -29.497493 30.508847 0.143894 2.883390 0.017987 -0.010596 -43357.300000 0 0 1
-8.601715 -2.213605 -29.493983 30.802347 0.251879 2.849085 0.010472 -0.010492 43962.500000 0 0 1
-9.019915 -2.867305 -28.131113 29.680631 0.307784 2.817041 0.000089 -0.005499 197619.000000 0 0 1
-9.943015 -2.069205 -27.398163 29.219933 0.205178 2.786612 -0.001997 0.003669 267998.000000 0 0 1
-10.356415 -2.568905 -26.161443 28.253773 0.243142 2.754327 -0.007784 0.008530 110721.000000 0 0 1
-11.370615 -1.663405 -25.448063 27.922423 0.145259 2.717432 -0.014520 0.016536 62400.800000 0 0 1
-10.664015 -0.527505 -24.978123 27.164427 0.049426 2.737643 -0.003363 0.013490 636572.000000 0 0 1
-11.420615 0.266995 -24.052223 26.627264 -0.023374 2.698181 -0.006635 0.010979 286465.000000 0 0 1
-10.561715 1.424895 -23.472123 25.778299 -0.134102 2.715380 -0.011705 0.010968 123922.000000 0 0 1
-10.349815 2.463495 -24.388523 26.608035 -0.233675 2.730250 -0.013400 0.006804 102352.000000 0 0 1
-9.681115 3.507495 -23.694023 25.834729 -0.347593 2.731637 -0.010253 0.007831 -458475.000000 0 0 1
-9.604215 4.773995 -24.616223 26.851265 -0.461303 2.730694 -0.001421 -0.000008 207529.000000 0 0 1
-10.818415 5.447795 -24.968223 27.751194 -0.466497 2.689917 0.002918 0.004102 218565.000000 0 0 1
-11.392715 4.914495 -26.165123 28.957899 -0.407255 2.698797 -0.003037 -0.002724 271558.000000 0 0 1
-12.824715 5.436395 -26.466483 29.908234 -0.400938 2.657125 -0.013077 0.000394 235468.000000 0 0 1
-12.827115 6.853195 -26.696733 30.400933 -0.490689 2.642788 -0.002060 0.002882 407191.000000 0 0 1
-14.065115 7.344695 -27.214483 31.502382 -0.481243 2.613732 0.003977 -0.002017 97727.200000 0 0 1
-14.154615 8.930995 -27.255573 31.984091 -0.562874 2.590896 0.018192 -0.003335 -161829.000000 0 0 1
-13.965015 9.500695 -25.939323 30.953729 -0.597396 2.564410 0.024090 -0.003771 65047.900000 0 0 1
-14.173615 10.925295 -25.976253 31.543924 -0.656693 2.538340 0.025585 -0.003415 -402940.000000 0 0 1
-14.059215 11.659295 -24.623123 30.657770 -0.692353 2.503378 0.013344 0.001701 194308.000000 0 0 1
-14.919915 11.223495 -23.566623 30.065868 -0.644939 2.471611 0.022914 0.004012 369145.000000 0 0 1
-14.425215 11.817795 -22.366223 29.120355 -0.686366 2.446605 0.019629 0.006772 439243.000000 0 0 1
-15.350615 11.607595 -21.090423 28.551420 -0.647435 2.401909 0.020934 0.010216 1193370.000000 0 0 1
-16.622415 12.272495 -21.273523 29.656055 -0.635977 2.370776 0.021635 0.004564 727484.000000 0 0 1
-17.128015 12.646295 -20.001323 29.212166 -0.635997 2.324977 0.024011 0.011023 323504.000000 0 0 1
-18.533815 13.286995 -20.245723 30.494850 -0.621982 2.296827 0.019694 0.002874 430337.000000 0 0 1
-18.448015 14.637795 -20.789823 31.413549 -0.670741 2.294028 0.019820 0.001332 45324.900000 0 0 1
-19.748415 15.165995 -20.884323 32.498650 -0.654897 2.268711 0.007925 -0.001546 -95152.700000 0 0 1
-20.055315 16.492195 -21.658223 33.812524 -0.688212 2.265996 0.002926 -0.001628 -243370.000000 0 0 1
-20.155115 16.329795 -23.054623 34.704561 -0.680933 2.297368 0.013972 -0.003852 197392.000000 0 0 1
-20.332215 17.552895 -23.667423 35.800140 -0.712168 2.293078 0.013932 -0.000795 -309639.000000 0 0 1
-20.110115 17.387595 -25.199493 36.630038 -0.712920 2.329452 0.004574 -0.007698 -298293.000000 0 0 1
-18.811815 16.926595 -25.500873 35.926154 -0.732696 2.360030 -0.003788 -0.010782 89384.000000 0 0 1
-18.386315 16.769795 -26.854813 36.612342 -0.739449 2.394240 -0.010568 -0.015935 -150722.000000 0 0 1
-17.859415 18.059395 -27.472083 37.414113 -0.790966 2.395388 -0.012534 -0.015601 -1168300.000000 0 0 1
-18.846715 18.950695 -27.861873 38.608438 -0.788149 2.376983 -0.013370 -0.021293 101805.000000 0 0 1
-18.282815 20.201195 -28.261233 39.256170 -0.835206 2.374481 -0.025777 -0.011813 -162341.000000 0 0 1
-19.404315 21.212095 -28.617893 40.564322 -0.829877 2.353917 0.005394 -0.012403 296018.000000 0 0 1
-20.171015 21.786495 -27.572683 40.518811 -0.823882 2.319229 0.018210 -0.003519 868616.000000 0 0 1
-21.353415 21.002695 -27.303543 40.528570 -0.777118 2.309982 0.054545 -0.018731 366838.000000 0 0 1
-22.093215 21.608695 -26.073893 40.433820 -0.774312 2.271628 0.062144 -0.013105 130192.000000 0 0 1
-21.366815 21.283595 -24.933123 39.130459 -0.783447 2.261629 0.033971 -0.010702 152864.000000 0 0 1
-21.939115 22.006995 -23.886223 39.194187 -0.786943 2.226141 0.031342 -0.027243 72962.100000 0 0 1
-21.579915 21.324095 -22.542923 37.796735 -0.779436 2.209836 0.020355 -0.011201 30843.000000 0 0 1
-20.297115 21.692095 -22.081223 37.014866 -0.818608 2.209992 0.014919 -0.005863 431265.000000 0 0 1
-19.579615 20.683695 -21.294523 35.561683 -0.812813 2.212805 0.000062 -0.001242 248284.000000 0 0 1
-20.251015 20.235395 -19.976623 34.909029 -0.785012 2.180041 0.005660 -0.002568 -619740.000000 0 0 1
-21.254815 19.249395 -20.286823 35.126366 -0.735927 2.186506 0.020894 -0.002275 643694.000000 0 0 1
-22.085015 18.946095 -19.178423 34.849883 -0.709046 2.153538 0.026393 -0.001022 28059.500000 0 0 1
-23.208015 19.952595 -18.830423 35.934703 -0.710115 2.122358 0.023278 -0.009044 -416590.000000 0 0 1
-24.300215 19.864495 -19.750123 37.083231 -0.685298 2.132453 0.031283 -0.007070 303958.000000 0 0 1
-25.228145 20.897995 -19.547623 38.148330 -0.691796 2.108786 0.032654 -0.011691 -598840.000000 0 0 1
-26.650485 20.495595 -20.003623 39.121129 -0.655583 2.107523 0.024631 -0.015562 -59462.100000 0 0 1
-27.225425 19.295995 -19.467223 38.633302 -0.616574 2.098901 0.023064 -0.007087 398909.000000 0 0 1
-27.670495 19.344695 -18.129123 38.321517 -0.610128 2.063579 0.009121 -0.005470 -375604.000000 0 0 1
-28.523965 18.153095 -17.607523 38.120550 -0.566766 2.050922 -0.008592 -0.005251 -242166.000000 0 0 1
-27.770095 17.006395 -17.434623 36.937268 -0.549487 2.062361 -0.001897 -0.004183 -266493.000000 0 0 1
-28.534255 15.942695 -16.957623 36.823012 -0.509514 2.049374 -0.022471 0.000371 34635.500000 0 0 1
-27.679865 15.002295 -16.029523 35.329724 -0.496675 2.041723 -0.012310 -0.001848 -10826.300000 0 0 1
-27.348565 15.485995 -14.733723 34.710844 -0.515230 2.009173 -0.014388 0.002572 69754.900000 0 0 1
-28.449535 15.695795 -13.860723 35.324973 -0.504152 1.974011 -0.032133 0.006128 45338.100000 0 0 1
-28.132855 16.059995 -12.383623 34.680472 -0.518719 1.935934 -0.021924 -0.005577 -394850.000000 0 0 1
-27.529565 17.328995 -12.256423 34.761918 -0.561806 1.931125 -0.020861 0.000398 175410.000000 0 0 1
-28.302425 18.524695 -12.587323 36.091998 -0.579551 1.927040 -0.028521 -0.003268 -187541.000000 0 0 1
-27.419375 19.764895 -12.877423 36.170447 -0.624574 1.934802 -0.013484 0.000528 279966.000000 0 0 1
-26.839845 20.304895 -11.669823 35.620933 -0.647661 1.904571 -0.026545 -0.007204 440965.000000 0 0 1
-25.875235 21.321295 -11.987423 35.606513 -0.689207 1.914168 -0.026304 -0.006260 680823.000000 0 0 1
-25.067115 21.773295 -10.744923 34.898281 -0.715194 1.883774 -0.026613 0.000952 -91135.000000 0 0 1
-25.813645 22.616895 -9.896123 35.718363 -0.719487 1.851529 -0.006475 -0.002954 80099.700000 0 0 1
-25.752745 24.019595 -10.159123 36.651775 -0.750591 1.851654 0.005087 -0.003477 -350330.000000 0 0 1
-26.309565 24.923295 -9.060523 37.355815 -0.758347 1.815786 0.020378 0.004032 -310459.000000 0 0 1
-25.507125 25.070495 -7.923623 36.632321 -0.776766 1.788821 0.009020 0.005412 -221210.000000 0 0 1
-26.243625 25.600795 -6.870623 37.300590 -0.773000 1.756050 0.021930 0.000284 -95140.200000 0 0 1
-26.115055 24.781495 -5.578323 36.431255 -0.759203 1.724520 0.019383 -0.006780 -215498.000000 0 0 1
-26.636015 23.495895 -5.744923 35.979696 -0.722843 1.731154 0.019151 -0.003277 -196837.000000 0 0 1
-26.643215 22.812595 -4.531923 35.366845 -0.708097 1.699290 0.003397 -0.003420 1397.590000 0 0 1
-26.805875 21.301095 -4.732623 34.564278 -0.671466 1.708150 -0.009852 -0.001092 530749.000000 0 0 1
-25.836485 20.614095 -5.544323 33.514242 -0.673439 1.736992 -0.025682 -0.008600 282367.000000 0 0 1
-26.013305 20.871495 -6.966123 34.071076 -0.676166 1.776707 -0.023850 -0.009206 224939.000000 0 0 1
-27.059105 19.933395 -7.740423 34.488398 -0.634910 1.797160 -0.017081 -0.005759 562740.000000 0 0 1
-26.554125 18.595395 -7.839023 33.352070 -0.610916 1.808055 -0.035565 -0.001287 505456.000000 0 0 1
-26.705325 18.120395 -9.117423 33.535810 -0.596172 1.846133 -0.033223 -0.002237 -358107.000000 0 0 1
-26.254055 16.668195 -9.253523 32.445829 -0.565673 1.860011 -0.026236 0.004304 310465.000000 0 0 1
-27.082995 15.716995 -8.524023 32.452605 -0.525828 1.836575 -0.051237 0.004510 616412.000000 0 0 1
-26.691555 14.396895 -8.874623 31.598555 -0.494653 1.855482 -0.039921 -0.004034 68091.000000 0 0 1
-27.317105 13.244295 -8.057423 31.409516 -0.451442 1.830225 -0.042756 -0.008759 339952.000000 0 0 1
-28.705905 12.972495 -8.170723 32.543438 -0.424441 1.824583 -0.038870 -0.004206 223763.000000 0 0 1
-29.195715 12.010295 -7.226623 32.386125 -0.390271 1.795830 -0.027021 -0.005373 -51240.700000 0 0 1
-30.048175 10.914495 -7.863223 32.921867 -0.348415 1.811973 -0.023936 -0.006285 -869446.000000 0 0 1
-29.240905 10.045895 -8.546823 32.078010 -0.330923 1.840493 -0.010728 -0.006559 -260344.000000 0 0 1
-29.721645 8.721995 -8.573123 32.139506 -0.285442 1.840813 -0.022200 0.000437 -812360.000000 0 0 1
-28.775595 7.717195 -9.232923 31.190333 -0.262020 1.871318 -0.002404 0.002392 -452671.000000 0 0 1
-28.422505 7.919495 -10.596723 31.350403 -0.271742 1.915597 -0.005359 -0.001506 264672.000000 0 0 1
-27.331675 7.063095 -10.880023 30.253639 -0.252889 1.938664 0.017489 -0.008720 -297191.000000 0 0 1
-26.865825 7.297295 -12.304523 30.437220 -0.265221 1.986965 0.022869 -0.009050 -12209.000000 0 0 1
-26.104445 8.504495 -12.560623 30.191684 -0.314944 1.999871 0.024401 -0.020693 488349.000000 0 0 1
-25.344715 8.387695 -13.718323 30.015003 -0.319599 2.045471 0.026089 -0.010253 -486301.000000 0 0 1
-30.022515 26.607195 -34.122176 52.665142 -0.725161 2.275631 -0.016166 -0.005222 66292.900000 0 0 1
-30.723755 27.813695 -34.358600 53.833671 -0.735726 2.263001 -0.013389 -0.007997 358902.000000 0 0 1
-30.540595 28.189695 33.540445 53.407381 -0.745391 0.891801 -0.002007 -0.011144 -87036.100000 0 0 1
-30.983585 29.656795 33.343097 54.325594 -0.763522 0.909977 0.002605 -0.012285 -14232.200000 0 0 1
-30.977855 29.974495 31.965529 53.664634 -0.768938 0.932717 0.015694 -0.009866 238485.000000 0 0 1
-31.270015 31.364595 31.826649 54.538861 -0.786908 0.947692 0.017740 -0.013718 -107945.000000 0 0 1
-31.202535 31.891695 30.369729 53.972205 -0.796320 0.973158 0.033278 -0.016989 -550125.000000 0 0 1
-29.915635 31.821995 29.854029 52.904137 -0.816267 0.971206 0.025058 -0.014935 -471850.000000 0 0 1
-29.807685 32.698195 28.709779 52.743924 -0.831609 0.995213 0.028915 -0.004499 -420904.000000 0 0 1
-28.426985 32.618695 28.082479 51.581958 -0.853956 0.995094 0.022691 -0.005276 -830136.000000 0 0 1
-28.293385 31.462595 27.224929 50.315081 -0.838384 0.999065 0.032528 -0.012903 812188.000000 0 0 1
-27.028775 31.365495 26.546899 49.184213 -0.859528 1.000663 0.004757 0.004587 467674.000000 0 0 1
-26.944145 32.172095 25.277379 48.989556 -0.873604 1.028651 0.001627 0.002997 -449417.000000 0 0 1
-26.813835 33.578795 25.407639 49.920591 -0.896949 1.036819 -0.005709 0.000662 358279.000000 0 0 1
-27.863535 34.327195 24.799349 50.692610 -0.888959 1.059612 -0.000199 0.009498 -354.398000 0 0 1
-28.051825 -33.772801 25.444459 50.743743 0.877671 1.045545 0.007255 0.005549 -190069.000000 0 0 1
-28.561095 -33.926501 26.763619 51.798021 0.871052 1.027814 0.019458 -0.008389 263167.000000 0 0 1
-28.591745 -32.697401 27.465589 51.390335 0.852287 1.006939 0.021241 -0.006265 30904.100000 0 0 1
-29.219355 -32.875701 28.890389 52.623541 0.844213 0.989627 0.037091 -0.016771 1139060.000000 0 0 1
-30.627735 -33.144601 29.049339 53.670167 0.824844 0.998865 0.033704 -0.013956 880423.000000 0 0 1
-30.885025 -33.416701 30.435719 54.743892 0.824750 0.981272 0.027263 -0.013549 -560139.000000 0 0 1
-32.305555 -33.856001 30.704739 55.970159 0.808828 0.990118 0.041580 -0.014251 -605804.000000 0 0 1
-32.589375 -34.093701 32.103559 57.053364 0.807954 0.973156 0.032308 -0.019054 -1225910.000000 0 0 1
-33.909745 -34.439201 32.240149 58.097819 0.793144 0.982519 0.024301 -0.010912 -1411060.000000 0 0 1
-34.235603 34.563795 33.628819 59.140764 -0.790168 0.965965 0.014044 -0.012997 -248588.000000 0 0 1
-33.702255 33.322795 34.029319 58.345911 -0.779737 0.948092 0.006256 -0.010255 -62826.300000 0 0 1
-34.420098 32.753395 -34.143371 58.508955 -0.760591 2.193900 0.017896 -0.010821 90559.200000 0 0 1
-33.828205 31.431595 -33.672273 57.149931 -0.748691 2.200855 0.002838 -0.005105 -81782.300000 0 0 1
-32.785875 31.535795 -32.747263 56.051791 -0.765966 2.194730 0.008463 -0.009318 -496969.000000 0 0 1
-32.184525 30.288395 -32.435033 54.820269 -0.755056 2.203914 -0.004788 -0.008215 373794.000000 0 0 1
-31.504935 30.404795 -31.017823 53.657412 -0.767630 2.187160 -0.005135 -0.010855 680366.000000 0 0 1
-32.449565 30.549395 -29.926293 53.682612 -0.755245 2.162128 0.002474 -0.009660 408915.000000 0 0 1
-32.825145 31.944595 -29.807243 54.648139 -0.771804 2.147709 -0.004390 -0.003164 532272.000000 0 0 1
-33.879885 32.248995 -28.672173 54.862900 -0.760741 2.120712 -0.003080 0.004564 409261.000000 0 0 1
-33.471555 31.831695 -27.374313 53.693155 -0.760292 2.105782 -0.013309 -0.001605 598772.000000 0 0 1
-34.565663 31.783795 -26.419553 53.879379 -0.743495 2.083283 -0.009562 0.004968 361563.000000 0 0 1
-34.203050 31.219795 -25.042223 52.646341 -0.739830 2.066521 -0.012197 0.008200 44392.000000 0 0 1
-33.640225 32.324695 -24.271123 52.589334 -0.765458 2.050506 -0.001068 -0.002981 235481.000000 0 0 1
-33.275635 31.981295 -22.890123 51.517268 -0.765566 2.031211 -0.008969 -0.004884 6636.940000 0 0 1
-34.454127 31.700795 -21.910223 51.692216 -0.743803 2.008498 -0.006615 -0.005431 199474.000000 0 0 1
34.536737 32.889295 -21.625023 52.365385 0.760970 1.996503 0.002475 -0.014422 3594.760000 0 0 1
-34.523757 33.913195 -20.895523 52.712594 -0.776477 1.978394 0.004295 -0.018391 -194062.000000 0 0 1
-34.323915 33.744395 -19.392223 51.892906 -0.776885 1.953788 0.003212 -0.018777 -355500.000000 0 0 1
-33.312055 32.833295 -19.127423 50.532926 -0.778160 1.958987 0.014441 -0.022215 -534497.000000 0 0 1
-33.146705 32.540995 -17.763223 49.730801 -0.776177 1.936051 0.016448 -0.015122 -89705.200000 0 0 1
-31.889395 31.727895 -17.420023 48.239507 -0.782860 1.940260 0.010056 -0.005828 -133415.000000 0 0 1
-31.861195 31.411895 -16.063123 47.538057 -0.778297 1.915481 0.013655 -0.003833 -359114.000000 0 0 1
-30.720575 30.681395 -15.704123 46.170567 -0.784760 1.917854 0.006386 -0.000097 -408966.000000 0 0 1
-30.503525 30.583295 -14.161523 45.457142 -0.786704 1.887605 0.001995 0.001356 -475163.000000 0 0 1
-31.509535 29.862295 -13.513923 45.466841 -0.758564 1.872582 0.005935 0.000150 -39785.700000 0 0 1
-31.030675 29.322495 -12.304623 44.431017 -0.757103 1.851402 0.019392 -0.001107 76278.200000 0 0 1
-32.145755 28.544095 -11.546923 44.513441 -0.726122 1.833200 0.018376 -0.000534 134283.000000 0 0 1
-31.730295 28.000495 -10.298223 43.553333 -0.723036 1.809508 0.027188 0.006125 -512619.000000 0 0 1
-32.618685 27.070195 -9.866623 43.521539 -0.692708 1.799491 0.023523 0.009667 -668578.000000 0 0 1
-32.084985 26.284795 -8.579323 42.354947 -0.686354 1.774765 0.021487 0.008016 292253.000000 0 0 1
-31.758855 27.105095 -7.499123 42.421079 -0.706503 1.748508 0.029473 0.007590 718757.000000 0 0 1
-30.411825 27.606195 -7.464323 41.745626 -0.737078 1.750568 0.035954 0.003317 481488.000000 0 0 1
-29.928415 28.161995 -6.083223 41.542913 -0.754999 1.717757 0.036058 -0.000903 -354779.000000 0 0 1
-29.280515 27.172195 -5.389023 40.307795 -0.748069 1.704895 0.047295 -0.006326 -110483.000000 0 0 1
-29.255585 27.555195 -4.033323 40.391159 -0.755476 1.670820 0.034400 -0.005592 -65960.900000 0 0 1
-28.590575 26.601795 -3.015523 39.168481 -0.749380 1.647861 0.029240 -0.002805 -101514.000000 0 0 1
-29.276815 25.369795 -2.903423 38.848273 -0.714024 1.645604 0.032845 0.003721 177847.000000 0 0 1
-28.576685 24.552395 -2.004823 37.728853 -0.709797 1.623959 0.008473 0.002578 303494.000000 0 0 1
-29.423675 23.296795 -1.684423 37.567681 -0.669703 1.615648 0.008501 -0.000234 -499.983000 0 0 1
-29.589735 22.422295 -2.775323 37.229211 -0.648457 1.645412 0.008294 0.006828 54104.100000 0 0 1
-30.698355 21.571695 -2.520823 37.604276 -0.612535 1.637882 0.021074 0.010608 266305.000000 0 0 1
-31.014625 20.605395 -3.705823 37.419546 -0.586416 1.669993 0.007917 0.009580 -288512.000000 0 0 1
-30.089125 19.591795 -3.922923 36.119015 -0.577166 1.679622 -0.004880 0.008314 -345943.000000 0 0 1
-30.410905 18.887195 -5.104023 36.160757 -0.555766 1.712417 -0.002313 0.006523 -221160.000000 0 0 1
-29.280365 18.013995 -5.652023 34.839477 -0.551539 1.733747 -0.018517 0.004011 -463083.000000 0 0 1
-28.914315 17.007095 -4.775423 33.883382 -0.531690 1.712204 -0.012505 0.003544 741488.000000 0 0 1
-28.019165 16.075995 -5.488123 32.766305 -0.520894 1.739082 -0.026986 -0.001477 410257.000000 0 0 1
-27.702485 14.887795 -4.623023 31.787521 -0.493132 1.716749 -0.024510 0.004433 -30708.700000 0 0 1
-28.833215 14.129695 -4.208423 32.383845 -0.455655 1.701119 0.004073 -0.003570 331616.000000 0 0 1
-28.459955 12.890395 -3.594723 31.449219 -0.425289 1.685349 0.003874 -0.010938 -745064.000000 0 0 1
-29.584265 12.113595 -2.954923 32.104509 -0.388635 1.662968 0.020236 -0.023962 -888524.000000 0 0 1
-30.494625 11.585495 -3.892723 32.852689 -0.363076 1.689566 0.005070 -0.013996 -277161.000000 0 0 1
-31.405675 10.748395 -3.296523 33.357331 -0.329748 1.669782 0.007485 -0.013218 -993867.000000 0 0 1
-32.565485 10.355995 -4.208323 34.430618 -0.307892 1.693329 -0.000967 -0.006036 -423073.000000 0 0 1
-32.170255 9.474695 -5.224923 33.941052 -0.286419 1.725352 -0.003005 -0.005623 149607.000000 0 0 1
-33.280405 9.070595 -5.964923 35.006305 -0.266088 1.742028 0.001245 0.004383 -317531.000000 0 0 1
-32.854365 8.050895 -7.058923 34.555096 -0.240313 1.776525 -0.010619 -0.004207 -482569.000000 0 0 1
-32.478475 6.796195 -6.494223 33.811456 -0.206276 1.764069 -0.018498 0.000009 380413.000000 0 0 1
-32.002935 6.043095 -7.587823 33.440723 -0.186632 1.799694 -0.027680 0.009278 -510267.000000 0 0 1
-30.920295 5.009595 -7.248423 32.151211 -0.160621 1.798199 -0.019121 0.010639 352992.000000 0 0 1
-29.595945 5.485195 -7.002823 30.903833 -0.183257 1.799382 -0.011420 -0.002853 471268.000000 0 0 1
-28.762945 4.412995 -6.688923 29.858386 -0.152239 1.796735 -0.013900 -0.000347 62810.700000 0 0 1
-27.262405 4.801695 -6.562623 28.449306 -0.174341 1.803571 0.007085 -0.003674 531753.000000 0 0 1
-26.620085 5.004095 -7.834723 28.196681 -0.185813 1.852362 0.016870 0.003047 291514.000000 0 0 1
-25.228915 5.155195 -7.692023 26.874550 -0.201562 1.861075 0.032314 -0.001575 -177178.000000 0 0 1
-24.438815 5.821595 -8.853223 26.636933 -0.233853 1.909608 0.037983 -0.004266 1769.820000 0 0 1
-24.532815 5.039095 -9.999723 26.967498 -0.202585 1.950674 0.037637 -0.008853 227961.000000 0 0 1
-23.458015 5.249395 -10.860323 26.377666 -0.220151 1.995142 0.038257 -0.018449 -593278.000000 0 0 1
-23.691915 4.391695 -12.105223 26.965353 -0.183286 2.036350 0.043460 -0.021539 120125.000000 0 0 1
-24.685815 4.933195 -12.956223 28.312358 -0.197241 2.046110 0.049755 -0.013711 314446.000000 0 0 1
-24.913915 3.993695 -14.042123 28.876184 -0.158948 2.078632 0.047615 -0.010953 86612.300000 0 0 1
-25.958995 4.619795 -15.017023 30.343416 -0.176121 2.088519 0.025856 -0.005216 -141758.000000 0 0 1
-25.511735 5.723595 -15.743523 30.519939 -0.220697 2.112789 0.025524 -0.001359 779753.000000 0 0 1
-26.543995 6.334595 -16.550923 31.916200 -0.234264 2.115979 0.060799 0.001939 597666.000000 0 0 1
-27.208805 5.525995 -17.753323 32.955063 -0.200371 2.139705 -0.002489 0.018104 778287.000000 0 0 1
-28.425805 4.921195 -17.284023 33.630076 -0.171425 2.110574 -0.001155 0.006529 902123.000000 0 0 1
-29.192095 4.342995 -18.391923 34.775032 -0.147690 2.128080 0.001053 0.018056 834861.000000 0 0 1
-30.516735 3.683995 -17.891223 35.565978 -0.120139 2.097913 -0.009348 0.012962 -184510.000000 0 0 1
-30.391795 2.557595 -17.052023 34.942438 -0.083956 2.080597 -0.004331 0.006473 197128.000000 0 0 1
-30.053125 1.305295 -17.683623 34.894192 -0.043406 2.102240 0.007181 0.004295 -429369.000000 0 0 1
-29.773895 0.205795 -16.670023 34.123553 -0.006912 2.081189 0.008553 0.006527 -504826.000000 0 0 1
-29.399835 -1.048605 -17.201423 34.078422 0.035652 2.099900 0.019202 0.011755 378827.000000 0 0 1
-29.662195 -2.108305 -16.311523 33.916907 0.070958 2.072507 0.011329 -0.002495 -249987.000000 0 0 1
-29.274955 -3.434005 -16.950023 34.001745 0.116768 2.092669 0.021577 -0.002611 -309802.000000 0 0 1
-30.211035 -3.862505 -17.911723 35.333489 0.127161 2.102420 0.024614 -0.003833 44232.400000 0 0 1
-29.809815 -4.962805 -18.693223 35.534365 0.164969 2.124758 0.028773 -0.002664 196544.000000 0 0 1
-30.772025 -5.133705 -19.910823 37.009638 0.165308 2.138847 0.042181 -0.002151 186486.000000 0 0 1
-30.622065 -6.336405 -20.632623 37.464197 0.204043 2.154034 0.045674 0.001175 216179.000000 0 0 1
-31.698265 -6.443905 -21.558423 38.872478 0.200556 2.158671 0.043741 0.001945 21622.600000 0 0 1
-31.557645 -7.599005 -22.483523 39.485930 0.236299 2.176579 0.048351 0.005269 -621339.000000 0 0 1
-30.384115 -7.498705 -23.211623 38.964143 0.241962 2.208955 0.046849 -0.004745 -577184.000000 0 0 1
-30.255475 -8.512005 -24.213323 39.675345 0.274249 2.227218 0.048610 0.007550 -268645.000000 0 0 1
-29.038325 -8.237305 -25.097373 39.255008 0.276409 2.264438 0.042470 0.005740 -510844.000000 0 0 1
-29.019075 -6.935905 -25.680483 39.366238 0.234610 2.281474 0.055430 -0.005040 -7838.960000 0 0 1
-28.912625 -7.106005 -27.080813 40.246809 0.240998 2.308876 0.053247 -0.000663 -625493.000000 0 0 1
-30.201845 -7.218505 -27.878853 41.731148 0.234607 2.302393 0.051067 -0.001267 -713781.000000 0 0 1
-30.875555 -8.411605 -27.590983 42.253016 0.265981 2.282328 0.034259 0.004436 -19152.000000 0 0 1
-32.151205 -8.508705 -28.221653 43.618342 0.258715 2.274457 0.023889 0.009382 451277.000000 0 0 1
-32.818075 -9.814105 -27.749743 44.083908 0.290581 2.251674 0.008195 0.003581 -511900.000000 0 0 1
-32.454905 -11.037605 -28.381233 44.504427 0.327820 2.262327 0.008683 0.013861 -241878.000000 0 0 1
-33.159255 -12.240405 -28.141623 45.180910 0.353623 2.243196 -0.010791 0.013029 -91173.400000 0 0 1
-34.485847 -12.440805 -28.909743 46.688548 0.346220 2.238525 -0.023856 0.011801 483658.000000 0 0 1
34.212275 -11.522505 -28.558893 46.031058 -0.324862 2.240083 -0.021902 0.001547 56846.000000 0 0 1
33.486868 -11.037205 -29.652353 46.070080 -0.318385 2.270036 -0.032384 -0.003779 -447177.000000 0 0 1
32.548218 -9.973205 -29.117153 44.795758 -0.297330 2.278378 -0.029846 -0.003501 -215762.000000 0 0 1
31.535968 -10.423205 -28.221833 43.584772 -0.319215 2.275116 -0.037146 -0.003458 212218.000000 0 0 1
30.849978 -9.303805 -27.675643 42.476148 -0.292908 2.280432 -0.035623 -0.002704 823531.000000 0 0 1
29.642568 -9.670805 -26.718233 41.061786 -0.315360 2.279281 -0.034844 -0.000903 271303.000000 0 0 1
30.040258 -10.144405 -25.457083 40.661888 -0.325670 2.247296 -0.040195 0.000728 253195.000000 0 0 1
28.931718 -10.387105 -24.602923 39.373088 -0.344689 2.245757 -0.028967 0.006512 -141549.000000 0 0 1
29.369948 -10.494805 -23.107323 38.816017 -0.343191 2.208440 -0.030999 0.005332 67911.500000 0 0 1
30.186358 -11.605905 -22.796723 39.567712 -0.367052 2.184800 -0.038608 0.009124 209905.000000 0 0 1
30.595748 -11.579205 -21.457623 39.122978 -0.361799 2.151325 -0.019730 0.007764 3345.160000 0 0 1
31.600248 -12.668405 -21.012123 40.007168 -0.381278 2.123757 -0.010799 0.008895 307610.000000 0 0 1
32.897608 -12.541105 -21.577223 41.292959 -0.364209 2.120624 -0.009513 0.012660 405313.000000 0 0 1
33.815795 -13.378905 -20.896123 41.942235 -0.376743 2.092332 0.005541 0.013970 -330344.000000 0 0 1
-34.570566 -13.533505 -21.596723 42.949950 0.373136 2.097671 0.006254 0.007173 -446846.000000 0 0 1
-33.698575 -12.407305 -21.565123 41.887823 0.352782 2.111606 0.015845 0.011030 260410.000000 0 0 1
-33.903295 -11.300505 -22.411523 42.183068 0.321735 2.130921 0.013614 0.012670 -931048.000000 0 0 1
-33.649755 -11.422905 -23.983423 42.871825 0.327259 2.164484 0.009113 0.010051 20111.600000 0 0 1
-34.520824 -12.235705 -24.704423 44.178143 0.340628 2.164217 0.001620 0.010527 295986.000000 0 0 1
33.826080 -11.902705 -24.684923 43.534165 -0.338348 2.173685 0.009386 0.012253 149138.000000 0 0 1
33.073278 -12.786105 -25.733293 43.812425 -0.368901 2.198579 -0.013873 0.006470 -377561.000000 0 0 1
32.980178 -14.203005 -25.498303 44.040674 -0.406649 2.188263 -0.003334 -0.001829 535119.000000 0 0 1
32.368748 -14.652105 -24.266823 43.026721 -0.425065 2.170011 -0.007963 -0.006044 -406378.000000 0 0 1
-28.258225 8.284595 -20.319523 35.777714 -0.285183 2.174795 -0.018706 0.003772 -359191.000000 0 0 1
-27.101045 7.551895 -20.556223 34.843308 -0.271763 2.201808 -0.011600 0.009885 -762653.000000 0 0 1
-26.159595 8.264095 -21.291823 34.726955 -0.305989 2.230801 -0.003955 0.003595 -190660.000000 0 0 1
-24.836915 7.470995 -21.447423 33.655313 -0.292192 2.261743 0.003107 0.008388 -80856.300000 0 0 1
-24.140815 7.384395 -20.217823 32.342984 -0.296850 2.246065 0.013670 0.006000 107836.000000 0 0 1
-23.052615 6.464295 -20.298323 31.388407 -0.273393 2.274023 0.010021 0.002567 85297.800000 0 0 1
-21.695115 7.111695 -20.025123 30.368730 -0.316764 2.290816 0.019059 0.001372 -481374.000000 0 0 1
-21.286515 8.073195 -20.955223 30.942101 -0.362503 2.314801 0.019513 0.004003 -73266.600000 0 0 1
-20.168015 8.821695 -20.531223 30.101533 -0.412335 2.321380 0.017884 0.007322 -88308.700000 0 0 1
-19.594115 9.833695 -21.530523 30.727745 -0.465142 2.347156 0.003081 0.007479 -243928.000000 0 0 1
-18.925215 9.170195 -22.562623 30.843609 -0.451211 2.391340 0.012426 0.006454 48657.200000 0 0 1
-18.260915 10.041195 -23.484623 31.397677 -0.502746 2.415800 0.013939 0.003380 162886.000000 0 0 1
-17.491415 9.203295 -24.522523 31.496101 -0.484356 2.463211 0.017075 0.002810 -55506.600000 0 0 1
-18.341115 8.549395 -25.426793 32.496315 -0.436189 2.469389 0.015877 0.003052 -276761.000000 0 0 1
-17.535615 7.655095 -26.196563 32.440071 -0.411609 2.510761 0.007168 0.006757 -283803.000000 0 0 1
-18.299015 6.625295 -27.051893 33.324967 -0.347376 2.517957 -0.005595 0.011671 -222461.000000 0 0 1
-18.780015 5.558495 -26.293013 32.785795 -0.287764 2.501371 0.001797 0.012490 43784.300000 0 0 1
-19.206015 4.450795 -27.051133 33.473040 -0.227720 2.511795 -0.001159 0.016639 -611215.000000 0 0 1
-19.501015 3.231195 -26.166103 32.793218 -0.164202 2.494620 -0.006521 0.015705 -322639.000000 0 0 1
-18.422415 2.384995 -25.844653 31.827970 -0.128746 2.518385 -0.005707 0.021394 -283911.000000 0 0 1
-17.439615 2.883095 -25.005223 30.622110 -0.163837 2.526247 -0.010263 0.017529 -607300.000000 0 0 1
-16.516415 1.739095 -24.454123 29.560456 -0.104908 2.545006 -0.012571 0.016043 -54251.200000 0 0 1
-16.991415 0.857995 -23.437123 28.961062 -0.050453 2.513693 -0.014866 0.019290 234467.000000 0 0 1
-18.283615 0.289395 -23.597623 29.853344 -0.015827 2.482342 -0.016057 0.023230 156741.000000 0 0 1
-18.677315 -0.491705 -22.316023 29.104789 0.026320 2.444555 0.005869 0.017971 408191.000000 0 0 1
-17.799615 -1.601705 -22.062223 28.392489 0.089744 2.460753 0.000640 0.017083 668452.000000 0 0 1
-18.288315 -2.102205 -20.824023 27.794274 0.114446 2.417680 0.017334 0.003765 -98881.100000 0 0 1
-17.885515 -3.497805 -20.388723 27.346413 0.193129 2.412189 0.002039 -0.006852 -316956.000000 0 0 1
-18.360515 -4.510305 -21.205123 28.409657 0.240883 2.413441 -0.001365 -0.008864 189230.000000 0 0 1
-18.240315 -5.807805 -20.618623 28.134806 0.308255 2.393299 0.005277 -0.001641 -170257.000000 0 0 1
-18.244315 -6.871205 -21.713523 29.181254 0.360192 2.409970 -0.012087 0.002618 -332770.000000 0 0 1
-17.050715 -6.845705 -22.439423 29.002039 0.381791 2.455487 -0.004702 -0.000412 -280379.000000 0 0 1
-17.123415 -7.803605 -23.509223 30.112973 0.427606 2.466583 -0.012921 0.002914 230736.000000 0 0 1
-15.764815 -7.876005 -24.251523 29.978279 0.463323 2.513194 -0.005211 0.003642 -551635.000000 0 0 1
-15.790315 -8.672505 -25.404693 31.143937 0.502251 2.524767 -0.009870 -0.003639 57764.800000 0 0 1
-14.596115 -8.655005 -26.186133 31.203674 0.535232 2.566607 -0.005190 -0.003363 224772.000000 0 0 1
-13.425315 -9.447805 -25.553373 30.372273 0.613225 2.570552 0.001753 -0.003873 -727961.000000 0 0 1
-12.718715 -8.784305 -24.532123 28.995772 0.604430 2.579344 -0.007388 -0.001048 -117951.000000 0 0 1
-11.912915 -9.780305 -23.915123 28.451802 0.687405 2.569091 -0.010021 -0.001162 232906.000000 0 0 1
-10.992615 -9.165805 -22.795623 26.916352 0.695022 2.580936 -0.016700 -0.000471 -53766.000000 0 0 1
-11.622715 -8.891305 -21.540823 26.041311 0.653028 2.544865 -0.020304 0.000202 172398.000000 0 0 1
-10.850115 -8.025205 -20.734723 24.739799 0.636839 2.564609 -0.019212 0.003265 -893021.000000 0 1 0
-11.356115 -7.781105 -19.308023 23.713007 0.600718 2.522211 -0.015226 -0.000258 102191.000000 0 1 0
-12.464315 -6.917405 -19.134523 23.860839 0.506656 2.501301 -0.007827 0.001033 -268410.000000 0 1 0
-13.729315 -7.421105 -19.395923 24.895155 0.495543 2.464032 0.007664 -0.008533 -812454.000000 0 1 0
-14.865015 -6.411205 -19.107223 25.043127 0.407190 2.438696 0.001746 0.000244 -165317.000000 0 0 1
-14.856915 -6.086305 -17.708723 23.903345 0.388807 2.405127 0.003555 -0.005346 312198.000000 0 1 0
-14.724615 -4.676905 -17.582923 23.406130 0.307547 2.420690 0.006886 -0.001528 -388556.000000 0 1 0
-14.685515 -3.988305 -16.196923 22.224114 0.265185 2.387363 0.006671 -0.004556 342801.000000 0 1 0
-15.941815 -3.848205 -15.546223 22.597239 0.236859 2.329485 0.011046 -0.008765 224250.000000 0 1 0
-16.462315 -2.536105 -15.723223 22.905445 0.152853 2.327379 -0.010809 -0.008446 -1530810.000000 0 1 0
-17.649315 -2.217005 -14.943223 23.231732 0.124960 2.269499 -0.008885 -0.007695 -1765070.000000 0 1 0
-17.482315 -2.362105 -13.534223 22.234794 0.134301 2.225212 0.008326 -0.010295 168563.000000 0 1 0
-18.551015 -1.910905 -12.768223 22.601311 0.102646 2.171148 0.009477 -0.014120 -592461.000000 0 1 0
-18.161715 -0.629605 -11.959123 21.754653 0.034653 2.152834 0.011102 -0.009695 -121423.000000 0 1 0
-17.734315 0.401095 -12.822423 21.887927 -0.022613 2.196690 0.010931 -0.012252 85024.600000 0 1 0
-16.576315 1.050295 -12.381123 20.716408 -0.063277 2.211361 0.002848 -0.005701 -1109740.000000 0 1 0
-16.069815 2.148195 -13.403123 21.035622 -0.132891 2.261608 0.002922 -0.002478 151823.000000 0 1 0
-15.510815 1.555095 -14.614923 21.368193 -0.099925 2.323969 0.015766 -0.008637 206366.000000 0 1 0
-14.206715 1.138295 -14.270923 20.168930 -0.079953 2.356849 0.007692 -0.006350 -1086660.000000 0 1 0
-13.548315 0.201795 -15.331523 20.461016 -0.014893 2.417807 -0.002757 -0.005003 -118066.000000 0 1 0
-13.078215 0.792795 -16.521623 21.086305 -0.060545 2.471113 -0.010765 -0.003118 59057.700000 0 1 0
-12.545515 -0.189705 -17.384323 21.439231 0.015120 2.516425 -0.026134 0.004470 -218154.000000 0 1 0
-11.935615 0.420995 -18.651423 22.147499 -0.035258 2.572046 -0.024624 0.006323 -1167210.000000 0 1 0
-10.885815 1.255295 -18.366023 21.386621 -0.114808 2.603645 -0.023253 0.002830 -939627.000000 0 1 0
-10.549415 1.983595 -19.547323 22.300732 -0.185859 2.639407 -0.022534 0.012054 -141043.000000 0 1 0
-9.201315 2.716195 -19.507823 21.739298 -0.287044 2.684531 -0.024395 0.014811 -939506.000000 0 1 0
-8.123915 1.843695 -19.769923 21.453370 -0.223167 2.742799 -0.030964 0.022594 410775.000000 0 1 0
-6.843615 2.416995 -19.453123 20.762970 -0.339501 2.784492 -0.024315 0.021528 867119.000000 0 1 0
-6.388315 3.512795 -20.471023 21.730464 -0.502750 2.799464 -0.020328 0.027261 -1231490.000000 0 1 0
-6.120515 2.939895 -21.734923 22.770827 -0.447792 2.838800 -0.026214 0.028966 271963.000000 0 1 0
-5.627715 3.933095 -22.600823 23.620703 -0.609974 2.846663 -0.019874 0.013311 -655597.000000 0 1 0
-5.168415 3.426295 -23.997623 24.785841 -0.585411 2.888725 -0.008829 0.005345 -363375.000000 0 1 0
-4.013215 2.636795 -23.882023 24.360000 -0.581300 2.943169 0.001944 -0.004352 -311288.000000 0 1 0
-3.681815 2.111895 -25.174793 25.530101 -0.520783 2.974562 0.014891 -0.006145 -1079350.000000 0 0 1
-2.310115 1.516595 -25.091493 25.243211 -0.580932 3.031900 0.009747 -0.008721 -1288800.000000 0 0 1
-1.222415 2.429295 -24.920023 25.067974 -1.104594 3.032893 0.016672 -0.010660 156704.000000 0 0 1
0.051085 1.866695 -24.826123 24.896256 1.543437 3.066515 0.019844 -0.010438 -323556.000000 0 1 0
0.384585 0.847495 -23.710023 23.728282 1.144795 3.102360 0.014905 -0.020857 -1359860.000000 0 1 0
-0.134915 -0.441205 -23.710723 23.715211 1.274038 3.122137 0.011623 -0.023140 -352949.000000 0 1 0
0.429985 -1.245805 -22.702823 22.741044 -1.238452 3.083607 0.015468 -0.016372 -765983.000000 0 1 0
-0.087215 -2.707305 -22.601823 22.763557 1.538593 3.022317 0.024456 -0.022205 257881.000000 0 1 0
-1.340215 -2.962805 -21.954523 22.194041 1.145993 2.994545 0.014091 -0.019451 984918.000000 0 1 0
-2.495815 -2.876105 -22.809723 23.125409 0.856072 2.976171 0.022184 -0.017161 123696.000000 0 1 0
-3.090015 -1.475505 -23.042823 23.295858 0.445492 2.994070 0.019608 -0.007428 -1631850.000000 0 1 0
-3.528615 -1.050505 -21.743323 22.052818 0.289355 2.973859 0.000627 0.000407 297932.000000 0 1 0
-4.423015 0.058695 -21.652623 22.099832 -0.013270 2.940076 -0.012853 0.006358 1049140.000000 0 1 0
-5.848215 -0.199705 -22.260423 23.016688 0.034135 2.884537 -0.012585 0.007924 -222737.000000 0 1 0
-6.534915 -1.208105 -21.581423 22.581463 0.182805 2.842873 -0.007232 0.010943 -971328.000000 0 1 0
-7.822415 -1.227705 -22.081123 23.457908 0.155677 2.797282 -0.026469 0.028757 -145669.000000 0 1 0
-8.680215 -2.569205 -21.855523 23.656095 0.287768 2.748909 -0.030531 0.023282 644792.000000 0 1 0
-8.190115 -3.666605 -22.612923 24.328302 0.420928 2.763825 -0.029690 0.018171 29290.200000 0 1 0
-8.871615 -4.863805 -22.254223 24.446116 0.501494 2.714896 -0.032627 0.029228 -463590.000000 0 1 0
-9.811115 -5.494805 -23.295023 25.867141 0.510533 2.691862 -0.027237 0.022361 -588804.000000 0 0 1
-10.992615 -4.794505 -23.455823 26.343889 0.411283 2.668955 -0.030147 0.025371 -362445.000000 0 0 1
-11.879015 -5.523305 -24.308223 27.613540 0.435227 2.647292 -0.031410 0.012481 -164982.000000 0 0 1
-13.361115 -5.196205 -24.414823 28.312604 0.370905 2.610651 -0.032485 0.001959 -527810.000000 0 0 1
-13.755815 -3.999605 -25.017523 28.828731 0.282956 2.621551 -0.031825 0.007677 -397137.000000 0 0 1
-15.020115 -3.641905 -24.521323 28.985559 0.237878 2.579204 -0.021478 0.006646 -130708.000000 0 0 1
-15.344515 -2.240405 -25.044023 29.456352 0.144982 2.587176 -0.022116 0.009559 -204979.000000 0 0 1
-15.651915 -2.266205 -26.446853 30.814837 0.143788 2.602648 -0.030289 0.009909 137022.000000 0 0 1
-15.877015 -0.943505 -26.896513 31.247276 0.059356 2.607564 -0.031774 0.009366 -175218.000000 0 0 1
-17.273115 -0.791405 -27.526233 32.506620 0.045785 2.580715 -0.034318 0.014453 -547221.000000 0 0 1
-17.434315 -1.511105 -28.774793 33.678294 0.086458 2.595195 -0.026769 0.001590 44572.900000 0 0 1
-16.792115 -0.954005 -29.914183 34.318269 0.056752 2.629395 -0.015288 -0.015970 -199763.000000 0 0 1
-17.021815 -1.862305 -31.181453 35.573774 0.108974 2.639400 -0.004122 -0.023604 -264538.000000 0 0 1
-18.343115 -2.197705 -31.494963 36.513456 0.119242 2.611100 -0.014636 -0.021349 -565219.000000 0 0 1
-18.471615 -3.014905 -32.614113 37.602800 0.161792 2.620613 -0.007864 -0.024574 -385575.000000 0 0 1
-19.919615 -3.492605 -32.821403 38.551704 0.173571 2.589370 -0.008000 -0.025928 213845.000000 0 0 1
-20.995315 -2.603305 -33.027853 39.222692 0.123365 2.571887 -0.010769 -0.030216 312535.000000 0 0 1
-21.455315 -1.919305 -31.869853 38.466892 0.089218 2.547222 -0.013756 -0.018615 -184477.000000 0 0 1
-22.646215 -1.001105 -32.258163 39.426417 0.044178 2.529046 -0.002057 -0.014636 207105.000000 0 0 1
-22.186715 0.036895 -33.073563 39.826025 -0.001663 2.550713 -0.000684 -0.010872 448818.000000 0 0 1
-23.292915 0.851495 -33.407883 40.735385 -0.036540 2.532416 0.005777 -0.010243 -85055.200000 0 0 1
-22.885115 2.207095 -34.015603 41.056802 -0.096145 2.547222 -0.000620 -0.009843 -651913.000000 0 0 1
-22.175515 3.038495 -33.186413 40.029039 -0.136172 2.548218 -0.000054 -0.008980 -51997.700000 0 0 1
-22.882315 3.786595 -32.197443 39.681406 -0.163995 2.517338 -0.000793 -0.010016 -401695.000000 0 0 1
-23.732315 5.017595 -32.654523 40.678212 -0.208356 2.502693 -0.007431 -0.015158 -583352.000000 0 0 1
-24.941415 4.531895 -33.133433 41.718541 -0.179741 2.488509 -0.005344 -0.018903 -819624.000000 0 0 1
-25.426565 5.243195 -34.236966 42.967094 -0.203359 2.492807 -0.003983 -0.019778 -508874.000000 0 0 1
-26.834215 4.791995 34.608597 44.054436 -0.176715 0.667152 -0.002374 -0.010869 -361971.000000 0 0 1
-26.909135 3.408395 34.283146 43.715590 -0.125992 0.669340 -0.002503 -0.012863 -434217.000000 0 0 1
-28.181595 2.976595 33.916767 44.197393 -0.105232 0.696031 0.004824 -0.010314 -522534.000000 0 0 1
-28.261495 1.439595 33.620572 43.944595 -0.050894 0.699651 0.010903 0.013704 -144927.000000 0 0 1
-28.480005 0.633095 -34.503714 44.743913 -0.022226 2.451422 0.011384 0.009660 213082.000000 0 0 1
-28.338605 -0.717905 34.353422 44.539304 0.025328 0.689906 0.008861 0.013833 -670591.000000 0 0 1
-28.099645 -1.651005 -33.717143 43.922222 0.058688 2.445971 -0.017055 0.007667 235361.000000 0 0 1
-26.839155 -1.603005 -33.057153 42.610858 0.059655 2.458765 -0.007493 -0.003369 514679.000000 0 0 1
-26.582915 -0.420305 -32.347963 41.871455 0.015810 2.453650 0.003263 -0.004795 -819036.000000 0 0 1
-26.571245 -0.613105 -30.818163 40.696021 0.023070 2.429930 0.009015 -0.008251 730233.000000 0 0 1
-25.462865 -1.361105 -30.213403 39.535552 0.053404 2.440610 0.011971 -0.012115 1254830.000000 0 0 1
-25.227915 -1.118605 -28.870663 38.356410 0.044311 2.422942 0.015553 -0.012424 -505765.000000 0 0 1
-24.058115 -1.879705 -28.269443 37.168368 0.077973 2.434999 0.012736 -0.006319 -429231.000000 0 0 1
-24.308715 -3.256105 -27.951893 37.186344 0.133155 2.421388 0.008051 -0.010466 364193.000000 0 0 1
-23.297515 -3.715005 -27.059983 35.900114 0.158128 2.424558 0.005248 -0.002556 -152224.000000 0 0 1
-23.741215 -4.984205 -26.325733 35.798489 0.206934 2.397033 0.010760 -0.010960 333860.000000 0 0 1
-24.824615 -4.778905 -25.431603 35.858972 0.190180 2.359176 0.032047 -0.009571 159822.000000 0 0 1
-25.239445 -5.999405 -24.819223 35.902873 0.233369 2.334066 0.021986 -0.009672 352259.000000 0 0 1
-26.152275 -5.710405 -23.594823 35.682852 0.214978 2.293263 0.034246 -0.005733 280349.000000 0 0 1
-26.392285 -6.811905 -22.734123 35.493593 0.252590 2.265963 0.027752 -0.010080 475532.000000 0 0 1
-27.385195 -6.547505 -21.714523 35.557548 0.234684 2.227724 0.034257 -0.000879 624864.000000 0 0 1
-27.758705 -7.796205 -20.918123 35.621544 0.273802 2.198432 0.023421 -0.000767 395945.000000 0 0 1
-26.748765 -8.013405 -19.906223 34.292402 0.291072 2.190120 0.003190 -0.006698 709851.000000 0 0 1
-27.138245 -8.932505 -18.923523 34.269137 0.317979 2.155801 0.011499 0.000335 -183805.000000 0 0 1
-27.925615 -8.345205 -17.765023 34.133246 0.290389 2.118187 0.025465 -0.010532 -18421.500000 0 0 1
-27.111235 -7.616405 -16.832323 32.807862 0.273872 2.109540 0.010263 -0.020474 222629.000000 0 0 1
-27.897775 -6.861905 -15.934323 32.852310 0.241178 2.077193 0.008923 -0.016741 -463576.000000 0 0 1
-27.148895 -5.971905 -14.963723 31.569592 0.216520 2.064615 0.005221 -0.021144 -313540.000000 0 0 1
-26.686835 -4.874105 -15.739723 31.363720 0.180650 2.096527 0.012313 -0.017411 197173.000000 0 0 1
-26.040595 -3.909305 -14.870323 30.241061 0.149011 2.084867 0.015177 -0.022903 -83957.100000 0 0 1
-13.839315 21.689195 -5.037623 26.216893 -1.002851 1.764151 0.024821 0.000250 -50976.900000 0 0 1
-13.858615 21.167395 -6.361923 26.088195 -0.991114 1.817143 0.046747 -0.004939 -391360.000000 0 0 1
-14.650515 20.052195 -6.427623 25.652339 -0.939815 1.824062 0.043188 -0.009485 -627113.000000 0 0 1
-14.973515 19.417795 -7.796423 25.730160 -0.913913 1.878643 0.044109 -0.011429 -997384.000000 0 0 1
-13.903915 18.908195 -8.506423 24.963933 -0.936745 1.918509 0.050225 -0.008039 -646449.000000 0 1 0
-14.196915 17.876395 -9.404323 24.689253 -0.899620 1.961574 0.036874 -0.001798 -432977.000000 0 1 0
-14.543515 16.510995 -8.811423 23.701645 -0.848669 1.951705 0.033480 -0.000582 927483.000000 0 1 0
-15.811315 16.589295 -8.111023 24.310309 -0.809405 1.910964 0.033494 0.007294 1024300.000000 0 1 0
-16.046215 15.511795 -7.218323 23.456364 -0.768465 1.883607 0.040540 0.001808 184535.000000 0 1 0
-17.483815 15.435095 -6.630123 24.246330 -0.723243 1.847773 0.053041 -0.013434 101001.000000 0 1 0
-18.411615 14.930895 -7.533423 24.873111 -0.681382 1.878503 0.044784 -0.009878 -647487.000000 0 1 0
-19.703715 15.446895 -7.350023 26.093405 -0.664883 1.856342 0.018119 -0.001055 -551506.000000 0 0 1
-20.615115 14.996095 -8.463223 26.860603 -0.628900 1.891337 0.012958 0.013305 -630995.000000 0 0 1
-21.066715 13.663895 -8.218423 26.420655 -0.575391 1.887105 0.031377 0.005570 186758.000000 0 0 1
-21.699315 13.071695 -9.339723 26.999258 -0.542183 1.924021 0.026493 0.003936 251500.000000 0 0 1
-22.449115 11.751995 -9.045323 26.905205 -0.482266 1.913667 0.027612 0.003025 -329304.000000 0 0 1
-21.530115 10.746995 -8.773823 25.612960 -0.462976 1.920430 0.034554 -0.000023 -64847.700000 0 0 1
-22.119015 9.650695 -8.097823 25.455088 -0.411409 1.894544 0.037275 -0.010516 207331.000000 0 0 1
-21.037315 8.645395 -7.536423 23.960575 -0.389915 1.890762 0.038424 0.004571 362023.000000 0 1 0
-20.728915 7.519995 -8.407923 23.599395 -0.348013 1.935077 0.022563 -0.000897 910583.000000 0 1 0
-19.772015 6.631195 -7.786923 22.260762 -0.323594 1.928159 0.028338 0.002938 285403.000000 0 1 0
-19.418015 5.422795 -8.686623 21.952755 -0.272328 1.977622 0.006323 -0.004477 1166.200000 0 1 0
-20.362815 4.372895 -8.568923 22.520944 -0.211536 1.961119 0.013985 -0.001663 790887.000000 0 1 0
-19.950815 3.420695 -9.549023 22.381243 -0.169805 2.011585 -0.010033 0.000478 -552480.000000 0 1 0
-20.822415 2.201995 -9.570723 23.022174 -0.105360 1.999528 -0.018018 0.008649 -329026.000000 0 1 0
-20.466815 1.340395 -8.510723 22.206296 -0.065398 1.964117 -0.013521 0.003679 841365.000000 0 1 0
-21.463215 0.356595 -8.161723 22.965419 -0.016613 1.934130 -0.008084 0.008001 311676.000000 0 1 0
-21.538115 -0.931905 -9.024123 23.370786 0.043241 1.967227 -0.004919 -0.001177 60140.800000 0 1 0
-20.425115 -1.757005 -8.758423 22.293101 0.085811 1.974553 -0.005598 0.003520 -5018.900000 0 1 0
-20.476415 -3.090205 -9.310623 22.705080 0.149785 1.993325 -0.010866 -0.000487 -714622.000000 0 1 0
-21.298415 -4.109205 -8.503323 23.298381 0.190593 1.944402 -0.017682 0.002300 -212792.000000 0 1 0
-20.889915 -4.351605 -7.198123 22.519725 0.205374 1.896142 -0.030967 0.007950 -425692.000000 0 1 0
-21.889315 -4.952205 -6.452023 23.351554 0.222493 1.850738 -0.026622 0.004468 -1121080.000000 0 1 0
-22.026715 -6.460805 -6.534323 23.866620 0.285314 1.848123 -0.018147 -0.003558 -70062.600000 0 1 0
-20.899315 -7.234105 -6.131923 22.950253 0.333233 1.841265 -0.022436 -0.006795 492673.000000 0 1 0
-21.156315 -8.583405 -6.179323 23.652665 0.385422 1.835116 -0.013948 -0.010494 -489140.000000 0 1 0
-20.074415 -9.470705 -5.564923 22.883286 0.440818 1.816447 -0.012352 -0.012065 -415502.000000 0 1 0
-18.991215 -9.760305 -6.402123 22.291635 0.474736 1.862097 -0.000468 0.000300 585694.000000 0 1 0
-17.956915 -10.433405 -5.633423 21.518415 0.526350 1.835678 0.002924 -0.002053 413958.000000 0 1 0
-17.279815 -11.669605 -6.253023 21.768601 0.593977 1.862151 0.002789 -0.000760 -102029.000000 0 1 0
-16.229115 -11.442205 -7.180623 21.115624 0.614102 1.917779 0.002861 -0.003481 325049.000000 0 1 0
-16.724215 -10.979005 -8.374323 21.687951 0.580913 1.967227 0.012221 -0.004682 -157383.000000 0 1 0
-15.786215 -11.440705 -9.548723 21.708810 0.627130 2.026233 0.027322 0.000559 511439.000000 0 1 0
-15.779915 -12.785805 -9.988423 22.632965 0.680965 2.027868 0.024650 -0.002526 -1106140.000000 0 1 0
-14.705115 -13.021205 -10.766223 22.398744 0.724739 2.072206 0.021702 -0.005742 -1110580.000000 0 1 0
-14.720415 -14.366505 -11.490323 23.560870 0.773231 2.080234 0.024263 -0.005909 297825.000000 0 1 0
-15.563115 -14.356305 -12.638223 24.658441 0.745085 2.108926 0.019178 -0.004797 193289.000000 0 1 0
-15.828715 -15.562105 -13.306823 25.880473 0.776905 2.110830 0.016839 0.002376 -206755.000000 0 0 1
-16.089115 -15.411905 -14.838023 26.768514 0.763903 2.158329 0.025137 0.007104 -2928.880000 0 0 1
-16.297715 -16.618505 -15.494223 27.961780 0.795143 2.158104 0.023520 0.011221 125282.000000 0 0 1
-16.711515 -16.443905 -16.835923 28.863906 0.777327 2.193565 0.023287 0.011566 -303921.000000 0 0 1
-16.985015 -17.806305 -17.467323 30.177187 0.809000 2.188084 0.019008 0.006823 -592073.000000 0 0 1
-18.203015 -18.245905 -16.966023 30.856259 0.786575 2.152970 -0.007104 0.010600 -710889.000000 0 0 1
-19.136815 -18.460205 -18.074623 32.151032 0.767404 2.167814 0.004567 0.012768 1215470.000000 0 0 1
-20.615815 -18.190605 -17.627923 32.659663 0.722984 2.140932 0.009249 0.006175 121208.000000 0 0 1
-20.862315 -16.839405 -17.235523 31.872637 0.679097 2.142139 -0.011969 0.012604 144007.000000 0 0 1
-20.417615 -16.533705 -15.902123 30.710258 0.680674 2.115087 -0.014559 0.007595 -376097.000000 0 0 1
-20.294015 -15.021505 -15.547523 29.651613 0.637196 2.122736 -0.009367 0.000525 -326932.000000 0 0 1
-21.546715 -14.405705 -15.449723 30.174148 0.589326 2.108329 -0.004103 0.007973 52992.900000 0 0 1
-21.445115 -13.040105 -15.041123 29.260429 0.546331 2.110688 -0.001461 0.005983 128532.000000 0 0 1
-22.801215 -12.447105 -14.527823 29.763795 0.499687 2.080712 0.002970 -0.005386 166925.000000 0 0 1
-23.267615 -12.993905 -13.322423 29.794470 0.509311 2.034366 0.016441 0.002747 704840.000000 0 0 1
-24.162115 -12.106805 -12.625523 29.829287 0.464500 2.007836 0.044951 -0.011831 255509.000000 0 0 1
-25.265605 -12.795605 -11.766123 30.667898 0.468789 1.964555 0.035966 -0.012532 195624.000000 0 0 1
-26.077285 -11.821205 -11.132523 30.719680 0.425607 1.941628 0.028444 -0.016085 228829.000000 0 0 1
-26.990925 -12.337705 -10.174923 31.372887 0.428747 1.901091 0.027202 -0.007721 465398.000000 0 0 1
-27.844175 -11.244405 -9.457823 31.483093 0.383807 1.875918 0.028729 -0.010428 26338.700000 0 0 1
-27.032775 -10.454505 -8.649623 30.247043 0.369018 1.860811 0.023893 -0.012762 241867.000000 0 0 1
-27.846135 -9.395605 -8.076523 30.478105 0.325416 1.838994 0.024096 -0.011491 223668.000000 0 0 1
-27.006095 -8.331705 -7.381223 29.210083 0.299248 1.826260 0.013112 -0.014779 -453340.000000 0 0 1
-26.507385 -8.725805 -6.142523 28.574669 0.318011 1.787451 0.006931 -0.018289 62683.500000 0 0 1
-25.609225 -7.743705 -5.562623 27.326547 0.293638 1.775790 -0.000890 -0.007893 431137.000000 0 0 1
-26.237075 -6.420905 -4.938623 27.459099 0.240009 1.751634 0.003198 -0.010027 -752715.000000 0 0 1
-26.968695 -6.571905 -3.745323 28.009425 0.239028 1.704915 0.005299 -0.007080 382639.000000 0 0 1
-26.274175 -6.814305 -2.478023 27.256332 0.253763 1.661838 0.026814 -0.006861 -209406.000000 0 0 1
-25.899805 -5.505705 -1.831623 26.541807 0.209459 1.639860 0.016377 0.005001 314955.000000 0 0 1
-26.982195 -4.663605 -1.340023 27.415027 0.171149 1.619695 0.011397 0.011638 830621.000000 0 0 1
-26.504445 -3.556805 -0.658123 26.750133 0.133400 1.595401 0.003265 0.006190 341695.000000 0 0 1
-27.706345 -2.762605 -0.009223 27.843736 0.099382 1.571128 0.005837 0.003778 889162.000000 0 0 1
-28.468605 -3.305205 1.053877 28.679200 0.115583 1.534041 0.016310 -0.000350 412291.000000 0 0 1
-27.707395 -3.474105 2.271177 28.016556 0.124735 1.489642 0.005496 0.004744 64303.300000 0 0 1
-28.581945 -3.862005 3.454877 29.047872 0.134307 1.451577 0.002901 0.002720 -344688.000000 0 0 1
-28.842555 -5.155805 3.526377 29.511195 0.176889 1.451017 0.011432 0.001657 206276.000000 0 0 1
-29.773435 -5.486905 4.559477 30.616211 0.182244 1.421317 0.009707 0.000596 612938.000000 0 0 1
-30.689775 -6.757405 4.344377 31.723783 0.216726 1.433421 0.001134 0.005612 382309.000000 0 0 1
-29.994705 -7.965705 4.500377 31.359021 0.259579 1.426788 0.001678 0.007499 285920.000000 0 0 1
-30.848515 -9.029005 4.150177 32.409532 0.284736 1.442390 0.005088 0.009279 55944.500000 0 0 1
-30.216165 -10.359905 4.563777 32.267202 0.330300 1.428883 -0.005536 0.012872 102044.000000 0 0 1
-29.983945 -10.548305 5.939877 32.335520 0.338276 1.386052 -0.000577 0.009935 447543.000000 0 0 1
-28.860335 -11.373905 6.221777 31.638508 0.375411 1.372854 0.001293 0.010615 135195.000000 0 0 1
-28.914125 -11.903505 7.631977 32.186443 0.390539 1.331398 0.002067 -0.002727 -133774.000000 0 0 1
-28.698875 -10.957905 8.642077 31.912170 0.364739 1.296564 0.018514 -0.002221 270976.000000 0 0 1
-28.764485 -11.531605 9.939377 32.544811 0.381280 1.260432 0.011499 0.000309 -492297.000000 0 0 1
-28.767365 -10.409405 11.013877 32.514958 0.347190 1.225227 0.011010 -0.001683 -378622.000000 0 0 1
-27.754175 -9.461605 10.780677 31.241626 0.328552 1.218479 0.024448 0.000338 -103741.000000 0 0 1
-28.022885 -8.369005 11.560877 31.447992 0.290217 1.194349 0.017176 -0.004367 -241728.000000 0 0 1
-26.965065 -7.261305 11.660977 30.262513 0.263046 1.175234 0.018952 0.002287 -335603.000000 0 0 1
-26.948645 -6.412905 10.505177 29.626231 0.233622 1.208320 0.013753 -0.004753 714586.000000 0 0 1
-26.091875 -5.261205 10.737177 28.701101 0.198973 1.187367 0.016321 -0.007893 186686.000000 0 0 1
-26.297085 -4.224405 9.586877 28.307075 0.159281 1.225289 0.012564 -0.017485 -224402.000000 0 0 1
-25.929235 -4.739205 8.337677 27.646015 0.180779 1.264440 0.015732 -0.006815 232019.000000 0 0 1
-26.308375 -3.847105 7.355677 27.586896 0.145202 1.300895 0.005155 -0.016716 -442091.000000 0 0 1
-25.705415 -4.185105 6.003777 26.726930 0.161394 1.344229 0.017186 -0.003742 -163878.000000 0 0 1
-24.359515 -3.762905 5.874277 25.338756 0.153262 1.336838 0.031483 -0.017969 425703.000000 0 0 1
-23.860415 -4.079505 4.610177 24.641743 0.169336 1.382599 0.052111 -0.010737 205002.000000 0 1 0
-22.359415 -3.689005 4.423977 23.089473 0.163514 1.378003 0.059827 -0.012559 600929.000000 0 1 0
-22.115415 -2.277005 4.269777 22.638625 0.102599 1.381054 0.037847 -0.013522 218090.000000 0 1 0
-20.737315 -1.991105 4.401577 21.292595 0.095722 1.362576 0.023224 -0.008091 -246059.000000 0 1 0
-20.417015 -0.531905 4.829277 20.987123 0.026046 1.338609 0.011733 -0.013987 -414132.000000 0 1 0
-20.616715 0.487795 3.827077 20.974590 -0.023656 1.387306 0.012725 -0.012999 567086.000000 0 1 0
-21.914115 1.036195 3.704677 22.249197 -0.047249 1.403509 0.021278 -0.024570 -380637.000000 0 1 0
-21.967615 2.205695 2.722877 22.245343 -0.100071 1.448086 0.033039 -0.008793 -411807.000000 0 1 0
-21.294215 3.326195 3.232377 21.793472 -0.154950 1.421928 0.008906 -0.010327 216239.000000 0 1 0
-21.463115 4.428695 2.368377 22.042864 -0.203484 1.463144 0.019583 -0.001165 -163207.000000 0 1 0
-20.361815 4.592295 1.306677 20.914113 -0.221823 1.508277 0.009929 0.001770 -956844.000000 0 1 0
-20.615815 5.285095 0.101277 21.282724 -0.250957 1.566038 0.018445 0.006612 -15587.100000 0 1 0
-21.527215 4.732395 -0.804523 22.055925 -0.216391 1.607281 0.022409 -0.001300 -593126.000000 0 1 0
-21.056315 3.577095 -1.722223 21.427321 -0.168276 1.651258 0.017859 0.004912 -460773.000000 0 1 0
-20.812815 2.424495 -0.869223 20.971576 -0.115968 1.612256 -0.013085 0.009450 230044.000000 0 1 0
-20.286915 1.425195 -1.649323 20.403685 -0.070137 1.651719 -0.021224 0.010733 -1284120.000000 0 1 0
-19.576715 0.395195 -0.842923 19.598839 -0.020184 1.613818 -0.013707 0.005536 -744523.000000 0 1 0
-20.395515 -0.386305 0.003277 20.399174 0.018938 1.570636 -0.005535 0.002325 236166.000000 0 1 0
-19.660415 -1.076605 1.026477 19.716609 0.054705 1.518711 -0.000230 -0.004284 -341612.000000 0 1 0
-18.979515 -2.436805 0.615877 19.145217 0.127693 1.538622 -0.010029 -0.002452 208789.000000 0 1 0
-18.227315 -3.108805 1.628077 18.562067 0.168932 1.482974 0.003365 -0.004750 546308.000000 0 1 0
-17.565115 -4.272705 1.200577 18.117137 0.238615 1.504480 -0.003207 -0.000415 -319058.000000 0 1 0
-18.455815 -5.466305 0.803877 19.265093 0.287952 1.529057 -0.007851 -0.001662 -284757.000000 0 1 0
-19.238415 -5.995205 1.838677 20.234620 0.302089 1.479803 0.031411 -0.005934 600413.000000 0 1 0
-20.102615 -7.066405 1.504177 21.361455 0.338025 1.500323 0.005549 -0.003971 14334.300000 0 1 0
-20.901015 -7.593605 2.744477 22.406415 0.348485 1.448002 0.020848 0.000943 119283.000000 0 1 0
-20.075815 -8.185005 3.759277 22.003746 0.387131 1.399107 0.020239 0.001195 823995.000000 0 1 0
-20.844815 -8.752105 4.816577 23.115040 0.397517 1.360884 0.034388 0.004803 562245.000000 0 1 0
-19.870515 -9.496205 5.802377 22.774610 0.445815 1.313182 0.018554 0.012801 208750.000000 0 1 0
-19.257715 -10.608105 5.243377 22.602754 0.503495 1.336684 0.008120 0.012787 84025.800000 0 1 0
-18.387215 -11.210805 6.177377 22.403835 0.547526 1.291449 0.007688 0.012929 -262445.000000 0 1 0
-17.683815 -12.449105 5.623477 22.345492 0.613394 1.316401 0.000672 0.010273 -546986.000000 0 1 0
-18.467915 -13.613305 5.678577 23.635401 0.635215 1.328165 0.008736 0.015117 132111.000000 0 1 0
-17.822115 -14.785705 5.128777 23.718120 0.692547 1.352836 -0.002025 0.019651 -220076.000000 0 1 0
-18.595615 -16.118705 5.382377 25.190862 0.714168 1.355472 0.008809 0.015644 313350.000000 0 0 1
-17.812415 -17.263405 5.015177 25.307297 0.769747 1.371305 -0.005086 0.011188 -44700.400000 0 0 1
-18.504115 -18.393205 5.348777 26.633094 0.782392 1.368589 0.008169 0.007851 -204346.000000 0 0 1
-17.731915 -19.793105 5.286777 27.094978 0.840271 1.374416 0.001684 0.007069 -110344.000000 0 0 1
-17.515215 -20.320805 3.972077 27.120016 0.859414 1.423805 -0.005741 0.003906 472286.000000 0 0 1
-16.753415 -21.540705 3.979377 27.577424 0.909767 1.425992 -0.007526 -0.001039 -429535.000000 0 0 1
-15.243515 -21.412205 4.023177 26.590096 0.952123 1.418909 -0.011814 0.008612 -1160390.000000 0 0 1
-14.610015 -22.624305 3.996077 27.226464 0.997403 1.423492 -0.016659 0.011184 -355490.000000 0 0 1
-13.207715 -22.435505 4.054577 26.348344 1.038729 1.416299 -0.017664 0.010195 260537.000000 0 0 1
-12.388215 -23.759305 4.245477 27.129256 1.090172 1.413660 -0.007945 0.011772 -312994.000000 0 0 1
-12.267415 -24.582905 3.120677 27.650449 1.107931 1.457694 -0.008040 0.011644 29230.000000 0 0 1
-11.895015 -25.875285 3.551177 28.699000 1.139901 1.446740 -0.006481 0.009424 -451925.000000 0 0 1
18.028985 19.376795 -25.148343 36.509501 0.821415 2.330651 0.048258 -0.011071 -26989.200000 0 0 1
17.138085 19.973595 -26.065663 37.041561 0.861655 2.351370 0.040373 -0.012727 79229.000000 0 0 1
17.705485 20.025695 -27.359803 38.250117 0.846814 2.367831 0.046661 -0.016988 77289.600000 0 0 1
16.650485 20.206795 -28.499233 38.700898 0.881589 2.398526 0.042189 -0.014515 -5350.700000 0 0 1
16.122885 21.511895 -28.542323 39.209352 0.927624 2.386119 0.036910 -0.008214 -392824.000000 0 0 1
15.280085 21.526195 -29.635183 39.687557 0.953499 2.413902 0.014727 -0.000032 -632668.000000 0 0 1
14.705185 22.899295 -29.975113 40.486141 0.999947 2.404431 0.013685 -0.001782 -675658.000000 0 0 1
13.844285 23.436395 -29.039593 39.802347 1.037230 2.388526 0.010819 -0.001897 -30945.700000 0 0 1
13.522585 24.815395 -29.301913 40.709535 1.071856 2.374282 0.012736 0.005345 -386958.000000 0 0 1
12.849385 25.489595 -28.165523 40.101407 1.103872 2.349500 0.006357 0.011333 -477046.000000 0 0 1
11.484085 25.173495 -28.101183 39.436855 1.142801 2.363939 0.002457 0.004298 -331446.000000 0 0 1
10.842585 25.811295 -27.008073 38.900136 1.173108 2.338233 -0.005414 0.013952 889167.000000 0 0 1
9.274585 25.624695 -26.813993 38.231311 1.223525 2.348103 -0.007587 0.016864 1443500.000000 0 0 1
8.609385 26.610995 -26.088383 38.247488 1.257897 2.321419 -0.016912 0.022450 29322.100000 0 0 1
8.718185 27.944295 -26.595543 39.550136 1.268381 2.308312 -0.013563 0.015221 -854832.000000 0 0 1
8.093985 28.999895 -25.688283 39.577701 1.298619 2.277144 -0.015410 0.019376 229731.000000 0 0 1
8.912885 29.130195 -24.506623 39.097089 1.273874 2.248254 -0.018669 0.012536 529024.000000 0 0 1
8.232885 29.722595 -23.475823 38.759868 1.300580 2.221408 0.000612 0.001957 181990.000000 0 0 1
9.321685 30.098595 -22.389123 38.653487 1.270460 2.188576 -0.000211 0.005663 204104.000000 0 0 1
10.182785 31.068095 -22.873023 39.901013 1.254073 2.181256 -0.015527 -0.004766 -630255.000000 0 0 1
10.796885 31.628295 -21.774523 39.887989 1.241832 2.148249 -0.010313 0.000625 -708705.000000 0 0 1
11.947385 32.581195 -22.129423 41.158057 1.219326 2.138467 -0.014484 0.018106 168178.000000 0 0 1
13.090285 31.831695 -22.552623 41.148915 1.180643 2.150855 -0.018245 0.016587 207305.000000 0 0 1
14.202185 32.700595 -22.680523 42.254433 1.161067 2.137390 -0.001569 0.011319 -234660.000000 0 0 1
15.396585 32.097995 -23.406523 42.605181 1.123541 2.152421 0.008489 0.012204 -433681.000000 0 0 1
16.299785 31.353795 -22.643023 41.969631 1.091382 2.140651 -0.002259 0.022854 -79817.700000 0 0 1
17.524585 31.158795 -23.323723 42.684630 1.058461 2.148880 0.011768 0.022162 -481407.000000 0 0 1
18.530985 30.288995 -22.631623 42.107137 1.021741 2.138239 0.009648 0.022379 -598424.000000 0 0 1
19.170085 30.857895 -21.494723 42.210484 1.014907 2.105083 0.021925 0.021810 121255.000000 0 0 1
20.071485 29.889095 -20.986323 41.673112 0.979433 2.098550 0.015150 0.021388 -125755.000000 0 0 1
20.842485 30.416495 -19.762323 41.834457 0.970048 2.062801 0.028450 0.018730 -679563.000000 0 0 1
21.727785 31.432795 -20.062023 43.157873 0.965970 2.054264 0.039373 0.010001 -164275.000000 0 0 1
22.252885 31.864595 -18.795923 43.172098 0.961173 2.021248 0.029429 0.005669 -270240.000000 0 0 1
23.522085 32.769595 -18.737023 44.477083 0.948222 2.005646 0.030927 0.008067 528232.000000 0 0 1
24.649985 31.943795 -19.016323 44.605474 0.913572 2.011220 0.027888 0.011084 136572.000000 0 0 1
25.834685 32.726595 -19.091123 45.857736 0.902546 2.000182 0.013763 0.010089 -320023.000000 0 0 1
27.076485 32.021195 -19.545823 46.265886 0.868874 2.006962 0.028211 -0.001542 -377270.000000 0 0 1
27.632985 31.090495 -18.580423 45.556919 0.844208 1.990895 0.025270 0.003870 616347.000000 0 0 1
28.874285 30.512295 -19.017223 46.112680 0.812973 1.995892 0.017853 -0.000855 462255.000000 0 0 1
29.345185 29.403795 -18.087823 45.308856 0.786396 1.981453 0.015604 -0.011269 -499624.000000 0 0 1
29.967585 29.897195 -16.929223 45.590536 0.784222 1.951239 0.015012 -0.004060 -70612.900000 0 0 1
30.271785 28.829395 -16.053323 44.779729 0.760998 1.937452 0.014554 -0.007081 -449919.000000 0 0 1
30.804585 29.266295 -14.674623 44.953121 0.759796 1.903334 0.019532 -0.007755 217748.000000 0 0 1
32.036585 29.976195 -14.608823 46.242110 0.752185 1.892223 -0.010329 0.001630 200366.000000 0 0 1
31.901285 31.359695 -14.813423 47.122818 0.776837 1.890576 0.006416 -0.004081 60434.700000 0 0 1
33.244385 32.129595 -15.026723 48.613809 0.768347 1.885047 0.005743 -0.009863 770577.000000 0 0 1
34.093085 32.016995 -13.887423 48.788184 0.754005 1.859435 0.000922 -0.009517 -65366.500000 0 0 1
-34.350719 32.534695 -14.127523 49.376768 -0.758254 1.860968 0.004272 -0.018921 270392.000000 0 0 1
-33.520719 32.677195 -12.817123 48.535722 -0.772656 1.838042 -0.002820 -0.003039 19319.700000 0 0 1
-34.029719 33.757995 -11.972023 49.406005 -0.781390 1.815552 0.013381 -0.015849 337246.000000 0 0 1
-33.186919 34.063595 -10.908023 48.792265 -0.798433 1.796262 -0.002291 -0.000277 -84483.500000 0 0 1
-33.907019 -34.357401 -10.078023 49.312103 0.791996 1.776619 0.003303 -0.004497 230680.000000 0 0 1
-33.052719 -33.613001 -9.215223 48.033701 0.793802 1.763842 -0.000392 0.001287 35268.800000 0 0 1
-32.963819 -34.172101 -7.943623 48.139869 0.803394 1.736566 -0.012634 0.008138 -90210.100000 0 0 1
-32.472219 -33.289301 -6.779723 46.995608 0.797822 1.715564 -0.008844 0.004478 493059.000000 0 0 1
-33.423319 -32.279101 -6.321323 46.893685 0.767985 1.706009 -0.003248 0.006759 536180.000000 0 0 1
-33.002319 -31.525401 -5.218323 45.937293 0.762514 1.684639 0.005852 0.012967 -609484.000000 0 0 1
-34.130319 -30.575501 -4.876823 46.081703 0.730515 1.676825 -0.000650 0.016826 -802661.000000 0 0 1
34.542885 -31.282501 -4.315023 46.801978 -0.735908 1.663125 -0.002653 0.015002 -1000110.000000 0 0 1
33.367985 -30.547101 -4.257023 45.438640 -0.741292 1.664621 -0.001034 0.023129 -869437.000000 0 0 1
33.020185 -29.548301 -3.117823 44.420215 -0.729966 1.641043 -0.004469 0.026916 -633565.000000 0 0 1
33.950185 -28.515701 -2.926023 44.433342 -0.698617 1.636696 -0.003512 0.013889 29902.400000 0 0 1
33.370285 -27.485201 -2.184223 43.287215 -0.688992 1.621277 -0.014040 0.016899 -484141.000000 0 0 1
33.696985 -26.043801 -2.606123 42.668000 -0.657986 1.631913 -0.008879 0.005233 -384286.000000 0 0 1
33.357785 -25.626501 -3.886123 42.244068 -0.655068 1.662919 -0.001855 -0.007827 208851.000000 0 0 1
33.389785 -24.257401 -4.028823 41.467224 -0.628285 1.668107 -0.002027 -0.015056 -95160.100000 0 0 1
32.815485 -23.713801 -5.387723 40.843946 -0.625760 1.703092 0.007696 -0.022170 -543940.000000 0 0 1
33.754485 -23.856001 -6.407523 41.827388 -0.615242 1.724592 0.011952 -0.019867 -314542.000000 0 0 1
33.237285 -23.522901 -7.650923 41.431638 -0.615893 1.756526 -0.003831 -0.015849 -368669.000000 0 0 1
34.294985 -23.579601 -8.764623 42.531896 -0.602323 1.778355 -0.001599 -0.018032 -79498.000000 0 0 1
34.672585 -24.927201 -9.016623 43.644621 -0.623319 1.778887 -0.000313 -0.001282 -70195.300000 0 0 1
-34.068619 -24.902501 -10.018423 43.372505 0.631198 1.803887 0.007287 -0.004442 -141436.000000 0 0 1
-33.429019 -26.290201 -10.259923 43.748600 0.666423 1.807521 0.002597 0.005277 76253.700000 0 0 1
-32.744719 -26.875201 -9.151323 43.338664 0.687265 1.783556 0.007447 -0.002312 -19702.600000 0 0 1
-33.406519 -28.027301 -8.727023 44.471182 0.698060 1.768318 0.000872 -0.001333 -96514.300000 0 0 1
-32.464119 -29.228501 -8.446723 44.492375 0.732999 1.761802 0.002551 -0.001146 67670.800000 0 0 1
-31.862919 -29.915801 -9.550823 44.737221 0.753891 1.785939 0.003431 -0.000412 -88018.200000 0 0 1
-31.147319 -30.977401 -9.048323 44.851165 0.782663 1.773932 -0.004361 -0.003034 -392224.000000 0 0 1
-30.606019 -31.897201 -10.217323 45.371285 0.806053 1.797938 -0.006949 0.003809 -475623.000000 0 0 1
-29.753719 -31.289601 -11.112123 44.584775 0.810553 1.822687 -0.020597 0.013711 -151209.000000 0 0 1
-29.613519 -32.103101 -12.231823 45.356224 0.825715 1.843861 -0.020820 0.016695 -204165.000000 0 0 1
-29.766219 -31.275401 -13.497023 45.236580 0.810117 1.873776 -0.015483 0.016186 162513.000000 0 0 1
-28.713319 -30.341101 -13.763323 43.982567 0.812955 1.889069 -0.026148 0.025903 367765.000000 0 0 1
-29.044319 -29.642701 -14.954323 44.112288 0.795594 1.916656 -0.025680 0.029613 132665.000000 0 0 1
-27.957719 -28.619301 -15.378123 42.862397 0.797091 1.937756 -0.026840 0.021227 -766332.000000 0 0 1
-26.985419 -29.278401 -16.056223 42.932970 0.826130 1.954097 -0.021249 0.020416 -923972.000000 0 0 1
-25.934919 -28.395301 -16.440723 41.823564 0.830653 1.974794 -0.006119 0.025404 605746.000000 0 0 1
-24.704419 -29.123201 -17.074123 41.832940 0.867306 1.991223 -0.001846 0.020780 65968.900000 0 0 1
-25.007419 -29.818301 -18.286423 42.998783 0.872923 2.010065 -0.009489 0.026271 -91138.200000 0 0 1
-25.028319 -29.087601 -19.514123 43.050044 0.860269 2.041248 0.001365 0.021582 377711.000000 0 0 1
-23.787919 -28.224101 -19.964723 41.964927 0.870484 2.066610 0.013644 0.019031 548373.000000 0 0 1
-23.600419 -27.127501 -19.151523 40.738948 0.854816 2.060204 0.008033 0.020081 120276.000000 0 0 1
-22.265919 -26.646001 -19.225623 39.691373 0.874710 2.076448 0.019665 0.012233 341087.000000 0 0 1
-22.024419 -25.431401 -18.358223 38.325651 0.857068 2.070319 0.008754 0.010925 -310474.000000 0 0 1
-22.160419 -25.788301 -17.049523 38.036915 0.860916 2.035588 0.017356 0.015421 146451.000000 0 0 1
-21.613819 -24.840801 -16.141623 36.671168 0.854752 2.026587 0.016427 0.014299 6475.340000 0 0 1
-22.090219 -25.031001 -14.692323 36.474555 0.847726 1.985381 0.003880 0.022521 149272.000000 0 0 1
-23.423319 -24.637701 -14.419223 36.926714 0.810660 1.971952 -0.014165 0.036240 45480.900000 0 0 1
-23.555719 -24.742501 -13.028423 36.562317 0.809965 1.935138 -0.027071 0.035563 -511134.000000 0 0 1
-24.981519 -24.623901 -12.497023 37.236922 0.778189 1.913047 -0.030553 0.037856 -577082.000000 0 0 1
-25.717319 -25.823101 -12.818623 38.633278 0.787451 1.909010 -0.021397 0.038354 -93398.400000 0 0 1
-27.003019 -25.896101 -12.274823 39.375657 0.764476 1.887816 -0.027604 0.040138 -255696.000000 0 0 1
-28.142719 -25.092701 -13.012723 39.887181 0.728168 1.903118 -0.022836 0.033263 -442911.000000 0 0 1
-28.421419 -23.760801 -12.546123 39.112120 0.696320 1.897342 -0.015128 0.032692 272613.000000 0 0 1
-28.989519 -23.586001 -11.247423 39.028146 0.682981 1.863130 -0.015649 0.027535 102614.000000 0 0 1
-30.454419 -24.080901 -11.016723 40.357522 0.669056 1.847284 -0.006325 0.020630 -59493.400000 0 0 1
-31.527219 -23.346101 -11.524423 40.887875 0.637397 1.856523 0.002485 0.011177 -252781.000000 0 0 1
-31.683219 -23.210201 -12.924623 41.347136 0.632253 1.888713 0.001014 0.016564 -285321.000000 0 0 1
-33.106319 -22.852201 -13.463623 42.420757 0.604164 1.893765 -0.000262 0.009905 440726.000000 0 0 1
-33.959319 -23.929401 -13.286323 43.616258 0.613839 1.880334 -0.003014 0.012057 -31252.600000 0 0 1
34.400785 -23.738301 -13.593423 43.951133 -0.604018 1.885237 -0.005585 0.007031 447277.000000 0 0 1
33.560385 -24.972101 -13.217323 43.870296 -0.639711 1.876833 -0.009483 0.009165 -233917.000000 0 0 1
33.685085 -26.095201 -14.057223 44.869254 -0.659111 1.889455 -0.022223 0.016802 501355.000000 0 0 1
32.874685 -27.244601 -13.645523 44.824251 -0.692022 1.880129 -0.024903 0.005621 566108.000000 0 0 1
32.725885 -28.299901 -14.777823 45.719274 -0.712998 1.899937 -0.024361 0.003010 -11656.200000 0 0 1
31.900785 -27.974901 -15.840023 45.289750 -0.719925 1.928099 -0.029691 -0.003773 -333896.000000 0 0 1
32.017585 -29.047201 -16.791823 46.377052 -0.736793 1.941286 -0.033494 0.000238 -95361.000000 0 0 1
31.102385 -28.810801 -18.006823 46.061549 -0.747168 1.972438 -0.030031 -0.000377 -613735.000000 0 0 1
29.765485 -28.813101 -17.606823 45.013099 -0.769141 1.972676 -0.011768 -0.002496 -389570.000000 0 0 1
28.916085 -28.749401 -18.795723 44.899301 -0.782508 2.002721 0.003257 0.001423 1052410.000000 0 0 1
27.418685 -28.834401 -18.351423 43.817596 -0.810560 2.002935 0.004692 -0.005915 605191.000000 0 0 1
26.998485 -27.680601 -17.590523 42.480117 -0.797872 1.997737 0.009182 -0.010212 665802.000000 0 0 1
25.652185 -27.788301 -17.086923 41.499243 -0.825349 1.995160 0.018069 -0.008320 899614.000000 0 0 1
25.441285 -26.753601 -15.946623 40.215780 -0.810535 1.978526 0.013555 -0.007475 -17964.000000 0 0 1
25.312385 -25.431001 -16.376923 39.441808 -0.787736 1.998978 0.026481 -0.016686 25158.700000 0 0 1
25.207985 -24.580501 -15.266523 38.375907 -0.772796 1.979931 0.014048 -0.013022 -64011.200000 0 0 1
25.157085 -23.067801 -15.592923 37.525213 -0.742101 1.999324 0.010023 -0.008131 85892.800000 0 0 1
23.950485 -22.748101 -16.253523 36.814112 -0.759656 2.028069 0.020245 -0.002219 -20145.700000 0 0 1
23.786785 -21.324101 -16.369123 35.895356 -0.730861 2.044318 0.007825 0.001791 -89348.500000 0 0 1
22.297185 -20.961901 -16.612723 34.821664 -0.754541 2.068126 0.004627 0.003542 190420.000000 0 0 1
21.585985 -21.194301 -15.396723 33.944252 -0.776243 2.041584 0.006247 -0.006810 -368282.000000 0 0 1
20.310085 -20.614201 -15.425623 32.793211 -0.792829 2.060530 0.000397 -0.007979 -184172.000000 0 0 1
20.070785 -19.269501 -14.627823 31.434428 -0.765033 2.054820 0.004022 -0.010429 -195909.000000 0 0 1
19.908885 -19.407001 -13.235223 30.792312 -0.772633 2.015092 -0.001016 -0.013188 92879.100000 0 0 1
19.817985 -18.088701 -12.608123 29.646558 -0.739810 2.010069 -0.013201 -0.009012 -158735.000000 0 0 1
18.995385 -18.023501 -11.285723 28.513835 -0.759150 1.977733 -0.019838 -0.008414 -318847.000000 0 0 1
19.580085 -18.780401 -10.274423 29.011152 -0.764555 1.932806 -0.025827 -0.012616 154208.000000 0 0 1
18.594085 -19.098701 -9.301623 28.231553 -0.798785 1.906545 -0.017969 -0.022189 -102087.000000 0 0 1
19.070585 -19.863001 -8.042523 28.686376 -0.805748 1.854966 -0.012638 -0.019764 -906855.000000 0 0 1
19.962585 -19.146601 -7.254323 28.595845 -0.764537 1.827284 -0.019114 -0.016171 -393153.000000 0 0 1
20.439385 -19.819801 -6.101423 29.117354 -0.770010 1.781907 -0.020770 -0.004783 -427767.000000 0 0 1
21.696385 -19.086101 -5.614323 29.436932 -0.721480 1.762696 -0.026099 -0.004068 -243109.000000 0 0 1
22.627385 -19.037701 -6.700023 30.320338 -0.699455 1.793610 -0.034618 -0.009054 540640.000000 0 0 1
23.672885 -18.103401 -6.313223 30.463017 -0.652863 1.779551 -0.029290 -0.008773 246504.000000 0 0 1
24.760385 -17.827201 -7.374623 31.389024 -0.624016 1.807956 -0.021847 -0.018111 -68068.900000 0 0 1
25.681785 -18.902801 -7.501623 32.758881 -0.634506 1.801842 -0.010513 -0.030219 179433.000000 0 0 1
25.391085 -19.822001 -8.521223 33.320116 -0.662841 1.829407 -0.001025 -0.034662 -290332.000000 0 0 1
26.192985 -21.125701 -8.291723 34.657183 -0.678716 1.812389 0.015875 -0.045823 -684208.000000 0 0 1
27.548485 -21.008401 -8.494523 35.671121 -0.651515 1.811241 0.002783 -0.029460 -1186090.000000 0 0 1
28.234785 -22.184701 -8.154523 36.822008 -0.665974 1.794106 0.015545 -0.033741 -207837.000000 0 0 1
-28.815845 30.567795 3.822277 42.182376 -0.814892 1.480059 0.002621 -0.000118 159159.000000 0 0 1
-28.082485 31.605595 3.238077 42.403122 -0.844355 1.494358 -0.002401 0.003457 -910444.000000 0 0 1
-27.030685 31.980795 4.048577 42.069231 -0.869086 1.474411 -0.004229 0.003753 -774775.000000 0 0 1
-26.242545 33.157495 3.503677 42.430725 -0.901290 1.488128 -0.002356 -0.005154 -870881.000000 0 0 1
-25.516045 32.712795 2.396877 41.556474 -0.908369 1.513087 0.003095 -0.011528 -190083.000000 0 0 1
-24.884715 33.732795 1.631377 41.950112 -0.935213 1.531898 0.003807 -0.017585 503125.000000 0 0 1
-23.540015 34.277195 2.205677 41.640406 -0.969015 1.517802 0.015126 -0.024610 -938258.000000 0 0 1
-22.385815 33.794295 1.625377 40.568719 -0.985744 1.530721 0.022565 -0.020132 -1453180.000000 0 0 1
-21.352915 34.299295 2.435577 40.476174 -1.013963 1.510587 0.023988 -0.019393 -1234740.000000 0 0 1
-19.990615 33.974095 1.903277 39.465001 -1.038944 1.522551 0.021028 -0.018203 -1142130.000000 0 0 1
-19.689615 34.659795 0.731377 39.868751 -1.054176 1.552451 0.017946 -0.021317 563280.000000 0 0 1
-18.328915 34.343895 0.379877 38.930664 -1.080563 1.561038 0.019384 -0.018221 703953.000000 0 0 1
-17.820115 -34.384801 -0.849123 38.737476 1.092651 1.592718 0.020953 -0.017382 -60385.800000 0 0 1
-17.658215 -32.925301 -0.830523 37.370815 1.078523 1.593022 0.023534 -0.011726 -27489.300000 0 0 1
-16.849315 -32.408801 0.178477 36.527547 1.091356 1.565910 0.020285 -0.005700 -440338.000000 0 0 1
-16.849715 -30.894801 0.056777 35.190977 1.071499 1.569183 0.016823 -0.001034 -32825.600000 0 0 1
-15.945715 -30.376501 -0.905523 34.319348 1.087400 1.597185 0.002274 0.008810 46783.100000 0 0 1
-16.004615 -28.965401 -0.926423 33.105897 1.066003 1.598784 -0.000435 0.012269 234220.000000 0 0 1
-15.097915 -28.404501 -2.032623 32.231883 1.082242 1.633901 -0.007568 0.021020 301760.000000 0 0 1
-15.720215 -28.635401 -3.299923 32.832923 1.068738 1.671473 -0.008289 0.013807 -216175.000000 0 0 1
-14.830015 -28.268401 -4.256523 32.204811 1.087652 1.703355 -0.005821 0.011933 -584090.000000 0 0 1
-15.420015 -28.387201 -5.683723 32.801140 1.073186 1.744954 0.010047 0.005729 1176160.000000 0 0 1
-16.526815 -27.433201 -5.872323 32.560717 1.028586 1.752139 0.010185 0.014713 675544.000000 0 0 1
-16.998315 -27.354501 -7.178323 32.996057 1.014784 1.790101 0.023572 0.011132 -187446.000000 0 0 1
-17.788215 -26.050701 -7.396023 32.400012 0.971687 1.801099 0.012787 0.011526 219086.000000 0 0 1
-17.045415 -24.866501 -7.068323 30.965307 0.969884 1.801092 0.034537 0.009033 539576.000000 0 0 1
-17.799315 -23.698501 -7.454923 30.561585 0.926609 1.817214 0.030713 0.005580 122256.000000 0 0 1
-17.047015 -22.422801 -7.108223 29.050122 0.920765 1.817994 0.023414 0.002080 330324.000000 0 0 1
-15.856615 -22.341001 -7.876023 28.505865 0.953554 1.850733 0.042156 -0.000920 -205885.000000 0 0 1
-14.891115 -21.478101 -7.326623 27.142836 0.964570 1.844115 0.056378 -0.004941 289775.000000 0 0 1
-13.666715 -21.177301 -8.224923 26.512385 0.997699 1.886231 0.056926 -0.004523 145869.000000 0 0 1
-13.874815 -20.492101 -9.407123 26.475095 0.975618 1.934052 0.046920 -0.002189 255683.000000 0 0 1
-12.693315 -20.474701 -10.239123 26.175815 1.015836 1.972696 0.044669 -0.002271 946867.000000 0 0 1
-12.882215 -19.435101 -11.324423 25.921365 0.985453 2.022919 0.040675 -0.008840 788310.000000 0 0 1
-14.061615 -19.808201 -12.076923 27.128323 0.953465 2.032169 0.046060 -0.007986 507607.000000 0 0 1
-14.281215 -18.989701 -13.168123 27.165443 0.925984 2.076860 0.035067 -0.003470 264237.000000 0 0 1
-15.390015 -19.494101 -14.147323 28.583549 0.902509 2.088569 0.042759 0.002964 -293245.000000 0 0 1
-16.652015 -19.390101 -13.599223 28.951762 0.861222 2.059770 0.041654 0.000315 -1001720.000000 0 0 1
-17.633615 -19.984401 -14.432423 30.308670 0.847808 2.067103 0.022054 0.006714 738618.000000 0 0 1
-19.085915 -19.824501 -13.865123 30.814358 0.804378 2.037513 0.004217 0.006538 470547.000000 0 0 1
-20.076315 -20.495001 -14.568323 32.176692 0.795718 2.040655 0.006231 0.001122 -411530.000000 0 0 1
-21.387615 -20.084201 -14.226523 32.606735 0.753980 2.022286 -0.003366 0.011763 19391.800000 0 0 1
-22.425815 -20.879701 -15.017923 34.123557 0.749711 2.026511 -0.005547 0.009008 -522330.000000 0 0 1
-22.512915 -20.371901 -16.342423 34.480726 0.735515 2.064577 -0.013175 -0.000544 138589.000000 0 0 1
-23.108215 -21.259301 -17.291023 35.845878 0.743750 2.074156 -0.009593 -0.002853 -32649.200000 0 0 1
-23.503315 -20.480101 -18.509623 36.255296 0.716771 2.106604 -0.016695 -0.000930 742251.000000 0 0 1
-22.342215 -20.130401 -19.296923 35.732043 0.733369 2.141287 -0.004942 -0.002519 728964.000000 0 0 1
-22.737515 -19.802001 -20.615223 36.525351 0.716501 2.170513 -0.007427 -0.006140 -51165.700000 0 0 1
-21.727215 -19.032901 -21.518723 36.019143 0.719392 2.211082 -0.005002 0.000848 104901.000000 0 0 1
-20.594915 -19.781101 -21.890323 35.980950 0.765245 2.224822 0.004397 0.000119 -523961.000000 0 0 1
-19.668615 -18.983201 -22.571823 35.450015 0.767667 2.261037 0.006749 -0.001475 309051.000000 0 0 1
-18.287215 -19.697001 -22.700523 35.181072 0.822496 2.272144 0.020306 -0.002164 161842.000000 0 0 1
-18.293315 -20.851701 -23.571023 36.400988 0.850662 2.275145 0.018236 -0.000148 -838502.000000 0 0 1
-17.028615 -21.429001 -23.670623 36.186658 0.899324 2.283822 0.024091 0.003213 -446324.000000 0 0 1
-17.026115 -22.847601 -24.253223 37.418181 0.930372 2.275971 0.028683 0.007050 -153040.000000 0 0 1
-17.042015 -22.935801 -25.642423 38.392904 0.931770 2.302173 0.031846 0.003456 54546.800000 0 0 1
-17.055415 -24.274501 -26.120653 39.527549 0.958323 2.292709 0.028546 -0.004701 -62784.100000 0 0 1
-17.028815 -24.374401 -27.635703 40.593399 0.960987 2.319641 0.022920 -0.002113 305765.000000 0 0 1
-15.744115 -24.128101 -28.196453 40.312311 0.992650 2.345424 0.011398 -0.002015 269912.000000 0 0 1
-15.782215 -23.953801 -29.596613 41.216773 0.988217 2.371825 0.019880 -0.007470 228608.000000 0 0 1
-14.390715 -23.659801 -30.235893 41.001074 1.024344 2.400071 -0.000952 -0.011034 532763.000000 0 0 1
-13.463115 -24.695101 -29.998203 41.121718 1.071666 2.388384 -0.001378 -0.017351 -447214.000000 0 0 1
-12.326315 -24.638801 -30.796243 41.320905 1.106924 2.411773 0.008064 -0.014954 -374134.000000 0 0 1
-11.324915 -25.769501 -30.586803 41.567697 1.156734 2.397689 0.002594 -0.004793 -1101780.000000 0 0 1
-11.817615 -26.951201 -31.239813 42.917935 1.157562 2.386045 0.004420 0.010675 515062.000000 0 0 1
-11.131215 -28.161301 -30.898513 43.262928 1.194377 2.366281 0.009156 0.014843 637019.000000 0 0 1
-9.720815 -28.378001 -31.572023 43.549946 1.240776 2.381774 0.012109 0.000393 667306.000000 0 0 1
-8.815115 -27.486701 -30.939703 42.314185 1.260454 2.390861 0.013220 -0.008352 -252675.000000 0 0 1
-7.843315 -27.025401 -31.877623 42.521439 1.288336 2.418380 0.007901 -0.004769 -202083.000000 0 0 1
-6.952515 -25.892501 -31.351943 41.251708 1.308469 2.434133 0.006263 -0.007847 -390970.000000 0 0 1
-7.526915 -24.580301 -31.232333 40.451258 1.273645 2.452932 0.008340 -0.014217 148960.000000 0 0 1
-8.292515 -24.311001 -30.076663 39.552449 1.242071 2.434763 0.006427 -0.009923 -771345.000000 0 0 1
-8.645415 -22.829401 -29.988643 38.668378 1.208789 2.458357 0.010561 -0.017408 81607.900000 0 0 1
-9.593615 -22.481301 -31.013523 39.487782 1.167455 2.474131 0.004249 -0.022453 334125.000000 0 0 1
-9.975315 -21.105401 -30.925753 38.747220 1.129273 2.495000 -0.002101 -0.020979 329404.000000 0 0 1
-10.949115 -20.681401 -32.080113 39.708149 1.083892 2.511372 -0.009807 -0.016123 359138.000000 0 0 1
-11.209215 -19.302001 -32.154123 39.142067 1.044668 2.534784 -0.002064 -0.015454 -352270.000000 0 0 1
-12.073915 -19.090201 -33.221163 40.172887 1.006846 2.544466 -0.001907 -0.012707 -86645.800000 0 0 1
-12.784915 -17.636701 -33.065093 39.595551 0.943551 2.559058 0.020632 -0.005138 112133.000000 0 0 1
-11.949215 -16.542801 -33.364833 39.110869 0.945246 2.592663 0.015660 -0.002302 435061.000000 0 0 1
-11.117315 -16.084701 -32.260283 37.723178 0.966019 2.596703 -0.002941 0.005912 465073.000000 0 0 1
-10.755215 -14.577401 -32.315603 37.046909 0.935149 2.630660 -0.000153 0.007336 -340581.000000 0 0 1
-9.986415 -14.064901 -33.383263 37.576484 0.953375 2.664663 0.004177 -0.001135 -97887.400000 0 0 1
-10.488915 -14.273101 34.535455 38.812839 0.937047 0.473901 0.010222 -0.000290 -379278.000000 0 0 1
-11.028615 -12.938201 33.948235 37.967224 0.864906 0.464276 0.007668 -0.004523 1361680.000000 0 0 1
-12.336715 -12.577701 34.491549 38.730609 0.795070 0.472243 0.003335 -0.001745 977269.000000 0 0 1
-12.935615 -11.545301 33.739930 37.934246 0.728667 0.474695 0.001807 0.002472 508841.000000 0 0 1
-13.996315 -10.703901 34.473652 38.715669 0.652884 0.472504 0.010829 0.002728 700253.000000 0 0 1
-13.356215 -9.801801 -33.879383 37.713080 0.633101 2.686785 -0.001641 0.002330 173384.000000 0 0 1
-14.376215 -9.084201 -33.225293 37.324501 0.563539 2.668523 0.011783 0.001654 346554.000000 0 0 1
-13.846215 -7.875201 -32.392843 36.097545 0.517134 2.684569 0.010479 -0.011743 -434626.000000 0 0 1
-13.653915 -6.659601 -33.095873 36.415883 0.453794 2.711269 0.008361 -0.021056 -298156.000000 0 0 1
-14.740815 -5.781801 -33.201843 36.784280 0.373791 2.696590 0.007753 -0.022127 -335932.000000 0 0 1
-15.109015 -5.087601 -31.860923 35.627018 0.324801 2.677641 0.005737 -0.023254 -312851.000000 0 0 1
-15.679015 -6.024201 -30.975283 35.236213 0.366830 2.644715 0.009292 -0.025772 -556917.000000 0 0 1
-16.010415 -5.424001 -29.726963 34.197157 0.326644 2.624544 0.005874 -0.026921 103190.000000 0 0 1
-14.839515 -4.952601 -28.814293 32.787238 0.322120 2.644193 -0.005161 -0.013081 223971.000000 0 0 1
-14.295815 -3.772801 -29.333423 32.848958 0.258026 2.674717 -0.007055 -0.015660 -235077.000000 0 0 1
-13.148015 -3.315801 -28.639273 31.687108 0.247039 2.699398 -0.012827 -0.007037 128265.000000 0 0 1
-12.828315 -1.917801 -29.082743 31.844145 0.148398 2.722071 -0.018020 -0.002030 -174177.000000 0 0 1
-12.511415 -2.006801 -30.457433 32.988149 0.159043 2.747340 -0.020596 -0.015494 -8879.830000 0 0 1
-12.725115 -0.836801 -31.142393 33.652302 0.065665 2.752929 -0.020419 -0.020449 -106720.000000 0 0 1
-12.819315 -1.008801 -32.699213 35.136748 0.078532 2.766919 -0.025317 -0.019961 -294959.000000 0 0 1
-14.101915 -1.467801 -33.074533 35.985319 0.103712 2.736617 -0.025700 -0.028015 136962.000000 0 0 1
-14.216515 -1.507801 -34.469293 37.316416 0.105665 2.748433 -0.030377 -0.020007 650134.000000 0 0 1
-15.601315 -1.985801 34.210159 37.652084 0.126603 0.430910 -0.026265 -0.026097 718774.000000 0 0 1
-15.577715 -2.356801 32.833269 36.417624 0.150154 0.447397 -0.014131 -0.031236 166350.000000 0 0 1
-16.875115 -2.210801 32.273379 36.486000 0.130268 0.485286 -0.004428 -0.022776 -121076.000000 0 0 1
-16.912115 -2.050801 30.754539 35.157746 0.120673 0.505859 0.007297 -0.014700 -75322.800000 0 0 1
-16.330615 -0.827801 30.365159 34.487928 0.050647 0.493970 0.000012 0.006057 -80716.100000 0 0 1
-16.153715 -0.767801 28.962029 33.171240 0.047495 0.509258 -0.006223 0.000323 -228145.000000 0 0 1
-15.703415 0.652199 28.497419 32.544209 -0.041508 0.504011 -0.007396 0.008368 26861.000000 0 0 1
-16.467715 1.796199 28.829299 33.249669 -0.108644 0.521535 -0.004067 0.004808 -87211.500000 0 0 1
-17.733715 2.032199 28.241109 33.409202 -0.114098 0.563652 -0.001192 0.005004 152721.000000 0 0 1
-17.752315 2.817199 26.876839 32.333354 -0.157382 0.589458 0.005021 0.006591 -433273.000000 0 0 1
-17.597915 4.194199 27.085529 32.571519 -0.233970 0.588866 0.001076 0.012494 128103.000000 0 0 1
-18.039615 4.849199 25.907799 31.939889 -0.262601 0.624693 0.005119 0.020119 -431133.000000 0 0 1
-17.998815 6.429199 25.839869 32.140174 -0.343076 0.636848 0.011495 0.013126 935120.000000 0 0 1
-16.678315 6.952199 25.621849 31.352487 -0.394939 0.614227 0.000888 0.012597 873684.000000 0 0 1
-16.069915 6.671199 24.331559 29.912737 -0.393486 0.620792 0.003865 0.011704 201258.000000 0 0 1
-14.889315 7.616199 24.050719 29.293946 -0.472822 0.607613 -0.002492 0.017150 -244863.000000 0 0 1
-13.714815 7.526199 24.780139 29.305207 -0.501894 0.563130 -0.017893 0.019534 -225854.000000 0 0 1
-12.695315 8.422199 24.305489 28.685559 -0.585745 0.559901 -0.003663 0.019217 241735.000000 0 0 1
-11.452015 8.227199 25.208889 28.884660 -0.622973 0.510003 -0.007675 0.030792 -414838.000000 0 0 1
-10.441715 9.049199 24.670409 28.276254 -0.714075 0.510546 -0.013251 0.027293 -80935.300000 0 0 1
-9.240815 8.976199 25.426059 28.503496 -0.770873 0.468973 -0.009176 0.010216 89522.900000 0 0 1
-8.932015 10.309199 26.131149 29.477066 -0.856851 0.481090 0.001008 -0.004721 -116170.000000 0 0 1
-9.968715 10.721199 27.024729 30.735247 -0.821752 0.496459 -0.011921 -0.005488 480179.000000 0 0 1
-9.735415 12.021199 27.488119 31.541786 -0.890076 0.512579 -0.006356 -0.009040 -317675.000000 0 0 1
-10.436015 13.114199 26.616979 31.454033 -0.898634 0.561949 -0.020457 -0.016667 1136420.000000 0 0 1
-11.869915 12.969199 26.481169 31.785961 -0.829625 0.586091 -0.017197 -0.015767 1117360.000000 0 0 1
-12.213115 12.257199 25.301079 30.651978 -0.787200 0.599832 -0.015669 0.001860 -175763.000000 0 0 1
-13.699015 11.889199 25.081519 30.953169 -0.714787 0.626123 -0.012237 -0.002125 286062.000000 0 0 1
-14.522515 12.984199 24.694579 31.453380 -0.729531 0.667912 -0.009792 -0.005522 -722276.000000 0 0 1
-15.742915 12.651199 24.136419 31.471558 -0.676940 0.696756 0.021044 0.002690 -732610.000000 0 0 1
-15.750515 12.142199 22.646519 30.139286 -0.656749 0.720622 0.015649 0.006971 -390960.000000 0 0 1
-15.451715 10.756199 22.537119 29.366189 -0.608115 0.695940 0.014270 0.008602 36944.100000 0 0 1
-15.361815 10.490199 21.116919 28.141676 -0.599140 0.722161 0.012054 0.008622 -52963.600000 0 0 1
-15.760815 9.005199 20.819119 27.621235 -0.519099 0.717068 0.011998 0.001109 -160666.000000 0 0 1
-17.101115 8.781199 21.123119 28.561228 -0.474379 0.738360 0.023734 0.002698 -779604.000000 0 0 1
-17.630515 7.517199 20.719719 28.224991 -0.403034 0.746469 0.016261 0.003938 -114618.000000 0 0 1
-19.153015 7.531199 20.905419 29.335874 -0.374641 0.777566 0.024962 0.000074 -338516.000000 0 0 1
-19.422415 7.632199 22.310619 30.549049 -0.374421 0.752004 0.013112 -0.003468 -443312.000000 0 0 1
-20.803915 7.778199 22.484219 31.604484 -0.357790 0.779272 0.001303 -0.001910 -461089.000000 0 0 1
-21.081615 8.472199 23.852819 32.941913 -0.382123 0.761086 0.003823 -0.004739 -461144.000000 0 0 1
-20.870415 9.877199 24.074219 33.357178 -0.442030 0.764526 0.005793 -0.004566 920212.000000 0 0 1
-19.625515 10.539199 23.725019 32.544003 -0.492819 0.753917 0.015685 0.000184 1833480.000000 0 0 1
-18.390715 10.233199 24.674939 32.431303 -0.507769 0.706194 0.019705 -0.005388 391254.000000 0 0 1
-18.402015 10.991199 25.887719 33.609740 -0.538419 0.691572 0.029772 -0.002280 -34442.800000 0 0 1
-18.196515 10.160199 27.006299 34.112798 -0.509239 0.657248 0.012992 -0.000904 148224.000000 0 0 1
-29.644025 -14.594705 21.142619 39.227337 0.457494 1.001575 -0.008591 0.001526 -156690.000000 0 0 1
-29.236595 -15.895505 21.435019 39.584159 0.497982 0.998570 -0.008457 0.006343 61416.100000 0 0 1
-29.970135 -16.912405 20.770019 40.194927 0.513762 1.027766 -0.017211 0.009742 -237972.000000 0 0 1
-29.825635 -16.992105 19.220719 39.341279 0.517853 1.060354 -0.011032 -0.000583 -5937.100000 0 0 1
-30.145295 -15.793105 18.586519 38.776535 0.482584 1.070912 -0.008036 -0.005529 -184529.000000 0 0 1
-29.358785 -15.625705 17.456619 37.561077 0.489100 1.087441 0.001202 -0.015039 -1007460.000000 0 0 1
-29.880085 -14.430205 16.581719 37.094524 0.449904 1.107373 -0.003130 -0.011718 277807.000000 0 0 1
-31.139935 -14.594505 15.947019 37.907817 0.438275 1.136603 0.010607 -0.012767 201506.000000 0 0 1
-32.324285 -14.540905 16.688119 39.176404 0.422725 1.130758 0.003071 -0.010407 -704006.000000 0 0 1
-32.770915 -13.124405 17.152719 39.247913 0.380928 1.118497 0.000858 -0.007906 -925980.000000 0 0 1
-33.943525 -13.283005 17.905119 40.610275 0.373007 1.114194 -0.001027 -0.010516 23525.200000 0 0 1
-34.513715 -12.033405 18.321619 40.886197 0.335477 1.106143 0.000568 -0.005163 -157366.000000 0 0 1
34.234827 -12.108505 19.456519 41.197032 -0.339958 1.078921 0.005013 0.003576 -772261.000000 0 0 1
34.841500 -12.445505 20.655919 42.373196 -0.343078 1.061600 -0.001548 0.000274 192090.000000 0 0 1
34.045008 -12.140005 21.796319 42.208078 -0.342531 1.028153 -0.001635 -0.002766 -616731.000000 0 0 1
34.722843 -12.702205 23.124119 43.609021 -0.350696 1.011889 0.004203 -0.000795 666202.000000 0 0 1
-33.839945 -12.023605 23.579419 42.961587 0.341396 0.989810 -0.005612 0.002148 480365.000000 0 0 1
-32.703415 -12.538905 22.910919 41.852691 0.366126 0.991520 -0.006995 -0.003108 -256008.000000 0 0 1
-31.395485 -11.702005 22.954019 40.614042 0.356778 0.970152 0.001098 -0.000133 343006.000000 0 0 1
-31.548805 -10.472305 22.303219 40.030362 0.320496 0.979837 0.008702 0.002161 -555427.000000 0 0 1
-30.320785 -9.837905 22.234619 38.865315 0.313744 0.961739 0.006922 0.003362 -934906.000000 0 0 1
-30.406625 -8.503205 21.448619 38.169499 0.272684 0.974078 0.005106 0.013514 29831.000000 0 0 1
-30.559055 -8.646805 20.044519 37.555370 0.275746 1.007788 0.001543 0.016962 -248231.000000 0 0 1
-31.845465 -8.997105 19.640719 38.481676 0.275348 1.035156 0.003240 0.006846 -827960.000000 0 0 1
-32.184165 -8.866005 18.099519 37.973927 0.268810 1.073979 0.006186 0.007279 -223134.000000 0 0 1
-33.566125 -8.966905 17.827519 39.050104 0.261046 1.096706 -0.000087 0.006022 217914.000000 0 0 1
-33.788935 -8.582705 16.485619 38.563332 0.248749 1.129077 0.007857 0.007810 -314147.000000 0 0 1
34.484550 -8.619405 16.047219 38.999892 -0.244931 1.146732 0.008003 0.007448 -316375.000000 0 0 1
33.847346 -9.869405 16.027519 38.728922 -0.283720 1.144130 0.004576 0.013941 688745.000000 0 0 1
32.420318 -9.698605 15.957319 37.413581 -0.290679 1.130164 -0.002681 0.003798 737713.000000 0 0 1
31.714138 -11.079005 16.032919 37.223453 -0.336086 1.125505 -0.000435 -0.002535 -238394.000000 0 0 1
31.612478 -11.717205 17.283819 37.886305 -0.354953 1.097073 -0.011294 -0.002824 236598.000000 0 0 1
30.480288 -12.569005 17.347319 37.255300 -0.391120 1.086446 -0.016921 -0.000085 27271.200000 0 0 1
30.186598 -13.041205 18.793719 37.874894 -0.407801 1.051574 -0.016458 0.001249 587245.000000 0 0 1
31.195808 -13.984905 19.217419 39.218175 -0.421435 1.058692 -0.006412 0.000465 559717.000000 0 0 1
31.181128 -13.994605 20.601019 39.906312 -0.421869 1.028348 -0.007216 0.004746 -352667.000000 0 0 1
31.843168 -15.249305 21.246919 41.206313 -0.446616 1.029062 -0.014427 0.011130 -97987.500000 0 0 1
31.856288 -15.186205 22.676519 41.948402 -0.444842 0.999668 -0.013435 0.008212 -77274.800000 0 0 1
32.267138 -16.489005 23.086719 42.965709 -0.472421 1.003530 -0.009183 0.018737 99422.500000 0 0 1
32.784548 -16.590505 24.566879 44.199582 -0.468473 0.981451 0.005569 0.009014 828060.000000 0 0 1
33.791175 -15.582005 24.818189 44.727899 -0.432068 0.982589 0.006749 0.007633 515902.000000 0 0 1
34.178918 -15.497805 26.188519 45.762637 -0.425704 0.961527 0.008033 0.008382 -113797.000000 0 0 1
-34.579847 -14.320305 26.403129 45.803517 0.392622 0.956427 0.012587 -0.000127 65779.800000 0 0 1
-33.251495 -14.663205 26.039269 44.706991 0.415327 0.949066 -0.004734 0.001708 -262258.000000 0 0 1
-32.345455 -13.751905 26.534819 44.039074 0.402004 0.924130 -0.001285 -0.002231 -1400650.000000 0 0 1
-30.902415 -14.116605 26.367429 43.005571 0.428505 0.910797 -0.009162 0.004399 -1295980.000000 0 0 1
-30.485845 -14.167405 25.004549 41.896654 0.435028 0.931271 -0.011343 0.007330 -626344.000000 0 0 1
-29.159185 -14.541705 24.822729 40.962021 0.462608 0.919782 -0.007145 -0.005977 -466007.000000 0 0 1
-28.780125 -16.095705 24.921049 41.333110 0.509928 0.923625 -0.005161 -0.006028 -373636.000000 0 0 1
-28.853895 -16.491905 26.247229 42.349111 0.519250 0.902331 0.000648 -0.008487 168259.000000 0 0 1
-28.737635 -17.933905 26.498959 43.007807 0.557920 0.906960 0.002793 -0.014761 -352458.000000 0 0 1
-28.596435 -18.143805 28.046029 43.971963 0.565386 0.879137 0.003795 -0.013990 -140650.000000 0 0 1
-27.442205 -17.572105 28.614249 43.366217 0.569548 0.850206 0.008718 -0.017533 -47319.600000 0 0 1
-27.303855 -18.090205 29.929349 44.368029 0.585148 0.830414 0.005586 -0.017030 -272639.000000 0 0 1
-26.063915 -17.640705 30.722189 43.981531 0.595002 0.797462 0.015829 -0.022336 -215989.000000 0 0 1
-26.074385 -16.260305 31.054679 43.688261 0.557601 0.780127 0.020057 -0.027941 604019.000000 0 0 1
-24.773615 -15.661005 30.883959 42.577201 0.563735 0.759234 0.016879 -0.019866 659992.000000 0 0 1
-24.728015 -14.221205 31.424039 42.440401 0.521913 0.737090 0.023517 -0.019944 -239000.000000 0 0 1
-24.324715 -14.134005 32.746359 43.171587 0.526373 0.709763 0.031743 -0.017745 96709.000000 0 0 1
-24.222115 -12.775405 33.151509 42.999354 0.485348 0.690423 0.037629 -0.009993 -579756.000000 0 0 1
-23.545715 -12.681805 34.534394 43.678980 0.494051 0.658941 0.035567 -0.006700 -328217.000000 0 0 1
-22.143215 -12.735905 34.526206 42.948623 0.521955 0.636980 0.017253 -0.003609 62942.700000 0 0 1
-21.491815 -13.997105 34.339358 42.860338 0.577272 0.641512 0.017096 -0.003961 -372169.000000 0 0 1
-21.451715 -14.907105 -33.624593 42.579468 0.607305 2.481100 0.014543 0.000308 -785343.000000 0 0 1
-20.424015 -14.615105 -32.726233 41.252249 0.621109 2.487039 -0.004365 0.002169 -256855.000000 0 0 1
-20.545715 -15.432205 -31.553303 40.692632 0.644215 2.458154 0.006390 0.011339 -245273.000000 0 0 1
-19.284015 -15.459005 -30.678323 39.395603 0.675745 2.463427 -0.010176 0.010196 -106417.000000 0 0 1
-18.999815 -14.481705 -29.655473 38.080964 0.651265 2.463464 -0.013166 0.015918 -331275.000000 0 0 1
-19.717415 -14.658205 -28.510313 37.636118 0.639273 2.430310 -0.014563 0.012372 -540084.000000 0 0 1
-19.554315 -13.534805 -27.459013 36.325743 0.605448 2.427840 -0.021081 0.010366 1290950.000000 0 0 1
-18.172615 -13.366805 -27.033273 35.209562 0.634187 2.446169 -0.001961 0.010105 1254870.000000 0 0 1
-18.011015 -12.137905 -26.268613 34.084680 0.593004 2.450715 -0.015116 0.003464 461076.000000 0 0 1
-16.646115 -12.070205 -25.520563 32.773192 0.627378 2.463391 -0.000814 0.006543 -54482.700000 0 0 1
-16.537715 -12.883105 -24.384223 32.156815 0.661813 2.431484 0.008817 0.004017 -84019.600000 0 0 1
-15.381115 -12.762605 -23.567523 30.901309 0.692625 2.438229 0.020745 0.002131 182649.000000 0 0 1
-14.103615 -13.440705 -24.102123 30.991561 0.761336 2.461794 -0.003751 0.005267 -419577.000000 0 0 1
-13.419415 -12.705105 -25.095103 31.165118 0.758062 2.506860 -0.008639 -0.001558 73636.000000 0 0 1
-12.682715 -13.462305 -26.059693 31.956103 0.815207 2.524361 -0.016887 0.009365 369579.000000 0 0 1
-11.990315 -12.607205 -27.136853 32.235354 0.810472 2.571471 -0.011379 0.017804 -598284.000000 0 0 1
-12.910315 -11.790805 -27.785363 32.828733 0.740107 2.579935 -0.007283 0.012469 -369543.000000 0 0 1
-12.402615 -10.835105 -28.687493 33.078643 0.718045 2.620451 -0.004027 -0.000365 2342.400000 0 0 1
-11.635815 -11.312805 -29.973973 34.085346 0.771324 2.645355 0.001996 0.005605 205121.000000 0 0 1
-11.196515 -10.207205 -30.717563 34.250805 0.739210 2.683374 -0.004212 0.002623 -162804.000000 0 0 1
-10.711715 -10.638705 -31.935423 35.324130 0.781979 2.699991 0.002362 0.000072 -217178.000000 0 0 1
-10.166315 -9.409105 -32.748293 35.557502 0.746736 2.741424 0.005368 0.001939 305594.000000 0 0 1
-8.858515 -8.942805 -32.441993 34.798419 0.790133 2.771472 0.000664 -0.001147 44867.300000 0 0 1
-8.516915 -7.705805 -32.996373 34.938201 0.735441 2.806625 0.003482 0.002481 815994.000000 0 0 1
-7.028215 -7.359905 -32.603253 34.154591 0.808447 2.839040 0.012410 0.006690 675698.000000 0 0 1
-6.784115 -7.179105 -31.177233 32.704489 0.813678 2.834781 0.006747 -0.003561 -167659.000000 0 0 1
-6.985515 -5.913505 -30.636403 31.974305 0.702481 2.851289 0.001044 -0.005678 65095.000000 0 0 1
-6.021615 -4.721905 -31.011493 31.941649 0.665007 2.899672 0.011584 0.001470 737160.000000 0 0 1
-4.656615 -4.791705 -30.613053 31.333744 0.799695 2.926701 0.034238 -0.001124 185018.000000 0 0 1
-4.068915 -3.564405 -30.887583 31.357676 0.719401 2.968221 0.043307 -0.008261 -1055970.000000 0 0 1
-2.596815 -3.492405 -30.570913 30.879136 0.931429 3.000184 0.026078 -0.003436 -1169630.000000 0 0 1
-1.785115 -4.037805 -31.626093 31.932746 1.154531 3.002895 0.024627 -0.011315 586822.000000 0 0 1
-0.401215 -3.716405 -31.656423 31.876351 1.463255 3.024057 0.001602 0.002564 704583.000000 0 0 1
0.100385 -2.242105 -31.547973 31.627705 -1.526054 3.070571 -0.005591 0.003557 -683527.000000 0 0 1
0.245885 -1.709905 -30.307213 30.356406 -1.427975 3.084655 0.005644 -0.004304 -156652.000000 0 0 1
0.805685 -0.459205 -30.369343 30.383499 -0.518035 3.111066 -0.007972 0.009134 -178772.000000 0 0 1
0.929985 0.275095 -29.027243 29.043440 0.287605 3.108194 -0.001519 0.006927 608759.000000 0 0 1
-0.287115 0.874695 -28.564663 28.579494 -1.253631 3.109375 0.012751 0.002436 192429.000000 0 0 1
-0.174715 2.253995 -28.606163 28.695358 -1.493437 3.062726 0.014051 -0.000381 -705508.000000 0 0 1
-1.378115 3.113295 -28.298253 28.502332 -1.154067 3.021854 0.010401 0.001527 150412.000000 0 0 1
-2.480915 2.924195 -29.219153 29.469726 -0.867226 3.011095 0.004745 0.000566 612172.000000 0 0 1
-3.524415 3.843295 -28.958373 29.424136 -0.828652 2.963429 0.024142 -0.004900 644010.000000 0 0 1
-4.529215 3.893995 -30.194683 30.779797 -0.710128 2.946297 0.030337 -0.005057 681095.000000 0 0 1
-3.972815 4.625795 -31.320073 31.908122 -0.861193 2.949310 0.028679 -0.000848 -282152.000000 0 0 1
-4.953015 5.034495 -32.191693 32.957300 -0.793556 2.925626 0.030612 -0.002528 -1424730.000000 0 0 1
-4.452215 5.823295 -33.385603 34.180864 -0.918046 2.925458 0.028688 0.006698 -86799.100000 0 0 1
-3.947115 5.091695 -34.496687 35.093112 -0.911357 2.956964 0.036870 0.000260 565833.000000 0 0 1
-2.928015 4.125195 -34.213661 34.585620 -0.953531 2.994800 0.033817 -0.000274 -418871.000000 0 0 1
-2.375415 3.437495 33.756954 34.014570 -0.966115 0.123152 0.030427 -0.003870 175674.000000 0 0 1
-3.326215 2.546695 33.175399 33.438847 -0.653438 0.125609 0.043979 -0.010626 253622.000000 0 0 1
-2.844215 1.879295 32.001859 32.182920 -0.583890 0.106125 0.055925 -0.018533 -23248.500000 0 0 1
-2.567015 2.776695 30.765769 30.997293 -0.824617 0.122299 0.054840 -0.019973 -10597.500000 0 0 1
-3.704415 3.518095 30.350479 30.777448 -0.759607 0.166763 0.038235 -0.019914 123161.000000 0 0 1
-3.392515 4.358395 29.256269 29.773043 -0.909374 0.186588 0.038976 -0.025512 320513.000000 0 0 1
-4.639115 5.242395 28.910999 29.746428 -0.846374 0.237560 0.029311 -0.019507 406436.000000 0 0 1
-4.725615 5.790695 27.632619 28.625605 -0.886333 0.264163 0.030397 -0.005369 -237622.000000 0 0 1
-5.794515 6.710295 27.580009 28.970008 -0.858502 0.311028 0.017713 -0.002344 -354793.000000 0 0 1
-5.888715 7.459195 26.225979 27.894777 -0.902517 0.347652 0.019251 -0.002572 -553717.000000 0 0 1
-4.722015 8.172695 25.944009 27.607644 -1.046876 0.348927 0.008646 -0.004529 -366246.000000 0 0 1
-4.899015 9.117695 24.922209 26.986093 -1.077749 0.393636 0.016087 -0.002638 -103391.000000 0 0 1
-4.207515 10.456195 25.164759 27.573544 -1.188227 0.421096 0.019940 -0.007016 -537096.000000 0 0 1
-4.402815 11.366595 24.068619 26.979302 -1.201245 0.468793 0.025871 -0.007007 -64822.200000 0 0 1
-3.826415 12.619295 24.175819 27.538306 -1.276389 0.499342 0.021365 0.001645 417324.000000 0 0 1
-2.259015 12.853195 24.272059 27.557951 -1.396818 0.493323 0.026457 -0.002192 536464.000000 0 0 1
-1.613615 12.464995 25.466199 28.399070 -1.442061 0.458479 0.027817 -0.007616 -104160.000000 0 0 1
-1.984815 13.180295 26.582269 29.736791 -1.421330 0.464784 0.028516 -0.004598 -1107380.000000 0 0 1
-1.197815 12.751195 27.825289 30.631266 -1.477134 0.431367 0.019494 0.002334 -459692.000000 0 0 1
0.146085 13.062995 27.591679 30.528085 1.559614 0.442199 0.012679 0.008315 -608905.000000 0 0 1
0.920685 12.670895 28.738739 31.421559 1.498262 0.416233 0.016322 0.005994 169343.000000 0 0 1
2.413685 13.025895 28.624179 31.541139 1.387576 0.433458 0.016530 0.006370 24276.400000 0 0 1
2.771085 14.411895 28.696599 32.231606 1.380837 0.472738 0.011918 0.012691 32190.900000 0 0 1
4.171585 14.565195 28.651399 32.410642 1.291856 0.486420 0.012005 0.010391 -181204.000000 0 0 1
4.696885 15.995495 28.624619 33.125299 1.285186 0.527374 0.012761 0.014155 -419284.000000 0 0 1
4.683385 16.627195 29.934319 34.560978 1.296240 0.523388 0.014287 0.020754 281125.000000 0 0 1
3.435385 17.109395 30.395739 35.049026 1.372642 0.521175 0.006393 0.020268 -266437.000000 0 0 1
3.081485 18.514395 29.849899 35.260387 1.405871 0.561314 0.020282 0.022603 -253963.000000 0 0 1
3.831385 19.581395 30.354919 36.325359 1.377573 0.581500 0.030013 0.023404 330339.000000 0 0 1
5.095285 19.783095 29.715689 36.060435 1.318717 0.602269 0.023856 0.023692 271862.000000 0 0 1
6.057085 20.680295 30.535949 37.373883 1.285874 0.614538 0.030208 0.020107 -95237.000000 0 0 1
5.689485 22.062295 30.734509 38.258661 1.318413 0.637923 0.029391 0.010507 15060.300000 0 0 1
6.654685 22.762395 31.478849 39.412300 1.286369 0.645654 0.010887 0.000030 -256489.000000 0 0 1
6.754785 24.214295 30.900759 39.834861 1.298754 0.682939 0.009333 0.001702 -156900.000000 0 0 1
7.412085 24.245795 29.654989 39.015586 1.274113 0.707359 0.002749 0.008347 174599.000000 0 0 1
7.746885 25.558695 29.276499 39.627952 1.276496 0.739532 -0.004257 0.008706 73966.100000 0 0 1
8.383585 25.646895 27.873839 38.794312 1.254860 0.769148 -0.000726 0.008678 -22409.100000 0 0 1
7.427385 25.598295 26.836569 37.823805 1.288399 0.781986 -0.004426 0.008476 205450.000000 0 0 1
8.036985 25.481195 25.575909 36.986641 1.265264 0.807246 0.006746 0.002671 -542944.000000 0 0 1
28.258638 2.159095 6.914677 29.172334 0.076257 1.331490 0.001482 0.005453 -86723.900000 0 0 1
28.521988 2.704295 8.180877 29.795029 0.094532 1.292652 -0.005485 0.007378 -156305.000000 0 0 1
27.463668 2.614795 9.091877 29.047417 0.094923 1.252445 -0.003621 0.004141 -736484.000000 0 0 1
27.725168 3.384095 10.359277 29.790127 0.121458 1.215635 -0.008742 0.008666 -212680.000000 0 0 1
27.521898 4.782295 10.379077 29.800176 0.172045 1.215051 -0.006799 0.001533 363994.000000 0 0 1
28.533808 5.538795 9.689577 30.638936 0.191729 1.249022 -0.001167 -0.002497 64631.600000 0 0 1
28.344608 7.078695 9.470777 30.711893 0.244731 1.257312 -0.003609 -0.002455 53317.100000 0 0 1
27.474568 7.573295 8.475877 29.732931 0.268968 1.281720 0.012725 -0.004465 60291.800000 0 0 1
27.820668 8.926795 8.294677 30.372338 0.310491 1.294183 0.007927 -0.004549 60457.700000 0 0 1
27.317318 9.498995 6.988577 29.754109 0.334649 1.333704 0.014277 0.000200 855683.000000 0 0 1
26.003888 10.112495 7.016077 28.769604 0.370887 1.324441 0.018263 0.005459 1042110.000000 0 0 1
25.511458 10.243595 5.704477 28.076802 0.381824 1.366198 0.017794 -0.006352 -150612.000000 0 0 1
24.027288 10.621095 5.598277 26.859988 0.416217 1.360833 0.002781 0.002746 -416595.000000 0 0 1
23.666288 11.892795 6.027977 27.163731 0.465662 1.347021 -0.001001 0.003563 830909.000000 0 0 1
22.231188 11.993795 6.015077 25.966479 0.494748 1.337025 -0.001199 0.012859 873785.000000 0 0 1
21.680988 13.392695 6.424377 26.281213 0.553344 1.323846 -0.001973 0.017784 -885784.000000 0 0 1
21.901988 14.362695 5.374677 26.737077 0.580422 1.368398 -0.006844 0.015832 290880.000000 0 0 1
21.952088 15.692695 5.882077 27.617996 0.620630 1.356173 0.013143 0.019474 -183775.000000 0 0 1
21.663788 16.636995 4.742077 27.723575 0.654899 1.398903 0.035470 0.004411 607819.000000 0 0 1
20.292588 16.588095 4.308277 26.561538 0.685289 1.407877 0.032383 0.009554 1030770.000000 0 0 1
20.117288 17.587395 3.306977 26.925042 0.718401 1.447664 0.034094 0.001824 17061.900000 0 0 1
18.660488 17.694195 2.797977 25.867490 0.758825 1.462419 0.020088 0.006383 -117708.000000 0 0 1
17.810888 18.253795 3.760577 25.779269 0.797678 1.424398 0.017408 0.001485 149604.000000 0 0 1
16.462988 18.299695 3.307277 24.836403 0.838185 1.437237 0.011708 -0.005154 -206609.000000 0 1 0
15.672988 19.223095 4.218477 25.158806 0.886783 1.402327 0.015268 -0.016293 1181220.000000 0 0 1
14.234688 19.103595 3.935577 24.146687 0.930418 1.407080 0.008120 -0.017875 1827550.000000 0 1 0
13.608588 20.263195 4.453477 24.811776 0.979392 1.390328 0.001738 -0.018059 -1346930.000000 0 1 0
12.131688 20.212495 4.193177 23.943800 1.030224 1.394763 -0.005427 -0.013761 -1110740.000000 0 1 0
11.476688 19.490095 5.242577 23.217726 1.038618 1.343032 -0.010022 -0.015720 1667630.000000 0 1 0
10.029588 19.419795 5.031177 22.428416 1.094066 1.344550 -0.005629 -0.008130 1617810.000000 0 1 0
9.283688 18.870095 6.253777 21.940308 1.113586 1.281752 0.006046 -0.014541 -652632.000000 0 1 0
9.138188 19.841795 7.261077 23.020134 1.139202 1.249894 0.005770 -0.009039 -19932.800000 0 1 0
8.588288 19.210595 8.400477 22.657751 1.150390 1.190974 0.012623 -0.003895 -574819.000000 0 1 0
7.499488 19.978295 9.196877 23.236978 1.211691 1.163872 0.009186 -0.004028 1115980.000000 0 1 0
6.262588 20.233595 8.493477 22.820113 1.270634 1.189426 0.006346 -0.011443 873977.000000 0 1 0
6.288388 21.314095 7.594677 23.484327 1.283901 1.241483 0.000152 -0.008495 -427455.000000 0 1 0
4.933388 21.364295 6.822777 22.963487 1.343857 1.269127 0.002827 0.003510 535121.000000 0 1 0
3.748888 21.722095 7.508277 23.286859 1.399896 1.242506 -0.010510 0.011889 30515.400000 0 1 0
3.649688 23.061795 7.925477 24.657247 1.413841 1.243561 -0.006171 0.005819 -774172.000000 0 1 0
3.681088 24.235795 6.908477 25.468632 1.420062 1.296100 -0.010739 0.003571 -1264720.000000 0 0 1
2.627388 24.279795 6.036477 25.156524 1.463003 1.328475 0.002688 0.003937 -707904.000000 0 0 1
2.789988 25.301795 5.085977 25.958275 1.460972 1.373592 0.001186 0.007519 -103721.000000 0 0 1
1.538588 25.519795 4.199477 25.908740 1.510579 1.407991 -0.001020 0.008444 -136474.000000 0 0 1
0.504388 26.170795 4.885977 26.627762 1.551526 1.386259 0.005024 0.009805 -615753.000000 0 0 1
-0.559512 26.457695 4.036777 26.769727 -1.549652 1.419423 0.007514 0.009010 -487797.000000 0 0 1
-1.704512 27.230495 4.708977 27.687176 -1.508282 1.399888 -0.000134 0.008831 159073.000000 0 0 1
-2.653712 27.657995 3.737977 28.035323 -1.475142 1.437067 0.016114 0.002759 190349.000000 0 0 1
-3.866112 28.130595 4.291177 28.717441 -1.434218 1.420807 0.009549 -0.004332 90253.100000 0 0 1
-4.719712 28.792595 3.166877 29.348225 -1.408320 1.462679 0.003735 -0.009945 -53809.900000 0 0 1
-4.102612 29.912795 2.594777 30.304119 -1.434494 1.485067 0.003076 -0.006654 10306.100000 0 0 1
-4.744012 30.167295 1.390877 30.569689 -1.414817 1.525282 0.010280 -0.006486 -218288.000000 0 0 1
-4.082912 31.278795 0.554777 31.549025 -1.440997 1.553211 0.005532 -0.006951 -174630.000000 0 0 1
-4.232112 32.591695 1.098877 32.883687 -1.441666 1.537373 0.007537 0.004920 308659.000000 0 0 1
-3.304912 32.929595 2.130577 33.163535 -1.470768 1.506507 0.001053 -0.004026 344939.000000 0 0 1
-2.329512 34.147995 1.853977 34.277535 -1.502684 1.516683 0.004678 0.002721 125518.000000 0 0 1
-1.355512 33.958595 0.839077 33.995995 -1.530901 1.546112 -0.005679 0.006348 515913.000000 0 0 1
-0.362512 -34.525801 0.870477 34.538675 1.560297 1.545591 -0.009274 0.004805 954007.000000 0 0 1
0.801788 -34.636601 1.920677 34.699078 -1.547652 1.515416 -0.015605 0.005765 -287109.000000 0 0 1
0.437888 -34.420501 3.272777 34.578515 -1.558075 1.476007 -0.009981 0.005030 -99382.700000 0 0 1
1.422688 34.667695 4.189977 34.948949 1.529781 1.450619 -0.016622 0.005379 -24609.100000 0 0 1
1.004088 -34.610901 5.675377 35.087499 -1.541794 1.408333 -0.015661 0.001786 -361337.000000 0 0 1
0.101288 33.974195 6.197177 34.534927 1.567815 1.390372 -0.016817 -0.002403 -244948.000000 0 0 1
-0.359412 34.403195 7.500977 35.213260 -1.560350 1.356136 -0.014432 -0.008040 -178110.000000 0 0 1
0.650388 34.282795 8.638177 35.360305 1.551827 1.324009 -0.011364 0.001119 -340129.000000 0 0 1
0.885388 32.916195 8.827877 34.090926 1.543905 1.308860 -0.011411 -0.004615 -245368.000000 0 0 1
2.074688 32.636995 9.520277 34.060438 1.507313 1.287511 -0.007335 0.003382 -374331.000000 0 0 1
2.489988 31.149895 9.299677 32.603681 1.491030 1.281546 -0.011116 0.003892 -58657.300000 0 0 1
1.819188 30.264295 10.148477 31.972310 1.510759 1.247795 -0.012787 -0.001573 319625.000000 0 0 1
2.403588 28.976595 9.975977 30.739883 1.488036 1.240283 -0.010950 -0.000623 -119743.000000 0 0 1
2.055888 28.100095 11.164477 30.306560 1.497763 1.193525 -0.015607 -0.007188 -116529.000000 0 0 1
2.770388 28.464895 12.349977 31.152002 1.473775 1.163158 -0.007694 0.004721 -92127.900000 0 0 1
2.606488 27.631995 13.496177 30.862076 1.476746 1.118195 -0.002290 0.000967 -627539.000000 0 0 1
1.211088 27.262695 14.076077 30.705980 1.526403 1.094586 -0.016491 -0.002641 -4452.760000 0 0 1
0.568388 28.347895 14.739977 31.956113 1.550749 1.091385 -0.005752 -0.002705 150013.000000 0 0 1
0.155488 29.458795 13.938777 32.590402 1.565518 1.128854 -0.004112 -0.005434 -1099050.000000 0 0 1
-0.626212 30.465895 14.751877 33.855292 -1.550245 1.119944 -0.003526 0.000785 -696579.000000 0 0 1
-1.867712 30.023795 15.205277 33.706336 -1.508669 1.102787 -0.009376 0.005513 -354126.000000 0 0 1
-2.561412 31.120695 15.817477 35.003587 -1.488676 1.101923 -0.012917 0.008904 135950.000000 0 0 1
-3.971212 30.701195 16.281377 34.977381 -1.442160 1.086616 -0.007417 0.015671 286815.000000 0 0 1
-4.953512 30.297695 15.322277 34.311220 -1.408735 1.107871 -0.000848 0.011227 752580.000000 0 0 1
-6.102912 29.804295 16.017277 34.381604 -1.368822 1.086181 0.011574 0.015703 63995.100000 0 0 1
-7.319812 29.774895 15.060577 34.160577 -1.329738 1.114222 -0.002600 0.010946 402690.000000 0 0 1
-8.544212 29.411095 15.721877 34.426639 -1.288069 1.096539 -0.007476 0.013207 380178.000000 0 0 1
-9.508312 29.036895 14.752677 33.929202 -1.254344 1.120972 0.007913 0.008060 -175719.000000 0 0 1
-10.802312 28.495095 15.368477 34.129906 -1.208441 1.103702 -0.002409 0.011792 -380258.000000 0 0 1
-11.527612 29.302095 16.266477 35.441457 -1.195988 1.093964 -0.003391 0.012828 312606.000000 0 0 1
-10.917112 29.519895 17.553577 36.037975 -1.216573 1.062047 0.004908 0.013360 -514945.000000 0 0 1
-11.553812 30.654895 18.389277 37.568320 -1.210361 1.059293 0.012888 0.013061 -40646.600000 0 0 1
-12.867112 30.360195 18.832577 37.973280 -1.169930 1.051876 0.006475 0.015738 207404.000000 0 0 1
-13.374812 31.565295 19.368777 39.375157 -1.170011 1.056522 0.012231 0.010480 -49094.400000 0 0 1
-14.459912 31.324395 20.424577 40.093268 -1.138323 1.036278 0.010503 0.012871 60312.700000 0 0 1
-13.914012 31.191995 21.718677 40.475193 -1.151210 1.004403 0.026494 0.010474 26081.400000 0 0 1
-14.903112 30.746695 22.620977 40.977684 -1.119459 0.985998 0.027087 0.006997 -180505.000000 0 0 1
-14.504612 30.605195 24.073877 41.552537 -1.128224 0.952853 0.044330 -0.000851 -169573.000000 0 0 1
-13.435112 29.654395 24.270177 40.606981 -1.145404 0.930186 0.039505 0.000450 974781.000000 0 0 1
-12.944612 29.475895 25.615877 41.140789 -1.156994 0.898685 0.046171 0.002376 255155.000000 0 0 1
-12.378112 30.779095 26.324377 42.350244 -1.188430 0.900029 0.048206 -0.004369 -137160.000000 0 0 1
-13.402212 31.697095 26.731777 43.576519 -1.170772 0.910381 0.044378 -0.000124 822868.000000 0 0 1
-12.892112 33.047495 26.990777 44.574045 -1.198846 0.920369 0.041295 -0.003651 321714.000000 0 0 1
-14.043912 33.960195 27.528377 45.916640 -1.178672 0.927883 0.039495 -0.002671 658286.000000 0 0 1
-14.692912 33.570895 28.737577 46.569679 -1.158245 0.905760 0.010931 -0.001786 342760.000000 0 0 1
-13.853712 33.654495 29.891877 47.096440 -1.180291 0.883183 0.014042 0.015442 278959.000000 0 0 1
-14.524112 32.929695 31.155177 47.602098 -1.155398 0.857286 0.001186 0.010438 279488.000000 0 0 1
-15.760312 33.484495 31.540977 48.625426 -1.130883 0.864984 -0.011469 0.020268 -278021.000000 0 0 1
-16.185112 32.829795 32.734377 49.104916 -1.112764 0.841130 -0.018249 0.021142 488601.000000 0 0 1
-17.578712 33.249595 33.276877 50.218495 -1.084461 0.846456 -0.020548 0.017473 323380.000000 0 0 1
-17.706312 34.615495 33.644977 51.417220 -1.097980 0.857471 -0.007039 0.016060 -113278.000000 0 0 1
-19.093312 34.739195 33.899477 52.158803 -1.068246 0.863306 -0.004935 0.002961 -221992.000000 0 0 1
-19.514012 -33.347101 34.161377 51.573496 1.041346 0.846802 0.003465 0.002978 -411562.000000 0 0 1
-19.056412 -32.715701 -33.947265 50.851556 1.043355 2.301744 0.014434 0.008437 -94563.500000 0 0 1
-19.825512 -33.001401 -32.778965 50.562871 1.029827 2.276121 0.010326 0.011173 173315.000000 0 0 1
-19.484612 -32.158801 -31.533465 49.073394 1.026059 2.268654 0.016304 0.004183 -12232.800000 0 0 1
-19.855012 -30.861301 -31.695265 48.489496 0.999101 2.283197 0.025971 0.000017 72332.100000 0 0 1
-19.049812 -30.017201 -30.869765 47.083650 1.005302 2.285822 0.032600 0.002262 336806.000000 0 0 1
-19.513212 -28.518001 -31.015865 46.433024 0.970725 2.302274 0.033710 -0.001636 -159429.000000 0 0 1
-20.782312 -28.168501 -30.539265 46.454447 0.935158 2.288163 0.025185 -0.004875 -435685.000000 0 0 1
-20.932312 -26.769001 -30.557365 45.700040 0.907152 2.303189 0.026409 -0.005910 637485.000000 0 0 1
-22.203612 -26.298701 -29.766765 45.504751 0.869629 2.283850 0.033519 -0.010851 437618.000000 0 0 1
-22.110412 -26.541001 -28.400865 44.720288 0.876216 2.258906 0.030370 -0.009489 -22465.200000 0 0 1
-21.265012 -25.636301 -27.727765 43.338777 0.878332 2.265023 0.035141 -0.011201 -319173.000000 0 0 1
-21.092112 -25.974501 -26.226465 42.513285 0.888762 2.235595 0.035026 -0.003826 476326.000000 0 0 1
-22.330812 -25.903601 -25.505765 42.663870 0.859335 2.211588 0.030498 -0.003386 525160.000000 0 0 1
-22.192312 -26.010201 -24.106965 41.835093 0.864438 2.184914 0.024405 0.005137 -1433610.000000 0 0 1
-23.466712 -25.608701 -23.372065 41.865804 0.829017 2.163085 0.020849 0.001095 487185.000000 0 0 1
-24.666112 -26.385801 -23.556465 43.122322 0.819071 2.148702 0.014307 0.001438 392033.000000 0 0 1
-24.533512 -27.826601 -23.548065 43.940008 0.848209 2.136386 0.021796 0.008730 -1886550.000000 0 0 1
-25.859512 -28.577301 -23.540865 45.161364 0.835282 2.119124 0.001828 0.005989 31474.400000 0 0 1
-26.613012 -28.544201 -22.333665 44.964613 0.820396 2.090582 -0.002777 0.012309 217013.000000 0 0 1
-27.464312 -27.393101 -22.224365 44.705624 0.784100 2.091081 -0.000181 0.012298 -278468.000000 0 0 1
-27.984512 -27.211101 -20.813565 44.235522 0.771387 2.060673 -0.003760 0.021798 -140783.000000 0 0 1
-28.873612 -28.222201 -20.379665 45.227302 0.773990 2.038240 -0.011489 0.021299 48326.900000 0 0 1
-29.201112 -28.071801 -19.012165 44.745875 0.765683 2.009639 -0.021319 0.031726 -862854.000000 0 0 1
-30.116812 -29.216901 -18.509965 45.861405 0.770232 1.986252 -0.020168 0.025622 339753.000000 0 0 1
-31.423512 -29.224801 -19.084565 46.965378 0.749161 1.989256 -0.020274 0.017116 1032090.000000 0 0 1
-32.385412 -28.177301 -18.854365 46.885630 0.716026 1.984644 -0.027103 0.023417 44911.400000 0 0 1
-32.821512 -27.869301 -17.383865 46.434344 0.703981 1.954519 -0.017610 0.028173 -446585.000000 0 0 1
-31.839212 -27.204001 -16.594265 45.046229 0.707053 1.948065 -0.018697 0.026190 278785.000000 0 0 1
-32.346612 -26.584601 -15.426365 44.620814 0.687933 1.923804 -0.012821 0.024533 -47441.100000 0 0 1
-32.147712 -27.339501 -14.116065 44.499292 0.704746 1.893593 0.006854 0.024060 152081.000000 0 0 1
-32.995112 -28.488601 -13.980365 45.779126 0.712233 1.881141 0.004303 0.018516 400979.000000 0 0 1
-32.945312 -29.135901 -12.743465 45.789630 0.724113 1.852825 -0.004107 0.004449 2563.780000 0 0 1
-33.662812 -30.499901 -12.720465 47.172440 0.736143 1.843835 0.003180 0.005975 -114010.000000 0 0 1
-33.083912 -31.277701 -13.684665 47.540613 0.757342 1.862780 -0.001432 -0.004276 40235.600000 0 0 1
-33.436912 -32.627601 -13.466365 48.620267 0.773148 1.851436 -0.001542 -0.006347 -341235.000000 0 0 1
-32.862912 -33.692901 -14.420565 49.225352 0.797868 1.868107 -0.010168 0.011170 -206928.000000 0 0 1
-31.508512 -34.048401 -14.218365 48.520530 0.824122 1.868199 -0.013878 0.010050 237939.000000 0 0 1
-30.971212 -34.670601 -15.384665 48.968913 0.841696 1.890381 -0.000171 -0.005858 -1087830.000000 0 0 1
-29.564512 34.356695 -15.369465 47.860875 -0.860228 1.897717 -0.017716 0.002534 -1055740.000000 0 0 1
-29.144912 33.508395 -16.462265 47.362903 -0.854931 1.925782 -0.002544 0.000686 199117.000000 0 0 1
-27.844612 32.987895 -16.179765 46.101068 -0.869746 1.929396 -0.011056 0.002873 294429.000000 0 0 1
8.928685 20.550595 -8.753323 24.055541 1.160929 1.943226 0.008950 -0.006746 -2186800.000000 0 1 0
7.560585 20.501195 -8.894023 23.591632 1.217483 1.957350 0.015405 -0.007437 -1000770.000000 0 1 0
7.153585 20.544795 -10.284723 24.063207 1.235731 2.012416 0.023151 -0.009793 114426.000000 0 1 0
7.168785 19.220595 -11.050323 23.300910 1.213803 2.064902 0.016320 -0.009863 -614034.000000 0 1 0
8.421285 18.642095 -11.297623 23.368398 1.146501 2.075396 0.023849 -0.014388 -356097.000000 0 1 0
8.254285 17.565495 -12.200723 22.924604 1.131505 2.132006 0.011552 -0.020300 -450254.000000 0 1 0
9.556485 17.120195 -12.864023 23.450172 1.061680 2.151447 0.020736 -0.016328 -324460.000000 0 1 0
9.385185 15.970895 -13.663223 23.018142 1.039512 2.206303 0.020574 -0.025245 -950104.000000 0 1 0
10.475485 15.714595 -14.449023 23.779372 0.982834 2.223867 0.028820 -0.022548 -1213190.000000 0 1 0
10.359185 14.513995 -15.441623 23.588397 0.950910 2.284487 0.034247 -0.023941 -724088.000000 0 1 0
10.246985 13.240895 -14.853423 22.381827 0.912181 2.296467 0.042018 -0.028187 421930.000000 0 1 0
11.440885 12.550395 -14.489823 22.324006 0.831612 2.277156 0.044472 -0.024238 84335.900000 0 1 0
12.263585 11.872095 -15.664423 23.167139 0.769179 2.313319 0.032304 -0.020045 233331.000000 0 1 0
12.991185 12.824795 -16.461123 24.580782 0.778953 2.304567 0.022188 -0.017779 614381.000000 0 1 0
13.956085 12.135695 -17.252723 25.292367 0.715742 2.321470 0.018545 -0.019699 166498.000000 0 0 1
14.424885 12.938395 -18.478623 26.775714 0.731127 2.332460 0.004975 -0.015696 -229197.000000 0 0 1
15.266885 13.987195 -18.083923 27.490865 0.741682 2.288711 -0.002164 -0.007136 -119345.000000 0 0 1
16.049985 14.438595 -19.194523 28.887796 0.732595 2.297555 -0.000614 -0.011361 101454.000000 0 0 1
17.305485 15.240795 -18.782623 29.741361 0.722044 2.254324 0.007967 0.002266 -444050.000000 0 0 1
17.123085 16.462295 -18.117223 29.873750 0.765726 2.222397 0.006793 0.001914 11965.300000 0 0 1
16.320785 17.436495 -18.750323 30.364025 0.818437 2.236379 0.011216 0.005053 -265230.000000 0 0 1
16.384885 18.919295 -18.104923 30.890005 0.857063 2.197045 0.010897 0.011819 1072960.000000 0 0 1
17.582085 19.747795 -18.257923 32.131867 0.843349 2.175136 0.005827 0.016937 967397.000000 0 0 1
17.401485 21.035195 -17.660623 32.514439 0.879656 2.144995 0.001246 0.027304 659597.000000 0 0 1
18.583385 22.067795 -17.918623 33.961844 0.870904 2.126581 0.005127 0.019575 1145830.000000 0 0 1
19.685685 22.098495 -17.037323 34.148793 0.843079 2.093142 -0.000875 0.020800 -143311.000000 0 0 1
19.351385 22.981095 -15.963023 34.020949 0.870932 2.059194 -0.005233 0.020559 -1044290.000000 0 0 1
20.452985 23.477495 -15.051623 34.584227 0.854137 2.021075 -0.006425 0.013356 -1653300.000000 0 0 1
20.820985 22.527895 -14.078323 33.752313 0.824754 2.001056 0.001217 0.013179 285044.000000 0 0 1
21.794085 23.117895 -13.195023 34.402440 0.814865 1.964433 -0.006541 0.010505 1193240.000000 0 0 1
23.279485 23.234895 -13.667323 35.617278 0.784440 1.964626 0.002014 0.002701 -45956.600000 0 0 1
23.378885 23.981695 -14.852023 36.637093 0.798126 1.988193 -0.000720 0.006471 78766.200000 0 0 1
24.693985 24.478495 -15.100523 37.907986 0.781016 1.980510 0.007316 -0.001772 243765.000000 0 0 1
24.960285 25.019495 -16.575023 39.034886 0.786583 2.009339 0.006808 0.000973 -51296.800000 0 0 1
25.580085 23.961495 -17.375323 39.120274 0.752738 2.031023 -0.003452 0.001199 390979.000000 0 0 1
25.638585 24.299795 -18.744023 39.989442 0.758596 2.058642 0.003277 0.012094 -667788.000000 0 0 1
26.068685 23.243895 -19.800423 40.148621 0.728177 2.086536 -0.008006 0.007963 -115266.000000 0 0 1
27.475085 23.101795 -19.871923 41.030069 0.699145 2.076389 -0.006836 0.004766 -190302.000000 0 0 1
27.765785 22.284895 -20.961423 41.315089 0.676326 2.102909 -0.017163 0.006658 623342.000000 0 0 1
29.290085 22.370795 -21.285123 42.560757 0.652254 2.094524 0.005067 0.007815 413875.000000 0 0 1
29.693285 23.592495 -21.797223 43.742610 0.671403 2.092441 -0.000534 0.006495 -839767.000000 0 0 1
31.059385 23.617895 -22.029223 44.808225 0.650131 2.084761 0.000084 0.010151 -817067.000000 0 0 1
31.611385 24.914495 -22.651823 46.185678 0.667473 2.083404 0.006219 0.008125 -260329.000000 0 0 1
31.454785 25.187395 -24.035823 46.920456 0.675198 2.108619 0.004704 0.014801 -391780.000000 0 0 1
30.166785 25.204895 -24.560523 46.352356 0.696026 2.129239 -0.005286 0.017097 -1013520.000000 0 0 1
30.186985 25.425295 -26.091983 47.312697 0.699984 2.154933 0.001610 0.013366 -334417.000000 0 0 1
30.462985 26.743395 -26.494593 48.426915 0.720469 2.149698 0.004753 0.011627 805155.000000 0 0 1
29.295085 27.491395 -26.946503 48.374506 0.753646 2.161613 0.009496 0.015473 1065640.000000 0 0 1
29.010385 27.183095 -28.451023 48.887461 0.752892 2.191945 0.005798 0.015599 -16752.400000 0 0 1
28.608885 25.861595 -28.655453 48.046076 0.735005 2.209825 0.004439 0.007678 -178418.000000 0 0 1
28.296385 25.615895 -29.968523 48.528052 0.735720 2.236421 0.011192 0.006069 -224305.000000 0 0 1
27.583685 24.254795 -30.249493 47.583470 0.721270 2.259730 0.010305 0.005123 414717.000000 0 0 1
26.302885 24.117395 -29.653033 46.398199 0.742080 2.264122 0.004661 0.009292 56503.100000 0 0 1
25.648685 22.916995 -29.991133 45.634546 0.729210 2.287897 0.010385 -0.000631 458127.000000 0 0 1
24.229985 22.878995 -29.345553 44.403852 0.756728 2.292785 0.000701 0.001870 366941.000000 0 0 1
24.340285 22.777295 -27.956223 43.506379 0.752238 2.268654 0.000654 0.013359 -253222.000000 0 0 1
23.081985 22.919395 -27.370043 42.511127 0.781864 2.270293 -0.002764 0.007822 -500982.000000 0 0 1
23.023785 23.098295 -25.845713 41.612820 0.787014 2.240942 -0.002066 0.017479 -75602.000000 0 0 1
23.595585 21.998295 -25.136033 40.896171 0.750380 2.232714 -0.011768 0.004016 352780.000000 0 0 1
23.725885 22.226695 -23.756523 40.265568 0.752785 2.201850 -0.006908 0.007887 -172966.000000 0 0 1
24.134185 20.955295 -23.066623 39.416397 0.715013 2.195928 0.005770 0.009622 270712.000000 0 0 1
25.487085 20.543995 -23.217123 40.133303 0.678422 2.187685 -0.019387 0.015097 347795.000000 0 0 1
25.651785 19.154995 -22.972723 39.403983 0.641406 2.193219 0.007785 0.007110 -867961.000000 0 0 1
26.977585 18.686695 -23.532323 40.382581 0.605793 2.192886 0.011221 0.004620 -939685.000000 0 0 1
28.044885 19.016395 -22.715823 40.793964 0.595856 2.161376 0.009339 -0.006433 -379143.000000 0 0 1
29.302285 18.570495 -23.215123 41.742414 0.564871 2.160545 -0.008871 -0.001236 671637.000000 0 0 1
30.461885 18.503995 -22.191823 41.985727 0.545878 2.127695 0.000296 0.004487 242486.000000 0 0 1
31.084685 19.762095 -21.941923 42.874771 0.566292 2.108037 -0.010849 0.005420 201086.000000 0 0 1
32.327785 19.514095 -21.289623 43.348975 0.543086 2.084173 -0.021549 0.000508 518704.000000 0 0 1
32.631385 20.471295 -20.091023 43.445718 0.560287 2.051541 -0.002005 -0.004551 126576.000000 0 0 1
31.578085 20.246295 -19.169723 42.125600 0.570129 2.043237 -0.005914 -0.009960 387877.000000 0 0 1
31.553085 21.328995 -18.205723 42.213405 0.594417 2.016705 -0.015289 -0.006258 202189.000000 0 0 1
30.739485 21.109395 -16.899623 40.940442 0.601757 1.996307 0.001394 -0.019610 -278477.000000 0 0 1
31.275985 20.017395 -16.203023 40.514458 0.569331 1.982239 0.001878 -0.028573 269261.000000 0 0 1
31.117485 20.124095 -14.770123 39.892776 0.574061 1.950070 0.012071 -0.029711 -298426.000000 0 0 1
31.748285 18.925795 -14.042323 39.538919 0.537562 1.933873 0.004388 -0.031083 -773689.000000 0 0 1
33.132485 18.744695 -14.137823 40.607920 0.514855 1.926398 0.006550 -0.030877 -319274.000000 0 0 1
33.579785 17.486295 -13.565123 40.216726 0.480101 1.914844 0.010802 -0.015329 99744.900000 0 0 1
33.689785 17.584295 -12.010923 39.855631 0.481051 1.876916 0.020040 -0.019440 -184403.000000 0 0 1
34.699485 18.483795 -11.541623 40.974553 0.489450 1.856339 0.014975 -0.024159 -41558.300000 0 0 1
34.337785 19.029895 -10.244323 40.572978 0.506060 1.826050 0.008622 -0.023475 512438.000000 0 0 1
33.105385 20.000595 -10.129323 39.982415 0.543465 1.826932 0.004137 -0.020167 340064.000000 0 0 1
31.835785 19.455195 -10.311823 38.708597 0.548549 1.840448 0.021380 -0.030865 -837715.000000 0 0 1
30.815285 20.363995 -9.981023 38.260879 0.583958 1.834717 -0.003857 -0.011720 582691.000000 0 0 1
29.393285 19.823995 -10.333523 36.928819 0.593365 1.854406 -0.017648 -0.005225 358408.000000 0 0 1
29.223285 19.670295 -11.741723 37.132047 0.592446 1.892534 -0.007104 -0.018156 119014.000000 0 0 1
27.897885 19.342995 -12.136823 36.051989 0.606249 1.914151 -0.010097 -0.013679 96845.700000 0 0 1
27.703585 18.643295 -13.485323 36.012706 0.592344 1.954611 0.001879 -0.012077 -644991.000000 0 0 1
28.258785 17.384595 -13.620923 35.865201 0.551516 1.960356 0.007199 -0.009859 -84085.200000 0 0 1
28.072385 16.832095 -14.900523 35.963924 0.540123 1.997990 0.006147 0.000404 -119456.000000 0 0 1
29.361285 16.473495 -15.667623 37.134021 0.511296 2.006359 0.004773 -0.009599 -233.120000 0 0 1
29.959485 15.255495 -15.281023 36.929805 0.470984 1.997405 -0.003272 -0.005882 605754.000000 0 0 1
31.276285 15.117395 -15.818023 38.170034 0.450239 1.998090 -0.006546 -0.008860 372432.000000 0 0 1
32.120385 14.031495 -15.134323 38.179179 0.411857 1.978391 -0.004533 -0.001652 -316595.000000 0 0 1
32.616885 14.492695 -13.876323 38.294278 0.418130 1.941595 -0.000848 -0.002294 519153.000000 0 0 1
33.525085 13.555195 -13.270923 38.520021 0.384233 1.922524 0.001821 0.004006 292237.000000 0 0 1
34.388485 14.043895 -12.122223 39.073612 0.387718 1.886242 0.019874 -0.000731 414373.000000 0 0 1
-34.056119 14.523995 -12.486023 39.072579 -0.403117 1.896061 0.003438 -0.011392 523824.000000 0 0 1
-33.238019 14.803995 -11.333023 38.109862 -0.419017 1.872741 -0.011675 -0.012065 -1119530.000000 0 0 1
-31.802819 15.075995 -11.737623 37.100899 -0.442670 1.892697 -0.000973 -0.021269 -825896.000000 0 0 1
-31.108119 13.974695 -12.317823 36.259288 -0.422213 1.917410 -0.022220 -0.016293 96658.600000 0 0 1
-30.845319 12.899195 -11.440023 35.336908 -0.396088 1.900478 -0.016819 -0.008345 -1270530.000000 0 0 1
-29.662819 11.998095 -11.797323 34.102990 -0.384365 1.924028 -0.014047 -0.004044 -596279.000000 0 0 1
-29.715619 11.418095 -13.114423 34.429333 -0.366852 1.961575 -0.016132 0.000834 175433.000000 0 0 1
-28.958019 10.221195 -13.093923 33.383986 -0.339315 1.973842 -0.009130 -0.006182 -470428.000000 0 0 1
-28.884719 9.448995 -14.429023 33.642342 -0.316155 2.014065 -0.005298 -0.008247 162228.000000 0 0 1
-30.160319 8.983695 -14.902023 34.819849 -0.289497 2.013047 -0.025988 0.000768 887136.000000 0 0 1
-30.106719 8.231595 -16.093823 35.116731 -0.266891 2.046872 -0.016504 -0.007334 1519440.000000 0 0 1
-31.573419 7.839995 -16.638923 36.540390 -0.243387 2.043570 -0.021640 -0.008231 1572940.000000 0 0 1
-32.227219 6.837695 -15.864923 36.565605 -0.209071 2.019586 -0.018520 -0.009193 -314599.000000 0 0 1
-33.102419 6.060995 -16.602623 37.525363 -0.181092 2.029111 -0.026403 -0.010744 -974209.000000 0 0 1
-33.985019 5.347795 -15.620423 37.783304 -0.156078 1.997005 -0.024716 -0.002150 -318232.000000 0 0 1
34.713585 4.570495 -16.206623 38.582082 0.130910 2.004303 -0.016039 -0.004760 104912.000000 0 0 1
33.953185 3.972495 -15.198323 37.411074 0.116470 1.989145 -0.010163 -0.001635 -197976.000000 0 0 1
33.027485 2.836595 -15.620623 36.645121 0.085676 2.011159 0.000056 -0.002091 -321587.000000 0 0 1
33.684985 1.598695 -15.756623 37.222375 0.047425 2.007893 0.002897 -0.006257 201572.000000 0 0 1
32.806185 0.469795 -15.613923 36.335397 0.014319 2.014975 0.015545 -0.002213 495941.000000 0 0 1
32.143185 0.211095 -14.239523 35.156691 0.006567 1.987808 0.020350 -0.005523 113845.000000 0 0 1
33.086185 -0.385305 -13.370123 35.687593 -0.011645 1.954809 0.010240 -0.002912 252482.000000 0 0 1
32.733785 -0.208605 -12.025123 34.873310 -0.006373 1.922847 0.015185 0.003968 -216880.000000 0 0 1
32.960785 1.195795 -11.377523 34.889702 0.036263 1.902971 0.014861 0.008905 -391393.000000 0 0 1
32.024085 2.146795 -11.757423 34.181687 0.066937 1.921936 0.011610 0.007763 -31425.000000 0 0 1
32.358485 3.393095 -11.247723 34.425222 0.104478 1.903637 0.001488 0.010312 -32415.100000 0 0 1
31.359285 4.474595 -11.734423 33.780518 0.141731 1.925564 0.001413 0.010933 -63122.700000 0 0 1
31.450585 4.759695 -13.124423 34.409947 0.150199 1.962121 0.002931 -0.000715 550644.000000 0 0 1
30.674185 5.923595 -13.461123 34.017590 0.190765 1.977638 0.002577 -0.003706 55267.700000 0 0 1
30.949785 6.481495 -14.856323 34.937219 0.206436 2.010011 -0.009437 0.001298 -225020.000000 0 0 1
30.400085 5.627295 -15.846023 34.740870 0.183036 2.044427 -0.005131 0.002346 252917.000000 0 0 1
30.670585 6.157495 -17.107923 35.655021 0.198128 2.071244 -0.005219 -0.001790 -242001.000000 0 0 1
29.678885 7.229695 -17.664323 35.286442 0.238944 2.095086 0.010987 -0.001825 189790.000000 0 0 1
28.418485 6.966195 -18.225523 34.471841 0.240389 2.127874 0.006872 0.001877 565816.000000 0 0 1
27.431585 6.473095 -17.311323 33.076800 0.231733 2.121595 0.002815 0.006542 748787.000000 0 0 1
26.002685 6.336995 -17.987423 32.246620 0.239046 2.162539 -0.002266 0.007653 763588.000000 0 0 1
25.921385 5.267995 -18.968323 32.549458 0.200499 2.192910 0.006876 0.001923 154411.000000 0 0 1
24.887185 5.383995 -19.921423 32.329900 0.213053 2.234695 -0.009642 0.005739 -134780.000000 0 0 1
24.591985 4.069695 -20.636023 32.360061 0.164002 2.262305 0.002241 0.023837 -314456.000000 0 0 1
24.045885 3.072995 -19.810923 31.306877 0.127108 2.255957 0.009751 0.009392 107438.000000 0 0 1
23.893885 1.838895 -20.528623 31.555089 0.076810 2.279124 -0.006618 0.007406 -924431.000000 0 0 1
22.907585 0.830895 -19.950023 30.388341 0.036256 2.286969 -0.004876 -0.001183 -298996.000000 0 0 1
21.611585 1.346995 -19.781123 29.328618 0.062247 2.311036 -0.000651 -0.003842 209414.000000 0 0 1
20.700685 0.460395 -19.135323 28.193810 0.022237 2.316796 -0.000112 -0.002913 -598476.000000 0 0 1
19.400685 1.083795 -18.713623 26.977043 0.055806 2.337392 0.001998 -0.006274 -1254130.000000 0 0 1
18.575185 1.291095 -19.859423 27.223172 0.069395 2.388393 0.010520 -0.016164 158791.000000 0 0 1
17.578685 2.281795 -19.758023 26.544231 0.129083 2.410347 -0.001193 -0.016807 520575.000000 0 0 1
16.269385 1.890495 -19.022923 25.102559 0.115681 2.430744 0.002839 -0.011735 -480350.000000 0 0 1
16.437785 1.791595 -17.597823 24.147338 0.108564 2.387318 -0.013674 -0.013089 926412.000000 0 1 0
15.184785 1.723595 -16.876523 22.767641 0.113024 2.405728 -0.023205 -0.012382 585223.000000 0 1 0
14.527485 3.044295 -16.546323 22.228278 0.206565 2.410405 -0.003535 -0.011195 -749527.000000 0 1 0
14.019885 3.774795 -17.618523 22.830212 0.263009 2.452337 0.009862 -0.006383 355931.000000 0 1 0
13.396785 5.002495 -17.206523 22.373271 0.357376 2.448175 0.037808 -0.013347 74381.900000 0 1 0
-18.821615 -22.029205 -17.258323 33.725195 0.863757 2.107998 0.020695 -0.005279 -23553.800000 0 0 1
-18.680115 -22.656805 -18.524223 34.719222 0.881305 2.133581 0.029587 -0.005595 774176.000000 0 0 1
-19.862215 -22.529305 -19.357823 35.732373 0.848231 2.143308 0.025334 -0.001154 641006.000000 0 0 1
-19.869915 -23.128405 -20.773623 36.895529 0.861035 2.168855 0.030915 0.009362 -146355.000000 0 0 1
-19.759715 -24.585905 -20.806923 37.786785 0.893803 2.153927 0.027958 0.010651 84446.800000 0 0 1
-19.240915 -25.052205 -22.016623 38.503993 0.915854 2.179496 0.028755 0.012192 -160357.000000 0 0 1
-18.960115 -26.584295 -21.985923 39.364851 0.951261 2.163393 0.031592 0.020206 -101918.000000 0 0 1
-20.115815 -27.359515 -22.156823 40.547674 0.936809 2.148902 0.023237 0.018641 -314205.000000 0 0 1
-19.730415 -28.712135 -22.283523 41.354944 0.968726 2.139851 0.039247 0.012307 603720.000000 0 0 1
-20.920415 -29.758645 -22.343923 42.690650 0.958058 2.121623 0.031432 0.012550 861976.000000 0 0 1
-21.697915 -29.760915 -23.526223 43.703487 0.940823 2.139232 0.018348 0.008032 431685.000000 0 0 1
-20.989615 -30.378435 -24.625123 44.382541 0.966178 2.158965 0.019125 0.002304 40978.100000 0 0 1
-21.453815 -29.935615 -25.999413 45.081889 0.948973 2.185499 0.015784 0.001529 -888895.000000 0 0 1
-22.760215 -30.278975 -26.314633 46.122702 0.926218 2.177954 0.011621 0.000645 -429001.000000 0 0 1
-23.358415 -29.323725 -27.207353 46.322095 0.898150 2.198579 0.011474 0.008834 -17976.800000 0 0 1
-23.054715 -29.456455 -28.693533 47.143626 0.906711 2.225143 0.012313 -0.009461 -694597.000000 0 0 1
-23.517215 -30.662735 -29.241013 48.459257 0.916526 2.218572 -0.000167 -0.001710 -31508.000000 0 0 1
-23.060615 -30.823135 -30.568623 49.155857 0.928474 2.241926 0.018062 -0.002552 -85965.100000 0 0 1
-23.508015 -32.105755 -31.232303 50.585206 0.938781 2.236255 0.003549 0.000376 -14033.200000 0 0 1
-22.903115 -33.255735 -30.743523 50.750968 0.967697 2.221532 0.005250 -0.001302 138708.000000 0 0 1
-23.727015 -34.324831 -31.222313 52.115239 0.965967 2.213175 0.002054 0.001138 451967.000000 0 0 1
-22.983615 33.831179 -31.161303 51.418110 -0.974056 2.221866 0.009341 -0.001975 86016.000000 0 0 1
-22.048115 33.576130 -32.169083 51.461887 -0.989753 2.246062 0.003442 0.001090 -282128.000000 0 0 1
-21.723115 32.194372 -32.223773 50.465264 -0.977219 2.263388 -0.000069 0.013588 422443.000000 0 0 1
-20.429715 31.821022 -33.025043 50.205619 -1.000052 2.288685 -0.000466 0.015353 296332.000000 0 0 1
-20.501115 31.670612 -34.440146 51.082747 -0.996305 2.310681 0.006004 0.009303 85206.100000 0 0 1
-20.232415 30.359512 34.454392 50.181229 -0.982959 0.813995 -0.005066 0.013406 -141983.000000 0 0 1
-20.427915 30.177842 32.950709 49.129941 -0.975730 0.835665 -0.003851 0.008895 -54148.400000 0 0 1
-19.607515 30.971792 32.116449 48.735745 -1.006410 0.851319 -0.010012 0.012034 258404.000000 0 0 1
-19.976915 30.854442 30.782119 47.943848 -0.996211 0.873633 -0.002916 0.007299 -376345.000000 0 0 1
-19.407115 31.976922 29.935049 47.908943 -1.025311 0.895880 -0.014480 0.005014 -10109.000000 0 0 1
-20.207015 33.139562 30.001289 49.057429 -1.023235 0.912773 -0.013014 0.002374 338616.000000 0 0 1
-19.391915 34.279382 29.674179 49.312060 -1.055978 0.925089 -0.022193 -0.004491 207489.000000 0 0 1
-20.138615 -33.891685 29.746199 49.386704 1.034649 0.924402 -0.022283 -0.010247 -132814.000000 0 0 1
-20.407715 -33.497415 31.038879 50.019633 1.023616 0.901373 -0.015707 -0.007247 -253706.000000 0 0 1
-21.308315 -32.413455 31.139009 49.742479 0.989243 0.894378 0.000964 -0.008898 -112016.000000 0 0 1
-20.780015 -30.982125 30.768429 48.356978 0.980000 0.881134 -0.000007 -0.008806 -328440.000000 0 0 1
-20.588415 -30.742495 29.362829 47.235152 0.980693 0.899973 0.013311 -0.004792 -68689.300000 0 0 1
-20.780315 -29.348595 29.147809 46.289916 0.954687 0.889656 0.009436 -0.008183 -274723.000000 0 0 1
-22.229015 -28.990875 28.770319 46.500873 0.916655 0.903703 0.000731 -0.004149 -1192910.000000 0 0 1
-23.179215 -29.133385 29.763539 47.664435 0.898729 0.896383 0.002914 0.001425 234549.000000 0 0 1
-24.167715 -30.154555 29.479999 48.605000 0.895165 0.919118 -0.005633 -0.004558 1131210.000000 0 0 1
-25.303545 -29.814655 28.424969 48.344203 0.867060 0.942249 -0.015672 0.004530 379888.000000 0 0 1
-24.736815 -29.943455 27.114619 47.367954 0.880332 0.961336 -0.016910 0.004955 219955.000000 0 0 1
-25.813215 -30.060265 26.217279 47.510918 0.861264 0.986256 -0.009534 0.008307 -135510.000000 0 0 1
-25.481405 -30.372845 24.742109 46.733111 0.872750 1.012863 -0.012257 -0.002553 -572791.000000 0 0 1
-25.054715 -29.224385 24.003919 45.365092 0.862067 1.013224 -0.036032 0.004361 201712.000000 0 0 1
-24.811615 -29.509125 22.599819 44.689557 0.871661 1.040595 -0.011015 0.003325 190326.000000 0 0 1
-23.520315 -30.295215 22.173419 44.301984 0.910631 1.046613 -0.033686 0.004773 14382.200000 0 0 1
-23.357215 -31.603095 22.743419 45.404606 0.934321 1.046152 -0.027761 -0.008683 449522.000000 0 0 1
-22.253115 -32.188075 22.061719 44.922074 0.965902 1.057432 -0.025609 0.006973 -232081.000000 0 0 1
-21.320515 -33.146925 22.815719 45.539434 0.999207 1.046031 -0.018128 0.003153 -451178.000000 0 0 1
-20.550815 -32.375135 23.706819 45.083241 1.005201 1.017087 -0.013184 0.000490 144519.000000 0 0 1
-19.689315 -33.257165 24.408839 45.711044 1.036256 1.007494 -0.004658 -0.001481 -130535.000000 0 0 1
-19.108315 -32.622295 25.686629 45.707163 1.040925 0.974016 0.011841 -0.006289 -438060.000000 0 0 1
-18.170015 -31.572445 25.523589 44.479460 1.048585 0.959623 0.019919 -0.006686 267797.000000 0 0 1
-17.749615 -30.938575 26.715299 44.564015 1.049936 0.927943 0.020875 0.002394 -150142.000000 0 0 1
-16.749015 -31.655075 27.619129 45.225983 1.084133 0.913863 0.008102 -0.012120 -544361.000000 0 0 1
-17.296515 -32.730905 28.391939 46.653872 1.084652 0.916545 0.001176 -0.009923 262678.000000 0 0 1
-16.408215 -33.209575 29.404199 47.293893 1.111895 0.899842 0.004317 -0.008024 -355945.000000 0 0 1
-16.568715 -32.402465 30.709279 47.618294 1.098117 0.869897 0.017802 -0.005436 36695.600000 0 0 1
-16.234015 -31.036565 30.503559 46.446515 1.088871 0.854301 0.016953 -0.009912 162420.000000 0 0 1
-16.394115 -30.285465 31.734569 46.830111 1.074642 0.826230 0.029898 -0.003359 -207736.000000 0 0 1
-16.214015 -28.720495 31.560069 45.648648 1.056855 0.807414 0.029870 -0.012218 -111419.000000 0 0 1
-17.301815 -27.996655 31.012929 45.221314 1.017250 0.815089 0.032439 -0.010675 146570.000000 0 0 1
-17.379215 -28.021215 29.565919 44.287348 1.015644 0.839825 0.026277 -0.008806 181393.000000 0 0 1
-16.078715 -27.660915 28.759379 43.020381 1.044256 0.838598 0.016392 -0.004224 402228.000000 0 0 1
-15.688015 -26.311925 28.899299 42.114139 1.033152 0.814525 0.016858 -0.001755 -227937.000000 0 0 1
-14.570315 -26.111475 28.083459 41.021749 1.061829 0.816743 0.015640 0.000857 -383598.000000 0 0 1
-14.659015 -24.760105 27.341639 39.692754 1.036249 0.810920 0.016768 0.007972 -553317.000000 0 0 1
-15.745115 -24.604305 26.469539 39.419754 1.001530 0.834593 0.027513 -0.000755 -200423.000000 0 0 1
-15.642115 -23.529505 25.556709 38.098015 0.984096 0.835490 0.015580 0.004622 -158626.000000 0 0 1
-16.051715 -22.175405 26.184029 37.881520 0.944241 0.807636 0.025762 0.008067 -911363.000000 0 0 1
-15.922415 -21.083105 25.268559 36.558456 0.923962 0.807672 0.014117 0.011256 160723.000000 0 0 1
-16.490115 -19.894105 25.786549 36.505416 0.878683 0.786431 0.023205 0.012082 -206147.000000 0 0 1
-16.374315 -18.618505 24.960219 35.182090 0.849443 0.782067 0.012178 0.006956 -722266.000000 0 0 1
-15.063615 -18.199005 24.785389 34.240792 0.879382 0.761422 0.017430 0.002636 -795472.000000 0 0 1
-14.930915 -17.045405 23.924219 32.952182 0.851429 0.758268 0.016698 0.004563 -211611.000000 0 0 1
-13.492315 -16.503605 23.841019 31.981334 0.885453 0.729562 0.030652 -0.000076 -759555.000000 0 0 1
-12.595615 -17.377605 23.211919 31.613666 0.943607 0.746254 0.008182 0.000816 -406216.000000 0 0 1
-11.311815 -16.843505 23.476919 31.029447 0.979398 0.712697 0.012087 -0.001563 -620047.000000 0 0 1
-10.658715 -16.111405 22.318919 29.518126 0.986335 0.713449 0.016875 -0.003484 -594845.000000 0 0 1
-10.082615 -16.867505 21.298819 28.979502 1.032030 0.745186 0.028458 -0.003861 -1061620.000000 0 0 1
-8.751115 -17.163005 21.521519 28.884711 1.099274 0.730136 0.027076 -0.000055 -1142670.000000 0 0 1
-8.128715 -18.380305 20.763919 28.897266 1.154405 0.769092 0.033277 -0.001185 -170618.000000 0 0 1
-7.969915 -18.135805 19.418119 27.739689 1.156744 0.795382 0.034801 -0.002763 -74835.400000 0 0 1
-7.686115 -19.348105 18.816919 28.062466 1.192659 0.835864 0.031067 -0.006989 -35132.800000 0 0 1
-7.570815 -19.301205 17.281719 26.990954 1.196992 0.875936 0.010325 -0.007891 -1269470.000000 0 0 1
-6.442215 -18.653705 16.878419 25.968132 1.238262 0.863256 0.008525 -0.001056 -1044520.000000 0 0 1
-6.453915 -18.412905 15.493019 24.914288 1.233667 0.899690 0.015867 -0.004629 5247.390000 0 1 0
-5.601315 -17.158805 15.098619 23.532268 1.255263 0.874196 -0.001244 -0.003002 462943.000000 0 1 0
-6.146315 -15.902705 15.558519 23.081177 1.201986 0.831080 -0.002465 -0.005431 92739.700000 0 1 0
-5.178815 -14.881905 15.378019 22.017600 1.235910 0.797578 -0.007471 -0.002385 -383928.000000 0 1 0
-5.298515 -13.770605 16.385819 22.049918 1.203488 0.733070 -0.023052 0.002082 -215698.000000 0 1 0
-4.794315 -14.150305 17.694119 23.158118 1.244122 0.701218 -0.020608 0.010353 383875.000000 0 1 0
-5.577715 -15.094205 18.479619 24.503923 1.216833 0.716438 -0.000594 0.001956 400561.000000 0 1 0
-6.839615 -14.387605 19.078419 24.854971 1.127036 0.695724 0.027746 -0.006626 -8588.900000 0 1 0
-6.590115 -13.346305 20.031119 24.955945 1.112138 0.639056 0.021711 -0.011938 -109194.000000 0 1 0
-7.783915 -12.901105 20.616519 25.535636 1.027915 0.631128 0.029545 -0.012877 29513.400000 0 0 1
-7.433315 -11.995705 21.829619 25.993911 1.016043 0.573886 0.029638 -0.004749 -379715.000000 0 0 1
-7.163015 -10.591605 21.547019 25.055237 0.976160 0.535565 0.019327 0.000623 327924.000000 0 0 1
-6.666115 -9.879205 22.670119 25.611913 0.977210 0.484002 0.016428 -0.005659 -534351.000000 0 0 1
-5.349015 -10.286005 23.300919 26.025885 1.091255 0.461697 0.021602 0.008196 -1021480.000000 0 0 1
-5.321315 -11.341205 24.234689 27.281120 1.132089 0.477097 0.020528 0.014414 194873.000000 0 0 1
-3.994615 -11.586505 24.679649 27.555202 1.238793 0.460919 0.007999 0.019017 50053.500000 0 0 1
-3.910515 -12.634205 25.850619 29.037386 1.270630 0.472896 0.005314 0.018535 -997084.000000 0 0 1
-2.577015 -12.902405 26.156309 29.279098 1.373659 0.466064 -0.009254 0.017449 -257053.000000 0 0 1
-2.362015 -14.064805 26.977799 30.515562 1.404411 0.486303 -0.010971 0.016254 -124515.000000 0 0 1
-2.478215 -15.450305 26.275079 30.581584 1.411752 0.537132 -0.013474 -0.001109 -361164.000000 0 0 1
-1.546815 -15.724505 25.250239 29.786361 1.472742 0.559140 -0.013708 0.001483 172364.000000 0 0 1
-1.811015 -16.981005 24.672789 30.006347 1.464548 0.605439 -0.011043 0.005246 -517109.000000 0 0 1
-0.636015 -17.972705 24.736749 30.583155 1.535423 0.628627 -0.011142 -0.000099 -49517.800000 0 0 1
-0.150915 -18.440305 25.980099 31.859585 1.562613 0.617279 -0.007262 -0.003081 360528.000000 0 0 1
0.635185 -17.572805 26.774399 32.032411 -1.534666 0.581111 0.009116 0.001021 -459910.000000 0 0 1
0.884885 -18.057005 28.215759 33.510707 -1.521830 0.569831 0.004478 0.003614 208960.000000 0 0 1
1.862185 -19.158605 28.287689 34.215687 -1.473902 0.597497 0.000120 -0.002501 1064190.000000 0 0 1
2.449185 -19.466805 29.526829 35.451215 -1.445641 0.586494 -0.006632 -0.009605 85809.900000 0 0 1
3.547385 -18.543705 30.059119 35.496529 -1.381781 0.560821 0.025981 -0.005183 -107956.000000 0 0 1
2.945285 -17.360305 30.443749 35.169259 -1.402740 0.524379 0.002572 -0.012139 782871.000000 0 0 1
4.032485 -16.518905 30.864699 35.238683 -1.331366 0.503549 0.007437 -0.027331 315383.000000 0 0 1
3.489285 -15.236105 31.473939 35.141469 -1.345664 0.460939 0.001821 -0.012732 -70630.800000 0 0 1
2.873985 -15.549805 32.702719 36.325254 -1.388034 0.450395 -0.009405 -0.020048 -230355.000000 0 0 1
2.008285 -14.485805 33.065509 36.155216 -1.433036 0.416419 -0.016694 0.000558 242634.000000 0 0 1
1.062485 -14.964205 34.233686 37.376484 -1.499914 0.413014 -0.026030 0.000551 396828.000000 0 0 1
1.773285 -15.037305 -33.801343 37.037763 -1.453413 2.720440 -0.009077 0.000323 126075.000000 0 0 1
1.026885 -15.791505 -32.843023 36.456690 -1.505860 2.692584 -0.027222 -0.002865 169932.000000 0 0 1
1.593185 -15.723705 -31.384553 35.139199 -1.469817 2.675096 -0.004282 -0.003117 159884.000000 0 0 1
0.934185 -16.511705 -30.412793 34.618594 -1.514279 2.643531 -0.014024 0.001600 -592418.000000 0 0 1
1.659885 -16.462505 -29.235493 33.592906 -1.470308 2.626582 -0.002565 0.003489 -313592.000000 0 0 1
1.384685 -17.579105 -28.220373 33.276594 -1.492190 2.583100 0.008304 -0.000132 80859.600000 0 0 1
1.994785 -18.869805 -28.607493 34.328375 -1.465474 2.555934 0.017732 -0.003646 475711.000000 0 0 1
1.628585 -19.849705 -27.656323 34.081304 -1.488934 2.517478 0.027353 -0.006797 -784557.000000 0 0 1
2.278385 -21.217805 -27.784733 35.033950 -1.463825 2.486646 0.024820 -0.011437 -146386.000000 0 0 1
3.680485 -21.315705 -27.664463 35.117343 -1.399817 2.477980 0.018870 -0.007601 90553.300000 0 0 1
4.156985 -21.363405 -26.341313 34.169290 -1.378613 2.451059 0.028137 -0.016314 -215269.000000 0 0 1
5.607585 -21.908305 -26.246403 34.645238 -1.320219 2.430388 0.024190 -0.013540 -160534.000000 0 0 1
5.725685 -23.327705 -26.277773 35.601778 -1.330109 2.401050 0.020126 -0.011959 -138370.000000 0 0 1
5.569785 -24.027205 -27.541533 36.971139 -1.343008 2.411251 0.022274 -0.006145 -155921.000000 0 0 1
5.057585 -25.522865 -27.347713 37.747757 -1.375172 2.381084 0.026612 0.005299 172508.000000 0 0 1
5.853585 -26.360485 -26.540023 37.861754 -1.352283 2.347556 0.028051 0.000264 -209088.000000 0 0 1
5.230285 -27.611005 -26.484843 38.615675 -1.383587 2.326577 0.029174 0.002284 99017.200000 0 0 1
5.854685 -28.510815 -25.393143 38.625841 -1.368262 2.288177 0.028603 0.005541 -317568.000000 0 0 1
7.184685 -28.858665 -25.655233 39.276370 -1.326796 2.282596 0.019860 0.005145 -383883.000000 0 0 1
7.546185 -30.098565 -25.076863 39.896335 -1.325144 2.250485 0.026254 0.002467 -229649.000000 0 0 1
9.003185 -30.438855 -25.416903 40.664483 -1.283216 2.245978 0.025868 0.000430 -175171.000000 0 0 1
9.153585 -30.684245 -26.793683 41.751796 -1.280886 2.267558 0.024878 0.006417 -793404.000000 0 0 1
10.488485 -30.639865 -27.161673 42.267790 -1.240984 2.268695 -0.007120 0.007401 -521267.000000 0 0 1
10.663085 -30.801575 -28.708133 43.434955 -1.237523 2.292874 0.002549 0.004150 -85053.300000 0 0 1
10.722385 -32.143225 -29.153943 44.700211 -1.248822 2.281293 0.011840 -0.004421 102071.000000 0 0 1
10.943685 -31.969615 -30.556953 45.558181 -1.240984 2.305980 0.007977 0.023162 -103574.000000 0 0 1
-33.672045 -4.848005 -5.914023 34.529487 0.142994 1.742920 0.031184 0.002157 -139677.000000 0 0 1
-33.606285 -4.114305 -4.699023 34.181731 0.121820 1.708705 0.033540 0.001433 -14998.000000 0 0 1
-32.539335 -3.209005 -4.699723 33.033217 0.098301 1.713553 0.027701 -0.002879 -603305.000000 0 0 1
-32.815845 -1.733205 -5.162823 33.264673 0.052767 1.726631 0.047735 0.009002 -140372.000000 0 0 1
-33.663175 -0.965205 -4.329223 33.954133 0.028665 1.698646 0.030589 0.010147 673252.000000 0 0 1
-34.465522 -0.005305 -5.045123 34.832822 0.000154 1.716146 0.016579 0.000766 306108.000000 0 0 1
34.464023 0.931595 -4.121823 34.722128 0.027024 1.689786 0.021046 -0.001147 93387.000000 0 0 1
-34.479110 1.822195 -3.342223 34.688613 -0.052800 1.667295 0.011478 0.008801 13741.500000 0 0 1
34.405941 2.587895 -2.562023 34.598121 0.075075 1.644915 0.006940 0.008783 -312627.000000 0 0 1
-34.838175 4.077195 -2.303823 35.151523 -0.116502 1.636383 -0.011120 -0.001226 -154122.000000 0 0 1
-34.671783 4.871295 -3.472623 35.184104 -0.139584 1.669656 -0.001934 -0.003735 -178111.000000 0 0 1
-33.384035 5.008895 -4.016823 33.995848 -0.148928 1.689229 -0.004813 0.000065 -399563.000000 0 0 1
-32.559545 6.209395 -3.487323 33.329296 -0.188446 1.675621 -0.008880 -0.011066 -206810.000000 0 0 1
-32.029835 6.167195 -2.174323 32.690554 -0.190217 1.637358 -0.013745 -0.016938 401208.000000 0 0 1
-31.714865 7.467995 -1.679723 32.625528 -0.231260 1.622304 -0.007698 -0.024988 -329030.000000 0 0 1
-30.966705 7.587795 -0.350423 31.884703 -0.240296 1.581787 -0.004689 -0.026547 425215.000000 0 0 1
-29.538275 7.471895 -0.560023 30.473801 -0.247759 1.589175 0.012541 -0.029125 1144470.000000 0 0 1
-28.783625 7.791195 0.587077 29.825232 -0.264347 1.551111 0.009551 -0.020720 -266144.000000 0 0 1
-28.701125 9.327195 0.937477 30.193212 -0.314211 1.539742 0.013783 -0.018908 -686670.000000 0 0 1
-29.991735 9.886995 1.157177 31.600568 -0.318439 1.534169 0.018943 -0.023726 218494.000000 0 0 1
-29.989355 11.264295 1.508677 32.070577 -0.359305 1.523737 0.018392 -0.012893 222921.000000 0 0 1
-31.412835 11.887995 1.630277 33.626603 -0.361787 1.522296 0.021812 -0.015807 -148969.000000 0 0 1
-32.055265 11.888695 0.376677 34.190978 -0.355155 1.559779 0.022006 -0.003639 513975.000000 0 0 1
-33.319835 12.550795 0.430777 35.607857 -0.360240 1.558698 0.021474 0.007987 317311.000000 0 0 1
-34.549672 11.682695 0.672177 36.477624 -0.326072 1.552368 0.030569 -0.021581 -617891.000000 0 0 1
-34.794693 10.737395 -0.364723 36.415592 -0.299321 1.580812 0.030927 -0.009916 -742860.000000 0 0 1
33.715399 10.112495 -0.219223 35.199983 0.291399 1.577024 0.034475 -0.015412 -436812.000000 0 0 1
33.457678 9.142195 -1.423623 34.713437 0.266735 1.611819 0.018286 -0.028315 -17477.800000 0 0 1
33.158258 9.788695 -2.627023 34.672610 0.287058 1.646636 0.025712 -0.021813 172720.000000 0 0 1
32.947518 8.798795 -3.593123 34.290936 0.260965 1.675772 0.012090 -0.024168 -54141.700000 0 0 1
32.271278 9.275695 -4.922923 33.936840 0.279884 1.716371 0.015919 -0.017652 1464490.000000 0 0 1
30.924548 9.799095 -4.684023 32.776364 0.306862 1.714196 0.027622 -0.016931 1724050.000000 0 0 1
30.326378 10.155295 -5.958423 32.531862 0.323130 1.754993 0.024561 -0.006002 733932.000000 0 0 1
28.843348 10.657095 -5.786623 31.288935 0.353924 1.756809 0.026096 -0.001845 871981.000000 0 0 1
27.912758 9.588095 -5.605823 30.041287 0.330874 1.758501 0.020600 0.003605 -552522.000000 0 0 1
26.742198 9.922795 -6.220523 29.194211 0.355307 1.785516 -0.003874 0.006628 -761086.000000 0 0 1
25.693488 8.747195 -6.400423 27.886093 0.328136 1.802381 -0.010046 0.014474 384028.000000 0 0 1
25.969078 7.857095 -7.492223 28.147120 0.293800 1.840225 -0.003937 0.019840 119171.000000 0 0 1
24.963348 6.899695 -7.564923 26.981524 0.269661 1.854980 -0.003956 0.012192 -769589.000000 0 0 1
25.154148 5.894795 -8.735823 27.272594 0.230193 1.896858 -0.000730 0.002027 -864913.000000 0 0 1
26.325158 5.190795 -8.548723 28.160948 0.194683 1.879230 0.005489 0.003525 -192245.000000 0 0 1
26.415598 4.207195 -9.532823 28.396462 0.157943 1.913149 0.004066 0.003311 -223350.000000 0 0 1
27.394418 3.067095 -9.132623 29.039043 0.111496 1.890721 0.013828 0.005305 -176118.000000 0 0 1
28.756868 3.469695 -9.286023 30.417536 0.120076 1.881034 0.024633 0.014236 644230.000000 0 0 1
29.589148 2.932295 -8.281423 30.865807 0.098778 1.842428 0.023641 0.012556 -45742.600000 0 0 1
29.831378 1.374095 -8.226723 30.975446 0.046030 1.839611 0.031142 0.004435 -1843170.000000 0 0 1
28.764008 0.817695 -7.562423 29.752765 0.028420 1.827791 0.038263 0.001102 -474271.000000 0 0 1
28.856658 -0.554505 -7.156623 29.736030 -0.019213 1.813854 0.032413 -0.003264 -392689.000000 0 0 1
28.648928 -1.587805 -8.269023 29.860659 -0.055366 1.851384 0.023717 0.004776 -531728.000000 0 0 1
29.640568 -1.643005 -9.281723 31.103266 -0.055374 1.873829 0.023770 0.001938 296074.000000 0 0 1
29.518988 -2.837605 -10.009623 31.298806 -0.095834 1.896324 0.012846 0.002384 -285959.000000 0 0 1
30.375398 -2.994405 -11.297123 32.546218 -0.098262 1.925284 0.013937 -0.003444 615965.000000 0 0 1
31.702428 -3.443305 -10.988323 33.728972 -0.108189 1.902636 0.018607 0.004292 656915.000000 0 0 1
32.465828 -3.866905 -12.086823 34.857915 -0.118548 1.924895 0.002097 -0.010413 -227262.000000 0 0 1
33.859908 -4.396305 -11.757123 36.111644 -0.129116 1.902418 -0.013079 0.002695 -521833.000000 0 0 1
33.838350 -5.617705 -11.064623 36.041898 -0.164515 1.882829 -0.011543 0.004660 -682243.000000 0 0 1
-34.661114 -6.161705 -10.738223 36.805827 0.175932 1.866856 -0.011623 0.016925 -727389.000000 0 0 1
-34.644403 -7.405305 -9.827723 36.764893 0.210583 1.841399 -0.005970 0.006412 -276442.000000 0 0 1
34.656826 -7.118105 -8.494923 36.385804 -0.202571 1.806439 -0.002615 0.008957 419252.000000 0 0 1
34.174940 -8.235005 -7.807823 36.009776 -0.236458 1.789357 -0.001534 0.008156 -537048.000000 0 0 1
33.924200 -8.047705 -6.260723 35.423348 -0.232920 1.748470 0.005983 0.006662 -422643.000000 0 0 1
-34.684207 -8.005305 -5.414523 36.005502 0.226833 1.721749 0.013657 0.007184 172389.000000 0 0 1
34.850677 -8.758405 -4.190223 36.177857 -0.246213 1.686880 0.020213 -0.002524 -235114.000000 0 0 1
-34.582941 -10.276805 -4.226823 36.324352 0.288853 1.687424 0.022993 0.001820 -484495.000000 0 0 1
34.343873 -10.923605 -5.188423 36.410802 -0.307947 1.713780 0.006438 0.004032 68951.700000 0 0 1
-34.697844 -11.952005 -5.872423 37.165524 0.331731 1.729469 0.010032 0.004186 45739.300000 0 0 1
34.271853 -12.426905 -7.122623 37.144578 -0.347854 1.763745 0.005279 0.001675 -59815.900000 0 0 1
34.329114 -11.437805 -8.147823 37.090410 -0.321613 1.792277 0.012911 0.003059 155138.000000 0 0 1
33.801388 -12.045505 -9.326123 37.075661 -0.342331 1.825071 0.005244 0.002627 -10965.000000 0 0 1
34.131008 -11.458405 -10.680423 37.553857 -0.323896 1.859180 -0.017503 -0.003110 -264243.000000 0 0 1
33.528578 -10.229105 -10.959023 36.727379 -0.296116 1.873800 -0.023583 0.000608 204599.000000 0 0 1
33.624198 -9.932405 -12.359523 37.175223 -0.287226 1.909714 -0.020043 -0.007584 -182698.000000 0 0 1
32.912488 -8.594205 -12.622723 36.282577 -0.255420 1.926127 -0.015836 -0.000718 -101202.000000 0 0 1
33.303138 -8.082505 -13.896523 36.980255 -0.238092 1.956037 -0.014194 0.004666 66041.900000 0 0 1
32.380358 -7.146805 -14.315323 36.117764 -0.217231 1.978336 -0.008813 0.002560 -377873.000000 0 0 1
32.680698 -6.555305 -15.746023 36.863767 -0.197959 2.012125 -0.005227 -0.005229 157228.000000 0 0 1
33.642348 -5.488405 -15.700923 37.529311 -0.161715 2.002440 0.005307 -0.006614 410706.000000 0 0 1
33.072338 -4.194105 -15.977223 36.968118 -0.126143 2.017715 0.019692 -0.005690 233755.000000 0 0 1
34.132950 -3.068605 -16.135023 37.878934 -0.089661 2.010822 0.014495 -0.009950 242009.000000 0 0 1
-34.721596 -3.185505 -17.258623 38.904971 0.091488 2.030419 0.015692 -0.013973 866508.000000 0 0 1
-33.502585 -2.412405 -17.170923 37.723779 0.071882 2.043365 0.003489 -0.004696 681828.000000 0 0 1
-33.420045 -0.915405 -16.932523 37.475962 0.027384 2.039605 -0.010075 0.005315 -841214.000000 0 0 1
-33.782135 -0.108405 -18.033123 38.294098 0.003209 2.061120 -0.009590 0.002999 7675.110000 0 0 1
-33.597215 1.264695 -17.699823 37.995474 -0.037625 2.055380 -0.010741 -0.004148 -533754.000000 0 0 1
-33.945565 2.309995 -18.806823 38.875880 -0.067945 2.075749 -0.014602 -0.001826 -27584.300000 0 0 1
-32.875695 2.426895 -19.731123 38.418985 -0.073687 2.110145 -0.004435 0.008238 353850.000000 0 0 1
-33.118835 3.483195 -20.630523 39.174078 -0.104787 2.125436 -0.002668 0.006302 -343717.000000 0 0 1
-32.097445 3.627295 -21.790223 38.964305 -0.112531 2.164260 -0.001878 0.014554 410189.000000 0 0 1
-30.764025 3.878795 -21.329423 37.635284 -0.125420 2.173340 0.002305 0.019640 402014.000000 0 0 1
-30.071125 4.491595 -22.394223 37.761730 -0.148270 2.205626 0.002980 0.020196 -483696.000000 0 0 1
-28.588875 4.762895 -22.076723 36.433373 -0.165083 2.221753 0.000587 0.027473 -320851.000000 0 0 1
-27.846085 3.591295 -21.910923 35.614469 -0.128261 2.233468 0.007691 0.038746 -968571.000000 0 0 1
-26.541455 3.917095 -21.619523 34.455714 -0.146526 2.249081 -0.003907 0.040005 -1077210.000000 0 0 1
-25.791055 2.883195 -20.760223 33.233691 -0.111328 2.245510 0.008969 0.038904 -333274.000000 0 0 1
-26.315395 2.575495 -19.507923 32.858671 -0.097560 2.206435 0.016891 0.033934 -110663.000000 0 0 1
-25.516915 1.642095 -18.821723 31.750066 -0.064265 2.205339 0.016085 0.028403 150481.000000 0 0 1
-24.633615 2.222395 -17.686323 30.406579 -0.089974 2.191566 0.019543 0.011325 -38816.700000 0 0 1
-23.564815 3.064595 -18.009123 29.816451 -0.129324 2.219306 0.016918 0.010234 -155682.000000 0 0 1
-22.791815 3.325695 -16.864123 28.546904 -0.144894 2.202786 0.018749 -0.002447 -899655.000000 0 0 1
-21.605715 4.202695 -17.121723 27.885892 -0.192119 2.231905 0.016871 -0.003638 -673152.000000 0 0 1
-20.537015 3.738695 -17.927723 27.516360 -0.180075 2.280395 0.033873 -0.012226 -667779.000000 0 0 1
-19.616515 4.745695 -18.064523 27.086090 -0.237363 2.300877 0.024592 -0.008854 -559131.000000 0 0 1
-18.224515 4.082095 -18.301323 26.148325 -0.220352 2.346060 0.023203 -0.012196 -61247.100000 0 0 1
-17.903715 3.087195 -17.319623 25.100660 -0.170754 2.332295 0.033228 -0.016660 -84408.700000 0 0 1
-16.767815 2.428195 -17.828923 24.595249 -0.143813 2.381675 0.018578 -0.019169 -658367.000000 0 1 0
-16.720815 0.921395 -17.419723 24.163638 -0.055049 2.375906 0.009954 -0.016694 422188.000000 0 1 0
-17.777215 0.133695 -17.973323 25.280182 -0.007520 2.361666 0.017919 -0.019124 1834650.000000 0 0 1
-19.107615 0.348995 -17.411423 25.853054 -0.018263 2.309698 0.014702 -0.019744 586308.000000 0 0 1
-20.191215 -0.562605 -17.947623 27.020712 0.027857 2.297243 0.008699 -0.010990 -584408.000000 0 0 1
-20.037615 -1.877905 -17.458123 26.642421 0.093446 2.285343 -0.004095 -0.024634 301708.000000 0 0 1
-21.073215 -2.689605 -17.939523 27.805411 0.126945 2.272057 0.006962 -0.014295 -347943.000000 0 0 1
-21.238415 -3.987305 -17.136523 27.579509 0.185580 2.241261 0.011227 -0.013436 -161076.000000 0 0 1
-21.821115 -3.681605 -15.860823 27.226476 0.167143 2.192661 0.017835 -0.022259 584369.000000 0 0 1
-22.214515 -4.833905 -15.122723 27.304726 0.214261 2.157777 0.027018 -0.027576 -10605.000000 0 0 1
-22.309515 -4.418505 -13.605223 26.501693 0.195524 2.109906 0.012982 -0.010231 -390267.000000 0 0 1
-23.356215 -3.563405 -13.245523 27.086058 0.151400 2.081758 0.015477 -0.023364 36345.400000 0 0 1
-23.447815 -3.266505 -11.892323 26.493347 0.138419 2.036307 0.002636 -0.017735 88137.100000 0 0 1
-24.507615 -2.124705 -11.717223 27.247585 0.086479 2.015320 0.016580 -0.007335 129665.000000 0 0 1
-24.899115 -1.779205 -10.387523 27.037606 0.071335 1.965124 0.014624 -0.007301 427184.000000 0 0 1
-25.639105 -0.585205 -10.451523 27.693691 0.022821 1.957780 0.014031 -0.008381 -285088.000000 0 0 1
-26.180745 -0.200505 -9.016723 27.690665 0.007658 1.902467 0.017332 0.005053 -688123.000000 0 0 1
-25.155705 0.270695 -8.216223 26.464865 -0.010760 1.886471 0.013719 -0.001235 -7840.320000 0 0 1
-25.572555 0.678395 -6.935023 26.504912 -0.026522 1.835528 0.016414 0.004561 67200.900000 0 0 1
-24.428815 1.189495 -6.002023 25.183451 -0.048654 1.811444 0.001687 0.011087 240741.000000 0 0 1
-23.970815 2.505495 -6.226223 24.892636 -0.104145 1.823604 0.011272 0.007641 1211430.000000 0 1 0
-22.707615 2.830395 -5.596023 23.557640 -0.124006 1.810635 0.002616 0.017455 907741.000000 0 1 0
-22.276115 4.337495 -5.724323 23.405278 -0.192309 1.817877 0.027919 0.006177 -39250.400000 0 1 0
-22.945415 5.223795 -4.793223 24.015726 -0.223847 1.771733 0.034059 0.002107 809371.000000 0 1 0
-22.635715 6.569795 -5.085623 24.112266 -0.282479 1.783307 0.062816 -0.006923 -632129.000000 0 1 0
-23.157015 7.582895 -4.040423 24.699649 -0.316451 1.735117 0.043449 -0.004215 -323267.000000 0 1 0
-22.530815 7.624995 -2.757623 23.945410 -0.326326 1.686215 0.044732 0.002031 1033250.000000 0 1 0
-21.117315 7.829795 -2.734823 22.687573 -0.355062 1.691633 0.048167 -0.004757 185821.000000 0 1 0
-20.598215 9.252095 -2.594923 22.729306 -0.422163 1.685212 0.041648 -0.005370 -629825.000000 0 1 0
-20.509015 9.843495 -3.912223 23.082885 -0.447487 1.741104 0.036910 -0.002660 402741.000000 0 1 0
-19.940515 11.110695 -3.812523 23.143185 -0.508348 1.736287 0.052866 -0.002817 -452200.000000 0 1 0
-19.559515 11.670395 -5.211423 23.365181 -0.537961 1.795731 0.040501 -0.004163 -614587.000000 0 1 0
-18.516015 10.991795 -5.817123 22.304737 -0.535728 1.834649 0.027304 0.002466 -407786.000000 0 1 0
-18.399015 11.638295 -7.061623 22.887556 -0.564010 1.884449 0.028041 0.006403 -179728.000000 0 1 0
-17.107415 11.288995 -7.813723 21.935345 -0.583296 1.935012 0.019420 -0.000629 -531888.000000 0 1 0
-16.839215 9.944595 -8.260223 21.229353 -0.533451 1.970445 0.008272 0.003052 643387.000000 0 1 0
-17.784315 9.348595 -9.170623 22.085706 -0.483968 1.998991 0.011816 0.001620 -148997.000000 0 1 0
-17.963515 10.006095 -10.577923 23.123630 -0.508219 2.045923 0.024894 0.012063 571172.000000 0 1 0
-16.924615 9.667295 -11.523623 22.642727 -0.518972 2.104741 0.018913 0.012653 621170.000000 0 1 0
-17.127615 10.398795 -12.741723 23.745350 -0.545650 2.137197 0.021824 0.011940 319568.000000 0 1 0
-16.044215 10.085395 -13.844523 23.469190 -0.561184 2.201734 0.012841 0.015069 382762.000000 0 1 0
-16.027015 8.768695 -14.424923 23.277320 -0.500629 2.239155 0.004497 0.008279 -20780.700000 0 1 0
-15.860715 7.638695 -13.548123 22.214040 -0.448829 2.226718 -0.002230 0.005653 -264820.000000 0 1 0
-15.781315 6.259195 -14.273923 22.180449 -0.377590 2.269906 0.005042 -0.000702 -408320.000000 0 1 0
-14.733315 5.980795 -15.200023 21.997300 -0.385614 2.333661 0.014550 0.000461 531198.000000 0 1 0
-14.810615 4.747695 -15.900923 22.242623 -0.310211 2.367256 0.011365 -0.004629 -133140.000000 0 1 0
30.946058 -16.275705 28.645949 45.201189 -0.484182 0.884414 -0.017782 0.006795 -152227.000000 0 0 1
30.130088 -15.153205 28.894249 44.410804 -0.465986 0.862405 -0.016406 0.011319 -282046.000000 0 0 1
29.106068 -15.252405 29.853229 44.396108 -0.482685 0.833311 -0.012977 0.003723 -263688.000000 0 0 1
29.359738 -15.274805 31.371429 45.601321 -0.479727 0.812136 -0.009871 0.000002 -243310.000000 0 0 1
29.814058 -14.001805 31.893819 45.849148 -0.439064 0.801507 -0.016607 -0.000171 78624.700000 0 0 1
29.992208 -14.032805 33.257721 46.931101 -0.437624 0.783213 -0.017160 -0.008060 -387251.000000 0 0 1
30.432468 -12.609905 33.638616 47.081858 -0.392821 0.774929 -0.012417 -0.004930 -72701.200000 0 0 1
30.508818 -12.536505 -34.225991 47.532835 -0.389880 2.374670 -0.023252 -0.014955 124691.000000 0 0 1
30.725048 -11.161505 -33.886683 47.084128 -0.348448 2.374174 -0.010044 -0.009026 -476577.000000 0 0 1
30.357378 -10.805205 -32.438963 45.723180 -0.341951 2.359534 -0.010054 -0.009398 335102.000000 0 0 1
28.982848 -11.033205 -32.159913 44.676583 -0.363741 2.374366 0.013485 -0.011871 315595.000000 0 0 1
28.627188 -10.545805 -30.867033 43.399351 -0.352958 2.362046 0.002048 -0.007462 504480.000000 0 0 1
27.197018 -10.930405 -30.360983 42.201195 -0.382141 2.373784 0.017713 -0.000163 564425.000000 0 0 1
27.019768 -10.676505 -29.007933 41.055034 -0.376307 2.355425 0.011625 -0.005045 -262597.000000 0 0 1
26.060458 -11.571005 -28.540593 40.343538 -0.417858 2.356664 0.031059 -0.001975 -939861.000000 0 0 1
25.630308 -11.498305 -27.061003 39.005405 -0.421707 2.337515 0.029049 -0.002387 -431464.000000 0 0 1
24.832048 -10.345205 -26.667703 37.879022 -0.394740 2.351843 0.021185 -0.007552 1198720.000000 0 0 1
23.557088 -10.063405 -27.250203 37.400295 -0.403726 2.387086 0.025058 -0.001930 246298.000000 0 0 1
22.506388 -11.147905 -27.335243 37.121810 -0.459898 2.398480 0.021200 0.007749 -1347250.000000 0 0 1
22.917588 -12.207805 -28.186323 38.323820 -0.489451 2.397168 0.016861 -0.001995 -244347.000000 0 0 1
22.227888 -13.410305 -27.934053 38.134323 -0.542850 2.392809 0.008055 -0.007876 -364332.000000 0 0 1
23.085388 -14.550005 -28.456783 39.426213 -0.562379 2.377157 0.010025 0.007036 -11860.100000 0 0 1
23.205388 -14.506005 -29.827423 40.479493 -0.558681 2.399199 0.014052 -0.000348 603331.000000 0 0 1
24.063488 -15.600605 -30.254123 41.686236 -0.575186 2.382932 0.010245 -0.002610 329174.000000 0 0 1
24.054188 -15.586005 -31.812863 42.820390 -0.574935 2.408244 0.028643 -0.011206 78633.200000 0 0 1
22.797688 -15.995305 -32.342903 42.680766 -0.611812 2.430710 0.038595 -0.008951 226681.000000 0 0 1
22.752588 -16.400005 -33.732393 43.869292 -0.624548 2.447961 0.037240 -0.014758 -236095.000000 0 0 1
23.033888 -15.427405 34.419778 44.195995 -0.590148 0.678048 0.013185 -0.011658 -198117.000000 0 0 1
22.121988 -14.358405 34.205711 43.192324 -0.575711 0.656817 0.028712 -0.016845 201646.000000 0 0 1
22.620388 -13.350205 33.278220 42.395163 -0.533171 0.668176 0.026408 -0.014240 -344446.000000 0 0 1
21.757088 -12.035905 33.331182 41.583670 -0.505293 0.640922 0.043653 -0.017481 38689.300000 0 0 1
20.367588 -12.145505 33.223544 40.818572 -0.537706 0.619908 0.028821 -0.015061 -49863.000000 0 0 1
19.930088 -12.515605 31.915299 39.653942 -0.560736 0.635381 0.024080 -0.000725 -743741.000000 0 0 1
18.427988 -12.896005 31.778319 38.932753 -0.610595 0.615931 0.030210 0.001302 153756.000000 0 0 1
17.690288 -11.695205 31.693199 38.133751 -0.584145 0.589702 0.021414 -0.003754 -500865.000000 0 0 1
16.551388 -11.900905 32.498759 38.363386 -0.623382 0.560236 0.017318 0.000310 -334623.000000 0 0 1
15.825588 -10.606805 32.901119 38.018906 -0.590466 0.524871 0.020226 0.001235 -261828.000000 0 0 1
14.838588 -10.233905 31.916549 36.654913 -0.603767 0.514111 0.023788 0.002900 551829.000000 0 0 1
13.905488 -9.245205 32.279609 36.342944 -0.586751 0.477395 0.035087 0.000536 508709.000000 0 0 1
12.983288 -9.423305 33.524524 37.165282 -0.627834 0.446327 0.027172 -0.005107 -514104.000000 0 0 1
12.032088 -10.452405 33.368137 36.979136 -0.715257 0.445604 0.017763 0.004351 909308.000000 0 0 1
10.704088 -10.299405 33.873374 36.987305 -0.766133 0.413274 0.018387 0.001073 1015480.000000 0 0 1
9.696288 -9.473705 33.036439 35.709598 -0.773788 0.389388 0.007585 0.003813 -518149.000000 0 0 1
9.883988 -8.059305 33.318873 35.676224 -0.684055 0.365560 0.020429 0.008554 218924.000000 0 0 1
9.104588 -7.206705 32.526239 34.536739 -0.669565 0.342891 0.004937 0.022334 -305387.000000 0 0 1
9.577788 -5.721305 32.541889 34.401191 -0.538470 0.330277 -0.006445 0.027765 19942.000000 0 0 1
9.374788 -5.019705 33.793900 35.427557 -0.491602 0.304865 -0.021458 0.018198 431425.000000 0 0 1
9.973688 -3.711705 33.716868 35.356448 -0.356269 0.305731 -0.024110 0.017173 -126036.000000 0 0 1
9.835988 -2.865705 -34.290220 35.787961 -0.283501 2.851263 -0.023932 0.001652 -519708.000000 0 0 1
8.533588 -2.420005 -34.054653 35.190879 -0.276331 2.886788 -0.029337 0.010685 -412991.000000 0 0 1
8.442988 -1.778805 -32.835273 33.950013 -0.207647 2.884626 -0.029836 0.005258 -251174.000000 0 0 1
6.949388 -1.533105 -32.580283 33.348452 -0.217132 2.926541 -0.022547 0.009878 -55613.900000 0 0 1
6.268388 -0.642805 -33.485873 34.073591 -0.102190 2.955591 -0.008120 0.008366 -130605.000000 0 0 1
5.024688 -0.257605 -32.990423 33.371872 -0.051223 2.990251 -0.010581 0.010902 -463590.000000 0 0 1
4.378988 0.927095 -33.755133 34.050610 0.208634 3.009758 0.000940 0.006695 -342854.000000 0 0 1
5.010388 2.167995 -33.638013 34.078147 0.408375 2.980699 -0.007925 0.000797 -270550.000000 0 0 1
4.481088 3.042795 -34.621588 35.042733 0.596513 2.986401 0.004897 -0.001144 80904.100000 0 0 1
5.475288 4.187495 34.300112 34.985877 0.652905 0.198321 0.000102 0.000667 -127009.000000 0 0 1
5.105788 5.066695 33.218016 33.987896 0.781555 0.213249 0.021963 -0.011155 223862.000000 0 0 1
6.006988 6.166095 33.173959 34.272675 0.798468 0.253893 0.017982 -0.012135 -399025.000000 0 0 1
5.513588 7.286095 32.194989 33.466464 0.923004 0.276534 0.022184 -0.007030 270402.000000 0 0 1
4.226188 7.727395 32.650239 33.817325 1.070329 0.263484 0.017485 -0.003144 418422.000000 0 0 1
3.852488 8.999795 32.165739 33.622504 1.166333 0.295444 0.012257 -0.000203 26471.000000 0 0 1
3.612688 9.193095 30.572619 32.128641 1.196358 0.312497 0.016603 -0.003473 -62202.000000 0 0 1
2.471288 8.489495 30.115349 31.386511 1.287525 0.285575 0.032747 -0.008032 -17996.500000 0 0 1
2.244988 8.737695 28.764389 30.145935 1.319305 0.303918 0.027398 -0.004926 -580956.000000 0 0 1
1.095588 8.012295 28.098939 29.239487 1.434901 0.280226 0.025515 -0.006010 -47419.600000 0 0 1
-0.147112 8.565295 28.533449 29.791671 -1.553623 0.291667 0.022461 0.002969 -768855.000000 0 0 1
-1.186012 8.159995 27.734869 28.934670 -1.426462 0.288983 0.029068 -0.003293 -596965.000000 0 0 1
-2.558412 8.485495 28.346879 29.700079 -1.277960 0.303026 0.026392 0.000243 -362944.000000 0 0 1
-2.867612 9.859695 28.531839 30.323302 -1.287763 0.345456 0.023325 -0.001737 505042.000000 0 0 1
-4.089312 9.903695 29.284219 31.182866 -1.179212 0.350758 0.019506 0.008564 328158.000000 0 0 1
-4.343112 11.214395 30.056099 32.372741 -1.201303 0.380609 0.013524 0.011019 -89426.000000 0 0 1
-4.541812 12.460295 29.349649 32.206970 -1.221260 0.424408 0.018572 -0.001558 455318.000000 0 0 1
-5.627912 12.565795 28.432439 31.590761 -1.149711 0.450972 0.010996 -0.007757 181608.000000 0 0 1
-5.907012 14.031495 27.960019 31.836117 -1.172334 0.498609 0.013900 -0.007086 239952.000000 0 0 1
-4.987212 14.474295 26.958159 31.001933 -1.238979 0.516478 0.013690 0.001302 217504.000000 0 0 1
-5.258012 15.801195 26.558079 31.347345 -1.249562 0.560067 0.004709 0.005385 -96359.900000 0 0 1
-4.082912 16.467795 25.822419 30.897505 -1.327764 0.581309 0.020258 0.003906 -110549.000000 0 0 1
-3.951612 16.080595 24.445109 29.525652 -1.329833 0.595394 0.021416 0.007098 649918.000000 0 0 1
-2.990312 16.960495 23.784619 29.365090 -1.396279 0.626708 0.034000 0.009971 718796.000000 0 0 1
-2.851012 16.607195 22.278619 27.933208 -1.400780 0.647544 0.024124 0.009517 115770.000000 0 0 1
-2.220412 15.341895 21.991019 26.905555 -1.427066 0.614015 0.017059 0.002267 170865.000000 0 0 1
-2.150612 15.166395 20.567619 25.645110 -1.429934 0.640145 0.006577 0.003238 54902.000000 0 0 1
-1.166712 14.075695 20.104019 24.569453 -1.488097 0.612432 0.010503 0.000187 -316398.000000 0 1 0
-1.669412 12.788595 20.207619 23.972547 -1.440991 0.568056 0.014315 0.004587 -515669.000000 0 1 0
-0.922912 11.812795 19.565219 22.873384 -1.492827 0.544531 0.016559 0.000636 -697828.000000 0 1 0
-1.571012 10.386695 19.509619 22.157996 -1.420682 0.493928 0.004050 0.004994 -317414.000000 0 1 0
-1.906012 9.793195 20.685219 22.965580 -1.378573 0.449406 0.005578 -0.000283 247999.000000 0 1 0
-2.978812 10.344095 21.433919 23.985131 -1.290410 0.465419 0.018855 -0.002438 -79939.800000 0 1 0
-4.446612 10.137295 21.009819 23.747623 -1.157430 0.484919 0.010828 0.004909 -256351.000000 0 1 0
-4.927612 8.840395 21.126719 23.425888 -1.062292 0.446756 -0.002161 0.003145 299266.000000 0 1 0
-6.354512 8.874895 21.125419 23.778707 -0.949406 0.476910 -0.007900 0.011461 695714.000000 0 1 0
-7.076412 7.510695 21.282019 23.651860 -0.815161 0.451478 -0.009604 0.011500 -211724.000000 0 1 0
-6.952712 6.890895 22.549019 24.582167 -0.780933 0.409571 -0.008783 0.008103 82074.400000 0 1 0
-7.529412 5.603295 22.510419 24.388685 -0.639771 0.395027 -0.012365 0.007988 94267.300000 0 1 0
-7.550112 4.838695 23.848019 25.478328 -0.569935 0.359673 -0.012135 0.008094 -284798.000000 0 0 1
-8.330612 5.525195 24.773439 26.714232 -0.585627 0.383529 -0.014421 0.009820 -158850.000000 0 0 1
-8.457712 4.773895 25.959319 27.716588 -0.513864 0.358002 -0.005610 0.021679 -379695.000000 0 0 1
-9.453712 5.379795 26.960729 29.072251 -0.517364 0.383476 -0.003401 0.022644 -470142.000000 0 0 1
-9.030712 6.584695 27.623759 29.799061 -0.630020 0.384460 0.004099 0.010925 -15623.100000 0 0 1
-9.891812 6.995595 28.674049 31.128562 -0.615549 0.399774 0.004266 0.009150 205513.000000 0 0 1
-9.310612 8.261495 29.409159 31.934910 -0.725765 0.400389 0.011141 0.003579 -444805.000000 0 0 1
-8.250912 7.952795 30.227309 32.326688 -0.767002 0.362375 0.012666 0.000212 -701996.000000 0 0 1
-7.922512 9.010495 31.096569 33.330944 -0.849562 0.368236 0.017035 -0.003700 318009.000000 0 0 1
-6.890212 8.514095 32.160319 33.974269 -0.890428 0.328250 0.017969 -0.001797 921389.000000 0 0 1
-5.528812 8.393295 31.734419 33.287964 -0.988317 0.306716 0.026947 -0.004003 12495.900000 0 0 1
-4.711712 7.867595 32.726149 33.986764 -1.031204 0.273214 0.034638 -0.006122 459191.000000 0 0 1
-3.213212 7.768695 32.286339 33.362930 -1.178612 0.254732 0.023468 0.004219 601194.000000 0 0 1
-2.653212 9.068595 32.301549 33.655149 -1.286169 0.284578 0.007552 0.008112 -384211.000000 0 0 1
-1.298912 8.977295 31.908879 33.173115 -1.427105 0.276965 0.011686 0.008040 229360.000000 0 0 1
-0.704212 10.406595 31.630629 33.306003 -1.503230 0.318528 0.010375 0.008573 10548.100000 0 0 1
-0.813112 11.274695 32.714199 34.612118 -1.498803 0.332694 0.003748 0.004764 100217.000000 0 0 1
-1.147712 12.525195 32.138199 34.511761 -1.479419 0.373038 0.010514 0.002842 -107832.000000 0 0 1
-1.407212 13.546595 33.229813 35.912546 -1.467288 0.388975 -0.002172 -0.005330 -599495.000000 0 0 1
-0.216612 13.959395 33.843555 36.610079 -1.555280 0.391251 0.000251 0.005310 -56844.200000 0 0 1
-0.502012 14.669295 -34.193308 37.210517 -1.536588 2.736118 0.003968 0.002506 533742.000000 0 0 1
0.842788 15.125595 -33.550733 36.812302 1.515135 2.717470 0.002093 0.003335 464723.000000 0 0 1
1.477288 16.140495 -34.388334 38.016516 1.479524 2.701150 0.011162 0.004888 1125620.000000 0 0 1
2.656088 16.602495 -33.678183 37.641967 1.412159 2.678550 0.023164 0.001323 625623.000000 0 0 1
3.521088 17.530695 -34.519567 38.875749 1.372581 2.663656 0.030787 0.012247 -160758.000000 0 0 1
2.862988 18.798795 34.555163 39.441738 1.419661 0.503070 0.028129 0.015030 615012.000000 0 0 1
3.600088 19.712895 33.718554 39.223715 1.390161 0.536218 0.024944 0.019937 55251.300000 0 0 1
3.030888 21.118795 33.843819 40.007423 1.428253 0.562474 0.025486 0.016960 -300645.000000 0 0 1
3.295788 21.709395 -34.217662 40.657207 1.420133 2.571061 0.023792 0.006114 174359.000000 0 0 1
2.951188 23.091895 -34.222454 41.389872 1.443683 2.544247 0.020176 0.006740 24028.100000 0 0 1
3.073988 23.795195 -32.832413 40.664826 1.442323 2.510513 0.015160 0.000767 -120405.000000 0 0 1
2.712388 25.145795 -32.742553 41.373214 1.463345 2.483884 0.010196 -0.001404 137681.000000 0 0 1
2.791188 25.581695 -31.408413 40.604215 1.462117 2.455182 0.010401 -0.001326 46250.200000 0 0 1
2.202088 26.974995 -31.095453 41.224104 1.489343 2.425388 0.008174 -0.003621 342262.000000 0 0 1
3.165988 27.998595 -31.407713 42.194659 1.458198 2.410361 0.003908 -0.011984 545140.000000 0 0 1
2.859288 29.235595 -30.749693 42.525747 1.473305 2.379053 -0.002713 -0.009547 -379746.000000 0 0 1
3.955688 30.324695 -30.609063 43.268341 1.441084 2.356643 -0.003662 -0.006571 -136042.000000 0 0 1
4.952788 30.139895 -29.633963 42.557199 1.407925 2.341071 -0.007630 -0.007047 -257718.000000 0 0 1
5.554088 31.370295 -29.366313 43.328093 1.395563 2.315517 0.004673 -0.013985 -804863.000000 0 0 1
6.712488 31.153995 -28.355193 42.657308 1.358579 2.297916 0.005435 -0.017926 751537.000000 0 0 1
7.958188 30.658295 -28.880813 42.864498 1.316825 2.310095 0.008196 -0.019384 871874.000000 0 0 1
8.993488 31.525895 -29.276223 43.952954 1.292905 2.299738 0.017376 -0.021538 -134992.000000 0 0 1
8.706888 32.745195 -30.167273 45.366530 1.310912 2.298247 0.014587 -0.012393 -1200230.000000 0 0 1
8.029288 33.818395 -29.516783 45.600371 1.337689 2.274824 0.004785 -0.011356 239066.000000 0 0 1
7.564188 -34.628401 -30.324123 46.646495 -1.355736 2.278491 0.011382 -0.001729 37006.900000 0 0 1
6.252588 34.666295 -31.110273 46.996766 1.392350 2.294235 0.009486 0.007163 -456153.000000 0 0 1
6.338688 33.761295 -32.173773 47.065441 1.385207 2.323475 0.004031 0.001992 -268657.000000 0 0 1
5.119588 33.528095 -32.803713 47.185029 1.419271 2.339515 0.008777 0.004488 -462177.000000 0 0 1
5.315588 32.643795 -34.080924 47.490865 1.409377 2.371191 0.005794 -0.007771 418886.000000 0 0 1
6.022988 33.404695 34.160756 48.157111 1.392409 0.782206 0.012212 -0.008703 520241.000000 0 0 1
6.117188 32.651995 32.978289 46.809618 1.385598 0.789050 0.011251 -0.006167 -22964.800000 0 0 1
5.207288 33.184295 31.840519 46.283172 1.415145 0.812135 0.003600 0.002836 410747.000000 0 0 1
5.810488 34.382095 31.325109 46.873796 1.403381 0.838894 0.005521 0.000044 628919.000000 0 0 1
5.033988 -34.642701 30.240379 46.259467 -1.426495 0.858317 -0.013692 -0.006647 158053.000000 0 0 1
16.992985 -22.589305 29.696069 40.998716 -0.925852 0.760753 0.040984 -0.000454 -209761.000000 0 0 1
15.952785 -21.628405 29.869469 40.180399 -0.935288 0.732681 0.027137 0.002335 1545750.000000 0 0 1
14.630485 -22.183105 30.096499 40.148979 -0.987749 0.723308 0.028852 0.006055 740322.000000 0 0 1
14.342585 -22.601805 31.504169 41.340827 -1.005340 0.704309 0.015911 0.001521 -860138.000000 0 0 1
14.886685 -23.851605 31.925209 42.540938 -1.012817 0.722041 0.039409 -0.006214 387525.000000 0 0 1
14.563685 -23.967905 33.302304 43.538544 -1.024783 0.699922 0.012472 -0.004129 97644.300000 0 0 1
15.444685 -25.012205 34.032978 44.971016 -1.017619 0.712430 0.026864 -0.009393 -2196.210000 0 0 1
15.227485 -26.325035 33.612338 45.328501 -1.046380 0.735452 0.026485 -0.013999 57652.600000 0 0 1
16.021785 -27.281005 34.325066 46.681484 -1.039777 0.744682 0.024365 -0.007645 266583.000000 0 0 1
15.750785 -28.821725 34.014330 47.283757 -1.070652 0.767907 0.010087 0.001463 -11073.900000 0 0 1
16.176085 -29.212115 32.699959 46.736503 -1.065082 0.795866 0.007797 -0.005539 236016.000000 0 0 1
15.771985 -30.560545 32.364359 47.224508 -1.094360 0.815740 0.003248 -0.002153 -204697.000000 0 0 1
16.593985 -31.233675 31.248809 47.195242 -1.082435 0.847155 0.018868 -0.007795 -653437.000000 0 0 1
17.748085 -31.855515 31.664649 48.295117 -1.062485 0.855754 0.015411 -0.008976 -503664.000000 0 0 1
18.522585 -32.375345 30.583059 48.234558 -1.051129 0.884019 0.016242 -0.011909 808098.000000 0 0 1
19.885085 -33.084245 30.966029 49.486148 -1.029610 0.894702 0.002245 -0.007105 594707.000000 0 0 1
20.893285 -32.150515 31.237119 49.456471 -0.994521 0.887170 0.007058 -0.007493 -155993.000000 0 0 1
22.112385 -32.799385 31.576469 50.614530 -0.977617 0.897122 0.005268 -0.002954 787644.000000 0 0 1
23.213285 -31.675225 31.880109 50.581793 -0.938360 0.888897 0.001918 -0.005042 423042.000000 0 0 1
23.697285 -31.153065 30.633329 49.703879 -0.920500 0.906739 0.003657 -0.003237 -20452.500000 0 0 1
24.617485 -30.107315 30.925409 49.687543 -0.885381 0.898994 -0.003622 -0.001234 -305952.000000 0 0 1
25.840385 -30.047685 30.056089 49.738892 -0.860537 0.921938 -0.009340 0.003304 -518348.000000 0 0 1
26.793185 -31.099535 30.143839 50.928448 -0.859646 0.937400 -0.015428 0.008027 -56656.100000 0 0 1
27.774085 -30.903545 29.150849 50.756289 -0.838681 0.959011 -0.017114 -0.010118 472018.000000 0 0 1
28.910285 -31.992675 29.290899 52.127657 -0.835967 0.974107 -0.024310 -0.004701 494041.000000 0 0 1
28.375585 -33.299125 29.085159 52.535245 -0.865060 0.984078 -0.019280 -0.005602 888453.000000 0 0 1
29.390885 -34.315850 29.363239 53.885077 -0.862552 0.994499 -0.014665 -0.005911 -163781.000000 0 0 1
28.830685 33.818669 29.790719 53.501380 0.864848 0.980242 -0.023385 -0.001495 -841081.000000 0 0 1
28.354185 33.702425 31.142259 53.941204 0.871369 0.955333 -0.014899 0.008087 178074.000000 0 0 1
27.297285 34.557728 31.486879 54.136881 0.902242 0.950082 -0.014359 0.008030 -410262.000000 0 0 1
25.938385 34.474222 30.743749 52.975937 0.925761 0.951657 -0.010940 0.006459 -674520.000000 0 0 1
25.292085 33.239192 31.021399 52.027499 0.920348 0.931974 -0.003483 0.006316 688997.000000 0 0 1
23.903885 33.380452 30.662309 51.242829 0.949344 0.929328 -0.004437 0.005405 1119720.000000 0 0 1
23.049485 32.084902 30.570409 49.952674 0.947834 0.912225 -0.004246 -0.001940 -169792.000000 0 0 1
23.010885 31.354132 29.362059 48.731026 0.937677 0.924125 -0.000460 -0.006485 -42500.900000 0 0 1
22.414685 30.094502 29.472719 47.715179 0.930625 0.905007 0.006995 -0.013843 -368389.000000 0 0 1
21.854685 29.472442 28.180629 46.264456 0.932738 0.915845 0.007345 -0.012825 -264874.000000 0 0 1
20.599285 30.020492 27.878469 45.855965 0.969410 0.917311 0.004086 -0.013575 -255040.000000 0 0 1
20.030985 29.513772 26.699999 44.555505 0.974509 0.928229 0.014900 -0.011220 -310653.000000 0 0 1
18.922185 30.408292 26.157289 44.349939 1.014162 0.939994 0.013611 -0.014196 -111724.000000 0 0 1
19.301685 31.722972 25.772359 45.200846 1.024190 0.964078 0.016122 -0.027559 1085140.000000 0 0 1
18.065985 32.479452 25.630059 45.146368 1.063184 0.967074 0.026498 -0.027060 669118.000000 0 0 1
18.244785 33.851595 25.005469 45.870210 1.076466 0.994246 0.034157 -0.020768 -255194.000000 0 0 1
18.720585 33.999123 23.711319 45.482165 1.067478 1.022385 0.043101 -0.019671 140365.000000 0 0 1
20.126685 34.054625 23.560119 46.042156 1.037012 1.033625 0.038827 -0.013511 -114925.000000 0 0 1
20.510285 34.164874 22.112719 45.572829 1.030132 1.064185 0.039925 -0.015045 -416645.000000 0 0 1
20.245385 -34.142798 21.509319 45.147060 -1.035568 1.074209 0.063433 -0.011875 212615.000000 0 0 1
20.790785 -34.069210 20.221419 44.742302 -1.022873 1.101843 0.072436 -0.013265 -229366.000000 0 0 1
20.443585 -32.774465 19.531319 43.284849 -1.013085 1.102656 0.054440 -0.012940 -452144.000000 0 0 1
20.883785 -31.666805 20.267919 43.008226 -0.987782 1.080081 0.055054 -0.005772 14253.800000 0 0 1
20.691585 -30.406955 19.659719 41.704066 -0.973286 1.079907 0.059497 -0.010731 -349916.000000 0 0 1
21.606485 -29.939355 18.528419 41.309895 -0.945671 1.105685 0.047239 -0.009924 -603655.000000 0 0 1
21.333885 -30.670885 17.315719 41.178537 -0.963047 1.136796 0.032171 -0.015241 277147.000000 0 0 1
21.798985 -30.004205 16.100119 40.430952 -0.942485 1.161229 0.025419 -0.005584 -81267.700000 0 0 1
21.337285 -30.527135 14.690519 40.037445 -0.960768 1.195101 0.015670 -0.012267 -263885.000000 0 0 1
21.933785 -31.742675 14.303619 41.149506 -0.966145 1.215785 0.038979 -0.005773 -63049.300000 0 0 1
21.969685 -31.988305 12.873319 40.885707 -0.968982 1.250486 0.019054 -0.012874 479641.000000 0 0 1
20.587285 -32.182605 12.128819 40.083221 -1.001694 1.263386 0.020411 -0.007191 1001270.000000 0 0 1
19.809585 -33.267185 12.657119 40.734849 -1.033715 1.254846 0.031469 -0.010323 57221.300000 0 0 1
18.616685 -33.501865 11.941319 40.144128 -1.063594 1.268764 0.032622 -0.008508 -80191.100000 0 0 1
17.633185 -34.269007 12.868619 40.631212 -1.095575 1.248529 0.035835 -0.003637 -200937.000000 0 0 1
17.235785 -33.443745 14.002919 40.145212 -1.094931 1.214499 0.038130 -0.004625 233680.000000 0 0 1
17.652185 -34.082369 15.174719 41.273231 -1.092910 1.194300 0.028239 -0.009441 -647119.000000 0 0 1
17.800685 -33.229665 16.433719 41.123498 -1.079009 1.159695 0.037135 -0.016963 938473.000000 0 0 1
16.543185 -32.693135 16.936519 40.365378 -1.102349 1.137813 0.043415 -0.019224 1124660.000000 0 0 1
15.578385 -33.587225 17.449219 40.929977 -1.136510 1.130377 0.038272 -0.005884 -674509.000000 0 0 1
15.934685 -34.262496 18.735819 42.176578 -1.135476 1.110489 0.025506 -0.012608 -489321.000000 0 0 1
16.659285 34.053822 18.525119 42.194485 1.115822 1.116265 0.028380 -0.005724 -81846.500000 0 0 1
17.126985 33.554235 19.766819 42.543477 1.098842 1.087584 0.019902 -0.011012 276913.000000 0 0 1
18.018585 32.279802 19.611719 41.848232 1.061679 1.083047 0.014726 -0.004045 253290.000000 0 0 1
17.272185 31.109402 19.385919 40.520823 1.063964 1.071943 0.009773 -0.000740 -486479.000000 0 0 1
18.143385 30.058692 19.067919 39.953634 1.027735 1.073272 0.000943 -0.005926 -260088.000000 0 0 1
17.533285 28.689772 18.767119 38.506153 1.022231 1.061710 0.005293 0.007037 -298456.000000 0 0 1
17.231985 27.872362 19.905519 38.341095 1.017068 1.024918 0.003951 -0.002570 51037.700000 0 0 1
16.668985 26.647962 19.440919 36.958331 1.011819 1.016879 0.000779 -0.001295 -312331.000000 0 0 1
16.349085 25.628912 20.580419 36.710861 1.002963 0.975676 -0.003867 0.000711 -330539.000000 0 0 1
15.303285 25.840842 21.493519 36.931166 1.036122 0.949624 0.004674 0.003345 -757828.000000 0 0 1
14.268885 24.967522 21.164419 35.705894 1.051598 0.936336 0.009516 0.001534 -267775.000000 0 0 1
13.010385 25.344852 22.009519 36.000702 1.096538 0.913014 0.002454 -0.001211 230501.000000 0 0 1
12.271485 26.465782 21.537219 36.261257 1.136630 0.934842 0.013514 -0.008518 427773.000000 0 0 1
10.905185 26.440982 21.939619 36.047128 1.179616 0.916455 -0.002988 -0.006809 460010.000000 0 0 1
10.175385 27.660952 21.245219 36.332163 1.218299 0.946225 -0.003982 -0.012191 -197980.000000 0 0 1
10.520485 28.940652 21.660019 37.648351 1.222129 0.957795 -0.005144 -0.012641 -199201.000000 0 0 1
10.481485 29.847752 20.626219 37.764940 1.233084 0.993007 -0.002984 -0.012696 -205013.000000 0 0 1
11.070585 31.227392 20.982319 39.216904 1.230105 1.006250 0.009166 -0.020656 96555.100000 0 0 1
10.339585 32.043992 21.935019 40.185439 1.258675 0.993399 0.000345 -0.019626 -5274.550000 0 0 1
10.703885 31.829822 23.299219 40.872537 1.246392 0.964235 0.005184 -0.013216 -154455.000000 0 0 1
10.023285 32.916882 24.121219 42.021668 1.275214 0.959391 0.000580 -0.018899 176818.000000 0 0 1
8.664185 32.654192 24.408389 41.678937 1.311441 0.945141 -0.004487 -0.019828 -124560.000000 0 0 1
8.288285 33.442942 25.538469 42.887521 1.327858 0.932939 -0.000692 -0.011366 -189130.000000 0 0 1
6.893085 33.133502 26.113919 42.746700 1.365682 0.913601 -0.001332 -0.007321 -482296.000000 0 0 1
5.723585 33.617637 25.538109 42.603990 1.402158 0.928008 -0.015647 -0.003795 1555.870000 0 0 1
5.243885 33.008072 24.364299 41.360007 1.413246 0.940878 -0.015613 -0.012776 95803.700000 0 0 1
4.498685 31.619432 24.490279 40.246744 1.429469 0.916623 -0.021875 -0.014527 -121471.000000 0 0 1
5.433785 30.647212 24.884939 39.850192 1.395319 0.896354 -0.017584 -0.006337 32906.400000 0 0 1
4.968285 29.326162 24.684659 38.652814 1.402975 0.878086 -0.024808 -0.003163 -593809.000000 0 0 1
6.145585 28.408132 25.009219 38.343855 1.357747 0.860267 -0.021486 -0.000749 152036.000000 0 0 1
7.152585 28.240262 23.977519 37.730535 1.322737 0.882148 -0.021201 -0.001892 838268.000000 0 0 1
8.186585 29.206052 23.912919 38.624362 1.297505 0.903181 -0.016242 0.003713 -787187.000000 0 0 1
9.350985 29.002292 24.864929 39.329868 1.258898 0.886388 -0.014720 -0.001959 -1293450.000000 0 0 1
9.013785 28.988122 26.207119 40.104521 1.269326 0.858636 -0.017007 0.000168 -293278.000000 0 0 1
10.121885 28.987692 27.068029 40.931858 1.234853 0.848253 0.012150 -0.001593 250529.000000 0 0 1
10.886685 30.328392 27.295359 42.229941 1.226162 0.868004 0.009097 -0.009858 204307.000000 0 0 1
10.222885 31.094612 28.262779 43.245427 1.253161 0.858539 0.009917 -0.011073 27847.100000 0 0 1
10.777685 32.373242 28.305789 44.332866 1.249418 0.878270 -0.003557 0.001260 -187052.000000 0 0 1
10.137785 33.319062 29.375889 45.561798 1.275432 0.870102 0.010095 -0.000876 -126818.000000 0 0 1
10.312585 33.061402 30.761219 46.321251 1.268438 0.844528 0.022150 -0.021436 411673.000000 0 0 1
9.547285 31.957372 31.273289 45.721361 1.280486 0.817568 0.024229 -0.012372 87766.400000 0 0 1
10.112285 31.821962 32.704979 46.738755 1.263111 0.795763 0.032186 -0.022293 -104283.000000 0 0 1
9.971985 30.543072 33.282288 46.260463 1.255218 0.767780 0.034973 -0.023015 23897.800000 0 0 1
10.216585 30.560712 -34.566640 47.256622 1.248172 2.391267 0.051437 -0.028695 -200157.000000 0 0 1
10.149685 29.138562 -33.988003 45.904861 1.235615 2.404463 0.041459 -0.018700 -1009470.000000 0 0 1
11.196485 28.420382 -34.486444 46.069450 1.195508 2.416707 0.046954 -0.009003 -812854.000000 0 0 1
11.195385 27.083402 -33.974203 44.867513 1.178820 2.429830 0.042852 -0.020178 -416962.000000 0 0 1
12.289485 26.193202 -34.551539 45.065775 1.132102 2.444468 0.039272 -0.022948 -317134.000000 0 0 1
12.151685 24.784402 -34.229999 43.972979 1.114942 2.462961 0.028256 -0.023799 -297183.000000 0 0 1
12.283085 24.405392 -32.863623 42.737747 1.104517 2.448009 0.037291 -0.019985 -249477.000000 0 0 1
12.381185 22.876992 -32.693043 41.779008 1.074729 2.469504 0.022010 -0.025238 -81159.000000 0 0 1
13.586185 22.338492 -33.212683 42.269078 1.024372 2.474695 0.001686 -0.013400 189350.000000 0 0 1
13.516685 20.976792 -33.290073 41.604754 0.998394 2.498343 0.001865 -0.010855 -24711.200000 0 0 1
14.815085 20.309992 -33.821213 42.140918 0.940579 2.502394 0.005666 -0.017526 577745.000000 0 0 1
15.888985 20.521592 -32.890173 41.897005 0.911951 2.473532 -0.001151 -0.018480 139191.000000 0 0 1
17.115185 20.087292 -33.437423 42.596832 0.865119 2.473451 -0.007799 -0.019300 -370014.000000 0 0 1
18.276685 20.308592 -32.465403 42.432046 0.838010 2.442017 -0.002934 -0.013003 -492522.000000 0 0 1
18.654885 21.647392 -32.514533 43.287517 0.859514 2.420568 -0.011894 -0.014883 21470.800000 0 0 1
19.808485 21.913792 -31.733613 43.354498 0.835815 2.391986 -0.011338 -0.005907 205110.000000 0 0 1
19.465285 22.177792 -30.233053 42.246766 0.850443 2.368322 -0.006938 -0.005491 -238444.000000 0 0 1
18.640585 23.291292 -30.136513 42.404777 0.895858 2.361270 -0.007137 -0.006377 -284235.000000 0 0 1
18.275885 23.819392 -28.872383 41.653162 0.916334 2.336663 0.004457 0.008469 337345.000000 0 0 1
19.478385 24.423492 -28.053113 41.986802 0.897565 2.302504 -0.000684 0.016542 543819.000000 0 0 1
20.116085 25.592402 -28.544263 43.294374 0.904639 2.290692 0.004380 0.014278 112194.000000 0 0 1
19.278985 26.751822 -28.724803 43.731608 0.946338 2.287421 0.006104 0.015988 -252857.000000 0 0 1
20.010485 27.896242 -29.453233 45.233978 0.948542 2.279870 0.008227 0.020769 -384127.000000 0 0 1
20.302685 27.879042 -30.838093 46.264759 0.941366 2.300377 -0.001273 0.019988 217155.000000 0 0 1
21.014685 26.789132 -31.415803 46.327392 0.905610 2.316006 0.001445 0.016688 -166374.000000 0 0 1
22.457285 26.517872 -30.972063 46.548854 0.868120 2.298781 0.016031 0.009061 -514576.000000 0 0 1
23.389885 27.460772 -31.443173 47.852417 0.865284 2.287743 0.018981 0.011557 -656273.000000 0 0 1
24.693685 27.005632 -31.281753 48.141773 0.830087 2.278097 0.021914 0.007704 -299832.000000 0 0 1
25.792185 28.094482 -31.545163 49.493777 0.828097 2.261859 0.007993 0.013745 157972.000000 0 0 1
25.863885 29.197232 -30.723773 49.652483 0.845863 2.237980 0.008475 0.015913 -611680.000000 0 0 1
26.872285 30.041232 -31.137223 50.932523 0.841021 2.228552 0.012233 0.013388 -386983.000000 0 0 1
26.945785 31.311572 -30.319613 51.242256 0.860198 2.203952 0.004959 0.017158 -20781.700000 0 0 1
27.339185 31.253332 -28.965553 50.628105 0.852102 2.179890 0.017978 0.012140 279935.000000 0 0 1
26.830085 32.354922 -28.231473 50.633097 0.878477 2.162251 0.013578 0.017476 -390613.000000 0 0 1
27.273885 32.147872 -26.784333 49.947482 0.867239 2.136784 0.030754 0.023456 -5438.120000 0 0 1
27.001285 30.883862 -26.163013 48.655786 0.852372 2.138523 0.027997 0.025509 585692.000000 0 0 1
25.622585 30.532782 -26.046123 47.614789 0.872616 2.149594 0.026930 0.028513 292595.000000 0 0 1
25.069485 30.224102 -24.632623 46.354520 0.878352 2.131044 0.031441 0.030724 -44726.500000 0 0 1
25.044985 31.415852 -23.900823 46.748865 0.897760 2.107447 0.051729 0.013684 13571.000000 0 0 1
24.591485 31.221342 -22.621423 45.730100 0.903631 2.088254 0.051256 0.020263 18341.100000 0 0 1
2.933885 -26.627415 -19.592023 33.188466 -1.461056 2.202259 -0.005097 0.007053 -238011.000000 0 0 1
2.846485 -27.809725 -18.820723 33.700191 -1.468796 2.163343 -0.007559 0.015902 236686.000000 0 0 1
2.759685 -27.410035 -17.447323 32.608817 -1.470453 2.135362 -0.000646 0.013739 -205506.000000 0 0 1
2.675085 -28.580145 -16.502823 33.110782 -1.477469 2.092563 -0.002610 0.017714 193216.000000 0 0 1
3.935685 -29.142835 -16.173723 33.561641 -1.436560 2.073631 0.005782 0.019298 159697.000000 0 0 1
3.877785 -29.890045 -14.922723 33.632420 -1.441782 2.030520 0.000910 0.011696 31706.900000 0 0 1
5.226985 -30.526725 -14.531923 34.210803 -1.401214 2.009511 0.012248 0.006320 827290.000000 0 0 1
6.257285 -29.582515 -14.129223 33.375346 -1.362349 2.007929 0.010640 0.007666 646761.000000 0 0 1
7.578485 -30.047435 -13.970823 33.992141 -1.323732 1.994349 0.015603 -0.001019 113373.000000 0 0 1
7.851485 -30.954555 -12.741223 34.382685 -1.322390 1.950420 0.012613 -0.006156 -976433.000000 0 0 1
7.969085 -30.285275 -11.442823 33.341301 -1.313495 1.921121 0.007915 -0.007471 22467.900000 0 0 1
8.246485 -31.138885 -10.338323 33.830690 -1.311910 1.881354 0.011711 -0.005649 -14601.200000 0 0 1
9.479285 -32.036325 -10.384223 34.985926 -1.283113 1.872148 0.013120 -0.008649 -479792.000000 0 0 1
10.751485 -31.441695 -10.336823 34.799777 -1.241311 1.872384 0.008107 -0.006184 -742423.000000 0 0 1
11.751285 -32.368115 -10.228123 35.922166 -1.222542 1.859521 0.005322 -0.004717 -378907.000000 0 0 1
12.942185 -31.841915 -9.386623 35.630273 -1.184741 1.837388 0.010072 0.007324 449945.000000 0 0 1
13.827085 -30.838365 -9.918123 35.221615 -1.149296 1.856249 0.001378 -0.008757 893167.000000 0 0 1
14.948485 -30.589795 -9.074323 35.235438 -1.116249 1.831266 0.006628 0.001770 790219.000000 0 0 1
16.101485 -29.775595 -9.774223 35.233213 -1.075074 1.851899 0.022345 -0.008435 341501.000000 0 0 1
15.908885 -28.392685 -10.031323 34.056785 -1.060067 1.869778 0.003652 -0.007319 -270091.000000 0 0 1
14.859085 -28.169345 -10.929123 33.671206 -1.085398 1.901368 -0.000684 -0.006180 -730889.000000 0 0 1
14.479985 -26.701415 -11.155623 32.358669 -1.073890 1.922768 -0.013140 0.001282 -522077.000000 0 0 1
13.612185 -26.190015 -10.099323 31.196230 -1.091476 1.900471 -0.007787 0.000114 554026.000000 0 0 1
13.234085 -24.832005 -10.270723 29.954252 -1.081142 1.920778 -0.007386 0.001059 463903.000000 0 0 1
12.413185 -24.496705 -11.574523 29.801766 -1.101780 1.969673 -0.001638 0.003046 -111975.000000 0 0 1
13.223585 -23.985105 -12.623123 30.157780 -1.066937 2.002666 -0.008429 -0.009708 43102.600000 0 0 1
12.649585 -24.244605 -13.905823 30.678735 -1.089902 2.041229 0.000446 -0.012663 -140583.000000 0 0 1
13.394985 -23.598205 -15.071723 31.039615 -1.054520 2.077805 0.000553 -0.010459 -235032.000000 0 0 1
14.343585 -24.425605 -15.667423 32.369997 -1.039815 2.076029 0.003136 -0.015466 -125501.000000 0 0 1
14.961385 -23.851605 -16.800223 32.787034 -1.010567 2.108779 -0.001919 -0.016229 391078.000000 0 0 1
16.020185 -24.833705 -17.532723 34.362124 -0.997875 2.106253 0.006835 -0.017761 837036.000000 0 0 1
17.225485 -25.085415 -16.863623 34.790475 -0.969071 2.076839 0.018626 -0.015417 -798286.000000 0 0 1
18.199585 -24.144405 -17.155923 34.763528 -0.924880 2.086910 0.005082 -0.012664 -1122280.000000 0 0 1
19.618085 -24.553105 -16.770123 35.622482 -0.896662 2.060964 0.009054 -0.010120 -298901.000000 0 0 1
19.993885 -25.707735 -17.487923 36.965802 -0.909778 2.063584 0.013619 -0.009246 -1385.240000 0 0 1
21.243485 -26.200915 -16.999223 37.772307 -0.889510 2.037612 0.031155 -0.007257 643988.000000 0 0 1
21.875485 -27.241485 -17.963323 39.285065 -0.894216 2.045703 0.029693 -0.005946 -4759.670000 0 0 1
22.614285 -26.681985 -19.057923 39.831377 -0.867727 2.069702 0.036199 -0.006722 36225.800000 0 0 1
22.895685 -27.603005 -20.080323 41.101796 -0.878346 2.081225 0.025870 -0.010599 -233501.000000 0 0 1
23.957885 -27.145435 -21.083923 41.897335 -0.847692 2.098127 0.025854 -0.005598 -69287.000000 0 0 1
23.532385 -25.963475 -21.786623 41.261751 -0.834476 2.127052 0.034371 -0.009484 -205734.000000 0 0 1
23.809085 -24.676505 -21.203623 40.316201 -0.803287 2.124608 0.045558 -0.006166 -671482.000000 0 0 1
23.015185 -23.471405 -21.702023 39.390143 -0.795212 2.154299 0.070748 -0.003053 -383847.000000 0 0 1
23.361685 -22.964405 -22.994823 40.023669 -0.776823 2.182827 0.057576 -0.003374 -248418.000000 0 0 1
22.893485 -23.711405 -24.078423 40.818045 -0.802946 2.201727 0.022154 -0.011984 -177257.000000 0 0 1
22.231685 -22.681805 -25.042823 40.445705 -0.795420 2.238483 0.012423 -0.010715 -262680.000000 0 0 1
23.078685 -21.924905 -25.797543 40.973654 -0.759766 2.251851 0.009876 -0.000508 -512539.000000 0 0 1
22.242885 -21.027705 -26.485953 40.477352 -0.757322 2.284106 -0.002597 0.004587 252264.000000 0 0 1
22.913785 -20.431505 -27.755743 41.386824 -0.728193 2.305870 0.000248 0.009254 486562.000000 0 0 1
21.998985 -19.589705 -28.472173 40.967994 -0.727532 2.339196 -0.003779 0.005481 622514.000000 0 0 1
22.450085 -19.386305 -29.815513 42.057103 -0.712296 2.358775 0.009260 -0.004340 -17956.200000 0 0 1
21.543285 -18.275405 -30.370803 41.478780 -0.703513 2.392344 0.025991 -0.002641 -1060880.000000 0 0 1
20.353785 -18.807905 -30.805503 41.436612 -0.745944 2.408991 0.025692 -0.004197 -621715.000000 0 0 1
19.502985 -17.787505 -31.361083 40.991210 -0.739427 2.441944 0.025460 -0.007692 445317.000000 0 0 1
18.243585 -18.353305 -32.053823 41.196113 -0.788396 2.462398 0.023258 -0.005126 142513.000000 0 0 1
18.596685 -19.041905 -33.240063 42.583243 -0.797226 2.466406 0.032506 -0.005205 1033070.000000 0 0 1
17.392485 -19.319105 -33.988773 42.789754 -0.837830 2.488684 0.016107 -0.011454 719590.000000 0 0 1
17.663185 -20.223205 34.057637 43.369215 -0.852867 0.667623 0.045947 -0.012489 -216864.000000 0 0 1
17.941085 -21.546705 34.438672 44.409066 -0.876455 0.683310 0.064126 -0.010870 27710.900000 0 0 1
18.382885 -22.279205 33.347701 44.117600 -0.880928 0.713796 0.048670 -0.013363 298922.000000 0 0 1
19.453585 -23.399205 33.618456 45.344959 -0.877213 0.735652 0.036266 -0.010509 293038.000000 0 0 1
18.955885 -24.408705 34.464382 46.291512 -0.910485 0.730999 0.036618 -0.007447 54575.500000 0 0 1
19.134185 -24.103505 -33.412333 45.425543 -0.899826 2.397261 0.039430 -0.013062 -262251.000000 0 0 1
18.225685 -24.949205 -32.481223 44.829324 -0.939885 2.381182 0.017487 -0.009107 -136812.000000 0 0 1
18.437785 -26.354885 -32.420283 45.668442 -0.960341 2.360160 0.014436 -0.008961 336838.000000 0 0 1
19.562185 -26.851175 -31.692613 45.913902 -0.941171 2.332647 0.003288 -0.009536 325782.000000 0 0 1
19.488485 -28.395995 -31.643253 46.769958 -0.969317 2.313894 0.005661 -0.008914 -811476.000000 0 0 1
18.404285 -28.866885 -30.947503 46.149352 -1.003218 2.305806 -0.007087 -0.007030 -754548.000000 0 0 1
18.528085 -30.256655 -30.805433 46.986485 -1.021335 2.285804 -0.006223 0.002665 -62195.600000 0 0 1
17.222385 -30.934945 -30.375423 46.650270 -1.062801 2.279870 0.001437 0.002290 81899.100000 0 0 1
16.138185 -31.222795 -31.251023 47.031164 -1.093742 2.297587 -0.003723 -0.004881 388256.000000 0 0 1
16.449385 -32.099705 -32.340313 48.444496 -1.097241 2.301743 -0.001936 -0.004030 -186194.000000 0 0 1
15.155785 -32.627975 -33.014973 48.828997 -1.135948 2.313300 0.001984 -0.002621 233568.000000 0 0 1
14.407385 -31.695645 -33.719183 48.468236 -1.144162 2.340185 0.000473 0.001865 -216567.000000 0 0 1
13.166185 -32.206205 -34.159533 48.759222 -1.182719 2.347000 -0.014605 0.001250 -13337.000000 0 0 1
12.284685 -31.194575 34.387756 48.026376 -1.195639 0.772715 -0.011210 0.013110 -136971.000000 0 0 1
11.860285 -30.132525 -34.048053 46.988353 -1.195816 2.381259 -0.011385 0.006717 15873.600000 0 0 1
11.099885 -29.170115 34.494336 46.518408 -1.207193 0.735463 -0.011160 0.016115 78828.200000 0 0 1
10.478585 -28.045895 -33.896563 45.225545 -1.213234 2.418103 -0.010180 0.015664 223686.000000 0 0 1
9.636485 -28.698675 -32.960223 44.753235 -1.246844 2.398660 -0.008564 0.018578 -107663.000000 0 0 1
8.731685 -27.817115 -32.301793 43.513676 -1.266640 2.407347 0.013966 0.018360 728275.000000 0 0 1
7.919385 -28.643705 -31.191723 43.082503 -1.301056 2.380380 0.007660 0.018114 1489580.000000 0 0 1
6.789685 -29.441565 -31.681763 43.779443 -1.344143 2.379898 0.014764 0.021270 1017830.000000 0 0 1
7.108385 -30.666495 -32.412363 45.183230 -1.343022 2.370793 0.010641 0.022425 -488782.000000 0 0 1
5.905485 -31.179225 -33.193253 45.921791 -1.383609 2.378673 0.015918 0.009408 137167.000000 0 0 1
4.831885 -31.571985 -32.341503 45.454484 -1.418931 2.362447 0.018651 0.010687 -475781.000000 0 0 1
3.863185 -32.198155 -33.090033 46.331368 -1.451386 2.366282 0.023947 0.007894 -547860.000000 0 0 1
2.657085 -32.702405 -32.261273 46.014097 -1.489724 2.347759 0.009982 0.009460 -118668.000000 0 0 1
1.786685 -31.679055 -31.879153 44.978163 -1.514456 2.358549 -0.003929 0.014343 -81579.400000 0 0 1
0.722185 -32.168025 -31.077843 44.734055 -1.548350 2.338833 -0.012335 0.012578 -10414.900000 0 0 1
-0.279415 -31.069685 -30.692353 43.674065 1.561803 2.350065 -0.005014 0.011380 -183066.000000 0 0 1
-1.135415 -31.378105 -29.594493 43.147522 1.534627 2.326624 -0.017371 0.008956 192205.000000 0 0 1
-1.761915 -30.176085 -29.178003 42.012573 1.512475 2.338530 -0.007367 0.011203 -7027.610000 0 0 1
-2.470315 -30.275135 -27.798233 41.175575 1.489381 2.311916 -0.007315 0.005930 320093.000000 0 0 1
-1.538115 -30.625415 -26.771743 40.706364 1.520615 2.288531 -0.013762 0.008816 348993.000000 0 0 1
-2.178915 -30.556825 -25.506853 39.863100 1.499610 2.265114 -0.013136 0.004079 -111189.000000 0 0 1
-1.215015 -30.864495 -24.389223 39.356416 1.531451 2.239158 -0.021966 0.005040 -315602.000000 0 0 1
-1.783315 -30.759765 -23.092723 38.504768 1.512886 2.213968 -0.009422 -0.002926 -172716.000000 0 0 1
-0.836915 -31.016245 -22.084123 38.084332 1.543820 2.189371 -0.014024 0.000655 76538.000000 0 0 1
-1.510315 -30.851695 -20.667423 37.165178 1.521881 2.160478 -0.029858 0.007052 -2380.340000 0 0 1
-1.664915 -29.439795 -20.342623 35.823118 1.514303 2.174704 -0.030368 0.002123 -282764.000000 0 0 1
-0.558215 -28.903345 -19.633323 34.945419 1.551486 2.167390 -0.020755 0.005043 -192912.000000 0 0 1
-0.690615 -27.447555 -19.172523 33.487772 1.545640 2.180376 -0.021219 0.002952 -452345.000000 0 0 1
-1.465815 -27.415915 -17.991523 32.824928 1.517381 2.150894 -0.024581 0.009044 36058.100000 0 0 1
-1.307315 -26.192375 -17.311223 31.423367 1.520926 2.154242 -0.020121 0.010105 36548.400000 0 0 1
-2.308915 -26.089345 -16.147023 30.768675 1.482526 2.123262 -0.022229 0.012409 -283298.000000 0 0 1
-2.090315 -24.915005 -15.400223 29.364839 1.487094 2.122859 -0.020574 0.012087 543764.000000 0 0 1
-3.070515 -24.785705 -14.361423 28.809889 1.447542 2.092652 -0.024009 0.008500 175844.000000 0 0 1
-2.743815 -23.641005 -13.344623 27.285611 1.455252 2.081822 -0.021142 0.012165 -974344.000000 0 0 1
-1.639415 -23.978805 -12.590023 27.132627 1.502533 2.053322 -0.018450 0.012298 -846354.000000 0 0 1
-1.380615 -22.836005 -11.781823 25.733258 1.510412 2.046365 -0.011244 0.013734 -49760.600000 0 0 1
0.115685 -22.744105 -11.430823 25.455282 -1.565710 2.036504 -0.001202 0.016803 -98812.400000 0 0 1
0.305285 -21.562705 -10.701223 24.074044 -1.556639 2.031427 -0.004570 0.016784 -738101.000000 0 1 0
1.584485 -21.496205 -10.164223 23.830838 -1.497219 2.011433 0.003146 0.014868 -543427.000000 0 1 0
1.746785 -20.165405 -9.449723 22.338130 -1.484389 2.007584 0.001153 0.012599 -746773.000000 0 1 0
2.149485 -19.212305 -10.423723 21.963309 -1.459379 2.065303 0.000442 0.015578 112383.000000 0 1 0
3.140285 -18.294805 -9.974923 21.072740 -1.400804 2.063894 0.000946 0.012032 1743650.000000 0 1 0
4.594485 -18.754505 -9.486923 21.513773 -1.330548 2.027475 0.016343 -0.000187 1090440.000000 0 1 0
4.580185 -19.440605 -8.259523 21.613304 -1.339417 1.962918 0.021806 0.006967 -295194.000000 0 1 0
5.730085 -20.229305 -8.117023 22.537629 -1.294770 1.939230 0.033231 0.008242 -286241.000000 0 1 0
5.464785 -21.252405 -6.986023 23.028962 -1.319112 1.879011 0.037260 0.002154 132288.000000 0 1 0
4.495185 -22.214305 -7.423723 23.849396 -1.371137 1.887331 0.023983 0.008305 278782.000000 0 1 0
4.319885 -23.315405 -6.576023 24.607186 -1.387594 1.841324 0.032072 -0.001843 -80090.300000 0 1 0
3.332585 -24.357005 -7.110623 25.591615 -1.434818 1.852351 0.026217 0.000222 187209.000000 0 0 1
3.740585 -24.908205 -8.353823 26.536710 -1.421735 1.891045 0.021242 0.004406 -32870.100000 0 0 1
2.586085 -25.261225 -9.056123 26.959797 -1.468778 1.913370 0.005094 0.010099 192733.000000 0 0 1
3.027285 -26.038605 -10.322023 28.172993 -1.455055 1.945912 0.008106 0.006972 227490.000000 0 0 1
3.342685 -27.379505 -10.003823 29.340881 -1.449310 1.918725 0.003788 0.003828 -134594.000000 0 0 1
4.116185 -27.959495 -11.028223 30.336414 -1.424627 1.942852 0.012451 -0.003099 149013.000000 0 0 1
4.357285 -29.469915 -10.819323 31.694156 -1.424004 1.919167 0.010273 -0.002693 135478.000000 0 0 1
3.214485 -30.250735 -11.101423 32.383351 -1.464932 1.920706 0.007150 0.001597 28903.900000 0 0 1
3.522585 -31.658415 -11.063923 33.720531 -1.459984 1.905095 0.006176 -0.003714 330.956000 0 0 1
2.376685 -32.587585 -11.510323 34.642270 -1.497993 1.909498 0.001524 -0.004813 178626.000000 0 0 1
1.922685 -32.366655 -12.908423 34.898774 -1.511463 1.949678 -0.005424 -0.002832 534253.000000 0 0 1
1.366385 -33.560735 -13.440323 36.177786 -1.530105 1.951429 -0.011945 -0.005174 -151040.000000 0 0 1
0.947985 -33.381555 -14.978023 36.600110 -1.542405 1.992411 -0.017830 -0.000184 184492.000000 0 0 1
-0.132115 -32.479205 -15.123823 35.828009 1.566729 2.006582 -0.013101 0.003729 93878.100000 0 0 1
-0.506015 -32.328085 -16.490023 36.294379 1.555145 2.042429 -0.023975 -0.002513 506980.000000 0 0 1
-1.780115 -31.442815 -16.735423 35.663620 1.514242 2.059246 -0.025957 0.003790 -263912.000000 0 0 1
-2.935615 -31.982145 -16.238523 35.988402 1.479264 2.038923 -0.025918 -0.003057 -1535680.000000 0 0 1
-4.027315 -31.586445 -17.012423 36.101874 1.443979 2.061485 -0.017710 -0.001974 357672.000000 0 0 1
-5.415615 -31.697685 -16.305423 36.054666 1.401578 2.040073 -0.011214 -0.012535 186952.000000 0 0 1
-5.608615 -30.793465 -15.237623 34.812055 1.390635 2.023848 -0.022168 -0.013094 -6157.190000 0 0 1
-6.909615 -30.756435 -14.674623 34.771333 1.349809 2.006482 -0.011766 -0.010657 244229.000000 0 0 1
-7.314915 -31.943675 -13.754723 35.540100 1.345683 1.968194 -0.002509 -0.018669 -42925.800000 0 0 1
-7.571915 -33.122615 -14.521823 36.950302 1.346056 1.974699 0.003069 -0.018369 -280589.000000 0 0 1
-8.341015 -33.976915 -13.700623 37.572734 1.330066 1.944045 0.013728 -0.016395 171772.000000 0 0 1
-8.815515 34.296612 -14.490623 38.261587 -1.319205 1.959215 0.021180 -0.012067 -740832.000000 0 0 1
-7.752615 33.427822 -14.685223 37.325301 -1.342904 1.975165 0.004164 -0.011490 -363047.000000 0 0 1
-8.128315 32.160172 -15.245223 36.507026 -1.323236 2.001595 0.008149 -0.014526 -313960.000000 0 0 1
-7.173615 -21.941205 -3.482323 23.345316 1.254804 1.720521 0.002073 0.013799 382022.000000 0 1 0
-6.722015 -20.688805 -4.095823 22.135670 1.256645 1.756901 -0.011199 0.002695 -545365.000000 0 1 0
-5.611515 -20.915605 -4.874823 22.197196 1.308676 1.792215 -0.019621 0.009288 -661745.000000 0 1 0
-5.626015 -19.854205 -6.015623 21.494865 1.294669 1.854448 -0.020740 0.004853 364872.000000 0 1 0
-6.754915 -20.035005 -6.863623 22.229251 1.245610 1.884691 -0.015016 -0.000656 -56026.000000 0 1 0
-6.873615 -19.079705 -7.938023 21.778290 1.225012 1.943884 -0.014843 -0.006442 -437966.000000 0 1 0
-7.822915 -19.476605 -9.071623 22.865487 1.188862 1.978758 -0.005533 -0.007843 3839.620000 0 1 0
-7.239915 -20.302805 -10.075123 23.793452 1.228257 2.008037 -0.001017 0.002273 -492891.000000 0 1 0
-8.091915 -20.639505 -11.129923 24.806117 1.197154 2.036080 0.009850 0.008818 -154468.000000 0 1 0
-7.413215 -21.592005 -12.177823 25.874114 1.240075 2.060831 0.005767 0.012517 -244035.000000 0 0 1
-6.479815 -20.889305 -12.916523 25.400544 1.270010 2.104254 0.008138 0.011486 -747225.000000 0 0 1
-6.038615 -21.667305 -14.018223 26.503727 1.298996 2.128118 0.004277 0.011923 -330437.000000 0 0 1
-5.105015 -20.905405 -14.945923 26.200720 1.331288 2.177837 0.003229 0.013919 -211264.000000 0 0 1
-3.826415 -20.657905 -14.387423 25.463472 1.387644 2.171256 -0.004765 0.013556 -87498.000000 0 0 1
-2.870915 -20.209705 -15.305923 25.513636 1.429684 2.214187 0.001204 0.018392 -187517.000000 0 0 1
-2.811915 -18.643805 -15.435323 24.366935 1.421102 2.256805 0.014971 0.015955 -622322.000000 0 1 0
-3.850915 -17.984405 -16.107323 24.448195 1.359856 2.290065 0.015315 0.014690 -504207.000000 0 1 0
-3.796215 -18.123305 -17.506423 25.482156 1.364316 2.328159 0.022451 0.017147 -80567.700000 0 0 1
-5.136015 -17.949405 -18.275623 26.125814 1.292105 2.345527 0.027507 0.016737 330373.000000 0 0 1
-5.925615 -19.112305 -18.114423 26.991210 1.270152 2.306519 0.017967 0.025802 -36847.500000 0 0 1
-7.230815 -18.961205 -18.644423 27.557694 1.206472 2.313877 0.016325 0.019141 686001.000000 0 0 1
-8.331615 -19.889305 -18.050623 28.121615 1.174104 2.267740 0.017930 0.018984 197966.000000 0 0 1
-8.010015 -21.232505 -18.299623 29.152286 1.210052 2.249424 0.014240 0.019915 135652.000000 0 0 1
-8.853215 -22.188105 -17.688523 29.724994 1.191146 2.208152 0.026594 0.013375 -66702.300000 0 0 1
-8.348015 -23.627005 -17.833223 30.756277 1.231162 2.189309 0.021017 0.009486 -613309.000000 0 0 1
-8.315515 -24.102705 -19.202023 31.918738 1.238580 2.216288 0.010006 0.006873 495732.000000 0 0 1
-7.388015 -25.163275 -19.450823 32.651304 1.285219 2.208950 0.002417 0.006899 1288270.000000 0 0 1
-5.831515 -24.908905 -19.286823 32.038128 1.340824 2.216795 -0.002119 0.013614 593302.000000 0 0 1
-5.176815 -24.126205 -20.263523 31.929352 1.359429 2.258334 -0.007107 0.021535 139104.000000 0 0 1
-5.153015 -22.729105 -20.045523 30.740669 1.347851 2.281127 0.017096 0.020148 -149008.000000 0 0 1
-4.092415 -22.301105 -18.996023 29.579317 1.389308 2.268169 0.012116 0.029081 -223746.000000 0 0 1
-2.793515 -22.601905 -19.429123 29.935608 1.447824 2.277106 0.002716 0.021661 -228305.000000 0 0 1
-1.846715 -22.423805 -18.362623 29.041751 1.488627 2.255294 -0.002653 0.017551 275587.000000 0 0 1
-0.454515 -22.989705 -18.662123 29.614320 1.551029 2.252571 -0.006246 0.013425 -14505.700000 0 0 1
0.289585 -22.242305 -19.601523 29.648334 -1.557778 2.293126 0.002839 0.009890 -1379230.000000 0 0 1
1.584985 -22.687305 -19.691423 30.082854 -1.501047 2.284414 0.006664 0.005669 -899081.000000 0 0 1
2.422085 -22.017305 -20.789723 30.378295 -1.461229 2.324523 0.017501 0.008419 30192.900000 0 0 1
1.977885 -22.377005 -22.065623 31.488634 -1.482636 2.347243 0.011960 -0.005091 -24665.000000 0 0 1
1.330285 -21.286105 -22.714823 31.158163 -1.508382 2.387681 0.009263 0.000411 -388931.000000 0 0 1
0.817285 -21.736305 -24.069923 32.442196 -1.533214 2.406745 0.018758 0.003111 -200697.000000 0 0 1
0.253185 -20.738605 -24.888723 32.397567 -1.558589 2.446865 0.023318 0.005294 -211173.000000 0 0 1
-1.093115 -20.443905 -24.594423 32.000528 1.517378 2.447388 0.028247 0.007140 -464858.000000 0 0 1
-1.664715 -19.366605 -25.509603 32.071428 1.485049 2.490463 0.020066 0.011707 -225085.000000 0 0 1
-1.141715 -18.097505 -25.246403 31.083823 1.507793 2.518716 0.032001 0.001987 -290869.000000 0 0 1
-1.764715 -17.066905 -25.918033 31.082759 1.467763 2.556823 0.017009 0.004611 -304059.000000 0 0 1
-1.265215 -15.645205 -25.544093 29.981226 1.490103 2.590596 0.024832 0.006661 846795.000000 0 0 1
0.066585 -15.332905 -25.989923 30.175793 -1.566454 2.608587 0.024340 0.003541 372554.000000 0 0 1
0.558685 -14.125305 -25.460453 29.121659 -1.531265 2.634745 0.019016 0.001125 275582.000000 0 0 1
0.126185 -12.850105 -26.192713 29.175321 -1.560977 2.685475 0.010404 0.008868 225349.000000 0 0 1
0.871285 -11.701805 -25.739013 28.287597 -1.496476 2.713850 0.010869 0.006826 247031.000000 0 0 1
0.600685 -10.579405 -26.509683 28.549044 -1.514079 2.761328 0.005369 0.004910 -277150.000000 0 0 1
1.458685 -9.281605 -26.150533 27.787161 -1.414913 2.796669 0.015784 0.000393 1076990.000000 0 0 1
2.853485 -9.206205 -26.428923 28.131558 -1.270234 2.791894 0.014056 0.006806 363163.000000 0 0 1
3.159785 -9.429405 -27.818653 29.542772 -1.247457 2.798266 0.000924 0.009545 -1140570.000000 0 0 1
4.588485 -9.259905 -28.316423 30.143322 -1.110738 2.791652 -0.015020 0.020455 -1056700.000000 0 0 1
4.908885 -7.907505 -28.601483 30.077743 -1.015232 2.826987 -0.024149 0.014027 113934.000000 0 0 1
6.163085 -7.681705 -29.209893 30.825477 -0.894650 2.816400 -0.026708 0.011006 214524.000000 0 0 1
7.437185 -7.845905 -28.307753 30.301796 -0.812135 2.776789 -0.020757 0.004076 -368331.000000 0 0 1
7.816185 -9.081005 -27.762893 30.237983 -0.860113 2.734173 -0.012383 0.006414 663035.000000 0 0 1
8.585385 -9.850805 -28.728493 31.560632 -0.853929 2.714716 -0.005470 -0.002507 -62167.500000 0 0 1
8.932385 -11.278405 -28.265203 31.716110 -0.900959 2.670767 0.007978 -0.009610 -110500.000000 0 0 1
7.825385 -12.141005 -28.339893 31.808649 -0.998268 2.670228 0.005496 -0.001493 -24008.000000 0 0 1
7.946585 -13.309705 -27.540003 31.602978 -1.032547 2.628921 0.010621 0.001333 67535.900000 0 0 1
8.841085 -14.398505 -28.173863 32.851914 -1.020126 2.601385 0.013895 -0.008665 59703.500000 0 0 1
8.059785 -14.956305 -29.189123 33.773600 -1.076524 2.614471 0.015081 -0.016692 49550.700000 0 0 1
8.748285 -15.969105 -29.937653 35.040089 -1.069624 2.595158 0.014580 -0.017546 -31176.900000 0 0 1
7.871885 -16.451605 -31.079053 36.035113 -1.124506 2.610918 0.006254 -0.024219 -320717.000000 0 0 1
7.532785 -15.437305 -32.031613 36.346629 -1.116827 2.649363 0.001203 -0.025350 475566.000000 0 0 1
6.489685 -15.848305 -32.895643 37.086495 -1.182138 2.661599 0.007316 -0.019774 -311269.000000 0 0 1
5.684085 -14.839205 -33.662773 37.224899 -1.204991 2.700552 0.009035 -0.014144 -270031.000000 0 0 1
6.340885 -14.012605 34.629387 37.891350 -1.145855 0.417975 0.012540 -0.009831 -531629.000000 0 0 1
5.495585 -13.144705 33.950817 36.819054 -1.174799 0.397326 -0.010403 -0.002179 -401785.000000 0 0 1
6.263585 -12.036205 33.143419 35.813251 -1.090966 0.388571 0.003934 -0.000069 376997.000000 0 0 1
6.930085 -12.381605 31.921929 34.933362 -1.060530 0.418265 0.001758 -0.001710 342799.000000 0 0 1
7.055285 -11.232305 31.072159 33.784920 -1.009953 0.403468 0.009223 0.007689 -137922.000000 0 0 1
7.592785 -11.588305 29.643499 32.721189 -0.990767 0.437197 0.000706 0.018106 -25344.800000 0 0 1
6.734185 -12.431505 28.914479 32.186001 -1.074345 0.454784 0.004584 0.017127 -39401.200000 0 0 1
7.073985 -12.421905 27.564369 31.050595 -1.053123 0.478418 0.010127 0.020615 -336159.000000 0 0 1
6.053085 -13.122605 26.637659 30.305239 -1.138609 0.497080 0.008110 0.009044 -171595.000000 0 0 1
6.057885 -14.557405 26.903489 31.183549 -1.176456 0.530120 0.014827 0.008915 84966.600000 0 0 1
5.425485 -15.323205 25.872659 30.555376 -1.230500 0.560957 0.003386 0.007767 -638759.000000 0 0 1
3.919985 -15.430405 25.952649 30.446735 -1.322016 0.550247 -0.006829 0.001033 -1121210.000000 0 0 1
3.203985 -14.383805 25.391399 29.357836 -1.351625 0.525858 -0.013814 0.005363 101073.000000 0 0 1
1.825885 -14.642105 25.137349 29.148095 -1.446736 0.530802 -0.015617 0.006147 538963.000000 0 0 1
1.117685 -13.299105 24.841999 28.200006 -1.486951 0.492990 -0.009398 0.009191 -798467.000000 0 0 1
1.503385 -12.655805 23.689119 26.899887 -1.452560 0.493585 -0.004323 0.005274 -26604.900000 0 0 1
0.582185 -11.639305 23.309319 26.060252 -1.520819 0.463620 -0.002417 0.015343 -58064.200000 0 0 1
-0.777815 -12.097905 22.784419 25.808798 1.506591 0.488972 -0.011877 0.018936 -954219.000000 0 0 1
-0.773015 -13.023305 21.721319 25.338108 1.511510 0.540874 -0.009688 0.012432 111800.000000 0 0 1
-2.112015 -13.219605 21.281019 25.141606 1.412371 0.561521 -0.008135 0.001520 415824.000000 0 0 1
-2.197515 -14.079905 20.054119 24.601636 1.415971 0.617802 -0.002207 0.002341 -204330.000000 0 1 0
-1.924515 -15.458005 20.271719 25.565529 1.446934 0.655191 -0.005298 0.000980 25054.900000 0 0 1
-2.023015 -16.196405 19.046219 25.083353 1.446535 0.708533 -0.003612 0.007100 -7814.040000 0 0 1
-2.393015 -17.664905 19.276519 26.255658 1.436149 0.746330 -0.006472 0.005907 -96925.000000 0 0 1
-2.006315 -18.420205 18.158219 25.943211 1.462305 0.795508 -0.018412 0.004977 20692.500000 0 0 1
-2.757915 -19.638205 17.998319 26.780677 1.431273 0.833804 -0.008601 -0.004525 -203471.000000 0 0 1
-2.200815 -20.568505 16.933819 26.733148 1.464203 0.884807 -0.011376 -0.000966 423825.000000 0 0 1
-1.021615 -21.270005 17.348619 27.466914 1.522802 0.887157 -0.017485 -0.008380 160183.000000 0 0 1
-1.240215 -22.369305 18.194619 28.861187 1.515410 0.888704 -0.013771 -0.008718 -997518.000000 0 0 1
-0.010715 -23.164005 18.567019 29.686789 1.570334 0.895113 -0.018733 -0.002458 -266375.000000 0 0 1
0.623785 -23.721005 17.383319 29.415217 -1.544506 0.938544 0.011541 -0.006531 219304.000000 0 0 1
1.904185 -24.268005 17.664219 30.076346 -1.492492 0.943062 -0.002460 0.003955 138283.000000 0 0 1
3.015385 -23.697505 16.778119 29.191943 -1.444232 0.958496 0.000073 -0.013321 -213420.000000 0 0 1
3.296185 -22.358705 17.218919 28.412457 -1.424428 0.919731 -0.010462 -0.007584 -649892.000000 0 0 1
4.167885 -21.768705 16.319419 27.524012 -1.381623 0.936121 -0.017293 -0.017007 -435589.000000 0 0 1
4.771285 -20.455505 16.820219 26.909341 -1.341642 0.895575 -0.002981 -0.005404 -806973.000000 0 0 1
5.673385 -20.703405 17.865219 27.928199 -1.303331 0.876709 -0.005147 0.002489 -173331.000000 0 0 1
6.185385 -19.537205 18.530219 27.628434 -1.264185 0.835653 0.007008 0.008338 334377.000000 0 0 1
7.286085 -18.724705 17.796119 26.840333 -1.199708 0.845929 0.017047 -0.002665 -485243.000000 0 0 1
6.847385 -18.246005 16.579119 25.586531 -1.211779 0.865890 0.014595 -0.004854 -599431.000000 0 0 1
7.899585 -17.692105 15.883419 25.053882 -1.150854 0.884120 0.025004 0.001729 -451381.000000 0 0 1
7.390685 -16.772305 14.741019 23.520843 -1.155747 0.893457 0.026639 -0.004676 -111530.000000 0 1 0
6.741685 -17.433305 13.727619 23.190903 -1.201797 0.937333 0.020735 -0.003678 -307271.000000 0 1 0
6.219985 -16.550705 12.804519 21.830478 -1.211312 0.944012 0.026234 -0.010375 -211718.000000 0 1 0
6.586485 -16.838305 11.318519 21.331178 -1.197933 1.011477 0.031622 -0.004959 -431269.000000 0 1 0
7.961885 -16.628605 11.207019 21.575435 -1.124247 1.024608 0.024183 0.003421 -813514.000000 0 1 0
8.405785 -16.500605 9.898119 20.997617 -1.099639 1.079927 0.017557 -0.004582 445501.000000 0 1 0
9.946285 -16.295705 9.828319 21.472644 -1.022792 1.095375 0.014061 0.001991 372507.000000 0 1 0
10.304485 -15.981205 8.527219 20.839740 -0.998094 1.149240 0.009662 -0.013680 -1349760.000000 0 1 0
11.669185 -15.868805 8.368819 21.401541 -0.936735 1.169037 0.013447 -0.009401 -671174.000000 0 1 0
12.329585 -17.099805 7.623119 22.417269 -0.946091 1.223820 -0.002377 -0.003802 -51544.300000 0 1 0
12.293885 -18.282505 8.406019 23.580728 -0.978808 1.206300 -0.022399 0.002208 46888.900000 0 1 0
12.760185 -19.355705 7.623719 24.404645 -0.987948 1.253090 -0.024511 0.005961 -126601.000000 0 1 0
13.445185 -20.470205 8.491419 25.921159 -0.989644 1.237048 -0.011238 0.009359 351955.000000 0 0 1
12.509185 -21.287305 9.200019 26.348992 -1.039518 1.214122 0.002860 0.011112 182263.000000 0 0 1
13.170585 -22.408305 9.684519 27.737814 -1.039429 1.214138 0.008224 0.007573 469256.000000 0 0 1
12.167485 -23.489305 10.269019 28.376890 -1.092852 1.200513 0.021861 0.000824 623713.000000 0 0 1
11.875985 -23.028405 11.570919 28.376621 -1.094660 1.150794 0.018146 -0.003362 54581.300000 0 0 1
10.815385 -23.678605 12.295419 28.789342 -1.142337 1.129533 0.021424 0.003879 573890.000000 0 0 1
11.180485 -25.143465 12.689719 30.302245 -1.152386 1.138704 0.026024 -0.005604 623585.000000 0 0 1
12.314185 -25.285195 13.578819 31.230827 -1.117593 1.120992 0.009898 -0.011478 736607.000000 0 0 1
12.578785 -26.627405 13.994119 32.604906 -1.129472 1.127186 0.016271 -0.025321 134197.000000 0 0 1
13.737385 -26.869655 14.984819 33.693306 -1.098181 1.109910 0.035873 -0.023871 243962.000000 0 0 1
13.318885 -26.488675 16.228219 33.799374 -1.104900 1.069989 0.032840 -0.017458 447881.000000 0 0 1
14.401685 -26.783345 17.073219 34.874789 -1.077437 1.059214 0.047835 -0.020692 -223319.000000 0 0 1
14.067585 -26.350155 18.550719 35.161865 -1.080420 1.015046 0.039364 -0.021455 10520.200000 0 0 1
14.432885 -25.057765 18.990819 34.595534 -1.048222 0.989703 0.006268 -0.011781 -41790.100000 0 0 1
15.828085 -24.936505 19.190319 35.222520 -1.005227 0.994609 0.015305 -0.011319 -58425.200000 0 0 1
16.272185 -23.480905 19.573719 34.630440 -0.964786 0.970100 -0.005106 -0.001657 -62944.900000 0 0 1
16.171085 -22.511905 18.514819 33.332992 -0.947871 0.981892 -0.018822 0.000659 -130193.000000 0 0 1
14.922485 -21.869405 18.447119 32.268369 -0.972018 0.962247 -0.007292 0.000793 -785469.000000 0 0 1
14.906685 -20.674805 17.436819 30.882025 -0.946110 0.970815 -0.023468 0.004509 557199.000000 0 0 1
15.863585 -19.705105 17.914319 30.997860 -0.892984 0.954617 -0.034509 0.004238 727111.000000 0 0 1
17.219285 -19.939505 17.589819 31.677900 -0.858473 0.982108 -0.034553 0.002800 -290463.000000 0 0 1
18.121085 -18.723205 17.932019 31.630514 -0.801739 0.968032 -0.017533 0.003910 -277923.000000 0 0 1
18.234685 -18.418605 19.301319 32.315471 -0.790416 0.930693 -0.023876 0.007595 128012.000000 0 0 1
18.613985 -17.065905 19.445619 31.872522 -0.742037 0.914602 -0.014397 0.003319 -179797.000000 0 0 1
19.270785 -16.678005 20.808319 32.901446 -0.713399 0.886092 -0.005758 0.012261 293240.000000 0 0 1
20.499685 -17.322105 21.096319 34.137180 -0.701580 0.904617 -0.001192 0.014055 59492.300000 0 0 1
21.002585 -17.095105 22.403719 35.146519 -0.683191 0.879628 0.004851 0.018518 162842.000000 0 0 1
32.817568 -1.158305 -8.414323 33.898898 -0.035281 1.821637 0.033854 0.005680 -1404260.000000 0 0 1
34.101508 -1.116305 -8.880523 35.256527 -0.032723 1.825422 0.008811 0.008821 -1190190.000000 0 0 1
34.789752 -2.248505 -8.324723 35.842484 -0.064541 1.805195 0.003150 0.003554 328174.000000 0 0 1
-33.479345 -2.258505 -8.842223 34.700898 0.067358 1.828450 -0.001209 0.003085 322574.000000 0 0 1
-32.722545 -3.382205 -8.440423 33.962406 0.102994 1.821951 -0.000187 -0.003003 -590504.000000 0 0 1
-31.447275 -3.387205 -8.979823 32.879196 0.107297 1.847427 0.007385 -0.010929 -850986.000000 0 0 1
-30.445305 -4.309105 -8.244723 31.834894 0.140602 1.832766 0.013687 -0.008629 -271562.000000 0 0 1
-30.041995 -3.745105 -7.025023 31.078903 0.124022 1.798805 0.019275 -0.004721 193511.000000 0 0 1
-29.105435 -4.573105 -6.373723 30.144054 0.155848 1.783847 0.020409 -0.009434 -193632.000000 0 0 1
-28.917385 -4.125705 -4.954323 29.627385 0.141716 1.738807 0.028268 -0.012435 -650658.000000 0 0 1
-28.383855 -2.832405 -4.839123 28.932384 0.099460 1.738842 0.023495 -0.009644 324209.000000 0 0 1
-28.701395 -2.271905 -3.589823 29.014108 0.078992 1.694841 0.019806 -0.007321 -115003.000000 0 0 1
-28.104245 -0.828205 -3.444223 28.326616 0.029460 1.692688 0.044698 -0.004123 852985.000000 0 0 1
-26.696615 -0.698205 -3.144223 26.890201 0.026147 1.687993 0.023607 0.008994 1478110.000000 0 0 1
-26.227585 0.580295 -2.700123 26.372593 -0.022122 1.673360 0.026519 0.004125 815383.000000 0 0 1
-24.789715 0.675995 -2.073123 24.885433 -0.027262 1.654200 -0.004191 0.007944 863521.000000 0 1 0
-24.809215 0.011795 -0.839123 24.823405 -0.000475 1.604606 0.007103 0.004376 221740.000000 0 1 0
-23.467615 -0.156305 -0.462623 23.472695 0.006660 1.590507 -0.014382 0.002657 -554091.000000 0 1 0
-23.345715 -1.196905 0.725077 23.387619 0.051224 1.539789 -0.021629 0.004400 -464564.000000 0 1 0
-23.548915 -2.521205 0.229277 23.684604 0.106656 1.561116 -0.006379 0.004303 492829.000000 0 1 0
-22.693115 -3.435405 0.899477 22.969296 0.150245 1.531626 -0.008120 0.003929 -113393.000000 0 1 0
-23.159815 -4.908705 0.696877 23.684553 0.208858 1.541369 0.000308 0.004286 -278933.000000 0 1 0
-24.298415 -5.293805 1.437877 24.909935 0.214514 1.513041 0.004830 0.009103 180958.000000 0 1 0
-24.394215 -6.726505 1.441977 25.345668 0.269056 1.513873 0.008418 0.006774 -767788.000000 0 0 1
-25.614125 -7.231805 2.165377 26.703394 0.275174 1.489617 0.006211 0.004839 -621346.000000 0 0 1
-25.494105 -7.083805 3.580577 26.701128 0.271024 1.436293 0.007623 0.006801 446643.000000 0 0 1
-26.610175 -7.681905 4.249977 28.020981 0.281042 1.418537 0.010476 0.016143 263500.000000 0 0 1
-26.582305 -7.706205 5.766477 28.271130 0.282165 1.365384 0.013074 0.016360 123101.000000 0 0 1
-25.831265 -8.835805 6.314077 28.021300 0.329583 1.343513 0.019166 0.031793 472267.000000 0 0 1
-25.733605 -8.922605 7.731977 28.312802 0.333758 1.294191 0.011358 0.017392 365336.000000 0 0 1
-24.931515 -7.756205 8.467577 27.448844 0.301609 1.257196 0.022549 0.007525 515102.000000 0 0 1
-23.526915 -7.832705 8.237477 26.128969 0.321383 1.250063 0.025719 0.010615 389043.000000 0 0 1
-22.919315 -6.548705 8.388177 25.269390 0.278313 1.232426 0.024119 -0.001560 -871385.000000 0 0 1
-21.562815 -6.444505 7.745177 23.800723 0.290421 1.239343 0.005880 0.002375 -1192720.000000 0 1 0
-20.595915 -6.943805 8.621177 23.382319 0.325177 1.193181 0.012933 -0.004169 -584188.000000 0 1 0
-19.307615 -6.637405 8.137077 21.978425 0.331115 1.191539 0.008882 -0.006943 -823965.000000 0 1 0
-18.256915 -6.966705 9.154077 21.578857 0.364538 1.132701 -0.000147 0.000230 -891326.000000 0 1 0
-18.142715 -5.955905 10.169077 21.634256 0.317196 1.081454 0.000518 0.001522 155747.000000 0 1 0
-17.194615 -6.305705 11.161577 21.447552 0.351497 1.023462 -0.008308 0.008609 -432121.000000 0 1 0
-16.973215 -5.111005 12.120977 21.473949 0.292486 0.971029 -0.019265 0.008189 399447.000000 0 1 0
-18.167915 -4.841105 12.881777 22.791437 0.260414 0.970118 0.001130 0.003304 861221.000000 0 1 0
-18.223215 -3.480705 13.117277 22.721440 0.188731 0.955368 0.008160 0.005689 -637633.000000 0 1 0
-19.345315 -3.065105 14.012277 24.082774 0.157135 0.949809 0.006514 0.000102 -641793.000000 0 1 0
-19.224415 -3.704805 15.221277 24.799012 0.190380 0.909949 0.006874 0.009948 -312885.000000 0 1 0
-20.439215 -3.795105 15.886677 26.163923 0.183587 0.918267 0.007281 0.015001 -610019.000000 0 0 1
-20.306315 -4.899805 17.014977 26.941863 0.236769 0.887253 0.002247 0.025267 95393.200000 0 0 1
-21.280615 -4.764505 18.036777 28.300007 0.220257 0.879753 0.001665 0.016863 539358.000000 0 0 1
-21.050215 -5.758305 19.007477 28.940522 0.267018 0.854259 -0.003899 0.012219 26704.000000 0 0 1
-21.880015 -5.537505 20.327877 30.374687 0.247880 0.837614 -0.005567 0.028793 -25434.800000 0 0 1
-21.436615 -4.362505 21.041877 30.353262 0.200766 0.804831 -0.000997 0.022781 395867.000000 0 0 1
-22.186115 -4.136405 22.221577 31.672260 0.184325 0.793142 0.005150 0.008326 -63448.200000 0 0 1
-22.128315 -2.702905 22.825777 31.905863 0.121545 0.773585 0.006929 0.010898 -182884.000000 0 0 1
-22.983815 -1.791605 22.200077 32.004828 0.077793 0.804255 0.010281 0.007651 -191807.000000 0 0 1
-22.676315 -0.428705 22.564177 31.992830 0.018903 0.787966 0.009902 0.000336 -103899.000000 0 0 1
-23.682515 0.593095 21.973177 32.311512 -0.025038 0.822977 0.003651 0.004819 988993.000000 0 0 1
-24.814815 0.710195 22.860977 33.747647 -0.028612 0.826561 -0.004823 0.002208 983403.000000 0 0 1
-26.009995 1.291295 22.320277 34.298427 -0.049605 0.862202 0.002400 0.000633 1571710.000000 0 0 1
-27.176165 1.324795 23.389977 35.880218 -0.048710 0.860721 0.004951 -0.002099 486329.000000 0 0 1
-26.884335 2.228895 24.440977 36.401879 -0.082718 0.834672 0.000088 0.004353 165232.000000 0 0 1
-27.843965 2.187095 25.492777 37.814699 -0.078387 0.830983 -0.002178 0.002723 -238752.000000 0 0 1
-27.436885 2.993295 26.693277 38.396270 -0.108668 0.802091 0.000220 0.004488 304927.000000 0 0 1
-26.375695 2.419995 27.467977 38.157875 -0.091495 0.767209 -0.010836 0.004447 518885.000000 0 0 1
-25.973905 3.318495 28.486877 38.693130 -0.127074 0.743320 -0.013064 0.002502 153148.000000 0 0 1
-24.834415 2.840495 29.436077 38.617344 -0.113882 0.704014 -0.009205 0.004946 178960.000000 0 0 1
-25.209595 1.708595 30.212677 39.385896 -0.067672 0.696498 -0.010737 0.002291 -84206.000000 0 0 1
-24.234415 1.436195 31.177177 39.514376 -0.059193 0.661603 -0.005213 -0.004698 -340839.000000 0 0 1
-24.727215 0.462795 32.261977 40.650763 -0.018714 0.654031 -0.009778 -0.010357 -39478.300000 0 0 1
-24.758615 -0.835905 31.714677 40.243117 0.033749 0.663117 -0.014535 -0.008157 -345629.000000 0 0 1
-25.179495 -1.827605 32.660077 41.279871 0.072456 0.658050 -0.011136 -0.009365 -173340.000000 0 0 1
-25.848055 -3.032505 31.894577 41.165302 0.116787 0.684409 -0.009019 -0.008965 -264346.000000 0 0 1
-27.030365 -2.764305 31.198177 41.371588 0.101912 0.716519 -0.001323 -0.001597 -317320.000000 0 0 1
-26.905305 -1.888705 30.058177 40.385104 0.070083 0.731327 -0.005487 0.002081 -1147360.000000 0 0 1
-28.263195 -1.451605 29.482177 40.867030 0.051315 0.764950 0.000350 -0.002231 313917.000000 0 0 1
-29.059565 -0.732205 30.402277 42.062964 0.025191 0.762979 0.004225 -0.000265 45853.400000 0 0 1
-30.450065 -0.741205 30.107177 42.827537 0.024337 0.791208 0.000808 -0.001902 525805.000000 0 0 1
-31.294095 -0.425305 31.362177 44.306742 0.013590 0.784358 0.008969 -0.003418 -106316.000000 0 0 1
-31.456085 -1.505905 32.307877 45.117092 0.047837 0.772613 0.017520 -0.002386 -27597.800000 0 0 1
-32.056375 -1.189705 33.553577 46.420568 0.037096 0.762926 0.031067 -0.005302 -24295.500000 0 0 1
-32.174825 -2.436905 34.449177 47.200675 0.075595 0.752701 0.032394 -0.002325 11963.700000 0 0 1
-33.158715 -3.254605 33.841277 47.490261 0.097839 0.777608 0.026127 -0.003756 66372.800000 0 0 1
-33.202725 -4.533705 34.396277 48.021655 0.135707 0.772360 0.014809 -0.001999 124403.000000 0 0 1
-34.516931 -5.245905 33.964777 48.708769 0.150826 0.799168 0.003856 -0.003705 594769.000000 0 0 1
34.112582 -4.901905 -34.432265 48.716300 -0.142721 2.355749 0.001757 -0.012368 -80977.800000 0 0 1
32.976978 -5.366305 34.131177 47.762073 -0.161315 0.774732 -0.008432 -0.011606 -207167.000000 0 0 1
31.665078 -5.065005 -34.327065 46.975301 -0.158612 2.390212 0.000253 -0.007125 -387487.000000 0 0 1
31.430818 -5.816405 -33.105665 46.018605 -0.182984 2.373731 -0.010735 -0.006780 -20733.600000 0 0 1
31.048638 -7.157605 -33.291565 46.082291 -0.226571 2.378117 -0.011587 -0.002967 -595521.000000 0 0 1
29.764318 -7.401505 -34.120265 45.879074 -0.243727 2.409384 -0.013155 -0.004796 -248217.000000 0 0 1
28.617468 -7.129605 -33.324165 44.500458 -0.244164 2.417121 -0.004477 -0.013649 -976379.000000 0 0 1
27.442088 -7.291405 -34.027565 44.318258 -0.259701 2.446197 0.016541 -0.012498 -650529.000000 0 0 1
26.273138 -7.000705 -33.050665 42.797595 -0.260408 2.453180 0.021032 -0.016767 1224320.000000 0 0 1
24.975298 -7.535005 -33.443865 42.415020 -0.293014 2.479148 0.010674 -0.013279 1937510.000000 0 0 1
23.928388 -7.234605 -32.485465 40.990398 -0.293606 2.485717 0.013400 -0.012845 1646380.000000 0 0 1
22.537088 -7.912205 -32.837765 40.605938 -0.337632 2.512724 0.018927 -0.018714 752262.000000 0 0 1
22.505388 -9.372905 -32.829465 40.891535 -0.394627 2.502844 0.022167 -0.025950 163445.000000 0 0 1
22.541188 -9.962705 -31.584465 40.061691 -0.416163 2.478993 0.030670 -0.023462 -277331.000000 0 0 1
22.418388 -11.498205 -31.616565 40.427714 -0.473908 2.468748 0.037423 -0.019129 180035.000000 0 0 1
21.117288 -11.887105 -32.022565 40.158285 -0.512700 2.493785 0.030995 -0.019063 309479.000000 0 0 1
20.942188 -13.280005 -31.930865 40.429123 -0.565136 2.481277 0.029064 -0.015281 -545450.000000 0 0 1
19.856188 -13.886405 -32.855365 40.823712 -0.610289 2.506153 0.022246 -0.010678 885964.000000 0 0 1
18.519988 -13.434905 -32.563865 39.798140 -0.627588 2.529114 0.022870 -0.011027 509104.000000 0 0 1
18.221788 -12.355005 -33.381665 39.987689 -0.595832 2.558563 0.024980 -0.015320 -1276350.000000 0 0 1
16.957888 -11.713305 -32.897165 38.820033 -0.604477 2.581917 0.020139 -0.016782 -366127.000000 0 0 1
15.711688 -12.257505 -33.285765 38.794919 -0.662521 2.602146 0.029395 -0.013455 -164448.000000 0 0 1
14.640688 -11.657905 -32.599965 37.590082 -0.672461 2.620447 0.034358 -0.016692 748905.000000 0 0 1
13.234988 -12.068505 -33.166665 37.694050 -0.739331 2.646430 0.022080 -0.014710 -55168.400000 0 0 1
12.932588 -13.420605 -33.282465 38.145602 -0.803914 2.631115 0.018739 -0.014449 983283.000000 0 0 1
11.620688 -13.701105 -33.840265 38.313499 -0.867373 2.653538 -0.003574 -0.023023 1323930.000000 0 0 1
10.493188 -13.603905 -32.766765 36.997759 -0.913779 2.658671 -0.022474 -0.010298 -468690.000000 0 0 1
9.905888 -12.332305 -32.715465 36.338878 -0.894079 2.691228 -0.001544 -0.008577 -524948.000000 0 0 1
8.897488 -12.316305 -31.749765 35.198072 -0.945184 2.695249 0.000515 -0.016655 -823975.000000 0 0 1
7.727588 -11.431605 -32.039065 34.884078 -0.976371 2.734924 -0.012932 -0.003612 -1000630.000000 0 0 1
8.101588 -10.052505 -32.056965 34.559190 -0.892452 2.758722 -0.008121 0.004645 613737.000000 0 0 1
7.275988 -9.227605 -32.917265 34.951896 -0.903106 2.798705 -0.009136 0.006706 61397.400000 0 0 1
7.898788 -7.812005 -33.154965 34.966699 -0.779874 2.818276 -0.007078 0.014108 -62819.700000 0 0 1
7.873788 -7.059005 -31.975265 33.678535 -0.730889 2.822198 -0.023434 0.007895 167199.000000 0 0 1
8.479988 -5.824805 -32.194565 33.798352 -0.601872 2.832298 -0.021327 0.005453 -372448.000000 0 0 1
8.758588 -4.986505 -30.921465 32.522533 -0.517561 2.826509 -0.026314 0.007267 -71240.400000 0 0 1
7.635788 -4.401205 -30.298065 31.553900 -0.522880 2.858515 -0.024989 0.012998 233259.000000 0 0 1
8.060188 -3.463605 -29.327465 30.611492 -0.405860 2.850930 -0.026120 0.007197 424329.000000 0 0 1
6.787988 -2.765305 -28.803765 29.721719 -0.386854 2.892413 -0.015378 0.008988 -304765.000000 0 0 1
6.040188 -2.021605 -29.753565 30.427708 -0.322973 2.930700 -0.013621 0.014279 -81173.600000 0 0 1
4.739388 -1.691405 -29.353165 29.781386 -0.342793 2.971808 -0.008868 0.008245 131190.000000 0 0 1
3.674588 -2.813105 -29.437665 29.799200 -0.653383 2.985663 -0.016423 0.002918 -697512.000000 0 0 1
3.852388 -3.817205 -28.432665 28.945266 -0.780811 2.953116 -0.005837 0.002135 -250357.000000 0 0 1
3.016488 -4.963205 -28.444165 29.031072 -1.024683 2.940173 0.006793 0.002397 111307.000000 0 0 1
3.238788 -5.783505 -27.101965 27.900810 -1.060305 2.901721 0.005070 -0.003328 -35436.500000 0 0 1
2.917988 -5.128205 -25.927065 26.589958 -1.053477 2.917832 0.022505 -0.005225 -62599.500000 0 0 1
3.016988 -6.007805 -24.831165 25.725138 -1.105408 2.877191 0.021094 -0.011817 -354765.000000 0 0 1
2.735888 -5.327505 -23.505965 24.256912 -1.096375 2.892117 0.024343 -0.013284 9027.710000 0 1 0
3.752988 -4.413105 -23.164765 23.878165 -0.866059 2.896535 0.024187 -0.010726 -112856.000000 0 1 0
3.544088 -3.898905 -21.856665 22.482790 -0.833033 2.905037 0.022800 -0.015676 432112.000000 0 1 0
4.499688 -2.728405 -21.394665 22.032319 -0.545079 2.900419 0.029527 -0.020044 -64432.300000 0 1 0
5.794888 -3.083305 -21.053865 22.053407 -0.488976 2.839367 0.017063 -0.017996 -933388.000000 0 1 0
6.561788 -1.937405 -20.737665 21.837156 -0.287098 2.822915 0.026282 -0.008202 221630.000000 0 1 0
7.995988 -2.312905 -20.286965 21.928208 -0.281573 2.752237 -0.003160 -0.007473 -970129.000000 0 1 0
8.725288 -2.842105 -21.409865 23.293573 -0.314894 2.736667 0.000149 -0.013218 831117.000000 0 1 0
10.058788 -3.271105 -21.096965 23.600028 -0.314412 2.676853 -0.002169 -0.011233 982445.000000 0 1 0
11.060788 -2.283105 -20.471765 23.380479 -0.203555 2.637457 -0.008783 -0.007473 -1504650.000000 0 1 0
10.868788 -2.081005 -19.070865 22.049015 -0.189177 2.615808 -0.003114 -0.012068 554977.000000 0 1 0
11.915688 -1.354205 -18.412165 21.973287 -0.113163 2.564283 -0.002449 -0.013453 19773.800000 0 1 0
11.889888 0.178995 -18.587565 22.065790 0.015053 2.572463 -0.013829 -0.011290 -472501.000000 0 1 0
12.213388 0.617395 -19.871665 23.333048 0.050508 2.589928 -0.020276 -0.009466 192583.000000 0 1 0
12.418188 2.031895 -19.787065 23.449264 0.162185 2.575167 0.001136 -0.020790 -139300.000000 0 1 0
12.775988 2.720395 -21.117765 24.831159 0.209797 2.587645 0.009255 -0.020975 -1092700.000000 0 1 0
14.028488 2.435795 -21.615065 25.883250 0.171918 2.559108 0.010435 -0.017454 -1086980.000000 0 0 1
14.281288 3.431895 -22.627365 26.976486 0.235835 2.565837 0.019820 -0.015566 296631.000000 0 0 1
15.725288 3.247695 -23.173165 28.192691 0.203663 2.535634 0.022197 -0.013650 326003.000000 0 0 1
15.935088 2.123895 -24.054565 28.931991 0.132503 2.552450 0.021035 -0.011233 -107205.000000 0 0 1
16.550888 1.036895 -23.382865 28.666452 0.062567 2.524713 0.016147 -0.011499 -699118.000000 0 0 1
9.392085 27.339995 2.961477 29.059541 1.239898 1.468708 -0.014770 0.013777 283869.000000 0 0 1
9.022685 27.888595 4.195277 29.610521 1.257898 1.428636 -0.018814 0.017021 54379.500000 0 0 1
10.194985 28.054295 4.937677 30.254948 1.222232 1.406861 -0.008002 0.015706 -265237.000000 0 0 1
9.919085 28.650995 6.341677 30.975549 1.237507 1.364607 -0.016561 0.010777 22442.000000 0 0 1
9.806085 27.777095 7.436377 30.381343 1.231427 1.323516 -0.018909 0.002855 52686.500000 0 0 1
9.838685 28.413195 8.699277 31.301546 1.237447 1.289170 -0.010846 0.004380 -968297.000000 0 0 1
9.901785 27.460895 9.916377 30.829866 1.224729 1.243326 -0.010253 -0.000524 -896719.000000 0 0 1
11.005685 26.741895 10.328677 30.707257 1.180371 1.227748 0.004423 0.003847 -1014610.000000 0 0 1
11.484285 25.930595 9.297077 29.844936 1.153875 1.254012 -0.006903 -0.002183 -987342.000000 0 0 1
12.803885 25.258195 9.672177 29.924353 1.101628 1.241665 -0.003803 -0.001843 -274357.000000 0 0 1
13.813585 26.171195 10.056777 31.255165 1.085144 1.243205 0.000836 -0.001378 -39321.500000 0 0 1
14.969785 25.549895 10.562377 31.439711 1.040806 1.228176 0.014420 -0.001508 -428255.000000 0 0 1
16.023185 26.525895 11.018477 32.890309 1.027398 1.229184 0.012623 0.000756 -840358.000000 0 0 1
16.665585 27.254595 9.950577 33.459956 1.021980 1.268841 0.018730 -0.006644 1552810.000000 0 0 1
18.113585 27.172395 10.027777 34.161343 0.982828 1.272867 0.030260 -0.014177 1706100.000000 0 0 1
18.860885 27.957995 11.173777 35.527958 0.977311 1.250859 0.034959 -0.009925 -414270.000000 0 0 1
18.953885 29.394095 10.973277 36.656178 0.998072 1.266778 0.030313 -0.020263 1688350.000000 0 0 1
17.677185 30.121595 11.167177 36.667413 1.040094 1.261327 0.025556 -0.009559 1715960.000000 0 0 1
17.870885 31.664695 11.351977 38.090535 1.056981 1.268172 0.030487 -0.000268 -814754.000000 0 0 1
18.277485 32.342795 10.196177 38.523822 1.056421 1.302933 0.034594 -0.019099 617183.000000 0 0 1
17.303485 32.524395 9.118877 37.952612 1.081866 1.328152 0.035139 -0.018932 387793.000000 0 0 1
16.004285 33.247395 9.471377 38.095058 1.122164 1.319536 0.037779 -0.015479 -347499.000000 0 0 1
16.293185 34.529095 9.973877 39.461431 1.129906 1.315275 0.026077 -0.018669 -128996.000000 0 0 1
15.041985 -34.365101 10.110277 38.851502 -1.158209 1.307537 0.029546 -0.008351 8247.330000 0 0 1
15.059685 -32.943101 10.632977 37.750526 -1.142019 1.285268 0.036408 0.000360 235876.000000 0 0 1
15.762485 -32.081401 9.667677 37.028856 -1.114111 1.306650 0.039176 -0.006051 512053.000000 0 0 1
15.586485 -30.700901 10.006377 35.855424 -1.101017 1.287965 0.036107 -0.011560 22935.500000 0 0 1
16.152985 -29.813101 8.855177 35.045029 -1.074264 1.315347 0.033817 -0.019676 -194819.000000 0 0 1
15.554885 -30.180101 7.649077 34.803754 -1.094903 1.349210 0.027410 -0.030642 -109365.000000 0 0 1
16.195585 -29.530801 6.563077 34.313833 -1.069159 1.378344 0.031744 -0.017547 82354.600000 0 0 1
15.632285 -29.718701 5.113077 33.966352 -1.086559 1.419688 0.029411 -0.001853 -196436.000000 0 0 1
15.806285 -31.011401 4.596377 35.109433 -1.099425 1.439504 0.014646 -0.004686 -47168.100000 0 0 1
15.529785 -31.021201 3.202777 34.838871 -1.106654 1.478735 0.036744 0.003965 -126319.000000 0 0 1
15.782885 -32.364601 2.486477 36.093620 -1.117070 1.501852 0.014438 0.003865 1161370.000000 0 0 1
17.138085 -32.887801 2.388277 37.162148 -1.090406 1.506486 0.027611 0.002900 1077960.000000 0 0 1
17.035085 -34.126301 1.708477 38.180066 -1.107807 1.526034 0.024621 0.005813 -552633.000000 0 0 1
18.383385 34.682195 1.612077 39.286159 1.083397 1.529751 0.019355 -0.000094 -385852.000000 0 0 1
18.868385 34.151495 2.820277 39.118979 1.066043 1.498639 0.020961 -0.020668 88313.300000 0 0 1
20.134985 33.569995 2.577077 39.230135 1.030530 1.505058 0.014534 -0.015744 -87854.800000 0 0 1
20.888485 33.076495 3.807677 39.304984 1.007522 1.473769 0.009730 -0.022184 -126481.000000 0 0 1
20.278085 31.963795 4.476677 38.117261 1.005460 1.453080 0.014532 -0.023584 -141376.000000 0 0 1
21.181585 31.470095 5.392777 38.315904 0.978374 1.429582 0.006786 -0.028245 -490487.000000 0 0 1
20.520185 30.735895 6.560077 37.534089 0.982128 1.395118 0.025364 -0.029685 -481216.000000 0 0 1
19.647385 29.802695 6.011277 36.198837 0.987947 1.403961 0.030902 -0.022463 -223800.000000 0 0 1
18.704085 29.313395 6.974277 35.464891 1.002851 1.372853 0.024571 -0.031185 359620.000000 0 0 1
17.225485 29.481895 6.559977 34.769711 1.042021 1.380989 0.025004 -0.017448 -309787.000000 0 0 1
16.805285 30.847395 6.435377 35.712651 1.071964 1.389608 0.020028 -0.019095 3393.070000 0 0 1
17.078885 31.465995 5.199777 36.177823 1.073519 1.426569 0.019422 -0.017474 -605925.000000 0 0 1
17.028785 32.983395 5.204977 37.483005 1.094207 1.431484 0.028258 -0.015826 520425.000000 0 0 1
15.691585 33.490495 5.289377 37.360629 1.132633 1.428743 0.021443 -0.009627 391301.000000 0 0 1
15.566385 -34.640201 5.645977 38.394439 -1.148464 1.423209 0.018023 -0.012959 -170325.000000 0 0 1
14.129185 -34.085801 5.670677 37.331385 -1.177837 1.418305 0.018967 -0.013047 -181453.000000 0 0 1
13.508385 -33.962001 4.455477 36.820446 -1.192231 1.449494 0.015428 0.002858 561981.000000 0 0 1
12.186585 -33.379101 4.650377 35.837177 -1.220737 1.440665 0.015605 -0.005022 1001580.000000 0 0 1
11.540985 -33.033401 3.317677 35.148355 -1.234680 1.476265 0.017848 0.001043 -697576.000000 0 0 1
10.447185 -32.191601 3.419177 34.016667 -1.256988 1.470112 0.013682 -0.009997 -553771.000000 0 0 1
10.079385 -31.789401 2.148877 33.418224 -1.263756 1.506449 0.016268 -0.005859 -123233.000000 0 0 1
9.144885 -30.506301 2.080877 31.915410 -1.279550 1.505550 0.026147 -0.009453 131041.000000 0 0 1
8.570785 -30.175201 0.883577 31.381234 -1.294051 1.542636 0.028513 -0.002898 148048.000000 0 0 1
7.510385 -31.001901 0.404777 31.901216 -1.333120 1.558108 0.013250 -0.004785 -947373.000000 0 0 1
7.793785 -31.589601 -0.992223 32.551966 -1.328907 1.601282 0.024842 -0.008576 -91790.700000 0 0 1
8.932485 -32.419901 -1.017023 33.643329 -1.301942 1.601030 0.023361 -0.009572 -177792.000000 0 0 1
9.059185 -33.153301 -2.214323 34.439997 -1.304057 1.635136 0.014374 0.004627 -718325.000000 0 0 1
10.257285 -34.078501 -2.195923 35.656391 -1.278432 1.632421 0.009402 0.008971 -549300.000000 0 0 1
10.321385 34.604095 -1.077423 36.126655 1.280927 1.600624 0.010326 0.005844 230570.000000 0 0 1
11.427885 33.702295 -1.152323 35.605745 1.243880 1.603165 0.016930 0.005183 -33359.300000 0 0 1
11.603585 32.800395 0.102777 34.792523 1.230773 1.567842 0.006599 -0.003284 -513908.000000 0 0 1
12.160485 33.475995 1.251677 35.638271 1.222358 1.535667 0.010455 -0.000849 809434.000000 0 0 1
13.551485 33.805295 1.332577 36.444705 1.189541 1.534224 0.018157 0.003692 547503.000000 0 0 1
14.493985 32.575195 1.299377 35.677827 1.152159 1.534369 0.022677 -0.001936 -929824.000000 0 0 1
14.958585 32.196795 0.050377 35.502048 1.135869 1.569377 0.024677 0.003884 3418.840000 0 0 1
15.913185 31.158095 0.099477 34.986658 1.098606 1.567953 0.025502 0.001885 -193898.000000 0 0 1
16.537685 30.773495 -1.288223 34.959441 1.077678 1.607654 0.030366 0.008382 60383.900000 0 0 1
17.554385 31.649395 -1.724923 36.232803 1.064389 1.618421 0.022852 0.019324 -64056.400000 0 0 1
17.167985 32.945095 -2.112623 37.209974 1.090405 1.627603 0.032603 0.014810 -402665.000000 0 0 1
18.361585 33.737895 -2.689923 38.504923 1.072384 1.640712 0.022861 0.016935 175896.000000 0 0 1
19.213485 34.207395 -1.646923 39.268515 1.059033 1.612749 0.012310 0.014330 224677.000000 0 0 1
20.308285 -34.599601 -2.229423 40.181204 -1.040027 1.626309 -0.001021 0.010999 30100.400000 0 0 1
21.501085 -34.354701 -1.207923 40.546285 -1.011582 1.600592 -0.004443 0.006233 102950.000000 0 0 1
22.349485 34.090795 -0.848023 40.772551 0.990503 1.591597 0.002132 0.013983 532799.000000 0 0 1
23.099085 33.497495 -1.894223 40.733745 0.967100 1.617316 0.015242 0.016661 -225983.000000 0 0 1
23.951385 34.350495 -2.919523 41.977958 0.961909 1.640401 -0.009145 0.008795 -1110100.000000 0 0 1
23.157285 -34.545701 -3.922923 41.773851 -0.980257 1.664843 0.003083 0.006244 116138.000000 0 0 1
23.931185 -33.693601 -4.684123 41.592083 -0.953218 1.683656 -0.001487 0.004330 -619297.000000 0 0 1
23.239285 -33.325801 -5.956723 41.062829 -0.961860 1.716374 -0.001265 0.003670 -883195.000000 0 0 1
22.112085 -32.540001 -5.833823 39.772220 -0.973937 1.718008 -0.001320 0.007935 -494787.000000 0 0 1
21.683985 -32.149401 -7.116023 39.426095 -0.977407 1.752281 0.003540 0.006891 -494154.000000 0 0 1
20.746785 -30.945201 -7.032223 37.914202 -0.980189 1.757354 0.004323 0.005931 -554910.000000 0 0 1
19.523585 -31.281701 -6.436723 37.431893 -1.012829 1.743614 0.015250 0.018719 -310174.000000 0 0 1
18.701585 -30.114001 -6.408623 36.023226 -1.015060 1.749651 0.016574 0.012296 1054060.000000 0 0 1
17.586085 -30.001901 -5.280623 35.174841 -1.040611 1.721491 0.011297 0.022873 1064730.000000 0 0 1
16.442185 -30.793801 -5.517123 35.341792 -1.080363 1.727545 0.008923 0.014811 -318443.000000 0 0 1
15.404485 -30.520201 -4.604323 34.496096 -1.103371 1.704670 0.008847 0.019030 738823.000000 0 0 1
14.086685 -31.314501 -4.941023 34.690725 -1.148071 1.713713 0.014438 0.009835 543600.000000 0 0 1
14.022385 -32.723901 -4.575023 35.894454 -1.165960 1.698602 0.022388 0.018653 32380.000000 0 0 1
12.929285 -33.345201 -5.221823 36.143274 -1.200903 1.715779 0.020156 0.024205 123960.000000 0 0 1
13.230585 34.649995 -5.355923 37.474744 1.206047 1.714208 0.020038 0.021161 5081.040000 0 0 1
13.250985 33.890495 -4.142123 36.623919 1.198078 1.684138 0.028101 0.011117 228115.000000 0 0 1
13.843385 32.586395 -4.199423 35.653157 1.169077 1.688856 0.017124 0.018174 186964.000000 0 0 1
12.860985 31.477595 -4.687723 34.325190 1.182919 1.707792 0.018842 0.013947 212511.000000 0 0 1
11.960185 31.019595 -3.687323 33.449330 1.202792 1.681257 0.011033 0.006573 8842.290000 0 0 1
12.463985 30.127395 -2.719623 32.717078 1.178528 1.654018 0.011522 0.005225 -200021.000000 0 0 1
11.347685 29.219695 -2.118223 31.417311 1.200367 1.638270 0.002264 0.009298 -10442.000000 0 0 1
10.346585 29.917495 -1.462523 31.689861 1.237835 1.616964 0.001609 0.002526 -457187.000000 0 0 1
9.401685 29.040995 -0.844823 30.536614 1.257706 1.598466 -0.011177 0.010261 139040.000000 0 0 1
8.168285 29.792795 -0.328223 30.894000 1.303202 1.581421 -0.008871 0.015865 133899.000000 0 0 1
7.278985 28.981695 0.432677 29.884938 1.324728 1.556318 -0.015530 0.017874 102128.000000 0 0 1
6.137585 29.677295 0.881177 30.318118 1.366861 1.541728 -0.011183 0.020809 29870.600000 0 0 1
5.133985 28.830295 1.699577 29.333126 1.394568 1.512823 -0.010384 0.021085 240586.000000 0 0 1
4.529985 27.886095 0.819377 28.263518 1.409757 1.541802 -0.009341 0.006518 502160.000000 0 0 1
3.419885 27.199795 1.428377 27.451134 1.445721 1.518739 -0.001975 0.003096 600512.000000 0 0 1
2.855885 26.147295 0.506377 26.307671 1.462005 1.551547 0.008675 0.004063 224174.000000 0 0 1
1.614485 25.631195 0.961977 25.700003 1.507890 1.533357 0.005775 -0.000103 334593.000000 0 0 1
0.929385 24.855995 -0.018623 24.873371 1.533423 1.571545 -0.000034 0.003018 1000420.000000 0 1 0
-0.415015 24.216595 0.518177 24.225694 -1.553660 1.549405 0.008216 0.010386 1065720.000000 0 1 0
-1.386915 25.234595 0.765577 25.284273 -1.515891 1.540513 0.015272 0.006977 712131.000000 0 0 1
-2.621415 24.582995 1.136577 24.748480 -1.464562 1.524855 0.011538 0.019326 4036.360000 0 1 0
-3.821915 25.462595 1.378877 25.784726 -1.421809 1.517294 0.009424 0.009567 -1502110.000000 0 0 1
-4.938415 24.689395 1.766977 25.240372 -1.373380 1.500733 -0.000624 0.009260 -56357.500000 0 0 1
-5.992915 25.526795 2.210477 26.313847 -1.340203 1.486693 -0.007334 0.007622 249854.000000 0 0 1
-6.951215 25.985895 1.077277 26.921119 -1.309417 1.530770 -0.001396 0.005879 -1075490.000000 0 0 1
-6.383015 27.047995 0.413977 27.794034 -1.339048 1.555901 -0.005342 -0.000997 164829.000000 0 0 1
-6.998715 27.185595 -0.875623 28.085678 -1.318826 1.601978 -0.014596 0.004672 -65935.300000 0 0 1
-6.415415 28.398795 -1.691623 29.163517 -1.348621 1.628834 -0.012400 0.002672 184889.000000 0 0 1
-6.868715 29.651395 -1.268323 30.462980 -1.343162 1.612443 -0.003954 -0.013948 -111493.000000 0 0 1
-6.591615 30.606795 -2.257223 31.389813 -1.358672 1.642768 -0.009835 -0.011608 6777.490000 0 0 1
-7.078315 32.081895 -1.932723 32.910272 -1.353643 1.629557 -0.001197 -0.010753 -827788.000000 0 0 1
-7.224215 33.047395 -2.966023 33.957575 -1.355580 1.658253 0.005382 -0.003296 434242.000000 0 0 1
-6.012815 33.332195 -3.666523 34.068058 -1.392325 1.678629 0.003768 -0.004748 385554.000000 0 0 1
-4.885315 33.961995 -2.843323 34.429172 -1.427930 1.653475 0.002055 -0.004823 -902617.000000 0 0 1
-5.182515 -34.205001 -2.619223 34.694393 1.420427 1.646362 -0.000324 0.005698 229222.000000 0 0 1
-4.252315 -33.752601 -1.658223 34.059800 1.445472 1.619501 0.008651 0.008962 223007.000000 0 0 1
-4.068915 -32.241901 -1.748023 32.544613 1.445260 1.624534 0.015592 0.008358 742359.000000 0 0 1
-5.258015 -31.599801 -1.268223 32.059360 1.405913 1.610365 0.007197 0.006289 357524.000000 0 0 1
-5.505115 -30.423501 -1.948423 30.978897 1.391784 1.633733 0.015103 0.016431 -432357.000000 0 0 1
-6.807615 -29.721701 -1.594223 30.533010 1.345635 1.623033 0.024972 0.018662 -384077.000000 0 0 1
-6.939415 -29.468001 -0.206823 30.274764 1.339520 1.577628 0.001649 0.022571 -1214640.000000 0 0 1
-8.128615 -28.889101 0.121377 30.011153 1.296515 1.566752 -0.024741 0.025051 -1433810.000000 0 0 1
-8.103015 -28.442001 1.581077 29.615977 1.293253 1.517385 -0.023012 0.021668 787705.000000 0 0 1
-7.148715 -27.345301 1.720877 28.316621 1.315095 1.509986 -0.011521 0.018267 484087.000000 0 0 1
-6.963515 -26.983801 3.071677 28.036606 1.318244 1.461016 -0.006765 0.016468 425746.000000 0 0 1
-8.077415 -26.005701 3.585277 27.466258 1.269642 1.439889 -0.013065 0.016307 522819.000000 0 0 1
-7.784115 -24.684201 3.184377 26.077624 1.265319 1.448379 -0.005597 0.011348 -131024.000000 0 0 1
-8.777115 -23.749201 3.608677 25.575083 1.216790 1.429223 -0.003282 0.005767 -203405.000000 0 0 1
-8.302915 -22.360001 3.824777 24.156510 1.215248 1.411794 -0.004941 0.021244 328160.000000 0 1 0
-7.433815 -22.174801 4.967077 23.909313 1.247333 1.361526 -0.013974 0.010298 85703.600000 0 1 0
-6.964115 -20.860301 5.097977 22.575217 1.248585 1.343010 -0.018536 0.009681 -162004.000000 0 1 0
-7.905815 -19.784701 5.672777 22.048055 1.190641 1.310578 -0.011765 0.002022 -199516.000000 0 1 0
-7.944015 -20.009001 7.063277 22.657391 1.192860 1.253770 -0.010252 0.000064 124564.000000 0 1 0
-8.631015 -18.953801 7.693177 22.201936 1.143485 1.216949 -0.019113 -0.006641 -490957.000000 0 1 0
-26.159125 29.308195 -5.731823 39.700427 -0.842111 1.715680 0.022659 0.006228 -34457.200000 0 0 1
-25.463165 30.229495 -4.949423 39.833302 -0.870773 1.695372 0.018694 0.002229 271.208000 0 0 1
-24.491315 29.627695 -4.111723 38.659166 -0.880024 1.677356 0.008812 0.004539 497469.000000 0 0 1
-23.552715 30.613295 -3.341923 38.769482 -0.915018 1.657103 0.003396 -0.003942 -321248.000000 0 0 1
-24.271115 31.180395 -2.302823 39.580388 -0.909360 1.629010 0.006690 -0.011013 -51285.700000 0 0 1
-23.517615 31.965695 -1.424123 39.710352 -0.936501 1.606667 0.011244 -0.017459 230819.000000 0 0 1
-22.302215 31.415595 -0.604823 38.531730 -0.953451 1.586494 0.011055 -0.019757 396302.000000 0 0 1
-21.218215 31.113295 -1.450123 37.687566 -0.972276 1.609283 0.008600 -0.011237 -213840.000000 0 0 1
-20.007715 31.019395 -0.706523 36.918975 -0.997939 1.589935 0.010402 -0.010589 483080.000000 0 0 1
-18.824415 30.562095 -1.613323 35.930531 -1.018739 1.615713 0.014714 -0.008708 -133433.000000 0 0 1
-17.614415 30.518995 -0.935923 35.249860 -1.047338 1.597351 0.012298 -0.008997 -287815.000000 0 0 1
-16.497615 30.093795 -1.702723 34.361419 -1.069331 1.620370 0.009130 -0.009619 -128453.000000 0 0 1
-15.107115 30.384395 -1.172223 33.953063 -1.109391 1.605328 0.007620 -0.015492 -480104.000000 0 0 1
-14.780815 29.748095 0.025977 33.217802 -1.109659 1.570014 0.008116 -0.014061 659673.000000 0 0 1
-13.639615 30.380095 0.658677 33.308004 -1.148803 1.551020 0.005483 -0.012388 868315.000000 0 0 1
-13.216715 29.555995 1.938777 32.434508 -1.150294 1.510986 -0.003092 -0.016480 -52516.100000 0 0 1
-14.180915 29.644895 2.987277 32.997606 -1.124611 1.480142 -0.013026 -0.007413 -48239.700000 0 0 1
-13.946615 28.874495 4.155377 32.334374 -1.120834 1.441927 -0.019121 -0.014574 38433.500000 0 0 1
-12.704115 29.210995 5.039177 32.250118 -1.160563 1.413900 -0.004914 -0.013913 146210.000000 0 0 1
-12.755515 30.388695 5.873477 33.476465 -1.173385 1.394433 -0.007134 -0.013481 -334529.000000 0 0 1
-12.667615 31.588995 5.104477 34.414950 -1.189417 1.421926 -0.001905 -0.014881 -422902.000000 0 0 1
-12.515315 32.819795 6.015877 35.636538 -1.206484 1.401172 -0.004547 -0.016014 310432.000000 0 0 1
-13.695115 33.181395 6.731077 36.522166 -1.179360 1.385436 -0.007754 -0.011615 407886.000000 0 0 1
-13.404015 34.396795 7.453577 37.661160 -1.199211 1.371570 0.011238 -0.012876 410809.000000 0 0 1
-14.627215 -34.628601 8.278177 38.491865 1.171128 1.354040 0.005822 -0.012252 213072.000000 0 0 1
-14.784115 34.148995 9.490477 38.403035 -1.162228 1.321081 -0.009990 -0.014215 -261512.000000 0 0 1
-15.829115 34.721495 10.229377 39.506750 -1.143057 1.308885 0.001898 -0.014261 -860488.000000 0 0 1
-16.131615 34.080595 11.637177 39.460612 -1.128706 1.271439 -0.005203 -0.008091 24786.600000 0 0 1
-15.302115 34.350695 12.748777 39.707132 -1.151718 1.243937 -0.005679 -0.008104 493226.000000 0 0 1
-13.963115 33.849695 12.565477 38.712552 -1.179558 1.240224 -0.007765 -0.003271 535604.000000 0 0 1
-13.089315 34.024895 13.852277 38.998837 -1.203550 1.207671 0.017802 0.000483 -94127.200000 0 0 1
-13.443215 33.151095 14.955177 38.773347 -1.185546 1.174822 0.005759 0.002740 91649.200000 0 0 1
-13.057915 31.778595 14.805477 37.411100 -1.180926 1.163911 -0.006642 0.007879 -383688.000000 0 0 1
-13.980015 30.791895 14.039677 36.615491 -1.144608 1.177283 -0.010086 0.007142 -160885.000000 0 0 1
-13.864115 30.855895 12.682077 36.126653 -1.148510 1.212110 -0.011031 0.006372 823002.000000 0 0 1
-15.010915 30.290895 12.022477 35.880439 -1.110708 1.229116 -0.010854 0.004162 538029.000000 0 0 1
-14.740315 30.048095 10.539177 35.089018 -1.114731 1.265731 -0.016202 0.001367 -22266.700000 0 0 1
-13.985715 28.873895 10.297777 33.694900 -1.119729 1.260209 -0.017828 0.003409 88123.200000 0 0 1
-14.172215 28.441295 9.009177 33.029142 -1.108512 1.294531 -0.018553 0.008515 -398160.000000 0 0 1
-13.301615 27.278195 8.496377 31.515414 -1.117095 1.297825 -0.013403 0.005906 -23204.600000 0 0 1
-11.967615 27.536695 8.115777 31.102399 -1.160817 1.306803 -0.006025 0.002483 293995.000000 0 0 1
-11.337115 26.342895 7.744577 29.706174 -1.164389 1.307043 0.003428 0.001129 530356.000000 0 0 1
-10.149515 26.516195 6.707677 29.173862 -1.205234 1.338800 0.007757 -0.005834 433001.000000 0 0 1
-10.546215 26.893595 5.406377 29.389063 -1.197079 1.385784 0.002617 -0.008952 826636.000000 0 0 1
-9.475315 26.671795 4.457677 28.653746 -1.229447 1.414591 0.013598 -0.002137 685938.000000 0 0 1
-9.849815 27.076795 2.941077 28.962418 -1.221904 1.469073 0.002098 -0.010078 -166919.000000 0 0 1
-9.657515 28.413795 2.639277 30.126021 -1.243158 1.483076 0.004297 -0.004636 6737.150000 0 0 1
-9.671115 28.722495 1.268977 30.333521 -1.246011 1.528950 -0.000862 -0.010711 -115025.000000 0 0 1
-9.235815 30.200095 0.957377 31.595294 -1.274008 1.540490 0.004435 -0.018756 565094.000000 0 0 1
-10.174815 31.115395 1.561277 32.773957 -1.254754 1.523141 -0.000154 -0.025319 371427.000000 0 0 1
-9.833515 32.480995 1.454577 33.968057 -1.276822 1.527961 -0.002097 -0.017894 -671860.000000 0 0 1
-10.643915 33.319995 2.480977 35.066655 -1.261597 1.499987 -0.002203 -0.007467 1033690.000000 0 0 1
-11.985815 33.734195 2.133877 35.863758 -1.229406 1.511262 -0.008041 -0.009796 810309.000000 0 0 1
-12.017315 34.659895 1.045977 36.699023 -1.237046 1.542291 -0.015664 -0.005808 -709178.000000 0 0 1
-13.421815 -34.507401 0.536577 37.029634 1.199848 1.556305 -0.006730 -0.009218 114767.000000 0 0 1
-14.063315 33.928195 -0.202823 36.727924 -1.177851 1.576319 0.003020 -0.011850 230232.000000 0 0 1
-14.057815 34.054095 -1.568623 36.874980 -1.179297 1.613348 0.006841 -0.013536 -550864.000000 0 0 1
-12.751915 33.704495 -2.272923 36.107763 -1.209097 1.633786 -0.000831 -0.012737 -512417.000000 0 0 1
-12.450015 32.328695 -2.337523 34.721916 -1.203194 1.638169 -0.000574 -0.013100 -156967.000000 0 0 1
-11.067515 32.173595 -2.544123 34.118949 -1.239482 1.645432 -0.003466 -0.012393 -199643.000000 0 0 1
-10.651915 30.727295 -2.768923 32.638886 -1.237100 1.655734 -0.010670 -0.020327 32768.200000 0 0 1
-11.033615 30.371395 -4.107123 32.573467 -1.222332 1.697221 -0.007149 -0.014073 -668141.000000 0 0 1
-9.900015 30.200995 -4.906223 32.158692 -1.254030 1.723957 -0.011052 -0.003699 -265739.000000 0 0 1
-10.184915 29.496195 -6.226223 31.820181 -1.238318 1.767736 -0.001741 0.000803 -146458.000000 0 0 1
-10.616015 28.170195 -6.111923 30.718322 -1.210402 1.771100 -0.001883 0.007772 -72159.800000 0 0 1
-10.475515 27.398595 -7.314123 30.231041 -1.205608 1.815162 -0.002936 0.015473 -203963.000000 0 0 1
-10.992815 25.917795 -7.249523 29.071114 -1.169653 1.822828 0.009850 0.008093 77152.600000 0 0 1
-10.391315 24.958595 -6.360623 27.773520 -1.176282 1.801865 0.004670 0.009781 20688.100000 0 0 1
-10.880015 23.700395 -6.713623 26.928725 -1.140430 1.822765 0.025780 0.001269 52511.300000 0 0 1
-10.291615 22.606895 -5.744023 25.494761 -1.143591 1.798049 0.015699 0.001268 1219480.000000 0 0 1
-8.867715 22.320795 -5.827823 24.714728 -1.192633 1.808842 0.018033 -0.006958 1359570.000000 0 1 0
-8.431415 21.137995 -5.182723 23.340185 -1.191260 1.794714 0.026558 -0.003223 -445548.000000 0 1 0
-8.446515 21.123095 -3.631823 23.037337 -1.190401 1.729106 0.012014 -0.002875 408920.000000 0 1 0
-9.751615 21.031495 -3.041023 23.380881 -1.136635 1.701230 0.023324 -0.004316 653187.000000 0 1 0
-10.376115 19.738795 -3.217623 22.530799 -1.086823 1.714096 0.038749 -0.007958 -1513450.000000 0 1 0
-11.548715 19.699795 -2.326423 22.953584 -1.040559 1.672324 0.039919 -0.008303 -1523220.000000 0 1 0
-11.348415 19.489095 -0.939423 22.571971 -1.043496 1.612427 0.030880 -0.015934 112314.000000 0 1 0
-10.932115 18.182095 -0.532423 21.222234 -1.029453 1.595887 0.030050 -0.022240 -408147.000000 0 1 0
-10.633715 18.203495 0.970677 21.104155 -1.042107 1.524786 0.019529 -0.019084 -307602.000000 0 1 0
-11.751115 18.372795 1.806477 21.884051 -1.001772 1.488155 0.027805 -0.017535 192997.000000 0 1 0
-11.321915 18.696295 3.130277 22.080214 -1.026291 1.428549 0.012411 -0.005676 -323530.000000 0 1 0
-12.481315 18.823595 4.102977 22.955291 -0.985290 1.391093 0.028754 -0.010713 -260621.000000 0 1 0
-13.095215 17.615595 4.409277 22.388291 -0.931541 1.372555 0.003770 -0.009068 -154492.000000 0 1 0
-14.340215 17.701795 5.040277 23.332375 -0.889927 1.353059 -0.000721 -0.007690 -318066.000000 0 1 0
-14.977215 16.309895 5.382677 22.788218 -0.827968 1.332338 -0.010297 -0.002043 -263167.000000 0 1 0
-14.543415 15.569895 6.533577 22.284977 -0.819472 1.273242 0.004848 -0.008262 146779.000000 0 1 0
-15.010415 16.101095 7.768377 23.343211 -0.820441 1.231536 -0.011831 -0.004221 -886081.000000 0 1 0
-14.028215 16.028895 8.972677 23.113313 -0.851863 1.172115 -0.018428 0.007437 -286782.000000 0 1 0
-12.908515 16.809195 8.775777 22.938899 -0.915910 1.178218 -0.008712 -0.006110 -703095.000000 0 1 0
-11.807815 16.235695 8.125877 21.657613 -0.941999 1.186187 -0.007515 -0.005908 -1020090.000000 0 1 0
-10.635815 17.145895 7.846977 21.648957 -1.015575 1.199886 0.000163 -0.011975 -184649.000000 0 1 0
-9.755015 17.334995 8.958177 21.815392 -1.058228 1.147645 0.008968 -0.009628 -171135.000000 0 1 0
-8.972115 18.451495 8.800477 22.324984 -1.118206 1.165601 0.012773 -0.014661 -645106.000000 0 1 0
-7.777715 18.513395 9.760277 22.327151 -1.173072 1.118371 0.016938 -0.012674 -1490900.000000 0 1 0
-6.843515 17.549795 9.516577 21.104366 -1.198985 1.102990 0.014456 -0.010537 -926433.000000 0 1 0
-5.558915 17.817195 10.012477 21.180266 -1.268370 1.078414 0.011741 -0.012163 360069.000000 0 1 0
-4.677415 18.907995 9.325177 21.595125 -1.328287 1.124288 0.015338 -0.014843 -1125730.000000 0 1 0
-5.100215 20.237695 9.431477 22.902604 -1.323922 1.146359 0.023148 -0.021997 -301521.000000 0 1 0
-4.547315 21.080695 8.474877 23.171045 -1.358342 1.196355 0.024893 -0.018967 -865434.000000 0 1 0
-3.139515 21.601195 8.666677 23.485729 -1.426467 1.192843 0.024032 -0.016464 -889945.000000 0 1 0
-2.108215 20.660795 8.477577 22.431726 -1.469109 1.183239 0.008097 -0.001664 266425.000000 0 1 0
-0.884215 21.428695 8.396377 23.031934 -1.529557 1.197643 0.005747 -0.001025 526245.000000 0 1 0
0.317385 20.545995 8.013677 22.055786 1.555350 1.198949 0.009012 0.000692 -217937.000000 0 1 0
0.810085 19.937895 9.214677 21.979222 1.530188 1.138183 0.005330 -0.004926 -317314.000000 0 1 0
2.143085 19.537795 8.960777 21.601245 1.461544 1.143044 -0.000735 -0.005033 279379.000000 0 1 0
3.074185 19.316895 10.189977 22.055128 1.412975 1.090521 -0.002028 -0.015297 -585014.000000 0 1 0
3.150185 17.982995 10.553877 21.087819 1.397380 1.046652 0.000537 -0.009517 253576.000000 0 1 0
3.849385 17.756795 11.762877 21.644556 1.357316 0.996247 -0.011529 -0.006796 521567.000000 0 1 0
5.326285 18.220195 11.967877 22.440475 1.286392 1.008280 0.001914 0.000510 169237.000000 0 1 0
6.267585 17.513695 11.177077 21.701133 1.227130 1.029735 -0.010981 -0.000576 444430.000000 0 1 0
7.434785 17.188395 11.932177 22.205716 1.162551 1.003508 -0.004388 0.002562 890337.000000 0 1 0
8.627785 16.412495 11.286977 21.707246 1.086813 1.023988 -0.000303 0.001158 415837.000000 0 1 0
9.429685 17.224995 10.504877 22.270426 1.069919 1.079583 0.008907 -0.016311 -925290.000000 0 1 0
10.618085 16.634095 10.080377 22.159667 1.002667 1.098539 0.017792 -0.011731 -633879.000000 0 1 0
11.552985 17.684595 9.480677 23.153825 0.992119 1.148929 0.017380 0.004555 -651085.000000 0 1 0
12.628085 17.054095 8.808877 22.976227 0.933421 1.177331 0.024994 0.000833 63570.000000 0 1 0
13.515985 18.083095 8.357277 24.073310 0.928937 1.216256 0.028624 0.002019 60332.000000 0 1 0
14.617085 17.636595 7.407977 24.074609 0.878744 1.258012 0.018999 -0.007891 366686.000000 0 1 0
15.753685 16.946695 7.953277 24.466787 0.821865 1.239717 0.030574 -0.000288 617344.000000 0 1 0
16.685585 16.583395 6.977177 24.537700 0.782327 1.282473 0.041873 -0.000524 224619.000000 0 1 0
18.134885 16.445395 7.532477 25.613732 0.736580 1.272304 0.042871 0.008406 243376.000000 0 0 1
18.286885 15.407995 8.459277 25.364854 0.700165 1.230779 0.039820 0.012157 954327.000000 0 0 1
19.476585 15.652995 9.246277 26.642959 0.676982 1.216379 0.048016 0.016740 626224.000000 0 0 1
19.761985 14.512095 10.276077 26.584482 0.633406 1.173915 0.040282 0.014031 -167374.000000 0 0 1
20.307085 13.387095 9.635977 26.161882 0.582838 1.193594 0.032200 0.007780 186432.000000 0 0 1
20.524785 12.397495 10.656077 26.239601 0.543374 1.152607 0.035652 0.003971 -594080.000000 0 0 1
21.319985 11.203995 10.233777 26.168711 0.483852 1.169003 0.025505 0.004483 -823477.000000 0 0 1
22.706485 11.467195 10.171677 27.396059 0.467654 1.190406 0.016376 0.001911 568312.000000 0 0 1
23.469885 10.517895 9.422877 27.390732 0.421310 1.219605 0.023742 0.000992 -136248.000000 0 0 1
23.531885 8.985995 9.858377 27.049682 0.364775 1.197749 0.025042 -0.009331 -81959.200000 0 0 1
22.375285 8.123395 9.688077 25.700229 0.348255 1.184279 0.026634 -0.007813 1065480.000000 0 0 1
22.523285 6.724795 10.021977 25.553106 0.290145 1.167772 0.024946 -0.010970 -312141.000000 0 0 1
23.742585 6.057195 9.312077 26.212873 0.249791 1.207617 0.031456 -0.006857 412462.000000 0 0 1
23.518185 5.757095 7.910277 25.471978 0.240072 1.255027 0.040985 -0.006516 153283.000000 0 0 1
24.549385 4.988795 7.341977 26.104885 0.200485 1.285701 0.028928 -0.005270 -256129.000000 0 0 1
24.275785 4.641995 5.882777 25.406080 0.188938 1.337126 0.035680 -0.011352 356685.000000 0 0 1
23.134185 3.785795 5.644677 24.111929 0.162207 1.334500 0.025799 -0.012304 1126880.000000 0 1 0
22.909185 3.667195 4.259977 23.588694 0.158729 1.389206 0.021627 -0.006767 -232641.000000 0 1 0
21.974885 2.486295 3.956977 22.466306 0.112663 1.393743 0.014052 -0.007748 -498880.000000 0 1 0
22.545485 1.219395 4.238777 22.972876 0.054033 1.385221 0.016683 -0.008139 335834.000000 0 1 0
21.767085 0.114695 3.813877 22.098977 0.005269 1.397346 0.004302 -0.009421 -268239.000000 0 1 0
22.364085 -1.220405 4.303877 22.807127 -0.054516 1.380950 0.002034 -0.010832 -512406.000000 0 1 0
22.092085 -1.530605 5.650777 22.854633 -0.069172 1.320957 0.000585 -0.016395 574356.000000 0 1 0
22.260785 -2.883605 5.982977 23.230448 -0.128820 1.310312 -0.008385 -0.014378 -937361.000000 0 1 0
21.611985 -3.355205 7.297577 23.056234 -0.154018 1.248746 -0.006530 -0.011724 -420955.000000 0 1 0
21.896585 -4.700205 7.574577 23.641628 -0.211446 1.244654 -0.004723 -0.011960 615279.000000 0 1 0
21.284385 -5.078205 8.798777 23.584564 -0.234210 1.188477 -0.012918 -0.009848 -176815.000000 0 1 0
21.495985 -6.554905 9.121677 24.253848 -0.295979 1.185221 -0.001732 -0.014078 202801.000000 0 1 0
20.589285 -7.395605 8.418577 23.441119 -0.344844 1.203453 0.022381 -0.015383 575924.000000 0 1 0
20.665285 -8.659305 8.979577 24.138566 -0.396800 1.189632 0.037958 -0.007537 52891.400000 0 1 0
-25.491615 -33.003101 4.901677 41.988731 0.913112 1.453792 0.001569 -0.018902 -218065.000000 0 0 1
-25.863845 -34.147601 5.655977 43.208648 0.922568 1.439520 0.010283 -0.015907 98970.600000 0 0 1
-25.826595 -33.856101 7.058177 43.163254 0.919132 1.406536 0.004905 -0.000452 -450899.000000 0 0 1
-26.465925 34.583695 7.892177 44.257922 -0.917593 1.391515 0.002278 0.013534 1286040.000000 0 0 1
-27.901745 34.386895 7.754777 44.956674 -0.889139 1.397435 0.015419 -0.000454 1050920.000000 0 0 1
-28.346015 33.176495 8.254277 44.410691 -0.863753 1.383847 0.020721 0.001854 121471.000000 0 0 1
-29.883895 33.015895 8.280877 45.295358 -0.835151 1.386943 0.040459 -0.002607 317544.000000 0 0 1
-30.520365 32.911395 7.017577 45.430155 -0.823075 1.415706 0.023107 0.003399 -490299.000000 0 0 1
-31.904025 32.813495 7.206177 46.330565 -0.799450 1.414624 0.022243 0.001181 40448.300000 0 0 1
-32.738365 32.852595 5.861677 46.748827 -0.787140 1.445079 0.019439 0.005363 244298.000000 0 0 1
-32.671785 31.643395 5.171077 45.776523 -0.769410 1.457591 0.017991 0.006047 -420714.000000 0 0 1
-33.363065 31.700295 4.013977 46.196481 -0.759848 1.483797 0.022159 0.007398 -527273.000000 0 0 1
-33.171655 30.499195 3.111677 45.169040 -0.743450 1.501852 0.023991 0.007545 78816.700000 0 0 1
-33.516645 29.272495 3.743777 44.657142 -0.717907 1.486864 0.032430 -0.000546 257278.000000 0 0 1
-33.056435 28.195695 2.926777 43.546425 -0.706208 1.503535 0.017643 0.009812 -30045.300000 0 0 1
-33.142555 26.792595 3.525077 42.763282 -0.679845 1.488270 0.032741 0.007442 428616.000000 0 0 1
-34.406837 26.137295 3.358177 43.338966 -0.649651 1.493232 0.030833 0.009185 316431.000000 0 0 1
-34.613424 25.154695 4.356877 43.009653 -0.628443 1.469322 0.030191 0.006977 986780.000000 0 0 1
33.583598 24.804595 4.418377 41.983903 0.636160 1.465361 0.032640 0.003061 635875.000000 0 0 1
33.048358 24.080095 3.322577 41.025413 0.629685 1.489719 0.018566 0.004926 -334652.000000 0 0 1
33.554278 22.798795 3.083477 40.683934 0.596807 1.494933 0.006492 0.004390 -1322580.000000 0 0 1
32.799428 21.997695 2.068477 39.547183 0.590771 1.518468 -0.002390 0.004461 -135957.000000 0 0 1
31.467678 21.639295 2.391877 38.264801 0.602401 1.508247 0.000029 -0.004326 320903.000000 0 0 1
31.310148 20.617095 3.387077 37.641231 0.582313 1.480691 -0.009661 0.004730 -675235.000000 0 0 1
31.740578 19.166095 3.132677 37.210445 0.543235 1.486508 -0.003664 -0.001472 -332363.000000 0 0 1
30.977648 18.518395 2.108377 36.152329 0.538799 1.512444 -0.006434 -0.011472 372959.000000 0 0 1
31.274408 17.151295 1.911877 35.719894 0.501624 1.517247 -0.016274 -0.008149 -592386.000000 0 0 1
30.750398 16.126095 2.985677 34.850426 0.482991 1.485020 -0.009922 -0.009194 511840.000000 0 0 1
29.331328 16.309595 3.051877 33.699313 0.507474 1.480110 -0.000024 -0.007156 705517.000000 0 0 1
28.697278 15.275495 3.809877 32.732090 0.489151 1.454136 0.000231 -0.013385 -71224.200000 0 0 1
27.172688 15.438695 3.872677 31.491363 0.516686 1.447508 0.000377 -0.009284 138502.000000 0 0 1
26.455348 15.104895 2.664377 30.580095 0.518791 1.483558 0.016311 -0.011872 551208.000000 0 0 1
25.068618 15.407895 2.731077 29.551610 0.551107 1.478247 0.007919 -0.005560 267223.000000 0 0 1
24.358288 14.744195 1.481077 28.511596 0.544311 1.518826 0.013431 -0.011873 -365753.000000 0 0 1
24.675928 15.259895 0.180577 29.013763 0.553848 1.564572 0.028433 -0.017791 1121480.000000 0 0 1
25.923588 14.701395 -0.292723 29.803509 0.515881 1.580618 0.036094 -0.017007 253013.000000 0 0 1
26.590718 15.446995 -1.530623 30.789914 0.526270 1.620529 0.049823 -0.018351 313396.000000 0 0 1
27.042458 16.794395 -1.377623 31.862896 0.555745 1.614046 0.043783 -0.024101 462225.000000 0 0 1
27.824318 17.040495 -0.202023 32.628392 0.549510 1.576988 0.028816 -0.019865 -286972.000000 0 0 1
28.674968 18.350195 -0.329623 34.045442 0.569269 1.580478 0.032858 -0.011947 118596.000000 0 0 1
29.604618 18.293995 -1.399523 34.829045 0.553509 1.610990 -0.000043 -0.002682 534566.000000 0 0 1
30.468178 19.413395 -1.555523 36.160883 0.567303 1.613826 -0.007003 0.010914 442835.000000 0 0 1
29.650678 20.628795 -2.101523 36.181851 0.607853 1.628911 0.001365 0.015641 -449551.000000 0 0 1
30.415838 21.599995 -2.712023 37.403718 0.617510 1.643367 -0.049010 0.023297 -123454.000000 0 0 1
29.690528 22.689795 -3.329123 37.515828 0.652534 1.659652 -0.015842 0.015043 -247690.000000 0 0 1
30.512288 24.005495 -3.401923 38.972255 0.666608 1.658198 -0.039664 0.024840 39227.100000 0 0 1
30.764418 24.680295 -2.169323 39.500283 0.676102 1.625743 -0.032130 0.030680 352420.000000 0 0 1
31.724108 24.129895 -1.266923 39.878265 0.650261 1.602571 -0.028166 0.034349 -116656.000000 0 0 1
31.950878 25.101395 -0.058123 40.631786 0.665914 1.572227 -0.019312 0.019736 123598.000000 0 0 1
32.451638 26.373695 -0.439023 41.819533 0.682442 1.581295 -0.002189 0.023605 -11419.400000 0 0 1
33.523838 26.846095 0.352077 42.949791 0.675232 1.562599 0.014174 0.020559 242691.000000 0 0 1
33.976464 28.276295 -0.091923 44.203591 0.694088 1.572876 0.017347 0.015176 223645.000000 0 0 1
34.551772 28.433495 -1.406023 44.769024 0.688564 1.602208 0.004284 0.012651 357563.000000 0 0 1
33.583008 28.324695 -2.437223 44.000533 0.700664 1.626215 -0.000268 0.015677 -133125.000000 0 0 1
34.088905 27.591795 -3.673023 44.009678 0.680451 1.654353 -0.002888 0.019210 -74886.900000 0 0 1
-34.603763 28.341695 -4.256823 44.930977 -0.686240 1.665680 -0.007883 0.022080 -80124.100000 0 0 1
-34.202807 27.903895 -5.531423 44.486583 -0.684323 1.695458 -0.011003 0.016044 -545513.000000 0 0 1
34.562362 28.156995 -6.671823 45.076452 0.683624 1.719353 -0.023328 0.023871 -845271.000000 0 0 1
33.410758 27.413695 -6.516023 43.706384 0.687120 1.720441 -0.027503 0.026820 -1002970.000000 0 0 1
32.357488 27.743895 -7.412023 43.262788 0.708785 1.742971 -0.029432 0.019815 155620.000000 0 0 1
31.222318 26.722395 -7.116823 41.708138 0.707895 1.742269 -0.037364 0.020740 -667500.000000 0 0 1
31.403898 25.270795 -7.264323 40.958373 0.677602 1.749098 -0.040100 0.017356 -529960.000000 0 0 1
32.446628 24.554695 -6.630923 41.227247 0.647821 1.732336 -0.037927 0.021081 -179948.000000 0 0 1
32.438738 23.040195 -6.899623 40.382263 0.617584 1.742496 -0.039689 0.019735 -118214.000000 0 0 1
31.456858 22.244395 -6.289123 39.037163 0.615502 1.732608 -0.041603 0.019012 -110523.000000 0 0 1
31.780618 20.892695 -6.533823 38.590197 0.581562 1.740929 -0.013851 0.008365 -527989.000000 0 0 1
30.731298 19.912295 -6.107723 37.124338 0.574932 1.736068 -0.014956 0.008316 -789794.000000 0 0 1
29.598218 19.850895 -6.914923 36.303288 0.590775 1.762444 -0.022340 0.001588 -178687.000000 0 0 1
28.516968 19.206195 -6.233823 34.942180 0.592719 1.750160 0.018540 -0.009437 406520.000000 0 0 1
27.241378 19.051895 -7.080323 33.988210 0.610305 1.780650 0.016524 -0.012423 -123278.000000 0 0 1
27.364258 18.064195 -8.096223 33.773756 0.583469 1.812873 0.014272 -0.013451 661594.000000 0 0 1
26.162558 17.942095 -8.878523 32.942775 0.601127 1.843684 0.020180 -0.010426 498443.000000 0 0 1
26.227428 16.660295 -9.731923 32.560003 0.565918 1.874328 0.007280 -0.003387 -19316.900000 0 0 1
25.267818 16.726795 -10.774123 32.161002 0.584751 1.912408 0.000779 0.004689 340616.000000 0 0 1
25.555348 15.745295 -11.766523 32.240366 0.552192 1.944389 -0.002696 0.004554 30274.200000 0 0 1
24.751838 16.004695 -13.066423 32.241824 0.573986 1.988063 0.003273 0.012550 380936.000000 0 0 1
23.335188 15.819995 -13.020623 31.053823 0.595771 2.003462 0.008827 0.011415 840614.000000 0 0 1
22.749088 15.688195 -14.332023 31.129526 0.603725 2.049242 0.010546 0.010217 -89882.400000 0 0 1
22.907288 14.282295 -14.900823 30.834434 0.557507 2.075163 0.013498 0.006205 -125929.000000 0 0 1
24.161088 13.884295 -15.452623 31.864014 0.521575 2.077108 0.023243 0.002480 436306.000000 0 0 1
24.487588 14.465195 -16.722523 32.992827 0.533565 2.102327 0.032200 -0.007535 -1837140.000000 0 0 1
25.850668 14.059095 -17.165623 34.067196 0.498116 2.098876 0.046098 -0.000695 -1192480.000000 0 0 1
25.947738 12.669395 -17.459023 33.743387 0.454216 2.114613 0.039424 -0.011072 911062.000000 0 0 1
27.297858 12.300495 -17.799023 34.832176 0.423355 2.107137 0.037688 -0.005896 958674.000000 0 0 1
27.277158 10.829795 -18.276923 34.574178 0.377942 2.127781 0.020813 -0.005086 -56081.100000 0 0 1
26.586628 10.672395 -19.502423 34.656793 0.381730 2.168481 0.032614 -0.011242 -22485.200000 0 0 1
26.588238 9.385895 -20.069223 34.609293 0.339353 2.189377 0.020091 0.000383 674538.000000 0 0 1
27.937738 8.850195 -20.702923 35.881112 0.306782 2.185831 0.018464 -0.004886 174196.000000 0 0 1
28.319708 9.645495 -21.840823 37.041369 0.328270 2.201401 0.018454 -0.010713 432195.000000 0 0 1
28.936128 8.931395 -22.928723 37.984150 0.299382 2.218854 0.004832 -0.004880 -1033320.000000 0 0 1
30.360638 8.455495 -22.694823 38.837080 0.271619 2.194887 -0.000129 -0.002466 -643635.000000 0 0 1
31.288258 9.550795 -22.808223 39.879667 0.296268 2.179648 -0.005493 -0.000936 -624739.000000 0 0 1
32.600968 9.140395 -22.911823 40.881800 0.273354 2.165714 -0.021752 0.010035 -860721.000000 0 0 1
33.575368 10.321195 -22.804523 41.879335 0.298235 2.146624 -0.016170 0.009865 -328989.000000 0 0 1
33.681372 10.876495 -21.491123 41.407745 0.312352 2.116491 -0.027467 0.007136 145739.000000 0 0 1
34.567991 11.979995 -21.412823 42.390746 0.333610 2.100329 -0.047967 0.016720 -82417.500000 0 0 1
34.509036 12.776995 -20.131523 41.945243 0.354600 2.071391 -0.053728 0.018136 -228327.000000 0 0 1
-34.651546 12.023495 -19.074023 41.341413 -0.333984 2.050344 -0.038742 0.009949 147431.000000 0 0 1
34.823389 12.664595 -17.822123 41.117983 0.348810 2.019101 -0.037552 0.009589 -458634.000000 0 0 1
-34.445094 11.970695 -16.580723 40.058488 -0.334472 1.997545 -0.038136 0.005521 -835319.000000 0 0 1
34.602744 10.767695 -16.293323 39.733683 0.301682 1.993320 -0.032060 0.006083 176189.000000 0 0 1
-34.528943 10.056595 -15.215823 39.050023 -0.283411 1.971047 -0.026532 -0.001371 154384.000000 0 0 1
34.450064 8.748795 -14.862523 38.525874 0.248698 1.966850 -0.013916 0.000897 493777.000000 0 0 1
33.258618 8.800495 -14.071623 37.169813 0.258679 1.959054 -0.007291 0.008495 695520.000000 0 0 1
33.471068 8.977295 -12.679423 36.900840 0.262043 1.921552 -0.007542 0.001151 -299723.000000 0 0 1
32.203278 9.358995 -11.863623 35.572285 0.282831 1.910818 0.001222 0.005947 -53275.200000 0 0 1
31.934068 10.733095 -11.837223 35.708597 0.324240 1.908684 0.007641 0.000088 138969.000000 0 0 1
30.885588 11.096695 -10.949223 34.596845 0.344922 1.892813 -0.001432 0.008911 -360127.000000 0 0 1
31.164548 10.816795 -9.428223 34.309234 0.334077 1.849179 0.012701 0.012851 -458222.000000 0 0 1
32.300908 11.448095 -8.879223 35.401245 0.340607 1.824320 0.018314 0.003736 107856.000000 0 0 1
32.204758 12.855295 -8.665323 35.742033 0.379794 1.815677 0.028942 -0.002542 -655460.000000 0 0 1
32.143228 13.264795 -7.159723 35.502163 0.391387 1.773859 0.030579 -0.008494 280413.000000 0 0 1
33.371468 13.073095 -6.452623 36.416989 0.373370 1.748924 0.033855 -0.011574 478878.000000 0 0 1
33.133048 13.057295 -5.072523 35.972522 0.375398 1.712279 0.031808 -0.009281 1250560.000000 0 0 1
34.428748 12.950995 -4.124123 37.014529 0.359794 1.682447 0.029111 -0.003967 1239320.000000 0 0 1
-34.371256 13.998695 -4.211323 37.350796 -0.386766 1.683787 0.024498 0.002165 -61065.400000 0 0 1
-33.227465 13.709995 -3.428423 36.107929 -0.391330 1.665889 0.017813 -0.007042 59961.800000 0 0 1
-32.338625 14.949695 -3.108523 35.762312 -0.433024 1.657828 0.014727 -0.004518 240753.000000 0 0 1
-32.893075 15.880095 -2.183023 36.590947 -0.449776 1.630492 0.017675 -0.001363 -10752.700000 0 0 1
-31.974125 16.926195 -2.007523 36.233561 -0.486868 1.626230 0.023781 0.006594 -205783.000000 0 0 1
-32.487025 18.098695 -1.219823 37.208299 -0.508282 1.603586 0.013098 0.012864 77533.200000 0 0 1
-33.550665 18.753995 -1.896823 38.483210 -0.509708 1.620106 0.001766 0.017240 200345.000000 0 0 1
-34.380729 19.501895 -1.040323 39.540368 -0.515978 1.597110 -0.015301 0.018948 219659.000000 0 0 1
34.360708 20.366495 -1.840623 39.985501 0.535054 1.616845 -0.024902 0.028497 322794.000000 0 0 1
-34.695995 21.555095 -2.326223 40.912657 -0.555902 1.627685 -0.015371 0.025859 317236.000000 0 0 1
34.384012 22.178795 -3.405623 41.057978 0.572875 1.653838 -0.027692 0.031222 30451.500000 0 0 1
-34.577584 23.423995 -3.905223 41.946915 -0.595419 1.664031 -0.006027 0.015482 352508.000000 0 0 1
-33.336405 23.114795 -4.514223 40.816515 -0.606269 1.681621 0.014648 0.011676 165675.000000 0 0 1
-32.621435 24.312595 -4.905323 40.979538 -0.640483 1.690786 0.021236 0.007773 744826.000000 0 0 1
-31.199255 24.004895 -5.459123 39.742050 -0.655806 1.708596 0.027285 -0.001682 283477.000000 0 0 1
-31.019825 23.212595 -6.633923 39.307290 -0.642422 1.740379 0.016762 0.000299 -410644.000000 0 0 1
-29.789035 23.435495 -7.292123 38.597722 -0.666588 1.760865 0.024063 -0.004554 124419.000000 0 0 1
-29.526285 22.558095 -8.561223 38.130876 -0.652401 1.797249 0.011289 -0.012744 46713.700000 0 0 1
-30.367465 22.955195 -9.620923 39.264311 -0.647275 1.818347 0.017025 -0.013477 69915.200000 0 0 1
-29.931365 22.301495 -10.766223 38.847843 -0.640350 1.851611 0.009282 -0.009846 74759.100000 0 0 1
-30.771285 22.510795 -12.053623 39.986219 -0.631589 1.877004 0.001152 -0.014004 -78984.100000 0 0 1
-30.932795 23.866095 -12.423523 40.997223 -0.657149 1.878670 0.008360 -0.011871 -197416.000000 0 0 1
-31.778275 23.971395 -13.546023 42.047370 -0.646268 1.898808 0.011631 -0.017415 -901673.000000 0 0 1
-32.061405 25.429295 -13.902123 43.218651 -0.670546 1.898289 0.005625 -0.008824 51037.400000 0 0 1
-30.877975 26.182395 -14.003623 42.837701 -0.703292 1.903817 0.004503 -0.006210 -513457.000000 0 0 1
-29.909225 25.846695 -14.957023 42.264949 -0.712664 1.932520 0.015616 -0.011702 -765122.000000 0 0 1
-28.550415 26.426895 -14.505723 41.520152 -0.746792 1.927691 0.010757 -0.003960 -508246.000000 0 0 1
-27.791485 25.746895 -13.551623 40.235752 -0.747227 1.914318 0.014770 -0.015278 -236047.000000 0 0 1
-28.334385 25.559295 -12.278823 40.085963 -0.733952 1.882113 0.021028 -0.008745 -896550.000000 0 0 1
-28.525345 26.839595 -11.387623 40.788934 -0.754960 1.853741 0.020135 -0.000168 12047.600000 0 0 1
-27.269805 27.374895 -11.027123 40.182392 -0.787321 1.848790 0.013952 0.000297 -125289.000000 0 0 1
-27.419365 28.396895 -10.062123 40.736367 -0.802910 1.820386 -0.002044 0.002342 784291.000000 0 0 1
-26.133885 29.292695 -9.918123 40.489642 -0.842327 1.818269 0.002573 -0.001680 611331.000000 0 0 1
-26.346765 30.395395 -9.066323 41.233849 -0.856629 1.792483 -0.004021 0.009240 -386815.000000 0 0 1
-25.359365 31.384095 -9.070923 41.356263 -0.891177 1.791930 -0.000977 0.000474 -704805.000000 0 0 1
33.403148 -25.265515 34.232601 54.092398 -0.647573 0.885562 -0.011931 0.005200 -164902.000000 0 0 1
32.989258 -23.955505 34.526471 53.425037 -0.628069 0.868123 -0.009043 -0.002630 152448.000000 0 0 1
32.091318 -23.936305 -33.647323 52.296670 -0.640860 2.269719 -0.014541 0.004068 -151916.000000 0 0 1
31.614848 -22.570505 -33.230213 51.119208 -0.620008 2.278451 -0.021713 0.005263 38284.700000 0 0 1
30.772878 -21.978105 -34.199796 50.986598 -0.620195 2.306030 -0.035949 -0.000095 -43542.200000 0 0 1
30.414008 -20.659505 -33.965053 50.054489 -0.596681 2.316599 -0.035051 0.006955 78985.000000 0 0 1
30.130198 -19.980905 33.922528 49.576238 -0.585566 0.817222 -0.033668 -0.000027 -114186.000000 0 0 1
31.314208 -19.718205 33.213748 49.724645 -0.561964 0.839341 -0.017264 -0.010287 245499.000000 0 0 1
30.944078 -18.992705 32.033089 48.418774 -0.550487 0.847867 -0.015113 -0.001920 -416120.000000 0 0 1
32.089178 -18.890005 31.027789 48.469283 -0.532049 0.876098 -0.015165 0.005540 -691380.000000 0 0 1
33.051888 -17.939205 31.349369 48.959426 -0.497267 0.875890 -0.007058 -0.003532 60906.900000 0 0 1
34.026881 -17.812005 30.311399 48.927263 -0.482246 0.902666 0.011763 0.001459 239281.000000 0 0 1
-34.582088 -16.837205 30.795859 49.272683 0.453094 0.895654 0.009371 -0.004495 -597050.000000 0 0 1
-33.654485 -16.540705 29.805329 47.901743 0.456813 0.899223 0.012303 -0.001575 -194055.000000 0 0 1
-32.660985 -15.671305 30.283999 47.217056 0.447371 0.874503 0.011160 -0.008052 -70593.500000 0 0 1
-31.288645 -16.235905 30.672469 46.726698 0.478659 0.854729 0.014664 -0.010296 -342344.000000 0 0 1
-30.424705 -15.335405 31.317559 46.277714 0.466878 0.827483 0.015469 -0.009048 678728.000000 0 0 1
-29.227515 -15.920505 31.865419 46.077273 0.498772 0.807143 0.020248 -0.012241 720731.000000 0 0 1
-28.368585 -14.804805 32.601249 45.681510 0.480993 0.776081 0.024562 -0.014204 -50394.500000 0 0 1
-28.949965 -14.322005 33.765851 46.726363 0.459411 0.763197 0.026494 -0.008773 190339.000000 0 0 1
-28.191475 -13.217605 34.205801 46.254742 0.438419 0.738456 0.032965 -0.008617 81392.700000 0 0 1
-28.540295 -12.735405 -33.587503 45.878746 0.419711 2.392186 0.023165 -0.000206 -111249.000000 0 0 1
-28.345475 -13.765505 -32.633823 45.364320 0.452088 2.373694 0.041080 0.001850 264899.000000 0 0 1
-28.495745 -13.253405 -31.320173 44.369060 0.435341 2.354491 0.047154 0.010839 -215727.000000 0 0 1
-28.498965 -14.317405 -30.252533 43.959013 0.465552 2.329800 0.050370 0.012296 426903.000000 0 0 1
-29.703435 -15.078605 -30.225773 44.980615 0.469740 2.307666 0.043160 0.008289 185595.000000 0 0 1
-29.889785 -15.654105 -28.955163 44.461801 0.482449 2.280009 0.038149 0.003079 -261831.000000 0 0 1
-31.044595 -16.634205 -29.027563 45.640586 0.491889 2.260104 0.017441 0.001540 -437568.000000 0 0 1
-30.904605 -17.858105 -29.736283 46.457002 0.523971 2.265401 0.025022 0.000353 -261870.000000 0 0 1
-32.007395 -18.690405 -29.517373 47.382274 0.528527 2.243320 0.005968 0.005990 -184470.000000 0 0 1
-31.814845 -19.838105 -30.479073 48.318823 0.557555 2.253368 0.015626 0.000934 -266759.000000 0 0 1
-32.942045 -20.652005 -30.512613 49.423711 0.559978 2.236189 -0.019411 -0.000076 -532281.000000 0 0 1
-32.611635 -21.944105 -31.094563 50.119201 0.592300 2.240064 -0.016069 -0.003460 780685.000000 0 0 1
-33.858225 -22.872705 -31.400073 51.531589 0.594123 2.226020 -0.011023 0.004170 1008830.000000 0 0 1
-34.547570 -23.388705 -30.250533 51.533105 0.595122 2.198159 -0.025762 0.001819 -362260.000000 0 0 1
34.265033 -24.399705 -30.492833 51.954316 -0.618792 2.198041 -0.020864 0.009887 -368516.000000 0 0 1
34.833698 -25.826815 -30.752193 53.161154 -0.637995 2.187649 -0.022672 0.007826 -89026.600000 0 0 1
-34.520305 -26.038685 -32.114833 53.861183 0.646248 2.209620 -0.009267 0.006768 -400590.000000 0 0 1
-33.829875 -27.254545 -32.184603 54.065880 0.678168 2.208417 0.001898 0.005914 -149737.000000 0 0 1
-33.947125 -27.940465 -33.566733 55.315481 0.688644 2.222854 0.004018 -0.001223 -381176.000000 0 0 1
34.521880 -28.459115 -33.833783 56.092837 -0.689430 2.218272 0.010469 -0.000667 -922538.000000 0 0 1
34.395020 -29.630465 -34.624034 57.094707 -0.711119 2.222361 0.004754 0.004516 32499.200000 0 0 1
-34.712097 -30.923115 -34.039623 57.618267 0.727734 2.202819 0.006191 -0.003693 616714.000000 0 0 1
34.350133 -31.189805 -32.805173 56.823542 -0.737216 2.186235 0.015849 -0.012736 93701.100000 0 0 1
-34.580195 -32.097325 -32.125633 57.079633 0.748178 2.168591 0.006013 -0.019255 86726.900000 0 0 1
34.583652 -32.505525 -30.717243 56.534831 -0.754432 2.145199 0.003333 -0.018497 129213.000000 0 0 1
33.605038 -33.516015 -30.769553 56.563126 -0.784072 2.145977 0.023200 -0.013281 -13045.800000 0 0 1
33.452908 -34.108913 -29.534023 56.167371 -0.795108 2.124477 0.020114 -0.009489 -126373.000000 0 0 1
32.289428 34.381856 -29.583123 55.676569 0.816772 2.130976 0.019723 -0.014575 -385481.000000 0 0 1
31.080588 -34.474795 -29.717943 55.115067 -0.837128 2.140281 0.023292 -0.013389 -1035080.000000 0 0 1
29.929428 34.274383 -29.493143 54.224989 0.852970 2.145878 0.022568 -0.010270 -319189.000000 0 0 1
28.718608 -34.691026 -30.225573 54.238464 -0.879309 2.161893 0.008158 -0.000490 -693760.000000 0 0 1
28.581728 34.507186 -31.577473 54.816037 0.879046 2.184700 0.010689 -0.000576 -336690.000000 0 0 1
27.337998 -34.637621 -32.112783 54.574369 -0.902640 2.199903 0.008673 0.008200 -312185.000000 0 0 1
27.186328 34.327960 -33.521203 55.146861 0.900978 2.224151 0.003948 0.003291 33615.000000 0 0 1
27.049568 32.917932 -33.589573 54.254297 0.882947 2.238410 -0.001780 0.011770 2990.710000 0 0 1
27.284648 32.509552 34.324412 54.584689 0.872558 0.890751 0.003762 0.009913 -409857.000000 0 0 1
27.131758 31.015262 34.117190 53.498238 0.852087 0.879255 -0.006938 0.014006 -214390.000000 0 0 1
28.089628 30.258932 -34.445943 53.769444 0.822559 2.266106 0.013149 0.007940 -385787.000000 0 0 1
27.898158 28.825992 -34.569523 52.955613 0.801754 2.282074 0.003743 0.011539 950368.000000 0 0 1
29.272308 28.073172 -34.406703 53.186391 0.764490 2.274319 0.013240 0.001582 879760.000000 0 0 1
29.804048 28.079242 -33.114183 52.661886 0.755609 2.250815 0.013011 0.004757 -234090.000000 0 0 1
31.032378 27.370432 -33.141473 53.014208 0.722779 2.246111 0.026213 0.004701 -58308.200000 0 0 1
31.841218 27.536882 -31.860313 52.794153 0.713034 2.218657 0.024816 0.004377 -758682.000000 0 0 1
32.664438 28.720932 -31.789583 53.874252 0.721245 2.201942 0.015010 0.007670 231035.000000 0 0 1
32.109248 30.044612 -31.826623 54.282745 0.752192 2.197295 0.004988 0.004745 394945.000000 0 0 1
31.038128 30.402142 -30.710613 53.205238 0.775047 2.186105 0.006667 0.003111 848481.000000 0 0 1
31.638808 30.692642 -29.452663 53.014260 0.770220 2.159834 0.004929 0.008026 -180267.000000 0 0 1
30.664718 30.792062 -28.457043 51.944964 0.787470 2.150565 0.012714 0.004072 -323441.000000 0 0 1
31.192458 31.177592 -27.072433 51.748703 0.785160 2.121341 0.019453 0.001587 -169540.000000 0 0 1
31.535988 32.527512 -26.840393 52.658943 0.800874 2.105635 0.021013 0.000387 123692.000000 0 0 1
31.749238 32.824962 -25.456213 52.282990 0.802055 2.079325 0.010231 0.000964 -173825.000000 0 0 1
32.342108 34.275294 -25.360793 53.516143 0.814409 2.064500 0.014161 -0.008919 759890.000000 0 0 1
31.247698 -34.302834 -25.332363 52.866168 -0.831972 2.070516 0.012891 -0.004063 838870.000000 0 0 1
31.649308 -32.963945 -25.095153 52.135085 -0.805742 2.072989 0.000801 -0.012901 -633321.000000 0 0 1
32.103938 -32.221015 -26.419263 52.600704 -0.787218 2.097007 -0.004858 -0.007502 720030.000000 0 0 1
33.420678 -32.508105 -26.867443 53.810576 -0.771557 2.093583 0.010614 -0.007568 9092.760000 0 0 1
34.471158 -31.893895 -26.179413 53.766560 -0.746583 2.079344 0.020541 -0.007596 64835.900000 0 0 1
-33.814625 -32.416735 -26.452923 53.796196 0.764295 2.084866 -0.002274 -0.002451 175497.000000 0 0 1
-33.498125 -33.687135 -26.030483 54.171335 0.788211 2.072045 0.006790 -0.008811 -468090.000000 0 0 1
-33.442225 -33.944315 -24.649623 53.648885 0.792849 2.048186 0.006742 -0.009516 -540508.000000 0 0 1
-32.285185 -33.376625 -23.818623 52.188687 0.802019 2.044735 0.000530 0.001090 -157153.000000 0 0 1
-32.336045 -31.959515 -23.787123 51.311379 0.779542 2.052832 -0.022489 0.000147 -295903.000000 0 0 1
-32.096055 -31.520485 -22.482023 50.290547 0.776351 2.034253 -0.013925 -0.001504 -244807.000000 0 0 1
-31.925015 -29.959975 -22.284323 49.126345 0.753656 2.041611 -0.017609 0.011216 57306.300000 0 0 1
-32.981655 -29.116685 -22.696823 49.504714 0.723239 2.047078 -0.032078 0.013752 -580224.000000 0 0 1
-33.236575 -29.092025 -24.091023 50.312953 0.719001 2.070110 -0.022450 0.015183 73014.900000 0 0 1
-34.463286 -28.243455 -24.480123 50.839820 0.686532 2.073179 -0.026583 0.022552 177441.000000 0 0 1
-34.193940 -26.900295 -24.020423 49.697406 0.666577 2.075255 -0.042820 0.028231 223622.000000 0 0 1
34.556378 -25.971685 -24.494623 49.685594 -0.644508 2.086322 -0.033577 0.024288 285578.000000 0 0 1
34.740212 -25.564305 -25.985223 50.355217 -0.634397 2.113016 -0.036608 0.016405 -123670.000000 0 0 1
-33.894125 -24.671105 -26.134523 49.401300 0.629198 2.128248 -0.043988 0.012804 -67424.100000 0 0 1
-33.847575 -23.864805 -27.284113 49.594456 0.614118 2.153333 -0.031392 -0.004634 -154434.000000 0 0 1
-32.666005 -22.879205 -27.375903 48.373195 0.610993 2.172359 -0.022753 -0.018658 -341342.000000 0 0 1
-32.465305 -21.777005 -26.488073 47.221309 0.590843 2.166311 -0.035758 0.003873 -42955.700000 0 0 1
-33.402575 -20.728405 -26.695553 47.518958 0.555402 2.167341 -0.041380 0.002319 -320825.000000 0 0 1
-34.365649 -20.466405 -25.551073 47.462921 0.537140 2.139259 -0.036170 0.006616 -510157.000000 0 0 1
-33.853095 -19.977405 -24.318523 46.222498 0.533123 2.124826 -0.025409 0.002476 -333415.000000 0 0 1
-33.040335 -20.915905 -23.631623 45.690179 0.564361 2.114389 -0.047176 0.007415 -557775.000000 0 0 1
-33.746675 -22.146605 -23.028923 46.471943 0.580764 2.089258 -0.020046 0.015159 290825.000000 0 0 1
-34.711952 -21.822905 -22.028023 46.544523 0.561245 2.063793 -0.028655 0.016056 192669.000000 0 0 1
34.416143 -22.951405 -21.434323 46.590429 -0.588150 2.048857 -0.023482 0.024719 238584.000000 0 0 1
33.300988 -22.729505 -20.365023 45.169906 -0.598917 2.038518 -0.023430 0.016268 381180.000000 0 0 1
32.094128 -22.300505 -20.974123 44.353798 -0.607259 2.063355 0.013190 0.010498 -137495.000000 0 0 1
31.128938 -22.068005 -19.929023 43.048503 -0.616689 2.052109 0.028698 0.008971 1307150.000000 0 0 1
29.797018 -21.494705 -20.567323 42.105812 -0.624925 2.081129 0.026695 0.014880 707988.000000 0 0 1
29.043168 -22.420205 -21.418523 42.484401 -0.657409 2.099194 0.028494 0.011636 1323850.000000 0 0 1
27.814168 -21.900505 -21.969423 41.664321 -0.667002 2.126211 0.046468 0.008983 792555.000000 0 0 1
27.881088 -20.558105 -22.814623 41.478884 -0.635355 2.153196 0.044611 0.006783 -666903.000000 0 0 1
28.287758 -19.487805 -22.025823 40.805743 -0.603246 2.140963 0.035192 0.012700 -57002.900000 0 0 1
28.339438 -18.292405 -22.847023 40.739689 -0.573188 2.166154 0.028512 0.015308 43799.700000 0 0 1
29.169138 -17.169305 -22.164323 40.458384 -0.532004 2.150565 0.028553 0.009139 -68008.000000 0 0 1
28.509328 -16.593705 -21.014123 39.111714 -0.527112 2.138011 0.013928 0.008636 296851.000000 0 0 1
29.391568 -16.036105 -20.069223 39.035813 -0.499461 2.110782 0.005408 0.007055 169324.000000 0 0 1
30.350118 -17.067905 -19.356923 39.838844 -0.512288 2.078167 0.014626 0.003138 685935.000000 0 0 1
31.525238 -17.359305 -20.130523 41.236199 -0.503340 2.080795 0.021850 0.002134 128044.000000 0 0 1
32.271768 -18.365805 -19.480323 41.931525 -0.517388 2.053951 0.017811 0.002644 -550735.000000 0 0 1
33.442738 -18.827205 -20.318223 43.424769 -0.512745 2.057704 -0.000579 0.001729 -1076890.000000 0 0 1
34.419026 -17.871205 -20.432723 43.835437 -0.478909 2.055700 -0.003665 0.003457 -110055.000000 0 0 1
-34.217626 -18.407105 -21.193423 44.258656 0.493539 2.070145 -0.020591 0.010289 1485820.000000 0 0 1
-33.113435 -17.366005 -21.724423 43.243823 0.483008 2.097135 -0.015509 0.008860 1152150.000000 0 0 1
-32.383835 -16.701105 -20.713523 41.912883 0.476147 2.087716 -0.010646 0.003493 -262441.000000 0 0 1
-31.508975 -15.709705 -21.164423 41.079717 0.462510 2.112042 -0.008025 0.006648 83534.900000 0 0 1
-30.272355 -15.390805 -20.248923 39.538731 0.470354 2.108458 -0.001320 0.007876 837051.000000 0 0 1
-29.230305 -16.350305 -20.178423 39.101304 0.510002 2.113035 -0.007956 0.001958 416742.000000 0 0 1
-29.686495 -17.516605 -19.501723 39.603493 0.533073 2.085669 -0.017933 0.001855 -590383.000000 0 0 1
-28.711585 -18.691705 -19.608823 39.474560 0.577089 2.090642 -0.018482 -0.005436 -154773.000000 0 0 1
-29.197895 -19.877305 -19.037623 40.125496 0.597709 2.065138 -0.016543 -0.001780 -233522.000000 0 0 1
-28.247485 -20.915205 -19.136023 40.019415 0.637346 2.069364 -0.018880 -0.007691 45244.300000 0 0 1
-28.935405 -22.279705 -18.898523 41.119303 0.656167 2.048344 -0.016700 0.003312 -259947.000000 0 0 1
-29.803575 -22.631005 -19.935123 42.400762 0.649451 2.060268 -0.023107 0.007817 -267906.000000 0 0 1
-30.367545 -23.888105 -19.710123 43.374166 0.666537 2.042518 -0.018214 0.018127 -45164.500000 0 0 1
-31.309255 -24.269905 -20.875123 44.777991 0.659414 2.055777 -0.032586 0.020597 -63329.300000 0 0 1
-30.604745 -24.625605 -22.045523 45.045265 0.677560 2.082207 -0.028668 0.014079 -343688.000000 0 0 1
-31.347585 -25.358705 -22.910323 46.374755 0.680176 2.087510 -0.030528 0.019585 -502000.000000 0 0 1
-30.804055 -25.299835 -24.357123 46.714461 0.687603 2.119292 -0.027843 0.021766 110279.000000 0 0 1
-29.525885 -25.852185 -24.560523 46.296141 0.719157 2.129997 -0.012557 0.003582 -418474.000000 0 0 1
-29.360915 -26.224525 -25.898913 47.122635 0.729033 2.152690 -0.006031 0.009640 -1019470.000000 0 0 1
-27.964685 -26.724715 -26.165333 46.699664 0.762729 2.165532 0.012908 -0.003880 -1004640.000000 0 0 1
-27.133705 -25.599895 -26.293553 45.639276 0.756320 2.184766 0.021821 -0.008307 -528191.000000 0 0 1
-25.838575 -25.950555 -26.729143 45.337736 0.787560 2.201306 0.018406 -0.010945 -15094.800000 0 0 1
-24.942315 -24.758005 -27.035513 44.339563 0.781690 2.226526 0.029360 -0.011807 -406337.000000 0 0 1
-25.147795 -24.136005 -28.297883 44.896865 0.764871 2.252718 0.031093 -0.013705 133029.000000 0 0 1
-24.320115 -22.982805 -28.417953 43.900540 0.757134 2.274867 0.046377 -0.013979 383198.000000 0 0 1
-24.129115 -22.384305 -29.867763 44.444961 0.747904 2.307725 0.031665 -0.004858 62025.900000 0 0 1
-23.654115 -23.353605 -30.799633 45.315841 0.779005 2.318103 0.032924 -0.010869 192286.000000 0 0 1
-23.250615 -22.757805 -32.023443 45.650955 0.774687 2.348275 0.033971 -0.003460 -123077.000000 0 0 1
-22.804215 -23.921705 -32.897513 46.631819 0.809309 2.353887 0.030326 -0.012308 251117.000000 0 0 1
-23.958115 -24.573205 -33.415553 47.900239 0.798072 2.342849 0.001718 -0.013398 207558.000000 0 0 1
-23.638615 -25.866625 -33.991613 48.819014 0.830373 2.340995 0.013596 -0.004519 143199.000000 0 0 1
-19.138215 -15.398405 -11.966323 27.323525 0.677533 2.024113 0.002844 0.008532 -198035.000000 0 0 1
-19.662215 -14.776405 -10.851123 26.882926 0.644469 1.986292 0.003724 0.000886 -423881.000000 0 0 1
-18.774415 -15.031705 -9.804523 25.972283 0.675136 1.957891 -0.008668 -0.005653 -216512.000000 0 0 1
-19.041315 -14.402905 -8.425223 25.317973 0.647586 1.910043 0.003671 -0.010756 -598008.000000 0 0 1
-20.157615 -14.986405 -7.830423 26.310403 0.639303 1.872992 0.028029 -0.013636 -493388.000000 0 0 1
-20.341515 -14.167105 -6.709623 25.680793 0.608348 1.835134 0.007363 -0.022117 134208.000000 0 0 1
-21.567515 -14.660805 -5.882023 26.733782 0.597015 1.792633 0.028873 -0.025399 -88886.400000 0 0 1
-21.545715 -16.001505 -5.409123 27.377447 0.638798 1.769681 0.025445 -0.023015 284321.000000 0 0 1
-20.797615 -16.223305 -4.213423 26.711221 0.662461 1.729198 0.025573 -0.019993 -208216.000000 0 0 1
-20.713715 -17.715305 -3.849423 27.526498 0.707531 1.711100 0.015896 -0.014100 393710.000000 0 0 1
-21.853015 -18.412705 -3.313823 28.767402 0.700165 1.686246 0.027609 -0.013707 367510.000000 0 0 1
-21.485915 -19.458905 -2.455223 29.091608 0.735933 1.655293 0.010667 -0.002876 117550.000000 0 0 1
-22.585515 -20.506305 -2.087223 30.577288 0.737185 1.639110 0.007404 -0.008545 193614.000000 0 0 1
-22.836315 -21.413405 -3.126923 31.461228 0.753253 1.670350 -0.002879 -0.012321 34717.400000 0 0 1
-23.970015 -22.216505 -2.859423 32.807179 0.747451 1.658066 0.007100 -0.008977 44743.200000 0 0 1
-24.015915 -23.379905 -3.844523 33.736693 0.771980 1.685001 -0.002777 -0.004504 -301410.000000 0 0 1
-22.926215 -24.285005 -3.698623 33.601378 0.814171 1.681093 -0.009271 0.001265 -163630.000000 0 0 1
-22.878915 -25.138505 -4.857323 34.336319 0.832421 1.712736 -0.015473 0.004161 1260220.000000 0 0 1
-21.571815 -24.924605 -5.770123 33.464510 0.857382 1.744087 -0.005076 0.009954 1300030.000000 0 0 1
-21.308115 -23.652405 -6.462923 32.484479 0.837492 1.771087 -0.008304 0.009718 107093.000000 0 0 1
-21.118715 -22.601105 -5.507023 31.418742 0.819292 1.746985 -0.007836 0.004389 -1017470.000000 0 0 1
-21.137915 -21.206005 -6.084723 30.553722 0.787006 1.771285 0.006854 0.002603 -198697.000000 0 0 1
-19.891115 -20.837005 -6.617423 29.557191 0.808618 1.796596 0.005757 0.004117 -170425.000000 0 0 1
-20.005115 -19.592705 -7.254123 28.925785 0.774984 1.824286 0.003392 0.001101 -1201.780000 0 0 1
-18.772615 -19.248605 -8.100723 28.080983 0.797917 1.863432 0.014460 -0.005841 -368018.000000 0 0 1
-18.693615 -20.022705 -9.270823 28.918992 0.819714 1.897137 -0.007001 -0.001858 210325.000000 0 0 1
-17.440715 -19.908305 -9.950923 28.276139 0.851371 1.930417 0.034171 0.001956 506354.000000 0 0 1
-17.061315 -18.486005 -10.549323 27.278363 0.825455 1.967878 0.029100 0.002042 -268499.000000 0 0 1
-16.680715 -17.511205 -9.613223 26.025038 0.809682 1.949142 0.025539 -0.012231 104613.000000 0 0 1
-15.295915 -17.580305 -9.294123 25.088102 0.854771 1.950300 0.026099 -0.010958 186628.000000 0 0 1
-14.799915 -16.367805 -8.389123 23.607624 0.835661 1.934092 0.009208 -0.010032 444113.000000 0 1 0
-15.445215 -16.526505 -7.113623 23.712521 0.819205 1.875483 -0.013941 -0.007038 280221.000000 0 1 0
-15.862715 -15.332505 -6.539823 23.010448 0.768403 1.858980 -0.003797 -0.003923 -259576.000000 0 1 0
-16.271415 -15.448305 -5.103223 23.009823 0.759454 1.794441 -0.023696 -0.005741 155918.000000 0 1 0
-16.908915 -14.298505 -4.517823 22.600207 0.701945 1.772054 -0.010237 0.000137 213558.000000 0 1 0
-17.376815 -14.507805 -3.212323 22.863708 0.695659 1.711762 -0.013804 -0.002555 -51831.100000 0 1 0
-18.264015 -13.376505 -2.642923 22.792327 0.632139 1.687014 -0.003462 0.004034 1590030.000000 0 1 0
-19.649615 -13.296905 -3.108323 23.928576 0.594917 1.701064 0.010728 -0.009633 1539000.000000 0 1 0
-20.411815 -12.590805 -2.157323 24.079547 0.552709 1.660508 0.009627 -0.001104 78783.600000 0 1 0
-21.932615 -12.716405 -2.486823 25.474121 0.525430 1.668574 0.014131 -0.000615 200509.000000 0 0 1
-22.302715 -11.931505 -3.561723 25.543253 0.491238 1.710691 0.013561 -0.010887 -701087.000000 0 0 1
-23.669315 -12.050505 -3.754023 26.824314 0.470916 1.711206 0.013706 -0.008828 -1136050.000000 0 0 1
-24.175115 -11.161005 -4.885723 27.071655 0.432519 1.752264 0.014061 -0.017551 -306224.000000 0 0 1
-23.741115 -11.639605 -6.097723 27.134907 0.455835 1.797451 0.011616 -0.022239 319306.000000 0 0 1
-24.284115 -10.887205 -7.239823 27.580147 0.421461 1.836410 0.018825 -0.023008 -309023.000000 0 0 1
-23.683015 -11.298605 -8.572923 27.605048 0.445141 1.886575 0.040542 -0.025390 -455349.000000 0 0 1
-22.398115 -10.799005 -8.819623 26.383325 0.449257 1.911646 0.020796 -0.020333 -661445.000000 0 0 1
-21.818515 -11.416305 -9.885223 26.534831 0.482066 1.952538 0.014492 -0.013101 -456819.000000 0 0 1
-20.393315 -10.817705 -9.996123 25.156163 0.487713 1.979438 0.003663 -0.002798 -328765.000000 0 0 1
-20.336715 -9.464905 -10.408423 24.728560 0.435594 2.005241 0.000930 -0.010727 508669.000000 0 1 0
-19.150115 -8.820305 -9.962023 23.318803 0.431624 2.012201 -0.003298 -0.001649 74878.000000 0 1 0
-19.015415 -7.352905 -10.477923 22.922437 0.368972 2.045532 -0.019457 -0.003194 -75574.100000 0 1 0
-18.716715 -7.290005 -11.846023 23.319259 0.371415 2.103650 0.007342 -0.008323 153880.000000 0 1 0
-18.711115 -5.950505 -12.304623 23.171493 0.307906 2.130605 0.011919 -0.021586 -352897.000000 0 1 0
-18.162515 -5.903405 -13.750823 23.533217 0.314261 2.194833 0.032824 -0.019950 -379624.000000 0 1 0
-18.873215 -6.563205 -14.747923 24.834958 0.334671 2.206616 0.020353 -0.023059 -18971.500000 0 1 0
-18.248915 -6.397105 -15.988223 25.091216 0.337162 2.261661 0.022524 -0.025365 -167090.000000 0 0 1
-18.669015 -7.507005 -16.955623 26.313122 0.382324 2.271007 0.012257 -0.021551 247987.000000 0 0 1
-19.994815 -7.343205 -17.452723 27.537481 0.351964 2.257227 0.001721 -0.018548 706587.000000 0 0 1
-20.249815 -8.268905 -18.487323 28.639325 0.387679 2.272503 0.005594 -0.017215 -1029230.000000 0 0 1
-21.570015 -8.114905 -19.192323 29.991040 0.359833 2.265210 -0.008019 -0.012561 -1442490.000000 0 0 1
-21.612415 -6.954505 -19.999423 30.256215 0.311319 2.292950 -0.006257 -0.015641 1087740.000000 0 0 1
-22.893515 -6.655505 -20.584523 31.498117 0.282917 2.283017 -0.005237 -0.021793 899572.000000 0 0 1
-24.040815 -6.207805 -19.662623 31.672013 0.252699 2.240585 0.005408 -0.014365 -511562.000000 0 0 1
-23.965615 -4.802105 -19.330623 31.162219 0.197756 2.239950 0.011051 -0.006664 239214.000000 0 0 1
-25.091645 -4.366605 -18.595823 31.535100 0.172301 2.201467 0.022925 0.002346 -353933.000000 0 0 1
-25.065015 -2.838605 -18.390123 31.217131 0.112769 2.200745 0.003817 -0.001753 -24437.700000 0 0 1
-25.423975 -2.033805 -19.494723 32.102322 0.079826 2.223414 0.022098 0.003830 404099.000000 0 0 1
-26.596385 -2.326805 -20.255623 33.512266 0.087264 2.219839 0.032003 0.013762 92614.800000 0 0 1
-26.989425 -1.225005 -21.225123 34.357467 0.045357 2.236704 0.029652 0.014755 16302.000000 0 0 1
-26.224005 -1.225605 -22.420623 34.523686 0.046702 2.277627 0.034061 0.025017 309271.000000 0 0 1
-26.935525 -1.873505 -23.465123 35.772120 0.069443 2.286252 0.048183 0.018347 166349.000000 0 0 1
-26.294055 -1.740605 -24.903223 36.257104 0.066101 2.327944 0.044461 0.016124 -385304.000000 0 0 1
-26.511315 -0.551505 -25.706713 36.932223 0.020800 2.340679 0.043452 0.019967 189036.000000 0 0 1
-26.072245 0.675995 -25.137533 36.223121 -0.025922 2.337776 0.023852 0.029611 -396867.000000 0 0 1
-24.592615 0.879995 -24.786323 34.927538 -0.035768 2.359797 0.019769 0.027821 -470868.000000 0 0 1
-23.741815 0.653695 -25.906683 35.146228 -0.027527 2.399582 0.011877 0.019701 -141518.000000 0 0 1
-22.413315 0.720195 -25.439293 33.912137 -0.032121 2.419090 -0.000506 0.023774 -1028680.000000 0 0 1
-21.366315 0.188995 -26.324743 33.904974 -0.008845 2.459773 -0.012307 0.009005 -1099880.000000 0 0 1
-21.297015 0.950095 -27.506313 34.800328 -0.044582 2.482264 -0.020104 0.012895 383990.000000 0 0 1
-20.450215 0.352595 -28.507443 35.085751 -0.017240 2.519237 -0.020974 0.005543 -104882.000000 0 0 1
-20.297915 1.284895 -29.755513 36.042293 -0.063217 2.542012 -0.021711 0.013958 -110352.000000 0 0 1
-19.472515 2.434995 -29.588743 35.504954 -0.124402 2.555972 -0.015335 0.015892 402764.000000 0 0 1
-19.290915 3.239295 -30.765863 36.457794 -0.166366 2.575263 -0.018389 0.008643 7793.000000 0 0 1
-18.731115 2.604995 -32.109073 37.264370 -0.138187 2.609320 -0.021190 0.002401 -504301.000000 0 0 1
-17.347315 2.428295 -32.100293 36.568494 -0.139077 2.642073 -0.023377 0.005155 -801052.000000 0 0 1
-16.929915 1.761395 -33.217483 37.324599 -0.103667 2.668059 -0.035718 0.013356 -636205.000000 0 0 1
-15.421015 1.802595 -33.386033 36.819618 -0.116364 2.706298 -0.018359 -0.001858 -724848.000000 0 0 1
-14.849015 3.102995 -33.447623 36.726902 -0.206005 2.715800 -0.014846 0.003159 425778.000000 0 0 1
-13.433115 2.937895 -33.584623 36.290587 -0.215315 2.752982 -0.024364 0.004257 226172.000000 0 0 1
-12.734315 4.310395 -33.784463 36.361136 -0.326381 2.762867 -0.012745 0.010767 -316762.000000 0 0 1
-12.518915 5.131595 -32.641173 35.334158 -0.389018 2.748647 0.006267 -0.007157 112594.000000 0 0 1
-11.994915 6.388895 -33.061943 35.746161 -0.489412 2.751592 0.011671 0.002023 -109460.000000 0 0 1
-11.588915 7.319595 -31.900063 34.720217 -0.563334 2.735762 0.014115 -0.005120 -30181.000000 0 0 1
-10.462515 6.887395 -31.162593 33.585825 -0.582183 2.759401 0.019584 -0.013248 306940.000000 0 0 1
-10.781115 5.871195 -30.237573 32.634555 -0.498674 2.755934 0.021031 -0.012354 -139360.000000 0 0 1
-9.568315 4.936095 -29.957763 31.833713 -0.476270 2.796578 0.020831 -0.019249 373138.000000 0 0 1
-9.052615 4.154495 -31.072013 32.629429 -0.430253 2.831383 0.019790 -0.013739 148896.000000 0 0 1
-9.827715 3.046095 -31.351523 32.996677 -0.300560 2.824487 0.017934 -0.013692 -528088.000000 0 0 1
-9.534315 2.402895 -32.734453 34.179255 -0.246885 2.849796 0.014094 -0.014931 -356602.000000 0 0 1
-10.280815 1.236695 -33.000263 34.586731 -0.119716 2.837539 0.013554 -0.012015 68414.700000 0 0 1
-9.966815 0.692795 -34.241613 35.669391 -0.069399 2.857698 0.015289 -0.005420 -678984.000000 0 0 1
-10.662315 1.363395 33.753922 35.424160 -0.127180 0.308302 0.018094 -0.003431 -116642.000000 0 0 1
-11.988715 0.920195 33.597039 35.683849 -0.076605 0.343685 -0.018291 0.000770 -578332.000000 0 0 1
-12.337215 1.347595 32.302429 34.604477 -0.108799 0.366812 -0.023730 0.007683 -687724.000000 0 0 1
-13.768115 1.040895 31.868539 34.731085 -0.075458 0.408847 -0.012167 0.013416 -1061890.000000 0 0 1
-14.570115 1.922495 32.547629 35.711797 -0.131190 0.424130 -0.018106 0.030836 -503457.000000 0 0 1
-15.930415 1.700995 32.195009 35.960953 -0.106374 0.461744 -0.012510 0.028575 162612.000000 0 0 1
-16.645215 3.007995 31.807509 36.025392 -0.178783 0.488753 -0.013058 0.028057 -689310.000000 0 0 1
-16.987615 3.867395 32.855269 37.188769 -0.223845 0.487572 -0.016346 0.019169 616792.000000 0 0 1
-15.974915 4.849195 33.121289 37.090867 -0.294711 0.466880 -0.010460 0.016228 -133285.000000 0 0 1
-16.358415 5.724695 34.306486 38.435724 -0.336634 0.467788 -0.012776 0.012850 329599.000000 0 0 1
-17.587815 6.395395 34.058092 38.861111 -0.348762 0.502450 -0.011538 0.013005 783403.000000 0 0 1
-18.679215 5.811895 -34.463984 39.628997 -0.301648 2.625321 -0.020276 0.011243 978915.000000 0 0 1
-20.114515 6.413795 -34.599208 40.531910 -0.308672 2.593709 -0.017189 0.009862 602169.000000 0 0 1
-20.163415 7.718495 -34.047543 40.315923 -0.365589 2.576462 -0.007287 0.007238 -16045.800000 0 0 1
-19.693715 8.698695 34.358769 40.546698 -0.415929 0.559751 -0.010431 0.006834 -532753.000000 0 0 1
-19.682815 10.081695 -34.242822 40.763031 -0.473366 2.568164 -0.000038 0.003598 -280573.000000 0 0 1
-18.783215 10.305695 -33.134853 39.458016 -0.501818 2.567618 0.004695 -0.000845 425905.000000 0 0 1
-18.639415 11.697195 -32.877283 39.562203 -0.560432 2.551749 0.014675 -0.003439 111300.000000 0 0 1
-17.842315 12.519695 -33.921373 40.320597 -0.611856 2.570464 0.003873 -0.012609 -601034.000000 0 0 1
-18.512315 12.641995 34.098374 40.807168 -0.599155 0.581576 0.010622 -0.010678 -161416.000000 0 0 1
-17.720915 12.944295 32.978139 39.612413 -0.630873 0.587155 0.006936 -0.010007 24269.600000 0 0 1
-18.468615 12.413395 31.696469 38.727875 -0.591779 0.612104 0.011090 -0.012903 -104470.000000 0 0 1
-18.531415 10.979595 31.572139 38.219954 -0.534876 0.598708 0.000918 -0.000963 152845.000000 0 0 1
-17.315415 10.331795 31.213419 37.159752 -0.537976 0.573551 -0.004497 0.000640 353327.000000 0 0 1
-17.425515 8.817995 31.219839 36.825046 -0.468467 0.558996 0.001736 0.012971 244428.000000 0 0 1
-18.194115 8.167295 30.199289 36.190159 -0.421937 0.583642 0.000904 0.007322 305819.000000 0 0 1
-18.531015 6.834595 30.539859 36.370225 -0.353341 0.574077 -0.001319 0.003942 35586.600000 0 0 1
-19.197115 5.937595 29.468549 35.667628 -0.299963 0.598470 -0.008085 0.012892 -49122.300000 0 0 1
-20.524515 6.255295 29.119859 36.171130 -0.295829 0.635023 0.003142 0.002426 -421067.000000 0 0 1
-20.997915 5.172395 28.343409 35.651297 -0.241521 0.651760 -0.002007 0.002439 -562072.000000 0 0 1
-22.467315 5.316995 27.965409 36.264512 -0.232379 0.690149 -0.012672 0.009370 -601777.000000 0 0 1
-22.682015 6.247795 26.905009 35.740569 -0.268786 0.718512 -0.006582 0.006369 438450.000000 0 0 1
-24.068215 6.393795 26.625369 36.456411 -0.259656 0.751985 -0.004323 -0.000240 144744.000000 0 0 1
-24.293415 7.077495 25.253759 35.749312 -0.283487 0.786380 -0.004635 0.001192 -250664.000000 0 0 1
-24.223815 6.217195 24.134719 34.755308 -0.251234 0.803185 -0.005367 0.005436 1321390.000000 0 0 1
-25.344005 5.273795 24.014519 35.310461 -0.205161 0.822902 -0.006285 0.008808 670484.000000 0 0 1
-25.386885 4.740895 22.583819 34.307418 -0.184619 0.852267 -0.003662 0.016430 -154617.000000 0 0 1
-26.108425 5.512295 21.661519 34.369415 -0.208075 0.888914 -0.000186 0.019493 -118799.000000 0 0 1
-26.230905 4.848195 20.407119 33.585948 -0.182765 0.917750 0.002797 0.013399 88075.700000 0 0 1
-27.190505 5.564495 19.430019 33.879387 -0.201861 0.960018 0.007581 0.008972 -693929.000000 0 0 1
-28.551825 5.490795 19.616919 35.073909 -0.189990 0.977252 0.013657 0.008806 -1052720.000000 0 0 1
-29.270035 6.244395 18.662319 35.270520 -0.210187 1.013234 0.012507 0.016472 351995.000000 0 0 1
-30.786315 6.301295 19.013419 36.728921 -0.201890 1.026672 0.008010 0.015227 304507.000000 0 0 1
-31.099345 7.130295 20.146319 37.734395 -0.225379 1.007592 0.022329 0.001560 -76622.100000 0 0 1
-32.430355 6.991695 20.581819 39.041299 -0.212341 1.015517 0.012260 0.007706 -377438.000000 0 0 1
-32.869755 8.063395 21.599519 40.149451 -0.240563 1.002760 0.006629 0.010684 -19951.000000 0 0 1
-32.023515 8.214695 22.720219 40.114774 -0.251106 0.968689 0.018916 0.011690 225063.000000 0 0 1
-32.553085 9.242295 23.517919 41.209415 -0.276635 0.963447 0.013683 0.021401 119324.000000 0 0 1
-0.024115 33.479495 12.375677 35.693621 -1.570076 1.216725 -0.023292 -0.005865 -266492.000000 0 0 1
-0.404115 33.436695 13.731677 36.148788 -1.558711 1.181145 -0.014289 0.001891 125655.000000 0 0 1
-0.335315 34.688995 14.229477 37.495558 -1.561130 1.181543 -0.016053 0.003727 -46310.600000 0 0 1
-0.211115 -34.755501 15.797277 38.177786 1.564722 1.144192 -0.018254 0.003098 939069.000000 0 0 1
-1.461115 34.567695 16.499377 38.331317 -1.528553 1.125815 -0.013428 0.002414 706810.000000 0 0 1
-1.285515 34.645395 17.858977 38.998705 -1.533708 1.095122 -0.017551 0.002982 186945.000000 0 0 1
-2.601315 -34.709901 18.675677 39.500949 1.495992 1.078341 -0.009373 0.004982 206178.000000 0 0 1
-3.398415 33.640795 18.669277 38.623752 -1.470117 1.066305 -0.007744 0.002791 52825.600000 0 0 1
-4.488315 33.749295 19.576877 39.273579 -1.438582 1.048958 -0.001463 0.000506 -312912.000000 0 0 1
-5.615815 32.793995 19.300377 38.464114 -1.401196 1.045145 0.001460 0.005539 -1116230.000000 0 0 1
-6.556215 33.229495 18.395377 38.543134 -1.375997 1.073254 0.008004 0.006392 -614035.000000 0 0 1
-7.541515 32.241595 18.217377 37.792430 -1.341021 1.067817 0.013895 0.003717 -285767.000000 0 0 1
-8.666215 32.762895 17.313377 38.056059 -1.312206 1.098487 0.015864 0.003485 -163620.000000 0 0 1
-9.486115 33.828695 17.793977 39.382644 -1.297402 1.101989 0.023535 0.001838 107437.000000 0 0 1
-10.429315 34.112795 16.776077 39.419414 -1.274091 1.131195 0.010236 0.001460 382580.000000 0 0 1
-11.436815 -34.234901 17.049677 39.918926 1.248384 1.129505 0.013888 -0.003513 42427.100000 0 0 1
-12.368415 -34.517701 18.037777 40.863318 1.226728 1.113619 0.028029 -0.000683 977967.000000 0 0 1
-13.628915 -33.806101 17.823677 40.574416 1.187578 1.115995 0.033609 -0.002508 1415930.000000 0 0 1
-14.799015 -34.137301 18.750877 41.664872 1.161736 1.103986 0.028166 -0.002750 31221.900000 0 0 1
-14.493315 -33.811101 20.079977 41.910049 1.165833 1.071144 0.024435 0.001592 522335.000000 0 0 1
-15.620615 -34.141601 20.905077 42.972954 1.141703 1.062751 0.033062 0.000101 340911.000000 0 0 1
-15.510515 -33.708301 22.345077 43.314294 1.139543 1.028759 0.028782 -0.003797 -30888.700000 0 0 1
-15.351515 -32.288701 22.415477 42.198138 1.126985 1.010785 0.019998 -0.002671 -44356.200000 0 0 1
-15.023215 -31.905901 23.731177 42.507085 1.130731 0.978476 0.029806 -0.007448 249517.000000 0 0 1
-14.507115 -30.432801 23.741977 41.234612 1.125967 0.957241 0.031921 -0.007409 48782.400000 0 0 1
-14.362515 -29.889901 25.114977 41.598679 1.122859 0.922606 0.031579 -0.022068 -138024.000000 0 0 1
-14.277115 -28.468001 25.285077 40.664459 1.105938 0.899760 0.018095 -0.001689 137337.000000 0 0 1
-15.488715 -27.598701 24.838877 40.231311 1.059386 0.905361 0.018991 0.001179 208056.000000 0 0 1
-16.656915 -27.758401 25.599177 41.271049 1.030327 0.901710 0.034949 -0.003365 455102.000000 0 0 1
-17.723015 -26.908301 25.129177 40.861198 0.988368 0.908425 0.034142 -0.000206 -50378.600000 0 0 1
-18.931715 -26.761901 26.060677 41.878014 0.955113 0.899119 0.027548 0.003055 -564236.000000 0 0 1
-19.589715 -27.948501 26.390277 43.143045 0.959452 0.912598 0.024671 -0.004539 155377.000000 0 0 1
-20.328115 -28.638601 25.371777 43.325845 0.953513 0.945172 0.018750 -0.003355 410294.000000 0 0 1
-21.720815 -28.010301 24.974377 43.360008 0.911200 0.956997 0.015448 0.009530 265885.000000 0 0 1
-21.673915 -26.639201 24.587677 42.236945 0.887812 0.949442 0.025782 0.006132 -404362.000000 0 0 1
-22.842415 -26.282001 23.914777 42.242586 0.855302 0.968993 0.009692 0.012122 -588541.000000 0 0 1
-23.103015 -24.750201 23.939277 41.465778 0.819806 0.955346 0.014215 0.021845 -263511.000000 0 0 1
-23.901315 -24.286601 24.982377 42.251994 0.793393 0.938162 0.010356 0.019687 2974.300000 0 0 1
-24.197215 -22.909901 24.913577 41.605950 0.758078 0.928796 0.001035 0.023911 206746.000000 0 0 1
-24.520315 -22.116801 26.232077 42.172510 0.733907 0.899478 0.006511 0.021089 30815.400000 0 0 1
-25.765635 -22.529801 26.736977 43.431853 0.718497 0.907640 -0.006921 0.020078 -65193.200000 0 0 1
-26.080745 -21.796101 27.901877 43.974880 0.696143 0.883440 -0.009559 0.011844 18167.300000 0 0 1
-27.453735 -22.206801 28.575977 45.425060 0.680133 0.890428 -0.012023 0.014738 1191900.000000 0 0 1
-28.630825 -21.708901 27.938977 45.514690 0.648751 0.909874 -0.015927 0.011468 554697.000000 0 0 1
-28.983905 -22.345601 26.738177 45.324637 0.656785 0.939829 -0.020134 0.015093 -646839.000000 0 0 1
-30.500495 -22.680401 26.657777 46.425401 0.639397 0.959161 -0.027876 0.014263 203564.000000 0 0 1
-31.017915 -23.394201 25.571077 46.511071 0.646194 0.988690 -0.027607 0.007458 138869.000000 0 0 1
-30.342125 -24.629801 25.285477 46.547041 0.681856 0.996524 -0.035224 0.001813 -345885.000000 0 0 1
-30.617205 -25.198901 23.861177 46.279084 0.688627 1.029097 -0.030292 0.004346 -1100200.000000 0 0 1
-31.833825 -25.822701 23.726277 47.361805 0.681516 1.046091 -0.019037 0.006552 -1030580.000000 0 0 1
-32.020555 -26.245901 22.408677 47.077724 0.686613 1.074703 -0.015207 0.010361 -84702.800000 0 0 1
-33.379995 -26.890201 22.043877 48.199995 0.678133 1.095792 -0.005718 0.007293 23410.200000 0 0 1
-33.808185 -28.119001 22.668677 49.472624 0.693786 1.094820 -0.011263 0.017437 -8714.610000 0 0 1
-32.938055 -29.189101 22.471777 49.415583 0.725128 1.098704 -0.021690 0.011210 -555343.000000 0 0 1
-33.447465 -30.229801 21.484777 49.941660 0.734910 1.126085 -0.015912 0.014994 -318917.000000 0 0 1
-33.347975 -29.853101 20.127677 49.075640 0.730157 1.148193 -0.030178 0.014411 527894.000000 0 0 1
-33.834725 -30.881801 19.238077 49.684785 0.739801 1.173201 -0.021170 0.013839 -458200.000000 0 0 1
-34.053125 -30.432901 17.806277 49.018775 0.729317 1.199038 -0.019283 0.014776 -1050990.000000 0 0 1
-32.927905 -30.369501 17.010077 47.915512 0.745001 1.207881 -0.010291 0.005519 -506665.000000 0 0 1
-33.278365 -29.863701 15.755977 47.408238 0.731372 1.232006 -0.005374 0.000368 71339.200000 0 0 1
-34.159087 -30.697101 14.801077 48.251706 0.732069 1.259023 0.001283 -0.011152 -167380.000000 0 0 1
-33.566265 -31.926301 14.412677 48.515030 0.760363 1.269167 0.015169 -0.012328 -210732.000000 0 0 1
-33.971305 -32.502601 13.193977 48.831851 0.763307 1.297204 0.013031 -0.014481 27223.100000 0 0 1
-33.704565 -31.676401 11.908077 47.761851 0.754387 1.318816 0.025275 -0.024973 486432.000000 0 0 1
-34.859684 -30.957701 11.488077 48.016172 0.726182 1.329199 0.009898 -0.021614 347542.000000 0 0 1
-34.632238 -30.314301 10.258277 47.154862 0.719011 1.351498 0.002828 -0.025370 872561.000000 0 0 1
33.826397 -29.555001 9.680077 45.950268 -0.718108 1.358542 0.012577 -0.025215 784806.000000 0 0 1
33.430798 -28.433601 10.498177 45.125377 -0.704797 1.336000 0.007458 -0.026114 644297.000000 0 0 1
32.305508 -27.719101 9.955277 43.716152 -0.709138 1.341055 0.000089 -0.027245 154674.000000 0 0 1
32.574248 -26.915101 8.654877 43.132484 -0.690555 1.368767 0.001627 -0.027784 -32796.500000 0 0 1
33.617058 -25.982601 8.906377 43.411124 -0.657996 1.364166 0.001609 -0.026200 88151.100000 0 0 1
33.942986 -25.282601 7.736977 43.025540 -0.640200 1.389990 0.003962 -0.028454 -201890.000000 0 0 1
34.489303 -23.895701 7.929377 42.701190 -0.605907 1.384018 0.008944 -0.023962 -544546.000000 0 0 1
33.644898 -22.980301 8.599177 41.641557 -0.599242 1.362795 -0.001050 -0.013824 -370962.000000 0 0 1
34.252600 -21.701601 8.730577 41.477983 -0.564742 1.358723 0.006591 -0.010905 -874856.000000 0 0 1
33.323158 -20.623201 9.127177 40.237478 -0.554190 1.341972 0.008186 -0.006356 -974548.000000 0 0 1
33.149088 -20.451101 10.545377 40.352380 -0.552785 1.306394 0.008440 -0.012347 10936.400000 0 0 1
32.326608 -19.328201 10.846077 39.194724 -0.538877 1.290414 0.021000 0.000542 50246.400000 0 0 1
32.548138 -18.961301 12.296677 39.624746 -0.527499 1.255258 0.024157 -0.011508 711236.000000 0 0 1
33.839846 -18.391001 12.565977 40.512565 -0.497817 1.255419 -0.009842 -0.010615 653622.000000 0 0 1
34.069578 -18.454901 13.969577 41.188210 -0.496435 1.224768 -0.013205 -0.004814 -184069.000000 0 0 1
-34.497515 -17.689601 14.597577 41.425714 0.473818 1.210684 -0.012492 -0.006170 1215710.000000 0 0 1
-33.174055 -18.145801 14.251177 40.408960 0.500528 1.210369 -0.015779 -0.006822 1819830.000000 0 0 1
-32.015755 -17.637101 14.922377 39.481049 0.503525 1.183201 -0.017344 -0.009688 1070410.000000 0 0 1
-30.644965 -17.747401 14.224077 38.162921 0.524932 1.188858 0.001133 -0.011238 136907.000000 0 0 1
-30.225075 -19.104301 14.064277 38.423084 0.563666 1.196049 -0.001168 -0.015693 551905.000000 0 0 1
-29.127255 -19.209201 13.137377 37.282450 0.583019 1.210689 -0.009017 -0.016374 383988.000000 0 0 1
-28.665615 -20.681101 12.898877 37.627204 0.624984 1.220893 -0.008893 -0.015084 246645.000000 0 0 1
-29.420705 -21.327201 11.883177 38.231365 0.627246 1.254738 -0.011863 -0.008321 -5289.050000 0 0 1
-28.486915 -21.954801 10.983577 37.605273 0.656617 1.274400 -0.008688 -0.004823 325384.000000 0 0 1
-29.073425 -22.880301 9.886377 38.295074 0.666753 1.309676 -0.009294 -0.005623 260063.000000 0 0 1
-29.681475 -24.071901 10.360477 39.595276 0.681417 1.306055 -0.005341 -0.009868 358371.000000 0 0 1
-31.056345 -23.977701 10.735177 40.677644 0.657478 1.303724 0.000061 -0.010405 421756.000000 0 0 1
-31.801415 -25.332601 10.764677 42.058875 0.672657 1.311973 0.021385 -0.019190 6594.940000 0 0 1
-32.004325 -25.864901 9.515877 42.235315 0.679702 1.343539 0.021191 -0.018890 -371603.000000 0 0 1
-32.712735 -27.061001 9.540477 43.513694 0.691126 1.349748 0.025837 -0.021987 -131952.000000 0 0 1
-32.666835 -27.742201 8.164177 43.628037 0.704057 1.382555 0.023343 -0.019713 301028.000000 0 0 1
-31.369585 -28.203901 7.800477 42.899398 0.732309 1.387947 0.020645 -0.023210 131001.000000 0 0 1
-31.287625 -29.045901 6.674177 43.210236 0.748260 1.415717 0.010979 -0.018161 -437273.000000 0 0 1
-29.841875 -29.215801 6.193077 42.219128 0.774797 1.423576 0.016913 -0.009233 -90235.900000 0 0 1
-29.391135 -28.130401 5.453977 41.047584 0.763484 1.437533 0.019988 -0.000690 317428.000000 0 0 1
-28.122845 -28.423101 4.827877 40.274998 0.790708 1.450635 0.027423 -0.002147 630503.000000 0 0 1
-27.510145 -27.185801 4.108977 38.894210 0.779468 1.464954 0.022784 0.000497 -141427.000000 0 0 1
-27.934005 -26.758401 2.838077 38.786278 0.763907 1.497559 0.023373 0.003749 -227899.000000 0 0 1
-27.288525 -25.565501 2.409777 37.470862 0.752810 1.506441 0.021252 -0.001972 -135876.000000 0 0 1
-27.876735 -25.079801 1.063777 37.513203 0.732632 1.542435 0.019470 0.004572 -71831.800000 0 0 1
-27.509245 -25.921501 0.008277 37.797921 0.755691 1.570577 0.013673 0.001259 -263121.000000 0 0 1
-27.595565 -25.412401 -1.345523 37.538191 0.744236 1.606648 0.010879 -0.003229 841301.000000 0 0 1
-29.033675 -25.165501 -1.951423 38.471610 0.714149 1.621542 0.011345 0.000628 824713.000000 0 0 1
-29.711615 -24.012701 -1.519923 38.232186 0.679716 1.610562 0.005365 0.003250 540870.000000 0 0 1
-31.085405 -24.040401 -1.933623 39.344405 0.658289 1.619962 -0.001027 -0.001114 937089.000000 0 0 1
-31.835395 -22.672901 -1.840323 39.127224 0.618861 1.617848 0.000229 -0.009105 41070.200000 0 0 1
-32.009185 -22.224101 -0.519823 38.971385 0.606893 1.584135 0.002640 -0.008989 87184.700000 0 0 1
-32.863125 -21.117401 -0.334323 39.064580 0.571146 1.579355 0.006224 -0.009270 -617619.000000 0 0 1
-32.964875 -20.767801 1.193077 38.979584 0.562185 1.540184 0.009725 -0.009183 -451078.000000 0 0 1
-33.625295 -21.770501 1.906177 40.102976 0.574576 1.523246 0.009743 -0.012466 126684.000000 0 0 1
-33.546195 -21.454401 3.304277 39.956937 0.568992 1.488006 0.008993 -0.009546 -1044340.000000 0 0 1
-34.527293 -22.374401 4.116177 41.348406 0.574983 1.471083 0.016281 -0.009195 667950.000000 0 0 1
33.832832 -22.147201 3.890677 40.623841 -0.579607 1.474876 0.002015 -0.000883 -141546.000000 0 0 1
33.315268 -20.840801 4.139577 39.514329 -0.559004 1.465842 0.010631 -0.004259 -1191230.000000 0 0 1
32.073418 -20.654401 3.247477 38.286480 -0.572126 1.485874 -0.009036 0.006869 362845.000000 0 0 1
31.120818 -21.664201 3.572977 38.086863 -0.608125 1.476847 -0.017212 0.008823 212660.000000 0 0 1
29.781878 -21.392101 3.168977 36.805226 -0.622898 1.484588 -0.015974 0.012261 1013550.000000 0 0 1
28.672078 -22.430601 3.436477 36.565411 -0.663864 1.476676 -0.020434 0.024276 119093.000000 0 0 1
28.745408 -23.640901 2.712777 37.316884 -0.688265 1.498036 -0.033036 0.019521 -140626.000000 0 0 1
27.567538 -24.434401 2.749277 36.940055 -0.725221 1.496302 -0.032952 0.020237 301910.000000 0 0 1
27.302308 -25.341301 1.480277 37.279871 -0.748165 1.531079 -0.035629 0.020479 16663.300000 0 0 1
27.074588 -24.668401 0.293877 36.628537 -0.738929 1.562773 -0.036511 0.011208 -9832.260000 0 0 1
26.647088 -25.696501 -0.577323 37.023112 -0.767240 1.586391 -0.028908 0.005492 -90962.100000 0 0 1
25.730508 -25.198701 -1.777923 36.058211 -0.774956 1.620123 -0.009291 -0.001066 252258.000000 0 0 1
26.326368 -24.571801 -2.925923 36.130487 -0.750940 1.651867 -0.022233 -0.012718 -136350.000000 0 0 1
26.786398 -25.431901 -3.926123 37.144410 -0.759465 1.676693 -0.010289 -0.012788 -861333.000000 0 0 1
25.762398 -26.057201 -4.918623 36.971229 -0.791087 1.704231 -0.010971 -0.017820 -155700.000000 0 0 1
25.248938 -25.193001 -5.887923 36.150572 -0.784289 1.734397 -0.003297 -0.032213 431733.000000 0 0 1
24.052788 -24.632301 -5.336923 34.839197 -0.797301 1.724589 -0.001816 -0.030587 -226305.000000 0 0 1
23.349088 -23.543501 -6.247723 33.741820 -0.789544 1.757034 -0.004739 -0.038110 39396.700000 0 0 1
22.747388 -24.065201 -7.419023 33.935519 -0.813542 1.791198 0.000865 -0.032321 988274.000000 0 0 1
21.560488 -23.367501 -7.846223 32.748404 -0.825597 1.812741 -0.000067 -0.029629 768289.000000 0 0 1
21.926888 -21.997101 -8.533723 32.210019 -0.786997 1.838938 -0.007877 -0.028525 -507495.000000 0 0 1
22.275688 -22.234601 -9.900023 32.993851 -0.784475 1.875548 -0.003563 -0.030580 87507.100000 0 0 1
22.321888 -21.025001 -10.670923 32.468230 -0.755488 1.905678 -0.014722 -0.024658 -621474.000000 0 0 1
22.964688 -21.201101 -12.043723 33.494998 -0.745488 1.938601 -0.020355 -0.010218 428036.000000 0 0 1
24.373488 -21.325001 -11.811823 34.472333 -0.718788 1.920529 -0.012353 -0.019477 411915.000000 0 0 1
25.103548 -20.630101 -12.819523 34.930350 -0.687893 1.946581 -0.017153 -0.016779 196694.000000 0 0 1
26.634078 -20.826101 -12.757423 36.136581 -0.663628 1.931608 -0.019989 -0.009257 191438.000000 0 0 1
27.122618 -22.152201 -13.145123 37.405223 -0.684867 1.929889 -0.019211 -0.012417 388383.000000 0 0 1
27.404948 -23.048101 -12.030923 37.775511 -0.699257 1.894927 -0.014827 -0.012321 -177605.000000 0 0 1
27.751318 -24.505801 -12.555723 39.093684 -0.723371 1.897761 -0.020629 -0.021840 -539615.000000 0 0 1
28.911368 -24.532001 -13.339123 40.194757 -0.703637 1.909073 -0.027677 -0.020608 -19153.600000 0 0 1
29.329388 -25.855901 -13.742123 41.443776 -0.722539 1.908779 -0.011703 -0.013310 -39585.400000 0 0 1
-3.121715 -9.000605 -28.200743 29.766389 1.236945 2.815815 -0.008210 0.001600 78854.000000 0 0 1
-3.442515 -7.876105 -27.349993 28.668904 1.158736 2.837086 0.005027 0.002131 377146.000000 0 0 1
-4.445615 -7.041005 -27.940643 29.155081 1.007616 2.851948 0.005416 -0.006124 342158.000000 0 0 1
-4.631015 -5.714105 -27.252073 28.227164 0.889714 2.877983 0.001807 -0.001310 -17306.700000 0 0 1
-5.270215 -5.758305 -26.008813 27.154955 0.829626 2.850018 -0.002980 0.000020 142323.000000 0 0 1
-4.996315 -4.547705 -25.421103 26.303560 0.738428 2.881830 0.001929 0.004560 83672.900000 0 0 1
-5.530915 -4.408405 -23.986123 25.007182 0.672938 2.854847 -0.017316 0.005312 -461760.000000 0 0 1
-4.845515 -5.249705 -23.068223 24.149148 0.825414 2.841265 -0.021845 -0.006157 229559.000000 0 1 0
-5.414815 -5.171005 -21.807323 23.056861 0.762370 2.810865 -0.019232 0.001603 -831557.000000 0 1 0
-5.003915 -6.285605 -20.849723 22.344103 0.898443 2.773790 -0.018591 -0.004503 -16570.000000 0 1 0
-5.537215 -7.595705 -21.144423 23.139622 0.940876 2.723280 -0.018381 0.004370 297167.000000 0 1 0
-4.619615 -8.533905 -20.679323 22.843003 1.074638 2.702836 -0.013957 -0.000369 -1425700.000000 0 1 0
-5.153615 -10.043905 -20.701223 23.579237 1.096717 2.642345 -0.013194 0.013196 207560.000000 0 1 0
-6.107915 -10.234205 -19.680323 23.007840 1.032723 2.597070 -0.017121 0.008410 -253747.000000 0 1 0
-7.341815 -9.587505 -19.819223 23.208277 0.917279 2.594369 -0.016497 -0.001410 -1685560.000000 0 1 0
-8.198915 -9.690605 -18.563623 22.488622 0.868589 2.541826 -0.023322 0.000611 -489698.000000 0 1 0
-8.927315 -10.933805 -18.567523 23.323764 0.886083 2.491582 -0.005122 0.000922 257153.000000 0 1 0
-9.763615 -11.008305 -17.408323 22.793873 0.845248 2.439865 -0.002825 -0.001763 -339941.000000 0 1 0
-10.741015 -12.166905 -17.442923 23.825586 0.847562 2.392209 0.019147 0.000049 -607858.000000 0 1 0
-11.841515 -12.119205 -18.316423 24.951713 0.796987 2.395100 0.023047 -0.000647 68927.100000 0 1 0
-11.565915 -11.935505 -19.718223 25.788272 0.801123 2.441247 0.011078 -0.006195 -426663.000000 0 0 1
-12.906915 -11.902205 -20.543623 27.023904 0.744923 2.434420 0.001059 0.002988 902770.000000 0 0 1
-13.675015 -13.079005 -20.711823 28.054340 0.763124 2.401306 0.006162 0.008191 -150798.000000 0 0 1
-14.505715 -13.316005 -19.591423 27.776890 0.742662 2.353662 0.014582 0.005534 -178172.000000 0 0 1
-15.564815 -14.434305 -19.859823 29.069317 0.747731 2.322916 0.016336 0.010764 434975.000000 0 0 1
-14.993515 -15.736905 -19.954523 29.506587 0.809584 2.313488 0.009780 0.013228 -70299.400000 0 0 1
-15.471315 -16.409705 -21.107523 30.889602 0.814824 2.323098 0.026630 0.009728 479115.000000 0 0 1
-14.776915 -17.822505 -21.340223 31.486569 0.878552 2.315503 0.010002 0.004773 -60662.400000 0 0 1
-15.218115 -18.789805 -20.388923 31.628405 0.890040 2.271348 0.019885 0.011183 52573.000000 0 0 1
-14.961115 -20.092405 -20.909223 32.630282 0.930750 2.266326 0.025068 0.008852 305597.000000 0 0 1
-15.768515 -21.264705 -20.203323 33.301772 0.932735 2.222666 0.026616 0.002111 365603.000000 0 0 1
-15.268215 -22.430005 -20.806223 34.192432 0.973138 2.224970 0.034166 0.004371 108537.000000 0 0 1
-15.955315 -23.543605 -20.307423 34.946600 0.975200 2.190874 0.040610 0.007436 -114029.000000 0 0 1
-15.331815 -24.919305 -20.665623 35.820445 1.019233 2.185752 0.033985 0.010730 -62570.800000 0 0 1
-15.410715 -25.197815 -22.090123 36.883513 1.021899 2.212943 0.023307 0.008042 127004.000000 0 0 1
-14.873115 -26.449965 -22.354923 37.690221 1.058550 2.205728 0.019629 0.010627 -270357.000000 0 0 1
-15.121815 -26.882655 -23.825023 38.974070 1.058398 2.228504 0.017548 0.004302 89064.100000 0 0 1
-16.284615 -27.663865 -24.071323 40.123643 1.038757 2.214208 0.028651 0.004006 48135.700000 0 0 1
-16.033415 -29.020355 -24.053623 40.961301 1.066044 2.198426 0.023932 0.018206 157745.000000 0 0 1
-17.031515 -29.925215 -24.864923 42.471819 1.053380 2.196225 0.027829 0.009414 158049.000000 0 0 1
-16.834715 -29.863395 -26.335883 43.229720 1.057477 2.225858 0.020696 0.012404 -180023.000000 0 0 1
-17.368315 -28.752195 -27.002463 43.098493 1.027390 2.247888 0.044955 -0.000394 -478893.000000 0 0 1
-16.475815 -28.036365 -28.011993 42.920415 1.039501 2.281873 0.032256 -0.007003 -494416.000000 0 0 1
-16.432815 -28.516235 -29.343773 44.093878 1.048014 2.298938 0.040622 0.003498 -91057.400000 0 0 1
-15.557615 -27.843185 -30.213133 43.933082 1.061254 2.329124 0.014721 0.011461 -143125.000000 0 0 1
-15.738015 -28.227545 -31.688443 45.261869 1.062182 2.346353 0.026361 0.010318 -242995.000000 0 0 1
-15.450015 -29.528885 -32.078563 46.256807 1.088748 2.337116 0.018949 0.014689 150616.000000 0 0 1
-15.915415 -29.819645 -33.370213 47.498240 1.080536 2.349780 0.018037 0.013261 -172364.000000 0 0 1
-15.885515 -31.311755 -33.878603 48.790730 1.101299 2.338334 0.005055 0.013823 439082.000000 0 0 1
-14.606215 -31.840795 -34.209278 48.963787 1.140709 2.344326 0.004873 0.023415 273343.000000 0 0 1
-14.821015 -33.001595 34.243458 49.813474 1.148691 0.812847 -0.008846 0.027228 -126367.000000 0 0 1
-13.594315 -33.390305 33.403956 49.148165 1.184155 0.823500 -0.007198 0.022811 -232587.000000 0 0 1
-12.782115 -34.194885 34.237679 50.048889 1.213076 0.817448 -0.006648 0.024114 -427996.000000 0 0 1
-11.697115 -34.655865 33.464410 49.575379 1.245281 0.829803 -0.003078 0.024998 -103598.000000 0 0 1
-10.826315 33.794339 34.191767 49.278224 -1.260768 0.803973 0.004461 0.018310 66849.100000 0 0 1
-10.188715 34.380522 -33.935413 49.370462 -1.282690 2.328648 0.016118 0.020680 -374273.000000 0 0 1
-9.589015 33.382642 -33.168403 48.025961 -1.291082 2.333163 0.007823 0.011245 -612631.000000 0 0 1
-8.652815 34.134497 -32.181403 47.704065 -1.322534 2.311226 0.004118 0.006965 -371259.000000 0 0 1
-9.273815 -34.663489 -31.150273 47.517372 1.309380 2.285714 0.013346 0.011133 87107.600000 0 0 1
-8.437715 -33.648475 -30.576143 46.241923 1.325102 2.293242 0.010055 0.012922 166899.000000 0 0 1
-9.287515 -32.789545 -29.604373 45.142342 1.294780 2.286039 0.020215 0.022117 314878.000000 0 0 1
-9.604715 -33.217535 -28.286663 44.674271 1.289327 2.256446 0.035042 0.012894 91974.200000 0 0 1
-10.059915 -34.594298 -28.096423 45.687814 1.287804 2.233138 0.032217 0.006183 58642.900000 0 0 1
-10.588915 34.681984 -26.667513 45.012458 -1.274471 2.204890 0.029754 -0.000467 471006.000000 0 0 1
-9.529915 -34.670864 -25.737383 44.218785 1.302553 2.192039 0.036961 -0.011229 239399.000000 0 0 1
-9.984415 34.404953 -24.471423 43.384789 -1.288352 2.170085 0.033968 -0.015513 81640.500000 0 0 1
-8.896215 34.540006 -23.375023 42.644418 -1.318713 2.150933 0.037101 -0.015907 431214.000000 0 0 1
-7.933915 33.495567 -23.431523 41.640560 -1.338218 2.168456 0.021769 -0.018205 -447647.000000 0 0 1
-6.997515 33.669202 -22.440723 41.062957 -1.365882 2.148970 0.028823 -0.013564 -560232.000000 0 0 1
-5.977215 32.546412 -22.201023 39.848230 -1.389168 2.161733 0.012030 -0.006634 -100659.000000 0 0 1
-5.368215 32.186412 -23.437523 40.175867 -1.405532 2.193672 -0.003203 -0.012221 44775.400000 0 0 1
-4.625815 30.959532 -23.332323 39.042132 -1.422479 2.211325 -0.007674 -0.008685 99625.900000 0 0 1
-3.096815 31.190102 -23.439623 39.138582 -1.471832 2.212908 -0.012430 -0.009235 141107.000000 0 0 1
-2.517915 31.399512 -24.755623 40.063825 -1.490778 2.236871 -0.008162 -0.006604 202553.000000 0 0 1
-3.084415 32.407712 -25.598783 41.413417 -1.475907 2.237155 -0.001520 -0.011046 -276370.000000 0 0 1
-2.191315 32.557052 -26.877243 42.274693 -1.503591 2.259810 -0.005352 0.002839 -277013.000000 0 0 1
-1.152215 33.488880 -26.833083 42.928394 -1.536404 2.246013 -0.008631 -0.001002 -274522.000000 0 0 1
-1.512415 -34.623262 -26.976243 43.917825 1.527142 2.232223 -0.014463 0.002315 -69535.900000 0 0 1
-0.374115 -33.664955 -27.479683 43.458050 1.559684 2.255349 -0.022610 0.009466 67957.500000 0 0 1
0.661285 -33.529385 -26.541373 42.767995 -1.551076 2.240291 -0.010355 0.011092 -504774.000000 0 0 1
1.576385 -32.586875 -27.002753 42.350184 -1.522459 2.262184 -0.009558 0.016725 41747.300000 0 0 1
2.610285 -32.076775 -25.951133 41.342404 -1.489599 2.249407 -0.005931 0.011953 159238.000000 0 0 1
2.060385 -31.315305 -24.874323 40.045292 -1.505096 2.241012 -0.009067 0.009334 189215.000000 0 0 1
3.132585 -30.644515 -24.265423 39.213647 -1.468927 2.238011 -0.003854 0.010264 -242716.000000 0 0 1
2.814785 -29.996175 -22.891723 37.838135 -1.477232 2.220551 -0.002934 0.013119 -235158.000000 0 0 1
2.781885 -31.026025 -21.886423 38.070574 -1.481373 2.183267 0.002866 0.008369 357832.000000 0 0 1
2.750685 -30.340215 -20.654623 36.806363 -1.480382 2.166595 0.003737 0.009470 -446211.000000 0 0 1
2.630585 -31.221985 -19.374523 36.838899 -1.486741 2.124599 0.005344 0.012184 -774996.000000 0 0 1
1.483485 -31.977065 -19.130623 37.292280 -1.524437 2.109463 -0.012328 0.010629 -310295.000000 0 0 1
1.541885 -33.284855 -19.698823 38.707914 -1.524506 2.104714 -0.007385 0.014905 -245973.000000 0 0 1
1.957085 -34.507679 -18.852223 39.370247 -1.514143 2.070134 -0.012417 -0.002102 -929248.000000 0 0 1
3.299085 -34.426343 -18.534623 39.237600 -1.475258 2.062773 -0.008368 0.006040 -1058400.000000 0 0 1
3.690985 34.148474 -17.571523 38.581084 1.463128 2.043667 0.004988 -0.006533 -210467.000000 0 0 1
4.691985 33.117672 -18.084723 38.024362 1.430057 2.066452 0.008567 -0.007958 -309241.000000 0 0 1
5.907385 33.748097 -18.433123 38.905157 1.397508 2.064393 0.016165 -0.011643 -171695.000000 0 0 1
6.843685 32.860032 -19.045223 38.591945 1.365464 2.086909 0.016463 -0.017998 445764.000000 0 0 1
8.092785 33.633431 -19.551123 39.735969 1.334668 2.085212 0.009550 -0.013548 93554.200000 0 0 1
9.000385 33.865195 -18.496823 39.623109 1.311030 2.056487 0.004241 -0.010532 -551413.000000 0 0 1
10.184085 34.477552 -18.917723 40.623853 1.283581 2.055199 0.001626 0.003095 -60896.900000 0 0 1
11.158385 34.662549 -17.724323 40.498808 1.259357 2.023780 -0.012647 0.003556 -221260.000000 0 0 1
11.529085 33.477643 -17.116723 39.327529 1.239135 2.021096 -0.006812 -0.002134 244312.000000 0 0 1
12.384885 33.738515 -15.987823 39.335521 1.218983 1.989359 -0.004232 -0.005368 -427888.000000 0 0 1
13.547885 32.815532 -15.834823 38.873460 1.179262 1.990339 0.001714 -0.003487 -838600.000000 0 0 1
13.268785 31.548872 -15.244623 37.467192 1.172676 1.989831 -0.000207 0.001325 -702566.000000 0 0 1
14.413185 30.804602 -14.997623 37.169774 1.133165 1.986124 0.001487 0.007530 -497809.000000 0 0 1
14.099585 29.581002 -14.159823 35.697823 1.126008 1.978670 -0.006724 0.013559 29386.600000 0 0 1
13.830485 29.929762 -12.787423 35.363698 1.137927 1.940777 -0.004767 0.006832 258121.000000 0 0 1
12.558585 29.562112 -12.268323 34.382383 1.169078 1.935658 0.017431 0.007794 143267.000000 0 0 1
12.341585 28.135462 -11.713523 32.880474 1.157422 1.935043 0.008257 0.011749 -350130.000000 0 0 1
11.615785 27.241932 -12.565523 32.170509 1.167746 1.972070 -0.005710 0.009711 255407.000000 0 0 1
11.233885 25.983982 -11.988923 30.742507 1.162726 1.971405 0.011207 0.007935 324031.000000 0 0 1
10.340085 26.026202 -10.718023 29.985939 1.192624 1.936316 0.019262 0.002077 -1218000.000000 0 0 1
9.087885 26.558092 -10.889223 30.108090 1.241097 1.940856 0.017470 0.008412 -1005910.000000 0 0 1
8.608985 27.045552 -9.686823 29.990182 1.262623 1.899694 -0.000464 0.016977 154412.000000 0 0 1
7.598985 28.234882 -9.819423 30.844354 1.307891 1.894789 0.001264 0.009058 282374.000000 0 0 1
8.147485 29.450032 -10.373723 32.269180 1.300893 1.898083 0.006403 0.008302 24070.100000 0 0 1
7.178185 30.311632 -10.918823 33.008212 1.338267 1.907938 -0.005268 0.007415 112132.000000 0 0 1
7.880085 31.552332 -11.539523 34.508056 1.326056 1.911766 -0.000809 0.001229 -120698.000000 0 0 1
8.490985 32.333492 -10.541023 35.052313 1.313988 1.876247 -0.009405 0.004692 -238650.000000 0 0 1
8.925085 33.624504 -10.949923 36.471430 1.311345 1.875733 0.005382 -0.002649 39988.800000 0 0 1
10.057685 33.813590 -11.991523 37.260066 1.281685 1.898461 -0.003728 -0.009576 -972225.000000 0 0 1
11.283085 33.488892 -11.427023 37.140150 1.245821 1.883543 -0.011731 0.005036 -905350.000000 0 0 1
12.284785 33.750891 -12.396523 37.996215 1.221718 1.903137 0.001702 -0.006343 380239.000000 0 0 1
13.736485 33.574018 -11.863023 38.165914 1.182435 1.886860 0.008770 -0.004988 57333.100000 0 0 1
14.053885 34.578036 -10.947923 38.897420 1.184751 1.856108 0.015346 -0.005905 -887872.000000 0 0 1
15.419285 34.398570 -10.764923 39.203310 1.149396 1.848962 0.021727 -0.011117 -851404.000000 0 0 1
16.094285 -34.134340 -9.862423 39.005724 -1.130209 1.826417 0.028381 -0.011591 -330689.000000 0 0 1
15.676685 -34.311799 -8.496923 38.668536 -1.142228 1.792342 0.015749 0.008929 294525.000000 0 0 1
16.491785 -33.591025 -7.572023 38.179464 -1.114408 1.770447 0.013052 0.010709 -148639.000000 0 0 1
16.907085 -34.519620 -6.387323 38.964748 -1.115357 1.735465 0.016394 0.016136 499077.000000 0 0 1
17.983085 34.089462 -6.611023 39.104838 1.085371 1.740671 0.003746 0.013353 20054.300000 0 0 1
19.290185 34.603450 -6.426123 40.134835 1.062241 1.731602 0.004208 0.015058 53444.900000 0 0 1
20.312285 33.570659 -6.994623 39.856026 1.026664 1.747207 0.003880 0.014927 87631.700000 0 0 1
20.149085 32.268602 -6.445223 38.584831 1.012616 1.738623 0.007429 0.031356 -51348.000000 0 0 1
20.782585 32.160252 -5.176423 38.639267 0.997083 1.705168 -0.000184 0.029533 -142670.000000 0 0 1
21.198285 30.717012 -4.836123 37.633631 0.966735 1.699658 0.001865 0.025371 352239.000000 0 0 1
22.133485 30.115672 -5.750223 37.814149 0.936998 1.723454 0.003337 0.027316 493484.000000 0 0 1
22.385285 28.727052 -5.420723 36.820221 0.908842 1.718555 0.010215 0.032920 -1146630.000000 0 0 1
23.344685 28.043002 -6.304423 37.028773 0.876574 1.741887 0.014842 0.034550 -178475.000000 0 0 1
24.658585 28.618582 -6.182923 38.279205 0.859590 1.733029 0.007463 0.025350 -905.866000 0 0 1
25.557485 28.019262 -7.025423 38.569685 0.831314 1.753968 -0.002452 0.023279 -277390.000000 0 0 1
26.593085 27.084782 -6.316023 38.479471 0.794558 1.735683 0.003264 0.029721 -155843.000000 0 0 1
27.394785 27.814852 -5.395323 39.411289 0.793007 1.708125 -0.003569 0.019047 -15117.100000 0 0 1
28.241685 26.881882 -4.744523 39.277714 0.760735 1.691886 -0.011306 0.026733 205967.000000 0 0 1
29.344285 27.533412 -3.876623 40.425289 0.753571 1.666840 -0.013879 0.021508 -23086.100000 0 0 1
28.805785 27.945252 -2.667723 40.222221 0.770236 1.637170 -0.010893 0.014735 -125253.000000 0 0 1
29.768985 28.269182 -1.684123 41.087411 0.759562 1.611797 -0.008769 0.015395 -84442.200000 0 0 1
29.726785 29.699402 -1.195023 42.037653 0.784937 1.599228 -0.001064 0.009044 65478.900000 0 0 1
29.952285 30.660972 -2.185723 42.918666 0.797090 1.621745 -0.012161 0.009062 -4535.540000 0 0 1
29.550885 31.931232 -1.730323 43.541387 0.824095 1.610547 0.002438 0.005001 23144.400000 0 0 1
32.254188 23.118095 19.667719 44.289933 0.621877 1.110663 -0.002630 0.008510 -21257.700000 0 0 1
32.221448 23.006095 21.076719 44.852316 0.620060 1.081603 -0.017397 0.015224 405153.000000 0 0 1
32.958988 24.097595 21.688919 46.232004 0.631320 1.082489 -0.011439 0.009279 91637.300000 0 0 1
32.804528 24.142695 23.219119 46.884265 0.634452 1.052681 -0.018301 0.009682 348028.000000 0 0 1
31.490538 24.551095 23.586019 46.375754 0.662199 1.037256 -0.018586 0.010185 641371.000000 0 0 1
31.434478 24.781895 24.991809 47.189610 0.667607 1.012663 -0.015064 0.003342 10499.500000 0 0 1
30.051998 25.368295 25.325409 46.776590 0.701086 0.998681 -0.012219 -0.003177 -38146.200000 0 0 1
30.017348 26.780495 25.244779 47.492473 0.728471 1.010363 -0.015034 -0.007652 -187705.000000 0 0 1
28.702108 27.211195 25.445269 47.028948 0.758740 0.999105 -0.008031 -0.009387 -369879.000000 0 0 1
28.581798 28.694595 25.760959 47.999229 0.787368 1.004281 -0.004709 -0.013082 -190456.000000 0 0 1
28.597338 29.527195 24.653829 47.931976 0.801394 1.030546 -0.005587 -0.020692 189394.000000 0 0 1
28.374068 30.836095 25.083519 48.837849 0.826955 1.031412 -0.005381 -0.018050 -251764.000000 0 0 1
28.578688 31.813595 23.908419 48.994477 0.838912 1.061020 0.003013 -0.016184 -809155.000000 0 0 1
29.929548 31.859895 23.604119 49.678821 0.816629 1.075679 -0.006512 -0.021703 -890204.000000 0 0 1
30.079708 32.516195 22.348519 49.613991 0.824303 1.103529 -0.002094 -0.011803 33807.900000 0 0 1
31.572748 32.645595 21.973019 50.451828 0.802103 1.120175 -0.011953 -0.020134 349621.000000 0 0 1
32.164518 33.728695 22.740019 51.858361 0.809132 1.116865 -0.010429 -0.000923 -86536.500000 0 0 1
33.538368 33.834495 22.450619 52.665221 0.789793 1.130410 -0.006759 0.005461 -79572.800000 0 0 1
34.255251 -34.542601 23.186719 53.890978 -0.789575 1.126024 -0.007005 0.014648 -501389.000000 0 0 1
33.689964 -33.296401 22.838919 52.585932 -0.779523 1.121517 -0.009984 0.008600 132322.000000 0 0 1
34.080507 -32.298401 23.745619 52.616748 -0.758557 1.102582 -0.003020 0.005708 -1172680.000000 0 0 1
33.178878 -31.091701 23.662019 51.258394 -0.752935 1.090973 -0.005219 0.005170 343588.000000 0 0 1
31.792798 -31.332001 23.903519 50.634519 -0.778099 1.079148 -0.012063 0.000693 839154.000000 0 0 1
31.045578 -31.778701 22.765419 49.919717 -0.797067 1.097255 -0.013123 0.009735 -572220.000000 0 0 1
30.068868 -32.930101 23.035919 50.191453 -0.830784 1.093971 -0.019350 0.001897 84925.400000 0 0 1
29.008958 -32.692401 23.930419 49.829486 -0.845025 1.069861 -0.012329 -0.002724 446344.000000 0 0 1
28.239238 -33.895201 24.192329 50.315088 -0.876176 1.069211 -0.010509 -0.007560 792339.000000 0 0 1
27.402648 -33.940301 25.538929 50.547859 -0.891573 1.041133 -0.007222 -0.002912 362061.000000 0 0 1
27.131688 34.248795 25.853959 50.769437 0.900833 1.036492 0.001044 -0.019807 -359955.000000 0 0 1
26.241278 34.061395 26.888349 50.712589 0.914360 1.011947 -0.004934 -0.012067 -1259970.000000 0 0 1
26.075788 32.546895 27.291199 49.840312 0.895339 0.991336 -0.000264 -0.001787 184345.000000 0 0 1
25.291848 31.894095 26.324739 48.475796 0.900342 0.996732 -0.007677 -0.004570 701229.000000 0 0 1
23.865888 32.094395 26.343559 47.891690 0.931394 0.988354 -0.006374 -0.002248 698708.000000 0 0 1
23.223588 31.688595 24.970429 46.551310 0.938350 1.004623 0.001703 -0.012428 59167.500000 0 0 1
23.464088 32.563595 23.887619 46.707275 0.946403 1.033945 0.011574 -0.023094 1032230.000000 0 0 1
24.801088 32.451795 23.340319 47.042359 0.918241 1.051631 -0.001612 -0.021599 757177.000000 0 0 1
25.021468 33.285795 22.059019 47.123438 0.926198 1.083644 0.006444 -0.016785 -2025.020000 0 0 1
26.377998 33.577795 21.797819 47.941757 0.904911 1.098791 0.008467 -0.012555 158243.000000 0 0 1
26.429868 34.281695 20.616519 47.945943 0.914014 1.126309 -0.003764 -0.009297 -172807.000000 0 0 1
27.824238 34.747595 20.138319 48.858321 0.895596 1.145953 0.006033 -0.018412 -111408.000000 0 0 1
28.661078 33.709595 19.734119 48.448217 0.866166 1.151274 0.004165 -0.025344 -294640.000000 0 0 1
29.660758 34.174395 18.863619 49.025361 0.855988 1.175835 0.004895 -0.016143 39710.700000 0 0 1
30.516758 33.166595 18.056719 48.552453 0.826984 1.189740 -0.011020 -0.003701 138844.000000 0 0 1
31.376378 32.360295 18.840119 48.853003 0.800834 1.174885 -0.005327 -0.013164 342137.000000 0 0 1
32.287038 31.589295 18.066819 48.649218 0.774475 1.190313 0.000046 -0.008336 912544.000000 0 0 1
33.361538 30.739395 18.855519 49.126706 0.744514 1.176873 0.014000 -0.016932 338957.000000 0 0 1
34.383676 31.482795 19.434519 50.508456 0.741385 1.175830 0.029706 -0.016887 -372641.000000 0 0 1
-34.398331 30.656995 20.063719 50.255839 -0.727951 1.160118 0.022371 -0.016101 -20566.300000 0 0 1
-33.373325 31.512295 20.850819 50.413890 -0.756724 1.144400 0.009419 -0.002972 -8906.320000 0 0 1
-32.628075 32.252995 19.895419 50.006747 -0.779617 1.161619 0.018076 -0.004478 495197.000000 0 0 1
-31.566495 33.126795 20.342019 50.076201 -0.809512 1.152481 0.010438 0.004472 701691.000000 0 0 1
-32.021935 34.299795 21.203719 51.492504 -0.819730 1.146387 -0.007525 0.011876 -335057.000000 0 0 1
-31.818445 34.108695 22.582619 51.824620 -0.820123 1.119924 0.011196 0.012450 231759.000000 0 0 1
-31.814075 -34.182201 23.253919 52.166110 0.821265 1.108766 -0.002647 0.016052 -340271.000000 0 0 1
-31.941765 -34.323701 24.806659 53.044917 0.821328 1.084162 0.006272 0.006573 -527860.000000 0 0 1
-33.158245 -34.752201 25.355869 54.314867 0.808865 1.085092 0.009879 0.008552 -658129.000000 0 0 1
-33.197045 34.587895 26.730899 54.889956 -0.805914 1.062155 0.017704 0.013576 569703.000000 0 0 1
-34.589482 34.448395 27.433739 55.997627 -0.783355 1.058811 0.004662 0.006961 553109.000000 0 0 1
-34.505101 33.866595 28.711779 56.230904 -0.776060 1.034908 0.019391 -0.004307 -927092.000000 0 0 1
33.953255 33.726095 29.222849 56.073594 0.782042 1.022596 0.018568 -0.012458 -852093.000000 0 0 1
33.798949 32.549295 30.247909 55.827965 0.766566 0.998212 0.024234 -0.004937 -317333.000000 0 0 1
33.844460 31.158295 29.804529 54.814203 0.744098 0.995912 0.020107 -0.007770 -236870.000000 0 0 1
-34.797936 30.770895 29.031469 54.777464 -0.724058 1.012208 0.019210 -0.014314 -574797.000000 0 0 1
34.805083 29.273195 28.574609 53.710540 0.699282 1.009822 0.031493 -0.017026 270184.000000 0 0 1
33.605788 29.082895 27.803499 52.423262 0.713374 1.011764 0.022094 -0.018450 605826.000000 0 0 1
33.246418 27.772495 27.428839 51.273551 0.695929 1.006347 0.032132 -0.015768 78649.300000 0 0 1
32.910648 26.731795 28.523109 51.100562 0.682168 0.978610 0.026530 -0.021078 -236432.000000 0 0 1
34.096581 26.182895 29.063799 51.892440 0.654861 0.976317 0.018789 -0.016314 27452.000000 0 0 1
33.827191 25.081995 29.881609 51.636188 0.638022 0.953669 0.021152 -0.015612 -253918.000000 0 0 1
34.306213 23.813095 29.259139 50.990950 0.606778 0.959645 0.013916 -0.006344 17253.600000 0 0 1
33.579168 23.493395 28.057169 49.665933 0.610486 0.970463 -0.006705 -0.000913 245488.000000 0 0 1
34.292666 22.685395 27.134699 49.263638 0.584433 0.987467 -0.009093 0.001498 -358602.000000 0 0 1
34.225981 21.189095 27.627929 48.823130 0.554341 0.969299 -0.011175 -0.008793 98681.200000 0 0 1
32.922368 20.609995 27.446899 47.560346 0.559331 0.955628 -0.005516 0.002394 789368.000000 0 0 1
32.565688 19.436495 28.182079 47.249667 0.538093 0.931725 0.000758 0.000823 -616933.000000 0 0 1
32.447748 19.656195 29.739599 48.204421 0.544659 0.905938 0.000145 -0.026947 -486844.000000 0 0 1
31.354978 20.386795 30.229809 48.089474 0.576511 0.891024 -0.006314 -0.020466 84796.800000 0 0 1
31.003498 21.651195 29.650749 48.053700 0.609616 0.905829 0.003133 -0.019498 -944281.000000 0 0 1
29.812188 22.369395 30.360059 48.071713 0.643721 0.887236 0.004902 -0.022031 -6252.510000 0 0 1
28.523868 22.030695 29.920989 46.842590 0.657659 0.877916 0.007126 -0.025853 -533088.000000 0 0 1
28.146448 22.426195 28.623669 45.983380 0.672767 0.898891 0.000717 -0.016130 -734438.000000 0 0 1
27.948988 23.970695 28.306559 46.443530 0.708924 0.915388 -0.001960 -0.007119 -785680.000000 0 0 1
29.153688 24.668695 28.442629 47.617909 0.702261 0.930654 -0.006897 -0.007744 -511609.000000 0 0 1
29.028208 25.923995 29.053219 48.567273 0.728969 0.929536 -0.009109 -0.003068 -136286.000000 0 0 1
29.294598 26.008295 30.610959 49.715548 0.726044 0.907494 -0.006447 -0.011399 -155324.000000 0 0 1
30.640558 25.682295 30.871129 50.511887 0.697592 0.913264 0.013967 -0.007268 -392756.000000 0 0 1
31.024928 25.664595 32.206969 51.560707 0.691122 0.896124 0.017509 -0.011458 -322838.000000 0 0 1
30.423898 24.678495 33.222062 51.364844 0.681506 0.867434 0.026154 -0.016886 -415954.000000 0 0 1
30.972838 24.594795 34.536021 52.506737 0.671118 0.852976 0.019710 -0.021618 -267527.000000 0 0 1
30.302878 23.636595 -33.930193 51.266081 0.662433 2.294073 0.010695 -0.027008 -526249.000000 0 0 1
30.975628 23.118095 -32.613373 50.572403 0.641149 2.271669 0.008658 -0.027449 -467971.000000 0 0 1
31.134838 24.196795 -31.671363 50.576065 0.660659 2.247482 0.013260 -0.021682 328835.000000 0 0 1
31.329108 23.669795 -30.414063 49.666764 0.647025 2.229842 0.003313 -0.025212 -742149.000000 0 0 1
32.045008 24.551195 -29.405923 49.943489 0.653756 2.200350 0.009871 0.000166 -104455.000000 0 0 1
32.534548 23.756795 -28.331193 49.249758 0.630710 2.183713 -0.002931 -0.005458 220400.000000 0 0 1
33.602818 24.399395 -27.625293 49.876214 0.628036 2.157810 -0.000323 0.011830 32219.900000 0 0 1
34.402095 23.436795 -26.794953 49.505121 0.598038 2.142727 -0.009953 0.014849 -667233.000000 0 0 1
-34.731111 22.445995 -27.561973 49.696430 -0.573755 2.158687 -0.022100 0.016431 -224796.000000 0 0 1
-34.752259 21.314095 -26.729743 48.749250 -0.550153 2.151139 -0.032902 0.020178 -145442.000000 0 0 1
-33.782995 20.171795 -27.123303 47.789807 -0.538284 2.174328 -0.022763 0.025361 -507139.000000 0 0 1
-32.468575 20.402195 -26.747403 46.753412 -0.561017 2.179854 -0.021987 0.019793 -666947.000000 0 0 1
-31.660445 19.208595 -26.737493 45.675458 -0.545336 2.196145 -0.022744 0.003108 440870.000000 0 0 1
-30.335355 19.431795 -25.984483 44.418710 -0.569715 2.195664 -0.000302 -0.003792 -18172.600000 0 0 1
-30.576515 19.887995 -24.611723 44.002188 -0.576680 2.164373 0.000215 -0.008489 642633.000000 0 0 1
-29.303155 19.852295 -23.963323 42.743764 -0.595451 2.165940 0.020166 -0.012141 613055.000000 0 0 1
-29.419815 20.244595 -22.485123 42.201302 -0.602714 2.132710 0.006697 -0.012357 229061.000000 0 0 1
-30.247285 19.322095 -21.744623 41.965108 -0.568464 2.115494 -0.019962 -0.003214 80582.400000 0 0 1
-30.658175 19.913195 -20.562023 41.943484 -0.576040 2.083152 -0.022078 -0.000339 -979025.000000 0 0 1
-31.731445 19.091895 -19.844023 42.013930 -0.541647 2.062717 -0.028293 0.002476 -217257.000000 0 0 1
-32.285825 19.409495 -18.595023 42.010450 -0.541284 2.029324 -0.029459 -0.003984 91125.200000 0 0 1
-32.911545 20.668895 -18.573523 43.073760 -0.560763 2.016622 -0.036474 -0.003040 -659138.000000 0 0 1
-34.102158 20.674395 -17.574123 43.580243 -0.545002 1.985872 -0.016811 -0.019872 -268763.000000 0 0 1
-33.744375 20.887195 -16.252523 42.884756 -0.554261 1.959492 -0.009112 -0.024615 -58824.500000 0 0 1
34.860100 20.816395 -15.398123 43.424084 0.538315 1.933281 -0.001509 -0.021484 -535521.000000 0 0 1
-34.751926 21.737495 -14.166923 43.369538 -0.558962 1.903560 0.007940 -0.025484 -231086.000000 0 0 1
34.784794 23.146695 -14.427823 44.203094 0.587143 1.903287 0.001647 -0.021491 1874540.000000 0 0 1
33.368618 23.501295 -14.558323 43.332671 0.613602 1.913427 0.007162 -0.009020 1614720.000000 0 0 1
33.146888 24.985495 -14.891823 44.099406 0.645917 1.915255 0.005691 -0.010094 41158.300000 0 0 1
33.661188 25.724195 -13.793723 44.554199 0.652533 1.885563 -0.000194 -0.006864 130708.000000 0 0 1
33.623018 27.105295 -14.017023 45.405741 0.678481 1.884629 -0.003706 -0.003063 -368838.000000 0 0 1
-34.856457 27.811495 -14.565323 46.910559 -0.673451 1.886506 0.013047 0.003455 -146435.000000 0 0 1
-34.538654 27.345795 -15.878623 46.827789 -0.669687 1.916741 0.020973 -0.004791 576291.000000 0 0 1
-33.417005 28.055895 -16.428323 46.623163 -0.698407 1.930892 0.019053 -0.005956 94094.700000 0 0 1
-33.154935 27.987895 -18.000723 46.974440 -0.701091 1.964057 0.015723 -0.006014 -225975.000000 0 0 1
-32.833315 26.719595 -18.491923 46.194313 -0.683096 1.982649 0.012814 -0.010153 43026.700000 0 0 1
-31.495465 26.351595 -18.260123 44.942218 -0.696710 1.989200 0.014659 -0.009128 -415608.000000 0 0 1
-31.115895 24.972495 -18.825223 44.115910 -0.676302 2.011661 0.006275 -0.012029 -765503.000000 0 0 1
-30.949585 25.012295 -20.224723 44.637777 -0.679698 2.041020 -0.000876 -0.001867 250323.000000 0 0 1
-30.561995 23.750095 -20.753323 43.918140 -0.660628 2.062973 -0.003390 -0.004108 -337847.000000 0 0 1
-30.451315 23.671995 -22.269623 44.537423 -0.660790 2.094419 -0.009368 0.006874 425832.000000 0 0 1
-31.664795 23.816195 -23.007223 45.817057 -0.644866 2.096884 -0.011810 0.010940 752928.000000 0 0 1
-31.317195 23.494695 -24.380223 46.121174 -0.643640 2.127761 -0.003352 0.009573 174846.000000 0 0 1
-32.081285 24.365395 -25.396813 47.622258 -0.649547 2.133290 -0.012815 0.022089 -308048.000000 0 0 1
-31.620125 25.698095 -25.509003 48.072171 -0.682445 2.130151 -0.013214 0.023739 -17110.300000 0 0 1
-32.433235 26.485895 -26.371393 49.486036 -0.684798 2.132827 -0.005399 0.018212 -252576.000000 0 0 1
-31.858785 27.893595 -26.507953 49.957046 -0.719135 2.130122 -0.011460 0.021143 1014180.000000 0 0 1
-30.585395 27.973595 -27.196493 49.574567 -0.740827 2.151482 -0.025847 0.011215 534775.000000 0 0 1
-30.204015 29.279895 -27.358133 50.180297 -0.769864 2.147420 -0.020594 0.003136 308037.000000 0 0 1
-28.792155 29.578695 -27.937473 49.843654 -0.798872 2.165788 -0.010165 0.010074 -11071.600000 0 0 1
-27.770625 29.073095 -27.060343 48.463540 -0.808307 2.163210 -0.015938 0.014890 714379.000000 0 0 1
-26.486575 29.313195 -27.666123 48.230866 -0.836011 2.181713 -0.006497 0.012378 606336.000000 0 0 1
-25.853865 30.676495 -27.448513 48.609573 -0.870503 2.170833 -0.007863 0.008425 -780876.000000 0 0 1
-25.253175 31.038495 -26.191993 47.823964 -0.887813 2.150379 -0.011804 0.004255 -225741.000000 0 0 1
-26.138385 31.077595 -25.133463 47.756917 -0.871510 2.125015 -0.007714 0.006361 -583457.000000 0 0 1
-25.516885 31.618295 -23.804823 47.090314 -0.891784 2.100774 -0.021238 -0.000169 144710.000000 0 0 1
-25.275875 33.012695 -23.810823 47.913080 -0.917360 2.090887 -0.005534 -0.000508 425584.000000 0 0 1
-23.913515 33.377095 -24.073823 47.596593 -0.949105 2.101092 -0.004403 0.002842 438111.000000 0 0 1
-23.788215 -34.599901 -24.020123 48.373533 0.968494 2.090422 -0.008545 0.013129 -90918.000000 0 0 1
-23.803015 -34.021601 -22.755423 47.348307 0.960309 2.072131 -0.010213 0.007323 -1782.820000 0 0 1
-23.835415 -32.628601 -22.953723 46.471777 0.939888 2.087398 -0.000841 0.008449 -69716.200000 0 0 1
15.893185 8.207595 -25.151803 30.863751 0.476699 2.523405 0.023927 -0.020114 391847.000000 0 0 1
14.527485 7.810995 -25.059323 30.000486 0.493328 2.559470 0.014443 -0.014243 336128.000000 0 0 1
14.359585 6.424695 -25.304633 29.795953 0.420702 2.585386 0.020435 -0.013887 -488589.000000 0 0 1
12.884085 6.066495 -25.346373 29.073022 0.440058 2.629697 -0.004081 -0.009287 -369261.000000 0 0 1
12.312885 6.005395 -24.042623 27.671639 0.453786 2.623680 -0.000263 -0.028574 486201.000000 0 0 1
10.903785 5.812195 -24.081523 27.066472 0.489732 2.667523 0.003203 -0.020961 428223.000000 0 0 1
10.187185 6.038895 -22.720823 25.621920 0.535104 2.661112 0.019188 -0.031438 -185286.000000 0 0 1
10.626085 5.037995 -21.780523 24.752500 0.442727 2.646516 0.002787 -0.028680 244704.000000 0 1 0
10.501285 5.370795 -20.422123 23.583586 0.472759 2.617836 0.023943 -0.022495 -720946.000000 0 1 0
11.295385 6.556995 -19.926723 23.825495 0.525959 2.561408 0.035889 -0.026663 -749248.000000 0 1 0
10.900285 7.088595 -18.659323 22.742795 0.576595 2.532994 0.034699 -0.010510 -323154.000000 0 1 0
11.347385 8.405995 -18.294123 23.110578 0.637579 2.484204 0.041408 -0.009415 1016600.000000 0 1 0
12.871985 8.652195 -17.976623 23.742524 0.591805 2.429734 0.046256 -0.008488 857296.000000 0 1 0
13.283585 8.095795 -16.743723 22.854929 0.547345 2.392943 0.046274 -0.007457 -117388.000000 0 1 0
14.649985 8.359595 -16.585823 23.655748 0.518537 2.347781 0.027576 -0.000046 -555917.000000 0 1 0
15.240085 8.006695 -15.230623 22.985631 0.483738 2.295101 0.036599 -0.005945 523889.000000 0 1 0
16.679785 8.007895 -15.141923 23.908564 0.447598 2.256640 0.042444 -0.007827 1415280.000000 0 1 0
17.213685 8.343895 -13.869923 23.628506 0.451353 2.198144 0.051685 -0.008693 -5713.250000 0 1 0
17.370085 9.839595 -13.718323 24.222507 0.515399 2.172862 0.037156 -0.013893 -273527.000000 0 1 0
16.167385 10.501895 -13.326523 23.436517 0.576075 2.175626 0.043245 -0.013401 799461.000000 0 1 0
16.319485 11.893395 -13.432623 24.253119 0.629785 2.157779 0.027496 -0.004849 -660981.000000 0 1 0
14.993685 12.586595 -13.174323 23.596520 0.698343 2.163151 0.028528 -0.008643 -747082.000000 0 1 0
14.577785 12.509795 -11.807523 22.548268 0.709201 2.121932 0.054403 -0.009885 457376.000000 0 1 0
15.267885 13.356795 -10.834923 22.997996 0.718733 2.061362 0.061438 -0.009587 -142176.000000 0 1 0
15.115085 14.915795 -10.970223 23.901726 0.778762 2.047634 0.066719 -0.008616 262151.000000 0 1 0
13.785485 15.332995 -10.698523 23.229265 0.838494 2.049425 0.069964 -0.015544 496023.000000 0 1 0
13.715185 16.740995 -10.693523 24.139566 0.884423 2.029724 0.044298 -0.013462 -207212.000000 0 1 0
12.381485 17.245795 -10.128423 23.522406 0.948130 2.015938 0.029463 -0.009722 -64915.200000 0 1 0
12.455685 17.108095 -8.719323 22.887936 0.941487 1.961628 0.034471 -0.005074 92117.400000 0 1 0
11.274585 17.390695 -8.011523 22.220195 0.995609 1.939655 0.034302 -0.003903 -149214.000000 0 1 0
11.472585 17.145495 -6.492323 21.627262 0.981089 1.875690 0.019380 -0.002339 -116802.000000 0 1 0
12.348985 17.994995 -5.822723 22.588081 0.969361 1.831519 0.002367 0.001653 -187490.000000 0 1 0
12.790285 17.336895 -4.697523 22.050534 0.935182 1.785476 -0.003563 -0.008464 85423.100000 0 1 0
13.919185 18.100595 -3.926223 23.168739 0.915252 1.741080 -0.017349 -0.014919 1215740.000000 0 1 0
15.177285 18.235495 -4.638123 24.174272 0.876672 1.763855 -0.025367 -0.019988 948122.000000 0 1 0
15.622785 19.528895 -4.318323 25.379068 0.896066 1.741781 -0.019707 -0.017916 484961.000000 0 0 1
16.985085 19.948095 -5.038323 26.679661 0.865453 1.760782 -0.029516 -0.013883 1038040.000000 0 0 1
18.130685 19.237695 -4.599423 26.832170 0.815014 1.743062 -0.012190 -0.026339 140781.000000 0 0 1
18.409685 18.053495 -5.299023 26.323465 0.775630 1.773485 -0.017318 -0.018459 -245554.000000 0 0 1
19.567985 17.202395 -4.705223 26.475792 0.721153 1.749463 0.013191 -0.028264 760669.000000 0 0 1
20.871885 17.758595 -4.907523 27.840385 0.704980 1.747996 0.012525 -0.038784 275824.000000 0 0 1
21.809985 16.947595 -4.263823 27.947748 0.660594 1.723959 0.019180 -0.036048 258758.000000 0 0 1
23.311585 17.200895 -4.595423 29.332894 0.635692 1.728109 0.043496 -0.033937 603666.000000 0 0 1
23.859285 18.358395 -3.974823 30.366023 0.655830 1.702070 0.056492 -0.035710 304276.000000 0 0 1
25.276585 18.393595 -3.963123 31.510894 0.629071 1.696900 0.047119 -0.025108 -34641.800000 0 0 1
25.758385 19.718495 -3.410723 32.618192 0.653359 1.675553 0.052753 -0.017166 -334848.000000 0 0 1
25.767485 20.870295 -4.258223 33.431497 0.680777 1.698515 0.045604 -0.015607 95718.000000 0 0 1
25.908185 22.051895 -3.563323 34.208440 0.705165 1.675151 0.053971 0.002674 -275416.000000 0 0 1
25.674085 23.196895 -4.590223 34.904509 0.734753 1.702686 0.023860 0.009137 -530332.000000 0 0 1
26.769585 23.668795 -5.298123 36.123298 0.723999 1.717995 0.014352 0.021600 -471104.000000 0 0 1
27.119685 22.896195 -6.419123 36.068244 0.701155 1.749721 0.028281 0.013979 -17541.900000 0 0 1
28.157685 23.504695 -7.368123 37.411431 0.695575 1.769041 -0.000036 0.023678 -144476.000000 0 0 1
27.623485 24.445595 -8.293423 37.807736 0.724442 1.791953 -0.005832 0.023180 989508.000000 0 0 1
28.662985 25.144895 -9.055423 39.189707 0.720109 1.803970 -0.017712 0.026008 799233.000000 0 0 1
29.557685 24.336795 -10.039323 39.581869 0.688827 1.827232 -0.027602 0.013023 537898.000000 0 0 1
28.761485 23.734695 -11.078223 38.900974 0.689934 1.859573 -0.023634 0.003581 51743.400000 0 0 1
29.639885 23.241495 -12.006623 39.532883 0.664988 1.879383 -0.029183 -0.003065 -125884.000000 0 0 1
28.967685 22.868595 -13.361223 39.250754 0.668276 1.918146 -0.017702 0.001068 133568.000000 0 0 1
28.976385 24.023495 -14.173323 40.219924 0.692218 1.930926 -0.010902 0.001312 -64615.400000 0 0 1
28.470985 23.621695 -15.397823 40.070867 0.692576 1.965208 -0.006296 -0.003920 -296967.000000 0 0 1
28.573585 24.644095 -16.520823 41.191246 0.711694 1.983488 -0.003368 -0.004759 -483594.000000 0 0 1
29.904085 24.648895 -17.004023 42.319725 0.689363 1.984277 -0.007826 0.000068 23848.300000 0 0 1
30.002485 25.287195 -18.270723 43.282914 0.700321 2.006582 -0.000359 -0.002968 1025560.000000 0 0 1
31.478085 25.833195 -18.411423 44.690092 0.687220 1.995422 -0.003503 -0.006635 1378720.000000 0 0 1
32.457485 24.798395 -18.467423 44.827385 0.652418 1.995409 -0.001604 -0.005125 -777987.000000 0 0 1
33.741685 25.212995 -18.777623 46.117194 0.641730 1.990152 0.006603 -0.009200 -530373.000000 0 0 1
34.718285 23.995395 -18.623523 46.129967 0.604759 1.986374 -0.000553 -0.020076 -166616.000000 0 0 1
34.684785 22.977195 -19.671323 46.021155 0.585083 2.012456 -0.004794 -0.011198 -3432.320000 0 0 1
-34.375619 23.433595 -20.806423 46.515845 -0.598333 2.034538 -0.008158 -0.001530 -530024.000000 0 0 1
-34.465619 22.501695 -22.060823 46.699947 -0.578393 2.062802 -0.009300 0.008340 -107323.000000 0 0 1
-33.889319 21.205295 -21.915523 45.589918 -0.559118 2.072260 -0.013181 0.007366 350359.000000 0 0 1
-33.637619 20.577795 -23.147923 45.724845 -0.549014 2.101620 -0.028065 0.011332 28129.100000 0 0 1
-33.359019 19.081695 -23.036823 44.806589 -0.519584 2.110800 -0.040329 0.011180 -219071.000000 0 0 1
-34.540119 18.358495 -22.791923 45.271690 -0.488538 2.098381 -0.042684 0.017613 -166331.000000 0 0 1
-34.289119 16.987495 -22.922423 44.606683 -0.459976 2.110496 -0.055051 0.014941 -633134.000000 0 0 1
34.336185 15.964995 -22.638723 44.117643 0.435226 2.109641 -0.049906 0.017715 -604218.000000 0 0 1
33.380885 16.096895 -23.680723 43.979201 0.449322 2.139396 -0.022897 0.017316 634691.000000 0 0 1
32.326585 15.111195 -23.560923 42.760652 0.437274 2.154353 -0.009328 0.018122 348294.000000 0 0 1
32.715085 13.690495 -24.024823 42.835716 0.396332 2.166220 -0.034442 0.016597 -923054.000000 0 0 1
32.668785 13.672795 -25.393683 43.577907 0.396376 2.192867 -0.039945 0.026704 243514.000000 0 0 1
33.049985 12.378895 -25.887393 43.768661 0.358377 2.203664 -0.027825 0.020709 -494239.000000 0 0 1
32.942885 12.327295 -27.426643 44.602877 0.358071 2.233065 -0.014349 0.019444 517669.000000 0 0 1
31.632985 12.311495 -28.012123 44.010200 0.371160 2.260737 -0.017961 0.019442 529100.000000 0 0 1
31.188685 13.463295 -28.646693 44.436780 0.407509 2.271377 -0.009740 0.019701 -53962.900000 0 0 1
31.662585 13.464395 -30.152163 45.748903 0.402079 2.290390 -0.008112 0.008161 -31932.600000 0 0 1
32.931285 14.028095 -30.398173 46.960685 0.402701 2.274848 -0.008905 0.014083 -572563.000000 0 0 1
33.225085 13.966295 -31.797523 48.062939 0.397929 2.293721 -0.005972 0.001120 -1170840.000000 0 0 1
34.658285 14.413895 -32.111233 49.397251 0.394126 2.278461 0.004816 -0.000347 387046.000000 0 0 1
-34.086019 13.494495 -31.583373 48.388713 -0.376963 2.281941 -0.007301 0.003341 447931.000000 0 0 1
-33.943719 13.411195 -30.154173 47.342479 -0.376276 2.261315 -0.019676 0.007882 -970111.000000 0 0 1
-32.823619 12.369195 -29.861423 46.066165 -0.360381 2.276053 -0.017314 0.007164 569689.000000 0 0 1
-33.317119 11.031895 -30.156983 46.272851 -0.319755 2.280647 -0.017084 -0.001064 732792.000000 0 0 1
-32.296919 10.058895 -29.944413 45.176766 -0.301929 2.295385 -0.014109 -0.005475 435562.000000 0 0 1
-32.805519 8.645695 -30.340813 45.513900 -0.257685 2.300471 -0.006833 -0.007478 -342685.000000 0 0 1
-32.698019 8.475595 -31.798753 46.391345 -0.253626 2.326012 0.002240 -0.010841 -157879.000000 0 0 1
-33.065119 7.234895 -32.364273 46.830460 -0.215413 2.333799 0.003266 -0.013885 -455829.000000 0 0 1
-34.414819 6.591595 -31.973893 47.435838 -0.189242 2.310468 0.009953 0.003446 -110355.000000 0 0 1
-34.252019 5.762895 -30.820473 46.436121 -0.166689 2.296574 0.011592 0.002354 -792188.000000 0 0 1
34.315085 5.104895 -30.554233 46.229278 0.147682 2.292851 0.009188 0.014383 -1149500.000000 0 0 1
34.304385 4.420895 -29.176073 45.250175 0.128166 2.271522 0.014737 0.008128 -217617.000000 0 0 1
-34.582419 3.307795 -29.149243 45.349350 -0.095360 2.268906 0.035485 0.012411 68130.600000 0 0 1
-34.808019 2.390195 -28.078913 44.785450 -0.068560 2.248448 0.039401 0.008685 339046.000000 0 0 1
-33.854919 1.126795 -28.113393 44.020314 -0.033271 2.263534 0.053712 0.004364 978799.000000 0 0 1
-32.517719 1.327695 -27.657313 42.709388 -0.040807 2.275187 0.058272 0.001332 439434.000000 0 0 1
-31.848119 0.075195 -27.555093 42.114030 -0.002361 2.284049 0.067010 -0.000352 138223.000000 0 0 1
-30.705619 0.205295 -26.530713 40.580240 -0.006686 2.283371 0.063749 0.002968 12078.400000 0 0 1
-31.241819 0.441695 -25.220023 40.153405 -0.014137 2.249895 0.045439 0.014699 1080630.000000 0 0 1
-30.198619 0.714595 -24.248923 38.735997 -0.023659 2.247216 0.049219 0.023135 591998.000000 0 0 1
-30.663519 0.388295 -22.833923 38.233365 -0.012662 2.210833 0.035401 0.025774 -401164.000000 0 0 1
-30.673019 -0.993105 -22.580823 38.101364 0.032366 2.205143 0.044682 0.011180 221390.000000 0 0 1
-31.011219 -1.376005 -21.224723 37.604228 0.044342 2.170531 0.028439 0.011653 83257.700000 0 0 1
-32.503819 -1.265005 -20.822123 38.622005 0.038899 2.140195 0.017279 0.011549 -227058.000000 0 0 1
-33.285619 -2.350805 -21.237023 39.553380 0.070508 2.137579 0.028334 0.003083 598381.000000 0 0 1
-34.575919 -2.282105 -20.596823 40.310436 0.065907 2.107092 0.019698 0.003037 749470.000000 0 0 1
34.542185 -3.682205 -20.393823 40.281872 -0.106199 2.101660 0.027755 0.000755 -295314.000000 0 0 1
33.922285 -4.362205 -21.453423 40.373253 -0.127892 2.131022 0.026817 0.006085 70226.000000 0 0 1
34.789585 -4.912805 -22.420423 41.678846 -0.140287 2.138779 0.014520 0.002848 -212125.000000 0 0 1
34.012885 -5.829605 -23.401223 41.695058 -0.169745 2.166688 0.009678 -0.000243 -425882.000000 0 0 1
33.683285 -7.134905 -22.872123 41.335270 -0.208738 2.157155 0.008152 0.003931 474206.000000 0 0 1
33.119185 -8.111405 -23.789223 41.576465 -0.240188 2.179958 0.005012 0.006630 5493.360000 0 0 1
31.735485 -7.811705 -24.378023 40.773174 -0.241352 2.211667 -0.006580 0.002546 -1005570.000000 0 0 1
31.671585 -6.680905 -25.217963 41.032541 -0.207895 2.232655 -0.008002 -0.001502 -513872.000000 0 0 1
30.340285 -6.346805 -25.478303 40.124291 -0.206214 2.258785 -0.034411 0.001284 -568949.000000 0 0 1
30.112185 -5.142505 -26.490993 40.434660 -0.169146 2.285185 -0.023113 -0.010676 -71550.300000 0 0 1
30.362885 -5.410105 -27.880273 41.575036 -0.176331 2.305815 -0.024564 -0.006714 253509.000000 0 0 1
30.037385 -4.352505 -28.738063 41.797907 -0.143901 2.328903 -0.017278 -0.010132 -162446.000000 0 0 1
29.869985 -4.613605 -30.227043 42.745473 -0.153245 2.356242 -0.012529 -0.003329 -82180.000000 0 0 1
29.435785 -3.455105 -30.889153 42.808211 -0.116843 2.376865 -0.011805 -0.011318 -40431.300000 0 0 1
28.959885 -3.665605 -32.198363 43.460858 -0.125906 2.405145 0.000737 -0.013802 -890678.000000 0 0 1
28.346185 -2.419805 -32.916143 43.506713 -0.085160 2.428858 0.006170 -0.010174 270792.000000 0 0 1
27.225685 -1.827605 -32.201983 42.208361 -0.067027 2.438628 -0.008612 -0.008089 1511920.000000 0 0 1
26.003985 -2.571305 -32.075663 41.372297 -0.098561 2.457976 -0.000278 -0.008528 101910.000000 0 0 1
25.196785 -2.763205 -33.366383 41.902611 -0.109228 2.491924 0.020737 -0.018822 -929399.000000 0 0 1
25.852185 -3.669005 -34.236258 43.057153 -0.140981 2.490027 0.022108 -0.024572 147798.000000 0 0 1
25.320885 -3.566305 33.727289 42.324884 -0.139924 0.648705 0.021913 -0.022712 -878778.000000 0 0 1
25.624385 -4.810505 32.839299 41.930533 -0.185572 0.671027 0.012365 -0.020027 298739.000000 0 0 1
26.966685 -4.985805 32.396439 42.445137 -0.182823 0.702461 0.010812 -0.013127 379338.000000 0 0 1
27.365585 -4.125805 31.313419 41.790283 -0.149639 0.723793 0.021291 -0.013650 -903833.000000 0 0 1
27.873085 -2.684805 31.611539 42.230397 -0.096026 0.724925 0.009685 -0.015185 -892692.000000 0 0 1
29.139285 -2.668005 32.201099 43.510079 -0.091306 0.737602 -0.002674 -0.014097 -585531.000000 0 0 1
29.509085 -1.332405 32.509299 43.925117 -0.045122 0.737566 -0.001693 -0.008634 -952240.000000 0 0 1
30.903885 -1.274905 33.082229 45.289175 -0.041230 0.751791 -0.002828 -0.010340 -1405610.000000 0 0 1
31.825885 -1.698705 32.159029 45.276657 -0.053324 0.780903 0.001655 -0.007893 -812851.000000 0 0 1
33.095985 -1.788205 32.789149 46.622636 -0.053978 0.790784 0.006509 -0.003714 538621.000000 0 0 1
34.180385 -2.504605 31.915339 46.831193 -0.073145 0.820989 0.002380 -0.000594 135571.000000 0 0 1
34.453785 -1.720305 30.773139 46.227793 -0.049889 0.842385 0.003813 0.004400 -368202.000000 0 0 1
-34.408919 -2.407605 29.922809 45.663386 0.069857 0.856228 0.006864 0.001318 -158696.000000 0 0 1
-34.059119 -1.719205 28.608969 44.513508 0.050434 0.872775 0.003204 0.001709 731292.000000 0 0 1
34.619485 -1.633905 27.653629 44.338489 -0.047161 0.897337 0.002151 -0.004127 735600.000000 0 0 1
-34.355719 -1.201305 26.521099 43.418052 0.034952 0.913686 -0.005586 -0.003574 684731.000000 0 0 1
-25.534535 15.284095 12.490177 32.274147 -0.539364 1.173418 0.021791 0.003271 878883.000000 0 0 1
-26.747915 14.638095 12.951077 33.127861 -0.500738 1.169141 0.005377 0.001490 1074810.000000 0 0 1
-27.450245 15.478895 13.878677 34.434428 -0.513444 1.155953 0.006745 -0.003471 -438275.000000 0 0 1
-28.799545 14.843995 14.194577 35.372928 -0.475911 1.157878 0.014470 -0.000906 -248747.000000 0 0 1
-29.685995 15.726295 14.885277 36.744335 -0.487167 1.153704 0.015743 -0.014968 106298.000000 0 0 1
-30.804755 15.007295 15.386677 37.561971 -0.453335 1.148743 0.018514 -0.006582 255030.000000 0 0 1
-31.827455 15.852395 16.171477 39.061516 -0.462105 1.143952 0.019453 -0.015504 32854.200000 0 0 1
-31.380975 15.999795 17.515777 39.339058 -0.471502 1.109341 0.015923 -0.004106 217200.000000 0 0 1
-32.226625 16.810095 18.309077 40.698366 -0.480795 1.104174 0.002957 -0.006004 114749.000000 0 0 1
-31.521055 17.058195 19.660877 40.879201 -0.496037 1.069058 -0.003215 0.002510 -24153.100000 0 0 1
-31.179435 15.900195 20.341077 40.481265 -0.471582 1.044330 -0.003146 0.006208 489664.000000 0 0 1
-29.976655 16.063295 21.113877 40.030303 -0.491923 1.015203 -0.002990 0.003044 684015.000000 0 0 1
-30.173745 16.563195 22.580377 41.166343 -0.502019 0.990209 -0.002252 0.000331 -269486.000000 0 0 1
-30.839465 17.795195 22.591677 42.167825 -0.523356 1.005393 -0.009317 0.006705 -152954.000000 0 0 1
-31.010725 18.473595 23.838377 43.257450 -0.537264 0.987137 -0.006809 0.004507 -1548880.000000 0 0 1
-31.800525 17.805995 24.958877 44.173209 -0.510433 0.970335 -0.036561 0.012935 -385144.000000 0 0 1
-33.103565 17.355895 24.725277 44.815315 -0.482891 0.986377 -0.011849 0.016058 244759.000000 0 0 1
-34.029375 18.350695 24.245777 45.635557 -0.494560 1.010672 -0.017005 0.015885 -136658.000000 0 0 1
34.261532 17.814595 23.919177 45.423996 0.479487 1.016229 -0.029750 0.010197 933272.000000 0 0 1
33.683610 17.458795 25.210277 45.551654 0.478194 0.984303 -0.015314 0.014611 324893.000000 0 0 1
32.760138 16.363195 25.042777 44.363515 0.463235 0.970981 -0.010466 0.016305 452738.000000 0 0 1
32.498918 15.519795 26.285677 44.586776 0.445525 0.940307 -0.004036 0.006486 -423403.000000 0 0 1
31.705348 16.130795 27.256477 44.814587 0.470641 0.916998 -0.002836 0.002268 -85442.600000 0 0 1
31.680098 15.537695 28.505477 45.360895 0.455983 0.891282 -0.009941 0.009067 356096.000000 0 0 1
30.591658 14.404395 28.701577 44.352189 0.440065 0.866984 -0.007045 0.022825 320004.000000 0 0 1
30.955418 13.205995 28.020577 43.792568 0.403236 0.876496 -0.011887 0.012883 -33149.200000 0 0 1
29.919898 12.281395 28.068977 42.824064 0.389505 0.856020 -0.012271 0.017722 -838131.000000 0 0 1
30.403318 10.963695 27.440377 42.397390 0.346094 0.866866 0.005268 0.014068 250422.000000 0 0 1
31.451778 10.390295 28.209077 43.507754 0.319069 0.865356 0.007093 0.007706 -20682.300000 0 0 1
31.835598 9.236695 27.508777 43.076150 0.282384 0.878108 -0.003482 0.006645 160194.000000 0 0 1
32.782388 8.285195 28.306377 44.097397 0.247549 0.873815 0.007384 0.002423 1122680.000000 0 0 1
34.078980 8.800995 28.634977 45.373961 0.252731 0.887841 0.013853 0.002845 766042.000000 0 0 1
-34.766150 7.802995 29.139577 46.029196 -0.220784 0.885287 0.011230 0.004470 591058.000000 0 0 1
-33.356225 8.320295 29.543477 45.328601 -0.244449 0.860890 0.012730 0.002472 329563.000000 0 0 1
-32.723965 8.792195 28.385677 44.203023 -0.262479 0.873476 0.000788 0.009168 -110773.000000 0 0 1
-31.444375 9.341295 28.668477 43.564781 -0.288770 0.852550 0.004444 0.006697 252686.000000 0 0 1
-30.807695 10.148095 27.527477 42.542448 -0.318208 0.867075 0.001537 0.006448 -57630.600000 0 0 1
-30.221055 9.369095 26.505277 41.274954 -0.300623 0.873479 0.005440 0.006261 -145076.000000 0 0 1
-29.312485 10.093595 25.744777 40.297593 -0.331628 0.877773 -0.003722 0.010117 -689744.000000 0 0 1
-28.717325 9.232595 24.637477 38.947797 -0.311062 0.885920 -0.003393 0.008909 -594864.000000 0 0 1
-27.766935 9.873895 23.870977 37.925190 -0.341654 0.889986 -0.013636 0.002224 -541393.000000 0 0 1
-27.162225 8.890795 23.043677 36.712992 -0.316331 0.892239 -0.014835 0.010935 -157588.000000 0 0 1
-26.261545 9.586395 22.029277 35.592932 -0.350006 0.903426 -0.026135 0.016674 200076.000000 0 0 1
-24.935015 9.870895 22.530477 35.025875 -0.376936 0.872058 -0.015596 -0.000547 1393490.000000 0 0 1
-24.001515 10.491795 21.641877 33.978248 -0.412100 0.880283 -0.019279 0.000417 289120.000000 0 0 1
-23.463415 9.736895 20.488677 32.636251 -0.393355 0.892087 -0.019424 0.003530 -722981.000000 0 0 1
-24.377915 9.522695 19.413277 32.585883 -0.372401 0.932588 -0.021414 0.008991 505214.000000 0 0 1
-23.799815 8.779895 18.322077 31.292432 -0.353417 0.945286 -0.016233 0.007168 -60803.800000 0 0 1
-23.562115 7.304095 18.665277 30.934053 -0.300599 0.923052 -0.012862 0.014227 -294779.000000 0 0 1
-22.355515 6.944995 19.321477 30.353278 -0.301209 0.880776 0.000296 0.007341 452473.000000 0 0 1
-22.383015 5.642395 19.883677 30.466319 -0.246939 0.859727 0.006290 0.008536 -299514.000000 0 0 1
-22.392115 4.469595 18.918977 29.653192 -0.197016 0.878888 0.008525 0.007350 23607.000000 0 0 1
-23.696915 4.133295 18.423377 30.299319 -0.172686 0.917199 0.009655 0.009083 817385.000000 0 0 1
-23.737515 3.179095 17.398477 29.602082 -0.133135 0.942528 0.014694 0.007527 -178063.000000 0 0 1
-23.593715 1.667595 17.822677 29.615741 -0.070562 0.925047 0.011794 0.012721 365533.000000 0 0 1
-22.293415 1.166495 18.141577 28.765846 -0.052277 0.888388 -0.002449 0.018030 586157.000000 0 0 1
-22.413415 -0.100805 18.697277 29.188345 0.004497 0.875552 0.005878 0.010715 -526178.000000 0 0 1
-21.117415 -0.837705 19.010877 28.426404 0.039648 0.838236 0.015385 0.021717 -472672.000000 0 0 1
-20.319815 -0.361205 20.062877 28.557738 0.017774 0.791840 0.005410 0.024723 -85402.300000 0 0 1
-19.402415 -1.314505 20.517677 28.269360 0.067646 0.758611 -0.004981 0.019564 -536594.000000 0 0 1
-18.439215 -0.898905 21.601977 28.415807 0.048711 0.707160 -0.006706 0.023665 -236193.000000 0 0 1
-18.896015 -1.044005 22.946077 29.743433 0.055194 0.689653 -0.004123 0.022297 439958.000000 0 0 1
-17.856515 -0.848805 23.950877 29.886788 0.047499 0.641186 -0.002093 0.019795 -452.376000 0 0 1
-18.317115 -0.899205 25.459177 31.376663 0.049052 0.624245 0.004979 0.021194 8254.070000 0 0 1
-19.022415 0.253195 25.862177 32.105585 -0.013310 0.634218 0.002512 0.007141 -23183.700000 0 0 1
-20.403415 0.170295 25.531377 32.683016 -0.008346 0.674240 0.010794 0.000810 -188682.000000 0 0 1
-21.198815 1.374295 26.186877 33.719890 -0.064738 0.681545 0.006551 -0.002405 26084.700000 0 0 1
-20.909315 2.579395 25.585377 33.143088 -0.122741 0.688866 0.003357 0.006636 261848.000000 0 0 1
-22.056415 2.929495 24.831777 33.341934 -0.132045 0.730619 -0.001048 0.007889 -408837.000000 0 0 1
-21.817815 4.048895 23.738477 32.495014 -0.183490 0.751703 0.004177 0.015955 -109160.000000 0 0 1
-21.111115 3.569095 22.595977 31.128697 -0.167479 0.758470 0.005005 0.016691 530829.000000 0 0 1
-19.714915 3.356595 22.707877 30.258756 -0.168640 0.722044 -0.004845 0.017977 -47482.300000 0 0 1
-19.140615 2.740495 21.359077 28.811172 -0.142210 0.735721 -0.008873 0.012696 15340.600000 0 0 1
-19.127515 3.591095 20.207777 28.055517 -0.185585 0.766593 0.007240 0.006223 112234.000000 0 0 1
-18.848615 2.852595 19.078477 26.970278 -0.150203 0.784999 0.015051 0.006593 -129979.000000 0 0 1
-18.497915 3.801895 17.929077 26.039952 -0.202708 0.811347 0.021403 -0.004678 -1135580.000000 0 0 1
-17.145915 3.972595 17.735277 24.986076 -0.227676 0.781573 0.019752 -0.011793 -1061450.000000 0 1 0
-16.888815 4.762395 16.571577 24.135651 -0.274849 0.813992 0.027801 -0.011574 1676640.000000 0 1 0
-15.307815 5.075895 16.493077 23.067629 -0.320179 0.774189 0.030090 -0.011709 1820300.000000 0 1 0
-14.777815 5.826095 17.539977 23.663854 -0.375536 0.735919 0.017580 -0.011478 72611.500000 0 1 0
-15.157915 7.272995 17.491977 24.261659 -0.447370 0.765592 0.013953 -0.022654 -460721.000000 0 1 0
-14.619915 8.201395 16.412477 23.460056 -0.511230 0.795969 0.000095 -0.012222 -205323.000000 0 1 0
-14.959315 7.889095 15.017277 22.617196 -0.485303 0.844673 -0.009753 -0.009862 735481.000000 0 1 0
-16.342115 8.167795 14.762977 23.488787 -0.463488 0.891158 0.008760 -0.013645 528533.000000 0 1 0
-16.818815 7.537095 13.478377 22.833024 -0.421302 0.939364 -0.000297 -0.010213 -254528.000000 0 1 0
-16.762515 6.112195 13.646677 22.462694 -0.349652 0.917854 0.009317 -0.012417 265185.000000 0 1 0
-17.422715 5.569795 12.517077 22.164179 -0.309418 0.970674 0.016216 -0.010365 267774.000000 0 1 0
-17.085315 4.057295 12.599877 21.613110 -0.233154 0.948412 0.009698 -0.005765 -181325.000000 0 1 0
-17.655815 3.394395 13.700377 22.604205 -0.189936 0.919650 0.006859 -0.002488 62963.600000 0 1 0
-17.514615 2.009295 13.755077 22.360706 -0.114222 0.908226 0.014822 -0.006560 -460733.000000 0 1 0
-18.528115 1.438595 14.734977 23.716664 -0.077488 0.900406 0.027409 -0.001278 357904.000000 0 1 0
-19.880515 1.355395 14.293177 24.522783 -0.068072 0.948561 0.041657 0.004168 575998.000000 0 1 0
-20.670215 0.607295 15.206977 25.668634 -0.029372 0.936719 0.020253 0.007506 551984.000000 0 0 1
-22.126015 0.260995 14.785877 26.612982 -0.011795 0.981725 0.022261 0.004137 328924.000000 0 0 1
-22.048615 -0.736805 13.766377 26.003797 0.033405 1.012905 0.032179 0.002185 938880.000000 0 0 1
-23.303515 -1.334505 13.385677 26.907454 0.057204 1.050115 0.034038 -0.005409 632747.000000 0 0 1
-23.143615 -2.424905 12.323177 26.331878 0.104395 1.083776 0.039036 -0.012790 -192853.000000 0 0 1
-22.658615 -3.555705 13.009377 26.368538 0.155656 1.054839 0.036581 -0.008621 215355.000000 0 0 1
-22.529115 -4.650305 12.133577 26.007885 0.203554 1.085428 0.036242 -0.001939 -134993.000000 0 0 1
-22.256015 -5.968905 12.774077 26.346443 0.262027 1.064605 0.027761 -0.003051 -165006.000000 0 0 1
-23.364915 -6.459705 13.476977 27.735824 0.269733 1.063398 0.030825 -0.004692 98250.600000 0 0 1
-23.355515 -7.864505 13.642877 28.168398 0.324805 1.065196 0.035171 -0.007760 -161274.000000 0 0 1
-24.320815 -8.320705 14.750877 29.636541 0.329640 1.049821 0.025447 0.004145 -831024.000000 0 0 1
-25.660835 -8.060305 14.507177 30.559862 0.304350 1.076158 0.027391 -0.005402 -985848.000000 0 0 1
-26.369675 -8.598905 15.587277 31.816099 0.315218 1.058801 0.016185 0.010353 -1130030.000000 0 0 1
-27.791605 -8.055905 15.635177 32.889659 0.282136 1.075397 0.012659 0.000121 -184891.000000 0 0 1
-28.769445 -8.577005 14.699977 33.426566 0.289739 1.115455 0.009952 0.001870 1246470.000000 0 0 1
-29.277485 -9.936305 14.790177 34.273177 0.327186 1.124599 0.018514 -0.000139 -129477.000000 0 0 1
-29.670865 -10.570905 16.146577 35.395144 0.342252 1.097098 0.013096 0.003974 -642741.000000 0 0 1
-28.543915 -10.829405 16.949077 34.918510 0.362618 1.063988 0.014820 0.007576 278004.000000 0 0 1
-28.877495 -11.326905 18.255877 35.992854 0.373799 1.038854 0.013646 0.016213 -256453.000000 0 0 1
-27.626775 -11.281905 19.131077 35.447400 0.387700 1.000712 0.005736 0.023901 -81562.000000 0 0 1
-26.701695 -12.317605 18.876577 34.943226 0.432215 1.000113 0.003366 0.020350 179420.000000 0 0 1
-25.536175 -12.146505 19.683477 34.453927 0.443986 0.962709 -0.006024 0.022068 55242.600000 0 0 1
-24.362915 -13.002305 19.224477 33.648062 0.490237 0.962659 0.009172 0.025519 -516892.000000 0 0 1
-24.008615 -12.846205 17.876977 32.573377 0.491306 0.989842 0.012442 0.019684 -397685.000000 0 0 1
-22.838115 -13.567905 17.672577 31.905917 0.536063 0.983759 0.015170 0.005994 -922720.000000 0 0 1
-22.490015 -13.664705 16.182577 30.893377 0.545982 1.019467 0.024395 -0.002821 -384849.000000 0 0 1
-21.848315 -12.452905 15.879277 29.741808 0.518047 1.007585 0.030052 -0.008641 -230958.000000 0 0 1
-21.735515 -12.347405 14.458777 28.878145 0.516614 1.046409 0.030079 -0.000287 657102.000000 0 0 1
-20.548515 -11.415905 13.989077 27.354317 0.507101 1.033980 0.026939 -0.001863 101344.000000 0 0 1
-20.694615 -9.989905 14.076877 26.948539 0.449736 1.021178 0.019250 -0.000048 783761.000000 0 0 1
-19.438615 -9.268105 14.091677 25.735829 0.444906 0.991362 0.015534 0.005387 448297.000000 0 0 1
-18.797915 -9.221005 12.696577 24.486560 0.456046 1.025686 0.009237 0.020201 -403657.000000 0 1 0
-18.132315 -10.404105 12.211977 24.210713 0.520923 1.042105 -0.003888 0.009862 510359.000000 0 1 0
-17.787115 -10.388405 10.841077 23.277229 0.528602 1.086329 -0.006836 0.019446 -25639.000000 0 1 0
-17.079515 -11.684105 10.145377 23.046840 0.599975 1.114967 -0.022619 0.008766 602612.000000 0 1 0
-15.682615 -11.786905 10.139977 22.083810 0.644518 1.093748 -0.015542 0.005650 -55700.400000 0 1 0
-15.006215 -11.832605 11.376077 22.239878 0.667698 1.033847 -0.009161 0.001983 -829858.000000 0 1 0
-13.557515 -12.297405 11.236677 21.477786 0.736699 1.020222 -0.006921 0.004010 -557305.000000 0 1 0
-13.350015 -13.586505 10.796877 21.894944 0.794177 1.055122 -0.005375 -0.005779 230879.000000 0 1 0
-11.966315 -13.892305 10.791377 21.275400 0.859742 1.038837 -0.008568 -0.003890 274828.000000 0 1 0
-11.638815 -15.416005 10.774877 22.118164 0.924114 1.061972 -0.009452 -0.002844 -126477.000000 0 1 0
-12.031415 -16.134405 9.643977 22.317712 0.930053 1.123952 -0.007754 0.000509 -19790.900000 0 1 0
-11.852615 -17.494605 9.790877 23.289632 0.975330 1.136914 -0.007587 -0.000194 60709.800000 0 1 0
-12.395315 -18.210105 8.514777 23.616799 0.973153 1.201951 -0.012231 0.002267 -125412.000000 0 1 0
-11.649815 -17.983705 7.309877 22.639923 0.995970 1.242030 -0.009687 -0.003373 -133693.000000 0 1 0
-12.113015 -18.707405 6.251877 23.146881 0.996182 1.297304 -0.011612 0.002254 -450898.000000 0 1 0
-11.316615 -18.433205 4.975777 22.194756 1.020200 1.344688 -0.004193 0.000153 -267117.000000 0 1 0
-11.577015 -19.428405 3.969577 22.961876 1.033411 1.397047 -0.004593 0.005613 350465.000000 0 1 0
-10.874315 -19.135005 2.767977 22.182444 1.054016 1.445688 0.002416 -0.006103 77052.400000 0 1 0
-11.126515 -20.157105 1.653377 23.083368 1.066427 1.499109 0.002199 0.006877 -206822.000000 0 1 0
-10.632015 -21.507805 1.778077 24.057992 1.111693 1.496821 -0.013868 0.006628 -218969.000000 0 1 0
-11.009115 -22.383705 0.734077 24.955355 1.113701 1.541376 -0.018839 0.010718 -349011.000000 0 1 0
-10.226915 -22.365705 -0.596723 24.600216 1.141922 1.595056 -0.000528 0.011750 -462498.000000 0 1 0
-10.272415 -21.355405 -1.500023 23.745018 1.122446 1.634011 0.003162 -0.001429 -414742.000000 0 1 0
-11.380315 -21.219105 -2.342223 24.191899 1.078514 1.667767 0.021784 0.004414 788981.000000 0 1 0
-12.578215 -20.272705 -1.846823 23.929162 1.015475 1.648052 0.023830 0.001240 1010570.000000 0 1 0
-13.296315 -20.810105 -0.758123 24.706825 1.002239 1.601486 0.008413 0.016008 -624725.000000 0 1 0
-14.336015 -19.970805 -0.407923 24.587004 0.948192 1.587388 0.013547 0.024862 -906813.000000 0 1 0
25.582785 -20.852305 -4.578523 33.320570 -0.683875 1.708641 -0.008855 0.003105 -443454.000000 0 0 1
24.606485 -20.695605 -3.589523 32.352308 -0.699283 1.681976 0.012771 -0.007874 -280988.000000 0 0 1
24.647885 -21.743005 -2.695523 32.977907 -0.722862 1.652625 -0.000895 -0.004827 -1252350.000000 0 0 1
23.383085 -22.011705 -1.926423 32.171337 -0.755197 1.630712 0.000543 -0.007619 -1180750.000000 0 0 1
22.420185 -22.449605 -2.841423 31.854719 -0.786054 1.660114 0.009011 -0.015677 -513003.000000 0 0 1
21.334685 -23.073305 -2.180923 31.500835 -0.824529 1.640086 0.031891 -0.017268 -201010.000000 0 0 1
20.289385 -23.720405 -3.072023 31.364854 -0.863201 1.668898 0.024254 -0.016597 -419216.000000 0 0 1
19.547385 -22.759905 -3.755723 30.236054 -0.861186 1.695331 0.014884 -0.022495 -326985.000000 0 0 1
18.567485 -23.397205 -4.579323 30.218386 -0.899984 1.722923 0.014667 -0.015172 875828.000000 0 0 1
17.590285 -22.298705 -5.233523 28.879753 -0.902893 1.753021 -0.002993 -0.005151 1274370.000000 0 0 1
16.532185 -21.701905 -4.426723 27.638409 -0.919795 1.731655 -0.002462 0.001062 1136300.000000 0 0 1
17.040385 -20.944505 -3.365523 27.209810 -0.887819 1.694802 -0.003944 -0.008207 211863.000000 0 0 1
15.893085 -20.452505 -2.394823 26.012118 -0.910193 1.662993 0.007060 -0.000163 357058.000000 0 0 1
15.496485 -21.409205 -1.428923 26.467658 -0.944260 1.624810 0.009368 -0.004942 -344012.000000 0 0 1
14.654385 -20.742805 -0.569123 25.403520 -0.955734 1.593202 0.006033 0.012102 -671581.000000 0 0 1
14.097685 -21.562705 0.596777 25.769189 -0.991755 1.547636 0.007607 0.012137 -12221.900000 0 0 1
13.192785 -22.594405 0.237477 26.165112 -1.042302 1.561720 -0.000963 0.008835 231232.000000 0 0 1
12.531385 -23.022505 1.446377 26.251921 -1.072332 1.515672 0.007135 0.009549 500220.000000 0 0 1
11.605285 -24.270005 1.488477 26.943113 -1.124761 1.515523 0.003631 0.009952 650655.000000 0 0 1
12.342885 -25.489685 1.567577 28.364205 -1.119844 1.515502 0.014105 0.006420 -250457.000000 0 0 1
11.490185 -26.538805 1.344277 28.950640 -1.162205 1.524346 0.018879 -0.002955 -514753.000000 0 0 1
11.850185 -27.866595 2.031977 30.349677 -1.168717 1.503794 0.025451 -0.000851 -69109.100000 0 0 1
11.490585 -27.869305 3.392677 30.335490 -1.179730 1.458723 0.036458 -0.002967 98345.400000 0 0 1
12.066485 -28.957065 4.078077 31.634512 -1.175975 1.441524 0.038879 -0.010675 6573.140000 0 0 1
11.434085 -29.109845 5.476777 31.750849 -1.196520 1.397437 0.042906 -0.012989 176349.000000 0 0 1
12.059485 -30.193115 6.159377 33.090683 -1.190797 1.383568 0.037919 -0.009559 -93314.200000 0 0 1
11.477085 -30.469905 7.418577 33.394219 -1.210563 1.346776 0.031476 -0.016738 5517.980000 0 0 1
12.250285 -31.606245 8.129577 34.858488 -1.201033 1.335412 0.029421 -0.010834 226316.000000 0 0 1
11.956385 -31.927225 9.508077 35.393592 -1.212474 1.298817 0.028353 -0.008028 128249.000000 0 0 1
10.984085 -33.001005 9.603077 36.082344 -1.249489 1.301406 0.014205 -0.001904 665502.000000 0 0 1
10.616685 -33.293815 11.078877 36.659700 -1.262111 1.263788 0.009592 0.006414 -696980.000000 0 0 1
11.610685 -33.938745 11.782877 37.755564 -1.241170 1.253411 0.006498 0.004419 -450101.000000 0 0 1
11.301585 -34.111884 13.130077 38.258925 -1.250868 1.220485 0.003997 0.010134 -173210.000000 0 0 1
10.285385 34.332578 13.544477 38.314069 1.279724 1.209474 0.004789 0.007360 -288779.000000 0 0 1
10.688785 33.016372 13.154077 37.112810 1.257703 1.208487 0.009878 0.006365 435546.000000 0 0 1
9.573585 32.132802 13.206977 36.036020 1.281232 1.195559 0.007438 0.010314 245052.000000 0 0 1
9.829585 30.888722 12.287777 34.665881 1.262704 1.208456 0.011234 0.007586 -79153.500000 0 0 1
9.599785 31.098982 10.849877 34.307759 1.271391 1.249021 0.014319 0.013866 133316.000000 0 0 1
10.439585 32.046382 10.236277 35.224095 1.255873 1.275938 0.001307 0.008383 8631.770000 0 0 1
9.908585 32.237142 8.763577 34.845568 1.272596 1.316569 0.001209 0.010038 351405.000000 0 0 1
8.689085 32.951202 8.713377 35.173922 1.312970 1.320467 0.000506 0.011534 120951.000000 0 0 1
8.233085 33.168592 7.338677 34.954189 1.327494 1.359271 -0.004055 0.011253 316692.000000 0 0 1
8.882885 34.429529 6.688177 36.180517 1.318301 1.384871 0.009609 0.011439 -82532.500000 0 0 1
8.217285 -33.947405 7.096277 35.641369 -1.333305 1.370355 0.007527 0.006047 23487.000000 0 0 1
8.646085 -32.852755 6.275277 34.546163 -1.313455 1.388133 0.020977 -0.003740 150694.000000 0 0 1
7.762685 -31.574615 6.410977 33.140854 -1.329725 1.376123 0.016049 -0.006563 219831.000000 0 0 1
7.917085 -31.019935 7.747777 32.938498 -1.320905 1.333352 0.026874 -0.003189 -63465.400000 0 0 1
7.043185 -29.954745 7.969677 31.786930 -1.339864 1.317371 0.029045 -0.005874 -228286.000000 0 0 1
7.617885 -28.599235 7.535977 30.540782 -1.310474 1.321470 0.053350 -0.008455 -61834.400000 0 0 1
8.485685 -28.070585 8.524577 30.539040 -1.277233 1.287901 0.047724 -0.009381 109866.000000 0 0 1
9.421285 -27.077355 8.151877 29.805987 -1.235958 1.293769 0.054086 -0.012364 312718.000000 0 0 1
8.894185 -25.811085 7.364277 28.276336 -1.238951 1.307319 0.037273 -0.003564 -204418.000000 0 0 1
8.727385 -26.026315 5.984477 28.095378 -1.247251 1.356146 0.036192 -0.003766 165400.000000 0 0 1
7.849685 -24.988205 5.469777 26.757174 -1.266422 1.364922 0.041257 0.002807 715458.000000 0 0 1
7.499985 -25.370665 4.029077 26.761051 -1.283366 1.419664 0.046337 -0.001820 293390.000000 0 0 1
6.626485 -26.500765 3.848777 27.586481 -1.325772 1.430823 0.022693 -0.009134 -300562.000000 0 0 1
7.216585 -27.769725 3.747677 28.935822 -1.316548 1.440915 0.022285 -0.009941 -558522.000000 0 0 1
6.238585 -28.885365 3.460077 29.753258 -1.358086 1.454240 0.018476 -0.007800 -534088.000000 0 0 1
5.346485 -29.176745 4.504177 30.002582 -1.389562 1.420100 0.007105 -0.006208 -331573.000000 0 0 1
4.295585 -30.050485 4.123877 30.634785 -1.428813 1.435772 0.000980 0.000946 70576.700000 0 0 1
4.482285 -31.587065 4.122677 32.168774 -1.429835 1.442285 0.000346 0.004189 -302819.000000 0 0 1
5.522685 -32.067025 3.296077 32.705630 -1.400246 1.469845 0.002234 0.003763 -32942.800000 0 0 1
5.841385 -33.428405 3.586377 34.123923 -1.397800 1.465503 -0.007614 0.006047 -287356.000000 0 0 1
6.983685 -34.008735 2.775177 34.829118 -1.368262 1.491032 -0.002112 0.004814 -348939.000000 0 0 1
6.612585 -34.185742 1.427777 34.848669 -1.379725 1.529814 -0.001991 0.001792 -217381.000000 0 0 1
7.571085 34.558631 0.745077 35.386091 1.355124 1.549739 0.000058 0.002565 -322714.000000 0 0 1
7.019485 33.864125 -0.542523 34.588241 1.366407 1.586482 0.009548 0.005012 880921.000000 0 0 1
5.966385 32.890232 -0.364223 33.428996 1.391345 1.581692 -0.009247 0.009751 793169.000000 0 0 1
4.649585 33.443552 -0.385923 33.767421 1.432654 1.582225 -0.014662 0.007288 285913.000000 0 0 1
3.564385 32.404192 -0.059923 32.599694 1.461239 1.572634 -0.008197 0.007030 -104288.000000 0 0 1
3.480685 31.416242 -1.042623 31.625662 1.460454 1.603770 -0.006753 0.009761 383661.000000 0 0 1
2.486985 30.404442 -0.767123 30.515629 1.489181 1.595938 -0.004575 0.000407 446203.000000 0 0 1
2.373785 29.352552 -1.864623 29.507354 1.490100 1.634030 0.000188 0.002786 108544.000000 0 0 1
1.917585 29.945892 -3.086623 30.165557 1.506849 1.673298 0.007805 -0.005149 -53579.300000 0 0 1
2.068385 29.079322 -4.190823 29.452473 1.499787 1.713572 0.003736 -0.020185 -134140.000000 0 0 1
1.672285 29.767182 -5.473923 30.312464 1.514677 1.752376 0.008468 -0.024325 -678543.000000 0 0 1
0.321985 30.142752 -5.475323 30.637694 1.560115 1.750474 0.014821 -0.017287 -378436.000000 0 0 1
0.216885 31.040432 -6.608323 31.736814 1.563809 1.780554 0.004552 -0.018767 -63896.600000 0 0 1
-0.090815 30.348282 -7.956423 31.374052 -1.567804 1.827195 0.007331 -0.021184 487177.000000 0 0 1
-1.471615 29.980342 -8.180023 31.111080 -1.521750 1.836854 -0.009526 -0.018334 926300.000000 0 0 1
-1.561215 29.463302 -9.511823 30.999973 -1.517857 1.882660 -0.004268 -0.016825 -102834.000000 0 0 1
-1.673815 30.511192 -10.655323 32.361557 -1.515992 1.906315 -0.012586 -0.023713 -300814.000000 0 0 1
-0.471115 31.167172 -10.997923 33.054029 -1.555682 1.909989 -0.003681 -0.026799 -258227.000000 0 0 1
-0.653215 32.421932 -11.674923 34.466102 -1.550652 1.916370 -0.016033 -0.019698 -210377.000000 0 0 1
-0.692215 33.610927 -10.694323 35.278068 -1.550204 1.878786 -0.016077 -0.013430 415383.000000 0 0 1
0.530585 33.834159 -10.003923 35.286120 1.555116 1.858247 -0.017432 -0.016411 225209.000000 0 0 1
0.135585 34.619556 -8.913323 35.748837 1.566880 1.822787 -0.015080 -0.009041 294782.000000 0 0 1
1.241385 -34.560649 -7.852223 35.463176 -1.534893 1.794066 -0.003961 -0.016661 317249.000000 0 0 1
2.330885 -33.807305 -8.322223 34.894502 -1.501959 1.811614 0.000230 -0.010859 -623903.000000 0 0 1
3.063785 -33.293025 -7.271123 34.215223 -1.479030 1.784941 0.005164 -0.009634 -546121.000000 0 0 1
4.306985 -32.510105 -7.834223 33.716940 -1.439082 1.805292 -0.005683 -0.004798 1058800.000000 0 0 1
5.367585 -33.213865 -8.490923 34.699676 -1.410575 1.818004 0.011215 -0.006251 714108.000000 0 0 1
6.023885 -34.189628 -7.691123 35.557998 -1.396396 1.788817 0.015568 0.002998 -1467320.000000 0 0 1
6.261085 33.944936 -8.355723 35.514475 1.388398 1.808299 0.012793 -0.000905 -224115.000000 0 0 1
5.187985 33.065422 -8.559723 34.547158 1.415165 1.821173 0.004090 -0.005081 -135124.000000 0 0 1
4.249685 33.349562 -9.611523 34.966190 1.444051 1.849262 0.012681 -0.010775 825516.000000 0 0 1
3.227085 32.211242 -9.846523 33.836847 1.470944 1.866068 0.004073 -0.015266 240058.000000 0 0 1
3.845785 31.203702 -10.592523 33.176235 1.448167 1.895766 0.009116 -0.011477 -265184.000000 0 0 1
2.982985 30.105822 -10.598823 32.056103 1.472035 1.907771 0.001594 -0.013995 26246.200000 0 0 1
3.298885 28.994992 -11.601623 31.403660 1.457509 1.949198 0.009712 -0.013772 -79301.600000 0 0 1
3.129985 29.451492 -12.941223 32.321238 1.464918 1.982743 0.006613 -0.009661 -540033.000000 0 0 1
4.241485 29.158362 -13.720723 32.503207 1.426346 2.006595 0.016775 -0.016160 -533773.000000 0 0 1
4.191885 29.630382 -15.211723 33.569747 1.430256 2.041079 0.018835 -0.013817 -383920.000000 0 0 1
3.336885 28.818852 -15.938323 33.101226 1.455521 2.073165 0.008745 -0.009803 -311216.000000 0 0 1
2.971885 29.449082 -17.155223 34.210849 1.470221 2.096077 0.039983 -0.010621 142557.000000 0 0 1
2.107085 28.532042 -18.105323 33.857347 1.497080 2.135012 0.031305 -0.005377 -230258.000000 0 0 1
2.676985 27.335982 -18.657623 33.204353 1.473179 2.167481 0.043206 0.009954 -301487.000000 0 0 1
1.873985 26.713552 -19.604323 33.188178 1.500760 2.202725 0.012330 0.009921 -290725.000000 0 0 1
2.687185 25.606972 -20.257223 32.761151 1.466239 2.237413 0.021130 0.019495 242248.000000 0 0 1
2.697285 24.526762 -19.355223 31.360198 1.461263 2.235964 0.024965 0.014218 563490.000000 0 0 1
3.934385 23.826692 -19.558523 31.076139 1.407148 2.251544 0.027936 0.012142 629483.000000 0 0 1
4.400885 22.779492 -18.554323 29.707506 1.379952 2.245373 0.029948 0.016244 -442480.000000 0 0 1
3.555285 21.662192 -18.396123 28.641018 1.408123 2.268292 0.045475 0.015915 -462416.000000 0 0 1
4.180985 20.462992 -17.986623 27.563259 1.369251 2.281752 0.035560 0.015518 785896.000000 0 0 1
3.105485 19.341492 -17.613823 26.343578 1.411594 2.303147 0.028258 0.012195 653389.000000 0 0 1
2.363685 19.601792 -16.479523 25.717541 1.450791 2.266322 0.026378 0.008087 -520800.000000 0 0 1
1.465085 18.559192 -16.136523 24.636912 1.492019 2.284944 0.015225 0.010523 412440.000000 0 1 0
2.064385 17.446392 -15.133723 23.187666 1.453017 2.281890 0.011102 0.010401 1070650.000000 0 1 0
3.060085 16.527692 -15.703923 23.003085 1.387721 2.322231 0.013553 -0.006620 1041050.000000 0 1 0
2.510385 15.401592 -16.498423 22.709228 1.409222 2.384022 0.017290 -0.014511 62566.300000 0 1 0
2.419185 15.686292 -18.041123 24.029031 1.417779 2.420077 -0.002748 -0.003409 -404753.000000 0 1 0
3.620785 15.725992 -18.777423 24.759009 1.344498 2.431663 0.011394 0.000982 -303213.000000 0 1 0
3.444685 16.368092 -20.056023 26.115596 1.363372 2.446464 -0.009519 0.016111 -83056.600000 0 0 1
4.072485 15.508392 -21.192923 26.575089 1.313996 2.493892 -0.000004 0.006408 144943.000000 0 0 1
3.390685 14.386792 -21.732023 26.282263 1.339340 2.544316 -0.002485 0.008276 -135213.000000 0 0 1
2.233085 14.696792 -22.478923 26.949663 1.420006 2.557310 -0.003542 0.013758 -176354.000000 0 0 1
1.317385 13.560492 -22.851823 26.605042 1.473951 2.603970 -0.000832 0.014570 -193037.000000 0 0 1
0.598685 12.947592 -21.783323 25.347815 1.524590 2.604846 -0.004086 0.014832 89438.700000 0 0 1
-0.261115 11.975492 -22.307523 25.320074 -1.548996 2.648813 -0.009936 0.006483 -300098.000000 0 0 1
-0.764915 10.975892 -21.229023 23.910807 -1.501218 2.663431 -0.009214 0.003318 -952222.000000 0 1 0
-1.802515 11.482792 -20.411923 23.489363 -1.415092 2.623945 -0.010505 0.006369 -35133.800000 0 1 0
-2.207915 10.412392 -19.530523 22.242619 -1.361845 2.642605 -0.009195 0.006177 319871.000000 0 1 0
-3.340515 9.521392 -20.086923 22.478888 -1.233371 2.676078 -0.003244 0.006363 -660051.000000 0 1 0
-2.795615 8.656192 -21.046723 22.928359 -1.258409 2.733638 -0.006457 0.011470 -215410.000000 0 1 0
-3.804015 7.859492 -21.595423 23.293871 -1.120028 2.757359 -0.010561 0.018882 -436371.000000 0 1 0
-3.251115 6.613992 -22.258823 23.447171 -1.113931 2.821855 -0.012062 0.015063 84976.500000 0 1 0
-2.597615 5.672392 -21.433223 22.322784 -1.141359 2.858335 -0.006152 0.011106 100105.000000 0 1 0
-2.177515 4.551492 -22.148523 22.715957 -1.124563 2.917609 0.003329 0.002499 -851738.000000 0 1 0
-1.681015 3.324392 -21.366223 21.688543 -1.102630 2.968976 0.005464 0.001820 -409770.000000 0 1 0
-0.314715 3.443092 -21.090823 21.372336 -1.479645 2.979107 0.008257 -0.003856 -508854.000000 0 1 0
0.146685 2.322792 -20.317223 20.450096 1.507730 3.027536 0.009514 0.000005 652463.000000 0 1 0
1.698385 2.298092 -20.145623 20.347281 0.934346 3.000687 0.011507 -0.010800 824359.000000 0 1 0
2.366085 1.990092 -21.380523 21.602907 0.699299 2.997983 0.015640 -0.009440 214596.000000 0 1 0
3.778585 1.929592 -21.234423 21.654139 0.472143 2.944384 0.018700 -0.011944 572798.000000 0 1 0
4.477485 1.355992 -22.516123 22.997008 0.294066 2.936731 0.014932 0.001541 -316014.000000 0 1 0
5.871985 1.255992 -22.455623 23.244628 0.210720 2.880298 0.009257 -0.002322 -620015.000000 0 1 0
6.299785 0.391792 -23.484523 24.317969 0.062111 2.879027 0.001530 -0.003317 -606969.000000 0 1 0
7.826885 0.328792 -23.462223 24.735483 0.041983 2.819342 -0.012350 -0.006941 -263458.000000 0 1 0
8.437085 1.598492 -23.792223 25.294455 0.187241 2.795220 -0.008608 -0.017210 496300.000000 0 0 1
9.850485 1.444292 -23.672323 25.680672 0.145584 2.743483 -0.011497 -0.010902 49973.000000 0 0 1
13.717585 -22.263005 22.227119 34.319941 -1.018579 0.866307 0.024552 0.015176 -474017.000000 0 0 1
12.571585 -23.017105 22.533819 34.577520 -1.070887 0.860986 0.011047 0.023827 638604.000000 0 0 1
11.296485 -22.367905 22.371719 33.592076 -1.103132 0.841987 0.006195 0.014726 1393500.000000 0 0 1
10.766185 -21.905505 20.935219 32.156574 -1.113985 0.861842 0.007862 0.007032 -169542.000000 0 0 1
11.287485 -20.674305 20.472919 31.208566 -1.071055 0.855285 0.000871 0.007241 76578.800000 0 0 1
10.719385 -20.364305 19.206419 29.974934 -1.086267 0.875322 0.020120 0.000779 179169.000000 0 0 1
11.099985 -18.952805 18.609019 28.787394 -1.040984 0.867901 0.019866 -0.000591 -117266.000000 0 0 1
10.400185 -17.901705 19.219019 28.248993 -1.044494 0.822565 0.029741 -0.002302 -272541.000000 0 0 1
10.685085 -16.622305 18.681819 27.193426 -0.999488 0.813447 0.027771 -0.002966 31166.200000 0 0 1
9.688585 -15.564305 19.201919 26.548634 -1.014006 0.762266 0.035718 -0.002338 223004.000000 0 0 1
8.382185 -15.661705 18.705119 25.795959 -1.079385 0.759590 0.024738 0.000725 -340190.000000 0 0 1
7.477585 -14.619705 19.051819 25.151975 -1.098012 0.711370 0.010523 -0.001227 689621.000000 0 0 1
6.039785 -15.037705 18.627519 24.689999 -1.188875 0.715971 0.000655 0.008798 -132570.000000 0 1 0
5.816585 -14.972205 17.186519 23.523946 -1.200250 0.751601 -0.003420 0.002343 -22859.400000 0 1 0
4.450885 -14.959305 16.828519 22.951911 -1.281604 0.747769 -0.010214 0.001084 136027.000000 0 1 0
3.726885 -16.345505 16.961819 23.848868 -1.346622 0.779563 -0.029944 0.007804 1508350.000000 0 1 0
2.320185 -16.372405 16.538819 23.387421 -1.430021 0.785313 -0.025954 0.013339 1418470.000000 0 1 0
1.724985 -17.606905 16.742119 24.357283 -1.473136 0.812954 -0.019191 0.008093 -351313.000000 0 1 0
0.281785 -17.583305 16.244519 23.940268 -1.554772 0.825018 -0.003403 0.008254 -618573.000000 0 1 0
0.081185 -17.463905 14.860619 22.931039 -1.566148 0.865766 -0.001898 0.002021 -362554.000000 0 1 0
-1.244115 -17.873205 14.618519 23.123589 1.501301 0.886419 -0.001386 0.013628 -335543.000000 0 1 0
-1.653815 -17.854705 13.131919 22.225501 1.478434 0.938685 -0.006677 -0.008442 175512.000000 0 1 0
-2.909015 -18.489205 12.937719 22.752970 1.414740 0.965973 -0.017202 0.001030 277271.000000 0 1 0
-2.779915 -19.926305 12.712119 23.798814 1.432181 1.007295 -0.013166 0.004957 119415.000000 0 1 0
-4.143715 -20.654205 12.597919 24.545348 1.372801 1.031828 -0.007793 0.009361 676153.000000 0 1 0
-4.898015 -20.774305 13.825619 25.430494 1.339252 0.996001 -0.003480 -0.002729 1249680.000000 0 0 1
-6.113915 -21.528905 13.566519 26.171055 1.294095 1.025842 0.000914 0.001032 906506.000000 0 0 1
-6.772215 -22.120805 14.839019 27.484348 1.273710 1.000469 0.013473 0.001933 -1001380.000000 0 0 1
-8.044915 -22.532305 14.520419 27.986925 1.227864 1.025316 0.010908 0.004094 -1256780.000000 0 0 1
-8.638715 -23.137305 15.621719 29.223285 1.213458 1.006804 0.018608 0.003263 875018.000000 0 0 1
-10.075115 -22.530305 15.866519 29.340569 1.150289 0.999443 0.016558 0.007308 842445.000000 0 0 1
-9.902815 -21.231705 16.351319 28.569506 1.134375 0.961446 0.003636 0.003296 -955786.000000 0 0 1
-11.057015 -20.517005 16.151019 28.355960 1.076500 0.964800 0.001341 0.004019 -821840.000000 0 0 1
-11.181215 -19.380005 17.146519 28.188779 1.047501 0.916911 0.000077 0.000660 -594278.000000 0 0 1
-11.607415 -19.851305 18.396719 29.449035 1.041689 0.896053 0.006684 0.001857 -4519.790000 0 0 1
-11.630215 -18.797505 19.350019 29.377395 1.016733 0.851746 0.005240 -0.005117 -333760.000000 0 0 1
-12.187615 -19.214705 20.725719 30.778211 1.005547 0.832012 0.021949 0.002865 -405695.000000 0 0 1
-13.491315 -19.720905 20.605919 31.552077 0.970813 0.859157 0.029616 0.008553 -146057.000000 0 0 1
-13.926115 -20.209205 21.885319 32.883367 0.967425 0.842574 0.013900 0.016316 -150813.000000 0 0 1
-15.315815 -20.856305 21.799119 33.834321 0.937387 0.870702 0.018333 0.012359 -674033.000000 0 0 1
-15.300015 -22.080505 21.090019 34.153010 0.964838 0.905216 0.011050 0.014202 300613.000000 0 0 1
-16.563715 -22.455205 20.584519 34.674419 0.935257 0.935207 0.009115 0.019524 47757.600000 0 0 1
-17.580115 -23.131405 21.511119 36.150389 0.920919 0.933474 0.012638 0.015057 -513965.000000 0 0 1
-17.968515 -22.236505 22.521519 36.394347 0.891158 0.903558 0.009398 0.015997 -40399.700000 0 0 1
-18.818015 -22.879405 23.470319 37.794719 0.882493 0.900785 0.021888 0.008998 47608.100000 0 0 1
-19.394515 -21.957705 24.552319 38.224395 0.847303 0.873274 0.014242 0.019324 -678318.000000 0 0 1
-20.565915 -21.297405 24.206469 38.242509 0.802870 0.885409 0.013429 0.031539 -294708.000000 0 0 1
-20.609215 -20.067005 24.927869 38.063409 0.772069 0.856741 0.015946 0.022625 187560.000000 0 0 1
-21.626115 -19.002505 24.436329 37.761333 0.720912 0.866988 0.010654 0.017818 -121967.000000 0 0 1
-21.337515 -18.481905 23.167619 36.518611 0.713807 0.883557 0.015739 0.021777 -273867.000000 0 0 1
-22.366815 -17.676005 22.665019 36.420031 0.668785 0.899090 0.001351 0.023179 -567451.000000 0 0 1
-22.091015 -17.151605 21.234619 35.115517 0.660188 0.921398 0.006560 0.028309 407637.000000 0 0 1
-21.084315 -16.100105 21.201419 33.959710 0.652152 0.896547 0.007725 0.025002 360350.000000 0 0 1
-20.875715 -15.732505 19.844719 32.819508 0.645818 0.921455 0.011172 0.022771 -15943.800000 0 0 1
-19.798915 -14.663305 19.628019 31.500297 0.637465 0.898089 0.009758 0.005388 -231597.000000 0 0 1
-19.471715 -14.562005 18.220519 30.383993 0.642126 0.927701 0.006999 -0.000305 -65452.300000 0 0 1
-18.938315 -13.296005 17.831619 29.213185 0.612113 0.914236 0.013896 -0.010841 -67528.300000 0 0 1
-18.218215 -13.330105 16.415219 27.911548 0.631680 0.942069 0.012969 -0.017203 380992.000000 0 0 1
-17.749315 -12.096005 15.901119 26.724467 0.598196 0.933528 0.010698 -0.011559 914270.000000 0 0 1
-16.425515 -11.725605 16.344019 25.969488 0.619971 0.890074 0.007938 -0.016969 753770.000000 0 0 1
-15.790215 -10.510705 15.579819 24.546621 0.587296 0.883172 0.001142 -0.008865 -87752.900000 0 1 0
-16.450315 -9.321405 15.875419 24.688669 0.515529 0.872355 -0.004421 0.001479 -23282.400000 0 1 0
-16.165515 -8.172205 15.033319 23.539531 0.468064 0.878065 -0.011479 0.008794 -903691.000000 0 1 0
-16.463615 -6.777705 15.696019 23.735057 0.390533 0.848244 -0.002175 0.015764 230271.000000 0 1 0
-15.733915 -6.545805 16.893419 23.995651 0.394250 0.789754 -0.003822 0.013119 -632219.000000 0 1 0
-14.396615 -6.248605 16.694719 22.913342 0.409497 0.754517 0.001249 0.006448 -1328100.000000 0 1 0
-13.591815 -6.277905 17.978619 23.396160 0.432696 0.694392 0.005059 0.011743 -272191.000000 0 1 0
-13.606715 -7.458205 18.748519 24.336690 0.501404 0.691358 0.009575 -0.005757 -110440.000000 0 1 0
-13.012515 -8.608905 18.229619 23.994954 0.584477 0.707903 0.012566 -0.003111 -714729.000000 0 1 0
-12.822015 -9.724905 19.300819 25.129653 0.648890 0.695006 0.018861 -0.008984 225181.000000 0 0 1
-14.000815 -10.417905 19.731819 26.341987 0.639710 0.724149 0.012839 -0.010286 364258.000000 0 0 1
-14.839515 -9.614905 20.536119 27.099627 0.574916 0.710860 0.010158 -0.004750 -211931.000000 0 0 1
-16.273115 -10.236805 20.759119 28.293948 0.561515 0.747053 -0.002240 0.000675 1393060.000000 0 0 1
-17.252015 -10.165305 19.699019 28.089443 0.532458 0.793582 0.005003 0.000551 823368.000000 0 0 1
-17.560715 -8.908605 19.140419 27.460838 0.469473 0.799580 -0.000859 0.000423 -1298170.000000 0 0 1
-18.678815 -8.862005 18.143619 27.506803 0.442993 0.850503 0.008447 -0.000357 619657.000000 0 0 1
-20.037515 -9.013205 18.637119 28.811145 0.422701 0.867321 0.001389 0.006542 936065.000000 0 0 1
-20.933215 -9.247305 17.587319 28.862189 0.415974 0.915549 0.011828 0.014314 -632400.000000 0 0 1
-22.305715 -9.591605 18.150819 30.314948 0.406104 0.928867 0.008571 0.019315 -610302.000000 0 0 1
-22.912715 -8.529805 18.827319 30.858030 0.356378 0.914575 0.005563 0.024558 658885.000000 0 0 1
-24.284915 -8.747405 19.158919 32.145581 0.345732 0.932280 0.003729 0.026513 492749.000000 0 0 1
-24.959915 -7.498705 19.764819 32.708959 0.291851 0.921956 0.014362 0.022525 -358573.000000 0 0 1
-24.764415 -7.284205 21.135819 33.362535 0.286072 0.884703 0.009244 0.016956 43332.700000 0 0 1
-25.611055 -6.337605 21.728119 34.178978 0.242583 0.881861 0.013898 0.012881 -599941.000000 0 0 1
-25.704965 -6.482905 23.280519 35.281098 0.247052 0.850166 0.008020 0.006759 412626.000000 0 0 1
-24.569715 -6.174005 24.088419 34.957706 0.246188 0.810587 0.001731 0.003461 697392.000000 0 0 1
-23.500315 -7.130105 24.069319 34.386558 0.294577 0.795451 0.004252 0.012063 929783.000000 0 0 1
-22.363915 -6.805005 25.129049 34.320867 0.295383 0.749279 0.008294 0.010283 695112.000000 0 0 1
-21.773515 -5.532005 25.045969 33.645054 0.248806 0.731134 0.005983 0.006618 584577.000000 0 0 1
-20.956215 -5.238105 26.215399 33.968336 0.244936 0.689192 0.011748 -0.003007 444385.000000 0 0 1
-20.548415 -3.710605 26.192539 33.497091 0.178653 0.673033 0.015020 -0.010272 -38999.900000 0 0 1
-19.458315 -3.350705 27.014599 33.461050 0.170527 0.631158 0.006614 -0.007076 -169379.000000 0 0 1
-19.602915 -3.417405 28.419159 34.692961 0.172597 0.610848 0.010404 -0.015406 -47100.500000 0 0 1
-20.566415 -2.391105 29.114359 35.725911 0.115743 0.618176 0.012519 -0.024287 -395195.000000 0 0 1
-21.888215 -2.565205 28.772079 36.242334 0.116664 0.653632 0.017535 -0.021409 -1207080.000000 0 0 1
-22.705115 -1.480405 29.158389 36.985477 0.065109 0.662635 0.006732 -0.013954 469036.000000 0 0 1
-23.934815 -1.232205 28.249059 37.045959 0.051436 0.703565 0.007265 -0.012007 -398341.000000 0 0 1
-23.637015 -0.578005 27.058879 35.933627 0.024448 0.718151 -0.001048 -0.013228 417773.000000 0 0 1
-24.760015 -0.296705 26.210219 36.057204 0.011983 0.756990 -0.000857 -0.008464 195375.000000 0 0 1
-25.469605 -1.418905 25.437479 36.024706 0.055652 0.786804 -0.005890 -0.009988 359093.000000 0 0 1
-26.622515 -1.945105 26.110419 37.340270 0.072933 0.796440 -0.004870 -0.006647 469395.000000 0 0 1
-26.752355 -3.369605 26.016979 37.469000 0.125296 0.803266 -0.011035 -0.000586 -273128.000000 0 0 1
-25.593285 -4.258205 26.512449 37.095263 0.164870 0.774583 0.000168 -0.013293 -97538.600000 0 0 1
-25.464725 -4.333405 27.919369 38.035797 0.168558 0.746561 0.004602 -0.011832 -598863.000000 0 0 1
-24.404615 -5.187705 28.175939 37.634839 0.209453 0.724748 0.005278 -0.009137 -518018.000000 0 0 1
-24.198115 -5.622605 29.692029 38.714068 0.228306 0.696711 -0.003327 -0.007031 383320.000000 0 0 1
-25.315315 -6.362105 30.188999 39.908862 0.246215 0.712930 0.001338 -0.007709 486756.000000 0 0 1
-24.880115 -7.105105 31.274989 40.590979 0.278170 0.691185 0.014103 -0.005724 536335.000000 0 0 1
-26.067795 -7.830105 32.025469 42.029409 0.291800 0.704435 0.009463 -0.008848 708261.000000 0 0 1
-26.835085 -8.670905 31.175499 42.038294 0.312529 0.735348 0.004464 -0.007817 222644.000000 0 0 1
-27.971635 -9.161905 31.865309 43.379152 0.316530 0.745754 0.015614 -0.003997 199995.000000 0 0 1
-28.909555 -9.946305 30.891369 43.462260 0.331363 0.780214 0.009881 -0.011296 -295288.000000 0 0 1
-28.478665 -11.302605 30.585849 43.292926 0.377814 0.786276 0.011061 -0.012961 336275.000000 0 0 1
-29.382025 -12.075005 29.838339 43.582515 0.389924 0.816686 0.006209 -0.007015 -434482.000000 0 0 1
-28.666755 -13.325705 29.352319 43.138335 0.435133 0.822456 0.009083 -0.011253 -357655.000000 0 0 1
-27.828725 -13.003805 28.270579 41.746408 0.437131 0.826849 0.009167 -0.004866 -245253.000000 0 0 1
-26.947705 -14.088005 28.024639 41.352522 0.481713 0.826165 0.005180 -0.002777 554862.000000 0 0 1
-25.559035 -13.496005 27.559159 39.936371 0.485821 0.809201 0.003067 0.002205 821516.000000 0 0 1
-24.723415 -12.755305 28.507429 39.832381 0.476302 0.773192 0.002652 -0.006564 150535.000000 0 0 1
-25.180685 -11.544305 29.077149 40.159912 0.429866 0.761163 0.007378 -0.005756 -1117190.000000 0 0 1
-25.327585 -10.204705 28.226219 39.272663 0.383011 0.768830 0.000639 0.001703 446982.000000 0 0 1
-24.073915 -9.689705 27.775509 38.012139 0.382658 0.751448 0.000980 0.010176 195535.000000 0 0 1
-23.333015 -10.449905 26.887949 37.102452 0.421072 0.760205 -0.004953 0.008751 -587310.000000 0 0 1
-23.837915 -10.407905 25.401179 36.356438 0.411664 0.797258 -0.002243 0.023772 565436.000000 0 0 1
-25.086295 -11.091705 25.166579 37.225057 0.416300 0.828386 -0.002977 0.013339 222585.000000 0 0 1
-25.415685 -10.844305 23.841119 36.495958 0.403291 0.858922 -0.010905 0.023925 292380.000000 0 0 1
-26.852895 -11.399205 23.513019 37.468412 0.401452 0.892404 0.000871 0.013000 1039940.000000 0 0 1
-27.982625 -10.780205 24.094619 38.468049 0.367723 0.893929 0.001586 0.007195 -43961.400000 0 0 1
-28.091725 -10.947305 25.556289 39.523568 0.371594 0.867666 0.001039 0.001425 -1143700.000000 0 0 1
-29.546085 -10.727105 25.988369 40.785258 0.348265 0.879937 0.005821 -0.003237 -505017.000000 0 0 1
-30.120225 -9.526605 25.494219 40.594820 0.306330 0.891794 0.008816 -0.005911 843813.000000 0 0 1
-31.512005 -9.291005 25.791649 41.767672 0.286716 0.905233 0.011791 -0.006355 1134330.000000 0 0 1
-32.066295 -9.253005 27.282309 43.106726 0.280927 0.885501 0.006116 -0.005350 -555780.000000 0 0 1
-32.144885 -10.511305 27.847919 43.809677 0.316038 0.881937 0.004838 -0.013742 348434.000000 0 0 1
-32.922715 -10.399005 29.042149 45.116415 0.305944 0.871452 0.005489 -0.010306 -900457.000000 0 0 1
-33.339905 -11.755105 29.642409 46.134631 0.338975 0.873014 0.008468 -0.002753 373360.000000 0 0 1
-34.508638 -12.344505 29.077309 46.783788 0.343538 0.900108 0.006295 -0.000894 559897.000000 0 0 1
33.995574 -11.705705 29.320129 46.393885 -0.331615 0.886687 0.001819 -0.000888 -260563.000000 0 0 1
32.801568 -12.482205 28.677309 45.322582 -0.363616 0.885713 -0.001992 0.002778 249989.000000 0 0 1
32.643418 -12.125605 27.300949 44.248897 -0.355660 0.905889 0.006552 0.006567 -177437.000000 0 0 1
31.537518 -12.747005 26.694579 43.240048 -0.384109 0.905417 0.000817 0.017159 -282798.000000 0 0 1
31.445468 -12.312505 25.247419 42.164528 -0.373202 0.928815 0.007370 0.009408 123798.000000 0 0 1
30.816058 -11.036605 25.141189 41.273666 -0.343912 0.915828 0.007675 0.004490 230324.000000 0 0 1
31.007808 -10.603305 23.791119 40.496069 -0.329491 0.942840 0.010277 0.003259 -181920.000000 0 0 1
30.752968 -9.119005 23.741019 39.906607 -0.288265 0.933637 -0.007622 0.023257 994450.000000 0 0 1
29.408208 -8.644905 23.968719 38.911137 -0.285908 0.907159 -0.006988 0.019879 578080.000000 0 0 1
29.320418 -7.319405 23.505219 38.285192 -0.244635 0.909740 -0.009188 0.026066 492289.000000 0 0 1
27.830388 -6.841805 23.313919 36.944278 -0.241059 0.887882 -0.008041 0.029729 887312.000000 0 0 1
27.089378 -7.551005 22.342719 35.917255 -0.271844 0.899424 -0.015501 0.028314 220992.000000 0 0 1
26.379778 -8.633005 22.972619 36.030025 -0.316273 0.879422 -0.022979 0.017126 -390917.000000 0 0 1
13.842885 -17.523705 26.761789 34.855402 -0.902212 0.695405 -0.006938 0.022548 -385666.000000 0 0 1
13.313185 -18.730105 26.351829 34.963933 -0.952865 0.717144 -0.015346 0.028439 -117575.000000 0 0 1
14.184685 -19.854905 26.256419 35.844415 -0.950460 0.748793 -0.006625 0.026054 -522408.000000 0 0 1
13.480785 -21.252005 26.165679 36.304573 -1.005516 0.765946 -0.026355 0.015559 178220.000000 0 0 1
12.832685 -21.745605 27.298759 37.185634 -1.037667 0.746425 -0.028243 0.011211 559808.000000 0 0 1
11.634185 -21.096305 27.736999 36.738937 -1.066818 0.715179 -0.014683 0.013374 57309.100000 0 0 1
11.166285 -21.641705 29.112029 37.954704 -1.094461 0.696612 -0.022843 0.010104 -559214.000000 0 0 1
11.554985 -20.943205 30.295789 38.600134 -1.066626 0.668322 -0.023689 0.009638 550889.000000 0 0 1
10.678085 -19.895905 30.860789 38.239467 -1.078223 0.631674 -0.018329 0.010549 152097.000000 0 0 1
10.661185 -18.508705 30.176989 36.971390 -1.048204 0.615949 -0.024488 0.017424 -472118.000000 0 0 1
11.780585 -17.716305 30.357209 37.070336 -0.983978 0.611290 -0.036472 0.029442 -812362.000000 0 0 1
11.474185 -16.397305 29.975189 36.042204 -0.960231 0.588689 -0.023246 0.024400 -134660.000000 0 0 1
12.434585 -15.300205 30.427359 36.256577 -0.888355 0.574943 -0.028782 0.016102 23111.200000 0 0 1
11.980985 -14.052505 29.876059 35.122583 -0.864802 0.553628 -0.001180 0.015171 493967.000000 0 0 1
12.607485 -12.916105 30.547089 35.480968 -0.797489 0.533676 0.001078 0.016769 -105567.000000 0 0 1
12.161885 -11.589705 30.002549 34.385835 -0.761313 0.510447 0.012863 0.009994 7785.380000 0 0 1
12.643385 -11.128505 28.729639 33.303017 -0.721759 0.530264 0.023212 0.015725 -344300.000000 0 0 1
14.028685 -11.027805 28.571239 33.685786 -0.666201 0.558277 0.020276 0.021972 -595073.000000 0 0 1
14.415485 -10.209205 27.257029 32.480451 -0.616215 0.575018 0.017654 0.019104 114137.000000 0 0 1
14.343685 -8.776905 27.398049 32.146982 -0.549124 0.550478 0.017878 0.018727 -332368.000000 0 0 1
15.523585 -8.286805 27.954469 33.031881 -0.490336 0.561819 0.020293 0.014233 -760954.000000 0 0 1
15.972785 -6.834905 27.724129 32.718086 -0.404332 0.559795 0.012937 0.013382 -1425400.000000 0 0 1
17.209685 -6.491405 28.171279 33.644206 -0.360694 0.578417 0.005381 0.011312 -1322930.000000 0 0 1
17.581685 -5.254705 27.608999 33.150934 -0.290423 0.586601 0.000973 0.010625 -226027.000000 0 0 1
19.098685 -4.969305 27.508129 33.854851 -0.254547 0.622315 0.004340 0.007470 -873690.000000 0 0 1
19.546185 -5.997905 26.655499 33.593807 -0.297737 0.654316 -0.000304 0.015415 -371708.000000 0 0 1
20.872385 -5.923905 26.200639 34.017975 -0.276543 0.691642 -0.001383 0.018669 11524.700000 0 0 1
21.955185 -6.235405 27.277149 35.566182 -0.276720 0.696736 0.003513 0.006820 -766778.000000 0 0 1
22.255285 -5.131905 28.097519 36.209180 -0.226631 0.682533 0.011974 0.000484 183832.000000 0 0 1
23.159985 -5.375505 29.178919 37.638946 -0.228065 0.683714 0.008185 -0.009670 -31758.000000 0 0 1
23.585585 -4.118105 29.844229 38.261163 -0.172860 0.676109 0.016690 -0.010565 115116.000000 0 0 1
24.581185 -3.387905 29.112779 38.252666 -0.136962 0.705842 0.014433 -0.001186 570037.000000 0 0 1
24.554385 -2.023705 29.490369 38.427790 -0.082231 0.695984 0.017803 -0.007612 -341810.000000 0 0 1
25.497285 -1.231105 28.581129 38.321118 -0.048246 0.729013 0.018065 -0.005219 -591808.000000 0 0 1
26.855085 -1.511705 28.705719 39.338266 -0.056232 0.752891 0.013306 -0.003255 -767936.000000 0 0 1
27.595385 -0.907205 27.665079 39.085610 -0.032863 0.784407 0.006953 0.011482 -901609.000000 0 0 1
29.059985 -0.872805 27.995189 40.360564 -0.030026 0.804284 -0.001122 0.001425 -976758.000000 0 0 1
29.502785 0.132895 28.901849 41.300713 0.004504 0.795692 -0.011814 0.002542 -217547.000000 0 0 1
30.894885 0.139695 29.091209 42.435974 0.004522 0.815462 -0.009364 -0.002302 -107956.000000 0 0 1
31.394385 1.170395 30.112219 43.516927 0.037263 0.806588 0.002924 -0.005933 -231108.000000 0 0 1
31.479985 2.464395 29.526389 43.230433 0.078125 0.818934 -0.006895 -0.003598 -49628.600000 0 0 1
31.726485 3.477695 30.516779 44.158103 0.109179 0.807814 -0.008654 -0.001618 -232049.000000 0 0 1
31.942485 4.836395 29.914159 44.029195 0.150268 0.823829 -0.006344 -0.001497 25426.700000 0 0 1
31.968485 5.885995 30.876319 44.832757 0.182079 0.811102 -0.006005 0.000518 113917.000000 0 0 1
30.659285 6.290595 31.241809 44.222324 0.202369 0.786296 -0.003601 -0.003105 -16125.500000 0 0 1
30.475685 7.344195 32.294519 45.007117 0.236477 0.770529 0.000685 -0.007455 -246385.000000 0 0 1
30.648585 6.654095 33.524019 45.907217 0.213791 0.752100 -0.002585 0.000950 93780.100000 0 0 1
30.913885 7.583195 34.516825 46.953002 0.240551 0.744930 0.003206 -0.005856 -281186.000000 0 0 1
31.326685 6.908495 -33.439763 46.339036 0.217056 2.376954 0.008822 0.001489 389115.000000 0 0 1
30.248685 6.303695 -32.690583 44.982149 0.205455 2.384369 0.007831 -0.002782 472929.000000 0 0 1
30.132885 4.885395 -32.877833 44.864348 0.160730 2.393265 0.010769 0.000556 -31578.500000 0 0 1
30.972885 3.900795 -32.010213 44.712297 0.125283 2.368730 0.006836 -0.000035 -123820.000000 0 0 1
30.786185 2.585795 -32.444573 44.800958 0.083795 2.380661 0.009974 -0.003576 159571.000000 0 0 1
31.293585 1.704595 -31.464093 44.409270 0.054417 2.358171 0.005986 0.003380 -16822.400000 0 0 1
31.055185 0.208395 -31.737883 44.404517 0.006710 2.367055 0.007037 -0.001438 -295706.000000 0 0 1
31.964585 -0.302905 -32.684933 45.717954 -0.009476 2.367314 0.003519 -0.004979 -133969.000000 0 0 1
32.163485 -1.726705 -32.631123 45.850425 -0.053634 2.362692 -0.000678 -0.007343 267958.000000 0 0 1
33.049485 -2.276405 -31.447513 45.677090 -0.068770 2.330180 0.003516 -0.008845 93621.800000 0 0 1
32.428385 -2.198705 -30.213353 44.376583 -0.067698 2.319705 0.018809 -0.006075 -359300.000000 0 0 1
33.404685 -1.976905 -29.227333 44.429924 -0.059112 2.288730 0.031609 -0.011457 126379.000000 0 0 1
32.792085 -1.601505 -27.825073 43.036268 -0.048799 2.273849 0.027729 -0.005783 148867.000000 0 0 1
32.245685 -0.276405 -27.810303 42.582550 -0.008572 2.282456 0.019936 -0.003032 139880.000000 0 0 1
31.829285 0.089395 -26.541193 41.443290 0.002809 2.265844 0.009700 0.005904 -281919.000000 0 0 1
31.281985 1.528695 -26.381423 40.949713 0.048829 2.270825 0.003403 0.007638 914861.000000 0 0 1
30.195685 1.781095 -27.318413 40.758402 0.058917 2.305345 -0.003339 0.003539 797294.000000 0 0 1
29.841585 3.114795 -27.340923 40.592465 0.104001 2.309793 -0.003677 0.014117 26739.200000 0 0 1
28.996585 3.410495 -28.613883 40.880163 0.117079 2.346117 -0.003791 0.012453 9817.210000 0 0 1
28.425985 4.687595 -28.636693 40.621058 0.163434 2.353179 -0.004710 0.009906 -176430.000000 0 0 1
27.580385 4.800795 -29.747043 40.848645 0.172339 2.386526 0.008684 0.005379 -269971.000000 0 0 1
26.424785 5.797795 -29.453953 39.992737 0.215985 2.398652 0.012549 0.000877 392305.000000 0 0 1
25.380685 5.132295 -28.702633 38.656963 0.199522 2.407585 0.009553 0.003838 782984.000000 0 0 1
24.452985 6.111095 -28.212303 37.831574 0.244896 2.412433 0.012043 0.002349 272559.000000 0 0 1
23.085185 5.502795 -27.786983 36.542071 0.234002 2.434742 0.010818 0.007035 -105233.000000 0 0 1
22.294885 5.229795 -28.895003 36.869145 0.230408 2.471425 0.021218 0.002571 -56344.300000 0 0 1
20.993685 4.824195 -28.484583 35.712451 0.225871 2.494118 0.028336 -0.000876 336302.000000 0 0 1
20.132885 4.435195 -29.719903 36.170107 0.216833 2.535132 0.009508 0.008705 -82796.400000 0 0 1
20.331185 3.120095 -30.119963 36.473336 0.152276 2.542429 0.008216 0.010569 113284.000000 0 0 1
19.594185 2.678295 -31.270853 36.999616 0.135846 2.577674 -0.002882 0.012026 10327.900000 0 0 1
19.838785 3.361895 -32.618143 38.325226 0.167866 2.588851 -0.003479 0.015353 -305538.000000 0 0 1
21.044585 2.959595 -33.198653 39.418071 0.139718 2.572182 0.012155 0.013413 -473176.000000 0 0 1
20.871185 3.201095 -34.565415 40.504583 0.152188 2.593213 0.019132 0.011542 780158.000000 0 0 1
22.232685 3.052795 33.920628 40.672114 0.136458 0.584475 0.017419 0.004581 826528.000000 0 0 1
22.702485 1.689095 33.946723 40.873413 0.074265 0.590732 0.028456 -0.009234 96958.900000 0 0 1
23.977685 1.613295 33.333385 41.093146 0.067182 0.624652 0.024372 -0.009160 -241997.000000 0 0 1
24.400485 0.185195 32.916869 40.974849 0.007590 0.637908 0.014872 -0.013762 -233598.000000 0 0 1
23.664385 -0.480505 31.873789 39.701038 -0.020302 0.638744 0.017720 -0.008318 1435200.000000 0 0 1
22.281085 -0.758605 32.223459 39.183843 -0.034034 0.605239 0.019669 -0.008229 362671.000000 0 0 1
21.913385 -1.874905 33.195823 39.820527 -0.085352 0.585138 0.017690 -0.014368 -577490.000000 0 0 1
22.023485 -3.203905 32.695569 39.551222 -0.144463 0.597643 0.008182 -0.017680 267640.000000 0 0 1
21.421585 -4.113005 33.605532 40.064110 -0.189694 0.575732 0.012225 -0.011022 96717.000000 0 0 1
21.214785 -5.552205 33.161409 39.756423 -0.255973 0.584271 0.009779 -0.004294 -271493.000000 0 0 1
22.462285 -6.173005 33.124659 40.495719 -0.268196 0.612907 0.013472 -0.005655 -541949.000000 0 0 1
22.348385 -7.549805 32.821079 40.418722 -0.325786 0.623180 0.016244 -0.008450 -1105310.000000 0 0 1
23.613585 -8.385405 32.600699 41.118390 -0.341219 0.655325 0.004855 -0.004486 -408615.000000 0 0 1
24.060685 -8.006405 31.307199 40.288457 -0.321233 0.680789 -0.001047 -0.005885 -189783.000000 0 0 1
25.295185 -8.589605 30.954059 40.887424 -0.327357 0.712001 -0.010689 -0.003582 166833.000000 0 0 1
25.893185 -8.180905 29.593869 40.164429 -0.306023 0.742445 -0.010119 0.001171 44615.800000 0 0 1
25.028985 -8.610705 28.579519 38.953604 -0.331346 0.747073 -0.021784 0.009042 -359939.000000 0 0 1
25.586785 -8.405805 27.345249 38.381034 -0.317414 0.777788 -0.010175 0.019068 -554098.000000 0 0 1
24.989485 -9.264305 26.272429 37.423819 -0.355020 0.792560 -0.021421 0.015420 -234504.000000 0 0 1
23.664585 -8.945005 25.921029 36.220511 -0.361391 0.773249 -0.022335 0.009748 -222165.000000 0 0 1
23.235685 -9.856905 24.966319 35.501728 -0.401205 0.790848 -0.016426 0.007219 -1230350.000000 0 0 1
21.866085 -9.504105 24.443749 34.146018 -0.410016 0.772942 -0.022281 0.015989 -1604600.000000 0 0 1
20.927285 -9.787505 25.388379 34.326612 -0.437468 0.738302 -0.021212 0.018487 -572439.000000 0 0 1
19.667585 -9.183605 25.079089 33.167955 -0.436853 0.713426 -0.007716 0.017102 516316.000000 0 0 1
18.771385 -9.210805 26.339779 33.630162 -0.456166 0.670970 0.007153 0.004656 -211443.000000 0 0 1
17.975785 -10.351005 26.614129 33.742911 -0.522458 0.662052 0.006076 0.015982 252048.000000 0 0 1
18.700785 -11.342805 27.353759 35.022946 -0.545216 0.674493 0.000490 0.017935 395874.000000 0 0 1
17.869985 -12.469405 28.121229 35.575637 -0.609238 0.659232 0.013105 0.012917 564481.000000 0 0 1
17.019985 -13.285105 27.326839 34.827145 -0.662774 0.668678 0.010171 0.013523 1412080.000000 0 0 1
16.047685 -14.176805 27.994979 35.245267 -0.723578 0.652958 0.011650 0.017451 1127360.000000 0 0 1
16.722985 -15.353005 28.779209 36.655366 -0.742714 0.667891 0.020422 0.020503 -333757.000000 0 0 1
15.848085 -16.195305 29.526949 37.219490 -0.796234 0.654554 0.011775 0.019118 -49974.700000 0 0 1
16.412085 -17.312105 30.188709 38.476274 -0.812079 0.668736 0.013207 0.016565 -554891.000000 0 0 1
16.899485 -18.459105 29.238039 38.486284 -0.829478 0.707944 0.011263 0.022209 -79948.700000 0 0 1
17.952085 -18.140905 28.366409 38.157869 -0.790630 0.732663 0.021896 0.019942 -115422.000000 0 0 1
18.365185 -19.262405 27.736129 38.439734 -0.809238 0.764760 0.013492 0.018853 -510820.000000 0 0 1
19.345685 -19.053205 26.585019 38.000571 -0.777781 0.795965 0.016016 0.015114 -153281.000000 0 0 1
20.632985 -18.727405 27.068299 38.847504 -0.737022 0.799893 0.036888 0.006131 -411897.000000 0 0 1
21.509285 -18.392305 26.045179 38.461378 -0.707440 0.826876 0.020485 0.006105 37067.500000 0 0 1
22.927985 -18.026305 26.559569 39.446811 -0.666278 0.832132 0.019921 0.001960 179825.000000 0 0 1
23.651985 -19.169205 26.961029 40.666594 -0.681092 0.846008 0.021148 -0.004542 253641.000000 0 0 1
25.047285 -18.891405 26.973379 41.374084 -0.646203 0.860658 0.011504 -0.013383 -101302.000000 0 0 1
25.858685 -20.153205 27.193709 42.594848 -0.662028 0.878343 -0.014363 -0.012956 -473208.000000 0 0 1
25.622485 -20.800305 28.428259 43.558355 -0.681894 0.859723 -0.008995 -0.006156 51277.900000 0 0 1
26.308385 -22.015505 28.482379 44.587661 -0.696795 0.877865 -0.013736 -0.013289 -546736.000000 0 0 1
25.630285 -22.896905 29.460299 45.266864 -0.729131 0.862141 -0.000089 -0.009079 -370904.000000 0 0 1
25.789485 -22.673705 30.851119 46.162604 -0.721195 0.838856 0.012663 -0.012393 -139016.000000 0 0 1
25.306685 -23.818405 31.525319 46.921109 -0.755112 0.834053 0.025284 -0.008270 -796811.000000 0 0 1
24.815485 -23.568205 32.961459 47.515538 -0.759625 0.804185 0.017128 -0.008400 -16253.600000 0 0 1
24.430485 -24.773405 33.601881 48.369997 -0.792367 0.802815 0.009615 -0.010791 -90544.700000 0 0 1
23.990485 -24.564105 -34.352894 48.570155 -0.797212 2.356445 0.025214 -0.007121 -536687.000000 0 0 1
23.637785 -25.883995 -33.551143 48.522214 -0.830725 2.334304 0.015720 -0.003798 -122110.000000 0 0 1
22.364985 -26.439225 -33.750583 48.356251 -0.868686 2.343337 0.023740 -0.000542 -517343.000000 0 0 1
22.086385 -26.881035 34.202406 48.787324 -0.883002 0.793926 0.028368 -0.004705 -776760.000000 0 0 1
20.712085 -27.503055 34.034442 48.412310 -0.925325 0.791172 0.027361 -0.011439 -346716.000000 0 0 1
20.835785 -28.914225 34.225959 49.412333 -0.946374 0.805625 0.015266 -0.003007 24804.900000 0 0 1
19.656685 -29.591405 33.899723 49.104254 -0.984455 0.808807 0.015633 -0.001601 -159175.000000 0 0 1
19.853585 -31.123035 34.206249 50.327682 -1.002970 0.823483 0.002716 -0.005054 -23696.100000 0 0 1
20.357885 -31.345905 -33.767723 50.371305 -0.994801 2.305512 -0.001093 -0.004798 131400.000000 0 0 1
20.723785 -32.688435 -33.724893 51.335927 -1.005766 2.287556 -0.021095 0.002424 -124706.000000 0 0 1
21.483585 -32.992305 -32.415003 50.997735 -0.993599 2.259603 -0.011845 0.005262 -479355.000000 0 0 1
22.176085 -34.238637 -32.460513 52.132024 -0.996045 2.242934 -0.023143 0.007577 492214.000000 0 0 1
22.730585 -34.599864 -31.170393 51.821071 -0.989547 2.216174 -0.015377 0.005214 1173870.000000 0 0 1
24.074485 -33.855785 -30.750503 51.685476 -0.952667 2.208005 -0.011943 0.002348 465121.000000 0 0 1
24.461385 -33.973905 -29.364303 51.135583 -0.946770 2.182477 0.004267 0.000932 -849126.000000 0 0 1
25.531385 -33.170285 -29.054203 50.953568 -0.914802 2.177557 0.000825 0.003997 -779336.000000 0 0 1
25.991485 -33.182645 -27.529973 50.344261 -0.906331 2.149375 0.004458 -0.000491 -285778.000000 0 0 1
26.922685 -34.142670 -27.226163 51.301236 -0.903086 2.130236 0.006076 0.008622 -912720.000000 0 0 1
27.562585 -33.872125 -26.026003 50.836697 -0.887743 2.108253 0.004918 0.003617 248161.000000 0 0 1
-25.424705 -30.943401 9.338277 41.123146 0.882992 1.341717 0.020225 -0.009777 -245336.000000 0 0 1
-25.583555 -32.140701 10.033577 42.287299 0.898508 1.331240 0.014979 -0.013994 112003.000000 0 0 1
-24.456715 -32.551101 10.803077 42.123765 0.926443 1.311438 0.001994 -0.012513 272845.000000 0 0 1
-24.693715 -33.925701 11.520277 43.513786 0.941605 1.302852 -0.007201 -0.005096 67239.900000 0 0 1
-24.623915 34.379795 10.801477 43.646070 -0.949259 1.320719 -0.007474 -0.000687 37225.700000 0 0 1
-25.075205 33.275195 11.588577 43.246961 -0.925014 1.299518 -0.015908 -0.000207 130845.000000 0 0 1
-24.899515 31.962495 10.817777 41.935799 -0.908978 1.309886 -0.009575 0.003210 -50036.700000 0 0 1
-25.568735 31.909295 9.595677 42.000481 -0.895267 1.340295 -0.008667 -0.000394 -212451.000000 0 0 1
-25.642105 30.667695 8.962477 40.967684 -0.874411 1.350243 -0.007552 0.001187 -64144.600000 0 0 1
-24.772315 30.595395 7.672977 40.107610 -0.890184 1.378300 -0.010698 0.004858 189933.000000 0 0 1
-23.387015 30.441295 7.888377 39.189940 -0.915707 1.368126 -0.012918 -0.001802 -528357.000000 0 0 1
-22.727115 30.287895 6.693877 38.453691 -0.927059 1.395829 -0.021141 -0.003905 -697803.000000 0 0 1
-21.439515 29.503895 6.978577 37.132643 -0.942396 1.381736 0.013598 -0.000996 -554136.000000 0 0 1
-21.573715 28.122895 7.202677 36.169061 -0.916426 1.370317 0.004539 -0.005186 -1791.310000 0 0 1
-21.899515 27.392695 6.052477 35.589057 -0.896381 1.399900 0.002303 -0.005849 -577455.000000 0 0 1
-22.342315 25.946995 6.356977 34.825806 -0.859908 1.387231 -0.003958 -0.004751 -82188.700000 0 0 1
-23.499715 25.792095 7.188677 35.625074 -0.831871 1.367614 -0.008156 -0.010011 427391.000000 0 0 1
-23.739215 24.421995 7.555877 34.886609 -0.799574 1.352482 -0.005873 -0.012457 -34963.800000 0 0 1
-24.345315 23.487695 6.446677 34.437274 -0.767471 1.382485 -0.007451 -0.019202 800193.000000 0 0 1
-25.707015 23.750795 6.012077 35.511913 -0.745865 1.400680 -0.006087 -0.018055 1249790.000000 0 0 1
-26.059065 22.995195 4.907977 35.099033 -0.723020 1.430504 0.001540 -0.016364 -62889.100000 0 0 1
-25.898025 23.763695 3.605477 35.332993 -0.742447 1.468576 -0.005731 -0.019630 741820.000000 0 0 1
-24.499815 24.043095 3.351177 34.489734 -0.775990 1.473478 -0.005932 -0.018402 1307920.000000 0 0 1
-24.345415 24.987795 2.308177 34.963078 -0.798419 1.504731 -0.004258 -0.012860 209329.000000 0 0 1
-22.860915 25.419895 2.163377 34.255988 -0.838351 1.507601 0.011660 -0.008574 207510.000000 0 0 1
-22.535415 26.194295 1.004577 34.568703 -0.860343 1.541732 0.004103 -0.011409 -307432.000000 0 0 1
-21.181315 26.579495 1.002577 34.001807 -0.897946 1.541306 0.011632 -0.009354 -343161.000000 0 0 1
-20.755315 27.100895 -0.408323 34.138078 -0.917226 1.582758 0.014995 -0.006587 39804.900000 0 0 1
-20.505815 26.212895 -1.465923 33.312960 -0.906954 1.614815 0.011862 -0.007629 -1319830.000000 0 0 1
-19.267115 25.652595 -1.456123 32.115381 -0.926605 1.616152 0.021987 -0.005000 -1414590.000000 0 0 1
-19.120115 24.534695 -2.429123 31.199851 -0.908800 1.648732 0.022566 -0.015840 116908.000000 0 0 1
-20.170215 23.581795 -2.391823 31.123295 -0.863216 1.647722 0.001842 -0.008363 -64237.800000 0 0 1
-19.841415 22.571795 -3.349123 30.238788 -0.849685 1.681780 0.003670 -0.004697 -282155.000000 0 0 1
-21.002715 22.035995 -4.186823 30.728303 -0.809402 1.707474 -0.007350 -0.002283 -355244.000000 0 0 1
-21.509615 22.947495 -5.148223 31.870916 -0.817730 1.733041 -0.009584 -0.001475 207930.000000 0 0 1
-22.428215 22.311695 -6.045023 32.208367 -0.782794 1.759601 -0.014746 0.003203 311393.000000 0 0 1
-22.675715 23.113495 -7.296023 33.191169 -0.794959 1.792424 -0.008291 0.006179 -46572.300000 0 0 1
-21.660815 22.996595 -8.257223 32.652964 -0.815301 1.826450 -0.027677 0.007566 -63764.400000 0 0 1
-21.992715 23.793795 -9.400623 33.737160 -0.824714 1.853177 -0.015963 0.002829 125693.000000 0 0 1
-21.361415 23.310195 -10.754823 33.396729 -0.828995 1.898672 -0.021928 0.012865 132119.000000 0 0 1
-21.852615 22.055495 -11.163323 32.993961 -0.790019 1.915953 -0.027179 0.004440 116609.000000 0 0 1
-20.847715 21.491195 -11.980223 32.249410 -0.800595 1.951406 -0.022403 0.003135 77727.100000 0 0 1
-21.222415 21.214495 -13.443223 32.881088 -0.785212 1.991983 -0.004477 0.001986 -76515.300000 0 0 1
-22.278015 20.285995 -13.576223 33.047623 -0.738632 1.994136 -0.014221 0.012741 -42436.400000 0 0 1
-22.651215 20.193795 -14.924823 33.817411 -0.728105 2.027883 0.001696 -0.000750 399053.000000 0 0 1
-23.924115 19.350395 -15.248823 34.341341 -0.680098 2.030895 0.006763 -0.003885 657721.000000 0 0 1
-23.560015 18.297595 -16.167623 33.930346 -0.660332 2.067459 0.005347 -0.001182 1027680.000000 0 0 1
-24.730315 17.474995 -16.358823 34.417656 -0.615157 2.066105 0.027579 -0.003094 488424.000000 0 0 1
-24.468315 16.293195 -17.254123 34.086235 -0.587464 2.101558 0.037514 -0.003870 -304577.000000 0 0 1
-23.661015 15.271695 -16.721423 32.751707 -0.573161 2.106622 0.045545 0.004169 124000.000000 0 0 1
-23.331415 14.334895 -17.753223 32.634661 -0.550943 2.145992 0.035992 -0.006780 185954.000000 0 0 1
-22.475115 13.096695 -17.286023 31.232368 -0.527617 2.157315 0.030014 -0.000790 -649733.000000 0 0 1
-21.157315 13.371595 -16.986923 30.248754 -0.563623 2.167084 0.024221 0.002139 -870956.000000 0 0 1
-20.422815 12.189595 -17.157423 29.326691 -0.538109 2.195731 0.022450 0.000150 -356561.000000 0 0 1
-19.081915 12.114095 -16.422423 27.938625 -0.565649 2.199137 0.018800 0.006252 -221926.000000 0 0 1
-18.057615 12.946895 -16.914723 27.925032 -0.622029 2.221466 0.017737 0.010447 532676.000000 0 0 1
-17.144115 13.374795 -15.882323 26.926827 -0.662513 2.201648 0.023518 0.016336 614735.000000 0 0 1
-16.359315 14.678795 -16.348623 27.392913 -0.731307 2.210328 0.013772 0.021959 591347.000000 0 0 1
-15.387615 14.521895 -17.396423 27.391599 -0.756462 2.258935 0.026160 0.014139 577013.000000 0 0 1
-14.600515 15.682595 -17.596123 27.726204 -0.821115 2.258337 0.019792 0.014889 319171.000000 0 0 1
-13.563615 15.526195 -18.759023 27.873560 -0.852762 2.309059 0.008839 0.016090 922935.000000 0 0 1
-12.609515 14.474695 -18.542823 26.689941 -0.854156 2.338868 0.009272 0.016189 -354740.000000 0 0 1
-11.532415 14.538195 -19.410023 26.853393 -0.900185 2.378663 0.012679 0.012652 -220993.000000 0 0 1
-10.818615 13.184095 -19.505923 25.910304 -0.883632 2.423140 0.013503 0.002384 -260269.000000 0 0 1
-11.540015 12.254595 -20.214723 26.305552 -0.815420 2.447225 0.014281 0.014071 -394896.000000 0 0 1
-11.037315 10.963295 -19.994223 25.333478 -0.782034 2.480369 -0.001790 0.019011 -267583.000000 0 0 1
-11.536415 9.773895 -20.901723 25.797285 -0.702879 2.515340 -0.000846 0.015121 76813.700000 0 0 1
-11.019115 9.838895 -22.229423 26.690298 -0.728875 2.555061 0.008329 0.011232 45446.300000 0 0 1
-11.403115 8.700995 -22.940923 27.055948 -0.651793 2.582821 0.004905 0.017725 -74333.400000 0 0 1
-11.279115 8.860795 -24.527223 28.413321 -0.665894 2.612429 0.007673 0.006231 115045.000000 0 0 1
-9.963815 9.142595 -24.997323 28.420606 -0.742443 2.645710 0.004115 0.006134 102324.000000 0 0 1
-9.861115 8.399695 -26.209173 29.235547 -0.705538 2.682563 -0.000668 0.004816 -344871.000000 0 0 1
-9.648315 9.393495 -27.362073 30.496078 -0.772017 2.684258 0.005354 0.007269 459020.000000 0 0 1
-8.361315 10.016995 -27.460773 30.403056 -0.875244 2.698020 -0.004256 0.011435 688215.000000 0 0 1
-8.084715 11.128295 -26.608803 29.953797 -0.942505 2.664488 -0.008839 0.009685 773760.000000 0 0 1
-6.565315 11.526795 -26.758373 29.866049 -1.053053 2.681353 -0.004363 0.007567 860758.000000 0 0 1
-6.208915 12.229195 -27.924603 31.110887 -1.100998 2.685052 -0.020053 0.011941 248757.000000 0 0 1
-4.828915 12.533095 -28.027343 31.079396 -1.203032 2.694709 -0.005798 0.005077 71668.000000 0 0 1
-4.300415 12.924295 -29.423393 32.423248 -1.249581 2.708038 -0.006602 0.005511 -299160.000000 0 0 1
-2.937215 13.289895 -29.410553 32.407240 -1.353282 2.708162 -0.005486 -0.001943 -44895.700000 0 0 1
-2.332515 13.138395 -30.658313 33.436361 -1.395093 2.731078 -0.006825 0.000429 -204794.000000 0 0 1
-0.802515 13.145295 -30.540783 33.259318 -1.509822 2.734466 -0.000210 0.001369 -200234.000000 0 0 1
-0.255715 11.937095 -29.992043 32.281299 -1.549378 2.762725 -0.003797 0.013472 1599500.000000 0 0 1
1.199485 11.829795 -30.033843 32.301928 1.469746 2.764624 0.009450 0.010642 1530750.000000 0 0 1
1.692185 10.920195 -31.194093 33.093588 1.417060 2.801136 0.007397 0.016390 -331925.000000 0 0 1
1.647685 11.525495 -32.463453 34.488080 1.428798 2.797242 0.011815 -0.001548 294478.000000 0 0 1
1.880185 10.639495 -33.536563 35.234004 1.395885 2.829926 0.003339 0.003036 -150526.000000 0 0 1
2.020785 11.345895 34.348576 36.230341 1.394537 0.323712 0.009451 0.005582 -398736.000000 0 0 1
3.175285 12.127595 34.235594 36.458701 1.314721 0.351016 0.004513 0.003766 -438988.000000 0 0 1
3.087785 12.926595 33.071199 35.641766 1.336319 0.382116 0.015347 0.006833 -411409.000000 0 0 1
4.423385 13.303095 32.441929 35.341441 1.249789 0.407897 0.018141 0.011326 -734987.000000 0 0 1
5.029285 12.231795 31.843939 34.481111 1.180702 0.393642 0.005715 0.008808 -137510.000000 0 0 1
6.345885 12.537095 31.433059 34.430891 1.102226 0.420385 0.019538 0.012497 92650.800000 0 0 1
7.183485 11.297895 30.989789 33.758139 1.004451 0.407802 0.006630 0.014640 24640.500000 0 0 1
6.850285 10.820295 29.696049 32.339767 1.006396 0.407153 0.000881 0.007533 11735.800000 0 0 1
7.701585 9.773995 29.322249 31.853410 0.903436 0.401343 0.001187 0.006508 -98417.600000 0 0 1
7.067185 8.924195 28.219599 30.429133 0.901006 0.383428 0.003732 0.007396 -3769.930000 0 0 1
6.293385 7.885995 28.755179 30.473857 0.897248 0.337451 0.010988 -0.001187 -182615.000000 0 0 1
5.777385 7.072295 27.697369 29.164016 0.885833 0.318487 0.025293 -0.000780 39110.100000 0 0 1
5.018585 5.834195 28.239139 29.268977 0.860409 0.266059 0.032864 -0.018881 10075.300000 0 0 1
5.901985 4.871995 28.767929 29.768499 0.690088 0.260006 0.021785 -0.013969 235176.000000 0 0 1
5.323985 4.298695 29.911749 30.684464 0.679249 0.224896 0.016557 -0.014953 18401.300000 0 0 1
6.221885 3.185995 30.537469 31.327296 0.473251 0.225028 0.031003 -0.006962 263538.000000 0 0 1
6.152385 1.970795 29.789409 30.481876 0.310003 0.213560 0.029765 -0.005884 -476451.000000 0 0 1
7.337685 1.837595 29.084819 30.052372 0.245386 0.254440 0.033477 -0.001414 -815864.000000 0 0 1
7.331985 0.491395 28.243439 29.183751 0.066921 0.254538 0.017313 -0.003304 11274.700000 0 0 1
7.432085 -0.636405 29.135629 30.075335 -0.085421 0.250636 -0.010955 0.005132 -16823.400000 0 0 1
7.735985 -1.749105 28.330109 29.419380 -0.222361 0.272970 0.002553 0.006220 -81656.300000 0 0 1
8.332985 -3.016105 29.055409 30.376839 -0.347279 0.296042 -0.007959 0.022096 -725620.000000 0 0 1
9.629285 -2.865305 29.491539 31.155802 -0.289218 0.328329 -0.011100 0.014140 -1016290.000000 0 0 1
10.479985 -3.756905 28.777199 30.855658 -0.344213 0.369136 -0.015731 0.029158 1367300.000000 0 0 1
11.957585 -3.897605 29.369989 31.949514 -0.315093 0.404594 -0.013821 0.023209 1394420.000000 0 0 1
12.730385 -4.950505 28.830059 31.902077 -0.370878 0.442451 -0.007762 0.022128 152398.000000 0 0 1
12.687185 -6.175105 29.591309 32.783260 -0.452967 0.444944 0.011964 0.021020 -309429.000000 0 0 1
11.932185 -7.347805 28.894239 32.112993 -0.551954 0.451559 0.007906 0.021336 -487119.000000 0 0 1
10.550085 -7.096005 28.925579 31.596625 -0.592100 0.414136 0.004350 0.022290 -389845.000000 0 0 1
9.893785 -8.221505 28.300609 31.087049 -0.693346 0.426627 0.012772 0.012019 -254415.000000 0 0 1
8.384385 -8.046505 28.287329 30.581320 -0.764837 0.389794 0.016084 0.013184 -326136.000000 0 0 1
7.692585 -7.791405 29.508099 31.473954 -0.791780 0.355305 0.007785 0.027088 -57648.700000 0 0 1
6.312485 -7.635205 29.340079 30.967468 -0.879950 0.325633 -0.003624 0.036124 -239256.000000 0 0 1
5.523885 -6.911505 30.455599 31.714756 -0.896525 0.282730 -0.010552 0.027453 45089.600000 0 0 1
5.450385 -7.654805 31.663149 33.028136 -0.952048 0.288499 -0.018998 0.025755 108494.000000 0 0 1
4.881185 -7.052805 32.816089 33.918487 -0.965398 0.255652 -0.029302 0.022166 -245700.000000 0 0 1
5.585385 -5.803405 33.380686 34.338699 -0.804539 0.236768 -0.025718 0.024119 -110107.000000 0 0 1
5.517785 -4.648105 32.578199 33.367498 -0.700057 0.217938 -0.009437 0.020781 -66635.500000 0 0 1
6.167285 -3.630705 33.293045 34.053550 -0.532072 0.211737 -0.010085 0.020615 -588611.000000 0 0 1
6.239985 -2.328005 32.389969 33.067615 -0.357085 0.202796 -0.011862 0.022324 -140138.000000 0 0 1
4.943485 -1.825105 32.172299 32.601011 -0.353671 0.162353 -0.003372 0.017203 -514898.000000 0 0 1
5.008085 -0.531505 31.534219 31.933844 -0.105734 0.158369 0.007458 0.009556 347992.000000 0 0 1
3.599785 0.111595 31.412169 31.617958 0.030991 0.114155 0.012332 0.004235 151886.000000 0 0 1
2.894485 0.321895 32.584529 32.714419 0.110755 0.089141 0.016434 -0.003155 -910002.000000 0 0 1
1.645885 0.874195 32.322289 32.375972 0.488248 0.057594 0.029554 -0.008124 -447098.000000 0 0 1
0.758985 0.991995 33.575571 33.598796 0.917695 0.037184 0.027101 -0.008953 153127.000000 0 0 1
1.366185 1.820595 34.588207 34.663022 0.927036 0.065713 0.013820 -0.003281 459381.000000 0 0 1
0.475685 1.855195 -33.557973 33.612581 1.319797 3.084583 0.004549 0.004101 201695.000000 0 0 1
0.763385 2.967895 -32.486853 32.631071 1.319039 3.047541 0.006935 0.015927 328892.000000 0 0 1
1.827185 2.711895 -31.574393 31.743271 0.977894 3.038395 -0.007517 0.015785 121333.000000 0 0 1
2.338385 3.872195 -30.993353 31.321716 1.027521 2.996666 -0.008176 0.021039 701980.000000 0 0 1
3.549685 3.549395 -30.024763 30.441499 0.785357 2.975936 -0.014895 0.019208 778228.000000 0 0 1
3.077585 3.099695 -28.741043 29.071071 0.788977 2.990768 -0.012482 0.005579 503373.000000 0 0 1
4.145385 2.637895 -27.919293 28.348362 0.566716 2.967386 -0.009017 0.001238 245659.000000 0 0 1
3.655985 1.857695 -26.661223 26.974767 0.470126 2.988974 -0.008227 -0.001976 27916.000000 0 0 1
3.660885 0.458895 -26.808173 27.060872 0.124701 3.004825 0.004444 -0.005072 -60211.800000 0 0 1
3.306485 -0.226105 -25.603343 25.816954 -0.068276 3.012864 0.022652 -0.008713 -390179.000000 0 0 1
3.730685 -1.674805 -25.576993 25.901845 -0.421961 2.983050 0.024595 -0.007789 1437060.000000 0 0 1
5.183485 -1.774005 -25.555033 26.135710 -0.329747 2.930403 0.011724 -0.004695 1087670.000000 0 0 1
5.533585 -3.141805 -25.514673 26.296198 -0.516384 2.897181 0.013249 -0.005569 -521205.000000 0 0 1
6.930585 -3.399605 -24.942423 26.109668 -0.456037 2.841451 0.006427 -0.003596 -187625.000000 0 0 1
7.910185 -2.818305 -25.772213 27.105734 -0.342266 2.826614 -0.016005 -0.002138 -1085710.000000 0 0 1
9.149985 -3.319905 -25.359283 27.163159 -0.348060 2.775103 -0.028217 0.013113 -369451.000000 0 0 1
-28.212165 -4.654105 18.209919 33.899677 0.163495 1.003717 0.015611 0.005951 -253065.000000 0 0 1
-29.557685 -4.270005 18.448119 35.103031 0.143471 1.017444 0.000870 0.019305 93371.000000 0 0 1
-30.205625 -5.233305 19.272319 36.210352 0.171553 1.009561 -0.001370 0.008619 624517.000000 0 0 1
-31.708675 -4.928005 19.564719 37.583288 0.154182 1.023278 -0.006869 0.011862 785631.000000 0 0 1
-32.568905 -5.255605 18.468019 37.807707 0.159990 1.060458 -0.011417 0.015291 767562.000000 0 0 1
-33.944245 -5.220605 18.861019 39.181686 0.152604 1.068575 -0.014561 0.020515 527369.000000 0 0 1
34.851981 -5.118505 17.653219 39.401724 -0.145822 1.106234 -0.007674 0.017219 -924623.000000 0 0 1
33.510768 -5.267005 17.898119 38.354343 -0.155898 1.085295 -0.006126 0.018144 -730582.000000 0 0 1
32.618278 -5.087705 16.767119 37.026654 -0.154730 1.100849 -0.007152 0.015552 129685.000000 0 0 1
31.217148 -5.519505 17.187619 36.060914 -0.175001 1.073982 -0.008529 0.016069 -739638.000000 0 0 1
30.643448 -4.654105 18.142719 35.914341 -0.150727 1.041222 -0.003341 0.014010 564055.000000 0 0 1
29.553798 -5.308705 18.806319 35.430030 -0.177733 1.011250 -0.009926 0.000464 451322.000000 0 0 1
28.907158 -4.632305 20.021019 35.467214 -0.158897 0.970977 -0.006005 0.009185 -100384.000000 0 0 1
28.246968 -3.376405 19.865819 34.697869 -0.118967 0.961199 0.002914 0.010283 363424.000000 0 0 1
29.019978 -2.179305 19.637819 35.107727 -0.074956 0.977184 0.007707 0.011625 269800.000000 0 0 1
28.116948 -0.942605 19.988919 34.510986 -0.033512 0.953044 0.017967 0.015060 438338.000000 0 0 1
28.675498 0.314595 19.572919 34.720057 0.010970 0.971895 0.005198 0.011550 -552151.000000 0 0 1
27.798398 1.347195 19.792819 34.151451 0.048425 0.952607 0.012926 0.017802 -574176.000000 0 0 1
28.143018 2.728895 19.303419 34.235922 0.096663 0.971774 -0.008373 0.023403 -343918.000000 0 0 1
28.184698 2.773095 17.907719 33.507517 0.098074 1.006953 -0.010406 0.021866 38035.800000 0 0 1
28.070288 4.050995 17.311719 33.227207 0.143327 1.022762 -0.020820 0.025505 62688.400000 0 0 1
27.758078 3.950595 15.802419 32.184384 0.141373 1.057563 -0.018185 0.024225 -119004.000000 0 0 1
27.396698 5.204395 15.247219 31.782739 0.187728 1.070446 -0.030331 0.021326 191415.000000 0 0 1
27.034238 4.993995 13.846919 30.781930 0.182669 1.104211 -0.020687 0.025850 -167863.000000 0 0 1
26.649998 6.362995 13.241719 30.431123 0.234374 1.120605 -0.018861 0.024575 148906.000000 0 0 1
25.492948 6.812295 13.935219 29.841048 0.261121 1.084922 -0.019014 0.019517 66371.100000 0 0 1
24.978568 7.966995 13.322419 29.408991 0.308753 1.100663 -0.005217 0.003114 -919847.000000 0 0 1
23.735088 8.558595 13.945819 28.828629 0.346076 1.065863 -0.004937 -0.002169 40361.700000 0 0 1
22.536188 7.783495 13.803819 27.550100 0.332551 1.045991 0.011923 0.003161 799568.000000 0 0 1
22.298988 6.668195 14.679919 27.517444 0.290572 1.008090 0.010299 0.002041 -109883.000000 0 0 1
21.045288 5.887995 14.145519 26.032064 0.272802 0.996328 0.026823 0.001226 247129.000000 0 0 1
21.008588 5.677895 12.752019 25.223269 0.263959 1.040759 0.032202 0.001033 595738.000000 0 0 1
19.942288 4.820595 12.344819 23.944260 0.237178 1.029130 0.047038 -0.002733 143654.000000 0 1 0
19.630388 4.827195 10.829619 22.933264 0.241120 1.078985 0.052586 -0.005072 -490997.000000 0 1 0
20.412688 3.911995 10.115119 23.114870 0.189349 1.117866 0.035509 -0.006608 147169.000000 0 1 0
20.049588 3.787995 8.796819 22.219787 0.186730 1.163748 0.042723 -0.010284 -111815.000000 0 1 0
21.114388 3.077995 7.926719 22.762345 0.144757 1.215105 0.033926 -0.005991 -559825.000000 0 1 0
21.459288 1.750595 8.374019 23.101728 0.081397 1.199864 0.035985 -0.013112 602024.000000 0 1 0
22.457588 1.114095 7.609419 23.737897 0.049568 1.244476 0.034458 -0.014363 -712109.000000 0 1 0
23.930488 1.395295 7.876219 25.231923 0.058240 1.253338 0.029917 -0.009465 -877231.000000 0 0 1
24.481088 0.831395 9.059819 26.116953 0.033948 1.216539 -0.000741 0.001417 294034.000000 0 0 1
24.138488 1.441795 10.270719 26.272287 0.059659 1.169151 -0.001923 0.003416 -757998.000000 0 0 1
24.853128 0.724795 11.417719 27.359964 0.029155 1.140308 -0.012381 0.004806 -712415.000000 0 0 1
26.247658 0.718995 11.312219 28.590607 0.027386 1.164008 -0.013219 0.002335 -545115.000000 0 0 1
26.781698 -0.034805 12.354119 29.493810 -0.001300 1.138594 -0.009843 0.000141 -325102.000000 0 0 1
28.312818 0.090095 12.411219 30.913786 0.003182 1.157666 -0.007561 0.001861 -113865.000000 0 0 1
28.742108 1.373395 12.786719 31.488017 0.047747 1.152634 -0.004559 0.009011 -800715.000000 0 0 1
30.101718 1.487395 13.027219 32.833432 0.049372 1.162804 -0.014585 0.012573 -706457.000000 0 0 1
30.538958 2.943295 13.340019 33.455150 0.096082 1.160650 -0.018614 0.015236 -293547.000000 0 0 1
30.544718 3.823495 12.233219 33.124773 0.124529 1.192533 -0.015160 0.003573 -21820.200000 0 0 1
31.148738 5.047595 12.485219 33.935274 0.160652 1.194033 -0.017157 0.003921 1089510.000000 0 0 1
32.697438 5.195395 12.187319 35.279532 0.157576 1.218078 -0.021277 0.006160 1053750.000000 0 0 1
33.519428 4.291095 12.927019 36.181120 0.127326 1.205435 -0.019608 0.006441 799473.000000 0 0 1
-34.861384 4.530895 12.502219 37.311535 -0.129244 1.229110 -0.013711 0.009705 463033.000000 0 0 1
-33.840965 3.593095 13.169119 36.490368 -0.105780 1.201571 -0.008127 0.015392 -796255.000000 0 0 1
-33.776325 2.280295 12.726419 36.166305 -0.067409 1.211211 -0.008619 0.016807 230615.000000 0 0 1
34.847443 1.400695 12.952419 37.203110 0.040173 1.215195 -0.003622 0.026240 206776.000000 0 0 1
34.485540 1.093495 14.441719 37.403362 0.031698 1.174388 -0.005789 0.028960 -173385.000000 0 0 1
-34.299045 0.332195 15.149819 37.497358 -0.009685 1.154885 -0.008870 0.025296 144929.000000 0 0 1
-34.792631 0.108395 16.484619 38.500411 -0.003115 1.128332 -0.008799 0.016841 78745.400000 0 0 1
-33.956005 -0.907505 17.310619 38.124682 0.026720 1.099487 -0.014515 0.016791 1297740.000000 0 0 1
-32.590935 -0.457405 17.551219 37.019233 0.014034 1.076842 -0.022019 0.016781 1225300.000000 0 0 1
-31.819335 -1.223005 18.456919 36.805213 0.038417 1.045493 -0.013966 0.016061 199667.000000 0 0 1
-32.046425 -0.975705 19.953919 37.763531 0.030437 1.014092 -0.017171 0.010246 6684.460000 0 0 1
-33.151975 -1.697705 20.473019 39.001028 0.051165 1.018157 -0.015257 0.006608 135545.000000 0 0 1
-33.109015 -1.650605 21.901519 39.731699 0.049812 0.986952 -0.013177 0.006602 65792.700000 0 0 1
-33.839955 -2.688705 22.790919 40.887623 0.079287 0.979541 -0.014618 0.013485 33204.900000 0 0 1
-33.172815 -3.935405 22.863319 40.480297 0.118082 0.970604 -0.005580 0.002230 -22568.800000 0 0 1
-33.816315 -4.874105 23.688319 41.574470 0.143149 0.964558 -0.002319 0.004838 -307607.000000 0 0 1
-33.658275 -4.747405 25.238469 42.336718 0.140123 0.932116 0.003908 -0.004650 505103.000000 0 0 1
-32.322505 -4.912605 25.723779 41.600371 0.150833 0.904149 0.004540 -0.013409 31960.500000 0 0 1
-32.140175 -4.662305 27.108679 42.303764 0.144057 0.875243 0.009845 -0.021439 310809.000000 0 0 1
-30.912195 -3.760605 27.421689 41.492831 0.121060 0.848809 0.004562 -0.010317 -57488.100000 0 0 1
-31.108245 -2.435905 27.066069 41.306521 0.078145 0.856284 0.003875 -0.003845 197340.000000 0 0 1
-30.319785 -2.090205 25.907629 39.935743 0.068830 0.864878 0.014758 -0.007497 221637.000000 0 0 1
-30.249475 -0.560905 25.765249 39.739067 0.018541 0.865367 -0.000793 -0.005422 -261977.000000 0 0 1
-31.507075 0.014495 25.533469 40.554335 -0.000460 0.889743 0.015672 -0.011599 -410916.000000 0 0 1
-31.540805 1.374495 25.244789 40.422902 -0.043551 0.896283 -0.001261 -0.001268 447457.000000 0 0 1
-32.999955 1.872895 24.953809 41.414942 -0.056694 0.924127 0.004438 -0.003674 464640.000000 0 0 1
-33.611025 1.347595 23.807319 41.210502 -0.040072 0.954888 -0.001984 0.009430 -209414.000000 0 0 1
-34.727365 2.159995 23.452619 41.960468 -0.062119 0.977711 -0.005616 0.015554 158708.000000 0 0 1
-34.475502 3.519995 22.720719 41.438891 -0.101749 0.990473 -0.008681 0.017392 -344801.000000 0 0 1
-33.788805 3.462595 21.490519 40.193474 -0.102121 1.006671 -0.001411 -0.000307 -300554.000000 0 0 1
-34.605357 3.164595 20.361219 40.275609 -0.091194 1.040780 -0.018019 0.009642 -83629.400000 0 0 1
-33.849245 2.574895 19.155519 38.978653 -0.075923 1.057058 -0.015653 0.011647 152269.000000 0 0 1
-32.924135 3.447595 18.502219 37.923828 -0.104333 1.061139 -0.005281 0.008199 390417.000000 0 0 1
-32.343445 2.808195 17.346719 36.808872 -0.086607 1.080072 -0.009608 0.014645 -243566.000000 0 0 1
-31.464355 3.718495 16.518119 35.730675 -0.117636 1.090214 -0.004608 0.010916 -251102.000000 0 0 1
-32.187155 4.778295 15.999819 36.260713 -0.147377 1.113812 -0.005319 0.004991 288474.000000 0 0 1
-31.355145 5.365895 14.996819 35.168772 -0.169491 1.130260 -0.002412 0.004382 -103452.000000 0 0 1
-31.867035 6.719895 14.645419 35.709288 -0.207828 1.148201 0.009808 -0.005938 -347211.000000 0 0 1
-31.104845 7.395995 13.706119 34.786058 -0.233441 1.165804 0.013951 -0.005082 -103354.000000 0 0 1
-31.454005 8.779095 13.671219 35.402390 -0.272182 1.174324 0.018032 -0.011301 87231.500000 0 0 1
-30.605725 9.415795 12.544419 34.390843 -0.298459 1.197421 0.025066 -0.008895 90525.500000 0 0 1
-30.903495 10.822595 12.511919 35.052856 -0.336858 1.205802 0.024214 -0.006242 92691.200000 0 0 1
-30.270135 11.400795 11.393419 34.293866 -0.360203 1.232130 0.005443 -0.002879 -378110.000000 0 0 1
-30.552805 12.913795 11.192119 35.007193 -0.399897 1.245374 0.011032 -0.002239 139840.000000 0 0 1
-29.780055 13.526195 10.168319 34.252071 -0.426344 1.269386 0.003165 0.000889 161639.000000 0 0 1
-29.735575 14.923895 10.319119 34.834054 -0.465156 1.270046 0.012882 0.002887 -245504.000000 0 0 1
-29.062045 15.732495 9.217619 34.308576 -0.496171 1.298786 0.014250 -0.000804 -356727.000000 0 0 1
-27.665015 15.731695 9.428819 33.192498 -0.517049 1.282765 0.014924 0.005335 -217849.000000 0 0 1
-27.158345 16.695395 8.550919 33.006517 -0.551189 1.308740 0.009751 -0.004104 144463.000000 0 0 1
-25.649685 17.014095 8.799419 32.012741 -0.585686 1.292339 0.013847 0.000647 390026.000000 0 0 1
-25.374545 17.464495 10.126819 32.425740 -0.602809 1.253175 0.010014 0.000897 263970.000000 0 0 1
-25.569815 18.902795 10.221019 33.400604 -0.636593 1.259794 0.006255 0.002072 -217778.000000 0 0 1
-25.448585 19.406895 11.661719 34.062498 -0.651512 1.221366 0.015722 0.013820 350493.000000 0 0 1
-24.108315 19.312295 12.139819 33.189619 -0.675389 1.196335 0.003889 0.023096 465974.000000 0 0 1
-24.035715 19.891495 13.438719 33.970375 -0.691334 1.164074 0.013898 0.012810 47006.900000 0 0 1
-24.520915 18.962795 14.629819 34.276734 -0.658267 1.129829 0.015607 0.019184 -36675.600000 0 0 1
-23.758215 17.801295 14.780819 33.163406 -0.643033 1.108844 0.020892 0.021038 49270.000000 0 0 1
-24.366015 16.928195 15.722819 33.577873 -0.607191 1.083488 0.017534 0.023202 -474486.000000 0 0 1
-23.504315 15.753295 16.150919 32.580229 -0.590465 1.052124 0.015807 0.022066 -240664.000000 0 0 1
-22.440215 16.261195 16.943019 32.481620 -0.627076 1.022049 0.021910 0.020393 354226.000000 0 0 1
-21.443215 15.345895 17.415519 31.600764 -0.621154 0.987102 0.008921 0.004683 316449.000000 0 0 1
-21.859315 14.242395 18.371619 31.909119 -0.577463 0.957277 0.011751 0.005900 -560629.000000 0 0 1
-22.376015 14.638095 19.638419 33.175705 -0.579313 0.937318 0.020170 0.003434 321391.000000 0 0 1
-22.740115 13.545495 20.445719 33.445788 -0.537226 0.913082 0.014579 -0.003197 -408413.000000 0 0 1
-22.476115 13.870595 21.985719 34.364823 -0.552917 0.876592 0.006791 -0.006622 743469.000000 0 0 1
-21.080015 13.740995 22.323419 33.638030 -0.577674 0.845127 0.008166 -0.002050 1044620.000000 0 0 1
-20.403015 15.011695 22.401619 33.815183 -0.634324 0.846682 0.020737 0.009926 -906928.000000 0 0 1
-18.930615 14.803195 22.787019 33.117232 -0.663651 0.811968 0.046991 0.002524 -176209.000000 0 0 1
-18.204715 14.396395 21.646819 31.737244 -0.669110 0.820216 0.036363 -0.004461 -343842.000000 0 0 1
-17.684815 15.421695 20.848419 31.388501 -0.717146 0.844366 0.031601 0.002167 -320774.000000 0 0 1
-16.409715 14.955395 20.041419 29.909883 -0.739064 0.836507 0.028470 0.002112 448351.000000 0 0 1
-15.208115 14.650095 20.653519 29.537771 -0.766711 0.796485 0.031575 0.006000 -361080.000000 0 0 1
-14.481815 15.821195 21.002619 30.019048 -0.829569 0.795898 0.014790 0.001643 -29502.500000 0 0 1
-13.310215 15.592995 22.027219 30.091556 -0.864215 0.749534 -0.014752 0.009370 752525.000000 0 0 1
-12.166715 14.964995 21.457519 28.851433 -0.888172 0.732171 -0.003007 0.013082 -202484.000000 0 0 1
-11.186915 14.789395 22.441219 29.111537 -0.923202 0.690590 0.002378 0.019119 345710.000000 0 0 1
-10.019115 13.834495 22.030719 27.877025 -0.944004 0.659527 0.001533 0.018375 -1470140.000000 0 0 1
-9.661615 12.885395 23.022819 28.096805 -0.927416 0.610414 0.003159 0.015509 -323174.000000 0 0 1
-8.547315 12.051695 22.842919 27.204759 -0.953909 0.574128 0.002900 0.031514 -650526.000000 0 0 1
-7.271615 12.869995 22.991719 27.333721 -1.056506 0.571393 -0.008312 0.035051 -1792060.000000 0 0 1
-7.056515 13.636995 21.847519 26.703486 -1.093283 0.612606 -0.018100 0.031701 -784492.000000 0 0 1
-6.300315 14.779795 22.162919 27.373917 -1.167843 0.627264 -0.011149 0.034045 -270030.000000 0 0 1
-7.134315 15.926395 22.802819 28.714406 -1.149644 0.653230 0.005811 0.007414 -70619.900000 0 0 1
-7.950015 16.523695 21.837019 28.514745 -1.122360 0.698489 -0.027455 0.016808 -629170.000000 0 0 1
-7.351415 17.646495 21.243519 28.578475 -1.176068 0.732747 -0.009009 0.030240 -1108110.000000 0 0 1
-8.165215 18.270895 20.085319 28.353420 -1.150526 0.783580 -0.014085 0.034239 758109.000000 0 0 1
-9.374215 18.977295 20.362919 29.371111 -1.111984 0.804741 -0.019151 0.032178 11039.900000 0 0 1
-10.392715 18.182395 20.897119 29.585429 -1.051535 0.786494 -0.014565 0.020049 -1778960.000000 0 0 1
-11.726715 18.898995 21.012319 30.597474 -1.015444 0.813810 -0.011904 0.019068 -571826.000000 0 0 1
-12.484315 18.821895 19.815019 30.045913 -0.985137 0.850654 -0.003834 0.016124 -279565.000000 0 0 1
-13.791915 19.217495 20.135419 31.063872 -0.948306 0.865586 -0.005864 0.017185 -252970.000000 0 0 1
-14.775815 19.340995 18.946419 30.844215 -0.918418 0.909346 0.020686 0.011358 -253357.000000 0 0 1
-15.114915 18.162795 18.329319 29.905046 -0.876733 0.911049 0.024793 0.016628 -479585.000000 0 0 1
-15.717415 18.439995 17.141719 29.680113 -0.864937 0.955073 0.034746 0.005065 -1786810.000000 0 0 1
-16.533515 17.198495 16.697519 29.119624 -0.805109 0.960133 0.029055 0.004520 979227.000000 0 0 1
-17.672115 16.945395 17.566319 30.133464 -0.764408 0.948441 0.030945 0.015251 419941.000000 0 0 1
-18.731915 17.851095 17.451019 31.210324 -0.761326 0.977445 0.029389 0.017743 -1109740.000000 0 0 1
32.775218 -10.125205 12.313977 36.446793 -0.299628 1.226152 0.009909 0.000822 -448641.000000 0 0 1
31.475518 -10.530605 11.976477 35.285094 -0.322859 1.224496 -0.015005 0.008370 -320712.000000 0 0 1
31.137458 -11.716705 12.582077 35.568682 -0.359901 1.209229 0.013403 -0.004186 -820170.000000 0 0 1
29.716058 -12.053605 12.176577 34.301640 -0.385347 1.207898 -0.013202 -0.003286 -959317.000000 0 0 1
28.765088 -11.166805 12.726577 33.378041 -0.370299 1.179609 -0.015548 -0.000941 1108410.000000 0 0 1
27.374628 -11.549005 12.684277 32.305428 -0.399231 1.167300 -0.022561 -0.000982 1271010.000000 0 0 1
27.046198 -12.425105 13.897477 32.848439 -0.430646 1.133956 -0.033013 -0.005907 -910378.000000 0 0 1
27.394228 -11.666105 15.073777 33.373050 -0.402599 1.102154 -0.030220 -0.011107 302547.000000 0 0 1
26.992138 -12.261005 16.322577 33.842788 -0.426377 1.067511 -0.021756 -0.010296 -781102.000000 0 0 1
25.509338 -12.156605 16.675677 32.811394 -0.444716 1.037670 -0.021376 -0.009343 -471589.000000 0 0 1
25.013088 -10.834005 16.959177 32.103644 -0.408740 1.014242 -0.027643 -0.010226 197023.000000 0 0 1
24.496988 -10.136505 15.816477 30.870894 -0.392334 1.032886 -0.016708 -0.014910 -663900.000000 0 0 1
24.234888 -8.648905 16.149377 30.379858 -0.342789 1.010329 0.004480 -0.016365 -504135.000000 0 0 1
25.324568 -7.797905 16.313177 31.116890 -0.298706 1.018957 -0.021159 -0.016117 -612942.000000 0 0 1
24.900548 -6.571405 16.800577 30.748659 -0.258023 0.992756 -0.010449 -0.012448 100846.000000 0 0 1
26.099198 -5.595205 16.825377 31.552619 -0.211186 1.008361 -0.010934 -0.010196 179633.000000 0 0 1
26.504108 -5.218305 15.521777 31.154840 -0.194400 1.049259 -0.006210 -0.010202 153503.000000 0 0 1
27.785868 -4.642805 15.618577 32.211024 -0.165563 1.064567 -0.007422 -0.012699 -165089.000000 0 0 1
28.438158 -3.961205 14.397577 32.120246 -0.138401 1.106001 -0.007173 0.001574 -139458.000000 0 0 1
28.532358 -4.664905 13.226577 31.793068 -0.162061 1.141731 -0.020230 0.004627 302454.000000 0 0 1
28.785888 -3.673105 12.205577 31.481664 -0.126915 1.172657 -0.012055 0.004790 -146067.000000 0 0 1
29.076538 -4.303805 10.835077 31.326773 -0.146949 1.217628 -0.000947 0.001748 -276755.000000 0 0 1
30.365738 -4.844405 10.704577 32.559704 -0.158202 1.235798 0.001448 0.008995 -179845.000000 0 0 1
30.505368 -5.566505 9.494677 32.430115 -0.180490 1.273670 0.001072 0.011466 173764.000000 0 0 1
31.818468 -6.345005 9.217177 33.728777 -0.196831 1.294002 0.004651 0.011222 139337.000000 0 0 1
32.992908 -5.590605 9.015777 34.656473 -0.167854 1.307622 0.009970 0.012536 113142.000000 0 0 1
34.080171 -6.509505 8.796677 35.794039 -0.188732 1.322495 0.019268 0.000045 721909.000000 0 0 1
-34.346354 -5.724705 8.528877 35.849491 0.165158 1.330585 0.016289 0.005249 39705.300000 0 0 1
-34.521201 -4.924105 7.343777 35.635533 0.141684 1.363229 0.018132 0.003243 642703.000000 0 0 1
-33.358955 -4.123205 7.076277 34.349591 0.122977 1.363303 0.005992 0.017207 261417.000000 0 0 1
-33.445625 -3.267605 5.741077 34.091745 0.097390 1.401589 0.013380 0.004694 -329083.000000 0 0 1
-33.052895 -3.970805 4.567477 33.602426 0.119562 1.434447 0.008221 -0.000903 190440.000000 0 0 1
-33.103285 -3.103005 3.450077 33.426923 0.093464 1.467400 -0.000480 0.003145 147689.000000 0 0 1
-32.393505 -3.731505 2.181777 32.680628 0.114687 1.503986 0.010549 0.003869 318503.000000 0 0 1
-33.062265 -4.808005 1.531077 33.445097 0.144410 1.525002 0.012871 0.015272 -311704.000000 0 0 1
-34.057675 -4.391905 0.643977 34.345724 0.128247 1.552045 0.007781 0.011210 -611379.000000 0 0 1
-33.670295 -4.685705 -0.801923 34.004231 0.138276 1.594382 0.027230 0.007653 -815455.000000 0 0 1
-33.713695 -6.106905 -1.055623 34.278592 0.179197 1.601597 0.028531 0.000512 154714.000000 0 0 1
-32.978055 -6.471905 -2.260623 33.683054 0.193786 1.637961 0.022129 -0.001098 -12736.000000 0 0 1
-31.451045 -6.308905 -2.217523 32.154128 0.197967 1.639817 0.014770 -0.000356 -847898.000000 0 0 1
-30.819175 -7.229505 -1.385623 31.686073 0.230412 1.614540 0.016534 0.002217 296733.000000 0 0 1
-29.658125 -6.674905 -0.745923 30.409129 0.221373 1.595328 0.018050 -0.010259 303476.000000 0 0 1
-29.262675 -7.689005 0.328177 30.257770 0.256950 1.559950 0.006592 -0.001574 -244149.000000 0 0 1
-28.806245 -8.926605 -0.262523 30.158796 0.300500 1.579501 0.021862 0.000471 471968.000000 0 0 1
-28.462405 -9.841505 0.746977 30.125101 0.332903 1.545998 0.015608 0.008148 -161152.000000 0 0 1
-27.859655 -11.116105 0.162077 29.995907 0.379647 1.565393 0.017072 0.007618 617420.000000 0 0 1
-26.631135 -11.010105 -0.598523 28.823567 0.392030 1.591563 0.015243 -0.000114 989738.000000 0 0 1
-26.066675 -12.193105 -1.111723 28.798946 0.437530 1.609409 0.015079 0.005653 -428005.000000 0 0 1
-26.863845 -13.070005 -2.091323 29.947702 0.452812 1.640686 0.015413 0.002587 -643310.000000 0 0 1
-27.860715 -13.902605 -1.575223 31.176645 0.462850 1.621344 0.022976 -0.000061 193149.000000 0 0 1
-28.301295 -14.852305 -2.536723 32.062271 0.483284 1.649998 0.021960 -0.001459 114734.000000 0 0 1
-29.076105 -16.074005 -1.916723 33.278632 0.505010 1.628424 0.032027 0.000319 558029.000000 0 0 1
-28.264615 -16.819105 -0.998723 32.905443 0.536778 1.601152 0.022513 0.005880 710454.000000 0 0 1
-29.078925 -17.237505 0.099077 33.804220 0.535096 1.567865 0.023526 0.008745 452211.000000 0 0 1
-29.517735 -18.737705 0.031877 34.962827 0.565612 1.569885 0.020459 0.004519 760580.000000 0 0 1
-28.380375 -19.623905 0.169177 34.504666 0.604972 1.565893 0.030237 0.002732 907424.000000 0 0 1
-28.709245 -20.977905 0.056877 35.556947 0.631036 1.569197 0.027444 0.002067 199614.000000 0 0 1
-29.453585 -21.634805 1.294977 36.568503 0.633532 1.535377 0.024894 0.002015 456690.000000 0 0 1
-28.589335 -21.935505 2.409277 36.115386 0.654457 1.504036 0.033228 -0.003623 550596.000000 0 0 1
-29.442155 -22.345705 3.471077 37.124377 0.649217 1.477161 0.030691 -0.001472 160366.000000 0 0 1
-28.768245 -22.550805 4.820477 36.869876 0.664833 1.439678 0.021004 0.000794 -405430.000000 0 0 1
-28.233135 -21.337505 5.278577 35.780755 0.647178 1.422730 0.014231 0.004245 -205782.000000 0 0 1
-27.785475 -21.441805 6.596277 35.711266 0.657240 1.385018 0.007074 0.002922 -248154.000000 0 0 1
-27.133535 -20.192005 7.116477 34.562842 0.639760 1.363413 0.008647 0.008777 -236588.000000 0 0 1
-26.823795 -20.341805 8.457677 34.710766 0.648823 1.324657 -0.011514 0.001869 -226188.000000 0 0 1
-26.216725 -19.173005 8.971077 33.695712 0.631443 1.301308 0.008249 -0.002494 -276623.000000 0 0 1
-25.153675 -19.490905 9.999777 33.355633 0.659231 1.266321 0.021366 -0.006409 -525428.000000 0 0 1
-25.712045 -19.968805 11.190777 34.425222 0.660329 1.239705 0.022488 -0.010063 77144.200000 0 0 1
-24.764115 -20.172205 12.241477 34.205745 0.683565 1.204802 0.029234 -0.007584 208746.000000 0 0 1
-24.317515 -18.870205 12.985377 33.407277 0.659930 1.171577 0.028630 -0.014459 -760377.000000 0 0 1
-23.526015 -17.942705 12.258077 32.026153 0.651564 1.178023 0.026243 -0.009265 64736.600000 0 0 1
-23.051415 -16.833105 13.010177 31.368549 0.630735 1.143126 0.027251 -0.003805 284069.000000 0 0 1
-22.105615 -17.163905 14.201477 31.383751 0.660215 1.101218 0.024995 -0.005817 -879198.000000 0 0 1
-22.739115 -17.700305 15.320677 32.635736 0.661436 1.082134 0.025856 -0.014164 -341560.000000 0 0 1
-21.935215 -17.947505 16.447877 32.768876 0.685743 1.044961 0.028555 -0.007547 -256822.000000 0 0 1
-22.853415 -18.650005 17.457977 34.276555 0.684464 1.036394 0.026069 0.014382 510352.000000 0 0 1
-23.731015 -17.692005 18.041677 34.665115 0.640629 1.023411 0.020244 0.005708 -141551.000000 0 0 1
-24.805715 -18.274505 18.718577 36.050883 0.634938 1.024851 0.016883 0.015718 42947.200000 0 0 1
-25.787505 -17.324605 19.465577 36.661234 0.591563 1.011066 0.008598 0.014242 348113.000000 0 0 1
-25.151815 -16.808205 20.622577 36.611750 0.589112 0.972449 0.002919 0.019144 390556.000000 0 0 1
-25.961485 -15.790605 21.206877 37.055007 0.546450 0.961479 -0.004008 0.014315 6234.340000 0 0 1
-25.300655 -15.228205 22.510177 37.131246 0.541808 0.919481 -0.010569 0.015661 43276.600000 0 0 1
-24.199415 -14.451905 22.108277 35.822411 0.538359 0.905664 -0.011234 0.015831 -179290.000000 0 0 1
-23.239215 -14.239805 23.111577 35.734831 0.549741 0.867478 -0.013794 0.021579 -529603.000000 0 0 1
-22.118715 -13.333705 22.669677 34.364800 0.542494 0.850407 -0.011684 0.026713 -597992.000000 0 0 1
-22.583415 -12.005705 22.386677 33.989865 0.488619 0.851802 -0.012305 0.029004 746708.000000 0 0 1
-21.536915 -11.204005 21.839077 32.654459 0.479695 0.838212 -0.010616 0.024549 -169830.000000 0 0 1
-21.612215 -9.700205 22.322277 32.549437 0.421880 0.815099 -0.003627 0.029750 30202.400000 0 0 1
-21.097615 -9.637005 23.648377 33.124416 0.428479 0.775707 -0.008399 0.027433 -395959.000000 0 0 1
-19.724215 -9.710105 23.849977 32.436896 0.457463 0.744727 -0.009586 0.027306 -778929.000000 0 0 1
-19.216415 -9.835305 25.310977 33.266340 0.473057 0.706161 -0.009277 0.017839 281135.000000 0 0 1
-19.504815 -11.085905 25.992877 34.336056 0.516836 0.712065 0.002311 0.021705 213159.000000 0 0 1
-18.410915 -11.433405 26.833377 34.492241 0.555727 0.679393 -0.003128 0.018194 -413164.000000 0 0 1
-18.476515 -12.828005 27.445477 35.485117 0.606881 0.686552 -0.005267 -0.003552 24774.900000 0 0 1
-19.524415 -13.085705 28.346477 36.823379 0.590460 0.692275 0.007966 -0.000829 -723519.000000 0 0 1
-20.797515 -13.204605 27.774377 37.125655 0.565696 0.725575 -0.004241 0.005031 -822580.000000 0 0 1
-21.850915 -13.570005 28.820977 38.629733 0.555737 0.728637 -0.007580 -0.000361 -749393.000000 0 0 1
-21.686215 -14.913005 29.380577 39.444999 0.602404 0.730487 -0.006718 -0.006940 661300.000000 0 0 1
-20.618315 -15.018305 30.359977 39.653406 0.629531 0.698771 -0.007624 -0.011200 685141.000000 0 0 1
-20.978315 -16.054505 31.441277 41.065688 0.653215 0.698770 0.001775 -0.018646 -599148.000000 0 0 1
-20.930515 -17.388405 31.025477 41.267703 0.693222 0.719993 0.007755 -0.012967 -10359.300000 0 0 1
-21.211115 -18.313805 32.064477 42.584475 0.712226 0.718245 0.010837 -0.013762 -108167.000000 0 0 1
-22.623215 -18.476805 32.681277 43.832272 0.684853 0.729364 0.016312 -0.012976 -192801.000000 0 0 1
-23.018715 -17.431505 33.524877 44.245180 0.648141 0.711004 0.023537 -0.010924 -910461.000000 0 0 1
-24.249715 -17.772405 34.059277 45.430622 0.632461 0.723190 0.028011 -0.015545 -1012480.000000 0 0 1
-24.939415 -16.635105 -34.445665 45.664045 0.588248 2.425426 0.025487 -0.012206 -12451.300000 0 0 1
-24.319015 -16.320405 -33.222665 44.289001 0.591063 2.419060 0.032715 -0.006988 492274.000000 0 0 1
-25.181365 -15.357405 -32.562065 43.934487 0.547647 2.405579 0.048559 -0.000049 696703.000000 0 0 1
-24.552715 -14.835405 -31.232565 42.407525 0.543522 2.398658 0.044243 0.006701 39989.700000 0 0 1
-24.532115 -15.694805 -30.106465 41.887359 0.569147 2.372797 0.051924 0.014209 251198.000000 0 0 1
-23.991715 -14.930705 -29.034965 40.516140 0.556675 2.369751 0.057089 0.018808 -183257.000000 0 0 1
-24.420815 -15.644005 -27.754965 40.142860 0.569740 2.334228 0.038731 0.011989 -223426.000000 0 0 1
-25.759505 -15.674505 -27.333865 40.698678 0.546642 2.307183 0.035825 0.013236 -97481.300000 0 0 1
-26.281565 -14.615805 -26.515965 40.092878 0.507533 2.293431 0.038038 0.017551 -394200.000000 0 0 1
-25.661715 -14.279305 -25.143665 38.660394 0.507777 2.278871 0.015928 0.014614 -998178.000000 0 0 1
-24.355915 -13.776105 -25.363065 37.766079 0.514754 2.307140 0.000859 0.012468 537037.000000 0 0 1
-23.461215 -14.125705 -24.296465 36.609867 0.541953 2.296496 -0.017912 0.008931 176716.000000 0 0 1
-22.973815 -15.590805 -24.277965 36.882096 0.596242 2.289300 -0.015670 0.008830 -1189450.000000 0 0 1
-22.013215 -15.902705 -25.250965 37.082191 0.625613 2.319850 0.006692 0.014494 -26279.500000 0 0 1
-21.810515 -17.347905 -25.284665 37.629280 0.671925 2.307623 0.026688 0.017621 434521.000000 0 0 1
-20.669515 -17.810005 -26.264065 37.871180 0.711222 2.337147 0.017496 0.024482 534417.000000 0 0 1
-21.036515 -17.825505 -27.643465 39.044139 0.702959 2.357466 0.019611 0.015930 -112791.000000 0 0 1
-21.936815 -18.844305 -27.990965 40.247060 0.709711 2.339882 0.028101 0.006356 -509084.000000 0 0 1
-22.578715 -18.680405 -29.338065 41.466589 0.691194 2.356766 0.029114 0.009330 -153951.000000 0 0 1
-21.771515 -18.933905 -30.495965 41.982086 0.715800 2.383872 0.023877 0.006392 414675.000000 0 0 1
-22.442815 -18.521405 -31.697765 43.028720 0.689961 2.398922 0.017056 0.000940 -165671.000000 0 0 1
-21.690215 -18.878005 -33.024865 43.789111 0.716188 2.425201 0.017095 -0.005026 129337.000000 0 0 1
-20.391915 -18.306805 -33.206765 43.054135 0.731570 2.451645 0.021566 -0.002273 990825.000000 0 0 1
-19.278915 -19.135205 -32.864465 42.636906 0.781657 2.450890 0.007244 -0.007062 -38689.700000 0 0 1
-18.926215 -20.274005 -33.820365 43.738473 0.819767 2.454732 0.011181 -0.011358 -1105180.000000 0 0 1
-18.505715 -19.844505 34.169477 43.632775 0.820294 0.671137 0.006792 -0.013901 -64069.900000 0 0 1
-18.319415 -20.796005 33.179977 43.231767 0.848629 0.695879 0.007374 -0.015078 -69027.800000 0 0 1
-19.544815 -21.538805 32.573177 43.668430 0.833895 0.728880 0.013564 -0.009370 145829.000000 0 0 1
-20.161815 -22.413205 33.530877 45.090689 0.838229 0.732310 0.014073 -0.009101 808362.000000 0 0 1
-21.501015 -22.853205 33.231077 45.704126 0.815875 0.756721 0.019649 -0.006114 824630.000000 0 0 1
-21.519615 -24.029405 32.182677 45.565676 0.840443 0.786550 0.023108 0.004077 -622666.000000 0 0 1
-20.906715 -25.160425 32.683977 46.242622 0.877474 0.785841 0.022701 0.007649 -545098.000000 0 0 1
-21.033515 -26.274465 31.782377 46.291206 0.895732 0.814029 0.017392 0.007646 -275140.000000 0 0 1
-20.661515 -27.653655 32.365777 47.319830 0.929120 0.817593 0.019960 0.001889 261253.000000 0 0 1
-21.397215 -28.168165 33.498577 48.717974 0.921164 0.812615 0.007824 -0.002897 86786.900000 0 0 1
-20.732715 -29.272245 34.019377 49.437110 0.954540 0.811882 0.012026 -0.014862 -936608.000000 0 0 1
-21.637115 -30.129335 -34.339065 50.548125 0.947999 2.317651 0.016159 -0.009597 -300574.000000 0 0 1
-22.743215 -30.781435 34.296777 51.390850 0.934462 0.840123 0.010270 -0.007168 348184.000000 0 0 1
-23.826215 -30.031675 33.847677 51.139566 0.900111 0.847487 0.007795 -0.005199 -1075500.000000 0 0 1
-24.697715 -29.394655 -34.295365 51.480044 0.872013 2.299881 -0.001676 -0.001699 -917383.000000 0 0 1
-25.849835 -28.846545 34.360977 51.778508 0.840132 0.845156 -0.002592 0.002122 -651337.000000 0 0 1
-26.755935 -28.549385 -33.919565 51.783051 0.817815 2.285022 -0.011144 0.012566 -823831.000000 0 0 1
-27.888665 -27.582515 -34.284965 52.096369 0.779879 2.289098 -0.012969 0.010027 -8400.310000 0 0 1
-28.761605 -28.184395 34.040677 52.729098 0.775262 0.869018 -0.008712 0.011013 -660072.000000 0 0 1
-29.887705 -27.474715 33.679177 52.748667 0.743357 0.878270 -0.007569 0.012495 -545223.000000 0 0 1
