# x y z rho theta phi s1 s2 stress_xx np intf bulk
-0.754584 -10.828468 -14.355850 17.997653 1.501224 2.494187 0.010974 0.001173 -335283.000000 1 0 0
2.218216 -13.473568 -12.966050 18.830187 -1.407625 2.330322 0.014223 -0.005903 407311.000000 1 0 0
2.124316 -11.158768 -14.569950 18.474692 -1.382675 2.479396 0.011345 0.002449 307956.000000 1 0 0
-5.629184 -6.338168 -16.308550 18.380122 0.844572 2.662238 0.026657 -0.009083 566950.000000 1 0 0
4.542016 -14.114068 -11.422750 18.716731 -1.259454 2.227231 0.016990 -0.007987 -984076.000000 1 0 0
14.071616 -10.643768 -7.877550 19.322421 -0.647584 1.990719 0.065514 -0.020560 1203490.000000 1 0 0
7.026516 10.728532 -10.917150 16.842134 0.990958 2.276021 0.036333 -0.016930 92021.600000 1 0 0
5.732416 -4.318168 -12.564850 14.470059 -0.645603 2.622630 -0.002399 -0.004427 2296400.000000 1 0 0
13.609916 0.450532 -10.065150 16.933400 0.033091 2.207311 0.028703 0.000622 1355420.000000 1 0 0
14.081716 4.956132 -10.373550 18.178793 0.338416 2.178082 0.025586 -0.012266 -1607470.000000 1 0 0
4.148716 4.270932 -13.451250 14.710160 0.799913 2.724866 0.002591 -0.001972 2055480.000000 1 0 0
10.325216 -4.963068 -13.613750 17.792591 -0.448068 2.442049 0.031123 -0.012101 -393521.000000 1 0 0
2.481516 -7.598968 -11.973950 14.397142 -1.255154 2.552940 -0.001721 -0.000427 1719590.000000 1 0 0
-5.640284 -1.966868 -15.160150 16.294524 0.335532 2.766253 0.013783 -0.010065 678201.000000 1 0 0
10.612716 -0.097768 -9.624350 14.327156 -0.009212 2.307373 0.007681 0.000709 993889.000000 1 0 0
-1.581084 -9.522768 -16.913050 19.473936 1.406265 2.622958 0.025106 -0.004264 952450.000000 1 0 0
8.561216 1.741332 -18.127750 20.123170 0.200661 2.692496 0.021782 -0.001134 -20420.400000 1 0 0
16.537916 -5.938468 -8.814850 19.658831 -0.344743 2.035761 0.099730 -0.014899 539500.000000 1 0 0
10.126116 7.538632 -9.971750 16.087417 0.639955 2.239345 0.022982 -0.009318 918557.000000 1 0 0
13.824816 -2.337168 -10.522750 17.530435 -0.167473 2.214618 0.049191 -0.008858 -853620.000000 1 0 0
7.196116 -1.948968 -13.639750 15.544302 -0.264491 2.641370 0.003978 -0.006909 -537693.000000 1 0 0
-2.759384 6.659032 -13.862550 15.624570 -1.177953 2.662097 0.004985 -0.004015 2120380.000000 1 0 0
11.076816 1.705132 -13.884450 17.843242 0.152738 2.462487 0.012282 -0.006224 -499057.000000 1 0 0
-2.411284 10.674632 -12.982550 16.979654 -1.348636 2.441208 0.008687 -0.002179 745102.000000 1 0 0
2.928416 -1.124668 -15.219350 15.539276 -0.366684 2.938323 0.005570 -0.007736 314696.000000 1 0 0
-9.051384 0.475932 -15.203650 17.700424 -0.052533 2.603998 0.012366 -0.007306 -306465.000000 1 0 0
2.353316 -1.965468 -17.979350 18.238919 -0.695833 2.972681 0.019229 -0.017407 1670130.000000 1 0 0
1.080416 7.785832 -13.178150 15.344384 1.432910 2.603769 0.005922 -0.004519 -929226.000000 1 0 0
9.309216 -9.104168 -9.781050 16.285463 -0.774263 2.215048 0.032744 -0.011014 -583669.000000 1 0 0
3.963516 7.211832 -13.544950 15.848837 1.068272 2.595641 0.004241 -0.004594 687435.000000 1 0 0
-2.775384 9.091632 -15.570550 18.242877 -1.274514 2.593489 0.005554 0.000420 1911660.000000 1 0 0
5.585316 -7.686268 -15.301750 18.011608 -0.942400 2.585927 0.009332 -0.004506 -876206.000000 1 0 0
4.195516 7.121232 -16.382050 18.349001 1.038389 2.674327 0.015158 -0.004829 -127451.000000 1 0 0
-0.270684 5.042732 -13.505450 14.418723 -1.517170 2.783767 0.009462 -0.008577 2067250.000000 1 0 0
8.865716 4.228432 -16.586750 19.276951 0.445032 2.606938 0.028482 -0.008341 -265390.000000 1 0 0
5.415016 0.329332 -14.345150 15.336694 0.060744 2.780039 -0.002206 -0.002556 2019060.000000 1 0 0
6.258016 7.793332 -11.592150 15.306101 0.894231 2.430049 0.008438 -0.009754 -875077.000000 1 0 0
2.804016 -8.318068 -15.025550 17.401721 -1.245660 2.612870 0.006063 -0.003048 591474.000000 1 0 0
4.038316 11.332532 -13.885050 18.371959 1.228478 2.427632 0.032668 -0.017757 -1511530.000000 1 0 0
0.548616 -4.486668 -13.721550 14.446871 -1.449123 2.823373 0.006273 -0.005747 1266300.000000 1 0 0
8.481816 -0.196068 -11.617250 14.385414 -0.023112 2.510819 -0.004415 -0.001416 741144.000000 1 0 0
-0.974684 -5.033768 -16.238750 17.028970 1.379534 2.835757 0.017775 -0.010116 -359257.000000 1 0 0
4.470916 0.943432 -11.747650 12.605016 0.207965 2.770639 -0.001359 -0.005394 996493.000000 1 0 0
-2.867284 -7.225968 -15.572250 17.404910 1.193049 2.678565 0.005933 -0.002217 1259500.000000 1 0 0
11.375316 -3.783468 -11.329650 16.494648 -0.321093 2.327967 0.030350 -0.007841 693899.000000 1 0 0
6.459716 -7.162768 -12.494850 15.784627 -0.836962 2.484192 0.009767 -0.005316 -1265220.000000 1 0 0
3.458416 -4.028868 -14.622650 15.556809 -0.861441 2.793285 0.004935 -0.008559 2790520.000000 1 0 0
-0.606484 -1.631068 -18.325850 18.408285 1.214806 3.046919 0.034918 -0.017315 1281420.000000 1 0 0
14.928716 2.824832 -8.521750 17.420289 0.187010 2.081952 0.031448 -0.004778 -1587410.000000 1 0 0
6.946616 4.223932 -14.300850 16.450270 0.546322 2.624658 0.001650 -0.002525 2171940.000000 1 0 0
10.234816 -9.617468 -13.928450 19.780011 -0.754311 2.352047 0.058701 -0.019618 -972328.000000 1 0 0
8.939316 -3.225568 -15.496250 18.178267 -0.346290 2.591470 0.032039 -0.018304 -2668120.000000 1 0 0
-5.423984 -2.174768 -18.061950 18.983762 0.381328 2.828683 0.017734 -0.003926 823851.000000 1 0 0
5.012116 -9.153768 -11.162150 15.280915 -1.069839 2.389797 -0.001079 -0.001445 2172260.000000 1 0 0
-2.424484 4.045332 -17.128150 17.765594 -1.030871 2.872901 0.016468 0.000596 1628700.000000 1 0 0
9.620116 9.114332 -14.527650 19.663934 0.758407 2.402079 0.072867 -0.029015 -1359780.000000 1 0 0
9.765816 9.909532 -11.682350 18.167204 0.792702 2.269266 0.039750 -0.023222 -573075.000000 1 0 0
12.039216 -6.001168 -9.631750 16.544707 -0.462422 2.192185 0.040517 -0.011108 -1067250.000000 1 0 0
8.211916 6.797032 -13.637850 17.309713 0.691407 2.478143 0.014660 -0.010753 -898033.000000 1 0 0
4.052716 -4.250568 -17.495750 18.455164 -0.809222 2.817732 0.015352 -0.013276 1014040.000000 1 0 0
9.330516 -7.475768 -12.276450 17.136419 -0.675483 2.369418 0.033676 -0.015165 424517.000000 1 0 0
11.952916 -8.755868 -8.688250 17.176237 -0.632226 2.101140 0.051701 -0.019321 1020820.000000 1 0 0
-2.990184 -2.545268 -13.938050 14.480636 0.705195 2.866980 0.010630 -0.007816 -1433130.000000 1 0 0
-0.318884 6.114432 -17.653550 18.685175 -1.518691 2.807747 0.021851 0.001956 1857840.000000 1 0 0
1.072716 -8.457168 -17.471850 19.440677 -1.444629 2.687653 0.021735 -0.006629 1992280.000000 1 0 0
0.057816 8.482632 -15.958050 18.072569 1.563981 2.653009 0.004344 0.002620 -927828.000000 1 0 0
1.800316 3.266732 -14.901250 15.360987 1.067104 2.896320 0.012935 -0.003515 1771970.000000 1 0 0
-1.932584 -0.481468 -15.870350 15.994833 0.244161 3.016750 0.017741 -0.011452 1844870.000000 1 0 0
14.182316 -4.385968 -8.430950 17.072074 -0.299927 2.087302 0.054276 -0.008094 313291.000000 1 0 0
0.632216 0.464432 -14.570450 14.591552 0.633579 3.087805 0.009427 -0.009963 2270180.000000 1 0 0
8.760016 2.692932 -12.570650 15.556703 0.298243 2.511637 0.000836 -0.001919 -291162.000000 1 0 0
5.942216 1.015232 -17.132250 18.161900 0.169217 2.803253 0.013050 -0.001975 -1390800.000000 1 0 0
15.238616 1.530932 -12.430850 19.725243 0.100128 2.252607 0.059577 -0.008980 265684.000000 1 0 0
8.877616 -11.245268 -11.864150 18.601778 -0.902519 2.262430 0.041655 -0.011052 898798.000000 1 0 0
-4.639084 0.807932 -15.156250 15.870909 -0.172428 2.840357 0.017681 -0.009021 1048610.000000 1 0 0
2.357816 5.008732 -17.290650 18.155254 1.130829 2.831736 0.018156 0.000750 1352460.000000 1 0 0
6.006016 -11.780968 -12.381450 18.115290 -1.099334 2.323317 0.021793 -0.006678 719837.000000 1 0 0
12.818516 7.187832 -8.703950 17.080340 0.511050 2.105503 0.023229 -0.006081 -681338.000000 1 0 0
-5.043484 3.589332 -15.745550 16.918699 -0.618520 2.767008 0.010435 -0.004014 1193350.000000 1 0 0
-0.648584 -4.473968 -19.017650 19.547584 1.426831 2.908212 0.035491 -0.017349 -682907.000000 1 0 0
9.797416 4.384432 -10.303150 14.878424 0.420781 2.335730 -0.001450 -0.004100 -1182840.000000 1 0 0
13.111316 3.504432 -12.719250 18.600187 0.261178 2.323787 0.037262 -0.020810 824771.000000 1 0 0
-6.212684 5.838132 -17.217150 19.212274 -0.754327 2.681821 0.005858 0.000160 -1706960.000000 1 0 0
-10.215784 3.130332 -15.392650 18.737526 -0.297337 2.534812 0.022111 -0.009349 248905.000000 1 0 0
10.640816 13.494932 -8.385050 19.121956 0.903104 2.024729 0.070392 -0.005686 -1832150.000000 1 0 0
7.397116 13.277532 -12.427950 19.633240 1.062507 2.256226 0.071225 -0.025530 224850.000000 1 0 0
5.260916 15.096232 -11.360550 19.612128 1.235466 2.188619 0.044078 -0.020294 984046.000000 1 0 0
14.300916 9.235932 -10.184750 19.838038 0.573437 2.109933 0.085430 -0.013837 1359060.000000 1 0 0
8.250416 -17.203368 -2.025850 19.186696 -1.123617 1.676580 0.042680 -0.011738 -242313.000000 1 0 0
0.674716 -15.938368 -0.044550 15.952705 -1.528489 1.573589 0.008982 -0.010701 1343600.000000 1 0 0
-9.080384 -11.625268 7.580750 16.585174 0.907693 1.096087 0.015250 -0.009467 -713083.000000 1 0 0
2.017816 -15.867268 -2.648950 16.212918 -1.444307 1.734917 0.009267 -0.007206 2513080.000000 1 0 0
-1.277684 -11.093268 -9.459050 14.634435 1.456125 2.273595 0.001959 -0.003018 1936780.000000 1 0 0
-4.841084 -12.629368 -12.888850 18.683133 1.204752 2.332100 0.017131 -0.003548 1054670.000000 1 0 0
-8.400884 -17.837368 -1.671550 19.787385 1.130640 1.655373 0.045314 -0.021863 976278.000000 1 0 0
-11.417584 -7.207468 -8.820050 16.127681 0.563088 2.149440 0.025188 -0.003845 2956130.000000 1 0 0
-13.649284 -11.637268 -4.621250 18.522551 0.705997 1.822953 0.040575 -0.010908 170667.000000 1 0 0
-5.944484 -13.302268 9.772750 17.544055 1.150542 0.979978 0.006547 -0.007094 -536759.000000 1 0 0
0.108816 -13.946068 -3.683850 14.424819 -1.562994 1.829040 0.005170 -0.004773 994638.000000 1 0 0
-14.831284 -11.570768 2.011650 18.918150 0.662525 1.464260 0.021033 -0.010502 1208290.000000 1 0 0
-4.025984 -16.395768 -7.497250 18.472642 1.330010 1.988713 0.007474 -0.011138 930570.000000 1 0 0
0.493116 -15.367568 -9.104950 17.869119 -1.538719 2.105441 0.006773 -0.003450 1150060.000000 1 0 0
4.521316 -14.182768 -2.649850 15.120017 -1.262192 1.746960 0.008846 -0.004770 590829.000000 1 0 0
-3.555684 -18.136468 -2.465250 18.645423 1.377200 1.703402 0.014979 -0.014077 1171630.000000 1 0 0
-0.935884 -13.427468 0.660250 13.476227 1.501210 1.521783 0.006179 -0.003149 3347650.000000 1 0 0
-8.541884 -11.370368 -10.408650 17.623536 0.926502 2.202612 0.025350 -0.006938 2184230.000000 1 0 0
-3.751784 -14.110468 -0.412050 14.606538 1.310922 1.599010 0.004194 -0.003096 3867030.000000 1 0 0
-1.585584 -14.849768 -7.201550 16.579867 1.464424 2.020118 -0.000189 -0.005150 463826.000000 1 0 0
-14.258784 -7.861068 -1.807350 16.382180 0.503852 1.681345 0.020379 -0.007808 3117210.000000 1 0 0
-10.738384 -7.290168 -11.700650 17.474685 0.596416 2.304436 0.028167 -0.004795 90844.500000 1 0 0
-9.311684 -14.692968 6.799150 18.676702 1.005929 1.198190 0.005646 -0.006690 -478198.000000 1 0 0
-2.433784 -14.268868 -12.178950 18.916942 1.401856 2.270266 0.017279 -0.003866 688349.000000 1 0 0
2.267316 -17.779768 -4.738650 18.539570 -1.443959 1.829261 0.021857 -0.010217 801304.000000 1 0 0
-6.584384 -9.660668 -9.183750 14.866871 0.972550 2.236652 0.015633 -0.008200 1174570.000000 1 0 0
-11.035984 -15.384768 0.339650 18.936720 0.948533 1.552859 0.031028 -0.017083 -1425990.000000 1 0 0
-12.692184 -11.027168 4.077650 17.300786 0.715317 1.332866 0.024756 -0.009611 1681850.000000 1 0 0
-17.101084 -8.835268 -1.534450 19.309675 0.476878 1.650346 0.028139 -0.011232 -89400.500000 1 0 0
-1.432184 -19.346168 -3.952150 19.797597 1.496902 1.771774 0.009355 -0.002926 -1853570.000000 1 0 0
3.241316 -14.319068 -8.712950 17.072121 -1.348184 2.106401 0.011900 -0.009702 1779600.000000 1 0 0
-4.377384 -8.062968 -13.023650 15.930737 1.073421 2.527883 0.007973 -0.001240 1796840.000000 1 0 0
5.588016 -16.570368 1.200250 17.528366 -1.245543 1.502268 0.031084 -0.009543 2544350.000000 1 0 0
-2.853284 -13.852068 -3.259850 14.513705 1.367655 1.797334 0.004508 -0.005432 -1830410.000000 1 0 0
-0.423384 -13.979968 3.638050 14.451788 1.540521 1.316322 0.012183 -0.001948 -3933440.000000 1 0 0
1.278016 -16.189168 6.864550 17.630784 -1.492017 1.170870 0.027203 -0.017015 2298960.000000 1 0 0
-5.445584 -10.406468 -14.630650 18.761793 1.088692 2.465160 0.014716 -0.001215 1009350.000000 1 0 0
-0.390984 -17.310968 -5.824750 18.268831 1.548214 1.895297 0.007365 -0.006493 963378.000000 1 0 0
-6.574984 -13.371568 -1.334850 14.960316 1.113800 1.660141 0.011739 -0.006834 4324140.000000 1 0 0
-1.700184 -17.703468 -0.208950 17.786148 1.475053 1.582544 0.006145 -0.011240 2814450.000000 1 0 0
-9.491184 -9.769768 -4.838650 14.454877 0.799861 1.912127 0.023217 -0.007655 2066430.000000 1 0 0
-0.843584 -16.684568 4.834850 17.391441 1.520279 1.289083 0.024359 -0.012199 2356450.000000 1 0 0
-6.848084 -9.832168 -6.294550 13.534738 0.962425 2.054506 0.020111 -0.010394 3810870.000000 1 0 0
-6.087284 -14.481668 -8.591150 17.904792 1.172876 2.071250 0.019249 -0.009031 707667.000000 1 0 0
-5.764784 -12.175268 -10.194350 16.893627 1.128586 2.218609 0.020771 -0.011326 714306.000000 1 0 0
-10.701884 -12.153768 -8.637250 18.353378 0.848837 2.060776 0.044686 -0.018026 -694188.000000 1 0 0
4.126816 -17.021468 6.556650 18.701621 -1.332938 1.212593 0.039844 -0.024238 76386.600000 1 0 0
-6.711484 -14.349768 -4.156750 16.377986 1.133315 1.827404 0.020775 -0.017247 334783.000000 1 0 0
-2.868484 -12.152068 -7.111050 14.368994 1.338990 2.088503 0.004357 -0.006514 2900860.000000 1 0 0
-7.020584 -12.734068 4.393550 15.190404 1.066938 1.277372 -0.001467 -0.002532 3086170.000000 1 0 0
2.571616 -16.417468 2.307050 16.777036 -1.415420 1.432847 0.017539 -0.013825 4581930.000000 1 0 0
-6.213284 -11.921968 7.208950 15.254743 1.090362 1.078590 -0.001064 -0.001326 324301.000000 1 0 0
-11.321484 -12.774268 -0.941950 17.095180 0.845617 1.625925 0.031683 -0.008236 1502700.000000 1 0 0
-14.319384 -8.637568 4.672950 17.363433 0.542775 1.298311 0.020688 -0.005196 -515718.000000 1 0 0
-7.885084 -15.521168 4.336950 17.941302 1.100752 1.326648 0.002859 -0.001343 235433.000000 1 0 0
-16.478284 -9.135668 1.233750 18.881642 0.506220 1.505408 0.011626 -0.009501 799899.000000 1 0 0
-6.659184 -17.045268 2.259950 18.438906 1.198353 1.447923 0.008417 -0.006280 1214210.000000 1 0 0
-11.655084 -14.948168 -4.503450 19.482550 0.908557 1.804059 0.067813 -0.016957 590002.000000 1 0 0
-10.155584 -9.996768 -12.597950 19.020504 0.777518 2.294728 0.030225 -0.001457 -515172.000000 1 0 0
-4.425784 -16.063368 -4.499550 17.258774 1.301946 1.834555 0.005741 -0.009505 -738432.000000 1 0 0
-11.809384 -8.260968 0.025750 14.412002 0.610408 1.569010 0.005581 -0.002236 1291160.000000 1 0 0
-9.676184 -11.197168 3.499050 15.206855 0.858137 1.338619 0.008537 0.000748 2602400.000000 1 0 0
-14.262584 -12.817868 -0.536950 19.183518 0.732100 1.598790 0.030861 -0.004984 29485.500000 1 0 0
5.617016 -14.864968 -7.127050 17.415883 -1.209512 1.992403 0.021811 -0.018334 -94174.000000 1 0 0
-7.469084 -10.559368 -1.280350 12.997183 0.955160 1.669466 0.013449 -0.004350 2240170.000000 1 0 0
-11.670584 -8.274168 -6.056050 15.535125 0.616725 1.971243 0.023456 -0.006984 263617.000000 1 0 0
-14.452784 -6.655868 -9.150250 18.355125 0.431572 2.092678 0.039231 -0.010126 2692090.000000 1 0 0
-3.900584 -16.426868 1.385450 16.940366 1.337662 1.488921 0.004729 -0.009889 1805840.000000 1 0 0
-8.050684 -15.453068 0.114650 17.424809 1.090509 1.564217 0.029015 -0.014241 1101640.000000 1 0 0
0.966516 -18.618868 3.692550 19.006086 -1.518932 1.375270 0.026941 -0.016803 1356330.000000 1 0 0
-14.184584 -8.827568 -4.569150 17.320667 0.556681 1.837753 0.029832 -0.011236 230679.000000 1 0 0
-3.543884 -14.477368 11.160050 18.619882 1.330729 0.928092 0.003260 -0.007559 1482310.000000 1 0 0
-10.894884 -12.103968 -3.748050 16.710847 0.837921 1.797009 0.043190 -0.019467 31000.300000 1 0 0
-9.996784 -10.707168 0.566650 14.659475 0.819696 1.532132 0.012921 -0.001341 1501910.000000 1 0 0
0.024616 -13.211668 -11.022550 17.205969 -1.568933 2.266106 0.010067 -0.008187 1827960.000000 1 0 0
-5.884584 -12.592868 -6.346050 15.280085 1.133653 1.999085 0.011052 -0.016298 1161740.000000 1 0 0
1.674016 -15.880968 9.787550 18.729752 -1.465774 1.020937 0.025805 -0.016050 -910313.000000 1 0 0
-9.042584 -15.774568 -5.344950 18.951881 1.050287 1.856703 0.059816 -0.020709 -590164.000000 1 0 0
-3.392784 -15.463368 5.876450 16.886663 1.354811 1.215366 -0.001411 -0.002324 -67587.200000 1 0 0
-17.538884 -5.329568 -6.373850 19.407285 0.295005 1.905433 0.037480 -0.013582 703705.000000 1 0 0
18.854916 5.590832 -3.050650 19.901551 0.288260 1.724690 0.040228 -0.001546 -761779.000000 1 0 0
12.991116 -12.576668 -5.778250 18.982356 -0.769190 1.880106 0.068794 -0.014183 589914.000000 1 0 0
10.988716 -13.546368 -1.663650 17.522091 -0.889268 1.665885 0.044598 -0.013241 1184360.000000 1 0 0
18.751616 -2.847868 4.446250 19.480826 -0.150721 1.340530 0.068952 -0.018069 -707005.000000 1 0 0
8.794716 -16.827668 4.900650 19.609534 -1.089206 1.318207 0.052365 -0.027390 163883.000000 1 0 0
18.145216 -1.103468 6.680850 19.367506 -0.060738 1.218609 0.087151 -0.014215 -1094620.000000 1 0 0
18.025616 -4.253868 -4.877350 19.152200 -0.231750 1.828295 0.105849 -0.020882 -126324.000000 1 0 0
5.268316 -11.831368 14.639850 19.546397 -1.151871 0.724276 0.009345 0.000149 -189442.000000 1 0 0
15.896116 -8.990768 -0.761850 18.278425 -0.514738 1.612489 0.057938 -0.014049 -84761.400000 1 0 0
13.877416 -12.659368 -1.346350 18.832284 -0.739530 1.642349 0.056462 -0.007689 1382270.000000 1 0 0
11.124616 -1.944468 13.887950 17.900090 -0.173042 0.682720 0.033774 -0.003996 -733972.000000 1 0 0
16.947716 -6.220668 -1.456450 18.111958 -0.351783 1.651297 0.074312 -0.017345 -1287670.000000 1 0 0
17.723216 3.637932 -1.089850 18.125527 0.202452 1.630960 0.038163 -0.001887 465181.000000 1 0 0
9.697016 -11.115268 9.660950 17.632789 -0.853438 0.990948 0.027596 -0.006315 9315.530000 1 0 0
9.014016 -11.115768 4.340050 14.954893 -0.889431 1.276351 0.007592 -0.007211 -151837.000000 1 0 0
14.070816 -10.245868 6.799450 18.686846 -0.629379 1.198385 0.050846 -0.010611 536471.000000 1 0 0
16.291816 -0.568368 -4.692950 16.963788 -0.034873 1.851098 0.042928 -0.001069 -777282.000000 1 0 0
15.851116 -0.580068 -1.624650 15.944712 -0.036578 1.672866 0.034727 0.001780 2466320.000000 1 0 0
12.820816 -5.259668 -0.262050 13.860234 -0.389306 1.589704 0.011982 -0.005639 568017.000000 1 0 0
14.293916 -7.577868 1.114850 16.216751 -0.487473 1.501995 0.034864 -0.008813 2206870.000000 1 0 0
15.584416 2.464132 3.657750 16.196454 0.156817 1.342995 0.031975 -0.005310 1427150.000000 1 0 0
15.908016 -7.092668 4.990250 18.118320 -0.419402 1.291764 0.055160 -0.016779 -1071770.000000 1 0 0
13.630616 -12.134668 3.321850 18.549354 -0.727403 1.390743 0.030206 -0.007829 375604.000000 1 0 0
14.022616 -0.928068 9.191250 16.792086 -0.066087 0.991595 0.047585 -0.009841 1247350.000000 1 0 0
14.136416 -2.810468 -1.524950 14.493532 -0.196252 1.676207 0.008461 -0.002441 366345.000000 1 0 0
15.047916 1.864332 9.166950 17.718592 0.123265 1.027029 0.049000 -0.002703 -1795120.000000 1 0 0
14.370016 -10.227468 -2.985450 17.888862 -0.618550 1.738470 0.065702 -0.014319 -73567.100000 1 0 0
7.368816 -12.695468 6.165450 15.921279 -1.044892 1.173154 0.003290 -0.009103 -1504250.000000 1 0 0
12.425516 -4.691268 7.014650 15.020212 -0.361005 1.084885 0.018476 -0.005320 1852870.000000 1 0 0
14.966816 -8.949968 -5.610450 18.318970 -0.538938 1.882063 0.083076 -0.019181 -734578.000000 1 0 0
14.335016 -4.519668 4.723850 15.755470 -0.305423 1.266289 0.021747 -0.009077 1604290.000000 1 0 0
17.104116 -4.284068 0.909650 17.655919 -0.245421 1.519253 0.048973 -0.017664 -1785340.000000 1 0 0
10.189616 -14.519868 1.030850 17.768441 -0.958883 1.512748 0.039001 -0.011991 897287.000000 1 0 0
16.424116 -2.585068 8.517950 18.681265 -0.156114 1.097343 0.081876 -0.016169 522672.000000 1 0 0
16.071516 -2.582468 3.155950 16.580796 -0.159324 1.379290 0.033556 -0.007678 1201840.000000 1 0 0
7.764316 -15.261068 2.715150 17.336575 -1.100160 1.413535 0.023519 -0.010868 1263170.000000 1 0 0
16.628516 -7.097268 7.836950 19.705242 -0.403405 1.161778 0.073423 -0.014912 -1241590.000000 1 0 0
10.264216 -8.552268 5.212350 14.340991 -0.694667 1.198819 0.007826 -0.004918 1371580.000000 1 0 0
10.875816 -11.994368 2.195050 16.339109 -0.834268 1.436046 0.021368 -0.008514 101853.000000 1 0 0
12.369516 -7.263968 12.021850 18.716171 -0.530990 0.873269 0.053930 -0.016081 487944.000000 1 0 0
15.128416 -9.898968 4.301050 18.583799 -0.579413 1.337238 0.043644 -0.013376 -803301.000000 1 0 0
7.383116 -10.323468 7.906350 14.953086 -0.949956 1.013677 0.005403 -0.002355 689125.000000 1 0 0
15.205016 -3.319168 -4.361150 16.162581 -0.214923 1.844013 0.053940 -0.005468 1778020.000000 1 0 0
11.782516 -9.010868 9.786850 17.770928 -0.652885 0.987567 0.041826 -0.014406 -1693410.000000 1 0 0
16.947716 -6.683268 2.370250 18.371424 -0.375623 1.441417 0.056926 -0.015472 648443.000000 1 0 0
17.617316 3.940832 1.974250 18.160332 0.220068 1.461869 0.042916 -0.002323 2098440.000000 1 0 0
14.758416 -4.965368 8.764050 17.868248 -0.324547 1.058154 0.064756 -0.019864 -208545.000000 1 0 0
12.858616 -12.724968 6.110250 19.094606 -0.780174 1.245068 0.037773 -0.009326 -172254.000000 1 0 0
18.231616 0.722932 -0.740850 18.260978 0.039632 1.611378 0.053188 -0.005072 -175437.000000 1 0 0
11.748916 -2.108068 11.002650 16.233893 -0.177537 0.826087 0.021713 -0.003748 3165520.000000 1 0 0
5.696816 -12.569268 10.376450 17.265889 -1.145256 0.926070 0.004312 -0.004141 -1072040.000000 1 0 0
10.688616 -4.934968 11.074950 16.163383 -0.432544 0.815935 0.027473 -0.005260 1116590.000000 1 0 0
17.930616 1.161132 4.854850 18.612490 0.064667 1.306906 0.063850 -0.007082 -1378260.000000 1 0 0
12.318316 -7.764968 7.194450 16.241790 -0.562444 1.111900 0.025132 -0.008980 -355948.000000 1 0 0
10.829816 -7.760668 14.402850 19.620270 -0.621782 0.746485 0.068710 -0.010954 -212210.000000 1 0 0
14.207516 -0.260868 3.744350 14.694956 -0.018359 1.313150 0.009646 -0.001936 1871430.000000 1 0 0
11.678216 -7.754068 2.568750 14.251483 -0.586138 1.389561 0.009576 -0.001669 1454840.000000 1 0 0
9.309316 6.104032 3.521350 11.675722 0.580365 1.264430 0.004379 -0.001180 2029320.000000 1 0 0
-3.950384 14.781832 -10.009850 18.284014 -1.309653 2.150128 0.008561 -0.004911 654770.000000 1 0 0
8.807216 -6.406268 9.276650 14.306067 -0.628872 0.865261 0.006844 -0.003677 398861.000000 1 0 0
5.774316 -10.627468 -8.468350 14.764780 -1.073082 2.181630 0.004746 -0.007097 -620648.000000 1 0 0
5.398216 1.037432 0.537450 5.523211 0.189866 1.473334 0.002634 -0.000241 3459680.000000 1 0 0
-0.573684 9.894532 10.975250 14.788070 -1.512881 0.734495 -0.000603 0.006873 -424912.000000 1 0 0
-6.274484 -5.169668 1.097050 8.203544 0.689157 1.436666 0.011934 -0.002891 3448000.000000 1 0 0
-1.102584 3.894732 -10.845250 11.576013 -1.294919 2.784373 0.009559 -0.008497 822743.000000 1 0 0
10.996216 5.753532 1.250750 12.473343 0.482057 1.470354 0.007077 0.000009 1018890.000000 1 0 0
-10.154684 -1.802268 -13.586450 17.057473 0.175652 2.492297 0.015461 -0.008321 2345090.000000 1 0 0
7.493916 10.859332 -6.183050 14.570998 0.966752 2.009029 0.006711 -0.001514 -207362.000000 1 0 0
-12.441984 -2.856568 -9.570750 15.955005 0.225680 2.214121 0.019094 -0.005922 -492609.000000 1 0 0
-3.860284 -8.584568 2.349050 9.701270 1.148211 1.326227 0.010714 -0.000462 -618978.000000 1 0 0
7.929416 -6.683168 -5.820350 11.891881 -0.700318 2.082243 0.005580 -0.007275 2137790.000000 1 0 0
14.299416 3.143932 -4.204350 15.232668 0.216421 1.850435 0.026209 0.003980 156762.000000 1 0 0
-2.583084 -4.951068 9.799750 11.279207 1.089922 0.517955 0.004304 -0.001497 2684020.000000 1 0 0
3.492216 -1.891568 -4.565650 6.051343 -0.496412 2.425666 -0.003162 -0.001922 -2913120.000000 1 0 0
-3.874284 8.513832 -3.438250 9.965790 -1.143744 1.923041 0.000562 0.000417 1266780.000000 1 0 0
5.943816 0.173832 11.804250 13.217394 0.029238 0.466641 0.002572 -0.003405 1987820.000000 1 0 0
7.236216 4.816732 12.476950 15.206513 0.587293 0.608510 0.006693 -0.000608 1590520.000000 1 0 0
1.083316 -14.520468 12.303150 19.062662 -1.496328 0.869242 0.006758 -0.002592 -951645.000000 1 0 0
3.011716 8.609432 -9.135550 12.909339 1.234286 2.356991 0.005325 -0.003941 -316811.000000 1 0 0
-4.427884 -8.851768 -4.507650 10.875608 1.106968 1.998160 0.008833 -0.007761 1446770.000000 1 0 0
5.618016 -6.557868 -4.003650 9.518243 -0.862435 2.004935 0.000848 -0.004935 2275070.000000 1 0 0
-3.075584 3.501432 8.652450 9.827723 -0.850056 0.494065 -0.000013 -0.000282 2263820.000000 1 0 0
-3.819484 3.102432 -11.148550 12.186209 -0.682175 2.725932 0.006101 -0.009104 -2883.460000 1 0 0
3.067216 -6.038868 8.585750 10.935760 -1.100839 0.667926 -0.000399 0.000858 647283.000000 1 0 0
-5.189484 -8.683868 10.553750 14.619232 1.032143 0.764240 0.006421 -0.004469 1509200.000000 1 0 0
-13.308684 -2.464268 6.530650 15.028076 0.183089 1.121243 0.015983 0.001299 11196.200000 1 0 0
3.979616 -5.973168 -8.361750 11.019752 -0.983083 2.432260 -0.000989 -0.002136 2084320.000000 1 0 0
3.085316 -0.528868 12.422250 12.810589 -0.169765 0.246853 0.005388 -0.004918 1163110.000000 1 0 0
1.487016 -1.445068 -7.554350 7.833750 -0.771092 2.873711 -0.000636 -0.005172 1123920.000000 1 0 0
3.675116 -3.466768 3.541350 6.169775 -0.756234 0.959434 0.000126 0.000371 1704020.000000 1 0 0
1.586616 0.392832 -11.838250 11.950557 0.242710 3.004389 0.004888 -0.007971 -1078550.000000 1 0 0
4.065616 3.559232 -10.604850 11.902109 0.719083 2.670352 0.000005 -0.004717 748122.000000 1 0 0
2.830416 3.270832 3.331350 5.459624 0.857458 0.914509 -0.003495 0.002995 313907.000000 1 0 0
-5.384684 0.934332 2.614050 6.058140 -0.171806 1.124648 0.003804 -0.001976 312973.000000 1 0 0
-9.536284 -9.254368 5.710150 14.463397 0.770396 1.164946 0.012053 -0.002106 -2242540.000000 1 0 0
-2.999384 3.809832 -0.626750 4.889166 -0.903863 1.699342 -0.000977 -0.004681 -581695.000000 1 0 0
-16.000284 -6.531168 5.027750 17.998431 0.387547 1.287686 0.032524 -0.005914 1845500.000000 1 0 0
1.089716 6.634432 -8.058050 10.494538 1.407998 2.446248 0.004736 -0.004105 1173300.000000 1 0 0
-1.552484 6.479532 -9.467650 11.577173 -1.335631 2.528350 0.005293 -0.002975 1325980.000000 1 0 0
2.109016 -0.261868 5.267250 5.679828 -0.123534 0.383500 0.003783 0.000082 1664110.000000 1 0 0
-3.346584 -0.527468 -6.275450 7.131558 0.156328 2.646564 0.006137 -0.008481 -295157.000000 1 0 0
1.855416 -1.132368 -2.464350 3.286007 -0.547961 2.418787 0.003053 -0.001583 329690.000000 1 0 0
2.481616 -8.645968 -7.626750 11.793154 -1.291285 2.274059 -0.004962 -0.001218 2272410.000000 1 0 0
-2.447484 14.006532 -5.641250 15.296955 -1.397804 1.948495 0.004053 0.000702 2470140.000000 1 0 0
6.810716 -5.177268 -8.208650 11.856301 -0.649975 2.335530 0.002202 -0.005364 2969300.000000 1 0 0
-14.170784 -4.921068 -2.141850 15.153070 0.334239 1.712619 0.009918 -0.002711 -152624.000000 1 0 0
-2.709284 6.883732 -6.777250 10.032801 -1.195839 2.312451 0.006018 -0.003064 -2289580.000000 1 0 0
-5.528184 -1.135268 -8.055550 9.835727 0.202544 2.530478 0.016102 -0.008532 -156234.000000 1 0 0
-5.689184 -10.493168 3.505150 12.440236 1.073977 1.285169 0.006481 -0.000690 -2544700.000000 1 0 0
8.031416 -7.620668 6.716050 12.949269 -0.759162 1.025533 0.000566 -0.001510 478181.000000 1 0 0
8.810016 -5.958068 13.235950 16.979557 -0.594631 0.676893 0.031853 -0.001891 652131.000000 1 0 0
-4.751684 9.482632 -0.789850 10.635914 -1.106274 1.645127 -0.003035 0.001672 571457.000000 1 0 0
2.826416 6.618332 12.164050 14.133474 1.167183 0.534241 0.009479 -0.000003 144623.000000 1 0 0
6.093416 -2.776868 11.047750 12.918727 -0.427597 0.544911 0.003724 -0.004770 -468686.000000 1 0 0
-9.727784 -6.531268 -1.074350 11.766115 0.591275 1.662232 0.012017 -0.004322 -167675.000000 1 0 0
0.808916 -13.362568 6.272050 14.783477 -1.510334 1.132651 0.014264 -0.005265 608217.000000 1 0 0
-0.495384 -3.148168 8.854450 9.410508 1.414720 0.345486 0.005657 -0.001453 3039670.000000 1 0 0
4.228716 0.744232 3.375250 5.461523 0.174211 0.904593 -0.001039 0.002230 667610.000000 1 0 0
-10.109884 5.604232 8.288950 14.224060 -0.506163 0.948698 -0.001621 -0.008697 97248.500000 1 0 0
9.361116 7.956932 -0.009250 12.285901 0.704493 1.571549 0.003616 -0.000590 399347.000000 1 0 0
4.336816 2.855132 8.327650 9.813741 0.582221 0.557519 -0.000920 0.001347 3223450.000000 1 0 0
1.348816 2.607932 -9.781650 10.212800 1.093486 2.849986 0.006940 -0.008818 1588800.000000 1 0 0
-1.403884 -10.114168 3.054450 10.658187 1.432874 1.280138 0.006251 -0.001098 -2194260.000000 1 0 0
-9.852084 9.533932 9.074050 16.440736 -0.768988 0.986126 0.001912 -0.009949 1240690.000000 1 0 0
9.782216 -2.107668 -7.636850 12.587910 -0.212215 2.222675 0.013744 -0.001404 2351820.000000 1 0 0
-5.217184 -1.855768 6.685550 8.680983 0.341746 0.691740 0.004914 -0.000361 604806.000000 1 0 0
3.062016 -7.827668 -4.918650 9.738657 -1.197918 2.100253 -0.004982 -0.002391 1500080.000000 1 0 0
-5.108084 4.884232 -13.096350 14.881620 -0.763000 2.646733 0.002635 -0.008755 1731140.000000 1 0 0
-5.632184 9.642332 5.399650 12.403721 -1.042142 1.120397 -0.005327 -0.000789 1201370.000000 1 0 0
-0.520384 -1.749468 -9.387750 9.563539 1.281678 2.949562 0.003936 -0.006381 -1125970.000000 1 0 0
-16.761084 0.140932 6.393350 17.939585 -0.008408 1.206403 0.025761 -0.005348 1835030.000000 1 0 0
-5.962484 -2.831968 4.088050 7.764239 0.443419 1.016291 0.002959 0.000143 2439940.000000 1 0 0
0.947816 -5.656668 -5.041650 7.636391 -1.404781 2.291899 -0.004490 -0.001604 1194920.000000 1 0 0
-7.005084 1.368932 -8.482150 11.085668 -0.192988 2.442064 0.005163 -0.003098 -144047.000000 1 0 0
8.023716 2.033732 4.737150 9.537121 0.248237 1.050996 -0.001282 0.000091 504420.000000 1 0 0
0.467816 -8.033568 -0.446250 8.059541 -1.512629 1.626194 -0.001582 0.000912 -625556.000000 1 0 0
5.516016 5.423932 -3.433050 8.463528 0.776981 1.988463 0.000802 -0.000942 -1259270.000000 1 0 0
-0.757784 -0.309068 -1.224750 1.473014 0.387262 2.552523 0.002521 -0.003432 300568.000000 1 0 0
9.109816 6.369732 -6.401150 12.827196 0.610200 2.093275 0.003133 -0.002465 1017290.000000 1 0 0
-14.986084 -7.096468 2.518850 16.771618 0.442254 1.420041 0.000915 -0.006696 886423.000000 1 0 0
-6.369484 6.906932 8.842350 12.902062 -0.825858 0.815720 -0.004556 -0.002299 -1787540.000000 1 0 0
-9.423984 -3.241668 -9.569850 13.816725 0.331302 2.335922 0.012795 -0.004488 2737750.000000 1 0 0
14.839216 3.408132 -1.274350 15.278798 0.225756 1.654300 0.014012 0.000261 934488.000000 1 0 0
12.127916 1.620832 -5.792050 13.537403 0.132857 2.012915 0.011136 0.003790 -926047.000000 1 0 0
1.523716 -9.372468 12.652350 15.819192 -1.409633 0.643817 -0.006439 -0.001459 -466797.000000 1 0 0
-3.571084 6.350532 7.888550 10.738302 -1.058537 0.745693 -0.004772 -0.000170 953314.000000 1 0 0
-4.078084 13.081932 -12.469150 18.526937 -1.268609 2.309092 0.010987 -0.004254 -896112.000000 1 0 0
-10.158084 7.824732 6.438150 14.347923 -0.656365 1.105468 -0.002097 -0.007577 -15775.200000 1 0 0
7.989116 -9.303868 -7.115350 14.178016 -0.861280 2.096542 0.011768 -0.008871 -446576.000000 1 0 0
5.852016 -3.759668 -0.257950 6.960440 -0.571054 1.607864 0.001456 -0.001823 -2632100.000000 1 0 0
-1.542284 -4.401668 4.240450 6.303550 1.233777 0.832933 0.005648 0.000100 1278570.000000 1 0 0
9.908816 -2.105068 -2.576350 10.452441 -0.209332 1.819846 0.005625 -0.000699 -1769940.000000 1 0 0
13.605216 7.031632 1.429550 15.381462 0.477024 1.477722 0.012511 -0.004251 -101628.000000 1 0 0
5.387316 -3.707868 -3.190150 7.276573 -0.602802 2.024629 0.003624 -0.004464 -2838430.000000 1 0 0
-12.267884 -5.933668 1.962750 13.768144 0.450502 1.427752 0.007008 -0.003307 1833280.000000 1 0 0
3.719016 -5.679068 -0.166150 6.790471 -0.991009 1.595267 0.001555 -0.003844 -670583.000000 1 0 0
-5.167184 3.706332 -8.691150 10.769065 -0.622231 2.509931 0.005857 -0.005249 1000380.000000 1 0 0
-1.735884 -9.214368 7.248250 11.851371 1.384590 0.912720 0.004463 -0.000016 1505470.000000 1 0 0
-7.456884 -7.466268 2.568550 10.860374 0.786027 1.332027 0.013200 -0.003037 -3044240.000000 1 0 0
-5.809284 13.012632 -8.639150 16.664672 -1.150912 2.115788 0.008982 -0.006667 2212140.000000 1 0 0
9.265816 -13.857668 -4.171550 17.184066 -0.981428 1.816003 0.037155 -0.010636 1115930.000000 1 0 0
-6.586784 -5.303868 -6.655750 10.761772 0.677921 2.237581 0.012517 -0.005318 1134550.000000 1 0 0
3.438316 0.374032 -6.259750 7.151670 0.108357 2.636821 -0.000664 -0.005956 797398.000000 1 0 0
-3.617084 5.757632 4.989650 8.433874 -1.009882 0.937729 -0.001930 0.001334 849271.000000 1 0 0
-2.611784 -10.890868 -2.881450 11.564392 1.335427 1.822615 0.007093 -0.004947 1599400.000000 1 0 0
-12.546184 -0.414668 1.835650 12.686540 0.033039 1.425594 0.007804 -0.003930 247225.000000 1 0 0
8.473316 -11.954868 -6.077250 15.863446 -0.954205 1.963944 0.022995 -0.015809 -423865.000000 1 0 0
6.046616 3.938632 0.932450 7.276253 0.577343 1.442293 0.001651 0.000612 -976757.000000 1 0 0
3.358316 -4.815768 -10.936750 12.412993 -0.961845 2.648922 -0.001244 -0.003343 1324660.000000 1 0 0
-7.608684 4.237332 8.602350 12.241221 -0.508131 0.791560 -0.005366 -0.002642 1163070.000000 1 0 0
8.158616 8.766732 4.103850 12.659392 0.821312 1.240657 0.005682 0.000459 965206.000000 1 0 0
0.234416 10.557432 -6.448050 12.373022 1.548596 2.118980 0.000709 0.002718 2658280.000000 1 0 0
5.414316 8.089632 3.228650 10.255786 0.980979 1.250537 0.002450 0.002252 2207390.000000 1 0 0
8.103016 6.619432 -3.797150 11.130773 0.684967 1.918925 0.001225 -0.001336 -28211.600000 1 0 0
10.497316 2.453832 -8.265250 13.584156 0.229635 2.224900 0.001368 0.000633 916260.000000 1 0 0
3.327416 -12.458868 -0.304450 12.899138 -1.309815 1.594401 0.002603 -0.001819 -2641210.000000 1 0 0
0.648716 2.190732 5.262650 5.737215 1.282904 0.409592 0.001501 0.002190 930804.000000 1 0 0
-4.859184 13.441732 1.402750 14.361739 -1.223914 1.472968 -0.006064 0.003640 1625480.000000 1 0 0
8.249516 4.055532 -8.059550 12.225310 0.456912 2.290619 -0.006902 -0.000197 1590440.000000 1 0 0
-13.910184 -0.553468 -3.567250 14.370971 0.039768 1.821645 0.012342 -0.004086 477595.000000 1 0 0
-8.575884 0.015832 -0.507050 8.590875 -0.001846 1.629853 0.002184 -0.002897 319037.000000 1 0 0
1.911116 -3.776168 -1.091950 4.370831 -1.102281 1.823297 -0.000461 -0.001293 -2518580.000000 1 0 0
8.129616 -5.606368 -0.217350 9.877715 -0.603727 1.592802 0.002188 -0.001065 2450760.000000 1 0 0
-2.336884 -1.149668 7.422350 7.866006 0.457200 0.337461 0.006739 -0.000336 1385680.000000 1 0 0
-5.840284 8.815832 -11.706350 15.775501 -0.985700 2.406933 -0.000155 0.000458 -909529.000000 1 0 0
-6.159084 9.132432 -8.887550 14.153592 -0.977446 2.249695 -0.001281 0.000857 253599.000000 1 0 0
-1.534284 14.051432 -8.473550 16.480225 -1.462037 2.110830 0.020638 -0.001136 -814418.000000 1 0 0
-1.446184 7.173932 9.769350 12.206431 -1.371874 0.642927 -0.002612 -0.000083 929862.000000 1 0 0
10.064516 2.284532 -4.006750 11.071026 0.223207 1.941116 0.004080 0.002021 -631058.000000 1 0 0
-2.999384 -7.485568 -6.906850 10.617655 1.189696 2.279047 0.004585 -0.005354 1406060.000000 1 0 0
-5.502284 -4.922468 -1.630950 7.560808 0.729836 1.788216 0.012858 -0.002449 1209650.000000 1 0 0
5.689416 7.350532 -8.774350 12.782370 0.912102 2.327380 0.002983 -0.003905 1112630.000000 1 0 0
-9.625184 5.226932 -7.495750 13.272198 -0.497490 2.170952 0.002048 0.002749 1422100.000000 1 0 0
-0.440184 6.088732 -5.365050 8.127126 -1.498627 2.291803 0.004815 -0.003100 -1224910.000000 1 0 0
-8.301084 2.780232 -6.292850 10.781356 -0.323181 2.194048 0.006109 -0.001739 1970210.000000 1 0 0
3.598516 1.388332 -2.004150 4.346654 0.368211 2.050007 -0.000294 -0.003496 3304810.000000 1 0 0
-6.711584 12.478732 -3.595150 14.618113 -1.077336 1.819284 0.007350 0.002175 1131950.000000 1 0 0
-6.614684 3.109432 -2.375850 7.685524 -0.439427 1.885078 0.006030 -0.003232 -2374820.000000 1 0 0
12.128616 4.036332 -0.823650 12.809126 0.321265 1.635142 0.003737 0.001071 -542166.000000 1 0 0
2.260616 12.363032 -5.581350 13.751597 1.389941 1.988726 0.004595 -0.001654 1077250.000000 1 0 0
-9.175684 -1.417068 -4.257950 10.214274 0.153227 2.000787 0.008417 -0.001324 -401835.000000 1 0 0
-1.142284 5.789632 3.402750 6.812002 -1.376000 1.047748 -0.002642 0.001009 1092080.000000 1 0 0
11.615816 2.653632 12.046350 16.943539 0.224596 0.779919 0.033122 0.000221 129008.000000 1 0 0
-6.973584 -2.478768 -5.704050 9.344054 0.341523 2.227421 0.015271 -0.006310 195661.000000 1 0 0
7.517816 -7.432868 10.890950 15.178204 -0.779716 0.770534 0.010131 -0.001077 -125488.000000 1 0 0
-5.499184 -1.817868 -11.009250 12.439825 0.319262 2.657291 0.009784 -0.006863 -239914.000000 1 0 0
0.944616 -6.116268 4.517850 7.662376 -1.417564 0.940214 0.005067 -0.000080 1104480.000000 1 0 0
-4.829184 -9.339668 7.467050 12.896017 1.093593 0.953270 -0.000729 -0.000492 2490690.000000 1 0 0
-8.748684 9.343232 1.573350 12.896158 -0.818249 1.448490 0.003942 -0.004294 716303.000000 1 0 0
-8.148684 7.114132 -9.140750 14.162105 -0.717719 2.272392 -0.000231 0.002237 1515740.000000 1 0 0
-1.215484 -10.605168 -0.073050 10.674845 1.456682 1.577640 0.003326 -0.000724 529489.000000 1 0 0
-3.929684 10.316632 7.746050 13.486164 -1.206856 0.958962 -0.003208 0.002357 1498970.000000 1 0 0
-7.464984 12.029432 1.957550 14.292139 -1.015396 1.433397 -0.000181 -0.002608 1312380.000000 1 0 0
-8.166584 -8.278368 -2.817750 11.965123 0.792196 1.808526 0.019726 -0.007130 835447.000000 1 0 0
5.446516 4.543732 -8.042450 10.723387 0.695276 2.418846 0.001086 -0.001274 125970.000000 1 0 0
-8.941184 -0.245568 -10.222950 13.583585 0.027458 2.422792 0.006697 -0.004390 -1376890.000000 1 0 0
-15.184584 -2.188568 -1.425150 15.407546 0.143145 1.663426 0.011315 -0.006047 -1776240.000000 1 0 0
-7.186884 -5.758568 8.744250 12.699383 0.675509 0.811299 0.006153 -0.001807 -2434690.000000 1 0 0
8.087016 3.494732 -0.999250 8.866312 0.407904 1.683738 0.000755 0.000427 1173390.000000 1 0 0
11.908816 7.285832 -5.889750 15.152307 0.549052 1.970020 0.007820 0.001366 663589.000000 1 0 0
3.738016 13.216232 -9.595750 16.754700 1.295160 2.180616 0.008889 -0.010013 1817700.000000 1 0 0
-9.739984 5.537932 -0.423050 11.212268 -0.516994 1.608536 0.002934 -0.002276 1999720.000000 1 0 0
11.212816 -1.325468 -5.173050 12.419523 -0.117664 2.000417 0.018193 -0.001692 -841692.000000 1 0 0
10.561416 1.706732 -1.112550 10.756124 0.160216 1.674416 0.004417 0.001462 564855.000000 1 0 0
14.641916 5.111432 4.826150 16.242050 0.335869 1.269101 0.021392 -0.008628 2798210.000000 1 0 0
0.902816 -0.781868 10.442250 10.510328 -0.713728 0.113879 0.006986 -0.001491 1637340.000000 1 0 0
-7.901684 1.380132 -12.535150 14.881913 -0.172919 2.572347 0.000688 -0.007060 208833.000000 1 0 0
3.087716 -11.558368 -7.868050 14.319080 -1.309751 2.152538 -0.003164 -0.003981 894624.000000 1 0 0
2.951816 4.931132 -6.736350 8.854812 1.031401 2.435273 0.000981 -0.002130 -2215160.000000 1 0 0
6.436316 7.991232 0.504450 10.273287 0.892758 1.521673 0.003297 -0.001118 1022630.000000 1 0 0
-9.091484 -5.397568 6.726750 12.531480 0.535771 1.004171 0.005870 -0.000911 -1582200.000000 1 0 0
-0.308084 -6.863768 -11.785350 13.641873 1.525941 2.613778 0.002462 -0.000985 2480340.000000 1 0 0
6.485316 -13.334568 -4.631250 15.534429 -1.118125 1.873527 0.020494 -0.009858 2600390.000000 1 0 0
-3.252284 -0.237568 10.083250 10.597440 0.072917 0.312786 0.005603 -0.001564 635018.000000 1 0 0
8.581416 8.506032 6.997450 13.962722 0.780987 1.045866 0.000053 0.002328 -263132.000000 1 0 0
-7.966784 5.703932 -2.694950 10.162049 -0.621360 1.839205 0.006997 -0.003815 418274.000000 1 0 0
-5.294084 5.808132 -6.450250 10.166978 -0.831667 2.258069 0.003889 -0.002064 -360294.000000 1 0 0
3.355216 -13.660468 2.529650 14.292130 -1.329949 1.392863 0.011664 -0.009420 -2011600.000000 1 0 0
-11.296984 -7.026268 6.561050 14.833667 0.556410 1.112626 0.019729 -0.001545 -1103440.000000 1 0 0
-12.934884 -3.701668 -6.749550 15.052242 0.278728 2.035780 0.015765 -0.003460 132800.000000 1 0 0
6.084116 0.363532 -7.262450 9.481128 0.059680 2.443376 -0.001450 0.000232 1952560.000000 1 0 0
-1.456384 2.231032 -2.577450 3.706994 -0.992466 2.339625 0.002680 -0.005238 2419020.000000 1 0 0
7.580316 0.901132 -4.931550 9.088092 0.118323 2.144372 0.001082 0.001638 -1121480.000000 1 0 0
3.694216 -4.432368 10.920650 12.351264 -0.875981 0.486076 -0.000267 -0.000863 744128.000000 1 0 0
6.096016 -2.537368 2.132950 6.938957 -0.394422 1.258350 0.002270 -0.000808 -727951.000000 1 0 0
-6.309484 7.756532 1.093850 10.058324 -0.887913 1.461830 -0.002361 -0.002177 581667.000000 1 0 0
6.088316 -3.389668 8.031450 10.633045 -0.508010 0.714640 0.000738 -0.001534 -445501.000000 1 0 0
6.695816 -2.330068 -7.824550 10.558728 -0.334882 2.405430 0.001324 -0.003033 1558810.000000 1 0 0
12.062016 -8.264668 -5.785550 15.724807 -0.600711 1.947573 0.043765 -0.016522 -666769.000000 1 0 0
5.535716 -9.686968 10.028350 15.001644 -1.051626 0.838629 -0.001128 0.001152 1630400.000000 1 0 0
-6.551584 7.464932 -4.462650 10.888696 -0.850468 1.993078 0.001723 -0.000616 949484.000000 1 0 0
-1.348884 -7.562768 9.710050 12.381439 1.394294 0.669322 0.003328 -0.001368 -713852.000000 1 0 0
10.130316 -9.410268 0.804050 13.850016 -0.748566 1.512710 0.005582 -0.005081 680880.000000 1 0 0
11.133916 6.132432 9.775550 16.035342 0.503448 0.915209 0.004727 -0.004255 2779530.000000 1 0 0
-15.336884 -4.139768 -4.902050 16.624914 0.263639 1.870107 0.023644 -0.009184 2489010.000000 1 0 0
-4.773284 -4.563968 7.847850 10.256842 0.762985 0.699548 0.005833 -0.002492 -1051840.000000 1 0 0
2.965116 10.790432 -11.131150 15.783784 1.302624 2.353540 0.002615 -0.006430 -606943.000000 1 0 0
9.924916 -1.360068 1.604150 10.145297 -0.136187 1.412012 0.000984 -0.000287 489555.000000 1 0 0
-1.589084 -2.562968 0.698450 3.095452 1.015788 1.343199 0.002197 -0.003815 736713.000000 1 0 0
1.597216 3.052832 0.816650 3.540876 1.088768 1.338066 -0.004093 -0.000463 -1054950.000000 1 0 0
-8.944084 -2.406168 4.348150 10.231945 0.262801 1.131880 0.004516 -0.002215 3848090.000000 1 0 0
9.930716 4.856832 -2.675650 11.373963 0.454867 1.808265 0.002264 0.002439 431467.000000 1 0 0
2.598616 8.420732 2.414850 9.137453 1.271471 1.303339 -0.003082 0.001035 1118230.000000 1 0 0
-8.132984 -0.158068 2.417550 8.486163 0.019433 1.281914 0.000559 -0.004257 1775170.000000 1 0 0
6.969016 2.183832 13.816750 15.628145 0.303671 0.486244 0.009259 -0.002429 -651945.000000 1 0 0
6.806416 4.413632 3.717850 8.923557 0.575286 1.141058 -0.000462 0.000884 727879.000000 1 0 0
-0.295584 3.367032 7.819550 8.518782 -1.483233 0.407993 0.001325 0.000976 -173680.000000 1 0 0
2.701216 -10.223968 9.224250 14.032565 -1.312494 0.853505 -0.000269 -0.005137 1439110.000000 1 0 0
1.384816 -4.455868 6.941650 8.364149 -1.269475 0.591816 0.001796 0.001114 160788.000000 1 0 0
-0.139284 10.831232 -1.966250 11.009138 -1.557938 1.750361 0.000824 -0.001046 3002050.000000 1 0 0
8.784216 5.575632 8.102050 13.186863 0.565568 0.909167 0.002023 -0.001485 -2037550.000000 1 0 0
2.640616 11.325732 -2.992850 12.008423 1.341736 1.822681 0.003569 -0.005074 1685090.000000 1 0 0
1.485016 2.462432 -6.732050 7.320474 1.028123 2.737907 0.002125 -0.007736 1956660.000000 1 0 0
-13.673084 -2.191568 3.608250 14.309985 0.158932 1.315896 0.010942 -0.002406 1769070.000000 1 0 0
-0.989284 -10.578868 -5.335450 11.889413 1.477552 2.036170 0.001090 -0.004032 420361.000000 1 0 0
-5.664384 2.832132 0.422350 6.347015 -0.463639 1.504204 0.004046 -0.003112 1479690.000000 1 0 0
3.814216 7.215432 -5.049550 9.597326 1.084516 2.124853 0.000041 -0.003788 -2246120.000000 1 0 0
3.055516 9.756132 -6.544550 12.138757 1.267284 2.140218 0.003264 -0.002329 1789030.000000 1 0 0
-12.253884 1.731832 -2.532250 12.632070 -0.140399 1.772626 0.005354 -0.001414 1374470.000000 1 0 0
-2.547684 9.674832 -5.797650 11.563123 -1.313311 2.096002 0.000124 0.001606 549100.000000 1 0 0
-1.321584 3.328632 1.748050 3.985230 -1.192848 1.116720 -0.002155 -0.001005 592139.000000 1 0 0
12.962716 3.742932 9.672250 16.601023 0.281100 0.948836 0.030250 -0.002939 -94297.000000 1 0 0
-2.587984 -9.541168 11.569350 15.217799 1.305925 0.707097 -0.000310 -0.008451 -128339.000000 1 0 0
-0.420584 -8.934268 -7.549550 11.704432 1.523756 2.271841 0.001717 -0.002816 2278310.000000 1 0 0
2.398616 7.668132 -0.593250 8.056399 1.267635 1.644500 -0.002438 -0.000274 1264860.000000 1 0 0
-11.850584 -1.316268 -5.504550 13.132744 0.110619 2.003302 0.010444 0.002155 -7827.360000 1 0 0
-6.176684 -7.161768 -10.873150 14.410681 0.859117 2.425719 0.007298 -0.003321 -329860.000000 1 0 0
-4.670884 -2.192668 -1.382550 5.341946 0.438896 1.832586 0.006977 -0.004666 -1061030.000000 1 0 0
-10.452284 3.762032 4.485550 11.980121 -0.345489 1.187029 -0.000116 -0.004770 2292970.000000 1 0 0
6.805816 9.329532 -3.704250 12.127686 0.940550 1.881194 0.000363 -0.000424 517983.000000 1 0 0
1.193916 -2.669268 -11.504050 11.869860 -1.150205 2.892683 0.003816 -0.004581 -861243.000000 1 0 0
1.228016 8.764732 7.563150 11.641727 1.431594 0.863661 -0.005320 0.008679 236896.000000 1 0 0
10.446516 0.439432 10.460050 14.789708 0.042040 0.785193 0.006725 -0.000732 -324830.000000 1 0 0
-5.230184 -0.904468 -3.925250 6.601551 0.171239 2.207558 0.008807 -0.006456 660890.000000 1 0 0
11.748316 5.685532 5.385350 14.119143 0.450721 1.179462 0.005404 -0.002733 2902680.000000 1 0 0
9.935616 -3.512268 3.748450 11.184962 -0.339792 1.229050 0.006353 -0.003287 -1556100.000000 1 0 0
7.323816 -1.758768 -3.441050 8.280843 -0.235681 1.999336 0.001555 0.001057 -2823430.000000 1 0 0
2.308916 9.293532 10.502050 14.212456 1.327283 0.739311 0.000651 0.007940 2115730.000000 1 0 0
2.378616 -10.931468 6.357550 12.867527 -1.356543 1.054023 0.001142 -0.002235 1709140.000000 1 0 0
5.891216 -7.458468 -1.181850 9.577679 -0.902263 1.694508 -0.000233 -0.004220 25268.600000 1 0 0
-0.204084 -5.534168 -2.206150 5.961188 1.533936 1.949897 -0.001260 -0.000155 116501.000000 1 0 0
7.845616 -5.103068 2.684650 9.736649 -0.576681 1.291451 0.002290 -0.001921 1647050.000000 1 0 0
-2.699184 -12.459268 4.572950 13.543664 1.357453 1.226382 0.004160 0.000379 -1219080.000000 1 0 0
4.816216 -10.172968 -1.095650 11.308654 -1.128628 1.667834 0.001340 -0.003470 1823220.000000 1 0 0
0.902416 0.235032 1.093250 1.436938 0.254787 0.706222 -0.002060 0.000196 -1925670.000000 1 0 0
-1.587884 8.607532 2.463450 9.092831 -1.388371 1.296445 -0.003881 0.001399 -473534.000000 1 0 0
-7.502484 0.620332 -3.072550 8.130968 -0.082496 1.958304 0.007724 -0.002041 -2225710.000000 1 0 0
4.375616 -6.330768 12.948350 15.062683 -0.966023 0.536249 0.008015 -0.002295 1041040.000000 1 0 0
-5.006184 13.017132 8.415050 16.288667 -1.203650 1.027898 0.003469 -0.004839 1253730.000000 1 0 0
0.641016 6.101732 8.270450 10.297689 1.466125 0.638255 -0.000938 0.004183 340703.000000 1 0 0
7.933016 -0.592868 -0.721650 7.987804 -0.074596 1.661264 0.002141 -0.000638 3574150.000000 1 0 0
2.333816 -9.169568 -2.379750 9.756581 -1.321570 1.817194 -0.000896 -0.002253 1056330.000000 1 0 0
-7.099084 12.154232 4.874350 14.895692 -1.042163 1.237423 -0.004026 -0.003781 -368839.000000 1 0 0
-14.941584 0.335732 0.208950 14.946816 -0.022466 1.556816 0.011247 -0.008539 414881.000000 1 0 0
6.880316 -0.477368 3.980950 7.963328 -0.069271 1.047301 0.000539 0.000585 656692.000000 1 0 0
-4.131384 -5.013068 5.138850 8.282932 0.881518 0.901525 0.010471 -0.001494 479309.000000 1 0 0
2.983816 5.138932 6.879650 9.090730 1.044742 0.712429 -0.003149 0.003547 668895.000000 1 0 0
2.086916 -7.200068 1.821950 7.714642 -1.288680 1.332376 -0.001310 0.000322 1841240.000000 1 0 0
-2.328984 6.460832 -1.667950 7.067431 -1.224818 1.809049 -0.001435 -0.002114 586679.000000 1 0 0
2.700916 -3.842968 -6.526150 8.040770 -0.958180 2.517738 -0.004624 -0.002924 437064.000000 1 0 0
-5.087484 0.928532 -12.259450 13.305592 -0.180526 2.742402 0.008302 -0.006696 -535358.000000 1 0 0
-7.476184 6.368432 -11.928950 15.451540 -0.705555 2.452815 -0.001199 -0.004835 1010890.000000 1 0 0
-1.022384 11.217132 -9.144450 14.508283 -1.479903 2.252725 0.005399 0.002742 92857.600000 1 0 0
4.625716 5.895432 -0.690550 7.525306 0.905500 1.662689 -0.000279 -0.001110 -942172.000000 1 0 0
-2.654784 13.354132 3.564450 14.074304 -1.374556 1.314748 -0.003888 0.003783 752027.000000 1 0 0
1.424816 -7.851568 10.117250 12.885495 -1.391281 0.667832 -0.002212 -0.001719 -1147350.000000 1 0 0
12.972316 -0.217768 -0.957550 13.009432 -0.016786 1.644467 0.006777 0.001421 1649720.000000 1 0 0
-1.019984 3.116132 -5.445450 6.356380 -1.254464 2.599615 0.003937 -0.007647 -204401.000000 1 0 0
6.642616 1.148032 7.245550 9.896481 0.171138 0.749347 0.000021 0.001339 1771770.000000 1 0 0
5.523616 -6.095968 6.886050 10.727947 -0.834616 0.873849 -0.003147 0.000483 499009.000000 1 0 0
12.183616 -4.930568 2.645850 13.407145 -0.384542 1.372146 0.007596 -0.002865 194802.000000 1 0 0
4.283016 -9.174768 13.776450 17.097110 -1.134039 0.633811 0.006200 -0.001143 124791.000000 1 0 0
-2.700184 -4.235268 -1.481850 5.236828 1.003225 1.857682 0.006397 -0.003452 2057660.000000 1 0 0
-9.335984 -5.306168 -7.527450 13.114058 0.516827 2.182177 0.018057 -0.003489 74794.500000 1 0 0
-10.646184 -3.100668 7.861650 13.592679 0.283407 0.954062 0.008068 0.001012 426245.000000 1 0 0
12.041616 -0.553268 1.792950 12.186931 -0.045914 1.423140 0.003997 -0.001540 -284929.000000 1 0 0
-7.530684 4.773732 4.329050 9.911629 -0.564977 1.118797 -0.000316 -0.003512 2764770.000000 1 0 0
-1.063184 10.549032 6.977850 12.692629 -1.470351 0.988724 -0.006649 0.007783 1261830.000000 1 0 0
7.405316 -10.039368 1.972150 12.630003 -0.935261 1.414007 0.000421 -0.002610 3713750.000000 1 0 0
-4.286684 -1.665168 1.708850 4.905977 0.370511 1.215018 0.004215 -0.000987 3174160.000000 1 0 0
6.620416 -14.888268 -0.932250 16.320524 -1.152381 1.627949 0.030396 -0.010641 -1028300.000000 1 0 0
-10.408784 1.690832 2.385050 10.811575 -0.161036 1.348365 -0.000399 -0.002031 -390594.000000 1 0 0
-2.963384 8.271532 -11.413850 14.404022 -1.226779 2.485541 0.005649 -0.001520 -128520.000000 1 0 0
-1.296984 -5.104868 -6.854150 8.644143 1.321993 2.486389 -0.003121 -0.002739 -905256.000000 1 0 0
12.876616 -0.455268 6.435150 14.402280 -0.035341 1.107595 0.009813 -0.003169 2956580.000000 1 0 0
5.944716 -13.322068 3.739350 15.059876 -1.151081 1.319873 0.009366 -0.006720 951813.000000 1 0 0
-5.590684 3.440732 -5.003250 8.253902 -0.551695 2.222030 0.006465 -0.004522 733326.000000 1 0 0
-4.383184 8.052332 3.314150 9.748638 -1.072311 1.223922 -0.002819 -0.000518 -463522.000000 1 0 0
13.999016 6.128832 -4.035150 15.805615 0.412666 1.828953 0.027065 0.003926 -510732.000000 1 0 0
-6.742784 -8.422568 5.312850 12.026270 0.895713 1.113225 0.009120 -0.001327 1996950.000000 1 0 0
1.736416 11.354032 2.677550 11.794001 1.419038 1.341773 -0.001979 0.000510 1250160.000000 1 0 0
-7.306484 7.298232 5.948850 11.917958 -0.784833 1.048179 -0.005965 -0.005627 -634766.000000 1 0 0
-17.524684 -4.071368 5.104050 18.701388 0.228273 1.294366 0.038327 -0.002406 -7810.890000 1 0 0
7.492816 -13.100868 -8.591150 17.366142 -1.051270 2.088294 0.028481 -0.015402 -1586520.000000 1 0 0
-2.281784 12.792932 -2.860950 13.306039 -1.394290 1.787500 -0.003789 0.002441 770924.000000 1 0 0
-5.520984 13.886732 -5.886050 16.061388 -1.192384 1.946011 0.009204 0.000301 2999110.000000 1 0 0
-5.575984 2.473632 7.463950 9.639554 -0.417538 0.685181 0.000870 -0.001153 1399390.000000 1 0 0
-7.350384 5.113132 1.402450 9.063064 -0.607786 1.415428 0.002938 -0.003496 1367200.000000 1 0 0
10.721616 -5.832568 -5.084250 13.222008 -0.498226 1.965494 0.013628 -0.005432 3231510.000000 1 0 0
-9.521984 -0.712268 6.822750 11.735648 0.074663 0.950385 0.001407 -0.000653 720634.000000 1 0 0
-11.261184 -4.551868 -2.522750 12.405564 0.384129 1.775581 0.009715 -0.001954 343950.000000 1 0 0
6.535316 -4.391568 13.535650 15.659184 -0.591668 0.526859 0.018285 -0.007998 -901224.000000 1 0 0
0.219316 10.186732 -11.726850 15.535013 1.549270 2.426246 0.004183 -0.001451 -639147.000000 1 0 0
-11.789584 -3.184368 1.547750 12.309753 0.263805 1.444729 0.006099 -0.003572 4248940.000000 1 0 0
5.229516 6.013832 5.438250 9.648243 0.855044 0.971996 -0.000491 0.003817 -5992160.000000 1 0 0
-7.110084 0.015332 8.145350 10.812042 -0.002156 0.717641 -0.000930 0.000260 441838.000000 1 0 0
1.817016 2.146232 9.673350 10.073806 0.868275 0.282908 0.003679 -0.002823 3315390.000000 1 0 0
10.491716 -4.992568 -2.081550 11.804011 -0.444148 1.748066 0.003167 -0.003512 1424000.000000 1 0 0
-9.722784 -2.312268 -1.602550 10.121624 0.233482 1.729795 0.006403 -0.001334 292159.000000 1 0 0
-1.987684 -5.167068 -9.847250 11.296805 1.203563 2.629425 0.006257 -0.004443 872506.000000 1 0 0
7.727416 -1.529668 6.575150 10.260870 -0.195427 0.875258 0.001433 -0.001070 1026760.000000 1 0 0
1.472816 -11.829868 -2.577350 12.196626 -1.446934 1.783718 -0.001062 -0.002167 -4016240.000000 1 0 0
-0.699584 -1.479568 4.935150 5.199447 1.129120 0.320213 0.004550 0.000397 2391870.000000 1 0 0
7.748416 1.584332 9.924150 12.690029 0.201692 0.672859 0.000735 0.000560 902151.000000 1 0 0
-3.818184 10.677032 -8.135150 13.955580 -1.227361 2.193128 0.003840 0.004394 3257120.000000 1 0 0
-9.493884 12.625332 6.446450 17.061347 -0.926035 1.183335 0.005539 -0.007180 1070430.000000 1 0 0
-2.598784 -2.389068 -11.100250 11.648041 0.743378 2.833690 0.009075 -0.006883 -2252430.000000 1 0 0
1.070116 -11.883468 11.022750 16.243860 -1.480988 0.824969 -0.001638 0.001741 1667330.000000 1 0 0
1.362916 3.513032 -1.979950 4.256658 1.200712 2.054591 0.000030 -0.003464 2485140.000000 1 0 0
-1.906384 -9.330168 -12.013450 15.330013 1.369246 2.471325 0.004129 -0.002615 -994957.000000 1 0 0
1.374516 -2.598768 1.618650 3.356027 -1.084289 1.067505 0.003715 -0.001445 3351540.000000 1 0 0
-1.060584 -2.171368 -6.613350 7.041027 1.116439 2.791262 0.000309 -0.007381 -1895350.000000 1 0 0
1.873716 5.840832 4.008250 7.327497 1.260371 0.992002 -0.008050 0.004155 162127.000000 1 0 0
-10.943584 8.579432 3.655650 14.378194 -0.664889 1.313725 -0.000432 -0.009304 221502.000000 1 0 0
-16.471584 -1.497568 3.905550 16.994385 0.090669 1.338910 0.027284 -0.004044 261508.000000 1 0 0
-12.191484 0.327932 6.683650 13.907228 -0.026892 1.069471 0.005274 0.000151 -811366.000000 1 0 0
-5.087184 3.050632 4.670850 7.550009 -0.540177 0.903767 -0.001269 -0.000170 1274550.000000 1 0 0
5.292016 -5.961968 3.920750 8.883849 -0.844858 1.113711 -0.004627 -0.000183 182794.000000 1 0 0
10.024016 3.484232 6.305950 12.344464 0.334525 1.034644 -0.003533 0.003782 1098660.000000 1 0 0
-12.063684 5.889132 3.166350 13.792756 -0.454139 1.339164 0.002077 -0.004100 -154176.000000 1 0 0
-4.855584 12.306932 -1.329350 13.296783 -1.195005 1.670939 -0.009489 0.005287 2015790.000000 1 0 0
-1.848084 -12.209468 10.270350 16.061339 1.420572 0.877020 0.006997 -0.003452 2349650.000000 1 0 0
5.253316 6.477532 13.931450 16.237028 0.889380 0.539423 0.008705 0.002262 1961770.000000 1 0 0
12.881916 -3.781568 -5.918450 14.672153 -0.285535 1.986004 0.015827 -0.004841 1183900.000000 1 0 0
3.589016 -2.519668 6.466450 7.813114 -0.612100 0.595905 -0.000405 0.002020 1577990.000000 1 0 0
7.202416 -11.807568 -0.634950 13.845455 -1.023069 1.616672 0.010541 -0.003826 -1546260.000000 1 0 0
-6.014284 -6.566268 -4.010650 9.765899 0.829246 1.993995 0.016891 -0.005510 933876.000000 1 0 0
0.328616 -8.843868 5.077850 10.203262 -1.533656 1.049887 0.005335 -0.002254 2317990.000000 1 0 0
-10.276184 2.505132 -0.424750 10.585653 -0.239116 1.610932 0.001523 -0.001530 -1360540.000000 1 0 0
-1.852184 9.025132 -0.310050 9.218445 -1.368382 1.604436 0.000148 0.001034 -132938.000000 1 0 0
-3.481184 2.331632 -6.644650 7.855350 -0.590156 2.579001 0.008442 -0.009287 44711.800000 1 0 0
-12.673584 3.085032 6.353850 14.508913 -0.238778 1.117504 0.004371 -0.006858 -355816.000000 1 0 0
11.468116 1.702732 7.910750 14.035560 0.147398 0.972032 0.004885 -0.003577 -2889360.000000 1 0 0
5.999516 2.543132 -3.179350 7.250516 0.400930 2.024725 -0.001088 -0.000484 671251.000000 1 0 0
10.561816 -2.388768 6.468950 12.613703 -0.222428 1.032294 0.007610 -0.004403 2672090.000000 1 0 0
-0.939784 11.014132 4.107250 11.792532 -1.485677 1.215047 -0.002913 0.004241 1729530.000000 1 0 0
-1.643984 -12.215168 7.417150 14.384962 1.437015 1.029067 0.003573 0.002346 -567463.000000 1 0 0
8.099416 8.632832 -7.880050 14.220461 0.817267 2.158119 0.002472 -0.003061 1735900.000000 1 0 0
-4.700384 -5.951968 -8.676550 11.523977 0.902356 2.423273 0.009857 -0.004844 -489382.000000 1 0 0
-8.507484 -5.346068 -11.601750 15.347909 0.561038 2.427850 0.011031 -0.001223 1196520.000000 1 0 0
5.990216 -0.644368 -9.931550 11.616091 -0.107158 2.596313 -0.002354 -0.000667 304402.000000 1 0 0
-11.219484 -5.457968 -5.378150 13.586417 0.452767 1.977787 0.011440 -0.004933 -85546.800000 1 0 0
3.953716 8.874232 -2.791550 10.108245 1.151668 1.850599 0.003500 -0.005092 2254550.000000 1 0 0
11.749816 -10.536068 -3.956850 16.270328 -0.730989 1.816454 0.034669 -0.012378 -594551.000000 1 0 0
3.914016 -11.337668 3.979650 12.637241 -1.238384 1.250430 0.003076 -0.005460 2455980.000000 1 0 0
-1.007484 0.866932 3.243150 3.504942 -0.710554 0.388950 0.001867 0.000256 -2273580.000000 1 0 0
-10.702284 -5.072768 4.595450 12.703937 0.442623 1.200669 0.013182 -0.003281 3215240.000000 1 0 0
4.588916 -8.705368 2.848750 10.244850 -1.085676 1.289016 -0.003273 0.000014 4265000.000000 1 0 0
-3.649784 -5.701768 2.605450 7.253927 1.001402 1.203409 0.007919 -0.000068 2327880.000000 1 0 0
10.124516 5.162632 12.330750 16.769198 0.471547 0.744656 0.015735 0.002842 331157.000000 1 0 0
1.555716 -12.261568 -5.291850 13.445072 -1.444593 1.975330 -0.001049 -0.002668 966767.000000 1 0 0
9.855616 -10.767968 -1.716750 14.697943 -0.829608 1.687866 0.014816 -0.008900 1656320.000000 1 0 0
9.643816 -4.566268 -9.117650 14.035153 -0.442217 2.277893 0.020275 -0.009657 3532720.000000 1 0 0
-7.464584 -3.115568 -13.090350 15.387788 0.395399 2.588107 0.006528 -0.002334 1926820.000000 1 0 0
0.475016 6.294332 -2.582850 6.820218 1.495472 1.959193 0.000283 -0.003396 692851.000000 1 0 0
-5.978984 -9.535868 0.968550 11.296863 1.010760 1.484955 0.010913 -0.003028 -577181.000000 1 0 0
-8.934284 -4.096268 0.655350 9.850397 0.429891 1.504217 0.004802 -0.002400 2020080.000000 1 0 0
1.897516 3.794732 12.114350 12.835811 1.107117 0.336872 0.008142 -0.004071 522930.000000 1 0 0
6.705616 4.299132 9.634550 12.500896 0.570110 0.690843 0.000083 0.001937 1507420.000000 1 0 0
-8.254684 9.814232 -3.635750 13.329577 -0.871496 1.847055 0.007709 0.000287 2337420.000000 1 0 0
16.477516 2.173732 -6.013750 17.674808 0.131164 1.917973 0.056486 -0.000175 -834563.000000 1 0 0
-10.961184 2.641532 -5.051450 12.354853 -0.236481 1.992005 0.005532 0.000098 1381270.000000 1 0 0
-13.693684 4.048032 1.470550 14.355001 -0.287427 1.468175 0.004893 -0.001095 -1474130.000000 1 0 0
-17.357284 10.469232 3.498550 20.569881 -0.542740 1.399884 0.039349 -0.022858 715837.000000 1 0 0
-14.336084 2.942432 -1.176550 14.682148 -0.202435 1.651017 0.012041 -0.003015 -1105660.000000 1 0 0
-14.288284 5.203432 5.142650 16.052340 -0.349246 1.244679 0.005585 -0.005219 566366.000000 1 0 0
-17.368184 7.512832 3.144750 19.182959 -0.408259 1.406118 0.028599 -0.010789 -2129440.000000 1 0 0
-15.308084 12.625332 -3.442150 20.139137 -0.689651 1.742558 0.066804 -0.016954 -715618.000000 1 0 0
-8.524184 12.440632 -9.717750 17.940616 -0.970080 2.143209 0.014413 -0.015591 676600.000000 1 0 0
-12.399884 8.900232 -9.869750 18.176447 -0.622551 2.144798 0.028498 -0.006193 -762260.000000 1 0 0
-13.848584 -3.450868 -12.130650 18.730841 0.244212 2.275266 0.023739 -0.005343 -1273040.000000 1 0 0
-14.798284 5.829932 -7.650150 17.649422 -0.375289 2.019114 0.042145 -0.002061 716381.000000 1 0 0
-10.819384 13.574732 -8.360550 19.267361 -0.897873 2.019639 0.029219 -0.016334 3056.100000 1 0 0
-10.899884 13.528532 3.971350 17.821343 -0.892592 1.346067 0.015785 -0.005104 72688.900000 1 0 0
-15.119384 3.395832 3.057850 15.794869 -0.220935 1.375968 0.011590 -0.002969 903366.000000 1 0 0
-11.065884 9.477632 -12.462050 19.172428 -0.708240 2.278379 0.027511 -0.009412 510501.000000 1 0 0
-13.046284 11.666532 -8.905450 19.637223 -0.729625 2.041483 0.041360 -0.022584 129738.000000 1 0 0
-8.787484 14.598832 -3.635250 17.422997 -1.028958 1.780987 0.015417 -0.007084 921323.000000 1 0 0
-16.831584 8.153232 -4.028550 19.131300 -0.451091 1.782958 0.046040 -0.009891 -1355790.000000 1 0 0
-16.962784 6.708332 0.305650 18.243661 -0.376598 1.554042 0.029530 -0.002398 -1191330.000000 1 0 0
-10.461084 2.794832 -12.418650 16.476293 -0.261067 2.424513 0.004602 -0.009854 1029180.000000 1 0 0
-16.898684 1.013632 2.348950 17.091242 -0.059911 1.432924 0.036109 -0.009542 930989.000000 1 0 0
-12.724584 1.233232 -6.863050 14.509905 -0.096616 2.063478 0.012086 -0.002622 666280.000000 1 0 0
-12.383384 9.093432 -5.441050 16.298581 -0.633394 1.911166 0.031328 -0.004126 -610876.000000 1 0 0
-9.604684 13.921032 1.285250 16.961632 -0.966854 1.494950 0.020496 -0.000674 32707.900000 1 0 0
-12.199684 11.083332 2.794450 16.717700 -0.737488 1.402853 0.012578 -0.006404 -790534.000000 1 0 0
-12.537684 6.871532 -3.628050 14.750397 -0.501360 1.819309 0.013494 -0.001201 1451240.000000 1 0 0
-15.743884 3.680032 -9.333350 18.668796 -0.229621 2.094330 0.039361 -0.010665 -1883070.000000 1 0 0
-15.073784 5.916032 -4.730250 16.869904 -0.374000 1.855003 0.025189 0.000612 1603960.000000 1 0 0
-17.921684 5.349032 7.624750 20.197419 -0.290050 1.183689 0.033525 -0.010100 -1998650.000000 1 0 0
-16.008684 10.104032 -2.070950 19.043588 -0.563016 1.679760 0.041580 -0.003397 -689622.000000 1 0 0
-8.744584 9.843432 -8.421050 15.629299 -0.844445 2.139807 0.008729 -0.005463 1965950.000000 1 0 0
-16.999184 4.201932 -1.280950 17.557600 -0.242327 1.643818 0.016151 -0.004261 -338556.000000 1 0 0
-10.159884 5.447032 -4.560550 12.397258 -0.492133 1.947511 0.009023 -0.001322 -115357.000000 1 0 0
-18.137384 2.819732 6.138850 19.354614 -0.154231 1.248044 0.038247 -0.010923 -598701.000000 1 0 0
-10.349084 10.047932 -5.834650 15.559808 -0.770635 1.955174 0.018275 -0.005031 761450.000000 1 0 0
-15.396384 0.483332 -5.837450 16.472949 -0.031382 1.933032 0.019459 -0.003411 1200160.000000 1 0 0
-16.375184 -4.193368 -8.726250 19.023102 0.250693 2.047349 0.038875 -0.018599 -1763440.000000 1 0 0
-9.979584 9.629132 -1.131450 13.913751 -0.767528 1.652205 0.013047 -0.002563 2081390.000000 1 0 0
-17.353984 -2.910968 -3.080250 17.863998 0.166193 1.744090 0.039866 -0.012563 585667.000000 1 0 0
-11.938084 5.133732 -11.585450 17.409644 -0.406123 2.298908 0.021180 -0.004802 509091.000000 1 0 0
-16.277384 7.169732 5.919250 18.745555 -0.414902 1.249530 0.022237 -0.010245 -272098.000000 1 0 0
-12.128984 6.106232 -8.869250 16.219183 -0.466397 2.149378 0.020625 -0.001334 1403550.000000 1 0 0
-14.636284 8.452532 -0.139050 16.902232 -0.523715 1.579023 0.027488 -0.004823 1377900.000000 1 0 0
-14.791684 11.858532 3.888050 19.352923 -0.675778 1.368517 0.020042 -0.015808 722148.000000 1 0 0
-17.274084 4.138532 -4.148750 18.240985 -0.235148 1.800245 0.023184 -0.005965 -981567.000000 1 0 0
-13.848884 13.234932 -0.879950 19.176270 -0.762733 1.616700 0.041260 -0.014160 366285.000000 1 0 0
-9.990084 6.895032 -13.152050 17.897476 -0.604110 2.396249 0.000225 -0.008405 1691450.000000 1 0 0
-15.849884 -1.138268 -8.298250 17.926947 0.071692 2.052052 0.022595 -0.011208 -110647.000000 1 0 0
-11.367184 11.921832 -0.066850 16.472626 -0.809210 1.574855 0.024212 -0.006599 405384.000000 1 0 0
-12.035484 7.443932 -0.930950 14.182090 -0.553911 1.636486 0.007349 0.000702 2260440.000000 1 0 0
-11.495084 0.186232 -11.611050 16.339771 -0.016200 2.361148 0.013824 -0.007889 -1753890.000000 1 0 0
-19.165984 -1.198468 -4.668850 19.762829 0.062450 1.809295 0.053996 -0.020703 -60582.500000 1 0 0
-18.008884 1.458632 -5.183250 18.796638 -0.080819 1.850170 0.026794 -0.008303 817809.000000 1 0 0
-13.319484 -0.083568 -9.429050 16.319394 0.006274 2.186805 0.017238 -0.008008 8377.800000 1 0 0
-6.186884 11.278232 -13.292150 18.497494 -1.069053 2.372572 0.001722 -0.002334 2717.930000 1 0 0
16.355516 5.915132 7.068050 18.773626 0.347024 1.184794 0.054477 -0.015301 -181883.000000 1 0 0
14.870016 10.127032 -5.383850 18.779244 0.597885 1.861568 0.063094 -0.003481 728376.000000 1 0 0
2.397616 16.829632 4.158250 17.500747 1.429285 1.330898 0.013032 -0.005228 3610810.000000 1 0 0
-4.009584 18.179132 -6.038450 19.570909 -1.353712 1.884456 0.019603 -0.010373 770659.000000 1 0 0
5.509816 14.539432 5.523350 16.500320 1.208561 1.229465 0.001878 -0.000814 -378695.000000 1 0 0
10.044116 6.078232 15.109450 19.134384 0.544200 0.660559 0.035588 0.000045 -518701.000000 1 0 0
4.582716 12.703332 -1.242850 13.561733 1.224578 1.662569 0.005254 -0.006179 2707200.000000 1 0 0
3.598216 13.866432 12.874250 19.260619 1.316905 0.838709 0.022570 -0.004061 323517.000000 1 0 0
-0.692884 12.367632 9.210950 15.436322 -1.514831 0.931406 -0.003227 0.007598 -281673.000000 1 0 0
-7.655084 13.901932 8.432450 17.971373 -1.067455 1.082394 0.008606 -0.014066 1358660.000000 1 0 0
11.404216 12.858632 -4.141750 17.679215 0.845271 1.807266 0.049084 0.002002 123826.000000 1 0 0
-5.751184 16.194032 0.718850 17.199987 -1.229548 1.528990 0.001645 0.004672 14652.300000 1 0 0
3.170616 10.595532 6.824450 12.995816 1.280036 1.017932 -0.003399 0.008899 1692810.000000 1 0 0
-1.271584 15.558432 2.360150 15.787718 -1.489248 1.420741 0.001449 0.000128 -2377090.000000 1 0 0
9.972116 8.933732 9.449150 16.387224 0.730529 0.956215 0.010842 -0.003838 1558920.000000 1 0 0
7.271816 12.205632 6.223550 15.510943 1.033489 1.157930 0.000528 0.002265 1418300.000000 1 0 0
11.816716 14.036032 -1.530250 18.411590 0.871033 1.654006 0.032745 0.003794 42012.000000 1 0 0
9.639716 15.964232 -1.231050 18.689471 1.027564 1.636713 0.022687 0.002583 531434.000000 1 0 0
10.087716 13.684532 2.937950 17.252826 0.935562 1.399674 0.023646 -0.004564 1787970.000000 1 0 0
-6.008884 14.487632 6.272950 16.892249 -1.177631 1.190333 -0.005273 -0.005191 -131727.000000 1 0 0
-0.984684 18.218732 -6.315650 19.307492 -1.516801 1.904039 0.035277 -0.007997 3072030.000000 1 0 0
-3.517084 15.690632 5.387750 16.958587 -1.350289 1.247493 -0.004355 0.001337 2610380.000000 1 0 0
7.081516 12.361332 10.603250 17.758922 1.050559 0.930958 0.006496 0.003599 1878340.000000 1 0 0
1.534316 14.638032 6.113550 15.937428 1.466361 1.177108 0.002234 0.000909 715194.000000 1 0 0
17.513316 7.621532 -1.472350 19.156508 0.410466 1.647731 0.045758 -0.002929 720329.000000 1 0 0
2.009216 16.222432 -3.447950 16.706065 1.447570 1.778679 0.011061 -0.006746 -62668.600000 1 0 0
6.649316 11.138132 0.491650 12.981260 1.032595 1.532913 0.007268 -0.001275 1127140.000000 1 0 0
12.668316 9.251732 3.189750 16.007976 0.630777 1.370194 0.023120 -0.003294 -329239.000000 1 0 0
6.019016 14.221732 -3.550250 15.845835 1.170429 1.796764 0.005625 -0.001949 726914.000000 1 0 0
3.041216 16.441232 1.367150 16.775942 1.387889 1.489211 0.012352 -0.012795 -2218810.000000 1 0 0
2.793016 18.843532 -2.677250 19.236614 1.423646 1.710424 0.027932 -0.017953 -305702.000000 1 0 0
3.985816 11.963732 10.663250 16.514313 1.249203 0.868860 0.008036 0.002952 2787950.000000 1 0 0
7.991416 11.558332 3.304450 14.435275 0.965866 1.339833 0.002849 0.003361 1482080.000000 1 0 0
0.681116 12.506032 0.221650 12.526528 1.516387 1.553101 0.001972 -0.003184 -1669980.000000 1 0 0
12.052616 9.897432 -4.611450 16.263154 0.687526 1.858292 0.032987 0.003774 483578.000000 1 0 0
-1.219184 16.600032 9.921650 19.377477 -1.497483 1.033262 0.000585 0.003372 381870.000000 1 0 0
8.072416 14.746732 -8.126650 18.672773 1.069949 2.021072 0.039036 -0.000813 974242.000000 1 0 0
14.575716 7.598832 -1.366050 16.494237 0.480570 1.653711 0.023762 0.000610 679359.000000 1 0 0
12.505116 8.340932 5.904150 16.149553 0.588234 1.196527 0.015990 -0.009001 -61293.600000 1 0 0
-2.942084 14.293932 10.241950 17.828907 -1.367804 0.958855 -0.000398 -0.004513 3121520.000000 1 0 0
-4.594884 17.210332 -3.249050 18.107038 -1.309898 1.751209 0.013264 -0.003355 -588152.000000 1 0 0
-7.114684 16.447032 -1.892950 18.019624 -1.162522 1.676040 0.014491 -0.002257 530157.000000 1 0 0
8.366516 11.225632 -1.928250 14.132642 0.930307 1.707663 0.009930 -0.001551 -170010.000000 1 0 0
8.518616 12.858632 -4.270350 16.004597 0.985696 1.840888 0.027031 -0.000621 2219400.000000 1 0 0
2.540616 14.767432 -7.371450 16.699403 1.400422 2.027977 0.008912 -0.005966 -718823.000000 1 0 0
11.408116 11.415932 9.691650 18.825427 0.785741 1.030002 0.029390 -0.006796 355181.000000 1 0 0
8.494616 15.618632 1.341250 17.829726 1.072666 1.495500 0.010862 -0.006156 -407077.000000 1 0 0
5.982716 9.924932 7.836450 13.989536 1.028323 0.976211 0.000043 0.010057 5272850.000000 1 0 0
14.457616 11.341132 2.522850 18.547472 0.665181 1.434352 0.046051 -0.004803 992430.000000 1 0 0
12.082016 12.637232 1.125750 17.519762 0.807855 1.506496 0.037319 -0.002494 2517140.000000 1 0 0
5.180216 15.981032 8.047450 18.627654 1.257335 1.124069 0.014980 -0.001549 -953447.000000 1 0 0
11.257116 15.104432 5.104450 19.517222 0.930319 1.306183 0.042441 -0.006710 -1050820.000000 1 0 0
5.929416 16.688532 1.531550 17.776691 1.229409 1.484534 0.006251 -0.017630 -66693.300000 1 0 0
-0.668784 16.121632 -4.326050 16.705359 -1.529336 1.832743 0.012185 -0.004492 1043000.000000 1 0 0
16.167416 6.418232 2.516950 17.575952 0.377905 1.427098 0.023996 -0.007798 -1370280.000000 1 0 0
7.649016 16.615632 -3.279550 18.583383 1.139368 1.748203 0.016525 -0.003790 396773.000000 1 0 0
14.870816 8.339632 7.357050 18.569244 0.511101 1.163427 0.043580 -0.013975 -350496.000000 1 0 0
2.165116 12.951032 8.586250 15.688871 1.405151 0.991682 0.002266 0.007804 1501870.000000 1 0 0
16.026216 7.473432 -5.874450 18.633329 0.436347 1.891533 0.044255 0.004050 -1033010.000000 1 0 0
-2.996684 17.043232 0.606050 17.315287 -1.396747 1.535788 -0.001322 0.002144 -730480.000000 1 0 0
-2.932884 18.538232 4.449450 19.288999 -1.413889 1.338027 0.005500 -0.000984 1448460.000000 1 0 0
-0.863684 19.088132 0.683550 19.119885 -1.525580 1.535038 0.013409 -0.006250 1085620.000000 1 0 0
6.970116 16.700632 -6.121750 19.104174 1.175418 1.896991 0.019951 -0.002878 1092920.000000 1 0 0
11.033916 10.061432 0.706050 14.949188 0.739331 1.523549 0.016397 -0.002244 -2234060.000000 1 0 0
9.211116 8.768232 14.401950 19.213088 0.760770 0.723353 0.030424 0.000510 141335.000000 1 0 0
6.379016 12.362632 -8.489050 16.296947 1.094437 2.118699 0.025727 -0.009147 43260.000000 1 0 0
6.439416 9.085432 13.405050 17.427178 0.954213 0.693202 0.018348 -0.001102 433380.000000 1 0 0
16.697716 9.434832 2.849350 19.389394 0.514315 1.423308 0.040048 -0.005426 -209095.000000 1 0 0
2.500816 14.675432 -0.939950 14.916632 1.402009 1.633852 0.003547 -0.008618 2288030.000000 1 0 0
9.103716 13.002632 8.297450 17.910717 0.959974 1.089118 0.013133 -0.003574 2222120.000000 1 0 0
7.218016 9.425432 10.575550 15.899082 0.917258 0.843078 0.007457 0.001982 1699980.000000 1 0 0
4.282416 15.785432 -5.393550 17.222350 1.305883 1.889327 0.019228 -0.006846 2122710.000000 1 0 0
0.264716 16.307332 -8.201650 18.255580 1.554565 2.036742 0.024757 -0.006870 81690.300000 1 0 0
-2.459984 15.669832 -2.044250 15.992940 -1.415079 1.698969 -0.002317 0.001183 183140.000000 1 0 0
13.292116 10.627132 7.437450 18.572344 0.674440 1.158779 0.043122 -0.017061 2962300.000000 1 0 0
-0.980984 15.939032 7.023550 17.445496 -1.509328 1.156441 0.000758 0.003807 3655300.000000 1 0 0
13.175216 13.364632 6.592350 19.891174 0.792535 1.232987 0.053416 -0.011975 -485852.000000 1 0 0
5.382916 17.368732 4.272150 18.678863 1.270264 1.340038 0.013287 -0.013600 48982.700000 1 0 0
10.824316 9.483432 -1.908450 14.517007 0.719466 1.702641 0.013208 0.000387 837640.000000 1 0 0
3.263916 12.676032 4.749650 13.924587 1.318783 1.222711 -0.002401 0.007137 1118970.000000 1 0 0
-0.193884 18.063832 3.359850 18.374663 -1.560063 1.386909 0.009040 -0.004015 2602420.000000 1 0 0
-7.665284 15.915432 -5.962050 18.644130 -1.121956 1.896295 0.031260 -0.014818 -87172.600000 1 0 0
-12.426684 -9.136568 8.242150 17.488064 0.633986 1.080030 0.021620 -0.007699 -1099540.000000 1 0 0
-13.284384 -11.682368 6.845350 18.968695 0.721320 1.201589 0.037406 -0.012186 -1283520.000000 1 0 0
-6.655784 -12.220168 12.310450 18.578998 1.072065 0.846511 0.017040 -0.010849 -2146640.000000 1 0 0
-1.856984 -10.644468 14.364050 17.974399 1.398079 0.644934 0.003267 -0.005570 -846770.000000 1 0 0
-8.877484 2.821432 10.996950 14.411909 -0.307723 0.702783 0.000343 -0.004577 2234920.000000 1 0 0
0.425316 10.004232 15.286050 18.273721 1.528308 0.579924 0.016543 -0.002004 169002.000000 1 0 0
0.997416 -6.792968 16.590150 17.954730 -1.425007 0.392387 0.007483 -0.018339 2351750.000000 1 0 0
6.065916 2.166032 17.842150 18.969169 0.342970 0.346442 0.026329 -0.012382 1831600.000000 1 0 0
-5.115884 -2.900268 17.634850 18.589561 0.515736 0.321879 0.030330 -0.020114 1228310.000000 1 0 0
-4.360884 8.175632 12.966750 15.937217 -1.080787 0.620454 -0.003631 0.000268 408825.000000 1 0 0
0.106916 -4.800468 18.479750 19.093378 -1.548528 0.254212 0.018922 -0.030900 -505074.000000 1 0 0
-11.692084 2.130132 11.103150 16.264140 -0.180209 0.819377 0.015878 -0.006868 1065500.000000 1 0 0
-3.395584 -6.028668 14.419950 15.994055 1.057845 0.447384 0.015839 -0.013683 1408810.000000 1 0 0
-7.557984 -2.141368 14.595650 16.575331 0.276090 0.493744 0.014621 -0.005731 1785890.000000 1 0 0
-6.138784 -1.068268 10.637550 12.328153 0.172294 0.529882 0.005217 -0.003602 215262.000000 1 0 0
-4.021784 2.521732 11.117450 12.088490 -0.560049 0.403551 0.002754 0.000477 1033470.000000 1 0 0
-6.356484 6.142932 13.410350 16.061694 -0.768315 0.582795 -0.010974 -0.005886 -439068.000000 1 0 0
-8.995584 5.405932 12.537950 16.350683 -0.541121 0.696932 -0.000098 -0.007275 -1119720.000000 1 0 0
-12.239884 -2.100468 15.782650 20.082798 0.169953 0.666680 0.029790 -0.004674 2180710.000000 1 0 0
-3.437684 -7.556668 16.938850 18.863869 1.143858 0.455702 0.028844 -0.022583 -395460.000000 1 0 0
-0.566584 -5.292468 14.424850 15.375550 1.464148 0.353496 0.009459 -0.010753 1523190.000000 1 0 0
-14.301984 -2.155168 13.631650 19.874944 0.149565 0.814996 0.047796 -0.009168 -1211970.000000 1 0 0
-6.464784 1.504932 12.253750 13.936020 -0.228716 0.496435 0.002752 -0.003249 2416220.000000 1 0 0
2.244216 -2.221768 14.617950 14.955174 -0.780372 0.212764 0.002889 -0.007557 917472.000000 1 0 0
-12.605784 4.093732 9.081350 16.066591 -0.314006 0.970082 0.008278 -0.009176 1419450.000000 1 0 0
-9.121084 -2.993968 12.598650 15.839318 0.317166 0.651123 0.000114 0.005518 990804.000000 1 0 0
-7.170784 -7.149168 15.251050 18.306427 0.783889 0.586111 0.023044 -0.014419 1458380.000000 1 0 0
-3.231084 5.951332 19.455350 20.600217 -1.073407 0.334957 0.048452 -0.014599 693616.000000 1 0 0
0.724416 5.333232 16.215850 17.085724 1.435792 0.320469 0.020358 -0.006367 2135550.000000 1 0 0
3.463316 1.448032 16.799250 17.213546 0.396017 0.219842 0.012364 -0.012892 1329380.000000 1 0 0
-11.689884 11.441332 7.923350 18.175174 -0.774653 1.119710 0.005620 -0.013444 209020.000000 1 0 0
0.556116 -9.478168 15.449950 18.134109 -1.512190 0.551035 -0.011341 -0.001118 -1143280.000000 1 0 0
-2.513384 -3.594768 18.892050 19.394562 0.960622 0.228134 0.028985 -0.031456 2782350.000000 1 0 0
-12.785584 2.496932 13.762750 18.950439 -0.192865 0.757946 0.028135 -0.017052 -174001.000000 1 0 0
-5.444784 -0.543968 15.767350 16.689845 0.099576 0.334035 0.016790 -0.006866 914893.000000 1 0 0
-4.502384 -5.998368 11.724750 13.918393 0.926910 0.569088 0.006331 -0.003372 958109.000000 1 0 0
2.535316 1.832432 13.987050 14.332593 0.625840 0.220029 0.006803 -0.008473 -777750.000000 1 0 0
0.127816 3.258732 14.291050 14.658438 1.531594 0.224359 0.015391 -0.008486 -413294.000000 1 0 0
-12.941884 7.113032 12.178250 19.141509 -0.502546 0.881205 0.010053 -0.012760 466697.000000 1 0 0
0.908616 1.274532 18.321250 18.387992 0.951464 0.085227 0.011775 -0.012500 736310.000000 1 0 0
-1.972784 6.474632 12.528350 14.239814 -1.275038 0.495331 0.002832 0.000624 930183.000000 1 0 0
-13.428984 -2.610368 10.852150 17.461982 0.191989 0.900175 0.034631 -0.005201 -826517.000000 1 0 0
-2.523584 3.598132 13.538450 14.233927 -0.959159 0.313891 0.004754 -0.001544 -33155.800000 1 0 0
3.584916 5.954232 16.279950 17.701449 1.028850 0.403491 0.017094 -0.008523 741504.000000 1 0 0
-3.715884 12.391432 12.333050 17.873431 -1.279454 0.809278 0.009078 -0.004481 7722.880000 1 0 0
3.773716 -1.503568 17.102050 17.577878 -0.379154 0.233207 0.019889 -0.015965 162870.000000 1 0 0
-15.866984 0.435332 9.144850 18.318815 -0.027429 1.048115 0.042447 -0.006767 526036.000000 1 0 0
-4.647684 4.606232 15.260650 16.604391 -0.780919 0.405074 0.005118 -0.003978 1104270.000000 1 0 0
-8.080884 -8.134368 10.555050 15.584534 0.788697 0.826741 0.011501 -0.005346 2701710.000000 1 0 0
-2.644584 -0.474768 14.822350 15.063907 0.177632 0.179324 0.015569 -0.007147 3300930.000000 1 0 0
-1.903484 0.974332 17.255050 17.387045 -0.473097 0.123298 0.020102 -0.013709 1629290.000000 1 0 0
-0.716984 -2.444968 14.453450 14.676313 1.285545 0.174492 0.010214 -0.006261 1181750.000000 1 0 0
5.076916 -8.265768 16.380550 19.037343 -1.019994 0.534658 0.011257 -0.006714 469237.000000 1 0 0
-4.474384 10.072132 10.634550 15.315405 -1.152748 0.803253 -0.004320 -0.001881 -1901550.000000 1 0 0
-6.275984 2.214432 15.259050 16.647231 -0.339205 0.411275 0.011387 -0.002779 289595.000000 1 0 0
-5.024784 6.805832 17.331550 19.286017 -0.934822 0.454094 0.023634 -0.002225 -437024.000000 1 0 0
-4.204084 9.076232 15.737750 18.647496 -1.137022 0.566172 0.017211 -0.003623 -986147.000000 1 0 0
-4.688284 -9.701868 18.377250 21.303276 1.120650 0.530313 0.053902 -0.027970 773134.000000 1 0 0
-6.858784 -4.058468 11.149350 13.704820 0.534308 0.620591 0.006621 0.001230 816510.000000 1 0 0
-2.373184 -0.831868 19.574850 19.735723 0.337145 0.127769 0.027004 -0.017852 -690556.000000 1 0 0
-5.816584 -4.463168 15.218450 16.892417 0.654493 0.448948 0.022174 -0.011781 50809.600000 1 0 0
-12.938384 0.046932 9.654850 16.143733 -0.003627 0.929723 0.019461 -0.001617 1829350.000000 1 0 0
-14.267484 8.875332 10.329450 19.723848 -0.556487 1.019604 0.006906 -0.017211 -970314.000000 1 0 0
-8.359084 10.624532 12.817250 18.628926 -0.904173 0.812026 0.005554 -0.014345 -1190190.000000 1 0 0
-10.396384 7.180432 10.778250 16.607652 -0.604434 0.864536 0.007462 -0.011943 56748.000000 1 0 0
-9.983284 -6.450168 14.825350 19.001622 0.573626 0.675787 0.025579 -0.009223 -231714.000000 1 0 0
-0.765184 -13.424068 14.303150 19.630874 1.513857 0.754513 0.001835 -0.003139 -105804.000000 1 0 0
3.792016 -5.707568 17.028450 18.355485 -0.984376 0.382583 0.019464 -0.014892 11328.600000 1 0 0
-7.234684 9.339332 10.380450 15.726332 -0.911707 0.849887 -0.002701 -0.007338 -591449.000000 1 0 0
-10.336284 -6.728468 11.892950 17.133398 0.577047 0.803574 0.021025 -0.006344 1240480.000000 1 0 0
-10.867284 -3.917668 10.675850 15.729582 0.345999 0.824789 0.011694 0.002718 -127946.000000 1 0 0
-10.046984 -10.228668 9.810550 17.372807 0.794359 0.970718 0.020997 -0.011355 1742580.000000 1 0 0
-9.897784 -3.508168 15.265550 18.528637 0.340625 0.602556 0.022385 -0.008427 353572.000000 1 0 0
5.607316 -3.465668 16.145350 17.439185 -0.553594 0.387627 0.024551 -0.012223 621742.000000 1 0 0
-11.232284 0.630432 15.254350 18.954072 -0.056068 0.635448 0.024587 -0.010121 -440448.000000 1 0 0
-3.182384 3.170032 18.817550 19.346237 -0.783454 0.234320 0.034134 -0.014188 -125058.000000 1 0 0
0.541316 7.293932 14.023650 15.816360 1.496718 0.480736 0.013393 -0.002721 1722190.000000 1 0 0
-13.166584 -7.571568 12.290050 19.537986 0.521879 0.890487 0.029938 -0.001998 622054.000000 1 0 0
-1.515184 -1.052768 12.177050 12.316033 0.607235 0.150372 0.009314 -0.004943 423000.000000 1 0 0
1.968616 -4.794068 13.147750 14.132299 -1.181155 0.375475 0.004190 -0.006686 422472.000000 1 0 0
-14.712884 -4.028968 8.620350 17.521757 0.267287 1.056434 0.034154 -0.001755 -1120120.000000 1 0 0
8.054316 0.795432 16.108350 18.027304 0.098439 0.465599 0.034678 -0.010125 -188327.000000 1 0 0
-1.309184 11.338232 13.411450 17.610692 -1.455839 0.705093 0.010094 0.001041 -1124690.000000 1 0 0
2.888316 -12.194868 -13.636550 18.520601 -1.338235 2.398369 0.014531 -0.002082 -240657.000000 1 0 0
0.758016 -10.632768 -13.933450 17.543413 -1.499626 2.488530 0.009613 0.004160 -2128340.000000 1 0 0
3.344616 -14.399968 -12.353650 19.265466 -1.342577 2.266900 0.024606 -0.008370 -1580650.000000 1 0 0
-5.104884 -10.252868 -16.195950 19.836580 1.108832 2.526065 0.016556 -0.004717 -143733.000000 1 0 0
-1.069384 -12.288068 -14.957550 19.387328 1.483989 2.452010 0.024007 -0.000510 -100602.000000 1 0 0
5.808416 -15.021568 -11.768850 19.947206 -1.201832 2.201855 0.026992 -0.015166 139130.000000 1 0 0
2.021716 -11.940368 -15.997850 20.064668 -1.403069 2.493629 0.025089 0.004383 -403619.000000 1 0 0
1.293216 -14.340468 -13.938450 20.040005 -1.480860 2.339955 0.030197 -0.001840 -610248.000000 1 0 0
-1.084284 -10.629368 -15.899650 19.156147 1.469140 2.549908 0.020263 -0.004435 -502592.000000 1 0 0
-5.858484 -5.634768 -14.896650 16.970050 0.765936 2.642088 0.018293 -0.007746 5072.180000 1 0 0
-6.510484 -7.667468 -16.355550 19.201054 0.866822 2.590217 0.019922 -0.009796 125893.000000 1 0 0
5.099916 -12.641668 -11.382350 17.758907 -1.187344 2.266515 0.015243 -0.004472 231383.000000 1 0 0
-1.813184 -15.361368 -13.158950 20.308058 1.453305 2.275708 0.022268 -0.002653 -44901.000000 1 0 0
15.831616 -7.387868 -8.913650 19.613103 -0.436616 2.042578 0.070603 -0.007216 544591.000000 1 0 0
19.236616 -3.639068 -4.045350 19.991375 -0.186965 1.774558 0.103188 -0.028927 358591.000000 1 0 0
15.036616 -11.555868 -8.833750 20.920637 -0.655246 2.006723 0.075005 -0.023707 879409.000000 1 0 0
18.024616 -3.694368 -6.370550 19.470979 -0.202162 1.904116 0.113694 -0.015353 607382.000000 1 0 0
9.608016 -9.034268 -15.260750 20.169840 -0.754631 2.428913 0.078383 -0.029914 -60264.400000 1 0 0
1.382516 1.735732 -15.203550 15.364636 0.898191 2.996661 0.011864 -0.007998 -303161.000000 1 0 0
4.763016 -4.469168 -13.852150 15.314759 -0.753580 2.700995 -0.000009 -0.005873 -499884.000000 1 0 0
13.226016 -5.615068 -8.639550 16.765986 -0.401487 2.112157 0.048234 -0.008608 -1070000.000000 1 0 0
2.986816 0.858532 -12.324550 12.710337 0.279895 2.894582 0.002905 -0.008664 -3408760.000000 1 0 0
0.613716 6.249432 -12.934950 14.378629 1.472907 2.689639 0.010156 -0.007769 374323.000000 1 0 0
3.165416 -1.298768 -16.781050 17.126304 -0.389353 2.940459 0.012905 -0.010073 -144192.000000 1 0 0
13.056716 4.298332 -11.324550 17.810079 0.318030 2.259906 0.016576 -0.017998 -589171.000000 1 0 0
-3.921084 9.401632 -16.669950 19.535936 -1.175667 2.593072 0.006882 0.001642 395681.000000 1 0 0
-0.161384 -5.069868 -17.597150 18.313636 1.538975 2.860947 0.022798 -0.012582 715816.000000 1 0 0
-0.534284 -8.516668 -17.563750 19.527017 1.508145 2.689326 0.028346 -0.005339 -958906.000000 1 0 0
5.628716 -10.251368 -12.203250 16.902434 -1.068668 2.377459 0.009810 -0.001108 567674.000000 1 0 0
1.746516 -9.832668 -17.835750 20.441273 -1.395006 2.631166 0.035978 -0.010610 -439599.000000 1 0 0
11.076216 8.467832 -14.471850 20.095302 0.652720 2.374830 0.085195 -0.045795 -731642.000000 1 0 0
10.986416 -3.732468 -12.884950 17.339394 -0.327501 2.408491 0.026124 -0.010619 389100.000000 1 0 0
4.912516 7.402532 -12.318050 15.187648 0.984901 2.516753 0.000291 -0.007309 -1236040.000000 1 0 0
9.634216 -5.936168 -12.547350 16.896514 -0.552213 2.407740 0.026323 -0.011276 -1040700.000000 1 0 0
-3.303284 0.348132 -15.917450 16.260322 -0.105002 2.935870 0.020572 -0.009432 -612955.000000 1 0 0
-0.781884 10.669032 -12.916050 16.770925 -1.497642 2.449865 0.006433 -0.001088 1053420.000000 1 0 0
6.650516 -5.593368 -12.400950 15.142611 -0.699271 2.530365 0.005052 -0.005602 -99834.600000 1 0 0
18.017716 -6.100868 -8.150250 20.695054 -0.326486 1.975587 0.104595 -0.017039 1443280.000000 1 0 0
12.885416 4.603632 -13.930250 19.526373 0.343141 2.365144 0.036818 -0.029093 397177.000000 1 0 0
14.232816 0.639532 -11.554350 18.343529 0.044903 2.252204 0.038163 -0.000178 312016.000000 1 0 0
15.050416 5.946432 -11.191950 19.675742 0.376276 2.175866 0.057746 -0.023586 258626.000000 1 0 0
8.349716 1.402132 -11.695750 14.438639 0.166373 2.515002 -0.007731 0.001288 641881.000000 1 0 0
9.911916 1.121232 -8.946450 13.399336 0.112641 2.301882 -0.002659 0.000312 103622.000000 1 0 0
-0.167884 -5.738968 -12.984250 14.196995 1.541551 2.725258 0.002836 -0.004326 240272.000000 1 0 0
10.693616 -5.699768 -8.913150 15.042773 -0.489703 2.204980 0.027526 -0.012824 -2416550.000000 1 0 0
10.358216 8.440932 -11.273050 17.482094 0.683762 2.271602 0.039862 -0.024725 1165230.000000 1 0 0
8.505216 7.988332 -14.650250 18.729174 0.754070 2.469010 0.043065 -0.018175 389968.000000 1 0 0
8.596016 10.415432 -10.747750 17.259399 0.880809 2.243009 0.054936 -0.019492 -880974.000000 1 0 0
6.978716 1.803932 -17.940950 19.334796 0.252954 2.759563 0.015462 -0.001168 -2288960.000000 1 0 0
11.964416 2.351932 -12.743650 17.637444 0.194102 2.378257 0.016089 -0.011121 -772846.000000 1 0 0
2.746816 -1.048268 -19.226650 19.450139 -0.364571 2.989853 0.028168 -0.017341 -370692.000000 1 0 0
10.194216 -2.266468 -15.566750 18.745202 -0.218770 2.550692 0.033565 -0.010470 -223567.000000 1 0 0
8.275816 -0.951268 -13.051850 15.483695 -0.114443 2.573524 -0.002377 -0.001591 -393828.000000 1 0 0
0.602916 4.297732 -14.616150 15.246830 1.431419 2.852965 0.009181 -0.004232 -145935.000000 1 0 0
4.117416 -7.752368 -15.793250 18.068731 -1.082566 2.634305 0.012999 -0.006869 -2026460.000000 1 0 0
11.464016 -5.785668 -14.373050 19.273873 -0.467385 2.412422 0.065000 -0.016272 -771012.000000 1 0 0
-5.886584 4.264432 -16.950050 18.442924 -0.626936 2.736471 0.013493 -0.004946 506720.000000 1 0 0
11.385916 7.748032 -9.070150 16.490564 0.597513 2.153185 0.032568 -0.010721 -1788370.000000 1 0 0
9.559716 6.002532 -13.348350 17.481333 0.560681 2.439632 0.017263 -0.009639 -959070.000000 1 0 0
12.017516 0.462432 -10.154250 15.739864 0.038461 2.271989 0.015892 0.002801 -1073400.000000 1 0 0
5.590016 -7.438468 -13.745850 16.599020 -0.926335 2.546528 0.006544 -0.005215 -1343430.000000 1 0 0
8.556416 -10.209268 -10.648150 17.053577 -0.873250 2.245152 0.024315 -0.010888 12310.800000 1 0 0
10.215116 4.489432 -15.779850 19.326336 0.414079 2.526110 0.049808 -0.019952 -781631.000000 1 0 0
9.870416 -0.620568 -10.906150 14.722578 -0.062789 2.405023 0.001639 0.000014 -298522.000000 1 0 0
-1.705884 5.448932 -14.115750 15.226795 -1.267394 2.757219 0.007345 -0.006069 698324.000000 1 0 0
1.407816 -0.852868 -14.875750 14.966538 -0.544680 3.031391 0.010339 -0.009975 -1344780.000000 1 0 0
11.610316 -10.380768 -14.254950 21.113109 -0.729545 2.311992 0.100011 -0.026162 79292.800000 1 0 0
9.448616 -7.778668 -10.730550 16.276631 -0.688764 2.290632 0.030748 -0.011646 -370290.000000 1 0 0
14.028516 -1.034968 -9.595050 17.027489 -0.073643 2.169417 0.031718 -0.000855 999169.000000 1 0 0
4.060416 10.990032 -12.298750 16.986083 1.216888 2.380450 0.018348 -0.015009 -693304.000000 1 0 0
-1.231284 3.044932 -16.716850 17.036453 -1.186527 2.947588 0.018799 -0.008926 546.646000 1 0 0
5.815516 -0.470268 -17.704950 18.641529 -0.080689 2.823259 0.001003 -0.003412 145753.000000 1 0 0
6.394416 -6.507768 -16.002750 18.420847 -0.794183 2.623429 0.017579 -0.006758 37665.200000 1 0 0
-1.809584 -5.429968 -19.606250 20.424597 1.249113 2.857560 0.038908 -0.022733 237311.000000 1 0 0
-0.100284 -4.304168 -15.146650 15.746648 1.547501 2.864653 0.008426 -0.007878 -159479.000000 1 0 0
0.543316 0.657032 -12.989650 13.017599 0.879852 3.076052 0.007287 -0.010226 284351.000000 1 0 0
15.587316 0.687732 -13.729650 20.783182 0.044093 2.292432 0.076397 -0.014285 552650.000000 1 0 0
-0.127584 6.971932 -16.371150 17.794343 -1.552499 2.738928 0.008432 0.002838 -187398.000000 1 0 0
-5.060884 -0.659768 -18.288550 18.987335 0.129635 2.869450 0.023903 -0.006155 -75396.400000 1 0 0
10.436116 -8.442268 -12.931050 18.638574 -0.680173 2.337519 0.039304 -0.024908 514114.000000 1 0 0
4.111716 8.402232 -17.315850 19.681015 1.115697 2.646290 0.034562 -0.013549 -45245.300000 1 0 0
9.239816 0.658232 -17.155850 19.496939 0.071119 2.646501 0.021609 0.002536 -27700.900000 1 0 0
3.343216 4.558732 -18.453850 19.300355 0.938027 2.844325 0.026184 -0.001616 -971177.000000 1 0 0
1.549116 -8.179768 -15.969550 18.009300 -1.383629 2.661039 0.015302 -0.003293 -304975.000000 1 0 0
4.535916 7.623532 -14.914950 17.353631 1.034070 2.605031 0.010167 -0.006581 276569.000000 1 0 0
-5.713484 -0.354068 -15.218750 16.259754 0.061891 2.781819 0.011246 -0.008673 -803882.000000 1 0 0
2.949316 3.281632 -13.800450 14.488616 0.838681 2.832148 0.005487 -0.004924 -289727.000000 1 0 0
-2.364384 -10.174868 -18.148650 20.940194 1.342474 2.619324 0.038183 -0.002263 -151143.000000 1 0 0
6.330016 -9.081468 -15.541650 19.081012 -0.962069 2.522678 0.017067 -0.004644 308912.000000 1 0 0
-1.775984 5.459432 -17.421350 18.342926 -1.256288 2.823260 0.016681 0.001060 838147.000000 1 0 0
10.176716 -12.087368 -11.387250 19.476639 -0.871006 2.195260 0.063372 -0.021788 389742.000000 1 0 0
10.870216 3.559832 -9.442050 14.831935 0.316478 2.260881 0.002657 -0.003962 -1479630.000000 1 0 0
4.782616 -0.409268 -10.970150 11.974352 -0.085366 2.729132 0.000752 -0.004817 516685.000000 1 0 0
6.340816 9.387332 -11.453850 16.109582 0.976727 2.361710 0.020106 -0.015730 -10590.600000 1 0 0
10.753116 -9.624268 -9.360450 17.200990 -0.730058 2.146209 0.046582 -0.014592 -418358.000000 1 0 0
3.379016 -2.451168 -14.455150 15.045841 -0.627576 2.860456 0.003094 -0.008285 -87277.400000 1 0 0
9.230816 -4.551968 -14.712650 17.955234 -0.458134 2.531173 0.032302 -0.012706 473432.000000 1 0 0
-4.044384 -6.641768 -16.490450 18.231979 1.023835 2.700954 0.012733 -0.006681 546863.000000 1 0 0
5.890116 -7.828568 -11.175750 14.861942 -0.925769 2.421843 0.003710 -0.004500 10051.800000 1 0 0
5.399416 6.222632 -16.965950 18.860495 0.856112 2.689533 0.017703 -0.008358 -934999.000000 1 0 0
8.942916 1.358832 -19.661150 21.642157 0.150792 2.710394 0.037773 -0.008658 518389.000000 1 0 0
13.209116 5.829732 -9.334850 17.193195 0.415630 2.144729 0.017025 -0.009699 957906.000000 1 0 0
-1.516684 -0.738968 -17.426850 17.508326 0.453376 3.045081 0.022544 -0.010838 73063.200000 1 0 0
-0.369584 -0.686268 -19.586150 19.601653 1.076793 3.101817 0.042461 -0.015429 -286862.000000 1 0 0
2.854616 6.257732 -16.460150 17.839411 1.142820 2.745783 0.012851 -0.001800 -964133.000000 1 0 0
7.692016 3.687432 -15.622350 17.799496 0.447020 2.641806 0.008995 -0.002386 66173.800000 1 0 0
3.010316 -9.869968 -14.801050 18.042986 -1.274761 2.532769 0.013094 -0.001526 153530.000000 1 0 0
9.147916 -10.543668 -13.249650 19.245948 -0.856160 2.330130 0.051437 -0.013978 -210593.000000 1 0 0
3.857516 0.139032 -14.804350 15.299298 0.036026 2.886536 0.001136 -0.006536 -90308.700000 1 0 0
-1.295184 -3.023268 -18.813250 19.098587 1.166045 2.968517 0.039744 -0.012005 606879.000000 1 0 0
9.286416 9.974532 -13.198050 18.971487 0.821109 2.340160 0.067418 -0.031957 504127.000000 1 0 0
4.526916 2.076332 -10.668650 11.773878 0.430035 2.704837 -0.002171 -0.002546 -307771.000000 1 0 0
-0.403684 7.031432 -18.954350 20.220568 -1.513448 2.785826 0.028880 0.003357 281938.000000 1 0 0
0.794716 -1.941668 -17.604050 17.728627 -1.182302 3.022974 0.027575 -0.016151 -688125.000000 1 0 0
-4.542284 -2.318068 -14.092850 14.987134 0.471878 2.794395 0.012385 -0.008121 -3274770.000000 1 0 0
10.073616 5.981932 -10.508650 15.738265 0.535864 2.301929 0.009533 -0.003060 282561.000000 1 0 0
8.462116 5.652032 -17.262450 20.038589 0.588871 2.608935 0.054216 -0.016993 -360413.000000 1 0 0
11.185416 0.143132 -13.622750 17.627062 0.012796 2.454087 0.014340 0.006320 329630.000000 1 0 0
6.742316 11.978932 -11.884650 18.171366 1.058143 2.283698 0.053330 -0.023658 -758153.000000 1 0 0
-0.877684 0.456132 -15.169750 15.201963 -0.479283 3.076480 0.014936 -0.011045 419596.000000 1 0 0
-4.486884 -3.066568 -19.067850 19.827225 0.599533 2.863936 0.029141 -0.003442 483667.000000 1 0 0
5.809416 -12.253568 -13.909150 19.425851 -1.128083 2.368870 0.019083 -0.003912 -104679.000000 1 0 0
2.122716 -4.735168 -13.983350 14.915153 -1.149368 2.786247 0.003422 -0.005796 1042560.000000 1 0 0
11.786216 1.829432 -15.315450 19.411973 0.153989 2.479926 0.049481 -0.009826 399344.000000 1 0 0
9.575716 2.206332 -13.835450 16.970030 0.226457 2.524021 0.005960 -0.003348 -1323140.000000 1 0 0
-2.301184 -4.191868 -16.469550 17.149731 1.068749 2.859011 0.012731 -0.008852 -1403030.000000 1 0 0
-2.984184 10.070532 -14.349550 17.782872 -1.282711 2.509734 0.004476 -0.003560 136528.000000 1 0 0
3.519516 5.712332 -13.681650 15.238283 1.018604 2.685652 0.006538 -0.003662 -103133.000000 1 0 0
-5.166784 -2.586168 -16.541650 17.521703 0.464077 2.805548 0.016402 -0.009476 390546.000000 1 0 0
-4.261284 6.127332 -13.560750 15.478910 -0.963127 2.638466 0.001605 -0.003884 579962.000000 1 0 0
5.934416 -1.164568 -14.124350 15.364594 -0.193777 2.737041 0.001246 -0.001524 -2247830.000000 1 0 0
6.781016 -3.095568 -12.576450 14.619569 -0.428250 2.606551 0.000386 -0.007408 1113170.000000 1 0 0
2.859616 -3.455868 -18.173750 18.719124 -0.879530 2.899613 0.019920 -0.019593 -436596.000000 1 0 0
7.560516 -12.074568 -12.086550 18.682646 -1.011369 2.274361 0.031875 -0.008964 -724751.000000 1 0 0
-6.172684 -5.411568 -17.460950 19.294348 0.719790 2.702123 0.043636 -0.014330 239536.000000 1 0 0
0.529416 8.614732 -11.894150 14.695737 1.509419 2.513859 0.005137 -0.002577 243638.000000 1 0 0
0.413116 8.489832 -14.418250 16.737199 1.522175 2.608913 0.005268 0.001454 157109.000000 1 0 0
7.626616 -2.625868 -14.961450 16.997218 -0.331591 2.647142 0.008066 -0.015972 -1489930.000000 1 0 0
14.193116 1.466732 -8.965750 16.851721 0.102976 2.131802 0.019900 0.000060 694386.000000 1 0 0
2.796116 10.612332 -14.592550 18.258761 1.313173 2.496773 0.014586 -0.006854 -432053.000000 1 0 0
6.240816 0.977632 -15.556950 16.790540 0.155389 2.755880 0.008388 -0.001071 454651.000000 1 0 0
16.856716 -5.485268 -10.324650 20.514274 -0.314599 2.098199 0.117712 -0.018260 576451.000000 1 0 0
4.876816 -4.303968 -11.200350 12.952039 -0.723082 2.615460 -0.000985 -0.001904 172037.000000 1 0 0
8.661616 -3.689868 -17.019450 19.449945 -0.402719 2.636312 0.024401 -0.018066 417033.000000 1 0 0
13.249316 -9.658368 -8.776250 18.597070 -0.629906 2.062259 0.071805 -0.023041 -885160.000000 1 0 0
2.368816 -7.736368 -13.595050 15.820495 -1.273668 2.604757 0.002881 -0.001739 322814.000000 1 0 0
-7.005884 -2.440668 -18.354450 19.797098 0.335226 2.757472 0.031089 -0.012363 639244.000000 1 0 0
-1.517484 -6.448468 -15.767250 17.102387 1.339677 2.743837 0.008732 -0.003708 -453670.000000 1 0 0
1.657616 -7.342968 -18.480050 19.954425 -1.348776 2.754771 0.029439 -0.010654 -312746.000000 1 0 0
5.424016 10.863332 -14.576750 18.971388 1.107712 2.447062 0.046320 -0.026530 176641.000000 1 0 0
5.454316 -3.399568 -17.389550 18.539230 -0.557362 2.787572 0.016056 -0.011405 864229.000000 1 0 0
3.867016 12.940532 -14.105250 19.528678 1.280413 2.377895 0.043335 -0.018438 -123379.000000 1 0 0
9.534916 10.070032 -15.811750 21.031681 0.812686 2.421593 0.101543 -0.039226 394166.000000 1 0 0
2.499316 3.791232 -16.241350 16.864206 0.987956 2.868964 0.014146 -0.000541 282053.000000 1 0 0
16.576716 1.840432 -11.559550 20.292804 0.110572 2.176862 0.084669 -0.011916 790412.000000 1 0 0
10.038216 -3.725168 -10.436950 14.952343 -0.355346 2.343417 0.022947 -0.006599 157466.000000 1 0 0
14.655416 -2.193568 -11.885150 18.996045 -0.148573 2.246779 0.078879 -0.013644 291248.000000 1 0 0
-2.679584 -8.695268 -16.071850 18.468682 1.271865 2.626449 0.011416 0.002678 116212.000000 1 0 0
13.924516 8.256632 -8.970950 18.507892 0.535224 2.076827 0.049261 -0.010084 -254304.000000 1 0 0
-8.242684 0.198432 -16.589850 18.525774 -0.024069 2.680352 0.009632 -0.013133 -389496.000000 1 0 0
-3.514084 3.993732 -15.971450 16.834069 -0.849198 2.820077 0.014296 -0.003752 -932672.000000 1 0 0
15.018016 3.863532 -9.724450 18.303896 0.251800 2.130904 0.029478 -0.010044 270498.000000 1 0 0
5.508116 1.096232 -12.965650 14.129725 0.196454 2.732834 -0.003264 -0.003194 21214.200000 1 0 0
7.871516 -7.797868 -12.804750 16.933078 -0.780698 2.428278 0.025573 -0.010563 -2610790.000000 1 0 0
3.138016 -6.123068 -11.870850 13.720648 -1.097206 2.616308 -0.001148 -0.003042 -647013.000000 1 0 0
-3.146284 3.454032 -18.481350 19.062784 -0.831991 2.893975 0.013104 -0.001769 351442.000000 1 0 0
0.841716 5.021732 -17.830550 18.543322 1.404725 2.863431 0.022366 -0.004666 -205592.000000 1 0 0
6.333916 7.013032 -10.215850 13.916346 0.836236 2.395122 0.003334 -0.006052 164869.000000 1 0 0
9.638716 3.705332 -11.706950 15.610477 0.367005 2.418770 0.003364 -0.004022 -12917.000000 1 0 0
4.557616 1.756032 -17.456750 18.127151 0.367767 2.868779 0.014800 -0.003025 -727026.000000 1 0 0
2.627616 8.057532 -13.320350 15.787967 1.255564 2.574940 0.005747 -0.004400 -1480860.000000 1 0 0
14.386516 -3.641768 -9.825050 17.797919 -0.247929 2.155598 0.060151 -0.006673 -33491.900000 1 0 0
-1.290584 9.286932 -16.167650 18.689719 -1.432713 2.616058 0.010012 0.000723 -1009590.000000 1 0 0
-5.274384 2.026532 -15.931650 16.903947 -0.366831 2.800773 0.015719 -0.007358 591680.000000 1 0 0
4.580916 4.246132 -11.933450 13.469285 0.747489 2.659389 -0.002598 -0.005551 492866.000000 1 0 0
9.145216 3.203032 -17.835250 20.297550 0.336890 2.643907 0.031890 -0.001737 732571.000000 1 0 0
-4.420284 14.340232 -13.416150 20.128940 -1.271794 2.300314 0.024829 -0.008408 -248316.000000 1 0 0
15.594416 -4.945868 -7.948450 18.188603 -0.307121 2.023059 0.073220 -0.009717 202668.000000 1 0 0
1.142416 9.320032 -16.773450 19.222818 1.448828 2.631256 0.004839 0.006057 -434133.000000 1 0 0
0.540216 -3.189468 -12.833950 13.235362 -1.403014 2.894678 0.005164 -0.006508 10782.300000 1 0 0
7.400316 3.321932 -13.068350 15.381212 0.421931 2.586081 -0.006050 0.001070 -887547.000000 1 0 0
-2.960684 7.534932 -15.160750 17.186890 -1.196402 2.651122 0.007648 -0.001876 296442.000000 1 0 0
12.166416 -5.154468 -10.997050 17.190850 -0.400738 2.264909 0.048380 -0.012393 -787243.000000 1 0 0
0.685816 -4.423268 -19.912450 20.409343 -1.416974 2.920478 0.044165 -0.022291 -421904.000000 1 0 0
3.485716 -4.651868 -16.071750 17.090676 -0.927734 2.794545 0.008353 -0.013451 733636.000000 1 0 0
-5.680484 4.141032 -14.383650 16.009542 -0.629920 2.687005 0.001385 -0.007048 707737.000000 1 0 0
12.204616 -7.549568 -9.728750 17.337739 -0.553972 2.166548 0.040994 -0.014414 -38547.200000 1 0 0
-2.115684 -1.851168 -15.105850 15.365208 0.718815 2.957596 0.015588 -0.007661 834434.000000 1 0 0
7.134216 5.808632 -14.226050 16.941598 0.683336 2.567548 0.010135 -0.005441 -283963.000000 1 0 0
4.329416 -5.495868 -18.421650 19.705471 -0.903564 2.778631 0.025109 -0.014285 43140.300000 1 0 0
7.570216 7.331532 -12.338150 16.226197 0.769382 2.434701 0.009551 -0.012709 -667915.000000 1 0 0
12.297216 -2.539268 -10.952850 16.662362 -0.203629 2.288081 0.030859 -0.004530 -861792.000000 1 0 0
7.408516 -0.750768 -10.606650 12.959582 -0.100994 2.529488 -0.004605 -0.001806 -1995940.000000 1 0 0
5.384416 3.923432 -14.434850 15.898117 0.629706 2.709186 -0.001904 -0.000983 -401589.000000 1 0 0
14.576516 2.897332 -12.872650 19.661497 0.196210 2.284600 0.047090 -0.023704 -254038.000000 1 0 0
-6.300484 6.663132 -15.851150 18.312629 -0.813365 2.617115 -0.002523 -0.001017 512568.000000 1 0 0
-11.400484 3.765832 -16.248150 20.202844 -0.319038 2.505210 0.058712 -0.032470 -582283.000000 1 0 0
-5.027384 6.441032 -18.088150 19.847988 -0.908044 2.717310 0.009568 0.010652 -365714.000000 1 0 0
-10.186284 1.557032 -15.475650 18.592484 -0.151682 2.554150 0.040132 -0.021901 -251842.000000 1 0 0
-7.604684 5.992932 -17.971650 20.413884 -0.667417 2.647426 0.010911 -0.007002 -702225.000000 1 0 0
-8.805684 3.820332 -15.849250 18.529267 -0.409341 2.597048 0.006965 0.002401 332886.000000 1 0 0
8.964616 13.358732 -12.050850 20.100822 0.979753 2.213698 0.107132 -0.035568 -594981.000000 1 0 0
13.634916 8.816632 -11.603450 19.957053 0.573997 2.191270 0.057069 -0.020275 480737.000000 1 0 0
8.324516 15.888732 -9.220650 20.168534 1.088192 2.045618 0.058614 -0.012306 -276842.000000 1 0 0
7.247116 13.294132 -14.070950 20.669936 1.071695 2.319575 0.087017 -0.028019 119588.000000 1 0 0
4.633016 15.789232 -12.670750 20.768067 1.285379 2.226992 0.064732 -0.028113 173659.000000 1 0 0
10.965816 10.941532 -11.483650 19.283165 0.784290 2.208718 0.083876 -0.029317 -170937.000000 1 0 0
15.955216 9.183232 -10.235550 21.063408 0.522257 2.078235 0.103607 -0.002523 2120660.000000 1 0 0
13.716516 10.689432 -9.686250 19.905532 0.661998 2.079003 0.120384 -0.016935 546039.000000 1 0 0
10.523216 11.909532 -8.317150 17.937391 0.847118 2.052937 0.052587 -0.001116 466239.000000 1 0 0
5.358216 16.241032 -10.234950 19.930775 1.252122 2.110084 0.044923 -0.016190 -71717.200000 1 0 0
6.724116 14.537732 -11.743750 19.861396 1.137573 2.203448 0.054505 -0.012451 36223.400000 1 0 0
10.729316 14.011632 -9.919050 20.244298 0.917295 2.082849 0.088498 -0.009629 -482253.000000 1 0 0
8.410316 -18.611168 -1.245850 20.461210 -1.146367 1.631722 0.073051 -0.008226 67716.300000 1 0 0
7.213816 -17.378868 -3.269650 19.098555 -1.177348 1.742843 0.048566 -0.012320 258370.000000 1 0 0
4.717316 -17.809268 5.271650 19.162813 -1.311863 1.292105 0.044936 -0.030809 -5942.040000 1 0 0
9.708316 -16.935868 -2.639950 19.698841 -1.050286 1.705216 0.062963 -0.016683 -292735.000000 1 0 0
-9.683784 -12.283168 -9.858350 18.488887 0.903182 2.133180 0.037940 -0.007253 -807792.000000 1 0 0
-5.229184 -6.991668 -12.148250 14.960205 0.928630 2.518431 0.007044 -0.000203 400945.000000 1 0 0
-10.894484 -9.509368 -5.573050 15.497636 0.717617 1.938642 0.024461 -0.007310 -839714.000000 1 0 0
-4.539484 -11.553768 -13.981550 18.697064 1.196425 2.415529 0.012100 -0.003319 462257.000000 1 0 0
-2.968784 -15.455968 7.428950 17.403733 1.381028 1.129779 0.000448 -0.002121 291872.000000 1 0 0
-4.871984 -11.914368 -11.489750 17.254064 1.182627 2.299517 0.018021 -0.005093 524478.000000 1 0 0
-14.436884 -12.951568 -4.029150 19.809108 0.731220 1.775624 0.055251 -0.016642 321898.000000 1 0 0
-3.243684 -12.286468 -3.359950 13.144125 1.312681 1.829289 0.009046 -0.004544 904481.000000 1 0 0
-2.451584 -17.354868 -1.584850 17.598677 1.430463 1.660974 0.004402 -0.010727 -336387.000000 1 0 0
-5.750784 -12.047468 3.698250 13.852438 1.125437 1.300544 0.002077 0.000131 271821.000000 1 0 0
-8.955584 -10.755268 -11.827250 18.323812 0.876450 2.272419 0.025482 -0.003170 705380.000000 1 0 0
-9.863084 -12.056168 -7.278550 17.193280 0.885119 2.007922 0.043750 -0.016690 171577.000000 1 0 0
-10.734784 -15.112368 6.180550 19.540175 0.953170 1.248970 0.035146 -0.013177 -760099.000000 1 0 0
-9.525484 -15.542868 0.670450 18.241850 1.020980 1.534035 0.027937 -0.011173 -3121340.000000 1 0 0
-14.926984 -7.851268 -8.193850 18.750905 0.484214 2.023039 0.036179 -0.007391 70258.900000 1 0 0
-2.410484 -16.517168 5.158050 17.470911 1.425881 1.271093 0.011544 -0.007194 324684.000000 1 0 0
4.572516 -15.517168 6.351850 17.379195 -1.284232 1.196642 0.033579 -0.020698 -544688.000000 1 0 0
4.108616 -14.650768 -10.014650 18.215898 -1.297383 2.152891 0.013505 -0.011330 10787.300000 1 0 0
-7.666584 -13.972868 -0.309650 15.940935 1.068970 1.590222 0.014598 -0.007104 1150240.000000 1 0 0
2.868216 -14.873968 9.500150 17.880560 -1.380300 1.010648 0.021969 -0.016450 -595508.000000 1 0 0
2.448016 -17.177168 10.273650 20.164220 -1.429234 1.036194 0.046245 -0.023713 -300871.000000 1 0 0
-8.285584 -17.172668 -5.346850 19.802531 1.121257 1.844198 0.055958 -0.014913 -343337.000000 1 0 0
-6.493384 -9.113768 -7.661750 13.561976 0.951743 2.171161 0.019066 -0.008865 334013.000000 1 0 0
-6.029884 -13.081468 -4.815650 15.187981 1.138875 1.893435 0.010855 -0.014973 179466.000000 1 0 0
2.177416 -19.403568 -4.872050 20.124027 -1.459047 1.815327 0.022667 -0.008811 151340.000000 1 0 0
-5.562284 -12.846068 8.283550 16.265844 1.162173 1.036471 0.000501 -0.001652 748392.000000 1 0 0
2.131516 -17.543168 3.422550 18.000554 -1.449888 1.379496 0.018464 -0.016552 444765.000000 1 0 0
-17.768484 -9.937968 -2.473850 20.508587 0.509958 1.691716 0.055147 -0.020175 528325.000000 1 0 0
-3.518484 -15.408868 2.584250 16.015345 1.346304 1.408727 -0.002630 -0.001029 112292.000000 1 0 0
-10.127784 -10.371868 -14.179050 20.277897 0.797304 2.345126 0.034162 -0.006136 -156894.000000 1 0 0
6.155016 -14.460868 -5.681550 16.711700 -1.168390 1.917686 0.020785 -0.015375 247398.000000 1 0 0
-7.287584 -12.380768 -10.635750 17.874883 1.038786 2.208075 0.022364 -0.009718 -816479.000000 1 0 0
-7.118684 -14.216668 3.867850 16.363055 1.106566 1.332161 -0.000533 -0.000440 649236.000000 1 0 0
3.250516 -15.001468 -3.183250 15.676191 -1.357415 1.775281 0.007628 -0.006962 -242864.000000 1 0 0
-7.554384 -11.237868 7.708150 15.581206 0.978955 1.053297 0.001893 -0.010390 -2618900.000000 1 0 0
-12.842984 -12.193168 -0.964850 17.735459 0.759449 1.625225 0.030711 -0.007247 364762.000000 1 0 0
-1.880884 -13.657868 3.999150 14.355079 1.433943 1.288473 0.004506 0.001454 -4112250.000000 1 0 0
-3.138384 -13.947768 5.255950 15.232029 1.349473 1.218495 -0.003775 0.002801 212621.000000 1 0 0
-14.537184 -10.352668 -4.292050 18.355629 0.618834 1.806809 0.035273 -0.011081 750329.000000 1 0 0
-6.176584 -8.656468 -10.376450 14.857837 0.951052 2.343931 0.010351 -0.003104 210672.000000 1 0 0
0.744116 -19.507368 2.376150 19.665635 -1.532669 1.449673 0.030565 -0.015600 151206.000000 1 0 0
6.475816 -14.270368 -8.331250 17.747938 -1.144791 2.059431 0.023737 -0.013360 -1759310.000000 1 0 0
-3.990484 -16.659268 -5.895350 18.116576 1.335691 1.902244 0.008205 -0.012986 -215565.000000 1 0 0
-3.655684 -13.653168 -12.992050 19.198082 1.309179 2.314118 0.024080 -0.003441 -908832.000000 1 0 0
-8.247884 -14.629468 -4.551450 17.400132 1.057431 1.835451 0.029074 -0.018772 -266880.000000 1 0 0
-4.836084 -14.371668 10.182950 18.265405 1.246197 0.979426 0.008861 -0.000724 395754.000000 1 0 0
-0.184784 -12.177268 -9.870550 15.676343 1.555623 2.251894 0.008231 -0.005548 692510.000000 1 0 0
2.546816 -17.131568 6.599750 18.534659 -1.423215 1.206731 0.027253 -0.027095 -1197200.000000 1 0 0
-2.893284 -19.204368 -3.410550 19.718283 1.421263 1.744634 0.013602 -0.009358 -1779130.000000 1 0 0
0.585316 -15.277968 -3.077650 15.595859 -1.532504 1.769438 0.001788 -0.008134 192606.000000 1 0 0
5.901516 -17.888368 0.369750 18.840337 -1.252132 1.551170 0.032867 -0.010429 -522099.000000 1 0 0
-7.006484 -16.755968 3.802450 18.555643 1.174743 1.364413 0.003261 -0.002346 409287.000000 1 0 0
-5.253884 -13.543568 -9.571550 17.396726 1.200743 2.153391 0.016530 -0.008333 -56942.600000 1 0 0
5.657416 -15.130368 -2.136750 16.294173 -1.212980 1.702311 0.026591 -0.006865 -1657130.000000 1 0 0
-8.879484 -10.323268 -0.490050 13.625536 0.860443 1.606770 0.013617 -0.003048 400606.000000 1 0 0
-7.282484 -18.473368 -2.662750 20.034723 1.195287 1.704097 0.031510 -0.018796 33821.800000 1 0 0
7.846016 -15.952068 -1.088950 17.810509 -1.113690 1.631975 0.031871 -0.011291 228911.000000 1 0 0
-8.096984 -10.198368 -9.406950 16.064201 0.899756 2.196397 0.023399 -0.007272 -191862.000000 1 0 0
-9.180984 -15.282768 -6.900050 19.117116 1.029832 1.940067 0.055740 -0.018626 358100.000000 1 0 0
-11.546984 -10.444168 -11.958350 19.632004 0.735292 2.225753 0.040711 0.001676 -546837.000000 1 0 0
6.588416 -16.301668 2.417450 17.748117 -1.186712 1.434163 0.033590 -0.012448 -303599.000000 1 0 0
-2.289184 -11.061368 -6.116550 12.845482 1.366724 2.067083 0.003549 -0.005621 -615362.000000 1 0 0
-12.480884 -15.437068 -3.204350 20.108291 0.890893 1.730833 0.049937 -0.015581 -256720.000000 1 0 0
-0.449684 -19.708468 -2.764750 19.906525 1.547983 1.710133 0.021522 -0.012353 -561092.000000 1 0 0
-5.911284 -15.591568 -4.709150 17.326752 1.208407 1.846044 0.010744 -0.012336 -2761640.000000 1 0 0
1.894816 -15.865868 -1.043650 16.012660 -1.451932 1.636019 0.010990 -0.011672 32909.000000 1 0 0
-13.349584 -11.883268 5.262450 18.631072 0.727352 1.284443 0.036903 -0.012793 301872.000000 1 0 0
2.008716 -15.366468 -8.592750 17.720006 -1.440813 2.077066 0.012012 -0.003666 -195586.000000 1 0 0
-11.633584 -16.811268 0.004450 20.444046 0.965452 1.570579 0.060997 -0.021444 144557.000000 1 0 0
-7.747484 -16.520668 -0.995750 18.274230 1.132290 1.625313 0.037304 -0.017660 706284.000000 1 0 0
-2.974484 -14.420468 -1.768350 14.829852 1.367381 1.690323 0.004756 -0.004017 396609.000000 1 0 0
-1.756884 -10.372468 -13.189750 16.871402 1.403009 2.468314 0.009001 -0.001849 76911.400000 1 0 0
1.423116 -19.507168 4.918450 20.167945 -1.497972 1.324437 0.047074 -0.024661 1743.790000 1 0 0
-17.512884 -9.428668 2.499650 20.046175 0.493882 1.445776 0.038467 -0.018153 910516.000000 1 0 0
-2.788784 -15.473468 -7.978750 17.631391 1.392481 2.040398 -0.002267 -0.010409 -665704.000000 1 0 0
-10.531084 -12.172968 0.278750 16.098527 0.857589 1.553480 0.012742 -0.001063 208212.000000 1 0 0
-6.924284 -11.422768 -6.460350 14.837838 1.025843 2.021275 0.018558 -0.011315 -240137.000000 1 0 0
-2.148084 -13.505468 -6.606150 15.187269 1.413065 2.020812 0.000304 -0.004270 717948.000000 1 0 0
-14.476584 -14.311068 -1.023750 20.382007 0.779649 1.621046 0.063273 -0.015541 192965.000000 1 0 0
-9.651184 -11.278668 -4.303150 15.455445 0.863001 1.852948 0.028018 -0.012095 624679.000000 1 0 0
9.395316 -15.106168 -5.131650 18.514915 -1.014392 1.851636 0.045823 -0.016625 149475.000000 1 0 0
-5.636384 -10.932368 -9.243850 15.386170 1.094772 2.215285 0.018024 -0.009460 -926991.000000 1 0 0
-10.536984 -16.026968 -4.876850 19.790790 0.989199 1.819781 0.072077 -0.016477 -868203.000000 1 0 0
2.085516 -17.347768 -3.212850 17.765608 -1.451152 1.752643 0.013624 -0.007425 623668.000000 1 0 0
-0.304684 -14.487668 -8.067850 16.585402 1.549769 2.078810 0.003717 -0.003283 -629361.000000 1 0 0
-0.724884 -18.307468 -7.056850 19.633847 1.531222 1.938445 0.006622 -0.003069 -28396.400000 1 0 0
-1.667384 -10.034668 -10.577650 14.675197 1.406138 2.375729 0.002741 -0.001828 351434.000000 1 0 0
-5.105484 -17.289268 1.997050 18.137612 1.283659 1.460467 0.006409 -0.007996 -866896.000000 1 0 0
0.209216 -12.757368 -2.629350 13.027190 -1.554398 1.774028 0.003110 -0.003625 -1962740.000000 1 0 0
2.600216 -14.975868 2.976750 15.488666 -1.398883 1.377404 0.016750 -0.009206 -911173.000000 1 0 0
-9.260584 -13.082868 6.918850 17.458245 0.954828 1.163304 0.007806 -0.007721 -887298.000000 1 0 0
-1.016984 -17.945768 -4.537850 18.538525 1.514187 1.818089 0.005488 -0.005396 -603778.000000 1 0 0
-9.751784 -17.427368 -2.502050 20.126368 1.060638 1.695436 0.058855 -0.028509 804138.000000 1 0 0
1.299616 -16.232268 1.358750 16.340799 -1.490903 1.487549 0.011841 -0.014801 205308.000000 1 0 0
-0.490284 -18.020468 4.073850 18.481718 1.543596 1.348545 0.026479 -0.018882 770202.000000 1 0 0
-17.400484 -9.200168 -0.073450 19.683123 0.486367 1.574528 0.022325 -0.014177 834701.000000 1 0 0
-14.833284 -7.141568 -10.654350 19.609780 0.448702 2.145181 0.052990 -0.014484 642766.000000 1 0 0
2.764816 -12.776068 -8.836750 15.778474 -1.357677 2.165244 0.001179 -0.005897 363418.000000 1 0 0
-11.771984 -14.814968 1.640650 18.993541 0.899356 1.484309 0.033099 -0.008808 201561.000000 1 0 0
-2.623484 -15.716868 10.663950 19.173483 1.405400 0.981011 0.019046 -0.001647 312762.000000 1 0 0
-7.032984 -15.764768 1.307550 17.311859 1.151173 1.495195 0.020218 -0.012071 -738594.000000 1 0 0
-12.653584 -14.711468 -5.773050 20.245211 0.860458 1.859966 0.062471 -0.023077 492460.000000 1 0 0
0.899016 -13.682568 -5.030950 14.605867 -1.505185 1.922446 0.000718 -0.001934 -65717.500000 1 0 0
5.755516 -16.470768 -7.164150 18.860997 -1.234622 1.960419 0.044748 -0.028057 143.405000 1 0 0
-6.556284 -12.784168 5.942450 15.547750 1.096926 1.178613 -0.000057 -0.002661 -333131.000000 1 0 0
-2.588184 -13.437668 0.524650 13.694702 1.380520 1.532476 0.001644 -0.001156 3307620.000000 1 0 0
-4.252084 -15.535568 0.118350 16.107392 1.303639 1.563449 0.004722 -0.007563 93039.100000 1 0 0
-17.641684 -7.398668 -1.857450 19.220287 0.397106 1.667587 0.022109 -0.010334 -1440.230000 1 0 0
1.331916 -12.787968 -11.852950 17.487096 -1.467017 2.315578 0.011717 -0.005548 -186181.000000 1 0 0
1.185516 -17.051168 -5.673250 18.009262 -1.501381 1.891272 0.020679 -0.011846 -582647.000000 1 0 0
-12.847784 -6.440768 -8.959150 16.935625 0.464698 2.128232 0.029162 -0.005016 1990120.000000 1 0 0
-11.636884 -13.453168 -8.631050 19.771186 0.857663 2.022553 0.056346 -0.014447 50078.300000 1 0 0
-4.274284 -9.712268 3.440050 11.154891 1.156213 1.257297 0.006324 0.002066 -3979500.000000 1 0 0
-7.321684 -14.064368 9.635050 18.553913 1.090817 1.024764 0.008367 -0.010525 -1874670.000000 1 0 0
-5.387984 -15.831668 -8.110950 18.586543 1.242762 2.022377 0.015511 -0.012326 -648267.000000 1 0 0
-0.345184 -13.395468 2.138250 13.569444 1.545033 1.412558 0.007570 -0.006084 562637.000000 1 0 0
-10.913784 -13.537668 -4.380350 17.932278 0.892299 1.817565 0.056999 -0.014422 -935386.000000 1 0 0
-9.796784 -10.530968 6.608850 15.828934 0.821500 1.140085 0.019301 -0.004712 -558127.000000 1 0 0
-15.613884 -8.173068 -4.889250 18.289264 0.482230 1.841416 0.038945 -0.011701 110577.000000 1 0 0
-14.620284 -7.303568 5.516950 17.249103 0.463288 1.245236 0.025291 -0.004436 974358.000000 1 0 0
-1.549284 -19.281268 0.013050 19.343416 1.490617 1.570122 0.024785 -0.017514 -304407.000000 1 0 0
-15.362284 -11.979168 -1.286550 19.523202 0.662288 1.636743 0.041713 -0.007599 -312046.000000 1 0 0
-4.452984 -12.125868 -6.853850 14.623303 1.218855 2.058608 0.009317 -0.010097 -895770.000000 1 0 0
-7.440584 -18.389868 1.956350 19.934313 1.186329 1.472498 0.024180 -0.006865 -206418.000000 1 0 0
-2.587284 -11.745468 -8.694250 14.840486 1.353980 2.196721 0.003822 -0.004620 1544910.000000 1 0 0
-1.302584 -20.506968 -5.008550 21.149894 1.507362 1.809880 0.017892 -0.002489 -74040.400000 1 0 0
-5.347584 -9.007068 -13.883150 17.391543 1.035015 2.495214 0.009670 -0.003261 558266.000000 1 0 0
-8.775884 -18.961568 -0.624450 20.903280 1.137329 1.600674 0.055001 -0.021012 -72209.600000 1 0 0
-17.242284 -7.368768 5.657750 19.585843 0.403873 1.277751 0.042694 -0.008203 47688.000000 1 0 0
-3.569784 -14.758568 -4.288450 15.778133 1.333476 1.846056 0.003199 -0.008022 -2527380.000000 1 0 0
-2.941384 -14.976368 -10.814050 18.705267 1.376863 2.187230 0.011029 -0.003426 95521.400000 1 0 0
-0.066984 -16.702868 6.196650 17.815408 1.566786 1.215546 0.033628 -0.016813 -920614.000000 1 0 0
-11.192284 -11.547168 3.851050 16.535867 0.801003 1.335747 0.017106 -0.005371 -477954.000000 1 0 0
-0.234584 -14.609768 -0.158350 14.612509 1.554741 1.581633 0.001023 -0.003218 708664.000000 1 0 0
-7.266584 -9.541068 -2.431150 12.237063 0.919905 1.770798 0.017091 -0.005493 72319.900000 1 0 0
-11.273984 -14.344668 -0.851950 18.264666 0.904690 1.617458 0.039753 -0.017223 188744.000000 1 0 0
0.363416 -14.647368 -10.486250 18.017738 -1.545990 2.191977 0.008496 -0.007560 21927.800000 1 0 0
-1.467184 -14.009268 -3.915250 14.619897 1.466447 1.841908 0.004841 -0.004916 -3222720.000000 1 0 0
-11.377184 -8.257768 -7.647550 16.003626 0.627844 2.069017 0.024800 -0.004769 592024.000000 1 0 0
-0.183984 -17.208668 -0.350250 17.213215 1.560105 1.591145 0.009901 -0.014573 -496982.000000 1 0 0
-12.943484 -9.486368 4.543550 16.678393 0.632471 1.294888 0.022964 -0.006451 302775.000000 1 0 0
4.036616 -16.739068 1.582050 17.291430 -1.334165 1.479175 0.027506 -0.017406 2283480.000000 1 0 0
-3.786984 -17.856768 -8.158150 19.994019 1.361817 1.991091 0.017349 -0.008027 -33427.200000 1 0 0
-13.372084 -11.272768 2.623450 17.685316 0.700421 1.421906 0.015983 -0.010347 509149.000000 1 0 0
-8.556384 -12.201768 4.109650 15.459110 0.959238 1.301721 0.008077 -0.003910 2370490.000000 1 0 0
-8.334584 -9.384368 -5.854850 13.849582 0.844575 2.007269 0.020753 -0.009018 70738.800000 1 0 0
3.766716 -17.446468 -5.251650 18.605032 -1.358159 1.856956 0.013182 -0.006293 -167969.000000 1 0 0
-2.654684 -13.175068 11.319750 17.571753 1.371966 0.870817 0.000387 -0.002281 698507.000000 1 0 0
-0.079384 -16.818268 -9.385750 19.260133 1.566076 2.079808 0.010894 -0.004164 -262268.000000 1 0 0
-7.038184 -10.778768 -14.536850 19.417463 0.992338 2.416817 0.018501 0.003382 648124.000000 1 0 0
-4.570584 -18.900068 -1.478950 19.501028 1.333523 1.646709 0.026349 -0.017048 -718409.000000 1 0 0
-2.496384 -17.200268 1.157950 17.419012 1.426666 1.504271 0.009757 -0.012696 1472220.000000 1 0 0
4.093316 -14.558068 -7.374450 16.824835 -1.296701 2.024511 0.016149 -0.014279 -1456250.000000 1 0 0
-1.053284 -15.836568 -6.043050 16.983072 1.504385 1.934596 0.003621 -0.003872 -21101.000000 1 0 0
-9.347784 -15.414868 8.262350 19.830927 1.025674 1.141051 0.010897 -0.006427 -543651.000000 1 0 0
-7.315184 -12.037968 -1.832250 14.204989 1.024752 1.700143 0.010527 -0.006411 965168.000000 1 0 0
-7.389684 -15.052468 -9.436950 19.241627 1.114432 2.083396 0.039647 -0.012032 995853.000000 1 0 0
-5.050084 -13.206968 -0.684750 14.156137 1.205571 1.619186 0.009660 -0.004360 2864250.000000 1 0 0
-6.496384 -13.710068 -7.301650 16.836955 1.128295 2.019356 0.019428 -0.015785 329864.000000 1 0 0
5.684216 -15.251568 0.305450 16.279248 -1.214046 1.552032 0.025211 -0.008049 -24732.700000 1 0 0
-14.626584 -12.758868 1.000950 19.435215 0.717303 1.519272 0.030513 -0.011559 923627.000000 1 0 0
0.762216 -15.384468 10.998550 18.926990 -1.521292 0.950712 0.016961 -0.008330 39238.200000 1 0 0
-9.283684 -10.797368 2.009750 14.380856 0.860635 1.430586 0.011205 -0.000945 540865.000000 1 0 0
-9.466884 -8.796068 -3.609850 13.417292 0.748684 1.843197 0.019565 -0.006404 74804.400000 1 0 0
-12.210384 -7.241868 -12.385350 18.839719 0.535324 2.288168 0.039477 -0.000770 267580.000000 1 0 0
-13.259384 -8.382868 -0.617250 15.699195 0.563775 1.610124 0.013268 -0.004599 46030.100000 1 0 0
-11.219184 -9.662068 0.582050 14.817706 0.710966 1.531505 0.007457 -0.001230 728621.000000 1 0 0
-15.865784 -12.027668 3.160850 20.158841 0.648658 1.413349 0.052175 -0.016758 -454058.000000 1 0 0
-10.574684 -12.352868 -2.237550 16.414137 0.862800 1.707541 0.036870 -0.016501 314853.000000 1 0 0
-3.367784 -8.797168 -12.023650 15.274170 1.205182 2.477033 0.005960 -0.002355 -1799930.000000 1 0 0
-0.301884 -15.551368 3.821350 16.016832 1.551387 1.329889 0.018477 -0.010171 -526409.000000 1 0 0
-15.731484 -7.674668 1.259650 17.548984 0.453884 1.498955 0.007444 -0.008609 441649.000000 1 0 0
-6.267584 -13.363968 -13.199050 19.801342 1.132262 2.300399 0.025823 -0.002164 690408.000000 1 0 0
-15.414284 -10.340268 1.143450 18.596472 0.590875 1.509270 0.018278 -0.009535 154708.000000 1 0 0
-9.998184 -8.384268 -12.558050 18.109783 0.697826 2.337049 0.029041 -0.001974 243329.000000 1 0 0
-13.530184 -11.739168 -6.245950 18.970657 0.714639 1.906298 0.055490 -0.008927 -25100.900000 1 0 0
-12.264784 -11.367868 -3.898950 17.171347 0.747464 1.799855 0.032549 -0.008894 -2976310.000000 1 0 0
-11.664784 -10.920368 -8.863750 18.272593 0.752450 2.077256 0.042552 -0.016083 -19076.200000 1 0 0
-13.210084 -8.601868 -5.808450 16.799897 0.577190 1.923827 0.022806 -0.009186 -962810.000000 1 0 0
-13.575484 -8.174168 -3.250450 16.176409 0.541982 1.773111 0.022279 -0.009176 569317.000000 1 0 0
-4.380784 -17.049768 -3.284050 17.907284 1.319296 1.755232 0.008643 -0.012095 245900.000000 1 0 0
-15.521084 -8.880868 -1.758350 17.968463 0.519713 1.668811 0.028703 -0.009947 -879362.000000 1 0 0
-9.324884 -15.528668 3.615250 18.470599 1.030013 1.373795 0.018533 -0.010711 -410367.000000 1 0 0
4.787416 -17.549068 7.892450 19.828765 -1.304475 1.161428 0.049339 -0.024111 113836.000000 1 0 0
-8.177784 -15.407868 5.911050 18.417900 1.082849 1.244074 -0.001382 -0.001041 -132353.000000 1 0 0
0.913616 -16.175868 8.426750 18.262079 -1.514376 1.091185 0.023564 -0.012617 248466.000000 1 0 0
-10.957584 -7.864368 -10.215450 16.919584 0.622513 2.219012 0.026238 -0.002295 1121090.000000 1 0 0
-4.885884 -16.043668 5.736350 17.725035 1.275183 1.241233 -0.005105 -0.003186 -770324.000000 1 0 0
-1.263984 -13.206768 -11.969250 17.868388 1.475380 2.304811 0.011723 -0.006791 -160938.000000 1 0 0
-6.481084 -14.368668 -2.577250 15.972015 1.147064 1.732865 0.015029 -0.010351 460816.000000 1 0 0
-17.766184 -6.785068 -7.094450 20.297922 0.364814 1.927851 0.057396 -0.021459 254088.000000 1 0 0
-17.340284 -4.399968 -10.008650 20.499225 0.248498 2.080874 0.061025 -0.021147 895818.000000 1 0 0
-15.315384 -5.379368 -8.727450 18.430056 0.337779 2.064107 0.032820 -0.020675 -756973.000000 1 0 0
-16.208884 -5.319368 -5.475450 17.916588 0.317102 1.881373 0.028141 -0.009308 -67717.400000 1 0 0
-15.221384 -4.269968 -12.209750 19.975013 0.273495 2.228437 0.054742 -0.017812 -715903.000000 1 0 0
-18.839284 -5.094068 -5.441950 20.260379 0.264081 1.842736 0.059804 -0.021038 260950.000000 1 0 0
-17.360984 -4.251268 -7.507850 19.386718 0.240149 1.968462 0.040685 -0.019459 149577.000000 1 0 0
12.172116 -7.824068 8.801450 16.936410 -0.571287 1.024324 0.041774 -0.014288 476961.000000 1 0 0
16.039116 -3.389568 1.758450 16.487406 -0.208267 1.463939 0.035989 -0.011547 557695.000000 1 0 0
12.018516 -2.001768 12.547750 17.489936 -0.165042 0.770695 0.045045 -0.003827 369960.000000 1 0 0
9.626116 -10.004368 5.271050 14.850369 -0.804664 1.207942 0.005031 -0.006120 406990.000000 1 0 0
16.974916 -2.011968 7.167050 18.535436 -0.117976 1.173781 0.070619 -0.013481 -646139.000000 1 0 0
5.081916 -12.780668 8.887750 16.375697 -1.192339 0.997100 0.007087 -0.007817 -163083.000000 1 0 0
14.909516 -9.157568 -1.982350 17.609214 -0.550802 1.683610 0.046747 -0.012839 -72333.700000 1 0 0
11.054516 -8.471968 6.553250 15.392260 -0.653903 1.131006 0.015185 -0.007423 -2477710.000000 1 0 0
20.049316 -3.196368 3.566950 20.613466 -0.158095 1.396881 0.107358 -0.027093 481157.000000 1 0 0
13.611516 -8.686768 6.894750 17.557645 -0.568030 1.167239 0.042335 -0.009865 -148028.000000 1 0 0
8.336516 -11.157368 8.861750 16.508028 -0.929105 1.004139 0.012432 -0.001671 -1667280.000000 1 0 0
16.831716 0.009332 -0.511150 16.839478 0.000554 1.601155 0.042542 -0.002057 -820632.000000 1 0 0
12.362616 -12.469568 2.408350 17.723559 -0.789705 1.434491 0.026031 -0.008939 -1418710.000000 1 0 0
10.343716 -11.631968 3.643850 15.986644 -0.843953 1.340844 0.015284 -0.008999 -328446.000000 1 0 0
16.296816 2.997532 2.327050 16.732799 0.181900 1.431273 0.026968 -0.002922 1496620.000000 1 0 0
18.282616 -3.331368 0.458650 18.589309 -0.180238 1.546121 0.074026 -0.019347 -377366.000000 1 0 0
13.341016 -11.697268 -0.151950 17.743502 -0.719843 1.579360 0.050358 -0.008740 -385626.000000 1 0 0
16.876016 -7.725968 -0.972650 18.585923 -0.429328 1.623153 0.068352 -0.018808 796783.000000 1 0 0
10.130716 -5.614068 9.761250 15.146986 -0.506034 0.870512 0.020993 -0.007043 575806.000000 1 0 0
11.361516 -13.338168 6.170550 18.575965 -0.865255 1.232183 0.033995 -0.008461 -98856.700000 1 0 0
13.191516 -1.779368 10.235150 16.791085 -0.134078 0.915293 0.044140 -0.007135 2252680.000000 1 0 0
15.565416 -2.131968 -1.300550 15.764482 -0.136121 1.653389 0.029232 -0.004868 -43071.900000 1 0 0
10.378416 -12.519768 9.312750 18.739889 -0.878643 1.050718 0.045354 -0.016007 -175372.000000 1 0 0
14.546816 1.282832 3.367050 14.986412 0.087959 1.344188 0.016376 -0.002639 885705.000000 1 0 0
14.869616 -5.944268 5.251150 16.852726 -0.380299 1.253930 0.039218 -0.013399 -658509.000000 1 0 0
14.335516 -3.286768 -3.030350 15.016420 -0.225379 1.773994 0.021488 -0.004890 927736.000000 1 0 0
14.062816 0.616132 9.602550 17.039700 0.043785 0.972132 0.041576 -0.001921 537438.000000 1 0 0
15.497716 -3.468668 4.391250 16.477073 -0.220189 1.301029 0.033648 -0.010848 -541394.000000 1 0 0
18.400616 4.914432 -4.478050 19.564949 0.260988 1.801725 0.036447 -0.002247 750454.000000 1 0 0
18.315616 -5.830268 -4.936450 19.844958 -0.308180 1.822187 0.114427 -0.021098 671269.000000 1 0 0
17.440716 -0.031268 5.767950 18.369780 -0.001793 1.251402 0.068353 -0.008895 834108.000000 1 0 0
17.027316 -6.806168 3.939750 18.755667 -0.380265 1.359164 0.063510 -0.018101 299878.000000 1 0 0
9.820416 -6.506968 14.333050 18.553100 -0.585179 0.687961 0.050068 -0.002895 -27217.300000 1 0 0
8.621016 -12.341368 5.327750 15.969227 -0.961047 1.230649 0.012379 -0.009588 -2364270.000000 1 0 0
16.868216 -10.285868 -0.591750 19.765777 -0.547578 1.600739 0.069337 -0.013365 650852.000000 1 0 0
14.971816 -8.920068 0.513750 17.435218 -0.537319 1.541326 0.049529 -0.013728 397274.000000 1 0 0
9.949216 -13.000168 1.386850 16.429078 -0.917566 1.486281 0.023045 -0.009766 50608.700000 1 0 0
16.901316 -8.336168 8.800050 20.798728 -0.458214 1.133927 0.088052 -0.020328 404792.000000 1 0 0
19.159816 -0.236068 -1.612850 19.229029 -0.012320 1.654771 0.082938 -0.013388 -351187.000000 1 0 0
13.361116 -1.163868 7.792150 15.511016 -0.086889 1.044468 0.021321 -0.008038 -284727.000000 1 0 0
12.812516 -9.888968 -3.023050 16.464844 -0.657321 1.755450 0.037826 -0.009862 -2464010.000000 1 0 0
8.792816 -15.228468 1.482750 17.647051 -1.047165 1.486675 0.033067 -0.010359 705538.000000 1 0 0
11.522916 -8.369368 11.201050 18.118704 -0.628175 0.904341 0.056603 -0.014629 246039.000000 1 0 0
13.853416 -4.096368 -0.610350 14.459249 -0.287501 1.613021 0.011853 -0.006966 -583520.000000 1 0 0
7.072616 -13.406768 10.553450 18.469939 -1.085360 0.962604 0.022406 -0.006864 219578.000000 1 0 0
15.426816 -6.738068 1.860250 16.936610 -0.411803 1.460738 0.035610 -0.014089 -743897.000000 1 0 0
15.849716 -6.282968 -2.584750 17.244423 -0.377407 1.721252 0.076344 -0.015334 -318183.000000 1 0 0
11.169916 -8.577268 3.868250 14.604791 -0.654853 1.302736 0.011968 -0.006768 715006.000000 1 0 0
10.572116 -14.577868 -0.514350 18.015227 -0.943346 1.599351 0.045027 -0.018049 635402.000000 1 0 0
13.422516 -12.992168 4.674150 19.256377 -0.769108 1.325615 0.030088 -0.004228 362091.000000 1 0 0
12.797016 -11.169068 6.499450 18.186659 -0.717575 1.205341 0.032239 -0.009957 435576.000000 1 0 0
10.989916 -10.652268 1.352150 15.364810 -0.769798 1.482679 0.017290 -0.008154 657846.000000 1 0 0
13.963416 -7.435168 11.764650 19.714606 -0.489289 0.931354 0.073778 -0.024825 598438.000000 1 0 0
15.366016 -1.833468 -4.992650 16.260461 -0.118758 1.882880 0.040526 -0.001657 25502.500000 1 0 0
13.022016 -11.478468 -6.944350 18.696313 -0.722481 1.951344 0.068812 -0.013265 1071880.000000 1 0 0
17.634716 -5.321868 1.963750 18.524627 -0.293092 1.464589 0.083545 -0.018853 330237.000000 1 0 0
10.592716 -9.884568 9.197750 17.161262 -0.750830 1.005152 0.028679 -0.005634 -856918.000000 1 0 0
16.441616 1.678432 9.902150 19.266459 0.101732 1.031004 0.084218 -0.009002 -437060.000000 1 0 0
18.113016 3.897732 0.444950 18.532988 0.211957 1.546785 0.033152 -0.000569 744144.000000 1 0 0
13.291116 -4.056168 5.841150 15.073994 -0.296201 1.172880 0.017867 -0.008361 -1182170.000000 1 0 0
12.166316 -6.243768 6.682650 15.220437 -0.474153 1.116247 0.017065 -0.007398 -214477.000000 1 0 0
16.516516 -10.254768 3.531250 19.759183 -0.555631 1.391117 0.046091 -0.015742 729096.000000 1 0 0
16.124316 -7.854168 -5.439850 18.742291 -0.453275 1.865279 0.081741 -0.021724 474892.000000 1 0 0
14.085316 -0.423968 5.346550 15.071877 -0.030091 1.208164 0.013972 -0.002955 1034380.000000 1 0 0
18.305616 -4.282968 5.018950 19.458398 -0.229836 1.309915 0.082960 -0.019637 213597.000000 1 0 0
13.645316 -13.626268 7.206950 20.586645 -0.784700 1.213141 0.062974 -0.008988 88425.800000 1 0 0
14.964516 -13.605668 -0.614650 20.234345 -0.737872 1.601178 0.061692 -0.005770 548166.000000 1 0 0
17.827516 -6.039868 8.030950 20.464518 -0.326658 1.167521 0.088478 -0.016148 -50860.400000 1 0 0
14.472916 3.339032 9.426650 17.591935 0.226742 1.005281 0.037504 -0.004316 -960211.000000 1 0 0
18.899916 3.703732 2.926950 19.480542 0.193513 1.419975 0.069453 -0.007633 421819.000000 1 0 0
14.855016 -10.663668 8.138050 20.015324 -0.622605 1.152077 0.057705 -0.017321 -38059.700000 1 0 0
14.857116 -4.747068 10.347650 18.717436 -0.309263 0.985034 0.074330 -0.021497 397142.000000 1 0 0
17.838116 -7.850368 1.757250 19.568204 -0.414582 1.480874 0.104319 -0.024901 -117693.000000 1 0 0
18.445816 -6.018868 -2.021650 19.507998 -0.315407 1.674615 0.091618 -0.020047 308724.000000 1 0 0
14.533616 -12.980068 -5.399150 20.220261 -0.728993 1.841092 0.085248 -0.017172 1050650.000000 1 0 0
15.552416 -1.468868 9.201550 18.130189 -0.094167 1.038485 0.087100 -0.014867 84677.700000 1 0 0
13.027916 -9.971868 10.090650 19.260996 -0.653299 1.019384 0.049214 -0.027089 -1278230.000000 1 0 0
16.661916 2.090332 4.759850 17.454086 0.124804 1.294591 0.045915 -0.005449 -1256370.000000 1 0 0
14.996816 2.377532 -0.041050 15.184164 0.157227 1.573500 0.016609 0.000924 -1338130.000000 1 0 0
15.066716 -9.711268 -6.992250 19.240743 -0.572535 1.942720 0.080441 -0.019353 1390660.000000 1 0 0
16.209316 -0.196368 -3.150750 16.513864 -0.012114 1.762767 0.037951 0.002998 195553.000000 1 0 0
11.997016 2.582532 13.604150 18.321320 0.212029 0.733955 0.054457 -0.006632 -266633.000000 1 0 0
17.607516 -2.961268 9.576550 20.260900 -0.166623 1.078488 0.085437 -0.017921 603747.000000 1 0 0
7.931816 -18.117168 4.452450 20.272390 -1.158129 1.349360 0.062330 -0.025223 -473823.000000 1 0 0
6.796516 -11.329668 6.779050 14.849563 -1.030460 1.096722 0.006347 -0.007309 367740.000000 1 0 0
17.931516 2.114932 -1.461850 18.114889 0.117403 1.651583 0.038880 0.000737 372723.000000 1 0 0
17.555916 -2.251968 3.587350 18.059641 -0.127577 1.370827 0.041235 -0.010857 -1427210.000000 1 0 0
12.578616 -13.522068 -1.809950 18.556503 -0.821529 1.668489 0.055215 -0.008239 398632.000000 1 0 0
14.972816 -8.299968 4.435550 17.684705 -0.506166 1.317277 0.037732 -0.013390 444043.000000 1 0 0
11.449316 -3.250868 14.749950 18.952995 -0.276654 0.678940 0.067197 -0.014071 24071.500000 1 0 0
12.216916 -13.854768 -6.350150 19.532845 -0.848137 1.901915 0.056173 -0.019410 104376.000000 1 0 0
10.559216 -12.065068 -1.218050 16.079383 -0.851859 1.646621 0.031618 -0.011232 -909530.000000 1 0 0
13.221416 -8.025568 2.236150 15.627410 -0.545560 1.427212 0.025440 -0.007697 -433090.000000 1 0 0
8.820516 -7.809868 10.072150 15.499798 -0.724702 0.863443 0.017701 -0.003691 -1629990.000000 1 0 0
15.614416 -3.856968 8.091850 18.004561 -0.242166 1.104665 0.075003 -0.021683 -1024240.000000 1 0 0
10.340616 -17.268368 5.088450 20.760954 -1.031246 1.323176 0.060821 -0.021122 88497.100000 1 0 0
15.258716 -6.410568 8.205850 18.473218 -0.397734 1.110512 0.067344 -0.016091 -926199.000000 1 0 0
16.532316 -5.076868 -0.400850 17.298923 -0.297946 1.593970 0.051254 -0.013860 -406576.000000 1 0 0
13.944916 -10.604968 3.567650 17.878875 -0.650181 1.369902 0.037763 -0.011565 -737991.000000 1 0 0
15.047916 -10.034668 -4.404550 18.615434 -0.588128 1.809669 0.082089 -0.021570 351362.000000 1 0 0
13.631516 -6.621568 -0.029750 15.154678 -0.452186 1.572759 0.023641 -0.007949 274477.000000 1 0 0
17.828516 -1.000968 -4.812350 18.493692 -0.056085 1.834042 0.080686 -0.008123 -361705.000000 1 0 0
14.433816 0.201932 -1.485050 14.511416 0.013989 1.673312 0.015791 0.003803 236662.000000 1 0 0
4.708616 -13.048968 11.536750 18.042817 -1.224496 0.877066 0.002198 -0.001102 -585879.000000 1 0 0
12.151116 -7.458068 13.591550 19.697783 -0.550488 0.809302 0.068232 -0.012815 1923.210000 1 0 0
11.972316 -5.768168 11.612950 17.648477 -0.448976 0.852618 0.042816 -0.010212 925919.000000 1 0 0
13.240816 -4.725468 8.389850 16.371892 -0.342797 1.032756 0.040076 -0.014294 -1322720.000000 1 0 0
15.325016 -1.173368 3.081650 15.675761 -0.076416 1.372921 0.027716 -0.002098 -163784.000000 1 0 0
15.229416 -10.511968 5.741050 19.375145 -0.604146 1.269969 0.055141 -0.011196 382542.000000 1 0 0
13.613116 -8.159368 -5.582250 16.824200 -0.539960 1.909006 0.065680 -0.017605 -3409160.000000 1 0 0
9.584316 -2.048868 13.471450 16.659440 -0.210603 0.628964 0.019608 -0.007137 -821999.000000 1 0 0
10.085716 -9.049368 13.854850 19.379618 -0.731291 0.774289 0.066833 -0.005664 -296181.000000 1 0 0
20.361116 6.138332 -3.119150 21.493796 0.292808 1.716429 0.092014 -0.012687 370477.000000 1 0 0
11.145516 -3.508068 10.592350 15.771080 -0.304935 0.834388 0.021331 -0.004402 845022.000000 1 0 0
10.304016 -14.064768 -2.973650 17.687087 -0.938517 1.739724 0.043185 -0.009752 197903.000000 1 0 0
14.882516 -12.813568 2.613250 19.811761 -0.710835 1.438507 0.045205 -0.007585 -136203.000000 1 0 0
11.392816 -0.552168 14.636350 18.555967 -0.048428 0.661994 0.056965 -0.003284 160280.000000 1 0 0
19.111316 -2.010168 5.762250 20.062071 -0.104797 1.279472 0.098260 -0.019087 1047730.000000 1 0 0
19.040516 -0.454068 7.845350 20.598470 -0.023843 1.180059 0.107418 -0.017740 553125.000000 1 0 0
19.061016 1.017432 0.587850 19.097201 0.053327 1.540009 0.072994 -0.011852 212136.000000 1 0 0
18.326316 0.748132 3.352350 18.645423 0.040800 1.390018 0.048339 -0.008887 -59557.400000 1 0 0
16.659816 -3.946968 -4.092350 17.603277 -0.232626 1.805420 0.074767 -0.011127 59171.600000 1 0 0
11.175716 -8.104068 15.960850 21.102637 -0.627406 0.713090 0.094502 -0.011892 326718.000000 1 0 0
16.738116 -7.508868 6.292550 19.394427 -0.421696 1.240365 0.074405 -0.017970 998686.000000 1 0 0
19.119516 1.942432 5.545050 20.001913 0.101247 1.289891 0.082402 -0.011615 -244258.000000 1 0 0
15.315016 1.722632 7.615750 17.190603 0.112009 1.111834 0.046554 -0.007154 211659.000000 1 0 0
8.682616 -15.638368 3.914250 18.310317 -1.063960 1.355361 0.031869 -0.020070 161873.000000 1 0 0
11.399316 -15.191868 1.831350 19.081171 -0.927067 1.474672 0.048976 -0.011126 30976.900000 1 0 0
8.290516 -16.260568 6.279450 19.302078 -1.099297 1.239441 0.045747 -0.017650 -209569.000000 1 0 0
14.609616 -11.774268 -2.431250 18.920498 -0.678344 1.699651 0.065367 -0.012393 527840.000000 1 0 0
13.661516 -4.865468 3.313650 14.875822 -0.342138 1.346158 0.015593 -0.005485 -108824.000000 1 0 0
-1.085984 10.225432 -5.638950 11.727599 -1.464989 2.072394 -0.001021 0.002394 -1740820.000000 1 0 0
8.239616 -1.890868 -8.028150 11.658381 -0.225579 2.330375 0.000177 -0.003891 -920152.000000 1 0 0
2.964616 -10.215768 7.639950 13.096553 -1.288354 0.947942 -0.000678 -0.002875 416537.000000 1 0 0
-6.213484 1.306032 8.347050 10.487438 -0.207177 0.650288 -0.002133 -0.000211 -61974.300000 1 0 0
7.126816 -6.289868 -7.121050 11.877007 -0.723098 2.213755 0.002894 -0.006143 -171276.000000 1 0 0
-11.372284 -4.522168 -4.096250 12.905739 0.378477 1.893780 0.011750 -0.002490 188413.000000 1 0 0
2.205316 -3.075068 2.955750 4.801658 -0.948646 0.907689 0.001669 -0.000561 1623280.000000 1 0 0
-3.702484 -4.170568 8.921150 10.520882 0.844782 0.558696 0.002883 -0.001755 -1178150.000000 1 0 0
-4.828284 -1.009868 -2.402950 5.486923 0.206184 2.024104 0.004924 -0.004642 -318496.000000 1 0 0
4.897716 -5.166368 -3.631950 7.991873 -0.812086 2.042557 0.003932 -0.003471 389526.000000 1 0 0
2.718316 14.171432 -8.809850 16.906572 1.381282 2.118924 0.017779 -0.010622 -73585.700000 1 0 0
5.439616 -5.509268 13.750050 15.779903 -0.791760 0.512819 0.014342 -0.007806 -1229110.000000 1 0 0
-4.720784 -0.826668 9.968850 11.061065 0.173355 0.448137 0.007982 -0.001607 -2610160.000000 1 0 0
-0.933984 12.006932 -2.716450 12.345762 -1.493166 1.792643 -0.002272 -0.000230 -804483.000000 1 0 0
3.111416 9.274732 -10.615750 14.435917 1.247122 2.397010 0.004659 -0.005067 -293414.000000 1 0 0
-10.604984 2.696432 1.153550 11.003050 -0.248985 1.465764 -0.000545 -0.002159 235947.000000 1 0 0
5.675816 -8.938368 -0.602050 10.605271 -1.005042 1.627596 -0.001445 -0.002598 750456.000000 1 0 0
-6.941984 5.502432 9.294850 12.839866 -0.670232 0.761350 -0.004089 -0.002352 -177697.000000 1 0 0
-5.546184 -1.767668 5.138650 7.764698 0.308539 0.847584 0.003817 -0.001388 543604.000000 1 0 0
6.524916 -3.837068 -7.338250 10.542653 -0.531597 2.340682 0.002279 -0.003860 368618.000000 1 0 0
6.369916 4.806332 11.105450 13.675076 0.646398 0.623064 0.003635 -0.000194 525330.000000 1 0 0
3.813416 -9.855968 3.520150 11.138838 -1.201621 1.249260 -0.002279 -0.001095 570677.000000 1 0 0
-6.585984 6.550032 -5.783150 10.941797 -0.782661 2.127673 0.003137 -0.002544 624110.000000 1 0 0
-11.050384 8.399332 5.248850 14.839481 -0.649930 1.209263 0.001222 -0.009278 129858.000000 1 0 0
-9.225684 -5.464968 5.128250 11.886045 0.534786 1.124695 0.006763 -0.001742 -629273.000000 1 0 0
3.363516 9.723232 -8.055450 13.066934 1.237756 2.235055 0.003216 -0.003246 655532.000000 1 0 0
-8.148884 -8.599768 6.100250 13.325666 0.812312 1.095297 0.004921 -0.000984 -882990.000000 1 0 0
-7.885884 -5.896868 -7.416250 12.327245 0.642076 2.216317 0.015504 -0.003017 -1092950.000000 1 0 0
9.280416 -1.538968 6.982350 11.715279 -0.164334 0.932281 0.001959 -0.003577 1037610.000000 1 0 0
-3.967984 -0.415468 -4.804050 6.244710 0.104325 2.448540 0.007051 -0.008196 -14198.500000 1 0 0
9.052716 1.151332 -4.509650 10.179105 0.126502 2.029772 0.001865 0.002545 -3365940.000000 1 0 0
-2.084884 -10.673668 10.609350 15.193164 1.377895 0.797780 0.000742 -0.004522 187877.000000 1 0 0
-12.927684 0.307532 -2.639650 13.198005 -0.023784 1.772158 0.010806 -0.003899 -653479.000000 1 0 0
-9.807284 -5.263268 -6.024750 12.656319 0.492551 2.066928 0.015637 -0.003200 -2009100.000000 1 0 0
-5.804384 8.374332 -0.283650 10.193173 -0.964705 1.598627 -0.002957 0.001159 746371.000000 1 0 0
6.219616 9.589032 0.179350 11.430894 0.995393 1.555106 0.008264 -0.003067 606916.000000 1 0 0
-0.534384 -12.035268 -0.046350 12.047215 1.526424 1.574644 0.004607 -0.000387 -722774.000000 1 0 0
6.117716 4.792132 2.295750 8.103175 0.664487 1.283547 0.000778 -0.000013 762336.000000 1 0 0
3.549916 -7.534568 -8.212850 11.697116 -1.130493 2.349175 -0.001241 -0.003515 1096610.000000 1 0 0
-6.579984 -9.804668 4.561850 12.658522 0.979726 1.202123 0.005149 0.000214 -2448140.000000 1 0 0
0.027616 6.419032 -9.242950 11.253304 1.566494 2.534577 0.006306 -0.003662 -560525.000000 1 0 0
-17.367384 -2.755668 4.178350 18.074245 0.157357 1.337509 0.042308 -0.003247 203466.000000 1 0 0
-8.276084 0.852932 -9.258650 12.447636 -0.102697 2.409546 0.004515 -0.001967 533819.000000 1 0 0
-9.981284 -5.863668 -11.846350 16.563352 0.531153 2.367727 0.014792 0.000067 -725985.000000 1 0 0
2.070916 9.482332 6.401050 11.626554 1.355775 0.987768 -0.005391 0.008489 -108109.000000 1 0 0
-11.418784 1.671232 -1.136750 11.596286 -0.145326 1.668981 0.003310 -0.003188 -1622960.000000 1 0 0
-6.001184 -5.305468 -3.087550 8.584588 0.723944 1.938702 0.015869 -0.004526 557968.000000 1 0 0
-6.965384 -8.353368 1.301950 10.954013 0.875758 1.451659 0.013194 -0.002468 -534887.000000 1 0 0
0.023116 11.100232 -7.923250 13.637946 1.568714 2.190717 0.004985 0.002146 891953.000000 1 0 0
-2.946984 9.465832 -4.286750 10.801061 -1.268979 1.978914 0.002340 0.001075 -315285.000000 1 0 0
3.476216 -4.728768 9.377050 11.062296 -0.936886 0.559240 0.001359 0.000095 -935078.000000 1 0 0
-8.986984 1.572032 -0.472550 9.135670 -0.173171 1.622545 -0.000063 -0.002338 -1347690.000000 1 0 0
2.494516 3.560732 -10.373950 11.248122 0.959693 2.744742 0.002463 -0.006278 -596083.000000 1 0 0
-13.656384 0.488032 1.152650 13.713628 -0.035721 1.486646 0.010995 -0.005308 -471804.000000 1 0 0
9.547116 -12.633268 -5.114850 16.640570 -0.923649 1.883227 0.037201 -0.012326 -1720010.000000 1 0 0
-4.659184 9.354532 -8.436150 13.430707 -1.108696 2.249936 0.000178 0.000618 -1077290.000000 1 0 0
-2.319584 7.167032 8.402250 11.284708 -1.257789 0.730906 -0.003866 0.001076 -1357210.000000 1 0 0
-10.708284 -1.271768 -4.460250 11.669557 0.118211 1.962986 0.007309 -0.002167 -3898780.000000 1 0 0
2.766416 -7.149168 9.686750 12.353007 -1.201585 0.669453 -0.003081 0.000848 -810304.000000 1 0 0
-16.120184 -6.421068 3.413850 17.684593 0.379061 1.376536 0.019706 -0.006553 -201633.000000 1 0 0
-10.744584 0.031032 6.147250 12.378842 -0.002888 1.051127 0.004726 -0.001184 -2229150.000000 1 0 0
-8.326584 9.839532 9.368350 15.934691 -0.868490 0.942309 -0.000029 -0.010487 -1518050.000000 1 0 0
0.227516 -5.957868 -3.672350 7.002435 -1.532627 2.122852 -0.005307 -0.001339 296546.000000 1 0 0
4.882016 1.447832 -2.984250 5.902207 0.288302 2.100892 -0.001378 -0.001366 426458.000000 1 0 0
0.329016 5.361332 3.807050 6.583750 1.509505 0.954215 -0.002767 0.003142 -161762.000000 1 0 0
5.970116 -11.233968 -1.418750 12.800671 -1.082319 1.681859 0.001004 -0.005139 -2801580.000000 1 0 0
6.347716 -13.537868 5.257050 15.849415 -1.132348 1.232705 0.009443 -0.010164 -312608.000000 1 0 0
8.112116 -8.251268 -5.926050 13.000304 -0.793902 2.044111 0.005630 -0.008407 761598.000000 1 0 0
-13.124984 -1.435068 -4.573550 13.972902 0.108906 1.904258 0.009649 0.000338 -2323220.000000 1 0 0
-6.599084 -1.792068 -7.101250 9.858355 0.265168 2.375071 0.016361 -0.004655 -285527.000000 1 0 0
-5.672384 12.787632 -4.752050 14.774351 -1.153291 1.898259 0.002974 0.002251 282633.000000 1 0 0
-4.280684 6.956632 -6.733050 10.585506 -1.019175 2.260182 0.005823 -0.002528 -3074500.000000 1 0 0
-9.310184 -3.813368 -8.093250 12.912087 0.388747 2.248231 0.014958 -0.002060 614166.000000 1 0 0
-2.279684 -6.394768 9.171650 11.410924 1.228350 0.637207 0.001800 -0.001637 -374191.000000 1 0 0
7.441516 -6.049168 10.080850 13.913739 -0.682554 0.760451 0.006272 -0.001069 341165.000000 1 0 0
9.566616 -4.989868 12.210950 16.294976 -0.480771 0.723688 0.022967 -0.003495 -579028.000000 1 0 0
-6.468684 2.783232 -9.010750 11.436077 -0.406320 2.478225 0.003671 -0.003786 381573.000000 1 0 0
7.465716 5.460732 8.957150 12.875832 0.631517 0.801464 0.001259 0.002256 -1250960.000000 1 0 0
12.798916 3.340432 11.194550 17.328840 0.255298 0.868455 0.038659 -0.002089 -122115.000000 1 0 0
-7.415484 -7.330668 -3.844550 11.113445 0.779646 1.924033 0.019440 -0.009612 -539936.000000 1 0 0
2.318716 1.434932 -5.842350 6.447366 0.554163 2.704913 0.000564 -0.005545 264673.000000 1 0 0
12.871416 6.919032 -7.121150 16.255988 0.493235 2.024239 0.017134 -0.002019 570985.000000 1 0 0
0.802316 -7.738268 1.062550 7.851975 -1.467484 1.435057 0.000306 0.000846 248458.000000 1 0 0
-10.241184 -6.194068 -8.531450 14.698094 0.543956 2.190073 0.017237 -0.000349 -314197.000000 1 0 0
-6.743184 0.311932 3.143850 7.446585 -0.046226 1.134940 0.003184 -0.002565 -38092.200000 1 0 0
10.841216 -8.068868 1.245250 13.571634 -0.639828 1.478913 0.003027 -0.002760 -107810.000000 1 0 0
6.365916 1.195932 10.645250 12.460999 0.185700 0.546622 0.002296 -0.000038 68506.600000 1 0 0
-12.883184 5.372632 1.866950 14.082866 -0.395098 1.437836 0.004247 -0.003089 -5516.890000 1 0 0
2.050516 7.372432 3.522450 8.424075 1.299520 1.139399 -0.006788 0.003438 -80156.300000 1 0 0
10.175016 -9.522668 -0.785150 13.958102 -0.752292 1.627076 0.004473 -0.005777 733216.000000 1 0 0
6.753416 -11.762968 -9.020550 16.289455 -1.049620 2.157677 0.007623 -0.012245 -512873.000000 1 0 0
10.387716 3.650132 11.904050 16.215256 0.337912 0.746417 0.007501 0.000699 -1154230.000000 1 0 0
-11.091684 -3.132568 -1.851750 11.673363 0.275256 1.730100 0.006439 -0.000693 311120.000000 1 0 0
12.400316 1.027832 6.752750 14.157115 0.082699 1.073574 0.006896 -0.001456 147372.000000 1 0 0
-9.565584 9.101632 2.995650 13.539351 -0.760549 1.347695 -0.002062 -0.006499 765163.000000 1 0 0
-6.616184 7.608332 -8.867250 13.427164 -0.855035 2.292143 -0.000812 -0.000556 412658.000000 1 0 0
8.601516 5.606632 12.199750 15.945354 0.577653 0.699604 0.012014 0.001714 -1602610.000000 1 0 0
1.316016 4.922132 -2.738250 5.784228 1.309540 2.063942 -0.000442 -0.004460 410925.000000 1 0 0
1.298816 0.591032 9.660050 9.764877 0.427049 0.146658 0.005993 -0.002619 974477.000000 1 0 0
2.504016 12.515232 -4.005450 13.377024 1.373326 1.874889 0.005068 -0.003788 472701.000000 1 0 0
2.234316 0.661032 13.001050 13.208196 0.287649 0.177337 0.004625 -0.009134 -403286.000000 1 0 0
-12.228884 -1.774168 0.915850 12.390805 0.144075 1.496815 0.004971 -0.003675 -124476.000000 1 0 0
3.394916 8.719932 -1.284650 9.445263 1.199523 1.707229 0.002249 -0.001549 -174290.000000 1 0 0
3.710416 -2.914368 -5.763450 7.448361 -0.665809 2.455595 -0.003356 -0.002724 -931293.000000 1 0 0
-7.799084 -7.124768 9.312350 14.082184 0.740245 0.848265 0.004779 -0.002785 69087.200000 1 0 0
-7.073484 10.900732 -3.553450 13.471716 -0.995195 1.837726 0.010430 0.002566 627869.000000 1 0 0
0.342816 0.561432 2.550850 2.634306 1.022612 0.252384 -0.000369 0.001931 -3005580.000000 1 0 0
-7.165684 4.508232 -2.018650 8.703225 -0.561572 1.804871 0.007496 -0.003760 -685255.000000 1 0 0
-6.934084 -4.055668 -5.763050 9.886491 0.529234 2.193116 0.009708 -0.004133 38883.600000 1 0 0
2.874016 -6.038068 13.504050 15.069095 -1.126546 0.459798 0.002429 -0.006460 209616.000000 1 0 0
-5.341884 -0.565168 -11.918150 13.072774 0.105407 2.718144 0.009183 -0.006836 -765183.000000 1 0 0
11.857416 2.466732 -0.698550 12.131408 0.205107 1.628410 0.000484 -0.000423 -2306670.000000 1 0 0
5.950016 -11.032768 10.762850 16.521610 -1.076202 0.861314 0.006245 -0.002379 428869.000000 1 0 0
-8.148584 6.311632 -10.497350 14.711576 -0.659040 2.365339 -0.000334 -0.000871 141837.000000 1 0 0
2.822416 7.873432 11.164150 13.949739 1.226593 0.642980 0.003391 0.004838 1032810.000000 1 0 0
-6.188084 -10.171768 -0.443750 11.914452 1.024253 1.608050 0.014383 -0.001730 -92071.600000 1 0 0
11.372216 4.283232 6.009650 13.556890 0.360208 1.111529 0.004166 -0.001583 31711.900000 1 0 0
-7.888784 10.655232 1.346150 13.325877 -0.933489 1.469606 -0.001273 -0.002161 430809.000000 1 0 0
4.357916 -2.571168 -3.495050 6.149610 -0.533034 2.175279 0.001424 -0.002890 -5037640.000000 1 0 0
6.440616 6.427332 6.274450 11.052641 0.784366 0.967102 0.002185 0.003408 -5587930.000000 1 0 0
-0.407584 10.314532 -10.278150 14.566951 -1.531301 2.354038 0.005699 -0.001011 -444349.000000 1 0 0
14.133816 6.549032 -2.507250 15.777860 0.433908 1.730382 0.018803 0.003384 559013.000000 1 0 0
1.463616 9.522932 -6.416050 11.575582 1.418296 2.158287 0.002180 -0.001354 308694.000000 1 0 0
0.669216 7.321732 7.226050 10.308803 1.479648 0.794055 -0.004370 0.006225 -6536.530000 1 0 0
12.353716 6.188732 1.928050 13.951060 0.464416 1.432152 0.011049 -0.002766 -1105160.000000 1 0 0
-6.808184 6.678732 -3.146550 10.042789 -0.775800 1.889477 0.004141 -0.002374 365754.000000 1 0 0
1.005316 9.863332 11.160550 14.928291 1.469223 0.726339 0.001762 0.007171 -1965130.000000 1 0 0
-3.609384 13.653932 -11.086450 17.954578 -1.312360 2.236321 0.008914 -0.000997 -236897.000000 1 0 0
-10.028484 -5.455868 -2.184750 11.623688 0.498254 1.759878 0.011039 -0.002582 -686830.000000 1 0 0
-4.042884 3.870032 -12.533550 13.726322 -0.763557 2.721628 0.005144 -0.009113 -543066.000000 1 0 0
-3.149984 8.435532 2.395650 9.317711 -1.213413 1.310769 -0.002648 0.000752 -2902920.000000 1 0 0
7.025716 8.924832 7.089050 13.389098 0.903903 1.012827 0.003438 0.007117 694131.000000 1 0 0
-1.407784 -2.182568 -8.176550 8.579127 0.997935 2.834032 0.002196 -0.006629 -1603930.000000 1 0 0
0.893016 -1.241868 4.975350 5.205173 -0.947372 0.298267 0.004424 -0.000314 -793083.000000 1 0 0
2.731616 -8.859568 -6.068750 11.080767 -1.271721 2.150389 -0.005340 -0.003050 232059.000000 1 0 0
5.397316 3.991432 8.753550 11.031192 0.636761 0.654213 0.001228 0.001148 113816.000000 1 0 0
6.032216 -7.481768 -2.756350 9.998097 -0.892253 1.850101 0.001058 -0.005320 740161.000000 1 0 0
1.806616 2.248432 -8.301850 8.788630 0.893925 2.807208 0.002778 -0.006850 298679.000000 1 0 0
-5.337084 10.921932 -0.786850 12.181634 -1.116264 1.635434 -0.005487 0.001921 252169.000000 1 0 0
-5.521684 3.341232 -3.446750 7.316619 -0.544169 2.061317 0.004576 -0.002113 -748150.000000 1 0 0
1.962616 13.714432 -6.346050 15.238434 1.428656 2.000334 0.002865 -0.000846 414982.000000 1 0 0
-5.289584 -2.543368 2.652550 6.440842 0.448191 1.146332 0.001946 -0.001071 790887.000000 1 0 0
10.553516 -3.391968 -1.885850 11.244491 -0.310978 1.739306 0.002274 -0.000066 -153013.000000 1 0 0
2.374416 -3.248068 7.156250 8.209733 -0.939551 0.512179 0.001774 -0.000056 -1797610.000000 1 0 0
-2.869384 9.835732 -11.730550 15.575005 -1.286943 2.423657 0.006235 -0.000393 -2757670.000000 1 0 0
0.495416 -1.975068 9.458650 9.675350 -1.325032 0.212043 0.006657 -0.002665 727054.000000 1 0 0
9.465016 2.688932 5.020250 11.046257 0.276799 1.099013 0.000237 -0.001363 122235.000000 1 0 0
13.494516 2.056332 -5.102250 14.572694 0.151220 1.928500 0.017578 0.002190 -1996730.000000 1 0 0
-6.468684 3.769632 7.600950 10.669042 -0.527640 0.777841 -0.002429 -0.002343 -253682.000000 1 0 0
10.568816 0.082132 1.974350 10.751962 0.007771 1.386121 0.000551 0.001597 1282450.000000 1 0 0
15.373416 6.488932 -4.764450 17.353620 0.399401 1.848919 0.034076 0.003179 349712.000000 1 0 0
8.076316 -5.096868 -9.189750 13.253544 -0.562965 2.336966 0.005680 -0.004252 2372720.000000 1 0 0
4.520916 5.632132 -2.233250 7.559563 0.894411 1.870692 0.000483 -0.002628 -78993.500000 1 0 0
-1.652384 -10.418668 1.459250 10.649339 1.413508 1.433337 0.005362 0.000354 -1145270.000000 1 0 0
-2.968784 12.149432 -13.032750 18.063082 -1.331137 2.376781 0.008822 -0.003978 -1304530.000000 1 0 0
8.383216 4.253532 -9.635050 13.461242 0.469539 2.368511 -0.004065 -0.003187 -1896950.000000 1 0 0
4.101316 7.474032 -9.021950 12.412797 1.068919 2.384486 0.004522 -0.006702 -1249160.000000 1 0 0
-1.672884 -4.999868 -2.412850 5.798195 1.247919 1.999990 0.001253 -0.002768 -1300570.000000 1 0 0
-3.297784 -9.092468 7.060350 11.974844 1.222858 0.940235 0.002725 0.000638 -1303870.000000 1 0 0
1.111416 7.365432 -1.559050 7.610222 1.421030 1.777120 -0.000739 -0.002888 874389.000000 1 0 0
0.313616 -0.879668 -2.273550 2.457885 -1.228328 2.751838 0.004256 -0.000613 -1777180.000000 1 0 0
4.095316 -6.491068 7.421850 10.676584 -1.007954 0.802165 -0.000544 0.001090 -1028520.000000 1 0 0
-13.909384 3.980432 6.057050 15.684472 -0.278720 1.174308 0.005501 -0.003243 -1113780.000000 1 0 0
4.320916 6.489532 12.601650 14.818432 0.983374 0.554044 0.009899 -0.001081 -1722050.000000 1 0 0
8.323716 10.076332 -7.324250 14.982034 0.880362 2.081589 0.019098 -0.003736 74820.900000 1 0 0
12.546216 5.312532 9.624650 16.681260 0.400546 0.955778 0.017392 -0.003373 1523920.000000 1 0 0
7.497616 4.065732 0.354150 8.536384 0.496889 1.529297 0.003095 0.000949 -1646980.000000 1 0 0
-10.908884 -7.582268 -1.060050 13.327349 0.607399 1.650420 0.011950 -0.002890 -1913030.000000 1 0 0
10.467016 6.843432 0.235150 12.507849 0.579048 1.551995 0.005898 -0.001492 -347170.000000 1 0 0
14.672816 3.551432 4.399450 15.724483 0.237475 1.287228 0.019192 -0.004983 798492.000000 1 0 0
2.168216 5.642832 8.189450 10.178891 1.203947 0.635875 -0.003611 0.003001 -182367.000000 1 0 0
4.343616 0.194932 11.775150 12.552258 0.044848 0.353721 0.007050 -0.003803 -1455730.000000 1 0 0
-1.533584 -1.390568 -0.448350 2.118154 0.736528 1.784080 0.005497 -0.006293 -1551400.000000 1 0 0
3.018816 -5.349868 -9.444850 11.266744 -1.057057 2.564944 -0.003468 -0.001708 318325.000000 1 0 0
-3.938384 -5.271068 -1.343350 6.715624 0.929109 1.772188 0.007879 -0.004559 495862.000000 1 0 0
-1.320084 -8.707368 8.644750 12.340688 1.420337 0.794687 0.001998 -0.000661 -398308.000000 1 0 0
3.950416 8.499932 -5.998550 11.128218 1.135737 2.140093 0.004094 -0.003328 435091.000000 1 0 0
-14.306084 -1.770768 -2.660050 14.658633 0.123151 1.753274 0.012352 -0.006035 -1037700.000000 1 0 0
8.874316 -10.525168 -6.649850 15.288988 -0.870291 2.020772 0.008982 -0.011417 215587.000000 1 0 0
14.886016 6.149432 1.653350 16.190817 0.391749 1.468501 0.011699 -0.004404 -1911310.000000 1 0 0
-5.822084 0.362032 -8.237950 10.094134 -0.062103 2.525448 0.008845 -0.006246 -1001790.000000 1 0 0
-8.006284 -4.584868 -12.924550 15.879722 0.520073 2.521634 0.007066 -0.002282 552335.000000 1 0 0
0.798716 -10.655068 12.015350 16.079088 -1.495975 0.726859 -0.002121 -0.000803 -345802.000000 1 0 0
0.269416 11.681432 3.277150 12.135409 1.547737 1.297353 -0.003091 0.003613 439959.000000 1 0 0
5.155016 -13.225968 -3.779550 14.689636 -1.199144 1.831017 0.008293 -0.006735 257186.000000 1 0 0
-7.680784 1.524932 -7.027250 10.521506 -0.195990 2.302172 0.001852 -0.002292 1037900.000000 1 0 0
1.463916 2.758532 4.048750 5.113211 1.082902 0.657011 -0.002287 0.002277 -877584.000000 1 0 0
17.337716 5.447032 2.283550 18.316145 0.304408 1.445797 0.036511 -0.007975 -947201.000000 1 0 0
2.411316 -8.153368 -3.531150 9.206567 -1.283248 1.964430 -0.004873 -0.000632 271579.000000 1 0 0
-0.283884 -9.407568 -0.657850 9.434812 1.540629 1.640579 0.004377 0.000800 -1487730.000000 1 0 0
0.774716 11.780832 -5.599450 13.066829 1.505130 2.013655 0.001755 0.000685 -588353.000000 1 0 0
6.115416 -4.966568 7.873450 11.138058 -0.682099 0.785696 -0.001096 0.000965 -871710.000000 1 0 0
-5.922784 -1.700068 -9.482150 11.308438 0.279524 2.565325 0.012880 -0.006167 -385289.000000 1 0 0
2.222716 -1.202868 11.243550 11.524096 -0.496039 0.221105 0.001285 -0.004798 -211273.000000 1 0 0
18.047716 2.187332 -5.720750 19.058632 0.120609 1.875663 0.065232 -0.004134 -342729.000000 1 0 0
-8.866284 4.764332 7.792250 12.729062 -0.493082 0.912004 -0.004451 -0.008233 -1654010.000000 1 0 0
11.369316 -7.252368 -4.774250 14.305651 -0.567815 1.911056 0.021826 -0.011481 361434.000000 1 0 0
10.966416 0.653532 8.997350 14.200060 0.059524 0.884581 0.001370 -0.001762 -153375.000000 1 0 0
-8.480284 -7.434168 -1.501050 11.376960 0.719759 1.703120 0.015875 -0.005419 -461374.000000 1 0 0
10.337216 -10.554368 -3.186150 15.113049 -0.795792 1.783211 0.021322 -0.011502 636633.000000 1 0 0
7.723016 -13.814668 -3.681950 16.249516 -1.061036 1.799370 0.029287 -0.014780 136514.000000 1 0 0
1.777516 -1.182468 -11.643650 11.837752 -0.587011 2.960254 0.003237 -0.008300 396628.000000 1 0 0
-11.838784 -2.599668 -6.386550 13.700478 0.216158 2.055736 0.013119 -0.001939 243853.000000 1 0 0
2.636616 -12.102868 -6.423350 13.953156 -1.356297 2.049187 -0.001655 -0.004640 42527.000000 1 0 0
-5.551384 1.427932 1.113850 5.839308 -0.251763 1.378870 0.002493 -0.002663 368161.000000 1 0 0
0.137716 6.847332 -4.064150 7.963808 1.550687 2.106362 0.003901 -0.004133 953952.000000 1 0 0
5.460116 -11.796868 3.713550 13.519224 -1.137312 1.292533 -0.001619 -0.007573 -1101000.000000 1 0 0
-4.436684 -9.177668 0.998350 10.242580 1.120499 1.473171 0.010441 -0.001592 -992716.000000 1 0 0
7.056216 -6.257268 -4.562150 10.476488 -0.725460 2.021352 0.002703 -0.004458 -722009.000000 1 0 0
-6.923884 -6.007968 2.236350 9.435948 0.714690 1.331516 0.010676 -0.002195 31523.000000 1 0 0
-6.201084 -0.725568 7.103150 9.456989 0.116477 0.721069 0.001771 -0.000385 -842308.000000 1 0 0
4.258516 -4.933468 3.256650 7.285591 -0.858695 1.107389 -0.004150 0.000772 -505012.000000 1 0 0
-2.398684 10.542032 -8.873050 13.986391 -1.347070 2.258036 0.004173 0.001634 -1545040.000000 1 0 0
-2.308984 -4.814868 2.849650 6.052674 1.123640 1.080589 0.006392 -0.000339 223860.000000 1 0 0
15.110116 5.188132 6.347750 17.190877 0.330743 1.192593 0.032585 -0.013334 363238.000000 1 0 0
6.806516 0.277332 0.096250 6.812844 0.040723 1.556668 0.002054 -0.000844 3434470.000000 1 0 0
-9.747484 9.174632 0.384650 13.391612 -0.755133 1.542069 0.006792 -0.004797 -1761320.000000 1 0 0
7.214316 10.408732 -2.636350 12.935935 0.964715 1.776035 0.003677 -0.000387 -432387.000000 1 0 0
1.573716 -4.253168 -5.428550 7.073554 -1.216407 2.445640 -0.003474 -0.002613 -212338.000000 1 0 0
0.953616 -8.168368 -7.808250 11.340211 -1.454577 2.330278 -0.004669 -0.000859 4727.410000 1 0 0
-10.421484 0.212632 -10.451250 14.760798 -0.020400 2.357516 0.007345 -0.003854 -3820100.000000 1 0 0
5.765716 -2.421868 0.580450 6.280593 -0.397667 1.478245 0.000704 -0.000867 45217.200000 1 0 0
-3.249484 5.293332 -1.099650 6.307752 -1.020232 1.746025 0.002410 -0.005012 841273.000000 1 0 0
-0.393384 4.538732 -5.108550 6.844861 -1.484340 2.413333 0.004243 -0.005825 -904892.000000 1 0 0
3.941216 -9.657868 10.074550 14.501867 -1.183341 0.802784 -0.001108 -0.002711 -1554010.000000 1 0 0
7.264016 -13.421568 -0.809650 15.282668 -1.074719 1.623799 0.022340 -0.010141 494450.000000 1 0 0
12.967216 0.015132 0.626950 12.982372 0.001167 1.522485 0.002961 -0.003795 472686.000000 1 0 0
9.246716 2.492832 -0.547850 9.592503 0.263331 1.627940 0.003078 0.000294 853642.000000 1 0 0
-0.618584 -5.715868 4.498750 7.300174 1.462994 0.906821 0.003543 0.002150 372395.000000 1 0 0
11.445016 -3.790968 3.345250 12.512015 -0.319859 1.300141 0.006725 -0.003108 -1813100.000000 1 0 0
1.567416 -8.129768 11.657750 14.298708 -1.380334 0.617548 -0.002501 -0.001345 524198.000000 1 0 0
9.361316 -5.982468 -5.946150 12.600827 -0.568648 2.062225 0.002710 -0.008832 187747.000000 1 0 0
3.196316 6.384332 -0.302150 7.146148 1.106629 1.613090 -0.002610 0.000885 -2024590.000000 1 0 0
6.480316 -1.290668 11.538550 13.296558 -0.196595 0.520069 0.002176 -0.002097 232308.000000 1 0 0
-4.811384 -7.559168 -3.678650 9.686222 1.003973 1.960357 0.012754 -0.006884 -99758.400000 1 0 0
-3.408484 -8.477268 -5.709750 10.774185 1.188504 2.129335 0.009401 -0.005375 -341110.000000 1 0 0
9.867516 5.372532 2.253850 11.459137 0.498585 1.372820 0.004131 -0.001069 -638205.000000 1 0 0
8.896816 -1.469568 0.285650 9.021893 -0.163701 1.539129 0.002575 -0.000204 2189040.000000 1 0 0
-3.814884 9.736332 9.229650 13.947615 -1.197362 0.847663 -0.004363 0.001444 105094.000000 1 0 0
-14.366784 -3.507868 -6.036250 15.973288 0.239480 1.958320 0.018965 -0.005354 226009.000000 1 0 0
10.628316 6.347232 -5.911650 13.718457 0.538358 2.016316 -0.001091 -0.002850 -1329680.000000 1 0 0
-1.844284 4.592732 2.587250 5.584661 -1.188941 1.089106 -0.000158 0.001254 691613.000000 1 0 0
7.092816 -3.681868 2.616750 8.409017 -0.478809 1.254358 -0.000958 -0.002684 -2151080.000000 1 0 0
8.274916 -11.060568 -1.556750 13.900858 -0.928483 1.683021 0.015624 -0.007360 -543639.000000 1 0 0
4.531416 0.466332 1.811150 4.902190 0.102550 1.192371 0.001163 0.001032 478093.000000 1 0 0
-10.743984 2.333032 3.806450 11.634659 -0.213828 1.237495 -0.001437 -0.003492 234581.000000 1 0 0
-0.815184 -3.003868 4.437850 5.420541 1.305800 0.611636 0.005501 -0.000276 262486.000000 1 0 0
8.571416 -8.646568 -8.444650 14.817031 -0.789763 2.177215 0.017593 -0.010691 -625326.000000 1 0 0
12.089816 -4.854568 1.064250 13.071462 -0.381835 1.489288 0.005285 -0.002324 -43498.100000 1 0 0
2.956816 4.805632 3.508450 6.644252 1.019216 1.014502 -0.006150 0.002210 -918225.000000 1 0 0
6.097916 7.497632 1.951050 9.859294 0.887991 1.371592 0.000950 0.000344 -269716.000000 1 0 0
-1.706184 -1.309768 -10.336750 10.558170 0.654708 2.936433 0.007270 -0.006932 856672.000000 1 0 0
-0.920584 -8.557068 6.028550 10.507821 1.463627 0.959755 0.003029 -0.002109 153884.000000 1 0 0
-4.296784 -0.175368 2.375850 4.913021 0.040791 1.066053 0.002491 -0.001636 240516.000000 1 0 0
-8.404384 6.111732 -7.981050 13.102828 -0.628754 2.225733 -0.000098 0.002525 -243885.000000 1 0 0
6.467716 11.085132 -9.464050 15.946151 1.042628 2.206198 0.017076 -0.010978 36613.000000 1 0 0
-11.227284 -5.854568 3.226250 13.066620 0.480667 1.321308 0.009639 -0.001982 1056910.000000 1 0 0
1.632616 -6.261768 3.038450 7.148941 -1.315747 1.131811 -0.001975 -0.000332 402664.000000 1 0 0
10.186716 2.256232 7.295750 12.731369 0.217969 0.960570 -0.000867 0.000954 -2497700.000000 1 0 0
-4.105384 -2.514668 -10.693450 11.727216 0.549581 2.718562 0.008348 -0.008580 -2587530.000000 1 0 0
-8.241484 11.823332 5.885850 15.567803 -0.962051 1.183077 0.003157 -0.005950 -978922.000000 1 0 0
6.932616 5.908432 -3.009650 9.593160 0.705808 1.889914 0.003285 -0.000905 -4301330.000000 1 0 0
3.820416 -9.773468 -2.263650 10.735006 -1.198162 1.783257 -0.000973 -0.003358 -909470.000000 1 0 0
8.441216 -12.913868 -7.372750 17.099109 -0.991856 2.016594 0.026549 -0.015040 51523.600000 1 0 0
-1.248184 9.470932 3.764050 10.267648 -1.439760 1.195452 -0.007990 0.001399 95118.800000 1 0 0
0.497816 -13.159568 4.697650 13.981773 -1.532985 1.228147 0.010426 -0.004291 -946364.000000 1 0 0
-11.291684 -7.032568 -5.190250 14.279280 0.557023 1.942798 0.016296 -0.006797 -108412.000000 1 0 0
3.558216 10.226332 -3.532950 11.389491 1.235952 1.886193 0.004058 -0.006153 -1040630.000000 1 0 0
11.519916 -8.186468 -7.269050 15.892319 -0.617829 2.045859 0.050118 -0.015895 176780.000000 1 0 0
11.784016 -4.949968 -5.881750 14.069833 -0.397677 2.002083 0.017993 -0.006734 23736.900000 1 0 0
1.229716 -10.254268 -2.666650 10.666453 -1.451444 1.823480 -0.003031 -0.000289 -1767780.000000 1 0 0
2.297316 -11.906768 -3.954350 12.754829 -1.380196 1.886018 0.000341 -0.001629 -1425990.000000 1 0 0
-7.645184 -5.701168 7.222950 11.963409 0.640756 0.922595 0.005597 -0.000674 -2553220.000000 1 0 0
-7.186284 -0.832968 9.505450 11.945296 0.115396 0.650554 0.001711 0.000099 -570495.000000 1 0 0
16.177616 2.599032 -7.553050 18.042139 0.159295 2.002737 0.055181 -0.005301 -333643.000000 1 0 0
-1.995684 6.333932 -5.515650 8.632719 -1.265564 2.263895 0.005882 -0.002745 -1460060.000000 1 0 0
7.732916 1.179032 8.399350 11.477683 0.151304 0.749839 0.001401 0.000123 -269619.000000 1 0 0
7.929116 8.188632 -3.833050 12.025675 0.801498 1.895195 0.002854 0.000902 -42833.800000 1 0 0
8.005216 0.648932 3.962850 8.955936 0.080887 1.112431 -0.000735 -0.001921 169019.000000 1 0 0
-6.945384 5.852632 5.374050 10.553297 -0.700220 1.036507 -0.002312 -0.006228 32448.000000 1 0 0
-5.875584 -2.165168 -4.577050 7.756276 0.353062 2.201990 0.013050 -0.005996 -180120.000000 1 0 0
-15.191484 -2.076068 3.128450 15.648592 0.135819 1.369521 0.016787 -0.005115 -676211.000000 1 0 0
1.132316 1.226932 -10.545450 10.676798 0.825481 2.984573 0.004856 -0.010355 580546.000000 1 0 0
1.493916 -9.191268 9.261350 13.133309 -1.409669 0.788119 0.000455 -0.003225 -697886.000000 1 0 0
-0.232984 -6.730168 -1.140050 6.830018 1.536192 1.738499 -0.000715 0.000517 659525.000000 1 0 0
-0.423184 -10.275168 -8.403950 13.280984 1.529634 2.255935 0.001059 -0.002946 -205769.000000 1 0 0
-4.300084 6.517432 3.794250 8.681243 -0.987575 1.118466 -0.002604 -0.000278 -630285.000000 1 0 0
10.810616 -1.224668 -8.539450 13.830814 -0.112803 2.236258 0.015847 -0.000491 973180.000000 1 0 0
3.075216 -1.019768 6.248450 7.038467 -0.320197 0.478346 0.000769 0.000762 274061.000000 1 0 0
1.671716 -12.222268 6.932450 14.150524 -1.434864 1.058812 0.010985 -0.003295 -1150160.000000 1 0 0
2.931516 -4.953468 -1.311650 5.903478 -1.036420 1.794849 0.003559 -0.000909 -2335050.000000 1 0 0
-1.113584 9.574432 -1.660050 9.780879 -1.455008 1.741346 0.000247 -0.001689 524379.000000 1 0 0
4.662416 -2.508068 2.803850 5.990835 -0.493532 1.083744 0.000294 0.002031 -1555000.000000 1 0 0
17.754316 6.670632 -2.683750 19.155041 0.359401 1.711366 0.036314 -0.000800 193716.000000 1 0 0
-7.105584 3.494732 -5.511750 9.647894 -0.457089 2.178874 0.007902 -0.003560 -1003740.000000 1 0 0
-13.847384 -5.991268 2.302150 15.262543 0.408344 1.419382 -0.000713 -0.004866 783136.000000 1 0 0
6.691016 -6.110468 3.181150 9.603501 -0.740079 1.233169 -0.001474 -0.001840 -238947.000000 1 0 0
-4.643484 2.034332 3.549450 6.188623 -0.412918 0.959970 0.002121 -0.002198 665189.000000 1 0 0
6.996616 -12.011268 -5.436350 14.925719 -1.043341 1.943599 0.018330 -0.011810 -16169.200000 1 0 0
2.851616 -12.295668 3.157150 13.010871 -1.342905 1.325695 0.005726 -0.005186 858263.000000 1 0 0
3.353116 11.297032 -6.154350 13.294448 1.282265 2.052090 0.002094 -0.000265 291178.000000 1 0 0
-5.622984 -8.378468 6.455650 11.978818 0.979715 1.001639 0.006870 0.000218 -400632.000000 1 0 0
-3.962584 6.557632 6.371750 9.965130 -1.027243 0.877073 -0.002040 -0.001081 377158.000000 1 0 0
4.330816 4.234432 -6.998650 9.255673 0.774146 2.428201 0.000498 -0.002247 -2709030.000000 1 0 0
-0.234084 -2.783668 1.610550 3.224511 1.486902 1.047808 0.001951 -0.000432 1072230.000000 1 0 0
-13.127584 -0.886568 6.452950 14.654693 0.067432 1.114826 0.012416 -0.000070 -577279.000000 1 0 0
-0.437984 -9.194868 -5.996850 10.986338 1.523199 2.148195 -0.001678 -0.001923 429709.000000 1 0 0
2.069416 -1.606268 -3.986350 4.770069 -0.660055 2.560203 -0.001792 -0.002160 -1974040.000000 1 0 0
11.419416 -1.922668 1.271550 11.649745 -0.166804 1.461430 0.001164 -0.000059 1062110.000000 1 0 0
0.597816 -4.226268 -1.821150 4.640615 -1.430276 1.974076 -0.000600 -0.001798 -1958860.000000 1 0 0
1.086516 -7.461768 -11.209050 13.509304 -1.426201 2.549417 -0.004849 -0.000586 -271328.000000 1 0 0
-4.487884 4.045532 -10.043450 11.720849 -0.733607 2.599998 0.003666 -0.005541 -217969.000000 1 0 0
-0.941284 5.872832 -2.071050 6.298049 -1.411870 1.905871 0.001814 -0.003786 -3883050.000000 1 0 0
-11.375584 1.728132 -3.851250 12.133527 -0.150763 1.893789 0.004349 -0.000700 -446857.000000 1 0 0
-1.728784 -11.256768 4.156950 12.123686 1.418410 1.220817 0.010276 -0.000261 -426605.000000 1 0 0
-3.517684 -5.310368 -9.466750 11.410235 0.985741 2.549316 0.004447 0.001041 -1872260.000000 1 0 0
-12.909984 -3.735168 -8.319650 15.806193 0.281634 2.125103 0.020246 -0.003533 159884.000000 1 0 0
11.525016 4.423532 0.589950 12.358870 0.366481 1.523043 0.007423 0.001118 565825.000000 1 0 0
-8.907584 -2.323868 -2.991950 9.679730 0.255198 1.885037 0.008679 -0.002390 313395.000000 1 0 0
-2.487484 -6.051268 -6.434550 9.176538 1.180785 2.347870 0.001016 -0.005182 -1142070.000000 1 0 0
-0.024484 2.732732 -2.026550 3.402253 -1.561837 2.208870 0.002073 -0.003820 -392844.000000 1 0 0
8.054516 6.021532 -5.288550 11.362343 0.641961 2.054934 0.002425 -0.000133 -693808.000000 1 0 0
-9.860784 -0.847968 -0.979350 9.945513 0.085783 1.669428 0.003676 -0.001118 446063.000000 1 0 0
6.136416 0.501232 -8.848450 10.779698 0.081501 2.533683 -0.003161 -0.001420 561788.000000 1 0 0
-4.046184 2.558832 7.872550 9.213918 -0.563907 0.546364 -0.001892 0.001234 -1405260.000000 1 0 0
-10.135384 -3.393968 1.511950 10.794953 0.323127 1.430273 0.005972 -0.002576 3114170.000000 1 0 0
-1.813784 -8.153768 -7.794850 11.425122 1.351913 2.321639 0.001196 -0.003936 867550.000000 1 0 0
-9.457084 -9.824568 4.243550 14.281677 0.804455 1.269108 0.007895 -0.001222 -123131.000000 1 0 0
-1.205284 -10.694068 7.249350 12.975703 1.458564 0.977995 0.005544 -0.001982 -47117.100000 1 0 0
9.543016 3.773932 -3.794050 10.941048 0.376591 1.924924 0.002051 0.002241 -562116.000000 1 0 0
12.807716 -0.784568 3.120750 13.205765 -0.061181 1.332222 0.007413 -0.003332 -330975.000000 1 0 0
6.619916 11.940532 -6.974950 15.331325 1.064576 2.043110 0.009935 -0.000900 -208484.000000 1 0 0
-11.951284 -0.078568 -6.478350 13.594424 0.006574 2.067516 0.007447 0.000499 101050.000000 1 0 0
-7.584384 -6.639768 -11.257150 15.110685 0.719086 2.411300 0.012727 -0.006391 -2378820.000000 1 0 0
4.211416 6.078832 6.591250 9.906201 0.964919 0.842812 -0.002241 0.004765 -3277080.000000 1 0 0
-4.105184 -1.354868 -7.382950 8.555475 0.318782 2.611876 0.007334 -0.008827 -1994890.000000 1 0 0
9.648216 9.293132 0.868450 13.424030 0.766654 1.506057 0.009731 -0.001513 -1194810.000000 1 0 0
-8.915784 4.021432 4.825650 10.906421 -0.423724 1.112457 -0.002607 -0.003982 1274620.000000 1 0 0
-6.988284 7.856432 -12.135350 16.056972 -0.843814 2.427623 -0.002377 -0.004294 -1426870.000000 1 0 0
11.162316 -3.687968 7.240150 13.806454 -0.319103 1.018782 0.010173 -0.004286 453789.000000 1 0 0
11.905716 6.951732 6.406250 15.202391 0.528496 1.135810 0.007672 -0.006819 91341.700000 1 0 0
-9.835084 -0.842568 -14.803350 17.792638 0.085461 2.553487 0.008987 -0.006608 360209.000000 1 0 0
1.620116 -13.070368 11.920550 17.763975 -1.447472 0.835170 0.003508 -0.000575 20268.800000 1 0 0
2.997216 3.021332 13.030050 13.707442 0.789405 0.315691 0.007685 -0.002879 -467051.000000 1 0 0
-2.448384 -1.279668 10.956350 11.299281 0.481609 0.247000 0.008882 -0.003574 -1082650.000000 1 0 0
2.565716 -10.129368 -8.282150 13.333454 -1.322719 2.241013 -0.005690 -0.002916 -1390220.000000 1 0 0
13.952916 3.481632 -7.491250 16.214945 0.244534 2.051041 0.024694 -0.002377 -3161540.000000 1 0 0
7.340816 -1.565068 5.034150 9.037682 -0.210056 0.980006 -0.000584 -0.000075 403148.000000 1 0 0
-1.209084 8.697332 10.177150 13.441721 -1.432664 0.711885 -0.000854 0.005369 -256432.000000 1 0 0
-12.236184 -4.610068 1.003250 13.114245 0.360310 1.494221 0.007072 -0.003328 15463.300000 1 0 0
-4.875684 4.819332 -5.302350 8.666785 -0.779586 2.229132 0.006258 -0.004204 -475564.000000 1 0 0
-11.205284 0.373132 2.039550 11.395498 -0.033287 1.390848 -0.000781 -0.000999 -2778170.000000 1 0 0
-1.229184 2.193832 -4.183950 4.881519 -1.060087 2.600410 0.002953 -0.006688 798571.000000 1 0 0
3.020516 -9.735468 12.987750 16.510134 -1.269954 0.665427 -0.002963 0.000761 -2433640.000000 1 0 0
8.917016 4.677132 -1.507850 10.181471 0.483069 1.719441 0.002872 -0.001554 -1951670.000000 1 0 0
4.055616 2.294532 3.647450 5.917499 0.514867 0.906654 -0.003071 0.002710 73782.700000 1 0 0
-5.557784 -3.234268 7.399850 9.803430 0.527030 0.715413 0.006133 -0.001458 -24848.500000 1 0 0
1.711516 -5.662968 7.871950 9.847136 -1.277295 0.644475 0.000704 0.000101 -1045290.000000 1 0 0
-5.853884 -6.182768 -9.675550 12.888399 0.812715 2.419944 0.013376 -0.003117 -1176820.000000 1 0 0
-11.789784 -5.768168 5.604850 14.271829 0.455012 1.167208 0.015129 -0.001194 -1049940.000000 1 0 0
10.502816 6.210432 4.557150 13.024832 0.534006 1.213351 0.003240 -0.001142 -985709.000000 1 0 0
1.622716 -3.589268 0.464850 3.966376 -1.146196 1.453329 0.002290 -0.002334 -815617.000000 1 0 0
8.862016 4.398632 6.997050 12.117839 0.460721 0.955234 0.000575 0.003933 891473.000000 1 0 0
-7.855984 12.060232 3.483050 14.808691 -0.993441 1.333369 0.001863 -0.002950 16603.600000 1 0 0
-6.261384 13.216532 -7.148350 16.278223 -1.128365 2.025433 0.011795 -0.005817 468751.000000 1 0 0
4.497516 -6.916268 -0.765550 8.285438 -0.994224 1.663325 0.003609 -0.002537 -1503100.000000 1 0 0
-1.917584 -8.195268 11.035350 13.878707 1.340945 0.651577 0.000438 -0.005252 -326469.000000 1 0 0
11.686616 8.870232 -5.771150 15.765918 0.649241 1.945560 0.019982 -0.000417 291018.000000 1 0 0
-3.306384 -2.873568 -1.949250 4.794699 0.715477 1.989463 0.007759 -0.004369 -1374600.000000 1 0 0
-2.029684 5.981532 4.703850 7.875567 -1.243663 0.930702 -0.002386 0.001544 641607.000000 1 0 0
0.283416 -11.436168 -5.751950 12.804342 -1.546019 2.036687 -0.002123 -0.005911 -441818.000000 1 0 0
-8.908984 6.309332 -1.550950 11.026473 -0.616207 1.711921 0.008016 -0.003227 -689154.000000 1 0 0
2.910316 0.033232 3.926450 4.887541 0.011418 0.637882 -0.000879 0.001900 -557442.000000 1 0 0
-10.050884 4.019332 -0.956450 10.866927 -0.380419 1.658925 0.006842 -0.002737 -242406.000000 1 0 0
6.576416 5.593832 13.712050 16.203720 0.704836 0.561930 0.015541 0.003694 -164536.000000 1 0 0
-8.790784 -1.543468 5.693650 10.586682 0.173806 1.002956 0.003122 -0.002054 -245256.000000 1 0 0
12.918916 -1.761068 -1.410250 13.114441 -0.135482 1.678539 0.007404 0.000013 -934092.000000 1 0 0
5.421616 -5.492668 5.427950 9.435357 -0.791908 0.957853 -0.004282 -0.000363 122466.000000 1 0 0
-9.037884 -1.251768 3.249950 9.685683 0.137627 1.228616 0.000058 -0.001199 912468.000000 1 0 0
2.047916 5.437732 5.569650 8.048845 1.210613 0.806566 -0.003711 0.002879 -590526.000000 1 0 0
9.264316 2.980832 -7.389950 12.219831 0.311293 2.220249 -0.001561 0.000107 -453920.000000 1 0 0
2.336816 -2.314668 -1.544850 3.633862 -0.780637 2.009897 0.000686 -0.001856 -190819.000000 1 0 0
-6.242484 0.297232 -3.955850 7.396330 -0.047578 2.135114 0.005544 -0.001945 -2268000.000000 1 0 0
-3.978584 4.175632 5.016650 7.644071 -0.809559 0.854919 -0.001182 -0.000541 323434.000000 1 0 0
-6.373784 1.820532 -12.336750 14.004815 -0.278220 2.648543 0.003696 -0.007265 -2820220.000000 1 0 0
-0.121284 3.165832 6.255550 7.012069 -1.532505 0.468798 0.000491 0.001490 1357490.000000 1 0 0
-8.804984 9.315132 -2.169850 13.000295 -0.813544 1.738489 0.008211 -0.000557 399595.000000 1 0 0
-1.337184 -3.651868 -6.183450 7.304741 1.219794 2.580169 -0.002766 -0.002655 364437.000000 1 0 0
-3.061684 7.208032 -2.947750 8.367728 -1.169129 1.930798 0.004178 -0.000901 1024600.000000 1 0 0
7.112116 -0.485468 -4.370450 8.361740 -0.068154 2.120779 0.001519 0.001550 -405416.000000 1 0 0
-5.108884 -10.820768 6.943350 13.834733 1.129687 1.045027 -0.002093 0.000494 71051.900000 1 0 0
9.678516 8.406632 -1.507350 12.908030 0.715186 1.687839 0.005897 0.000113 708603.000000 1 0 0
13.605416 4.578232 -4.267250 14.975880 0.324598 1.859742 0.010915 0.000733 862176.000000 1 0 0
4.728716 1.073132 -6.805550 8.356307 0.223160 2.522526 -0.002531 -0.002343 -1404880.000000 1 0 0
8.999716 -4.821568 3.723450 10.867681 -0.491834 1.221095 0.000448 -0.002082 -618641.000000 1 0 0
-8.817384 -3.190868 -0.675150 9.401262 0.347222 1.642673 0.005114 -0.001608 -23231.300000 1 0 0
-8.546384 -4.319468 -10.372950 14.117243 0.467970 2.396126 0.011942 -0.003161 99793.300000 1 0 0
10.536116 -1.140668 10.613250 14.998398 -0.107843 0.784664 0.014593 -0.003080 841023.000000 1 0 0
2.144016 -11.578668 9.858350 15.357390 -1.387701 0.873785 -0.000595 -0.003971 458891.000000 1 0 0
-6.330784 -10.606268 2.030650 12.517799 1.032666 1.407855 0.010593 -0.000041 -463810.000000 1 0 0
-3.677984 -1.493568 6.687450 7.776908 0.385740 0.535701 0.006650 -0.000293 -2204260.000000 1 0 0
4.747216 -7.441868 3.900350 9.650398 -1.002970 1.154731 -0.003679 0.000738 163005.000000 1 0 0
11.494216 -9.622668 -5.202850 15.867652 -0.697001 1.904866 0.031739 -0.012876 757877.000000 1 0 0
11.360516 1.156532 11.537050 16.232758 0.101453 0.780266 0.020953 0.001995 -339869.000000 1 0 0
-10.271084 -3.450968 4.477550 11.724027 0.324138 1.178932 0.009011 -0.002523 2224660.000000 1 0 0
2.065116 8.811432 8.967850 12.740816 1.340584 0.789968 -0.001938 0.007740 -350355.000000 1 0 0
6.566716 8.761332 4.105950 11.693654 0.927608 1.212022 0.001329 0.002688 -763834.000000 1 0 0
-4.258484 3.575532 0.312750 5.569284 -0.698440 1.514610 0.002217 -0.004369 -838238.000000 1 0 0
4.852416 6.999232 4.235050 9.511616 0.964596 1.109342 0.000381 0.003224 -1466350.000000 1 0 0
-8.219484 13.168732 1.114450 15.563336 -1.012796 1.499128 0.004042 0.003371 -485761.000000 1 0 0
8.768216 8.092532 -9.261750 15.104658 0.745345 2.230866 0.008534 -0.008255 -606182.000000 1 0 0
7.122516 2.016032 6.042050 9.555155 0.275835 0.886234 -0.000326 0.002231 -956922.000000 1 0 0
11.465016 -6.276468 3.011550 13.413056 -0.500880 1.344342 0.005892 -0.001944 1322.750000 1 0 0
11.393116 4.769532 -2.026750 12.516359 0.396465 1.733440 0.004649 0.001995 -177499.000000 1 0 0
-3.960084 14.259532 -6.098850 16.006639 -1.299908 1.961696 0.002050 -0.001064 123036.000000 1 0 0
7.202416 -2.931368 6.996050 10.460040 -0.386524 0.838155 -0.000677 -0.001920 -484100.000000 1 0 0
-7.971384 -0.511868 0.874050 8.035480 0.064125 1.461807 0.002999 -0.001792 348143.000000 1 0 0
-3.295784 1.198832 10.722450 11.281415 -0.348869 0.316108 0.005872 -0.000771 -111383.000000 1 0 0
7.121816 -1.267868 -1.940450 7.489533 -0.176180 1.832874 0.002923 -0.000385 -1917020.000000 1 0 0
-7.646184 5.477432 2.930550 9.851625 -0.621623 1.268756 0.001446 -0.003816 818816.000000 1 0 0
9.475616 -2.241168 2.876650 10.153091 -0.232251 1.283534 0.000186 -0.001675 -1861640.000000 1 0 0
0.248716 3.447432 1.543350 3.785311 1.498776 1.150840 -0.001327 0.000659 -3052690.000000 1 0 0
-7.555784 -3.102068 4.007650 9.098019 0.389573 1.114644 0.004744 -0.001087 191683.000000 1 0 0
-2.307884 8.435332 -6.785950 11.069339 -1.303735 2.230699 0.000530 -0.001311 -383059.000000 1 0 0
4.389016 9.740032 7.466250 13.033671 1.147430 0.960826 -0.003862 0.009087 1693860.000000 1 0 0
-11.904284 -3.103168 6.904050 14.107003 0.255002 1.059388 0.015865 -0.001166 -1362490.000000 1 0 0
-4.780784 2.320632 -5.718250 7.806382 -0.451906 2.392797 0.007100 -0.006803 -543640.000000 1 0 0
-2.716384 3.048832 -2.028750 4.559599 -0.842999 2.031904 0.002175 -0.002892 630797.000000 1 0 0
2.387816 5.224432 11.491950 12.847618 1.142097 0.463527 0.008317 -0.003124 416855.000000 1 0 0
-0.704784 1.718532 4.580950 4.943195 -1.181607 0.385213 0.002810 0.000752 271844.000000 1 0 0
5.163516 1.611832 7.694550 9.405637 0.302573 0.612734 0.000961 0.001753 888145.000000 1 0 0
3.353416 -8.229468 1.889950 9.085233 -1.183851 1.361242 -0.000853 0.000036 2739580.000000 1 0 0
5.111816 6.356932 -4.689650 9.409254 0.893541 2.092558 0.002598 -0.003163 -2352950.000000 1 0 0
-4.027184 2.828932 -8.029250 9.417532 -0.612375 2.591709 0.009552 -0.008559 -12023.200000 1 0 0
-8.778984 -2.247868 -12.860450 15.732598 0.250666 2.527748 0.009319 -0.006840 1977.920000 1 0 0
-7.806984 8.136232 1.300650 11.350725 -0.806047 1.455957 0.001375 -0.001455 -2903950.000000 1 0 0
7.440616 0.899532 -6.481650 9.908769 0.120311 2.283832 -0.001739 0.000943 1902870.000000 1 0 0
8.962516 8.848232 5.515150 13.748992 0.778982 1.158045 0.003655 0.002447 773748.000000 1 0 0
9.390616 -1.175068 -1.324650 9.556105 -0.124485 1.709862 0.003616 0.000175 1485490.000000 1 0 0
5.418716 0.151532 4.232150 6.877248 0.027957 0.907923 -0.002048 0.001898 -1055930.000000 1 0 0
-4.173884 -7.267868 -7.948350 11.550735 1.049494 2.329698 0.013660 -0.006598 -754295.000000 1 0 0
-2.129984 7.477832 -0.468750 7.789386 -1.293305 1.631011 0.000910 -0.001696 455015.000000 1 0 0
13.421816 -3.434868 -7.395350 15.704606 -0.250540 2.061111 0.029297 -0.005239 1191270.000000 1 0 0
-4.724984 -5.002468 1.568850 7.057723 0.813916 1.346635 0.010624 -0.000956 1733060.000000 1 0 0
-8.907584 1.215932 2.452850 9.318799 -0.135667 1.304443 -0.000985 -0.002094 -2007190.000000 1 0 0
-1.038284 11.207332 10.198650 15.188641 -1.478417 0.834611 -0.004481 0.004922 222168.000000 1 0 0
-8.525284 0.333532 7.492950 11.355000 -0.039103 0.850136 -0.001430 -0.001208 -565684.000000 1 0 0
-6.072184 12.973332 -2.187550 14.490139 -1.133033 1.722344 -0.002799 0.003852 1305960.000000 1 0 0
-13.019984 -0.753668 3.344650 13.463829 0.057821 1.319750 0.010542 -0.005710 556911.000000 1 0 0
-6.548584 12.752832 8.781550 16.811731 -1.096407 1.021196 0.004570 -0.007556 422925.000000 1 0 0
-8.033284 0.868632 -14.021050 16.182645 -0.107711 2.618794 0.000203 -0.007145 -22243.400000 1 0 0
7.302616 2.895632 3.659650 8.666368 0.377503 1.134835 0.000518 -0.000390 -452181.000000 1 0 0
-1.632084 0.749532 -2.086850 2.753259 -0.430518 2.430970 0.002799 -0.005070 801695.000000 1 0 0
-6.299384 9.604432 -10.381450 15.482308 -0.990297 2.305728 -0.002675 0.001101 -446761.000000 1 0 0
-10.040184 13.677532 5.345250 17.789095 -0.937573 1.265601 0.006955 -0.003258 705803.000000 1 0 0
-5.647684 8.316932 2.438050 10.344650 -0.974264 1.332876 -0.002928 -0.001937 -1783010.000000 1 0 0
-2.397584 -10.769468 -1.253950 11.104154 1.351741 1.683964 0.006522 -0.002208 1326680.000000 1 0 0
-2.385584 -12.400868 8.815850 15.401031 1.380746 0.961343 -0.000751 0.001064 201512.000000 1 0 0
-14.772684 -6.311968 -1.620150 16.146145 0.403794 1.671308 0.014056 -0.006118 573945.000000 1 0 0
-2.703684 -9.243068 3.213250 10.152300 1.286226 1.248754 0.007472 0.000377 -1136050.000000 1 0 0
4.742216 -2.683468 7.600350 9.351735 -0.514944 0.621989 0.000050 0.002307 -1318870.000000 1 0 0
-14.913784 -1.240968 -0.207750 14.966767 0.083018 1.584677 0.008700 -0.009659 -224946.000000 1 0 0
5.562516 8.721432 -2.932450 10.751941 1.003047 1.847033 0.003097 -0.002017 -925776.000000 1 0 0
-5.660284 -5.669968 8.601550 11.754745 0.786253 0.749908 0.007201 -0.001811 -4237300.000000 1 0 0
3.531916 3.615032 7.109350 8.722715 0.797027 0.618000 -0.002030 0.003436 371610.000000 1 0 0
3.426016 2.329132 9.515850 10.378529 0.597065 0.410607 0.003908 -0.002089 670897.000000 1 0 0
9.939716 -3.180268 5.248550 11.681581 -0.309663 1.104813 0.006680 -0.002305 -667642.000000 1 0 0
6.646016 9.975432 -5.185350 13.060116 0.983090 1.979083 0.002642 -0.002329 -404415.000000 1 0 0
-4.565484 11.983432 -8.756350 15.528038 -1.206791 2.169904 0.003609 -0.000319 448227.000000 1 0 0
-3.278184 -7.124468 1.991350 8.091354 1.139550 1.322133 0.010497 0.001385 987767.000000 1 0 0
-7.432884 -4.033868 1.208750 8.542888 0.497226 1.428828 0.009116 -0.002781 1440700.000000 1 0 0
-2.062784 -3.918368 -10.900750 11.765841 1.086221 2.755730 0.007251 -0.004613 -715099.000000 1 0 0
-5.137484 8.216932 -4.376650 10.633286 -1.012031 1.995004 0.004422 -0.000806 -217297.000000 1 0 0
-10.987984 -3.246668 -10.053350 15.242916 0.287300 2.291006 0.019067 -0.003771 412713.000000 1 0 0
4.675916 -11.415468 -7.696250 14.539923 -1.182031 2.128593 0.005215 -0.008076 -1834490.000000 1 0 0
-9.421184 -3.968868 7.335750 12.582681 0.398708 0.948375 0.004126 -0.000814 -526923.000000 1 0 0
-5.664784 -9.634868 -5.187350 12.321893 1.039287 2.005329 0.014599 -0.009900 810577.000000 1 0 0
4.970516 4.314932 -9.541450 11.591546 0.714912 2.537713 -0.001463 0.000132 386710.000000 1 0 0
-3.371784 -7.289768 -14.017550 16.155536 1.137566 2.621277 0.005794 -0.001529 385549.000000 1 0 0
0.630716 -0.889568 -8.772350 8.839867 -0.954046 3.017919 0.002857 -0.008879 -626310.000000 1 0 0
-7.740184 2.174432 -2.986050 8.576427 -0.273869 1.926414 0.008274 -0.002882 -634392.000000 1 0 0
-2.265284 7.479032 -12.581050 14.810477 -1.276695 2.585775 0.005032 -0.004970 -390833.000000 1 0 0
-9.773484 8.870832 7.591250 15.226284 -0.737022 1.048857 0.000734 -0.008842 -287647.000000 1 0 0
-10.813584 -3.104468 -14.322850 18.213054 0.279571 2.475765 0.024978 -0.001649 256334.000000 1 0 0
-3.261484 4.818632 7.908050 9.818032 -0.975778 0.634342 -0.001875 -0.000201 -389303.000000 1 0 0
8.736716 -2.469568 -3.517150 9.736494 -0.275479 1.940387 0.003377 0.002239 -4575790.000000 1 0 0
1.830016 -8.236868 -1.164350 8.517667 -1.352174 1.707924 0.001129 0.000052 -2074550.000000 1 0 0
-13.580684 -2.877568 5.067750 14.778277 0.208799 1.220774 0.020511 -0.002937 548514.000000 1 0 0
7.064516 2.670632 -1.973950 7.806160 0.361429 1.826443 0.001193 -0.000542 851399.000000 1 0 0
-11.077884 4.515132 8.836650 14.872536 -0.387024 0.934577 -0.000257 -0.007829 -1658770.000000 1 0 0
-1.776784 -2.411068 8.173950 8.705382 0.935714 0.351220 0.005929 -0.001955 10523.100000 1 0 0
3.021016 11.853532 -9.977450 15.785508 1.321247 2.255010 0.003390 -0.007970 566693.000000 1 0 0
3.655616 -5.061468 -7.059750 9.424545 -0.945297 2.417470 -0.002540 -0.003611 530466.000000 1 0 0
8.357916 -13.762868 -9.741550 18.819380 -1.025041 2.114880 0.035078 -0.012270 -23694.400000 1 0 0
-6.249484 -5.675268 -0.423350 8.452452 0.737282 1.620903 0.015545 -0.002993 -174410.000000 1 0 0
-1.195684 -4.129868 9.928650 10.819592 1.288981 0.408658 0.003837 -0.001118 1294130.000000 1 0 0
2.792116 3.353932 1.750150 4.701893 0.876556 1.189394 -0.004939 0.001978 -1323790.000000 1 0 0
-9.017284 13.362832 7.818850 17.916783 -0.977182 1.119205 0.008024 -0.016741 -370087.000000 1 0 0
4.041316 -11.055668 0.031450 11.771194 -1.220343 1.568125 -0.000276 -0.001256 -77160.500000 1 0 0
-12.509784 -1.390568 -9.012450 15.480718 0.110704 2.192195 0.018599 -0.004358 9442.460000 1 0 0
-4.209384 1.061832 -13.625950 14.300801 -0.247099 2.833159 0.010062 -0.007831 1118930.000000 1 0 0
4.015616 -3.099968 5.061450 7.166118 -0.657419 0.786534 -0.000957 0.003197 -38288.000000 1 0 0
1.649116 -1.133768 1.081850 2.274954 -0.602288 1.075209 0.003846 -0.000405 -80336.600000 1 0 0
8.159216 -9.032768 7.417850 14.254410 -0.836166 1.023489 0.007899 -0.003880 -1301240.000000 1 0 0
-0.090984 2.302032 -6.444750 6.844153 -1.531294 2.798275 0.001947 -0.008906 -256973.000000 1 0 0
-3.746884 -9.868968 -3.425050 11.098046 1.207944 1.884535 0.010573 -0.006818 851603.000000 1 0 0
-9.436484 2.260032 -5.297050 11.055031 -0.235072 2.070486 0.005643 -0.000794 -1031530.000000 1 0 0
8.917616 -7.659468 5.378950 12.927661 -0.709647 1.141665 0.002630 -0.003257 1579830.000000 1 0 0
-5.401184 -4.187468 4.601550 8.239050 0.659489 0.978214 0.006743 0.000169 -326690.000000 1 0 0
-0.250184 -12.398168 10.277350 16.105933 1.550620 0.878756 0.006326 -0.002560 -676644.000000 1 0 0
-14.217784 -8.289468 3.156550 16.757818 0.527852 1.381301 0.004946 -0.007240 -1082930.000000 1 0 0
10.831216 -1.212568 -3.645450 11.492383 -0.111487 1.893578 0.011694 -0.000950 486042.000000 1 0 0
-13.572584 3.053332 2.717050 14.174634 -0.221279 1.377919 0.005493 -0.001353 -524085.000000 1 0 0
-6.250384 6.161032 0.924950 8.825030 -0.778199 1.465794 0.000756 -0.001836 514361.000000 1 0 0
7.134316 -6.867868 -0.375650 9.909954 -0.766371 1.608712 0.001066 -0.003568 -20097.600000 1 0 0
-6.815784 7.826032 10.076650 14.465150 -0.854286 0.800127 -0.006506 -0.005590 196803.000000 1 0 0
-12.615084 -5.138068 -1.960450 13.761666 0.386780 1.713740 0.006696 -0.003614 -2665460.000000 1 0 0
-9.347084 -5.571768 0.192150 10.883451 0.537545 1.553140 0.009777 -0.002949 -754684.000000 1 0 0
-1.831484 1.865232 2.295150 3.478669 -0.794527 0.850273 0.001177 0.000806 31297.900000 1 0 0
-7.052684 7.505532 7.536750 12.762287 -0.816494 0.939058 -0.004386 -0.007026 -461489.000000 1 0 0
5.717916 7.015832 -0.555350 9.067794 0.886975 1.632079 0.002962 -0.002514 -1578520.000000 1 0 0
0.001616 -3.953668 7.571350 8.541478 -1.570388 0.481240 0.004046 -0.000291 -535510.000000 1 0 0
6.334716 0.900232 13.174550 14.646086 0.141166 0.452111 0.006297 -0.001771 512396.000000 1 0 0
5.775816 6.091232 -7.866650 11.504231 0.811971 2.323761 -0.001584 -0.002658 -215141.000000 1 0 0
9.970016 5.294532 9.058150 14.473541 0.488174 0.894586 -0.000313 -0.001069 -2294440.000000 1 0 0
-1.163184 -4.953968 -8.456350 9.869379 1.340175 2.599880 0.004892 -0.004071 860291.000000 1 0 0
10.025616 -3.669468 -7.880250 13.269375 -0.350865 2.206654 0.017275 -0.008082 683729.000000 1 0 0
8.520916 -5.527968 1.314050 10.241639 -0.575498 1.442137 0.002429 -0.001650 797945.000000 1 0 0
15.715216 3.113932 -4.926550 16.761130 0.195614 1.869129 0.035118 0.002562 -657035.000000 1 0 0
-6.922284 3.638532 1.044550 7.889741 -0.483938 1.438013 0.003066 -0.004535 877887.000000 1 0 0
-1.724184 3.606832 0.238950 4.004890 -1.124876 1.511096 0.000892 -0.006437 -1531540.000000 1 0 0
-2.567684 10.009632 6.956550 12.457100 -1.319689 0.978292 -0.005259 0.005675 -184806.000000 1 0 0
5.492516 -5.808268 -8.868750 11.939783 -0.813332 2.408024 -0.000669 -0.005433 -826016.000000 1 0 0
-1.207884 -0.860468 6.333950 6.505253 0.618984 0.229997 0.006904 -0.001347 284477.000000 1 0 0
-5.565084 5.002432 -7.798850 10.808170 -0.732205 2.376863 0.003817 -0.003343 18847.300000 1 0 0
6.811616 -1.190068 2.607750 7.390178 -0.172966 1.210163 -0.000330 0.002753 -1079220.000000 1 0 0
8.828516 7.557632 3.250350 12.067530 0.707995 1.298082 0.004541 -0.001206 520478.000000 1 0 0
-5.347684 -4.967868 -7.625150 10.555583 0.748595 2.378035 0.009812 -0.007548 960504.000000 1 0 0
-2.187484 7.826132 -10.060250 12.932210 -1.298242 2.462148 0.005396 -0.002459 600950.000000 1 0 0
-2.723384 -2.147168 1.710750 3.867016 0.667639 1.112528 0.001454 -0.000313 795826.000000 1 0 0
5.913916 -2.093068 -9.225350 11.156272 -0.340165 2.544405 -0.001774 -0.002484 1248080.000000 1 0 0
1.243816 -7.533468 5.171250 9.221824 -1.407167 0.975490 0.000367 -0.000334 732454.000000 1 0 0
1.760616 11.971732 1.222550 12.162104 1.424779 1.470105 0.000238 -0.002148 -43569.300000 1 0 0
-0.983784 7.131932 2.518550 7.627279 -1.433721 1.234278 -0.003365 0.001611 496621.000000 1 0 0
8.783916 7.872332 -6.720750 13.575687 0.730723 2.088698 0.004871 -0.003097 -279128.000000 1 0 0
3.621416 -11.449868 5.502550 13.209549 -1.264467 1.141140 0.005133 -0.007417 184219.000000 1 0 0
7.937816 -7.112968 12.439750 16.381411 -0.730649 0.708433 0.019738 -0.004471 982990.000000 1 0 0
-8.687984 0.021632 -3.845950 9.501203 -0.002490 1.987541 0.008194 -0.003558 -1780030.000000 1 0 0
-3.322784 -5.076768 11.187550 12.726969 0.991259 0.496946 0.007661 -0.004355 -50271.700000 1 0 0
-8.196984 0.071232 -11.623250 14.223064 -0.008690 2.527352 0.002251 -0.004584 -981627.000000 1 0 0
1.556816 -5.001268 5.437950 7.550342 -1.269019 0.766669 0.002216 0.001795 -794818.000000 1 0 0
6.732616 3.749532 -7.616850 10.835290 0.508141 2.350357 -0.003767 -0.001053 -779496.000000 1 0 0
16.234816 4.194932 -1.336750 16.821225 0.252860 1.650348 0.028428 0.004237 -254794.000000 1 0 0
7.894916 7.450132 0.144350 10.856105 0.756421 1.557499 0.004412 -0.002174 -2433420.000000 1 0 0
5.267916 -10.433668 13.833250 18.109975 -1.103240 0.701543 0.005105 -0.000411 618.929000 1 0 0
-5.207584 -9.218968 9.019350 13.908881 1.056603 0.865237 -0.001858 -0.002256 404173.000000 1 0 0
-12.587484 -3.195268 2.926250 13.312304 0.248594 1.349171 0.009129 -0.002762 315617.000000 1 0 0
-2.068284 -1.319968 -5.804150 6.301449 0.568031 2.741646 0.004538 -0.008736 -1734170.000000 1 0 0
-2.525184 12.928232 -4.443550 13.901830 -1.377902 1.896143 0.002010 0.004436 420826.000000 1 0 0
3.956416 -0.444168 -5.001350 6.392496 -0.111797 2.469271 0.000031 -0.001867 -230872.000000 1 0 0
-8.941784 3.796232 -7.408250 12.216752 -0.401489 2.222323 0.003167 -0.000473 508217.000000 1 0 0
-4.526684 7.935132 -11.410450 14.616961 -1.052380 2.466471 0.003890 -0.000579 -905143.000000 1 0 0
-10.063484 -6.473968 7.389150 14.063624 0.571660 1.017601 0.006389 -0.000439 -1766510.000000 1 0 0
8.032616 5.353332 4.088550 10.483193 0.587852 1.170154 0.002030 0.001378 -1493920.000000 1 0 0
-6.846384 -7.446968 4.024150 10.886877 0.827392 1.192182 0.009590 -0.001699 -345436.000000 1 0 0
-4.108484 11.849932 7.962150 14.855853 -1.237056 1.005151 -0.003247 -0.000577 -725828.000000 1 0 0
-7.168984 9.919432 -7.942950 14.590405 -0.944983 2.146465 0.003670 -0.003963 770213.000000 1 0 0
13.105216 5.469932 4.549650 14.911947 0.395404 1.260752 0.006705 -0.004536 237462.000000 1 0 0
5.409216 3.883732 -3.692850 7.614469 0.622694 2.077134 0.000059 -0.001193 295214.000000 1 0 0
-2.742184 -4.238768 5.262350 7.292397 0.996583 0.764655 0.008395 0.000238 -933286.000000 1 0 0
12.266016 -2.513768 -5.192650 13.554991 -0.202139 1.963925 0.018053 -0.003027 -1112200.000000 1 0 0
-5.224084 9.793732 6.970850 13.107288 -1.080779 1.010036 -0.005145 0.000358 -147162.000000 1 0 0
1.729316 3.894932 -0.524350 4.293713 1.152950 1.693222 -0.001850 -0.001083 424032.000000 1 0 0
-0.084284 9.611032 7.803150 12.380154 -1.562027 0.888863 -0.005418 0.005630 -1392330.000000 1 0 0
-5.614084 2.173132 5.920650 8.443610 -0.369324 0.793719 0.000824 -0.001181 688312.000000 1 0 0
8.983416 0.976432 10.682450 13.991781 0.108268 0.702111 0.006803 0.001177 -2389020.000000 1 0 0
0.327716 -2.809568 -10.159650 10.546068 -1.454678 2.870053 0.003140 -0.003872 -2685510.000000 1 0 0
1.190116 10.587932 -2.829150 11.023828 1.458863 1.830340 0.002234 -0.003085 708334.000000 1 0 0
2.277816 -4.237168 11.676450 12.628600 -1.077539 0.390802 0.002344 -0.002511 466988.000000 1 0 0
6.585416 -2.973768 9.530550 11.960033 -0.424158 0.648705 0.001327 -0.000037 516225.000000 1 0 0
-10.663484 -8.187768 5.634650 14.577336 0.654816 1.173925 0.013959 -0.003088 -1410100.000000 1 0 0
-2.881284 0.875732 -6.822250 7.457331 -0.295066 2.725903 0.006485 -0.009891 361295.000000 1 0 0
11.159316 2.569932 -5.072450 12.524561 0.226348 1.987775 0.002378 0.002808 -3171390.000000 1 0 0
-2.047984 -3.964468 -0.004650 4.462204 1.093969 1.571838 0.001670 -0.001594 995326.000000 1 0 0
-1.309784 -6.399568 -10.595250 12.447060 1.368917 2.589112 0.004532 -0.001398 1263020.000000 1 0 0
0.302416 6.784832 -6.644850 9.501549 1.526253 2.345275 0.004498 -0.001512 -2467030.000000 1 0 0
2.057116 3.821032 -6.178850 7.550510 1.076929 2.529305 0.001395 -0.004793 -2061560.000000 1 0 0
1.609816 -14.700868 6.458350 16.137451 -1.461726 1.159052 0.020188 -0.011679 -407275.000000 1 0 0
-1.726684 5.308032 -10.484250 11.877547 -1.256296 2.652362 0.007662 -0.005010 -262536.000000 1 0 0
13.674316 4.334132 -0.737050 14.363665 0.306938 1.622132 0.008642 -0.000723 -1866770.000000 1 0 0
-2.411284 3.363432 -6.129750 7.395999 -0.948810 2.547743 0.005529 -0.006951 -2029090.000000 1 0 0
5.784716 7.960732 14.330150 17.383596 0.942403 0.601745 0.014726 0.006442 684715.000000 1 0 0
16.053116 0.634832 -5.753250 17.064742 0.039525 1.914676 0.042991 -0.000822 221171.000000 1 0 0
6.251216 -8.441568 10.740450 15.023150 -0.933385 0.774277 0.002874 0.000737 1076560.000000 1 0 0
-0.044684 -5.911068 -6.262350 8.611605 1.563237 2.385029 -0.004183 -0.002598 -912630.000000 1 0 0
8.742916 5.489832 -7.629650 12.836993 0.560695 2.207252 -0.001030 -0.003142 -217432.000000 1 0 0
-16.044584 -0.750568 5.259350 16.901266 0.046746 1.254361 0.022055 -0.004852 -21850.600000 1 0 0
-0.422184 4.016432 -12.281450 12.928417 -1.466067 2.823897 0.007780 -0.008168 727427.000000 1 0 0
-11.291484 3.717632 5.861450 13.254245 -0.318064 1.112711 0.002412 -0.005851 -488333.000000 1 0 0
5.176816 -9.714268 -9.658950 14.644512 -1.081170 2.291031 -0.001921 -0.004673 102359.000000 1 0 0
1.557616 11.030832 -11.786950 16.218434 1.430518 2.384393 0.004150 -0.003670 -2416600.000000 1 0 0
5.894016 2.386832 1.180850 6.467674 0.384774 1.387189 0.001150 0.000803 -404799.000000 1 0 0
5.681916 4.600832 4.829150 8.761993 0.680647 0.987057 -0.001586 0.002629 -191096.000000 1 0 0
0.382316 -1.578868 -6.359050 6.563269 -1.333223 2.891480 -0.001343 -0.005539 -689777.000000 1 0 0
12.754816 6.864832 -4.573150 15.189633 0.493750 1.876611 0.011845 0.001389 -867275.000000 1 0 0
7.530516 3.272132 12.837750 15.238877 0.409903 0.569011 0.005738 0.001242 -115801.000000 1 0 0
-2.462984 -0.071168 8.658650 9.002421 0.028887 0.277244 0.005860 -0.001778 1160520.000000 1 0 0
2.140616 -15.274868 13.190850 20.295378 -1.431563 0.863286 0.013404 -0.002573 -725263.000000 1 0 0
18.789216 4.442532 -1.956550 19.406154 0.232177 1.671789 0.026900 -0.004951 707476.000000 1 0 0
-0.463584 -13.283668 7.249250 15.140092 1.535912 1.071496 0.007910 -0.002765 -1179640.000000 1 0 0
4.402516 1.623932 -0.593750 4.729888 0.353381 1.696660 0.000381 -0.001921 814339.000000 1 0 0
2.806616 -0.543768 -7.412550 7.944726 -0.191374 2.773499 -0.002804 -0.004942 600189.000000 1 0 0
7.225716 -11.291668 0.946250 13.439052 -1.001543 1.500328 0.000515 -0.000600 543732.000000 1 0 0
-11.793384 -7.305768 1.276750 13.931555 0.554620 1.479023 0.008208 -0.001684 211651.000000 1 0 0
0.128916 -7.015568 9.863350 12.104565 -1.552423 0.618334 -0.000638 -0.001849 -2492600.000000 1 0 0
-4.694184 -7.179668 10.613850 13.646861 0.991743 0.679717 0.005346 -0.001454 -1227870.000000 1 0 0
11.824916 0.754232 -1.561250 11.951360 0.063697 1.701804 0.002150 0.000970 1279550.000000 1 0 0
6.481816 -9.669068 -7.416750 13.802644 -0.980237 2.138079 0.001683 -0.009512 -1156040.000000 1 0 0
-10.878084 4.946032 3.438950 12.434723 -0.426738 1.290583 -0.002689 -0.004701 -1269020.000000 1 0 0
5.996816 -9.165668 2.173250 11.166660 -0.991426 1.374927 -0.003626 -0.002168 3380500.000000 1 0 0
11.611116 -1.327068 5.895150 13.089382 -0.113799 1.103609 0.008413 -0.005984 231824.000000 1 0 0
-6.345984 3.791432 4.065450 8.436490 -0.538545 1.067987 -0.001027 -0.002565 -1845200.000000 1 0 0
9.533916 6.258232 -3.208850 11.847267 0.580874 1.845074 0.005387 -0.000449 -262772.000000 1 0 0
-2.220584 6.473332 10.963650 12.924266 -1.240339 0.558030 -0.001181 0.001065 162155.000000 1 0 0
1.823916 9.734332 2.780350 10.286605 1.385575 1.297104 -0.004416 0.002380 -61984.900000 1 0 0
2.899916 6.093532 -5.640950 8.795508 1.126613 2.267045 -0.000151 -0.002792 -2177650.000000 1 0 0
11.980916 0.016032 -5.592750 13.222006 0.001338 2.007537 0.012993 0.002029 439481.000000 1 0 0
-2.631884 -12.394868 6.161850 14.089995 1.361567 1.118179 0.001029 0.003743 18888.200000 1 0 0
10.814216 1.807332 -2.685450 11.288284 0.165595 1.810996 0.001717 0.002816 774567.000000 1 0 0
-8.842284 5.327632 0.879650 10.360668 -0.542269 1.485791 0.001794 -0.004175 -233146.000000 1 0 0
1.272216 -10.107968 5.471150 11.563868 -1.445592 1.077962 0.001080 -0.002556 995932.000000 1 0 0
9.334516 -5.782268 -1.265350 11.053005 -0.554598 1.685528 0.004130 -0.002772 691338.000000 1 0 0
-7.697284 8.550432 -4.452850 12.336367 -0.837859 1.940086 0.003198 -0.001036 -262845.000000 1 0 0
-7.429184 0.030532 -1.589850 7.597455 -0.004110 1.781615 0.004062 -0.002124 -1428760.000000 1 0 0
4.147816 8.870632 2.656050 10.146285 1.133411 1.305935 0.001746 -0.000661 463368.000000 1 0 0
-1.313684 -10.503268 -3.784650 11.241351 1.446369 1.914177 0.005515 -0.002899 -550704.000000 1 0 0
3.263616 7.785132 -3.726150 9.227332 1.173839 1.986481 0.002394 -0.004857 -660347.000000 1 0 0
-4.296884 1.586432 -11.107250 12.014615 -0.353681 2.750461 0.007945 -0.008122 -704313.000000 1 0 0
1.297816 2.876932 10.963850 11.409079 1.147019 0.280287 0.005945 -0.003554 541371.000000 1 0 0
2.218816 5.486932 -8.038350 9.982216 1.186518 2.506922 0.001492 -0.002712 86568.800000 1 0 0
15.666316 6.084032 3.978550 17.270720 0.370424 1.338345 0.027846 -0.009966 969904.000000 1 0 0
-4.373684 9.108332 4.549950 11.081195 -1.123126 1.147683 -0.003800 0.001401 327170.000000 1 0 0
-1.033684 -8.097068 -12.399650 14.845279 1.443822 2.559400 0.005807 -0.002202 -1273460.000000 1 0 0
14.209216 -4.251368 -5.190350 15.713551 -0.290721 1.907429 0.037838 -0.004612 355611.000000 1 0 0
-5.989884 -6.268768 -5.571550 10.306227 0.808144 2.141947 0.014719 -0.005041 308991.000000 1 0 0
-8.888384 2.558932 -12.202650 15.311961 -0.280316 2.493002 0.002897 -0.008698 -383357.000000 1 0 0
10.725616 5.539732 13.762350 18.306550 0.476757 0.720051 0.031502 0.002078 979172.000000 1 0 0
-0.432284 10.990632 5.606450 12.345572 -1.531485 1.099405 -0.005467 0.006856 232733.000000 1 0 0
0.460116 11.165732 -0.576850 11.190087 1.529612 1.622369 0.000603 -0.002134 -333987.000000 1 0 0
-1.490084 -0.537268 3.847750 4.161032 0.346053 0.390522 0.003551 0.001291 777021.000000 1 0 0
-4.830484 6.789832 8.773150 12.099734 -0.952441 0.759661 -0.003106 -0.000578 -2702160.000000 1 0 0
3.445616 -8.753068 -11.359050 14.748440 -1.195779 2.449930 -0.003408 0.000928 1322900.000000 1 0 0
6.814216 -3.787868 12.054950 14.356299 -0.507344 0.574070 0.013570 -0.003884 -223131.000000 1 0 0
-2.453384 -1.905468 -12.610150 12.987139 0.660352 2.900058 0.007365 -0.009803 967691.000000 1 0 0
-16.173484 -4.969468 5.257650 17.717790 0.298104 1.269515 0.024204 -0.002576 1246560.000000 1 0 0
-8.861584 7.321132 5.710150 12.834815 -0.690493 1.109739 -0.003558 -0.006159 -3773680.000000 1 0 0
-12.851384 1.555632 5.974250 14.257269 -0.120462 1.138418 0.005742 -0.004786 133867.000000 1 0 0
-3.569184 3.685932 10.162650 11.384403 -0.801489 0.467535 0.002486 -0.001092 490320.000000 1 0 0
2.038416 -12.187868 -1.168050 12.412236 -1.405081 1.665040 -0.000125 -0.002297 -3297400.000000 1 0 0
10.247916 -5.244668 -3.636250 12.072640 -0.473026 1.876745 0.009951 -0.003085 765232.000000 1 0 0
3.311116 -13.447968 0.918250 13.880004 -1.329381 1.504592 0.008013 -0.006270 188119.000000 1 0 0
9.961516 -1.696968 -6.077250 11.791712 -0.168733 2.112251 0.013741 -0.000659 -53722.600000 1 0 0
11.911516 -5.492668 -1.590950 13.213052 -0.432065 1.691497 0.011890 -0.004046 -840739.000000 1 0 0
1.482116 1.031732 5.961350 6.228871 0.608118 0.294141 0.003624 -0.000697 333144.000000 1 0 0
-10.698984 11.654132 6.713350 17.185928 -0.828102 1.169480 0.003455 -0.008104 -771916.000000 1 0 0
4.719916 -14.115968 3.174950 15.219016 -1.248116 1.360635 0.011588 -0.009412 -3855230.000000 1 0 0
5.268616 -3.416968 -1.679350 6.500323 -0.575356 1.832109 0.003227 -0.001766 -1466340.000000 1 0 0
2.042516 -2.952668 -7.708950 8.504000 -0.965627 2.705736 -0.003682 -0.003103 354345.000000 1 0 0
-2.825784 14.847632 -8.902750 17.541271 -1.382727 2.103114 0.016638 -0.005110 -1932270.000000 1 0 0
-2.270084 6.070732 -8.108850 10.380776 -1.212956 2.467288 0.009002 -0.004948 -186344.000000 1 0 0
2.546916 -3.479668 -11.283550 12.079460 -0.938953 2.776555 0.000556 -0.002864 -680985.000000 1 0 0
14.571916 2.692532 -2.694550 15.061576 0.182715 1.750667 0.018995 0.005476 544023.000000 1 0 0
-3.544484 13.175132 2.257950 13.829165 -1.307990 1.406788 -0.007927 0.003383 -787494.000000 1 0 0
7.923716 -4.946768 14.056550 16.877275 -0.558095 0.586526 0.030404 -0.006205 -1355660.000000 1 0 0
-11.460084 7.308832 2.881250 13.894393 -0.567726 1.361913 0.001301 -0.007060 625498.000000 1 0 0
-2.266384 11.901432 4.093050 12.788028 -1.382620 1.244994 -0.004431 0.004883 -80937.600000 1 0 0
1.780316 1.462432 0.652850 2.394671 0.687681 1.294675 -0.003450 -0.000011 -1255630.000000 1 0 0
-6.814984 8.629732 5.211050 12.168456 -0.902361 1.128249 -0.008557 -0.003836 -1730160.000000 1 0 0
-1.193184 9.345832 1.099050 9.485578 -1.443813 1.454670 -0.002643 0.002198 47374.400000 1 0 0
4.931616 12.909132 -8.544150 16.247124 1.205881 2.124554 0.016521 -0.014803 -2512820.000000 1 0 0
8.897816 6.914432 7.261850 13.405781 0.660616 0.998344 -0.001857 0.000593 -1290940.000000 1 0 0
7.202916 -13.755468 2.823750 15.781903 -1.088416 1.390904 0.018303 -0.010816 426610.000000 1 0 0
4.119016 -13.228368 -1.395750 13.924946 -1.268934 1.671199 0.001251 -0.000739 -3359440.000000 1 0 0
12.207416 -11.972368 -4.528750 17.688080 -0.775678 1.829714 0.047138 -0.011382 -1147580.000000 1 0 0
2.764416 0.037632 -1.845150 3.323852 0.013612 2.159308 0.001531 -0.004370 738529.000000 1 0 0
-13.605884 -3.008568 -10.613850 17.516431 0.217621 2.221739 0.023846 -0.010424 -383542.000000 1 0 0
-6.541184 13.630532 4.994250 15.922344 -1.123364 1.251748 0.000026 -0.003951 -25290.400000 1 0 0
7.298416 -4.287668 -0.494350 8.479113 -0.531162 1.629131 0.000803 0.000214 -2012300.000000 1 0 0
11.745116 2.010432 -7.347050 13.998883 0.169529 2.123313 0.013648 0.001682 -999513.000000 1 0 0
-7.452684 -4.539968 9.716850 13.060283 0.547136 0.731759 0.007720 0.000636 69864.200000 1 0 0
1.060116 2.944232 8.524650 9.080860 1.225183 0.351814 0.002211 -0.000332 -1424910.000000 1 0 0
1.631616 7.946832 -8.814050 11.979223 1.368294 2.397611 0.005123 -0.003377 -1355410.000000 1 0 0
-8.464784 -1.994168 -5.527850 10.304678 0.231365 2.137010 0.015458 -0.003481 -890347.000000 1 0 0
6.725416 -0.404668 7.115850 9.799505 -0.060097 0.758100 0.000908 0.000750 551761.000000 1 0 0
-10.767284 6.510132 7.122750 14.458555 -0.543811 1.055684 -0.000503 -0.007811 505128.000000 1 0 0
-5.900884 11.108132 4.859650 13.484333 -1.082484 1.202108 -0.006439 -0.001968 -105774.000000 1 0 0
6.043816 -1.231568 -6.914550 9.265823 -0.201021 2.413196 0.001224 -0.000977 -857045.000000 1 0 0
4.478916 -5.718468 11.463150 13.570755 -0.906361 0.564801 0.004402 -0.002338 -1147370.000000 1 0 0
-9.038784 -7.354168 2.649950 11.950131 0.682993 1.347187 0.012434 -0.002271 -2133480.000000 1 0 0
-1.268584 12.788332 -9.471150 15.964129 -1.471921 2.205920 0.015976 0.002154 620328.000000 1 0 0
-4.575084 9.377632 -2.311550 10.687125 -1.116898 1.788812 -0.001911 0.000206 518913.000000 1 0 0
-3.313484 9.607032 -0.138350 10.163335 -1.238670 1.584409 -0.001404 -0.000001 -1811170.000000 1 0 0
-3.502284 10.739332 -6.523950 13.044584 -1.255554 2.094542 0.003594 0.002911 711680.000000 1 0 0
4.938116 -4.828768 0.361750 6.916130 -0.774203 1.518467 -0.000125 -0.001846 -1916240.000000 1 0 0
-2.267284 2.840032 -10.854150 11.446350 -0.897074 2.818516 0.009487 -0.007099 -1093540.000000 1 0 0
-3.512784 12.042532 -2.170850 12.730861 -1.286973 1.742152 -0.006315 0.004611 -205373.000000 1 0 0
-0.231384 0.446632 0.005650 0.503042 -1.092803 1.559563 -0.001669 -0.001381 -1827360.000000 1 0 0
-4.711484 -1.664168 0.112250 4.998013 0.339536 1.548335 0.005389 -0.002071 97489.400000 1 0 0
2.608916 2.572032 -2.456050 4.410666 0.778279 2.161377 -0.006736 -0.003068 1389180.000000 1 0 0
6.070416 -9.711068 8.572150 14.305123 -1.012123 0.928249 0.001021 0.000566 -261182.000000 1 0 0
-4.264884 -5.445968 6.689950 9.623058 0.906429 0.802098 0.007117 -0.002231 -141521.000000 1 0 0
-6.298184 5.320732 -12.095150 14.637963 -0.701470 2.543279 -0.001135 -0.006472 48922.100000 1 0 0
-12.865384 3.061732 7.933350 15.421749 -0.233636 1.030458 0.007922 -0.006419 482973.000000 1 0 0
4.616316 -7.480068 -4.910450 10.068481 -1.017863 2.080255 0.000029 -0.004448 181467.000000 1 0 0
-5.948184 2.470932 -1.102550 6.534678 -0.393719 1.740330 0.004314 -0.004491 -540640.000000 1 0 0
-6.947484 -2.690768 -14.550450 16.346967 0.369511 2.668363 0.008491 -0.007054 108536.000000 1 0 0
2.741716 -6.025568 1.024550 6.698819 -1.143781 1.417249 -0.000885 -0.001268 -315199.000000 1 0 0
4.795916 -7.844668 13.052450 15.965779 -1.022066 0.613693 0.006931 -0.000872 -169299.000000 1 0 0
-10.032284 -1.613768 8.077650 12.980732 0.159491 0.899144 0.008664 0.001467 154182.000000 1 0 0
-4.369984 13.294232 -0.144050 13.994789 -1.253210 1.581090 -0.009427 0.006439 966305.000000 1 0 0
6.799316 2.143332 -4.499350 8.430226 0.305368 2.133785 -0.000617 0.001799 -1480410.000000 1 0 0
4.972316 4.491232 -0.084750 6.700916 0.734606 1.583444 -0.001426 -0.001400 -778130.000000 1 0 0
-5.899684 12.254132 1.759450 13.713705 -1.122103 1.442143 -0.006121 0.001125 -533988.000000 1 0 0
6.463216 -7.347768 6.608150 11.808070 -0.849358 0.976857 -0.002006 -0.000848 -727281.000000 1 0 0
-0.327884 4.952532 7.701550 9.162367 -1.504687 0.572474 -0.002902 0.001859 -552362.000000 1 0 0
-5.781984 -3.329168 -1.507950 6.840220 0.522422 1.793076 0.010025 -0.003613 -469439.000000 1 0 0
2.223616 -6.555568 -5.281450 8.707103 -1.243780 2.222533 -0.004473 -0.001506 -968217.000000 1 0 0
-14.462484 -4.839268 -3.757050 15.706603 0.322898 1.812340 0.016512 -0.008706 8929.560000 1 0 0
-12.403584 -5.130068 -6.423650 14.880516 0.392172 2.017153 0.020666 -0.009215 -480762.000000 1 0 0
-14.718484 -3.732268 -1.202250 15.231841 0.248342 1.649809 0.007257 -0.004442 459692.000000 1 0 0
12.004916 2.999632 8.680050 15.114863 0.244853 0.959081 0.010296 -0.000678 -1782300.000000 1 0 0
8.717416 -6.579268 7.695550 13.360449 -0.646519 0.956976 0.006577 -0.003492 -82719.500000 1 0 0
-8.801684 -1.750668 -9.708350 13.220686 0.196339 2.395476 0.006413 -0.003762 -2173.840000 1 0 0
-8.726684 5.172232 -3.970250 10.893571 -0.535028 1.943847 0.007988 -0.001972 -2141690.000000 1 0 0
-3.992884 -6.219368 4.108550 8.455995 1.000060 1.063433 0.013611 -0.001036 -793718.000000 1 0 0
-0.221684 -9.110868 3.581150 9.791920 1.546469 1.196385 0.002964 -0.001741 966419.000000 1 0 0
7.866816 -10.548368 3.382350 13.586580 -0.929998 1.319203 0.000923 -0.003960 -626132.000000 1 0 0
0.036716 6.552132 9.650450 11.664604 1.565193 0.596463 -0.000462 0.000287 27958.700000 1 0 0
-0.036684 3.398332 -9.764850 10.339357 -1.560002 2.806668 0.007603 -0.007988 -282055.000000 1 0 0
4.551716 -3.112368 11.071650 12.368767 -0.599756 0.462074 0.003843 -0.004314 -2367040.000000 1 0 0
8.655616 -9.235568 1.380550 12.732687 -0.817802 1.462157 -0.000514 -0.002581 -477898.000000 1 0 0
-0.147884 -0.492668 11.598750 11.610151 1.279184 0.044319 0.011625 -0.004963 -1811550.000000 1 0 0
10.889316 6.113332 11.360550 16.882303 0.511558 0.832638 0.011607 0.002035 -43556.400000 1 0 0
-6.419884 -2.838868 -11.843650 13.767575 0.416348 2.606569 0.008351 -0.004769 537501.000000 1 0 0
-1.587384 2.866732 8.564850 9.170311 -1.065097 0.365414 0.004362 -0.002143 -367324.000000 1 0 0
-1.637684 13.505132 -6.934350 15.269440 -1.450122 2.042195 0.013465 -0.000325 461936.000000 1 0 0
7.782016 3.127032 9.785750 12.887941 0.382081 0.708567 0.004344 0.001970 554084.000000 1 0 0
6.496416 8.489632 -8.006650 13.356037 0.917627 2.213645 0.007241 -0.006523 293193.000000 1 0 0
6.640616 -3.113768 -3.856050 8.286281 -0.438457 2.054830 0.004205 -0.001943 -3159590.000000 1 0 0
2.057016 8.199332 0.933050 8.504760 1.324993 1.460866 -0.002260 0.001330 885427.000000 1 0 0
-17.552384 6.363832 6.436850 19.748863 -0.347822 1.238795 0.032496 -0.010543 -102118.000000 1 0 0
-14.489784 3.143832 -10.135450 17.960091 -0.213657 2.170420 0.034786 -0.013455 -808905.000000 1 0 0
-18.414984 0.146032 -4.386850 18.930859 -0.007930 1.804652 0.057571 -0.016635 81760.600000 1 0 0
-13.188384 7.864432 0.105750 15.355584 -0.537706 1.563909 0.011900 -0.003472 -1013480.000000 1 0 0
-12.761784 -4.477968 -12.674550 18.535359 0.337466 2.323759 0.034888 -0.000697 -812284.000000 1 0 0
-17.342184 -0.685468 -8.621650 19.379217 0.039505 2.031849 0.038179 -0.021824 -432226.000000 1 0 0
-16.668784 -2.058868 -1.852550 16.897314 0.122894 1.680653 0.038159 -0.011980 -1479620.000000 1 0 0
-15.247184 4.196332 1.670050 15.902040 -0.268571 1.465581 0.013680 -0.004117 -2233970.000000 1 0 0
-13.017984 5.892432 4.447650 14.965636 -0.425045 1.269047 0.004527 -0.005333 -276895.000000 1 0 0
-10.030784 14.220932 2.813450 17.628586 -0.956486 1.410515 0.017752 -0.001142 98501.400000 1 0 0
-11.833984 2.474032 -6.388750 13.674068 -0.206093 2.056936 0.007795 0.000327 137576.000000 1 0 0
-15.822684 10.619732 4.015550 19.474616 -0.591115 1.363112 0.020996 -0.015015 1157210.000000 1 0 0
-12.908184 1.151132 -8.468350 15.480932 -0.088943 2.149594 0.017786 -0.004303 551263.000000 1 0 0
-12.279384 14.347032 4.184150 19.342381 -0.862897 1.352752 0.035647 -0.013933 79057.500000 1 0 0
-10.317684 11.186532 -1.021450 15.252425 -0.825780 1.637816 0.018557 -0.003787 177360.000000 1 0 0
-17.366084 5.783932 9.042350 20.415652 -0.321504 1.111952 0.056203 -0.013727 75556.900000 1 0 0
-11.806184 12.622632 -9.193250 19.576329 -0.818807 2.059646 0.035193 -0.013966 -727219.000000 1 0 0
-17.293784 -0.366068 3.079150 17.569580 0.021164 1.394632 0.042038 -0.009158 1153960.000000 1 0 0
-13.460484 14.720932 -0.460350 19.952503 -0.830095 1.593871 0.060058 -0.018479 63916.900000 1 0 0
-16.676784 4.696132 -10.175750 20.092652 -0.274489 2.101849 0.079912 -0.020785 610628.000000 1 0 0
-11.806184 7.656632 -9.003850 16.705667 -0.575339 2.140010 0.019222 -0.001352 -625396.000000 1 0 0
-14.701384 13.434332 -2.185450 20.034674 -0.740395 1.680097 0.050800 -0.017538 180416.000000 1 0 0
-11.791284 10.620632 -5.415150 16.767709 -0.733212 1.899642 0.038662 -0.011894 771297.000000 1 0 0
-17.649284 2.748932 -0.904950 17.884988 -0.154512 1.621416 0.030761 -0.008299 -237247.000000 1 0 0
-9.390584 15.347532 0.574450 18.001661 -1.021700 1.538880 0.021625 -0.003893 122714.000000 1 0 0
-8.103784 13.188332 -3.788950 15.936109 -1.019808 1.810854 0.012072 -0.003539 -1240180.000000 1 0 0
-17.915884 11.646532 2.470250 21.510991 -0.576423 1.455706 0.084632 -0.010196 4757.510000 1 0 0
-8.053784 15.617432 -7.460050 19.089787 -1.094674 1.972283 0.045640 -0.026444 -295953.000000 1 0 0
-6.247884 15.269832 -5.522750 17.398408 -1.182414 1.893813 0.010895 -0.005128 -222199.000000 1 0 0
-17.479484 5.274532 -0.209350 18.259159 -0.293067 1.582262 0.038397 -0.003063 362099.000000 1 0 0
-5.392984 12.246432 -12.238850 18.134189 -1.155978 2.311632 0.000670 -0.007353 -746357.000000 1 0 0
-11.195184 3.725532 -11.343450 16.367211 -0.321252 2.336521 0.010792 -0.007153 518713.000000 1 0 0
-11.834384 11.078832 1.241250 16.258348 -0.752436 1.494377 0.014865 -0.005390 517921.000000 1 0 0
-12.907084 0.243332 -10.956750 16.932288 -0.018850 2.274560 0.018354 -0.010500 -1006420.000000 1 0 0
-13.958184 -2.186868 -13.120850 19.281338 0.155409 2.319234 0.033681 -0.009303 -40744.100000 1 0 0
-18.786184 -2.303968 -3.570650 19.260802 0.122032 1.757259 0.049916 -0.017196 1828900.000000 1 0 0
-18.329384 4.715732 -5.189750 19.624932 -0.251816 1.838427 0.050928 -0.009465 -150412.000000 1 0 0
-8.222884 15.473332 -2.410950 17.687637 -1.082328 1.707529 0.021652 -0.001439 -624778.000000 1 0 0
-16.365884 9.037932 -5.320650 19.437996 -0.504563 1.848059 0.052955 -0.010985 218613.000000 1 0 0
-18.256884 1.799832 1.963650 18.450180 -0.098266 1.464164 0.054335 -0.010344 278489.000000 1 0 0
-15.734984 -2.694368 -8.699950 18.180717 0.169589 2.069772 0.026166 -0.011225 -277438.000000 1 0 0
-9.673684 10.500432 -7.228550 16.002849 -0.826356 2.039471 0.021397 -0.008579 922588.000000 1 0 0
-13.764884 12.099232 -7.506150 19.804185 -0.721087 1.959532 0.050387 -0.024269 411291.000000 1 0 0
-10.950184 6.627732 -3.807650 13.354084 -0.544280 1.859938 0.009863 -0.001325 107542.000000 1 0 0
-13.023984 5.107632 -12.814650 18.971750 -0.373739 2.312384 0.049394 -0.017666 716509.000000 1 0 0
-17.626384 9.053632 2.785150 20.010366 -0.474501 1.431158 0.035904 -0.018537 1019490.000000 1 0 0
-13.519284 8.918332 -6.518950 17.458648 -0.583147 1.953461 0.032699 -0.001362 -1066350.000000 1 0 0
-15.799684 7.002432 -3.798950 17.694521 -0.417185 1.787177 0.023459 -0.001120 -1150110.000000 1 0 0
-14.892484 -0.370968 -9.376750 17.602475 0.024905 2.132578 0.028662 -0.012400 100603.000000 1 0 0
-10.080884 5.832032 -6.092650 13.143713 -0.524479 2.052784 0.007082 -0.000166 477843.000000 1 0 0
-12.593984 12.238532 -1.027950 17.591100 -0.771085 1.629265 0.029424 -0.005549 -456189.000000 1 0 0
-10.498284 3.440832 -13.895650 17.752250 -0.316719 2.469876 0.006849 -0.011960 479867.000000 1 0 0
-10.861284 6.217032 -11.983850 17.327193 -0.519880 2.334527 0.005693 -0.004524 -1175640.000000 1 0 0
-5.774384 11.680432 -14.803150 19.720782 -1.111668 2.419822 0.008679 -0.008835 -316059.000000 1 0 0
-15.570984 13.221132 3.471550 20.719690 -0.703964 1.402454 0.030008 -0.022380 -97640.900000 1 0 0
-15.416284 11.096432 -3.181850 19.259200 -0.623882 1.736769 0.058034 -0.007558 664359.000000 1 0 0
-18.264984 7.606632 -4.481650 20.286835 -0.394615 1.793548 0.047532 -0.008958 -261972.000000 1 0 0
-4.074084 16.245932 -10.753750 19.904060 -1.325088 2.141565 0.030868 -0.005206 -27762.700000 1 0 0
-15.795284 4.483132 -4.620650 17.056960 -0.276554 1.845119 0.025263 0.001508 -362695.000000 1 0 0
-18.776484 -1.833468 -6.092350 19.825102 0.097338 1.883156 0.048850 -0.019930 771187.000000 1 0 0
-10.939384 8.571532 -5.994650 15.135293 -0.664628 1.978030 0.019532 -0.001124 1268600.000000 1 0 0
-11.043584 13.678132 -6.761450 18.835319 -0.891566 1.937968 0.040612 -0.012547 -84407.500000 1 0 0
-9.459384 10.345832 -4.527050 14.731272 -0.830127 1.883160 0.011004 -0.004724 -790610.000000 1 0 0
-10.999084 6.505332 -0.171250 12.780005 -0.534104 1.584197 0.004046 -0.003160 -629970.000000 1 0 0
-14.723384 9.451632 -1.406950 17.552518 -0.570693 1.651039 0.031960 -0.001038 112453.000000 1 0 0
-18.527484 3.526032 4.763150 19.452202 -0.188065 1.323417 0.038355 -0.010931 292858.000000 1 0 0
-14.768184 12.678532 0.335350 19.466815 -0.709410 1.553569 0.036412 -0.023484 -60688.100000 1 0 0
-16.609384 2.437432 -8.887950 18.994956 -0.145710 2.057722 0.034435 -0.019155 -94609.600000 1 0 0
-9.172684 8.362732 -8.933150 15.292959 -0.739241 2.194610 0.009845 -0.000166 -1940230.000000 1 0 0
-17.566984 4.702032 -2.688550 18.383045 -0.261532 1.717574 0.018225 -0.001801 748911.000000 1 0 0
-13.523084 5.853332 -4.361350 15.367390 -0.408492 1.858557 0.020240 0.001469 -577330.000000 1 0 0
-12.096084 9.592232 3.352950 15.797735 -0.670460 1.356927 0.007051 -0.007618 -13673.000000 1 0 0
-17.533084 2.569832 -4.168650 18.204140 -0.145534 1.801841 0.030068 -0.006788 955563.000000 1 0 0
-11.211384 1.413432 -12.522250 16.867118 -0.125410 2.407451 0.013916 -0.006194 -279276.000000 1 0 0
-11.099684 11.997332 3.545650 16.724551 -0.824243 1.357173 0.012613 -0.007861 463514.000000 1 0 0
-16.684584 13.284132 -3.909550 21.682437 -0.672415 1.752097 0.070862 -0.015439 -234903.000000 1 0 0
-11.074784 4.178232 -4.598350 12.698554 -0.360763 1.941333 0.004141 -0.002081 -429701.000000 1 0 0
-10.949384 15.017132 -9.022150 20.659198 -0.940789 2.022738 0.038646 -0.019496 397550.000000 1 0 0
-15.573584 7.132832 -0.315750 17.132236 -0.429494 1.589228 0.026333 -0.002796 -776607.000000 1 0 0
-12.811884 8.391832 -4.069650 15.847059 -0.579885 1.830514 0.025942 -0.003482 753822.000000 1 0 0
-19.214084 2.008732 -6.154550 20.275466 -0.104166 1.879209 0.062843 -0.013333 823794.000000 1 0 0
-12.627584 10.134732 -8.916450 18.484365 -0.676316 2.074164 0.034708 -0.014667 484855.000000 1 0 0
-16.871584 10.953032 -0.991650 20.139579 -0.575813 1.620055 0.046089 -0.009867 529722.000000 1 0 0
-10.555384 6.526532 -14.586050 19.151099 -0.553776 2.436621 0.014344 -0.020341 -381465.000000 1 0 0
-14.246984 12.904832 -4.602550 19.765999 -0.736007 1.805805 0.064101 -0.012584 -43936.700000 1 0 0
-18.006884 7.861732 0.004550 19.648275 -0.411651 1.570565 0.048565 -0.008413 -572946.000000 1 0 0
-12.742384 6.593832 -2.085150 14.498097 -0.477528 1.715119 0.006447 0.000221 840057.000000 1 0 0
-13.751184 8.512632 -10.663350 19.371809 -0.554307 2.153708 0.040981 -0.011027 -377873.000000 1 0 0
-14.915184 1.475832 -0.927050 15.016664 -0.098627 1.632570 0.007980 -0.003845 -1471090.000000 1 0 0
-13.422484 2.871832 -2.484050 13.949229 -0.210779 1.749829 0.008959 -0.002373 699970.000000 1 0 0
-11.264284 9.407132 -10.850250 18.251196 -0.695797 2.207434 0.024833 -0.009541 -619197.000000 1 0 0
-15.230184 4.322232 -7.982150 17.730057 -0.276523 2.037791 0.029064 -0.006037 627821.000000 1 0 0
-18.284684 10.334632 4.818550 21.548845 -0.514443 1.345279 0.074737 -0.041151 628653.000000 1 0 0
-15.260284 6.330132 -6.230650 17.656949 -0.393209 1.931436 0.031019 0.003122 641261.000000 1 0 0
-7.792084 11.275132 -13.174250 19.010682 -0.966078 2.336427 -0.003339 -0.001231 -568722.000000 1 0 0
-17.012884 9.051332 -2.705950 19.459882 -0.488941 1.710301 0.043789 -0.009956 862911.000000 1 0 0
-20.781484 -1.030368 -4.581950 21.305539 0.049540 1.787549 0.087258 -0.028291 1167510.000000 1 0 0
-15.339184 4.478032 4.219950 16.527290 -0.284041 1.312605 0.017332 -0.004036 -174940.000000 1 0 0
-6.949384 12.470332 -9.607750 17.207904 -1.062386 2.163172 0.007226 -0.008196 -1688350.000000 1 0 0
-17.092884 1.633732 5.913450 18.160525 -0.095290 1.239128 0.026792 -0.013180 357877.000000 1 0 0
-10.331684 14.345032 -3.222350 17.969618 -0.946624 1.751094 0.037589 -0.016968 341608.000000 1 0 0
-9.949184 8.491532 -13.011850 18.449949 -0.706517 2.353574 -0.001804 -0.006308 -314509.000000 1 0 0
-13.661484 11.624632 2.859550 18.164395 -0.705020 1.412713 0.027547 -0.011182 -2527910.000000 1 0 0
-16.765584 6.704932 1.920450 18.158443 -0.380439 1.464837 0.023527 -0.005431 716460.000000 1 0 0
-9.286184 13.232432 -8.575850 18.299608 -0.958880 2.058542 0.025361 -0.020639 -957559.000000 1 0 0
-5.688184 9.747532 -13.005550 17.219586 -1.042559 2.426872 0.003395 -0.001806 55287.200000 1 0 0
-15.978484 2.021132 3.219850 16.424505 -0.125823 1.373479 0.015225 -0.005962 362178.000000 1 0 0
-18.831284 -4.830168 4.547950 19.965761 0.251084 1.340992 0.062784 -0.005248 715942.000000 1 0 0
-5.325784 14.405832 -9.285550 17.947518 -1.216684 2.114574 0.008442 -0.004878 -3597.920000 1 0 0
-15.363784 -0.782468 -6.769850 16.807408 0.050885 1.985359 0.018134 -0.006493 630545.000000 1 0 0
-8.939884 10.869432 -9.660650 17.070273 -0.882498 2.172362 0.008062 -0.011629 80022.300000 1 0 0
-16.760084 1.227532 -6.158650 17.897939 -0.073111 1.922075 0.022729 -0.006587 -635252.000000 1 0 0
-11.310584 8.779232 -1.500850 14.396415 -0.660057 1.675238 0.007688 -0.003159 345799.000000 1 0 0
-10.658584 10.963232 -12.793450 19.936655 -0.799487 2.267515 0.026627 -0.008196 -700748.000000 1 0 0
-14.133184 11.876832 -10.064550 21.026202 -0.698865 2.069932 0.065815 -0.020325 -183833.000000 1 0 0
-13.193384 5.910032 -7.694250 16.376670 -0.421151 2.059894 0.026829 0.002337 -351042.000000 1 0 0
-8.805484 15.338932 -5.039650 18.390689 -1.049668 1.848380 0.029883 -0.018162 -231902.000000 1 0 0
-8.540684 6.171132 -13.091350 16.805046 -0.625705 2.463886 -0.002980 -0.006963 -224206.000000 1 0 0
-16.336284 7.557832 4.361550 18.520748 -0.433316 1.333068 0.028337 -0.006470 -129680.000000 1 0 0
-12.703984 5.552732 -10.242250 17.237393 -0.412063 2.207052 0.025982 -0.001746 413544.000000 1 0 0
-12.452684 9.135332 -13.227050 20.334170 -0.632924 2.279018 0.051024 -0.020657 -415085.000000 1 0 0
-10.890984 5.167332 -8.480450 14.738822 -0.443007 2.183867 0.007868 0.002492 -369511.000000 1 0 0
-17.564384 -4.431768 -2.511250 18.288098 0.247157 1.708548 0.025880 -0.013260 -66420.600000 1 0 0
-8.948884 13.143532 -11.121650 19.404279 -0.973033 2.181147 0.030066 -0.011330 116086.000000 1 0 0
-15.002484 6.246732 6.107250 17.360723 -0.394547 1.211318 0.017495 -0.010190 -532083.000000 1 0 0
-16.355084 -2.995568 -4.315050 17.177947 0.181150 1.824713 0.022456 -0.009317 -118846.000000 1 0 0
-11.218884 -1.160168 -12.483350 16.823893 0.103046 2.406847 0.014851 -0.007195 1140880.000000 1 0 0
-15.506284 6.941932 -8.616750 19.049505 -0.420927 2.040178 0.047873 -0.000130 466829.000000 1 0 0
-14.994084 9.254532 1.206950 17.661417 -0.552980 1.502405 0.031536 -0.010021 -218071.000000 1 0 0
-19.484984 5.415532 7.787150 21.671001 -0.271092 1.203241 0.073018 -0.026636 -1655070.000000 1 0 0
-16.258584 0.606132 0.992950 16.300150 -0.037263 1.509842 0.028716 -0.009458 -1532990.000000 1 0 0
-17.531484 3.862432 7.161950 19.327826 -0.216850 1.191194 0.030797 -0.008712 525163.000000 1 0 0
-15.425584 4.048032 -1.389250 16.008286 -0.256637 1.657689 0.009438 -0.003818 -2315180.000000 1 0 0
-10.732284 13.280832 0.372950 17.079272 -0.891134 1.548958 0.026342 -0.009891 -871536.000000 1 0 0
-13.495484 3.458732 0.015650 13.931660 -0.250888 1.569673 0.009145 -0.001935 -1005210.000000 1 0 0
-15.173484 0.093332 -4.314250 15.775173 -0.006151 1.847809 0.020263 -0.002835 299811.000000 1 0 0
-18.739084 6.886332 3.673050 20.299412 -0.352166 1.388850 0.037228 -0.011642 -64806.700000 1 0 0
-14.171184 1.464332 -6.255650 15.559559 -0.102966 1.984546 0.019083 -0.002627 -239352.000000 1 0 0
-14.132084 12.178732 5.304950 19.395356 -0.711293 1.293749 0.017575 -0.013356 121716.000000 1 0 0
17.697416 5.531532 6.261850 19.570569 0.302941 1.245106 0.055855 -0.016884 30605.900000 1 0 0
18.551716 7.552932 -0.224650 20.031561 0.386636 1.582011 0.053773 -0.007735 331289.000000 1 0 0
16.411816 5.298932 8.578250 19.261692 0.312307 1.109228 0.060149 -0.009383 210129.000000 1 0 0
11.840316 12.421832 10.866050 20.311722 0.809362 1.006331 0.039732 -0.005238 673634.000000 1 0 0
-2.312284 16.302532 -0.632550 16.477844 -1.429900 1.609194 -0.001062 0.000369 -216922.000000 1 0 0
15.174116 12.566132 3.316350 19.978980 0.691659 1.404032 0.063910 -0.009973 560689.000000 1 0 0
13.482016 11.830532 6.420650 19.051273 0.720247 1.227047 0.046779 -0.010962 794017.000000 1 0 0
-0.561784 16.010432 8.588350 18.177164 -1.535722 1.078694 -0.001958 0.008900 64792.400000 1 0 0
0.799616 12.747032 9.379850 15.846382 1.508149 0.937353 -0.003400 0.005636 -3019670.000000 1 0 0
0.744216 15.483032 -4.040850 16.018945 1.522767 1.825806 0.011069 -0.002484 -1714870.000000 1 0 0
5.473916 10.361932 13.492850 17.871497 1.084788 0.715153 0.018992 -0.004499 228198.000000 1 0 0
-1.396084 16.461132 -2.917250 16.775824 -1.486188 1.745581 0.004836 -0.000821 -484398.000000 1 0 0
8.507816 10.056732 3.287450 13.576750 0.868639 1.326227 0.004693 0.000813 681023.000000 1 0 0
12.556616 13.656632 -4.854050 19.176392 0.827338 1.826707 0.062985 -0.003415 -239665.000000 1 0 0
2.460416 11.564532 7.878850 14.208038 1.361167 0.982993 0.001616 0.008555 90407.400000 1 0 0
-0.304184 14.943132 -8.828850 17.359099 -1.550443 2.104355 0.018404 -0.001544 -1656210.000000 1 0 0
2.300016 15.821432 0.070150 15.987893 1.426434 1.566409 0.007747 -0.012772 -162852.000000 1 0 0
1.957216 13.375632 5.273350 14.510219 1.425500 1.198857 -0.000595 0.007129 -868906.000000 1 0 0
17.569516 9.124032 -2.027150 19.900884 0.478976 1.672836 0.043415 -0.003480 320115.000000 1 0 0
-7.182584 14.913732 7.272150 18.080185 -1.121970 1.156860 0.006579 -0.010405 -1142520.000000 1 0 0
8.490316 15.852132 -0.211650 17.983892 1.079080 1.582565 0.011747 -0.005485 -2011110.000000 1 0 0
15.617216 10.353032 2.067450 18.850917 0.585407 1.460902 0.043085 -0.004250 13624.300000 1 0 0
14.241616 7.738532 8.697250 18.394311 0.497742 1.078305 0.038403 -0.011624 -633648.000000 1 0 0
4.095616 18.404132 -1.878350 18.947674 1.351827 1.670093 0.027501 -0.021379 -1100600.000000 1 0 0
-0.462184 17.594132 -4.919150 18.274713 -1.544533 1.843336 0.020935 -0.005198 251508.000000 1 0 0
1.244516 13.664432 -0.740350 13.740948 1.479970 1.624702 -0.000552 -0.006349 660978.000000 1 0 0
10.038816 14.622132 4.215750 18.230665 0.969155 1.337439 0.021652 -0.011105 -412588.000000 1 0 0
-1.732884 15.339032 -5.230350 16.298630 -1.458301 1.897484 0.011574 -0.004830 81742.900000 1 0 0
15.110916 8.718932 -6.084350 18.476441 0.523333 1.906362 0.053158 -0.002395 -164228.000000 1 0 0
-2.384584 18.524232 0.826450 18.695359 -1.442773 1.526576 0.006712 -0.001531 278367.000000 1 0 0
-3.836584 19.323032 3.332550 19.980111 -1.374796 1.403220 0.014075 -0.005028 382194.000000 1 0 0
1.746816 17.639032 -2.778050 17.941694 1.472087 1.726259 0.013424 -0.011085 -427575.000000 1 0 0
2.936616 12.080432 3.320050 12.867917 1.332333 1.309834 -0.000605 0.003621 -819852.000000 1 0 0
-2.656784 16.109532 1.840850 16.430589 -1.407348 1.458523 -0.000060 -0.002271 -1740900.000000 1 0 0
11.772616 12.845632 -2.576250 17.613683 0.828957 1.717587 0.030465 0.006134 445198.000000 1 0 0
7.196916 11.706532 4.710950 14.526925 1.019582 1.240534 -0.000840 0.004153 149848.000000 1 0 0
7.008516 15.552532 1.767450 17.150057 1.147414 1.467555 0.006744 -0.010605 -2876670.000000 1 0 0
5.529616 12.277832 10.228150 16.909668 1.147631 0.921194 0.006764 0.009266 434954.000000 1 0 0
-1.405984 14.192032 3.107050 14.596038 -1.472050 1.356286 -0.003087 0.003335 -1157400.000000 1 0 0
4.521716 16.006232 1.342650 16.686764 1.295473 1.490247 0.008119 -0.013078 -4052170.000000 1 0 0
7.333216 13.253132 11.897750 19.260790 1.065408 0.904958 0.021332 -0.000794 204598.000000 1 0 0
0.828016 17.230332 -9.334850 19.614010 1.522778 2.066815 0.034702 -0.008854 320249.000000 1 0 0
9.923316 9.720732 15.473750 20.794273 0.775086 0.731557 0.035664 -0.001773 -176722.000000 1 0 0
13.560016 7.580632 -0.113150 15.535534 0.509760 1.578080 0.009548 -0.000717 317847.000000 1 0 0
12.359816 13.621532 -0.077750 18.393402 0.833922 1.575023 0.036395 -0.000408 567189.000000 1 0 0
9.416116 12.257332 3.229350 15.790318 0.915747 1.364829 0.011036 0.002049 212383.000000 1 0 0
-0.745284 12.840432 0.803450 12.887113 -1.512819 1.508411 -0.003136 -0.001168 -1325280.000000 1 0 0
16.065316 7.315632 -0.876550 17.674309 0.427309 1.620411 0.034060 -0.001598 -1209640.000000 1 0 0
-4.162384 18.526832 -2.499950 19.152512 -1.349798 1.701698 0.010690 -0.000378 -296670.000000 1 0 0
11.527916 9.179932 -3.274550 15.095916 0.672494 1.789451 0.019040 0.000894 -30046.800000 1 0 0
14.786316 9.944732 7.558050 19.356058 0.592074 1.169649 0.052540 -0.020554 1550580.000000 1 0 0
4.459516 13.753832 4.622650 15.179726 1.257254 1.261354 0.000645 0.006714 10653.100000 1 0 0
2.141216 16.015732 5.539850 17.081523 1.437890 1.240505 0.006245 0.002676 281925.000000 1 0 0
6.167816 18.467332 5.166750 20.143972 1.248459 1.311406 0.025024 -0.020067 89887.300000 1 0 0
10.699116 17.128232 -0.783550 20.210427 1.012450 1.609576 0.034565 -0.006935 -99502.600000 1 0 0
9.964116 13.528832 -4.474050 17.387640 0.935985 1.831036 0.041971 -0.003191 823172.000000 1 0 0
16.678316 7.936532 2.246350 18.606474 0.444149 1.449772 0.030032 -0.006465 341138.000000 1 0 0
3.932616 13.975532 -0.624450 14.531721 1.296496 1.613781 0.003784 -0.008258 741775.000000 1 0 0
5.566016 13.075232 -2.492350 14.427545 1.168340 1.744417 0.005333 -0.006703 98668.200000 1 0 0
-6.141684 16.966732 -3.120650 18.311983 -1.223486 1.742048 0.012090 -0.002490 -1214430.000000 1 0 0
18.166916 10.079732 2.623150 20.940840 0.506552 1.445202 0.053737 -0.004897 710737.000000 1 0 0
7.910516 12.968032 9.383150 17.854681 1.023055 1.017460 0.013059 0.000208 370855.000000 1 0 0
-2.570784 15.790832 6.704550 17.346767 -1.409410 1.173961 -0.001781 0.003590 1073020.000000 1 0 0
10.851316 16.165232 6.272250 20.454997 0.979610 1.259139 0.040908 -0.010194 -132527.000000 1 0 0
13.513216 11.879032 1.374750 18.044621 0.721129 1.494536 0.047867 -0.007350 558680.000000 1 0 0
17.555916 7.826732 -5.511150 19.996017 0.419370 1.850023 0.058557 0.012475 296461.000000 1 0 0
9.493316 9.322832 7.997350 15.524042 0.776338 1.029603 0.007213 -0.000465 -131440.000000 1 0 0
-2.069884 14.151932 -2.028050 14.445573 -1.425565 1.711654 -0.000727 0.000509 450623.000000 1 0 0
10.946016 11.643732 0.658650 15.994549 0.816275 1.529605 0.018737 0.000644 -496332.000000 1 0 0
11.762716 9.746632 -0.657350 15.290207 0.691941 1.613801 0.016740 0.000564 -1596190.000000 1 0 0
-0.303684 16.315732 11.216950 19.801902 -1.552186 0.968595 0.006545 0.006026 -475644.000000 1 0 0
2.052716 20.050632 -1.900850 20.244869 1.468775 1.664828 0.036259 -0.020998 -223723.000000 1 0 0
9.257716 14.263532 1.726750 17.091967 0.995091 1.469597 0.014454 -0.004261 -471589.000000 1 0 0
8.537416 11.600432 -5.237550 15.326103 0.936344 1.919565 0.020056 -0.000648 -822024.000000 1 0 0
10.631216 10.120432 10.243250 17.898885 0.760789 0.961508 0.011148 -0.004736 518928.000000 1 0 0
-5.087984 15.726632 5.777950 17.509976 -1.257898 1.234513 -0.006744 -0.001053 839028.000000 1 0 0
14.481216 9.081332 -1.940450 17.202952 0.560116 1.683834 0.034255 0.003831 -341727.000000 1 0 0
12.177316 9.635432 6.795850 16.950285 0.669389 1.158266 0.019341 -0.011481 -709287.000000 1 0 0
3.204316 12.998432 9.782150 16.580632 1.329100 0.939769 0.004087 0.005191 -1067330.000000 1 0 0
8.422116 12.555432 -2.686450 15.355388 0.979941 1.746653 0.015377 0.000589 -1074620.000000 1 0 0
9.227216 16.879832 1.983950 19.339243 1.070535 1.468029 0.011285 -0.010600 -449613.000000 1 0 0
9.468816 14.157532 -7.585950 18.645129 0.981306 1.989810 0.057410 -0.008465 -1180340.000000 1 0 0
6.393216 11.390332 7.290350 14.958679 1.059331 1.061726 -0.000329 0.005425 -391516.000000 1 0 0
5.414416 16.850832 -5.735750 18.605517 1.259901 1.884183 0.031448 -0.003256 -350163.000000 1 0 0
-4.151984 17.254532 -4.737550 18.368512 -1.334654 1.831662 0.011216 -0.005765 167724.000000 1 0 0
-0.329784 18.628132 -0.726050 18.645193 -1.553095 1.609746 0.007912 -0.005213 -798369.000000 1 0 0
6.528616 15.563032 -2.847850 17.115521 1.173598 1.737964 0.012861 -0.002508 290536.000000 1 0 0
-0.819384 20.695132 0.698950 20.723137 -1.531224 1.537062 0.019102 -0.006155 -75094.100000 1 0 0
-1.380384 18.831132 4.135050 19.329140 -1.497624 1.355202 0.005950 -0.003249 132831.000000 1 0 0
7.180516 13.679532 -4.525350 16.098702 1.087420 1.855737 0.014735 0.002080 -189829.000000 1 0 0
-1.026484 11.974432 7.660050 14.251915 -1.485282 1.003356 -0.004865 0.009703 525190.000000 1 0 0
7.644816 10.906232 10.931350 17.230309 0.959427 0.883531 0.011082 -0.000145 364631.000000 1 0 0
1.512816 16.008332 -7.292850 17.656188 1.476574 1.996594 0.019256 -0.009102 -356696.000000 1 0 0
8.938816 7.250832 14.889150 18.819240 0.681510 0.658083 0.026024 0.004890 773344.000000 1 0 0
11.429816 11.369832 -4.756150 16.808770 0.782767 1.857671 0.045800 0.002424 -178185.000000 1 0 0
-3.361784 17.010832 4.432650 17.897441 -1.375684 1.320522 -0.000672 0.001681 -213654.000000 1 0 0
3.928916 15.179432 -6.780850 17.083075 1.317523 1.978970 0.023829 -0.011378 -1625810.000000 1 0 0
-4.309184 14.089332 9.425250 17.490389 -1.273984 1.001687 0.006202 -0.006620 111881.000000 1 0 0
6.154216 17.644332 0.260650 18.688627 1.235197 1.556849 0.008383 -0.020977 -328265.000000 1 0 0
9.843116 10.667432 -2.170250 14.676206 0.825566 1.719216 0.016247 0.001491 -890779.000000 1 0 0
7.139716 18.036232 -2.803550 19.599518 1.193869 1.714330 0.022361 -0.005823 202623.000000 1 0 0
3.516516 10.409032 10.566150 15.243273 1.245001 0.804921 0.002348 0.009115 1313790.000000 1 0 0
0.029416 18.606532 1.891450 18.702446 1.569215 1.469489 0.013681 -0.008110 -318679.000000 1 0 0
-0.930284 17.081432 -7.493150 18.675868 -1.516388 1.983646 0.031924 -0.007352 32629.500000 1 0 0
10.083716 8.724032 13.038950 18.649512 0.713230 0.796578 0.021711 -0.004067 -78682.000000 1 0 0
3.719716 11.474232 5.645350 13.317818 1.257306 1.133055 -0.002619 0.007559 250332.000000 1 0 0
13.045116 13.911532 8.097050 20.718784 0.817528 1.169288 0.055651 -0.019915 15891.900000 1 0 0
-0.681984 17.455932 6.651250 18.692614 -1.531747 1.207002 0.005647 0.002508 -520319.000000 1 0 0
11.874116 13.810932 5.745650 19.098403 0.860662 1.265218 0.034758 -0.004759 -246918.000000 1 0 0
4.805516 14.556432 -4.512550 15.979543 1.251931 1.857087 0.009554 -0.002427 -940649.000000 1 0 0
3.823816 17.601432 4.316850 18.522073 1.356876 1.335568 0.016810 -0.009407 -828306.000000 1 0 0
6.976516 11.602732 2.001450 13.685795 1.029435 1.424027 0.004592 0.000621 1225170.000000 1 0 0
6.533116 8.729932 11.844550 16.099276 0.928347 0.744068 0.011707 0.001163 447775.000000 1 0 0
-5.418184 14.921832 1.623150 15.957832 -1.222495 1.468905 -0.003006 0.005330 -91832.200000 1 0 0
6.770816 13.694732 6.033250 16.425278 1.111631 1.194676 0.001286 -0.000088 -315912.000000 1 0 0
5.854116 15.884332 4.742750 17.580568 1.217695 1.297640 0.002984 -0.008257 450795.000000 1 0 0
1.231916 17.999332 4.082750 18.497633 1.502461 1.348246 0.016137 -0.006504 1020020.000000 1 0 0
7.444916 18.029332 -6.897450 20.689572 1.179190 1.910681 0.033036 -0.003752 511922.000000 1 0 0
-2.521184 18.740732 -6.128250 19.877798 -1.437070 1.884198 0.033440 -0.003741 77290.800000 1 0 0
13.625316 10.021532 -4.415450 17.480748 0.634162 1.826152 0.039068 0.002429 -1746560.000000 1 0 0
-1.557484 18.184832 9.839750 20.734864 -1.485357 1.076342 0.015784 0.001017 -171541.000000 1 0 0
3.373616 11.713132 -1.654050 12.301001 1.290366 1.705669 0.005916 -0.005242 76265.000000 1 0 0
4.246716 13.945832 -10.902350 18.203902 1.275202 2.212925 0.026395 -0.021963 98174.500000 1 0 0
11.570716 13.398632 2.422850 17.868269 0.858474 1.434782 0.038267 -0.006806 -480062.000000 1 0 0
16.012116 6.654932 -7.239450 18.790572 0.393898 1.966297 0.041992 0.003278 339723.000000 1 0 0
2.478116 15.992032 2.783850 16.420596 1.417060 1.400439 0.008672 -0.005735 -147271.000000 1 0 0
13.527016 10.553832 3.540650 17.518554 0.662553 1.367286 0.035567 -0.005010 -381023.000000 1 0 0
-5.030884 19.407332 -5.993750 20.925567 -1.317153 1.861297 0.020941 -0.014032 -36368.400000 1 0 0
5.411516 11.974632 -0.042850 13.140706 1.146351 1.574057 0.007513 -0.004382 157886.000000 1 0 0
4.487716 15.529632 9.388550 18.693688 1.289482 1.044619 0.012123 0.002880 -337459.000000 1 0 0
7.882316 9.442232 13.926050 18.580138 0.875197 0.723471 0.024130 -0.005516 -2753540.000000 1 0 0
-5.004384 13.493932 6.939850 15.977847 -1.215659 1.121489 -0.004044 -0.001276 -2015420.000000 1 0 0
-4.522784 17.136832 0.401450 17.728163 -1.312758 1.548150 0.003146 0.000040 -3675740.000000 1 0 0
-0.635084 16.544632 3.353550 16.893031 -1.532429 1.370952 0.005116 -0.002682 -1584870.000000 1 0 0
7.945916 16.627832 -4.883150 19.064825 1.125010 1.829817 0.022523 -0.008463 584261.000000 1 0 0
2.973216 16.391732 -4.679050 17.303826 1.391362 1.844611 0.010834 -0.006940 -264843.000000 1 0 0
9.515616 14.537432 8.030750 19.140973 0.991222 1.137838 0.020038 -0.002059 -60569.000000 1 0 0
12.727716 10.991932 8.919550 19.036169 0.712349 1.083138 0.035268 -0.016889 125657.000000 1 0 0
3.789116 12.422932 12.198150 17.818011 1.274750 0.816746 0.013384 0.002164 651104.000000 1 0 0
-3.380384 19.244632 5.846850 20.395307 -1.396917 1.280041 0.015649 0.000312 359627.000000 1 0 0
-2.632984 15.875332 10.191650 19.048058 -1.406439 1.006230 0.006636 -0.005256 332898.000000 1 0 0
2.038116 14.309032 7.662450 16.358957 1.429312 1.083323 0.005349 0.004267 -34432.600000 1 0 0
4.436016 17.345632 7.660350 19.473833 1.320420 1.166506 0.019958 -0.007288 203278.000000 1 0 0
-1.657884 13.611332 9.508950 16.686434 -1.449592 0.964459 -0.005588 0.003772 678035.000000 1 0 0
5.858516 17.636832 2.813650 18.796188 1.250089 1.420539 0.007212 -0.019836 229915.000000 1 0 0
7.120216 15.333632 -7.040550 18.313577 1.136071 1.965402 0.020793 -0.000943 -831056.000000 1 0 0
11.047916 7.742632 9.437650 16.464327 0.611278 0.960368 0.004275 -0.005063 328246.000000 1 0 0
9.087116 16.307732 -2.650150 18.855798 1.062421 1.711811 0.026529 -0.003513 -101773.000000 1 0 0
14.656216 11.194432 -6.581550 19.581542 0.652275 1.913580 0.089598 -0.003771 358608.000000 1 0 0
11.235216 6.571032 16.017150 20.638742 0.529213 0.682383 0.065639 -0.016226 -636888.000000 1 0 0
8.598216 8.627732 10.235750 15.910301 0.787112 0.871942 0.008830 0.001006 956179.000000 1 0 0
16.355216 9.407132 4.402950 19.374550 0.521967 1.341539 0.048339 -0.010379 18388.000000 1 0 0
-3.399184 14.280632 4.636950 15.394552 -1.337117 1.264838 -0.003870 0.002793 -1189600.000000 1 0 0
4.902416 14.817032 12.675850 20.106101 1.251270 0.888666 0.028128 0.004850 -67061.500000 1 0 0
16.205516 10.538132 -4.556750 19.860386 0.576572 1.802298 0.077406 -0.007075 913353.000000 1 0 0
14.372716 14.187832 5.958550 21.056445 0.778925 1.283897 0.059639 -0.010291 -1224690.000000 1 0 0
6.202616 9.459332 9.353150 14.677631 0.990415 0.879887 0.002136 0.004904 298884.000000 1 0 0
10.412416 12.109832 8.651250 18.163441 0.860622 1.074354 0.021611 -0.007221 843853.000000 1 0 0
7.920616 11.474132 -0.406850 13.948383 0.966609 1.599969 0.005506 -0.001910 -207463.000000 1 0 0
7.365916 13.555132 -8.936450 17.828586 1.073031 2.095831 0.039555 -0.006062 -588631.000000 1 0 0
2.655316 15.221732 -2.440850 15.643196 1.398092 1.727469 0.008233 -0.008966 104192.000000 1 0 0
11.976716 13.954832 -7.700550 19.936839 0.861533 1.967356 0.063570 -0.006334 -1160420.000000 1 0 0
-8.028784 14.794632 9.745650 19.450455 -1.073589 1.045985 0.026712 -0.018914 283236.000000 1 0 0
11.558016 9.532332 2.056050 15.122184 0.689644 1.434411 0.022038 -0.001228 -1168130.000000 1 0 0
11.947416 8.714032 4.467050 15.447642 0.630164 1.277433 0.016200 -0.003587 115383.000000 1 0 0
14.082516 8.036932 6.024350 17.297466 0.518599 1.215061 0.024598 -0.012100 -1866630.000000 1 0 0
16.242916 7.523132 7.159650 19.279275 0.433747 1.190317 0.062110 -0.016131 226475.000000 1 0 0
13.603116 8.146732 2.552550 16.060185 0.539601 1.411183 0.021056 -0.003497 -1647510.000000 1 0 0
-4.462484 17.248132 -7.241550 19.231533 -1.317625 1.956861 0.018024 -0.018469 220549.000000 1 0 0
3.211216 19.389932 -4.135950 20.084508 1.406673 1.778208 0.044661 -0.020193 354370.000000 1 0 0
-0.045084 14.894732 6.177650 16.125088 -1.567770 1.177638 -0.000334 0.004364 142563.000000 1 0 0
6.740916 16.253632 8.286650 19.449655 1.177654 1.130667 0.023275 -0.003321 -455903.000000 1 0 0
12.749716 15.279032 -2.063450 20.006547 0.875394 1.674119 0.056005 -0.004420 74662.700000 1 0 0
12.289816 15.838532 4.141250 20.470678 0.910897 1.367089 0.043211 -0.009878 -697953.000000 1 0 0
2.914116 18.035532 1.212450 18.309630 1.410604 1.504529 0.022910 -0.015469 -366127.000000 1 0 0
10.351416 14.572932 -1.343050 17.925567 0.953179 1.645790 0.027514 0.008925 -2019440.000000 1 0 0
-6.374284 15.714532 -0.696450 16.972421 -1.185446 1.611842 0.004701 0.000720 -74952.800000 1 0 0
-3.898984 15.857132 -2.722150 16.554782 -1.329697 1.735979 0.005223 -0.000517 -611134.000000 1 0 0
-6.797484 17.101932 1.465750 18.461590 -1.192474 1.491318 0.008795 0.003162 -873096.000000 1 0 0
-0.073884 19.493432 -6.649950 20.596631 -1.567006 1.899552 0.043004 -0.013275 4812.920000 1 0 0
4.812316 14.910432 6.893450 17.117215 1.258602 1.156309 0.008773 0.000990 -562029.000000 1 0 0
8.752916 12.325632 6.862650 16.602130 0.953298 1.144656 0.011233 -0.000225 316255.000000 1 0 0
-7.743984 17.518432 -5.737950 19.994720 -1.154575 1.861862 0.047358 -0.018142 98039.600000 1 0 0
-7.904884 17.778132 -1.459750 19.511024 -1.152408 1.645683 0.035172 -0.009029 179641.000000 1 0 0
-13.661184 -9.260668 9.219150 18.904514 0.595727 1.061378 0.035638 -0.009434 -795393.000000 1 0 0
-12.502684 -12.915668 7.476150 19.468549 0.801644 1.176659 0.035329 -0.015277 -160554.000000 1 0 0
-4.113984 -14.902968 12.620850 19.957685 1.301453 0.886174 0.006158 -0.004904 364063.000000 1 0 0
-2.018584 -14.037368 15.050950 20.679784 1.427975 0.755674 0.023230 -0.001477 -958162.000000 1 0 0
-7.156384 -13.717968 12.665150 19.995062 1.089956 0.884839 0.015938 -0.012316 -199988.000000 1 0 0
-9.768284 -11.563668 8.986850 17.604013 0.869364 1.035030 0.018143 -0.009990 338742.000000 1 0 0
-10.749584 -10.595968 11.225850 18.810843 0.778202 0.931320 0.048251 -0.019797 395441.000000 1 0 0
-6.076284 -12.068968 10.810350 17.304476 1.104382 0.896031 0.012869 -0.009776 749960.000000 1 0 0
-12.492784 -10.364268 7.229150 17.769308 0.692543 1.151811 0.019024 -0.008490 -726430.000000 1 0 0
-7.798284 -11.184868 12.601750 18.566599 0.961940 0.824761 0.021750 -0.014218 -1002770.000000 1 0 0
-14.761684 -11.636468 7.454650 20.220942 0.667559 1.193229 0.051880 -0.007758 -402329.000000 1 0 0
-11.045384 -9.244768 9.038850 17.004913 0.696887 1.010375 0.020630 -0.009059 -273298.000000 1 0 0
-5.482884 -11.867068 13.300550 18.649235 1.137987 0.776750 0.022436 -0.014666 -967243.000000 1 0 0
3.780616 -12.400168 14.790250 19.667453 -1.274865 0.719680 -0.003128 -0.000607 -836750.000000 1 0 0
6.211316 -12.961168 13.945750 20.026389 -1.123906 0.800471 0.018354 -0.000804 428127.000000 1 0 0
6.621516 -8.412968 16.020450 19.268558 -0.903995 0.589121 0.014899 -0.005107 -500145.000000 1 0 0
0.743316 -1.716968 14.498250 14.618473 -1.162233 0.128338 0.006133 -0.007967 -315423.000000 1 0 0
-0.163384 -6.398368 15.531650 16.798749 1.545267 0.390886 0.007804 -0.015254 306077.000000 1 0 0
-1.430284 -4.580968 18.243250 18.863912 1.268164 0.257232 0.023183 -0.035633 -1924460.000000 1 0 0
-5.170484 12.736232 12.923250 18.866794 -1.185157 0.816229 0.008932 -0.010083 22520.200000 1 0 0
-4.065384 8.854332 11.565350 15.122297 -1.140367 0.700084 -0.005020 0.005544 -308429.000000 1 0 0
-0.651184 -3.889668 15.072850 15.580256 1.404921 0.255912 0.008287 -0.011345 -60893.100000 1 0 0
-4.561884 9.192132 14.188250 17.510355 -1.110128 0.626170 0.004316 -0.005724 107725.000000 1 0 0
-13.460184 -2.100568 16.836650 21.657833 0.154809 0.680286 0.043406 -0.004892 173898.000000 1 0 0
-0.310484 0.912432 17.377750 17.404458 -1.242805 0.055406 0.015075 -0.011318 -1189480.000000 1 0 0
-3.170984 -7.234568 15.429750 17.334108 1.157706 0.473148 0.023664 -0.017604 385952.000000 1 0 0
-7.434484 5.384532 12.551050 15.549714 -0.626826 0.631477 -0.009425 -0.003462 -2604080.000000 1 0 0
-9.872584 10.259032 13.214450 19.425173 -0.804592 0.822659 0.015829 -0.018997 -125009.000000 1 0 0
-5.620084 2.367532 11.191450 12.745161 -0.398701 0.498932 0.002921 -0.000551 -881643.000000 1 0 0
-7.152084 -7.474068 16.826850 19.752389 0.807409 0.551214 0.027903 -0.018766 6822.300000 1 0 0
-4.744684 2.775832 18.761450 19.550174 -0.529347 0.285018 0.014741 -0.007201 -353730.000000 1 0 0
0.989216 -8.395468 16.584550 18.614772 -1.453510 0.471397 0.006301 -0.010818 658489.000000 1 0 0
-15.192384 -3.449768 13.933150 20.900768 0.223286 0.841113 0.066591 -0.016830 336587.000000 1 0 0
-14.245884 2.363532 13.110550 19.504308 -0.164412 0.833637 0.040891 -0.012324 -740665.000000 1 0 0
-5.497384 1.030732 16.008550 16.957515 -0.185343 0.336129 0.016295 -0.009528 625720.000000 1 0 0
4.604716 5.666732 15.120750 16.791437 0.888427 0.449870 0.013180 -0.001880 -391043.000000 1 0 0
-1.134884 -11.974768 13.815450 18.318016 1.476306 0.716361 -0.002825 -0.004726 -9631.420000 1 0 0
-5.896184 -4.026868 16.769550 18.226313 0.599199 0.402528 0.027248 -0.017163 512368.000000 1 0 0
-12.893684 -1.512068 9.834450 16.286493 0.116739 0.922485 0.019533 0.001653 -664301.000000 1 0 0
-14.211984 10.504532 10.203250 20.406666 -0.636509 1.047202 0.004722 -0.010392 219065.000000 1 0 0
-3.538184 -3.163968 17.717350 18.342136 0.729621 0.261756 0.025886 -0.025924 -866672.000000 1 0 0
-7.813284 9.434732 11.879950 17.064431 -0.879131 0.800731 -0.007654 -0.006173 93507.500000 1 0 0
-4.299784 10.584332 16.245850 19.860612 -1.184922 0.612882 0.017547 -0.008847 266991.000000 1 0 0
-12.387984 12.888932 8.228450 19.679790 -0.805214 1.139425 0.012169 -0.014584 201279.000000 1 0 0
-12.637184 3.283732 10.447350 16.722095 -0.254225 0.895968 0.016857 -0.009220 901282.000000 1 0 0
-10.206084 -3.410268 13.735350 17.448608 0.322477 0.664559 0.014347 0.000981 -1010710.000000 1 0 0
-4.181084 -6.349468 17.704650 19.267897 0.988473 0.405595 0.039858 -0.025864 -459257.000000 1 0 0
0.961616 -3.688068 17.653450 18.060201 -1.315738 0.212636 0.012342 -0.029680 -623102.000000 1 0 0
-5.941084 1.916532 13.678050 15.035247 -0.312050 0.428157 0.003749 -0.002069 -656165.000000 1 0 0
-10.425084 8.682332 10.297350 17.032343 -0.694442 0.921563 0.004080 -0.016288 -541222.000000 1 0 0
4.603916 2.477532 17.245450 18.020538 0.493689 0.294358 0.020397 -0.013496 -224892.000000 1 0 0
0.471316 -5.287568 13.207050 14.233998 -1.481895 0.382184 0.007102 -0.006906 -1343370.000000 1 0 0
-4.151484 5.564332 20.754150 21.884501 -0.929803 0.322805 0.057794 -0.015581 328428.000000 1 0 0
-10.695884 10.900732 9.046150 17.749950 -0.794883 1.036026 0.004577 -0.014585 468197.000000 1 0 0
0.701916 4.140032 13.082050 13.739454 1.402850 0.310594 0.013559 -0.004692 -2655960.000000 1 0 0
-3.116884 7.236032 13.306250 15.463875 -1.164070 0.534599 -0.000950 0.003397 -995365.000000 1 0 0
0.745016 8.818432 14.250250 16.774666 1.486513 0.555740 0.010045 0.003089 446054.000000 1 0 0
-4.160284 -6.627068 13.126250 15.281506 1.010207 0.537555 0.014034 -0.009777 -13295.400000 1 0 0
-5.227384 8.246232 16.631950 19.285945 -1.005814 0.530830 0.017951 0.002357 225053.000000 1 0 0
1.484116 -10.730068 15.717750 19.088862 -1.433355 0.603421 -0.010387 -0.001281 -668043.000000 1 0 0
-15.093584 -0.880568 14.256650 20.780851 0.058274 0.814754 0.054508 -0.014651 695190.000000 1 0 0
-13.712484 -5.244768 8.357750 16.893543 0.365313 1.053272 0.037571 -0.003500 -499092.000000 1 0 0
-14.201384 -1.940068 12.061250 18.732777 0.135771 0.871266 0.046972 -0.006871 496796.000000 1 0 0
9.406716 0.915232 16.954350 19.410666 0.096990 0.508542 0.055102 -0.008692 -529045.000000 1 0 0
4.931516 -6.745468 16.864050 18.820664 -0.939511 0.460030 0.018576 -0.010250 -543948.000000 1 0 0
-6.088884 -2.620568 11.077450 12.909368 0.406423 0.539250 0.005530 -0.001094 675609.000000 1 0 0
0.516316 -6.278968 18.055050 19.122679 -1.488751 0.335732 0.018779 -0.025067 91518.800000 1 0 0
-8.340984 11.968032 11.932450 18.846463 -0.962128 0.885193 0.006108 -0.017839 -619.213000 1 0 0
-6.802484 -5.647068 14.878350 17.306891 0.692855 0.536158 0.025543 -0.011260 -1017170.000000 1 0 0
-4.333884 -8.873768 17.028850 19.685224 1.116478 0.525531 0.041727 -0.025613 -1427.090000 1 0 0
2.434416 -6.113268 16.338850 17.614098 -1.191827 0.382858 0.009620 -0.015187 -1089970.000000 1 0 0
2.301816 5.016532 16.090550 17.010872 1.140610 0.330445 0.020757 -0.006385 -677929.000000 1 0 0
0.883316 -8.866968 14.043750 16.632206 -1.471505 0.565407 -0.005100 -0.002838 -467338.000000 1 0 0
-9.867884 -2.796868 11.251850 15.225037 0.276188 0.739158 -0.002022 0.003187 -758505.000000 1 0 0
-1.241784 10.067032 12.416650 16.033102 -1.448065 0.684969 0.001290 0.003447 -102530.000000 1 0 0
-12.302084 -3.634768 11.328850 17.114195 0.287286 0.847370 0.021950 0.001842 -939968.000000 1 0 0
-1.834284 6.620732 19.864050 21.018544 -1.300524 0.332980 0.051599 -0.019109 -207565.000000 1 0 0
0.398216 -13.468468 15.399150 20.461966 -1.541238 0.718834 -0.004675 -0.007948 -938863.000000 1 0 0
3.991516 -8.727368 15.264350 18.030517 -1.141842 0.561262 0.002907 -0.003964 398696.000000 1 0 0
4.353516 -4.485168 16.210050 17.373416 -0.800292 0.368031 0.021316 -0.012002 -58133.600000 1 0 0
8.117316 1.788532 14.837050 17.006697 0.216870 0.510656 0.012524 0.000133 188116.000000 1 0 0
-6.251684 -0.076268 11.900850 13.443199 0.012199 0.483724 0.005607 -0.000304 94741.700000 1 0 0
-3.565784 -10.873968 18.473550 21.730855 1.253926 0.554608 0.048400 -0.020895 141881.000000 1 0 0
3.331216 -1.567968 13.616350 14.105337 -0.439925 0.264079 0.004751 -0.006675 759236.000000 1 0 0
-2.693884 8.637032 15.989550 18.371746 -1.268459 0.514917 0.024825 -0.000688 -1527750.000000 1 0 0
-3.245684 3.964632 14.906350 15.762362 -0.884781 0.331077 0.008902 -0.004326 -907488.000000 1 0 0
-4.591284 -8.857268 19.729450 22.108421 1.092566 0.468171 0.057432 -0.029101 -198534.000000 1 0 0
-5.746984 -2.877168 19.111750 20.163455 0.464159 0.324403 0.038637 -0.023176 -613820.000000 1 0 0
-6.671084 -8.583868 11.148050 15.571293 0.910135 0.772832 0.010832 -0.008441 -1039820.000000 1 0 0
-11.694384 2.575232 12.616150 17.394186 -0.216752 0.759314 0.027562 -0.018036 -663516.000000 1 0 0
-11.634084 -7.620668 11.743550 18.202677 0.579903 0.869570 0.026890 -0.004304 -4233.000000 1 0 0
-11.129784 -7.177368 15.717750 20.553208 0.572767 0.700167 0.041675 -0.020555 379157.000000 1 0 0
0.368616 5.465832 17.782850 18.607551 1.503458 0.298838 0.022723 -0.008835 -394948.000000 1 0 0
-2.271384 -0.152868 13.316650 13.509838 0.067200 0.169316 0.012629 -0.005767 183955.000000 1 0 0
-6.183084 -10.350168 18.322650 21.933445 1.032298 0.581982 0.060463 -0.027083 827106.000000 1 0 0
0.494416 2.375932 19.413250 19.564350 1.365631 0.124364 0.029256 -0.014188 -146946.000000 1 0 0
-0.851084 10.831632 14.815750 18.372672 -1.492384 0.632755 0.021131 -0.005717 -462847.000000 1 0 0
-12.887884 -2.222368 14.311550 19.387030 0.170759 0.740395 0.039460 -0.004979 -1236850.000000 1 0 0
-13.607884 8.450432 11.709950 19.842058 -0.555714 0.939542 0.012584 -0.013240 232751.000000 1 0 0
-18.212084 -0.577168 6.832150 19.459995 0.031681 1.212065 0.061410 -0.010433 2372880.000000 1 0 0
-2.031284 -7.887168 17.643750 19.432845 1.318731 0.432467 0.027442 -0.025396 -1516840.000000 1 0 0
5.699616 2.715432 14.613850 15.919291 0.444609 0.407798 0.013183 -0.005295 -2200000.000000 1 0 0
-14.099984 -6.861268 11.195950 19.267482 0.452883 0.950741 0.038926 -0.003896 559822.000000 1 0 0
3.292316 7.540632 16.263250 18.226184 1.159133 0.468379 0.023588 -0.011951 -617803.000000 1 0 0
1.104516 2.062232 14.596450 14.782731 1.079082 0.158920 0.012527 -0.010752 -2374780.000000 1 0 0
-14.425084 0.635032 9.760150 17.428335 -0.043994 0.976391 0.030091 -0.004992 -1524100.000000 1 0 0
-9.596784 -5.047868 15.476350 18.897001 0.484227 0.611157 0.021691 -0.006839 -525709.000000 1 0 0
-2.556684 -0.236768 18.136350 18.317202 0.092344 0.140639 0.023601 -0.018293 211389.000000 1 0 0
7.002816 3.485332 17.625950 19.283700 0.461809 0.417677 0.037959 -0.009201 213893.000000 1 0 0
-4.217284 -0.924768 14.839450 15.454772 0.215864 0.283130 0.018500 -0.005826 636126.000000 1 0 0
4.748016 -9.275868 17.589250 20.444244 -1.097700 0.534836 0.018763 -0.005224 110247.000000 1 0 0
2.003916 6.905132 13.485050 15.282118 1.288348 0.489842 0.014908 -0.000446 -837099.000000 1 0 0
-3.774884 -0.795068 20.380350 20.742241 0.207586 0.187072 0.037193 -0.019279 -548523.000000 1 0 0
-10.713284 1.696632 16.395950 19.659100 -0.157063 0.584454 0.035252 -0.004372 37308.600000 1 0 0
-4.005984 7.010432 18.516150 20.200047 -1.051648 0.411207 0.036389 -0.007994 -333548.000000 1 0 0
-12.581484 1.172132 14.619250 19.323305 -0.092895 0.712759 0.041756 -0.014098 -182149.000000 1 0 0
-16.172484 -4.656168 8.507250 18.857424 0.280326 1.102759 0.043775 -0.003310 -1036920.000000 1 0 0
-2.341384 0.786332 15.755850 15.948267 -0.324006 0.155495 0.017431 -0.008149 -15427.300000 1 0 0
-13.519284 -9.112368 12.578150 20.591652 0.593081 0.913679 0.035390 -0.015918 286889.000000 1 0 0
6.147916 -3.315568 14.645550 16.225967 -0.494591 0.445026 0.020640 -0.010470 1058390.000000 1 0 0
-15.737384 0.274732 7.595350 17.476558 -0.017456 1.121200 0.029404 -0.009642 388705.000000 1 0 0
-14.036984 5.906032 12.242350 19.539531 -0.398264 0.893687 0.032781 -0.022288 240874.000000 1 0 0
0.228716 9.491332 16.806950 19.303142 1.546704 0.514204 0.024840 -0.005677 -123191.000000 1 0 0
-10.342384 -5.424668 10.912750 15.983743 0.483062 0.819289 0.010247 -0.001302 38043.800000 1 0 0
-3.220584 -10.997368 15.027950 18.898507 1.285912 0.651471 0.018262 -0.010729 -2059940.000000 1 0 0
-3.510484 2.823432 12.603350 13.384308 -0.677349 0.343293 0.007401 -0.002378 -1540400.000000 1 0 0
-12.373984 -7.770968 7.447650 16.400333 0.560760 1.099417 0.026412 -0.005478 -143973.000000 1 0 0
-8.267584 -1.779868 13.208850 15.684215 0.212046 0.569492 0.004420 -0.000721 -530355.000000 1 0 0
-9.677184 6.501632 9.548650 15.069699 -0.591584 0.884557 -0.003909 -0.007766 -972723.000000 1 0 0
-17.957384 -3.528168 6.577050 19.446676 0.194003 1.225783 0.047730 -0.007825 576773.000000 1 0 0
-1.351184 0.033932 20.410350 20.455055 -0.025108 0.066125 0.025954 -0.024170 -1532310.000000 1 0 0
-2.647084 2.728532 20.263650 20.617165 -0.800548 0.185450 0.036960 -0.016285 -638347.000000 1 0 0
-3.859884 11.421032 11.077350 16.372122 -1.244885 0.827663 0.001366 -0.004118 -757864.000000 1 0 0
-4.291184 -4.785668 14.963250 16.285446 0.839822 0.405738 0.016825 -0.013345 -253622.000000 1 0 0
-0.261384 -14.385968 13.126250 19.476212 1.552629 0.831236 0.006273 -0.005886 -732743.000000 1 0 0
-12.190784 0.495632 8.296150 14.754219 -0.040634 0.973644 0.008861 -0.000939 -312477.000000 1 0 0
-7.868184 2.239332 15.447850 17.480246 -0.277275 0.487019 0.005016 -0.000825 -510847.000000 1 0 0
3.586316 -2.252968 18.471250 18.950584 -0.560906 0.225394 0.018390 -0.014794 -423644.000000 1 0 0
-2.036984 4.883232 12.746450 13.800988 -1.175603 0.393456 0.003849 -0.000802 -633805.000000 1 0 0
-10.490984 -6.142568 13.370550 18.071068 0.529696 0.737894 0.017496 -0.006398 -431653.000000 1 0 0
2.349116 -3.778668 14.331450 15.006237 -1.014589 0.301026 0.004026 -0.008377 -427993.000000 1 0 0
6.780716 0.985632 17.019150 18.346691 0.144347 0.382749 0.023879 -0.007971 -1087600.000000 1 0 0
-1.980684 -5.655368 13.869450 15.108539 1.233916 0.407820 0.007803 -0.008923 -3119590.000000 1 0 0
-12.692584 3.850032 14.644550 19.758221 -0.294508 0.735958 0.019198 -0.008884 96006.200000 1 0 0
-13.453384 -6.713968 13.583450 20.262799 0.462891 0.836097 0.043707 -0.009095 -29862.400000 1 0 0
-9.461884 6.884732 12.047750 16.795091 -0.629029 0.770823 0.002841 -0.006370 -185911.000000 1 0 0
-1.176584 -2.454468 12.886650 13.170973 1.123793 0.208159 0.008989 -0.005212 591319.000000 1 0 0
0.204916 6.617932 15.437550 16.797529 1.539842 0.405166 0.019783 -0.002279 298022.000000 1 0 0
-16.563484 -0.913968 9.715950 19.224568 0.055124 1.040960 0.057998 -0.004147 244047.000000 1 0 0
-1.240484 2.693532 13.824550 14.139028 -1.139211 0.211304 0.009637 -0.005935 -2200330.000000 1 0 0
-11.194384 -3.334368 16.137750 19.921326 0.289493 0.626518 0.023627 -0.006357 53656.300000 1 0 0
-5.341784 -1.398368 17.132750 18.000590 0.256034 0.311782 0.035983 -0.010252 367478.000000 1 0 0
-11.847084 6.620732 11.142250 17.559534 -0.509612 0.883381 0.014214 -0.010979 -1733860.000000 1 0 0
-2.822784 4.677132 18.626050 19.410653 -1.027786 0.285295 0.046078 -0.014488 271266.000000 1 0 0
5.174616 -1.982568 16.544150 17.447525 -0.365882 0.323202 0.021982 -0.011469 -665323.000000 1 0 0
-8.051884 -4.120468 12.231250 15.212317 0.472995 0.636744 0.009967 0.000584 -1371440.000000 1 0 0
-11.543184 -0.721968 16.011050 19.751457 0.062464 0.625575 0.032494 -0.011489 -390093.000000 1 0 0
2.070916 1.866132 17.411950 17.633694 0.733430 0.158754 0.011227 -0.012825 -1665600.000000 1 0 0
-8.963484 -7.506468 11.713950 16.550158 0.697163 0.784439 0.014740 -0.006992 -452183.000000 1 0 0
-7.090284 6.860732 14.620450 17.638009 -0.768946 0.593627 -0.002790 -0.009510 -948880.000000 1 0 0
-5.644084 3.540232 15.904450 17.243563 -0.560213 0.396699 0.004200 -0.003289 131869.000000 1 0 0
-9.334484 4.247732 11.568050 15.459483 -0.427052 0.725328 -0.004158 -0.008759 -393135.000000 1 0 0
-10.073484 0.319632 14.209050 17.420515 -0.031719 0.616944 0.008835 -0.002423 -674783.000000 1 0 0
8.132816 -0.700968 15.595650 17.602794 -0.085978 0.482202 0.030004 -0.008504 132579.000000 1 0 0
-8.697084 -7.334168 14.682150 18.574036 0.700586 0.659226 0.024034 -0.012005 -474571.000000 1 0 0
-0.069584 4.042932 15.684250 16.197094 -1.553587 0.252314 0.016661 -0.009469 219254.000000 1 0 0
-8.000884 3.128332 9.685950 12.946746 -0.372722 0.725545 -0.006778 -0.002296 -482327.000000 1 0 0
-2.209784 -9.645768 13.132050 16.443075 1.345589 0.645769 0.000500 -0.005636 625918.000000 1 0 0
-6.011284 10.286832 10.431250 15.835575 -1.041951 0.851677 0.004007 -0.007038 -3864910.000000 1 0 0
-8.633184 -2.635868 15.712950 18.121161 0.296329 0.521435 0.020618 -0.009621 74207.400000 1 0 0
4.374216 5.602732 17.628750 19.007820 0.907917 0.383269 0.023897 -0.008899 262719.000000 1 0 0
-6.882484 -0.848768 15.206450 16.713023 0.122703 0.427859 0.012790 -0.002737 -768114.000000 1 0 0
-0.945084 -9.928968 15.461850 18.399631 1.475898 0.572896 -0.003833 -0.006934 -1828290.000000 1 0 0
-4.355184 5.842832 16.243950 17.803714 -0.930253 0.421708 0.015085 -0.005314 263730.000000 1 0 0
3.810716 0.046632 17.457650 17.868780 0.012237 0.214928 0.019497 -0.014695 -1204170.000000 1 0 0
1.367716 -0.041568 19.157750 19.206556 -0.030383 0.071304 0.007753 -0.016675 -549622.000000 1 0 0
-6.529384 6.434732 17.740150 19.968765 -0.778097 0.476959 0.017721 -0.007638 -481431.000000 1 0 0
-12.213084 0.662532 10.936850 16.407714 -0.054195 0.841202 0.022678 -0.006052 -461277.000000 1 0 0
-5.314584 5.112532 13.882750 15.719846 -0.766023 0.488292 -0.003723 -0.001555 -1673780.000000 1 0 0
-8.644084 -9.495968 10.014250 16.284312 0.832325 0.908457 0.016745 -0.007665 -498823.000000 1 0 0
6.895916 -3.821568 17.012850 18.750870 -0.506046 0.433955 0.031357 -0.011923 -289817.000000 1 0 0
-16.788184 1.721932 9.441750 19.337912 -0.102211 1.060712 0.057690 -0.016006 326586.000000 1 0 0
-4.172384 -9.539368 11.448250 15.474843 1.158482 0.738027 0.008001 -0.009296 -636050.000000 1 0 0
-11.129484 -3.882368 9.136750 14.913698 0.335638 0.911398 0.011438 0.003634 -307861.000000 1 0 0
3.552516 -5.353768 18.611050 19.688941 -0.984951 0.332424 0.011224 -0.014658 -210149.000000 1 0 0
2.540116 -1.873868 16.124750 16.430799 -0.635589 0.193311 0.006092 -0.012587 167696.000000 1 0 0
-3.127284 -4.311168 20.173850 20.865050 0.943232 0.258115 0.039081 -0.033037 -988082.000000 1 0 0
-6.360984 -3.226168 14.389750 16.060361 0.469376 0.460165 0.017500 -0.004686 531524.000000 1 0 0
-9.562484 5.100932 13.996250 17.701854 -0.490034 0.658901 0.014193 -0.008211 74089.000000 1 0 0
-5.879084 -5.128568 11.788050 14.135911 0.717322 0.584645 0.008878 -0.000218 355970.000000 1 0 0
6.050416 1.722932 19.373550 20.369352 0.277420 0.313977 0.050109 -0.020104 44906.800000 1 0 0
-2.790884 11.787332 13.430450 18.086106 -1.338308 0.733876 0.016260 -0.014625 -3143600.000000 1 0 0
3.449216 1.312432 15.184350 15.626390 0.363585 0.238422 0.012034 -0.010542 -1185000.000000 1 0 0
-5.632084 7.280432 12.669250 15.659980 -0.912367 0.628312 -0.013330 -0.007861 -1105420.000000 1 0 0
-1.759584 -1.687468 15.334950 15.527536 0.764480 0.157662 0.015658 -0.007191 -803542.000000 1 0 0
-7.429784 10.728832 14.082650 19.199755 -0.965117 0.747367 0.016997 -0.014313 -357808.000000 1 0 0
-10.203484 2.043732 10.526750 14.802040 -0.197682 0.779637 0.000172 -0.002808 -497795.000000 1 0 0
-13.684884 5.310332 9.028050 17.233147 -0.370157 1.019400 0.012984 -0.013514 749337.000000 1 0 0
0.475316 -4.625768 20.057650 20.589633 -1.468402 0.227813 0.026900 -0.034728 -150703.000000 1 0 0
-14.507784 -2.879468 7.489550 16.578917 0.195931 1.102069 0.025264 -0.000071 374095.000000 1 0 0
-2.353484 2.421232 17.711150 18.030144 -0.799586 0.188386 0.022142 -0.012236 -202221.000000 1 0 0
-6.281684 -8.246568 14.492950 17.818840 0.919828 0.620909 0.018574 -0.015259 -273516.000000 1 0 0
-8.004684 2.014532 12.105050 14.651469 -0.246549 0.598467 -0.003095 -0.001913 1074330.000000 1 0 0
-14.523884 -3.432568 10.115450 18.029089 0.232081 0.975127 0.031074 -0.005427 -361415.000000 1 0 0
-0.506684 7.000032 12.863450 14.653516 -1.498539 0.499462 0.008969 0.001126 -933402.000000 1 0 0
-1.755284 -2.253568 19.376750 19.586170 0.909060 0.146365 0.025766 -0.022839 49151.000000 1 0 0
-12.795184 10.409332 7.416750 18.085329 -0.682940 1.148235 0.002601 -0.014098 -12694.100000 1 0 0
-19.485584 2.196332 6.785050 20.749669 -0.112242 1.237674 0.064746 -0.017502 809919.000000 1 0 0
-16.060384 8.454032 6.817850 19.387875 -0.484536 1.211457 0.024304 -0.010318 482279.000000 1 0 0
-12.362484 7.365432 13.635750 19.824588 -0.537317 0.812315 0.018746 -0.009334 164396.000000 1 0 0
-15.833984 8.500632 10.274750 20.701360 -0.492699 1.051428 0.031251 -0.010110 -433984.000000 1 0 0
1.702516 10.983632 15.236250 18.859535 1.417015 0.630250 0.016205 -0.002931 -417165.000000 1 0 0
2.260216 14.579832 12.327450 19.226183 1.416997 0.874761 0.010957 -0.002802 -336613.000000 1 0 0
-3.101684 13.738532 11.732550 18.330861 -1.348754 0.876241 0.000213 -0.003680 25672.200000 1 0 0
9.298916 4.811932 15.790950 18.946732 0.477528 0.585494 0.038437 -0.003211 359661.000000 1 0 0
-0.413884 12.560532 12.920750 18.024541 -1.537857 0.771534 0.006476 -0.001551 -548675.000000 1 0 0
3.493116 13.564932 14.483850 20.149223 1.318761 0.768680 0.021573 -0.001936 69196.300000 1 0 0
-2.847184 -4.154768 -13.658050 14.557159 0.970017 2.788292 0.005145 -0.008670 -298755.000000 1 0 0
5.863016 -11.668068 16.111050 20.738484 -1.105164 0.681121 0.020911 -0.006593 209852.000000 1 0 0
7.767216 -13.670968 7.349250 17.356166 -1.054122 1.133560 0.002567 -0.009440 -263233.000000 1 0 0
-0.216884 15.654832 1.212250 15.703196 -1.556943 1.493522 0.003653 -0.002181 -3027420.000000 1 0 0
-13.486184 8.136132 9.128550 18.204511 -0.542838 1.045529 -0.001945 -0.009354 314091.000000 1 0 0
-15.473084 -9.690368 4.969950 18.921415 0.559514 1.305016 0.029843 -0.009770 -1719710.000000 1 0 0
9.300116 -10.909868 11.218750 18.203784 -0.864882 0.906777 0.031856 -0.010834 153086.000000 1 0 0
-5.895884 -10.419668 -16.694950 20.543911 1.055872 2.519477 0.024787 -0.002254 63457.000000 1 0 0
-1.950084 -12.612268 -15.104950 19.774520 1.417393 2.440068 0.024224 0.002567 -31708.500000 1 0 0
5.927116 -15.848368 -11.316450 20.355920 -1.212912 2.160277 0.052547 -0.025599 118766.000000 1 0 0
1.206916 -12.422468 -16.075950 20.352162 -1.473944 2.481424 0.031151 -0.005736 202932.000000 1 0 0
0.358116 -14.282168 -13.781150 19.850155 -1.545727 2.338186 0.032972 -0.000488 285056.000000 1 0 0
-6.493784 -6.130268 -14.393350 16.938652 0.756611 2.586277 0.015788 -0.005498 -71121.600000 1 0 0
-6.346884 -8.220468 -17.110450 20.015657 0.913311 2.596064 0.016879 -0.008223 82258.600000 1 0 0
-2.108584 -16.260668 -13.078450 20.973824 1.441842 2.244085 0.018479 -0.007309 111602.000000 1 0 0
16.442216 -8.073468 -9.157850 20.479101 -0.456438 2.034407 0.093175 -0.013507 45839.600000 1 0 0
19.055916 -2.784768 -3.671150 19.605107 -0.145109 1.759163 0.100485 -0.030035 42561.900000 1 0 0
15.724816 -11.994268 -8.347350 21.466498 -0.651618 1.970184 0.074809 -0.014731 94940.100000 1 0 0
18.769016 -4.011368 -6.868450 20.384863 -0.210555 1.914460 0.213720 -0.015372 -229417.000000 1 0 0
8.922116 -9.562468 -15.651950 20.396776 -0.820027 2.445531 0.064207 -0.016289 199827.000000 1 0 0
-4.820484 9.313932 -16.376950 19.447130 -1.093203 2.572011 0.007291 -0.005716 584804.000000 1 0 0
2.687716 -9.896168 -17.947550 20.670571 -1.305602 2.622492 0.039382 -0.003998 547615.000000 1 0 0
11.120316 7.597332 -14.849750 20.047343 0.599357 2.404959 0.100930 -0.071630 315885.000000 1 0 0
18.109716 -6.564668 -7.326250 20.608993 -0.347762 1.934232 0.069443 -0.023005 90708.700000 1 0 0
12.308916 5.264032 -13.564250 19.058025 0.404122 2.362760 0.051978 -0.035843 43959.400000 1 0 0
15.905416 5.997732 -10.781250 20.129342 0.360599 2.136013 0.058390 -0.029788 233573.000000 1 0 0
3.541316 -0.550068 -19.074550 19.408295 -0.154097 2.955875 0.032380 -0.015009 215012.000000 1 0 0
10.207516 -1.474668 -15.041950 18.238100 -0.143476 2.540564 0.022714 0.000446 -7874.270000 1 0 0
12.043616 -6.380468 -13.911650 19.475447 -0.487187 2.366444 0.062662 -0.009283 471780.000000 1 0 0
10.199416 6.581532 -12.950750 17.750115 0.573054 2.388555 0.037231 -0.017178 296666.000000 1 0 0
10.701016 5.173932 -16.224650 20.112697 0.450360 2.509321 0.066237 -0.032826 361780.000000 1 0 0
12.007316 -10.006568 -15.032650 21.686115 -0.694761 2.336705 0.112269 -0.027625 358396.000000 1 0 0
-1.375884 2.158632 -17.026650 17.218001 -1.003339 2.992367 0.017845 -0.013584 381077.000000 1 0 0
6.282616 -1.066968 -17.132050 18.278862 -0.168224 2.785483 0.009834 0.001590 -46599.100000 1 0 0
6.280716 -5.665468 -15.578550 17.726707 -0.733942 2.644176 -0.006532 -0.013814 186653.000000 1 0 0
-2.212784 -5.038368 -20.372150 21.102276 1.156971 2.877772 0.046514 -0.024082 341849.000000 1 0 0
15.504516 -0.226868 -13.486450 20.550567 -0.014631 2.286643 0.058368 -0.010369 54109.500000 1 0 0
-4.154584 -0.594168 -18.565650 19.034100 0.142052 2.919274 0.024662 -0.009882 215839.000000 1 0 0
3.400816 8.399232 -17.945950 20.103974 1.186076 2.674002 0.037420 -0.017471 93093.200000 1 0 0
9.595916 -0.133768 -17.541250 19.994873 -0.013939 2.640977 0.036745 -0.003324 -11635.000000 1 0 0
4.172816 4.284632 -18.080650 19.044169 0.798618 2.822136 0.023875 -0.012233 362196.000000 1 0 0
-2.992484 -10.878068 -18.032350 21.270941 1.302343 2.582517 0.048751 -0.011982 279026.000000 1 0 0
5.671116 -9.678768 -15.875450 19.438879 -1.040784 2.526440 0.011180 -0.010560 199482.000000 1 0 0
10.318716 -12.210868 -10.456050 19.102622 -0.869187 2.150005 0.043811 -0.023546 195068.000000 1 0 0
6.219616 6.701732 -16.982650 19.287489 0.822692 2.647714 0.041038 -0.021100 321699.000000 1 0 0
8.903816 1.938432 -20.412850 22.354415 0.214363 2.721733 0.060504 -0.008768 115965.000000 1 0 0
-1.044484 -0.744368 -20.252150 20.292723 0.619176 3.078346 0.047043 -0.016372 209697.000000 1 0 0
-1.211184 6.957832 -19.449350 20.691921 -1.398448 2.793277 0.020805 -0.001618 -12761.300000 1 0 0
8.881316 5.956232 -18.058850 20.987533 0.590753 2.606960 0.079907 -0.025824 -22373.800000 1 0 0
11.876216 -0.124268 -13.027850 17.629090 -0.010463 2.402377 0.003713 0.000747 -46762.600000 1 0 0
-4.361784 -2.740268 -19.951250 20.605499 0.560929 2.888924 0.021312 -0.008792 399521.000000 1 0 0
5.748316 -11.525068 -14.515950 19.405750 -1.108136 2.415875 0.011450 -0.006867 120023.000000 1 0 0
11.172216 1.804832 -16.039950 19.630482 0.160163 2.527149 0.039245 -0.007823 -56371.000000 1 0 0
-3.042184 -4.502568 -16.976450 17.824922 0.976597 2.831809 0.019668 -0.012144 395707.000000 1 0 0
-6.793284 -4.794468 -17.091550 19.006754 0.614585 2.688815 0.029675 -0.022401 34981.300000 1 0 0
2.981316 9.977532 -15.274550 18.486516 1.280438 2.543220 0.012824 -0.020274 169890.000000 1 0 0
17.416116 -6.094568 -10.791950 21.375945 -0.336620 2.100021 0.126390 -0.019027 73174.800000 1 0 0
9.376916 -3.496968 -17.614150 20.258667 -0.356958 2.624909 0.021511 -0.021485 34854.200000 1 0 0
-7.450384 -1.619368 -18.528650 20.036003 0.214025 2.751221 0.031975 -0.011779 536945.000000 1 0 0
1.970716 -7.553568 -19.351850 20.867060 -1.315587 2.758164 0.045654 -0.019776 287253.000000 1 0 0
5.950816 10.422432 -13.920550 18.379908 1.052002 2.430086 0.044264 -0.023579 319074.000000 1 0 0
6.209816 -3.972868 -17.334250 18.836711 -0.569152 2.739483 0.031952 -0.033106 279459.000000 1 0 0
4.404716 13.382132 -14.752050 20.398675 1.252816 2.379202 0.051148 -0.021207 38253.800000 1 0 0
9.508716 10.994932 -15.596750 21.320479 0.857757 2.391372 0.116962 -0.042818 105566.000000 1 0 0
17.109916 1.080032 -11.359450 20.565816 0.063040 2.155972 0.104504 -0.013403 127657.000000 1 0 0
14.671816 -3.052768 -12.290050 19.381096 -0.205143 2.257673 0.084822 -0.015463 46606.400000 1 0 0
-8.581584 0.557132 -17.401550 19.410510 -0.064831 2.682605 0.025811 -0.021067 372145.000000 1 0 0
-3.308084 4.040132 -19.211250 19.908244 -0.884693 2.876200 0.022246 -0.001780 137289.000000 1 0 0
3.819816 1.179232 -17.297350 17.753306 0.299432 2.914464 0.008842 0.007692 431180.000000 1 0 0
-5.050184 14.184632 -14.110050 20.634962 -1.228758 2.323745 0.024371 -0.011087 227017.000000 1 0 0
0.947416 9.371632 -17.701850 20.051947 1.470045 2.652585 0.008864 -0.001195 290341.000000 1 0 0
1.397316 -4.887968 -19.487850 20.140035 -1.292354 2.886411 0.040427 -0.019945 301633.000000 1 0 0
3.639316 -6.146768 -18.372150 19.712008 -1.036228 2.770767 0.022850 -0.007970 -299202.000000 1 0 0
-7.065084 7.226132 -15.881350 18.824178 -0.796667 2.574875 0.003641 -0.007746 81711.700000 1 0 0
-12.019284 3.073232 -16.447750 20.601854 -0.250328 2.495367 0.080291 -0.042210 213296.000000 1 0 0
-4.285084 6.733432 -17.572350 19.299962 -1.004049 2.715255 0.008111 0.015335 344250.000000 1 0 0
-8.186884 5.289632 -17.709150 20.214333 -0.573636 2.638445 0.012719 -0.012705 308087.000000 1 0 0
-8.541684 4.500832 -15.241250 18.041994 -0.484955 2.576923 -0.005608 -0.014252 504787.000000 1 0 0
9.433116 13.527632 -12.859850 20.913064 0.961870 2.233080 0.112418 -0.047400 463835.000000 1 0 0
13.926516 9.209832 -12.417650 20.807856 0.584289 2.210275 0.094761 -0.025740 92006.100000 1 0 0
8.699516 15.604632 -10.045950 20.496518 1.062216 2.083035 0.075405 -0.016637 129188.000000 1 0 0
7.570216 12.507232 -14.493850 20.586663 1.026513 2.351868 0.118589 -0.051418 149526.000000 1 0 0
4.212416 15.141132 -13.223450 20.539181 1.299448 2.270271 0.053764 -0.025961 121324.000000 1 0 0
11.410516 10.798132 -10.656450 18.983136 0.757831 2.166829 0.100325 -0.056941 131680.000000 1 0 0
16.281316 9.890532 -10.779450 21.888363 0.545899 2.085726 0.118791 -0.005247 170375.000000 1 0 0
13.949416 11.055832 -8.841350 19.874282 0.670192 2.031819 0.141185 -0.025923 -919.906000 1 0 0
10.638816 11.512832 -7.461750 17.361089 0.824834 2.015065 0.053486 -0.008926 56512.400000 1 0 0
5.547616 17.122932 -10.533150 20.854690 1.257480 2.100263 0.066993 -0.008613 -56539.400000 1 0 0
11.177316 13.448132 -10.538850 20.416954 0.877352 2.113183 0.123503 -0.038599 127455.000000 1 0 0
8.234816 -19.374768 -1.782950 21.127535 -1.168902 1.655287 0.062879 -0.008810 126860.000000 1 0 0
7.438216 -16.762368 -3.956750 18.760594 -1.153156 1.783300 0.054445 -0.023771 327528.000000 1 0 0
4.185316 -18.131068 4.553350 19.156865 -1.343933 1.330812 0.051247 -0.047448 -184635.000000 1 0 0
10.275916 -17.695868 -2.690950 20.639268 -1.044692 1.701549 0.065895 -0.017617 612467.000000 1 0 0
-3.213784 -14.674668 7.910750 16.978052 1.355198 1.086100 0.020058 -0.032114 89947.200000 1 0 0
-15.353784 -12.818268 -3.819450 20.362585 0.695639 1.759486 0.060649 -0.019868 233494.000000 1 0 0
-9.421084 -12.843568 -6.983450 17.392028 0.937923 1.983985 0.045787 -0.014730 137408.000000 1 0 0
-11.312884 -15.151368 6.933450 20.139961 0.929438 1.219342 0.033703 -0.012349 47651.300000 1 0 0
-15.855984 -8.041368 -8.251950 19.600268 0.469352 2.005357 0.115772 -0.014419 3017.670000 1 0 0
5.499916 -15.439568 6.542750 17.647575 -1.228589 1.190985 0.044138 -0.022749 224059.000000 1 0 0
2.750616 -14.183368 8.858550 16.947204 -1.379242 1.020764 0.016613 -0.010977 281296.000000 1 0 0
3.159116 -17.485968 9.724650 20.256059 -1.392059 1.070044 0.040595 -0.020730 196127.000000 1 0 0
-8.710684 -17.816168 -4.792150 20.402366 1.116052 1.807894 0.057191 -0.014977 -39540.600000 1 0 0
1.586216 -19.893068 -4.312250 20.416800 -1.491228 1.783610 0.032253 -0.003719 -131470.000000 1 0 0
-17.249784 -10.733268 -2.504250 20.470206 0.556602 1.693440 -0.034060 -0.019918 -51639.900000 1 0 0
-4.265384 -14.888068 2.855350 15.748050 1.291773 1.388473 -0.000767 0.001499 140150.000000 1 0 0
-10.923784 -10.191668 -14.665250 20.934868 0.750740 2.346919 0.048992 0.002228 21245.300000 1 0 0
0.086316 -20.175068 2.530950 20.333384 -1.566518 1.446000 0.031719 -0.022184 255816.000000 1 0 0
5.348516 -18.572868 0.727750 19.341346 -1.290408 1.533161 0.028277 -0.002982 75514.400000 1 0 0
-7.072084 -17.851868 -3.349650 19.491632 1.193610 1.743504 0.004248 -0.044149 64769.700000 1 0 0
-9.076384 -16.002968 -7.510650 19.871728 1.054867 1.958384 0.069228 -0.014028 -21181.600000 1 0 0
-11.755184 -11.306068 -12.299550 20.427688 0.765926 2.216927 0.028344 0.005189 375873.000000 1 0 0
-13.339584 -15.033868 -3.153550 20.344693 0.845041 1.726430 0.057719 -0.025243 122153.000000 1 0 0
-0.585784 -20.578268 -2.407850 20.726939 1.542338 1.687229 0.034944 -0.012600 413757.000000 1 0 0
-12.477984 -16.668768 -0.406850 20.825788 0.928202 1.590333 0.076847 -0.023419 71078.300000 1 0 0
0.661716 -19.761768 5.426450 20.503943 -1.537324 1.302951 0.054208 -0.035633 214720.000000 1 0 0
-18.458184 -9.338668 2.474050 20.833535 0.468385 1.451762 0.066828 -0.009645 -14626.000000 1 0 0
-15.350484 -14.548968 -0.737250 21.162546 0.758598 1.605641 0.086500 -0.023916 -46132.200000 1 0 0
10.275116 -15.378368 -5.364650 19.257509 -0.981765 1.853106 0.057433 -0.013822 -73282.300000 1 0 0
-0.325384 -19.165568 -6.975750 20.398185 1.553820 1.919818 0.015721 -0.005144 271332.000000 1 0 0
-10.561884 -17.912868 -2.399550 20.932799 1.038040 1.685680 0.071921 0.012788 583158.000000 1 0 0
-14.571584 -6.559268 -11.357850 19.604994 0.422971 2.188708 0.043537 -0.011855 22001.000000 1 0 0
-12.277884 -15.431868 2.156450 19.837824 0.898733 1.461877 0.049340 -0.018189 163365.000000 1 0 0
-3.018884 -16.221168 9.962650 19.274189 1.386794 1.027581 0.017679 -0.016648 290305.000000 1 0 0
-12.181984 -14.442768 -6.552750 19.998320 0.870108 1.904627 0.043417 -0.013508 216310.000000 1 0 0
4.979816 -16.930768 -7.462650 19.160913 -1.284735 1.970855 0.036356 -0.022022 81869.600000 1 0 0
-17.408384 -7.214868 -2.759750 19.045271 0.392899 1.716213 0.009168 -0.014886 -55477.600000 1 0 0
-12.431784 -13.249568 -9.109850 20.324607 0.817231 2.035567 0.070276 -0.029979 125739.000000 1 0 0
-7.798284 -14.346368 10.406850 19.363213 1.072902 1.003380 0.013697 0.006343 554565.000000 1 0 0
-15.702584 -8.249968 -5.831950 18.672031 0.483752 1.888448 0.038972 -0.006137 285980.000000 1 0 0
-0.668184 -19.549968 0.245450 19.562923 1.536631 1.558249 0.023813 -0.018099 200745.000000 1 0 0
-14.990484 -11.337068 -1.879850 18.888556 0.647511 1.670485 0.024589 -0.007643 -2854.390000 1 0 0
-6.822384 -19.097068 2.098050 20.387367 1.227679 1.467704 0.013262 -0.013763 271169.000000 1 0 0
-1.746784 -21.293068 -4.713150 21.878294 1.488944 1.787924 0.015958 -0.001327 56979.400000 1 0 0
-8.761684 -19.837768 -0.991350 21.709143 1.154894 1.616477 0.032076 -0.005493 244933.000000 1 0 0
-17.797484 -7.810768 5.026250 20.075401 0.413559 1.317735 0.047314 -0.007671 -290666.000000 1 0 0
-2.860084 -15.922268 -10.779250 19.439416 1.393064 2.158564 0.012380 0.002571 104130.000000 1 0 0
-2.861584 -17.968568 -8.341450 20.015940 1.412868 2.000653 0.002889 -0.007019 163702.000000 1 0 0
4.456416 -17.649268 -4.630650 18.782950 -1.323467 1.819899 0.027262 -0.009166 648065.000000 1 0 0
0.510016 -17.515268 -9.122650 19.755188 -1.541686 2.050803 0.018488 -0.001193 58478.600000 1 0 0
-7.652084 -10.176668 -14.940850 19.630281 0.926065 2.435823 0.017582 -0.001357 529629.000000 1 0 0
-5.211984 -19.426268 -1.941750 20.206807 1.308674 1.667039 0.030812 -0.018026 177389.000000 1 0 0
-10.013084 -16.079468 8.396950 20.720036 1.013835 1.153536 0.019339 -0.011302 154704.000000 1 0 0
-7.321984 -15.062068 -10.384450 19.705688 1.118314 2.125836 0.032774 -0.010287 225492.000000 1 0 0
-12.593884 -8.110368 -12.419350 19.458269 0.572140 2.263027 0.042901 -0.005952 146439.000000 1 0 0
-15.665684 -12.908168 3.455950 20.590727 0.689191 1.402158 0.064081 -0.019076 146751.000000 1 0 0
-6.450284 -14.184568 -12.756650 20.138029 1.144008 2.256814 0.022021 0.000378 524567.000000 1 0 0
-14.260984 -11.644068 -6.845350 19.642270 0.684720 1.926768 0.061936 -0.016025 53232.400000 1 0 0
-11.966884 -10.644568 -8.006350 17.905719 0.726985 2.034361 0.046630 -0.004885 192672.000000 1 0 0
-9.396384 -14.758668 3.063350 17.762163 1.003850 1.397465 0.007354 -0.007820 300988.000000 1 0 0
4.589616 -18.455768 8.095250 20.669132 -1.327059 1.168362 0.050702 -0.025788 141337.000000 1 0 0
-4.961284 -16.898468 5.328850 18.400250 1.285227 1.276980 -0.005251 0.013863 425293.000000 1 0 0
-18.394084 -7.333368 -6.638650 20.885217 0.379369 1.894272 0.059642 -0.027724 -46260.000000 1 0 0
-17.069084 -5.064068 -10.631450 20.737071 0.288409 2.109098 0.075689 -0.013290 -230002.000000 1 0 0
-15.856484 -3.867568 -12.790450 20.736002 0.239239 2.235497 0.062399 -0.022867 331902.000000 1 0 0
-19.648684 -5.315768 -5.887050 21.189278 0.264216 1.852332 0.081892 -0.018530 294677.000000 1 0 0
5.487216 -13.542668 8.490850 16.899939 -1.185833 1.044402 0.023726 -0.012186 194576.000000 1 0 0
19.901816 -3.728368 2.793850 20.439878 -0.185192 1.433681 0.089352 -0.022355 -100631.000000 1 0 0
18.007616 -2.497168 0.096850 18.180194 -0.137794 1.565469 0.068325 -0.021323 224691.000000 1 0 0
14.042016 -11.288168 0.341750 18.019926 -0.677105 1.551830 0.046258 -0.010798 57528.700000 1 0 0
10.946416 -13.459868 5.324750 18.147866 -0.888020 1.273005 0.023141 -0.012055 383859.000000 1 0 0
10.454216 -12.710768 8.385350 18.470743 -0.882504 1.099569 0.057712 -0.030253 57065.900000 1 0 0
17.462116 4.790532 -4.557450 18.672039 0.267751 1.817366 0.017569 0.001320 -92678.600000 1 0 0
19.118416 -6.110268 -4.512650 20.572146 -0.309341 1.791952 0.119333 -0.024305 -38879.200000 1 0 0
17.576516 -10.064768 0.001550 20.254221 -0.520048 1.570720 0.078386 -0.015562 146177.000000 1 0 0
17.738516 -8.782768 8.752950 21.642692 -0.459739 1.154441 0.131072 -0.026456 -119552.000000 1 0 0
19.939816 0.148832 -1.994950 20.039916 0.007464 1.670510 0.101759 -0.013359 -170695.000000 1 0 0
7.217316 -13.829368 11.391850 19.316193 -1.089796 0.940039 0.025146 0.000651 326783.000000 1 0 0
16.263216 -6.419968 -3.429050 17.817591 -0.375976 1.764458 0.082805 -0.013802 225607.000000 1 0 0
14.486416 -6.751168 12.166150 20.086058 -0.436108 0.920149 0.089241 -0.027499 373222.000000 1 0 0
16.657816 0.761232 9.781250 19.332231 0.045666 1.040307 0.113660 -0.036136 81055.900000 1 0 0
16.558616 -10.071768 2.600050 19.554757 -0.546463 1.437439 0.040336 -0.018351 203374.000000 1 0 0
15.699116 -7.009868 -5.533850 18.061672 -0.419951 1.882191 0.072080 -0.018908 129486.000000 1 0 0
18.770916 -4.583268 5.790750 20.171426 -0.239483 1.279622 0.164838 -0.022671 -110217.000000 1 0 0
13.544216 -13.177868 8.038350 20.535751 -0.771689 1.168609 0.069816 -0.025013 18948.300000 1 0 0
15.437616 -14.196768 -1.188350 21.006675 -0.743551 1.627397 0.075760 -0.009202 167331.000000 1 0 0
18.724216 -6.343368 7.952650 21.309135 -0.326643 1.188336 0.122736 -0.030370 328135.000000 1 0 0
19.712516 3.657732 2.436950 20.196560 0.183467 1.449840 0.081561 -0.008868 296819.000000 1 0 0
15.773016 -10.420868 8.165450 20.592647 -0.583844 1.163070 0.092776 -0.036378 148640.000000 1 0 0
14.113016 -4.237168 10.645650 18.178578 -0.291669 0.945158 0.065416 -0.018792 -131820.000000 1 0 0
18.738516 -7.593768 1.918650 20.309567 -0.385023 1.476185 0.111091 -0.027647 -49730.700000 1 0 0
19.061116 -6.559368 -1.540350 20.216927 -0.331430 1.647061 0.100058 -0.028134 -50013.100000 1 0 0
14.963816 -13.387468 -6.141750 20.996694 -0.729855 1.867647 0.098643 -0.024706 586352.000000 1 0 0
13.840616 -9.480368 10.068650 19.565729 -0.600565 1.030248 0.056281 -0.031618 394367.000000 1 0 0
14.263816 2.249632 0.549650 14.450585 0.156428 1.532751 0.004584 -0.001101 -125889.000000 1 0 0
12.841316 3.011832 13.677450 19.001136 0.230378 0.767249 0.053726 -0.019109 201974.000000 1 0 0
17.997316 -3.755468 9.230450 20.572023 -0.205716 1.105498 0.090141 -0.017770 -11624.700000 1 0 0
7.256316 -18.204868 5.114550 20.254134 -1.191504 1.315514 0.059456 -0.035060 268585.000000 1 0 0
12.261616 -3.688268 14.523250 19.361698 -0.292189 0.722580 0.070558 -0.008740 236759.000000 1 0 0
11.577416 -13.752468 -7.045150 19.308057 -0.871057 1.944302 0.050617 -0.017126 227020.000000 1 0 0
10.989316 -16.858468 4.528350 20.627141 -0.993117 1.349460 0.064196 -0.024884 608798.000000 1 0 0
18.425716 -0.390868 -5.228950 19.157289 -0.021210 1.847253 0.101478 -0.011539 368128.000000 1 0 0
4.157316 -13.801868 11.358550 18.351880 -1.278226 0.903415 0.007178 -0.009218 186207.000000 1 0 0
9.162016 -2.648068 14.075850 17.002481 -0.281359 0.595496 0.027550 -0.006953 119833.000000 1 0 0
9.151716 -9.094368 14.022150 19.054714 -0.782255 0.743818 0.055561 -0.012546 308320.000000 1 0 0
21.047316 5.530432 -3.368350 22.020921 0.256953 1.724361 0.107129 -0.014016 545971.000000 1 0 0
14.606316 -13.594768 2.148750 20.069362 -0.749544 1.463525 0.042086 -0.006089 270609.000000 1 0 0
11.794616 -0.668268 15.489350 19.480234 -0.056598 0.651572 0.077429 -0.000313 -43200.500000 1 0 0
19.724916 0.132832 7.546050 21.119490 0.006734 1.205418 0.132650 -0.024289 159432.000000 1 0 0
19.938716 1.342432 0.424950 19.988374 0.067226 1.549535 0.086163 -0.011306 346866.000000 1 0 0
17.708216 0.216232 2.864850 17.939761 0.012210 1.410417 0.045578 -0.001885 -81505.000000 1 0 0
10.465816 -8.558668 16.398750 21.253308 -0.685485 0.689466 0.084428 -0.001063 131413.000000 1 0 0
19.355216 2.775432 5.153750 20.220993 0.142424 1.313082 0.083003 -0.015371 175027.000000 1 0 0
15.309216 2.558432 7.164250 17.095150 0.165587 1.138364 0.046288 -0.009637 88704.400000 1 0 0
11.489416 -16.115568 1.628450 19.858753 -0.951439 1.488702 0.036893 -0.007702 325395.000000 1 0 0
8.793316 -16.544368 7.033850 20.012835 -1.082268 1.211659 0.046145 -0.006073 205356.000000 1 0 0
6.277116 6.647732 7.183950 11.627712 0.814065 0.904816 0.002104 0.004084 -1198600.000000 1 0 0
18.633916 2.471932 -6.412050 19.860706 0.131888 1.899537 0.084785 -0.006201 340761.000000 1 0 0
14.275916 4.354832 -7.302650 16.616108 0.296081 2.025830 0.032371 -0.003479 156711.000000 1 0 0
-10.760484 -3.890468 -13.792050 17.920502 0.346928 2.449048 0.024036 -0.005646 -241669.000000 1 0 0
7.852816 -13.930068 -10.528650 19.145913 -1.057472 2.153060 0.033566 -0.015694 1427.620000 1 0 0
1.690216 -15.847068 13.800950 21.082045 -1.464540 0.857103 0.008746 -0.006198 390525.000000 1 0 0
-9.576984 -8.131968 2.561750 12.822250 0.703980 1.369653 0.011582 -0.003531 541351.000000 1 0 0
-13.668284 3.026232 -9.673050 17.016109 -0.217890 2.175434 0.024551 -0.008650 432704.000000 1 0 0
-13.048184 -5.254568 -13.140750 19.249542 0.382836 2.322183 0.042941 -0.001747 -55838.800000 1 0 0
-18.079384 -1.276168 -8.722150 20.113891 0.070470 2.019323 0.076170 -0.030414 667359.000000 1 0 0
-12.223384 15.274632 4.381550 20.048030 -0.895909 1.350465 0.039786 -0.014699 449120.000000 1 0 0
-17.170584 6.713332 9.022050 20.525476 -0.372705 1.115695 0.032514 -0.015001 154174.000000 1 0 0
-14.263084 15.217032 -0.349550 20.859430 -0.817746 1.587554 0.067356 -0.035740 220539.000000 1 0 0
-16.226284 5.437032 -10.563850 20.110906 -0.323318 2.123840 0.074880 -0.015977 67765.400000 1 0 0
-18.545884 2.876732 -0.618150 18.777846 -0.153888 1.603721 0.077479 -0.009404 -73192.700000 1 0 0
-9.610584 15.375132 -0.349250 18.135049 -1.012144 1.590056 0.019708 -0.008389 -23187.200000 1 0 0
-18.834784 11.809632 2.647650 22.388090 -0.560045 1.452257 0.125495 -0.037793 -297653.000000 1 0 0
-8.808284 16.121332 -7.741550 19.935265 -1.070741 1.969620 0.063220 -0.039284 21557.700000 1 0 0
-14.665884 -1.635768 -12.807850 19.539828 0.111076 2.285606 0.037246 -0.030823 117451.000000 1 0 0
-18.951684 5.295732 -4.766850 20.246826 -0.272483 1.808464 0.063877 -0.011277 -42128.000000 1 0 0
-16.887184 8.855032 -6.093450 20.017960 -0.482948 1.880104 0.064618 -0.014742 -33322.300000 1 0 0
-19.045484 1.552832 2.432250 19.262855 -0.081353 1.444192 0.070220 -0.018744 320126.000000 1 0 0
-13.604884 12.992232 -7.224150 20.151409 -0.762368 1.937450 0.050441 0.007327 -109226.000000 1 0 0
-12.762584 4.897932 -13.703550 19.356150 -0.366440 2.357414 0.060001 -0.028822 -167159.000000 1 0 0
-14.226884 9.541732 -6.404750 18.288513 -0.590778 1.928588 0.046335 -0.010312 216598.000000 1 0 0
-6.549584 11.879032 -15.315150 20.458794 -1.066912 2.416722 0.016106 -0.013723 -283027.000000 1 0 0
-15.546284 13.346032 2.530050 20.644725 -0.709391 1.447936 0.077182 -0.044776 61582.300000 1 0 0
-18.780984 8.345132 -4.782950 21.100787 -0.418137 1.799455 0.076024 -0.019050 108407.000000 1 0 0
-4.956784 16.442932 -11.044350 20.418555 -1.278006 2.142300 0.024923 -0.001951 -11854.700000 1 0 0
-19.647384 -1.950868 -6.453350 20.771887 0.098970 1.886702 0.067040 -0.019419 -78517.700000 1 0 0
-10.323784 14.072332 -6.282950 18.549569 -0.937859 1.916343 0.032526 -0.017163 -337226.000000 1 0 0
-19.308484 3.199132 4.332150 20.045437 -0.164194 1.352961 0.065397 -0.008834 12510.400000 1 0 0
-14.889584 11.737932 0.280750 18.962004 -0.667586 1.555990 0.020277 -0.022959 76195.600000 1 0 0
-17.250584 2.728332 -8.250250 19.315617 -0.156860 2.012111 0.030520 -0.019259 129241.000000 1 0 0
-16.846484 14.156032 -3.568750 22.292000 -0.698833 1.731579 0.063621 0.029020 270606.000000 1 0 0
-10.960784 15.786932 -8.465550 21.000751 -0.963910 1.985706 0.056141 -0.022238 57832.100000 1 0 0
-19.336384 1.558832 -6.982250 20.617408 -0.080443 1.916287 0.072696 -0.027268 241263.000000 1 0 0
-17.133984 10.457332 -0.224950 20.074357 -0.547978 1.582002 0.044033 -0.008567 -83074.100000 1 0 0
-11.504684 6.490032 -14.579850 19.673594 -0.513620 2.405485 0.031936 -0.027827 243390.000000 1 0 0
-13.927684 12.120332 -5.032850 19.136677 -0.716124 1.836921 0.059857 -0.023861 371954.000000 1 0 0
-18.846784 7.558532 -0.319750 20.308494 -0.381413 1.586542 0.060450 -0.010758 -35483.400000 1 0 0
-14.502384 8.953532 -10.284150 19.905994 -0.553104 2.113713 0.049650 -0.014067 501762.000000 1 0 0
-18.579884 11.164032 5.175550 22.285287 -0.541056 1.336416 0.080505 -0.046223 27394.300000 1 0 0
-8.286984 12.077232 -13.292850 19.779623 -0.969416 2.307767 0.000305 -0.006543 503329.000000 1 0 0
-21.276884 -1.784368 -4.879450 21.902027 0.083668 1.795467 0.098415 -0.041068 307194.000000 1 0 0
-10.720384 13.691532 -3.791750 17.797810 -0.906511 1.785488 0.030224 0.003698 502302.000000 1 0 0
-18.796884 -4.854768 3.598950 19.744469 0.252752 1.387495 0.055642 -0.009575 45726.600000 1 0 0
-11.345084 11.434832 -13.250350 20.857567 -0.789338 2.259165 0.043505 -0.007891 227858.000000 1 0 0
-15.033984 11.669132 -9.845250 21.427045 -0.660049 2.048203 0.073397 -0.014108 350545.000000 1 0 0
-12.589684 9.602332 -14.042950 21.163869 -0.651589 2.296329 0.065890 -0.022016 362691.000000 1 0 0
-18.394684 -4.870968 -2.652950 19.212727 0.258862 1.709322 0.035127 -0.013268 -387332.000000 1 0 0
-9.769584 12.755132 -11.400850 19.700699 -0.917175 2.187934 0.034279 -0.011135 61250.100000 1 0 0
-15.972084 7.625132 -8.148850 19.484708 -0.445408 2.002279 0.052429 -0.006489 112479.000000 1 0 0
-14.536684 8.924932 1.971550 17.171389 -0.550621 1.455727 0.027634 -0.007249 -4532.240000 1 0 0
-19.787484 6.314332 7.731250 22.162751 -0.308893 1.214463 0.080061 -0.025191 223971.000000 1 0 0
-18.914884 5.952732 3.676850 20.167476 -0.304898 1.387455 0.044640 -0.010708 134899.000000 1 0 0
-14.457684 12.954832 5.745550 20.245090 -0.730629 1.283042 0.029805 -0.017938 111187.000000 1 0 0
17.952016 6.217232 5.655650 19.822090 0.333397 1.281455 0.049038 -0.016600 121456.000000 1 0 0
18.486316 8.241932 0.426150 20.244874 0.419389 1.549745 0.061828 0.000456 -11789.800000 1 0 0
15.764816 5.530732 9.234050 19.088900 0.337412 1.065874 0.036813 0.011278 -77520.200000 1 0 0
12.233116 13.227632 10.551450 20.879475 0.824439 1.041008 0.053078 -0.008073 95754.600000 1 0 0
15.767016 12.186632 3.954350 20.316242 0.658009 1.374906 0.071594 -0.014123 293195.000000 1 0 0
5.310416 10.657832 14.380650 18.670646 1.108538 0.691598 0.026447 0.003368 274952.000000 1 0 0
12.358116 14.582132 -4.773750 19.701530 0.867765 1.815536 0.046503 0.039138 358162.000000 1 0 0
18.369516 9.322932 -2.499350 20.750974 0.469647 1.691534 0.088423 -0.006729 -67732.600000 1 0 0
14.718816 8.083932 9.442550 19.265390 0.502248 1.058557 0.051271 -0.013277 135616.000000 1 0 0
4.807516 19.031532 -1.922750 19.723296 1.323365 1.668438 0.028504 -0.019177 486370.000000 1 0 0
-4.583584 19.775632 3.706250 20.635435 -1.343039 1.390210 0.008485 0.018203 361554.000000 1 0 0
7.243316 12.789032 12.721750 19.438825 1.055472 0.857341 0.042933 0.000431 -75177.900000 1 0 0
0.376116 17.257132 -10.170050 20.034470 1.549005 2.103225 0.030506 0.003441 -31695.000000 1 0 0
10.522416 9.269132 16.056450 21.317778 0.722158 0.717890 0.043199 0.001466 184705.000000 1 0 0
-1.343284 12.103832 0.755050 12.201527 -1.460269 1.508875 -0.007084 0.002380 501201.000000 1 0 0
-4.777184 19.235032 -2.650850 19.995873 -1.327363 1.703758 0.019471 0.003370 70104.400000 1 0 0
5.691216 18.672932 5.962450 20.411251 1.274956 1.274358 0.024814 -0.014150 270520.000000 1 0 0
11.343416 17.469732 -1.392450 20.875908 0.994901 1.637547 0.040414 -0.006013 466999.000000 1 0 0
18.572716 10.439532 3.403150 21.575705 0.512078 1.412404 0.056919 -0.007296 307434.000000 1 0 0
11.477816 16.877132 6.328750 21.368925 0.973564 1.270120 0.053093 0.001534 36810.600000 1 0 0
18.112716 7.202232 -5.961150 20.383276 0.378465 1.867587 0.056784 0.007349 253270.000000 1 0 0
0.583116 16.066832 10.984550 19.471607 1.534519 0.971415 -0.000172 0.018114 365987.000000 1 0 0
1.141916 20.098632 -2.166650 20.247305 1.514042 1.678011 0.030035 -0.017291 333373.000000 1 0 0
14.358916 9.780132 -1.308650 17.422457 0.597942 1.645980 0.036897 -0.006154 -78948.400000 1 0 0
9.550616 17.561432 1.406650 20.039881 1.072694 1.500546 0.020900 -0.011989 269933.000000 1 0 0
0.086216 17.775732 -0.671650 17.788626 1.565946 1.608563 0.008525 -0.002763 85344.700000 1 0 0
0.020116 20.996232 1.026350 21.021312 1.569838 1.521953 0.026797 -0.007527 304039.000000 1 0 0
6.006816 18.577532 0.359650 19.527824 1.258069 1.552378 0.016629 0.003290 -8662.450000 1 0 0
7.754716 18.502732 -2.249750 20.187820 1.173923 1.682469 0.024066 -0.010225 127943.000000 1 0 0
10.143216 9.566532 12.604050 18.795357 0.756148 0.835787 0.022731 -0.008366 46936.500000 1 0 0
12.992916 14.859632 8.125250 21.345825 0.852319 1.180299 0.065397 -0.017382 127031.000000 1 0 0
0.186516 17.840932 6.650750 19.041169 1.560342 1.213991 0.007159 0.001136 187132.000000 1 0 0
7.450616 18.093432 -7.845250 21.081554 1.180171 1.952108 0.044370 -0.002711 134349.000000 1 0 0
-1.460984 18.615232 8.998450 20.727601 -1.492474 1.121725 0.042440 -0.012439 171895.000000 1 0 0
16.175416 7.213032 -7.990650 19.429936 0.419460 1.994626 0.070894 0.001826 -191135.000000 1 0 0
-5.412884 19.608532 -6.839950 21.461099 -1.301457 1.895169 0.028861 -0.017586 223273.000000 1 0 0
3.796816 16.125432 9.653650 19.173898 1.339553 1.043176 0.018854 0.004164 228388.000000 1 0 0
9.007516 14.941232 7.336950 18.926347 1.028274 1.172707 0.018189 -0.002144 -14855.000000 1 0 0
-2.655684 19.799932 6.109450 20.890557 -1.437466 1.274008 0.016875 0.001609 159650.000000 1 0 0
4.744516 18.098432 8.150950 20.408373 1.314415 1.159942 0.027548 -0.012012 177694.000000 1 0 0
14.520316 12.076332 -6.255650 19.894988 0.693765 1.890656 0.051779 0.002294 187814.000000 1 0 0
11.909416 7.058432 15.558450 20.825970 0.535017 0.727153 0.076859 -0.016742 196723.000000 1 0 0
17.153916 9.270932 4.898950 20.104893 0.495486 1.324649 0.060409 -0.016802 137807.000000 1 0 0
5.150916 14.966032 11.771150 19.724960 1.239321 0.931334 0.018846 -0.018182 473766.000000 1 0 0
16.021816 10.469932 -3.627250 19.480118 0.578818 1.758092 0.072446 -0.014007 266834.000000 1 0 0
15.189316 13.774332 6.212750 21.425355 0.736583 1.276599 0.075705 -0.009622 252998.000000 1 0 0
12.633916 14.266032 -8.311850 20.789958 0.845997 1.982096 0.115502 -0.021387 336593.000000 1 0 0
-8.633784 15.478132 9.482450 20.100539 -1.061980 1.079521 0.046465 -0.023748 205547.000000 1 0 0
-4.106484 17.597532 -8.050050 19.782306 -1.341543 1.989889 0.004540 0.028855 138307.000000 1 0 0
2.563416 19.342832 -4.829150 20.100670 1.439039 1.813418 0.039753 -0.027435 63699.500000 1 0 0
6.944516 16.740932 9.076250 20.269767 1.177578 1.106523 0.023172 -0.003913 434998.000000 1 0 0
13.467616 15.548932 -1.502950 20.625344 0.857004 1.643730 0.071768 -0.009937 352407.000000 1 0 0
12.181016 16.770632 3.993450 21.108740 0.942617 1.380465 0.054492 -0.022140 275647.000000 1 0 0
2.840616 18.237032 0.286950 18.459165 1.416277 1.555251 0.030238 -0.022174 45400.600000 1 0 0
-7.732584 16.942232 1.416350 18.677209 -1.142626 1.494890 0.019804 -0.004959 286245.000000 1 0 0
0.322816 20.019532 -5.965550 20.891952 1.554673 1.860369 0.048107 -0.004860 254008.000000 1 0 0
-8.175484 17.940132 -6.471850 20.750222 -1.143205 1.887981 0.073382 -0.027725 156178.000000 1 0 0
-7.559284 18.662832 -1.481350 20.190059 -1.185949 1.644233 0.040730 -0.011147 -6174.490000 1 0 0
-14.473484 -9.215368 8.728750 19.250866 0.566974 1.100196 0.044402 -0.011237 265284.000000 1 0 0
-13.030884 -13.484968 8.023350 20.396628 0.802521 1.166506 0.042518 -0.013746 134474.000000 1 0 0
-3.630384 -15.637768 12.979550 20.644326 1.342682 0.890887 0.014836 0.002870 145368.000000 1 0 0
-1.806684 -14.588968 15.794750 21.577216 1.447585 0.749528 0.015285 0.007792 504455.000000 1 0 0
-7.536184 -13.720468 13.535850 20.694554 1.068517 0.857833 0.011208 -0.009297 170257.000000 1 0 0
-10.216184 -11.147068 11.786450 19.171540 0.828945 0.908678 0.046682 -0.010813 61931.600000 1 0 0
-7.538284 -10.441468 13.133050 18.393667 0.945486 0.775604 0.023267 -0.011852 376336.000000 1 0 0
-15.205184 -12.474568 7.396350 21.012341 0.687066 1.211089 0.057598 -0.008860 256876.000000 1 0 0
-4.799084 -12.496268 13.498450 19.010420 1.204123 0.781220 0.020446 -0.011438 437218.000000 1 0 0
3.401216 -12.514468 13.926850 19.029906 -1.305424 0.749778 -0.002228 0.004171 486259.000000 1 0 0
6.226816 -13.670268 14.577750 20.932278 -1.143377 0.800393 0.019893 -0.001995 280751.000000 1 0 0
7.141916 -9.069368 16.468650 20.111610 -0.903738 0.611369 0.041083 -0.009374 548828.000000 1 0 0
-5.067184 13.342932 13.647050 19.747207 -1.207854 0.807804 0.002754 -0.005121 401068.000000 1 0 0
-13.518084 -1.194468 17.116050 21.843180 0.088132 0.670376 0.051649 -0.029318 36006.900000 1 0 0
-10.132084 9.433432 12.822750 18.869862 -0.749705 0.823666 0.010452 -0.018407 376325.000000 1 0 0
-7.538884 -8.318768 17.025250 20.393524 0.834539 0.582961 0.035465 -0.021778 204768.000000 1 0 0
-4.876284 1.846432 18.615650 19.332095 -0.361972 0.273097 0.019325 -0.007869 501068.000000 1 0 0
-15.650084 -3.338068 14.758150 21.768574 0.210145 0.825817 0.074512 -0.022952 23453.600000 1 0 0
-14.353584 3.149632 12.588150 19.349602 -0.216008 0.862470 0.038259 -0.007558 255900.000000 1 0 0
-14.894884 11.001732 9.768550 20.936099 -0.636181 1.085366 0.009452 0.007312 48582.500000 1 0 0
-4.213484 11.376332 15.728550 19.863577 -1.216089 0.656999 0.010201 -0.001604 197307.000000 1 0 0
-13.233984 12.931832 7.798450 20.079503 -0.773851 1.171925 0.014889 -0.032375 79594.500000 1 0 0
-3.850884 -6.325468 18.595150 20.015506 1.023938 0.378994 0.040447 -0.026021 351126.000000 1 0 0
0.553516 -2.832968 17.584350 17.819693 -1.377843 0.162703 0.009801 -0.032376 173694.000000 1 0 0
-4.555284 6.322232 21.160250 22.549444 -0.946432 0.352845 0.058121 -0.013513 304946.000000 1 0 0
2.224216 -10.594068 16.297550 19.565060 -1.363853 0.586302 -0.002041 -0.009327 367097.000000 1 0 0
-14.802484 -0.040568 13.921750 20.320687 0.002741 0.816052 0.035118 -0.010923 -78122.000000 1 0 0
-14.081784 -5.954368 7.845350 17.184314 0.400041 1.096692 0.034439 -0.001002 37798.600000 1 0 0
10.126116 0.803932 16.343950 19.243421 0.079226 0.556088 0.055492 -0.000801 306986.000000 1 0 0
-7.652284 12.533632 12.261550 19.130996 -1.022663 0.875092 0.011020 -0.002277 78662.300000 1 0 0
-1.959584 7.502732 20.194050 21.631704 -1.315321 0.366633 0.065792 -0.020898 549753.000000 1 0 0
1.263316 -13.301868 15.043650 20.120812 -1.476108 0.726256 -0.006045 -0.017979 517584.000000 1 0 0
-3.567284 -11.500768 17.759750 21.456978 1.270028 0.595815 0.036849 -0.023754 444326.000000 1 0 0
-2.542084 8.614332 16.927050 19.162305 -1.283842 0.487831 0.042869 -0.008754 531833.000000 1 0 0
-4.081184 -9.266668 20.418450 22.791233 1.155941 0.460365 0.049066 -0.032600 198890.000000 1 0 0
-6.625084 -3.107068 19.391850 20.726540 0.438530 0.360828 0.040368 -0.013587 372126.000000 1 0 0
-10.841484 -8.028268 16.026450 20.948460 0.637402 0.699690 0.056114 -0.022394 289310.000000 1 0 0
-0.541284 5.644232 17.989750 18.862170 -1.475188 0.305331 0.035037 -0.013982 -180098.000000 1 0 0
-6.548684 -10.740768 19.107650 22.876880 1.023272 0.582230 0.078905 -0.027411 519619.000000 1 0 0
0.189516 3.190932 19.032150 19.298723 1.511474 0.166402 0.025449 -0.007237 60075.400000 1 0 0
-18.579984 -0.234968 7.638450 20.090220 0.012646 1.180776 0.058616 -0.014775 227085.000000 1 0 0
-1.679884 -8.728868 17.378150 19.519612 1.380669 0.472811 0.020689 -0.022744 262677.000000 1 0 0
5.215716 3.426132 14.209750 15.519635 0.581201 0.413803 0.013746 -0.009804 -48593.200000 1 0 0
-13.943784 -7.052768 10.278650 18.703510 0.468277 0.988962 0.039824 0.000938 47228.700000 1 0 0
4.068516 8.039032 16.490350 18.791235 1.102284 0.500057 0.028632 -0.015816 294765.000000 1 0 0
6.534816 4.200432 17.211150 18.883092 0.571281 0.423981 0.043982 -0.036619 360931.000000 1 0 0
5.533716 -9.330668 18.120350 21.119434 -1.035490 0.539445 0.026359 0.000376 403660.000000 1 0 0
-4.506984 -0.612968 19.802950 20.318599 0.135175 0.225771 0.030409 -0.019729 760333.000000 1 0 0
-11.427284 2.044932 16.916750 20.516847 -0.177077 0.601426 0.057627 -0.013827 238217.000000 1 0 0
-16.844984 -4.039968 8.773050 19.417550 0.235386 1.102003 0.048444 -0.007254 447410.000000 1 0 0
-12.818084 -9.692568 12.305950 20.240691 0.647434 0.917282 0.030793 -0.021461 -50625.500000 1 0 0
-14.675784 6.012632 12.937350 20.467179 -0.388838 0.886533 0.039449 -0.023252 401038.000000 1 0 0
1.095116 9.404232 17.186850 19.622097 1.454869 0.503514 0.027343 -0.010460 492572.000000 1 0 0
-3.840184 -10.277968 15.059350 18.632436 1.213225 0.629651 0.029830 -0.015987 574403.000000 1 0 0
-18.780884 -3.059268 6.509450 20.111033 0.161474 1.241185 0.117079 -0.013121 -216484.000000 1 0 0
-1.040884 -0.505268 21.128350 21.160008 0.451917 0.054708 0.029082 -0.022576 344984.000000 1 0 0
-1.729684 2.482732 20.286150 20.510575 -0.962298 0.148067 0.035533 -0.023434 22113.500000 1 0 0
-8.006084 2.369632 16.378650 18.384035 -0.287764 0.471436 0.005100 0.007553 601113.000000 1 0 0
2.734716 -2.559168 18.760550 19.130768 -0.752250 0.197052 0.011441 -0.013960 -191732.000000 1 0 0
-11.978984 4.448932 14.458550 19.296081 -0.355606 0.723792 0.003445 -0.010477 75950.000000 1 0 0
-13.395884 -5.783968 13.398050 19.809385 0.407593 0.828002 0.038247 -0.004765 64293.500000 1 0 0
-17.484184 -0.806568 9.924150 20.120537 0.046099 1.054992 0.067952 -0.014849 177286.000000 1 0 0
-7.829784 7.428432 14.437950 18.026135 -0.759100 0.641924 0.007047 -0.021273 78626.200000 1 0 0
-9.477984 1.058132 14.160850 17.072830 -0.111181 0.592696 0.009899 -0.005026 -22727.300000 1 0 0
7.465416 -0.909168 14.952350 16.737139 -0.121187 0.466020 0.025487 -0.007558 149542.000000 1 0 0
4.199916 6.295332 18.255250 19.761697 0.982461 0.392987 0.028434 -0.006248 145441.000000 1 0 0
1.644816 0.264632 20.013250 20.082471 0.159522 0.083052 0.008950 -0.012699 170069.000000 1 0 0
-7.195284 6.891232 17.239450 19.911299 -0.763817 0.524025 0.020314 -0.017203 567941.000000 1 0 0
7.717316 -3.362068 16.883450 18.865613 -0.410859 0.462516 0.038912 -0.000193 542308.000000 1 0 0
-16.524084 2.541632 9.040650 19.006278 -0.152618 1.075075 0.047865 -0.017999 179868.000000 1 0 0
3.614016 -6.121468 19.167250 20.443018 -1.037477 0.355151 0.013712 -0.021481 59879.100000 1 0 0
-3.399284 -3.826168 20.944050 21.560333 0.844410 0.239672 0.030958 -0.019094 569674.000000 1 0 0
-9.637184 5.875432 14.541150 18.407636 -0.547494 0.660065 0.013423 -0.007548 -85644.100000 1 0 0
6.631716 2.225732 19.931950 21.123830 0.323807 0.337527 0.069724 -0.016137 -20243.300000 1 0 0
-7.364484 11.566532 14.525850 19.975501 -1.003823 0.756587 0.014425 -0.016246 232641.000000 1 0 0
-14.426884 5.302332 9.621150 18.133291 -0.352207 1.011512 0.015980 -0.010552 428736.000000 1 0 0
1.334316 -4.937768 20.316950 20.950905 -1.306873 0.246629 0.037382 -0.033765 247454.000000 1 0 0
-6.032084 -8.003668 13.609150 16.901293 0.924954 0.634761 0.011991 -0.012602 74659.800000 1 0 0
-12.759384 10.128132 6.510050 17.543138 -0.670936 1.190616 -0.009953 -0.018315 170864.000000 1 0 0
-19.380384 2.215132 7.729050 20.982000 -0.113804 1.193546 0.049992 -0.019934 35058.300000 1 0 0
-15.861884 9.178732 6.236650 19.358313 -0.524585 1.242776 0.024739 -0.019755 87387.400000 1 0 0
-12.968884 7.932232 14.097750 20.733037 -0.548931 0.823081 0.023329 -0.011640 175885.000000 1 0 0
-16.257084 8.992632 10.968450 21.574687 -0.505260 1.037477 0.038457 -0.015363 224661.000000 1 0 0
2.436316 10.580732 14.787150 18.345227 1.344481 0.633351 0.019817 -0.032651 350866.000000 1 0 0
1.500916 14.390032 12.865950 19.361262 1.466870 0.843945 0.019037 -0.023651 457228.000000 1 0 0
9.166916 4.968232 16.718650 19.703527 0.496661 0.557632 0.048582 -0.007905 196001.000000 1 0 0
-0.433584 13.362832 13.429250 18.949883 -1.538361 0.783182 0.004158 0.011416 109044.000000 1 0 0
4.103816 14.091132 14.986450 20.976058 1.287401 0.774951 0.029940 0.025053 116681.000000 1 0 0
-3.600884 -4.600368 -14.026650 15.194626 0.906670 2.746946 0.004493 -0.008711 43344.400000 1 0 0
5.190116 -11.704368 16.780650 21.107339 -1.153416 0.651764 -0.010613 0.002197 256125.000000 1 0 0
8.696116 -13.848368 7.439950 17.965316 -1.010077 1.143811 0.017664 -0.010478 169622.000000 1 0 0
-0.490584 15.188832 0.430950 15.202862 -1.538509 1.542446 0.003721 -0.002566 -213449.000000 1 0 0
-13.859984 7.924432 8.281250 17.985408 -0.519388 1.092302 -0.000127 -0.013850 -79971.200000 1 0 0
-16.137884 -9.762868 4.295250 19.344096 0.544063 1.346885 0.039696 -0.013319 -9742.070000 1 0 0
8.416916 -10.624168 11.420850 17.724369 -0.900804 0.870612 -0.002503 0.001084 64282.100000 1 0 0
-26.150104 5.922632 31.243143 41.170857 -0.222728 0.709227 0.068288 -0.031432 -335027.000000 0 0 1
-24.990184 5.202832 30.909963 40.087462 -0.205263 0.690287 0.062879 -0.025138 -608882.000000 0 0 1
-23.936684 5.593332 31.741583 40.146959 -0.229553 0.658951 0.056511 -0.020956 -1550620.000000 0 0 1
-22.705284 4.902232 31.285393 38.965852 -0.212643 0.638665 0.060742 -0.022235 -1549890.000000 0 0 1
-22.518784 3.541432 31.656153 39.009607 -0.155988 0.624088 0.047324 -0.024223 -19936.100000 0 0 1
-21.260384 3.028132 31.272363 37.935922 -0.141479 0.601749 0.055164 -0.016059 109038.000000 0 0 1
-20.890384 1.769732 32.116252 38.353536 -0.084513 0.578335 0.048586 -0.010297 73219.500000 0 0 1
-21.734284 0.660132 31.849170 38.564031 -0.030364 0.599039 0.046531 -0.000784 363249.000000 0 0 1
-21.485084 -0.292868 32.846088 39.249970 0.013630 0.579304 0.046760 0.003286 -122275.000000 0 0 1
-22.273784 -1.565268 32.593610 39.508416 0.070159 0.600631 0.053884 -0.018279 -725067.000000 0 0 1
-21.802984 -2.202668 31.457583 38.337989 0.100684 0.608454 0.083060 -0.016847 -13938.000000 0 0 1
-22.114084 -3.570368 31.426663 38.592945 0.160071 0.619255 0.084549 -0.021532 -19025.900000 0 0 1
-23.591984 -4.020868 31.211333 39.330604 0.168812 0.654153 0.057307 -0.018849 -471447.000000 0 0 1
-24.477484 -3.784568 32.232950 40.650132 0.153400 0.655184 0.043675 -0.012845 -534761.000000 0 0 1
-24.336484 -4.433468 33.481805 41.628732 0.180198 0.636307 0.042336 -0.019176 -856669.000000 0 0 1
-25.570474 -4.161368 -33.449800 42.309044 0.161327 2.482595 0.035965 -0.010610 -84872.000000 0 0 1
-25.753554 -4.906768 -32.277150 41.582885 0.188271 2.459432 0.034820 -0.012908 106394.000000 0 0 1
-26.864844 -4.421368 -31.556940 41.678637 0.163116 2.429734 0.050258 -0.013303 -148863.000000 0 0 1
-26.901814 -4.983868 -30.108010 40.682168 0.183185 2.403984 0.040560 -0.001355 -456071.000000 0 0 1
-27.038484 -6.379968 -30.101870 40.962253 0.231720 2.396269 0.040030 -0.007630 443946.000000 0 0 1
-26.766934 -6.843268 -28.806820 39.914057 0.250300 2.377082 0.033597 0.004064 -300568.000000 0 0 1
-26.981474 -8.389468 -28.595440 40.200526 0.301458 2.362171 0.037511 -0.003642 -71592.700000 0 0 1
-28.308114 -8.836868 -28.779070 41.324017 0.302582 2.341200 0.058594 -0.003998 -131919.000000 0 0 1
-28.436914 -10.209968 -28.386670 41.457261 0.344705 2.325018 0.066448 -0.002046 771408.000000 0 0 1
-29.873784 -10.489768 -27.823340 42.149928 0.337687 2.291754 0.117333 -0.010441 754474.000000 0 0 1
-30.014844 -11.435968 -26.753910 41.802439 0.364030 2.265305 0.131706 -0.014027 245716.000000 0 0 1
-31.379834 -11.464668 -26.341520 42.544192 0.350285 2.238465 0.123016 -0.021663 295706.000000 0 0 1
-31.438284 -12.172368 -25.006550 41.974513 0.369409 2.209002 0.127075 -0.019383 -74002.500000 0 0 1
-30.879704 -11.396468 -23.973950 40.720828 0.353553 2.200295 0.131414 -0.018527 168235.000000 0 0 1
-31.111264 -12.035268 -22.684250 40.340223 0.369116 2.167989 0.133632 -0.021694 -97706.700000 0 0 1
-30.527434 -11.091268 -21.620350 39.017688 0.348493 2.158098 0.142155 -0.027510 56755.500000 0 0 1
-30.679424 -11.557168 -20.254950 38.536452 0.360267 2.124222 0.144094 -0.024047 270336.000000 0 0 1
-29.763114 -12.591568 -19.890850 37.947812 0.400226 2.122529 0.126511 -0.030943 197537.000000 0 0 1
-29.313654 -12.807968 -18.425950 36.916798 0.411931 2.093380 0.134504 -0.039173 308720.000000 0 0 1
-28.473994 -11.813268 -17.850950 35.622718 0.393267 2.095679 0.127890 -0.041587 383571.000000 0 0 1
-28.101264 -12.141568 -16.505550 34.778325 0.407839 2.065298 0.134577 -0.047692 -25569.000000 0 0 1
-27.681714 -10.887568 -15.774550 33.669761 0.374728 2.058397 0.125152 -0.042670 151907.000000 0 0 1
-26.399494 -10.421268 -16.169650 32.664869 0.375975 2.088650 0.127247 -0.047639 389142.000000 0 0 1
-25.874764 -9.316568 -15.449550 31.543469 0.345612 2.082641 0.119075 -0.052216 299379.000000 0 0 1
-24.397584 -9.016168 -15.816650 30.441744 0.353986 2.117145 0.130131 -0.050521 119570.000000 0 0 1
-23.471984 -9.563568 -14.933650 29.417847 0.386909 2.103239 0.148408 -0.059552 365137.000000 0 0 1
-22.204484 -8.900368 -14.985450 28.227989 0.381227 2.130426 0.152467 -0.073157 677517.000000 0 0 1
-21.162684 -9.296568 -13.910050 26.977302 0.413912 2.112528 0.120737 -0.043083 -220620.000000 0 0 1
-20.625384 -10.573768 -14.076150 27.117319 0.473723 2.116574 0.116142 -0.036704 84517.500000 0 0 1
-19.549684 -10.682368 -13.156750 25.872827 0.500092 2.104257 0.111401 -0.032041 670948.000000 0 0 1
-18.360384 -11.553868 -13.734850 25.675702 0.561673 2.135228 0.097892 -0.024612 348011.000000 0 0 1
-17.710784 -11.061268 -14.898550 25.651321 0.558276 2.190520 0.107590 -0.022295 19353.500000 0 0 1
-18.365984 -11.183168 -16.140750 26.886733 0.546943 2.214702 0.104666 -0.029311 -343205.000000 0 0 1
-17.673184 -10.507468 -17.363750 26.911858 0.536397 2.272092 0.107339 -0.030403 -198403.000000 0 0 1
-18.376284 -10.843868 -18.520550 28.253991 0.533109 2.285644 0.081914 -0.017302 184992.000000 0 0 1
-17.792484 -10.419368 -19.730650 28.538294 0.529768 2.334186 0.085305 -0.027666 68960.700000 0 0 1
-18.679184 -10.835368 -20.965550 30.097697 0.525642 2.341420 0.102575 -0.026435 328223.000000 0 0 1
-19.905584 -10.148268 -20.955350 30.632438 0.471473 2.324152 0.081005 -0.032233 -356066.000000 0 0 1
-20.854084 -10.619368 -21.847450 32.015228 0.470998 2.321848 0.097228 -0.018664 453416.000000 0 0 1
-22.045584 -9.629368 -22.088750 32.659537 0.411817 2.313570 0.081914 -0.013948 446945.000000 0 0 1
-21.653084 -8.582168 -22.931050 32.685512 0.377355 2.348389 0.076672 -0.030137 1068350.000000 0 0 1
-22.740184 -8.185568 -23.801150 33.920705 0.345521 2.348535 0.064074 -0.027788 613080.000000 0 0 1
-22.144784 -7.380568 -24.955850 34.171021 0.321709 2.389590 0.069092 -0.030980 -598687.000000 0 0 1
-21.249684 -8.073668 -25.709500 34.317802 0.363097 2.417588 0.078129 -0.036935 -534616.000000 0 0 1
-20.677984 -7.268668 -26.688690 34.535470 0.338026 2.454023 0.067584 -0.044111 -320156.000000 0 0 1
-19.463684 -7.793868 -27.464170 34.552279 0.380878 2.489571 0.089835 -0.048237 -64467.400000 0 0 1
-19.831284 -8.841068 -28.335930 35.698308 0.419368 2.487764 0.088368 -0.040484 279846.000000 0 0 1
-18.651184 -9.441968 -28.803960 35.590525 0.468627 2.513782 0.073164 -0.028215 -36146.000000 0 0 1
-18.966184 -10.687268 -29.660710 36.792547 0.513142 2.508431 0.073599 -0.026790 13850.700000 0 0 1
-19.443184 -10.339268 -30.972030 38.002690 0.488738 2.523518 0.064877 -0.031552 317646.000000 0 0 1
-19.739284 -11.534868 -31.650590 39.044235 0.528841 2.516031 0.055303 -0.028305 -208292.000000 0 0 1
-20.313184 -11.280168 -33.081930 40.426250 0.506913 2.529292 0.045218 -0.024266 529255.000000 0 0 1
-19.422584 -10.607568 33.802283 40.402371 0.499880 0.579674 0.052248 -0.029009 620974.000000 0 0 1
-19.907684 -10.654968 32.404483 39.495503 0.491424 0.608581 0.049584 -0.029743 -81986.700000 0 0 1
-19.399484 -11.870268 31.554443 38.896351 0.549113 0.624519 0.059830 -0.026703 -1738870.000000 0 0 1
-18.088584 -11.661068 31.247623 37.941947 0.572615 0.603130 0.070400 -0.030985 -1080840.000000 0 0 1
-17.444284 -12.528868 30.298243 37.138378 0.622851 0.616650 0.078316 -0.032625 252513.000000 0 0 1
-17.496884 -14.065168 30.510683 37.879700 0.677094 0.634341 0.075116 -0.022580 -318208.000000 0 0 1
-18.772084 -14.613968 30.159773 38.413163 0.661490 0.667872 0.054901 -0.018518 374284.000000 0 0 1
-18.971184 -15.927868 30.598143 39.368124 0.698415 0.680543 0.070923 -0.014915 75284.500000 0 0 1
-19.364584 -16.095268 32.085033 40.785955 0.693460 0.665402 0.043411 -0.015706 -17919.800000 0 0 1
-18.302884 -15.802568 32.988517 40.901821 0.712218 0.632539 0.072639 -0.021284 83852.400000 0 0 1
-18.835384 -15.597768 -33.560860 41.525815 0.691648 2.511873 0.057253 -0.016534 456200.000000 0 0 1
-17.752884 -15.065168 -32.564300 40.031959 0.703683 2.520869 0.082101 -0.016154 280245.000000 0 0 1
-17.604884 -13.710568 -32.823820 39.690235 0.661676 2.544547 0.083606 -0.017858 -488916.000000 0 0 1
-16.302984 -13.214368 -32.653510 38.815699 0.681140 2.570378 0.087606 -0.012708 19474.500000 0 0 1
-15.921884 -12.868968 -31.194430 37.312319 0.679755 2.560814 0.092938 -0.014721 -175736.000000 0 0 1
-15.793484 -13.963668 -30.315570 36.924950 0.723984 2.533965 0.084047 -0.016528 -139935.000000 0 0 1
-16.367284 -13.670468 -29.047580 36.035143 0.695857 2.508312 0.066378 -0.012042 -42119.000000 0 0 1
-16.399784 -14.932368 -28.123720 35.817204 0.738598 2.473818 0.087819 -0.007797 -848217.000000 0 0 1
-15.266484 -15.579068 -27.710780 35.265567 0.795532 2.474744 0.101938 -0.021550 -1068080.000000 0 0 1
-14.680984 -16.488668 -28.644090 36.164780 0.843328 2.484946 0.106071 -0.018531 -556001.000000 0 0 1
-13.409384 -17.159068 -28.137190 35.580144 0.907454 2.482930 0.137432 -0.022944 -300631.000000 0 0 1
-12.354984 -16.213668 -28.179140 34.779197 0.919653 2.515340 0.119783 -0.031082 -459060.000000 0 0 1
-11.242684 -16.558568 -27.406670 33.936848 0.974328 2.510831 0.143615 -0.039460 583930.000000 0 0 1
-9.877884 -15.930568 -27.842730 33.564463 1.015758 2.549062 0.119671 -0.042527 747089.000000 0 0 1
-9.660684 -14.580468 -27.522380 32.609818 0.985630 2.575477 0.100113 -0.026431 -732823.000000 0 0 1
-8.327584 -14.257768 -27.796030 32.330355 1.042170 2.605577 0.108706 -0.028886 -193536.000000 0 0 1
-8.081484 -12.757268 -27.747100 31.590502 1.006122 2.643168 0.078204 -0.032294 30801.300000 0 0 1
-8.795184 -12.148068 -28.796710 32.468158 0.944145 2.661434 0.112615 -0.030588 180350.000000 0 0 1
-8.490184 -10.761268 -28.896610 31.982841 0.902825 2.698671 0.095097 -0.029875 518647.000000 0 0 1
-7.480884 -10.362968 -30.049720 32.654867 0.945532 2.739443 0.096302 -0.020890 568806.000000 0 0 1
-6.124584 -10.780268 -29.896110 32.365137 1.054141 2.748460 0.090733 -0.023625 895493.000000 0 0 1
-5.266884 -10.410768 -30.964150 33.089314 1.102434 2.781247 0.085071 -0.019579 210547.000000 0 0 1
-4.865884 -8.888668 -31.039510 32.651744 1.069932 2.826035 0.076446 -0.017513 -948790.000000 0 0 1
-3.774684 -8.640668 -31.904390 33.268596 1.158931 2.854228 0.088695 -0.028582 128572.000000 0 0 1
-3.633884 -7.264468 -32.170150 33.179755 1.106967 2.894271 0.087602 -0.030260 1035680.000000 0 0 1
-2.193484 -6.787568 -32.648960 33.419111 1.258228 2.926491 0.095793 -0.032710 1109220.000000 0 0 1
-1.733984 -7.138568 33.885213 34.672374 1.332508 0.213491 0.098970 -0.036522 -559168.000000 0 0 1
-0.505584 -6.547268 33.589976 34.225850 1.493729 0.193063 0.115358 -0.036699 -198647.000000 0 0 1
0.249716 -6.987768 32.318403 33.066152 -1.535075 0.213070 0.111554 -0.035487 14215.200000 0 0 1
-0.385984 -6.701168 31.108533 31.824448 1.513260 0.212512 0.098871 -0.034406 -25249.700000 0 0 1
0.398416 -7.243168 30.067143 30.929845 -1.515846 0.236740 0.085298 -0.037428 289838.000000 0 0 1
-0.091484 -6.725168 28.681213 29.459264 1.557194 0.230340 0.068911 -0.026235 123951.000000 0 0 1
0.361116 -5.397968 28.381593 28.892617 -1.503997 0.188358 0.081568 -0.036326 71915.900000 0 0 1
-0.022084 -4.919868 27.111113 27.553912 1.566308 0.179519 0.077303 -0.024250 -4054.160000 0 0 1
-1.351784 -4.148868 26.979523 27.330113 1.255823 0.160347 0.054073 -0.018600 356734.000000 0 0 1
-2.557184 -4.886368 27.040113 27.596802 1.088659 0.201199 0.046076 -0.009795 -312037.000000 0 0 1
-3.632784 -4.003268 26.825703 27.364971 0.833878 0.198855 0.040733 -0.015168 -770991.000000 0 0 1
-4.990184 -4.574768 27.164463 27.995330 0.741994 0.244241 0.042357 -0.009671 -582548.000000 0 0 1
-5.385184 -5.685068 26.387293 27.524706 0.812481 0.288483 0.044950 -0.003450 874894.000000 0 0 1
-6.688184 -6.229568 26.733663 28.252930 0.749910 0.329432 0.043602 -0.004612 1480740.000000 0 0 1
-6.619284 -7.797968 26.621253 28.518667 0.866972 0.366834 0.050199 -0.004690 476376.000000 0 0 1
-5.699684 -8.433468 27.500853 29.324166 0.976469 0.354494 0.049107 -0.009726 127321.000000 0 0 1
-6.004584 -9.789468 27.500813 29.802406 1.020603 0.395584 0.044147 -0.011384 -161339.000000 0 0 1
-5.205684 -10.558968 28.531983 30.865272 1.112756 0.391326 0.038422 -0.017400 -294388.000000 0 0 1
-5.472884 -11.931068 28.680713 31.541816 1.140724 0.429217 0.065670 -0.030988 137998.000000 0 0 1
-4.730084 -12.537068 29.764483 32.641633 1.210021 0.423012 0.074665 -0.030708 91840.700000 0 0 1
-4.861584 -14.072968 29.822173 33.332348 1.238176 0.463056 0.094851 -0.049197 -583408.000000 0 0 1
-6.130584 -14.626868 29.628913 33.606574 1.173907 0.491469 0.128224 -0.058370 -535244.000000 0 0 1
-6.099384 -16.024568 29.911283 34.477154 1.207102 0.520505 0.098759 -0.056218 470.703000 0 0 1
-6.331384 -16.440968 31.380073 35.987509 1.203202 0.511582 0.125394 -0.057230 -966165.000000 0 0 1
-7.668284 -16.383568 31.709343 36.506250 1.133036 0.518426 0.121364 -0.054506 -1306570.000000 0 0 1
-7.796184 -16.465368 33.068910 37.755021 1.128581 0.503537 0.124177 -0.042999 54000.000000 0 0 1
-9.233184 -16.746468 33.612524 38.671665 1.066916 0.517261 0.148360 -0.039829 655162.000000 0 0 1
-9.783584 -17.980868 33.130680 38.944474 1.072486 0.553451 0.154910 -0.044537 24213.300000 0 0 1
-10.323584 -17.916968 31.814550 37.944166 1.048068 0.576351 0.156915 -0.046050 -422631.000000 0 0 1
-11.159284 -19.230768 31.566323 38.610683 1.045001 0.613646 0.157222 -0.041874 367214.000000 0 0 1
-12.345384 -19.344568 32.356728 39.668358 1.002773 0.616891 0.147604 -0.030412 397312.000000 0 0 1
-12.865484 -20.673868 32.237109 40.400009 1.014136 0.646913 0.127080 -0.026730 -132393.000000 0 0 1
-12.324484 -21.670268 33.251378 41.558965 1.053689 0.643332 0.136130 -0.025110 -371636.000000 0 0 1
-10.941384 -21.875568 33.102487 41.158584 1.107017 0.636355 0.119278 -0.026170 -321723.000000 0 0 1
-10.324884 -22.774468 -33.781830 42.029652 1.145157 2.504388 0.112823 -0.027377 221532.000000 0 0 1
-10.750484 -24.296868 -33.670350 42.890595 1.154227 2.473539 0.118184 -0.018108 -191278.000000 0 0 1
-10.302184 -24.996458 33.002202 42.662668 1.179864 0.686354 0.101726 -0.011834 9459.310000 0 0 1
-10.431084 -26.361308 33.243682 43.690599 1.194005 0.706115 0.110826 -0.014014 -943406.000000 0 0 1
-9.608284 -27.300458 32.345352 43.403409 1.232389 0.729923 0.091061 -0.015228 1702700.000000 0 0 1
-8.161884 -27.170668 32.175503 42.896673 1.278979 0.722629 0.107012 -0.028402 1398090.000000 0 0 1
-7.468584 -27.490488 33.326575 43.842528 1.305520 0.707264 0.107885 -0.033598 -146233.000000 0 0 1
-5.898484 -27.510548 33.279404 43.579136 1.359586 0.701842 0.127773 -0.048400 1151990.000000 0 0 1
-5.269084 -26.374168 -33.887730 43.263590 1.373610 2.470729 0.132352 -0.031937 330345.000000 0 0 1
-4.986784 -25.390248 32.943161 41.890149 1.376859 0.665808 0.148280 -0.026213 -230825.000000 0 0 1
-4.549284 -23.989968 33.510706 41.463019 1.383389 0.629695 0.133304 -0.029572 58610.900000 0 0 1
-3.242384 -23.994468 -33.768540 41.551917 1.436479 2.519538 0.136384 -0.043828 -73408.500000 0 0 1
-2.946384 -22.784368 -33.125210 40.312381 1.442194 2.535207 0.109745 -0.040609 51777.900000 0 0 1
34.543711 -15.604468 2.968950 38.020811 -0.424293 1.492629 0.208952 -0.072132 524406.000000 0 0 1
35.785431 -15.808868 3.652950 39.292002 -0.415987 1.477693 0.202890 -0.065387 739487.000000 0 0 1
35.506431 -16.076668 4.990850 39.294713 -0.425165 1.443442 0.165950 -0.065465 -45832.500000 0 0 1
36.701601 -16.229268 5.944750 40.567680 -0.416344 1.423728 0.148570 -0.043133 412563.000000 0 0 1
-37.335044 -17.244268 5.667050 41.513681 0.432688 1.433858 0.142299 -0.042530 846311.000000 0 0 1
-36.368094 -17.321768 6.725250 40.840065 0.444501 1.405370 0.136494 -0.028022 929055.000000 0 0 1
-35.206031 -18.341468 6.428450 40.214413 0.480287 1.410253 0.111458 -0.027188 241277.000000 0 0 1
-35.480341 -19.687868 6.680750 41.122976 0.506594 1.407615 0.106872 -0.030192 397840.000000 0 0 1
-34.281512 -20.447768 6.877350 40.504706 0.537817 1.400178 0.106077 -0.023026 364188.000000 0 0 1
-34.460065 -21.921168 7.119450 41.457451 0.566565 1.398212 0.107229 -0.021320 -277779.000000 0 0 1
-34.968460 -22.600268 6.012750 42.068022 0.573773 1.427376 0.111396 -0.021028 124570.000000 0 0 1
-35.104356 -24.003168 6.236050 42.980881 0.599747 1.425193 0.113412 -0.021911 119598.000000 0 0 1
-34.321766 -24.897968 5.231650 42.723092 0.627589 1.448033 0.123698 -0.022696 199684.000000 0 0 1
-34.767671 -24.813468 3.872350 42.889325 0.619857 1.480386 0.115833 -0.014067 122241.000000 0 0 1
-33.854244 -25.424968 2.984350 42.443435 0.644149 1.500425 0.103233 -0.018130 144606.000000 0 0 1
-34.269213 -25.042508 1.532550 42.471812 0.631072 1.534705 0.097731 -0.019648 739909.000000 0 0 1
-35.456540 -25.739428 1.069950 43.827265 0.627926 1.546381 0.066542 -0.012650 963752.000000 0 0 1
-35.837841 -25.315038 -0.244450 43.877805 0.614993 1.576367 0.052109 -0.016432 193750.000000 0 0 1
-36.689094 -23.982568 -0.285850 43.833034 0.578951 1.577318 0.040589 -0.022132 75137.800000 0 0 1
37.024911 -24.127468 0.301350 44.193546 -0.577538 1.563977 0.032323 -0.008253 468745.000000 0 0 1
36.445481 -22.848668 0.536650 43.018864 -0.559984 1.558321 0.046566 -0.018922 61767.800000 0 0 1
34.922261 -22.927468 0.779250 41.783254 -0.580951 1.552145 0.085628 -0.020850 160435.000000 0 0 1
34.206881 -23.031668 -0.429450 41.240185 -0.592584 1.581210 0.086466 -0.027206 177714.000000 0 0 1
32.834991 -22.656568 -0.345050 39.894558 -0.603992 1.579445 0.092269 -0.029172 467485.000000 0 0 1
32.337391 -22.456068 -1.825750 39.412120 -0.606978 1.617137 0.112577 -0.025171 -113501.000000 0 0 1
32.794761 -21.332868 -2.585050 39.208036 -0.576724 1.636776 0.143675 -0.032068 55746.500000 0 0 1
32.219751 -21.257968 -3.857250 38.792936 -0.583220 1.670393 0.134019 -0.040169 -298952.000000 0 0 1
31.970011 -19.823868 -4.346950 37.867708 -0.555051 1.685843 0.141479 -0.039061 102613.000000 0 0 1
30.903121 -19.221968 -3.650250 36.576102 -0.556444 1.670761 0.157776 -0.044851 -40242.600000 0 0 1
30.646901 -17.904868 -4.142650 35.734834 -0.528744 1.686985 0.144861 -0.038638 -325708.000000 0 0 1
29.645541 -17.305168 -3.158550 34.471776 -0.528375 1.662552 0.148932 -0.035633 -636375.000000 0 0 1
30.064191 -16.976268 -1.838950 34.575005 -0.514034 1.624009 0.149849 -0.039595 155701.000000 0 0 1
30.614891 -18.024568 -0.968350 35.540038 -0.532108 1.598046 0.140493 -0.032802 460170.000000 0 0 1
29.665041 -19.260268 -0.609650 35.374344 -0.575853 1.588031 0.129022 -0.027763 -165982.000000 0 0 1
28.573741 -18.844868 0.149150 34.228788 -0.583036 1.566439 0.118418 -0.013170 -758137.000000 0 0 1
27.863141 -19.973868 0.459650 34.285876 -0.621950 1.557390 0.113027 -0.015465 -997767.000000 0 0 1
26.565341 -19.703568 1.211850 33.097077 -0.638169 1.534173 0.111828 -0.010367 -1303690.000000 0 0 1
25.782041 -20.877868 1.459750 33.207377 -0.680678 1.526824 0.103631 -0.011489 850558.000000 0 0 1
24.809541 -20.664768 2.538350 32.388102 -0.694504 1.492343 0.083470 -0.005169 722513.000000 0 0 1
23.550841 -19.900668 2.078250 30.903039 -0.701589 1.503495 0.053388 -0.003857 -1058250.000000 0 0 1
23.700641 -18.550068 1.737250 30.147030 -0.664092 1.513138 0.074378 -0.018319 10109.700000 0 0 1
23.572941 -17.701068 2.887850 29.620112 -0.644081 1.473145 0.094837 -0.017839 -174008.000000 0 0 1
23.352641 -16.253968 2.421150 28.555197 -0.608052 1.485906 0.084520 -0.007983 98891.800000 0 0 1
22.066141 -16.095168 1.848950 27.374945 -0.630190 1.503203 0.072509 -0.014556 58481.800000 0 0 1
22.029241 -14.800968 1.295550 26.571311 -0.591602 1.522019 0.090063 -0.023671 -78095.300000 0 0 1
20.648341 -14.504568 0.690050 25.243071 -0.612373 1.543457 0.092510 -0.020893 -529328.000000 0 0 1
19.612041 -14.465168 1.612750 24.422821 -0.635496 1.504714 0.088805 -0.022845 -25701.000000 0 1 0
18.587941 -13.505768 1.422050 23.020416 -0.628348 1.508984 0.104894 -0.025795 135061.000000 0 1 0
18.950741 -12.100868 1.902150 22.565012 -0.568279 1.486400 0.113969 -0.028692 -1092000.000000 0 1 0
20.051741 -11.584768 1.257850 23.191838 -0.523894 1.516533 0.126396 -0.032522 -191700.000000 0 1 0
20.228041 -10.211668 1.675850 22.721361 -0.467502 1.496973 0.132500 -0.032906 -126863.000000 0 1 0
21.204641 -9.378168 0.798750 23.199673 -0.416407 1.536360 0.150142 -0.035446 45702.500000 0 1 0
20.671841 -8.941468 -0.443850 22.527136 -0.408243 1.590500 0.163160 -0.029500 717349.000000 0 1 0
21.676641 -8.356668 -1.251850 23.265377 -0.367957 1.624630 0.159511 -0.027733 -403978.000000 0 1 0
21.175441 -7.979868 -2.689650 22.788414 -0.360388 1.689099 0.192012 -0.027625 -547121.000000 0 1 0
22.064541 -7.383468 -3.621050 23.547220 -0.322918 1.725187 0.198469 -0.031802 432439.000000 0 1 0
23.113841 -8.192268 -4.119250 24.866264 -0.340617 1.737220 0.178022 -0.028856 -501109.000000 0 1 0
22.707441 -9.386168 -5.021850 25.078815 -0.391964 1.772402 0.152579 -0.023598 -484754.000000 0 0 1
22.147341 -9.081468 -6.266750 24.743684 -0.389138 1.826852 0.146923 -0.027116 1061060.000000 0 1 0
20.718841 -8.892768 -6.213250 23.387094 -0.405433 1.839695 0.153548 -0.019705 513189.000000 0 1 0
20.114841 -8.953868 -7.633950 23.303557 -0.418803 1.904545 0.145687 -0.017723 -324612.000000 0 1 0
20.107441 -10.286868 -8.153150 24.012552 -0.472881 1.917221 0.140159 -0.014538 410586.000000 0 1 0
21.252441 -10.675668 -8.893550 25.391560 -0.465507 1.928641 0.120223 -0.005957 -52086.600000 0 0 1
20.995341 -12.016168 -9.600250 26.026091 -0.519822 1.948590 0.099162 -0.014033 -268175.000000 0 0 1
19.955441 -12.016268 -10.542850 25.568770 -0.542003 1.995810 0.124621 -0.021381 -109716.000000 0 0 1
19.865941 -13.236068 -11.186550 26.362625 -0.587727 2.009022 0.113985 -0.021051 -84325.300000 0 0 1
18.449641 -13.640668 -11.659450 25.737129 -0.636648 2.040947 0.119431 -0.032218 66287.900000 0 0 1
18.343741 -14.951768 -12.174550 26.613302 -0.683874 2.045934 0.106777 -0.035449 -243475.000000 0 0 1
17.245041 -15.156968 -13.007050 26.387657 -0.721044 2.086241 0.115394 -0.039086 -625471.000000 0 0 1
17.122841 -16.627468 -13.519750 27.430785 -0.770722 2.086179 0.093849 -0.038252 -348983.000000 0 0 1
16.710341 -17.545468 -12.507250 27.267384 -0.809772 2.047316 0.081520 -0.038378 418566.000000 0 0 1
16.791641 -18.930568 -12.942050 28.422214 -0.845203 2.043561 0.082728 -0.034902 -594476.000000 0 0 1
15.795041 -19.783968 -12.167750 28.088126 -0.897047 2.018835 0.079154 -0.034754 155001.000000 0 0 1
14.472741 -19.529168 -12.621250 27.388767 -0.933026 2.049714 0.072841 -0.040715 -135280.000000 0 0 1
13.485841 -20.015868 -11.754650 26.845384 -0.977901 2.024019 0.074448 -0.031763 -174510.000000 0 0 1
12.091241 -20.033568 -12.397650 26.481005 -1.027771 2.058017 0.088284 -0.040058 -271530.000000 0 0 1
11.125541 -20.480468 -11.495650 25.988020 -1.073168 2.029007 0.100183 -0.048436 91590.800000 0 0 1
9.799241 -20.476468 -12.024250 25.688391 -1.124446 2.057914 0.093417 -0.041886 754495.000000 0 0 1
8.646941 -20.821468 -11.073550 25.118252 -1.177179 2.027349 0.079588 -0.036130 -78066.700000 0 0 1
8.689741 -22.230568 -10.735150 26.171610 -1.198167 1.993451 0.108407 -0.035628 78875.600000 0 0 1
7.880541 -22.538668 -9.592450 25.731490 -1.234437 1.952811 0.105013 -0.035503 84842.100000 0 0 1
7.775741 -24.083568 -9.323050 26.970347 -1.258497 1.923757 0.096101 -0.033577 1294870.000000 0 0 1
9.036941 -24.726568 -8.985050 27.817271 -1.220402 1.899697 0.083133 -0.022407 532901.000000 0 0 1
9.165841 -26.024418 -9.567450 29.203066 -1.232162 1.904578 0.077487 -0.026019 101551.000000 0 0 1
10.630941 -26.479608 -9.413950 30.046780 -1.189018 1.889473 0.077154 -0.021997 152878.000000 0 0 1
10.970741 -26.767978 -8.076350 30.035133 -1.181831 1.843044 0.077344 -0.021299 129194.000000 0 0 1
12.343641 -27.137828 -7.967050 30.859375 -1.143916 1.831927 0.093172 -0.015321 335599.000000 0 0 1
12.750741 -27.939958 -6.684550 31.430969 -1.142664 1.785107 0.088670 -0.017606 25482.300000 0 0 1
12.194841 -29.230598 -6.403250 32.313211 -1.175556 1.770279 0.085914 -0.030964 -200333.000000 0 0 1
10.842141 -29.190898 -6.018850 31.715723 -1.215166 1.761729 0.081827 -0.023657 -284798.000000 0 0 1
10.522041 -30.322388 -5.079250 32.495528 -1.236792 1.727746 0.086111 -0.012631 -39347.600000 0 0 1
10.738041 -31.685848 -5.336550 33.878861 -1.244052 1.728974 0.103414 -0.029635 336232.000000 0 0 1
9.961441 -32.180618 -6.483550 34.305377 -1.270603 1.760935 0.107793 -0.037085 668967.000000 0 0 1
9.959841 -33.688768 -6.543850 35.734486 -1.283342 1.754960 0.103258 -0.038447 194613.000000 0 0 1
9.416041 33.511330 -5.289650 35.208685 1.296878 1.721604 0.088675 -0.038062 -29646.400000 0 0 1
9.779641 32.221473 -5.106250 34.057870 1.276120 1.721292 0.093194 -0.030824 -70601.200000 0 0 1
9.083041 31.567726 -3.887150 33.077680 1.290632 1.688584 0.078209 -0.030329 -92198.800000 0 0 1
7.777341 31.133556 -4.121050 32.353801 1.326001 1.698518 0.077040 -0.027165 -849632.000000 0 0 1
7.319641 30.072646 -3.304650 31.126547 1.332040 1.677165 0.057534 -0.024021 1004720.000000 0 0 1
5.846641 29.575086 -3.592650 30.360765 1.375625 1.689406 0.058352 -0.022325 969864.000000 0 0 1
5.661241 29.021156 -4.926350 29.975758 1.378143 1.735890 0.071437 -0.031202 52293.700000 0 0 1
5.645541 29.877116 -6.030250 30.998034 1.384040 1.766581 0.056754 -0.029637 -470816.000000 0 0 1
5.919441 29.074116 -7.332950 30.563314 1.369943 1.813086 0.070291 -0.030722 171316.000000 0 0 1
4.994341 28.054696 -7.722750 29.523724 1.394620 1.835453 0.074669 -0.034445 360396.000000 0 0 1
5.334341 26.781586 -7.127650 28.222543 1.374190 1.826113 0.067979 -0.031736 64616.900000 0 0 1
4.475841 25.570596 -7.692450 27.075124 1.397513 1.858880 0.071710 -0.036911 437777.000000 0 0 1
3.099841 25.538346 -7.326950 26.748838 1.450007 1.848259 0.073368 -0.034551 185988.000000 0 0 1
2.259241 26.236236 -8.225650 27.588142 1.484897 1.873560 0.081185 -0.035554 73224.100000 0 0 1
1.678141 25.429316 -9.399950 27.162941 1.504900 1.924162 0.096699 -0.038431 -422207.000000 0 0 1
2.719241 25.199056 -10.314250 27.363670 1.463302 1.957278 0.089085 -0.034676 153839.000000 0 0 1
2.348241 24.464306 -11.511250 27.139001 1.475103 2.008829 0.110429 -0.036759 -443046.000000 0 0 1
2.004041 22.954656 -11.233150 25.634275 1.483713 2.024401 0.116754 -0.038459 620015.000000 0 0 1
0.699541 22.715566 -10.695250 25.117219 1.540010 2.010657 0.129283 -0.034558 506028.000000 0 0 1
0.562741 21.378006 -10.265050 23.721448 1.544479 2.018318 0.093758 -0.028065 -161648.000000 0 1 0
-0.613859 21.150006 -9.291850 23.109264 -1.541780 1.984587 0.093365 -0.019418 389731.000000 0 1 0
-1.893259 21.111006 -9.914250 23.399816 -1.481354 2.008311 0.098677 -0.022465 -7038.910000 0 1 0
-2.853659 20.538106 -9.057150 22.627177 -1.432736 1.982616 0.082429 -0.020674 -589507.000000 0 1 0
-4.093559 20.173706 -9.835650 22.813936 -1.370599 2.016535 0.089987 -0.025024 -751023.000000 0 1 0
-5.140859 19.598406 -9.083950 22.204597 -1.314266 1.992266 0.071863 -0.029664 136854.000000 0 1 0
-6.048359 19.085206 -10.066150 22.408818 -1.263896 2.036671 0.068378 -0.025917 -705434.000000 0 1 0
-6.948159 17.983606 -9.461950 21.475929 -1.202103 2.027045 0.060721 -0.030478 -262804.000000 0 1 0
-7.975559 18.480906 -8.624550 21.898317 -1.163385 1.975608 0.075447 -0.027249 286608.000000 0 1 0
-9.184459 18.668806 -9.353950 22.811729 -1.113595 1.993305 0.075149 -0.029199 -193578.000000 0 1 0
-10.376859 19.019406 -8.445750 23.253983 -1.071343 1.942492 0.095121 -0.039197 -25025.500000 0 1 0
-10.680959 17.902006 -7.622450 22.196091 -1.032855 1.921346 0.084492 -0.032961 -402678.000000 0 1 0
-11.676359 18.246106 -6.700650 22.675019 -1.001528 1.870784 0.094756 -0.030658 -538837.000000 0 1 0
-12.016759 17.091706 -5.719050 21.661866 -0.958009 1.837978 0.076458 -0.032913 -277399.000000 0 1 0
-12.936859 17.536906 -4.773850 22.309080 -0.935218 1.786451 0.075642 -0.026404 -253029.000000 0 1 0
-13.465459 16.378406 -4.098050 21.595481 -0.882696 1.761718 0.078887 -0.027200 -731267.000000 0 1 0
-14.582259 16.818406 -3.220750 22.491650 -0.856492 1.714488 0.062973 -0.020449 -804113.000000 0 1 0
-15.880759 16.784206 -3.768750 23.411783 -0.813049 1.732476 0.109617 -0.039801 -42350.200000 0 1 0
-16.836859 17.343806 -2.912050 24.346817 -0.800228 1.690690 0.108974 -0.033213 485497.000000 0 1 0
-18.285259 17.376306 -3.516250 25.468623 -0.759915 1.709301 0.124547 -0.046154 607348.000000 0 0 1
-18.240359 18.263206 -4.582750 26.215587 -0.786024 1.746509 0.102482 -0.040924 -1075610.000000 0 0 1
-19.520559 18.439706 -5.028050 27.319522 -0.756933 1.755898 0.092203 -0.039602 -1019720.000000 0 0 1
-19.548159 19.242406 -6.328450 28.150489 -0.777516 1.797542 0.090639 -0.022186 -115457.000000 0 0 1
-18.952459 20.517906 -6.182450 28.607742 -0.825039 1.788626 0.107186 -0.041256 227726.000000 0 0 1
-19.193659 21.342706 -7.275450 29.611482 -0.838364 1.819035 0.098565 -0.022858 -193222.000000 0 0 1
-19.193459 22.875626 -6.934650 30.655710 -0.872702 1.798982 0.126192 -0.025941 -858151.000000 0 0 1
-17.967059 23.429496 -6.664350 30.268302 -0.916594 1.792791 0.114299 -0.029360 -903697.000000 0 0 1
-17.631059 23.576556 -5.308450 29.914677 -0.928691 1.749194 0.139075 -0.039648 340470.000000 0 0 1
-16.354059 24.448246 -5.085450 29.850189 -0.981231 1.741997 0.122575 -0.043262 94772.400000 0 0 1
-16.232359 24.978216 -3.780450 30.028196 -0.994519 1.697028 0.117999 -0.037766 68575.000000 0 0 1
-15.043859 25.652296 -3.384350 29.930116 -1.040398 1.684114 0.141496 -0.042037 102093.000000 0 0 1
-14.602159 26.963446 -4.084150 30.934298 -1.074461 1.703210 0.130855 -0.036215 116643.000000 0 0 1
-15.395959 28.138526 -3.861450 32.306702 -1.070145 1.690607 0.158180 -0.025359 198652.000000 0 0 1
-14.903759 29.160006 -4.698150 33.083238 -1.098306 1.713288 0.118828 -0.020660 132557.000000 0 0 1
-15.740959 30.451826 -4.475950 34.570589 -1.093710 1.700634 0.109739 -0.019626 847128.000000 0 0 1
-17.029459 30.415516 -5.093250 35.228501 -1.060389 1.715882 0.134461 -0.013741 269977.000000 0 0 1
-17.915559 31.371966 -4.596650 36.418357 -1.051921 1.697352 0.150661 -0.011700 39402.600000 0 0 1
13.158616 -8.435168 18.442373 24.174829 -0.570049 0.703048 0.140291 -0.023300 -67932.300000 0 1 0
13.780516 -9.585668 18.960273 25.323499 -0.607764 0.724664 0.144573 -0.022689 -41901.900000 0 0 1
13.883316 -10.611068 18.008373 25.092683 -0.652593 0.770340 0.143968 -0.028718 -46230.200000 0 0 1
14.633616 -11.786068 18.622673 26.454831 -0.678031 0.789864 0.187874 -0.043225 1491380.000000 0 0 1
16.086916 -11.611268 18.789773 27.325190 -0.625197 0.812569 0.167379 -0.033344 1981330.000000 0 0 1
16.560716 -12.676168 19.571673 28.600576 -0.653307 0.817139 0.152965 -0.038649 148298.000000 0 0 1
17.202016 -13.858768 18.740773 28.968800 -0.678175 0.867245 0.136961 -0.046975 690739.000000 0 0 1
16.191516 -14.361768 17.808573 28.028037 -0.725582 0.882290 0.165360 -0.055448 1123000.000000 0 0 1
16.499316 -15.671368 17.414973 28.654851 -0.759668 0.917573 0.178261 -0.055858 -342378.000000 0 0 1
15.608916 -16.105768 16.261173 27.703064 -0.801063 0.943472 0.175757 -0.062006 371383.000000 0 0 1
14.210316 -15.886768 16.514873 26.964115 -0.841042 0.911607 0.233039 -0.057124 1094800.000000 0 0 1
13.389616 -15.769768 15.332273 25.749679 -0.866843 0.932989 0.244192 -0.058194 406503.000000 0 0 1
12.952016 -17.038668 14.592773 25.904053 -0.920828 0.972374 0.191283 -0.045154 -430694.000000 0 0 1
13.984916 -17.672768 13.888673 26.472624 -0.901367 1.018501 0.184437 -0.047096 69525.600000 0 0 1
13.477116 -18.903968 13.422173 26.816924 -0.951448 1.046607 0.159315 -0.037999 591591.000000 0 0 1
14.581116 -19.762868 12.718973 27.657769 -0.935147 1.092948 0.157120 -0.042557 572196.000000 0 0 1
15.460316 -20.528368 13.512473 29.034844 -0.925302 1.086723 0.133733 -0.031290 66299.700000 0 0 1
15.968416 -21.720368 12.932373 29.900016 -0.936847 1.123510 0.104198 -0.025364 -241686.000000 0 0 1
16.562216 -22.578268 14.048773 31.328154 -0.937909 1.105778 0.085829 -0.028340 -1034220.000000 0 0 1
17.835616 -22.107168 14.275673 31.790422 -0.891935 1.105088 0.063910 -0.030799 -979551.000000 0 0 1
18.443016 -22.854368 15.335473 33.130706 -0.891814 1.089557 0.068851 -0.037173 566009.000000 0 0 1
19.893416 -22.440068 15.735573 33.866103 -0.845483 1.087567 0.036197 -0.022776 279254.000000 0 0 1
20.870416 -22.689668 14.762373 34.180739 -0.827138 1.124207 0.017857 -0.027020 -442407.000000 0 0 1
22.111516 -22.152968 15.175273 34.784509 -0.786335 1.119352 0.017614 -0.019375 -523693.000000 0 0 1
23.251816 -22.876868 14.527473 35.707779 -0.777270 1.151800 0.016318 -0.022342 -865061.000000 0 0 1
23.644116 -24.093968 15.017473 36.947097 -0.794821 1.152221 0.012922 -0.021979 707665.000000 0 0 1
24.838316 -24.595668 14.386373 37.800219 -0.780490 1.180362 0.027438 -0.028463 630562.000000 0 0 1
25.407716 -25.879038 15.087273 39.279797 -0.794588 1.176566 0.029782 -0.022630 -145812.000000 0 0 1
25.942116 -25.574428 16.369573 39.937547 -0.778261 1.148475 0.030727 -0.009354 179421.000000 0 0 1
26.331216 -26.785888 17.040873 41.245704 -0.793958 1.144880 0.050741 0.004931 174641.000000 0 0 1
26.814116 -26.553708 18.506673 42.030860 -0.780519 1.114851 0.038643 0.015950 372726.000000 0 0 1
25.697716 -26.350508 19.357173 41.586320 -0.797940 1.086631 0.043982 0.012431 142744.000000 0 0 1
26.108716 -25.907968 20.616873 42.165665 -0.781539 1.059911 0.050411 0.006463 -503606.000000 0 0 1
25.023616 -25.682938 21.654173 41.889114 -0.798400 1.027524 0.058859 -0.002300 -472311.000000 0 0 1
24.554416 -26.927508 22.120473 42.630099 -0.831461 1.025241 0.062832 0.003740 818126.000000 0 0 1
23.498916 -26.721988 23.116053 42.433661 -0.849488 0.994696 0.078666 -0.005194 583914.000000 0 0 1
22.851516 -28.064098 23.454543 43.126569 -0.887420 0.995774 0.119879 -0.016098 -499263.000000 0 0 1
23.717416 -29.093388 23.965293 44.533991 -0.886846 1.002574 0.111929 -0.015792 311867.000000 0 0 1
23.543816 -30.412198 23.552583 45.099193 -0.912013 1.021321 0.113094 -0.019906 -1069040.000000 0 0 1
24.807516 -31.177668 23.843713 46.432558 -0.898694 1.031523 0.098857 -0.018606 -785374.000000 0 0 1
24.983916 -31.307488 25.271323 47.360264 -0.897266 1.007948 0.104782 -0.026663 54339.800000 0 0 1
25.904916 -32.344258 25.467823 48.639754 -0.895499 1.019724 0.105408 -0.029427 -1139350.000000 0 0 1
25.953416 -32.823868 26.928923 49.760959 -0.901760 0.998974 0.117223 -0.047569 273194.000000 0 0 1
24.926716 -33.732668 27.310383 50.050885 -0.934406 0.993629 0.083636 -0.028307 1355430.000000 0 0 1
23.548216 -33.322338 27.178623 49.026261 -0.955601 0.983192 0.097802 -0.032188 216602.000000 0 0 1
22.564916 33.237530 27.519543 48.695319 0.974373 0.970197 0.113384 -0.047515 -474769.000000 0 0 1
22.362016 33.094109 28.935793 49.320989 0.976559 0.943839 0.096548 -0.037247 473365.000000 0 0 1
21.445616 32.040110 29.253413 48.396749 0.980948 0.921721 0.095217 -0.046738 186580.000000 0 0 1
21.099316 32.212182 30.708763 49.252756 0.990907 0.897593 0.082046 -0.044141 -673253.000000 0 0 1
22.212016 32.086664 31.521183 50.164855 0.965290 0.891363 0.058715 -0.021427 -343036.000000 0 0 1
21.944916 32.551270 32.834785 51.178976 0.977621 0.874256 0.050137 -0.017571 210870.000000 0 0 1
23.194416 32.275160 33.708036 52.114284 0.947666 0.867402 0.028254 -0.002393 302959.000000 0 0 1
23.351516 30.873046 33.664939 51.300745 0.923229 0.854989 0.032355 -0.000588 38082.100000 0 0 1
24.675216 30.521566 -33.785900 51.787250 0.890923 2.281541 0.030519 0.016609 33023.000000 0 0 1
24.874616 29.033946 -33.619190 50.911359 0.862401 2.292078 0.052766 -0.004516 -94677.800000 0 0 1
24.921016 28.305446 33.007024 50.117053 0.848898 0.851841 0.062832 -0.013245 247698.000000 0 0 1
24.834016 26.957396 33.266370 49.498293 0.826374 0.833794 0.068227 -0.027632 -256306.000000 0 0 1
25.269016 26.074256 32.119114 48.477082 0.801080 0.846561 0.106904 -0.041632 1291880.000000 0 0 1
26.707516 25.871946 32.055409 49.093770 0.769508 0.859333 0.098415 -0.042438 1472420.000000 0 0 1
27.237916 25.321126 30.870193 48.332519 0.748945 0.877983 0.124282 -0.058464 -674882.000000 0 0 1
28.650816 24.877686 31.204893 49.127527 0.715026 0.882553 0.102494 -0.042532 -968662.000000 0 0 1
28.709616 23.851406 32.114776 49.239115 0.693230 0.860286 0.128689 -0.047098 -292696.000000 0 0 1
29.876216 23.801536 32.870012 50.393840 0.672708 0.860231 0.131026 -0.047557 -1524890.000000 0 0 1
29.675616 23.094136 -33.589050 50.420289 0.661318 2.299873 0.136975 -0.055862 -440186.000000 0 0 1
28.846616 23.736676 -32.657220 49.619059 0.688524 2.289167 0.144174 -0.052311 1312710.000000 0 0 1
27.449016 23.909636 -32.971130 49.114301 0.716592 2.306777 0.139269 -0.043588 633963.000000 0 0 1
26.477616 22.700106 -33.090310 48.076268 0.708735 2.329923 0.131254 -0.056718 -390128.000000 0 0 1
26.183716 22.079606 -31.832440 46.758959 0.700566 2.319620 0.123764 -0.070194 -297920.000000 0 0 1
25.458916 20.976306 -32.099670 46.027716 0.689162 2.342558 0.137932 -0.054526 -675087.000000 0 0 1
25.337516 20.046206 -30.868820 44.684719 0.669332 2.333410 0.129833 -0.062207 -600766.000000 0 0 1
24.339116 20.395406 -29.978100 43.669802 0.697467 2.327423 0.103473 -0.047965 -321370.000000 0 0 1
24.396816 19.553006 -28.828430 42.527674 0.675629 2.315664 0.102075 -0.037676 238007.000000 0 0 1
23.103016 19.662506 -27.964740 41.260031 0.705121 2.315519 0.087006 -0.028954 182301.000000 0 0 1
23.076116 18.706506 -26.886570 40.066546 0.681197 2.306418 0.094008 -0.022104 90331.000000 0 0 1
23.549316 19.187206 -25.636130 39.748337 0.683681 2.271769 0.069572 -0.011336 -79707.100000 0 0 1
23.520216 18.071706 -24.528950 38.489693 0.655141 2.261768 0.098585 -0.005658 -215892.000000 0 0 1
24.596516 17.191206 -24.699950 38.866614 0.610006 2.259459 0.103555 -0.020122 100263.000000 0 0 1
24.668816 16.303906 -23.621150 37.846090 0.584008 2.244823 0.112901 -0.011651 -134188.000000 0 0 1
25.792216 15.291306 -23.902750 38.345846 0.535157 2.243811 0.115037 -0.013492 486065.000000 0 0 1
27.100516 15.752306 -23.543650 39.203017 0.526522 2.214994 0.126636 -0.021001 500847.000000 0 0 1
28.071416 14.767006 -23.244950 39.324249 0.484271 2.203230 0.125112 -0.030526 -640.351000 0 0 1
27.914816 13.800606 -22.005050 38.130249 0.459144 2.185972 0.113323 -0.027417 -493636.000000 0 0 1
26.710216 13.066106 -22.034350 37.009071 0.454954 2.208531 0.105929 -0.021691 -34788.300000 0 0 1
26.345016 12.544506 -20.770850 35.816933 0.444396 2.189423 0.072640 -0.022456 -567681.000000 0 0 1
24.894716 12.110806 -20.778850 34.614724 0.452774 2.214659 0.089368 -0.024694 -1287060.000000 0 0 1
23.929216 13.063306 -20.669150 34.212148 0.499701 2.219491 0.118126 -0.026398 -663887.000000 0 0 1
22.658216 12.536406 -21.003850 33.342434 0.505360 2.252277 0.136137 -0.035012 271797.000000 0 0 1
21.483916 13.535606 -20.996050 32.948526 0.562211 2.261705 0.139168 -0.037039 -426354.000000 0 0 1
21.705716 14.675506 -21.802250 34.085872 0.594514 2.264809 0.118226 -0.023263 -324266.000000 0 0 1
20.814216 15.725306 -21.705150 33.935680 0.647017 2.264770 0.087477 -0.019012 -512015.000000 0 0 1
19.446816 15.663006 -22.413050 33.553736 0.678042 2.302280 0.092003 -0.011002 -128076.000000 0 0 1
18.548116 14.845906 -21.673750 32.158746 0.674985 2.310354 0.083349 -0.024115 -838103.000000 0 0 1
17.331516 14.870906 -22.333050 31.941985 0.709136 2.345040 0.084817 -0.029024 -1278870.000000 0 0 1
16.330716 13.901706 -21.730550 30.531402 0.705226 2.362775 0.068401 -0.029909 -148719.000000 0 0 1
15.098416 14.025706 -22.423950 30.455149 0.748582 2.398374 0.075338 -0.025761 -4128.320000 0 0 1
14.062616 13.174506 -21.971450 29.224466 0.752803 2.421610 0.092381 -0.033999 -231565.000000 0 0 1
12.800016 13.314006 -22.818450 29.356172 0.805078 2.461153 0.084572 -0.031969 -474927.000000 0 0 1
12.270916 14.638206 -22.676350 29.649103 0.873146 2.441565 0.079477 -0.024346 59561.400000 0 0 1
11.542916 15.021906 -23.821150 30.435896 0.915619 2.469734 0.073113 -0.015291 -578500.000000 0 0 1
11.283316 16.575506 -23.895350 31.193723 0.973126 2.443440 0.072625 -0.022835 1025450.000000 0 0 1
12.482116 17.411506 -23.965550 32.145160 0.948825 2.412143 0.063326 -0.019003 1500560.000000 0 0 1
13.484316 17.149606 -24.983250 33.167733 0.904480 2.423770 0.064672 -0.022878 159935.000000 0 0 1
13.190216 17.173306 -26.487350 34.212336 0.915833 2.456254 0.087569 -0.029149 -37518.300000 0 0 1
14.353216 17.250006 -27.312410 35.348907 0.876804 2.453805 0.081238 -0.032035 439064.000000 0 0 1
13.996316 16.865006 -28.611910 36.041180 0.878086 2.487939 0.082073 -0.039639 -148917.000000 0 0 1
15.030216 17.257306 -29.676910 37.475872 0.854266 2.484700 0.086836 -0.037419 53150.100000 0 0 1
16.279016 16.614506 -29.527830 37.589106 0.795597 2.474368 0.079147 -0.032120 2677.930000 0 0 1
17.099516 16.787206 -30.661380 38.914315 0.776182 2.478221 0.078911 -0.030437 -689766.000000 0 0 1
18.415916 16.042206 -30.653770 39.193774 0.716620 2.468838 0.079759 -0.028541 -767819.000000 0 0 1
19.557716 16.882306 -30.671710 40.103245 0.712110 2.441556 0.099038 -0.033110 -256042.000000 0 0 1
20.643216 15.980106 -30.765380 40.348665 0.658753 2.437946 0.120349 -0.031608 333369.000000 0 0 1
21.999016 16.683006 -31.102180 41.588760 0.648825 2.415615 0.135250 -0.039931 464972.000000 0 0 1
22.071716 16.941806 -32.500400 42.783892 0.654658 2.433557 0.129701 -0.043112 808891.000000 0 0 1
23.364716 17.468606 -32.832430 43.920731 0.641995 2.415145 0.146744 -0.047263 750305.000000 0 0 1
23.268216 18.108006 33.555731 44.668746 0.661324 0.720899 0.130063 -0.043534 394614.000000 0 0 1
24.499416 18.649006 33.076506 45.189181 0.650632 0.749608 0.144190 -0.044900 356394.000000 0 0 1
24.415116 19.324906 31.838586 44.533644 0.669545 0.774268 0.153419 -0.051249 -1019340.000000 0 0 1
25.472716 20.374506 31.684343 45.473920 0.674653 0.799928 0.163596 -0.044223 -656931.000000 0 0 1
26.769016 19.848706 31.720073 46.007765 0.638026 0.810066 0.133201 -0.041447 358194.000000 0 0 1
27.812016 20.803506 31.434563 46.844700 0.642223 0.835189 0.100869 -0.041812 445648.000000 0 0 1
29.251816 20.301906 31.530733 47.560733 0.606714 0.846034 0.113194 -0.035513 -472359.000000 0 0 1
29.663616 19.756506 32.764333 48.412304 0.587553 0.827421 0.099742 -0.035882 1251160.000000 0 0 1
31.071716 19.404006 32.631198 49.058762 0.558233 0.843108 0.091426 -0.030855 1128360.000000 0 0 1
31.661616 18.914106 -33.853090 50.062291 0.538493 2.313415 0.084439 -0.029601 -338594.000000 0 0 1
31.586016 19.909806 -32.824080 49.714153 0.562427 2.291956 0.080447 -0.038698 300049.000000 0 0 1
31.002416 19.354006 -31.625800 48.331341 0.558077 2.284124 0.098146 -0.047934 -375421.000000 0 0 1
31.497316 19.937606 -30.325160 48.054182 0.564327 2.253718 0.101082 -0.036511 -335365.000000 0 0 1
32.731116 19.337506 -30.027790 48.445157 0.533626 2.239323 0.093695 -0.035734 -390198.000000 0 0 1
33.313416 19.841906 -28.846480 48.328090 0.537188 2.210414 0.110051 -0.035034 116898.000000 0 0 1
34.802816 19.447906 -28.716690 49.133546 0.509576 2.195013 0.070830 -0.025442 712940.000000 0 0 1
35.672816 20.022506 -29.743820 50.578112 0.511464 2.199475 0.075971 -0.024567 967848.000000 0 0 1
36.851016 20.563306 -29.130960 51.278258 0.508974 2.174986 0.036843 -0.005930 876444.000000 0 0 1
-37.087609 21.218806 -30.065020 52.245898 -0.519672 2.183953 0.022129 -0.010313 764759.000000 0 0 1
-36.265809 20.283806 -30.750990 51.693955 -0.509962 2.207896 0.009382 -0.007925 67279.500000 0 0 1
-35.175209 20.885606 -31.383850 51.560158 -0.535818 2.225197 0.011198 -0.006741 341789.000000 0 0 1
-34.223409 20.018906 -32.301850 51.141058 -0.529278 2.254441 0.013453 -0.010861 256063.000000 0 0 1
-33.493109 19.037106 -31.616470 49.837746 -0.516852 2.258013 0.008909 -0.003730 -117518.000000 0 0 1
-32.575709 18.434306 -32.477400 49.555846 -0.514962 2.285468 0.012990 -0.003559 -477154.000000 0 0 1
-31.772409 17.288406 -31.915930 48.239004 -0.498327 2.293775 0.017213 0.014643 -360850.000000 0 0 1
-32.522409 16.109206 -31.638900 48.148038 -0.459902 2.287784 0.017700 0.018528 -12722.900000 0 0 1
-32.467309 15.149706 -32.691940 48.501574 -0.436584 2.310459 0.017680 0.015584 249171.000000 0 0 1
-33.463509 13.925106 -32.662220 48.790732 -0.394332 2.304244 0.033859 0.013576 62644.900000 0 0 1
-32.839309 12.706806 -33.024350 48.275157 -0.369196 2.324146 0.046335 0.005283 203273.000000 0 0 1
-33.663809 11.586906 -32.680560 48.327294 -0.331494 2.313435 0.060840 0.001975 -105182.000000 0 0 1
-33.138909 10.197206 -32.934960 47.821353 -0.298516 2.330502 0.064081 0.007062 -319498.000000 0 0 1
-33.008509 9.910006 33.490873 48.056305 -0.291664 0.799718 0.051965 0.003066 48298.700000 0 0 1
-33.215209 8.569806 33.142244 47.698008 -0.252502 0.802606 0.081564 -0.014023 -215261.000000 0 0 1
-32.105209 7.885606 32.356091 46.258446 -0.240850 0.796150 0.102799 -0.015103 45932.700000 0 0 1
-30.951009 7.450206 33.040555 45.881901 -0.236216 0.766819 0.061700 -0.001109 -545971.000000 0 0 1
-30.055009 6.820506 32.224169 44.589460 -0.223155 0.763116 0.069981 -0.006767 -539286.000000 0 0 1
21.709416 -4.142168 -31.173670 38.213270 -0.188534 2.524875 0.055476 -0.038750 670728.000000 0 0 1
23.027616 -4.134768 -31.753220 39.441531 -0.177664 2.506591 0.043946 -0.035079 948617.000000 0 0 1
23.955916 -3.174568 -31.258770 39.510435 -0.131749 2.483487 0.050897 -0.035914 196937.000000 0 0 1
23.645016 -1.738768 -31.686770 39.574758 -0.073404 2.499228 0.055558 -0.030305 -487176.000000 0 0 1
24.697616 -0.799968 -31.542710 40.069374 -0.032379 2.477056 0.060796 -0.023918 265645.000000 0 0 1
24.424816 0.491032 -32.105310 40.343074 0.020101 2.491136 0.056292 -0.025816 5994.910000 0 0 1
25.405316 1.500932 -31.451020 40.457997 0.059011 2.461278 0.066012 -0.018117 427468.000000 0 0 1
26.740516 1.322332 -31.894680 41.642218 0.049410 2.443270 0.074882 -0.027678 -74761.100000 0 0 1
27.590816 2.190132 -31.182300 41.693952 0.079213 2.415667 0.084022 -0.026505 -502077.000000 0 0 1
29.105716 2.024132 -31.337400 42.816731 0.069432 2.391897 0.083328 -0.031057 -258270.000000 0 0 1
29.645016 2.512332 -32.530570 44.083747 0.084545 2.400789 0.083311 -0.022214 -28313.700000 0 0 1
29.642116 1.501932 -33.530120 44.779234 0.050626 2.417027 0.068542 -0.014033 -456193.000000 0 0 1
30.276716 2.013832 32.982776 44.817392 0.066416 0.743747 0.058453 -0.025289 -459674.000000 0 0 1
29.542516 3.022932 32.357190 43.919086 0.101970 0.742552 0.047695 -0.012105 -52688.100000 0 0 1
29.852616 4.363032 32.640076 44.447602 0.145125 0.746088 0.057893 -0.009216 755581.000000 0 0 1
28.880916 5.366332 31.824054 43.309067 0.183714 0.745406 0.046431 -0.002866 891273.000000 0 0 1
29.366516 6.681232 32.032712 43.967326 0.223704 0.754583 0.083178 -0.010357 342096.000000 0 0 1
28.860716 7.551332 31.050173 43.058992 0.255911 0.765396 0.079034 -0.012588 -81312.700000 0 0 1
29.322216 9.027632 31.214333 43.767855 0.298668 0.776773 0.075188 -0.018737 188740.000000 0 0 1
30.594316 9.333132 30.672313 44.316028 0.296093 0.806365 0.064010 -0.018455 142298.000000 0 0 1
30.948516 10.648632 31.098493 45.147761 0.331387 0.810942 0.066672 -0.017889 1424240.000000 0 0 1
32.376316 11.136832 30.577143 45.904429 0.331303 0.841823 0.063560 -0.004497 1125790.000000 0 0 1
33.537016 10.520932 31.145703 46.962499 0.303988 0.845705 0.073859 -0.018276 951436.000000 0 0 1
34.782416 10.900732 30.580193 47.579309 0.303703 0.872752 0.093673 -0.019025 409061.000000 0 0 1
35.183616 12.407732 30.692633 48.310210 0.339039 0.882368 0.096238 -0.017527 -1273320.000000 0 0 1
35.541916 12.757432 32.015556 49.507330 0.344617 0.867568 0.089720 -0.014170 77782.200000 0 0 1
35.768916 14.149932 32.212858 50.172743 0.376701 0.873641 0.109637 -0.007334 157239.000000 0 0 1
34.540716 15.103132 32.296679 49.641124 0.412206 0.862418 0.107740 -0.016825 -557667.000000 0 0 1
33.952316 15.471732 31.068513 48.552928 0.427576 0.876442 0.097612 -0.029676 1165410.000000 0 0 1
32.790116 16.349332 31.229173 48.143054 0.462531 0.864955 0.087166 -0.030640 376357.000000 0 0 1
31.506816 15.614832 31.501733 47.210821 0.460123 0.840277 0.099534 -0.027882 -1504440.000000 0 0 1
31.051916 14.810232 30.400803 45.910492 0.445039 0.847078 0.076904 -0.025389 -153864.000000 0 0 1
29.744516 14.440532 30.762703 45.162032 0.451969 0.821446 0.069522 -0.033108 -272563.000000 0 0 1
28.782616 14.181232 29.603153 43.656535 0.457792 0.825633 0.074879 -0.024342 -219012.000000 0 0 1
29.013416 12.806232 29.215633 43.119962 0.415671 0.826379 0.060468 -0.020911 -28736.200000 0 0 1
28.316616 12.542932 28.063313 41.793605 0.416978 0.834600 0.068081 -0.026108 -316731.000000 0 0 1
28.076116 11.075132 27.822693 41.049106 0.375728 0.826043 0.059113 -0.014869 788607.000000 0 0 1
29.177416 10.358032 27.188033 41.204364 0.341124 0.850199 0.055007 -0.009203 938771.000000 0 0 1
28.840216 8.967932 27.006553 40.515871 0.301474 0.841202 0.067605 -0.010626 580412.000000 0 0 1
30.055316 8.072032 26.572073 40.921325 0.262381 0.864073 0.070906 -0.014982 516396.000000 0 0 1
30.511816 8.269732 25.257083 40.463312 0.264675 0.896693 0.077727 -0.010598 -289221.000000 0 0 1
31.609316 7.492132 24.926553 40.946477 0.232728 0.916300 0.088011 -0.009617 36474.200000 0 0 1
32.262916 7.654032 23.451023 40.613181 0.232933 0.955226 0.104904 -0.010867 329201.000000 0 0 1
32.763716 8.914832 23.135193 41.087376 0.265663 0.972697 0.114668 -0.022458 350674.000000 0 0 1
31.789016 9.934232 22.853363 40.391914 0.302890 0.969405 0.117379 -0.023084 138923.000000 0 0 1
31.250016 9.965632 21.421473 39.175973 0.308705 0.992257 0.125289 -0.017954 -389803.000000 0 0 1
32.253116 10.303132 20.506973 39.584770 0.309200 1.026224 0.143984 -0.030011 -135192.000000 0 0 1
31.846916 10.251232 19.168373 38.558272 0.311417 1.050511 0.154470 -0.042889 -733787.000000 0 0 1
32.735316 11.034632 18.153973 39.024746 0.325125 1.086946 0.171842 -0.075252 162819.000000 0 0 1
34.009316 10.566032 17.842873 39.832684 0.301226 1.106330 0.158222 -0.063855 -258079.000000 0 0 1
35.019616 10.572932 18.821173 41.138753 0.293212 1.095609 0.149980 -0.054089 -776837.000000 0 0 1
36.432316 10.285532 18.332773 42.061816 0.275158 1.119810 0.179945 -0.053679 -592501.000000 0 0 1
36.608516 8.953232 17.908273 41.725892 0.239859 1.127202 0.147185 -0.037337 196389.000000 0 0 1
-37.126009 8.699032 17.368173 41.900682 -0.230159 1.143394 0.155962 -0.037032 -262228.000000 0 0 1
-36.901909 7.202132 17.152873 41.326053 -0.192747 1.142785 0.146080 -0.031611 124048.000000 0 0 1
37.156916 6.671132 16.232573 41.093027 0.177647 1.164707 0.130659 -0.030986 430498.000000 0 0 1
37.406316 5.309832 16.012573 41.034489 0.141008 1.169923 0.131256 -0.016975 24684.500000 0 0 1
36.111316 4.464032 16.087673 39.784016 0.122995 1.154501 0.103076 -0.010943 123885.000000 0 0 1
35.938916 3.810932 17.311073 40.072461 0.105644 1.124093 0.099395 -0.002349 448505.000000 0 0 1
34.665116 3.162932 17.324673 38.882113 0.090991 1.108986 0.088526 -0.006794 436697.000000 0 0 1
34.417116 2.241932 18.542773 39.158634 0.065048 1.077502 0.087618 -0.003972 95646.800000 0 0 1
35.245316 1.096132 18.636573 39.884279 0.031090 1.084600 0.084715 -0.001044 95381.800000 0 0 1
34.768216 0.229932 19.673773 39.949206 0.006613 1.055871 0.075932 0.006059 87525.500000 0 0 1
35.446916 -1.131968 19.692373 40.565438 -0.031923 1.063922 0.067049 0.001827 6867.540000 0 0 1
35.033416 -1.931268 20.822373 40.800015 -0.055071 1.035202 0.086559 0.004895 204270.000000 0 0 1
35.552516 -3.254368 20.673473 41.254876 -0.091283 1.045909 0.072495 0.007696 -149518.000000 0 0 1
35.085416 -4.162568 21.843673 41.538650 -0.118089 1.017066 0.064240 -0.003007 -111860.000000 0 0 1
35.525116 -3.769568 23.114053 42.550006 -0.105714 0.996528 0.073132 -0.010995 -97937.500000 0 0 1
34.699116 -4.254868 24.133543 42.480118 -0.122013 0.966584 0.064721 -0.014467 -198433.000000 0 0 1
35.084616 -3.715668 25.520213 43.543286 -0.105513 0.944574 0.055771 -0.011840 34314.100000 0 0 1
34.275216 -4.140168 26.603163 43.585086 -0.120209 0.914265 0.065777 -0.009008 314429.000000 0 0 1
34.675816 -3.382368 27.773353 44.555715 -0.097235 0.897790 0.077108 -0.013986 84750.600000 0 0 1
33.917016 -3.882568 29.010283 44.799942 -0.113976 0.866429 0.084658 -0.020166 40507.000000 0 0 1
34.155516 -5.240568 29.393173 45.365421 -0.152245 0.865946 0.086491 -0.018723 -17763.200000 0 0 1
33.118416 -5.605868 30.267703 45.214921 -0.167678 0.837371 0.080179 -0.026263 65335.500000 0 0 1
33.057516 -7.105168 30.624073 45.619257 -0.211713 0.834839 0.086276 -0.023102 919109.000000 0 0 1
34.104316 -7.431368 31.596423 47.081457 -0.214547 0.835103 0.098042 -0.025197 726122.000000 0 0 1
34.491916 -8.768568 31.363863 47.437032 -0.248947 0.848421 0.086565 -0.016777 215579.000000 0 0 1
35.752816 -9.236468 32.124983 48.944772 -0.252815 0.854824 0.083702 -0.009527 374980.000000 0 0 1
35.428316 -9.379368 33.481993 49.640528 -0.258805 0.830524 0.085372 -0.021887 687956.000000 0 0 1
36.578916 -9.945268 -33.688370 50.713230 -0.265468 2.297342 0.096513 -0.025556 394207.000000 0 0 1
36.474416 -10.104068 -32.152820 49.661645 -0.270241 2.275014 0.096329 -0.019780 -171728.000000 0 0 1
36.207416 -8.941268 -31.370870 48.734533 -0.242102 2.270132 0.088540 -0.023696 399443.000000 0 0 1
37.063316 -7.840768 -31.607240 49.337457 -0.208477 2.266120 0.090234 -0.018857 90443.800000 0 0 1
36.551916 -6.686568 -30.701840 48.201200 -0.180933 2.261334 0.099640 -0.021649 148405.000000 0 0 1
36.935216 -6.767368 -29.355450 47.662877 -0.181213 2.234321 0.091557 -0.018801 277569.000000 0 0 1
36.352316 -5.670468 -28.649530 46.630898 -0.154739 2.232408 0.105745 -0.025493 -99067.400000 0 0 1
36.871516 -5.593868 -27.224920 46.173545 -0.150564 2.201387 0.103115 -0.025290 -163370.000000 0 0 1
-36.790609 -5.213568 -27.212540 46.057057 0.140772 2.202901 0.095568 -0.022283 -405175.000000 0 0 1
-36.386709 -4.989068 -25.874400 44.926250 0.136263 2.184538 0.099932 -0.018495 817417.000000 0 0 1
-34.887109 -4.545968 -25.760840 43.605011 0.129575 2.202818 0.116057 -0.009757 -11926.400000 0 0 1
-34.447809 -4.252368 -24.459950 42.462022 0.122822 2.184676 0.132247 -0.019211 741886.000000 0 0 1
-33.031209 -4.191868 -24.275750 41.206122 0.126232 2.200778 0.141203 -0.017210 895583.000000 0 0 1
-32.172809 -3.141468 -25.028150 40.882352 0.097335 2.229635 0.135190 -0.007754 -521847.000000 0 0 1
-31.924909 -3.481268 -26.405630 41.576150 0.108616 2.258953 0.131807 -0.000513 1139270.000000 0 0 1
-30.815709 -2.713668 -26.986540 41.051738 0.087835 2.288131 0.121127 -0.000176 1263550.000000 0 0 1
-30.269609 -3.311768 -28.304730 41.573726 0.108976 2.319694 0.106605 -0.005761 -16054.300000 0 0 1
-31.201209 -3.178768 -29.344380 42.950117 0.101529 2.322960 0.129161 -0.009974 -94003.400000 0 0 1
-30.965409 -4.221068 -30.250140 43.494194 0.135481 2.339910 0.098479 -0.001497 -449293.000000 0 0 1
-32.195409 -4.711268 -31.056800 44.980720 0.145302 2.332903 0.096885 -0.009722 -162816.000000 0 0 1
-33.170309 -5.511968 -30.351170 45.297292 0.164667 2.305064 0.102862 -0.007327 974273.000000 0 0 1
-34.098409 -4.775768 -29.528400 45.358966 0.139153 2.279689 0.113312 -0.008250 353320.000000 0 0 1
-35.189409 -3.982968 -30.338950 46.632718 0.112707 2.279162 0.134857 -0.020174 -554187.000000 0 0 1
-34.761309 -2.775968 -31.012580 46.667276 0.079689 2.297683 0.152325 -0.020227 170795.000000 0 0 1
-34.271009 -1.714768 -30.134160 45.667385 0.049994 2.291431 0.144714 -0.015847 221076.000000 0 0 1
-33.851509 -0.453268 -30.945770 45.866881 0.013389 2.311336 0.141252 -0.017101 229532.000000 0 0 1
-34.985409 0.283032 -31.354330 46.980346 -0.008090 2.301498 0.155644 -0.021865 209696.000000 0 0 1
-34.619609 1.409432 -32.087700 47.224191 -0.040689 2.317844 0.154791 -0.020842 -69914.400000 0 0 1
-35.874909 2.242332 -32.360870 48.365928 -0.062423 2.303772 0.132628 -0.024712 117695.000000 0 0 1
-36.707909 1.651632 -33.364780 49.632721 -0.044964 2.308018 0.138094 -0.026754 280744.000000 0 0 1
37.142016 2.452232 -33.526930 50.095886 0.065927 2.304002 0.113857 -0.024247 172760.000000 0 0 1
36.149816 1.986732 33.190546 49.115870 0.054903 0.828801 0.083201 -0.023655 -130251.000000 0 0 1
36.542416 2.224632 31.870299 48.538780 0.060803 0.854502 0.095510 -0.021506 -55327.900000 0 0 1
-37.441309 1.417432 31.386053 48.876835 -0.037839 0.873502 0.086011 -0.021709 -399653.000000 0 0 1
-37.305909 1.513932 29.868053 47.813423 -0.040559 0.896076 0.090691 -0.025699 -6966.580000 0 0 1
-36.867209 2.822732 29.504273 47.303922 -0.076416 0.897307 0.098080 -0.028412 89428.800000 0 0 1
-36.545409 2.882632 28.139903 46.213965 -0.078715 0.916117 0.098338 -0.027451 259049.000000 0 0 1
-35.827409 4.269732 27.855753 45.582637 -0.118616 0.913341 0.093781 -0.023124 568089.000000 0 0 1
-35.179509 4.425532 26.555953 44.299005 -0.125141 0.927957 0.088376 -0.012855 553056.000000 0 0 1
-34.640709 5.693632 26.285693 43.855830 -0.162906 0.928087 0.086481 -0.014330 -216910.000000 0 0 1
-33.762309 5.808532 25.008253 42.415154 -0.170374 0.940225 0.079125 -0.009074 301657.000000 0 0 1
-32.606209 4.974332 25.190073 41.502393 -0.151391 0.918573 0.070566 -0.010206 802624.000000 0 0 1
-31.598209 5.096632 24.173183 40.109416 -0.159918 0.923940 0.067184 -0.011522 337324.000000 0 0 1
-31.891609 4.732832 22.701373 39.431291 -0.147328 0.957312 0.082060 -0.012829 -458769.000000 0 0 1
-31.960409 3.360132 22.574873 39.273186 -0.104749 0.958417 0.066893 -0.013711 51431.800000 0 0 1
-32.672009 3.005532 21.387673 39.165366 -0.091733 0.993111 0.083010 -0.010582 -270387.000000 0 0 1
-32.526309 1.538132 20.928173 38.708075 -0.047254 0.999567 0.075289 -0.012697 -59917.600000 0 0 1
-31.387909 1.108732 20.198473 37.341778 -0.035309 0.999280 0.096350 -0.014272 135522.000000 0 0 1
-31.273909 1.653332 18.896073 36.576665 -0.052817 1.027903 0.112155 -0.013897 -189811.000000 0 0 1
-29.980209 1.094232 18.266073 35.123492 -0.036482 1.023883 0.121051 -0.018925 -271439.000000 0 0 1
-30.061809 -0.292668 17.912473 34.995067 0.009735 1.033451 0.139526 -0.015171 199405.000000 0 0 1
-28.931409 -0.956168 17.350373 33.748720 0.033037 1.030833 0.162838 -0.015603 127966.000000 0 0 1
-28.626409 -0.643168 15.870273 32.737601 0.022464 1.064694 0.167164 -0.008158 -84819.600000 0 0 1
-28.176409 0.667132 15.601773 32.214444 -0.023673 1.065222 0.170972 -0.013598 180778.000000 0 0 1
-28.206609 0.950332 14.164273 31.577564 -0.033679 1.105648 0.197320 -0.017358 -13083.200000 0 0 1
-27.610909 2.324032 13.763173 30.938460 -0.083973 1.109782 0.191063 -0.022746 -441217.000000 0 0 1
-26.217609 2.338832 13.626273 29.639643 -0.088973 1.093104 0.176099 -0.031100 -441149.000000 0 0 1
-25.888909 3.587632 13.077073 29.225272 -0.137701 1.106876 0.176399 -0.030721 1072810.000000 0 0 1
-24.354609 3.760032 12.726073 27.735135 -0.153178 1.094104 0.161931 -0.035692 1087750.000000 0 0 1
-23.557209 4.015932 13.848273 27.619639 -0.168852 1.045589 0.127451 -0.025837 160584.000000 0 0 1
-22.160209 4.115732 13.604073 26.326506 -0.183634 1.027752 0.107818 -0.030616 797846.000000 0 0 1
-21.351509 4.441032 14.917073 26.422126 -0.205072 0.970887 0.087689 -0.032387 153026.000000 0 0 1
-21.493509 5.839832 15.208073 26.969613 -0.265298 0.971700 0.075685 -0.024404 346308.000000 0 0 1
-20.981809 6.213032 16.470873 27.388460 -0.287889 0.925569 0.058730 -0.012813 -213985.000000 0 0 1
-21.157109 7.715832 16.754173 28.068837 -0.349703 0.931170 0.057976 -0.015590 -164863.000000 0 0 1
-20.299009 8.579232 15.988573 27.226594 -0.399872 0.943150 0.065930 -0.017617 683227.000000 0 0 1
-20.450709 9.932832 16.257673 27.950037 -0.452139 0.950017 0.059486 -0.013403 139527.000000 0 0 1
-19.941209 10.538632 17.655173 28.642970 -0.486175 0.906649 0.067215 -0.014611 64557.400000 0 0 1
-20.904109 10.329132 18.656573 29.862024 -0.458932 0.895973 0.079436 -0.011408 221253.000000 0 0 1
-20.439909 10.803732 19.902273 30.505917 -0.486234 0.860040 0.097235 -0.009887 47966.600000 0 0 1
-12.873584 -33.239142 -19.956050 40.851115 1.201284 2.081174 0.177281 -0.058582 -772989.000000 0 0 1
-13.910884 -33.473242 -19.076450 40.961952 1.176930 2.055235 0.194764 -0.051077 -1077720.000000 0 0 1
-14.988784 -32.678742 -19.441750 40.872306 1.140755 2.066522 0.160851 -0.068799 37112.100000 0 0 1
-16.362184 -33.192442 -18.875950 41.542276 1.112805 2.042472 0.143550 -0.058253 -73747.600000 0 0 1
-16.787684 33.212632 -19.392950 41.964172 -1.102790 2.051193 0.129682 -0.061731 638424.000000 0 0 1
-17.650884 32.412532 -18.549350 41.306226 -1.072132 2.036520 0.148099 -0.059661 1125700.000000 0 0 1
-19.090484 32.943032 -18.237650 42.217316 -1.045587 2.017499 0.134810 -0.045857 -39674.600000 0 0 1
-19.029084 -33.702342 -17.280150 42.385817 1.056796 1.990716 0.153282 -0.046876 747297.000000 0 0 1
-20.316484 -33.399142 -16.718450 42.517864 1.024301 1.974917 0.124392 -0.042230 650014.000000 0 0 1
-20.576884 33.581432 -15.387250 42.283427 -1.021058 1.943256 0.128789 -0.042464 -218192.000000 0 0 1
-20.581784 32.194332 -15.487850 41.230551 -1.001981 1.955884 0.125161 -0.047795 160806.000000 0 0 1
-20.899884 31.722632 -14.193350 40.553443 -0.988237 1.928358 0.140978 -0.044277 29328.700000 0 0 1
-21.171984 30.176632 -14.091350 39.464518 -0.958996 1.935919 0.134341 -0.048883 1226300.000000 0 0 1
-19.952984 29.448832 -13.769050 38.143702 -0.975299 1.940113 0.149387 -0.054229 1088080.000000 0 0 1
-20.100784 28.081132 -14.138650 37.316121 -0.949538 1.959391 0.147239 -0.056843 -669166.000000 0 0 1
-19.077984 27.161632 -13.528850 35.843458 -0.958470 1.957829 0.138759 -0.057141 -462099.000000 0 0 1
-17.787684 27.542532 -13.938250 35.626782 -0.997361 1.972764 0.171961 -0.056382 -56646.600000 0 0 1
-16.743284 26.659932 -13.522250 34.262819 -1.010020 1.976497 0.175356 -0.065078 1589230.000000 0 0 1
-15.334884 27.185632 -14.049250 34.228624 -1.057207 1.993747 0.146256 -0.058123 1080720.000000 0 0 1
-15.173984 27.093032 -15.427950 34.674253 -1.060255 2.031903 0.145489 -0.055802 -97340.300000 0 0 1
-13.894784 27.539032 -15.817850 34.665079 -1.103516 2.044635 0.159613 -0.056276 -14440.300000 0 0 1
-13.814084 27.779532 -17.362050 35.552385 -1.109331 2.080996 0.187745 -0.076241 -80271.800000 0 0 1
-13.795184 26.555032 -18.105750 34.975634 -1.091675 2.114919 0.147172 -0.068616 302563.000000 0 0 1
-14.260684 26.749832 -19.419050 36.000279 -1.081011 2.140537 0.136096 -0.068265 -28765.000000 0 0 1
-13.482384 25.826532 -20.375350 35.551924 -1.089676 2.181099 0.104746 -0.052347 -278741.000000 0 0 1
-12.164884 26.251432 -20.612250 35.524455 -1.136856 2.189804 0.085688 -0.043791 -394447.000000 0 0 1
-11.407484 25.115232 -21.044250 34.695331 -1.144450 2.222503 0.087170 -0.042279 8945.000000 0 0 1
-10.136584 25.536232 -21.782150 35.061539 -1.192923 2.241139 0.103147 -0.043302 -580262.000000 0 0 1
-10.379084 26.037532 -23.024050 36.273755 -1.191480 2.258456 0.099288 -0.036552 76536.100000 0 0 1
-9.201284 26.294632 -23.774950 36.624029 -1.234184 2.277279 0.092115 -0.040122 213047.000000 0 0 1
-9.520284 26.858832 -25.176370 38.024759 -1.230157 2.294420 0.099323 -0.033013 61385.800000 0 0 1
-10.435884 26.101632 -25.931790 38.244746 -1.190447 2.315901 0.091422 -0.031977 -293445.000000 0 0 1
-10.753584 26.703232 -27.137470 39.561906 -1.187958 2.326704 0.102407 -0.029920 49754.100000 0 0 1
-12.180984 26.395532 -27.635860 40.110363 -1.138438 2.330898 0.099420 -0.024387 -118427.000000 0 0 1
-12.368184 26.864832 -28.908660 41.357004 -1.139339 2.344798 0.105447 -0.021324 462826.000000 0 0 1
-13.704684 26.590032 -29.342260 41.902463 -1.094899 2.346546 0.090848 -0.013737 297019.000000 0 0 1
-13.882384 26.900632 -30.862050 43.229975 -1.094382 2.365854 0.078535 -0.019235 -802880.000000 0 0 1
-13.094584 26.367532 -31.828190 43.356067 -1.109858 2.395154 0.088569 -0.019349 -614475.000000 0 0 1
-13.254684 24.980532 -32.030490 42.727812 -1.082969 2.418315 0.080742 -0.024317 277315.000000 0 0 1
-12.306284 24.534332 -33.177000 43.059161 -1.105874 2.450418 0.070871 -0.018048 86681.200000 0 0 1
-12.825984 24.868532 33.369668 43.548645 -1.094627 0.697793 0.064415 -0.012283 223184.000000 0 0 1
-12.142484 24.228932 32.287070 42.153718 -1.106224 0.698300 0.062000 -0.018196 -638920.000000 0 0 1
-12.824284 24.287532 30.927263 41.362327 -1.084985 0.726181 0.058344 -0.010599 -136285.000000 0 0 1
-13.842784 23.270032 30.832623 41.033739 -1.034153 0.720620 0.074534 -0.019888 312309.000000 0 0 1
-14.308584 23.232732 29.475393 40.165834 -1.018782 0.746835 0.086061 -0.019816 -479552.000000 0 0 1
-15.618584 22.468832 29.410293 40.171556 -0.963352 0.749371 0.070901 -0.020914 -508881.000000 0 0 1
-15.432084 21.098432 29.628733 39.511453 -0.939285 0.722920 0.059594 -0.022070 -1433130.000000 0 0 1
-16.593684 20.394432 29.621813 39.607260 -0.887795 0.725921 0.056231 -0.028628 -1133330.000000 0 0 1
-16.420184 18.879432 29.905133 38.991953 -0.854954 0.696712 0.061317 -0.034151 -46252.200000 0 0 1
-15.993384 18.159032 28.794013 37.611620 -0.848725 0.698882 0.073907 -0.035902 -13362.100000 0 0 1
-15.197984 17.056932 29.205153 37.079086 -0.842968 0.663819 0.064261 -0.047920 6704.740000 0 0 1
-14.604484 16.209032 28.071763 35.553447 -0.837424 0.660696 0.074139 -0.035823 -8151.060000 0 0 1
-13.640884 16.831832 27.265563 34.825210 -0.889733 0.671441 0.047244 -0.040641 -425652.000000 0 0 1
-13.132584 15.949532 26.329013 33.467436 -0.881959 0.665342 0.037704 -0.031489 -21482.600000 0 0 1
-11.909084 16.444732 25.514503 32.607444 -0.944020 0.672166 0.046889 -0.026881 29451.100000 0 0 1
-12.138284 17.384932 24.493273 32.395898 -0.961275 0.713523 0.048814 -0.027753 -256781.000000 0 0 1
-12.725484 18.645232 24.745943 33.495437 -0.971908 0.739530 0.052619 -0.027999 -65490.500000 0 0 1
-11.817684 19.702432 25.407843 34.254956 -1.030518 0.735154 0.053916 -0.026741 -122471.000000 0 0 1
-11.525384 19.487232 26.757533 35.050710 -1.036700 0.702244 0.063886 -0.032828 205772.000000 0 0 1
-12.495784 19.996032 27.683923 36.364619 -1.012259 0.705500 0.078758 -0.036554 212404.000000 0 0 1
-12.176784 19.720432 29.165683 37.253276 -1.017630 0.671479 0.074933 -0.035003 -12002.900000 0 0 1
-11.070384 20.452932 29.636283 37.672073 -1.074687 0.665366 0.058165 -0.038747 -106529.000000 0 0 1
-11.060684 20.496732 31.076623 38.835696 -1.075948 0.643155 0.047311 -0.031223 -331719.000000 0 0 1
-9.830284 21.214432 31.649793 39.349664 -1.136874 0.636263 0.044888 -0.019414 170523.000000 0 0 1
-8.670984 20.401432 31.659503 38.648785 -1.168910 0.610853 0.053279 -0.023586 -407621.000000 0 0 1
-7.550284 21.042432 32.195866 39.196486 -1.226293 0.606941 0.054089 -0.013616 -538438.000000 0 0 1
-6.371384 20.101432 32.361622 38.625596 -1.263852 0.577503 0.054242 -0.010878 -809521.000000 0 0 1
-6.532584 19.213332 33.460975 39.133919 -1.243055 0.545173 0.054858 -0.013752 770236.000000 0 0 1
-5.314684 18.624432 -33.817290 38.970815 -1.292823 2.621472 0.053117 -0.010948 1005500.000000 0 0 1
-4.797084 17.423532 33.104887 37.716376 -1.302131 0.499687 0.040435 -0.017897 -62441.500000 0 0 1
-5.543584 16.236132 33.229622 37.397207 -1.241772 0.476602 0.038251 -0.013815 -252259.000000 0 0 1
-5.216684 15.216232 32.291997 36.076593 -1.240517 0.462151 0.039757 -0.010622 -382287.000000 0 0 1
-5.743384 13.788932 32.531316 35.796755 -1.176129 0.430449 0.055413 -0.034560 -399946.000000 0 0 1
-4.975284 13.020732 33.472765 36.259053 -1.205811 0.394585 0.061510 -0.025673 301645.000000 0 0 1
-5.684384 11.771232 33.688493 36.135698 -1.120918 0.370138 0.061793 -0.017395 253368.000000 0 0 1
-4.875884 10.536632 -33.716630 35.659585 -1.137386 2.809965 0.098935 -0.045952 -121746.000000 0 0 1
-4.381884 10.555132 -32.414400 34.370118 -1.177305 2.802625 0.100407 -0.053608 165251.000000 0 0 1
-3.309284 9.626732 -32.262050 33.829945 -1.239691 2.835950 0.121962 -0.053141 114201.000000 0 0 1
-3.188484 9.168332 -30.825070 32.317328 -1.236108 2.836519 0.127577 -0.050709 530843.000000 0 0 1
-4.155284 8.206332 -30.325970 31.690293 -1.102081 2.847095 0.126489 -0.038105 788151.000000 0 0 1
-5.284784 8.862232 -29.725570 31.465498 -1.033082 2.807486 0.136435 -0.046219 -59408.400000 0 0 1
-6.413684 7.928132 -29.359820 31.080374 -0.890605 2.807297 0.131786 -0.048318 -532077.000000 0 0 1
-6.023184 7.044932 -28.337020 29.814367 -0.863426 2.825472 0.136977 -0.042845 13972.200000 0 0 1
-6.979484 6.034832 -28.105020 29.580813 -0.712940 2.824384 0.140641 -0.058592 -147207.000000 0 0 1
-6.583584 5.146932 -26.830610 28.101888 -0.663534 2.839654 0.119495 -0.052946 46367.000000 0 0 1
-6.741884 5.640332 -25.531280 27.002085 -0.696669 2.810015 0.093838 -0.041789 61254.300000 0 0 1
-5.832284 6.661732 -25.175310 26.686896 -0.851689 2.803408 0.092010 -0.038120 -112028.000000 0 0 1
-6.410584 7.592032 -24.111650 26.078845 -0.869572 2.750695 0.054627 -0.027010 14821.900000 0 0 1
-6.720684 7.077532 -22.842850 24.840588 -0.811254 2.737800 0.047898 -0.015729 58110.000000 0 1 0
-7.897084 7.688032 -22.365350 24.933484 -0.771985 2.683733 0.058635 -0.009059 31999.600000 0 1 0
-7.868984 7.805732 -20.855850 23.618146 -0.781363 2.653105 0.047867 -0.011519 366849.000000 0 1 0
-7.064984 8.975732 -20.542750 23.504943 -0.903958 2.634120 0.022603 -0.003205 515319.000000 0 1 0
-6.824084 9.116732 -19.152850 22.282607 -0.928241 2.605170 0.019566 -0.004887 -404642.000000 0 1 0
-8.054584 9.558732 -18.342950 22.197060 -0.870590 2.543424 0.014279 0.001379 -476339.000000 0 1 0
-7.886084 9.511332 -16.930050 20.959063 -0.878547 2.511151 0.003178 -0.002016 647276.000000 0 1 0
-9.043684 9.772532 -16.091950 20.886394 -0.824114 2.450345 0.011952 -0.008734 1021650.000000 0 1 0
-9.611084 11.263132 -16.198450 21.945862 -0.864377 2.401060 0.036164 -0.012354 439509.000000 0 1 0
-8.629784 12.262632 -15.808850 21.789104 -0.957560 2.382614 0.015186 -0.008186 275771.000000 0 1 0
-8.898784 13.550632 -16.361750 23.032908 -0.989721 2.360812 0.045156 -0.008802 -42369.600000 0 1 0
-7.760584 14.559132 -16.105050 23.055750 -1.081068 2.344132 0.048863 -0.009773 -243401.000000 0 1 0
-7.329384 14.803632 -14.755350 22.149215 -1.111071 2.299870 0.047415 -0.004183 131309.000000 0 1 0
-8.245884 15.393432 -13.855450 22.291833 -1.079017 2.241514 0.039858 -0.014332 -795915.000000 0 1 0
-7.493784 15.952932 -12.668950 21.706108 -1.131646 2.194023 0.033647 -0.020263 134516.000000 0 1 0
-6.973184 17.321632 -12.708350 22.586863 -1.188076 2.168376 0.047924 -0.024460 165682.000000 0 1 0
-5.938984 17.514332 -13.641250 22.980580 -1.243871 2.206320 0.060077 -0.022947 -457821.000000 0 1 0
-5.936584 18.930232 -14.210750 24.403732 -1.266907 2.192374 0.090171 -0.013718 189938.000000 0 1 0
-5.633484 19.889932 -13.197650 24.525976 -1.294792 2.138988 0.099679 -0.020856 26290.000000 0 1 0
-6.015084 21.153732 -13.635250 25.876276 -1.293758 2.125793 0.103588 -0.018703 -46238.600000 0 0 1
-5.491784 22.232432 -12.647450 26.161015 -1.328627 2.075384 0.116977 -0.018788 -507302.000000 0 0 1
-5.829884 23.569532 -12.998750 27.540477 -1.328315 2.062340 0.103940 -0.023973 -313314.000000 0 0 1
-7.136184 24.070532 -12.911550 28.231609 -1.282581 2.045802 0.104953 -0.021592 -234385.000000 0 0 1
-7.773184 24.098032 -11.497050 27.808626 -1.258768 1.997019 0.064975 -0.023081 -362310.000000 0 0 1
-7.964384 22.804432 -10.994650 26.539703 -1.234792 1.997939 0.075497 -0.019939 -248449.000000 0 0 1
-8.416284 22.647632 -9.669050 26.023828 -1.214993 1.951470 0.079930 -0.025563 -4886.700000 0 0 1
-7.558484 23.257532 -8.528450 25.899381 -1.256573 1.906350 0.080360 -0.021803 98239.900000 0 0 1
-7.564584 24.669832 -8.463250 27.156033 -1.273265 1.887728 0.078610 -0.026291 -43452.400000 0 0 1
-6.794184 25.110432 -7.347650 27.031143 -1.306551 1.846082 0.074879 -0.020662 255055.000000 0 0 1
-6.703684 26.649232 -7.232350 28.415275 -1.324357 1.828151 0.070644 -0.037234 144140.000000 0 0 1
-5.916284 27.356832 -8.189250 29.162690 -1.357813 1.855437 0.074330 -0.036878 -119184.000000 0 0 1
-6.136984 27.206132 -9.615050 29.500600 -1.348936 1.902789 0.079111 -0.030071 -68380.300000 0 0 1
-5.734084 28.493732 -10.383150 30.863932 -1.372209 1.913906 0.082972 -0.033105 298026.000000 0 0 1
-6.531084 29.621832 -10.038250 31.951126 -1.353786 1.890384 0.082753 -0.032800 -39063.900000 0 0 1
-7.454984 29.936432 -11.084550 32.781611 -1.326734 1.915729 0.090716 -0.031547 695732.000000 0 0 1
-8.635184 30.831832 -10.533950 33.706563 -1.297719 1.888640 0.090298 -0.041157 697909.000000 0 0 1
-9.619284 30.276532 -9.677050 33.209100 -1.263168 1.866484 0.094571 -0.032930 323764.000000 0 0 1
-10.787384 31.080632 -9.653150 34.286392 -1.236728 1.856200 0.083498 -0.033521 443836.000000 0 0 1
-11.962884 30.533632 -8.830150 33.961520 -1.197384 1.833823 0.104728 -0.031554 281865.000000 0 0 1
-12.754384 29.505332 -9.389550 33.487350 -1.162781 1.854998 0.118056 -0.039789 317153.000000 0 0 1
-13.924984 29.183132 -8.653950 33.473142 -1.125588 1.832301 0.123828 -0.033449 343230.000000 0 0 1
-14.773084 28.020632 -9.147550 32.970858 -1.085609 1.851928 0.128297 -0.039650 -25489.900000 0 0 1
-14.427784 26.706532 -8.712650 31.580217 -1.075482 1.850311 0.127421 -0.041713 781986.000000 0 0 1
-15.512984 25.887832 -9.212650 31.554801 -1.030937 1.867069 0.148892 -0.041895 909793.000000 0 0 1
-15.547284 24.385432 -8.739350 30.211646 -1.003213 1.864261 0.141760 -0.038978 -179181.000000 0 0 1
-14.611984 23.638932 -9.455450 29.354978 -1.017151 1.898751 0.129586 -0.038035 -67076.100000 0 0 1
-14.858084 22.257632 -9.119950 28.272572 -0.982182 1.899242 0.118716 -0.030329 2213.880000 0 0 1
-13.731784 21.321932 -9.583250 27.111351 -0.998635 1.932082 0.107474 -0.027598 -131808.000000 0 0 1
-13.797284 21.264632 -11.002850 27.633536 -0.995239 1.980318 0.093544 -0.017059 292114.000000 0 0 1
-13.092084 20.122332 -11.460650 26.601831 -0.993982 2.016200 0.090315 -0.013089 -21578.900000 0 0 1
-13.488584 19.888832 -12.936650 27.292205 -0.974852 2.064630 0.104427 0.000536 -454356.000000 0 0 1
-14.785384 19.387132 -12.995550 27.628840 -0.919255 2.060497 0.131434 -0.005356 -829839.000000 0 0 1
-15.088384 19.056632 -14.331950 28.217359 -0.901097 2.103556 0.128215 0.002338 -187280.000000 0 0 1
-16.569284 18.781432 -14.613950 28.997429 -0.847894 2.098990 0.131825 -0.003555 -365146.000000 0 0 1
-17.383784 19.914932 -14.497950 30.149478 -0.853156 2.072442 0.111992 -0.015822 -1225750.000000 0 0 1
-18.655384 19.555932 -14.871250 30.848207 -0.808961 2.073822 0.097432 -0.014369 -1495090.000000 0 0 1
-19.536584 20.656132 -15.428250 32.347872 -0.813245 2.067975 0.097577 -0.025995 -182965.000000 0 0 1
-20.107684 21.564332 -14.458350 32.838746 -0.820339 2.026710 0.112672 -0.048784 212635.000000 0 0 1
-20.907584 22.452032 -15.185650 34.231926 -0.821003 2.030420 0.111179 -0.041893 -80331.700000 0 0 1
-21.478784 23.644232 -14.324250 35.008171 -0.833351 1.992339 0.103482 -0.035277 63984.000000 0 0 1
-22.745284 23.441432 -13.736050 35.433427 -0.800470 1.968886 0.151635 -0.037652 95522.800000 0 0 1
-23.036084 24.428632 -12.784650 35.928631 -0.814728 1.934603 0.157398 -0.051584 29109.000000 0 0 1
-26.226554 -0.644968 3.606950 26.481280 0.024587 1.434164 0.216280 -0.043575 -87600.600000 0 0 1
-26.848144 0.019032 4.656350 27.248941 -0.000709 1.399072 0.230655 -0.039205 -390569.000000 0 0 1
-28.204384 -0.259168 4.848450 28.619258 0.009189 1.400563 0.214533 -0.034282 -310486.000000 0 0 1
-28.758234 0.542132 6.059050 29.394592 -0.018849 1.363180 0.217780 -0.024189 -212103.000000 0 0 1
-29.040714 1.950732 5.780250 29.674563 -0.067072 1.374755 0.244517 -0.034791 298007.000000 0 0 1
-29.280494 2.815932 6.901150 30.214279 -0.095876 1.340355 0.257103 -0.032978 396181.000000 0 0 1
-27.985384 3.252732 7.673550 29.200092 -0.115710 1.304882 0.253694 -0.032561 360733.000000 0 0 1
-27.581774 2.203332 8.592950 28.973224 -0.079714 1.269684 0.232062 -0.037546 59579.900000 0 0 1
-26.395454 2.636632 9.197150 28.075958 -0.099559 1.237054 0.216331 -0.047811 -577347.000000 0 0 1
-25.523304 1.571332 9.869650 27.410183 -0.061487 1.202451 0.197309 -0.042264 -165280.000000 0 0 1
-24.546884 1.030832 8.968450 26.154258 -0.041970 1.220788 0.191672 -0.043807 234614.000000 0 0 1
-24.878384 -0.181668 8.310950 26.230495 0.007302 1.248397 0.163553 -0.029451 707630.000000 0 0 1
-23.606484 -0.937568 7.722550 24.855239 0.039696 1.254866 0.136038 -0.035447 1179040.000000 0 1 0
-22.731384 -1.513768 8.686350 24.381550 0.066496 1.206526 0.138603 -0.048857 121801.000000 0 1 0
-21.598484 -2.117568 8.128850 23.174486 0.097730 1.212406 0.146221 -0.038007 -372554.000000 0 1 0
-20.487584 -2.384868 9.132450 22.557268 0.115884 1.153975 0.104389 -0.023459 -248332.000000 0 1 0
-19.813984 -1.248468 9.679350 22.087156 0.062926 1.117163 0.087622 -0.020046 613744.000000 0 1 0
-20.485984 -0.645268 10.783750 23.159905 0.031488 1.086460 0.118508 -0.030004 -338178.000000 0 1 0
-20.181884 0.897332 10.978950 22.992412 -0.044433 1.072985 0.098816 -0.027025 -245382.000000 0 1 0
-20.349484 1.773432 9.900950 22.699678 -0.086929 1.119457 0.097053 -0.025025 454086.000000 0 1 0
-21.733384 2.035032 9.763850 23.912635 -0.093364 1.150191 0.131920 -0.033121 -493912.000000 0 1 0
-21.995884 3.492632 9.334850 24.148640 -0.157471 1.173900 0.121417 -0.037931 -318399.000000 0 1 0
-22.087484 4.452832 10.388650 24.811463 -0.198933 1.138779 0.109105 -0.038483 383774.000000 0 1 0
-22.284384 5.708332 9.753150 24.986051 -0.250766 1.169791 0.086417 -0.032009 -184298.000000 0 1 0
-22.443584 6.844532 10.730650 25.801336 -0.296007 1.141869 0.099540 -0.038953 -2290.430000 0 0 1
-23.643784 6.707732 11.444050 27.110671 -0.276436 1.135010 0.113380 -0.034407 -8171.990000 0 0 1
-23.636584 7.631532 12.495150 27.803906 -0.312304 1.104700 0.121221 -0.034753 88568.300000 0 0 1
-24.412484 7.222532 13.764750 28.941367 -0.287649 1.075141 0.147628 -0.031603 398861.000000 0 0 1
-25.818224 7.153032 13.589050 30.040121 -0.270274 1.101383 0.165839 -0.033706 366477.000000 0 0 1
-26.541424 6.748132 14.751250 31.106010 -0.248974 1.076713 0.154117 -0.037045 474803.000000 0 0 1
-28.071014 6.667632 14.508650 32.294583 -0.233206 1.104860 0.155797 -0.033527 411077.000000 0 0 1
-28.600834 5.539532 13.768950 32.222323 -0.191315 1.129280 0.183310 -0.026377 -443647.000000 0 0 1
-29.877064 5.809232 13.293250 33.212899 -0.192042 1.159014 0.223527 -0.027247 -516149.000000 0 0 1
-30.457004 4.801932 12.266650 33.183706 -0.156375 1.192154 0.241536 -0.024409 -140589.000000 0 0 1
-31.280784 3.833732 12.859150 34.037372 -0.121951 1.183383 0.205303 -0.026885 276447.000000 0 0 1
-31.837514 2.862332 11.919650 34.115954 -0.089663 1.213880 0.208040 -0.008805 1049790.000000 0 0 1
-33.149274 2.059532 12.299650 35.417474 -0.062049 1.216131 0.149963 0.004946 710413.000000 0 0 1
-32.974594 1.053932 13.243850 35.550446 -0.031951 1.189055 0.168553 0.006655 -235584.000000 0 0 1
-34.140891 0.313532 13.500650 36.714661 -0.009183 1.194242 0.128436 0.009332 6366.890000 0 0 1
-33.839754 -0.874368 14.536450 36.840221 0.025833 1.165185 0.112949 0.000590 128883.000000 0 0 1
-33.570324 -2.159168 14.006150 36.439003 0.064229 1.176268 0.129514 -0.001547 144902.000000 0 0 1
-33.648954 -3.127768 15.051550 36.994381 0.092687 1.151782 0.143967 -0.000125 -71251.700000 0 0 1
-33.611044 -4.607568 14.579950 36.925694 0.136236 1.164896 0.145427 -0.005328 -378127.000000 0 0 1
-34.645162 -4.849768 13.682350 37.563469 0.139080 1.197973 0.110083 -0.006799 -273899.000000 0 0 1
-34.512875 -6.095268 12.980250 37.373490 0.174806 1.216093 0.122992 -0.016614 -861796.000000 0 0 1
-35.643083 -6.528868 11.996250 38.170217 0.181165 1.251095 0.128929 -0.010872 28326.200000 0 0 1
-36.899064 -6.861468 12.532250 39.568649 0.183852 1.248525 0.103263 -0.012785 55696.800000 0 0 1
37.393761 -5.704768 12.910050 39.968827 -0.151392 1.241895 0.099355 -0.013536 -398203.000000 0 0 1
35.901421 -5.659768 12.435750 38.413447 -0.156361 1.241123 0.114836 -0.023744 1123110.000000 0 0 1
35.039271 -6.498768 13.257150 38.022842 -0.183387 1.214652 0.105475 -0.018457 1061700.000000 0 0 1
33.655921 -6.329968 12.922850 36.603136 -0.185907 1.209964 0.123062 -0.017083 374279.000000 0 0 1
32.733881 -7.404968 13.444250 36.153677 -0.222473 1.189780 0.096695 -0.026388 -411238.000000 0 0 1
32.421481 -7.193468 14.829550 36.370509 -0.218337 1.150824 0.102188 -0.016432 366630.000000 0 0 1
31.256171 -7.954968 15.123350 35.622261 -0.249218 1.132334 0.116922 -0.007887 329792.000000 0 0 1
30.757051 -7.738768 16.557750 35.777700 -0.246493 1.089650 0.110810 -0.005800 638464.000000 0 0 1
31.628881 -8.326668 17.570350 37.127304 -0.257421 1.077824 0.088350 -0.000435 725014.000000 0 0 1
30.943921 -8.336768 18.819450 37.164494 -0.263167 1.039812 0.094520 -0.005333 -737530.000000 0 0 1
31.778131 -8.816968 19.993650 38.565977 -0.270646 1.025786 0.080727 -0.007187 416706.000000 0 0 1
33.000811 -8.128968 20.318850 39.597845 -0.241518 1.031969 0.079009 -0.003376 443710.000000 0 0 1
34.060381 -8.573668 19.519150 40.182267 -0.246597 1.063558 0.056109 0.011932 -1217540.000000 0 0 1
35.434931 -8.040268 19.926950 41.441086 -0.223124 1.069172 0.048544 -0.001131 -368601.000000 0 0 1
35.935001 -8.517868 21.118350 42.542486 -0.232740 1.051342 0.058316 -0.010144 -433954.000000 0 0 1
37.193821 -7.936168 21.393250 43.635241 -0.210221 1.058392 0.041655 -0.008895 41344.900000 0 0 1
-37.248934 -8.460468 22.733350 44.450735 0.223344 1.033951 0.052448 -0.011625 147506.000000 0 0 1
36.962931 -8.105868 23.869950 44.740785 -0.215880 1.008043 0.058054 -0.011007 361830.000000 0 0 1
37.427841 -8.948168 24.950250 45.863144 -0.234673 0.995581 0.060040 -0.019708 -226566.000000 0 0 1
36.992911 -8.685568 26.439550 46.292163 -0.230613 0.962896 0.083076 -0.021865 -114193.000000 0 0 1
-37.389444 -7.562868 27.070450 46.775814 0.199580 0.953629 0.057278 -0.027754 41376.200000 0 0 1
36.832481 -7.011568 28.122350 46.868543 -0.188113 0.927263 0.073684 -0.028434 -613175.000000 0 0 1
37.469841 -6.105268 29.204450 47.897424 -0.161519 0.915078 0.088533 -0.030376 264155.000000 0 0 1
-36.659284 -6.659468 30.185850 47.952447 0.179699 0.889893 0.088994 -0.037515 -437016.000000 0 0 1
-35.384880 -6.909068 29.684350 46.701024 0.192829 0.881978 0.081109 -0.037591 -286870.000000 0 0 1
-34.394661 -7.452468 30.803150 46.769285 0.213377 0.851814 0.082975 -0.034657 402218.000000 0 0 1
-34.784981 -8.709168 31.318050 47.609503 0.245328 0.852888 0.078188 -0.027505 72004.000000 0 0 1
-33.888144 -9.183968 32.299550 47.707573 0.264651 0.827074 0.081457 -0.017744 -173343.000000 0 0 1
-34.012724 -10.735868 32.348750 48.151489 0.305745 0.834144 0.080617 -0.021364 -110008.000000 0 0 1
-35.294310 -11.165268 32.749550 49.425546 0.306386 0.846506 0.082751 -0.021401 74836.000000 0 0 1
-35.393869 -12.591868 32.873250 49.919252 0.341801 0.851935 0.075168 -0.019817 383477.000000 0 0 1
-36.876034 -12.998968 33.107350 51.233892 0.338904 0.868201 0.068602 -0.022390 272613.000000 0 0 1
-37.041204 -14.421768 33.114850 51.736172 0.371286 0.876205 0.061880 -0.033379 414495.000000 0 0 1
36.571661 -14.634168 33.278050 51.566209 -0.380636 0.869320 0.053644 -0.030052 520382.000000 0 0 1
36.079101 -16.090568 33.547850 51.827272 -0.419506 0.866758 0.046176 -0.022771 -112978.000000 0 0 1
36.409421 -16.603068 -32.961472 51.843673 -0.427841 2.259823 0.050102 -0.032792 216721.000000 0 0 1
36.436721 -17.989568 -33.070772 52.392129 -0.458612 2.253917 0.041620 -0.036487 -586971.000000 0 0 1
36.962611 -18.630468 -31.744672 52.163715 -0.466871 2.225039 0.037821 -0.027255 208191.000000 0 0 1
36.079711 -18.564468 -30.612372 50.828165 -0.475212 2.217140 0.032442 -0.026297 174016.000000 0 0 1
36.457381 -19.423368 -29.534472 50.780832 -0.489518 2.191499 0.033378 -0.020765 -591268.000000 0 0 1
35.325361 -19.408968 -28.497972 49.363180 -0.502409 2.186230 0.033944 -0.019121 1106380.000000 0 0 1
34.096661 -20.111368 -28.776872 48.940349 -0.532911 2.199379 0.038436 -0.017364 501567.000000 0 0 1
33.209051 -19.430568 -29.587572 48.536712 -0.529390 2.226342 0.039394 -0.017773 -716658.000000 0 0 1
31.808751 -20.105668 -29.588872 47.869989 -0.563674 2.237131 0.042795 -0.015566 359511.000000 0 0 1
30.931911 -19.707768 -30.645672 47.794732 -0.567277 2.266849 0.048351 -0.017236 -224199.000000 0 0 1
29.640641 -20.157568 -30.374872 46.984338 -0.597221 2.273770 0.056862 -0.008899 -414351.000000 0 0 1
28.567341 -19.612768 -31.332072 46.716725 -0.601639 2.305924 0.057228 -0.005819 141004.000000 0 0 1
28.850341 -19.994168 -32.683372 47.961565 -0.606033 2.320537 0.045307 -0.008000 28931.200000 0 0 1
27.820241 -19.446668 -33.479572 47.676204 -0.610062 2.349319 0.069563 -0.006628 99972.700000 0 0 1
27.972541 -19.634868 32.797650 47.367467 -0.612023 0.805974 0.060724 -0.016385 498154.000000 0 0 1
29.017941 -18.706368 32.416150 47.357955 -0.572604 0.816889 0.061939 -0.011379 714436.000000 0 0 1
29.220241 -18.663768 30.990050 46.503139 -0.568410 0.841416 0.054127 -0.016610 -197132.000000 0 0 1
28.140441 -17.967368 30.129850 44.972420 -0.568241 0.836638 0.060027 -0.015231 -322895.000000 0 0 1
28.051341 -16.635268 30.463950 44.628042 -0.535278 0.819456 0.072527 -0.016529 203388.000000 0 0 1
27.111141 -15.984568 29.657550 43.244545 -0.532733 0.815080 0.071676 -0.014885 -110866.000000 0 0 1
26.801141 -14.540668 30.042750 42.805362 -0.497097 0.792811 0.081988 -0.012650 613574.000000 0 0 1
27.998441 -13.812468 29.774150 43.141592 -0.458297 0.809101 0.091330 -0.018394 825624.000000 0 0 1
27.735241 -12.541968 30.326450 42.967873 -0.424685 0.787254 0.103253 -0.009358 210321.000000 0 0 1
28.942141 -11.620268 30.700750 43.763160 -0.381799 0.793268 0.108856 -0.013579 305672.000000 0 0 1
29.440441 -11.011468 29.529250 43.127353 -0.357916 0.816606 0.110118 -0.016827 -115214.000000 0 0 1
30.840081 -10.954568 29.371250 43.974805 -0.341305 0.839398 0.102972 -0.011954 110397.000000 0 0 1
31.293651 -10.172668 28.100450 43.271365 -0.314296 0.864000 0.092354 -0.019151 -44086.300000 0 0 1
31.237011 -8.737768 28.186750 42.971995 -0.272754 0.855378 0.088582 -0.014447 -26707.000000 0 0 1
31.716841 -8.193668 26.989450 42.444371 -0.252811 0.881650 0.082483 -0.009905 54337.600000 0 0 1
31.742111 -6.688268 26.876850 42.126709 -0.207669 0.878898 0.079845 -0.009790 57178.900000 0 0 1
30.455421 -6.167268 26.643050 40.931894 -0.199800 0.862012 0.093874 -0.010162 -276670.000000 0 0 1
30.469511 -4.730768 26.498650 40.656484 -0.154032 0.860881 0.099804 -0.007238 490700.000000 0 0 1
29.034441 -4.222668 26.203350 39.337581 -0.144424 0.841809 0.095563 -0.006060 288332.000000 0 0 1
28.497241 -4.600068 24.956450 38.158587 -0.160041 0.857911 0.102319 -0.016448 -65165.800000 0 0 1
27.167141 -4.141568 24.811750 37.024709 -0.151283 0.836399 0.105813 -0.016858 -95918.000000 0 0 1
26.553741 -4.808368 23.586850 35.840774 -0.179139 0.852502 0.110164 -0.016808 -458642.000000 0 0 1
26.861541 -4.085268 22.425050 35.229457 -0.150930 0.880789 0.120224 -0.008835 156532.000000 0 0 1
26.389141 -4.636568 21.208250 34.171251 -0.173925 0.901230 0.128214 -0.003606 3368.160000 0 0 1
26.676641 -3.683868 20.012950 33.551933 -0.137225 0.931692 0.137152 -0.001023 486567.000000 0 0 1
25.757941 -2.589468 19.957850 32.687806 -0.100194 0.914029 0.127356 0.006418 351849.000000 0 0 1
26.124341 -1.754768 18.888050 32.284963 -0.067069 0.945865 0.140956 0.006753 -455159.000000 0 0 1
25.081641 -0.689468 18.596450 31.231267 -0.027482 0.932979 0.113090 -0.001131 -648318.000000 0 0 1
23.946241 -1.337368 18.073350 30.030934 -0.055791 0.925013 0.118556 -0.000434 -446902.000000 0 0 1
23.052041 -0.354568 17.556050 28.978220 -0.015380 0.919980 0.122236 -0.001743 -114663.000000 0 0 1
21.856841 -1.041868 16.909450 27.653869 -0.047632 0.912882 0.128459 -0.010456 -443162.000000 0 0 1
22.213141 -1.576168 15.636450 27.210412 -0.070838 0.958620 0.146901 -0.022595 1335150.000000 0 0 1
21.151441 -2.476968 15.156750 26.138973 -0.116575 0.952249 0.168624 -0.029103 1076190.000000 0 0 1
21.429141 -2.955968 13.735850 25.624586 -0.137076 1.005055 0.185286 -0.052089 97812.300000 0 0 1
20.411241 -3.867868 13.338750 24.688082 -0.187276 1.000013 0.201730 -0.050090 849269.000000 0 1 0
20.600641 -4.304368 11.996750 24.224698 -0.205980 1.052699 0.181039 -0.046292 -814653.000000 0 1 0
19.470941 -5.210268 11.586850 23.249076 -0.261466 1.049068 0.185008 -0.049212 -765099.000000 0 1 0
19.571341 -6.522068 12.170150 23.951770 -0.321672 1.037807 0.180957 -0.052900 54381.500000 0 1 0
18.328641 -7.144168 12.105150 23.097898 -0.371667 1.019162 0.170799 -0.040264 -599114.000000 0 1 0
18.347341 -8.581268 12.563150 23.834761 -0.437485 1.015619 0.179042 -0.050912 -350770.000000 0 1 0
18.893841 -9.352468 11.511950 24.020218 -0.459640 1.070984 0.155752 -0.060034 432536.000000 0 1 0
18.653341 -10.763168 11.600050 24.461277 -0.523344 1.076717 0.176579 -0.057122 -101246.000000 0 1 0
19.190041 -11.542868 10.386250 24.685414 -0.541524 1.136531 0.156849 -0.053708 120051.000000 0 1 0
18.411041 -11.272768 9.225550 23.476637 -0.549402 1.166940 0.133911 -0.045223 551633.000000 0 1 0
19.088541 -11.515768 7.983650 23.679611 -0.542829 1.226905 0.146604 -0.052893 -131384.000000 0 1 0
18.503741 -10.775468 6.821050 22.472780 -0.527333 1.262406 0.121213 -0.043546 -587127.000000 0 1 0
19.011341 -9.503068 6.625050 22.262764 -0.463538 1.268635 0.113746 -0.040267 337691.000000 0 1 0
19.497241 -9.269968 5.310650 22.232357 -0.443816 1.329594 0.093201 -0.041150 -224947.000000 0 1 0
20.259641 -7.913368 5.250850 22.375117 -0.372375 1.333913 0.138932 -0.035648 -75501.500000 0 1 0
20.722141 -7.632268 3.913950 22.427163 -0.352897 1.395380 0.130973 -0.038210 609816.000000 0 1 0
21.334441 -6.377068 3.927150 22.610791 -0.290456 1.396226 0.162866 -0.035555 -357480.000000 0 1 0
21.805841 -5.943268 2.535450 22.743035 -0.266091 1.459082 0.168639 -0.040545 -644402.000000 0 1 0
20.766841 -5.661668 1.675150 21.589865 -0.266162 1.493129 0.119318 -0.053010 127299.000000 0 1 0
21.296241 -5.172668 0.489950 21.920913 -0.238277 1.548444 0.134309 -0.044143 651.153000 0 1 0
-25.906604 -14.638768 -0.304850 29.758000 0.514331 1.581041 0.120363 -0.024911 -406677.000000 0 0 1
-24.674184 -14.188868 -0.792450 28.473976 0.521871 1.598631 0.085919 -0.011533 324087.000000 0 0 1
-23.502384 -14.826968 -0.281150 27.789927 0.562810 1.580913 0.115269 -0.014367 903508.000000 0 0 1
-23.015584 -14.446768 1.185950 27.199865 0.560535 1.527181 0.139780 -0.031616 187255.000000 0 0 1
-23.894184 -15.055968 2.171950 28.325458 0.562266 1.494043 0.135744 -0.009069 618929.000000 0 0 1
-23.457284 -14.840668 3.488450 27.976041 0.564094 1.445777 0.156040 -0.004563 -116686.000000 0 0 1
-24.157484 -15.696468 4.562350 29.168102 0.576204 1.413736 0.170322 0.002793 -338993.000000 0 0 1
-23.697384 -17.045368 4.484150 29.533340 0.623557 1.418373 0.196130 -0.016143 474018.000000 0 0 1
-24.193084 -17.722568 5.616450 30.511297 0.632237 1.385663 0.199124 -0.020599 -6883.540000 0 0 1
-24.036884 -19.238168 5.302450 31.240917 0.674961 1.400243 0.158077 -0.013386 14298.800000 0 0 1
-24.418984 -20.073568 6.362550 32.244642 0.688041 1.372172 0.144402 -0.019077 79941.000000 0 0 1
-24.341584 -21.461268 5.994750 33.000542 0.722596 1.388126 0.148149 -0.027278 -367442.000000 0 0 1
-24.656384 -22.445368 7.042150 34.078200 0.738491 1.362650 0.137597 -0.029288 -94288.200000 0 0 1
-23.886784 -22.345468 8.227750 33.728241 0.752072 1.324367 0.135665 -0.026009 -11842.500000 0 0 1
-24.303884 -23.381868 9.098350 34.930939 0.766065 1.307291 0.118186 -0.026707 116759.000000 0 0 1
-23.592484 -23.503268 10.473950 34.910063 0.783504 1.266076 0.139100 -0.031047 80002.500000 0 0 1
-23.911084 -22.479068 11.364950 34.730542 0.754539 1.237423 0.123048 -0.030797 16938.300000 0 0 1
-23.330384 -22.758068 12.599750 34.942670 0.772981 1.201903 0.117864 -0.029665 -375560.000000 0 0 1
-23.906884 -21.771668 13.636550 35.092736 0.738688 1.171700 0.096986 -0.028622 -739072.000000 0 0 1
-25.120304 -22.189968 14.154050 36.383533 0.723539 1.171225 0.095057 -0.029504 -864691.000000 0 0 1
-25.615284 -21.130768 14.885450 36.389954 0.689757 1.149379 0.098437 -0.018140 121082.000000 0 0 1
-27.005774 -21.366668 15.594650 37.802638 0.669345 1.145569 0.053541 -0.016398 885417.000000 0 0 1
-28.088524 -21.314668 14.655350 38.184546 0.649134 1.176885 0.059417 -0.013192 305012.000000 0 0 1
-28.432714 -22.499768 14.005150 38.869049 0.669434 1.202189 0.059323 -0.020186 -911114.000000 0 0 1
-29.575084 -23.328968 14.555450 40.383010 0.667877 1.202062 0.061534 -0.021551 -848394.000000 0 0 1
-29.368094 -23.950368 15.816450 41.064159 0.684135 1.175410 0.063415 -0.012499 -318618.000000 0 0 1
-30.180894 -25.072218 16.016250 42.379508 0.693201 1.183243 0.028905 -0.016284 -294918.000000 0 0 1
-29.723054 -26.402918 15.308250 42.601837 0.726312 1.203243 0.048364 -0.021262 19411.100000 0 0 1
-30.168674 -26.487128 13.954450 42.502277 0.720508 1.236269 0.066732 -0.029021 -993549.000000 0 0 1
-31.411564 -27.076188 13.905150 43.739679 0.711409 1.247275 0.089386 -0.036860 -1114390.000000 0 0 1
-31.902704 -27.507698 12.534450 43.949612 0.711556 1.281581 0.133509 -0.046841 -12250.200000 0 0 1
-31.252574 -28.626188 11.967750 44.038722 0.741565 1.295580 0.118470 -0.041595 -52324.800000 0 0 1
-31.897704 -28.863368 10.764150 44.344385 0.735501 1.325607 0.130792 -0.032071 178406.000000 0 0 1
-31.324104 -30.108318 10.010150 44.586022 0.765610 1.344353 0.110138 -0.039168 2588.330000 0 0 1
-31.629254 -31.277158 10.728750 45.757801 0.779801 1.334125 0.106014 -0.023229 255549.000000 0 0 1
-31.019954 -32.420578 10.101050 45.993071 0.807472 1.349370 0.102210 -0.025133 -241489.000000 0 0 1
-31.261034 -33.718228 10.936850 47.262943 0.823195 1.337275 0.100916 -0.025681 576125.000000 0 0 1
-32.640514 33.598732 10.987050 48.114377 -0.799863 1.340411 0.098081 -0.023682 490946.000000 0 0 1
-32.761154 32.339234 11.617850 47.477297 -0.778917 1.323583 0.109181 -0.029221 -665410.000000 0 0 1
-34.159306 32.155449 12.224050 48.479465 -0.755190 1.315896 0.119041 -0.025926 374427.000000 0 0 1
-35.223276 31.797198 11.323750 48.784919 -0.734323 1.336544 0.070835 -0.021921 450495.000000 0 0 1
-35.702392 32.834401 10.522150 49.633400 -0.743577 1.357178 0.090382 -0.015901 -895076.000000 0 0 1
-37.198774 32.668199 10.209050 50.548835 -0.720643 1.367433 0.064431 -0.003651 -203791.000000 0 0 1
-37.387134 31.698806 9.192850 49.871040 -0.703246 1.385404 0.040914 -0.007535 -75717.600000 0 0 1
36.287571 31.670146 8.768150 48.955760 0.717557 1.390721 0.028483 -0.003068 -247558.000000 0 0 1
36.111741 31.158986 7.351850 48.259610 0.711907 1.417861 0.031352 -0.008799 -95349.600000 0 0 1
36.303591 29.797466 7.121750 47.503253 0.687287 1.420308 0.047273 -0.011500 13489.200000 0 0 1
36.307511 29.461286 5.770250 47.111554 0.681676 1.448007 0.065138 -0.009771 -102829.000000 0 0 1
36.552851 27.971336 5.537750 46.359176 0.653177 1.451057 0.072119 -0.011232 -294964.000000 0 0 1
35.561331 27.203456 6.147850 45.193278 0.653015 1.434339 0.062392 -0.009075 -230774.000000 0 0 1
36.025811 26.648646 7.383250 45.414995 0.636883 1.407499 0.041655 -0.011388 161873.000000 0 0 1
35.032621 25.661146 8.054050 44.166126 0.632202 1.387412 0.043619 -0.009352 953.722000 0 0 1
34.888491 24.478446 7.387150 43.254724 0.611812 1.399173 0.052913 -0.015030 165713.000000 0 0 1
33.735701 23.734516 7.756150 41.971212 0.613100 1.384931 0.053581 -0.014809 -251056.000000 0 0 1
33.780441 22.353606 7.139050 41.131107 0.584579 1.396345 0.070800 -0.016401 54770.900000 0 0 1
34.756941 21.406106 7.508650 41.504773 0.552014 1.388884 0.080461 -0.013724 -175794.000000 0 0 1
36.038571 21.678106 6.971850 42.630102 0.541540 1.406515 0.097027 -0.022065 94742.900000 0 0 1
37.010491 20.452906 6.951950 42.853558 0.504856 1.407850 0.084870 -0.021639 128210.000000 0 0 1
36.809541 19.495006 5.938950 42.074561 0.487061 1.429170 0.116171 -0.031416 61549.600000 0 0 1
37.501871 18.309806 6.286050 42.203717 0.454193 1.421295 0.122904 -0.035154 -69390.300000 0 0 1
37.162601 17.100106 5.417550 41.265269 0.431257 1.439130 0.127454 -0.039712 -188286.000000 0 0 1
-37.294684 17.264206 4.122850 41.303077 -0.433541 1.470810 0.134313 -0.042628 271323.000000 0 0 1
37.087351 16.412206 3.153550 40.678950 0.416623 1.493196 0.132123 -0.047904 -114961.000000 0 0 1
-37.028324 15.931006 1.935250 40.356399 -0.406299 1.522824 0.142595 -0.034819 -119025.000000 0 0 1
-35.969466 15.102006 2.282750 39.077922 -0.397506 1.512348 0.152614 -0.042790 1169140.000000 0 0 1
-34.734068 15.839506 2.594350 38.263247 -0.427851 1.502942 0.163281 -0.045317 335469.000000 0 0 1
-33.481654 15.012406 2.703150 36.792669 -0.421503 1.497260 0.161186 -0.048646 -815071.000000 0 0 1
-33.383194 14.259506 3.891650 36.509124 -0.403687 1.464000 0.166259 -0.045350 342824.000000 0 0 1
-32.037434 13.885706 4.164550 35.164663 -0.408982 1.452088 0.168665 -0.048456 231845.000000 0 0 1
-31.757594 13.228806 5.517450 34.842336 -0.394697 1.411772 0.186193 -0.042277 -219164.000000 0 0 1
-32.152644 11.899806 5.563850 34.732612 -0.354471 1.409912 0.206544 -0.038621 138167.000000 0 0 1
-31.810054 11.260706 6.749550 34.412781 -0.340232 1.373382 0.188461 -0.025574 -211529.000000 0 0 1
-32.052904 9.720206 6.741450 34.166039 -0.294440 1.372179 0.212415 -0.026303 274478.000000 0 0 1
-33.416474 9.360006 6.924850 35.386777 -0.273103 1.373835 0.203481 -0.021625 193287.000000 0 0 1
-33.676944 8.074006 6.347650 35.208221 -0.235307 1.389516 0.224225 -0.021124 -578941.000000 0 0 1
-35.136995 7.652706 6.337250 36.514834 -0.214447 1.396360 0.185462 -0.010418 -371214.000000 0 0 1
-35.780916 7.541506 7.595850 37.347627 -0.207729 1.365985 0.177715 -0.012674 -831791.000000 0 0 1
-37.048254 7.010206 7.518750 38.447987 -0.187007 1.373972 0.121169 -0.015290 -551789.000000 0 0 1
37.457891 6.303806 8.873950 39.007417 0.166728 1.341293 0.116933 -0.020591 54182.800000 0 0 1
36.902821 7.114006 9.883950 38.860259 0.190441 1.313625 0.128559 -0.021317 46866.000000 0 0 1
-37.161234 7.851806 10.628050 39.440634 -0.208228 1.297954 0.152809 -0.030573 -64854.000000 0 0 1
37.199221 8.885506 11.572650 39.958234 0.234469 1.276968 0.136005 -0.042446 -301607.000000 0 0 1
36.392511 8.264306 12.520950 39.363534 0.223301 1.247087 0.124680 -0.037694 332227.000000 0 0 1
35.838991 9.208106 13.460550 39.375232 0.251490 1.221908 0.145088 -0.047286 -130246.000000 0 0 1
35.236381 8.626006 14.771250 39.168870 0.240082 1.184115 0.142882 -0.047305 -1050630.000000 0 0 1
33.988481 8.044006 14.703250 37.896021 0.232393 1.172347 0.139862 -0.052063 -940326.000000 0 0 1
33.615411 7.831606 16.011650 38.048691 0.228894 1.136447 0.134653 -0.040839 -521212.000000 0 0 1
32.148651 7.413606 16.090350 36.706902 0.226642 1.117038 0.131201 -0.033389 -711520.000000 0 0 1
31.237641 8.521206 15.968350 36.102484 0.266307 1.112628 0.123019 -0.040253 1041800.000000 0 0 1
29.868641 8.096106 15.947850 34.814028 0.264697 1.094955 0.123340 -0.032086 977670.000000 0 0 1
29.171341 7.527806 17.224450 34.703266 0.252545 1.051424 0.124308 -0.042846 -510585.000000 0 0 1
29.174841 8.462706 18.298050 35.462761 0.282321 1.028646 0.136541 -0.043260 397636.000000 0 0 1
28.269441 8.107306 19.346050 35.201696 0.279291 0.988938 0.128786 -0.027936 -12665.500000 0 0 1
28.695641 6.976506 20.270050 35.818799 0.238494 0.969265 0.138937 -0.026568 -40005.700000 0 0 1
27.838941 6.727406 21.365550 35.731658 0.237109 0.929862 0.104974 -0.017020 -33050.700000 0 0 1
28.371341 5.685606 22.149150 36.439593 0.197780 0.917469 0.100087 -0.014570 -530692.000000 0 0 1
27.633041 5.411606 23.481150 36.663808 0.193391 0.875719 0.097965 -0.007817 547493.000000 0 0 1
26.270141 5.046906 23.255250 35.445708 0.189803 0.855182 0.057912 -0.005722 -389899.000000 0 0 1
25.438541 6.103906 23.559450 35.205465 0.235495 0.837666 0.072333 -0.000321 -190972.000000 0 0 1
23.969741 5.608706 23.294950 33.891898 0.229856 0.812988 0.093973 -0.013274 253587.000000 0 0 1
23.720041 5.553306 21.879750 32.744511 0.229977 0.839015 0.084495 -0.007154 1936200.000000 0 0 1
22.328541 5.383006 21.434650 31.416313 0.236568 0.819923 0.072990 -0.005039 1203450.000000 0 0 1
21.607641 4.027306 21.732250 30.909546 0.184269 0.791060 0.095973 -0.013234 -242260.000000 0 0 1
20.374241 3.916806 21.097650 29.589895 0.189926 0.777026 0.098527 -0.018180 119154.000000 0 0 1
19.204841 4.470206 21.670350 29.298682 0.228692 0.738267 0.112536 -0.022206 720882.000000 0 0 1
17.865541 4.270006 20.873150 27.804656 0.234607 0.721665 0.150620 -0.033711 553332.000000 0 0 1
17.281241 3.019206 20.937050 27.315142 0.172964 0.697423 0.151798 -0.035092 -165519.000000 0 0 1
16.322541 2.760006 19.933150 25.910875 0.167507 0.693057 0.184856 -0.043380 -312692.000000 0 0 1
15.210441 1.815106 20.400750 25.511620 0.118771 0.644059 0.200945 -0.048837 -377236.000000 0 0 1
15.576841 0.469806 20.696650 25.907721 0.030151 0.645398 0.165607 -0.038978 632280.000000 0 0 1
14.501641 -0.143694 21.444450 25.887887 -0.009908 0.594625 0.184771 -0.046904 570175.000000 0 0 1
14.652741 -1.605494 21.821250 26.333389 -0.109134 0.594099 0.144383 -0.032381 -38184.700000 0 0 1
14.458341 -2.415194 20.694650 25.360310 -0.165517 0.616296 0.157426 -0.020362 22491.100000 0 0 1
14.627141 -3.792994 20.931950 25.816402 -0.253724 0.625278 0.115819 -0.004508 83655.300000 0 0 1
14.115941 -4.646894 19.715950 24.689514 -0.318021 0.645905 0.116497 -0.012908 -125920.000000 0 1 0
12.761441 -4.489394 19.392450 23.644791 -0.338272 0.609110 0.118157 -0.013619 -377321.000000 0 1 0
12.512541 -5.007194 18.068250 22.541015 -0.380656 0.640876 0.116995 -0.014313 856113.000000 0 1 0
10.990841 -5.095894 17.714250 21.460694 -0.434146 0.599837 0.102774 -0.011083 943212.000000 0 1 0
10.214441 -6.015294 18.444850 21.925580 -0.532218 0.571209 0.099383 -0.005450 1520830.000000 0 1 0
8.782141 -5.992494 18.131650 21.018866 -0.598782 0.530336 0.067761 -0.018759 1684670.000000 0 1 0
7.982241 -7.005594 19.011550 21.776904 -0.720327 0.509447 0.062591 -0.022116 -160923.000000 0 1 0
8.089241 -8.383594 18.804050 22.120415 -0.803265 0.554665 0.065785 -0.023271 -69132.600000 0 1 0
9.265341 -8.907594 19.365250 23.242304 -0.765715 0.585945 0.115564 -0.029769 -39319.800000 0 1 0
9.412241 -10.395294 18.919250 23.549744 -0.834988 0.637857 0.140681 -0.039780 117900.000000 0 1 0
9.646841 -10.554294 17.552550 22.639494 -0.830289 0.683596 0.124638 -0.026257 -363.999000 0 1 0
9.821841 -11.928694 17.184650 23.110052 -0.881961 0.732357 0.133459 -0.033768 259282.000000 0 1 0
9.703541 -12.031394 15.640250 21.989329 -0.892093 0.779499 0.120877 -0.029400 273256.000000 0 1 0
10.138941 -13.240894 15.080950 22.484538 -0.917304 0.835610 0.104823 -0.027957 -54007.600000 0 1 0
9.725241 -13.288194 13.727250 21.438139 -0.938999 0.875883 0.079005 -0.022577 -363508.000000 0 1 0
10.467841 -14.400194 12.975050 22.029371 -0.942228 0.940989 0.107826 -0.033978 564644.000000 0 1 0
11.853941 -14.189694 12.736550 22.451794 -0.874845 0.967592 0.084872 -0.032671 247057.000000 0 1 0
12.155841 -13.310694 11.686850 21.483051 -0.830715 0.995596 0.052792 -0.029870 -99555.400000 0 1 0
13.669441 -13.128494 11.319850 22.076004 -0.765215 1.032391 0.090097 -0.033754 699969.000000 0 1 0
14.219441 -14.165694 10.507650 22.655465 -0.783505 1.088514 0.098441 -0.036576 693145.000000 0 1 0
15.548141 -13.753794 10.145150 23.104883 -0.724238 1.116209 0.100747 -0.044581 1129670.000000 0 1 0
16.522541 -14.851194 9.557650 24.184726 -0.732176 1.164518 0.094111 -0.048287 449906.000000 0 1 0
17.223441 -15.698894 10.437250 25.535042 -0.739124 1.149721 0.099727 -0.037928 317803.000000 0 0 1
16.430041 -16.545894 11.299550 25.911246 -0.788911 1.119551 0.149875 -0.035866 117158.000000 0 0 1
17.215141 -16.960094 12.561950 27.236161 -0.777935 1.091423 0.145963 -0.033578 488566.000000 0 0 1
18.320241 -17.819194 12.195950 28.317770 -0.771535 1.125548 0.167235 -0.044040 488680.000000 0 0 1
18.655141 -18.591294 13.367050 29.535208 -0.783684 1.101140 0.116857 -0.038525 27729.600000 0 0 1
19.939141 -19.409294 13.046650 30.732802 -0.771933 1.132366 0.056643 -0.033120 357091.000000 0 0 1
21.071741 -18.565394 13.020550 30.955239 -0.722250 1.136662 0.048773 -0.031372 97656.300000 0 0 1
22.249541 -19.187594 12.507050 31.931679 -0.711638 1.168338 0.037509 -0.029881 655175.000000 0 0 1
23.013141 -18.396394 11.435550 31.603857 -0.674367 1.200555 0.063013 -0.030162 -459563.000000 0 0 1
22.688541 -18.695694 10.085050 31.080654 -0.689214 1.240334 0.060747 -0.025291 250502.000000 0 0 1
21.476941 -18.180694 9.535050 29.710500 -0.702471 1.244083 0.079458 -0.032181 436044.000000 0 0 1
21.130241 -16.640394 9.528350 28.533826 -0.667082 1.230325 0.130099 -0.050072 267005.000000 0 0 1
22.082141 -15.804294 8.842550 28.558490 -0.621189 1.255993 0.122107 -0.032509 386212.000000 0 0 1
21.671741 -14.474694 8.963750 27.559570 -0.588860 1.239520 0.141069 -0.044739 138703.000000 0 0 1
-35.835130 24.688332 8.253650 44.292133 -0.603266 1.383355 0.107123 -0.018176 -531718.000000 0 0 1
-34.927913 24.077032 9.076450 43.382538 -0.603532 1.360020 0.115065 -0.025995 -313854.000000 0 0 1
-33.862854 24.886632 9.509650 43.086782 -0.633783 1.348255 0.127267 -0.025102 -14235.100000 0 0 1
-32.668024 24.075032 10.066750 41.810841 -0.635103 1.327638 0.150213 -0.039201 280799.000000 0 0 1
-31.984164 23.220532 9.132950 40.565880 -0.627964 1.343711 0.156035 -0.041563 610735.000000 0 0 1
-31.151354 22.200932 9.741250 39.473791 -0.619185 1.321443 0.162370 -0.044229 664459.000000 0 0 1
-30.277834 21.373932 8.768650 38.085187 -0.614693 1.338474 0.146345 -0.048333 -30119.900000 0 0 1
-31.032104 20.427532 8.050750 38.014341 -0.582168 1.357398 0.150229 -0.049935 280330.000000 0 0 1
-30.309864 19.718332 7.042250 36.838754 -0.576768 1.378448 0.163113 -0.051890 154750.000000 0 0 1
-31.335654 19.049432 6.092150 37.174163 -0.546219 1.406172 0.145769 -0.038492 172019.000000 0 0 1
-32.148894 18.101732 6.780050 37.512574 -0.512814 1.389057 0.149267 -0.048557 529800.000000 0 0 1
-33.107474 17.622132 5.826350 37.955115 -0.489130 1.416681 0.117190 -0.040642 374992.000000 0 0 1
-33.932344 16.361932 6.270650 38.189499 -0.449301 1.405851 0.112118 -0.032811 779089.000000 0 0 1
-34.903645 16.606732 7.340150 39.343688 -0.444091 1.383132 0.080277 -0.030395 975825.000000 0 0 1
-35.475161 15.390832 7.765150 39.441885 -0.409341 1.372626 0.095834 -0.033006 -582719.000000 0 0 1
-36.412574 15.474432 8.945250 40.562928 -0.401849 1.348441 0.098136 -0.033814 -307944.000000 0 0 1
-37.419124 16.442132 8.705550 41.789008 -0.414008 1.360938 0.111059 -0.040194 176651.000000 0 0 1
36.790501 16.729132 9.837850 41.595530 0.426767 1.332022 0.128106 -0.033934 136134.000000 0 0 1
35.847281 17.924132 9.640450 41.221843 0.463659 1.334743 0.101536 -0.027606 1508830.000000 0 0 1
34.530931 17.582732 9.086650 39.800815 0.470971 1.340462 0.117770 -0.040599 1871810.000000 0 0 1
33.723371 18.774032 8.868850 39.602860 0.507978 1.344936 0.098361 -0.031621 514454.000000 0 0 1
32.233311 18.595132 8.511050 38.173332 0.523255 1.345949 0.079221 -0.031329 -37847.100000 0 0 1
31.645951 19.895232 8.667650 38.372055 0.561242 1.342945 0.083444 -0.026302 779788.000000 0 0 1
30.219471 20.054932 8.587550 37.271474 0.585906 1.338302 0.057187 -0.018196 919754.000000 0 0 1
29.717541 20.077732 7.111750 36.562611 0.594175 1.375040 0.056810 -0.018346 -686151.000000 0 0 1
29.613941 18.704232 6.550750 35.633497 0.563333 1.385908 0.081015 -0.018278 24593.700000 0 0 1
29.358441 18.602632 5.166050 35.137787 0.564787 1.423239 0.071807 -0.026331 93060.500000 0 0 1
28.005841 19.137132 4.606650 34.231246 0.599448 1.435812 0.098831 -0.026992 -442906.000000 0 0 1
26.903941 18.383332 5.096150 32.980899 0.599426 1.415657 0.096386 -0.025216 34323.600000 0 0 1
25.620641 18.812632 4.731150 32.135901 0.633362 1.423036 0.110752 -0.024047 72363.100000 0 0 1
25.127041 20.260332 5.176750 32.690182 0.678580 1.411769 0.108503 -0.019338 -1130490.000000 0 0 1
25.613441 21.188432 4.268250 33.514414 0.691131 1.443094 0.097254 -0.020856 123419.000000 0 0 1
25.246941 22.465232 4.693750 34.119290 0.727162 1.432790 0.112668 -0.020636 62165.100000 0 0 1
26.334441 23.577132 4.426950 35.622771 0.730210 1.446201 0.102134 -0.018804 87197.800000 0 0 1
27.426441 23.364032 5.273550 36.412882 0.705584 1.425459 0.095112 -0.025800 -16237.600000 0 0 1
28.478741 24.301432 5.006050 37.771137 0.706417 1.437869 0.098579 -0.017050 416813.000000 0 0 1
29.807041 24.070732 5.840250 38.755237 0.679329 1.419524 0.073376 -0.015753 989812.000000 0 0 1
30.592951 22.932432 5.417150 38.615678 0.643244 1.430048 0.061545 -0.019544 520830.000000 0 0 1
30.984241 22.756032 4.047350 38.655417 0.633467 1.465901 0.068288 -0.017393 -748832.000000 0 0 1
31.622951 23.884132 3.181750 39.756588 0.646871 1.490680 0.094916 -0.026378 -669452.000000 0 0 1
30.945611 25.078732 3.039150 39.947592 0.681058 1.494644 0.071146 -0.027935 -452538.000000 0 0 1
31.661771 25.919332 2.147750 40.974289 0.685999 1.518355 0.135273 -0.024940 -485569.000000 0 0 1
31.353511 27.447132 2.378650 41.737821 0.719061 1.513775 0.127786 -0.020701 747830.000000 0 0 1
30.041171 27.955532 2.144350 41.092359 0.749452 1.518589 0.167616 -0.019365 619739.000000 0 0 1
28.957141 27.425132 2.892150 39.987728 0.758233 1.498407 0.134100 -0.012747 75316.300000 0 0 1
27.621741 28.105432 2.478350 39.484403 0.794078 1.507987 0.105503 -0.009079 111355.000000 0 0 1
27.409141 29.396632 2.963150 40.301405 0.820371 1.497205 0.103047 -0.011953 294056.000000 0 0 1
26.133341 29.906732 2.577550 39.799597 0.852630 1.505988 0.100443 -0.011097 503521.000000 0 0 1
25.952541 31.381832 3.042950 40.836421 0.879812 1.496212 0.106030 -0.016324 -109528.000000 0 0 1
25.960041 31.592632 4.468750 41.133780 0.882956 1.461942 0.109076 -0.038359 -16157.000000 0 0 1
27.233241 31.581932 5.081850 42.010630 0.859202 1.449534 0.103422 -0.036318 -52363.900000 0 0 1
27.300741 31.351932 6.622450 42.096686 0.854360 1.412825 0.135199 -0.049724 288397.000000 0 0 1
26.797941 30.111032 7.222550 40.950814 0.843550 1.393498 0.118633 -0.053992 515695.000000 0 0 1
27.619041 29.011732 6.838950 40.635739 0.809986 1.401693 0.098953 -0.048879 398586.000000 0 0 1
27.017441 27.616632 7.247950 39.308438 0.796365 1.385349 0.116100 -0.049984 472715.000000 0 0 1
25.681141 27.395532 6.820150 38.164783 0.817687 1.391129 0.110032 -0.057088 83405.500000 0 0 1
25.180841 26.188532 7.303950 37.057545 0.805012 1.372400 0.120061 -0.049444 -559442.000000 0 0 1
23.788941 25.901832 6.725150 35.805674 0.827893 1.381850 0.125477 -0.031392 -335832.000000 0 0 1
23.692541 25.696932 5.357250 35.360556 0.825959 1.418707 0.075860 -0.030798 87350.500000 0 0 1
23.662741 26.910232 4.612550 36.129787 0.849524 1.442781 0.078456 -0.016567 -338253.000000 0 0 1
23.585041 26.572032 3.089050 35.663276 0.844881 1.484071 0.070614 -0.009861 827946.000000 0 0 1
24.788141 26.062132 2.473250 36.052789 0.810447 1.502142 0.073701 0.004182 961525.000000 0 0 1
24.508241 25.936132 1.092350 35.700561 0.813697 1.540194 0.088867 -0.001623 770011.000000 0 0 1
25.637841 25.244332 0.234850 35.980972 0.777665 1.564269 0.108833 -0.006864 125975.000000 0 0 1
26.903541 25.830532 0.054950 37.296379 0.765053 1.569323 0.093268 -0.001477 723233.000000 0 0 1
27.850641 25.154732 -0.787550 37.537168 0.734581 1.591778 0.101811 -0.001391 160839.000000 0 0 1
28.598041 24.003232 -0.227650 37.337045 0.698268 1.576894 0.095364 -0.009109 -824012.000000 0 0 1
27.740341 22.914932 0.182050 35.981297 0.690425 1.565737 0.091601 -0.007911 554611.000000 0 0 1
28.368441 21.820532 0.834450 35.799446 0.655666 1.547485 0.099399 -0.014284 -285827.000000 0 0 1
27.303041 20.842832 1.323950 34.374882 0.652015 1.532272 0.090228 -0.017173 -191159.000000 0 0 1
26.823741 19.965332 0.342150 33.440165 0.639853 1.560564 0.121200 -0.035799 1008450.000000 0 0 1
25.559441 19.448332 0.796450 32.127200 0.650445 1.546003 0.099538 -0.023787 311005.000000 0 0 1
25.084441 18.335132 -0.146850 31.071334 0.631188 1.575523 0.119137 -0.027082 760569.000000 0 0 1
23.702741 18.030632 0.164450 29.781717 0.650313 1.565274 0.093602 -0.017437 1198290.000000 0 0 1
23.254641 16.917832 -0.560650 28.762922 0.628947 1.590290 0.120364 -0.046413 724602.000000 0 0 1
21.698741 16.895832 -0.771150 27.511801 0.661589 1.598830 0.091995 -0.016240 176573.000000 0 0 1
21.185041 15.832832 -1.603450 26.496331 0.641809 1.631349 0.098433 -0.022974 179441.000000 0 0 1
19.868141 15.469832 -1.276150 25.212840 0.661571 1.621433 0.116198 -0.022729 148096.000000 0 0 1
18.709041 16.404632 -1.743650 24.943546 0.719865 1.640757 0.111464 -0.024243 -458661.000000 0 1 0
18.516841 17.524232 -0.974150 25.513155 0.757864 1.608988 0.095111 -0.023176 -154459.000000 0 0 1
17.417841 18.271032 -1.424850 25.283235 0.809300 1.627182 0.066573 -0.034001 -114684.000000 0 0 1
17.493441 19.768532 -1.094250 26.419930 0.846379 1.612226 0.065219 -0.027013 -220925.000000 0 0 1
17.434941 19.946532 0.321650 26.494240 0.852485 1.558656 0.076904 -0.027671 117421.000000 0 0 1
17.618541 21.250932 0.757750 27.615019 0.878579 1.543353 0.083910 -0.029905 -714903.000000 0 0 1
16.565141 22.324932 0.513050 27.804131 0.932434 1.552343 0.062536 -0.037711 341888.000000 0 0 1
15.343241 22.210732 1.259950 27.024417 0.966270 1.524157 0.046071 -0.029854 475886.000000 0 0 1
14.383041 23.103832 0.770950 27.225967 1.013969 1.542476 0.034762 -0.030021 -935745.000000 0 0 1
13.075941 23.107932 1.515550 26.594241 1.055855 1.513778 0.034404 -0.030456 -692434.000000 0 0 1
13.069041 23.581332 2.874950 27.113546 1.064726 1.464563 0.042646 -0.014739 29603.500000 0 0 1
11.743341 23.352832 3.314850 26.348606 1.104859 1.444655 0.041601 -0.019722 242697.000000 0 0 1
11.465141 23.581632 4.795550 26.655959 1.118258 1.389906 0.065162 -0.024073 39998.600000 0 0 1
12.067341 22.558532 5.592550 26.187492 1.079593 1.355581 0.076092 -0.047925 322363.000000 0 0 1
11.491741 22.549332 6.906850 26.234273 1.099477 1.304380 0.074654 -0.029654 -715049.000000 0 0 1
12.055141 21.417732 7.791150 25.782702 1.058135 1.263812 0.081919 -0.036345 533188.000000 0 0 1
13.300341 21.682032 8.446950 26.802249 1.020563 1.250173 0.096440 -0.033513 616929.000000 0 0 1
14.404841 21.570532 7.574050 27.021353 0.982008 1.286691 0.096727 -0.033217 -346071.000000 0 0 1
15.825441 21.540732 8.206350 27.960542 0.937175 1.272913 0.114529 -0.040141 119062.000000 0 0 1
16.157141 20.278832 8.783450 27.375778 0.898041 1.244172 0.122086 -0.044150 2258600.000000 0 0 1
17.541041 20.179732 9.306250 28.311058 0.855238 1.235854 0.107124 -0.045579 2013250.000000 0 0 1
17.945841 21.045532 10.516950 29.590098 0.864728 1.207432 0.077331 -0.031937 -772098.000000 0 0 1
17.198941 20.904532 11.680950 29.483006 0.882344 1.163430 0.081435 -0.037506 -251267.000000 0 0 1
17.486141 21.830532 12.686550 30.712959 0.895449 1.144976 0.085903 -0.033421 -294003.000000 0 0 1
18.475541 21.376232 13.759350 31.426241 0.858057 1.117613 0.065789 -0.017907 627295.000000 0 0 1
19.854041 21.267232 13.405150 32.033984 0.819751 1.139040 0.068188 -0.021814 -49037.000000 0 0 1
20.645141 20.676332 14.373150 32.562555 0.786153 1.113637 0.062753 -0.018681 -1122750.000000 0 0 1
22.077141 21.122032 14.254650 33.715508 0.763292 1.134272 0.068132 -0.024162 -971187.000000 0 0 1
22.646641 20.531932 13.095750 33.255515 0.736461 1.166043 0.072065 -0.031346 -903997.000000 0 0 1
23.976441 20.891532 12.949050 34.336624 0.716751 1.184111 0.105274 -0.032758 -666492.000000 0 0 1
24.714541 20.513732 11.649750 34.166335 0.692784 1.222846 0.103383 -0.040818 3704.290000 0 0 1
24.491141 21.377732 10.587350 34.189405 0.717626 1.255953 0.113377 -0.045734 29823.700000 0 0 1
25.416741 21.187832 9.554450 34.441581 0.694906 1.289699 0.131924 -0.049438 -427401.000000 0 0 1
25.492541 22.398232 8.615050 35.010992 0.720876 1.322176 0.123302 -0.044551 187263.000000 0 0 1
26.193041 23.547332 9.147050 36.389844 0.732258 1.316708 0.109422 -0.049402 1864140.000000 0 0 1
27.613041 23.651732 8.833450 37.415429 0.708280 1.332455 0.098040 -0.043493 1252110.000000 0 0 1
28.367641 24.768232 9.573650 38.856700 0.717762 1.321849 0.094181 -0.050201 -143366.000000 0 0 1
29.654341 25.045432 9.089850 39.865762 0.701338 1.340761 0.088261 -0.034073 -89318.200000 0 0 1
30.192881 26.246832 9.577250 41.136723 0.715596 1.335825 0.087032 -0.034457 854069.000000 0 0 1
31.424901 26.792232 8.753250 42.213357 0.705990 1.361923 0.065979 -0.029584 678552.000000 0 0 1
31.070511 27.495732 7.584550 42.177213 0.724436 1.389987 0.089382 -0.028291 577556.000000 0 0 1
32.267691 27.769832 6.854250 43.120160 0.710620 1.411162 0.059211 -0.013147 452297.000000 0 0 1
32.070791 28.811532 5.755750 43.494467 0.731915 1.438074 0.079989 -0.004496 203478.000000 0 0 1
31.808231 30.119332 6.291250 44.255142 0.758133 1.428154 0.087087 -0.016204 15345.500000 0 0 1
31.946101 31.092032 5.302050 44.892979 0.771851 1.452416 0.085573 -0.016036 83502.000000 0 0 1
31.837511 32.531032 5.790750 45.884942 0.796172 1.444257 0.072614 -0.018338 -206108.000000 0 0 1
30.591421 32.929732 6.287150 45.384254 0.822193 1.431818 0.078791 -0.031570 -257701.000000 0 0 1
30.537301 -33.329942 6.288150 45.639376 -0.829096 1.432578 0.080615 -0.039271 -135915.000000 0 0 1
29.213541 -32.839442 6.888150 44.489398 -0.843764 1.415344 0.126880 -0.046727 67966.300000 0 0 1
28.141241 -32.864842 5.969850 43.676840 -0.862672 1.433685 0.121883 -0.055211 -443860.000000 0 0 1
27.030341 -32.117242 6.397050 42.462675 -0.871191 1.419569 0.105369 -0.056883 495858.000000 0 0 1
25.792841 -32.293442 5.445150 41.686769 -0.896847 1.439801 0.143256 -0.052472 268946.000000 0 0 1
26.035441 -31.830342 4.114150 41.327244 -0.885209 1.471081 0.112828 -0.034581 237647.000000 0 0 1
24.911641 -31.952542 3.249450 40.646202 -0.908591 1.490766 0.122784 -0.036646 334869.000000 0 0 1
25.199241 -31.269042 1.901650 40.204117 -0.892477 1.523479 0.116152 -0.023299 64705.400000 0 0 1
25.371441 -29.851442 2.082550 39.232074 -0.866347 1.517689 0.124694 -0.021942 80730.100000 0 0 1
25.907341 -29.259442 0.931450 39.091851 -0.846087 1.546967 0.103631 -0.018181 -583976.000000 0 0 1
26.212641 -27.759842 1.171250 38.197947 -0.814057 1.540129 0.112716 -0.030768 841754.000000 0 0 1
25.046141 -26.889642 1.235350 36.768031 -0.820879 1.537192 0.114836 -0.032570 954527.000000 0 0 1
24.262141 -26.874242 0.042850 36.206052 -0.836435 1.569613 0.097906 -0.026169 -399678.000000 0 0 1
23.009741 -25.982442 0.094650 34.706547 -0.846001 1.568069 0.086645 -0.017904 -355722.000000 0 0 1
23.181541 -24.589342 0.242350 33.794649 -0.814859 1.563625 0.098033 -0.026972 -350248.000000 0 0 1
23.292141 -24.108442 1.568650 33.558925 -0.802618 1.524036 0.080136 -0.015505 23637.000000 0 0 1
21.942141 -23.633542 2.119750 32.318651 -0.822493 1.505160 0.072359 -0.015929 -23104.600000 0 0 1
22.071741 -22.976342 3.346850 32.035534 -0.805476 1.466132 0.069777 -0.013508 273119.000000 0 0 1
20.801341 -22.738842 3.970650 31.072766 -0.829868 1.442660 0.055565 -0.007826 589498.000000 0 0 1
20.832141 -21.907042 5.257950 30.684566 -0.810543 1.398592 0.039741 -0.004257 -331314.000000 0 0 1
20.990341 -20.507942 5.185750 29.800371 -0.773774 1.395890 0.065627 -0.008754 -241295.000000 0 0 1
19.976341 -19.771042 4.541850 28.470629 -0.780233 1.410584 0.048259 -0.002413 -354789.000000 0 0 1
19.778841 -18.327742 5.099150 27.442850 -0.747337 1.383900 0.059145 0.000832 196691.000000 0 0 1
19.412241 -18.238642 6.454150 27.406919 -0.754238 1.333070 0.082765 -0.012425 7667.230000 0 0 1
18.015241 -18.282642 6.683850 26.523155 -0.792765 1.316049 0.058814 -0.005964 147011.000000 0 0 1
19.588416 -25.867738 -11.844550 34.541848 -0.922670 1.920803 0.112784 -0.024063 157017.000000 0 0 1
19.748416 -24.479568 -12.147450 33.716609 -0.891965 1.939365 0.130784 -0.029386 -208847.000000 0 0 1
18.652516 -23.953468 -12.858950 32.970253 -0.909180 1.971446 0.105865 -0.033328 26596.800000 0 0 1
18.950816 -22.461768 -13.291650 32.254184 -0.869976 1.995544 0.097179 -0.033538 138296.000000 0 0 1
18.969416 -21.566768 -12.148450 31.185719 -0.849386 1.970941 0.101343 -0.040556 -92029.600000 0 0 1
20.078316 -21.629268 -11.265950 31.589328 -0.822567 1.935463 0.097640 -0.039895 -796024.000000 0 0 1
19.795516 -22.414268 -9.935350 31.511474 -0.847360 1.891562 0.094095 -0.023319 264868.000000 0 0 1
18.869716 -21.792968 -9.047650 30.213566 -0.857165 1.874919 0.095410 -0.028247 276709.000000 0 0 1
17.522616 -21.952368 -9.449750 29.635220 -0.897147 1.895332 0.107796 -0.018076 -296010.000000 0 0 1
16.478216 -21.332468 -8.486750 28.260055 -0.913083 1.875813 0.098994 -0.024377 -582048.000000 0 0 1
16.510116 -19.915968 -8.497250 27.229266 -0.878627 1.888160 0.083340 -0.033269 56653.900000 0 0 1
15.634016 -19.327268 -7.584450 25.990183 -0.890646 1.866925 0.091579 -0.041581 655142.000000 0 0 1
14.103216 -19.291368 -7.921250 25.175460 -0.939525 1.890875 0.091264 -0.032626 574639.000000 0 0 1
13.509416 -20.597568 -7.954650 25.885142 -0.990303 1.883157 0.083010 -0.033343 1289750.000000 0 0 1
12.056216 -20.436968 -8.064750 25.061169 -1.037820 1.898429 0.088427 -0.038649 1836840.000000 0 0 1
11.321516 -21.792768 -8.064550 25.848373 -1.091664 1.888088 0.091897 -0.029021 2734.440000 0 0 1
11.547116 -22.275868 -6.763750 25.986506 -1.092562 1.834108 0.093219 -0.025826 209852.000000 0 0 1
10.738016 -23.411568 -6.577750 26.583327 -1.140762 1.820832 0.072128 -0.017967 57881.300000 0 0 1
11.228116 -24.156768 -5.296650 27.160164 -1.135701 1.767069 0.082020 -0.011164 895411.000000 0 0 1
10.239916 -25.006648 -4.651750 27.419465 -1.182138 1.741272 0.073226 -0.008079 554557.000000 0 0 1
10.902216 -25.803168 -3.713150 28.256844 -1.171033 1.702585 0.070004 -0.010890 367417.000000 0 0 1
9.945016 -26.796628 -2.987950 28.738310 -1.215423 1.674956 0.070525 -0.009729 535133.000000 0 0 1
9.090416 -26.145628 -2.057450 27.757208 -1.236186 1.644987 0.055651 -0.001458 -198393.000000 0 0 1
8.816116 -26.968368 -0.970050 28.389395 -1.254842 1.604972 0.068191 -0.002742 71962.800000 0 0 1
8.136916 -26.310498 0.235250 27.541006 -1.270861 1.562254 0.074047 -0.003739 442802.000000 0 0 1
6.753216 -26.064268 0.029350 26.924948 -1.317273 1.569706 0.063021 -0.011531 96590.700000 0 0 1
6.169316 -25.562848 1.225450 26.325299 -1.333986 1.524229 0.058379 -0.002626 225315.000000 0 0 1
4.734816 -25.023868 1.096650 25.491471 -1.383795 1.527763 0.072466 -0.014937 1225990.000000 0 0 1
3.602016 -25.831078 0.721750 26.090995 -1.432245 1.543130 0.083623 -0.020735 753744.000000 0 0 1
2.368316 -25.147268 0.659750 25.267158 -1.476895 1.544682 0.083475 -0.026124 -410695.000000 0 0 1
1.217416 -26.080418 0.354250 26.111219 -1.524151 1.557229 0.094336 -0.023712 -518667.000000 0 0 1
0.871216 -27.022968 1.330350 27.069718 -1.538568 1.521631 0.094261 -0.024505 -142336.000000 0 0 1
1.217416 -28.356428 0.902950 28.396909 -1.527890 1.538993 0.082375 -0.025975 -170855.000000 0 0 1
0.615916 -29.482658 1.712850 29.538793 -1.549909 1.512777 0.106293 -0.028925 -241454.000000 0 0 1
0.968816 -29.403528 3.065950 29.578812 -1.537859 1.466956 0.085331 -0.023820 -175449.000000 0 0 1
0.230116 -30.351548 3.762550 30.584738 -1.563215 1.447463 0.095664 -0.025289 -206321.000000 0 0 1
0.565516 -30.200538 5.254650 30.659479 -1.552073 1.398559 0.090310 -0.023070 245400.000000 0 0 1
1.937416 -30.392398 5.577250 30.960574 -1.507136 1.389667 0.057436 -0.006468 195413.000000 0 0 1
2.059716 -30.286488 6.977650 31.148056 -1.502893 1.344863 0.066891 -0.016540 408503.000000 0 0 1
3.485816 -30.613848 7.491350 31.709288 -1.457421 1.332291 0.084841 -0.017777 348752.000000 0 0 1
3.819716 -31.955098 7.452150 33.034119 -1.451827 1.343248 0.084025 -0.017746 -1200890.000000 0 0 1
5.130816 -32.256078 7.724950 33.562698 -1.413053 1.338549 0.080005 -0.016224 -841233.000000 0 0 1
5.564816 -33.749868 7.515050 35.021375 -1.407383 1.354530 0.073031 -0.001113 98696.700000 0 0 1
5.538416 33.547369 6.177650 34.558116 1.407180 1.391069 0.061814 0.002607 -45624.500000 0 0 1
5.538516 32.123694 6.116850 33.166591 1.400063 1.385306 0.057803 -0.003322 -255591.000000 0 0 1
5.645716 31.584586 4.721150 32.430687 1.393915 1.424701 0.070955 -0.007260 1866090.000000 0 0 1
6.975416 31.537826 4.078250 32.556459 1.353124 1.445199 0.063658 -0.003484 1785240.000000 0 0 1
7.853516 30.482756 4.435850 31.789195 1.318642 1.430800 0.064452 -0.008767 -755871.000000 0 0 1
9.220316 30.451746 3.819350 32.045445 1.276787 1.451327 0.036320 -0.004598 -331931.000000 0 0 1
10.229216 31.024766 4.669150 32.999605 1.252309 1.428829 0.033166 -0.005800 345969.000000 0 0 1
11.448116 31.259476 3.968850 33.525602 1.219738 1.452135 0.033706 -0.009263 -34851.000000 0 0 1
12.569716 31.636566 4.913750 34.394986 1.192606 1.427443 0.029380 -0.014406 -549667.000000 0 0 1
13.026416 30.659336 5.808450 33.814502 1.169031 1.398166 0.030111 -0.014521 426324.000000 0 0 1
14.179016 31.159896 6.504550 34.846705 1.143759 1.383033 0.049021 -0.018989 400865.000000 0 0 1
14.855116 30.111786 7.432750 34.389532 1.112497 1.352943 0.048816 -0.016152 -190259.000000 0 0 1
14.227416 29.750866 8.663650 34.096807 1.124725 1.313890 0.051009 -0.008910 73090.500000 0 0 1
14.974016 28.768056 9.339150 33.749696 1.090877 1.290419 0.058134 -0.008680 139.402000 0 0 1
14.674116 28.816876 10.828950 34.102906 1.099800 1.247665 0.061398 -0.001800 -31856.800000 0 0 1
15.380616 29.814906 11.550650 35.481115 1.094533 1.239210 0.075778 -0.014864 332963.000000 0 0 1
14.958216 29.761976 12.907850 35.723047 1.105075 1.201101 0.085346 -0.014318 275553.000000 0 0 1
15.802416 30.719586 13.817450 37.206603 1.095688 1.190311 0.093076 -0.016090 -370308.000000 0 0 1
17.002816 30.174766 14.260150 37.456163 1.057664 1.180226 0.096370 -0.017426 -1035350.000000 0 0 1
17.631516 31.242696 14.826150 38.817408 1.057010 1.178895 0.093011 -0.011831 -584844.000000 0 0 1
18.799916 30.813206 15.751950 39.382921 1.022965 1.159313 0.081096 -0.011296 743555.000000 0 0 1
20.050616 30.478786 15.134350 39.497243 0.988919 1.177565 0.050923 -0.002788 644197.000000 0 0 1
20.154216 29.115686 14.664850 38.327190 0.965317 1.178163 0.036270 -0.004416 -152768.000000 0 0 1
21.600016 28.826846 14.204250 38.720905 0.927742 1.195190 0.051504 -0.010802 -574331.000000 0 0 1
22.571316 28.905946 15.185850 39.694182 0.907839 1.178219 0.057771 -0.010542 -876202.000000 0 0 1
23.754016 28.516376 14.515050 39.851270 0.876257 1.197990 0.063787 -0.012831 -642678.000000 0 0 1
24.992816 28.737246 15.380150 41.073340 0.854975 1.186987 0.092920 -0.023257 -599274.000000 0 0 1
25.117816 27.834076 16.458550 40.945383 0.836650 1.157136 0.075021 -0.020668 170592.000000 0 0 1
26.285116 28.077486 17.238950 42.147764 0.818357 1.149425 0.089210 -0.030124 -228587.000000 0 0 1
27.160016 26.864506 17.471950 42.007585 0.779928 1.141838 0.073428 -0.023459 -431052.000000 0 0 1
26.593816 25.731936 18.160350 41.220892 0.768928 1.114572 0.068095 -0.018028 62761.200000 0 0 1
26.453916 25.865306 19.543950 41.842440 0.774148 1.084806 0.091954 -0.021863 -123184.000000 0 0 1
26.069716 24.577096 20.245650 41.152766 0.755936 1.056453 0.100372 -0.016614 4537.970000 0 0 1
27.037116 23.541976 20.098650 41.099709 0.716405 1.059828 0.081880 -0.020108 -4713.380000 0 0 1
26.476516 22.255306 20.226550 40.067667 0.698993 1.041635 0.087607 -0.021801 -390781.000000 0 0 1
27.442516 21.092506 20.361450 40.156870 0.655304 1.039040 0.063899 -0.021253 -477474.000000 0 0 1
26.778416 19.853606 20.570850 39.171535 0.637976 1.017907 0.043036 -0.000782 -191843.000000 0 0 1
27.544116 18.695106 20.368550 39.026442 0.596310 1.021700 0.054904 -0.013336 -194797.000000 0 0 1
28.249816 18.138206 21.634450 39.938654 0.570776 0.998348 0.053598 -0.006806 -410175.000000 0 0 1
27.387716 17.725706 22.625550 39.701426 0.574414 0.964421 0.052908 0.002746 110169.000000 0 0 1
28.142816 17.273106 23.766350 40.684367 0.550480 0.946946 0.072142 0.005420 57924.200000 0 0 1
27.197116 16.631606 24.756850 40.363289 0.548848 0.910500 0.038837 0.007513 17317.600000 0 0 1
26.539516 15.454306 24.293050 39.157806 0.527313 0.901558 0.053982 -0.005823 15672.400000 0 0 1
25.646216 14.950606 25.227250 38.957197 0.527793 0.866414 0.067695 -0.015170 -270002.000000 0 0 1
25.036616 13.647906 24.597150 37.657898 0.499087 0.859028 0.070441 -0.009551 -12725.600000 0 0 1
23.738916 13.347206 25.066850 37.013930 0.512200 0.826808 0.054702 -0.012709 435922.000000 0 0 1
23.211616 12.248706 24.302250 35.768832 0.485559 0.823817 0.057775 -0.002998 357727.000000 0 0 1
21.898216 11.576506 24.830950 35.073116 0.486305 0.784167 0.059823 -0.009915 352818.000000 0 0 1
20.763416 12.360406 24.566250 34.458667 0.536954 0.777144 0.072892 -0.022084 173510.000000 0 0 1
19.573416 11.588406 24.642450 33.535953 0.534552 0.745414 0.083655 -0.018483 -97874.100000 0 0 1
18.184816 12.173406 24.519050 32.864315 0.589911 0.728657 0.070797 -0.029845 -393441.000000 0 0 1
17.873716 12.898406 25.673050 33.837023 0.625103 0.709440 0.100887 -0.023509 -350986.000000 0 0 1
16.577916 13.408306 25.759250 33.438735 0.680087 0.691420 0.101770 -0.026779 -576591.000000 0 0 1
16.141416 13.768906 27.275650 34.555596 0.706243 0.661085 0.100797 -0.024945 -25809.600000 0 0 1
15.631816 12.644206 27.976850 34.451906 0.680130 0.623131 0.104028 -0.026262 -15750.800000 0 0 1
15.778516 12.698606 29.370550 35.676959 0.677663 0.603709 0.091552 -0.039631 313387.000000 0 0 1
17.214416 12.556506 29.997150 36.794443 0.630198 0.617613 0.105864 -0.022754 600024.000000 0 0 1
17.899616 13.805306 29.985350 37.551351 0.656971 0.645971 0.122309 -0.041121 36730.500000 0 0 1
19.304416 13.686206 30.030550 38.233581 0.616719 0.667374 0.123378 -0.035355 -260441.000000 0 0 1
19.861616 15.055806 29.544050 38.652452 0.648624 0.700762 0.153141 -0.037042 -569244.000000 0 0 1
19.700116 15.394406 28.204350 37.690419 0.663319 0.725276 0.132742 -0.040759 69644.700000 0 0 1
20.326516 14.573306 27.260450 36.995685 0.622018 0.742390 0.115527 -0.036545 -329484.000000 0 0 1
20.371716 15.265806 25.855050 36.284092 0.643093 0.777638 0.093324 -0.032218 492634.000000 0 0 1
21.427716 16.258606 25.777250 37.255281 0.649087 0.806667 0.098291 -0.034250 753978.000000 0 0 1
21.389516 16.834306 24.464750 36.598214 0.666786 0.838649 0.082833 -0.023831 272688.000000 0 0 1
22.692616 17.613106 24.112350 37.504424 0.660035 0.872492 0.080108 -0.019650 -44611.900000 0 0 1
22.840916 17.746606 22.655750 36.741428 0.660537 0.906346 0.090686 -0.016799 -343142.000000 0 0 1
23.945616 18.508606 22.269450 37.575118 0.658024 0.936433 0.072789 -0.017439 -327322.000000 0 0 1
24.085916 19.923006 22.805650 38.693090 0.691086 0.940482 0.095215 -0.027477 -743870.000000 0 0 1
23.136316 20.828806 22.320450 38.305754 0.732961 0.948759 0.089266 -0.022087 -163965.000000 0 0 1
23.097316 22.019506 23.019050 39.347444 0.761513 0.945891 0.106300 -0.028865 314791.000000 0 0 1
22.125916 23.097956 22.464950 39.086388 0.806889 0.958496 0.090300 -0.032066 297963.000000 0 0 1
22.769616 23.811256 21.481550 39.330502 0.807756 0.992999 0.085461 -0.026149 98462.200000 0 0 1
21.911616 24.878246 21.290850 39.399827 0.848717 0.999909 0.072748 -0.015914 -320534.000000 0 0 1
22.475916 25.891306 20.300650 39.845238 0.855895 1.036207 0.069819 -0.017218 -263241.000000 0 0 1
22.411516 25.344786 19.043250 38.823699 0.846743 1.058126 0.065737 -0.018109 185240.000000 0 0 1
22.665716 26.235926 17.908950 39.022930 0.858277 1.094001 0.057973 -0.019734 -80184.800000 0 0 1
22.783216 25.631676 16.512550 38.062082 0.844165 1.122055 0.049117 -0.008366 -887316.000000 0 0 1
21.552916 25.182436 16.065550 36.834565 0.862904 1.119476 0.036579 -0.005788 -854514.000000 0 0 1
21.629016 24.872626 14.716350 36.097546 0.855038 1.150881 0.046665 -0.011063 -1261950.000000 0 0 1
20.344216 24.544326 13.990550 34.814460 0.878694 1.157249 0.056122 -0.016674 -278976.000000 0 0 1
19.358016 25.561636 13.855950 34.930179 0.922635 1.162904 0.062386 -0.008315 -490548.000000 0 0 1
18.548116 25.670026 14.956850 35.024138 0.945090 1.129575 0.054468 -0.017702 -1641430.000000 0 0 1
17.075816 25.931176 14.625150 34.320612 0.988465 1.130582 0.074690 -0.016676 -432355.000000 0 0 1
16.296816 24.803076 14.240350 32.917570 0.989482 1.123415 0.079489 -0.020203 266980.000000 0 0 1
15.888816 23.850786 15.239250 32.458423 0.983134 1.082071 0.090785 -0.025211 -17910.400000 0 0 1
14.765016 24.329536 16.210050 32.752065 1.025336 1.053040 0.128586 -0.040308 -450079.000000 0 0 1
15.206716 25.371966 17.054450 34.144329 1.030854 1.047796 0.112839 -0.038922 -73196.300000 0 0 1
14.293416 25.815846 18.031550 34.581736 1.065141 1.022284 0.125183 -0.032819 -221895.000000 0 0 1
14.790516 27.083556 18.765950 36.117022 1.070947 1.024428 0.126779 -0.047891 -248084.000000 0 0 1
14.826316 28.273806 18.011450 36.655697 1.087833 1.057136 0.125608 -0.038754 -27229.200000 0 0 1
15.366216 29.282326 18.735950 38.008040 1.087537 1.055323 0.101353 -0.027025 -578271.000000 0 0 1
15.350116 30.735496 18.026250 38.797455 1.107608 1.087586 0.100055 -0.032116 1733270.000000 0 0 1
13.999416 31.264566 17.734650 38.574274 1.149796 1.093079 0.118070 -0.027891 1818870.000000 0 0 1
13.973216 32.515328 17.071350 39.292854 1.164916 1.121353 0.102847 -0.027864 -111163.000000 0 0 1
12.542216 33.103309 17.062750 39.297248 1.208627 1.121650 0.123771 -0.038322 -111709.000000 0 0 1
12.399016 -33.288818 16.523050 39.177700 -1.214247 1.135426 0.120262 -0.035992 197780.000000 0 0 1
13.125116 -32.188798 17.151650 38.762952 -1.183623 1.112439 0.104463 -0.040663 275849.000000 0 0 1
12.832416 -31.882518 18.646450 39.100588 -1.188145 1.073690 0.116416 -0.048701 51862.100000 0 0 1
13.629916 -32.727528 19.490550 40.456733 -1.176176 1.068131 0.126289 -0.045227 417694.000000 0 0 1
13.636416 -32.353388 20.838750 40.828263 -1.171908 1.035146 0.113107 -0.037552 -719844.000000 0 0 1
14.796116 -32.921168 21.647150 42.087141 -1.148408 1.030557 0.115324 -0.041301 -1556360.000000 0 0 1
15.964916 -32.318688 21.286850 41.862945 -1.111973 1.037367 0.109517 -0.036627 -1761080.000000 0 0 1
16.970416 -32.763118 22.125550 43.022749 -1.092874 1.030634 0.115009 -0.037398 -353740.000000 0 0 1
18.385516 -32.171398 21.930850 43.057964 -1.051607 1.036387 0.122543 -0.040919 325491.000000 0 0 1
18.486216 -30.809178 22.292750 42.283712 -1.030360 1.015473 0.135338 -0.042698 -516217.000000 0 0 1
19.761916 -30.346928 22.006550 42.376380 -0.993578 1.024751 0.129769 -0.038426 -709566.000000 0 0 1
-5.012584 12.939432 18.758973 23.333538 -1.201209 0.636890 0.020952 -0.000760 199064.000000 0 1 0
-4.605484 13.978132 17.849973 23.134827 -1.252520 0.689502 0.021875 -0.011673 -739407.000000 0 1 0
-5.704984 14.711232 17.485373 23.552186 -1.200853 0.734136 0.020440 -0.015714 -832061.000000 0 1 0
-5.483684 16.213332 17.277773 24.320041 -1.244654 0.780682 0.042634 -0.024428 -209621.000000 0 1 0
-5.228884 16.887132 18.518873 25.602053 -1.270522 0.762176 0.051290 -0.014731 150910.000000 0 0 1
-4.837984 18.233232 18.355973 26.321068 -1.311434 0.799051 0.062892 -0.009610 -110538.000000 0 0 1
-4.117984 18.813632 19.645873 27.511286 -1.355312 0.775455 0.059584 -0.008640 71354.300000 0 0 1
-4.947084 19.014732 20.786273 28.602497 -1.316268 0.757248 0.043552 -0.002781 -52708.300000 0 0 1
-4.452584 20.027232 21.620573 29.805448 -1.352028 0.759196 0.047275 0.000130 -37185.500000 0 0 1
-5.408984 20.322732 22.812093 31.026797 -1.310672 0.744778 0.037744 0.002538 88630.000000 0 0 1
-5.660184 19.154632 23.643483 30.950798 -1.283474 0.701453 0.032576 -0.008068 -125884.000000 0 0 1
-6.161784 19.466732 24.954763 32.243782 -1.264245 0.685756 0.027274 -0.016991 218900.000000 0 0 1
-5.207684 20.229832 25.928233 33.296236 -1.318841 0.678184 0.020220 -0.010613 -500808.000000 0 0 1
-4.853384 21.518632 25.379963 33.626617 -1.348965 0.715511 0.041944 -0.015550 70215.400000 0 0 1
-3.830384 22.170732 26.112323 34.468342 -1.399718 0.711208 0.033323 -0.003308 716553.000000 0 0 1
-2.365084 21.728432 25.823453 33.831481 -1.462376 0.702396 0.028271 0.003377 -146361.000000 0 0 1
-2.141584 20.484432 26.457883 33.529359 -1.466628 0.661460 0.039177 0.003674 -299072.000000 0 0 1
-0.821884 20.079432 26.171193 32.996825 -1.529888 0.654844 0.039267 0.003230 49134.700000 0 0 1
-0.401784 18.741032 26.816293 32.718516 -1.549361 0.610073 0.048802 0.003798 -131791.000000 0 0 1
-0.881884 17.584432 26.152123 31.526553 -1.520687 0.592536 0.050893 0.000802 -114368.000000 0 0 1
-0.325284 16.358032 26.610063 31.237581 -1.550914 0.551269 0.051538 -0.002201 -137156.000000 0 0 1
1.128916 16.017632 26.241863 30.764824 1.500433 0.549123 0.062730 -0.005515 -334582.000000 0 0 1
1.517916 15.763832 24.886353 29.498018 1.474801 0.566728 0.056518 -0.005004 -203385.000000 0 0 1
0.849716 14.699632 24.216053 28.341109 1.513055 0.546306 0.067850 -0.008967 -139181.000000 0 0 1
1.192116 14.666332 22.704873 27.056121 1.489692 0.575028 0.078869 -0.028302 592740.000000 0 0 1
2.566616 14.386132 22.423573 26.764995 1.394245 0.577565 0.066359 -0.028360 279505.000000 0 0 1
2.762416 13.853232 21.137273 25.422968 1.373972 0.589130 0.063637 -0.028733 382189.000000 0 0 1
4.279816 13.639932 20.872173 25.298462 1.266754 0.600528 0.058652 -0.029725 370911.000000 0 0 1
4.870516 14.783932 20.278873 25.564023 1.252548 0.654655 0.060141 -0.024557 207862.000000 0 0 1
6.239216 14.450832 20.030173 25.474737 1.163218 0.666038 0.069528 -0.024098 323284.000000 0 0 1
6.912616 15.478732 19.112273 25.547102 1.150783 0.725573 0.085130 -0.034796 -421988.000000 0 0 1
6.517516 15.313432 17.779073 24.353124 1.168411 0.752397 0.070354 -0.037681 177536.000000 0 1 0
6.886916 16.444932 16.948173 24.598902 1.174200 0.810714 0.072088 -0.025881 -85642.500000 0 1 0
6.890716 16.139232 15.436473 23.371810 1.167271 0.849346 0.067439 -0.021249 -220386.000000 0 1 0
7.913516 15.363232 14.884973 22.808224 1.095146 0.859767 0.056870 -0.013336 -148944.000000 0 1 0
7.959516 14.027432 15.398073 22.298507 1.054673 0.808557 0.051923 -0.017656 -443618.000000 0 1 0
9.041016 13.198332 14.700673 21.726614 0.970200 0.827633 0.054864 -0.022833 1006570.000000 0 1 0
10.400816 13.608832 15.061573 22.808513 0.918225 0.849513 0.048814 -0.019480 1189090.000000 0 1 0
11.263816 12.978932 14.146273 22.258555 0.856028 0.882084 0.052931 -0.013477 -501891.000000 0 1 0
12.645416 13.619732 14.067973 23.309044 0.822477 0.922861 0.055235 -0.004416 -113423.000000 0 1 0
13.482216 13.401232 15.207373 24.343939 0.782386 0.896064 0.055619 -0.007649 1182520.000000 0 1 0
14.849516 13.821532 15.184673 25.340031 0.749559 0.928249 0.055157 -0.003597 1346570.000000 0 0 1
15.931716 12.999932 14.382773 25.093465 0.684408 0.960430 0.063783 -0.005698 114419.000000 0 0 1
17.146116 13.728432 14.348373 26.236138 0.675151 0.992147 0.068518 -0.012166 264834.000000 0 0 1
18.017216 13.204132 13.358973 26.027511 0.632442 1.031813 0.076081 -0.015993 339017.000000 0 0 1
19.479216 13.734932 13.482373 27.383619 0.614145 1.056007 0.079800 -0.020347 368921.000000 0 0 1
20.236216 13.169132 14.505173 28.166124 0.576917 1.029804 0.061224 -0.019110 320462.000000 0 0 1
21.606216 13.564632 14.395073 29.292421 0.560619 1.057069 0.087311 -0.035162 588925.000000 0 0 1
22.463516 13.314832 15.642173 30.439643 0.535058 1.031101 0.093313 -0.020318 -136129.000000 0 0 1
22.880116 11.977232 15.870873 30.312348 0.482253 1.019751 0.096273 -0.020261 127895.000000 0 0 1
23.557016 11.932632 17.080773 31.449539 0.468868 0.996652 0.077582 -0.018182 -422355.000000 0 0 1
24.059816 10.471132 17.408973 31.489549 0.410489 0.985017 0.092538 -0.013938 -152847.000000 0 0 1
23.157916 9.579032 18.049773 30.884320 0.392209 0.946617 0.063241 -0.012450 312383.000000 0 0 1
22.643116 8.621332 17.163573 29.692193 0.363801 0.954459 0.066950 0.006073 245334.000000 0 0 1
21.526216 7.690532 17.754473 28.943800 0.343131 0.910423 0.082361 -0.001648 223449.000000 0 0 1
21.629816 6.416532 17.264373 28.409143 0.288383 0.917629 0.106750 -0.011956 310775.000000 0 0 1
20.703716 5.630632 17.981473 27.994308 0.265540 0.873267 0.103973 -0.015140 -143821.000000 0 0 1
20.626016 4.229232 17.339373 27.275865 0.202240 0.881876 0.147684 -0.016623 -408134.000000 0 0 1
19.741916 4.193232 16.224873 25.895423 0.209292 0.893673 0.142156 -0.022166 365155.000000 0 0 1
19.761316 2.990132 15.457973 25.266568 0.150173 0.912468 0.135634 -0.024367 -127163.000000 0 0 1
18.851416 1.885232 16.057173 24.834710 0.099673 0.867728 0.144049 -0.018522 -152114.000000 0 1 0
19.276816 1.451632 17.314273 25.951627 0.075163 0.840387 0.153870 -0.026851 356388.000000 0 0 1
18.324016 0.551932 17.900473 25.622278 0.030112 0.797316 0.156081 -0.030932 38384.400000 0 0 1
18.770116 -0.135968 19.202573 26.852832 -0.007244 0.774023 0.157498 -0.031037 -96138.200000 0 0 1
19.396016 -1.396068 19.053473 27.224792 -0.071853 0.795598 0.159525 -0.022652 35603.200000 0 0 1
18.602716 -2.405068 19.628973 27.150359 -0.128573 0.762701 0.117640 -0.018892 73752.100000 0 0 1
18.628616 -3.772168 18.907073 26.809178 -0.199792 0.788026 0.109308 -0.014377 -64109.600000 0 0 1
18.105416 -3.620868 17.614873 25.518631 -0.197384 0.808927 0.114298 -0.025894 321471.000000 0 0 1
17.979016 -4.862068 16.888073 25.141435 -0.264113 0.834264 0.132269 -0.027320 -254946.000000 0 0 1
17.685716 -4.615468 15.380273 23.888070 -0.255278 0.871280 0.118449 -0.027095 177362.000000 0 1 0
16.329816 -4.329368 15.045673 22.622524 -0.259158 0.843202 0.117811 -0.035227 653901.000000 0 1 0
16.017316 -4.392768 13.664573 21.507473 -0.267670 0.882347 0.112306 -0.032114 55647.100000 0 1 0
16.313416 -3.084168 12.998573 21.085600 -0.186852 0.906549 0.108065 -0.026587 265977.000000 0 1 0
15.306816 -2.127968 13.366573 20.432625 -0.138136 0.857701 0.100514 -0.017887 603121.000000 0 1 0
15.633516 -0.837668 12.908073 20.291054 -0.053530 0.881303 0.097619 -0.014859 222679.000000 0 1 0
14.595016 0.292332 13.206173 19.685095 0.020027 0.835413 0.101607 -0.009194 -81243.500000 0 1 0
14.924316 1.606632 12.681173 19.650156 0.107239 0.869319 0.096406 -0.013150 460247.000000 0 1 0
15.957316 2.335132 13.370373 20.948882 0.145305 0.878589 0.118798 -0.023000 443323.000000 0 1 0
16.246916 3.671332 12.639273 20.909141 0.222238 0.921676 0.106616 -0.026050 62726.900000 0 1 0
15.264616 4.661732 12.898773 20.521174 0.296399 0.891097 0.087847 -0.017583 591931.000000 0 1 0
15.539816 5.839832 12.177673 20.588474 0.359470 0.937903 0.107869 -0.026398 -56465.600000 0 1 0
14.288616 6.733132 12.283173 20.009397 0.440363 0.909842 0.078085 -0.025186 -191516.000000 0 1 0
14.286616 7.987432 11.577173 20.048377 0.509791 0.955180 0.049428 -0.032120 -255966.000000 0 1 0
13.336416 8.914832 12.015473 20.042600 0.589242 0.927924 0.033548 -0.018323 -750236.000000 0 1 0
13.475316 9.656132 13.370773 21.297948 0.621767 0.892078 0.029739 -0.020659 -246331.000000 0 1 0
13.318616 8.857932 14.573973 21.639066 0.586903 0.831859 0.059874 -0.023007 745532.000000 0 1 0
13.985916 9.483532 15.712773 23.074542 0.595861 0.821728 0.083227 -0.025678 222028.000000 0 1 0
13.658616 8.940732 17.120673 23.656118 0.579592 0.761602 0.080127 -0.024978 130370.000000 0 1 0
12.341616 9.322732 17.505773 23.359814 0.646942 0.723646 0.073167 -0.023085 577350.000000 0 1 0
11.800716 8.548732 18.616473 23.641294 0.626931 0.664126 0.096172 -0.019068 91116.800000 0 1 0
12.469316 8.835432 19.986173 25.159408 0.616457 0.652807 0.119348 -0.017966 -412745.000000 0 0 1
13.675516 8.145832 20.134873 25.666855 0.537215 0.668956 0.125226 -0.020463 -113770.000000 0 0 1
14.408216 8.421432 21.370373 27.114757 0.528936 0.663006 0.118825 -0.018632 644289.000000 0 0 1
15.867816 7.914232 21.163473 27.610057 0.462655 0.697402 0.106430 -0.014040 155322.000000 0 0 1
16.448516 8.754132 20.181673 27.467953 0.489086 0.745520 0.102022 -0.015887 547646.000000 0 0 1
17.799116 8.377232 19.867273 27.958811 0.439897 0.780459 0.082880 -0.007283 1087850.000000 0 0 1
18.551816 9.565732 19.110573 28.299949 0.476067 0.829443 0.085781 -0.007734 -37596.200000 0 0 1
19.278116 10.431032 19.935673 29.629095 0.495970 0.832754 0.070837 -0.009754 373318.000000 0 0 1
19.962416 11.429032 19.120173 29.911567 0.519974 0.877308 0.067979 -0.007651 393289.000000 0 0 1
20.993516 12.348732 19.762573 31.365239 0.531710 0.889142 0.063522 -0.002584 -307999.000000 0 0 1
20.309616 13.208932 20.671673 31.847676 0.576641 0.864423 0.053747 0.005713 886027.000000 0 0 1
21.197916 13.950332 21.540673 33.286093 0.582048 0.866973 0.062958 0.003997 1148010.000000 0 0 1
22.403016 14.836432 21.020073 34.115368 0.584940 0.906955 0.042080 0.002171 387744.000000 0 0 1
23.555016 14.106132 20.689673 34.378545 0.539580 0.925019 0.019493 0.007742 -110109.000000 0 0 1
24.618416 15.057732 20.575873 35.442464 0.548938 0.951401 0.021021 -0.001433 396386.000000 0 0 1
26.000416 14.382132 20.346373 36.011696 0.505258 0.970371 0.020327 -0.012880 -1266.360000 0 0 1
26.223116 13.709632 19.149273 35.246283 0.481726 0.996435 0.036722 -0.032538 550312.000000 0 0 1
27.325816 12.821032 19.358373 35.858412 0.438698 1.000530 0.068464 -0.037921 209610.000000 0 0 1
27.752516 11.831232 18.292273 35.281546 0.402981 1.025741 0.114144 -0.042820 -104722.000000 0 0 1
28.359816 12.505132 17.199173 35.446707 0.415299 1.064191 0.128399 -0.056775 255828.000000 0 0 1
28.572116 11.579332 16.100073 34.780154 0.385039 1.089521 0.160567 -0.066628 129967.000000 0 0 1
27.384116 11.313032 15.126273 33.266780 0.391769 1.098765 0.144732 -0.064692 267685.000000 0 0 1
26.982316 12.429132 14.339073 32.986933 0.431667 1.121103 0.166417 -0.062631 436760.000000 0 0 1
25.806316 12.149632 13.577873 31.590159 0.440017 1.126510 0.162402 -0.053791 429449.000000 0 0 1
25.451916 13.325432 12.664473 31.396752 0.482312 1.155601 0.143569 -0.048317 -110933.000000 0 0 1
24.975716 14.474432 13.331573 31.796642 0.525240 1.138148 0.131609 -0.051711 269140.000000 0 0 1
24.592116 15.425332 12.309373 31.531472 0.560214 1.169748 0.109434 -0.040774 -162586.000000 0 0 1
23.658216 16.573632 12.730773 31.566898 0.611091 1.155681 0.105170 -0.033786 -420734.000000 0 0 1
22.308116 16.193132 12.631973 30.322208 0.627888 1.141104 0.117983 -0.045010 4756.100000 0 0 1
21.379416 17.173532 13.093873 30.388471 0.676734 1.125325 0.080179 -0.033044 -149533.000000 0 0 1
20.832316 18.036832 11.907973 30.018537 0.713601 1.162891 0.100958 -0.031535 674170.000000 0 0 1
19.700116 17.456032 11.209873 28.608895 0.725075 1.168175 0.103016 -0.032078 1625350.000000 0 0 1
18.418816 17.554632 11.850973 28.068906 0.761380 1.134914 0.086960 -0.023974 534729.000000 0 0 1
17.220816 16.963732 11.083973 26.592841 0.777878 1.140871 0.084322 -0.020663 -85596.600000 0 0 1
16.817816 15.663832 11.532173 25.713529 0.749886 1.105725 0.081806 -0.012469 1168130.000000 0 0 1
15.606716 15.329232 10.817573 24.404402 0.776429 1.111561 0.084579 -0.017362 761742.000000 0 1 0
15.670716 13.998932 10.008973 23.274900 0.729111 1.126267 0.091440 -0.023154 -194423.000000 0 1 0
15.969516 12.855432 10.867173 23.203082 0.677781 1.083373 0.087097 -0.016164 485897.000000 0 1 0
16.140016 11.755832 10.014873 22.338250 0.629511 1.105902 0.076846 -0.016941 -201468.000000 0 1 0
16.728416 10.519932 10.717873 22.480696 0.561375 1.073832 0.087475 -0.032268 -646483.000000 0 1 0
17.424616 9.671032 9.822773 22.217853 0.506690 1.112845 0.090305 -0.035020 620253.000000 0 1 0
18.077116 8.595332 10.518673 22.612040 0.443841 1.086958 0.103165 -0.030979 1222910.000000 0 1 0
19.331816 8.850232 11.463073 24.154664 0.429327 1.076321 0.099822 -0.031022 419342.000000 0 1 0
18.949516 9.480532 12.709473 24.708204 0.463891 1.030509 0.088254 -0.031738 -841793.000000 0 1 0
19.982616 9.597432 13.603473 26.009039 0.447755 1.020396 0.096981 -0.028515 -1532160.000000 0 0 1
19.566316 9.924332 15.082273 26.623449 0.469403 0.968540 0.068777 -0.016497 230825.000000 0 0 1
19.029916 8.774632 15.813573 26.252637 0.432044 0.924340 0.076020 -0.013399 1436520.000000 0 0 1
17.884916 8.088732 15.218173 24.837283 0.424736 0.911305 0.094162 -0.027108 423425.000000 0 1 0
17.476216 6.697732 15.811173 24.500427 0.365982 0.869324 0.118139 -0.032015 -355021.000000 0 1 0
16.495616 6.746432 16.787273 24.483305 0.388227 0.815284 0.120700 -0.022412 -176596.000000 0 1 0
15.861216 5.465832 16.929173 23.833808 0.331859 0.780871 0.119380 -0.016470 -517589.000000 0 1 0
14.568816 5.471932 17.776873 23.626461 0.359290 0.719077 0.105596 -0.022335 83023.000000 0 1 0
13.878716 4.253532 17.886473 23.035564 0.297390 0.681748 0.107088 -0.015458 403364.000000 0 1 0
13.422616 3.633332 16.646473 21.690385 0.264352 0.695929 0.104690 -0.019787 -649369.000000 0 1 0
13.326216 2.087432 16.698773 21.466123 0.155378 0.679459 0.115460 -0.017918 799854.000000 0 1 0
14.623016 1.485832 16.929473 22.419798 0.101262 0.714970 0.132049 -0.013883 1018240.000000 0 1 0
14.673416 0.030132 16.766773 22.280815 0.002054 0.718915 0.138740 -0.010926 386686.000000 0 1 0
13.797916 -0.710068 17.894873 22.607812 -0.051417 0.657480 0.139464 -0.018559 -176700.000000 0 1 0
12.450616 -0.409768 17.824273 21.746045 -0.032900 0.609986 0.123238 -0.002585 -1297560.000000 0 1 0
11.719316 -1.279768 18.636473 22.052172 -0.108771 0.564029 0.106428 -0.021243 -87677.700000 0 1 0
-26.869424 14.538632 28.521553 41.794937 -0.495973 0.819733 0.079295 -0.005070 -80045.900000 0 0 1
-25.808324 14.452032 29.452093 41.741545 -0.510470 0.787552 0.076425 -0.008641 263903.000000 0 0 1
-25.347634 13.108532 29.478433 41.028212 -0.477273 0.769165 0.068977 0.006652 -179069.000000 0 0 1
-24.190084 12.763432 30.431323 40.916143 -0.485507 0.732136 0.061080 -0.014036 -50698.500000 0 0 1
-24.492984 13.082632 31.761626 42.188416 -0.490584 0.718412 0.064113 -0.023002 242810.000000 0 0 1
-23.361184 12.850432 32.594069 42.109997 -0.502902 0.685627 0.064893 -0.017829 58342.900000 0 0 1
-23.572084 13.156932 -33.711320 43.187974 -0.509084 2.466377 0.063825 -0.005166 -397070.000000 0 0 1
-24.430684 12.298532 -33.034790 42.888338 -0.466368 2.450031 0.038783 -0.009320 -270036.000000 0 0 1
-24.804084 12.831432 -31.774690 42.302708 -0.477401 2.420563 0.015305 -0.002874 101826.000000 0 0 1
-25.651214 11.716132 -31.084150 41.969952 -0.428451 2.404802 0.002502 -0.007695 276989.000000 0 0 1
-24.924884 10.725932 -30.297820 40.672513 -0.406377 2.411213 0.020522 -0.010556 429131.000000 0 0 1
-24.704284 9.473332 -30.976240 40.737858 -0.366175 2.434694 0.028432 -0.017500 64599.800000 0 0 1
-23.980584 8.387632 -30.109720 39.395634 -0.336468 2.440737 0.027426 -0.010413 491570.000000 0 0 1
-24.807684 7.623332 -29.242180 39.097844 -0.298138 2.415724 0.028716 -0.009538 743047.000000 0 0 1
-23.924284 6.905532 -28.373560 37.750717 -0.281004 2.421286 0.034758 -0.003158 116392.000000 0 0 1
-24.630584 6.181432 -27.247430 37.246452 -0.245887 2.391381 0.037441 -0.004892 -285409.000000 0 0 1
-25.293824 5.052632 -27.803450 37.925432 -0.197162 2.393677 0.039203 -0.005307 199396.000000 0 0 1
-25.621464 4.087032 -26.812860 37.310758 -0.158183 2.372635 0.051470 -0.008010 -35888.600000 0 0 1
-26.388824 2.804932 -27.278290 38.057099 -0.105895 2.369959 0.061816 -0.007314 -842026.000000 0 0 1
-27.640144 2.928732 -27.813220 39.320862 -0.105565 2.356524 0.063966 -0.005135 -1032990.000000 0 0 1
-27.781534 3.472132 -29.119910 40.396020 -0.124335 2.375840 0.060757 -0.001978 -138831.000000 0 0 1
-29.234694 3.254132 -29.630330 41.751804 -0.110854 2.359837 0.092875 -0.013776 587844.000000 0 0 1
-30.225894 3.921332 -28.809310 41.939931 -0.129014 2.328036 0.088151 -0.009413 748955.000000 0 0 1
-31.529024 3.914132 -29.373920 43.269238 -0.123512 2.317010 0.097732 -0.016866 494150.000000 0 0 1
-31.793594 5.229432 -30.133320 44.115717 -0.163021 2.322729 0.087732 -0.028257 288062.000000 0 0 1
-30.809604 5.373832 -31.220040 44.190504 -0.172684 2.355319 0.093817 -0.027995 1152190.000000 0 0 1
-30.728394 6.766532 -31.680770 44.650771 -0.216745 2.359618 0.085840 -0.027124 -305260.000000 0 0 1
-30.242474 7.920632 -30.741970 43.845323 -0.256151 2.347800 0.057919 -0.019850 -1151800.000000 0 0 1
-28.865004 8.041932 -30.618280 42.840870 -0.271715 2.366988 0.019889 -0.023794 -560684.000000 0 0 1
-28.397204 7.500832 -29.381940 41.544699 -0.258242 2.356378 0.023083 -0.020956 -481517.000000 0 0 1
-28.575784 8.408432 -28.126940 40.968303 -0.286174 2.327535 0.006159 -0.011181 2940.870000 0 0 1
-29.914894 8.656032 -27.727370 41.696940 -0.281663 2.298255 0.011912 -0.012859 481260.000000 0 0 1
-30.485904 7.572032 -26.962880 41.397136 -0.243452 2.280122 0.019821 -0.004584 37788.000000 0 0 1
-31.846484 7.878332 -26.282680 42.036245 -0.242516 2.246233 0.018438 -0.002147 145967.000000 0 0 1
-31.816064 8.746432 -25.154360 41.491009 -0.268279 2.222146 0.010557 0.001965 -65768.400000 0 0 1
-31.530124 8.109732 -23.959550 40.422475 -0.251749 2.205239 0.019813 0.002248 -139943.000000 0 0 1
-31.081284 9.043332 -22.804250 39.596235 -0.283140 2.184525 0.032533 -0.000777 176476.000000 0 0 1
-32.080574 9.950532 -22.295650 40.314666 -0.300764 2.156806 0.036506 0.003201 1121450.000000 0 0 1
-31.439934 10.996932 -21.530650 39.660696 -0.336475 2.144649 0.057955 -0.008808 643243.000000 0 0 1
-32.581034 11.841432 -20.884850 40.471227 -0.348602 2.113020 0.061998 -0.005379 384855.000000 0 0 1
-33.174434 11.273832 -19.733250 40.212479 -0.327591 2.083717 0.078027 -0.006472 394382.000000 0 0 1
-33.990504 12.177132 -18.949450 40.776446 -0.344006 2.054110 0.066886 -0.008050 265313.000000 0 0 1
-33.320544 13.213232 -17.975350 40.099393 -0.377528 2.035625 0.094270 -0.017778 -407345.000000 0 0 1
-32.698954 12.613132 -16.806150 38.868488 -0.368149 2.017932 0.136124 -0.024249 455807.000000 0 0 1
-33.537704 12.145232 -15.736050 38.985991 -0.347446 1.986281 0.117983 -0.020461 -140301.000000 0 0 1
-34.277600 13.191932 -14.909650 39.639356 -0.367383 1.956415 0.092434 -0.011056 -709215.000000 0 0 1
-35.243298 13.877632 -15.610350 40.967813 -0.375121 1.961717 0.074212 -0.009034 -661606.000000 0 0 1
-35.716338 14.963632 -14.818050 41.462533 -0.396742 1.936262 0.043980 -0.001643 -229247.000000 0 0 1
-36.460514 15.957532 -15.677350 42.776059 -0.412550 1.946039 0.021485 -0.008559 -688343.000000 0 0 1
37.304971 15.499532 -16.100250 43.486945 0.393781 1.950055 0.012547 -0.006565 -26260.000000 0 0 1
36.507451 16.552332 -16.616550 43.392204 0.425674 1.963772 0.006212 -0.007605 -262743.000000 0 0 1
36.039421 16.349732 -18.087450 43.512176 0.425895 1.999494 0.017000 -0.012816 220818.000000 0 0 1
35.030171 15.354032 -18.269550 42.386739 0.413089 2.016420 0.029837 -0.021958 2025500.000000 0 0 1
33.688181 15.896632 -18.483050 41.583886 0.440896 2.031386 0.048273 -0.021679 1248060.000000 0 0 1
32.644511 14.781432 -18.702350 40.421933 0.425180 2.051810 0.063818 -0.028454 -243780.000000 0 0 1
32.770871 14.285232 -20.028950 40.977514 0.411077 2.081486 0.070420 -0.027179 341758.000000 0 0 1
32.239291 12.978032 -20.253750 40.224564 0.382706 2.098461 0.044731 -0.019146 -3053.990000 0 0 1
33.084561 11.793232 -19.718750 40.280238 0.342416 2.082357 0.063207 -0.015734 -195417.000000 0 0 1
32.968971 11.584232 -18.315050 39.453625 0.337893 2.053547 0.073770 -0.018803 -135587.000000 0 0 1
33.843271 10.578432 -17.915750 39.727123 0.302950 2.038648 0.074025 -0.021525 -544234.000000 0 0 1
33.800941 10.219332 -16.400650 38.934813 0.293601 2.005601 0.067366 -0.016209 399096.000000 0 0 1
32.494681 9.715132 -16.032250 37.514279 0.290517 2.012371 0.082860 -0.022310 1182850.000000 0 0 1
32.387801 9.640532 -14.641850 36.827887 0.289308 1.979669 0.071053 -0.016187 -71941.700000 0 0 1
31.975191 10.912232 -13.865150 36.520296 0.328878 1.960221 0.072668 -0.020253 -157446.000000 0 0 1
30.566711 11.081032 -13.840650 35.336619 0.347784 1.973253 0.072883 -0.018905 446471.000000 0 0 1
30.126931 12.283132 -13.224450 35.119700 0.387138 1.956870 0.086161 -0.018370 194199.000000 0 0 1
28.586041 12.411932 -13.197950 33.843813 0.409634 1.971391 0.092804 -0.017184 -539349.000000 0 0 1
27.890141 11.425132 -12.458150 32.612867 0.388796 1.962757 0.095645 -0.016966 24079.000000 0 0 1
26.514041 11.341632 -12.747650 31.529820 0.404206 1.987015 0.093018 -0.011454 -128177.000000 0 0 1
26.226441 10.630532 -14.097050 31.615838 0.385098 2.032960 0.086537 -0.025859 -1048980.000000 0 0 1
26.469041 9.208932 -14.015250 31.334354 0.334815 2.034519 0.098779 -0.021427 779507.000000 0 0 1
27.775741 8.820332 -14.435750 32.522006 0.307484 2.030716 0.105046 -0.029360 352878.000000 0 0 1
28.500141 7.739732 -13.551950 32.493335 0.265173 2.001014 0.112610 -0.027389 -88385.300000 0 0 1
28.002541 6.436132 -13.668550 31.818160 0.225917 2.014828 0.116177 -0.035475 174995.000000 0 0 1
26.900841 6.187132 -12.840950 30.443814 0.226066 2.006217 0.140333 -0.036428 -409391.000000 0 0 1
26.464241 4.673332 -12.850950 29.788303 0.174788 2.016851 0.137896 -0.036961 -333081.000000 0 0 1
25.523541 4.351932 -11.860350 28.479086 0.168882 2.000342 0.157668 -0.033009 341699.000000 0 0 1
25.270241 3.003332 -11.981750 28.127698 0.118294 2.010838 0.152417 -0.043417 -441423.000000 0 0 1
24.674441 2.296432 -10.753150 27.013549 0.092802 1.980203 0.148387 -0.041208 -349312.000000 0 0 1
25.550841 2.083132 -9.659350 27.395035 0.081349 1.931139 0.158551 -0.033333 191173.000000 0 0 1
25.024441 1.301832 -8.598850 26.492595 0.051976 1.901359 0.179692 -0.025481 -279142.000000 0 0 1
26.087841 0.926032 -7.515250 27.164535 0.035482 1.851110 0.209914 -0.018003 -113200.000000 0 0 1
25.864441 -0.287168 -6.818050 26.749534 -0.011102 1.828525 0.169058 -0.032710 351782.000000 0 0 1
26.401441 -1.440768 -7.449650 27.470150 -0.054517 1.845426 0.130672 -0.028729 -319909.000000 0 0 1
26.560941 -2.690868 -6.525950 27.482947 -0.100965 1.810541 0.130257 -0.032675 -517753.000000 0 0 1
27.878341 -2.792568 -6.046850 28.662950 -0.099837 1.783357 0.134316 -0.045989 265058.000000 0 0 1
28.078741 -3.951168 -5.260250 28.839168 -0.139799 1.754223 0.161263 -0.060151 1200510.000000 0 0 1
29.595841 -4.350568 -4.944450 30.319776 -0.145954 1.734605 0.144127 -0.053242 1162850.000000 0 0 1
30.279871 -4.721268 -6.098850 31.246710 -0.154676 1.767241 0.114206 -0.036970 649728.000000 0 0 1
31.666521 -4.978968 -5.846550 32.584364 -0.155954 1.751201 0.135847 -0.036384 378476.000000 0 0 1
32.359011 -5.330068 -7.150650 33.565563 -0.163251 1.785477 0.149597 -0.043150 -498010.000000 0 0 1
32.123101 -6.638468 -7.627450 33.677008 -0.203788 1.799267 0.145062 -0.052213 90793.000000 0 0 1
32.626271 -6.631068 -8.923150 34.468351 -0.200512 1.832658 0.140559 -0.039025 -103550.000000 0 0 1
31.535781 -7.095868 -9.968750 33.826510 -0.221324 1.869940 0.116974 -0.036965 1398100.000000 0 0 1
30.370501 -6.269768 -10.103650 32.615350 -0.203583 1.885760 0.085239 -0.038059 938330.000000 0 0 1
29.414041 -6.407968 -9.065850 31.439425 -0.214502 1.863309 0.117596 -0.032907 -1578980.000000 0 0 1
28.328041 -5.369368 -9.035550 30.215049 -0.187320 1.874484 0.103739 -0.025814 -1409880.000000 0 0 1
27.494241 -5.561168 -10.132550 29.824963 -0.199574 1.917430 0.092794 -0.024310 -548855.000000 0 0 1
26.382841 -4.740068 -10.127150 28.654523 -0.177768 1.932023 0.098930 -0.026739 -589092.000000 0 0 1
25.076541 -5.294768 -9.551750 27.351479 -0.208088 1.927537 0.122688 -0.025230 -1329960.000000 0 0 1
25.162741 -5.603668 -8.165750 27.041525 -0.219121 1.877556 0.125495 -0.035698 1296730.000000 0 0 1
23.876741 -5.852768 -7.560850 25.720033 -0.240384 1.869171 0.120553 -0.042773 1009090.000000 0 0 1
22.896241 -4.646868 -7.344550 24.490276 -0.200234 1.875381 0.151447 -0.028863 -355014.000000 0 1 0
22.392041 -4.217768 -8.547350 24.336192 -0.186179 1.929670 0.166556 -0.025285 183804.000000 0 1 0
21.816641 -2.912068 -8.453750 23.577783 -0.132695 1.937508 0.140483 -0.031804 -109916.000000 0 1 0
22.089741 -2.133868 -9.776150 24.250425 -0.096301 1.985734 0.172819 -0.017633 -361909.000000 0 1 0
23.452041 -2.094168 -10.120950 25.628449 -0.089060 1.976767 0.147166 -0.030441 263460.000000 0 0 1
23.656441 -1.471368 -11.362850 26.285100 -0.062117 2.017830 0.182429 -0.030386 713381.000000 0 0 1
25.130341 -1.645068 -11.891650 27.850522 -0.065368 2.011948 0.142663 -0.029163 1057680.000000 0 0 1
26.116041 -0.842268 -11.250650 28.448798 -0.032240 1.977376 0.135889 -0.038326 586451.000000 0 0 1
27.426041 -1.187068 -11.637550 29.816596 -0.043256 1.971759 0.113601 -0.035422 -190411.000000 0 0 1
28.500641 -0.119568 -11.335650 30.672427 -0.004195 1.949344 0.090058 -0.017090 -855114.000000 0 0 1
29.668641 -0.415068 -12.018050 32.013029 -0.013989 1.955637 0.086357 -0.021292 -85943.200000 0 0 1
30.782611 0.459632 -11.844650 32.985999 0.014930 1.938079 0.087092 -0.018899 350420.000000 0 0 1
30.704741 1.776032 -12.592350 33.234059 0.057778 1.959403 0.100721 -0.024528 -547151.000000 0 0 1
31.035801 1.579332 -13.945350 34.061532 0.050844 1.992611 0.104300 -0.029362 345088.000000 0 0 1
31.152641 2.786532 -14.662150 34.543167 0.089210 2.009160 0.118972 -0.037258 -163085.000000 0 0 1
31.165051 2.581332 -16.178950 35.209119 0.082639 2.048240 0.114826 -0.032604 748432.000000 0 0 1
29.911641 2.084032 -16.686450 34.314531 0.069561 2.078623 0.101410 -0.026839 854208.000000 0 0 1
30.062701 2.097432 -18.125950 35.166962 0.069656 2.112300 0.090296 -0.021109 639301.000000 0 0 1
28.899341 1.362932 -18.901050 34.558344 0.047126 2.149491 0.065135 -0.020482 117075.000000 0 0 1
28.941941 -0.087668 -18.805450 34.515048 -0.003029 2.147004 0.089636 -0.024966 291101.000000 0 0 1
28.632841 -0.628268 -20.059550 34.965981 -0.021939 2.181797 0.069570 -0.020292 -254782.000000 0 0 1
28.544041 -2.156268 -19.985650 34.911860 -0.075399 2.180300 0.082690 -0.024505 1236360.000000 0 0 1
27.256641 -2.645868 -19.491950 33.613408 -0.096769 2.189385 0.086519 -0.021567 1528840.000000 0 0 1
27.198641 -4.061868 -19.634850 33.790415 -0.148245 2.190848 0.085217 -0.027668 -182579.000000 0 0 1
27.910441 -4.996968 -18.625650 33.924581 -0.177159 2.152001 0.072380 -0.023204 -482702.000000 0 0 1
29.301441 -4.946368 -18.737550 35.130282 -0.167233 2.133380 0.073226 -0.030882 -701513.000000 0 0 1
29.905141 -5.095268 -17.517550 35.030611 -0.168760 2.094469 0.067647 -0.027258 -461013.000000 0 0 1
31.434351 -4.984068 -17.662550 36.399519 -0.157246 2.077435 0.091247 -0.029055 -394270.000000 0 0 1
32.017631 -6.064268 -18.302550 37.374956 -0.187187 2.082543 0.069872 -0.028445 -741644.000000 0 0 1
33.348141 -5.782968 -18.581450 38.611028 -0.171704 2.072873 0.090694 -0.028394 -543326.000000 0 0 1
34.214861 -6.966168 -19.130350 39.813998 -0.200855 2.072013 0.083670 -0.020186 76025.300000 0 0 1
34.629681 -7.854168 -18.095650 39.854175 -0.223031 2.042098 0.089892 -0.029608 -174.996000 0 0 1
35.373921 -8.890468 -18.698650 40.987732 -0.246228 2.044518 0.080687 -0.026084 -421903.000000 0 0 1
36.220841 -9.701868 -17.690550 41.461200 -0.261710 2.011612 0.078314 -0.025872 -1121680.000000 0 0 1
35.525301 -10.304768 -16.623450 40.553351 -0.282321 1.993158 0.081747 -0.027097 334905.000000 0 0 1
36.326221 -11.101468 -15.739850 41.116660 -0.296591 1.963632 0.091619 -0.037348 -436187.000000 0 0 1
-37.426664 -10.582868 -15.038750 41.700315 0.275569 1.939749 0.104357 -0.050452 -585189.000000 0 0 1
-36.831024 -11.339668 -13.992150 40.998691 0.298674 1.919078 0.107277 -0.047000 469353.000000 0 0 1
-36.217424 -12.584168 -14.349850 40.938750 0.334412 1.928923 0.087852 -0.031126 742129.000000 0 0 1
-34.786088 -12.555968 -15.031450 39.920780 0.346395 1.956846 0.077048 -0.036043 732286.000000 0 0 1
-34.783438 -12.042968 -16.284050 40.250353 0.333310 1.987304 0.097454 -0.032452 -650952.000000 0 0 1
-33.448254 -11.900168 -16.640650 39.208556 0.341813 2.009111 0.111265 -0.035053 -805604.000000 0 0 1
-33.249364 -11.167668 -17.936050 39.394655 0.324037 2.043496 0.147598 -0.034762 65829.700000 0 0 1
-33.575774 -9.781868 -17.909950 39.291015 0.283490 2.044099 0.147641 -0.043531 780652.000000 0 0 1
-34.962235 -9.407068 -17.936250 40.404948 0.262839 2.030756 0.131576 -0.042799 314287.000000 0 0 1
-35.237178 -7.897368 -17.745350 40.235862 0.220477 2.027546 0.147815 -0.048666 496764.000000 0 0 1
-36.645634 -7.639668 -17.707750 41.410523 0.205530 2.012649 0.136295 -0.043464 427788.000000 0 0 1
-36.840944 -6.279068 -17.823950 41.405012 0.168815 2.015819 0.129193 -0.045292 -1290.360000 0 0 1
24.917016 27.466932 -26.605960 45.641726 0.834037 2.193127 0.038172 0.013561 269913.000000 0 0 1
25.646016 26.909332 -25.503290 45.080462 0.809431 2.172112 0.043003 -0.004313 -215198.000000 0 0 1
26.852016 26.388432 -25.989520 45.747516 0.776691 2.175001 0.056999 -0.002565 -462251.000000 0 0 1
27.468416 25.341232 -25.044050 44.987736 0.745140 2.161188 0.071423 -0.008356 -442884.000000 0 0 1
27.996016 25.870732 -23.871350 44.976806 0.745964 2.130279 0.067302 -0.000900 159195.000000 0 0 1
28.295916 24.858932 -22.935150 44.098146 0.720828 2.117756 0.075065 -0.002402 95579.600000 0 0 1
28.987616 25.396032 -21.660750 44.208918 0.719452 2.082844 0.071837 0.006337 7798.700000 0 0 1
28.150216 26.236832 -20.911850 43.796250 0.750232 2.068581 0.074796 -0.002034 -120291.000000 0 0 1
28.796916 26.796132 -19.802850 44.039164 0.749424 2.037186 0.049219 0.004240 -169120.000000 0 0 1
27.954416 27.847132 -19.051650 43.816407 0.783476 2.020619 0.052854 -0.000120 16102.700000 0 0 1
26.962416 27.245932 -18.228850 42.445302 0.790628 2.014699 0.061997 0.000377 83098.000000 0 0 1
26.032016 28.224632 -17.850050 42.342886 0.825788 2.005961 0.046181 -0.001148 329715.000000 0 0 1
24.920616 27.811632 -16.808550 40.951817 0.840168 1.993741 0.056014 -0.010216 583377.000000 0 0 1
23.949616 26.942832 -17.389550 40.023702 0.844145 2.020259 0.079008 -0.011028 105917.000000 0 0 1
22.737016 27.066432 -16.681750 39.087651 0.872110 2.011723 0.056431 -0.001265 -362417.000000 0 0 1
21.699316 26.027632 -17.126750 37.968718 0.875840 2.038766 0.059924 -0.005268 -227407.000000 0 0 1
21.083216 26.395232 -18.357750 38.447591 0.896817 2.068575 0.057281 -0.005643 -90590.000000 0 0 1
20.357416 25.334932 -18.944950 37.619068 0.893906 2.098557 0.060519 -0.001530 155686.000000 0 0 1
19.673416 25.745432 -20.264950 38.216996 0.918299 2.129704 0.038363 0.004134 756261.000000 0 0 1
18.506416 26.555232 -20.076650 38.088576 0.962152 2.125986 0.019932 0.010711 234599.000000 0 0 1
17.662916 26.646732 -21.209250 38.364817 0.985437 2.156554 0.019038 0.006631 -52547.600000 0 0 1
16.479816 27.606332 -20.984750 38.393406 1.032617 2.149061 0.027172 0.007084 -175392.000000 0 0 1
15.655716 27.071732 -19.962950 37.101206 1.046482 2.138939 0.047330 0.003103 -195575.000000 0 0 1
14.617716 28.003832 -19.688750 37.222830 1.089712 2.128151 0.043214 -0.006714 142719.000000 0 0 1
14.277516 28.139732 -18.192050 36.423106 1.101263 2.093777 0.060671 -0.007052 4812.990000 0 0 1
13.657316 26.898832 -17.832250 35.043667 1.100985 2.104654 0.054145 -0.007877 -32479.500000 0 0 1
13.121616 26.980832 -16.501950 34.241152 1.118144 2.073656 0.079124 -0.009996 -451704.000000 0 0 1
12.186016 25.840832 -16.256850 32.871458 1.130142 2.088123 0.086625 -0.012542 -406274.000000 0 0 1
12.841516 24.621432 -16.132150 32.114883 1.090051 2.097083 0.063289 -0.005906 -144777.000000 0 0 1
11.866816 23.605032 -16.244450 31.014529 1.104972 2.122066 0.087146 -0.008288 206456.000000 0 0 1
12.430216 22.163132 -16.383650 30.234726 1.059660 2.143471 0.069495 -0.012988 -42034.000000 0 0 1
13.021316 22.013432 -17.663950 31.083130 1.036638 2.175211 0.065633 -0.005716 337071.000000 0 0 1
14.186916 21.183832 -17.734550 31.057005 0.980693 2.178559 0.060415 -0.006583 534526.000000 0 0 1
13.884516 19.650332 -17.709350 29.875348 0.955668 2.205296 0.082613 -0.008456 -128481.000000 0 0 1
13.413416 19.257532 -16.426550 28.646183 0.962404 2.181481 0.096517 -0.020324 123787.000000 0 0 1
12.928216 17.904732 -16.423550 27.521831 0.945421 2.210236 0.082652 -0.024963 547236.000000 0 0 1
14.046016 16.793932 -16.584650 27.465930 0.874266 2.219089 0.107033 -0.026308 409665.000000 0 0 1
14.812416 16.483032 -15.439750 27.008959 0.838730 2.179315 0.131508 -0.032375 -1065600.000000 0 0 1
15.916816 15.760932 -15.731650 27.372191 0.780477 2.183072 0.132618 -0.036181 -1709710.000000 0 0 1
16.605716 15.152032 -14.470150 26.734231 0.739656 2.142730 0.200349 -0.035864 -565135.000000 0 0 1
17.523316 16.001532 -13.755250 27.428499 0.740037 2.096122 0.140537 -0.027350 1121500.000000 0 0 1
18.793816 16.315832 -14.313450 28.710429 0.714937 2.092716 0.100582 -0.023739 -61499.000000 0 0 1
19.654016 15.065732 -14.756950 28.827490 0.654008 2.108198 0.102449 -0.026864 -1319670.000000 0 0 1
20.122516 14.179032 -13.771850 28.206816 0.613830 2.080874 0.142888 -0.034929 333075.000000 0 0 1
21.076716 14.751832 -12.900450 28.779613 0.610666 2.035603 0.121515 -0.025900 -807650.000000 0 0 1
21.820916 13.630232 -12.192850 28.471059 0.558341 2.013356 0.122902 -0.031111 -811283.000000 0 0 1
21.034216 13.003732 -11.249450 27.167727 0.553708 1.997722 0.209503 -0.031510 112670.000000 0 0 1
21.637116 11.828832 -10.731750 26.893429 0.500300 1.981274 0.214953 -0.011570 -155109.000000 0 0 1
21.621916 10.549132 -11.580650 26.700241 0.453913 2.019423 0.180971 -0.022933 -256841.000000 0 0 1
22.596416 10.652932 -12.621250 27.988907 0.440543 2.038612 0.146355 -0.013595 531426.000000 0 0 1
22.744716 9.593032 -13.526250 28.147963 0.399131 2.072068 0.125118 -0.017818 -338303.000000 0 0 1
23.017416 8.164932 -12.893950 27.617413 0.340881 2.056553 0.130692 -0.001469 297788.000000 0 0 1
21.960616 7.657432 -12.033450 26.186043 0.335507 2.048270 0.145224 -0.020564 1168290.000000 0 0 1
22.434316 6.597932 -11.164550 25.912901 0.286035 2.016230 0.139232 -0.004616 -674137.000000 0 0 1
22.252316 5.157532 -11.683150 25.656611 0.227754 2.043580 0.144876 -0.020109 29049.300000 0 0 1
20.957816 4.566832 -11.606750 24.388576 0.214552 2.066794 0.127047 -0.047113 438082.000000 0 1 0
20.055016 5.060332 -12.551550 24.194049 0.247163 2.116227 0.076631 -0.051226 -1089890.000000 0 1 0
19.137316 3.925632 -13.031150 23.483150 0.202323 2.159057 0.085757 -0.066114 -93116.900000 0 1 0
19.897516 2.985032 -13.790650 24.392695 0.148910 2.171666 0.110601 -0.065662 633906.000000 0 1 0
19.407216 1.681932 -13.701350 23.815875 0.086449 2.183771 0.133253 -0.063404 -298718.000000 0 1 0
20.435016 0.662032 -14.254050 24.924006 0.032386 2.179617 0.153174 -0.051286 -164596.000000 0 1 0
21.671016 0.623032 -13.530550 25.555760 0.028742 2.128751 0.179520 -0.044213 548835.000000 0 0 1
22.811916 0.727632 -14.338350 26.953687 0.031886 2.131713 0.140047 -0.041471 -159776.000000 0 0 1
23.186316 -0.529668 -15.204850 27.732170 -0.022840 2.151096 0.134311 -0.030332 -1002740.000000 0 0 1
22.198016 -0.991068 -16.116650 27.449600 -0.044617 2.198313 0.131127 -0.023227 133759.000000 0 0 1
22.561816 -2.135668 -16.833950 28.230807 -0.094377 2.209677 0.123872 -0.029324 -597838.000000 0 0 1
21.321116 -2.587768 -17.586550 27.759201 -0.120780 2.256916 0.114037 -0.026700 -383409.000000 0 0 1
20.432816 -3.315368 -16.764550 26.637225 -0.160855 2.251533 0.134754 -0.026217 658738.000000 0 0 1
19.626216 -4.260368 -17.535150 26.661218 -0.213759 2.288561 0.118048 -0.024210 155809.000000 0 0 1
19.163616 -5.483668 -16.736950 26.027683 -0.278702 2.269263 0.124762 -0.029729 60826.200000 0 0 1
20.167416 -6.407368 -16.277950 26.697391 -0.307623 2.226504 0.127603 -0.025027 679893.000000 0 0 1
19.592016 -7.589368 -15.738950 26.251860 -0.369572 2.213718 0.134726 -0.020395 466384.000000 0 0 1
20.697516 -8.640168 -15.329150 27.166569 -0.395458 2.170339 0.181714 -0.020995 602192.000000 0 0 1
21.267216 -9.394868 -16.415050 28.460707 -0.415975 2.185556 0.144304 -0.027255 79664.700000 0 0 1
22.096616 -10.350368 -15.883050 29.114632 -0.438061 2.147824 0.118916 -0.033948 -896407.000000 0 0 1
22.719016 -11.306768 -16.879650 30.478177 -0.461789 2.157750 0.105528 -0.024979 -111471.000000 0 0 1
23.769716 -10.786168 -17.677450 31.525118 -0.425991 2.166078 0.099509 -0.021550 276416.000000 0 0 1
24.171816 -11.579668 -18.768850 32.720561 -0.446753 2.181703 0.097961 -0.021906 -656357.000000 0 0 1
23.260916 -11.403268 -20.012850 32.735590 -0.455803 2.228560 0.112842 -0.018889 755997.000000 0 0 1
21.880816 -11.737868 -19.929050 31.838886 -0.492377 2.247125 0.121982 -0.028765 449097.000000 0 0 1
21.573716 -13.117468 -19.687950 32.017316 -0.546303 2.233075 0.106985 -0.015696 -247703.000000 0 0 1
20.039916 -13.364968 -19.645350 31.083120 -0.588176 2.254962 0.103579 -0.009593 296542.000000 0 0 1
19.403116 -13.224168 -20.885450 31.425492 -0.598235 2.297758 0.109039 -0.005689 -513755.000000 0 0 1
18.025316 -13.403968 -20.737850 30.571830 -0.639405 2.316286 0.107974 0.000173 -315018.000000 0 0 1
17.117716 -12.950368 -21.889950 30.657758 -0.647678 2.366006 0.098308 -0.000662 -20429.000000 0 0 1
17.348116 -13.646868 -23.116550 31.961993 -0.666547 2.379295 0.084845 0.005188 -103337.000000 0 0 1
16.489916 -13.159168 -24.072750 32.009035 -0.673528 2.421980 0.094726 -0.010083 -504198.000000 0 0 1
16.524016 -13.962668 -25.347900 33.324394 -0.701580 2.435096 0.085216 -0.014394 -242264.000000 0 0 1
15.730416 -15.136868 -25.351440 33.455437 -0.766171 2.430681 0.085865 -0.011643 250588.000000 0 0 1
15.758116 -15.785468 -26.592720 34.708384 -0.786265 2.443665 0.087373 -0.011028 126807.000000 0 0 1
16.825516 -16.906668 -26.714650 35.813488 -0.787804 2.412739 0.078231 -0.012792 1137850.000000 0 0 1
18.212516 -16.557368 -26.602160 36.242476 -0.737831 2.394997 0.081405 -0.009843 824191.000000 0 0 1
19.110216 -17.621668 -26.838170 37.363229 -0.744896 2.372158 0.093547 -0.014621 474834.000000 0 0 1
20.590516 -17.178868 -26.932310 38.005686 -0.695314 2.358364 0.105891 -0.011601 211734.000000 0 0 1
21.134116 -16.776268 -25.722640 37.279327 -0.670949 2.332282 0.107559 -0.010885 -394721.000000 0 0 1
22.526516 -16.598468 -25.697140 37.990736 -0.635026 2.313668 0.117084 -0.008022 -207693.000000 0 0 1
22.971516 -16.040168 -24.320050 37.100436 -0.609559 2.285666 0.118155 -0.007750 -81419.600000 0 0 1
22.775916 -14.656968 -24.089050 36.247088 -0.571813 2.297726 0.120463 -0.009685 -1037830.000000 0 0 1
21.481316 -14.202568 -23.971250 35.182107 -0.584180 2.320399 0.123911 -0.006944 -969756.000000 0 0 1
21.353316 -12.788768 -23.352450 34.129951 -0.539619 2.324332 0.122234 -0.005382 10741.000000 0 0 1
21.692316 -11.679768 -24.212450 34.542963 -0.493916 2.347507 0.125837 -0.017629 310671.000000 0 0 1
21.550716 -10.461068 -23.486850 33.548463 -0.451913 2.346316 0.123192 -0.016335 18125.100000 0 0 1
21.732416 -9.100468 -24.252450 33.812686 -0.396566 2.370657 0.123034 -0.018279 -265772.000000 0 0 1
21.148416 -8.070068 -23.552050 32.666199 -0.364537 2.376028 0.120208 -0.025471 -90665.000000 0 0 1
21.095916 -6.934868 -24.370550 32.970498 -0.317602 2.402622 0.088967 -0.019162 -118942.000000 0 0 1
20.270616 -5.789668 -23.737050 31.746900 -0.278211 2.415383 0.102624 -0.029711 -463234.000000 0 0 1
18.941016 -6.058668 -23.430450 30.731995 -0.309585 2.437829 0.101158 -0.025321 -627183.000000 0 0 1
18.382216 -5.237468 -22.418350 29.460471 -0.277566 2.435594 0.101241 -0.028628 -20741.400000 0 0 1
18.929116 -5.302268 -20.957350 28.733882 -0.273112 2.388183 0.114983 -0.033173 -326011.000000 0 0 1
18.556816 -6.473668 -20.168350 28.160719 -0.335656 2.369120 0.121743 -0.034673 387953.000000 0 0 1
19.057116 -7.749768 -20.614250 29.123528 -0.386235 2.357205 0.121985 -0.023530 -90176.300000 0 0 1
18.687016 -8.771868 -19.556650 28.436117 -0.438877 2.329167 0.126335 -0.022186 630040.000000 0 0 1
17.290916 -9.062468 -19.516650 27.604415 -0.482755 2.356060 0.126132 -0.026007 427266.000000 0 0 1
17.106316 -9.964868 -18.415350 27.037931 -0.527472 2.320051 0.133673 -0.024932 398464.000000 0 0 1
15.606116 -10.354368 -18.190650 26.108687 -0.585794 2.341622 0.135772 -0.022596 947279.000000 0 0 1
14.819916 -9.507468 -17.310150 24.691357 -0.570400 2.347681 0.139616 -0.022234 684077.000000 0 1 0
14.237016 -8.424768 -17.990250 24.440099 -0.534332 2.398080 0.139845 -0.037346 -214998.000000 0 1 0
13.179316 -7.534668 -17.279550 23.001053 -0.519354 2.420751 0.135503 -0.022511 1390340.000000 0 1 0
11.897716 -7.523768 -17.970050 22.827295 -0.563882 2.477080 0.113505 -0.032558 918596.000000 0 1 0
10.986916 -6.634068 -17.392850 21.615605 -0.543220 2.505871 0.093230 -0.032313 -538985.000000 0 1 0
9.525216 -6.823168 -17.758050 21.275189 -0.621600 2.558354 0.070327 -0.025713 -499898.000000 0 1 0
9.097516 -6.337768 -18.979450 21.980710 -0.608473 2.612884 0.064348 -0.038474 480008.000000 0 1 0
7.697116 -6.056268 -19.005750 21.380891 -0.666654 2.665763 0.053644 -0.046870 343460.000000 0 1 0
7.189516 -5.692368 -20.426450 22.390445 -0.669696 2.719623 0.062165 -0.050750 -133337.000000 0 1 0
7.325016 -6.683168 -21.407750 23.592633 -0.739611 2.707831 0.065370 -0.038604 -67565.500000 0 1 0
6.792616 -6.317668 -22.642750 24.469300 -0.749187 2.752763 0.078794 -0.036058 -242755.000000 0 1 0
6.957416 -7.382568 -23.785450 25.858375 -0.815037 2.738457 0.077010 -0.030122 271479.000000 0 0 1
6.196816 -8.597668 -23.582650 25.854628 -0.946276 2.719235 0.078963 -0.023076 323415.000000 0 0 1
6.385816 -9.506268 -24.615950 27.149452 -0.979284 2.706149 0.072407 -0.010544 -291451.000000 0 0 1
5.730916 -10.885368 -24.495850 27.411335 -1.086191 2.676187 0.080923 -0.016685 -49626.300000 0 0 1
6.213416 -11.658768 -23.406650 26.877586 -1.081146 2.627748 0.055819 -0.021146 263869.000000 0 0 1
5.527716 -12.913068 -23.450250 27.335273 -1.166327 2.601916 0.084507 -0.028703 -590047.000000 0 0 1
6.091216 -13.974268 -22.517250 27.192087 -1.159740 2.546472 0.077433 -0.018447 -40028.500000 0 0 1
7.231516 -14.681468 -23.000050 28.228401 -1.113118 2.523153 0.042691 -0.011125 846988.000000 0 0 1
8.516716 -14.047568 -23.051550 28.306228 -1.025774 2.522427 0.067560 -0.016176 566119.000000 0 0 1
9.173916 -13.660168 -21.723150 27.251718 -0.979399 2.493323 0.060082 -0.007572 -755335.000000 0 0 1
9.553916 -14.680768 -20.781250 27.178348 -0.993875 2.441256 0.060420 -0.006099 240814.000000 0 0 1
8.508016 -15.313968 -20.072550 26.642282 -1.063685 2.424028 0.070683 -0.008814 -81630.700000 0 0 1
9.019216 -15.757668 -18.701650 26.065342 -1.050941 2.370990 0.068196 -0.003573 292198.000000 0 0 1
9.947116 -16.830568 -18.745950 27.085490 -1.037010 2.335195 0.071937 -0.001514 -271016.000000 0 0 1
10.344616 -17.224468 -17.464250 26.621296 -1.029953 2.286337 0.085864 -0.007453 -259154.000000 0 0 1
9.295616 -17.973168 -16.571550 26.154531 -1.093488 2.256996 0.076355 -0.020229 44256.000000 0 0 1
8.820316 -19.312368 -16.820650 27.086893 -1.142369 2.240800 0.106475 -0.025478 207847.000000 0 0 1
8.238316 -19.470868 -18.104050 27.834172 -1.170528 2.278941 0.091875 -0.016813 400025.000000 0 0 1
6.688816 -19.220068 -18.167950 27.280500 -1.235894 2.299587 0.092102 -0.013783 536555.000000 0 0 1
6.414416 -17.817868 -17.949350 26.092150 -1.225242 2.329418 0.095453 -0.019160 -241256.000000 0 0 1
5.041216 -17.504968 -18.060850 25.652135 -1.290396 2.351906 0.087717 -0.014845 149073.000000 0 0 1
4.655916 -16.113168 -17.550050 24.275831 -1.289507 2.378849 0.068390 -0.014030 -65109.300000 0 1 0
4.849116 -15.981268 -16.193150 23.262264 -1.276200 2.340764 0.041466 -0.012426 94877.100000 0 1 0
4.747716 -14.645268 -15.809450 22.067247 -1.257305 2.369456 0.032197 -0.005969 3898.530000 0 1 0
10.536016 29.010332 -18.167950 35.814542 1.222427 2.102820 0.076085 -0.035696 -1165600.000000 0 0 1
9.593416 28.824332 -19.111650 35.890541 1.249505 2.132346 0.105453 -0.043288 -1089550.000000 0 0 1
8.634216 27.945432 -18.592150 34.657826 1.271133 2.137020 0.090751 -0.047347 127325.000000 0 0 1
7.483516 27.382732 -19.483150 34.429786 1.304018 2.172297 0.096359 -0.040130 277109.000000 0 0 1
6.718016 28.444832 -19.930950 35.376305 1.338869 2.169290 0.110532 -0.054436 -822394.000000 0 0 1
5.843616 28.024532 -20.928350 35.461501 1.365224 2.202067 0.104682 -0.050722 -50100.200000 0 0 1
4.960716 29.134032 -21.566450 36.585684 1.402142 2.201209 0.088713 -0.053232 494232.000000 0 0 1
3.881016 29.532932 -20.707050 36.277242 1.440132 2.178276 0.078378 -0.045741 54958.100000 0 0 1
2.903716 30.158232 -21.483250 37.141359 1.474810 2.187585 0.086804 -0.051931 -943215.000000 0 0 1
1.472816 30.089632 -20.905050 36.668464 1.521888 2.177436 0.092828 -0.044005 -44058.700000 0 0 1
0.878016 28.804832 -21.072450 35.700664 1.540324 2.202169 0.102631 -0.061651 -9760.070000 0 0 1
0.557516 28.377732 -22.412550 36.165300 1.551153 2.239189 0.127966 -0.072765 -799340.000000 0 0 1
-0.267884 27.097732 -22.588850 35.279101 -1.560911 2.265672 0.138059 -0.068149 1290390.000000 0 0 1
-1.641384 27.178732 -22.126250 35.084876 -1.510477 2.253186 0.155717 -0.063628 1214700.000000 0 0 1
-2.217884 25.893432 -21.961250 34.024775 -1.485351 2.272407 0.164563 -0.075154 291677.000000 0 0 1
-3.276384 25.834932 -20.805050 33.332094 -1.444650 2.244871 0.128640 -0.068789 283547.000000 0 0 1
-4.508884 26.405632 -21.191650 34.156602 -1.401673 2.240082 0.122081 -0.066917 -202723.000000 0 0 1
-5.517584 26.102832 -20.251550 33.495176 -1.362484 2.220074 0.105173 -0.065519 -410329.000000 0 0 1
-6.808684 26.858832 -20.585150 34.518161 -1.322527 2.209752 0.106394 -0.072542 -164892.000000 0 0 1
-7.876784 26.395332 -19.756050 33.897770 -1.280794 2.192982 0.102711 -0.057785 -157079.000000 0 0 1
-8.345484 27.288032 -18.800850 34.172441 -1.274000 2.153371 0.098609 -0.067617 -773329.000000 0 0 1
-9.596884 26.817132 -18.105850 33.750267 -1.227133 2.137039 0.118046 -0.052197 -455740.000000 0 0 1
-9.409184 25.739832 -17.200450 32.356254 -1.220337 2.131280 0.116119 -0.061993 -1448630.000000 0 0 1
-10.631384 25.369332 -16.720550 32.190156 -1.173964 2.116981 0.088790 -0.053132 -1105100.000000 0 0 1
-10.666984 24.665632 -15.344750 30.945748 -1.162621 2.089621 0.095329 -0.038929 -79100.500000 0 0 1
-10.070184 23.382732 -15.294150 29.699693 -1.164135 2.111757 0.101517 -0.041444 -210798.000000 0 0 1
-10.611384 22.593232 -14.245950 28.740263 -1.131705 2.089413 0.116263 -0.031544 -348866.000000 0 0 1
-9.968484 21.206632 -14.057150 27.325727 -1.131383 2.111138 0.124409 -0.012798 -215857.000000 0 0 1
-10.489384 20.044632 -14.710450 26.985399 -1.088682 2.147336 0.094025 -0.009334 -382636.000000 0 0 1
-10.531384 20.007532 -16.124150 27.770481 -1.086275 2.190289 0.109855 -0.008261 -69123.900000 0 0 1
-9.222384 19.854332 -16.916450 27.666101 -1.135948 2.228689 0.096390 -0.017136 -482344.000000 0 0 1
-8.494184 18.695732 -16.784850 26.521929 -1.144341 2.256047 0.100120 -0.010944 -589406.000000 0 0 1
-7.585284 18.686432 -17.857250 26.936975 -1.185193 2.295518 0.098802 -0.019802 -131450.000000 0 0 1
-6.984084 17.260732 -18.104350 25.970710 -1.186311 2.342150 0.084163 -0.016395 -14462.200000 0 0 1
-7.883184 16.262132 -18.532150 25.885171 -1.119417 2.368761 0.084054 -0.021484 -228619.000000 0 0 1
-7.553984 15.713032 -19.819350 26.396376 -1.122670 2.420123 0.075653 -0.025525 984170.000000 0 0 1
-6.325884 14.692932 -19.877350 25.514860 -1.164243 2.463945 0.057574 -0.014477 513616.000000 0 0 1
-6.470184 13.540132 -19.039650 24.242663 -1.125023 2.474103 0.038867 -0.010663 584552.000000 0 1 0
-5.235084 12.832132 -18.860550 23.404915 -1.183441 2.507884 0.041674 -0.002734 400547.000000 0 1 0
-4.422884 13.090732 -17.617150 22.389576 -1.244974 2.476478 0.031298 -0.001805 -400319.000000 0 1 0
-3.982184 14.414732 -17.704050 23.174893 -1.301261 2.440181 0.044877 -0.010852 -413225.000000 0 1 0
-3.525884 14.856132 -16.435350 22.433396 -1.337772 2.392972 0.042224 -0.006609 -183428.000000 0 1 0
-2.791484 16.204932 -16.447050 23.257206 -1.400209 2.356299 0.072316 -0.012265 -66521.300000 0 1 0
-3.537284 17.384532 -16.673350 24.346148 -1.370064 2.325188 0.074348 -0.016009 -261895.000000 0 1 0
-2.671884 18.494332 -16.863050 25.170255 -1.427319 2.304950 0.090921 -0.020448 59083.300000 0 0 1
-3.342784 19.819832 -17.219650 26.467268 -1.403710 2.279173 0.109575 -0.026331 99004.000000 0 0 1
-3.839784 19.867132 -18.555350 27.454469 -1.379877 2.312926 0.110322 -0.026633 -62262.800000 0 0 1
-4.312484 21.095332 -19.033450 28.738176 -1.369146 2.294688 0.133254 -0.027981 45164.000000 0 0 1
-3.178084 22.150732 -19.207450 29.490359 -1.428293 2.280110 0.122888 -0.044965 -26604.600000 0 0 1
-2.270284 21.816532 -20.248150 29.851346 -1.467107 2.316242 0.137736 -0.037106 194113.000000 0 0 1
-1.150984 22.686732 -20.385450 30.521781 -1.520106 2.302178 0.131931 -0.047474 692641.000000 0 0 1
0.061116 22.270532 -19.508350 29.606689 1.568052 2.290174 0.147983 -0.044263 -175867.000000 0 0 1
-0.250984 22.550532 -18.184150 28.969860 -1.559667 2.249381 0.138307 -0.036051 -490069.000000 0 0 1
0.653116 21.883032 -17.340350 27.928147 1.540959 2.240676 0.137814 -0.032894 44652.600000 0 0 1
0.403816 21.976732 -15.805250 27.072971 1.552424 2.194200 0.141531 -0.036706 123820.000000 0 0 1
-0.683284 21.176632 -15.352750 26.165312 -1.538542 2.197848 0.131488 -0.025304 101989.000000 0 0 1
-0.739384 21.241132 -13.953850 25.425230 -1.536001 2.151747 0.141927 -0.025401 142957.000000 0 0 1
-1.565684 20.127032 -13.285550 24.167222 -1.493163 2.152842 0.105164 -0.019413 274570.000000 0 1 0
-1.014184 18.820032 -13.477850 23.170555 -1.516960 2.191589 0.084352 -0.014824 104816.000000 0 1 0
-1.717884 17.903032 -12.667750 21.998672 -1.475134 2.184429 0.059624 -0.011685 -19258.000000 0 1 0
-1.303184 16.437732 -12.898550 20.934897 -1.491682 2.234612 0.035822 -0.003587 -96278.600000 0 1 0
-0.070684 16.271832 -12.211450 20.344459 -1.566452 2.214591 0.038335 -0.000993 -30487.800000 0 1 0
0.321616 14.983232 -12.006350 19.202945 1.549335 2.246229 0.034579 -0.001775 442200.000000 0 1 0
0.929916 14.109132 -13.239850 19.370750 1.504983 2.323339 0.017290 -0.003672 471479.000000 0 1 0
-0.034584 13.732632 -14.227650 19.774033 -1.568278 2.373895 0.019997 -0.016705 610132.000000 0 1 0
0.650716 12.845832 -15.077250 19.818231 1.520184 2.435305 0.016294 -0.018425 -430433.000000 0 1 0
-0.063784 12.643732 -16.430850 20.732604 -1.565752 2.485714 0.021409 -0.011364 36029.600000 0 1 0
-0.108884 13.869832 -17.184650 22.083847 -1.562946 2.462519 0.038270 -0.018610 86234.200000 0 1 0
-0.426384 13.658432 -18.555850 23.044612 -1.539589 2.506833 0.048377 -0.015600 -196107.000000 0 1 0
-0.923984 15.011632 -19.165950 24.362604 -1.509323 2.476234 0.060936 -0.015231 812954.000000 0 1 0
0.169416 15.943932 -19.351050 25.073907 1.560171 2.452401 0.067216 -0.020025 705908.000000 0 0 1
-0.407984 17.180132 -19.753650 26.182629 -1.547053 2.425622 0.107637 -0.027274 298326.000000 0 0 1
0.618116 18.297632 -20.063350 27.161064 1.537028 2.401907 0.134568 -0.032820 145846.000000 0 0 1
1.246016 18.080232 -21.307150 27.972164 1.501989 2.436771 0.140159 -0.045807 -29947.300000 0 0 1
2.205016 19.074532 -21.599450 28.900452 1.455707 2.414897 0.152337 -0.044377 83484.400000 0 0 1
2.793516 18.982932 -23.011650 29.961500 1.424686 2.446572 0.156508 -0.050590 -388315.000000 0 0 1
3.776816 18.030232 -23.208450 29.630824 1.364311 2.470678 0.130962 -0.046177 -663609.000000 0 0 1
4.237716 18.076732 -24.525550 30.760837 1.340525 2.493601 0.128957 -0.052866 -266061.000000 0 0 1
5.210516 16.959532 -24.794650 30.488520 1.272718 2.520504 0.089438 -0.037861 -778726.000000 0 0 1
6.485016 17.098032 -24.204250 30.335521 1.208275 2.494574 0.084915 -0.027985 39848.600000 0 0 1
7.386516 16.028632 -24.393250 30.108276 1.138971 2.515263 0.085013 -0.028881 164494.000000 0 0 1
7.931616 15.758432 -25.806100 31.260094 1.104492 2.541934 0.072698 -0.028858 -824404.000000 0 0 1
8.854316 16.763832 -26.270730 32.397164 1.084860 2.516478 0.051690 -0.021532 515905.000000 0 0 1
9.179116 16.729532 -27.662470 33.605738 1.068969 2.537728 0.059987 -0.028235 231742.000000 0 0 1
9.723716 15.381832 -28.266410 33.617575 1.007068 2.569597 0.054286 -0.031195 -746522.000000 0 0 1
10.858516 14.874732 -27.637170 33.211115 0.940220 2.553799 0.071998 -0.030186 -292483.000000 0 0 1
11.066916 13.536732 -27.927810 32.949693 0.885447 2.582222 0.060944 -0.017440 -156468.000000 0 0 1
10.346616 12.587232 -26.925710 31.471967 0.882788 2.597400 0.067468 -0.016269 769074.000000 0 0 1
8.920916 12.627232 -27.097850 31.198128 0.955733 2.623112 0.082791 -0.022563 270063.000000 0 0 1
8.376016 11.893332 -26.049960 29.836377 0.957216 2.632309 0.091906 -0.019231 -170707.000000 0 0 1
6.836216 11.841032 -26.051740 29.421710 1.047211 2.658279 0.078571 -0.032247 -115139.000000 0 0 1
6.262316 12.974332 -25.363140 29.169140 1.121109 2.625025 0.092557 -0.019477 353979.000000 0 0 1
4.853016 12.835432 -25.155500 28.654829 1.209315 2.642213 0.109593 -0.041200 670895.000000 0 0 1
4.110216 13.707632 -26.194240 29.848471 1.279478 2.641575 0.117341 -0.031619 -718436.000000 0 0 1
4.193716 13.269032 -27.477740 30.800660 1.264678 2.672802 0.113803 -0.043022 85443.300000 0 0 1
3.775816 14.225232 -28.433950 32.017238 1.311348 2.663953 0.097170 -0.047521 -259177.000000 0 0 1
3.802716 13.682432 -29.859880 33.064815 1.299711 2.697664 0.129715 -0.047307 -471701.000000 0 0 1
5.058816 13.508532 -30.438490 33.683434 1.212472 2.699045 0.112247 -0.047069 -515294.000000 0 0 1
4.973716 13.318032 -31.854900 34.883269 1.213379 2.721830 0.107873 -0.044838 535128.000000 0 0 1
6.176816 12.433032 -32.434720 35.280935 1.109706 2.737163 0.108419 -0.031923 1690450.000000 0 0 1
7.547816 12.743932 -32.184770 35.429320 1.036082 2.710290 0.111592 -0.028430 851389.000000 0 0 1
8.023116 12.838632 -30.833270 34.349547 1.012255 2.685165 0.097380 -0.021995 -575573.000000 0 0 1
7.950816 11.492832 -30.045400 33.136486 0.965591 2.706229 0.096675 -0.024640 151219.000000 0 0 1
8.982516 10.595732 -30.469010 33.486052 0.867611 2.713843 0.088445 -0.022477 495059.000000 0 0 1
8.761216 9.407532 -29.764260 32.421778 0.820956 2.733887 0.095105 -0.025019 500400.000000 0 0 1
9.903216 8.306632 -29.981380 32.648996 0.697945 2.734546 0.090692 -0.022230 890967.000000 0 0 1
11.104916 8.781632 -29.363870 32.598667 0.669098 2.692333 0.082056 -0.024445 -620882.000000 0 0 1
11.957416 7.741232 -29.471570 32.733467 0.574545 2.691369 0.064551 -0.016661 -1762230.000000 0 0 1
13.023316 7.714832 -28.400390 32.182410 0.534802 2.651909 0.068174 0.001579 238386.000000 0 0 1
13.909816 6.595532 -28.198210 32.126672 0.442766 2.641879 0.091961 0.005025 1076600.000000 0 0 1
14.949416 6.359832 -29.155690 33.376440 0.402229 2.633227 0.087718 -0.000918 543657.000000 0 0 1
15.870316 5.102532 -28.842290 33.313367 0.311076 2.617518 0.089414 -0.001168 441769.000000 0 0 1
16.847316 5.304732 -27.854160 32.982214 0.305044 2.576466 0.080013 -0.006748 324336.000000 0 0 1
17.603616 4.105532 -27.627080 33.015121 0.229125 2.562210 0.093971 -0.007101 322232.000000 0 0 1
18.465416 4.137332 -26.332140 32.426389 0.220418 2.518468 0.108454 -0.005810 118542.000000 0 0 1
19.608016 4.955732 -26.384850 33.244456 0.247556 2.487601 0.141633 -0.011762 453978.000000 0 0 1
20.300816 5.159032 -25.141230 32.723389 0.248861 2.446970 0.150568 -0.017451 475923.000000 0 0 1
21.386116 6.257032 -25.235810 33.665450 0.284631 2.418262 0.136631 -0.014653 -9832.920000 0 0 1
20.787616 7.509932 -25.390500 33.663059 0.346679 2.425314 0.151426 -0.014174 394892.000000 0 0 1
21.672916 8.404832 -26.051430 34.914660 0.369948 2.413051 0.148579 -0.032104 -314651.000000 0 0 1
21.546016 8.489632 -27.584100 36.016485 0.375343 2.443196 0.182409 -0.034171 -153506.000000 0 0 1
20.305616 8.906432 -28.082050 35.780499 0.413349 2.473238 0.161310 -0.018504 350155.000000 0 0 1
19.300916 7.870132 -28.197230 35.064913 0.387178 2.505030 0.158860 -0.013002 614259.000000 0 0 1
18.013616 8.436332 -28.875810 35.063862 0.437993 2.538386 0.132450 -0.002720 102878.000000 0 0 1
18.179016 8.363332 -30.233180 36.255580 0.431183 2.556916 0.114439 0.001396 643561.000000 0 0 1
17.219616 9.230632 -30.832240 36.501325 0.492073 2.576779 0.092661 0.001111 -57066.300000 0 0 1
16.842516 8.828932 -32.280060 37.464952 0.482824 2.609223 0.065168 0.011805 -21955.300000 0 0 1
16.070916 7.652032 -32.368440 36.939732 0.444379 2.638820 0.067723 0.010523 192893.000000 0 0 1
14.732816 7.914432 -32.741660 36.765614 0.492961 2.669352 0.068574 0.002958 -182499.000000 0 0 1
13.937416 6.677232 -33.133740 36.560658 0.446778 2.705165 0.078069 -0.010745 -159813.000000 0 0 1
13.450816 5.832432 -32.091940 35.282209 0.409142 2.713065 0.072431 -0.006908 -82017.300000 0 0 1
12.800316 4.783832 -32.720900 35.459701 0.357655 2.745986 0.072190 -0.025532 -113744.000000 0 0 1
12.623916 3.583232 -31.790760 34.392662 0.276570 2.750117 0.088249 -0.030299 489093.000000 0 0 1
13.883516 2.967732 -31.505660 34.556708 0.210590 2.718221 0.088989 -0.033991 432707.000000 0 0 1
13.939716 1.959932 -30.479310 33.572985 0.139685 2.708929 0.119610 -0.032898 -351961.000000 0 0 1
13.200116 0.626732 -30.740970 33.461068 0.047444 2.735594 0.120184 -0.031314 308828.000000 0 0 1
13.892016 -0.505968 -31.381750 34.322854 -0.036405 2.724599 0.128521 -0.035567 -82644.900000 0 0 1
14.895016 -1.067468 -30.594160 34.044142 -0.071544 2.687505 0.139544 -0.037428 -416227.000000 0 0 1
15.121816 -2.525968 -31.105690 34.678722 -0.165513 2.683658 0.142417 -0.047669 235630.000000 0 0 1
13.996416 -3.402268 -31.067830 34.244490 -0.238456 2.707462 0.128643 -0.047319 298387.000000 0 0 1
14.200316 -4.462568 -31.979250 35.273728 -0.304486 2.705958 0.134605 -0.051184 364017.000000 0 0 1
13.209116 -5.657768 -31.799180 34.895256 -0.404682 2.717166 0.126368 -0.050147 218705.000000 0 0 1
13.524916 -6.328168 -30.538700 33.993841 -0.437631 2.686817 0.141853 -0.039774 774980.000000 0 0 1
12.927816 -7.682268 -30.454580 33.965086 -0.536176 2.682926 0.151520 -0.043221 138771.000000 0 0 1
13.589816 -8.488468 -29.341830 33.431724 -0.558326 2.641763 0.117167 -0.035784 1299370.000000 0 0 1
15.026916 -8.677068 -29.560850 34.277449 -0.523662 2.610787 0.133781 -0.033697 1494660.000000 0 0 1
15.642716 -9.249568 -28.463790 33.770348 -0.533999 2.573379 0.138288 -0.027501 -212200.000000 0 0 1
15.452516 -10.822468 -28.323390 34.031169 -0.610974 2.554000 0.107098 -0.022529 394508.000000 0 0 1
14.095716 -11.248668 -28.130790 33.415012 -0.673533 2.571518 0.084638 -0.024500 765945.000000 0 0 1
14.022416 -12.669468 -28.297780 34.028046 -0.734754 2.552782 0.084643 -0.026362 201193.000000 0 0 1
-10.490784 -3.013568 -17.997150 21.048409 0.279727 2.596417 0.042051 0.004200 -75760.200000 0 1 0
-11.357984 -2.642868 -19.035650 22.323631 0.228620 2.591953 0.058744 -0.001635 -768904.000000 0 1 0
-12.388084 -3.559268 -19.120350 23.059071 0.279778 2.548453 0.066638 -0.010789 -987235.000000 0 1 0
-13.374884 -3.147868 -20.240250 24.463530 0.231150 2.545195 0.070794 -0.022174 -257252.000000 0 1 0
-14.115684 -2.004768 -19.833950 24.426567 0.141081 2.518337 0.068023 -0.022447 -413852.000000 0 1 0
-15.031384 -1.588668 -20.802250 25.713809 0.105299 2.513231 0.065599 -0.014772 162616.000000 0 0 1
-15.802184 -0.336068 -20.292650 25.721850 0.021264 2.479856 0.068342 -0.014806 132232.000000 0 0 1
-15.055484 0.854232 -20.460950 25.417470 -0.056678 2.506464 0.074838 -0.019410 227630.000000 0 0 1
-15.814784 2.044332 -20.196250 25.732765 -0.128554 2.473243 0.083483 -0.009905 272935.000000 0 0 1
-15.242884 3.205932 -21.073650 26.205385 -0.207302 2.505078 0.106870 -0.024707 -26040.200000 0 0 1
-14.037784 3.696932 -20.553650 25.163052 -0.257509 2.526671 0.101386 -0.029176 -263157.000000 0 0 1
-13.750784 4.920632 -21.198150 25.742149 -0.343645 2.538314 0.115467 -0.038170 -647328.000000 0 0 1
-12.442084 5.596332 -20.810050 24.883379 -0.422680 2.561302 0.089566 -0.032690 -630387.000000 0 1 0
-12.276284 5.816232 -19.449250 23.723596 -0.442451 2.531906 0.091196 -0.045446 96689.200000 0 1 0
-11.001784 6.282632 -19.075850 22.899754 -0.518865 2.555332 0.060310 -0.034356 -392562.000000 0 1 0
-10.962884 6.940432 -17.714250 21.957893 -0.564392 2.509406 0.054202 -0.035414 -113273.000000 0 1 0
-11.646784 8.209732 -17.688050 22.713749 -0.614002 2.463447 0.063710 -0.036934 659749.000000 0 1 0
-12.874384 7.976932 -16.958250 22.736830 -0.554705 2.412605 0.103370 -0.031058 504125.000000 0 1 0
-13.680484 9.329232 -16.990850 23.725075 -0.598500 2.369075 0.120764 -0.035007 -50302.000000 0 1 0
-12.998584 10.361532 -16.300250 23.281380 -0.672987 2.346391 0.082864 -0.024492 404821.000000 0 1 0
-13.727684 11.560432 -16.437150 24.336655 -0.699905 2.312313 0.091847 -0.019033 180257.000000 0 1 0
-13.049284 12.723632 -15.619050 24.002694 -0.772763 2.279329 0.100236 -0.019698 64764.800000 0 1 0
-13.129384 12.704632 -14.218650 23.150775 -0.768958 2.232138 0.109270 -0.024177 138738.000000 0 1 0
-12.715184 13.967932 -13.699850 23.333772 -0.832313 2.198299 0.095244 -0.021599 -448019.000000 0 1 0
-13.120484 14.317132 -12.212450 22.940604 -0.828984 2.132172 0.082244 -0.024744 1166590.000000 0 1 0
-14.457184 14.758832 -11.901850 23.842972 -0.795723 2.093444 0.081094 -0.023622 1240480.000000 0 1 0
-15.514484 13.811132 -12.070550 24.023837 -0.727379 2.097215 0.082972 -0.023291 -689506.000000 0 1 0
-16.819084 14.260832 -11.453450 24.848228 -0.703271 2.049846 0.047732 -0.014517 93930.500000 0 1 0
-17.905184 13.345732 -11.782450 25.249362 -0.640522 2.056288 0.044378 -0.019415 880221.000000 0 0 1
-19.107684 13.734032 -11.139050 26.034701 -0.623213 2.012913 0.104383 -0.026593 283177.000000 0 0 1
-20.386884 13.274832 -11.903850 27.084088 -0.577180 2.025854 0.096077 -0.039182 64740.600000 0 0 1
-20.747384 11.948832 -11.533850 26.575519 -0.522525 2.019727 0.107882 -0.043464 532787.000000 0 0 1
-21.835484 11.443032 -12.309050 27.554383 -0.482707 2.033890 0.132468 -0.038535 233096.000000 0 0 1
-22.539184 10.196832 -11.711450 27.370573 -0.424852 2.012947 0.129155 -0.037559 27641.200000 0 0 1
-21.768484 9.018332 -11.819850 26.361071 -0.392759 2.035752 0.118359 -0.043280 900118.000000 0 0 1
-22.507284 7.919732 -11.231450 26.371300 -0.338343 2.010749 0.126300 -0.038406 341059.000000 0 0 1
-21.620384 6.675732 -11.180250 25.238946 -0.299483 2.029712 0.168184 -0.040898 -160554.000000 0 0 1
-21.300384 6.128132 -12.447250 25.420354 -0.280135 2.082492 0.167081 -0.043265 -358327.000000 0 0 1
-20.147384 5.384732 -12.337150 24.230511 -0.261163 2.105002 0.175994 -0.052503 -772292.000000 0 1 0
-20.063984 4.146732 -13.259850 24.404558 -0.203806 2.145201 0.188100 -0.066279 -308285.000000 0 1 0
-20.852784 3.130432 -12.721950 24.626941 -0.149008 2.113656 0.163351 -0.058835 129356.000000 0 1 0
-20.732184 1.950832 -13.492950 24.813079 -0.093821 2.145736 0.156680 -0.054133 109039.000000 0 1 0
-21.770184 0.851432 -13.113950 25.429147 -0.039090 2.112627 0.158472 -0.053310 1057150.000000 0 0 1
-23.086284 0.997832 -13.684350 26.855793 -0.043195 2.105457 0.125526 -0.045908 1408120.000000 0 0 1
-23.627684 -0.356668 -13.978750 27.455420 0.015094 2.104986 0.114358 -0.050680 663249.000000 0 0 1
-24.960784 -0.447968 -14.796250 29.020172 0.017945 2.105819 0.115197 -0.047520 198542.000000 0 0 1
-26.109394 0.006532 -14.130450 29.687878 -0.000250 2.066860 0.163130 -0.055878 -288327.000000 0 0 1
-27.201344 -0.675668 -14.707550 30.930271 0.024834 2.066336 0.166021 -0.034398 -14610.600000 0 0 1
-28.580234 -0.345868 -14.086450 31.864988 0.012101 2.028698 0.165105 -0.040761 -90175.400000 0 0 1
-28.777324 -0.859268 -12.772550 31.496202 0.029850 1.988351 0.206682 -0.046669 128069.000000 0 0 1
-30.026524 -0.493068 -12.221750 32.422314 0.016420 1.957303 0.234013 -0.050861 81498.400000 0 0 1
-30.213644 -0.955968 -10.785350 32.095201 0.031630 1.913508 0.229433 -0.056859 -108808.000000 0 0 1
-30.504494 -2.343768 -10.582450 32.372915 0.076683 1.903809 0.231286 -0.053400 1719820.000000 0 0 1
-29.357984 -3.240968 -10.864350 31.471085 0.109950 1.923266 0.245516 -0.061437 1202960.000000 0 0 1
-29.699574 -4.686368 -10.590350 31.877613 0.156502 1.909452 0.233904 -0.066713 -498082.000000 0 0 1
-30.671464 -5.235468 -11.428650 33.147592 0.169066 1.922801 0.202639 -0.060323 -133172.000000 0 0 1
-31.329084 -6.362868 -10.923750 33.783515 0.200372 1.900059 0.201924 -0.067707 199158.000000 0 0 1
-30.623984 -7.654268 -11.426050 33.570386 0.244926 1.918097 0.188191 -0.071072 -550174.000000 0 0 1
-29.297534 -7.856468 -11.089250 32.296146 0.261997 1.921290 0.168609 -0.065277 -428922.000000 0 0 1
-28.650634 -9.001568 -11.728950 32.240585 0.304418 1.943135 0.158192 -0.060958 327556.000000 0 0 1
-27.133574 -9.014768 -11.420050 30.788219 0.320763 1.950799 0.152088 -0.065727 -714236.000000 0 0 1
-26.489754 -7.911468 -11.941050 30.114565 0.290228 1.978520 0.133052 -0.060338 32853.300000 0 0 1
-25.127564 -7.746668 -11.577350 28.730478 0.299048 1.985550 0.148580 -0.060536 267845.000000 0 0 1
-24.699484 -7.581168 -10.077950 27.732719 0.297808 1.942706 0.149321 -0.055582 -679473.000000 0 0 1
-24.990784 -6.304968 -9.538250 27.482178 0.247134 1.925242 0.160571 -0.045777 -24857.700000 0 0 1
-26.316604 -5.949668 -9.288850 28.534977 0.222343 1.902363 0.167380 -0.052499 -934889.000000 0 0 1
-26.374664 -4.564468 -8.617650 28.119764 0.171365 1.882271 0.178976 -0.059844 -424798.000000 0 0 1
-25.990564 -4.593068 -7.269650 27.376148 0.174915 1.839567 0.168437 -0.057552 284942.000000 0 0 1
-26.136344 -3.269168 -6.791150 27.201390 0.124435 1.823127 0.215250 -0.060115 -127519.000000 0 0 1
-25.952344 -3.070568 -5.303950 26.666166 0.117768 1.771034 0.196689 -0.053454 -424354.000000 0 0 1
-24.625884 -3.089468 -4.870150 25.292238 0.124804 1.764562 0.157950 -0.048917 -440130.000000 0 0 1
-24.472684 -2.887168 -3.504750 24.890385 0.117432 1.712073 0.141793 -0.040098 320393.000000 0 1 0
-23.054484 -3.253268 -2.966450 23.471106 0.140187 1.697523 0.129894 -0.028972 350177.000000 0 1 0
-22.722484 -4.638768 -3.035350 23.388946 0.201382 1.700940 0.141924 -0.026585 -768178.000000 0 1 0
-21.468884 -4.825368 -2.519450 22.148245 0.221087 1.684797 0.110958 -0.022137 -1154550.000000 0 1 0
-21.043084 -6.290868 -2.345650 22.088197 0.290495 1.677192 0.095322 -0.018973 -122181.000000 0 1 0
-21.860084 -6.787968 -1.306650 22.926995 0.301079 1.627819 0.116457 -0.020296 511495.000000 0 1 0
-22.574884 -7.921868 -1.731350 23.987058 0.337490 1.643038 0.118234 -0.020754 -27864.800000 0 1 0
-23.136184 -8.795368 -0.593650 24.758714 0.363284 1.594776 0.132865 -0.023408 789792.000000 0 1 0
-22.047784 -9.423168 0.126950 23.977426 0.403900 1.565502 0.107574 -0.020262 1027700.000000 0 1 0
-22.542984 -10.438368 0.982650 24.861843 0.433647 1.531262 0.094583 -0.014375 -309524.000000 0 1 0
-21.442884 -11.119868 1.759050 24.218650 0.478402 1.498100 0.107439 -0.016168 -359839.000000 0 1 0
-20.576184 -11.951868 1.031650 23.817867 0.526227 1.527469 0.105937 -0.016196 482879.000000 0 1 0
-19.580584 -12.552968 1.848650 23.332247 0.570088 1.491482 0.084734 -0.023809 261874.000000 0 1 0
-18.731084 -13.628668 1.153150 23.193185 0.629008 1.521056 0.076695 -0.019442 -326663.000000 0 1 0
-19.421984 -14.845468 1.124350 24.471729 0.652631 1.524835 0.095886 -0.014707 534792.000000 0 1 0
-18.745184 -15.973068 0.517050 24.633070 0.705721 1.549805 0.084562 -0.019584 397449.000000 0 1 0
-17.502484 -16.583668 1.243050 24.143325 0.758449 1.519287 0.093088 -0.021146 -42199.200000 0 1 0
-16.325784 -15.807868 1.065050 22.749818 0.769282 1.523963 0.096531 -0.022369 416119.000000 0 1 0
-15.203084 -16.447468 1.668150 22.459646 0.824694 1.496455 0.097216 -0.027128 225715.000000 0 1 0
-15.038684 -16.481768 3.226050 22.543693 0.831149 1.427201 0.085668 -0.024068 -521547.000000 0 1 0
-14.856084 -15.170268 3.813850 21.572800 0.795861 1.393072 0.073385 -0.023929 106947.000000 0 1 0
-14.081884 -15.142668 5.009350 21.276594 0.821680 1.333126 0.044010 -0.016526 85928.400000 0 1 0
-14.775284 -15.501268 6.352150 22.337147 0.809372 1.282441 0.105631 -0.020440 -711440.000000 0 1 0
-15.724284 -14.602468 6.886050 22.536700 0.748424 1.260282 0.093262 -0.015973 301863.000000 0 1 0
-16.075384 -14.951668 8.264050 23.457725 0.749197 1.210774 0.105617 -0.014988 -124465.000000 0 1 0
-17.021784 -16.149568 8.482250 24.949915 0.759110 1.223910 0.099499 -0.010484 -356144.000000 0 1 0
-16.430984 -17.390668 8.142150 25.272657 0.813765 1.242773 0.106420 -0.005968 174855.000000 0 0 1
-17.071084 -18.453768 8.839450 26.647689 0.824300 1.232675 0.096798 -0.006672 -2845.040000 0 0 1
-16.711584 -18.612768 10.330450 27.063451 0.839167 1.179148 0.119107 -0.012680 -981096.000000 0 0 1
-15.375684 -18.916668 10.442350 26.519703 0.888292 1.166080 0.076500 -0.011448 -1131790.000000 0 0 1
-15.093884 -19.282968 11.749050 27.160603 0.906658 1.123447 0.081012 -0.018603 -131066.000000 0 0 1
-13.773684 -20.050668 11.962950 27.108224 0.968887 1.113746 0.063124 -0.016365 -156140.000000 0 0 1
-12.654684 -19.189768 11.971150 25.917111 0.987807 1.090659 0.064388 -0.021748 252251.000000 0 0 1
-11.505584 -20.095468 12.091850 26.123153 1.050808 1.089556 0.058998 -0.019236 1371060.000000 0 0 1
-10.216184 -19.330068 12.531350 25.200331 1.084600 1.050348 0.050737 -0.014232 73997.100000 0 0 1
-9.458884 -18.732268 11.537950 23.947706 1.103195 1.068091 0.031630 -0.014161 -869511.000000 0 1 0
-8.569984 -17.827968 12.111950 23.194405 1.122704 1.021376 0.029836 -0.013198 58343.300000 0 1 0
-7.654384 -17.187268 11.001750 21.795189 1.151814 1.041671 0.008300 -0.009380 469252.000000 0 1 0
-6.769684 -18.139768 10.418350 21.986856 1.213608 1.077145 0.007455 -0.003150 -264868.000000 0 1 0
-6.079984 -17.420068 9.421450 20.716870 1.234993 1.098680 0.008732 -0.001853 -577256.000000 0 1 0
-5.132584 -18.241668 8.587150 20.804831 1.296521 1.145327 0.014275 -0.007034 -1034590.000000 0 1 0
-4.013884 -18.630068 9.276950 21.195577 1.358588 1.117776 0.035659 -0.000861 -1352510.000000 0 1 0
-2.978884 -19.018468 8.426050 21.013667 1.415428 1.158210 0.047918 -0.012988 137235.000000 0 1 0
-1.702084 -19.492068 9.171950 21.609314 1.483695 1.132448 0.050799 -0.008568 897641.000000 0 1 0
-0.633784 -19.855468 8.260650 21.514638 1.538887 1.176721 0.062688 -0.011545 456907.000000 0 1 0
0.605216 -19.693168 8.917750 21.626683 -1.540074 1.145765 0.069918 -0.031528 140064.000000 0 1 0
1.880216 -20.118268 8.150650 21.787910 -1.477609 1.187380 0.072675 -0.047321 190343.000000 0 1 0
1.959216 -21.524568 7.764150 22.965791 -1.480024 1.225926 0.090060 -0.039160 -96844.200000 0 1 0
2.264416 -22.347068 8.874650 24.151158 -1.469812 1.194517 0.099286 -0.048367 -332641.000000 0 1 0
2.208516 -23.842168 8.466950 25.397160 -1.478429 1.230908 0.116019 -0.037819 99138.300000 0 0 1
2.106716 -24.759368 9.527450 26.612720 -1.485913 1.204667 0.111863 -0.043138 -88658.300000 0 0 1
1.872016 -25.989608 8.940350 27.548031 -1.498891 1.240274 0.119367 -0.045331 -974699.000000 0 0 1
1.833916 -27.118578 9.973950 28.952723 -1.503273 1.219100 0.127204 -0.045105 456513.000000 0 0 1
0.835216 -26.946948 10.977050 29.108954 -1.539811 1.184131 0.127308 -0.051313 659211.000000 0 0 1
-0.514284 -27.161558 10.524350 29.133772 1.551864 1.201197 0.107883 -0.038349 246291.000000 0 0 1
-1.449984 -27.124838 11.738050 29.591234 1.517391 1.162906 0.112541 -0.040378 -48489.800000 0 0 1
-1.258984 -28.213168 12.604450 30.926365 1.526202 1.151012 0.121684 -0.042780 -336047.000000 0 0 1
-1.508584 -27.837978 13.927450 31.164125 1.516658 1.107492 0.113040 -0.044159 -207520.000000 0 0 1
-1.332584 -28.968868 14.973550 32.637069 1.524828 1.094164 0.099764 -0.030282 110111.000000 0 0 1
-1.341684 -28.627658 16.369350 33.004523 1.523964 1.051841 0.107923 -0.023527 -68338.800000 0 0 1
-0.960884 -29.715998 17.177250 34.336886 1.538472 1.046901 0.103254 -0.021449 41396.800000 0 0 1
-1.506784 -29.609808 18.624050 35.012374 1.519952 1.009921 0.088910 -0.018088 441195.000000 0 0 1
-2.896784 -29.890408 18.740750 35.398355 1.474185 1.012874 0.089129 -0.015541 261019.000000 0 0 1
-3.217084 -29.702408 20.111950 36.014903 1.462906 0.978299 0.097711 -0.024493 -1637100.000000 0 0 1
-4.627184 -29.988088 20.487050 36.611685 1.417703 0.976921 0.117108 -0.033435 -2213170.000000 0 0 1
-5.476684 -29.119458 19.813050 35.643988 1.384892 0.981400 0.091423 -0.038112 550088.000000 0 0 1
-6.693184 -28.813278 20.551050 36.018736 1.342549 0.963602 0.094442 -0.045947 944501.000000 0 0 1
-6.536584 -27.857818 21.758650 35.947515 1.340325 0.920667 0.130726 -0.055322 -729587.000000 0 0 1
-5.855084 -28.487828 22.844450 36.982526 1.368090 0.904970 0.138859 -0.051067 164225.000000 0 0 1
-5.211484 -27.547748 23.671850 36.693248 1.383826 0.869605 0.151110 -0.040260 66246.400000 0 0 1
-3.938784 -28.054338 24.400850 37.389322 1.431310 0.859765 0.170798 -0.032578 196887.000000 0 0 1
-4.253184 -28.823388 25.537450 38.743240 1.424293 0.851114 0.172620 -0.033645 64257.400000 0 0 1
-3.687284 -30.095898 25.452150 39.587512 1.448886 0.872474 0.159140 -0.034552 95601.400000 0 0 1
-4.201284 -31.080638 26.559750 41.098384 1.436437 0.868139 0.171006 -0.028226 205365.000000 0 0 1
-3.671884 -30.659828 27.803150 41.551449 1.451602 0.837764 0.176259 -0.039461 39314.700000 0 0 1
-3.938984 -31.576898 28.855250 42.956275 1.446695 0.834247 0.153439 -0.053404 -316692.000000 0 0 1
-3.229484 -31.298058 30.214350 43.622299 1.467975 0.805660 0.187383 -0.059892 61559.100000 0 0 1
-1.825184 -31.381318 30.100050 43.521620 1.512700 0.807079 0.188014 -0.054295 80715.100000 0 0 1
-1.197884 -31.284628 31.374950 44.323249 1.532525 0.784323 0.192553 -0.076333 -84524.900000 0 0 1
-29.456664 2.641632 -9.647750 31.108718 -0.089439 1.886126 0.219899 -0.042340 -323799.000000 0 0 1
-30.252044 2.267732 -10.703150 32.169647 -0.074821 1.909972 0.202703 -0.057751 -433467.000000 0 0 1
-30.874874 3.424932 -11.192050 33.018934 -0.110478 1.916606 0.172589 -0.056680 -85200.500000 0 0 1
-31.783504 3.231632 -12.438650 34.283445 -0.101328 1.942086 0.160009 -0.049185 530405.000000 0 0 1
-33.000574 2.580932 -12.067250 35.232337 -0.078050 1.920378 0.183554 -0.052806 715197.000000 0 0 1
-33.879934 2.336232 -13.157050 36.419993 -0.068847 1.940414 0.174061 -0.050120 536102.000000 0 0 1
-35.250323 1.702032 -12.757250 37.526385 -0.048247 1.917664 0.149734 -0.043802 451971.000000 0 0 1
-35.212780 0.339232 -12.510750 37.370761 -0.009633 1.912161 0.194465 -0.043777 -173122.000000 0 0 1
-36.409244 -0.300768 -12.858850 38.614421 0.008261 1.910286 0.138865 -0.049051 -272335.000000 0 0 1
-36.358044 -1.828368 -12.464950 38.478894 0.050246 1.900690 0.186071 -0.051540 -84895.300000 0 0 1
-35.588092 -2.624168 -13.358950 38.103282 0.073604 1.929006 0.164507 -0.041608 312442.000000 0 0 1
-35.276571 -3.848568 -12.745050 37.705228 0.108667 1.915607 0.197783 -0.056656 -113929.000000 0 0 1
-35.093355 -5.021268 -13.690750 38.002543 0.142119 1.939342 0.168955 -0.055343 91283.200000 0 0 1
-35.056108 -6.211268 -12.886250 37.862462 0.175361 1.918079 0.174254 -0.066754 201107.000000 0 0 1
-35.299432 -7.375068 -13.694150 38.574230 0.205966 1.933719 0.167804 -0.058803 -611924.000000 0 0 1
-34.902835 -8.710568 -12.958150 38.236050 0.244570 1.916542 0.145835 -0.061538 1096000.000000 0 0 1
-33.485264 -9.041168 -12.912850 37.010097 0.263716 1.927194 0.139843 -0.059256 1406890.000000 0 0 1
-32.892844 -9.326268 -14.147150 37.000815 0.276284 1.963131 0.128370 -0.057460 -423836.000000 0 0 1
-31.591634 -10.104368 -13.837350 35.938862 0.309561 1.966031 0.114558 -0.047494 69768.600000 0 0 1
-31.964324 -11.441968 -13.622350 36.581485 0.343749 1.952372 0.098123 -0.044264 573797.000000 0 0 1
-30.778784 -12.163868 -13.334750 35.680650 0.376364 1.953818 0.111199 -0.039116 139291.000000 0 0 1
-30.955304 -13.642768 -13.707350 36.499964 0.415114 1.955780 0.120814 -0.034166 -79003.300000 0 0 1
-31.022514 -13.627168 -15.112850 37.101136 0.413893 1.990338 0.118208 -0.040633 -22142.300000 0 0 1
-31.348354 -14.856268 -15.745050 38.096385 0.442558 1.996866 0.132847 -0.039626 -490240.000000 0 0 1
-30.461664 -16.127368 -15.608650 37.836951 0.486915 1.996019 0.116184 -0.024710 -159746.000000 0 0 1
-29.228454 -15.892568 -16.258150 37.029767 0.498021 2.025344 0.129648 -0.034490 -662658.000000 0 0 1
-28.497274 -17.100368 -16.283850 37.009201 0.540471 2.026389 0.132041 -0.030825 -1203750.000000 0 0 1
-27.047654 -16.767768 -16.437950 35.818149 0.554948 2.047585 0.152924 -0.046241 -1343490.000000 0 0 1
-26.672494 -16.214868 -17.626250 35.847295 0.546226 2.084842 0.139484 -0.039106 -1200990.000000 0 0 1
-25.313064 -16.093368 -17.845250 34.902731 0.566309 2.107476 0.121578 -0.029857 -1056850.000000 0 0 1
-24.938884 -15.458968 -19.187950 35.058594 0.554905 2.149944 0.121765 -0.015484 34013.300000 0 0 1
-25.384134 -16.120868 -20.391050 36.332238 0.565813 2.166678 0.122166 -0.028438 1878990.000000 0 0 1
-26.835084 -16.033368 -20.604050 37.439517 0.538563 2.153554 0.126951 -0.034539 1722820.000000 0 0 1
-27.382434 -17.351868 -21.258150 38.765886 0.564821 2.151213 0.128265 -0.035146 -39961.000000 0 0 1
-26.948334 -17.471668 -22.608750 39.276296 0.575207 2.184175 0.117715 -0.022496 -24215.700000 0 0 1
-27.533524 -18.557168 -23.257750 40.538702 0.593052 2.181833 0.113921 -0.021435 -496797.000000 0 0 1
-27.116354 -18.676568 -24.771450 41.203587 0.603140 2.215794 0.093173 -0.023734 151668.000000 0 0 1
-25.794174 -19.147968 -24.900750 40.645189 0.638579 2.230189 0.096158 -0.018897 -361809.000000 0 0 1
-25.614624 -20.526868 -24.643450 41.045839 0.675578 2.214783 0.083631 -0.013591 -1490600.000000 0 0 1
-24.221584 -21.076768 -24.573550 40.432346 0.716085 2.224045 0.073534 0.000685 -653489.000000 0 0 1
-23.390184 -20.988068 -25.720810 40.609848 0.731323 2.256689 0.063606 -0.006086 779720.000000 0 0 1
-21.998084 -21.162168 -25.386580 39.701782 0.766033 2.264555 0.067255 -0.015579 829503.000000 0 0 1
-21.109384 -20.903068 -26.596010 39.873450 0.780487 2.300985 0.063546 -0.017494 -687494.000000 0 0 1
-21.116084 -21.922768 -27.577300 41.073157 0.804139 2.306918 0.070689 -0.016171 125381.000000 0 0 1
-22.098784 -21.806368 -28.611300 42.219431 0.778738 2.315401 0.087716 -0.020939 229181.000000 0 0 1
-21.451984 -21.682368 -29.997590 42.780464 0.790739 2.347873 0.086406 -0.030989 221915.000000 0 0 1
-20.877084 -22.914268 -30.381780 43.404710 0.831885 2.346145 0.094731 -0.039312 -92846.800000 0 0 1
-20.114684 -22.758268 -31.554560 43.797597 0.846981 2.375266 0.097965 -0.035609 85208.500000 0 0 1
-19.880384 -24.202568 -32.180780 44.906531 0.883132 2.369736 0.104906 -0.035639 -275708.000000 0 0 1
-19.285784 -24.243468 -33.435000 45.580548 0.898803 2.394307 0.119266 -0.032772 -395082.000000 0 0 1
-20.141584 -23.962668 33.269098 45.680693 0.871820 0.754963 0.111137 -0.022941 -750878.000000 0 0 1
-19.463784 -24.037268 31.866391 44.408288 0.890148 0.770478 0.114909 -0.020232 -181117.000000 0 0 1
-18.732484 -22.848868 31.551493 43.225842 0.884073 0.752588 0.100670 -0.022658 -149496.000000 0 0 1
-18.253384 -22.937268 30.266133 42.134820 0.898624 0.769417 0.097204 -0.013302 -14499.100000 0 0 1
-17.293584 -21.784268 29.840173 40.792871 0.899813 0.750270 0.090591 -0.013469 632763.000000 0 0 1
-17.952484 -20.491268 29.623193 40.245712 0.851341 0.743567 0.084937 -0.016464 366236.000000 0 0 1
-16.977684 -19.502368 29.374643 39.133793 0.854495 0.721795 0.086880 -0.012557 484201.000000 0 0 1
-16.242284 -18.935468 30.667813 39.533258 0.861808 0.682898 0.092371 -0.020958 594469.000000 0 0 1
-15.469884 -17.773268 30.407313 38.468312 0.854577 0.659251 0.103357 -0.028543 -94757.400000 0 0 1
-14.744084 -17.326268 31.529013 38.880152 0.865741 0.625060 0.104140 -0.032738 212360.000000 0 0 1
-14.094584 -15.896468 31.415763 37.924994 0.845407 0.594612 0.110797 -0.035330 -294626.000000 0 0 1
-13.100084 -15.963868 30.450793 36.792772 0.883615 0.595925 0.134116 -0.047248 -589662.000000 0 0 1
-12.634684 -14.659368 30.227393 35.891888 0.859443 0.569485 0.122320 -0.046340 404007.000000 0 0 1
-11.129484 -14.540368 29.813733 34.987803 0.917499 0.550777 0.153048 -0.053907 780366.000000 0 0 1
-10.725084 -13.165568 29.708603 34.219303 0.887197 0.519268 0.153921 -0.042709 716749.000000 0 0 1
-9.342684 -12.950568 30.050723 34.030118 0.945845 0.488447 0.131620 -0.040716 963558.000000 0 0 1
-9.014684 -11.440868 30.042623 33.387381 0.903454 0.451440 0.107112 -0.030708 12044.800000 0 0 1
-9.701584 -10.610868 30.978273 34.152081 0.830133 0.434529 0.107508 -0.029568 83075.000000 0 0 1
-9.439984 -9.254568 30.769693 33.489317 0.775480 0.405789 0.081430 -0.019734 50643.700000 0 0 1
-10.262284 -8.306268 31.706843 34.345778 0.680445 0.394560 0.058010 -0.022800 305598.000000 0 0 1
-11.600984 -8.117268 31.298503 34.352135 0.610528 0.424832 0.078692 -0.032466 52919.900000 0 0 1
-12.576384 -7.658768 32.197701 35.405001 0.546996 0.428930 0.059731 -0.033755 35867.900000 0 0 1
-12.404684 -6.210468 32.804926 35.617542 0.464172 0.400072 0.048643 -0.019255 -474285.000000 0 0 1
-12.664084 -5.174268 31.905332 34.714583 0.387879 0.405068 0.055184 -0.023490 225107.000000 0 0 1
-12.815684 -3.963168 32.602255 35.254156 0.299915 0.390346 0.049134 -0.027835 -247927.000000 0 0 1
-12.499484 -2.672868 31.871443 34.339048 0.210665 0.381412 0.038027 -0.019098 101554.000000 0 0 1
-11.111384 -2.447268 31.701683 33.681578 0.216787 0.344580 0.041457 -0.025330 147248.000000 0 0 1
-10.875384 -1.261768 31.013943 32.889675 0.115504 0.339357 0.034104 -0.022126 -174770.000000 0 0 1
-9.381284 -0.897468 30.862303 32.269114 0.095376 0.296367 0.056202 -0.015374 148675.000000 0 0 1
-8.757584 -0.708668 32.103643 33.284251 0.080745 0.267141 0.069132 -0.036722 -296689.000000 0 0 1
-7.471484 -0.147368 32.066112 32.925375 0.019721 0.228961 0.100731 -0.043221 -149760.000000 0 0 1
-7.110884 0.453632 33.471788 34.221792 -0.063708 0.209745 0.146898 -0.063288 51136.500000 0 0 1
-7.873284 1.620932 33.847123 34.788558 -0.203041 0.233172 0.108183 -0.047755 275916.000000 0 0 1
-7.218884 2.874732 33.500792 34.390107 -0.378974 0.227912 0.128150 -0.045296 139951.000000 0 0 1
-8.079884 4.107032 33.771083 34.966245 -0.470268 0.262210 0.146632 -0.050805 397638.000000 0 0 1
-9.276384 4.118332 33.000465 34.525971 -0.417819 0.298374 0.088705 -0.030958 722404.000000 0 0 1
-10.211484 5.164832 33.263641 35.176977 -0.468266 0.331337 0.086744 -0.015476 1084700.000000 0 0 1
-11.473984 5.286832 32.318504 34.699980 -0.431772 0.372640 0.050794 -0.010512 736148.000000 0 0 1
-12.166384 6.483232 32.534110 35.334424 -0.489605 0.400802 0.046202 -0.003816 1053060.000000 0 0 1
-13.381884 6.592532 31.739563 35.070446 -0.457747 0.439362 0.027609 -0.006678 1054860.000000 0 0 1
-14.071484 7.974832 31.706503 35.593636 -0.515602 0.471713 0.060942 -0.009488 -135104.000000 0 0 1
-14.617484 8.342032 32.938401 36.989169 -0.518588 0.472380 0.059279 -0.004850 91394.200000 0 0 1
-15.138284 9.650732 32.900186 37.479681 -0.567541 0.499517 0.074735 0.000208 -302442.000000 0 0 1
-15.982384 9.999732 -33.691600 38.607708 -0.559083 2.631430 0.063892 0.003462 -44755.500000 0 0 1
-15.214584 10.242632 -32.509160 37.326137 -0.592520 2.627927 0.065459 -0.001487 393560.000000 0 0 1
-16.047484 10.562732 -31.386340 36.799393 -0.582130 2.592319 0.073188 -0.010230 -417712.000000 0 0 1
-15.256184 10.573632 -30.014280 35.290364 -0.606061 2.587722 0.082030 -0.019600 1109740.000000 0 0 1
-14.333584 11.721132 -29.984670 35.240842 -0.685464 2.588397 0.094099 -0.021366 530364.000000 0 0 1
-13.118784 11.456632 -30.642630 35.246669 -0.717866 2.624736 0.106530 -0.028786 -984529.000000 0 0 1
-12.214884 12.669532 -30.821790 35.492297 -0.803667 2.622779 0.106744 -0.031561 -228027.000000 0 0 1
-12.724884 13.567732 -31.809980 36.849435 -0.817444 2.612454 0.094195 -0.029161 302765.000000 0 0 1
-11.974984 14.795032 -31.858870 37.111734 -0.890355 2.603052 0.085302 -0.033989 309173.000000 0 0 1
-12.352184 15.858232 -30.767350 36.751732 -0.909046 2.562880 0.087917 -0.029855 511599.000000 0 0 1
-13.558284 16.565632 -31.061170 37.723249 -0.884901 2.538166 0.089529 -0.028027 528518.000000 0 0 1
-13.715384 17.539732 -30.018010 37.374254 -0.907152 2.503399 0.069635 -0.021195 -308670.000000 0 0 1
-15.062484 18.272532 -30.040550 38.251777 -0.881399 2.474037 0.065658 -0.025557 -571502.000000 0 0 1
-15.229584 19.139732 -31.163180 39.615822 -0.898680 2.476136 0.063322 -0.029249 -756138.000000 0 0 1
-16.521784 19.583032 -31.363000 40.498176 -0.869984 2.456610 0.059239 -0.028401 -610035.000000 0 0 1
-17.092384 20.649732 -30.430890 40.553669 -0.879375 2.419442 0.047811 -0.035041 -569094.000000 0 0 1
-16.516384 21.911932 -30.793880 41.245445 -0.924892 2.413734 0.053556 -0.027839 493433.000000 0 0 1
-17.253984 23.052532 -30.346180 41.833119 -0.928279 2.382427 0.039914 -0.022611 822423.000000 0 0 1
-18.662084 23.269532 -31.006800 43.025180 -0.894839 2.375559 0.049689 -0.021599 643352.000000 0 0 1
-19.758084 22.560632 -30.452080 42.739831 -0.851526 2.363849 0.051996 -0.020761 212637.000000 0 0 1
-20.639584 22.185332 -31.488670 43.700317 -0.821477 2.375405 0.078124 -0.024938 -493236.000000 0 0 1
-21.964184 21.535632 -31.019980 43.685787 -0.775547 2.360394 0.097658 -0.029626 312003.000000 0 0 1
-22.818284 22.354632 -30.189050 43.952046 -0.775135 2.327961 0.120227 -0.024104 583474.000000 0 0 1
-23.569384 23.361832 -30.816310 45.287261 -0.780976 2.319191 0.103000 -0.017848 1396180.000000 0 0 1
-25.024504 22.894532 -31.355570 46.190444 -0.740978 2.316968 0.112487 -0.018380 1383470.000000 0 0 1
-24.817784 21.993432 -32.397650 46.359909 -0.725136 2.344555 0.114915 -0.017408 850930.000000 0 0 1
-25.964994 21.708132 -33.235180 47.434176 -0.696342 2.347117 0.116845 -0.011952 530946.000000 0 0 1
-25.830504 20.486832 33.654428 47.112055 -0.670535 0.775104 0.119093 -0.002694 -80373.900000 0 0 1
-25.609764 19.259932 -33.541030 46.387559 -0.644815 2.379019 0.114925 -0.015595 329559.000000 0 0 1
-25.325104 18.239432 33.297170 45.637039 -0.624162 0.753047 0.106789 -0.034313 -379496.000000 0 0 1
-25.273884 16.799632 33.879913 45.484562 -0.586642 0.730462 0.079348 -0.021717 -7124.970000 0 0 1
-26.457884 16.005032 -33.837980 45.838734 -0.544033 2.401189 0.066435 -0.004135 495301.000000 0 0 1
-26.612264 15.376432 32.734006 44.901697 -0.523932 0.753915 0.076457 -0.011888 -575368.000000 0 0 1
-27.419864 14.098132 32.921630 45.104767 -0.474909 0.752632 0.039380 0.001304 -17683.800000 0 0 1
-28.768134 14.344832 33.310555 46.292255 -0.462556 0.767612 0.044459 0.008532 607273.000000 0 0 1
-29.672814 13.237632 33.220062 46.468089 -0.419623 0.774314 0.028145 0.013377 422913.000000 0 0 1
-29.542734 12.204632 -33.413620 46.240633 -0.391764 2.378357 0.014547 0.007372 -421628.000000 0 0 1
-28.474594 11.303232 -33.608450 45.476295 -0.377882 2.402429 0.013059 -0.003434 -296240.000000 0 0 1
-28.898834 9.972732 -33.722160 45.516832 -0.332295 2.405164 0.025422 -0.001782 -1253230.000000 0 0 1
-27.770364 8.932332 -33.483300 44.408457 -0.311199 2.424904 0.023060 -0.012230 373466.000000 0 0 1
-26.805134 8.785732 33.276035 43.623375 -0.316729 0.703160 0.036002 -0.016430 377934.000000 0 0 1
-26.068314 9.946332 32.975228 43.195511 -0.364500 0.702244 0.021733 -0.016562 -1540310.000000 0 0 1
-24.736084 9.590832 32.265909 41.772560 -0.369881 0.688156 0.030135 -0.012452 -144849.000000 0 0 1
-24.886084 9.005632 30.963603 40.732828 -0.347214 0.707232 0.031923 -0.010048 165012.000000 0 0 1
-23.623784 8.948032 30.340673 39.480462 -0.362074 0.694305 0.060405 -0.015746 167837.000000 0 0 1
-23.793884 8.914332 28.842483 38.438302 -0.358462 0.722193 0.081149 -0.018372 -51977.600000 0 0 1
-24.389784 10.078332 28.339993 38.724534 -0.391850 0.749785 0.057957 -0.011841 36598.500000 0 0 1
-24.375684 10.123432 26.930943 37.708534 -0.393633 0.775334 0.068562 -0.004014 -495804.000000 0 0 1
-24.545684 11.580132 26.344633 37.823667 -0.440817 0.800272 0.076160 -0.004797 128304.000000 0 0 1
-25.824554 12.166632 26.346483 38.846772 -0.440283 0.825465 0.071491 -0.003998 302957.000000 0 0 1
-26.751804 11.580432 25.389143 38.657134 -0.408530 0.854259 0.084345 -0.005367 608349.000000 0 0 1
-28.121604 12.321032 25.351113 39.815969 -0.412943 0.880576 0.083833 -0.002271 251529.000000 0 0 1
-28.017924 13.649332 24.828063 39.846469 -0.453326 0.898105 0.107696 -0.008515 435935.000000 0 0 1
-29.222994 14.413432 24.961743 41.046547 -0.458211 0.917090 0.097005 -0.016045 413944.000000 0 0 1
-29.057714 15.859732 24.461943 41.161493 -0.499614 0.934411 0.112277 -0.019346 -242009.000000 0 0 1
-28.093344 16.606332 25.165293 41.210414 -0.533859 0.913910 0.127418 -0.021684 75008.800000 0 0 1
-28.005954 17.884832 24.606443 41.348249 -0.568325 0.933403 0.107754 -0.039417 -720555.000000 0 0 1
-23.019284 -8.863868 31.890096 40.316669 0.367563 0.658370 0.068573 -0.026830 279905.000000 0 0 1
-22.140684 -8.770168 30.759613 38.900894 0.377149 0.658816 0.069201 -0.028914 364493.000000 0 0 1
-22.927584 -8.607668 29.590923 38.410790 0.359146 0.691359 0.069973 -0.032268 -58051.600000 0 0 1
-22.138884 -8.217168 28.299963 36.858377 0.355404 0.695392 0.103211 -0.035003 333784.000000 0 0 1
-21.501084 -6.911868 28.193603 36.124089 0.311032 0.675386 0.105367 -0.036767 -283971.000000 0 0 1
-20.417884 -6.674368 29.015683 36.101898 0.315939 0.637281 0.096931 -0.025786 706544.000000 0 0 1
-18.977584 -7.027268 28.364263 34.843401 0.354638 0.619705 0.096133 -0.026426 1213610.000000 0 0 1
-18.673784 -8.438968 28.214853 34.871254 0.424446 0.628152 0.089835 -0.032493 131192.000000 0 0 1
-18.252284 -9.126268 29.366983 35.761073 0.463653 0.607286 0.094443 -0.039146 57072.800000 0 0 1
-16.809784 -8.898868 29.908593 35.444077 0.486879 0.566425 0.090222 -0.037146 73159.200000 0 0 1
-15.766384 -9.523568 29.198783 34.523125 0.543387 0.562781 0.078650 -0.038364 -1128770.000000 0 0 1
-14.542084 -9.043268 29.595503 34.192787 0.556344 0.524553 0.088990 -0.038588 -512007.000000 0 0 1
-13.293684 -9.850068 29.162173 33.528767 0.637689 0.516069 0.096253 -0.036789 70918.900000 0 0 1
-13.001684 -9.764168 27.790393 32.197651 0.644136 0.529383 0.103614 -0.033679 131678.000000 0 0 1
-11.813384 -10.537068 27.588743 31.807618 0.728355 0.520918 0.127170 -0.038155 178544.000000 0 0 1
-11.268984 -10.258968 26.179193 30.291691 0.738516 0.527165 0.111311 -0.030711 -220612.000000 0 0 1
-12.003684 -10.868668 25.161673 29.922001 0.735815 0.571836 0.096916 -0.029689 -209896.000000 0 0 1
-11.456484 -10.499168 23.880523 28.491454 0.741823 0.576887 0.091524 -0.024244 515066.000000 0 0 1
-12.419984 -10.773268 22.679573 28.012182 0.714517 0.627271 0.102474 -0.031981 -204887.000000 0 0 1
-12.550084 -12.172468 22.475373 28.474831 0.770125 0.661117 0.100337 -0.032075 507843.000000 0 0 1
-13.814484 -12.612768 21.991973 28.871591 0.739957 0.704838 0.091183 -0.028286 210032.000000 0 0 1
-15.024284 -12.563868 22.914023 30.143529 0.696450 0.707231 0.092833 -0.029169 -58549.600000 0 0 1
-16.236384 -13.148368 22.401173 30.631884 0.680693 0.750567 0.074212 -0.022266 1379780.000000 0 0 1
-17.328384 -12.839668 23.333413 31.773859 0.637691 0.746075 0.076229 -0.019827 1512150.000000 0 0 1
-18.676184 -13.420268 22.757903 32.354684 0.623085 0.790643 0.104832 -0.024415 -21856.300000 0 0 1
-18.753684 -14.821168 22.860533 33.075242 0.668803 0.807693 0.097062 -0.024099 -300912.000000 0 0 1
-20.059284 -15.293768 22.603173 33.870011 0.651408 0.840151 0.083789 -0.015273 220101.000000 0 0 1
-20.945884 -15.205968 23.868303 35.208627 0.627940 0.825880 0.085433 -0.017079 -646314.000000 0 0 1
-20.482984 -16.130268 24.824893 36.000187 0.667070 0.809892 0.084318 -0.012326 118972.000000 0 0 1
-21.121784 -15.951168 26.061893 37.145549 0.646821 0.793134 0.070813 -0.011304 -26363.700000 0 0 1
-20.558784 -16.940268 27.096923 37.998415 0.689200 0.776877 0.069192 -0.007355 210913.000000 0 0 1
-21.085084 -18.262868 26.948393 38.785680 0.713796 0.802651 0.081272 0.002934 142262.000000 0 0 1
-20.463684 -19.147568 27.851753 39.510908 0.752185 0.788496 0.067160 -0.005780 -215289.000000 0 0 1
-20.564984 -20.639268 27.458173 40.035599 0.787201 0.815034 0.079283 -0.001075 903325.000000 0 0 1
-21.914684 -21.149368 27.419033 40.979904 0.767628 0.837820 0.077103 0.004987 765979.000000 0 0 1
-21.864184 -22.544868 27.096823 41.479530 0.800725 0.858917 0.087591 0.014450 814940.000000 0 0 1
-23.282884 -23.131268 26.759543 42.346445 0.782132 0.886769 0.082217 0.019461 844412.000000 0 0 1
-24.149984 -23.313968 27.865833 43.626454 0.767786 0.877941 0.078954 0.016671 719561.000000 0 0 1
-25.252614 -24.184968 27.535433 44.506261 0.763806 0.903726 0.059562 0.018146 669288.000000 0 0 1
-25.877894 -25.008268 28.661533 46.006112 0.768310 0.898232 0.039313 0.011498 170012.000000 0 0 1
-26.811844 -24.347668 29.514103 46.720083 0.737269 0.887024 0.030702 0.013163 363362.000000 0 0 1
-27.439154 -25.214198 30.413723 48.100494 0.743167 0.886284 0.031679 0.016868 -728209.000000 0 0 1
-28.671584 -24.612768 31.029703 48.894688 0.709372 0.883275 0.028585 0.000552 -491772.000000 0 0 1
-29.742614 -24.357768 30.127803 48.842691 0.686191 0.906083 0.045506 -0.001441 614375.000000 0 0 1
-30.735184 -23.504568 30.693573 49.388376 0.652871 0.900174 0.055856 -0.017397 477830.000000 0 0 1
-31.984844 -23.313668 29.776283 49.529631 0.629858 0.925818 0.064511 -0.019149 266276.000000 0 0 1
-32.902884 -24.389668 29.804243 50.653219 0.637885 0.941720 0.056742 -0.022064 160850.000000 0 0 1
-34.072664 -24.182068 29.048153 50.887268 0.617220 0.963276 0.057008 -0.021279 746433.000000 0 0 1
-35.357004 -24.882068 29.615913 52.405509 0.613230 0.970206 0.054197 -0.022205 547058.000000 0 0 1
-35.215161 -26.310358 29.530383 52.956454 0.641663 0.979262 0.060366 -0.026837 -216926.000000 0 0 1
-36.196224 -26.990758 30.267233 54.357824 0.640730 0.980250 0.065339 -0.024865 -572961.000000 0 0 1
-35.919188 -28.470458 30.705103 55.168455 0.670228 0.980545 0.068688 -0.029264 -697822.000000 0 0 1
-34.918088 -28.496128 31.653123 55.074698 0.684472 0.958521 0.065871 -0.021792 -859837.000000 0 0 1
-34.299028 -29.717278 31.752497 55.387372 0.713948 0.960292 0.075297 -0.030495 -339015.000000 0 0 1
-33.201234 -29.823968 32.804116 55.388636 0.731863 0.936944 0.066563 -0.022688 -492990.000000 0 0 1
-33.686204 -29.674698 -33.727330 56.150519 0.722171 2.215122 0.059502 -0.015299 -193022.000000 0 0 1
-32.641514 -29.876188 -32.817260 55.091084 0.741194 2.208922 0.057879 -0.018050 4900.950000 0 0 1
-33.034964 -29.506368 -31.353890 54.267863 0.729038 2.186780 0.055437 -0.017687 8938.350000 0 0 1
-33.354694 -28.135598 -31.123050 53.598430 0.700724 2.190349 0.058584 -0.015188 881784.000000 0 0 1
-32.197854 -27.253788 -31.188120 52.461124 0.702428 2.207440 0.054115 -0.010565 533287.000000 0 0 1
-32.511374 -25.729028 -31.116570 51.838337 0.669466 2.214625 0.043439 -0.008242 -189218.000000 0 0 1
-33.154384 -25.395388 -29.901820 51.363973 0.653646 2.192174 0.041470 -0.010654 -117084.000000 0 0 1
-33.166604 -24.005768 -29.651860 50.552283 0.626517 2.197599 0.045224 -0.012860 -17571.300000 0 0 1
-31.867314 -23.426068 -29.037500 49.066106 0.633905 2.204091 0.049097 -0.014141 38316.400000 0 0 1
-31.712694 -21.991468 -29.002520 48.274898 0.606323 2.215271 0.056494 -0.014361 200913.000000 0 0 1
-30.426884 -21.703868 -28.481280 46.989748 0.619605 2.221966 0.065649 -0.014038 -42377.100000 0 0 1
-30.113504 -20.217668 -28.622790 46.204343 0.591260 2.238880 0.083808 -0.025109 -335574.000000 0 0 1
-29.555764 -19.919768 -29.850600 46.490844 0.593043 2.267998 0.087093 -0.017241 123408.000000 0 0 1
-29.508164 -18.486568 -29.870200 45.877159 0.559670 2.279817 0.089290 -0.024672 -272150.000000 0 0 1
-29.134604 -17.808468 -31.208850 46.259690 0.548649 2.311279 0.095437 -0.020025 211665.000000 0 0 1
-30.177914 -17.697968 -32.158060 47.519105 0.530400 2.314121 0.096437 -0.030628 -34431.700000 0 0 1
-31.148714 -16.725068 -31.829390 47.571844 0.492763 2.303767 0.087363 -0.031015 -969521.000000 0 0 1
-31.980124 -16.378268 -33.039680 48.811847 0.473312 2.314310 0.083760 -0.036406 -513031.000000 0 0 1
-32.876824 -17.408268 -33.373370 49.977146 0.486968 2.302009 0.094671 -0.039870 506182.000000 0 0 1
-34.239018 -17.057868 -33.102780 50.587303 0.462206 2.284145 0.097719 -0.038719 40442.400000 0 0 1
-35.173294 -17.449568 33.574245 51.661184 0.460525 0.863353 0.098602 -0.041630 -816190.000000 0 0 1
-35.347033 -18.857768 33.596834 52.285518 0.490090 0.872955 0.069538 -0.039061 82248.900000 0 0 1
-36.109884 -19.299868 32.493648 52.270888 0.490847 0.899962 0.066068 -0.034819 -421136.000000 0 0 1
-36.434264 -20.794468 32.578738 53.115343 0.518626 0.910491 0.040809 -0.027193 88727.900000 0 0 1
-35.326994 -21.677868 32.514153 52.679186 0.550385 0.905604 0.056588 -0.030949 33227.700000 0 0 1
-35.742952 -22.959768 32.969929 53.774769 0.570984 0.910803 0.051128 -0.028923 -717363.000000 0 0 1
-34.527716 -23.881368 33.203865 53.525504 0.605105 0.901624 0.059026 -0.022774 296119.000000 0 0 1
-33.625034 -23.574368 -33.533600 53.017884 0.611461 2.255568 0.049902 -0.029098 100753.000000 0 0 1
-32.864454 -22.433568 -33.764600 52.186066 0.598958 2.274445 0.055829 -0.034063 -1566610.000000 0 0 1
-31.552094 -22.241668 -32.990430 50.779867 0.614020 2.277954 0.056813 -0.026703 -220234.000000 0 0 1
-30.519494 -23.079668 -33.487540 50.848067 0.647475 2.289727 0.052216 -0.024123 600525.000000 0 0 1
-29.257224 -22.927268 -32.827410 49.591164 0.664688 2.294228 0.055190 -0.023681 703945.000000 0 0 1
-29.068984 -23.609268 -31.437580 48.895038 0.682124 2.269154 0.054069 -0.011359 -632049.000000 0 0 1
-28.847834 -24.977168 -31.501000 49.481000 0.713610 2.260914 0.048144 -0.012277 -19722.000000 0 0 1
-28.266674 -25.344758 -30.285620 48.565217 0.730950 2.244145 0.043351 -0.008084 -156099.000000 0 0 1
-28.039884 -26.824838 -30.016510 49.059126 0.763256 2.229186 0.040708 -0.005924 -1025890.000000 0 0 1
-29.219494 -27.488358 -29.828850 49.991488 0.754880 2.210152 0.030173 0.001182 -1030340.000000 0 0 1
-29.036394 -28.693258 -29.087940 50.125078 0.779454 2.189902 0.043691 0.000867 38687.800000 0 0 1
-29.657624 -29.989678 -29.599190 51.527347 0.790965 2.182712 0.039286 0.012050 -44667.000000 0 0 1
-28.986134 -30.358158 -30.793100 52.057936 0.808514 2.203734 0.047510 -0.004365 441374.000000 0 0 1
-29.420584 -31.637318 -31.204380 53.293564 0.821688 2.196316 0.059550 0.001684 -109437.000000 0 0 1
-28.936974 -32.095098 -32.611560 54.138319 0.837097 2.217269 0.052492 -0.012040 180188.000000 0 0 1
-27.532944 -32.270808 -32.627860 53.516775 0.864457 2.226447 0.037368 -0.012223 -80000.100000 0 0 1
-27.124294 -32.812658 -33.867190 54.400224 0.880021 2.242801 0.045528 -0.014252 651052.000000 0 0 1
-25.640474 -33.314938 33.820343 53.954931 0.914844 0.893324 0.059791 -0.021591 783297.000000 0 0 1
-25.426184 33.718016 32.581027 53.337780 -0.924687 0.913671 0.056966 -0.006332 -204747.000000 0 0 1
-24.396684 32.767777 32.680891 52.316021 -0.930803 0.896072 0.062199 -0.002398 -610026.000000 0 0 1
-24.129184 32.135415 31.306083 50.940880 -0.926745 0.908972 0.063058 -0.012434 246013.000000 0 0 1
-25.266524 31.355716 30.906373 50.762014 -0.892527 0.916188 0.074040 -0.024818 501927.000000 0 0 1
-25.040734 30.534876 29.793513 49.467873 -0.883937 0.924442 0.075741 -0.018057 319693.000000 0 0 1
-26.405874 29.965216 29.292183 49.529954 -0.848456 0.937998 0.080624 -0.016034 617789.000000 0 0 1
-27.082284 29.070286 30.170193 49.887596 -0.820787 0.921328 0.079701 -0.013094 552626.000000 0 0 1
-28.346024 28.654596 29.665053 50.045962 -0.790812 0.936320 0.085002 -0.020428 435770.000000 0 0 1
-28.994194 27.522566 30.476003 50.268695 -0.759365 0.919444 0.082171 -0.025440 183597.000000 0 0 1
-28.115514 26.386386 30.474183 49.146713 -0.753683 0.901970 0.075685 -0.016082 610490.000000 0 0 1
-28.762514 25.132306 30.740403 49.029455 -0.718142 0.893128 0.083162 -0.004315 939419.000000 0 0 1
-29.814604 24.645156 29.665103 48.747438 -0.690759 0.916568 0.088820 -0.002740 490020.000000 0 0 1
-29.150044 24.255266 28.517693 47.447885 -0.694000 0.926005 0.094501 -0.016017 -335276.000000 0 0 1
-29.858914 23.350976 27.691583 46.943015 -0.663696 0.939864 0.095811 -0.003840 52410.400000 0 0 1
-29.054734 23.004966 26.406853 45.505252 -0.669709 0.951695 0.114007 -0.016854 -304794.000000 0 0 1
-27.940204 22.227906 26.714283 44.591342 -0.672023 0.928431 0.105745 -0.022051 -563947.000000 0 0 1
-27.379064 21.764506 25.503743 43.286809 -0.671643 0.940752 0.091942 -0.016268 -259158.000000 0 0 1
-26.038254 21.054906 25.786163 42.263767 -0.679972 0.914578 0.087179 -0.021971 -253706.000000 0 0 1
-26.151484 19.770706 26.436643 42.115045 -0.647335 0.892170 0.126340 -0.038048 325703.000000 0 0 1
-24.841684 19.359606 26.776053 41.338368 -0.662003 0.866197 0.100201 -0.032682 112620.000000 0 0 1
-24.800584 17.970006 27.475323 41.144665 -0.627033 0.839583 0.124378 -0.038972 -1157310.000000 0 0 1
-23.534784 17.666206 27.901063 40.551822 -0.643912 0.812019 0.104097 -0.032474 -1026510.000000 0 0 1
-23.628584 16.667606 28.840603 40.839925 -0.614341 0.786699 0.097898 -0.019549 -306161.000000 0 0 1
-22.363284 15.836906 29.103843 39.974464 -0.616185 0.755307 0.097296 -0.023176 143809.000000 0 0 1
-21.419084 16.588806 29.853463 40.313706 -0.658990 0.736939 0.126849 -0.022742 322470.000000 0 0 1
-20.109484 16.045106 29.806333 39.373269 -0.673452 0.712057 0.120997 -0.023976 312672.000000 0 0 1
-19.074184 16.484806 30.843913 39.836168 -0.712707 0.685237 0.107744 -0.031251 -307397.000000 0 0 1
-19.440584 16.324306 32.203410 41.005840 -0.698485 0.667556 0.096521 -0.022847 -376836.000000 0 0 1
-18.414384 16.661306 33.050902 41.340668 -0.735460 0.644373 0.094410 -0.019979 -932518.000000 0 0 1
-18.877984 16.340406 -33.329820 41.644496 -0.713470 2.498661 0.086739 -0.026372 284027.000000 0 0 1
-19.808384 17.115406 -32.626310 41.830435 -0.712594 2.465408 0.093734 -0.020528 1085940.000000 0 0 1
-21.205384 16.927706 -32.921190 42.661696 -0.673688 2.452275 0.089091 -0.014618 1231660.000000 0 0 1
-22.223284 17.778006 -32.059390 42.868827 -0.674724 2.415612 0.093968 -0.019793 387254.000000 0 0 1
-22.217284 17.375706 -30.692680 41.684091 -0.663719 2.398406 0.096824 -0.019631 259903.000000 0 0 1
-23.164484 18.151206 -29.981730 42.011471 -0.664648 2.365500 0.101856 -0.015385 -244905.000000 0 0 1
-23.365984 17.916306 -28.437780 40.934955 -0.654147 2.338808 0.100834 -0.025066 256542.000000 0 0 1
-23.971784 16.702506 -27.974820 40.450101 -0.608546 2.334482 0.096650 -0.021548 268986.000000 0 0 1
-25.372954 16.621806 -28.224760 41.433179 -0.579952 2.320213 0.092436 -0.019410 387264.000000 0 0 1
-26.016694 15.496506 -27.341580 40.799167 -0.537205 2.305208 0.094456 -0.022443 71947.700000 0 0 1
-25.649684 14.120606 -27.620550 40.251616 -0.503241 2.327045 0.062418 -0.013594 202913.000000 0 0 1
-26.597804 13.198706 -27.070500 40.180355 -0.460629 2.310034 0.035700 -0.011760 354181.000000 0 0 1
-26.221874 11.733206 -27.299040 39.629438 -0.420739 2.330708 0.039710 -0.014444 -397223.000000 0 0 1
-25.276654 11.305206 -26.390070 38.251179 -0.420572 2.332168 0.036561 -0.017146 -351484.000000 0 0 1
-24.327184 10.448106 -27.025980 37.833561 -0.405661 2.366475 0.032991 -0.007911 152003.000000 0 0 1
-23.290084 9.869706 -26.052800 36.312360 -0.400831 2.370951 0.058329 -0.012575 -239239.000000 0 0 1
-23.775384 8.815506 -25.256200 35.789072 -0.355068 2.354201 0.046507 -0.010037 555159.000000 0 0 1
-22.696984 8.204806 -24.523850 34.407719 -0.346877 2.364197 0.078303 -0.010585 427860.000000 0 0 1
-23.231284 7.317506 -23.350250 33.741260 -0.305147 2.335105 0.068914 0.003622 191945.000000 0 0 1
-23.733184 6.084406 -23.789550 34.150061 -0.250962 2.341469 0.060619 -0.012179 126659.000000 0 0 1
-24.184384 5.267506 -22.737250 33.609724 -0.214457 2.313807 0.059997 -0.007420 -291916.000000 0 0 1
34.939251 24.008732 -10.203550 43.603703 0.602054 1.806993 0.051126 0.000899 -208885.000000 0 0 1
35.719931 23.505532 -9.170350 43.732354 0.582014 1.782057 0.053598 -0.011448 738550.000000 0 0 1
37.119611 23.512232 -9.505250 44.955982 0.564630 1.783839 0.037360 -0.010033 1275750.000000 0 0 1
-36.953084 22.981532 -8.375350 44.315096 -0.556375 1.760935 0.096953 -0.014066 330208.000000 0 0 1
-37.240514 21.671032 -7.953450 43.814916 -0.527020 1.753332 0.054387 -0.018354 1112860.000000 0 0 1
-36.100924 21.194032 -7.179350 42.473601 -0.530863 1.740643 0.119981 -0.026173 622104.000000 0 0 1
-36.543154 20.171632 -6.096350 42.183674 -0.504373 1.715823 0.086856 -0.011774 -46118.000000 0 0 1
-36.825504 18.864832 -6.519650 41.886817 -0.473420 1.727081 0.050608 -0.011162 419595.000000 0 0 1
-37.234274 18.045432 -5.430050 41.731454 -0.451289 1.701285 0.062043 -0.031049 -449939.000000 0 0 1
37.101021 16.755432 -5.875950 41.130974 0.424197 1.714146 0.059749 -0.018868 691537.000000 0 0 1
35.761091 17.047032 -6.333450 40.119440 0.444828 1.729324 0.053775 -0.017574 861650.000000 0 0 1
35.325061 16.061432 -7.230150 39.472834 0.426735 1.755004 0.060698 -0.017523 -302835.000000 0 0 1
34.009571 16.430532 -7.929650 38.593946 0.450049 1.777734 0.048015 -0.023476 -256406.000000 0 0 1
33.592411 15.397932 -8.749750 37.975051 0.429797 1.803293 0.071472 -0.030731 -181578.000000 0 0 1
33.036091 15.939132 -9.930350 38.000672 0.449531 1.835186 0.067126 -0.025163 -855839.000000 0 0 1
32.502051 14.761032 -10.816750 37.299778 0.426305 1.865018 0.064406 -0.021096 218536.000000 0 0 1
31.234551 14.196432 -10.522150 35.886648 0.426599 1.868374 0.073742 -0.016193 537923.000000 0 0 1
30.981861 13.780532 -9.181850 35.129548 0.418516 1.835239 0.086803 -0.023380 -809549.000000 0 0 1
29.920741 12.668732 -9.219150 33.774846 0.400523 1.847264 0.085130 -0.013511 -12572.300000 0 0 1
30.506371 11.457832 -9.613750 33.975649 0.359286 1.857675 0.092320 -0.011893 937438.000000 0 0 1
29.536141 10.384632 -9.503550 32.719133 0.338091 1.865502 0.119214 -0.012289 388233.000000 0 0 1
30.082361 8.943932 -9.772650 32.870154 0.288992 1.872671 0.138456 -0.010381 -31001.200000 0 0 1
31.025711 8.479132 -8.808350 33.347825 0.266779 1.838104 0.128446 -0.011232 530233.000000 0 0 1
31.105881 7.054232 -8.756850 33.075980 0.223009 1.838740 0.125630 -0.011763 -242267.000000 0 0 1
32.323371 6.582832 -7.938150 33.928575 0.200908 1.806952 0.151363 -0.015969 734310.000000 0 0 1
33.593171 6.754232 -8.592150 35.326276 0.198414 1.816483 0.141928 -0.013872 868972.000000 0 0 1
34.703891 6.592232 -7.737450 36.161937 0.187720 1.786430 0.143849 -0.017468 -32932.300000 0 0 1
36.070071 6.794932 -8.403950 37.654315 0.186199 1.795879 0.150898 -0.016553 -135367.000000 0 0 1
36.463861 5.847232 -9.367950 38.099367 0.159003 1.819226 0.157114 -0.028776 257442.000000 0 0 1
-37.138364 5.769132 -9.421850 38.746770 -0.154110 1.816424 0.155260 -0.030168 -611732.000000 0 0 1
-36.667114 5.015832 -10.709150 38.526896 -0.135950 1.852472 0.143831 -0.034444 268581.000000 0 0 1
-35.259411 4.857632 -10.849750 37.209404 -0.136907 1.866681 0.146565 -0.038500 964940.000000 0 0 1
-34.552170 6.007032 -11.373150 36.868488 -0.172133 1.884390 0.114997 -0.032190 97954.400000 0 0 1
-33.836484 6.981832 -10.354750 36.067637 -0.203485 1.861987 0.122880 -0.034894 -330059.000000 0 0 1
-34.697535 7.919132 -9.702350 36.888578 -0.224390 1.836945 0.135761 -0.028023 414151.000000 0 0 1
-34.928190 9.084832 -10.478650 37.580776 -0.254462 1.853372 0.127142 -0.028058 -290274.000000 0 0 1
-36.009390 9.902932 -9.764550 38.601692 -0.268375 1.826531 0.123937 -0.028169 -188721.000000 0 0 1
-35.658283 10.440932 -8.516950 38.119085 -0.284843 1.796128 0.126133 -0.022159 95463.100000 0 0 1
-36.654734 11.352632 -8.073150 39.212594 -0.300348 1.778161 0.116461 -0.027786 -90608.900000 0 0 1
-36.097184 12.391132 -7.103550 38.820191 -0.330668 1.754819 0.115969 -0.035288 -196125.000000 0 0 1
-35.212307 13.299732 -7.695050 38.418787 -0.361137 1.772454 0.122072 -0.035778 -371933.000000 0 0 1
-34.661467 14.099932 -6.694150 38.013642 -0.386346 1.747818 0.141916 -0.034722 305974.000000 0 0 1
-33.727314 15.138132 -7.408550 37.703864 -0.421888 1.768576 0.116906 -0.026527 132336.000000 0 0 1
-34.493244 16.008632 -8.184150 38.897821 -0.434525 1.782782 0.088536 -0.021486 114770.000000 0 0 1
-33.821664 17.240932 -8.427550 38.886737 -0.471425 1.789250 0.078968 -0.015508 371169.000000 0 0 1
-34.639646 18.101032 -9.431150 40.205709 -0.481526 1.807575 0.059741 -0.017025 68038.800000 0 0 1
-34.312115 17.698032 -10.749150 40.076000 -0.476204 1.842340 0.049702 -0.021125 -126416.000000 0 0 1
-35.162527 18.167832 -11.796750 41.299355 -0.476904 1.860471 0.044276 -0.016457 -1150360.000000 0 0 1
-34.561590 18.445032 -13.116150 41.312905 -0.490232 1.893870 0.030523 -0.006791 -383076.000000 0 0 1
-33.825544 19.659232 -13.106450 41.260536 -0.526477 1.894047 0.051875 -0.018493 -172936.000000 0 0 1
-33.357984 19.859032 -14.395550 41.404928 -0.536979 1.925889 0.024936 -0.015267 7383.760000 0 0 1
-32.325814 21.009132 -14.650850 41.243051 -0.576318 1.933959 0.040940 -0.007042 -557802.000000 0 0 1
-31.050774 20.831232 -14.098550 39.960729 -0.590911 1.931369 0.047177 -0.006358 -82845.900000 0 0 1
-30.316094 22.047832 -13.994650 40.012781 -0.628791 1.928105 0.044541 -0.013140 170554.000000 0 0 1
-29.729904 22.654932 -15.352850 40.408206 -0.651153 1.960532 0.042632 -0.022358 -696036.000000 0 0 1
-30.651614 22.971632 -16.393450 41.664883 -0.643144 1.975188 0.054561 -0.010200 -84268.000000 0 0 1
-30.034404 23.488632 -17.548450 41.972960 -0.663704 2.002137 0.069132 -0.016097 125635.000000 0 0 1
-29.401864 24.916932 -17.350550 42.265408 -0.703018 1.993814 0.076619 -0.023161 304178.000000 0 0 1
-30.405834 25.883332 -17.134050 43.451551 -0.705226 1.976130 0.104117 -0.036416 173159.000000 0 0 1
-29.813234 27.107632 -17.467450 43.917701 -0.737901 1.979839 0.109031 -0.043722 148379.000000 0 0 1
-30.681964 28.315432 -17.073650 45.107163 -0.745307 1.958986 0.112372 -0.044111 -250329.000000 0 0 1
-30.594934 28.747132 -15.739850 44.835148 -0.754270 1.929500 0.104135 -0.047547 463974.000000 0 0 1
-29.423524 29.502132 -15.434050 44.433427 -0.786732 1.925542 0.098658 -0.047101 270125.000000 0 0 1
-29.507534 29.865032 -13.942250 44.238004 -0.791419 1.891426 0.087568 -0.040307 510145.000000 0 0 1
-30.592164 30.792532 -13.725450 45.524153 -0.788662 1.877060 0.060782 -0.028807 342087.000000 0 0 1
-30.643534 31.544532 -12.563150 45.737473 -0.799885 1.849053 0.042272 -0.032919 -724310.000000 0 0 1
-29.659704 32.683032 -12.438650 45.854102 -0.833855 1.845504 0.051539 -0.041194 -341704.000000 0 0 1
-29.720384 33.534632 -13.521150 46.804853 -0.845625 1.863857 0.044128 -0.036183 -367470.000000 0 0 1
-28.900094 -33.026342 -13.399150 45.885639 0.851931 1.867126 0.101818 -0.036953 -324012.000000 0 0 1
-28.918984 -32.154342 -14.657650 45.662414 0.838324 1.897582 0.079708 -0.031313 24574.900000 0 0 1
-28.109064 -32.716442 -15.667050 45.890538 0.861001 1.919203 0.090985 -0.029273 -74875.000000 0 0 1
-28.274904 -31.948842 -16.841550 45.867597 0.846327 1.946769 0.089411 -0.022640 196093.000000 0 0 1
-27.347924 -32.411342 -18.003450 46.070904 0.869927 1.972272 0.087353 -0.028346 67270.800000 0 0 1
-27.683464 -33.682242 -18.562750 47.386108 0.882843 1.973312 0.093690 -0.018775 -20377.900000 0 0 1
-27.441254 32.858432 -17.747850 46.343124 -0.874995 1.963801 0.084656 -0.037653 -444876.000000 0 0 1
-27.566124 31.454032 -18.399850 45.692470 -0.851177 1.985249 0.096657 -0.045772 587265.000000 0 0 1
-28.881464 31.024132 -18.740150 46.344675 -0.821150 1.987080 0.110646 -0.036826 -1276.940000 0 0 1
-29.474514 31.634132 -19.814750 47.561430 -0.820724 2.000514 0.103999 -0.035248 -53933.500000 0 0 1
-31.024284 31.450732 -19.905450 48.454945 -0.792224 1.994131 0.098529 -0.048551 667493.000000 0 0 1
-31.369324 30.086932 -20.112950 47.893514 -0.764534 2.004188 0.102575 -0.051127 813445.000000 0 0 1
-32.792104 29.899932 -20.156150 48.740111 -0.739298 1.997139 0.118732 -0.049777 726793.000000 0 0 1
-33.263154 28.655232 -20.930950 48.638096 -0.711116 2.015666 0.122034 -0.051640 968677.000000 0 0 1
-34.689155 28.407832 -20.941250 49.486143 -0.686175 2.007742 0.129975 -0.051020 1221600.000000 0 0 1
-34.922827 27.231132 -21.657450 49.296892 -0.662272 2.025646 0.117236 -0.036459 -11254.600000 0 0 1
-36.408634 26.817232 -21.814250 50.205717 -0.634845 2.020276 0.119961 -0.033649 226948.000000 0 0 1
-37.052504 27.508732 -22.836150 51.488913 -0.638636 2.030314 0.120551 -0.030348 -93899.200000 0 0 1
36.873821 26.773232 -23.385450 51.218784 0.628014 2.044943 0.112987 -0.022402 61965.500000 0 0 1
36.203671 27.406032 -24.625150 51.654568 0.647964 2.067724 0.114302 -0.016785 140776.000000 0 0 1
36.896861 27.471032 -25.872020 52.776864 0.639995 2.083133 0.126712 -0.026038 -45720.600000 0 0 1
35.916681 27.627232 -26.860790 52.676123 0.655678 2.105892 0.131141 -0.014838 133534.000000 0 0 1
36.626181 27.775832 -28.197240 53.926416 0.648830 2.121027 0.124124 -0.021247 220154.000000 0 0 1
37.287931 26.607232 -28.659810 54.034427 0.619770 2.129868 0.093109 -0.008679 195870.000000 0 0 1
-36.935264 26.908832 -29.821280 54.567460 -0.629625 2.148979 0.064168 -0.008447 -119261.000000 0 0 1
-36.421874 25.643832 -30.600310 54.042002 -0.613457 2.172723 0.046852 -0.004355 861788.000000 0 0 1
-35.443394 24.851132 -29.919540 52.621210 -0.611497 2.175579 0.032495 -0.002477 1142660.000000 0 0 1
-34.122435 25.414732 -29.815570 51.953993 -0.640171 2.182037 0.014956 0.003768 889152.000000 0 0 1
-33.121294 24.688032 -28.866790 50.396533 -0.640539 2.180706 0.017563 0.000800 98897.300000 0 0 1
-32.846524 23.368032 -29.189540 49.769351 -0.618357 2.197523 0.011824 0.004631 51203.200000 0 0 1
-33.071924 22.476932 -28.162570 48.909048 -0.596929 2.184397 0.007416 0.001805 -119384.000000 0 0 1
-32.802084 21.027532 -28.561950 48.310649 -0.570052 2.203360 0.012807 -0.002111 -380659.000000 0 0 1
-31.432124 20.728432 -28.575250 47.267232 -0.583001 2.219993 0.064029 -0.005569 -190748.000000 0 0 1
-31.238204 19.352632 -28.869040 46.730838 -0.554648 2.236704 0.046939 -0.000809 55707.500000 0 0 1
-29.752504 18.971232 -29.070410 45.718791 -0.567633 2.259909 0.063439 -0.007325 -159254.000000 0 0 1
-29.244564 19.283832 -30.342870 46.344368 -0.582954 2.284617 0.067389 -0.009042 309311.000000 0 0 1
-27.945134 18.712832 -30.508380 45.407729 -0.590050 2.307536 0.085420 -0.014289 356324.000000 0 0 1
-27.773464 17.357732 -31.168210 45.211873 -0.558582 2.331431 0.085502 -0.010896 -473162.000000 0 0 1
-28.173694 16.357832 -30.280470 44.477439 -0.526038 2.319658 0.047315 -0.004204 57608.400000 0 0 1
-28.249254 15.219832 -31.051300 44.652512 -0.494180 2.339771 0.023498 0.000093 100408.000000 0 0 1
-28.734514 13.888632 -30.315540 44.018159 -0.450234 2.330498 0.017864 0.002604 916695.000000 0 0 1
-30.158654 13.865632 -30.121580 44.823094 -0.430938 2.307716 0.011744 0.001098 1080500.000000 0 0 1
-30.876624 12.647132 -29.815150 44.746609 -0.388757 2.300047 0.009377 0.009799 275416.000000 0 0 1
-30.525004 11.875932 -28.565910 43.460612 -0.371036 2.288004 0.003536 -0.009582 -458787.000000 0 0 1
-30.654214 12.615332 -27.392620 43.002128 -0.390412 2.261405 -0.004831 -0.005710 240536.000000 0 0 1
-30.713324 11.653932 -26.337640 42.104556 -0.362660 2.246606 0.006121 0.002790 -46677.900000 0 0 1
-30.636454 12.310632 -24.933950 41.374458 -0.382083 2.217603 0.018395 -0.008262 893961.000000 0 0 1
-29.333034 12.851932 -24.621050 40.395484 -0.412946 2.226226 0.034277 -0.019556 913516.000000 0 0 1
-29.338214 13.675532 -23.489850 39.994050 -0.436189 2.198557 0.045145 -0.013316 -200750.000000 0 0 1
-27.875884 13.979032 -23.139850 38.832086 -0.464826 2.209176 0.076839 -0.011839 -1460930.000000 0 0 1
-27.247504 14.933232 -23.986250 39.252619 -0.501352 2.228213 0.087087 -0.020390 22681.200000 0 0 1
-25.848454 14.931132 -23.805250 38.180770 -0.523817 2.243992 0.089307 -0.027981 200172.000000 0 0 1
-25.284644 15.265332 -22.396150 37.066577 -0.543164 2.219576 0.093439 -0.027514 -1471490.000000 0 0 1
-25.662304 16.549432 -21.937850 37.599292 -0.572776 2.193784 0.114560 -0.027857 75825.600000 0 0 1
-25.717754 16.536032 -20.539350 36.833519 -0.571425 2.162320 0.116029 -0.023503 94570.000000 0 0 1
-27.107634 16.683732 -19.883250 37.530179 -0.551711 2.129154 0.112404 -0.030296 115208.000000 0 0 1
-28.029874 15.611632 -19.974850 37.794067 -0.508174 2.127650 0.115328 -0.031263 423078.000000 0 0 1
-29.285434 16.051232 -19.505950 38.675066 -0.501380 2.099431 0.105881 -0.025279 195943.000000 0 0 1
-30.542604 15.092932 -19.582950 39.295536 -0.458965 2.092491 0.086408 -0.025974 993168.000000 0 0 1
-31.287624 15.043132 -20.787550 40.463977 -0.448171 2.110323 0.069560 -0.017441 686092.000000 0 0 1
-31.971014 16.263232 -21.177450 41.654806 -0.470573 2.104126 0.063246 -0.019572 -400567.000000 0 0 1
-32.477444 16.181932 -22.578350 42.736649 -0.462248 2.127409 0.025936 -0.002810 -8722.750000 0 0 1
-33.594124 15.314532 -22.778450 43.381538 -0.427724 2.123597 0.037160 -0.006613 491539.000000 0 0 1
-34.036526 15.593532 -24.102450 44.526076 -0.429603 2.142792 0.007028 0.001666 -842980.000000 0 0 1
-35.238759 14.853432 -24.640850 45.492483 -0.398910 2.143191 0.013596 -0.006623 -799684.000000 0 0 1
-35.225827 13.436232 -24.921350 45.193638 -0.364397 2.154880 0.015605 0.002866 -89202.400000 0 0 1
-34.980418 12.608132 -23.823850 44.160734 -0.345940 2.140616 0.014069 0.001607 -513806.000000 0 0 1
-34.774868 11.125532 -24.240750 43.825596 -0.309640 2.156899 0.023821 -0.005906 -417309.000000 0 0 1
-35.876219 10.498932 -24.802650 44.860919 -0.284694 2.156611 0.044107 -0.001017 -240798.000000 0 0 1
-35.442521 9.282332 -25.305500 44.527545 -0.256145 2.175248 0.044925 0.000160 825072.000000 0 0 1
-36.644784 8.696832 -26.136310 45.843012 -0.233017 2.177456 0.072322 0.000203 904537.000000 0 0 1
37.409171 7.981932 -25.376630 45.903493 0.210216 2.156548 0.077538 0.002078 -32955.000000 0 0 1
36.507081 7.228132 -26.138730 45.477973 0.195465 2.183102 0.084628 -0.003621 135694.000000 0 0 1
35.498251 6.460032 -25.227350 44.025867 0.180012 2.180973 0.098286 -0.009398 288831.000000 0 0 1
36.073881 5.408432 -24.478950 43.929432 0.148818 2.161847 0.090779 -0.009966 255683.000000 0 0 1
35.056481 4.784532 -23.700150 42.585745 0.135643 2.160997 0.117494 -0.012269 520945.000000 0 0 1
35.561091 3.631332 -22.743450 42.367939 0.101763 2.137446 0.093842 -0.006139 64269.900000 0 0 1
36.023881 2.477332 -23.390750 43.023067 0.068661 2.145611 0.098718 -0.010699 351685.000000 0 0 1
36.877611 1.711532 -22.538750 43.253702 0.046378 2.118915 0.109724 -0.007890 162234.000000 0 0 1
37.393601 0.404032 -23.264950 44.042054 0.010804 2.127327 0.129616 -0.010546 8017.210000 0 0 1
36.500831 -0.640968 -23.506850 43.419966 -0.017559 2.142878 0.101253 -0.020338 131309.000000 0 0 1
37.297241 -1.796568 -23.812250 44.286963 -0.048132 2.138480 0.114922 -0.020927 645910.000000 0 0 1
-23.224384 28.648732 27.178593 45.812638 -0.889589 0.935700 0.072829 -0.026522 -1248390.000000 0 0 1
-24.534984 29.061632 26.930693 46.602641 -0.869656 0.954669 0.066076 -0.025064 -5664.520000 0 0 1
-24.953084 28.850532 25.586783 45.931395 -0.857710 0.979949 0.060027 -0.026115 -290121.000000 0 0 1
-25.393974 27.441932 25.179663 45.076923 -0.824140 0.978108 0.058152 -0.026008 353174.000000 0 0 1
-26.681014 27.003632 25.670463 45.826252 -0.791408 0.976206 0.063431 -0.022813 902670.000000 0 0 1
-26.789334 26.634232 27.046603 46.460408 -0.782495 0.949434 0.074233 -0.022131 -829463.000000 0 0 1
-26.071454 25.323732 27.491673 45.571967 -0.770851 0.923216 0.072110 -0.015666 -890950.000000 0 0 1
-24.736984 25.417932 27.810283 45.071072 -0.798974 0.905831 0.067794 -0.016108 -1219740.000000 0 0 1
-24.479784 25.958932 29.091453 46.037361 -0.814715 0.886782 0.060715 -0.014540 67673.900000 0 0 1
-23.007084 25.720532 29.529763 45.418923 -0.841027 0.862996 0.061975 -0.012385 25131.300000 0 0 1
-21.966884 26.288632 28.746233 44.721159 -0.874720 0.872664 0.078036 -0.024039 789287.000000 0 0 1
-20.695684 26.300332 29.411913 44.554230 -0.904096 0.849795 0.097529 -0.034251 800035.000000 0 0 1
-19.961884 24.918632 29.460183 43.443267 -0.895396 0.825581 0.095630 -0.022638 -474369.000000 0 0 1
-19.103084 24.768232 28.305773 42.185423 -0.913819 0.835260 0.092626 -0.028267 266513.000000 0 0 1
-19.553684 23.886832 27.244383 41.172609 -0.884818 0.847697 0.082739 -0.027960 -43418.900000 0 0 1
-19.606384 22.348632 27.494843 40.494914 -0.850667 0.824437 0.060301 -0.016448 116544.000000 0 0 1
-20.551784 21.907132 28.440923 41.366464 -0.817309 0.812706 0.063120 -0.012222 464.307000 0 0 1
-20.561584 20.441432 28.437433 40.611802 -0.782468 0.795083 0.081426 -0.016057 76865.300000 0 0 1
-20.942184 19.849232 29.829823 41.501632 -0.758611 0.768775 0.098983 -0.023455 114867.000000 0 0 1
-19.946284 19.985732 30.817963 41.797495 -0.786386 0.741708 0.082436 -0.018667 110574.000000 0 0 1
-20.518384 19.771732 32.092880 42.917111 -0.766868 0.726073 0.076495 -0.015292 70018.300000 0 0 1
-19.647784 20.334232 33.258051 43.653343 -0.802565 0.704605 0.084750 -0.016019 -199653.000000 0 0 1
-19.662784 21.718432 33.419068 44.442654 -0.835033 0.719767 0.052596 -0.014513 41233.400000 0 0 1
-18.878184 22.510532 32.554876 43.851224 -0.872936 0.734160 0.074815 -0.017375 707200.000000 0 0 1
-17.352284 22.662032 32.917449 43.568658 -0.917324 0.714333 0.069143 -0.015505 604367.000000 0 0 1
-16.656584 21.457332 32.841567 42.619567 -0.910696 0.691054 0.085295 -0.035650 -397214.000000 0 0 1
-15.326584 21.690832 33.264499 42.566692 -0.955659 0.673782 0.067926 -0.030713 315856.000000 0 0 1
-14.360384 20.437632 33.118074 41.481614 -0.958298 0.646197 0.067424 -0.031967 704415.000000 0 0 1
-13.015484 20.458632 33.570850 41.412081 -1.004194 0.625529 0.056027 -0.030350 495438.000000 0 0 1
-12.861084 20.541332 -32.809700 40.790075 -1.011401 2.505385 0.067094 -0.029626 -503925.000000 0 0 1
-11.366384 20.507932 -32.442170 40.028294 -1.064701 2.515769 0.059126 -0.021612 -55586.100000 0 0 1
-10.763284 21.777232 -32.494320 40.570641 -1.111763 2.499646 0.064716 -0.028885 -1142830.000000 0 0 1
-9.425684 21.653032 -32.208610 39.938601 -1.160229 2.508925 0.063712 -0.022277 -1381500.000000 0 0 1
-8.555384 22.893832 -32.200280 40.424994 -1.213167 2.492353 0.074798 -0.017029 -222523.000000 0 0 1
-8.631484 23.795232 -31.085550 40.087741 -1.222817 2.458204 0.078825 -0.017398 144767.000000 0 0 1
-8.059284 23.290732 -29.845050 38.705778 -1.237663 2.451324 0.074401 -0.023911 172469.000000 0 0 1
-7.367884 24.371232 -28.945170 38.549520 -1.277213 2.420155 0.089310 -0.023936 619879.000000 0 0 1
-6.189684 24.937732 -29.510870 39.129198 -1.327507 2.425217 0.088416 -0.021983 110222.000000 0 0 1
-5.746584 26.068332 -28.843080 39.300183 -1.353823 2.394867 0.118424 -0.024294 174388.000000 0 0 1
-4.342384 26.558432 -29.308400 39.789306 -1.408727 2.398811 0.084362 -0.027810 53343.700000 0 0 1
-3.340284 25.652232 -28.818520 38.725981 -1.441311 2.410080 0.102318 -0.027116 1296970.000000 0 0 1
-1.971884 25.781832 -29.248240 39.039092 -1.494461 2.417656 0.122150 -0.029336 1294530.000000 0 0 1
-1.283784 27.141432 -29.013970 39.750671 -1.523532 2.388970 0.122200 -0.047245 -962998.000000 0 0 1
-0.729984 27.377832 -27.749510 38.988638 -1.544139 2.362759 0.127445 -0.057057 605725.000000 0 0 1
0.077216 28.597232 -27.757920 39.853604 1.568096 2.341300 0.136886 -0.052677 1563.610000 0 0 1
0.771116 28.838132 -26.373160 39.086776 1.544063 2.311400 0.129129 -0.068720 -8692.770000 0 0 1
1.803316 27.949032 -26.018790 38.227971 1.506364 2.319407 0.166290 -0.077450 1222710.000000 0 0 1
3.084016 28.155732 -26.676390 38.908690 1.461697 2.326245 0.163826 -0.075334 900171.000000 0 0 1
4.297116 28.219432 -25.713710 38.418699 1.419682 2.304065 0.165593 -0.080553 123093.000000 0 0 1
4.751716 26.983832 -25.178870 37.211309 1.396488 2.313994 0.158608 -0.064887 -476418.000000 0 0 1
5.930416 27.072032 -24.473850 36.973424 1.355142 2.294188 0.118072 -0.056107 -606366.000000 0 0 1
6.457816 25.734432 -23.811150 35.650179 1.324933 2.302195 0.123670 -0.052440 914107.000000 0 0 1
7.752816 25.935732 -23.213950 35.660283 1.280327 2.279664 0.113201 -0.051053 368826.000000 0 0 1
8.375916 24.758932 -22.779850 34.671058 1.244584 2.287666 0.096980 -0.029356 92516.600000 0 0 1
9.811516 25.004132 -22.287350 34.902699 1.196862 2.263418 0.078585 -0.014108 -801546.000000 0 0 1
9.958116 25.720732 -21.054150 34.698665 1.201405 2.222789 0.087000 -0.018647 -295945.000000 0 0 1
11.273816 26.010732 -20.666950 35.082473 1.161808 2.200736 0.102395 -0.023994 -15727.700000 0 0 1
12.186316 24.859132 -20.169950 34.253607 1.115007 2.200421 0.070771 -0.001839 -160265.000000 0 0 1
12.474016 23.982532 -21.264550 34.393953 1.091175 2.237329 0.061420 -0.004872 -252257.000000 0 0 1
12.831016 22.706932 -20.695150 33.294579 1.056456 2.241551 0.037276 0.001214 -243043.000000 0 0 1
12.963516 21.583532 -21.791050 33.297920 1.029921 2.284221 0.035718 -0.001415 242252.000000 0 0 1
11.899016 21.666332 -22.741050 33.588270 1.068572 2.314548 0.048915 -0.018164 531402.000000 0 0 1
12.064016 20.656932 -23.698950 33.673276 1.042211 2.351516 0.056678 -0.021127 -225659.000000 0 0 1
11.179016 21.022932 -24.848050 34.414527 1.082070 2.377517 0.075691 -0.025069 685568.000000 0 0 1
9.772616 20.760232 -24.721250 33.728793 1.130832 2.393433 0.070433 -0.027901 972709.000000 0 0 1
9.058616 20.898832 -25.934500 34.516923 1.161790 2.420911 0.072804 -0.029308 -131267.000000 0 0 1
7.628616 20.303932 -25.908260 33.788805 1.211394 2.444591 0.084780 -0.035789 1028300.000000 0 0 1
6.562816 21.215032 -25.504180 33.817323 1.270786 2.425193 0.113648 -0.041950 705555.000000 0 0 1
6.515516 21.551732 -24.116150 32.992693 1.277213 2.390516 0.119646 -0.040897 -392394.000000 0 0 1
5.138316 21.911632 -23.507050 32.543867 1.340457 2.377946 0.151703 -0.049011 408571.000000 0 0 1
4.540716 23.150532 -23.974650 33.635533 1.377116 2.364247 0.150069 -0.057469 569431.000000 0 0 1
3.123516 23.106532 -23.819650 33.332325 1.436432 2.366864 0.167563 -0.053500 319989.000000 0 0 1
2.403116 24.372432 -24.337450 34.526828 1.472514 2.353058 0.152343 -0.046901 -757515.000000 0 0 1
1.023016 24.180232 -24.277150 34.279880 1.528514 2.357747 0.161399 -0.067189 -678927.000000 0 0 1
0.502316 24.919232 -25.406730 35.591043 1.550641 2.365779 0.150474 -0.055748 -786866.000000 0 0 1
-0.974684 24.751632 -25.658990 35.664787 -1.531438 2.373805 0.153802 -0.053324 -697466.000000 0 0 1
-1.400784 23.416232 -26.049400 35.055005 -1.511046 2.408488 0.169719 -0.051564 811866.000000 0 0 1
-2.761084 23.486432 -26.526260 35.537002 -1.453773 2.413493 0.166271 -0.038261 857169.000000 0 0 1
-3.251284 22.148632 -27.084620 35.138432 -1.425043 2.450889 0.142711 -0.036820 -838826.000000 0 0 1
-2.580584 21.656432 -28.169910 35.625893 -1.452195 2.482772 0.170529 -0.044513 -662460.000000 0 0 1
-3.209984 20.573632 -28.734920 35.486250 -1.416020 2.514519 0.135456 -0.038928 128101.000000 0 0 1
-4.347984 20.840132 -29.765200 36.594852 -1.365112 2.520720 0.098229 -0.033886 119854.000000 0 0 1
-3.900984 21.192832 -31.005350 37.758251 -1.388763 2.534227 0.103209 -0.029879 -160434.000000 0 0 1
-3.476284 22.520232 -31.209440 38.642910 -1.417642 2.510930 0.128502 -0.025443 -65015.400000 0 0 1
-3.048484 22.668532 -32.683640 39.892053 -1.437117 2.530989 0.108155 -0.020420 -450631.000000 0 0 1
-1.878284 21.936532 -32.922330 39.605797 -1.485381 2.552149 0.103588 -0.020983 -30034.300000 0 0 1
-1.543584 21.932932 33.496801 40.068340 -1.500535 0.580859 0.097132 -0.014456 989501.000000 0 0 1
-0.430084 20.832032 33.109922 39.120653 -1.550154 0.561694 0.106436 -0.011464 959928.000000 0 0 1
-0.918784 19.546932 32.859345 38.244781 -1.523827 0.537121 0.096523 0.002846 482048.000000 0 0 1
0.104116 18.824332 32.145106 37.251499 1.565265 0.529774 0.099195 -0.011887 573861.000000 0 0 1
-0.195784 17.357932 31.772400 36.205270 -1.559518 0.500041 0.076862 -0.006683 -42129.500000 0 0 1
-1.300084 17.322832 30.906563 35.454004 -1.495886 0.512060 0.067377 -0.001451 -136299.000000 0 0 1
-1.725984 16.048732 30.504653 34.511950 -1.463662 0.486688 0.050656 -0.001747 -173886.000000 0 0 1
-2.732884 16.073332 29.355623 33.579358 -1.402381 0.506977 0.047837 -0.001223 -147656.000000 0 0 1
-3.978284 16.659932 29.658183 34.248911 -1.336392 0.523730 0.031896 -0.004478 -125084.000000 0 0 1
-4.066884 17.931432 29.067803 34.394956 -1.347767 0.564010 0.033236 -0.006715 -216659.000000 0 0 1
-5.472484 18.530432 29.280593 35.081022 -1.283635 0.583288 0.028694 -0.016168 -179285.000000 0 0 1
-6.385084 17.941332 28.431133 34.219732 -1.228887 0.590180 0.018414 -0.016106 -601696.000000 0 0 1
-7.681484 18.525332 28.472883 34.826688 -1.177727 0.613637 0.032311 -0.017337 409278.000000 0 0 1
-8.653984 17.721532 27.491043 33.833439 -1.116527 0.622299 0.034178 -0.024658 488605.000000 0 0 1
-9.210384 16.494032 27.846803 33.650092 -1.061521 0.596084 0.046166 -0.036173 96626.500000 0 0 1
-9.767584 16.438532 29.170313 34.878908 -1.034661 0.580240 0.046616 -0.032404 -760351.000000 0 0 1
-10.326184 15.068632 29.513503 34.709374 -0.970020 0.554235 0.036071 -0.033993 210431.000000 0 0 1
-9.416584 13.953932 29.654353 34.099339 -0.977161 0.516312 0.042345 -0.023048 240336.000000 0 0 1
-8.691284 13.926432 30.855033 34.950208 -1.012855 0.488946 0.040767 -0.024268 -488502.000000 0 0 1
-9.499484 13.334632 32.073318 36.010420 -0.951802 0.471985 0.093096 -0.030663 -113397.000000 0 0 1
-9.875984 11.971832 32.083985 35.640454 -0.881035 0.450539 0.106885 -0.020104 383979.000000 0 0 1
-10.341884 11.690132 33.391268 36.859063 -0.846517 0.437255 0.094067 -0.015987 39115.400000 0 0 1
-11.016484 10.295332 33.563761 36.795147 -0.751573 0.422226 0.100394 -0.016170 -360922.000000 0 0 1
-10.011284 9.346632 33.724022 36.399107 -0.751077 0.385776 0.090785 -0.015893 15231.400000 0 0 1
-9.971184 8.679232 -32.843280 35.403878 -0.716237 2.758932 0.128191 -0.037550 -414522.000000 0 0 1
-9.142884 9.369032 -31.733120 34.327277 -0.797614 2.750331 0.105168 -0.041738 -152631.000000 0 0 1
-9.717184 10.579732 -31.210760 34.357909 -0.827869 2.710240 0.101217 -0.034406 519563.000000 0 0 1
-8.748184 11.253932 -30.430860 33.603853 -0.910023 2.703533 0.100965 -0.041113 230919.000000 0 0 1
-7.784184 12.244032 -31.151770 34.364845 -1.004502 2.705718 0.075562 -0.044563 -12797.000000 0 0 1
-8.289484 13.517532 -31.468350 35.237711 -1.020699 2.674832 0.076023 -0.035446 -82091.800000 0 0 1
-7.255784 14.362932 -31.892590 35.722227 -1.103018 2.674306 0.053911 -0.028086 -69532.900000 0 0 1
-7.786084 15.792532 -32.186200 36.687581 -1.112746 2.641014 0.051201 -0.021535 -81006.000000 0 0 1
-8.717484 15.811432 -33.229980 37.818348 -1.066924 2.643873 0.054066 -0.018559 -161666.000000 0 0 1
-9.009884 17.177932 -33.600520 38.797607 -1.087739 2.618035 0.066011 -0.021052 -1665930.000000 0 0 1
-9.410684 17.361332 32.730822 38.226738 -1.074078 0.542872 0.043904 -0.023429 1080240.000000 0 0 1
-10.670884 16.762632 32.370437 37.982875 -1.003908 0.550549 0.041498 -0.028981 809086.000000 0 0 1
-11.814684 17.183432 33.096654 39.118354 -0.968467 0.562237 0.063873 -0.036259 -1927700.000000 0 0 1
-13.029884 17.145632 32.195300 38.733551 -0.920955 0.589535 0.083211 -0.042089 -840427.000000 0 0 1
-13.332084 15.860432 31.619103 37.802982 -0.871792 0.580081 0.081919 -0.029577 400811.000000 0 0 1
-13.989184 14.937132 32.493579 38.401144 -0.818158 0.562055 0.076626 -0.022082 -359202.000000 0 0 1
-13.615684 13.586932 32.176138 37.487270 -0.784341 0.538806 0.067069 -0.008143 89552.300000 0 0 1
-14.185084 13.089632 30.955503 36.480108 -0.745256 0.557542 0.060983 -0.015523 388050.000000 0 0 1
-13.361684 12.004432 30.559323 35.447330 -0.731943 0.531387 0.071519 -0.012879 56855.200000 0 0 1
-13.597384 11.285432 29.190993 34.122777 -0.692751 0.544340 0.070965 -0.015602 -133102.000000 0 0 1
-14.663984 10.337632 29.125383 34.207996 -0.614052 0.552109 0.064627 -0.012089 310034.000000 0 0 1
-14.778284 9.686232 27.864953 32.995096 -0.580188 0.565132 0.057774 -0.005959 55487.200000 0 0 1
-15.654884 8.433932 27.955243 33.131590 -0.494158 0.566538 0.062042 -0.011992 280477.000000 0 0 1
-15.001284 7.409632 28.683123 33.206366 -0.458782 0.528065 0.039314 -0.015243 124257.000000 0 0 1
-15.671884 6.196632 28.364713 32.993380 -0.376533 0.536096 0.042496 -0.011012 95695.500000 0 0 1
-14.885684 4.813532 28.498173 32.509992 -0.312754 0.502051 0.041894 -0.012839 1070230.000000 0 0 1
-13.783584 4.668332 27.554233 31.161134 -0.326562 0.485911 0.041365 -0.015797 926420.000000 0 0 1
-14.216584 4.612032 26.200883 30.164025 -0.313700 0.518399 0.046536 -0.011941 -550110.000000 0 0 1
-13.128784 4.225132 25.191853 28.720135 -0.311355 0.500902 0.038995 -0.010446 -520979.000000 0 0 1
-12.477284 2.988232 25.384893 28.443012 -0.235066 0.467977 0.038714 -0.010019 607645.000000 0 0 1
-11.670084 2.605132 24.254483 27.041774 -0.219631 0.458027 0.038815 -0.006634 -224280.000000 0 0 1
-10.539284 1.634832 24.549803 26.766435 -0.153891 0.409836 0.041876 0.002729 -526384.000000 0 0 1
-9.373984 1.804132 23.773663 25.618617 -0.190137 0.381831 0.041830 -0.025269 480496.000000 0 0 1
-8.386784 0.887132 24.272283 25.695698 -0.105386 0.334407 0.040437 -0.018652 715427.000000 0 0 1
-6.901184 1.357232 24.275653 25.274013 -0.194188 0.282008 0.050391 -0.022375 -237139.000000 0 0 1
-6.448284 1.398832 22.938963 23.869083 -0.213621 0.280083 0.045097 -0.019146 -303465.000000 0 1 0
-5.096184 1.753032 22.788803 23.417382 -0.331310 0.232221 0.049766 -0.020086 -45888.700000 0 1 0
-4.587784 3.177232 23.174103 23.836561 -0.605703 0.236311 0.066154 -0.026886 -623897.000000 0 1 0
-4.659584 3.339032 24.588763 25.248131 -0.621777 0.229041 0.080066 -0.031130 -1737.190000 0 0 1
-4.270784 4.659032 24.930653 25.719324 -0.828849 0.248284 0.074042 -0.037400 99299.000000 0 0 1
4.986716 -23.701068 12.951750 27.465538 -1.363421 1.079733 0.127028 -0.035699 40911.300000 0 0 1
4.302816 -24.782468 13.548550 28.570057 -1.398887 1.076716 0.148922 -0.050012 -445863.000000 0 0 1
2.926716 -24.623668 13.249850 28.114929 -1.452493 1.080061 0.156051 -0.048239 125087.000000 0 0 1
2.195116 -25.849808 13.923750 29.443198 -1.486081 1.078215 0.141570 -0.050833 -102382.000000 0 0 1
2.247816 -25.781868 15.315150 30.071768 -1.483830 1.036441 0.158825 -0.051239 -126794.000000 0 0 1
2.076616 -27.084298 15.830450 31.440017 -1.494274 1.043137 0.157068 -0.047747 -95332.200000 0 0 1
2.079816 -27.139348 17.342150 32.274138 -1.494311 1.003518 0.144049 -0.036276 872053.000000 0 0 1
3.266316 -26.612848 17.985950 32.286327 -1.448673 0.979935 0.159538 -0.044697 922812.000000 0 0 1
3.219116 -27.010058 19.342950 33.377472 -1.452174 0.952655 0.144599 -0.043112 -164377.000000 0 0 1
3.993916 -26.134348 20.268950 33.313448 -1.419147 0.916714 0.120577 -0.041222 -20611.800000 0 0 1
3.215916 -24.969868 20.589350 32.523188 -1.442710 0.885288 0.131943 -0.038849 643478.000000 0 0 1
3.889416 -24.266368 21.625450 32.735978 -1.411868 0.849176 0.103916 -0.028723 39412.900000 0 0 1
3.035016 -23.223768 22.394050 32.404447 -1.440847 0.807815 0.121915 -0.035621 -556492.000000 0 0 1
2.703416 -22.124668 21.636650 31.063709 -1.449209 0.800253 0.140148 -0.038152 -387915.000000 0 0 1
3.758916 -21.374568 21.109250 30.275436 -1.396717 0.799256 0.129198 -0.025945 -351293.000000 0 0 1
3.283816 -20.258668 20.147850 28.759919 -1.410100 0.794624 0.099284 -0.008727 104386.000000 0 0 1
2.776616 -19.108668 20.782750 28.368530 -1.426500 0.748664 0.064354 -0.011999 -171098.000000 0 0 1
2.104916 -18.260668 19.926450 27.109889 -1.456032 0.745093 0.038157 -0.013231 -211138.000000 0 0 1
1.618516 -16.947068 20.519250 26.662002 -1.475581 0.692572 0.051578 -0.018043 -594287.000000 0 0 1
2.567816 -16.001668 20.788550 26.359266 -1.411681 0.662167 0.025746 0.005760 -805311.000000 0 0 1
1.947316 -14.800968 21.198250 25.927331 -1.439981 0.613562 0.028485 0.004193 -59508.500000 0 0 1
2.837516 -13.593268 21.101650 25.260801 -1.365007 0.582024 0.000083 0.022701 -1228830.000000 0 0 1
3.264016 -13.257968 19.758450 24.017158 -1.329404 0.604686 -0.017544 0.011753 -174537.000000 0 1 0
2.241316 -12.828768 18.872150 22.929432 -1.397832 0.604030 -0.013113 0.011630 254260.000000 0 1 0
1.435916 -11.547568 19.268550 22.509669 -1.447083 0.543291 -0.011159 0.001362 -101651.000000 0 1 0
2.116716 -10.285468 19.213550 21.895932 -1.367833 0.500185 -0.003641 0.009062 -290045.000000 0 1 0
1.642416 -9.331068 20.160250 22.275593 -1.396565 0.439328 0.000578 -0.006280 20664.200000 0 1 0
0.187016 -8.809168 20.028750 21.881208 -1.549570 0.414444 0.020012 -0.024586 166248.000000 0 1 0
-0.143984 -7.845568 20.944950 22.366596 1.552446 0.358458 0.032649 -0.034819 -1046300.000000 0 1 0
-1.499084 -7.592968 20.793850 22.187488 1.375873 0.356316 0.037772 -0.038583 -727741.000000 0 1 0
-2.174984 -6.877368 22.004250 23.156334 1.264497 0.316766 0.036887 -0.036721 154329.000000 0 1 0
-2.475184 -7.644368 23.194750 24.547084 1.257658 0.333481 0.038852 -0.023025 42526.000000 0 1 0
-2.555084 -6.816268 24.329750 25.395407 1.212156 0.290721 0.039518 -0.021098 -203809.000000 0 0 1
-2.629884 -7.680668 25.635550 26.890340 1.240905 0.306694 0.033792 -0.018232 1301390.000000 0 0 1
-1.384884 -8.405468 25.889250 27.254781 1.407503 0.317888 0.023640 -0.020548 993310.000000 0 0 1
-1.532684 -9.430968 26.864250 28.512808 1.409689 0.341713 0.027205 -0.025446 233207.000000 0 0 1
-0.407184 -10.516568 26.996650 28.975561 1.532097 0.371720 0.032453 -0.025253 -239333.000000 0 0 1
0.804516 -10.037768 27.488850 29.275261 -1.490818 0.351147 0.038883 -0.020482 -1212170.000000 0 0 1
1.617516 -11.151068 27.611850 29.822424 -1.426746 0.387450 0.051548 -0.034799 -871009.000000 0 0 1
2.852316 -10.778368 28.425350 30.533743 -1.312093 0.373794 0.087177 -0.037642 -539705.000000 0 0 1
2.464816 -10.269668 29.717650 31.538550 -1.335243 0.341467 0.085320 -0.053202 140844.000000 0 0 1
3.525716 -10.150768 30.654450 32.483289 -1.236498 0.337157 0.121430 -0.039038 -56448.000000 0 0 1
2.986516 -9.669568 32.011050 33.572715 -1.271234 0.306206 0.124825 -0.049026 -237230.000000 0 0 1
2.166216 -10.607568 32.633650 34.382672 -1.369352 0.320333 0.124247 -0.050282 -116442.000000 0 0 1
1.800716 -10.214668 -33.852472 35.405817 -1.396302 2.844281 0.110598 -0.057072 -245391.000000 0 0 1
2.838016 -10.616968 -32.764672 34.558618 -1.309594 2.817970 0.103297 -0.033848 532926.000000 0 0 1
4.110016 -9.987668 -32.953272 34.678003 -1.180408 2.824880 0.091695 -0.044614 714474.000000 0 0 1
4.590416 -9.176868 -31.850772 33.462793 -1.106976 2.829935 0.107176 -0.042557 -513861.000000 0 0 1
3.774816 -7.957068 -31.409672 32.621031 -1.127839 2.868220 0.095578 -0.025314 -393295.000000 0 0 1
3.809416 -6.869168 -32.324372 33.265029 -1.064453 2.903215 0.135426 -0.042795 112511.000000 0 0 1
3.139516 -5.768268 -31.788972 32.460256 -1.072360 2.937868 0.106980 -0.017918 -59181.700000 0 0 1
3.139616 -4.566868 -32.712972 33.179090 -0.968525 2.973774 0.111109 -0.023281 46986.800000 0 0 1
2.394816 -4.654168 33.897250 34.298980 -1.095574 0.153203 0.107041 -0.035331 -186882.000000 0 0 1
2.432016 -3.359968 33.220050 33.477990 -0.944261 0.124215 0.126110 -0.023206 320318.000000 0 0 1
1.624916 -3.269868 31.894650 32.102977 -1.109603 0.113985 0.131653 -0.027408 -4099.590000 0 0 1
0.231016 -3.239168 32.055450 32.219520 -1.499597 0.100961 0.126111 -0.029677 -427256.000000 0 0 1
-0.344184 -3.344068 30.731350 30.914675 1.468234 0.108958 0.123196 -0.036106 -414272.000000 0 0 1
-1.838684 -3.594968 30.670950 30.935607 1.098022 0.130899 0.103334 -0.033781 -444788.000000 0 0 1
-2.592884 -2.406668 30.504250 30.708702 0.748169 0.115457 0.092878 -0.035903 -111864.000000 0 0 1
-3.976484 -2.672068 30.436450 30.811197 0.591663 0.156124 0.073901 -0.033521 232192.000000 0 0 1
-4.838884 -1.521168 29.849250 30.277161 0.304582 0.168324 0.062277 -0.022867 -195317.000000 0 0 1
-4.721184 -1.558668 28.467550 28.898451 0.318877 0.172905 0.059810 -0.025937 191188.000000 0 0 1
-5.774084 -0.961068 27.713050 28.324492 0.164933 0.208159 0.042553 -0.026158 307556.000000 0 0 1
-5.899284 0.567532 27.901350 28.523832 -0.095908 0.209299 0.073643 -0.026301 -87141.300000 0 0 1
-6.736984 0.878232 29.002950 29.788074 -0.129629 0.230103 0.070102 -0.027747 -291567.000000 0 0 1
-7.089284 2.219832 29.101250 30.034453 -0.303454 0.249933 0.091707 -0.033367 4712.230000 0 0 1
-8.462784 2.386732 29.791350 31.061870 -0.274887 0.287001 0.070372 -0.030121 -199163.000000 0 0 1
-9.527684 1.976032 28.984850 30.574549 -0.204500 0.323886 0.052986 -0.020349 711478.000000 0 0 1
-10.749784 2.715932 29.312650 31.339522 -0.247471 0.361619 0.037308 -0.018981 910926.000000 0 0 1
-11.907384 2.250832 28.421950 30.897562 -0.186824 0.403030 0.027752 -0.012541 -556050.000000 0 0 1
-12.274484 0.932432 28.703750 31.231998 -0.075819 0.405134 0.025678 -0.009134 6810.880000 0 0 1
-12.671484 0.267232 27.529050 30.306543 -0.021086 0.431467 0.025555 -0.004226 -957270.000000 0 0 1
-12.899084 -1.260468 27.684050 30.567659 0.097408 0.437851 0.026383 -0.010070 342390.000000 0 0 1
-11.726184 -1.993068 28.037250 30.455921 0.168358 0.401222 0.042689 -0.014688 955197.000000 0 0 1
-10.563884 -1.893868 27.200250 29.240999 0.177393 0.375813 0.021463 -0.013858 -97470.300000 0 0 1
-10.567784 -2.558468 25.793850 27.991901 0.237530 0.398934 0.037229 -0.003359 -335084.000000 0 0 1
-11.284584 -1.807168 24.789150 27.296697 0.158796 0.431983 0.021948 -0.005041 516931.000000 0 0 1
-11.259484 -2.431768 23.531650 26.199772 0.212708 0.455224 0.024899 0.001833 -461152.000000 0 0 1
-10.061184 -2.129668 22.635550 24.862241 0.208593 0.426453 0.039475 -0.005140 1327170.000000 0 1 0
-8.751284 -2.588868 23.086050 24.824442 0.287624 0.376458 0.048209 -0.010624 1006620.000000 0 1 0
-7.766684 -2.252768 22.161250 23.590620 0.282308 0.349893 0.039444 -0.013224 345389.000000 0 1 0
-6.257084 -2.323068 22.581850 23.547563 0.355497 0.287383 0.051305 -0.018520 1063360.000000 0 1 0
-5.621684 -3.595768 22.420250 23.392317 0.569047 0.289296 0.051870 -0.023141 91207.300000 0 1 0
-6.047184 -4.559668 23.347550 24.545206 0.646066 0.313675 0.049203 -0.018057 -337539.000000 0 1 0
-5.878984 -6.096268 23.114450 24.617164 0.803541 0.351211 0.062176 -0.017162 -203681.000000 0 1 0
-6.559884 -6.609868 21.949050 23.842887 0.789193 0.401259 0.060643 -0.024473 244683.000000 0 1 0
-6.103284 -6.116868 20.714350 22.444386 0.786510 0.395201 0.051764 -0.028505 -682070.000000 0 1 0
-7.213284 -6.116168 19.685550 21.839411 0.703276 0.447857 0.051757 -0.025367 -193900.000000 0 1 0
-8.230384 -5.165968 19.954750 22.195011 0.560517 0.453168 0.048065 -0.020597 -432897.000000 0 1 0
-9.087084 -5.055668 18.872350 21.547633 0.507711 0.503616 0.043457 -0.021167 -221861.000000 0 1 0
-9.869684 -3.750668 18.946950 21.690208 0.363164 0.508398 0.036918 -0.019944 92025.000000 0 1 0
-8.972684 -2.684768 18.759850 20.967809 0.290737 0.463042 0.036571 -0.016400 489870.000000 0 1 0
-9.653784 -1.454468 18.982450 21.345830 0.149538 0.475025 0.034245 -0.012722 739435.000000 0 1 0
-8.664184 -0.377668 18.419450 20.358951 0.043562 0.440040 0.027844 -0.009215 889058.000000 0 1 0
-7.614984 0.019632 19.304050 20.751740 -0.002578 0.375736 0.030295 -0.001246 524601.000000 0 1 0
-8.008384 0.983832 20.301250 21.845890 -0.122238 0.378300 0.050191 -0.003683 -148979.000000 0 1 0
-7.743484 2.431932 19.916250 21.506577 -0.304307 0.386978 0.042044 -0.017141 -257829.000000 0 1 0
-8.685584 2.902832 18.972150 21.066758 -0.322542 0.449711 0.035640 -0.023959 30640.600000 0 1 0
-8.463884 4.260832 18.613050 20.886303 -0.466375 0.470899 0.029019 -0.019656 -159982.000000 0 1 0
-9.425084 4.729632 17.480150 20.414634 -0.465097 0.542819 0.032289 -0.010371 -279764.000000 0 1 0
-10.706684 5.048332 17.974750 21.522323 -0.440599 0.582359 0.033041 -0.004250 176963.000000 0 1 0
-11.475384 5.832332 17.013550 21.334513 -0.470224 0.647712 0.026307 0.010673 258027.000000 0 1 0
-11.204984 7.365032 16.859550 21.541583 -0.581490 0.671882 0.021473 0.006328 -182065.000000 0 1 0
-9.869584 7.626332 16.470750 20.660476 -0.657878 0.648136 0.009123 -0.002776 129804.000000 0 1 0
-9.682584 8.966432 16.141950 20.849746 -0.747015 0.685340 -0.010340 -0.012716 279774.000000 0 1 0
-8.600084 9.736432 16.960250 21.363746 -0.847291 0.653633 0.000489 0.002308 172132.000000 0 1 0
-8.979284 9.956132 18.296750 22.683104 -0.836941 0.632377 0.037389 0.020176 -208171.000000 0 1 0
-8.612084 11.237832 18.791650 23.528344 -0.916915 0.645696 0.059433 0.018669 -15662.100000 0 1 0
-9.197284 12.513632 18.133650 23.874889 -0.936977 0.708209 0.059293 0.009153 142351.000000 0 1 0
-8.612784 12.782532 16.877550 22.856616 -0.977876 0.740087 0.025012 -0.005430 162729.000000 0 1 0
-9.386584 13.790132 16.178650 23.238426 -0.973159 0.800703 0.038680 -0.022509 306344.000000 0 1 0
-9.002984 14.076332 14.713550 22.263994 -1.001779 0.848822 0.027303 -0.024700 745952.000000 0 1 0
-7.892284 14.996932 14.604850 22.371808 -1.086362 0.859490 0.032713 -0.008993 613335.000000 0 1 0
-7.435784 15.116832 13.256350 21.436892 -1.113660 0.904104 0.023260 -0.028051 -12154.400000 0 1 0
-6.337484 16.180232 12.984450 21.692385 -1.197482 0.929079 0.000652 -0.024311 -305743.000000 0 1 0
-5.132184 15.894832 13.597050 21.537520 -1.258480 0.887543 0.010019 -0.024831 -716746.000000 0 1 0
-4.319184 17.089532 13.674350 22.309086 -1.323242 0.911008 0.011395 -0.022595 686024.000000 0 1 0
-2.792884 16.853832 13.800750 21.961616 -1.406577 0.891298 0.014613 -0.021254 200679.000000 0 1 0
-2.246684 16.377632 15.022250 22.337019 -1.434467 0.833178 0.028497 -0.021205 -240329.000000 0 1 0
-2.512884 15.053032 15.392750 21.675911 -1.405386 0.781111 0.026726 -0.013273 -1331400.000000 0 1 0
-1.512984 14.376032 16.250250 21.749254 -1.465939 0.727012 0.034714 -0.007766 -632809.000000 0 1 0
-0.260884 14.182232 15.626350 21.104184 -1.552403 0.737074 0.029639 -0.019375 5522.470000 0 1 0
0.781616 13.768232 16.492150 21.498050 1.514088 0.696416 0.035863 -0.004194 929529.000000 0 1 0
1.768516 14.855332 17.094750 22.716493 1.452305 0.718907 0.040112 -0.014974 160562.000000 0 1 0
1.065816 15.684832 17.939750 23.853398 1.502949 0.719578 0.038907 -0.024169 -459476.000000 0 1 0
1.830916 16.756032 18.361950 24.925451 1.461959 0.742656 0.060358 -0.027604 11854.300000 0 1 0
0.872816 17.819432 19.023450 26.080369 1.521854 0.753328 0.067582 -0.028468 652387.000000 0 0 1
0.302716 18.814132 18.209150 26.184659 1.554708 0.801802 0.054384 -0.026354 571838.000000 0 0 1
-0.839084 18.393032 17.435050 25.357222 -1.525208 0.812649 0.055167 -0.021962 89870.900000 0 0 1
-1.465484 19.410332 16.506150 25.521788 -1.495439 0.867484 0.047817 -0.016491 307670.000000 0 0 1
-2.318684 20.300432 17.272450 26.754839 -1.457071 0.869011 0.049372 -0.015582 592763.000000 0 0 1
-2.965284 21.293232 16.457250 27.074633 -1.432427 0.917449 0.076269 -0.024460 -325696.000000 0 0 1
-3.787984 22.309932 17.231450 28.443009 -1.402611 0.919995 0.069045 -0.017299 -298232.000000 0 0 1
-4.931984 21.726432 17.804250 28.519356 -1.347575 0.896578 0.083415 -0.017260 -460879.000000 0 0 1
-5.445284 22.533232 18.787850 29.839253 -1.333686 0.889712 0.091557 -0.016070 708213.000000 0 0 1
-6.703384 21.949532 19.533650 30.137698 -1.274393 0.865648 0.074576 -0.019845 174596.000000 0 0 1
-7.992184 22.076032 19.040250 30.228419 -1.223445 0.889399 0.055718 -0.013607 -785499.000000 0 0 1
-8.938384 21.646732 19.987250 30.789055 -1.179201 0.864307 0.021830 -0.014633 116391.000000 0 0 1
-10.374384 22.077632 19.596450 31.290103 -1.131513 0.894021 0.029303 -0.016865 -43019.300000 0 0 1
-10.537984 23.490532 19.663850 32.396315 -1.149103 0.918544 0.046502 -0.020356 -178318.000000 0 0 1
-11.672584 23.879032 18.939350 32.636734 -1.116131 0.951690 0.023383 -0.021379 -279867.000000 0 0 1
-12.110484 25.295432 19.224450 34.001503 -1.124283 0.969878 0.031063 -0.024481 -124147.000000 0 0 1
-12.636484 25.358732 20.525950 34.986578 -1.108502 0.943842 0.028105 -0.020979 159773.000000 0 0 1
-13.265284 26.641632 20.721850 36.264851 -1.108818 0.962582 0.036475 -0.027052 -309003.000000 0 0 1
-14.125284 26.797232 21.972150 37.421794 -1.085691 0.943265 0.064668 -0.040810 -428170.000000 0 0 1
-15.442484 26.355532 21.747850 37.497378 -1.040787 0.952088 0.063821 -0.045188 161656.000000 0 0 1
-16.298484 26.644832 22.875450 38.715293 -1.021823 0.938668 0.050659 -0.031536 1127520.000000 0 0 1
-17.764884 26.123932 22.683250 38.891912 -0.973604 0.948087 0.065161 -0.034754 561517.000000 0 0 1
-17.945384 24.665532 22.837450 38.104782 -0.941819 0.928129 0.083270 -0.037143 634463.000000 0 0 1
-19.331984 24.281832 22.910150 38.577299 -0.898407 0.934928 0.093204 -0.028787 963657.000000 0 0 1
28.471916 24.017832 23.475343 44.029513 0.700745 1.008450 0.122975 -0.037208 -60505.000000 0 0 1
28.305916 22.958632 24.388303 43.853312 0.681466 0.981070 0.118372 -0.045222 155917.000000 0 0 1
27.741716 21.774532 23.835603 42.566055 0.665467 0.976450 0.117540 -0.028991 -189337.000000 0 0 1
27.215216 20.785332 24.909953 42.346237 0.652236 0.941910 0.125294 -0.028490 439031.000000 0 0 1
26.002716 21.237132 25.529293 42.177030 0.684858 0.920667 0.128126 -0.034072 551200.000000 0 0 1
25.713816 20.469432 26.646703 42.311284 0.672327 0.889529 0.133666 -0.038965 321160.000000 0 0 1
24.322716 20.801432 27.265743 42.044201 0.707521 0.865182 0.158529 -0.046627 84434.200000 0 0 1
24.322316 22.085832 27.852853 43.071342 0.737244 0.867588 0.148187 -0.052985 -316606.000000 0 0 1
23.374716 22.184032 28.861103 43.260512 0.759269 0.840425 0.186500 -0.054141 -544092.000000 0 0 1
23.246416 23.636232 29.438203 44.335935 0.793713 0.844667 0.172949 -0.054645 19017.900000 0 0 1
22.674816 24.592132 28.514263 43.954334 0.825940 0.864889 0.139747 -0.050776 89159.000000 0 0 1
22.455416 25.862332 29.138053 44.968123 0.855792 0.865878 0.142066 -0.056485 -77475.700000 0 0 1
21.088416 26.081032 29.836053 44.890217 0.890850 0.843778 0.145548 -0.049589 -432056.000000 0 0 1
20.055416 26.338832 28.896783 43.942893 0.920014 0.853170 0.139972 -0.050859 166938.000000 0 0 1
18.791116 26.596832 29.461643 43.914530 0.955710 0.835393 0.130491 -0.045776 -5278.760000 0 0 1
17.924016 25.435032 29.896853 43.151281 0.956924 0.805379 0.114263 -0.030728 -865969.000000 0 0 1
18.230916 24.986032 31.160663 43.905069 0.940451 0.781684 0.122093 -0.036734 179311.000000 0 0 1
17.176316 24.278832 31.792167 43.534233 0.955081 0.752065 0.098518 -0.021597 291626.000000 0 0 1
17.634116 23.808532 33.226624 44.517601 0.933297 0.728205 0.119952 -0.024972 194388.000000 0 0 1
17.670716 24.917132 -33.634360 45.435535 0.953936 2.404262 0.097295 -0.029921 60847.300000 0 0 1
17.934116 24.417932 -32.348290 44.320196 0.937312 2.388938 0.070327 -0.018543 -88579.500000 0 0 1
18.354616 25.535432 -31.381450 44.426857 0.947571 2.355142 0.047864 0.004787 -175952.000000 0 0 1
17.365316 26.519932 -31.121130 44.422806 0.991052 2.346987 0.058582 -0.014109 229523.000000 0 0 1
17.888516 27.754732 -30.643660 45.048397 0.998282 2.318884 0.058328 -0.009498 -226545.000000 0 0 1
17.403616 28.006532 -29.241520 44.071739 1.014781 2.296281 0.066016 -0.004660 -326370.000000 0 0 1
18.016916 27.243832 -28.245720 43.181667 0.986504 2.283807 0.032866 0.000894 115975.000000 0 0 1
17.366116 27.589032 -26.999390 42.328521 1.008998 2.262504 0.034211 0.002693 17271.700000 0 0 1
17.842116 26.793532 -25.782730 41.242983 0.983317 2.246110 0.023733 0.005133 -814955.000000 0 0 1
19.205116 26.986232 -25.615300 41.871670 0.952285 2.229076 0.034337 0.002013 -1117090.000000 0 0 1
19.663916 26.476632 -24.382750 41.014633 0.931990 2.207426 0.024465 0.006324 1398830.000000 0 0 1
21.248016 26.479132 -24.398150 41.807802 0.894567 2.193925 0.024077 0.005493 1661450.000000 0 0 1
21.984016 26.314232 -23.172050 41.384534 0.874815 2.165086 0.042251 0.002226 -285492.000000 0 0 1
23.366516 26.248832 -23.345650 42.190220 0.843426 2.157168 0.054303 0.003160 -687935.000000 0 0 1
24.120716 26.190632 -22.071050 41.891400 0.826517 2.125702 0.072741 -0.001529 -298934.000000 0 0 1
24.021416 24.938332 -21.427850 40.719794 0.804124 2.124954 0.096049 -0.007209 431476.000000 0 0 1
24.846016 24.947932 -20.235550 40.610360 0.787445 2.092416 0.106492 -0.008200 321825.000000 0 0 1
24.405916 24.039232 -19.091850 39.217753 0.777829 2.079238 0.102763 -0.011567 -493652.000000 0 0 1
24.498716 22.630732 -19.344550 38.555787 0.745784 2.096393 0.101535 -0.005067 188344.000000 0 0 1
24.116716 21.894432 -18.230950 37.327599 0.737137 2.081056 0.094917 -0.005375 -639102.000000 0 0 1
24.291216 20.347932 -18.360950 36.622752 0.697290 2.095959 0.119047 -0.009002 198516.000000 0 0 1
23.590816 19.675432 -19.393950 36.328701 0.695149 2.133939 0.111368 -0.015134 698698.000000 0 0 1
22.163016 19.747132 -19.313750 35.414255 0.727818 2.147623 0.104549 -0.025044 447354.000000 0 0 1
21.400316 19.621832 -20.655250 35.631856 0.742071 2.189138 0.080969 -0.009230 62061.600000 0 0 1
21.585016 20.646832 -21.614150 36.869717 0.763187 2.197194 0.075250 -0.005962 -114412.000000 0 0 1
21.295916 21.981032 -21.305950 37.291089 0.801228 2.178936 0.074724 -0.010909 -17332.100000 0 0 1
20.859616 22.658732 -22.647050 38.228662 0.826716 2.204844 0.048230 -0.003023 413742.000000 0 0 1
19.500916 22.398732 -22.963550 37.540825 0.854449 2.228998 0.048039 -0.002708 -159069.000000 0 0 1
19.240916 22.636232 -24.354450 38.415506 0.866299 2.257478 0.042650 -0.002223 280283.000000 0 0 1
17.729216 22.753932 -24.660350 37.949959 0.908885 2.278134 0.032275 -0.007828 437107.000000 0 0 1
17.056016 23.874832 -24.060550 37.945031 0.950476 2.257627 0.029748 -0.009143 673036.000000 0 0 1
15.636216 23.714432 -24.028350 37.205203 0.987873 2.272910 0.037702 -0.011855 702333.000000 0 0 1
14.926816 24.932332 -23.429150 37.327685 1.031338 2.249342 0.034808 -0.007990 -96460.500000 0 0 1
14.888816 26.137632 -24.217850 38.618090 1.053006 2.248636 0.027626 -0.005835 72673.200000 0 0 1
13.932716 27.063032 -23.720550 38.590060 1.095359 2.232777 0.050694 -0.009652 296855.000000 0 0 1
14.116716 28.448532 -24.355850 40.022594 1.110178 2.225031 0.052829 -0.006929 137053.000000 0 0 1
13.971816 28.447232 -25.777150 40.852394 1.114255 2.253615 0.048039 -0.013477 -125253.000000 0 0 1
13.554516 29.660732 -26.350720 41.926655 1.142149 2.250414 0.084545 -0.023188 143525.000000 0 0 1
14.470616 30.949732 -26.180720 43.043173 1.133442 2.224642 0.083246 -0.023049 1907540.000000 0 0 1
15.785716 30.733532 -26.801800 43.727283 1.096303 2.230561 0.053577 -0.010550 1126410.000000 0 0 1
16.513816 31.931932 -27.023190 44.973405 1.093518 2.215386 0.061515 -0.014790 12267.000000 0 0 1
17.904416 31.508332 -27.554580 45.525795 1.054054 2.220879 0.050084 -0.003602 -654389.000000 0 0 1
18.694616 31.075932 -26.543840 44.941936 1.029217 2.202630 0.024676 0.004109 -12911.800000 0 0 1
20.014416 30.735032 -26.996760 45.541674 0.993583 2.205318 0.023137 0.006383 534988.000000 0 0 1
21.007316 30.352032 -25.877920 45.080150 0.965377 2.182231 0.022798 0.008779 -390808.000000 0 0 1
21.405216 31.316132 -24.904950 45.377747 0.971216 2.151768 0.033837 0.006552 561067.000000 0 0 1
22.280716 32.354932 -25.357930 46.757850 0.967739 2.143998 0.032629 -0.002436 268485.000000 0 0 1
23.772216 32.036632 -25.637630 47.421009 0.932414 2.141992 0.022801 0.010789 -265549.000000 0 0 1
23.925716 31.478632 -26.907960 47.826587 0.920887 2.168342 0.019712 0.017384 1057510.000000 0 0 1
25.214016 31.615732 -27.555150 48.934522 0.897573 2.168932 0.013791 0.023770 115809.000000 0 0 1
25.216216 31.007932 -28.988830 49.373086 0.888047 2.198315 0.015559 0.023625 246751.000000 0 0 1
24.220016 31.372432 -29.953460 49.679457 0.913353 2.217971 0.028025 0.015508 726853.000000 0 0 1
22.927416 30.827232 -29.769320 48.602439 0.931314 2.230024 0.014137 0.008505 425442.000000 0 0 1
21.702616 31.375232 -30.561680 48.881745 0.965655 2.246205 0.016725 0.013374 -129304.000000 0 0 1
21.365816 32.683732 -30.128540 49.319908 0.991815 2.227968 0.036011 0.010983 383136.000000 0 0 1
20.523016 33.393332 -31.055640 50.007615 1.019722 2.240837 0.050187 0.000750 677135.000000 0 0 1
18.974216 33.209232 -30.931240 49.189588 1.051707 2.250827 0.053582 -0.009893 355492.000000 0 0 1
18.505516 31.855532 -31.169010 48.256981 1.044524 2.272993 0.078295 -0.018556 179221.000000 0 0 1
18.695016 31.237932 -32.475990 48.785264 1.031501 2.299218 0.093242 -0.024444 -418011.000000 0 0 1
17.997616 31.954532 -33.714000 49.816062 1.057856 2.314162 0.117562 -0.034217 -89179.200000 0 0 1
18.663616 33.167332 33.683251 50.822868 1.058247 0.846301 0.102188 -0.022073 476058.000000 0 0 1
18.056116 -33.843342 32.540236 50.301711 -1.080693 0.867283 0.095608 -0.029820 821139.000000 0 0 1
16.561616 -33.398842 32.621583 49.537233 -1.110455 0.851937 0.108651 -0.029527 -336096.000000 0 0 1
15.626916 33.270732 32.592595 49.126565 1.131690 0.845388 0.123380 -0.030846 -279196.000000 0 0 1
14.267216 33.660332 32.464004 48.892566 1.169893 0.844659 0.105813 -0.034537 479115.000000 0 0 1
13.734116 -33.399942 31.194693 47.720970 -1.180671 0.858347 0.109457 -0.041950 -956213.000000 0 0 1
14.151316 -32.023742 30.991453 46.757352 -1.154698 0.846225 0.116858 -0.033017 324172.000000 0 0 1
13.686216 -31.564142 29.738363 45.475024 -1.161664 0.858003 0.103288 -0.037241 -272954.000000 0 0 1
14.243016 -30.213042 29.290653 44.425598 -1.130273 0.850883 0.101521 -0.033056 -292264.000000 0 0 1
13.926216 -29.179542 30.164383 44.218494 -1.125506 0.820075 0.096759 -0.034245 227139.000000 0 0 1
14.279216 -27.909842 29.666003 43.161638 -1.097896 0.812999 0.122820 -0.046206 -463375.000000 0 0 1
13.845416 -26.804142 30.656643 43.011479 -1.094004 0.777378 0.110895 -0.036746 -515818.000000 0 0 1
12.468016 -26.686542 30.860743 42.661557 -1.133729 0.762103 0.085965 -0.032210 -277029.000000 0 0 1
11.817716 -25.820442 29.926173 41.254448 -1.141567 0.759174 0.077333 -0.039576 -366336.000000 0 0 1
12.087816 -24.255942 30.068253 40.479203 -1.108474 0.733542 0.070011 -0.034449 -425323.000000 0 0 1
11.372916 -23.647842 31.123703 40.709318 -1.122522 0.700477 0.072284 -0.032035 23220.900000 0 0 1
11.972616 -22.513942 31.675153 40.663699 -1.082044 0.677800 0.069556 -0.025065 -147163.000000 0 0 1
11.085516 -21.932942 32.797294 40.982985 -1.102816 0.643057 0.061356 -0.020680 -297876.000000 0 0 1
10.892316 -22.706742 -33.824490 42.170307 -1.123524 2.501587 0.059950 -0.020672 757233.000000 0 0 1
12.086316 -22.881842 -33.048110 41.974221 -1.084840 2.477284 0.078153 -0.015421 671271.000000 0 0 1
12.752916 -21.695842 -32.327660 40.968573 -1.039392 2.480113 0.073314 -0.020254 -38217.800000 0 0 1
13.365716 -20.785142 -33.220770 41.403913 -0.999328 2.502032 0.058448 -0.020023 352901.000000 0 0 1
14.335216 -19.945242 -32.575820 40.798224 -0.947611 2.495532 0.060092 -0.017811 246893.000000 0 0 1
14.618316 -18.787942 -33.549410 41.136903 -0.909572 2.524484 0.048149 -0.015242 -436852.000000 0 0 1
15.233416 -19.224942 33.025631 41.138153 -0.900720 0.638823 0.072867 -0.009583 331067.000000 0 0 1
15.183016 -18.266842 31.896077 39.768847 -0.877331 0.640099 0.052530 -0.005549 -997.067000 0 0 1
15.977516 -16.919042 32.033734 39.594130 -0.814011 0.628258 0.062781 -0.004949 -419174.000000 0 0 1
15.669316 -15.988942 33.073692 39.937987 -0.795494 0.595040 0.052214 -0.003346 140552.000000 0 0 1
16.332616 -14.735742 32.939671 39.609574 -0.734045 0.588798 0.066744 -0.013009 309471.000000 0 0 1
17.797116 -14.607542 33.463571 40.619308 -0.687285 0.602654 0.072515 -0.004666 714888.000000 0 0 1
18.653616 -15.505842 32.756072 40.759646 -0.693508 0.637410 0.089460 -0.010837 -132489.000000 0 0 1
20.002916 -15.428842 33.148401 41.677120 -0.657013 0.651192 0.097074 -0.011943 27384.500000 0 0 1
20.956616 -16.197442 32.217097 41.707053 -0.657999 0.688088 0.122167 -0.025663 -307722.000000 0 0 1
21.059816 -15.607042 30.970683 40.574362 -0.637769 0.702380 0.090285 -0.008808 398679.000000 0 0 1
22.143616 -16.120242 30.219033 40.784702 -0.629263 0.736327 0.093026 -0.016183 -179414.000000 0 0 1
22.458516 -15.372642 28.942053 39.728397 -0.600241 0.754670 0.080292 -0.008050 -12998.800000 0 0 1
23.106816 -14.106442 29.159493 39.789354 -0.548096 0.748300 0.078437 -0.011608 542575.000000 0 0 1
23.566216 -13.486542 27.957613 38.972830 -0.519790 0.770788 0.071446 -0.015690 233946.000000 0 0 1
24.312916 -12.146542 28.327803 39.257111 -0.463321 0.764690 0.056078 -0.006381 -303674.000000 0 0 1
23.467016 -11.137242 28.721133 38.725218 -0.443115 0.735247 0.053501 -0.008488 -399273.000000 0 0 1
24.076316 -9.905142 28.643733 38.707161 -0.390300 0.737709 0.053551 -0.007595 -205459.000000 0 0 1
22.992416 -8.839542 28.452363 37.634102 -0.367034 0.713576 0.060206 -0.007080 197334.000000 0 0 1
22.152816 -8.770942 29.598303 37.996529 -0.376992 0.677769 0.061214 -0.010938 275787.000000 0 0 1
21.133516 -7.776042 29.403773 37.036120 -0.352574 0.653565 0.066409 -0.021729 663582.000000 0 0 1
19.975016 -7.750842 30.438193 37.223117 -0.370142 0.613353 0.062728 -0.011541 97455.300000 0 0 1
20.357116 -7.304942 31.757512 38.422831 -0.344528 0.597887 0.064311 -0.013958 328538.000000 0 0 1
20.924116 -8.326242 32.624799 39.642433 -0.378717 0.604165 0.069497 -0.017476 -327886.000000 0 0 1
21.006816 -7.873442 -33.749150 40.525085 -0.358599 2.554937 0.070533 -0.034748 430879.000000 0 0 1
19.706416 -7.761342 -33.171810 39.356705 -0.375192 2.573354 0.054820 -0.043758 604112.000000 0 0 1
19.845716 -7.289342 -31.854740 38.232334 -0.352003 2.555645 0.060754 -0.046133 7832.990000 0 0 1
18.507216 -6.755642 -31.328810 37.008783 -0.349999 2.580217 0.075749 -0.049661 135668.000000 0 0 1
18.726316 -6.044642 -30.134230 35.990060 -0.312230 2.563110 0.075636 -0.043021 167917.000000 0 0 1
17.446916 -5.714742 -29.660450 34.882595 -0.316537 2.587339 0.096562 -0.036741 91738.300000 0 0 1
17.491316 -4.565742 -28.622670 33.853351 -0.255332 2.578278 0.092340 -0.033486 6237.360000 0 0 1
18.166316 -4.925642 -27.396510 33.239220 -0.264775 2.539624 0.094456 -0.032302 559277.000000 0 0 1
17.503516 -5.867042 -26.512310 32.306312 -0.323423 2.533351 0.092468 -0.030605 217385.000000 0 0 1
16.045216 -5.737242 -26.006380 31.091746 -0.343400 2.561551 0.102386 -0.029905 236917.000000 0 0 1
15.832716 -4.537542 -25.283850 30.175109 -0.279112 2.564228 0.102668 -0.043162 -1059760.000000 0 0 1
14.783216 -4.622242 -24.410450 28.909836 -0.303038 2.576175 0.114190 -0.038609 -737997.000000 0 0 1
14.577216 -3.363342 -23.566550 27.913967 -0.226758 2.575973 0.124020 -0.044515 14744.200000 0 0 1
14.132316 -2.273942 -24.330750 28.229037 -0.159536 2.609811 0.097133 -0.051362 120320.000000 0 0 1
13.719716 -1.225942 -23.451750 27.197759 -0.089120 2.610527 0.095617 -0.042953 61121.300000 0 0 1
14.161916 0.187058 -23.973150 27.844331 0.013208 2.607971 0.092406 -0.041057 -53172.100000 0 0 1
13.352716 0.814058 -24.960550 28.319371 0.060890 2.649603 0.088194 -0.038577 56765.400000 0 0 1
14.028516 1.880058 -25.565690 29.222224 0.133223 2.635967 0.099593 -0.021862 -135031.000000 0 0 1
13.225216 2.471058 -26.757380 29.949455 0.184715 2.675693 0.093514 -0.019453 280416.000000 0 0 1
12.093516 3.242058 -26.379150 29.199719 0.261924 2.698440 0.095944 -0.027078 541200.000000 0 0 1
11.342716 3.657058 -27.498390 29.969863 0.311892 2.732632 0.099209 -0.033857 -44392.500000 0 0 1
10.129016 4.549058 -27.147400 29.330397 0.422115 2.753341 0.092489 -0.035503 -132094.000000 0 0 1
10.457416 5.903058 -26.837380 29.401507 0.513896 2.720858 0.083509 -0.034875 -51042.600000 0 0 1
9.293516 6.671058 -26.861770 29.196355 0.622585 2.738975 0.089596 -0.042695 -335133.000000 0 0 1
8.456716 4.826832 -31.540070 33.008943 0.518649 2.842149 0.084811 -0.045655 -45076.800000 0 0 1
8.623716 4.086932 -30.382300 31.845810 0.442565 2.837249 0.073157 -0.032757 341898.000000 0 0 1
7.670916 3.057332 -30.298430 31.403584 0.379266 2.875509 0.067002 -0.023431 -355394.000000 0 0 1
7.573716 2.433632 -28.902660 29.977449 0.310905 2.873005 0.077800 -0.022484 -208042.000000 0 0 1
8.727416 1.659732 -28.617940 29.965129 0.187930 2.840596 0.108307 -0.033347 633529.000000 0 0 1
8.577416 0.860532 -27.480880 28.801238 0.099991 2.837624 0.093414 -0.026536 578170.000000 0 0 1
9.938516 0.139832 -27.166910 28.928094 0.014069 2.790852 0.106469 -0.041243 572978.000000 0 0 1
10.333016 -0.877468 -27.999100 29.857842 -0.084716 2.786882 0.136122 -0.041236 -472635.000000 0 0 1
11.627216 -1.269868 -27.670070 30.040597 -0.108784 2.741665 0.121379 -0.046397 -493918.000000 0 0 1
12.178916 -2.528668 -28.333260 30.943396 -0.204718 2.727913 0.111396 -0.044841 -191633.000000 0 0 1
11.528116 -3.693468 -27.893520 30.407032 -0.310055 2.732137 0.121634 -0.036667 -271754.000000 0 0 1
12.371516 -4.785468 -27.840710 30.839264 -0.369087 2.696959 0.125571 -0.030672 -157120.000000 0 0 1
11.702716 -5.921768 -27.006480 30.022839 -0.468449 2.689491 0.110215 -0.034301 186747.000000 0 0 1
11.544316 -5.569768 -25.678050 28.699404 -0.449524 2.678610 0.119281 -0.024918 274404.000000 0 0 1
10.994616 -6.644368 -24.894650 28.013796 -0.543597 2.665204 0.115685 -0.026656 55818.600000 0 0 1
11.090816 -6.341168 -23.428650 26.685543 -0.519388 2.642366 0.120572 -0.031144 -513915.000000 0 0 1
12.377316 -6.361668 -22.902850 26.799427 -0.474767 2.595581 0.101053 -0.027687 -482984.000000 0 0 1
12.296216 -6.193668 -21.500950 25.531339 -0.466607 2.572035 0.119084 -0.036874 -148878.000000 0 0 1
13.661516 -6.233168 -20.800650 25.654559 -0.428045 2.516309 0.126644 -0.038481 -29630.300000 0 0 1
14.166316 -4.958868 -20.467550 25.381006 -0.336716 2.508856 0.118987 -0.044643 -938915.000000 0 0 1
15.207716 -5.037368 -19.584450 25.302181 -0.319863 2.455966 0.122366 -0.038759 -802409.000000 0 0 1
15.742716 -3.614368 -19.185850 25.079745 -0.225679 2.441828 0.130274 -0.032521 -311340.000000 0 0 1
16.419416 -3.081368 -20.288350 26.281347 -0.185508 2.452727 0.117323 -0.032499 -56398.700000 0 0 1
16.846716 -1.765468 -20.009250 26.216384 -0.104415 2.439101 0.119379 -0.021387 -14276.600000 0 0 1
17.820216 -1.183468 -21.065150 27.617046 -0.066314 2.438365 0.092831 -0.019435 -182403.000000 0 0 1
19.043516 -1.853768 -21.000450 28.409696 -0.097038 2.402678 0.117214 -0.031698 -166469.000000 0 0 1
20.096016 -1.052668 -21.567650 29.497822 -0.052334 2.390818 0.113066 -0.021840 1232250.000000 0 0 1
21.464916 -1.803168 -21.739450 30.603884 -0.083809 2.360791 0.083954 -0.024540 138697.000000 0 0 1
22.336016 -1.674568 -20.638650 30.457440 -0.074832 2.315321 0.083826 -0.027207 50792.800000 0 0 1
23.618916 -2.232368 -20.716750 31.496355 -0.094236 2.288625 0.079974 -0.024819 178360.000000 0 0 1
24.665416 -1.514468 -21.584150 32.810850 -0.061323 2.288738 0.079887 -0.027569 -948915.000000 0 0 1
24.411416 -1.688468 -22.927450 33.532612 -0.069057 2.323666 0.080485 -0.030360 532393.000000 0 0 1
25.348116 -0.982968 -23.759750 34.756566 -0.038759 2.323486 0.081448 -0.027379 -247542.000000 0 0 1
26.588716 -1.718368 -24.158750 35.966064 -0.064538 2.307310 0.090162 -0.030237 -905860.000000 0 0 1
27.624516 -1.960468 -23.169650 36.108032 -0.070850 2.267478 0.099539 -0.027634 1064570.000000 0 0 1
28.678116 -2.795468 -23.642750 37.272357 -0.097170 2.257930 0.080403 -0.018665 836898.000000 0 0 1
29.776616 -2.040268 -24.473350 38.597337 -0.068412 2.257599 0.082568 -0.017258 -154145.000000 0 0 1
29.238416 -1.556568 -25.723310 38.974306 -0.053187 2.291624 0.081235 -0.026822 766635.000000 0 0 1
30.150616 -0.622368 -26.317640 40.025806 -0.020639 2.288315 0.096654 -0.032776 -50718.900000 0 0 1
29.743716 -0.363068 -27.815600 40.725030 -0.012206 2.322672 0.099646 -0.036027 391694.000000 0 0 1
28.453916 0.201532 -28.029920 39.941737 0.007083 2.348676 0.082120 -0.023310 494236.000000 0 0 1
28.142816 1.478632 -27.475590 39.358766 0.052492 2.343510 0.069497 -0.018739 -946081.000000 0 0 1
26.712716 1.966832 -27.702360 38.533860 0.073496 2.373029 0.080104 -0.022202 -924846.000000 0 0 1
25.773316 1.353232 -26.892940 37.273654 0.052457 2.376762 0.088448 -0.024611 51942.500000 0 0 1
24.512416 1.989232 -27.095420 36.592039 0.080975 2.404570 0.072240 -0.023243 232549.000000 0 0 1
23.386416 1.473732 -26.165630 35.124586 0.062933 2.411238 0.070785 -0.022916 -12700.400000 0 0 1
23.506516 2.024932 -24.853250 34.268654 0.085931 2.382190 0.084151 -0.024061 481794.000000 0 0 1
22.354516 1.779832 -24.070050 32.897712 0.079451 2.391555 0.089191 -0.017564 -133374.000000 0 0 1
22.525516 2.393832 -22.670350 32.047996 0.105875 2.356591 0.082974 -0.012799 -259413.000000 0 0 1
22.437716 3.828632 -22.684250 32.135412 0.169006 2.354483 0.108030 -0.016091 487555.000000 0 0 1
22.563416 4.222732 -21.306550 31.319455 0.185009 2.318965 0.095772 -0.016981 -315230.000000 0 0 1
22.329516 5.707832 -20.977850 31.164993 0.250259 2.309219 0.115457 -0.014262 -184056.000000 0 0 1
23.288116 6.589832 -21.518950 32.385605 0.275760 2.297568 0.092032 -0.011757 130585.000000 0 0 1
23.110616 7.911932 -20.988650 32.205941 0.329844 2.280621 0.082320 -0.012392 -416409.000000 0 0 1
23.257916 8.331032 -19.493550 31.469592 0.343963 2.238827 0.088864 -0.022709 443021.000000 0 0 1
24.639216 8.251532 -19.076650 32.235032 0.323155 2.204085 0.055031 -0.015156 1339980.000000 0 0 1
24.922116 8.557432 -17.696250 31.741121 0.330754 2.162189 0.084463 -0.027404 -94615.900000 0 0 1
24.678216 10.074732 -17.373050 31.817251 0.387593 2.148410 0.085763 -0.035344 202792.000000 0 0 1
23.301416 10.372932 -17.154250 30.737957 0.418824 2.162867 0.093567 -0.047734 468574.000000 0 0 1
23.064616 11.822832 -17.123550 31.063996 0.473674 2.154640 0.079251 -0.042328 260915.000000 0 0 1
21.559416 12.206432 -16.904750 29.992932 0.515178 2.169563 0.077136 -0.051325 657238.000000 0 0 1
20.641716 11.931532 -17.926750 29.829687 0.524108 2.215511 0.092311 -0.057287 175991.000000 0 0 1
20.300516 10.535232 -18.034850 29.126584 0.478703 2.238505 0.102224 -0.055353 -736497.000000 0 0 1
19.425416 10.155732 -19.241750 29.167287 0.481726 2.291220 0.125101 -0.039645 167165.000000 0 0 1
20.182316 10.141832 -20.477250 30.487709 0.465654 2.307238 0.135619 -0.036091 465314.000000 0 0 1
19.455216 9.739432 -21.599450 30.657759 0.464134 2.352563 0.114237 -0.034039 -369138.000000 0 0 1
20.314316 9.835632 -22.866650 32.129344 0.450906 2.362720 0.142361 -0.030051 -141397.000000 0 0 1
20.411916 11.232932 -23.243850 32.910509 0.503083 2.355018 0.121282 -0.032023 5730.310000 0 0 1
21.235316 11.486832 -24.339650 34.282714 0.495853 2.360250 0.146124 -0.028219 -231320.000000 0 0 1
21.192116 12.978732 -24.647650 35.000856 0.549511 2.352094 0.152527 -0.024920 196495.000000 0 0 1
22.027816 13.485832 -25.693560 36.431461 0.549355 2.353583 0.143383 -0.022534 126648.000000 0 0 1
21.880816 14.853132 -25.906800 37.020912 0.596369 2.345897 0.145078 -0.014150 -179767.000000 0 0 1
20.638316 15.381632 -26.637190 37.041525 0.640483 2.373327 0.139331 -0.025600 964306.000000 0 0 1
19.390516 15.187332 -25.948440 35.776650 0.664435 2.382252 0.110488 -0.019105 966704.000000 0 0 1
18.216116 15.447232 -26.711610 35.832303 0.703331 2.412024 0.110351 -0.026357 956816.000000 0 0 1
16.862916 15.089032 -26.025900 34.487451 0.729938 2.425914 0.103787 -0.023951 446033.000000 0 0 1
16.647916 13.722332 -25.736580 33.583136 0.689364 2.443943 0.112998 -0.020076 239382.000000 0 0 1
15.270416 13.385632 -25.680370 32.739000 0.719720 2.472519 0.074656 -0.024307 148358.000000 0 0 1
15.057416 11.894932 -25.426680 31.854846 0.668596 2.495105 0.074164 -0.021829 262420.000000 0 0 1
13.700916 11.475232 -25.338670 31.007164 0.697223 2.527311 0.076488 -0.022096 302571.000000 0 0 1
13.619216 10.042732 -25.096360 30.268247 0.635385 2.548349 0.092668 -0.019641 -46070.800000 0 0 1
12.196516 9.434332 -25.014750 29.385359 0.658389 2.589189 0.108246 -0.040435 336068.000000 0 0 1
11.526016 9.899432 -23.808150 28.243155 0.709625 2.573578 0.127811 -0.047858 -22071.300000 0 0 1
10.251916 9.309532 -23.712050 27.459615 0.737260 2.613013 0.112881 -0.045609 -260658.000000 0 0 1
9.465216 9.976732 -22.570950 26.430537 0.811702 2.594369 0.110538 -0.045271 -246067.000000 0 0 1
9.031916 11.281932 -22.884750 27.066017 0.895711 2.578327 0.114763 -0.044899 -124206.000000 0 0 1
8.246116 11.908432 -21.904950 26.260922 0.965149 2.557345 0.114110 -0.042767 49739.300000 0 0 1
9.038616 12.756432 -20.895150 26.096560 0.954353 2.499236 0.117574 -0.049197 1450460.000000 0 0 1
10.063216 11.935132 -20.178750 25.512696 0.870287 2.483123 0.138942 -0.055851 1018600.000000 0 0 1
10.884216 12.706632 -19.331350 25.566105 0.862496 2.428178 0.159955 -0.057499 -303314.000000 0 0 1
11.961416 11.856532 -18.587450 25.082785 0.780995 2.405420 0.171058 -0.063675 -33105.400000 0 0 1
12.988316 11.395532 -19.417150 25.991926 0.720170 2.414403 0.153679 -0.062795 -161911.000000 0 0 1
12.600216 10.386532 -20.327750 26.074181 0.689392 2.464843 0.152661 -0.059127 -864895.000000 0 0 1
13.814216 9.689532 -20.992150 26.933064 0.611677 2.464535 0.160020 -0.057717 267233.000000 0 0 1
14.669216 9.010732 -20.079250 26.449111 0.550840 2.432826 0.185283 -0.066662 292551.000000 0 0 1
15.537016 8.165032 -20.808350 27.222308 0.483856 2.440885 0.158527 -0.053548 -105979.000000 0 0 1
16.164816 7.090432 -19.907350 26.605978 0.413362 2.416184 0.207758 -0.059118 -343717.000000 0 0 1
17.143116 7.529132 -19.028150 26.695407 0.413830 2.364261 0.168085 -0.046411 -21865.800000 0 0 1
17.667116 6.456232 -18.221950 26.188726 0.350361 2.340321 0.159403 -0.046558 555551.000000 0 0 1
18.760116 6.868932 -17.168850 26.341860 0.350985 2.280713 0.219282 -0.036473 52873.400000 0 0 1
20.067116 7.047932 -17.693950 27.666556 0.337759 2.264700 0.164816 -0.043200 563366.000000 0 0 1
21.038816 7.379932 -16.712050 27.863736 0.337367 2.214020 0.151512 -0.058628 -67411.900000 0 0 1
21.545116 6.207532 -15.907350 27.491258 0.280520 2.187848 0.126776 -0.055265 -1658840.000000 0 0 1
22.736116 5.648532 -16.352950 28.570192 0.243509 2.180199 0.102144 -0.049544 -230002.000000 0 0 1
23.139716 4.580332 -15.547050 28.251312 0.195416 2.153535 0.143713 -0.061803 -310218.000000 0 0 1
24.470216 4.036632 -16.072350 29.553448 0.163489 2.145803 0.065811 -0.006939 -275876.000000 0 0 1
25.146316 3.023732 -15.351050 29.616463 0.119671 2.115691 0.079929 -0.018515 377937.000000 0 0 1
26.394016 2.726032 -15.951750 30.960195 0.102917 2.112077 0.080449 -0.024431 190972.000000 0 0 1
27.139916 1.504632 -15.446050 31.263708 0.055383 2.087546 0.110470 -0.046463 146037.000000 0 0 1
26.313316 0.338632 -15.608950 30.596480 0.012869 2.106161 0.125346 -0.037613 609162.000000 0 0 1
27.143816 -0.733568 -16.051450 31.543207 -0.027019 2.104670 0.104606 -0.026117 37253.200000 0 0 1
26.484216 -2.105568 -16.377050 31.209852 -0.079336 2.123206 0.089582 -0.027773 -357500.000000 0 0 1
26.113216 -2.802168 -15.196050 30.342579 -0.106899 2.095338 0.104220 -0.028162 396751.000000 0 0 1
25.838316 -4.145468 -15.401950 30.364840 -0.159083 2.102764 0.090112 -0.020807 -615570.000000 0 0 1
25.283116 -4.902468 -14.107650 29.364876 -0.191526 2.071937 0.091607 -0.021610 620982.000000 0 0 1
23.977716 -4.648468 -13.608750 27.959563 -0.191491 2.079138 0.116026 -0.012740 1268030.000000 0 0 1
22.905316 -5.080768 -14.496350 27.579192 -0.218282 2.124248 0.129722 -0.014062 1542190.000000 0 0 1
21.439316 -4.997468 -13.891150 26.030424 -0.229009 2.133708 0.156391 -0.022865 816351.000000 0 0 1
21.057916 -5.983168 -12.975450 25.447916 -0.276834 2.105845 0.166315 -0.027193 395753.000000 0 0 1
21.073516 -5.532968 -11.648250 24.706042 -0.256760 2.061757 0.176984 -0.025952 -297379.000000 0 1 0
20.932616 -6.726268 -10.707950 24.455619 -0.310909 2.024005 0.168709 -0.025325 -332226.000000 0 1 0
19.729416 -7.437868 -10.618850 23.607874 -0.360518 2.037339 0.162107 -0.024433 117291.000000 0 1 0
19.530616 -8.391168 -11.581950 24.207400 -0.405796 2.069681 0.155681 -0.029224 -55095.000000 0 1 0
18.181616 -9.148368 -11.387950 23.322718 -0.466177 2.080911 0.172522 -0.034967 517975.000000 0 1 0
17.087416 -8.329868 -11.747750 22.346725 -0.453586 2.124338 0.151262 -0.029506 1118580.000000 0 1 0
15.790116 -8.996368 -11.790550 21.662859 -0.517877 2.146321 0.145745 -0.032889 2196080.000000 0 1 0
14.552416 -8.039468 -11.988950 20.497336 -0.504721 2.195557 0.108897 -0.024883 308100.000000 0 1 0
14.415216 -7.397068 -13.225050 20.914517 -0.474107 2.255364 0.100036 -0.024096 -110619.000000 0 1 0
15.456916 -6.520268 -13.491750 21.528062 -0.399187 2.248114 0.102248 -0.020378 -595716.000000 0 1 0
15.167716 -5.467168 -14.597650 21.749504 -0.345952 2.306584 0.089058 -0.015035 213494.000000 0 1 0
14.128116 -4.564468 -14.217250 20.556464 -0.312492 2.334525 0.094419 -0.020277 410850.000000 0 1 0
13.749216 -3.580968 -15.197950 20.804854 -0.254788 2.389850 0.077325 -0.024581 -276022.000000 0 1 0
14.771216 -2.452668 -15.362950 21.452846 -0.164543 2.369033 0.102968 -0.028650 -229754.000000 0 1 0
15.798316 -2.648168 -16.309050 22.860111 -0.166079 2.365175 0.100836 -0.024040 677224.000000 0 1 0
16.888316 -1.729568 -16.302650 23.536844 -0.102056 2.335944 0.111380 -0.018103 1653290.000000 0 1 0
18.062116 -1.944768 -15.215650 23.696796 -0.107258 2.268027 0.134894 -0.024030 414288.000000 0 1 0
17.694316 -1.688668 -13.882450 22.553555 -0.095147 2.233858 0.121578 -0.016559 -239214.000000 0 1 0
18.600016 -2.264268 -13.001450 22.806253 -0.121139 2.177403 0.110806 -0.015514 -619462.000000 0 1 0
18.134416 -2.467868 -11.584550 21.659852 -0.135257 2.135114 0.112877 -0.013094 -402175.000000 0 1 0
18.065716 -1.288768 -10.780750 21.077371 -0.071217 2.107708 0.121858 -0.019326 616148.000000 0 1 0
17.764016 -1.623468 -9.435050 20.179596 -0.091138 2.057318 0.117707 -0.020808 -868058.000000 0 1 0
17.875116 -0.454168 -8.368950 19.742476 -0.025402 2.008550 0.121906 -0.015009 -362002.000000 0 1 0
19.176816 -0.090268 -7.941250 20.756249 -0.004707 1.963400 0.139501 -0.017462 905092.000000 0 1 0
19.953216 0.564432 -8.960850 21.880271 0.028280 1.992746 0.130227 -0.011444 -603600.000000 0 1 0
19.425316 1.909132 -9.560350 21.734488 0.097966 2.026250 0.127661 -0.024456 -637324.000000 0 1 0
19.455516 2.981832 -8.634850 21.493465 0.152081 1.984216 0.115080 -0.016877 455513.000000 0 1 0
18.796216 4.020832 -9.285850 21.346940 0.210741 2.020831 0.109252 -0.033727 -371923.000000 0 1 0
19.093516 5.455132 -8.800750 21.720360 0.278292 1.987977 0.131858 -0.014226 -103208.000000 0 1 0
18.341816 6.340632 -9.600150 21.651529 0.332832 2.030178 0.103711 -0.018498 627281.000000 0 1 0
18.730616 7.688932 -9.319950 22.289395 0.389526 2.002186 0.119187 -0.008272 -200218.000000 0 1 0
-27.716134 -29.154328 5.342950 40.579626 0.810682 1.438747 0.103754 -0.011947 -565554.000000 0 0 1
-27.454824 -28.225698 6.310650 39.878336 0.799242 1.411881 0.107427 -0.018225 -1025930.000000 0 0 1
-26.137374 -27.805248 6.231550 38.666864 0.816308 1.408930 0.112058 -0.018280 -900978.000000 0 0 1
-25.684914 -26.583488 7.118750 37.644033 0.802588 1.380544 0.119233 -0.015607 6117.820000 0 0 1
-26.357294 -25.340348 6.759650 37.182429 0.765730 1.387983 0.144957 -0.024004 199715.000000 0 0 1
-27.717504 -25.311828 7.146750 38.210269 0.740064 1.382651 0.105362 -0.027007 -85897.500000 0 0 1
-28.033724 -25.017148 8.641150 38.554077 0.728597 1.344745 0.099780 -0.028070 -316862.000000 0 0 1
-27.614694 -26.037468 9.578050 39.144094 0.756009 1.323599 0.096802 -0.029506 239142.000000 0 0 1
-28.331174 -26.054008 10.829050 39.984185 0.743552 1.296538 0.076529 -0.030890 123853.000000 0 0 1
-27.704164 -27.110228 11.764350 40.507840 0.774563 1.276129 0.059135 -0.023957 407930.000000 0 0 1
-26.458664 -26.704428 12.304150 39.554766 0.790021 1.254482 0.069889 -0.023399 -146910.000000 0 0 1
-26.551754 -25.909498 13.450350 39.461496 0.773156 1.222978 0.069327 -0.021065 -854139.000000 0 0 1
-25.233264 -25.307808 13.941750 38.361115 0.786873 1.198845 0.077403 -0.024262 -503072.000000 0 0 1
-24.408584 -26.322408 14.440850 38.693491 0.823105 1.188328 0.069139 -0.025497 317662.000000 0 0 1
-23.162184 -25.860958 15.004950 37.820952 0.840394 1.162838 0.091909 -0.037441 775472.000000 0 0 1
-22.345584 -27.041158 15.550650 38.371501 0.880191 1.153527 0.092785 -0.041488 -853934.000000 0 0 1
-22.963284 -27.827198 16.531650 39.685776 0.880871 1.141134 0.098561 -0.029899 122349.000000 0 0 1
-22.267184 -29.050718 16.819050 40.282157 0.916823 1.140070 0.092121 -0.028490 -433030.000000 0 0 1
-23.095484 -29.919758 17.710450 41.740308 0.913417 1.132607 0.096394 -0.030765 -386662.000000 0 0 1
-24.190184 -30.493988 17.043850 42.491659 0.900168 1.158068 0.097888 -0.030508 -165827.000000 0 0 1
-24.988284 -31.259628 17.903750 43.842023 0.896434 1.150129 0.095053 -0.021335 -471416.000000 0 0 1
-26.021514 -32.058218 17.133050 44.703355 0.888965 1.177472 0.079761 -0.024170 -711987.000000 0 0 1
-25.472344 -33.085758 16.398050 44.859823 0.914688 1.196584 0.083101 -0.022372 -525735.000000 0 0 1
-26.307864 33.528286 16.105550 45.559175 -0.905487 1.209477 0.080580 -0.024527 -1109900.000000 0 0 1
-25.808684 32.679238 14.903950 44.228368 -0.902332 1.227092 0.083604 -0.035473 375590.000000 0 0 1
-24.578284 31.996557 15.078550 43.072432 -0.915778 1.213146 0.068142 -0.031972 -36142.400000 0 0 1
-23.459484 32.805451 14.903850 42.996160 -0.950002 1.216818 0.063272 -0.035621 -1245660.000000 0 0 1
-22.082284 32.156325 15.007850 41.795838 -0.969041 1.203519 0.061875 -0.041592 -89357.900000 0 0 1
-21.804684 31.381096 13.794050 40.626263 -0.963545 1.224374 0.041626 -0.025974 -121276.000000 0 0 1
-20.575184 30.693756 13.840250 39.458806 -0.980257 1.212422 0.042154 -0.027971 -34498.500000 0 0 1
-20.371084 29.862786 12.571850 38.272947 -0.972147 1.236104 0.038920 -0.031365 148567.000000 0 0 1
-19.989584 30.574516 11.412450 38.270466 -0.991755 1.267985 0.018989 -0.018903 -145107.000000 0 0 1
-20.373884 29.823276 10.299550 37.558005 -0.971466 1.293007 0.038232 -0.021115 29136.600000 0 0 1
-19.973884 30.515446 8.991150 37.563137 -0.991229 1.329089 0.032118 -0.013916 438763.000000 0 0 1
-18.555784 30.465566 8.838050 36.750224 -1.023731 1.327926 0.030143 -0.020405 62823.100000 0 0 1
-18.108784 30.905126 7.583550 36.613729 -1.040774 1.362163 0.061005 -0.026282 -107573.000000 0 0 1
-17.918484 29.794776 6.549550 35.379335 -1.029350 1.384599 0.064494 -0.026569 -135994.000000 0 0 1
-18.997684 28.964576 6.139150 35.178798 -0.990289 1.395385 0.046427 -0.020482 -58692.700000 0 0 1
-18.780184 27.691936 6.686850 34.121146 -0.974864 1.373546 0.027908 -0.013518 259908.000000 0 0 1
-19.838684 26.631166 6.285950 33.798011 -0.930540 1.383721 0.034782 -0.008442 -2341.940000 0 0 1
-19.698584 26.145086 4.973150 33.110904 -0.925101 1.420029 0.044802 -0.020045 -310024.000000 0 0 1
-20.687584 25.244766 4.589350 32.959619 -0.884290 1.431101 0.058426 -0.021347 -967824.000000 0 0 1
-20.407384 24.514806 3.246350 32.062062 -0.876579 1.469370 0.083049 -0.037326 -1335990.000000 0 0 1
-20.369584 25.357286 2.106950 32.593729 -0.894045 1.506108 0.094714 -0.040798 697919.000000 0 0 1
-19.233384 26.235716 1.856850 32.583489 -0.938200 1.513778 0.090791 -0.037751 308169.000000 0 0 1
-17.813084 25.685706 2.047850 31.324993 -0.964445 1.505375 0.083042 -0.043636 -1012510.000000 0 0 1
-17.428884 24.635936 1.220150 30.202386 -0.955083 1.530386 0.134953 -0.054297 -12378.200000 0 0 1
-17.158284 24.861766 -0.140750 30.208177 -0.966713 1.575456 0.136098 -0.052516 -332202.000000 0 0 1
-16.592984 23.595326 -0.823150 28.857306 -0.957905 1.599325 0.137636 -0.057530 364415.000000 0 0 1
-17.538184 22.495906 -0.797750 28.535769 -0.908608 1.598756 0.152718 -0.066088 616665.000000 0 0 1
-17.208984 21.361006 -1.602250 27.477426 -0.892634 1.629141 0.139129 -0.063171 549617.000000 0 0 1
-15.970984 20.510506 -1.113750 26.019101 -0.909195 1.613614 0.127463 -0.061783 641461.000000 0 0 1
-16.307384 19.617106 -0.059250 25.510099 -0.877269 1.573119 0.136331 -0.058698 350335.000000 0 0 1
-15.201984 18.763306 0.182150 24.149434 -0.889868 1.563254 0.131577 -0.058411 69349.900000 0 1 0
-15.626284 17.643006 1.091850 23.593401 -0.845942 1.524502 0.106886 -0.055051 7886.900000 0 1 0
-16.515884 16.730106 0.496050 23.514186 -0.791842 1.549699 0.102905 -0.050606 91708.900000 0 1 0
-17.060584 15.867106 1.455950 23.344129 -0.749169 1.508387 0.117632 -0.065496 104047.000000 0 1 0
-17.692284 14.618706 0.776350 22.963584 -0.690559 1.536982 0.106124 -0.057682 275751.000000 0 1 0
-18.810784 14.751506 -0.098950 23.905278 -0.665035 1.574936 0.145077 -0.067764 585943.000000 0 1 0
-19.488284 13.491206 -0.200750 23.703294 -0.605521 1.579266 0.138448 -0.057749 -567583.000000 0 1 0
-20.651584 13.711206 -1.200750 24.817875 -0.586106 1.619198 0.125651 -0.049909 -216358.000000 0 1 0
-21.424184 12.535106 -1.509150 24.867692 -0.529385 1.631521 0.118311 -0.054116 925298.000000 0 1 0
-22.370984 12.197006 -0.491550 25.484692 -0.499162 1.590086 0.149251 -0.062453 232362.000000 0 0 1
-23.807084 12.812506 -0.643850 27.043522 -0.493723 1.594606 0.175099 -0.065437 256634.000000 0 0 1
-23.836084 14.192606 -0.392050 27.744237 -0.537049 1.584928 0.191466 -0.065658 429711.000000 0 0 1
-25.184654 14.640606 -0.375350 29.133401 -0.526579 1.583681 0.181808 -0.052219 256018.000000 0 0 1
-25.358184 16.038706 0.324750 30.006384 -0.563965 1.559973 0.190506 -0.060496 -31656.200000 0 0 1
-24.994984 15.979006 1.723150 29.716109 -0.568808 1.512777 0.197277 -0.059007 46110.000000 0 0 1
-25.036034 17.264506 2.380850 30.504666 -0.603703 1.492668 0.171246 -0.056833 -821463.000000 0 0 1
-26.322374 17.989006 2.649150 31.992026 -0.599506 1.487895 0.172038 -0.045523 -1657660.000000 0 0 1
-27.192364 17.465306 3.627650 32.521092 -0.570934 1.459016 0.173684 -0.048422 399833.000000 0 0 1
-28.437244 18.140106 3.706850 33.933480 -0.567822 1.461339 0.162249 -0.044991 488307.000000 0 0 1
-29.481744 18.074306 2.551850 34.675146 -0.549973 1.497137 0.129285 -0.049254 -723703.000000 0 0 1
-30.549944 18.956006 2.800750 36.062078 -0.555351 1.493053 0.115061 -0.047062 19440.700000 0 0 1
-31.314344 19.211006 1.642050 36.774274 -0.550279 1.526129 0.100583 -0.039963 -134210.000000 0 0 1
-32.692994 19.832306 1.891750 38.284866 -0.545275 1.521364 0.103842 -0.039483 -662865.000000 0 0 1
-33.744284 19.005206 2.258850 38.794033 -0.512931 1.512537 0.117130 -0.038206 -55328.000000 0 0 1
-34.990043 19.595606 2.550250 40.184508 -0.510514 1.507290 0.121073 -0.031764 188456.000000 0 0 1
-35.126648 20.115606 4.004850 40.676256 -0.520074 1.472180 0.102214 -0.033941 -901746.000000 0 0 1
-34.431428 21.281506 4.277250 40.702833 -0.553610 1.465517 0.102322 -0.035045 58648.800000 0 0 1
-34.494683 21.601806 5.643650 41.089804 -0.559488 1.433012 0.086979 -0.037009 -616649.000000 0 0 1
-33.308734 22.459306 6.022250 40.622158 -0.593253 1.421997 0.107735 -0.034212 -575923.000000 0 0 1
-33.464764 23.764996 5.503650 41.412023 -0.617505 1.437502 0.079663 -0.028118 61450.400000 0 0 1
-32.469074 24.584576 6.037450 41.171507 -0.648074 1.423624 0.081698 -0.035075 -398879.000000 0 0 1
-32.690014 26.100186 5.823950 42.234762 -0.673774 1.432461 0.079175 -0.030454 -308122.000000 0 0 1
-33.836864 26.533916 6.506550 43.489278 -0.665015 1.420620 0.097245 -0.025089 -62799.900000 0 0 1
-34.076184 27.884356 6.365350 44.488665 -0.685797 1.427226 0.080794 -0.022968 4973.940000 0 0 1
-35.040974 28.426836 7.452550 45.732870 -0.681561 1.407108 0.072536 -0.013570 -507673.000000 0 0 1
-34.495621 28.458436 8.745750 45.566639 -0.689792 1.377665 0.094707 -0.026427 196429.000000 0 0 1
-35.318222 29.135136 9.689250 46.798660 -0.689760 1.362247 0.091657 -0.018889 256956.000000 0 0 1
-36.672434 28.473566 10.058650 47.505661 -0.660203 1.357446 0.068654 -0.015983 -348240.000000 0 0 1
-36.463174 27.205076 10.608550 46.714244 -0.640999 1.341703 0.090070 -0.025727 222154.000000 0 0 1
-37.466734 26.661556 11.469050 47.393395 -0.618473 1.326373 0.068401 -0.022642 -7052.750000 0 0 1
-36.978024 25.357146 12.067350 46.432533 -0.601088 1.307888 0.111865 -0.023207 366707.000000 0 0 1
-35.972700 25.692206 13.056750 46.093420 -0.620202 1.283597 0.154515 -0.036346 441674.000000 0 0 1
-35.402962 24.513056 13.585350 45.153310 -0.605608 1.265190 0.156198 -0.036945 154082.000000 0 0 1
-34.070833 24.731606 14.345550 44.477734 -0.627890 1.242392 0.165193 -0.041637 132076.000000 0 0 1
-34.275870 25.666736 15.442750 45.520272 -0.642751 1.224677 0.152169 -0.040789 632778.000000 0 0 1
-33.059014 26.089986 16.082850 45.080416 -0.668117 1.206000 0.164189 -0.032970 664923.000000 0 0 1
-33.323014 27.277896 17.034650 46.310757 -0.685974 1.194118 0.155161 -0.033831 11926.500000 0 0 1
-33.280124 28.527626 16.407350 46.803774 -0.708658 1.212631 0.168853 -0.034671 25070.200000 0 0 1
-33.473374 29.569316 17.358350 47.917884 -0.723550 1.200113 0.134852 -0.029724 33063.600000 0 0 1
-33.266134 30.925456 16.618950 48.365370 -0.748950 1.220035 0.120187 -0.026618 1389420.000000 0 0 1
-31.887454 30.991856 16.165750 47.314230 -0.771156 1.222105 0.110575 -0.018775 802776.000000 0 0 1
-31.479584 32.297840 15.801850 47.789258 -0.798227 1.233797 0.097558 -0.009403 -591477.000000 0 0 1
-30.079054 32.312650 15.199750 46.689284 -0.821182 1.239202 0.116910 -0.020080 -465013.000000 0 0 1
-29.836944 31.487176 14.056050 45.598882 -0.812302 1.257439 0.110736 -0.020360 -324981.000000 0 0 1
-29.627524 30.112016 14.237850 44.578471 -0.793508 1.245712 0.119991 -0.024475 -91517.500000 0 0 1
-30.769114 29.087666 13.957050 44.582844 -0.757314 1.252384 0.146677 -0.025776 203925.000000 0 0 1
-30.873304 28.913696 12.574850 44.128104 -0.752633 1.281829 0.156603 -0.038613 25095.500000 0 0 1
-31.678014 27.786366 12.241650 43.879799 -0.720046 1.288063 0.162530 -0.040723 195670.000000 0 0 1
-31.811324 27.684546 10.690750 43.505018 -0.716147 1.322517 0.143509 -0.027308 40855.500000 0 0 1
-30.659144 27.108186 10.114150 42.156054 -0.724005 1.328511 0.123209 -0.016619 -84787.500000 0 0 1
-30.653724 27.311866 8.725950 41.972980 -0.727809 1.361374 0.120646 -0.024199 216220.000000 0 0 1
-29.467134 26.599576 8.030550 40.501101 -0.734297 1.371194 0.125714 -0.026594 162689.000000 0 0 1
-29.201864 26.859116 6.649650 40.229080 -0.743633 1.404740 0.118063 -0.034521 176098.000000 0 0 1
-28.156884 26.088796 6.047750 38.858856 -0.747292 1.414527 0.106632 -0.030127 321493.000000 0 0 1
-28.000154 26.464136 4.541150 38.794087 -0.757203 1.453470 0.081668 -0.021933 -134794.000000 0 0 1
-27.355214 27.729156 4.358350 39.194503 -0.792187 1.459368 0.061562 -0.022124 246486.000000 0 0 1
-26.998734 27.883906 2.973550 38.926673 -0.801525 1.494333 0.047839 -0.019870 -607221.000000 0 0 1
-25.993324 28.975216 2.709850 39.019986 -0.839592 1.501293 0.035613 -0.016688 -591388.000000 0 0 1
-24.685684 28.587926 3.045950 37.893672 -0.858517 1.490328 0.037811 -0.016275 -92341.300000 0 0 1
-23.737584 29.595576 2.667350 38.032694 -0.894797 1.500606 0.040306 -0.013383 843482.000000 0 0 1
-22.261884 29.245536 3.015950 36.878026 -0.920162 1.488923 0.033262 -0.020912 99266.800000 0 0 1
-21.317384 30.054776 2.387350 36.924516 -0.953866 1.506096 0.046369 -0.018517 160187.000000 0 0 1
-20.051384 29.678936 2.988250 35.941994 -0.976628 1.487559 0.079267 -0.034906 1066690.000000 0 0 1
-18.844784 30.583656 2.626650 36.019234 -1.018571 1.497808 0.082795 -0.034900 292842.000000 0 0 1
-18.913684 31.908783 3.235950 37.233980 -1.035731 1.483778 0.082366 -0.031609 946810.000000 0 0 1
-17.599184 32.510336 3.146750 37.101958 -1.074625 1.485881 0.113550 -0.034497 1043870.000000 0 0 1
-17.426884 33.755656 4.096450 38.208920 -1.094221 1.463378 0.112277 -0.035713 86224.200000 0 0 1
-18.216484 -32.787458 3.774950 37.697585 1.063669 1.470490 0.105117 -0.034035 89210.000000 0 0 1
-18.018084 -31.766578 4.725550 36.825231 1.054842 1.442118 0.078718 -0.039287 180680.000000 0 0 1
-19.128284 -30.680608 4.734250 36.463736 1.013302 1.440594 0.087005 -0.027327 125427.000000 0 0 1
-19.128684 -29.787648 3.595950 35.582880 0.999946 1.469565 0.105302 -0.029791 364439.000000 0 0 1
-20.125484 -28.780858 3.798750 35.324260 0.960563 1.463049 0.098702 -0.032014 220706.000000 0 0 1
-20.384384 -28.007828 2.515550 34.731679 0.941649 1.498305 0.093324 -0.034518 116515.000000 0 0 1
-19.426584 -26.963938 2.382350 33.318489 0.946467 1.499233 0.106040 -0.031537 150362.000000 0 0 1
-19.699684 -26.055208 1.351050 32.692151 0.923419 1.529458 0.098851 -0.031275 -204417.000000 0 0 1
-18.694284 -24.881368 1.359750 31.151366 0.926440 1.527133 0.089144 -0.028471 536378.000000 0 0 1
-17.401084 -25.424928 1.179350 30.832054 0.970610 1.532536 0.106925 -0.030886 -311034.000000 0 0 1
-16.303184 -24.532268 1.281750 29.483366 0.984253 1.527309 0.098610 -0.022234 463923.000000 0 0 1
-15.098184 -25.119228 0.504850 29.311868 1.029597 1.553572 0.091276 -0.023358 -328749.000000 0 0 1
-15.220484 -25.065838 -0.903450 29.338977 1.025085 1.601595 0.076477 -0.021216 26998.300000 0 0 1
-15.158084 -23.747068 -1.527750 28.213911 1.002680 1.624972 0.087228 -0.017175 -116669.000000 0 0 1
-15.300584 -23.856368 -3.070850 28.507267 1.000517 1.678727 0.061087 -0.010898 304112.000000 0 0 1
-14.163584 -24.437968 -3.687450 28.485411 1.045532 1.700611 0.080723 -0.010990 -111276.000000 0 0 1
-14.297584 -24.235468 -5.050550 28.588229 1.037803 1.748394 0.065488 -0.011290 1059060.000000 0 0 1
-13.113984 -24.740468 -5.992450 28.635236 1.083389 1.781623 0.091788 -0.009230 925994.000000 0 0 1
-12.984084 -26.105208 -6.201550 29.808179 1.109251 1.780376 0.058732 -0.011065 -226048.000000 0 0 1
-11.793784 -26.449398 -6.876850 29.764997 1.151357 1.803941 0.071381 -0.016440 -87673.200000 0 0 1
23.626516 12.438132 28.386403 38.970595 0.484581 0.754804 0.072829 -0.027651 209139.000000 0 0 1
24.981316 12.103432 28.699823 39.927924 0.451170 0.768735 0.059666 -0.028661 877580.000000 0 0 1
25.028316 11.637032 30.046513 40.799878 0.435220 0.743009 0.077032 -0.019385 -130996.000000 0 0 1
24.946116 12.708732 31.099403 41.844874 0.471177 0.732945 0.104320 -0.051252 -515830.000000 0 0 1
23.677616 13.309232 31.138113 41.320059 0.512087 0.717300 0.111369 -0.050495 -88601.900000 0 0 1
23.616816 14.304632 32.162152 42.388448 0.544598 0.709407 0.117315 -0.043404 -422768.000000 0 0 1
22.152516 14.681332 32.425146 41.924523 0.585278 0.686582 0.101439 -0.044462 -267776.000000 0 0 1
21.373816 13.605032 32.958214 41.571394 0.566846 0.655391 0.116027 -0.023927 310358.000000 0 0 1
20.297216 14.199132 33.693021 41.818800 0.610431 0.633956 0.124976 -0.029217 129532.000000 0 0 1
19.413116 13.137332 -33.411410 40.813979 0.594933 2.529812 0.116602 -0.022713 17237.300000 0 0 1
18.276016 12.672232 33.688115 40.366909 0.606269 0.583485 0.095684 -0.013110 -310462.000000 0 0 1
17.298716 12.262032 -33.202790 39.395790 0.616635 2.573262 0.078541 -0.005477 -402711.000000 0 0 1
15.953416 12.179332 33.866383 39.367239 0.652042 0.535001 0.068118 -0.003890 -280569.000000 0 0 1
15.884016 11.023632 33.028869 38.271773 0.606693 0.529601 0.063314 0.000034 289668.000000 0 0 1
14.592316 10.824832 32.449142 37.189508 0.638244 0.510429 0.089652 -0.002959 595119.000000 0 0 1
14.517816 9.785332 31.319913 35.881147 0.593078 0.509724 0.100893 -0.001982 -189442.000000 0 0 1
14.881616 8.442132 31.745573 36.062633 0.516018 0.494323 0.080525 -0.007597 193998.000000 0 0 1
15.239316 7.658332 30.616073 35.046123 0.465676 0.508258 0.077312 -0.027797 7104.310000 0 0 1
15.659516 6.210332 30.941403 35.230088 0.377559 0.498572 0.118177 -0.031092 345992.000000 0 0 1
14.580716 5.361632 31.311553 34.953651 0.352374 0.460564 0.120911 -0.024506 288017.000000 0 0 1
15.113016 4.046832 31.547663 35.214133 0.261633 0.460387 0.119217 -0.031937 -291984.000000 0 0 1
14.083916 2.992732 31.928350 35.024744 0.209379 0.423651 0.091644 -0.031860 -544345.000000 0 0 1
14.627716 1.723632 32.287450 35.488314 0.117292 0.427982 0.097419 -0.039225 -604002.000000 0 0 1
13.724716 0.860632 32.874681 35.634999 0.062625 0.396187 0.100869 -0.039863 -654307.000000 0 0 1
14.315016 -0.523168 33.350361 36.296556 -0.036531 0.405691 0.090189 -0.045282 -144797.000000 0 0 1
14.844216 -1.354368 32.317762 35.589645 -0.090987 0.432152 0.084090 -0.039389 212998.000000 0 0 1
15.143116 -2.681168 32.701912 36.137483 -0.175239 0.439580 0.099977 -0.048959 -155020.000000 0 0 1
15.716816 -3.684668 31.629543 35.510887 -0.230282 0.471914 0.106813 -0.044132 -981810.000000 0 0 1
16.061516 -4.979768 32.114254 36.250458 -0.300645 0.482367 0.113723 -0.043770 785732.000000 0 0 1
17.285316 -5.098568 32.862494 37.479609 -0.286831 0.501609 0.090041 -0.041617 89530.700000 0 0 1
18.594716 -4.682068 32.215093 37.489965 -0.246668 0.536899 0.094145 -0.033430 -1427690.000000 0 0 1
18.718416 -3.275468 32.211244 37.398824 -0.173232 0.532993 0.098090 -0.037293 82016.800000 0 0 1
19.663116 -2.924268 31.206343 37.000342 -0.147636 0.567203 0.115157 -0.044621 9866.790000 0 0 1
19.764316 -1.409468 31.062853 36.844479 -0.071193 0.567811 0.135244 -0.046962 27027.500000 0 0 1
20.243116 -0.565368 32.170215 38.013499 -0.027922 0.561826 0.107652 -0.040462 443513.000000 0 0 1
19.851216 0.808132 32.002733 37.668273 0.040687 0.555582 0.108843 -0.035347 96552.500000 0 0 1
20.948916 1.658532 31.317483 37.714620 0.079006 0.591006 0.131983 -0.027898 -89192.100000 0 0 1
21.102316 1.281232 29.924413 36.639048 0.060641 0.615066 0.141347 -0.038419 527611.000000 0 0 1
22.098416 2.077032 29.250893 36.718780 0.093715 0.649114 0.114409 -0.027401 199372.000000 0 0 1
21.907016 3.635832 29.041713 36.558962 0.164467 0.652810 0.114409 -0.019989 -334128.000000 0 0 1
21.734416 4.354932 30.249603 37.501850 0.197752 0.632391 0.111267 -0.014222 941215.000000 0 0 1
20.809316 5.480232 30.124813 37.021142 0.257508 0.620274 0.126411 -0.011447 553345.000000 0 0 1
20.414116 6.101132 31.474703 38.008116 0.290418 0.595078 0.130552 -0.008619 138238.000000 0 0 1
19.483516 5.233332 32.118946 37.929169 0.262409 0.560830 0.119422 0.001422 127882.000000 0 0 1
19.024516 5.749132 33.356913 38.828706 0.293470 0.537329 0.106058 -0.005803 -123293.000000 0 0 1
17.774816 5.083132 -33.856480 38.575167 0.278540 2.641787 0.115324 -0.012570 -188493.000000 0 0 1
18.052616 3.738432 -33.591950 38.318297 0.204199 2.639663 0.109319 -0.004826 158655.000000 0 0 1
16.899216 3.090232 -33.119820 37.310260 0.180864 2.663093 0.103917 -0.011656 -116433.000000 0 0 1
17.095116 1.583232 -33.195630 37.372442 0.092350 2.664292 0.100880 -0.035742 -572091.000000 0 0 1
18.118316 1.047632 -32.427040 37.160245 0.057757 2.631352 0.092372 -0.025099 -290618.000000 0 0 1
18.335716 -0.372068 -32.629210 37.429964 -0.020289 2.629539 0.095856 -0.031718 754286.000000 0 0 1
19.523416 -0.942668 -31.716260 37.255517 -0.048246 2.589287 0.096998 -0.029588 751199.000000 0 0 1
19.302616 -1.067668 -30.301620 35.943275 -0.055256 2.573707 0.102494 -0.030526 280301.000000 0 0 1
19.153816 0.193532 -29.643120 35.293352 0.010104 2.567907 0.094566 -0.025056 -250041.000000 0 0 1
18.737316 0.109132 -28.143280 33.810399 0.005824 2.554194 0.088451 -0.025421 -100410.000000 0 0 1
17.425016 -0.396468 -28.028570 33.005895 -0.022749 2.585263 0.100605 -0.034298 258586.000000 0 0 1
16.819816 -0.675668 -26.781230 31.632215 -0.040149 2.580444 0.095762 -0.030004 144133.000000 0 0 1
17.552816 -1.796868 -25.982360 31.407214 -0.102014 2.545034 0.104912 -0.026932 800949.000000 0 0 1
18.783716 -1.320868 -25.374980 31.598454 -0.070204 2.503184 0.110704 -0.024033 806608.000000 0 0 1
19.720716 -2.312868 -25.064920 31.976651 -0.116748 2.471639 0.091019 -0.023016 185828.000000 0 0 1
20.709716 -2.881868 -26.109130 33.449726 -0.138267 2.466339 0.093668 -0.035301 285717.000000 0 0 1
21.783116 -1.948168 -26.311650 34.214067 -0.089197 2.448119 0.086799 -0.026954 97927.600000 0 0 1
22.072616 -1.844968 -27.679800 35.451031 -0.083392 2.466725 0.088399 -0.029976 -142606.000000 0 0 1
23.500016 -1.397168 -28.048280 36.618422 -0.059384 2.443331 0.064566 -0.029560 189356.000000 0 0 1
24.470216 -2.425068 -27.880160 37.174934 -0.098780 2.418816 0.063893 -0.033019 -139397.000000 0 0 1
25.755616 -1.886168 -28.120640 38.179572 -0.073103 2.398731 0.062312 -0.033682 18599.500000 0 0 1
26.885116 -2.890068 -27.823050 38.797990 -0.107086 2.370466 0.089550 -0.033292 -320256.000000 0 0 1
26.864016 -3.991968 -28.733360 39.537541 -0.147520 2.384355 0.093513 -0.037597 251613.000000 0 0 1
28.029616 -4.797268 -28.759920 40.445100 -0.169508 2.361837 0.089166 -0.040713 -76886.000000 0 0 1
28.245516 -5.911168 -27.714650 40.010660 -0.206301 2.335997 0.086440 -0.029515 -80347.800000 0 0 1
28.388116 -5.469368 -26.348880 39.116014 -0.190332 2.309877 0.084788 -0.018556 269828.000000 0 0 1
28.505316 -6.623168 -25.561560 38.856309 -0.228298 2.288755 0.072983 -0.018877 -38938.600000 0 0 1
28.707016 -6.431968 -24.025050 37.982443 -0.220415 2.255612 0.055646 -0.018720 -123647.000000 0 0 1
29.981516 -5.990468 -23.634350 38.644010 -0.197208 2.228867 0.054029 -0.016993 -57507.400000 0 0 1
29.961116 -5.787568 -22.236850 37.757673 -0.190819 2.200538 0.063486 -0.017573 90982.600000 0 0 1
31.354116 -5.512268 -21.590550 38.465797 -0.174028 2.166743 0.059296 -0.013445 160510.000000 0 0 1
31.817916 -4.256568 -22.136250 38.993739 -0.132989 2.174490 0.080388 -0.024733 -190098.000000 0 0 1
33.033816 -3.842668 -21.580650 39.644969 -0.115805 2.146408 0.089087 -0.021196 -8959.400000 0 0 1
33.564716 -2.579068 -22.312050 40.386499 -0.076688 2.156113 0.096712 -0.023377 78696.200000 0 0 1
32.750616 -1.498568 -21.926650 39.441431 -0.045725 2.160277 0.083484 -0.021444 385326.000000 0 0 1
33.253016 -0.218268 -22.413950 40.102317 -0.006564 2.163878 0.095017 -0.016354 200545.000000 0 0 1
32.246116 0.955332 -22.221150 39.172748 0.029618 2.173972 0.088409 -0.012914 76305.400000 0 0 1
31.057416 0.813032 -22.968450 38.636431 0.026172 2.207411 0.069391 -0.012453 153795.000000 0 0 1
30.176716 1.895132 -22.689650 37.802724 0.062719 2.214562 0.064986 -0.009348 261257.000000 0 0 1
28.824616 1.693832 -23.443450 37.193049 0.058696 2.252759 0.074638 -0.011517 -207343.000000 0 0 1
27.830616 2.570132 -23.032050 36.216351 0.092088 2.260045 0.064531 -0.013432 -113317.000000 0 0 1
26.870516 2.745632 -24.058750 36.171626 0.101827 2.298461 0.082117 -0.019633 -317107.000000 0 0 1
25.905316 3.899332 -23.811350 35.401562 0.149401 2.308523 0.081343 -0.011187 -580864.000000 0 0 1
26.508416 5.168632 -23.693750 35.927770 0.192565 2.290927 0.069048 -0.002327 -233781.000000 0 0 1
25.556916 6.149532 -23.476450 35.243672 0.236132 2.299788 0.083263 -0.011334 -659594.000000 0 0 1
26.158216 7.438032 -22.889550 35.545859 0.277036 2.270439 0.094321 -0.014020 -430837.000000 0 0 1
27.029616 8.131032 -23.734850 36.878949 0.292208 2.269973 0.089460 -0.016281 20276.200000 0 0 1
27.459516 9.355332 -23.086850 37.074923 0.328362 2.242995 0.105453 -0.021251 -181118.000000 0 0 1
28.432516 10.212532 -23.914650 38.530692 0.344834 2.240387 0.140362 -0.018852 -459367.000000 0 0 1
28.052416 10.566932 -25.241500 39.188409 0.360247 2.270651 0.172050 -0.025506 425559.000000 0 0 1
26.943316 11.473532 -25.318120 38.711644 0.402582 2.283680 0.178966 -0.031544 419289.000000 0 0 1
26.564816 11.902332 -26.741240 39.527824 0.421230 2.313819 0.177858 -0.028493 -632651.000000 0 0 1
25.959216 10.905732 -27.557100 39.398092 0.397722 2.345428 0.156112 -0.023787 237694.000000 0 0 1
26.755716 9.876232 -28.144710 40.069103 0.353611 2.349566 0.144753 -0.033550 -249987.000000 0 0 1
27.703616 10.346232 -29.267710 41.606895 0.357421 2.351014 0.150632 -0.030080 -677130.000000 0 0 1
28.880616 11.000232 -28.861700 42.285846 0.363921 2.322026 0.144266 -0.032399 470297.000000 0 0 1
29.760916 11.353332 -29.919620 43.701189 0.364444 2.324907 0.159844 -0.030210 697106.000000 0 0 1
30.692316 10.264332 -30.544650 44.501128 0.322734 2.327295 0.123872 -0.025612 -733482.000000 0 0 1
29.971716 9.467232 -31.401270 44.429404 0.305954 2.355715 0.109910 -0.021629 -187737.000000 0 0 1
30.542216 8.225832 -31.789560 44.844926 0.263084 2.358702 0.096087 -0.018122 -490337.000000 0 0 1
29.534016 7.341532 -32.517810 44.537222 0.243641 2.389304 0.096364 -0.022748 19663.600000 0 0 1
28.481016 6.953832 -31.664740 43.152981 0.239472 2.394664 0.115611 -0.029393 -46852.300000 0 0 1
27.339316 6.437832 -32.323940 42.821968 0.231266 2.426214 0.070448 -0.018009 425379.000000 0 0 1
26.103416 6.610232 -31.385880 41.354044 0.248019 2.432504 0.103762 -0.009244 -1467530.000000 0 0 1
25.879616 7.983932 -31.074210 41.220192 0.299239 2.424712 0.125897 -0.001255 160074.000000 0 0 1
24.632316 8.161532 -30.444040 40.002514 0.319950 2.435731 0.124710 -0.011433 1215770.000000 0 0 1
23.316016 7.739932 -31.271770 39.767659 0.320512 2.475694 0.143565 -0.013539 -141505.000000 0 0 1
22.928316 8.704332 -32.171620 40.453506 0.362826 2.490256 0.145218 -0.013818 164694.000000 0 0 1
21.622516 8.441432 -32.661100 40.069170 0.372203 2.523729 0.142336 -0.010486 332793.000000 0 0 1
21.131816 9.532732 -33.624730 40.841756 0.423775 2.537985 0.140550 -0.009061 -31488.400000 0 0 1
21.891216 9.441132 32.975051 40.690470 0.407174 0.625983 0.113928 -0.013110 -28602.600000 0 0 1
21.635516 10.464832 31.979344 40.003584 0.450513 0.644481 0.102981 -0.022513 539374.000000 0 0 1
20.256716 10.275932 31.237553 38.622714 0.469459 0.628710 0.113922 -0.021826 722636.000000 0 0 1
20.129516 9.194632 30.307103 37.526780 0.428473 0.630704 0.100176 -0.019100 -312642.000000 0 0 1
21.034616 9.149432 29.222613 37.150078 0.410285 0.665497 0.110875 -0.020599 -759382.000000 0 0 1
20.547316 9.817932 27.894373 36.009444 0.445747 0.684650 0.102622 -0.020661 813309.000000 0 0 1
19.376616 9.234232 27.286543 34.717139 0.444725 0.666537 0.098526 -0.006391 650543.000000 0 0 1
18.146816 9.542732 27.893893 34.618491 0.484123 0.633853 0.100997 -0.020751 -1013500.000000 0 0 1
16.972116 8.826832 27.263223 33.305390 0.479581 0.611857 0.113022 -0.020068 -889409.000000 0 0 1
16.768016 9.134032 25.872633 32.155716 0.498788 0.635787 0.107331 -0.018973 755163.000000 0 0 1
15.600016 8.646232 25.180583 30.857408 0.506097 0.616287 0.117288 -0.017434 723538.000000 0 0 1
15.536616 7.103532 25.002793 30.281781 0.428835 0.599405 0.123934 -0.022451 -112400.000000 0 0 1
15.421616 6.481832 26.337723 31.201219 0.397890 0.565866 0.122698 -0.028413 -43625.600000 0 0 1
15.373416 5.044132 26.261883 30.845935 0.317040 0.552169 0.138082 -0.031572 -606.337000 0 0 1
15.870116 4.439832 27.578183 32.126763 0.272787 0.538619 0.112245 -0.034292 1075930.000000 0 0 1
17.282316 4.535632 27.914293 33.142996 0.256656 0.569375 0.118713 -0.027023 1449980.000000 0 0 1
17.642016 3.574232 28.913203 34.058614 0.199892 0.556849 0.127827 -0.029442 -483369.000000 0 0 1
17.762716 2.073632 28.549893 33.688432 0.116215 0.559598 0.138098 -0.029873 -1445260.000000 0 0 1
16.613416 1.411932 28.205293 32.764885 0.084784 0.533880 0.124379 -0.047391 -443473.000000 0 0 1
15.891516 0.903032 29.348163 33.386680 0.056764 0.496956 0.107709 -0.043953 -121123.000000 0 0 1
16.283416 -0.573968 29.682213 33.860196 -0.035234 0.502023 0.122231 -0.042227 -258083.000000 0 0 1
15.718316 -1.632268 28.852843 32.897056 -0.103474 0.501079 0.122460 -0.034023 347144.000000 0 0 1
15.994616 -1.633968 27.483003 31.840431 -0.101804 0.529325 0.148370 -0.034340 -881501.000000 0 0 1
17.227016 -2.461368 27.089263 32.197152 -0.141918 0.571009 0.131530 -0.028374 -566296.000000 0 0 1
18.468616 -2.145668 27.622823 33.297358 -0.115661 0.592441 0.132549 -0.043290 -397913.000000 0 0 1
19.083116 -1.028468 27.011083 33.088090 -0.053842 0.615753 0.129766 -0.041223 -498486.000000 0 0 1
20.567416 -0.755968 27.366233 34.241799 -0.036739 0.644824 0.144035 -0.029905 1014180.000000 0 0 1
21.515716 -1.562768 26.601883 34.249503 -0.072506 0.681373 0.123875 -0.032511 1920500.000000 0 0 1
22.900116 -1.304068 26.989283 35.419448 -0.056884 0.704415 0.113102 -0.028687 1182070.000000 0 0 1
23.921216 -1.899068 26.055803 35.422252 -0.079222 0.744278 0.104630 -0.026212 -594673.000000 0 0 1
24.099316 -1.402768 24.736503 34.563556 -0.058142 0.773197 0.108000 -0.013353 19322.600000 0 0 1
23.266316 -2.096268 23.854813 33.388140 -0.089856 0.774931 0.124619 -0.010347 -184184.000000 0 0 1
23.083316 -1.615668 22.393273 32.201064 -0.069879 0.801792 0.119486 -0.022615 -33268.500000 0 0 1
22.421616 -0.379968 22.368573 31.673748 -0.016945 0.786654 0.108887 -0.023007 -68424.900000 0 0 1
22.082316 0.132032 21.164873 30.587546 0.005979 0.806618 0.099995 -0.006277 -133270.000000 0 0 1
-31.419774 -27.125342 -9.660450 42.618196 0.712177 1.799458 0.044314 0.018831 212960.000000 0 0 1
-31.418884 -25.938742 -8.910750 41.705708 0.690144 1.786114 0.060538 0.019987 -434632.000000 0 0 1
-32.236084 -26.034142 -7.776150 42.159342 0.679363 1.756305 0.059915 0.007345 -888605.000000 0 0 1
-32.328544 -24.644442 -7.058550 41.259016 0.651334 1.742721 0.097607 -0.004091 301963.000000 0 0 1
-31.129844 -23.987342 -6.664250 39.860657 0.656529 1.738774 0.133925 -0.019341 7271.540000 0 0 1
-30.266784 -24.699442 -5.776450 39.490607 0.684456 1.717597 0.122016 -0.016366 668181.000000 0 0 1
-28.957014 -24.003742 -5.315450 37.986080 0.692142 1.711189 0.116345 -0.018528 323274.000000 0 0 1
-29.220464 -22.963742 -4.327950 37.415239 0.666071 1.686729 0.139726 -0.029515 95677.800000 0 0 1
-29.972694 -21.816842 -4.681250 37.366443 0.629200 1.696406 0.165577 -0.031451 168826.000000 0 0 1
-29.915254 -20.799442 -3.532050 36.606209 0.607550 1.667434 0.144146 -0.036871 396962.000000 0 0 1
-28.741024 -20.002142 -3.642450 35.205107 0.607999 1.674445 0.151888 -0.043347 400181.000000 0 0 1
-28.670414 -19.123142 -2.575550 34.558944 0.588233 1.645392 0.160176 -0.033596 401206.000000 0 0 1
-27.535174 -18.036242 -2.759050 33.031866 0.579900 1.654421 0.151711 -0.028957 474441.000000 0 0 1
-27.820554 -17.116742 -3.766650 32.880902 0.551561 1.685603 0.147914 -0.031144 -123247.000000 0 0 1
-26.807564 -16.165742 -3.992250 31.558117 0.542644 1.697641 0.126852 -0.027598 -58848.700000 0 0 1
-27.122664 -15.281142 -5.233250 31.568007 0.513079 1.737342 0.133067 -0.037587 726625.000000 0 0 1
-28.333824 -14.544542 -5.008350 32.240236 0.474253 1.726773 0.118916 -0.028335 366264.000000 0 0 1
-28.678894 -13.687142 -6.061250 32.350511 0.445287 1.759272 0.136309 -0.037403 535408.000000 0 0 1
-30.035434 -12.921742 -5.892250 33.223746 0.406281 1.749090 0.140569 -0.033529 355938.000000 0 0 1
-31.157734 -13.599542 -6.380650 34.589950 0.411549 1.756324 0.142845 -0.027445 -45450.900000 0 0 1
-32.324704 -12.806042 -6.182750 35.314410 0.377199 1.746781 0.114556 -0.022493 810176.000000 0 0 1
-33.603014 -13.445142 -6.844350 36.834488 0.380607 1.757696 0.092760 -0.026573 352299.000000 0 0 1
-34.094776 -14.633942 -6.271150 37.628889 0.405434 1.738235 0.088803 -0.021628 52421.100000 0 0 1
-34.430028 -15.471042 -7.343150 38.453892 0.422311 1.762936 0.104855 -0.026357 -99010.500000 0 0 1
-35.517081 -16.542342 -7.000250 39.800950 0.435880 1.747597 0.102321 -0.023951 720653.000000 0 0 1
-36.878424 -16.175442 -6.869550 40.851607 0.413346 1.739758 0.098783 -0.030518 235986.000000 0 0 1
-37.258454 -15.478742 -5.705850 40.747277 0.393748 1.711288 0.103566 -0.033865 601847.000000 0 0 1
36.215891 -15.633542 -5.408450 39.815194 -0.407512 1.707056 0.124387 -0.034491 1101800.000000 0 0 1
35.388331 -15.026142 -6.417950 38.978314 -0.401538 1.736204 0.150551 -0.041206 1258000.000000 0 0 1
33.961131 -15.103842 -6.362550 37.708971 -0.418470 1.740335 0.158322 -0.043372 878648.000000 0 0 1
33.110611 -14.340842 -5.367750 36.479926 -0.408728 1.718475 0.171878 -0.043042 -547094.000000 0 0 1
33.249021 -14.892442 -4.055550 36.656919 -0.421111 1.681659 0.156248 -0.047538 646398.000000 0 0 1
32.432911 -14.213742 -3.104550 35.546623 -0.413040 1.658245 0.170568 -0.043095 -848902.000000 0 0 1
32.451241 -14.787742 -1.648450 35.699828 -0.427577 1.616988 0.176505 -0.048721 159834.000000 0 0 1
33.669481 -14.535042 -0.923850 36.684532 -0.407530 1.595983 0.207819 -0.048856 740989.000000 0 0 1
34.898011 -15.082942 -1.326050 38.041092 -0.407954 1.605662 0.163822 -0.052923 -699927.000000 0 0 1
34.959651 -16.595442 -1.587250 38.731192 -0.443206 1.611789 0.140783 -0.055887 -1356850.000000 0 0 1
35.070791 -17.469242 -0.446750 39.183343 -0.462137 1.582198 0.134566 -0.045944 344982.000000 0 0 1
34.678951 -18.818442 -0.783350 39.463616 -0.497181 1.590648 0.114097 -0.042431 129840.000000 0 0 1
35.691911 -19.717542 -1.577850 40.806661 -0.504713 1.609472 0.098530 -0.053754 113511.000000 0 0 1
35.983481 -19.147042 -2.825850 40.858359 -0.489002 1.640014 0.066434 -0.045245 246505.000000 0 0 1
36.809241 -19.982642 -3.650850 42.042299 -0.497353 1.657743 0.077344 -0.029770 273669.000000 0 0 1
36.947001 -19.500342 -5.111050 42.088799 -0.485633 1.692532 0.111944 -0.033950 938989.000000 0 0 1
35.705611 -19.610642 -5.854550 41.155117 -0.502253 1.713536 0.103670 -0.035939 1041110.000000 0 0 1
35.806511 -18.826642 -7.013250 41.057695 -0.484065 1.742453 0.110964 -0.033630 -474690.000000 0 0 1
34.603251 -18.832942 -7.950750 40.190535 -0.498421 1.769936 0.133218 -0.043838 -520659.000000 0 0 1
34.473551 -20.022942 -8.738150 40.812978 -0.526197 1.786569 0.144211 -0.046739 218940.000000 0 0 1
33.538921 -19.923242 -9.787850 40.219358 -0.536021 1.816627 0.123908 -0.046877 -253830.000000 0 0 1
33.362891 -21.282342 -10.500950 40.942527 -0.567825 1.830175 0.112389 -0.037432 45737.100000 0 0 1
32.980131 -22.320342 -9.570750 40.957123 -0.594973 1.806654 0.104515 -0.035175 281017.000000 0 0 1
32.730581 -23.529342 -10.199150 41.580566 -0.623285 1.818611 0.076397 -0.026642 -295334.000000 0 0 1
32.241151 -24.651842 -9.253550 41.627314 -0.652785 1.794964 0.093094 -0.023625 -762807.000000 0 0 1
30.972361 -24.339342 -8.789150 40.360127 -0.666047 1.790323 0.094998 -0.019145 -581544.000000 0 0 1
30.201301 -25.566542 -8.876350 40.553128 -0.702481 1.791465 0.064136 -0.018526 421569.000000 0 0 1
28.698841 -25.383242 -8.534850 39.252721 -0.724168 1.789980 0.063131 -0.020538 285121.000000 0 0 1
28.009941 -24.704342 -9.569050 38.554222 -0.722772 1.821615 0.064958 -0.015081 2025570.000000 0 0 1
26.667041 -24.199542 -9.162150 37.157689 -0.736927 1.819941 0.061170 -0.020027 2016890.000000 0 0 1
25.932141 -23.633242 -10.400950 36.594888 -0.739050 1.858988 0.094128 -0.022771 -366382.000000 0 0 1
25.328441 -24.673642 -11.188350 37.087703 -0.772303 1.877243 0.072661 -0.017295 369158.000000 0 0 1
24.956141 -24.074142 -12.412550 36.829942 -0.767411 1.914550 0.088409 -0.012167 14217.000000 0 0 1
24.035141 -24.936842 -13.301550 37.100745 -0.803809 1.937484 0.095345 -0.026528 590228.000000 0 0 1
24.789141 -25.987542 -13.967150 38.534856 -0.808995 1.941697 0.079994 -0.028279 659094.000000 0 0 1
24.048541 -27.161842 -13.890750 38.846504 -0.846118 1.936472 0.099713 -0.014326 -332003.000000 0 0 1
24.741141 -28.365542 -14.551450 40.354339 -0.853540 1.939699 0.087247 -0.019598 -259140.000000 0 0 1
24.823141 -28.222942 -15.978150 40.841450 -0.849402 1.972757 0.096485 -0.021619 412462.000000 0 0 1
25.211841 -29.506942 -16.453650 42.154705 -0.863732 1.971771 0.086134 -0.022378 -263858.000000 0 0 1
24.955541 -29.535542 -17.958950 42.633920 -0.869252 2.005604 0.094346 -0.027530 -650965.000000 0 0 1
23.607041 -29.510042 -18.297350 41.987235 -0.896076 2.021705 0.102830 -0.022506 -463085.000000 0 0 1
23.567441 -29.702442 -19.701650 42.729548 -0.900061 2.050006 0.095220 -0.011847 -634825.000000 0 0 1
22.150641 -29.698942 -20.241450 42.218412 -0.929963 2.070820 0.085361 -0.005337 -748255.000000 0 0 1
21.994741 -29.602742 -21.648050 42.763641 -0.931792 2.101599 0.069987 -0.001374 329740.000000 0 0 1
20.626241 -29.607842 -22.066750 42.296661 -0.962324 2.119655 0.083875 -0.011975 392824.000000 0 0 1
20.508341 -29.821042 -23.606750 43.210707 -0.968364 2.148757 0.074249 -0.014604 -198155.000000 0 0 1
21.076041 -28.748642 -24.342750 43.165419 -0.938190 2.169947 0.081405 -0.018268 438490.000000 0 0 1
21.063341 -29.003542 -25.766190 44.144833 -0.942680 2.194042 0.068667 -0.016782 -406391.000000 0 0 1
21.493941 -27.753842 -26.588190 44.036315 -0.911830 2.219029 0.077728 -0.021249 117920.000000 0 0 1
20.616441 -26.629142 -26.644350 42.942638 -0.911983 2.240130 0.105236 -0.028879 259355.000000 0 0 1
19.534441 -26.780342 -27.550830 43.102544 -0.940589 2.264244 0.117682 -0.033319 70020.400000 0 0 1
18.610941 -25.551642 -27.785040 42.086363 -0.941286 2.291869 0.115778 -0.032362 50803.500000 0 0 1
17.708741 -25.340842 -26.721560 40.863180 -0.960861 2.283561 0.091924 -0.022220 -274101.000000 0 0 1
17.157041 -24.069642 -26.839900 39.926081 -0.951526 2.308026 0.079678 -0.015422 -802806.000000 0 0 1
16.012341 -23.804742 -25.911830 38.658553 -0.978661 2.305375 0.079398 -0.010980 -311728.000000 0 0 1
14.825141 -24.581042 -26.171930 38.845622 -1.028091 2.310057 0.106824 -0.024195 536149.000000 0 0 1
13.683741 -24.240742 -25.409850 37.689770 -1.056894 2.310656 0.075411 -0.020752 331923.000000 0 0 1
13.730641 -24.507842 -23.872050 36.865154 -1.060114 2.275162 0.068548 -0.020176 -718332.000000 0 0 1
14.501741 -23.585342 -23.165150 36.099764 -1.019520 2.267507 0.046928 -0.015522 -346682.000000 0 0 1
14.547241 -23.968542 -21.813250 35.523669 -1.025296 2.231976 0.059198 -0.020719 538729.000000 0 0 1
15.900841 -23.459942 -21.231950 35.411881 -0.975135 2.213762 0.043200 -0.023928 401152.000000 0 0 1
15.862141 -22.027542 -20.987250 34.311583 -0.946704 2.228962 0.027480 -0.022627 -124080.000000 0 0 1
17.084141 -21.491642 -20.534250 34.284310 -0.899160 2.212973 0.040354 -0.021825 -729262.000000 0 0 1
16.989741 -20.038042 -19.956950 32.991730 -0.867538 2.220446 0.067366 -0.012798 279316.000000 0 0 1
16.296441 -20.010442 -18.675150 31.855188 -0.887338 2.197220 0.066047 -0.016639 -856378.000000 0 0 1
14.937941 -20.001242 -18.900750 31.311820 -0.929314 2.218843 0.055090 -0.017462 -1877770.000000 0 0 1
14.231941 -20.017942 -17.540850 30.181907 -0.952753 2.190963 0.063536 -0.020733 -424131.000000 0 0 1
14.232241 -18.723542 -16.926350 28.976353 -0.920846 2.194621 0.090684 -0.022984 306410.000000 0 0 1
13.710641 -18.742542 -15.596050 27.973225 -0.939224 2.162210 0.088376 -0.033694 -83896.200000 0 0 1
13.665341 -17.359842 -14.900550 26.648302 -0.903921 2.164163 0.098824 -0.031164 -768340.000000 0 0 1
12.583141 -16.573242 -15.273150 25.812340 -0.921405 2.203962 0.098983 -0.040702 -109435.000000 0 0 1
12.766741 -15.287542 -14.766250 24.793966 -0.875012 2.208757 0.095146 -0.041465 -433175.000000 0 1 0
11.432841 -14.779942 -14.205150 23.472171 -0.912401 2.220802 0.093576 -0.032062 -524878.000000 0 1 0
10.631341 -14.422042 -15.300450 23.561079 -0.935564 2.277585 0.103050 -0.022096 373155.000000 0 1 0
9.365041 -13.906542 -14.859150 22.402906 -0.978128 2.295975 0.100031 -0.024423 1153990.000000 0 1 0
8.464641 -13.157442 -15.938650 22.334032 -0.999121 2.365489 0.074600 -0.017894 338461.000000 0 1 0
9.000841 -11.963742 -16.478750 22.264219 -0.925797 2.404082 0.072323 -0.014043 278053.000000 0 1 0
10.059141 -12.264142 -17.393050 23.539619 -0.883855 2.402209 0.101309 -0.011482 212577.000000 0 1 0
10.425141 -11.108142 -18.354950 23.853271 -0.817106 2.448845 0.106425 -0.011900 -312797.000000 0 1 0
9.546341 -10.941542 -19.421350 24.249511 -0.853392 2.499587 0.100856 -0.017282 -129630.000000 0 1 0
9.550141 -9.658942 -20.059750 24.225893 -0.791062 2.546380 0.084576 -0.023587 -157552.000000 0 1 0
9.285741 -9.662542 -21.630950 25.445779 -0.805281 2.586934 0.089184 -0.021450 58049.000000 0 0 1
10.361641 -10.162642 -22.390650 26.683030 -0.775703 2.566486 0.091435 -0.009267 -400260.000000 0 0 1
10.077841 -10.237142 -23.767450 27.771453 -0.793240 2.597936 0.089225 -0.003693 -68025.500000 0 0 1
11.140441 -10.972742 -24.598750 29.148052 -0.777815 2.575353 0.095187 -0.002413 -42699.700000 0 0 1
11.228041 -12.309342 -24.133150 29.325717 -0.831306 2.537354 0.079765 -0.003943 11204.900000 0 0 1
12.263541 -13.006142 -24.811150 30.580178 -0.814777 2.517250 0.074732 -0.011352 78240.100000 0 0 1
12.430041 -14.483642 -24.427650 30.999869 -0.861554 2.478337 0.057383 -0.007693 452336.000000 0 0 1
11.591341 -15.419942 -25.169870 31.712082 -0.926201 2.487663 0.045994 -0.007404 295595.000000 0 0 1
11.631241 -16.691542 -24.550750 31.884677 -0.962198 2.449615 0.035078 -0.006318 -41214.100000 0 0 1
10.348741 -17.475242 -24.819750 32.070243 -1.036136 2.455802 0.031464 -0.011309 -66203.800000 0 0 1
10.355841 -18.034842 -26.122230 33.389667 -1.049554 2.469218 0.033311 -0.015635 -828690.000000 0 0 1
9.172741 -18.715342 -26.310180 33.565291 -1.115085 2.471640 0.035088 -0.021009 -679743.000000 0 0 1
9.229541 -19.500742 -27.631990 35.056957 -1.128743 2.478679 0.042216 -0.018943 -63819.700000 0 0 1
10.067641 -20.623142 -27.494460 35.813638 -1.116656 2.446055 0.029428 -0.020979 17276.700000 0 0 1
10.012841 -21.386142 -28.640800 37.120337 -1.132917 2.452096 0.038183 -0.023333 -95764.600000 0 0 1
10.950141 -22.598142 -28.571460 38.038269 -1.119577 2.420559 0.041576 -0.010653 -98249.000000 0 0 1
11.016641 -23.489042 -29.673840 39.416218 -1.132245 2.423152 0.048096 -0.008569 -82796.700000 0 0 1
11.748941 -24.647042 -29.330090 40.072041 -1.125972 2.391952 0.081022 -0.020607 -90722.900000 0 0 1
11.012741 -25.763142 -28.532760 39.989227 -1.166843 2.365293 0.079998 -0.022434 134125.000000 0 0 1
10.509741 -25.284642 -27.306570 38.670616 -1.176866 2.354817 0.085855 -0.026689 -195285.000000 0 0 1
9.884341 -26.320942 -26.506880 38.640741 -1.211560 2.326750 0.081973 -0.021281 481056.000000 0 0 1
9.164041 -25.615442 -25.302120 37.152762 -1.227230 2.319964 0.062434 -0.020008 509682.000000 0 0 1
10.026541 -24.710742 -24.609750 36.287629 -1.185337 2.316087 0.058499 -0.017128 52882.400000 0 0 1
9.410041 -23.473542 -24.751150 35.386091 -1.189533 2.345438 0.045617 -0.010272 31883.700000 0 0 1
10.370841 -22.270942 -24.680350 34.823395 -1.134990 2.358491 0.043187 -0.002593 -163274.000000 0 0 1
10.885041 -21.879042 -23.442950 33.863675 -1.109143 2.335432 0.050757 -0.010182 -312186.000000 0 0 1
11.846441 -20.856142 -23.516350 33.590706 -1.054233 2.346313 0.045087 -0.016917 94704.400000 0 0 1
12.599341 -20.663642 -22.110050 32.780845 -1.023250 2.311058 0.042696 -0.010052 240234.000000 0 0 1
11.828641 -20.128442 -21.051850 31.436464 -1.039501 2.304552 0.041912 -0.010047 -106117.000000 0 0 1
11.437041 -18.737542 -21.160050 30.490147 -1.022779 2.337821 0.040182 -0.008696 -342849.000000 0 0 1
12.502341 -17.693142 -20.850050 30.067929 -0.955641 2.337037 0.049599 -0.010702 613777.000000 0 0 1
13.670241 -17.680542 -21.696650 31.148381 -0.912624 2.341385 0.049782 -0.006437 1023190.000000 0 0 1
14.646241 -16.757142 -21.168550 30.715170 -0.852516 2.331165 0.068730 -0.009461 595214.000000 0 0 1
15.867541 -16.501442 -22.069650 31.798520 -0.804979 2.337891 0.053846 0.002478 -366459.000000 0 0 1
16.903141 -17.449442 -22.072850 32.823922 -0.801300 2.308327 0.059148 0.006223 134921.000000 0 0 1
17.941141 -16.900542 -22.875650 33.627492 -0.755541 2.318922 0.075075 0.003980 -1066090.000000 0 0 1
19.323141 -17.101842 -22.353550 34.139976 -0.724491 2.284664 0.076143 -0.003418 -1360280.000000 0 0 1
19.786941 -18.414642 -22.404450 35.108139 -0.749491 2.262896 0.076724 -0.010547 411430.000000 0 0 1
21.089141 -18.617742 -21.856050 35.623855 -0.723237 2.231310 0.073031 -0.016909 555811.000000 0 0 1
21.364141 -20.122742 -21.663650 36.478281 -0.755484 2.206667 0.093507 -0.026651 -60252.500000 0 0 1
20.792141 -20.642942 -20.485950 35.750780 -0.781797 2.180984 0.082764 -0.028151 215613.000000 0 0 1
21.080041 -22.003542 -20.449650 36.697577 -0.806830 2.161864 0.111974 -0.031599 -161424.000000 0 0 1
-17.040184 13.030232 29.227683 36.254824 -0.652828 0.633140 0.107083 -0.020516 138593.000000 0 0 1
-18.177084 13.287232 28.401603 36.243730 -0.631222 0.670312 0.103772 -0.025211 147898.000000 0 0 1
-17.849184 13.387932 27.014433 35.037262 -0.643539 0.690355 0.110377 -0.025585 202015.000000 0 0 1
-18.935584 14.071632 26.152773 35.221225 -0.639091 0.733958 0.115844 -0.022020 273408.000000 0 0 1
-19.269484 15.431232 26.523643 36.234508 -0.675236 0.749544 0.118129 -0.020595 470241.000000 0 0 1
-20.268784 15.961532 25.623303 36.361350 -0.667068 0.788817 0.120619 -0.024311 90343.100000 0 0 1
-20.399184 17.452732 25.954943 37.341447 -0.707713 0.802278 0.113408 -0.020109 1043760.000000 0 0 1
-19.353784 18.424332 25.603893 37.007895 -0.760800 0.806749 0.077292 -0.017997 864394.000000 0 0 1
-18.134984 18.304332 26.300513 36.819060 -0.790046 0.775147 0.056227 -0.007967 -35748.000000 0 0 1
-16.918784 19.119532 25.823873 36.313554 -0.846389 0.779684 0.068409 -0.008745 157828.000000 0 0 1
-17.057384 20.509632 25.865663 37.156855 -0.877037 0.800816 0.080134 -0.014019 339653.000000 0 0 1
-15.795284 21.080332 25.523253 36.678439 -0.927750 0.801172 0.104099 -0.027180 538169.000000 0 0 1
-15.878284 22.596932 25.275413 37.437785 -0.958278 0.829654 0.092066 -0.030887 -40359.900000 0 0 1
-15.690584 23.449832 26.388163 38.631907 -0.981102 0.818843 0.088863 -0.031424 23890.600000 0 0 1
-15.973384 24.837632 26.119403 39.424360 -0.999278 0.846619 0.079765 -0.035450 -219919.000000 0 0 1
-15.504484 25.887932 27.156753 40.596346 -1.031180 0.838007 0.058038 -0.019860 167653.000000 0 0 1
-14.086284 25.897532 27.196433 40.109245 -1.072630 0.825678 0.066538 -0.029525 -55586.100000 0 0 1
-13.655784 27.041732 27.867453 41.162248 -1.103165 0.827097 0.078221 -0.016614 452537.000000 0 0 1
-12.136184 27.073532 28.177273 40.917256 -1.149384 0.811184 0.092356 -0.025953 592875.000000 0 0 1
-11.223284 27.384232 27.153833 40.164523 -1.181832 0.828387 0.081943 -0.026545 -352840.000000 0 0 1
-9.903984 27.476632 27.622893 40.200478 -1.224841 0.813267 0.071626 -0.019065 -237359.000000 0 0 1
-9.037284 28.074232 26.482713 39.637976 -1.259365 0.839124 0.075667 -0.018698 944705.000000 0 0 1
-7.608084 27.860732 26.565513 39.240666 -1.304220 0.827132 0.072994 -0.019024 1261770.000000 0 0 1
-6.986484 28.269732 25.353173 38.610518 -1.328514 0.854443 0.092204 -0.020346 -1765320.000000 0 0 1
-5.548684 27.980332 25.273253 38.110684 -1.375030 0.845772 0.078787 -0.026701 -2691230.000000 0 0 1
-4.812584 28.788832 26.133153 39.177794 -1.405159 0.840568 0.102849 -0.027481 123439.000000 0 0 1
-3.397984 28.692532 26.059133 38.908690 -1.452918 0.836923 0.086983 -0.023340 610252.000000 0 0 1
-2.772584 29.398132 24.807083 38.565902 -1.476763 0.872076 0.086152 -0.023978 -669526.000000 0 0 1
-3.253384 29.014032 23.541033 37.504384 -1.459131 0.892217 0.085743 -0.018066 -239891.000000 0 0 1
-2.786484 29.999232 22.632173 37.682008 -1.478177 0.926533 0.080770 -0.018521 137500.000000 0 0 1
-3.136384 29.594332 21.140073 36.504303 -1.465211 0.953158 0.067421 -0.011425 454227.000000 0 0 1
-4.523984 29.549032 20.864573 36.454659 -1.418875 0.961436 0.070053 -0.003186 -15787.000000 0 0 1
-5.102184 28.274832 21.111373 35.653731 -1.392268 0.937106 0.084192 -0.004447 119033.000000 0 0 1
-6.642884 28.181432 20.905073 35.711946 -1.339304 0.945447 0.070300 -0.005570 456780.000000 0 0 1
-6.970184 28.218832 19.523273 35.014913 -1.328639 0.979340 0.069853 -0.006781 102463.000000 0 0 1
-7.786084 27.187232 18.992873 34.066082 -1.291874 0.979388 0.050379 -0.010429 -471921.000000 0 0 1
-7.057284 25.817032 18.764973 32.687132 -1.303958 0.959318 0.048663 -0.012844 706343.000000 0 0 1
-6.094484 25.750732 17.700273 31.836184 -1.338400 0.981255 0.057913 -0.018567 808420.000000 0 0 1
-4.845384 26.386732 17.938273 32.272574 -1.389190 0.981427 0.083022 -0.018070 -117274.000000 0 0 1
-3.877984 26.450032 16.746473 31.545005 -1.425218 1.011163 0.082908 -0.026221 52126.000000 0 0 1
-3.451684 25.207232 16.209373 30.167242 -1.434710 1.003544 0.093194 -0.037191 -36179.000000 0 0 1
-2.713884 25.548232 15.029273 29.765020 -1.464967 1.041495 0.102361 -0.054204 -181341.000000 0 0 1
-1.875284 24.372532 14.557473 28.450959 -1.494005 1.033670 0.104711 -0.049525 -500406.000000 0 0 1
-0.807484 24.085532 15.428573 28.614782 -1.537283 1.001331 0.094559 -0.044887 -411542.000000 0 0 1
-0.123784 22.971132 15.019573 27.445871 -1.565408 0.991729 0.079239 -0.040538 -141574.000000 0 0 1
1.299416 22.661832 15.540773 27.509321 1.513520 0.970451 0.063163 -0.035637 1119140.000000 0 0 1
2.377116 23.561532 15.210873 28.145464 1.470247 0.999839 0.068623 -0.044462 764741.000000 0 0 1
3.626616 23.075132 15.656973 28.120364 1.414906 0.980287 0.075033 -0.038106 203941.000000 0 0 1
4.820016 24.009632 15.354273 28.904130 1.372676 1.010764 0.072870 -0.036178 -540315.000000 0 0 1
6.063016 23.472332 15.640673 28.850324 1.318017 0.997825 0.075622 -0.032353 -852668.000000 0 0 1
7.002216 24.532232 15.812073 30.014715 1.292760 1.015952 0.095432 -0.033056 -18563.500000 0 0 1
8.438516 23.936832 15.846473 29.921417 1.231867 1.012664 0.120059 -0.035145 123481.000000 0 0 1
8.924516 23.350532 14.644773 28.971775 1.205730 1.040853 0.103725 -0.025892 -275672.000000 0 0 1
9.475416 24.248332 13.773373 29.452860 1.198276 1.084176 0.118932 -0.032536 -597376.000000 0 0 1
10.050716 23.449132 12.580973 28.445731 1.165865 1.112657 0.104303 -0.025546 -214124.000000 0 0 1
11.256916 22.739832 12.687173 28.368689 1.111132 1.107137 0.109994 -0.023381 -85074.700000 0 0 1
11.332216 21.793632 11.611173 27.169852 1.091294 1.129231 0.087196 -0.028997 -1099970.000000 0 0 1
12.669016 21.125932 11.667373 27.256863 1.030605 1.128459 0.115973 -0.036085 -924878.000000 0 0 1
12.836516 20.274132 12.757873 27.176827 1.006360 1.082141 0.099801 -0.024454 -161734.000000 0 0 1
14.215416 20.025732 12.892773 27.736828 0.953485 1.087359 0.086978 -0.018732 -280218.000000 0 0 1
14.433816 19.080132 14.102973 27.771935 0.923158 1.038151 0.085453 -0.023667 310041.000000 0 0 1
15.815316 18.819432 14.354073 28.466378 0.871919 1.042287 0.078377 -0.012904 745557.000000 0 0 1
15.910716 18.019032 15.521173 28.613690 0.847456 0.997459 0.072706 -0.015478 447574.000000 0 0 1
17.275616 17.265432 15.520373 28.938280 0.785103 1.004717 0.058586 -0.012747 416382.000000 0 0 1
17.614716 16.729632 16.804873 29.539170 0.759633 0.965627 0.058877 -0.015193 -178690.000000 0 0 1
18.714716 15.866432 16.831173 29.753532 0.703218 0.969531 0.057306 -0.011096 -159035.000000 0 0 1
19.185116 15.496132 18.259173 30.685440 0.679428 0.933476 0.062178 -0.014472 36737.000000 0 0 1
19.792016 16.526932 19.056273 32.062516 0.695739 0.934342 0.081871 -0.007343 414910.000000 0 0 1
18.861216 17.415432 19.644773 32.325839 0.745565 0.917621 0.070265 -0.005015 -147434.000000 0 0 1
19.534816 18.561332 20.361973 33.774873 0.759850 0.923699 0.081692 -0.002096 -168609.000000 0 0 1
18.607716 19.395932 21.015473 34.118901 0.806136 0.907207 0.068001 -0.014738 126441.000000 0 0 1
19.256616 20.412632 21.815273 35.544324 0.814531 0.909997 0.079866 -0.008261 -448804.000000 0 0 1
18.389516 21.362832 22.569173 36.109728 0.860055 0.895644 0.077576 -0.012487 -677183.000000 0 0 1
17.542516 20.703632 23.488873 35.890213 0.867863 0.857322 0.082130 -0.010125 -6971.220000 0 0 1
16.905716 21.700132 24.212323 36.646085 0.908954 0.849036 0.086452 -0.016703 -361184.000000 0 0 1
16.035616 21.293232 25.413903 36.829461 0.925324 0.809248 0.104541 -0.019563 -515339.000000 0 0 1
14.890916 20.625332 25.014423 35.677235 0.945476 0.793814 0.093562 -0.025800 -664684.000000 0 0 1
14.057916 20.387932 26.140183 36.008360 0.967138 0.758385 0.084316 -0.026333 411110.000000 0 0 1
13.072016 19.187232 25.963483 34.830015 0.972740 0.729610 0.081822 -0.029114 374772.000000 0 0 1
13.689116 17.896832 26.065923 34.454620 0.917833 0.712807 0.077158 -0.034011 430903.000000 0 0 1
14.442216 17.420232 24.916183 33.657960 0.878592 0.737315 0.090779 -0.034937 197243.000000 0 0 1
13.699116 17.104732 23.559973 32.176233 0.895509 0.749225 0.108443 -0.034544 -247186.000000 0 0 1
13.153016 18.232832 22.854663 32.058909 0.945857 0.777177 0.100930 -0.024863 617946.000000 0 0 1
14.143516 19.069632 22.204273 32.507225 0.932643 0.818857 0.089014 -0.018765 848909.000000 0 0 1
14.858716 18.380832 20.986173 31.607846 0.890966 0.844701 0.091638 -0.017840 431209.000000 0 0 1
13.926816 18.060632 19.971473 30.315052 0.913918 0.851577 0.078648 -0.016818 497219.000000 0 0 1
14.563916 17.047432 19.238673 29.544020 0.863801 0.861649 0.066466 -0.011272 82418.800000 0 0 1
13.522216 16.405332 18.342573 28.079089 0.881438 0.858932 0.062833 -0.002714 -228257.000000 0 0 1
13.013116 17.243032 17.339173 27.700366 0.924301 0.894441 0.078998 -0.013492 291171.000000 0 0 1
12.046416 16.516732 16.568073 26.313868 0.940645 0.889716 0.059701 -0.008510 293838.000000 0 0 1
11.580616 17.138632 15.275173 25.713310 0.976564 0.934703 0.064425 -0.006539 -15990.600000 0 0 1
10.875016 18.366732 15.439373 26.343445 1.036203 0.944584 0.072442 -0.016595 226889.000000 0 0 1
10.351516 18.792532 14.170373 25.712111 1.067315 0.987094 0.082584 -0.015991 -564978.000000 0 0 1
9.215416 19.760832 14.280373 26.064218 1.134431 0.990954 0.086781 -0.018934 173399.000000 0 0 1
8.000116 19.352432 14.941673 25.724931 1.178800 0.951055 0.076085 -0.020165 348605.000000 0 0 1
7.084416 20.389332 14.824673 26.185583 1.236389 0.968982 0.072991 -0.021674 348364.000000 0 0 1
5.700716 20.159132 15.538973 26.083490 1.295206 0.932610 0.066648 -0.029043 338591.000000 0 0 1
4.829316 19.377632 14.772773 24.840486 1.326551 0.933897 0.062187 -0.029884 -199915.000000 0 1 0
3.643216 19.150832 15.538373 24.929269 1.382805 0.897843 0.056585 -0.030505 681775.000000 0 1 0
2.438316 18.552732 14.785073 23.848431 1.440119 0.902105 0.039371 -0.025747 246330.000000 0 1 0
1.615816 19.468832 14.087473 24.085331 1.487991 0.946041 0.042709 -0.033474 902120.000000 0 1 0
0.457716 18.821932 13.491373 23.162292 1.546483 0.949031 0.032656 -0.032007 1369080.000000 0 1 0
-0.453884 19.729632 12.558073 23.391657 -1.547795 1.004084 0.038304 -0.038437 145714.000000 0 1 0
-1.267184 20.604932 13.285773 24.549557 -1.509375 0.998954 0.058150 -0.031614 -475778.000000 0 1 0
-2.195184 21.085932 12.361573 24.540657 -1.467063 1.042899 0.046881 -0.024280 -1028100.000000 0 1 0
-3.530184 21.666232 12.716773 25.369354 -1.409281 1.045736 0.045652 -0.032720 -1064970.000000 0 0 1
-4.366384 20.769632 13.367073 25.082296 -1.363585 1.008738 0.050164 -0.032619 -108664.000000 0 0 1
-5.596084 21.479232 13.601273 26.032061 -1.315928 1.021037 0.057302 -0.026745 577571.000000 0 0 1
-6.453484 20.895732 14.765573 26.387520 -1.271247 0.976934 0.040134 -0.029507 -760819.000000 0 0 1
-7.164684 19.712632 14.417973 25.451886 -1.222184 0.968569 0.035560 -0.027891 95879.800000 0 0 1
-7.700384 19.022432 15.552073 25.749094 -1.186154 0.922304 0.026225 -0.013282 256576.000000 0 0 1
-8.751584 19.795932 16.417373 27.166142 -1.154540 0.921869 0.018321 -0.003173 -1003700.000000 0 0 1
-9.993584 19.834632 15.801373 27.257435 -1.104077 0.952425 0.007226 -0.014571 274766.000000 0 0 1
-11.071784 19.574932 16.763673 28.049654 -1.056047 0.930239 -0.004556 -0.004479 1184370.000000 0 0 1
-12.490384 19.423132 16.168373 28.190141 -0.999310 0.959967 0.009492 -0.015820 -109725.000000 0 0 1
-13.059384 20.638932 15.729373 29.050408 -1.006640 0.998634 0.001192 -0.005870 -220736.000000 0 0 1
-13.848584 20.250932 14.626573 28.562566 -0.970992 1.033181 -0.002200 -0.006016 -550292.000000 0 0 1
-14.953784 21.227232 14.265673 29.626348 -0.957082 1.068408 0.008039 -0.018747 371425.000000 0 0 1
-16.196684 21.102832 14.999173 30.539111 -0.916181 1.057391 0.006606 -0.021789 1000410.000000 0 0 1
-17.179984 22.033532 14.615973 31.531810 -0.908544 1.088820 0.030087 -0.034289 104688.000000 0 0 1
-18.546284 21.920632 15.317373 32.543827 -0.868591 1.080747 0.084910 -0.033124 -1394320.000000 0 0 1
-19.338284 20.849732 14.897273 32.103104 -0.822990 1.088241 0.073962 -0.029452 -318882.000000 0 0 1
-20.542484 20.638932 15.588973 33.029915 -0.787740 1.079278 0.102743 -0.034490 544110.000000 0 0 1
-21.583184 21.809832 15.449773 34.354011 -0.790621 1.104342 0.100723 -0.031226 -1439000.000000 0 0 1
-22.545384 21.716532 14.449073 34.477207 -0.766674 1.138353 0.121688 -0.035584 -150279.000000 0 0 1
-23.360884 22.867632 14.312873 35.686382 -0.774729 1.158108 0.133363 -0.040864 -241611.000000 0 0 1
-22.865084 24.113432 13.578473 35.897696 -0.811965 1.182886 0.121972 -0.036562 -1051610.000000 0 0 1
-21.845384 24.745532 14.284773 35.966886 -0.847565 1.162371 0.068990 -0.034353 -327339.000000 0 0 1
-21.502784 25.997632 13.681873 36.406596 -0.879745 1.185528 0.055236 -0.027326 113156.000000 0 0 1
-20.075384 26.494932 14.037073 36.083818 -0.922381 1.171236 0.035179 -0.021377 102633.000000 0 0 1
-19.045184 25.782332 13.440573 34.757685 -0.934572 1.173753 0.029028 -0.011306 -432523.000000 0 0 1
-17.771384 26.392132 13.559373 34.586462 -0.978175 1.167945 -0.002669 -0.016050 445436.000000 0 0 1
-16.705084 25.626532 12.704373 33.123709 -0.993110 1.177166 0.000808 -0.011546 -497568.000000 0 0 1
-15.487784 26.286032 12.663473 33.033173 -1.038354 1.177369 0.001482 -0.011377 -1337350.000000 0 0 1
-14.539084 25.491632 12.049273 31.723702 -1.052466 1.181195 0.000816 -0.002169 -372209.000000 0 0 1
-13.161784 26.203632 12.083873 31.715657 -1.105320 1.179912 0.001348 -0.005346 -99898.000000 0 0 1
-12.071084 25.394332 11.635173 30.429598 -1.127066 1.178443 0.011226 -0.003850 644485.000000 0 0 1
-10.779384 25.852532 12.005773 30.474368 -1.175758 1.165857 0.041486 -0.017548 447226.000000 0 0 1
-10.263584 27.000332 11.084673 30.939119 -1.207537 1.204378 0.055777 -0.025715 -267358.000000 0 0 1
-9.153184 27.741032 11.596273 31.429591 -1.252093 1.192906 0.085501 -0.040670 359146.000000 0 0 1
-8.836284 28.824932 10.782273 32.018964 -1.273341 1.227337 0.088580 -0.042613 -241264.000000 0 0 1
-7.695584 29.670932 11.405473 32.705826 -1.317024 1.214582 0.081550 -0.038880 96623.700000 0 0 1
-6.507484 28.916232 11.418873 31.762974 -1.349438 1.203061 0.093985 -0.047821 -832617.000000 0 0 1
-5.506384 29.524432 12.163473 32.403124 -1.386412 1.185990 0.125573 -0.053993 554355.000000 0 0 1
-4.021884 29.077632 11.893173 31.672256 -1.433353 1.185852 0.114177 -0.063354 636345.000000 0 0 1
-3.614584 29.544532 10.662773 31.617073 -1.449058 1.226805 0.122241 -0.063415 -599184.000000 0 0 1
-2.236084 29.427432 10.483573 31.318990 -1.494956 1.229472 0.124896 -0.053143 -360106.000000 0 0 1
-1.710584 30.015732 9.157773 31.428253 -1.513868 1.275120 0.117502 -0.048047 35967.500000 0 0 1
-2.012684 29.203232 8.067973 30.363990 -1.501985 1.301857 0.126551 -0.048726 -132416.000000 0 0 1
-2.081884 29.928832 6.887173 30.781527 -1.501347 1.345142 0.126297 -0.042379 85332.400000 0 0 1
12.555316 -33.608042 -27.057250 44.935856 -1.213271 2.216963 0.143437 -0.049842 58792.000000 0 0 1
12.937016 -33.598542 -25.682380 44.224575 -1.203247 2.190417 0.137401 -0.049369 396327.000000 0 0 1
13.962216 -32.631742 -25.467130 43.684651 -1.166495 2.193184 0.134688 -0.039494 168510.000000 0 0 1
14.506016 -32.586042 -23.996650 42.989694 -1.151974 2.163006 0.110832 -0.038913 -572086.000000 0 0 1
13.795116 -31.772542 -23.065450 41.615077 -1.161173 2.158266 0.126577 -0.044215 165467.000000 0 0 1
14.209516 -31.899542 -21.712550 41.120870 -1.151736 2.127061 0.094964 -0.032751 824555.000000 0 0 1
15.686716 -31.442742 -21.356150 41.119390 -1.108031 2.116909 0.060415 -0.020823 1020180.000000 0 0 1
16.621816 -32.311342 -21.976850 42.465156 -1.095674 2.114754 0.079275 -0.022776 -361493.000000 0 0 1
17.865216 -32.293342 -21.300350 42.611392 -1.065487 2.094250 0.067811 -0.024418 -44779.000000 0 0 1
18.851216 -33.287942 -21.954750 44.107442 -1.055519 2.091806 0.042362 -0.012247 -62491.700000 0 0 1
20.153716 -33.204542 -21.416350 44.355089 -1.025277 2.074690 0.043931 0.002860 784475.000000 0 0 1
21.064416 33.485732 -21.905450 45.220047 1.009285 2.076495 0.037004 0.007577 1100500.000000 0 0 1
22.575816 33.483432 -21.500250 45.750065 0.977570 2.060031 0.055292 0.014440 723356.000000 0 0 1
23.382216 -33.547842 -22.459250 46.654085 -0.962099 2.073047 0.046523 0.013317 554470.000000 0 0 1
24.752216 -33.610142 -22.054750 47.209383 -0.936023 2.056882 0.027304 0.012652 519465.000000 0 0 1
25.767516 -32.797542 -22.846750 47.556468 -0.904864 2.071922 0.043132 0.005608 -167275.000000 0 0 1
25.684716 -31.392742 -22.641450 46.452601 -0.885072 2.079917 0.056055 -0.003014 789389.000000 0 0 1
24.563416 -30.793742 -23.349050 45.790764 -0.897474 2.105873 0.046178 -0.000923 731242.000000 0 0 1
24.550116 -29.224342 -23.205150 44.668214 -0.872103 2.117062 0.065961 -0.011758 21945.300000 0 0 1
25.532216 -28.472042 -23.953750 45.125750 -0.839781 2.130367 0.079859 -0.011774 340828.000000 0 0 1
25.551516 -27.044142 -23.682050 44.103345 -0.813770 2.137634 0.096106 -0.005727 -11669.600000 0 0 1
25.940916 -26.139642 -24.811150 44.405013 -0.789214 2.163670 0.086969 -0.012151 477471.000000 0 0 1
25.007016 -26.051942 -25.882180 44.429064 -0.805860 2.192660 0.081917 -0.013373 -13360.700000 0 0 1
25.734616 -25.689342 -27.032570 45.309740 -0.784518 2.210076 0.079331 -0.013872 -658047.000000 0 0 1
24.928916 -25.655942 -28.300060 45.613283 -0.799770 2.240093 0.079557 -0.016376 118925.000000 0 0 1
24.017216 -24.593642 -28.493120 44.648984 -0.797256 2.262900 0.097127 -0.020443 -74353.700000 0 0 1
22.788516 -24.682342 -27.816920 43.615542 -0.825272 2.262403 0.088845 -0.015116 -601765.000000 0 0 1
22.036116 -23.308642 -27.691990 42.376048 -0.813454 2.282972 0.094175 -0.014878 101530.000000 0 0 1
21.378716 -22.743642 -28.792660 42.465751 -0.816323 2.315863 0.105615 -0.020575 103628.000000 0 0 1
20.795116 -21.553342 -28.354190 41.242496 -0.803301 2.328836 0.098203 -0.008273 25248.900000 0 0 1
19.765216 -20.872142 -29.305600 41.050313 -0.812631 2.365841 0.114006 -0.012607 395780.000000 0 0 1
18.605716 -21.649142 -29.527940 41.070150 -0.860859 2.373106 0.106119 -0.019676 -314953.000000 0 0 1
17.563616 -20.929942 -30.082070 40.638331 -0.872628 2.404222 0.089826 -0.018078 -91916.400000 0 0 1
16.203816 -21.687842 -29.973140 40.389544 -0.929129 2.406996 0.087968 -0.023130 97063.400000 0 0 1
15.964516 -22.750342 -30.868800 41.537051 -0.958913 2.408582 0.095749 -0.016191 118821.000000 0 0 1
15.448016 -23.856442 -30.154640 41.437583 -0.996152 2.385777 0.101223 -0.024680 -113931.000000 0 0 1
15.623316 -25.197642 -30.807690 42.756554 -1.015778 2.375373 0.134554 -0.029939 26221.500000 0 0 1
14.998916 -26.239342 -30.077690 42.639629 -1.051506 2.353774 0.123197 -0.031334 54708.200000 0 0 1
15.112616 -27.500442 -30.600080 43.829560 -1.068306 2.343622 0.172326 -0.029845 -286432.000000 0 0 1
14.412916 -28.566242 -29.797610 43.722533 -1.103520 2.320629 0.147161 -0.034280 -354026.000000 0 0 1
14.858216 -28.918042 -28.456180 43.206179 -1.096166 2.289771 0.171620 -0.046578 -181226.000000 0 0 1
14.734716 -27.856942 -27.468550 41.804812 -1.084264 2.287717 0.139278 -0.042410 -36890.400000 0 0 1
15.775616 -28.001542 -26.327750 41.546442 -1.057736 2.257116 0.096988 -0.025197 -77341.000000 0 0 1
15.566316 -29.047142 -25.429310 41.625670 -1.078844 2.227999 0.102376 -0.031106 185696.000000 0 0 1
16.360316 -28.908842 -24.238050 41.120118 -1.055807 2.201168 0.105533 -0.037386 -580146.000000 0 0 1
15.872316 -27.867242 -23.221550 39.594873 -1.053053 2.197501 0.088265 -0.031947 876558.000000 0 0 1
14.653716 -28.110042 -22.509450 38.879058 -1.090256 2.188250 0.084286 -0.032099 207407.000000 0 0 1
13.448116 -28.173842 -23.218750 38.906651 -1.125452 2.210280 0.099550 -0.029998 -914035.000000 0 0 1
12.251016 -28.086742 -22.264350 37.876823 -1.159490 2.199145 0.069395 -0.022269 -267645.000000 0 0 1
12.025916 -26.723642 -21.898350 36.582966 -1.147934 2.212541 0.052012 -0.020730 91766.400000 0 0 1
10.799216 -26.598842 -21.206450 35.690825 -1.185125 2.207031 0.065575 -0.021164 -14227.000000 0 0 1
10.373816 -25.131542 -21.059750 34.390747 -1.179321 2.229847 0.065180 -0.019696 135666.000000 0 0 1
11.041416 -24.510642 -19.953550 33.478778 -1.147548 2.209314 0.056638 -0.019436 304659.000000 0 0 1
10.694116 -23.153042 -20.007050 32.414649 -1.138100 2.236004 0.064454 -0.025004 -238238.000000 0 0 1
11.198916 -22.286142 -18.815150 31.242562 -1.105146 2.217086 0.061354 -0.026609 66151.800000 0 0 1
10.563516 -22.742242 -17.629450 30.652813 -1.135959 2.183563 0.085651 -0.033601 277679.000000 0 0 1
10.867516 -21.975742 -16.463150 29.530856 -1.111540 2.162155 0.084797 -0.033529 -269678.000000 0 0 1
10.106216 -22.443442 -15.224150 28.941638 -1.147695 2.124721 0.081795 -0.028336 -131261.000000 0 0 1
10.491116 -23.685742 -14.698150 29.784450 -1.153838 2.086887 0.089994 -0.023371 -19731.000000 0 0 1
9.812116 -23.965742 -13.497150 29.202867 -1.182194 2.051255 0.094576 -0.025272 24712.100000 0 0 1
9.915616 -25.463342 -13.238650 30.363845 -1.199455 2.021946 0.103784 -0.023081 554053.000000 0 0 1
11.222516 -25.872542 -12.838850 30.986599 -1.161528 1.998009 0.087595 -0.029360 177370.000000 0 0 1
11.373316 -27.225142 -13.102650 32.283743 -1.175082 1.988715 0.092444 -0.030271 150954.000000 0 0 1
12.787216 -27.655142 -12.597850 32.970071 -1.137694 1.962864 0.086268 -0.035923 1135110.000000 0 0 1
13.920016 -27.043342 -13.252550 33.177391 -1.095434 1.981708 0.096491 -0.028398 540634.000000 0 0 1
14.249116 -27.485842 -14.554150 34.210117 -1.092524 2.010238 0.090363 -0.026436 -1120880.000000 0 0 1
15.549716 -26.881242 -15.060950 34.514157 -1.046366 2.022357 0.078803 -0.026422 -511633.000000 0 0 1
16.680916 -27.537142 -14.526650 35.320967 -1.026152 1.994649 0.100414 -0.022821 -189333.000000 0 0 1
17.847816 -27.002542 -15.133650 35.731067 -0.986749 2.008149 0.116942 -0.024317 -146234.000000 0 0 1
19.102116 -27.807042 -14.845950 36.858169 -0.968881 1.985355 0.113824 -0.025418 -284929.000000 0 0 1
19.121316 -29.000542 -15.595350 38.077173 -0.987881 1.992781 0.093462 -0.009805 -547187.000000 0 0 1
20.421716 -29.501942 -15.686050 39.159459 -0.965314 1.982934 0.098938 -0.007191 -153817.000000 0 0 1
20.581216 -30.417842 -16.895350 40.426283 -0.975937 2.001962 0.088033 -0.012757 38485.100000 0 0 1
20.401116 -31.772742 -16.636750 41.261291 -0.999998 1.985813 0.072817 0.003474 78313.700000 0 0 1
20.986516 -32.608842 -17.662750 42.611538 -0.998945 1.998197 0.069815 -0.006900 226713.000000 0 0 1
20.771516 33.616332 -17.357950 43.160307 1.017319 1.984686 0.052314 0.001964 35095.800000 0 0 1
21.524716 33.139032 -16.263650 42.731899 0.994753 1.961239 0.057503 -0.003572 -9124.080000 0 0 1
21.233816 31.815332 -15.966250 41.448902 0.982280 1.966224 0.051513 -0.009492 -703861.000000 0 0 1
22.091416 31.248732 -14.855250 41.051095 0.955418 1.941072 0.050073 -0.014618 -520266.000000 0 0 1
23.448016 31.016432 -15.218350 41.754361 0.923475 1.943863 0.044799 -0.008006 307686.000000 0 0 1
24.320416 30.889232 -14.124250 41.774654 0.903821 1.915700 0.036877 -0.011039 -23109.700000 0 0 1
24.170716 29.705632 -13.214350 40.512555 0.887773 1.903055 0.038980 -0.011800 -1010050.000000 0 0 1
24.398216 28.416532 -13.834950 39.927160 0.861335 1.924639 0.045553 -0.001192 130218.000000 0 0 1
24.117816 27.278932 -13.018650 38.669037 0.846825 1.914173 0.034003 -0.002052 -368756.000000 0 0 1
22.670116 26.999532 -12.569450 37.428598 0.872343 1.913277 0.045355 -0.007275 -857733.000000 0 0 1
21.859216 26.810032 -13.733850 37.218568 0.886773 1.948735 0.054658 -0.011810 406173.000000 0 0 1
20.493216 26.770732 -13.309450 36.246179 0.917444 1.946789 0.065736 -0.010072 202075.000000 0 0 1
19.818716 28.145632 -13.395950 36.937915 0.957291 1.941918 0.073977 -0.013864 -662596.000000 0 0 1
19.676616 28.839032 -14.635650 37.855795 0.972055 1.967756 0.068252 -0.008212 -234220.000000 0 0 1
18.903216 28.173332 -15.576050 37.332045 0.979826 2.001192 0.065195 0.000213 -828746.000000 0 0 1
18.875916 28.696232 -17.041650 38.343080 0.988969 2.031358 0.052125 0.003365 -186873.000000 0 0 1
18.153016 29.889832 -17.188550 38.966400 1.025004 2.027634 0.049195 -0.003352 -32589.800000 0 0 1
18.151816 30.324832 -18.550150 39.914808 1.031422 2.054141 0.043136 0.003632 -34151.200000 0 0 1
16.988816 31.294632 -18.852350 40.291252 1.073446 2.057711 0.042683 0.001703 39972.600000 0 0 1
17.005316 32.495732 -18.132650 40.913890 1.088676 2.029951 0.050011 -0.009262 21575.100000 0 0 1
16.035016 33.388032 -18.645650 41.467369 1.123063 2.037166 0.056535 -0.005966 103584.000000 0 0 1
16.089316 -33.057542 -17.784250 40.840503 -1.117840 2.021341 0.064040 -0.008233 543850.000000 0 0 1
15.019616 -32.200342 -18.191550 39.917206 -1.134353 2.043991 0.057547 -0.009160 312925.000000 0 0 1
14.619116 -31.428742 -17.062950 38.634552 -1.135414 2.028233 0.065269 -0.013843 -183668.000000 0 0 1
13.591516 -30.378742 -17.496150 37.599369 -1.150105 2.054805 0.062532 -0.015692 -1346790.000000 0 0 1
12.404616 -30.923942 -17.872950 37.810144 -1.189314 2.063151 0.075280 -0.010724 -2063850.000000 0 0 1
11.434216 -29.937942 -18.051850 36.781666 -1.205963 2.083786 0.060605 -0.005687 -127800.000000 0 0 1
10.141716 -30.768342 -18.320350 37.218013 -1.252396 2.085462 0.078701 -0.016079 -831879.000000 0 0 1
9.562516 -31.400042 -17.176750 37.046526 -1.275181 2.052911 0.092796 -0.010925 479957.000000 0 0 1
8.443316 -32.223042 -17.511450 37.633295 -1.314530 2.054790 0.118751 -0.008564 1186640.000000 0 0 1
7.087716 -31.701842 -18.116550 37.194783 -1.350839 2.079531 0.115749 -0.006922 268749.000000 0 0 1
7.148816 -31.164442 -19.422050 37.410480 -1.345307 2.116665 0.100929 -0.005493 -181647.000000 0 0 1
7.133016 -32.188342 -20.365050 38.751832 -1.352718 2.124128 0.100949 -0.022415 -673102.000000 0 0 1
7.473216 -31.586242 -21.730550 39.060932 -1.338471 2.160752 0.101074 -0.017200 -203714.000000 0 0 1
8.782616 -31.265442 -22.130050 39.298871 -1.296949 2.168955 0.087585 -0.016362 87569.900000 0 0 1
9.757916 -32.292342 -22.311850 40.445406 -1.277346 2.155142 0.092034 -0.017675 182897.000000 0 0 1
9.593116 -33.309142 -23.494150 41.874836 -1.290382 2.166458 0.118291 -0.038485 -538365.000000 0 0 1
8.488716 33.588032 -23.171150 41.678728 1.323250 2.160298 0.136665 -0.049118 -362190.000000 0 0 1
8.255716 32.498332 -24.074450 41.278052 1.322024 2.193491 0.142224 -0.062940 799274.000000 0 0 1
6.968516 31.662532 -23.676250 40.145248 1.354163 2.201564 0.140903 -0.067233 646621.000000 0 0 1
5.693516 32.208032 -23.777650 40.436989 1.395831 2.199402 0.137567 -0.065253 -228810.000000 0 0 1
5.276416 32.974432 -22.644650 40.347663 1.412126 2.166677 0.103079 -0.056869 -797576.000000 0 0 1
4.037616 33.814832 -22.909750 41.043901 1.451955 2.162983 0.094773 -0.051732 -636082.000000 0 0 1
2.876316 33.036332 -22.931050 40.317558 1.483950 2.175795 0.085010 -0.051905 -281390.000000 0 0 1
1.748016 33.796932 -23.311550 41.093996 1.519121 2.173988 0.074897 -0.043155 1041680.000000 0 0 1
0.376916 33.218532 -22.761450 40.270293 1.559450 2.171492 0.055805 -0.042317 938300.000000 0 0 1
0.256116 33.433932 -21.347750 39.668877 1.563136 2.139035 0.042842 -0.034422 -802457.000000 0 0 1
-1.014784 33.051832 -20.938750 39.139298 -1.540103 2.135281 0.038189 -0.044391 -529389.000000 0 0 1
-1.365984 33.279532 -19.454350 38.572852 -1.529774 2.099429 0.053605 -0.035900 -30803.700000 0 0 1
-0.629984 32.507332 -18.556250 37.436051 -1.551419 2.089412 0.061565 -0.044050 -196158.000000 0 0 1
-1.157584 32.703132 -17.251250 36.992438 -1.535414 2.055951 0.040752 -0.028896 249083.000000 0 0 1
-0.481184 31.751832 -16.250250 35.671852 -1.555643 2.043784 0.033098 -0.019208 213575.000000 0 0 1
0.736616 32.229032 -15.730850 35.870779 1.547945 2.024772 0.023990 -0.013982 -281749.000000 0 0 1
1.487616 31.135032 -15.222450 34.688993 1.523053 2.025089 0.030026 -0.007642 458949.000000 0 0 1
2.712716 31.550832 -14.370150 34.775207 1.485028 1.996794 0.056452 -0.018924 40771.700000 0 0 1
3.671916 32.325132 -15.028950 35.836664 1.457688 2.003551 0.064540 -0.019160 -158099.000000 0 0 1
4.650016 32.800432 -14.109750 36.008000 1.429968 1.973438 0.080125 -0.026714 561585.000000 0 0 1
6.005116 33.270632 -14.737450 36.880738 1.392226 1.981874 0.099045 -0.037976 593425.000000 0 0 1
6.625616 32.057532 -15.141250 36.067182 1.366987 2.004029 0.100038 -0.029781 -289811.000000 0 0 1
7.786216 32.112732 -15.954550 36.693329 1.332922 2.020621 0.099781 -0.008205 377941.000000 0 0 1
8.769616 30.932232 -15.779250 35.814716 1.294535 2.027041 0.076729 -0.024515 -59419.400000 0 0 1
9.402116 30.956832 -14.532250 35.467048 1.275933 1.992965 0.070344 -0.026817 -241306.000000 0 0 1
10.333216 29.899732 -14.342850 34.734517 1.238051 1.996463 0.071462 -0.027391 346407.000000 0 0 1
9.721816 28.501732 -13.990450 33.205348 1.242076 2.005709 0.067548 -0.026270 294507.000000 0 0 1
8.898516 27.883132 -14.992550 32.885091 1.261877 2.044188 0.072212 -0.029954 318249.000000 0 0 1
8.696316 26.534132 -14.571850 31.496427 1.254088 2.051779 0.069015 -0.022017 -205345.000000 0 0 1
7.886716 25.680232 -15.593450 31.061717 1.272827 2.096723 0.080165 -0.020657 291824.000000 0 0 1
8.613816 25.257732 -16.761950 31.513708 1.242129 2.131632 0.087352 -0.019611 282147.000000 0 0 1
7.850616 24.331432 -17.476650 30.969082 1.258688 2.170413 0.083085 -0.015420 982768.000000 0 0 1
8.872816 23.495332 -18.408850 31.139095 1.209712 2.203319 0.088295 -0.012505 993583.000000 0 0 1
8.276416 22.461632 -19.208250 30.691706 1.217764 2.247011 0.108630 -0.017345 169123.000000 0 0 1
9.246916 21.599832 -19.763850 30.702898 1.166302 2.270136 0.086453 -0.012326 9974.330000 0 0 1
8.506316 20.640232 -20.658450 30.416248 1.179883 2.317457 0.081881 -0.020062 -11577.200000 0 0 1
7.752516 19.681432 -19.986950 29.102207 1.195560 2.327853 0.098923 -0.024455 182380.000000 0 0 1
6.869916 18.998432 -20.893150 29.063033 1.223821 2.373002 0.096609 -0.025565 381043.000000 0 0 1
25.646616 -12.219968 -9.653150 30.004330 -0.444651 1.898347 0.086973 -0.002709 -280374.000000 0 0 1
26.305016 -11.655268 -8.562950 30.018715 -0.417086 1.860067 0.101781 -0.012248 383985.000000 0 0 1
25.618316 -11.931068 -7.330650 29.195666 -0.435853 1.824599 0.093642 -0.001547 -7614.570000 0 0 1
26.254516 -11.259668 -6.062550 29.203326 -0.405141 1.779915 0.079821 -0.010168 -139501.000000 0 0 1
25.995116 -9.884068 -5.842450 28.417865 -0.363346 1.777864 0.095693 -0.023269 721437.000000 0 0 1
26.872016 -9.055568 -6.622950 29.119959 -0.325037 1.800241 0.072853 -0.031565 -1148330.000000 0 0 1
27.070716 -7.658068 -5.997850 28.765324 -0.275688 1.780847 0.116842 -0.035184 -20151.600000 0 0 1
27.792916 -7.549568 -4.770450 29.192454 -0.265236 1.734946 0.146722 -0.054092 199929.000000 0 0 1
29.066916 -8.139668 -4.880450 30.577093 -0.273038 1.731093 0.138185 -0.057729 -990485.000000 0 0 1
29.864316 -8.112168 -3.506950 31.144555 -0.265234 1.683638 0.149842 -0.062773 144022.000000 0 0 1
30.353616 -6.807668 -3.165750 31.268328 -0.220628 1.672215 0.168670 -0.055181 424351.000000 0 0 1
31.192816 -6.793668 -2.036150 31.988929 -0.214447 1.634491 0.166071 -0.046054 -170426.000000 0 0 1
31.661916 -5.415968 -1.611750 32.162204 -0.169417 1.620930 0.164182 -0.050062 78551.000000 0 0 1
30.624816 -4.571168 -1.120550 30.984360 -0.148170 1.606969 0.218371 -0.046534 480763.000000 0 0 1
31.102016 -3.276068 -0.791950 31.284105 -0.104946 1.596114 0.191315 -0.023944 -166836.000000 0 0 1
31.775016 -3.177368 0.583050 31.938805 -0.099664 1.552540 0.174628 -0.031055 -219288.000000 0 0 1
30.836716 -3.206068 1.625350 31.045510 -0.103597 1.518419 0.225696 -0.052679 282898.000000 0 0 1
31.482016 -2.906368 2.845450 31.743675 -0.092057 1.481038 0.175868 -0.035557 -152546.000000 0 0 1
30.982616 -3.591668 4.114550 31.460326 -0.115410 1.439635 0.198958 -0.042849 -228749.000000 0 0 1
31.335316 -4.961268 4.072750 31.985989 -0.157025 1.443121 0.170801 -0.044505 249594.000000 0 0 1
31.021516 -5.668968 5.268150 31.972255 -0.180749 1.405269 0.163159 -0.046582 -62500.400000 0 0 1
31.627116 -7.074168 5.323750 32.842969 -0.220052 1.407981 0.134685 -0.032695 1268050.000000 0 0 1
33.049716 -7.125968 5.587450 34.267809 -0.212363 1.407013 0.148295 -0.039134 1196210.000000 0 0 1
33.692916 -8.338668 5.265850 35.106626 -0.242615 1.420232 0.146099 -0.032402 591519.000000 0 0 1
35.249316 -8.231568 5.338650 36.589263 -0.229413 1.424366 0.180147 -0.044277 607397.000000 0 0 1
35.886316 -7.582268 4.224850 36.921103 -0.208223 1.456116 0.183800 -0.040433 -690876.000000 0 0 1
37.201416 -7.373568 4.646050 38.208646 -0.195671 1.448898 0.189744 -0.033860 -287818.000000 0 0 1
-36.848109 -7.367768 3.410550 37.731936 0.197347 1.480284 0.180796 -0.034893 -30515.900000 0 0 1
-36.482709 -8.624268 2.891850 37.599585 0.232132 1.493809 0.223947 -0.041083 146896.000000 0 0 1
-35.548409 -8.430168 1.859650 36.581626 0.232845 1.519939 0.230368 -0.043214 -299663.000000 0 0 1
-35.117309 -9.732068 1.271050 36.463051 0.270346 1.535931 0.226742 -0.040762 -317418.000000 0 0 1
-34.207109 -10.467868 2.049850 35.831612 0.296965 1.513557 0.228979 -0.042568 57567.600000 0 0 1
-33.974609 -11.672968 1.343550 35.949094 0.330943 1.533414 0.240765 -0.051426 -528183.000000 0 0 1
-33.411209 -12.865668 2.193150 35.869823 0.367570 1.509616 0.170303 -0.056094 761908.000000 0 0 1
-32.024909 -12.861568 2.533050 34.603916 0.381895 1.497530 0.179346 -0.039350 207227.000000 0 0 1
-31.181909 -13.172868 1.498650 33.883356 0.399711 1.526552 0.178258 -0.028512 -1177840.000000 0 0 1
-29.764509 -13.543068 1.965150 32.759769 0.427010 1.510774 0.169569 -0.024595 -448021.000000 0 0 1
-28.948509 -12.441268 2.209850 31.586148 0.405906 1.500776 0.143557 -0.026051 -639527.000000 0 0 1
-27.721209 -12.852768 2.722350 30.676868 0.434142 1.481937 0.135662 -0.013684 -468436.000000 0 0 1
-26.850009 -11.666868 3.196050 29.449168 0.409907 1.462054 0.132861 -0.010337 -1162670.000000 0 0 1
-25.568709 -12.035868 3.515550 28.477712 0.439956 1.447031 0.127208 -0.001554 -918212.000000 0 0 1
-25.026109 -11.068368 4.398850 27.715785 0.416409 1.411410 0.125231 -0.007898 332454.000000 0 0 1
-23.569609 -11.325168 4.878850 26.600546 0.447925 1.386340 0.113156 -0.006308 357939.000000 0 0 1
-23.463009 -12.502768 5.695950 27.189627 0.489598 1.359743 0.103566 -0.004412 -31894.300000 0 0 1
-22.139009 -12.749268 6.131050 26.272977 0.522490 1.335265 0.091016 -0.005172 18279.800000 0 0 1
-22.020109 -12.545168 7.682850 26.481930 0.517853 1.276448 0.112426 -0.022842 -457737.000000 0 0 1
-21.670909 -11.223868 8.027450 25.691311 0.477883 1.253017 0.099046 -0.017475 90410.800000 0 0 1
-22.593309 -10.394568 8.701050 26.347920 0.431199 1.234242 0.096198 -0.008355 -866819.000000 0 0 1
-22.812409 -10.687968 10.199150 27.178324 0.438144 1.186111 0.098346 -0.000869 -583826.000000 0 0 1
-23.454909 -11.935368 10.543250 28.350412 0.470714 1.189752 0.085370 -0.013935 1292430.000000 0 0 1
-24.860109 -12.066968 10.262650 29.478105 0.451895 1.215205 0.079472 -0.017153 473619.000000 0 0 1
-25.773609 -11.265868 11.182350 30.269517 0.412082 1.192405 0.090816 -0.012923 -1032040.000000 0 0 1
-25.909309 -11.928368 12.408850 31.105591 0.431460 1.160450 0.081681 -0.021323 838437.000000 0 0 1
-27.228709 -11.668168 12.916350 32.316881 0.404852 1.159631 0.078324 -0.027976 512545.000000 0 0 1
-27.578109 -12.414968 14.146650 33.388789 0.422999 1.133276 0.085892 -0.032773 -589972.000000 0 0 1
-27.674909 -13.791268 13.883250 33.894605 0.462312 1.148780 0.083988 -0.028774 354066.000000 0 0 1
-28.116709 -14.495168 15.042050 35.027453 0.475999 1.126928 0.076373 -0.019167 38149.800000 0 0 1
-27.973209 -16.034268 14.934950 35.533799 0.520481 1.137017 0.071344 -0.021787 -73338.000000 0 0 1
-29.061509 -16.681168 15.545450 36.939053 0.521079 1.136425 0.068665 -0.014457 27641.600000 0 0 1
-28.888809 -18.084868 15.366450 37.386542 0.559330 1.147229 0.055348 -0.008663 69490.800000 0 0 1
-29.788309 -18.951768 16.288150 38.882087 0.566623 1.138550 0.037041 0.001208 -143670.000000 0 0 1
-29.594709 -18.864168 17.650750 39.284254 0.567479 1.104805 0.037837 0.001538 -510143.000000 0 0 1
-30.210809 -19.844768 18.373250 40.547307 0.581194 1.100522 0.052665 0.002802 -221150.000000 0 0 1
-29.293309 -21.085068 18.591050 40.599325 0.623886 1.095148 0.028078 0.004468 120259.000000 0 0 1
-28.079909 -20.804768 19.252950 39.899821 0.637660 1.067253 0.046741 0.003177 -259109.000000 0 0 1
-27.316809 -21.959768 19.392650 40.056389 0.677110 1.065423 0.054082 0.001354 332369.000000 0 0 1
-25.894009 -21.627568 19.961550 39.200955 0.695859 1.036529 0.073785 0.002265 735217.000000 0 0 1
-25.018209 -21.057568 18.998550 37.819001 0.699650 1.044477 0.081761 -0.007503 -173409.000000 0 0 1
-23.694909 -20.978068 19.462350 37.152538 0.724657 1.019432 0.095587 -0.009689 204365.000000 0 0 1
-22.638309 -20.583268 18.390150 35.698201 0.737887 1.029606 0.092439 -0.023367 128445.000000 0 0 1
-22.267109 -21.642468 17.561050 35.673674 0.771174 1.056102 0.086521 -0.030256 175139.000000 0 0 1
-20.928509 -21.468368 17.136050 34.533136 0.798131 1.051556 0.088257 -0.019547 139219.000000 0 0 1
-20.501309 -22.506568 16.060250 34.420646 0.831990 1.085367 0.094921 -0.025879 -557928.000000 0 0 1
-20.553809 -23.911568 16.308550 35.499168 0.860769 1.093469 0.087700 -0.035114 727199.000000 0 0 1
-19.523509 -24.571568 17.086250 35.733308 0.899383 1.072237 0.088228 -0.039214 -280255.000000 0 0 1
-18.134009 -24.720268 16.520350 34.826080 0.937895 1.076551 0.087174 -0.042188 -672197.000000 0 0 1
-17.524109 -23.478168 16.203650 33.479502 0.929603 1.065591 0.090912 -0.044991 775532.000000 0 0 1
-16.261809 -23.785368 15.523550 32.728745 0.971101 1.076617 0.090515 -0.039621 1340830.000000 0 0 1
-15.362209 -22.519468 15.230050 31.226244 0.972134 1.061306 0.088370 -0.033873 287151.000000 0 0 1
-15.934809 -21.416068 14.466350 30.361841 0.931109 1.074167 0.095281 -0.028562 341083.000000 0 0 1
-17.008109 -20.678668 15.064450 30.721665 0.882488 1.058302 0.098442 -0.028172 332272.000000 0 0 1
-16.531809 -19.572868 16.064450 30.240113 0.869429 1.010745 0.102533 -0.020428 29621.500000 0 0 1
-16.064609 -18.412768 15.365750 28.865342 0.853400 1.009451 0.094857 -0.021910 66844.000000 0 0 1
-15.906209 -17.272868 16.197250 28.525609 0.826565 0.966948 0.091808 -0.023633 159218.000000 0 0 1
-15.143009 -16.112668 15.405150 26.948978 0.816412 0.962291 0.080586 -0.019919 317154.000000 0 0 1
-15.967009 -15.377168 14.544050 26.512866 0.766582 0.990148 0.096082 -0.027261 -45836.600000 0 0 1
-16.187109 -16.013368 13.317350 26.378064 0.780003 1.041571 0.126206 -0.029202 -93738.500000 0 0 1
-17.116809 -15.170968 12.393850 26.014437 0.725205 1.074216 0.108366 -0.019764 -491489.000000 0 0 1
-18.431609 -15.314768 12.831250 27.182849 0.693299 1.079199 0.100501 -0.020769 -588648.000000 0 0 1
-19.280109 -14.400268 12.137750 26.952092 0.641513 1.103644 0.125808 -0.020551 762103.000000 0 0 1
-20.826709 -14.627868 12.364950 28.295199 0.612309 1.118538 0.097522 -0.022529 1042850.000000 0 0 1
-21.358509 -15.801968 11.754750 29.052749 0.636970 1.154255 0.104689 -0.019564 194168.000000 0 0 1
-21.595009 -15.656668 10.375850 28.620516 0.627317 1.199813 0.125348 -0.014903 -666605.000000 0 0 1
-22.227109 -16.861168 9.695650 29.535554 0.648973 1.236324 0.123821 -0.008794 70761.000000 0 0 1
-21.345409 -17.964468 9.507350 29.474366 0.699602 1.242360 0.127079 -0.001822 299348.000000 0 0 1
-21.908709 -18.884568 8.575250 30.168748 0.711400 1.282580 0.137402 -0.016873 295495.000000 0 0 1
-21.292809 -20.303068 8.718050 30.685545 0.761608 1.282719 0.133312 -0.009678 77144.800000 0 0 1
-19.971809 -20.471568 8.277250 29.773664 0.797755 1.289079 0.153628 -0.005242 -379972.000000 0 0 1
-19.590609 -21.836668 8.413050 30.519034 0.839562 1.291514 0.123704 -0.010062 168406.000000 0 0 1
-18.241709 -22.170068 7.757250 29.739650 0.882302 1.306905 0.108479 -0.008750 -300219.000000 0 0 1
-17.061609 -21.841168 8.414650 28.964486 0.907645 1.276030 0.083987 -0.015897 -239927.000000 0 0 1
-15.941009 -21.962368 7.559850 28.171132 0.942942 1.299112 0.094021 -0.014039 212259.000000 0 0 1
-14.579609 -21.646768 8.251650 27.372199 0.978062 1.264572 0.036937 -0.006883 -197893.000000 0 0 1
-13.558709 -21.994968 7.344850 26.861944 1.018372 1.293840 0.052081 0.000006 -167373.000000 0 0 1
-12.355309 -21.891068 8.121650 26.416542 1.056965 1.258289 0.045878 0.004534 810657.000000 0 0 1
-11.057709 -22.479168 7.498450 26.149812 1.113642 1.279964 0.028228 0.010955 376849.000000 0 0 1
-11.181409 -23.857668 7.243350 27.325416 1.132524 1.302512 0.024497 0.013476 169554.000000 0 0 1
-9.915809 -24.416668 6.902250 27.242210 1.185035 1.314638 0.051212 0.000257 527436.000000 0 0 1
-9.905809 -25.929728 7.159450 28.665895 1.205881 1.318369 0.048851 -0.001555 15983.900000 0 0 1
-10.693009 -26.612118 6.200050 29.342561 1.188731 1.357893 0.058260 -0.003174 -132397.000000 0 0 1
-10.711309 -27.989648 6.429450 30.651107 1.205302 1.359464 0.090770 -0.013602 109392.000000 0 0 1
-9.575809 -28.800858 5.773850 30.895353 1.249811 1.382807 0.107148 -0.024853 -457702.000000 0 0 1
-8.256809 -28.366498 6.023050 30.151455 1.287547 1.369683 0.102073 -0.026814 -263668.000000 0 0 1
-7.259809 -29.249318 5.574250 30.647996 1.327508 1.387899 0.110911 -0.023851 177166.000000 0 0 1
-7.133809 -30.542608 6.399250 32.010819 1.341341 1.369531 0.131970 -0.036465 -744538.000000 0 0 1
-6.962809 -30.381988 7.734650 32.114961 1.345511 1.327562 0.138368 -0.032665 8397.140000 0 0 1
-7.056809 -31.655118 8.295850 33.476352 1.351455 1.320375 0.168135 -0.044329 -114408.000000 0 0 1
-7.287809 -31.536548 9.822350 33.825206 1.343692 1.276167 0.141274 -0.041544 -360159.000000 0 0 1
-6.202809 -31.029508 10.539150 33.352344 1.373497 1.249292 0.126218 -0.032056 47133.800000 0 0 1
-6.510809 -31.154928 11.942650 33.994809 1.364780 1.211828 0.101999 -0.026324 -410892.000000 0 0 1
-5.612809 -30.323618 12.818150 33.396563 1.387771 1.176871 0.088811 -0.025757 -276851.000000 0 0 1
-5.825809 -28.943168 12.688050 32.134617 1.372166 1.164902 0.083695 -0.026069 -125515.000000 0 0 1
-5.108809 -28.232698 13.667550 31.780294 1.391780 1.126233 0.070398 -0.029503 -260293.000000 0 0 1
-5.925809 -27.660698 14.879750 31.963047 1.359754 1.086563 0.064080 -0.029679 -199048.000000 0 0 1
-6.546809 -28.559148 15.772950 33.275691 1.345453 1.076959 0.062229 -0.027409 682748.000000 0 0 1
-5.650809 -29.487258 16.464450 34.241906 1.381456 1.069198 0.055444 -0.026309 270316.000000 0 0 1
-6.385809 -30.616038 17.149950 35.668489 1.365167 1.069212 0.048085 -0.018588 -166524.000000 0 0 1
-7.274809 -31.239698 16.250550 35.957224 1.342003 1.101856 0.059237 -0.017869 116890.000000 0 0 1
-7.643809 -32.628968 16.542550 37.372896 1.340681 1.112261 0.070542 -0.022233 156894.000000 0 0 1
-6.614809 -33.637668 15.982750 37.824551 1.376625 1.134540 0.070657 -0.026366 4873.630000 0 0 1
-6.608809 -33.740058 14.550450 37.333409 1.377371 1.170443 0.076081 -0.036404 321632.000000 0 0 1
-5.793809 32.839420 14.071150 36.193826 -1.396165 1.171498 0.083613 -0.038511 243553.000000 0 0 1
-4.545809 33.316413 13.345350 36.176597 -1.435190 1.192977 0.110305 -0.045048 -327295.000000 0 0 1
-4.858809 33.537350 11.990050 35.946115 -1.426920 1.230723 0.115400 -0.044991 3912.430000 0 0 1
-3.732809 -33.774928 11.208450 35.781405 1.460723 1.252185 0.129306 -0.047748 -373062.000000 0 0 1
-3.936809 -33.524898 9.710350 35.124182 1.453902 1.290690 0.129805 -0.045695 -652772.000000 0 0 1
-4.199809 33.080069 8.807350 34.489111 -1.444513 1.312570 0.131187 -0.056794 518504.000000 0 0 1
-5.097809 31.994696 9.082350 33.647249 -1.412792 1.297478 0.140128 -0.063169 453320.000000 0 0 1
-6.590809 32.282378 9.393750 34.261250 -1.369403 1.293059 0.154109 -0.055773 -119433.000000 0 0 1
-7.375809 32.608702 8.278050 34.442069 -1.348348 1.328073 0.161953 -0.048138 -735541.000000 0 0 1
-8.679809 32.863885 8.726650 35.093140 -1.312579 1.319488 0.140972 -0.044303 -407069.000000 0 0 1
-9.758809 33.016457 7.666050 35.271648 -1.283405 1.351705 0.151891 -0.054728 -313125.000000 0 0 1
-9.794809 -33.424458 6.987050 35.523957 1.285734 1.372820 0.163842 -0.048597 -146537.000000 0 0 1
-10.480809 -33.667428 5.786050 35.732638 1.269001 1.408154 0.148229 -0.039472 -118361.000000 0 0 1
-11.078109 -32.408938 5.212450 34.644384 1.241425 1.419767 0.126376 -0.041636 130058.000000 0 0 1
-12.145909 -31.803168 5.904650 34.551837 1.205982 1.399061 0.139366 -0.045271 156008.000000 0 0 1
-12.980909 -30.978978 5.107150 33.974756 1.173999 1.419902 0.138865 -0.040253 878727.000000 0 0 1
-13.953609 -30.006988 5.924850 33.618839 1.135529 1.393635 0.108518 -0.039653 1434050.000000 0 0 1
-15.086509 -30.638498 6.579850 34.779516 1.113244 1.380462 0.119773 -0.030528 749621.000000 0 0 1
-15.908509 -29.723118 7.237850 34.480877 1.079369 1.359314 0.101610 -0.030637 -102564.000000 0 0 1
34.898011 -12.573368 -12.837050 39.252396 -0.345811 1.903965 0.125225 -0.042863 82230.100000 0 0 1
33.951881 -12.548268 -11.753850 38.057091 -0.354019 1.884778 0.141761 -0.044351 381400.000000 0 0 1
33.801121 -13.803068 -11.195150 38.188635 -0.387694 1.868320 0.136503 -0.040256 456444.000000 0 0 1
34.921331 -14.466368 -10.280950 39.172351 -0.392735 1.836361 0.125223 -0.040294 159755.000000 0 0 1
36.105521 -14.738668 -10.971250 40.511792 -0.387565 1.845037 0.137419 -0.044557 -384556.000000 0 0 1
37.054831 -15.101268 -9.973950 41.238191 -0.386988 1.815081 0.106895 -0.037080 1340800.000000 0 0 1
-36.441244 -15.298768 -10.406350 40.869410 0.397475 1.828256 0.089058 -0.038953 1152270.000000 0 0 1
-35.803441 -14.069868 -10.726050 39.936145 0.374436 1.842715 0.096578 -0.040456 -136009.000000 0 0 1
-34.421538 -14.282368 -10.903650 38.829343 0.393306 1.855434 0.093718 -0.038965 -33915.100000 0 0 1
-33.719714 -12.918568 -11.106450 37.779117 0.365867 1.869189 0.082426 -0.047029 -397559.000000 0 0 1
-33.830704 -11.950968 -10.071950 37.266424 0.339574 1.844468 0.096281 -0.039926 278158.000000 0 0 1
-33.048384 -10.814068 -10.387850 36.291144 0.316238 1.861093 0.103495 -0.041240 -273895.000000 0 0 1
-33.533424 -9.593768 -9.629850 36.183766 0.278652 1.840180 0.105788 -0.043914 -179945.000000 0 0 1
-33.119324 -9.693268 -8.329050 35.499607 0.284725 1.807628 0.120756 -0.042527 151006.000000 0 0 1
-33.694694 -8.666868 -7.548450 35.600928 0.251760 1.784448 0.156909 -0.055141 -10039.700000 0 0 1
-33.116104 -8.567268 -6.110050 34.747764 0.253154 1.747555 0.134796 -0.041942 -418613.000000 0 0 1
-31.780604 -8.136668 -6.080950 33.364503 0.250642 1.754079 0.133267 -0.053093 -236773.000000 0 0 1
-31.204234 -8.133968 -4.813250 32.604187 0.254994 1.718965 0.145079 -0.043844 -216280.000000 0 0 1
-30.526314 -9.470068 -4.300850 32.249579 0.300812 1.704556 0.142312 -0.032568 42417.000000 0 0 1
-31.400604 -10.556668 -3.946750 33.361924 0.324322 1.689375 0.152441 -0.032655 552261.000000 0 0 1
-32.015614 -10.427368 -2.657950 33.775645 0.314862 1.649572 0.145068 -0.037203 216719.000000 0 0 1
-32.841874 -11.706368 -2.297350 34.941459 0.342406 1.636592 0.159129 -0.029818 1129490.000000 0 0 1
-34.133685 -11.860368 -2.932950 36.254365 0.334417 1.651784 0.173727 -0.046743 1136810.000000 0 0 1
-34.698188 -13.127268 -2.638050 37.192052 0.361684 1.641786 0.178276 -0.049965 -823880.000000 0 0 1
-36.211844 -13.139568 -2.574850 38.607975 0.348079 1.637538 0.161314 -0.047570 -911555.000000 0 0 1
-36.608394 -12.435068 -1.447550 38.689802 0.327450 1.608219 0.194109 -0.053966 1262290.000000 0 0 1
36.995161 -12.103568 -1.507750 38.953967 -0.316190 1.609512 0.231313 -0.056136 1029450.000000 0 0 1
36.493141 -11.407668 -0.250450 38.235415 -0.302974 1.577347 0.216331 -0.059434 -230653.000000 0 0 1
36.571051 -12.200768 0.918950 38.563518 -0.322007 1.546965 0.247934 -0.056992 391238.000000 0 0 1
35.964031 -11.478968 1.999650 37.804455 -0.308958 1.517877 0.245952 -0.042809 93844.100000 0 0 1
36.181971 -12.075268 3.362550 38.291694 -0.322114 1.482869 0.245483 -0.048250 120616.000000 0 0 1
35.129131 -11.881668 4.286350 37.330988 -0.326150 1.455722 0.224206 -0.056485 194251.000000 0 0 1
35.623621 -12.099968 5.598550 38.036763 -0.327435 1.423072 0.233586 -0.054502 46783.300000 0 0 1
34.507861 -12.360268 6.621250 37.247948 -0.343950 1.392085 0.189545 -0.038933 -197335.000000 0 0 1
33.647061 -11.285368 6.807350 36.136190 -0.323613 1.381284 0.173093 -0.031075 -138455.000000 0 0 1
33.532251 -11.112368 8.235950 36.272957 -0.320004 1.341744 0.126973 -0.024182 -370051.000000 0 0 1
32.862301 -9.793468 8.681950 35.372575 -0.289635 1.322820 0.116802 -0.036113 -566495.000000 0 0 1
31.466991 -9.871768 8.620850 34.087276 -0.303994 1.315114 0.131413 -0.030875 -274470.000000 0 0 1
30.789321 -8.767068 9.211650 33.312134 -0.277402 1.290620 0.140805 -0.019339 -644030.000000 0 0 1
29.344241 -8.645568 8.792850 31.829931 -0.286519 1.290912 0.126585 -0.020371 -774992.000000 0 0 1
29.100441 -8.306168 7.384950 31.150691 -0.278038 1.331446 0.142734 -0.022439 691881.000000 0 0 1
28.171441 -9.242468 6.757550 30.409172 -0.317015 1.346705 0.169948 -0.041920 1113340.000000 0 0 1
27.071441 -8.655868 5.776650 29.002701 -0.309469 1.370279 0.181800 -0.036547 396810.000000 0 0 1
26.082341 -7.958468 6.523250 28.038875 -0.296155 1.335995 0.198036 -0.042210 444859.000000 0 0 1
25.063341 -7.432268 5.688850 26.753928 -0.288279 1.356524 0.205253 -0.046969 -17506.400000 0 0 1
25.417741 -6.056468 5.010850 26.605469 -0.233915 1.381326 0.204952 -0.050828 -687265.000000 0 0 1
26.365741 -6.209268 4.000950 27.380922 -0.231291 1.424149 0.194052 -0.048690 380769.000000 0 0 1
26.818341 -4.917968 3.433750 27.480911 -0.181366 1.445518 0.195731 -0.051001 582338.000000 0 0 1
27.669241 -4.993768 2.138850 28.197505 -0.178559 1.494871 0.197460 -0.059458 931433.000000 0 0 1
26.766241 -5.215968 1.035350 27.289374 -0.192459 1.532848 0.213836 -0.066339 961328.000000 0 0 1
27.537741 -5.022368 -0.125050 27.992266 -0.180399 1.575264 0.202096 -0.069769 69611.100000 0 0 1
26.765841 -5.310768 -1.437050 27.325439 -0.195872 1.623411 0.218849 -0.062879 627529.000000 0 0 1
25.659941 -4.412568 -1.655350 26.089145 -0.170298 1.634289 0.254506 -0.058448 464293.000000 0 0 1
25.035741 -4.725268 -2.885850 25.640682 -0.186546 1.683585 0.259979 -0.059506 798607.000000 0 0 1
23.587841 -4.073968 -2.971150 24.120762 -0.171027 1.694288 0.207119 -0.046772 854979.000000 0 1 0
23.431241 -2.673468 -2.939350 23.765737 -0.113607 1.694794 0.178468 -0.049325 66418.100000 0 1 0
24.071841 -1.949968 -3.964350 24.473904 -0.080830 1.733496 0.181641 -0.046777 -80856.200000 0 1 0
23.061641 -1.440168 -5.059250 23.653950 -0.062368 1.786348 0.179402 -0.030322 12375.800000 0 1 0
22.374641 -0.315268 -4.683350 22.861708 -0.014089 1.777113 0.138739 -0.015955 36789.700000 0 1 0
22.025641 0.469232 -5.826150 22.788002 0.021301 1.829334 0.184877 -0.011549 -336820.000000 0 1 0
21.661841 1.915732 -5.411950 22.409698 0.088209 1.814708 0.159963 -0.001040 -392818.000000 0 1 0
22.631441 2.897332 -5.139550 23.387852 0.127330 1.792358 0.168723 -0.011682 103582.000000 0 1 0
23.111641 2.920932 -3.799350 23.603280 0.125717 1.732467 0.163552 -0.010438 -770478.000000 0 1 0
24.260141 3.835232 -3.478950 24.806582 0.156790 1.711503 0.165535 -0.020792 -1001230.000000 0 1 0
24.127841 5.205932 -3.717050 24.961388 0.212507 1.720264 0.153928 -0.009770 782923.000000 0 1 0
25.219441 6.012832 -3.249150 26.129128 0.234051 1.695469 0.147343 -0.010778 307752.000000 0 0 1
24.803441 7.493032 -3.126250 26.098461 0.293379 1.690871 0.126822 -0.014916 -404970.000000 0 0 1
23.909441 7.734632 -2.092350 25.216340 0.312872 1.653868 0.145791 -0.021189 101959.000000 0 0 1
23.138741 8.867032 -2.381550 24.893721 0.365950 1.666612 0.141066 -0.019695 -548501.000000 0 1 0
21.973041 9.182932 -1.447950 23.858695 0.395857 1.631522 0.119737 -0.014816 -278111.000000 0 1 0
22.386041 9.542532 -0.146750 24.335494 0.402947 1.576827 0.091483 -0.022165 904599.000000 0 1 0
21.244041 9.980032 0.560150 23.478162 0.439181 1.546936 0.058469 -0.018278 20345.200000 0 1 0
21.706341 10.376732 1.950950 24.138103 0.445935 1.489884 0.075830 -0.017332 -427613.000000 0 1 0
22.618641 11.440332 1.974650 25.424070 0.468271 1.493049 0.083729 -0.024620 88185.000000 0 0 1
22.241641 12.694432 1.541850 25.655730 0.518635 1.510662 0.096635 -0.019708 -36388.100000 0 0 1
21.180041 13.531132 2.427650 25.250330 0.568506 1.474504 0.087649 -0.005152 1338600.000000 0 0 1
19.873341 12.923832 2.322650 23.819526 0.576593 1.473131 0.131698 -0.013515 1359750.000000 0 1 0
18.835741 13.580532 3.067050 23.422698 0.624680 1.439476 0.119822 -0.016954 389718.000000 0 1 0
18.898441 13.520032 4.619750 23.691442 0.620990 1.374542 0.114371 -0.012406 -706484.000000 0 1 0
18.385341 12.333532 5.131850 22.726035 0.590883 1.343018 0.090959 -0.008231 398593.000000 0 1 0
18.653041 12.238832 6.534150 23.246937 0.580673 1.285881 0.110664 -0.019372 -173650.000000 0 1 0
18.693841 10.737832 6.994650 22.664639 0.521387 1.257060 0.069341 -0.025452 -463842.000000 0 1 0
19.730641 9.938532 6.533250 23.038142 0.466612 1.283267 0.064663 -0.031192 -59782.500000 0 1 0
19.627541 8.639232 7.011950 22.562007 0.414640 1.254777 0.064131 -0.030228 -72035.300000 0 1 0
20.423941 7.652132 6.152350 22.661507 0.358477 1.295856 0.065644 -0.035337 -175839.000000 0 1 0
19.905041 7.508532 4.877750 21.826158 0.360713 1.345411 0.039528 -0.030893 1208610.000000 0 1 0
20.945341 6.878632 4.100150 22.423963 0.317312 1.386915 0.057507 -0.033907 634968.000000 0 1 0
20.690241 6.763932 2.535050 21.914911 0.315962 1.454860 0.073481 -0.022186 210107.000000 0 1 0
21.701041 6.057832 1.797350 22.602278 0.272220 1.491192 0.072416 -0.021195 706204.000000 0 1 0
21.280241 5.831332 0.499950 22.070411 0.267460 1.548142 0.077859 -0.008576 -390038.000000 0 1 0
22.245241 4.982532 -0.339750 22.798943 0.220345 1.585699 0.116558 -0.024540 -207664.000000 0 1 0
22.314841 3.661232 0.113750 22.613484 0.162623 1.565766 0.118739 -0.020944 1121630.000000 0 1 0
23.560241 2.975632 -0.095750 23.747600 0.125634 1.574828 0.150388 -0.029769 617867.000000 0 1 0
23.381941 1.463232 0.160950 23.428233 0.062498 1.563926 0.186175 -0.036629 505812.000000 0 1 0
22.268041 1.003132 -0.635150 22.299671 0.045018 1.599283 0.132620 -0.032961 1309370.000000 0 1 0
22.461441 -0.324168 -1.124950 22.491930 -0.014431 1.620833 0.167679 -0.040929 -1330650.000000 0 1 0
22.226241 -1.472068 -0.124450 22.275283 -0.066134 1.576383 0.178393 -0.037750 397561.000000 0 1 0
23.245841 -1.558768 0.882750 23.314762 -0.066956 1.532925 0.186810 -0.039505 782102.000000 0 1 0
24.501941 -2.053968 0.440050 24.591818 -0.083633 1.552901 0.212969 -0.050835 -506934.000000 0 1 0
25.545941 -1.895168 1.534750 25.662077 -0.074051 1.510954 0.216016 -0.043351 -697480.000000 0 0 1
25.601841 -0.540168 1.945950 25.681370 -0.021096 1.494951 0.203292 -0.046973 383587.000000 0 0 1
26.529241 -0.296868 2.997250 26.699668 -0.011190 1.458301 0.212483 -0.046397 -377053.000000 0 0 1
26.389141 1.125132 3.624250 26.660605 0.042610 1.434434 0.187397 -0.037484 -304590.000000 0 0 1
26.912241 2.267832 3.011150 27.174966 0.084069 1.459762 0.215983 -0.031489 -374297.000000 0 0 1
28.237441 2.201732 2.569350 28.439449 0.077815 1.480328 0.220435 -0.035628 -499013.000000 0 0 1
28.640441 3.327232 1.608350 28.877883 0.115654 1.515073 0.231016 -0.044149 -128961.000000 0 0 1
28.053941 3.102032 0.334750 28.226907 0.110126 1.558937 0.226574 -0.034015 215269.000000 0 0 1
28.406141 4.040032 -0.659750 28.699581 0.141276 1.593786 0.208498 -0.027853 -136070.000000 0 0 1
29.778041 3.843032 -1.327550 30.054334 0.128346 1.614982 0.206809 -0.020154 -397342.000000 0 0 1
30.893181 4.027132 -0.511750 31.158760 0.129626 1.587221 0.211250 -0.026853 -750702.000000 0 0 1
32.088241 4.129532 -1.210750 32.375518 0.127990 1.608202 0.167870 -0.016846 -157346.000000 0 0 1
33.265601 4.536732 -0.275650 33.574665 0.135543 1.579006 0.121810 -0.009970 192909.000000 0 0 1
33.741731 3.623132 0.688450 33.942679 0.106969 1.550512 0.141237 -0.021234 60447.400000 0 0 1
33.363711 4.029532 1.936550 33.661915 0.120194 1.513235 0.155196 -0.009284 38439.600000 0 0 1
33.650491 2.962532 3.035450 33.916752 0.087812 1.481179 0.161761 -0.018583 -112937.000000 0 0 1
32.777951 1.873632 2.830950 32.953283 0.057099 1.484782 0.190710 -0.024840 37867.200000 0 0 1
32.782511 0.888932 3.822550 33.016588 0.027109 1.454759 0.191911 -0.027446 493858.000000 0 0 1
34.071781 0.011632 4.001750 34.305982 0.000341 1.453881 0.173643 -0.016865 -512356.000000 0 0 1
35.204981 0.604732 4.439350 35.488931 0.017176 1.445377 0.159710 -0.024670 -1680440.000000 0 0 1
36.292901 -0.226868 4.380950 36.557063 -0.006251 1.450669 0.135116 -0.026025 -1048570.000000 0 0 1
-37.355684 0.369732 4.800050 37.664629 -0.009897 1.443007 0.136309 -0.039006 156906.000000 0 0 1
-36.805714 1.253132 3.852650 37.028014 -0.034034 1.466561 0.136702 -0.043508 267727.000000 0 0 1
-36.080874 0.617732 2.799050 36.194554 -0.017119 1.493386 0.144221 -0.037283 -292046.000000 0 0 1
-35.754781 1.649132 1.647250 35.830677 -0.046091 1.524807 0.168872 -0.034748 -3821.040000 0 0 1
-34.798679 2.583432 2.095650 34.957316 -0.074103 1.510812 0.177340 -0.056949 135285.000000 0 0 1
-34.289243 3.366132 1.010950 34.468900 -0.097855 1.541463 0.211785 -0.028929 -27416.300000 0 0 1
-33.217724 4.327032 1.586650 33.535919 -0.129533 1.523467 0.235945 -0.038940 -1071950.000000 0 0 1
-32.078974 3.707032 2.046150 32.357215 -0.115049 1.507518 0.228400 -0.047683 -611019.000000 0 0 1
-31.348284 4.661432 2.838850 31.819851 -0.147617 1.481461 0.248868 -0.040337 148777.000000 0 0 1
-31.734854 4.550232 4.387350 32.358220 -0.142412 1.434791 0.241806 -0.031443 811862.000000 0 0 1
-33.069634 5.013132 4.683950 33.773830 -0.150448 1.431662 0.221444 -0.004037 1533600.000000 0 0 1
-34.068706 4.014032 5.012250 34.668600 -0.117281 1.425712 0.202794 -0.007190 638472.000000 0 0 1
-33.930144 3.230632 6.364050 34.672652 -0.094928 1.386203 0.165175 -0.006866 -592620.000000 0 0 1
-34.378040 4.035432 7.467350 35.410389 -0.116849 1.358321 0.163609 -0.011927 298513.000000 0 0 1
-34.180411 3.396132 8.677550 35.427872 -0.099034 1.323343 0.145115 -0.009780 31826.600000 0 0 1
-35.188735 2.303232 9.132750 36.427449 -0.065360 1.317382 0.125880 -0.007998 -180584.000000 0 0 1
-34.913017 1.102532 8.468450 35.942301 -0.031569 1.332948 0.130638 -0.018403 380773.000000 0 0 1
-35.930121 0.111732 8.593550 36.943676 -0.003110 1.336034 0.115783 -0.015744 177439.000000 0 0 1
-35.799334 -0.830668 9.852250 37.139590 0.023199 1.302306 0.141129 -0.015425 -51666.300000 0 0 1
-34.656593 -1.645968 9.719750 36.031406 0.047458 1.297655 0.137690 -0.013363 22572.300000 0 0 1
-34.518860 -2.571368 10.789850 36.257199 0.074354 1.268627 0.128403 -0.004533 46651.400000 0 0 1
-33.268114 -3.428268 10.463350 35.042861 0.102687 1.267584 0.150336 0.005710 -61642.400000 0 0 1
-33.350824 -4.248068 9.302150 34.883428 0.126693 1.300866 0.154330 -0.012846 -422595.000000 0 0 1
-32.254244 -5.098968 9.219450 33.931313 0.156789 1.295628 0.154338 -0.015739 -384767.000000 0 0 1
-32.414474 -6.264968 8.164450 34.008913 0.190923 1.328360 0.165912 -0.012282 234752.000000 0 0 1
-33.362794 -7.229468 8.591450 35.201623 0.213393 1.324242 0.176901 -0.021654 85395.200000 0 0 1
-33.484904 -8.190868 7.511850 35.281114 0.239903 1.356240 0.198904 -0.031640 132738.000000 0 0 1
-34.505600 -9.323668 7.831950 36.591073 0.263905 1.355087 0.203935 -0.030756 -806680.000000 0 0 1
-35.777550 -8.829468 7.770550 37.661307 0.241953 1.362976 0.187406 -0.040106 -547461.000000 0 0 1
-36.805234 -9.744768 8.219050 38.950463 0.258827 1.358185 0.184436 -0.040073 705572.000000 0 0 1
7.960416 -23.736868 10.435750 27.124012 -1.247222 1.175868 0.135812 -0.049984 92325.000000 0 0 1
7.407816 -24.712768 9.547650 27.509167 -1.279563 1.216350 0.121946 -0.045027 -93790.200000 0 0 1
6.257716 -25.390938 10.019450 28.004430 -1.329157 1.204906 0.127406 -0.041672 236733.000000 0 0 1
5.757916 -26.274258 8.903350 28.333017 -1.355060 1.251141 0.109375 -0.035048 -283817.000000 0 0 1
5.011516 -25.619978 7.895650 27.273428 -1.377626 1.277092 0.107847 -0.026766 -228020.000000 0 0 1
4.920016 -26.397948 6.705150 27.677017 -1.386532 1.326097 0.095837 -0.018577 -87765.100000 0 0 1
4.261916 -25.712878 5.416650 26.620596 -1.406539 1.365890 0.085021 -0.014565 1587200.000000 0 0 1
2.837216 -25.501208 5.520550 26.245721 -1.459994 1.358873 0.086797 -0.026669 1028130.000000 0 0 1
2.054316 -26.588368 5.037550 27.139241 -1.493686 1.384095 0.081060 -0.021087 224450.000000 0 0 1
0.515716 -26.470358 4.916950 26.928093 -1.551316 1.387171 0.099956 -0.029863 277777.000000 0 0 1
-0.062684 -26.327998 6.206950 27.049836 1.568415 1.339270 0.092472 -0.033498 15635.200000 0 0 1
-1.466884 -26.423538 6.369550 27.219961 1.515339 1.334603 0.089325 -0.031020 746167.000000 0 0 1
-2.089284 -27.834428 6.387550 28.634267 1.495876 1.345830 0.101448 -0.029338 -136178.000000 0 0 1
-1.731184 -28.488538 7.594450 29.534208 1.510103 1.310734 0.088031 -0.033628 443843.000000 0 0 1
-2.493784 -29.717368 7.700150 30.799890 1.487076 1.318110 0.105324 -0.034919 341515.000000 0 0 1
-2.276484 -30.489318 9.020650 31.877155 1.496270 1.283895 0.100486 -0.033824 -704636.000000 0 0 1
-1.016584 -30.946748 9.356150 32.346131 1.537959 1.277352 0.108408 -0.025254 -935430.000000 0 0 1
-0.845584 -31.037028 10.744150 32.854967 1.543559 1.237650 0.113536 -0.019768 262005.000000 0 0 1
0.593816 -30.888368 11.316150 32.901355 -1.551574 1.219685 0.093129 -0.025749 259245.000000 0 0 1
1.332116 -32.093388 11.175050 34.009437 -1.529313 1.235989 0.089911 -0.020795 -717354.000000 0 0 1
2.697516 -31.826548 11.288050 33.876626 -1.486242 1.231090 0.115691 -0.019283 -187248.000000 0 0 1
3.328916 -32.525638 12.533850 35.015656 -1.468804 1.204725 0.118339 -0.015967 -170813.000000 0 0 1
2.878016 -31.931488 13.692750 34.862506 -1.480908 1.167161 0.106693 -0.020453 55749.100000 0 0 1
3.521716 -32.452188 14.831250 35.854051 -1.462699 1.144330 0.106907 -0.020391 -466942.000000 0 0 1
3.353416 -31.587208 16.079450 35.602610 -1.465029 1.102197 0.118579 -0.029167 321715.000000 0 0 1
4.007916 -30.306658 16.013350 34.510640 -1.439314 1.088277 0.131756 -0.036014 181400.000000 0 0 1
5.405016 -30.253388 16.162650 34.723377 -1.394003 1.086632 0.121352 -0.030328 -413005.000000 0 0 1
6.021016 -28.907748 15.728250 33.455767 -1.365448 1.081369 0.128089 -0.029844 -226896.000000 0 0 1
6.045416 -28.693498 14.270350 32.611452 -1.363144 1.117883 0.114110 -0.027328 1186710.000000 0 0 1
4.759616 -28.710898 13.558850 32.106261 -1.406513 1.134802 0.119443 -0.018266 776664.000000 0 0 1
4.904116 -28.565998 12.020250 31.377588 -1.400777 1.177664 0.105556 -0.024153 136697.000000 0 0 1
5.422716 -29.612568 11.189650 32.117259 -1.389681 1.214933 0.095676 -0.031300 -53497.300000 0 0 1
6.711116 -30.079358 11.496250 32.893322 -1.351278 1.213758 0.089439 -0.023737 -465867.000000 0 0 1
7.287116 -31.401908 10.921450 34.036157 -1.342773 1.244140 0.079721 -0.019834 29147.700000 0 0 1
6.793916 -32.524608 11.596250 35.192051 -1.364872 1.235008 0.072088 -0.026934 9313.630000 0 0 1
7.024316 -33.710828 10.862850 36.107651 -1.365366 1.265216 0.077381 -0.018430 93327.000000 0 0 1
6.915216 32.656867 11.619950 35.345642 1.362125 1.235815 0.075804 -0.014824 -96764.500000 0 0 1
5.591416 32.453868 12.018750 35.056638 1.400183 1.220860 0.083309 -0.021150 -488408.000000 0 0 1
5.493716 31.245156 12.778750 34.201421 1.396749 1.187875 0.083585 -0.022206 -649635.000000 0 0 1
4.183216 31.079166 13.506850 34.144529 1.437002 1.164098 0.096506 -0.028096 -625685.000000 0 0 1
4.075016 31.732344 14.743050 35.226481 1.443077 1.138979 0.112382 -0.027398 421198.000000 0 0 1
3.027816 31.231506 15.592150 35.038405 1.474151 1.109620 0.113016 -0.028688 389156.000000 0 0 1
3.404816 31.178336 17.070350 35.708239 1.462023 1.072362 0.106297 -0.030510 -68533.500000 0 0 1
3.679416 32.484466 17.611550 37.134154 1.458010 1.076664 0.118271 -0.026172 180181.000000 0 0 1
4.011816 32.404154 19.007350 37.780991 1.447618 1.043622 0.120746 -0.024080 20184.100000 0 0 1
4.416016 33.740156 19.712150 39.325160 1.440653 1.045741 0.120737 -0.026776 -411058.000000 0 0 1
3.360116 -33.043798 19.702050 38.618049 -1.469458 1.035405 0.112727 -0.024560 -592090.000000 0 0 1
3.527416 -31.823048 20.497150 38.016867 -1.460402 1.001358 0.107286 -0.024243 -358717.000000 0 0 1
2.250316 -31.007488 20.760650 37.383590 -1.498350 0.982023 0.115920 -0.016494 192039.000000 0 0 1
1.339216 -31.748038 21.593550 38.418912 -1.528639 0.973928 0.124753 -0.014368 6587.860000 0 0 1
0.135016 -31.046588 21.763150 37.914952 -1.566448 0.959415 0.115205 -0.022007 -341574.000000 0 0 1
-0.931784 -31.796578 22.576550 39.007579 1.541500 0.953573 0.125492 -0.013985 -790147.000000 0 0 1
-1.484484 -32.860158 21.780650 39.451114 1.525651 0.985925 0.125421 -0.020193 93548.100000 0 0 1
-2.266184 33.843686 22.452450 40.677306 -1.503936 0.986077 0.115449 -0.022900 795006.000000 0 0 1
-3.510184 -33.318488 23.268550 40.790544 1.465831 0.963755 0.128541 -0.022262 459297.000000 0 0 1
-4.561684 -32.724468 22.497450 39.972929 1.432292 0.973006 0.113110 -0.023299 -5032.180000 0 0 1
-5.689984 -32.548598 23.315650 40.440162 1.397730 0.956300 0.104060 -0.029088 -324766.000000 0 0 1
-6.881384 -31.919578 22.571050 39.694650 1.358461 0.965973 0.073046 -0.017109 -358411.000000 0 0 1
-7.586184 -32.878618 21.796850 40.170342 1.344032 0.997254 0.059398 -0.008720 9956.910000 0 0 1
-8.611784 -32.168818 21.108750 39.428099 1.309224 1.005847 0.067789 -0.016694 -315246.000000 0 0 1
-9.767684 -33.009628 20.625950 40.130699 1.283101 1.030991 0.051285 -0.019531 -393149.000000 0 0 1
-10.472284 -33.656658 21.668350 41.375799 1.269141 1.019612 0.066985 -0.024839 -665073.000000 0 0 1
-11.819284 33.833146 21.359150 41.720386 -1.234709 1.033332 0.055476 -0.023566 -192727.000000 0 0 1
-12.622784 33.501148 22.664450 42.371440 -1.210460 1.006408 0.053869 -0.023773 -217869.000000 0 0 1
-12.911584 -33.087408 23.530950 42.605060 1.198744 0.985671 0.054540 -0.023425 499531.000000 0 0 1
-11.806684 -32.314888 24.020050 41.959654 1.220501 0.961298 0.059244 -0.021276 96373.500000 0 0 1
-12.300584 -31.058588 24.667250 41.526058 1.193704 0.934751 0.061091 -0.028425 -147982.000000 0 0 1
-13.035184 -31.320478 25.832950 42.640704 1.176414 0.919990 0.041943 -0.022207 -2352.280000 0 0 1
-13.612684 -30.151358 26.340350 42.287393 1.146714 0.898366 0.072020 -0.027740 -62225.600000 0 0 1
-14.337184 -30.230728 27.697350 43.434951 1.127953 0.879321 0.068668 -0.023195 -54066.300000 0 0 1
-13.497884 -29.980658 28.811350 43.716434 1.147760 0.851240 0.054041 -0.015859 236737.000000 0 0 1
-14.254384 -29.460678 29.903550 44.332170 1.120157 0.830463 0.073375 -0.022644 355532.000000 0 0 1
-13.470384 -28.989448 31.168150 44.646309 1.135814 0.798038 0.063635 -0.018273 349341.000000 0 0 1
-14.455584 -28.443978 32.059650 45.231018 1.100600 0.783004 0.078270 -0.020068 1065930.000000 0 0 1
-13.902384 -27.960428 33.292250 45.644668 1.109378 0.753383 0.073409 -0.013677 -149137.000000 0 0 1
-13.315084 -29.060328 -33.557672 46.345566 1.141154 2.380489 0.071907 -0.010825 -79085.300000 0 0 1
-11.963784 -29.344108 -33.828472 46.352716 1.183664 2.388834 0.057574 -0.010728 -310841.000000 0 0 1
-11.631584 -30.473738 -33.009772 46.406761 1.206172 2.362162 0.061772 -0.011279 1056790.000000 0 0 1
-10.129984 -30.904108 -33.269372 46.524527 1.254045 2.367554 0.063088 -0.024744 860694.000000 0 0 1
-9.198684 -30.125048 -32.548272 45.293756 1.274439 2.372589 0.088517 -0.029487 -576527.000000 0 0 1
-7.974984 -30.809638 -32.533772 45.511323 1.317509 2.367206 0.118544 -0.044307 -188316.000000 0 0 1
-6.986184 -30.155568 -31.528872 44.184101 1.343141 2.365391 0.142344 -0.038503 -36032.100000 0 0 1
-7.348484 -30.245588 -30.167572 43.346029 1.332454 2.340567 0.141378 -0.040988 305665.000000 0 0 1
-6.313384 -29.702028 -29.322572 42.212350 1.361356 2.338722 0.140086 -0.036150 639766.000000 0 0 1
-6.495184 -30.007508 -27.799672 41.418108 1.357633 2.306617 0.145139 -0.037745 34393.700000 0 0 1
-6.390484 -31.329638 -27.466372 42.151940 1.369581 2.280493 0.121841 -0.024291 -389347.000000 0 0 1
-7.162384 -31.556518 -26.330772 41.718379 1.347608 2.253838 0.140176 -0.032313 -80125.400000 0 0 1
-6.706184 -32.687768 -25.352572 41.907231 1.368445 2.220523 0.129499 -0.038421 908041.000000 0 0 1
-5.540884 -32.271548 -24.609172 40.960536 1.400759 2.215300 0.083965 -0.040114 451211.000000 0 0 1
-5.007284 -33.379798 -23.933472 41.377468 1.421897 2.187584 0.105065 -0.051728 -34898.200000 0 0 1
-4.042284 -33.024168 -22.761872 40.311767 1.448998 2.170800 0.110470 -0.061451 153398.000000 0 0 1
-4.614084 -32.500208 -21.574172 39.281016 1.429768 2.152235 0.126710 -0.051203 -8463.800000 0 0 1
-4.896684 -31.109478 -21.724972 38.259006 1.414676 2.174675 0.094467 -0.030469 -247800.000000 0 0 1
-5.263884 -30.394268 -20.389072 36.976131 1.399311 2.154852 0.141419 -0.045598 -578592.000000 0 0 1
-6.619984 -30.497318 -20.064472 37.101127 1.357045 2.142190 0.144551 -0.055192 46701.000000 0 0 1
-7.383584 -29.260898 -20.097672 36.257880 1.323620 2.158316 0.140147 -0.050727 462737.000000 0 0 1
-7.695084 -28.630978 -21.544372 36.648427 1.308233 2.199215 0.178093 -0.059442 -1037610.000000 0 0 1
-6.542484 -28.222478 -22.197672 36.497246 1.343002 2.224589 0.171656 -0.038709 -870603.000000 0 0 1
-6.668784 -27.843948 -23.569172 37.084552 1.335719 2.259520 0.233759 -0.047299 -639552.000000 0 0 1
-5.339684 -27.581738 -24.332172 37.166101 1.379567 2.284565 0.202813 -0.043345 424670.000000 0 0 1
-4.643284 -26.371168 -23.911272 35.899130 1.396509 2.299721 0.170756 -0.052520 124369.000000 0 0 1
-3.982084 -26.423988 -22.699972 35.062414 1.421222 2.274986 0.105836 -0.044384 -2150520.000000 0 0 1
-2.483484 -26.752698 -22.785372 35.228507 1.478230 2.274162 0.093229 -0.041467 -370067.000000 0 0 1
-1.726984 -25.615248 -23.191072 34.596954 1.503478 2.305438 0.094618 -0.051266 37759.700000 0 0 1
-1.603684 -24.614168 -22.182272 33.173517 1.505735 2.303221 0.102059 -0.054881 -1590510.000000 0 0 1
-1.221884 -23.262768 -22.797672 32.594221 1.518319 2.345409 0.125217 -0.055070 320740.000000 0 0 1
-2.190884 -22.732068 -23.725172 32.930695 1.474715 2.375258 0.194395 -0.061961 211859.000000 0 0 1
-3.423484 -22.367268 -23.142472 32.366478 1.418917 2.367440 0.187977 -0.065023 -917588.000000 0 0 1
-4.466884 -21.945168 -24.165772 32.947352 1.369992 2.394204 0.179367 -0.069615 -309833.000000 0 0 1
-4.075084 -20.745168 -24.897772 32.662935 1.376831 2.437600 0.194284 -0.060093 -92573.300000 0 0 1
-4.898284 -20.460668 -25.978772 33.429459 1.335819 2.460876 0.243211 -0.069487 -156139.000000 0 0 1
-4.334584 -21.052768 -27.307772 34.752296 1.367742 2.474758 0.201862 -0.058775 175332.000000 0 0 1
-5.018784 -20.598368 -28.464372 35.492273 1.331803 2.501412 0.200362 -0.059928 -170089.000000 0 0 1
-4.503984 -21.227068 -29.635472 36.730580 1.361716 2.509569 0.209807 -0.053947 -361551.000000 0 0 1
-5.514484 -21.697568 -30.677672 37.977803 1.321914 2.511171 0.193971 -0.049865 -646934.000000 0 0 1
-5.959284 -20.636568 -31.431872 38.070245 1.289671 2.542111 0.175027 -0.052242 -40050.500000 0 0 1
-6.956584 -21.144268 -32.331772 39.253250 1.252946 2.538651 0.164741 -0.046002 389915.000000 0 0 1
-7.003484 -20.375868 -33.666672 39.970859 1.239732 2.572296 0.143149 -0.041580 -244268.000000 0 0 1
-5.860784 -20.615568 33.391150 39.677693 1.293815 0.570632 0.127165 -0.033297 -731757.000000 0 0 1
-5.979684 -20.098468 32.088750 38.332661 1.281617 0.578813 0.123427 -0.029418 -514474.000000 0 0 1
-4.902584 -20.657668 31.230450 37.763946 1.337782 0.597062 0.107714 -0.034847 -2319870.000000 0 0 1
-4.945684 -22.090768 30.907250 38.310833 1.350548 0.632166 0.102007 -0.028760 1543060.000000 0 0 1
-3.785484 -22.526368 30.071750 37.763439 1.404305 0.649611 0.100575 -0.017139 2949200.000000 0 0 1
-2.337984 -22.334868 30.694850 38.032701 1.466498 0.631632 0.088780 -0.023273 372043.000000 0 0 1
-2.081084 -20.924168 30.817950 37.308146 1.471664 0.598755 0.109654 -0.022346 -640423.000000 0 0 1
-0.797184 -20.703468 31.384550 37.606636 1.532310 0.583484 0.107885 -0.024860 212906.000000 0 0 1
-0.819484 -20.214468 32.844650 38.575476 1.530279 0.552074 0.092226 -0.025422 178849.000000 0 0 1
-1.519384 -18.948868 32.919950 38.014356 1.490784 0.523675 0.081910 -0.026332 239432.000000 0 0 1
-1.983784 -18.703668 -33.549672 38.462229 1.465127 2.630633 0.089979 -0.030327 540293.000000 0 0 1
-3.147984 -17.669668 -33.555172 38.053601 1.394489 2.650434 0.106344 -0.044230 408390.000000 0 0 1
-2.671984 -16.378668 -33.795272 37.649976 1.409083 2.685130 0.096124 -0.043639 1090460.000000 0 0 1
-3.760484 -15.392668 -33.654072 37.197742 1.331186 2.701552 0.116737 -0.050674 1079560.000000 0 0 1
-3.281784 -13.969568 33.851650 36.767556 1.340057 0.400943 0.104544 -0.046257 -653707.000000 0 0 1
-2.344384 -13.490168 -33.078172 35.800087 1.398730 2.749128 0.101930 -0.046351 -679936.000000 0 0 1
-2.302784 -12.028468 -33.049172 35.245349 1.381641 2.786715 0.096824 -0.044390 107317.000000 0 0 1
-1.665684 -11.267168 33.566150 35.445875 1.424024 0.327128 0.090044 -0.042126 -397446.000000 0 0 1
-2.459684 -11.392368 32.415850 34.447401 1.358154 0.345150 0.084649 -0.034078 343971.000000 0 0 1
-1.789784 -10.836868 31.275150 33.147791 1.407117 0.337739 0.086173 -0.031062 179659.000000 0 0 1
-0.609784 -11.541568 30.614750 32.723731 1.518012 0.360978 0.072608 -0.036962 5717.980000 0 0 1
-1.063984 -12.606868 29.762950 32.340352 1.486599 0.401940 0.079304 -0.039310 -294113.000000 0 0 1
-0.068184 -13.536468 29.553250 32.505926 1.565759 0.429522 0.061281 -0.045898 -560984.000000 0 0 1
-0.410184 -14.853068 30.255050 33.706824 1.543187 0.456515 0.082768 -0.037980 -426908.000000 0 0 1
-1.369684 -15.584368 29.602650 33.482316 1.483133 0.486172 0.079708 -0.046540 -397391.000000 0 0 1
-2.075884 -16.352468 30.589550 34.748138 1.444526 0.494256 0.099394 -0.047974 -31719.000000 0 0 1
-2.543084 -17.692968 29.924950 34.857009 1.428040 0.538447 0.099818 -0.023514 -53025.900000 0 0 1
-3.424984 -17.569368 28.821950 33.928130 1.378270 0.555759 0.104854 -0.029956 128481.000000 0 0 1
-3.721284 -18.793168 28.195050 34.088003 1.375312 0.596823 0.114512 -0.033282 282196.000000 0 0 1
-4.363684 -18.607668 26.778950 32.899836 1.340449 0.619870 0.100129 -0.036236 343393.000000 0 0 1
-5.275484 -19.629368 26.309550 33.246583 1.308246 0.657789 0.106147 -0.039807 99131.100000 0 0 1
-4.740484 -20.906768 26.148550 33.812894 1.347823 0.686718 0.113676 -0.032935 -363744.000000 0 0 1
-30.559824 -33.077742 -0.426650 45.035784 0.824944 1.580270 0.043731 -0.018827 -261521.000000 0 0 1
-29.401974 -32.407742 -0.028050 43.757726 0.833989 1.571437 0.062386 -0.013301 -371748.000000 0 0 1
-29.673404 -31.656242 1.132750 43.404051 0.817718 1.544696 0.053059 -0.012785 398940.000000 0 0 1
-28.679554 -30.491842 1.400050 41.883522 0.816016 1.537363 0.080623 -0.014698 -302354.000000 0 0 1
-27.378554 -30.853442 1.705250 41.284718 0.845001 1.529480 0.098676 -0.012722 -686158.000000 0 0 1
-26.592964 -29.620142 1.752550 39.844824 0.839198 1.526798 0.113145 -0.007467 1582610.000000 0 0 1
-25.088764 -29.867042 2.191150 39.067728 0.872128 1.514681 0.073542 -0.007868 1067320.000000 0 0 1
-24.923484 -30.413342 3.484850 39.475253 0.884283 1.482402 0.065131 0.000911 647056.000000 0 0 1
-23.516784 -30.454642 3.769450 38.661778 0.913244 1.473143 0.053965 0.001235 804724.000000 0 0 1
-23.254984 -30.996542 5.209950 39.098893 0.927139 1.437148 0.056954 -0.001602 -61400.300000 0 0 1
-23.716584 -30.122842 6.175250 38.832920 0.903830 1.411097 0.049466 0.002211 -101165.000000 0 0 1
-23.527284 -30.728742 7.476850 39.416899 0.917358 1.379954 0.036641 -0.008733 -447040.000000 0 0 1
-24.088784 -29.821342 8.549450 39.276902 0.891336 1.351369 0.039717 -0.010716 -475798.000000 0 0 1
-23.297884 -28.773542 8.947650 38.088956 0.890170 1.333666 0.049686 -0.012039 -386762.000000 0 0 1
-23.963484 -28.128642 9.980250 38.276291 0.865186 1.307005 0.044436 -0.016841 52244.200000 0 0 1
-23.053884 -27.048542 10.604950 37.088680 0.864960 1.280814 0.050888 -0.022472 643204.000000 0 0 1
-21.870884 -27.577942 11.197150 36.935818 0.900303 1.262798 0.044614 -0.024209 -391472.000000 0 0 1
-21.031684 -26.533942 11.572550 35.781360 0.900563 1.241451 0.065651 -0.034061 -300680.000000 0 0 1
-19.819584 -27.075342 12.368150 35.761169 0.938905 1.217647 0.073579 -0.034084 -129261.000000 0 0 1
-20.017784 -27.571642 13.681650 36.716409 0.942815 1.188954 0.082344 -0.042473 -342788.000000 0 0 1
-18.740284 -27.907242 14.198850 36.491365 0.979441 1.171140 0.084023 -0.042930 382999.000000 0 0 1
-18.689384 -28.947342 15.329850 37.712677 0.997497 1.152187 0.085342 -0.044955 -111630.000000 0 0 1
-18.715084 -30.211142 14.780150 38.489223 1.016179 1.176664 0.083485 -0.039215 -220620.000000 0 0 1
-18.573384 -31.245942 15.708850 39.598579 1.034486 1.162875 0.084709 -0.030220 41996.200000 0 0 1
-18.036284 -32.541042 15.152850 40.172575 1.064686 1.184032 0.080257 -0.032156 -2897.240000 0 0 1
-18.116984 -33.581342 16.104050 41.415843 1.076054 1.171426 0.079654 -0.028847 -111764.000000 0 0 1
-17.771284 32.855832 15.528250 40.453069 -1.074977 1.176825 0.061843 -0.031826 -553481.000000 0 0 1
-17.922384 31.632532 16.489850 39.921725 -1.055312 1.144991 0.068832 -0.037540 249038.000000 0 0 1
-19.267084 31.359332 16.882550 40.492577 -1.019858 1.140732 0.068569 -0.040677 373247.000000 0 0 1
-19.332484 30.115932 17.611150 39.885673 -1.000111 1.113481 0.055937 -0.031306 10572.000000 0 0 1
-19.839184 30.181232 19.057050 40.837130 -0.989282 1.085286 0.054432 -0.028558 -420773.000000 0 0 1
-19.057784 30.953632 19.901550 41.441503 -1.018921 1.069877 0.057771 -0.031878 -396441.000000 0 0 1
-19.780384 31.381532 21.038650 42.646090 -1.008381 1.054881 0.062241 -0.020587 -197789.000000 0 0 1
-19.240384 32.608632 21.805150 43.691874 -1.037733 1.048275 0.047418 -0.017518 582979.000000 0 0 1
-18.045584 32.323532 22.551650 43.347789 -1.061618 1.023654 0.027111 -0.020899 467969.000000 0 0 1
-17.764484 33.315832 23.554750 44.501099 -1.080932 1.013013 0.031255 -0.021220 -156567.000000 0 0 1
-18.313084 32.894132 24.926750 45.152363 -1.062802 0.985965 0.030440 -0.021497 1218780.000000 0 0 1
-19.764984 32.895832 24.946450 45.772435 -1.029763 0.994395 0.018815 -0.021802 1038230.000000 0 0 1
-20.320884 31.709332 25.477750 45.470164 -1.000881 0.976027 0.026448 -0.016862 -286690.000000 0 0 1
-21.841484 31.845132 25.274550 46.151552 -0.969620 0.991252 0.114643 -0.029272 -158448.000000 0 0 1
-22.213084 31.706032 23.905650 45.499162 -0.959671 1.017601 0.097253 -0.017640 583056.000000 0 0 1
-23.628484 31.820532 23.732450 46.196112 -0.932077 1.031267 0.076986 -0.021468 576831.000000 0 0 1
-24.131284 31.424732 22.327450 45.479091 -0.915933 1.057629 0.074551 -0.022700 -40890.600000 0 0 1
-23.776584 32.323232 21.280250 45.419889 -0.936583 1.083178 0.072977 -0.021199 100585.000000 0 0 1
-23.654784 31.607632 20.082350 44.293250 -0.928327 1.100225 0.047122 -0.012745 21031.900000 0 0 1
-23.183484 32.492932 18.860150 44.147139 -0.951072 1.129390 0.065301 -0.010581 400796.000000 0 0 1
-21.914384 33.098732 19.048850 44.029820 -0.985968 1.123383 0.064235 -0.009771 61268.600000 0 0 1
-21.474884 -33.664242 18.077350 43.831979 1.002965 1.145683 0.081315 -0.008227 557504.000000 0 0 1
-20.191084 -32.916442 18.528350 42.830734 1.020579 1.123428 0.067906 -0.012893 282290.000000 0 0 1
-20.549984 -31.930742 19.460650 42.668384 0.998948 1.097199 0.079850 -0.021497 -141440.000000 0 0 1
-19.448184 -31.164942 19.820950 41.741533 1.012887 1.076003 0.049357 -0.024190 -351358.000000 0 0 1
-19.825184 -29.989142 20.837750 41.552357 0.986672 1.045486 0.045712 -0.016659 82054.300000 0 0 1
-20.648084 -28.961342 20.325250 40.966065 0.951430 1.051639 0.080160 -0.024128 105472.000000 0 0 1
-20.984184 -28.039542 21.312050 40.997017 0.928334 1.024128 0.096237 -0.020770 -719061.000000 0 0 1
-21.856884 -26.985242 20.692950 40.424310 0.890013 1.033409 0.092841 -0.031127 -698561.000000 0 0 1
-21.153084 -25.987342 19.927750 38.986025 0.887591 1.034273 0.078779 -0.018525 394122.000000 0 0 1
-21.941384 -24.852242 19.715350 38.571405 0.847524 1.034287 0.079013 -0.002292 20604.400000 0 0 1
-23.145084 -25.038842 18.713750 38.895282 0.824681 1.068851 0.078444 -0.018415 434486.000000 0 0 1
-24.354284 -25.357542 19.397350 40.154617 0.805577 1.066643 0.082920 -0.015644 496852.000000 0 0 1
-25.417344 -25.376942 18.447350 40.377411 0.784603 1.096320 0.076219 -0.019761 1334020.000000 0 0 1
-26.887204 -25.658742 18.989850 41.736162 0.762024 1.098427 0.061004 -0.018030 1145380.000000 0 0 1
-27.314814 -26.977042 19.225750 42.935875 0.779177 1.106517 0.058226 -0.014463 -49197.100000 0 0 1
-27.511184 -27.803442 18.095750 43.097016 0.790682 1.137479 0.072012 -0.021832 -561982.000000 0 0 1
-28.280574 -29.075642 18.536050 44.595616 0.799259 1.142142 0.082807 -0.023874 -163819.000000 0 0 1
-29.638564 -28.837142 18.762550 45.409895 0.771694 1.144851 0.044864 -0.020710 -380252.000000 0 0 1
-30.503414 -29.177742 17.692550 45.769261 0.763189 1.173898 0.045261 -0.015590 982978.000000 0 0 1
-31.972884 -28.617842 17.921250 46.501800 0.730082 1.175168 0.043394 -0.021306 1163410.000000 0 0 1
-32.199534 -27.314742 17.496150 45.705803 0.703504 1.177972 0.048770 -0.022035 1031370.000000 0 0 1
-33.564294 -26.959242 17.829550 46.596732 0.676696 1.178149 0.068522 -0.004901 986122.000000 0 0 1
-34.124861 -25.770842 16.999650 46.017720 0.646816 1.192417 0.084125 -0.021133 -235130.000000 0 0 1
-34.107849 -26.039442 15.602650 45.660055 0.652050 1.222057 0.100011 -0.037100 136613.000000 0 0 1
-34.554162 -24.925242 14.831750 45.113619 0.624904 1.235801 0.104075 -0.037706 -100747.000000 0 0 1
-33.632794 -23.682542 14.687150 43.677683 0.613506 1.227851 0.093953 -0.029118 -62705.200000 0 0 1
-33.594774 -22.910142 15.842050 43.640050 0.598513 1.199293 0.066194 -0.016709 435790.000000 0 0 1
-32.720804 -21.786742 15.746350 42.346909 0.587428 1.189804 0.073128 -0.014707 96765.300000 0 0 1
-33.521504 -20.504142 16.000350 42.427848 0.548957 1.184113 0.095078 -0.026941 1388.780000 0 0 1
-33.741524 -20.279842 17.373550 43.030253 0.541180 1.155182 0.083582 -0.017324 677501.000000 0 0 1
-34.730933 -19.246442 17.551350 43.413283 0.506030 1.154599 0.077758 -0.015956 325823.000000 0 0 1
-35.244444 -19.044042 18.965950 44.323285 0.495398 1.128628 0.081897 -0.011504 -644020.000000 0 0 1
-36.287864 -19.902442 19.281750 45.658539 0.501660 1.134812 0.076112 -0.004875 -154716.000000 0 0 1
-36.600494 -19.797742 20.655950 46.456593 0.495841 1.110036 0.074176 -0.001109 -172711.000000 0 0 1
36.883811 -19.624642 20.951650 46.738782 -0.488971 1.105966 0.066840 -0.001258 947760.000000 0 0 1
36.142491 -20.852642 21.188050 46.797925 -0.523303 1.100942 0.087448 -0.004551 393175.000000 0 0 1
36.561901 -21.540342 22.347650 47.960154 -0.532401 1.086074 0.078511 -0.002744 -786182.000000 0 0 1
35.944681 -22.927542 22.528650 48.220663 -0.567791 1.084676 0.090291 0.001577 471700.000000 0 0 1
34.729731 -22.914742 23.290550 47.683219 -0.583235 1.060491 0.080961 -0.010836 601997.000000 0 0 1
34.571521 -24.163342 23.984050 48.521045 -0.610013 1.053765 0.074458 -0.026008 -49700.000000 0 0 1
33.634441 -24.079942 25.217450 48.446249 -0.621338 1.023331 0.077461 -0.025495 -672548.000000 0 0 1
32.292291 -24.137442 24.892550 47.381929 -0.641878 1.017659 0.076038 -0.018719 -950581.000000 0 0 1
31.566871 -24.166642 26.112750 47.564374 -0.653392 0.989631 0.039290 -0.014436 88929.200000 0 0 1
30.096791 -24.623842 25.924550 46.735776 -0.685713 0.982788 0.051297 -0.021444 294241.000000 0 0 1
29.246641 -23.629942 25.365250 45.355662 -0.679572 0.977313 0.066630 -0.017730 680829.000000 0 0 1
27.893241 -24.117042 25.295750 44.716212 -0.712920 0.969520 0.066575 -0.009915 1195550.000000 0 0 1
26.860341 -22.973142 24.997550 43.291116 -0.707552 0.955220 0.061426 -0.000925 -64053.100000 0 0 1
26.797541 -22.350342 23.691450 42.177373 -0.695158 0.974345 0.062537 -0.001006 600207.000000 0 0 1
28.004441 -21.725942 23.196950 42.359931 -0.659812 0.991285 0.055181 0.005061 430218.000000 0 0 1
27.882341 -21.063742 21.759150 41.165116 -0.646981 1.013867 0.060262 0.000905 -57601.300000 0 0 1
27.078641 -19.920442 21.802550 40.067793 -0.634255 0.995431 0.062330 -0.005501 -85206.500000 0 0 1
27.074041 -19.321142 20.543950 39.094298 -0.619822 1.017497 0.056768 -0.000600 201428.000000 0 0 1
26.283841 -17.980542 20.439650 37.840712 -0.599969 1.000181 0.060056 0.002959 -119195.000000 0 0 1
26.900541 -16.877042 21.005350 38.074905 -0.560314 0.986413 0.059859 -0.017183 -199716.000000 0 0 1
26.891041 -16.787142 22.448350 38.844107 -0.558071 0.954632 0.060036 -0.008719 -9918.360000 0 0 1
26.817141 -15.436242 23.099050 38.613505 -0.522293 0.929529 0.084578 -0.003345 -851041.000000 0 0 1
25.536141 -14.952442 22.963950 37.456815 -0.529720 0.910845 0.056523 -0.009002 -1123180.000000 0 0 1
25.407741 -13.730842 23.673450 37.343293 -0.495458 0.884158 0.055093 -0.012165 -81607.500000 0 0 1
24.103841 -12.960442 23.472550 36.054526 -0.493345 0.861857 0.061065 -0.015106 -593039.000000 0 0 1
22.967441 -13.614542 23.923150 35.849354 -0.535091 0.840186 0.067620 -0.012960 -325037.000000 0 0 1
21.796741 -12.815942 23.785550 34.714531 -0.531531 0.815952 0.069559 -0.012918 884888.000000 0 0 1
20.499341 -13.599242 24.213450 34.517438 -0.585737 0.793318 0.062473 -0.005356 365576.000000 0 0 1
20.147641 -14.539642 23.237650 34.019362 -0.625112 0.818837 0.069039 -0.012717 549446.000000 0 0 1
18.953241 -15.233242 23.624950 33.903028 -0.677010 0.799816 0.095602 -0.013118 469844.000000 0 0 1
18.445341 -16.327842 22.730950 33.519026 -0.724579 0.825553 0.100600 -0.022276 -594365.000000 0 0 1
19.262441 -17.415842 22.959550 34.662575 -0.735095 0.846815 0.077291 -0.012280 -41294.100000 0 0 1
18.959141 -18.512642 22.100750 34.505218 -0.773483 0.875641 0.102717 -0.016272 -492367.000000 0 0 1
19.468341 -19.840842 22.654950 35.859756 -0.794874 0.886968 0.082691 -0.016547 -203779.000000 0 0 1
18.568841 -20.464542 23.576250 36.324082 -0.833926 0.864458 0.093009 -0.021810 377675.000000 0 0 1
18.887941 -21.764342 23.900250 37.438788 -0.856037 0.878402 0.091702 -0.021158 -338379.000000 0 0 1
18.298941 -22.854342 22.927850 37.186805 -0.895643 0.906432 0.091669 -0.023928 -52506.800000 0 0 1
19.051741 -23.017242 21.764750 36.965749 -0.879382 0.941246 0.080247 -0.010817 -78224.000000 0 0 1
20.082941 -23.976642 21.914650 38.189734 -0.873543 0.959614 0.076240 -0.011248 182013.000000 0 0 1
21.009841 -24.132342 20.664350 38.089352 -0.854459 0.997359 0.055081 -0.003798 448876.000000 0 0 1
20.353041 -24.684142 19.527350 37.481603 -0.881271 1.022792 0.060829 -0.019722 95365.300000 0 0 1
21.386741 -25.191942 18.736450 37.987908 -0.866911 1.055007 0.056207 -0.007991 43498.400000 0 0 1
20.899241 -25.888742 17.464450 37.576751 -0.891637 1.087424 0.053352 -0.019329 124534.000000 0 0 1
20.336941 -27.147242 17.789050 38.301622 -0.927849 1.087787 0.071591 -0.035828 -166880.000000 0 0 1
19.318241 -27.556842 16.918950 37.667291 -0.959378 1.104962 0.081775 -0.034302 179624.000000 0 0 1
18.639941 -28.924642 17.448950 38.581708 -0.998346 1.101499 0.074874 -0.027523 342814.000000 0 0 1
17.768341 -28.653042 18.519650 38.466715 -1.015714 1.068492 0.096505 -0.036314 -42918.700000 0 0 1
16.970441 -29.768742 18.916150 39.140703 -1.052671 1.066392 0.116317 -0.043675 496665.000000 0 0 1
15.781541 -29.290542 19.809550 38.722231 -1.076598 1.033773 0.117501 -0.043104 376284.000000 0 0 1
14.756041 -28.666642 19.028450 37.437936 -1.095422 1.037626 0.110468 -0.037647 -606249.000000 0 0 1
13.644341 -28.461342 19.818450 37.269116 -1.123765 1.010112 0.090612 -0.038113 -1483530.000000 0 0 1
12.485741 -27.889942 19.066150 36.017505 -1.149874 1.012953 0.088739 -0.043293 -833924.000000 0 0 1
12.088241 -28.629942 17.954050 35.890766 -1.171280 1.046919 0.101063 -0.054505 -124020.000000 0 0 1
11.420041 -27.788142 17.035550 34.537055 -1.180871 1.054969 0.112914 -0.048774 -30585.300000 0 0 1
11.106041 -28.552242 15.719150 34.433506 -1.199832 1.096731 0.124801 -0.044635 -152243.000000 0 0 1
9.989941 -29.396742 15.800350 34.837027 -1.243209 1.100051 0.135400 -0.041903 -270180.000000 0 0 1
9.959041 -30.187542 14.645850 34.999587 -1.252134 1.139050 0.124352 -0.029728 -89922.700000 0 0 1
8.656441 -30.961742 14.382950 35.219777 -1.298172 1.150121 0.117050 -0.026749 -485754.000000 0 0 1
8.470141 -31.959942 15.354550 36.454676 -1.311728 1.136033 0.121968 -0.031627 196290.000000 0 0 1
7.576241 -32.990442 14.880750 36.975741 -1.345061 1.156609 0.093922 -0.032293 397655.000000 0 0 1
7.239841 33.520732 15.867250 37.786564 1.358083 1.137442 0.107286 -0.034301 111595.000000 0 0 1
8.375341 32.717232 16.082450 37.406000 1.320186 1.126367 0.113793 -0.031673 -443837.000000 0 0 1
8.213041 31.707232 17.069550 36.934701 1.317340 1.090373 0.105511 -0.042133 -456645.000000 0 0 1
9.504041 31.066532 17.576350 36.937573 1.273912 1.074878 0.138867 -0.039679 -305960.000000 0 0 1
10.087041 30.195432 16.580450 35.894622 1.248393 1.090637 0.123804 -0.038937 313626.000000 0 0 1
11.048541 29.304132 17.164550 35.713082 1.210247 1.069431 0.126497 -0.041961 239873.000000 0 0 1
11.926241 28.524132 16.178750 34.894316 1.174776 1.088686 0.113546 -0.034770 54468.000000 0 0 1
11.255241 27.635532 15.257750 33.514207 1.184035 1.098130 0.134506 -0.040969 -606930.000000 0 0 1
12.123541 27.022332 14.403050 32.933790 1.149067 1.118165 0.116723 -0.035253 -452444.000000 0 0 1
-9.663384 -9.163968 19.032473 23.229170 0.758878 0.610546 0.068211 -0.030842 -76329.000000 0 1 0
-9.763484 -9.352068 17.661573 22.242256 0.763879 0.653345 0.059459 -0.034639 -51868.900000 0 1 0
-9.680884 -10.718868 17.358073 22.581327 0.836236 0.694004 0.064569 -0.035121 42551.500000 0 1 0
-10.067084 -11.057868 15.917973 21.840432 0.832265 0.754184 0.070473 -0.028177 -115775.000000 0 1 0
-11.470084 -10.972168 15.771173 22.375907 0.763215 0.788615 0.064127 -0.023174 41039.900000 0 1 0
-11.938884 -11.391968 14.503873 21.969893 0.761961 0.849751 0.078821 -0.023847 -13588.700000 0 1 0
-11.839784 -12.922668 14.191173 22.551391 0.829101 0.890168 0.061519 -0.027839 -99360.400000 0 1 0
-10.581184 -13.415668 13.708673 21.905920 0.902972 0.894643 0.070807 -0.031741 579110.000000 0 1 0
-10.328684 -14.783968 14.055473 22.864902 0.960983 0.908768 0.067533 -0.029008 40238.100000 0 1 0
-9.970684 -15.111068 15.525973 23.849837 0.987544 0.861910 0.077927 -0.034479 -35394.400000 0 1 0
-11.019384 -14.851068 16.460873 24.757653 0.932440 0.843463 0.103866 -0.031169 -31757.300000 0 1 0
-10.649184 -14.858668 17.857973 25.555671 0.948951 0.797096 0.108538 -0.033074 -376977.000000 0 0 1
-11.856984 -14.521868 18.757273 26.519955 0.886080 0.785140 0.085950 -0.030230 173433.000000 0 0 1
-12.419284 -13.197868 18.691273 26.034324 0.815782 0.769947 0.076275 -0.024639 242632.000000 0 0 1
-13.402484 -13.064768 17.690573 25.754050 0.772639 0.813575 0.083857 -0.031028 -71026.900000 0 0 1
-14.888884 -13.268768 18.065873 26.909382 0.727924 0.834755 0.060057 -0.024610 6931.990000 0 0 1
-15.335684 -14.557868 18.446973 28.060747 0.759385 0.853441 0.073529 -0.024246 -713228.000000 0 0 1
-16.443184 -14.387068 19.262173 29.127261 0.718805 0.848231 0.086486 -0.020543 -421864.000000 0 0 1
-17.134584 -15.698968 19.769073 30.510126 0.741702 0.865905 0.090736 -0.023223 4746.580000 0 0 1
-18.089784 -16.238068 18.890873 30.786039 0.731508 0.910162 0.090306 -0.022375 -267271.000000 0 0 1
-18.459784 -17.552768 19.317473 31.969173 0.760217 0.921968 0.079692 -0.021263 -35879.100000 0 0 1
-19.852384 -18.070468 18.879673 32.819217 0.738445 0.957871 0.092442 -0.019938 64300.100000 0 0 1
-19.950184 -18.381468 17.533073 32.300106 0.744496 0.997008 0.098210 -0.022704 -12133.400000 0 0 1
-20.081084 -17.294168 16.683773 31.315914 0.710970 1.008941 0.099239 -0.027858 -491995.000000 0 0 1
-19.700184 -17.513968 15.218273 30.437348 0.726719 1.047213 0.110780 -0.034823 -64493.800000 0 0 1
-20.516084 -18.430668 14.535273 31.174884 0.731904 1.085750 0.116331 -0.027496 72149.900000 0 0 1
-19.987484 -18.524968 13.209573 30.284761 0.747441 1.119448 0.124342 -0.034291 306102.000000 0 0 1
-20.291284 -19.748368 12.398373 30.910417 0.771840 1.158072 0.124212 -0.023377 -227155.000000 0 0 1
-19.435384 -20.777568 12.788773 31.192855 0.818763 1.148353 0.119903 -0.030675 -251743.000000 0 0 1
-19.624484 -22.027968 12.157273 31.908479 0.843038 1.179914 0.101666 -0.020777 176026.000000 0 0 1
-18.638384 -23.152868 12.706173 32.324781 0.893006 1.166819 0.084607 -0.024517 488841.000000 0 0 1
-18.509284 -24.324768 11.895773 32.799350 0.920341 1.199651 0.081808 -0.037555 334634.000000 0 0 1
-17.594984 -24.244468 10.783073 31.837907 0.943009 1.225276 0.066833 -0.029218 142838.000000 0 0 1
-17.572784 -25.590118 9.903973 32.584437 0.969051 1.261962 0.070207 -0.029453 -119276.000000 0 0 1
-18.801084 -25.799018 9.235373 33.231945 0.941033 1.289182 0.060687 -0.021531 -333467.000000 0 0 1
-18.662384 -26.617868 8.125773 33.508561 0.959317 1.325856 0.080339 -0.025839 318428.000000 0 0 1
-19.874484 -26.494158 7.166373 33.886463 0.927202 1.357705 0.054619 -0.028232 399144.000000 0 0 1
-19.921984 -25.190278 6.488173 32.764797 0.901653 1.371456 0.074635 -0.028008 -485103.000000 0 0 1
-21.046284 -25.076168 5.677273 33.226370 0.872550 1.399087 0.095655 -0.024392 -373325.000000 0 0 1
-20.924884 -23.808868 4.797573 32.058223 0.849779 1.420580 0.106723 -0.023918 427565.000000 0 0 1
-22.023184 -23.544668 3.921873 32.476963 0.818775 1.449742 0.112725 -0.022249 468277.000000 0 0 1
-21.715284 -22.458368 3.133573 31.396674 0.802218 1.470824 0.120698 -0.021113 117841.000000 0 0 1
-22.560384 -22.419668 1.845673 31.859362 0.782270 1.512832 0.118877 -0.023330 99644.000000 0 0 1
-22.192584 -23.463368 0.949173 32.310081 0.813225 1.541415 0.107959 -0.035787 244665.000000 0 0 1
-22.680984 -23.180368 -0.365027 32.432849 0.796287 1.582051 0.109688 -0.034477 -182012.000000 0 0 1
-21.912384 -23.931568 -1.452627 32.480496 0.829414 1.615534 0.109965 -0.035365 -1035510.000000 0 0 1
-20.565984 -23.605068 -1.493027 31.343070 0.854093 1.618449 0.106658 -0.035810 -375000.000000 0 0 1
-19.777084 -24.104668 -2.597227 31.287596 0.883700 1.653903 0.095817 -0.027872 400217.000000 0 0 1
-19.456484 -25.607088 -2.669327 32.270776 0.921047 1.653607 0.112175 -0.023155 -303828.000000 0 0 1
-20.534684 -26.463058 -2.949227 33.625357 0.910877 1.658618 0.154819 -0.035712 -262.267000 0 0 1
-19.968584 -27.720638 -3.286327 34.321685 0.946542 1.666694 0.151811 -0.030021 391166.000000 0 0 1
-21.008584 -28.590728 -4.047627 35.709573 0.937092 1.684389 0.145011 -0.032458 207689.000000 0 0 1
-21.323684 -28.075758 -5.359127 35.660453 0.921240 1.721650 0.137636 -0.025234 112750.000000 0 0 1
-22.173484 -29.062758 -5.929327 37.033285 0.919057 1.731596 0.139671 -0.041054 438203.000000 0 0 1
-23.084184 -28.588828 -7.112327 37.427073 0.891526 1.761991 0.139069 -0.008267 428177.000000 0 0 1
-22.337084 -28.515148 -8.350827 37.172507 0.906296 1.797381 0.160578 -0.008845 445044.000000 0 0 1
-23.114284 -28.325708 -9.518427 37.778516 0.886364 1.825495 0.159929 -0.004240 41125.300000 0 0 1
-23.994984 -27.057978 -9.637927 37.427036 0.845323 1.831243 0.125291 -0.000938 -305167.000000 0 0 1
-23.395084 -25.838118 -10.006727 36.263933 0.834979 1.850365 0.111734 0.000331 -27482.300000 0 0 1
-22.802784 -25.023528 -9.005827 35.032111 0.831798 1.830789 0.089670 -0.002751 95126.400000 0 0 1
-22.374984 -23.577168 -9.502427 33.864714 0.811554 1.855215 0.056943 -0.004182 -251781.000000 0 0 1
-23.384484 -22.645668 -9.683327 33.962143 0.769349 1.859929 0.080938 0.001595 -502764.000000 0 0 1
-22.922784 -21.575468 -10.499027 33.184098 0.755129 1.892715 0.063122 0.000971 -24676.100000 0 0 1
-23.917884 -20.383168 -10.570127 33.155185 0.705778 1.895268 0.085296 0.005603 -179622.000000 0 0 1
-24.838484 -20.769768 -11.628827 34.402953 0.696424 1.915607 0.096431 0.007130 1567880.000000 0 0 1
-26.107854 -20.054968 -11.603927 34.906631 0.655022 1.909673 0.101927 0.003043 1140910.000000 0 0 1
-26.036794 -18.515368 -11.704227 34.025320 0.618152 1.921955 0.113774 -0.014083 -1447360.000000 0 0 1
-25.418034 -18.064768 -12.912327 33.751155 0.617876 1.963377 0.129950 -0.006670 304552.000000 0 0 1
-25.060424 -16.717868 -12.860427 32.755191 0.588304 1.974278 0.119161 -0.029068 27819.400000 0 0 1
-23.846284 -16.263368 -12.011727 31.263780 0.598549 1.965144 0.097707 -0.025293 -486552.000000 0 0 1
-24.140784 -16.359668 -10.637327 31.041406 0.595587 1.920566 0.136946 -0.029094 69308.700000 0 0 1
-23.008684 -16.390068 -9.822127 29.908327 0.618962 1.905414 0.103190 -0.025243 -253966.000000 0 0 1
-23.457284 -16.766068 -8.375927 30.025012 0.620556 1.853512 0.084640 -0.034639 87576.000000 0 0 1
-23.767384 -18.101368 -8.135127 30.963339 0.650887 1.836651 0.114665 -0.029492 59637.000000 0 0 1
-24.444284 -18.158768 -6.885827 31.219841 0.638918 1.793184 0.127958 -0.016611 73484.600000 0 0 1
-25.253974 -19.487468 -6.804827 32.616411 0.657220 1.780972 0.139357 -0.021021 46047.500000 0 0 1
-26.295354 -19.657968 -7.743327 33.731891 0.641953 1.802417 0.118723 -0.028034 -79405.800000 0 0 1
-26.974314 -20.890768 -7.560827 34.945728 0.658978 1.788880 0.128420 -0.013202 295125.000000 0 0 1
-26.298284 -22.121868 -8.243027 35.340123 0.699357 1.806213 0.105909 -0.002875 53714.700000 0 0 1
-27.028794 -23.281668 -7.967527 36.552336 0.711055 1.790536 0.112608 0.000553 -373457.000000 0 0 1
-26.546284 -24.274168 -8.794427 37.030830 0.740719 1.810577 0.097260 0.013039 -119778.000000 0 0 1
-27.102084 -25.667698 -8.500327 38.283276 0.758223 1.794700 0.103599 0.001583 -360969.000000 0 0 1
-26.560314 -26.343628 -7.458627 38.145355 0.781302 1.767596 0.132646 -0.020404 -351944.000000 0 0 1
-27.307634 -27.496488 -7.190827 39.414105 0.788844 1.754267 0.121036 -0.027825 -7611.920000 0 0 1
-27.033044 -27.954518 -5.761427 39.312015 0.802154 1.717882 0.141801 -0.042290 -5228.620000 0 0 1
-27.729944 -27.289718 -4.715927 39.190795 0.777397 1.691421 0.107506 -0.034755 76875.800000 0 0 1
-27.500894 -27.869258 -3.386227 39.299634 0.792051 1.657068 0.114057 -0.040337 -338554.000000 0 0 1
-27.976934 -29.279788 -2.987327 40.607129 0.808149 1.644429 0.097930 -0.021028 -562359.000000 0 0 1
-27.419494 -30.292538 -3.813627 41.036694 0.835140 1.663863 0.108066 -0.027545 -61582.600000 0 0 1
-27.466314 -31.578878 -3.199727 41.974542 0.854937 1.647101 0.091073 -0.033603 60975.000000 0 0 1
-26.560324 -31.736568 -1.928527 41.429214 0.873957 1.617363 0.098830 -0.033641 1254100.000000 0 0 1
-25.161124 -31.481248 -2.224627 40.362112 0.896518 1.625941 0.116417 -0.044265 995599.000000 0 0 1
-24.312884 -31.760278 -1.131327 40.013891 0.917441 1.599073 0.140231 -0.017645 97862.700000 0 0 1
-23.124184 -30.799818 -1.092427 38.529859 0.926790 1.599153 0.147117 -0.020337 -170164.000000 0 0 1
-23.522684 -29.523268 -0.690627 37.754695 0.898040 1.589090 0.117082 -0.021886 -63146.300000 0 0 1
-23.951384 -28.697958 -1.750427 37.420657 0.875310 1.617590 0.152897 -0.033410 -259679.000000 0 0 1
-24.592384 -27.349738 -1.321527 36.804075 0.838434 1.606711 0.081022 -0.023498 -144873.000000 0 0 1
-25.745124 -27.636188 -0.552627 37.774008 0.820809 1.585427 0.111478 -0.026663 -313003.000000 0 0 1
-26.424294 -26.506488 -0.066127 37.427818 0.786951 1.572563 0.129500 -0.035216 78938.100000 0 0 1
-25.677204 -25.559858 0.912673 36.241662 0.783108 1.545611 0.136143 -0.032102 -98300.800000 0 0 1
-25.605494 -26.111248 2.252473 36.640309 0.795177 1.509282 0.118777 -0.026817 -352487.000000 0 0 1
-24.876584 -25.274178 3.062673 35.595062 0.793326 1.484648 0.140154 -0.022280 -17289.800000 0 0 1
-25.772434 -24.253368 3.863473 35.600149 0.755042 1.462058 0.150553 -0.029309 500279.000000 0 0 1
-26.258834 -23.218468 2.970473 35.177369 0.724026 1.486253 0.138609 -0.027118 327152.000000 0 0 1
-27.070434 -22.238468 3.620273 35.220225 0.687716 1.467825 0.135446 -0.024524 50637.400000 0 0 1
-27.288704 -21.055168 2.635273 34.567877 0.657164 1.494488 0.128871 -0.022758 180893.000000 0 0 1
-26.187794 -20.182668 2.463673 33.154341 0.656612 1.496419 0.130554 -0.026735 66445.800000 0 0 1
-26.267084 -19.450868 1.248573 32.708636 0.637396 1.532614 0.107321 -0.023718 -143490.000000 0 0 1
-25.046974 -18.518468 1.109673 31.169150 0.636650 1.535187 0.119823 -0.016831 -698991.000000 0 0 1
-23.864684 -19.220268 0.954073 30.657007 0.678016 1.539670 0.130913 -0.020243 -490607.000000 0 0 1
-22.798084 -18.308868 1.173273 29.263353 0.676621 1.530692 0.124911 -0.018797 481717.000000 0 0 1
-21.332084 -18.814268 1.251373 28.471045 0.722764 1.526830 0.113784 -0.014813 459886.000000 0 0 1
-20.897484 -19.430868 0.054773 28.535354 0.749047 1.568877 0.066103 -0.015944 193481.000000 0 0 1
-19.615884 -20.020968 0.166073 28.029442 0.795618 1.564871 0.101752 -0.019767 -64080.300000 0 0 1
-19.133984 -20.698068 -1.084327 28.208068 0.824645 1.609246 0.093796 -0.021882 -157144.000000 0 0 1
-18.781384 -19.782968 -2.095527 27.358681 0.811364 1.647466 0.103276 -0.023700 -184419.000000 0 0 1
-18.334184 -20.477268 -3.207827 27.672205 0.840560 1.686980 0.083482 -0.013301 36584.700000 0 0 1
-17.653484 -19.486068 -4.188927 26.625165 0.834701 1.728782 0.102535 -0.004284 -80844.700000 0 0 1
-16.301384 -19.226968 -3.941827 25.513710 0.867558 1.725916 0.133962 -0.019968 -304801.000000 0 0 1
-15.676984 -18.502868 -4.987427 24.758804 0.867887 1.773625 0.137691 -0.015277 135398.000000 0 1 0
-14.227684 -17.960668 -4.852427 23.421328 0.900856 1.779488 0.159393 -0.035322 -160878.000000 0 1 0
-13.390784 -19.072968 -4.945427 23.823275 0.958675 1.779905 0.124932 -0.030341 -266321.000000 0 1 0
-12.237084 -18.756068 -5.721827 23.114402 0.992712 1.820941 0.121492 -0.033824 354116.000000 0 1 0
-11.075884 -19.780468 -5.699827 23.375845 1.060353 1.817114 0.112138 -0.038866 294116.000000 0 1 0
-11.313284 -21.007068 -6.370227 24.695487 1.076789 1.831697 0.098471 -0.029066 -55036.700000 0 1 0
-10.087984 -21.669568 -6.637927 24.807250 1.135097 1.841677 0.094589 -0.027873 453262.000000 0 1 0
-10.268684 -22.834468 -7.606327 26.167059 1.148191 1.865737 0.091090 -0.005597 -321113.000000 0 0 1
-10.617884 -22.519868 -8.884727 26.435247 1.130216 1.913563 0.092675 -0.013720 -141941.000000 0 0 1
-10.693284 -23.678968 -9.681027 27.726560 1.146617 1.927472 0.110792 -0.008412 -36672.800000 0 0 1
-11.475884 -23.398468 -10.991627 28.284272 1.114814 1.969922 0.139854 -0.013186 -125730.000000 0 0 1
-10.861384 -22.544868 -11.905227 27.712364 1.121841 2.014846 0.123097 -0.012661 -166846.000000 0 0 1
-11.789484 -22.010468 -12.870427 28.090933 1.079052 2.046732 0.134086 -0.020406 -258089.000000 0 0 1
-11.379284 -21.011468 -13.944527 27.666220 1.074445 2.099052 0.102685 -0.003273 -321959.000000 0 0 1
-11.186484 -19.729368 -13.365127 26.325121 1.054998 2.103303 0.103571 -0.003719 -85418.100000 0 0 1
-11.080684 -18.625068 -14.243127 25.933402 1.034110 2.152226 0.086853 0.007868 162537.000000 0 0 1
-10.612884 -17.354568 -13.471427 24.398641 1.021940 2.155723 0.104955 -0.000597 214133.000000 0 1 0
-11.618684 -16.909468 -12.539127 24.044825 0.968773 2.119392 0.115294 -0.008001 553855.000000 0 1 0
-11.126984 -15.989568 -11.547027 22.645306 0.962834 2.105874 0.102186 -0.015178 99442.500000 0 1 0
-10.674184 -14.571568 -12.028427 21.701425 0.938567 2.158281 0.096068 -0.009140 201631.000000 0 1 0
-11.694384 -13.770968 -12.612027 22.033188 0.866764 2.180239 0.087316 -0.003197 51354.900000 0 1 0
-11.979584 -14.022968 -13.977627 23.141480 0.863821 2.219316 0.102396 -0.003976 643387.000000 0 1 0
-13.216784 -13.192068 -14.524027 23.657163 0.784462 2.231836 0.101028 -0.007370 590757.000000 0 1 0
-13.066584 -11.766768 -14.389327 22.721029 0.733104 2.256612 0.071288 0.002380 -1460.050000 0 1 0
-13.941784 -10.984768 -15.191127 23.362551 0.667321 2.278689 0.070428 -0.006652 -66293.600000 0 1 0
-13.980684 -9.522368 -14.788427 22.468480 0.597935 2.289202 0.054872 -0.003449 -420208.000000 0 1 0
-12.811484 -8.850468 -15.122327 21.705982 0.604540 2.341568 0.043364 0.008658 -480025.000000 0 1 0
-13.058884 -7.667068 -15.829627 21.906516 0.530891 2.378351 0.053089 -0.006405 11877.700000 0 1 0
-11.945184 -6.590868 -15.754727 20.840786 0.504193 2.427910 0.033458 -0.007744 -309486.000000 0 1 0
-10.748084 -6.957068 -16.350027 20.766451 0.574464 2.477261 0.035882 -0.003752 768698.000000 0 1 0
-9.576984 -6.314568 -15.758327 19.491466 0.582919 2.512349 0.014172 -0.001947 944888.000000 0 1 0
11.953416 22.076632 15.909873 29.721809 1.074540 1.005942 0.133085 -0.028616 62212.200000 0 0 1
12.819616 21.989132 17.042173 30.631686 1.042972 0.980800 0.135717 -0.039513 99621.400000 0 0 1
13.198116 20.706232 17.451673 30.124728 1.003331 0.952910 0.106382 -0.028108 -185538.000000 0 0 1
14.428716 20.702032 18.375573 31.215760 0.962106 0.941392 0.100540 -0.030706 601184.000000 0 0 1
15.622916 21.169332 17.695773 31.707358 0.935021 0.978706 0.092458 -0.026091 415261.000000 0 0 1
16.757816 20.751932 18.405573 32.407286 0.891481 0.966789 0.098630 -0.030038 343249.000000 0 0 1
18.117016 21.239032 17.807473 33.112367 0.864560 1.002984 0.071202 -0.022656 -263667.000000 0 0 1
18.492616 22.558532 18.165073 34.363267 0.884121 1.013824 0.074371 -0.019311 -927389.000000 0 0 1
19.659016 22.930932 17.531473 34.923590 0.862071 1.044892 0.064673 -0.014680 -65271.100000 0 0 1
20.964116 22.486032 18.269973 35.761819 0.820411 1.034589 0.052579 -0.013888 -255116.000000 0 0 1
21.336816 21.132132 18.000273 35.011949 0.780579 1.030817 0.069520 -0.012108 237491.000000 0 0 1
22.588116 20.832132 18.615173 35.926667 0.744979 1.026117 0.088769 -0.016567 266999.000000 0 0 1
23.048616 19.414432 18.324273 35.269503 0.700022 1.024472 0.090250 -0.020405 -232333.000000 0 0 1
23.267116 19.185632 17.005673 34.621382 0.689551 1.057341 0.069107 -0.014088 -15833.200000 0 0 1
22.918816 17.857832 16.604073 33.464452 0.661915 1.051614 0.061208 -0.006535 226616.000000 0 0 1
23.920216 16.689132 16.948273 33.733482 0.609181 1.044404 0.072035 -0.011241 -67973.900000 0 0 1
24.999916 16.615132 16.076773 34.051741 0.586576 1.079093 0.087002 -0.024081 -608731.000000 0 0 1
25.858216 15.544432 16.302773 34.293689 0.541258 1.075392 0.065779 -0.012647 -189092.000000 0 0 1
27.251016 15.722032 15.631673 35.130462 0.523286 1.109666 0.164480 -0.051027 40132.700000 0 0 1
28.161016 16.635932 16.249873 36.521986 0.533585 1.109696 0.143749 -0.045739 856336.000000 0 0 1
29.043316 16.118132 17.279573 37.441849 0.506650 1.091106 0.156936 -0.055324 514878.000000 0 0 1
30.256616 15.321232 16.714173 37.809609 0.468736 1.112901 0.156832 -0.062128 -360800.000000 0 0 1
31.144616 16.117132 15.946973 38.523435 0.477544 1.144002 0.204241 -0.053221 83900.700000 0 0 1
32.042416 15.459632 15.078673 38.640433 0.449529 1.169914 0.189384 -0.051319 -87269.900000 0 0 1
31.415916 14.925832 13.756473 37.402952 0.443533 1.194164 0.163583 -0.047420 -341786.000000 0 0 1
31.133416 15.916732 12.810673 37.239029 0.472601 1.219610 0.181683 -0.035180 -246039.000000 0 0 1
30.368016 15.459332 11.743773 36.043357 0.470874 1.238914 0.173474 -0.035506 337966.000000 0 0 1
28.868516 15.883632 11.842573 35.013248 0.503001 1.225760 0.159960 -0.039891 153154.000000 0 0 1
28.631316 17.245132 11.416473 35.319721 0.542122 1.241653 0.149230 -0.030841 -43681.100000 0 0 1
29.045716 18.321032 12.215473 36.449028 0.562734 1.229044 0.142645 -0.044211 -231838.000000 0 0 1
28.395816 18.611532 13.635073 36.587248 0.580185 1.188909 0.141265 -0.040034 79873.700000 0 0 1
27.081116 19.139232 13.583173 35.835732 0.615233 1.182038 0.141368 -0.034118 378448.000000 0 0 1
26.395216 18.996232 14.840573 35.746425 0.623815 1.142675 0.122066 -0.028018 -219623.000000 0 0 1
26.881016 19.782032 16.083373 37.048518 0.634423 1.121739 0.127330 -0.031907 -314598.000000 0 0 1
26.882216 21.201132 16.116773 37.840348 0.667793 1.130823 0.100086 -0.023880 -4768.420000 0 0 1
25.615616 21.726532 16.436773 37.394779 0.703434 1.115702 0.078005 -0.017487 -155402.000000 0 0 1
25.509216 23.218532 16.122973 38.075853 0.738423 1.133553 0.076352 -0.016034 -137149.000000 0 0 1
25.559616 23.471832 14.721773 37.695510 0.742843 1.169573 0.093856 -0.029981 223181.000000 0 0 1
25.864616 24.829432 14.454573 38.657648 0.764981 1.187573 0.096697 -0.030015 -275451.000000 0 0 1
25.533916 25.210532 12.987173 38.160431 0.779025 1.223528 0.095047 -0.033105 -411688.000000 0 0 1
24.180616 25.435132 12.700873 37.322384 0.810677 1.223559 0.091536 -0.028030 -330900.000000 0 0 1
24.113016 25.632032 11.283273 36.956067 0.815925 1.260526 0.099489 -0.046323 -77318.600000 0 0 1
23.491616 24.375632 10.653673 35.489833 0.803864 1.265905 0.108153 -0.050242 -1576790.000000 0 0 1
22.125716 24.323132 10.915173 34.645390 0.832671 1.250283 0.095308 -0.043792 -618301.000000 0 0 1
21.574616 23.000832 10.601273 33.269946 0.817383 1.246498 0.087383 -0.038125 175506.000000 0 0 1
21.317316 22.700432 9.115373 32.447305 0.816810 1.286035 0.107410 -0.037505 -214675.000000 0 0 1
20.238716 23.527232 8.676373 32.224459 0.860396 1.298184 0.116779 -0.033901 254374.000000 0 0 1
20.328716 23.717132 7.319273 32.083186 0.862176 1.340635 0.103510 -0.041106 -95999.300000 0 0 1
19.025016 23.808232 6.496473 31.160670 0.896608 1.360773 0.097130 -0.037623 -1054170.000000 0 0 1
18.562716 22.597932 6.073573 29.868533 0.883122 1.366025 0.098071 -0.031581 157434.000000 0 0 1
17.889016 22.515432 4.816473 29.157503 0.899404 1.404848 0.105962 -0.036809 -401905.000000 0 0 1
16.518516 23.188932 4.733773 28.861680 0.951833 1.406036 0.069467 -0.021782 -956441.000000 0 0 1
16.494316 24.582732 4.815573 29.992715 0.979819 1.409540 0.069279 -0.020540 -5220.660000 0 0 1
15.251016 25.018832 5.336073 29.782699 1.023361 1.390657 0.066360 -0.022256 103171.000000 0 0 1
15.127216 26.504132 5.089373 30.938704 1.052162 1.405547 0.054353 -0.020800 -272100.000000 0 0 1
14.735016 26.869032 3.795773 30.878366 1.069181 1.447558 0.051492 -0.013441 312179.000000 0 0 1
14.611116 28.255432 3.624773 32.015514 1.093556 1.457334 0.038805 -0.011898 -381816.000000 0 0 1
13.901416 28.609132 2.326173 31.892678 1.118485 1.497794 0.054064 -0.014919 -509066.000000 0 0 1
14.582216 28.297032 1.137673 31.853687 1.094963 1.535073 0.076021 -0.022800 -132837.000000 0 0 1
14.441716 26.984932 0.718873 30.614809 1.079405 1.547313 0.052673 -0.015755 371244.000000 0 0 1
15.470416 26.467632 -0.365327 30.659465 1.041849 1.582712 0.062233 -0.025328 470305.000000 0 0 1
15.294916 27.134332 -1.596627 31.189031 1.057516 1.622011 0.060622 -0.022835 -43972.600000 0 0 1
16.388616 26.811332 -2.415727 31.516187 1.022141 1.647522 0.073276 -0.018156 3136.810000 0 0 1
16.292916 27.475932 -3.749327 32.162765 1.035548 1.687636 0.102458 -0.026734 127458.000000 0 0 1
15.288016 26.836132 -4.520527 31.214365 1.052969 1.716129 0.112408 -0.028760 39756.600000 0 0 1
15.454316 27.451532 -5.804727 32.033067 1.058052 1.753013 0.108376 -0.027445 -48844.600000 0 0 1
14.206516 27.202132 -6.633427 31.397189 1.089502 1.783675 0.113700 -0.039989 -244132.000000 0 0 1
13.978116 25.803132 -6.855527 30.136151 1.074331 1.800291 0.088524 -0.030867 1157440.000000 0 0 1
12.715116 25.709432 -7.603427 29.672566 1.111502 1.829931 0.078493 -0.040184 1477560.000000 0 0 1
12.362916 24.274432 -7.974127 28.384440 1.099738 1.855562 0.079651 -0.022857 50325.100000 0 0 1
12.993616 23.885532 -9.179227 28.698622 1.072575 1.896366 0.080475 -0.025005 252157.000000 0 0 1
12.729916 22.486932 -9.462927 27.518355 1.055674 1.921839 0.089018 -0.015506 -295994.000000 0 0 1
13.074716 21.981432 -10.922227 27.810548 1.034204 1.974402 0.102639 -0.020092 -37120.800000 0 0 1
12.648916 20.619732 -11.065427 26.600979 1.020555 1.999815 0.123856 -0.026088 125617.000000 0 0 1
12.472916 20.298332 -12.437027 26.875185 1.019798 2.051914 0.112669 -0.030676 508901.000000 0 0 1
13.733416 19.604832 -13.054027 27.264698 0.959727 2.070071 0.125444 -0.019764 335943.000000 0 0 1
14.925116 20.340832 -12.990427 28.377099 0.937776 2.046291 0.096394 -0.015857 -717152.000000 0 0 1
15.997016 19.509732 -13.366927 28.551864 0.884008 2.058007 0.083084 -0.012632 -62006.600000 0 0 1
17.333916 20.281032 -13.263427 29.794352 0.863588 2.032156 0.097108 -0.005101 -333252.000000 0 0 1
17.581916 21.280032 -14.225827 31.053787 0.880273 2.046656 0.092152 -0.014211 166057.000000 0 0 1
16.724516 22.438732 -14.149927 31.359633 0.930283 2.038922 0.093209 -0.012375 -123925.000000 0 0 1
17.366416 23.740732 -14.630327 32.852112 0.939239 2.032349 0.085229 -0.020000 -189917.000000 0 0 1
17.486516 23.964032 -16.039927 33.724358 0.940415 2.066463 0.067485 -0.014855 -542576.000000 0 0 1
16.298816 24.349432 -16.663327 33.707755 0.980923 2.087880 0.072654 -0.007309 -170948.000000 0 0 1
16.485016 24.483032 -18.201127 34.676442 0.978199 2.123376 0.048779 0.004185 51918.100000 0 0 1
16.600616 23.246232 -18.884727 34.243257 0.950656 2.154943 0.043767 0.011226 -130680.000000 0 0 1
16.739816 23.346632 -20.275727 35.162363 0.948744 2.185396 0.033919 0.015457 -236329.000000 0 0 1
17.102916 21.979832 -20.999427 34.879775 0.909541 2.216865 0.046308 0.009452 -315470.000000 0 0 1
16.147116 20.942532 -20.919927 33.718872 0.913977 2.240077 0.056182 0.002745 -445674.000000 0 0 1
16.540816 19.726232 -21.506927 33.545055 0.873006 2.266773 0.055262 0.002207 174016.000000 0 0 1
15.497016 18.533332 -21.631027 32.427507 0.874386 2.301049 0.056105 -0.001046 99579.300000 0 0 1
15.234516 17.849832 -20.415727 31.104805 0.864284 2.286771 0.063546 -0.009513 -100723.000000 0 0 1
14.430116 16.730732 -20.545927 30.170859 0.859095 2.319904 0.056587 -0.017607 -586293.000000 0 0 1
12.908416 16.836032 -20.634527 29.594981 0.916684 2.342323 0.069465 -0.018996 -748982.000000 0 0 1
12.223616 17.062932 -19.450427 28.616072 0.949159 2.318154 0.066019 -0.018819 1236990.000000 0 0 1
10.817316 17.364932 -19.675127 28.384253 1.013680 2.336675 0.081308 -0.021563 1645700.000000 0 0 1
9.859616 17.119632 -18.466527 27.042678 1.048268 2.322475 0.098465 -0.026960 -118165.000000 0 0 1
9.693616 15.740132 -18.267827 25.989064 1.018801 2.350269 0.123414 -0.054004 496695.000000 0 0 1
8.347516 15.258032 -18.290827 25.239709 1.070190 2.381373 0.133837 -0.041945 490303.000000 0 0 1
7.606316 15.304632 -16.963727 24.080196 1.109556 2.352470 0.137087 -0.045334 -156339.000000 0 1 0
7.367016 16.612732 -16.495927 24.543256 1.153398 2.307860 0.137694 -0.044289 -605450.000000 0 1 0
6.815816 16.695432 -15.264827 23.626420 1.183203 2.273249 0.114383 -0.051197 -413965.000000 0 1 0
6.408616 18.109732 -14.829027 24.267938 1.230672 2.228188 0.101240 -0.042931 368917.000000 0 1 0
7.477816 19.050232 -14.630027 25.156843 1.196745 2.191432 0.102620 -0.039789 444601.000000 0 0 1
8.164416 19.549332 -15.791627 26.423655 1.175183 2.211341 0.121808 -0.030075 792009.000000 0 0 1
9.353716 20.503832 -15.369327 27.278478 1.142804 2.169320 0.096311 -0.010039 525426.000000 0 0 1
8.905216 21.734932 -14.803627 27.764321 1.181940 2.133162 0.090123 -0.017999 130984.000000 0 0 1
8.673516 21.743232 -13.420327 26.983388 1.191233 2.091344 0.078140 -0.019016 -41656.000000 0 0 1
8.453016 23.151632 -12.828127 27.785111 1.220720 2.050697 0.085355 -0.021241 -231445.000000 0 0 1
7.220316 23.750032 -13.202427 28.115851 1.275662 2.059603 0.074797 -0.021101 404330.000000 0 0 1
6.530716 24.543932 -12.251527 28.198489 1.310739 2.020251 0.061010 -0.018151 221676.000000 0 0 1
6.107816 23.910832 -10.901027 26.978986 1.320703 1.986743 0.059723 -0.023892 -396119.000000 0 0 1
7.148116 23.829432 -9.936627 26.789437 1.279367 1.950791 0.052983 -0.023578 165252.000000 0 0 1
6.735216 23.056232 -8.872827 25.606250 1.286583 1.924645 0.068365 -0.032346 -100013.000000 0 0 1
7.753116 23.067332 -7.716027 25.529389 1.246551 1.877839 0.059256 -0.031248 -34613.600000 0 0 1
7.792316 24.330532 -7.145827 26.528434 1.260849 1.843530 0.054153 -0.030823 451707.000000 0 0 1
8.496516 24.353132 -5.882327 26.455011 1.235112 1.795023 0.057620 -0.032300 225477.000000 0 0 1
8.635316 25.817032 -5.309727 27.735916 1.248013 1.763424 0.047826 -0.027694 247848.000000 0 0 1
9.649016 26.527132 -6.008827 28.859977 1.221933 1.780537 0.058876 -0.031196 191911.000000 0 0 1
9.793916 27.826832 -5.417727 29.993418 1.232377 1.752424 0.065808 -0.036324 116820.000000 0 0 1
10.093716 28.875532 -6.510327 31.274012 1.234514 1.780500 0.066562 -0.033208 -194190.000000 0 0 1
11.329016 28.783032 -7.162027 31.750656 1.195819 1.798325 0.070351 -0.032964 -406073.000000 0 0 1
11.481216 29.890932 -7.991927 33.002379 1.204068 1.815390 0.068286 -0.028557 -830035.000000 0 0 1
12.866016 29.939032 -8.607927 33.704249 1.164917 1.829053 0.101660 -0.032679 -209505.000000 0 0 1
13.864116 30.411532 -7.697827 34.297690 1.143060 1.797166 0.096564 -0.031953 -105701.000000 0 0 1
15.036916 30.745832 -8.419327 35.246278 1.115930 1.812000 0.093665 -0.027148 306254.000000 0 0 1
16.185916 31.198332 -7.468627 35.931883 1.092216 1.780178 0.102703 -0.032817 248825.000000 0 0 1
16.930116 30.075632 -6.987227 35.213546 1.058089 1.770546 0.093802 -0.024052 -226274.000000 0 0 1
18.088016 30.514532 -6.316427 36.030685 1.035712 1.747014 0.088940 -0.020102 532726.000000 0 0 1
19.230516 29.459032 -6.165627 35.716415 0.992463 1.744293 0.083319 -0.016368 224951.000000 0 0 1
18.888216 28.474832 -5.276627 34.574898 0.985107 1.724009 0.095547 -0.019253 784756.000000 0 0 1
20.023816 27.621732 -4.943827 34.472521 0.943534 1.714706 0.082203 -0.019201 803672.000000 0 0 1
20.248016 26.361332 -5.817427 33.745288 0.915814 1.744054 0.086041 -0.013245 -151030.000000 0 0 1
20.756016 26.731432 -7.070527 34.574181 0.910572 1.776752 0.078557 -0.010767 105499.000000 0 0 1
20.630916 25.663132 -7.982327 33.881390 0.893674 1.808628 0.071661 -0.012774 -538401.000000 0 0 1
21.376416 25.884232 -9.337827 34.844507 0.880493 1.842098 0.067626 -0.011493 -155845.000000 0 0 1
22.754916 25.978332 -9.095627 35.712608 0.851446 1.828323 0.053344 -0.010952 -280805.000000 0 0 1
23.438816 24.766432 -9.378027 35.365261 0.812932 1.839183 0.059522 -0.007481 -38184.000000 0 0 1
24.985116 24.851632 -9.302827 36.447253 0.782720 1.828893 0.032971 0.003493 354114.000000 0 0 1
25.622816 25.203432 -10.527127 37.450796 0.777147 1.855728 0.036675 -0.001068 -1298770.000000 0 0 1
26.981116 25.171232 -10.369327 38.328769 0.750708 1.844746 0.034877 0.009921 -1509480.000000 0 0 1
27.687416 25.344532 -11.711227 39.320366 0.741248 1.873227 0.020898 0.004981 -210738.000000 0 0 1
27.585716 26.594432 -12.402427 40.274753 0.767104 1.883829 0.027297 0.006911 -256392.000000 0 0 1
28.342816 26.573632 -13.557027 41.149315 0.753193 1.906527 0.027687 0.003339 -179867.000000 0 0 1
27.945316 27.724632 -14.509327 41.953742 0.781434 1.923931 0.037211 -0.004382 -226476.000000 0 0 1
28.502816 28.959232 -14.191927 43.040196 0.793341 1.906821 0.050965 -0.003631 3683.740000 0 0 1
28.216216 29.874532 -15.191527 43.811243 0.813937 1.924900 0.058454 -0.005484 -288455.000000 0 0 1
28.619216 31.238732 -14.624527 44.819580 0.829132 1.903181 0.066940 -0.016932 -909796.000000 0 0 1
29.957916 31.325832 -14.303027 45.643850 0.807715 1.889527 0.057074 -0.020780 -1008990.000000 0 0 1
30.466416 32.545632 -14.778227 46.966123 0.818383 1.890892 0.056818 -0.027372 -135157.000000 0 0 1
16.572816 -31.292642 -27.881220 45.069392 -1.083744 2.237792 0.094281 -0.038797 -452979.000000 0 0 1
17.576716 -32.195142 -27.457410 45.818964 -1.071073 2.213371 0.074128 -0.023999 70066.500000 0 0 1
18.049716 -31.838442 -26.184480 45.001173 -1.055059 2.191813 0.082044 -0.033989 -531408.000000 0 0 1
19.273516 -32.674242 -25.737310 45.841942 -1.037860 2.166916 0.030024 -0.025623 736005.000000 0 0 1
20.528016 -32.278442 -26.318730 46.432454 -1.004350 2.173434 0.044144 -0.022591 804592.000000 0 0 1
20.756316 -32.771842 -27.590160 47.602890 -1.006209 2.189022 0.048396 -0.010598 -1256100.000000 0 0 1
22.189816 -32.533142 -28.035430 48.340238 -0.972207 2.189477 0.060201 -0.004934 -542668.000000 0 0 1
22.542016 -31.167342 -28.152320 47.666537 -0.944631 2.202611 0.069884 -0.016622 92076.100000 0 0 1
23.881016 -30.912942 -27.788510 47.938650 -0.913034 2.189118 0.042188 -0.005543 -174247.000000 0 0 1
24.471716 -29.651142 -28.460340 47.833524 -0.880805 2.208046 0.036990 -0.002867 -65208.100000 0 0 1
24.861416 -29.789842 -29.836010 48.946013 -0.875334 2.226314 0.035621 -0.002375 7743.410000 0 0 1
25.378116 -28.575242 -30.292180 48.766888 -0.844586 2.241022 0.043004 -0.015796 567.060000 0 0 1
25.701716 -28.649642 -31.777430 49.911774 -0.839583 2.260971 0.049037 -0.015415 -57107.300000 0 0 1
26.823616 -29.442542 -32.049890 51.123039 -0.831910 2.248386 0.061072 -0.028871 -381385.000000 0 0 1
26.988416 -29.840042 -33.394710 52.287755 -0.835536 2.263567 0.057239 -0.033745 785574.000000 0 0 1
28.245316 -30.763242 -33.672520 53.647120 -0.828043 2.249349 0.050113 -0.035773 1854430.000000 0 0 1
29.546016 -30.134942 -33.588570 53.937684 -0.795266 2.243022 0.053419 -0.041402 782033.000000 0 0 1
30.409816 -30.830442 33.312459 54.635089 -0.792267 0.915081 0.060168 -0.034135 1422460.000000 0 0 1
31.858316 -30.169142 33.231568 55.040590 -0.758172 0.922581 0.064000 -0.042125 1127100.000000 0 0 1
31.935316 -29.064942 32.333241 53.945099 -0.738378 0.928079 0.054005 -0.035249 -995993.000000 0 0 1
33.244116 -28.641842 32.442311 54.571329 -0.711168 0.934160 0.048636 -0.038375 -880940.000000 0 0 1
33.603616 -27.531842 31.400673 53.602310 -0.686406 0.944919 0.041207 -0.037146 -683525.000000 0 0 1
34.892016 -26.996442 31.355053 54.123932 -0.658506 0.952903 0.019717 -0.034384 -306065.000000 0 0 1
35.042416 -26.063442 30.302693 53.155688 -0.639501 0.964200 0.037962 -0.027814 -561530.000000 0 0 1
35.512916 -26.628842 28.950263 52.994152 -0.643396 0.992866 0.044102 -0.027068 -654617.000000 0 0 1
34.746216 -27.624942 28.293363 52.639827 -0.671715 1.003339 0.031961 -0.030116 -255759.000000 0 0 1
33.561416 -27.141042 27.737273 51.306541 -0.680022 0.999624 0.030138 -0.024063 -624840.000000 0 0 1
32.893216 -28.217742 26.781983 50.945846 -0.709039 1.017264 0.017782 -0.018619 -332233.000000 0 0 1
31.748616 -27.644342 26.203143 49.586177 -0.716404 1.014039 0.018540 -0.004788 -75259.900000 0 0 1
31.122116 -28.635742 25.372843 49.319094 -0.743815 1.030415 0.023845 -0.000439 -580287.000000 0 0 1
29.748116 -28.219442 24.884963 47.964036 -0.759033 1.025320 0.020591 0.011092 -1200390.000000 0 0 1
28.766716 -28.168542 25.871593 47.857393 -0.774892 0.999649 0.034617 0.003670 -1099240.000000 0 0 1
27.605916 -27.957442 25.124993 46.636578 -0.791725 1.001855 0.051662 0.012306 -263222.000000 0 0 1
26.307016 -28.004842 25.981913 46.383080 -0.816649 0.976218 0.075584 -0.002415 141899.000000 0 0 1
26.156516 -26.812042 26.775023 46.042923 -0.797773 0.950197 0.091065 -0.019345 90155.900000 0 0 1
24.931416 -26.661542 27.463553 45.679975 -0.818920 0.925774 0.107826 -0.032002 -104866.000000 0 0 1
24.785916 -25.379942 28.250473 45.349447 -0.797239 0.898287 0.109306 -0.031289 209739.000000 0 0 1
23.575716 -25.443142 29.039623 45.237900 -0.823476 0.873782 0.126615 -0.028481 947856.000000 0 0 1
23.373016 -24.239042 29.789663 44.958348 -0.803585 0.846504 0.119102 -0.031006 -338586.000000 0 0 1
23.062816 -22.908942 29.073053 43.611415 -0.782051 0.841106 0.112542 -0.025621 -824013.000000 0 0 1
23.993916 -22.418742 28.140943 43.246048 -0.751473 0.862268 0.108083 -0.026333 -4800.640000 0 0 1
23.845716 -21.031742 27.853613 42.270275 -0.722777 0.851386 0.110175 -0.017258 41426.700000 0 0 1
24.572616 -20.021342 28.812873 42.835140 -0.683690 0.833018 0.104285 -0.019789 -78622.100000 0 0 1
23.927716 -19.785042 30.068003 43.221156 -0.690910 0.801433 0.122811 -0.015697 278501.000000 0 0 1
24.642416 -18.861142 30.904873 43.796147 -0.653280 0.787452 0.098195 -0.017180 -295464.000000 0 0 1
24.009616 -18.628942 32.267288 44.324677 -0.659869 0.755432 0.111675 -0.018222 -188713.000000 0 0 1
24.172816 -19.727742 33.146301 45.521271 -0.684489 0.755178 0.100011 -0.014456 181755.000000 0 0 1
23.609816 -19.372042 -33.405370 45.261663 -0.687121 2.400972 0.106784 -0.016737 -129595.000000 0 0 1
23.669116 -20.609242 -32.482850 45.167504 -0.716402 2.373395 0.094940 -0.012553 583060.000000 0 0 1
24.951416 -21.012542 -31.983770 45.684369 -0.699912 2.346338 0.077489 -0.006981 329459.000000 0 0 1
24.786716 -22.000342 -30.984790 45.370183 -0.725914 2.322566 0.084803 -0.011022 -547394.000000 0 0 1
25.948416 -22.262842 -30.060410 45.525626 -0.709100 2.292010 0.075093 -0.008203 93784.600000 0 0 1
27.035416 -23.002642 -30.660530 46.905259 -0.704978 2.283219 0.061228 -0.006630 75277.500000 0 0 1
27.926716 -23.426942 -29.676880 47.004683 -0.697998 2.254102 0.066080 -0.013040 163120.000000 0 0 1
29.061216 -24.358742 -30.246860 48.505413 -0.697596 2.244106 0.048528 -0.011146 1247710.000000 0 0 1
30.164616 -23.760342 -30.992080 49.345384 -0.667189 2.249860 0.047770 -0.014135 952723.000000 0 0 1
29.861616 -23.477242 -32.357280 49.898803 -0.666270 2.276353 0.047820 -0.013835 -230635.000000 0 0 1
30.274416 -24.656942 -33.245490 51.281260 -0.683489 2.276142 0.042458 -0.021424 -219466.000000 0 0 1
29.364416 -25.724142 -33.150310 51.214680 -0.719414 2.274809 0.060054 -0.028418 -195010.000000 0 0 1
29.779116 -26.939242 -33.741940 52.450329 -0.735370 2.269613 0.066101 -0.039912 -141417.000000 0 0 1
29.428916 -27.147542 32.577231 51.617111 -0.745096 0.887784 0.058918 -0.042702 -352861.000000 0 0 1
30.015616 -26.234342 31.644823 50.897669 -0.718276 0.899841 0.035101 -0.042252 -109284.000000 0 0 1
29.602816 -26.232342 30.308483 49.830379 -0.725107 0.916964 0.042144 -0.041792 -664390.000000 0 0 1
30.634816 -25.588842 29.331793 49.534179 -0.695890 0.937069 0.040316 -0.032966 -47708.900000 0 0 1
30.846816 -24.176442 29.368123 48.974617 -0.664759 0.927720 0.037956 -0.029550 297084.000000 0 0 1
31.305116 -23.672642 30.635303 49.788815 -0.647451 0.908024 0.042663 -0.021080 -1151750.000000 0 0 1
31.627216 -22.156342 30.640393 49.295213 -0.611093 0.900052 0.036644 -0.009084 1179740.000000 0 0 1
32.923716 -21.702742 30.203633 49.671315 -0.582803 0.917169 0.037456 -0.013122 1208920.000000 0 0 1
34.070416 -22.213042 30.864553 51.057155 -0.577762 0.921646 0.032376 -0.009895 -131347.000000 0 0 1
35.431316 -21.715842 30.320693 51.442204 -0.549851 0.940465 0.029363 -0.009900 113824.000000 0 0 1
35.697416 -22.122542 28.999093 51.035868 -0.554796 0.966467 0.039308 -0.018640 168917.000000 0 0 1
36.977416 -21.645942 28.614373 51.523378 -0.529602 0.981992 0.041796 -0.020402 215141.000000 0 0 1
37.326816 -22.077442 27.181883 51.181632 -0.534119 1.010914 0.065278 -0.020722 -211113.000000 0 0 1
-37.419509 -23.438542 27.013673 51.762181 0.559585 1.021742 0.060515 -0.018308 271654.000000 0 0 1
-36.903309 -23.632742 25.671613 50.787719 0.569594 1.040871 0.066814 -0.019328 179848.000000 0 0 1
-36.659209 -25.155142 25.458763 51.233069 0.601397 1.050750 0.059774 -0.025364 -403994.000000 0 0 1
37.155116 -25.865942 25.294713 51.859157 -0.608145 1.061277 0.066535 -0.032111 -399100.000000 0 0 1
37.173316 -27.245942 25.193413 52.525278 -0.632495 1.070548 0.063333 -0.026910 -517411.000000 0 0 1
-37.049809 -28.065342 26.185283 53.348109 0.648286 1.057745 0.070264 -0.032597 -719096.000000 0 0 1
-36.736409 -29.399042 25.740703 53.632557 0.674905 1.070204 0.064707 -0.029579 732638.000000 0 0 1
-35.670409 -30.068442 26.442543 53.625529 0.700388 1.055151 0.075110 -0.039405 1966200.000000 0 0 1
-34.205009 -29.478342 26.238833 52.224818 0.711313 1.044400 0.087003 -0.036924 631934.000000 0 0 1
-33.668609 -29.636942 24.945403 51.324426 0.721798 1.063251 0.082914 -0.033458 -197564.000000 0 0 1
-32.600009 -28.749742 24.739263 50.013392 0.722721 1.053361 0.069003 -0.029158 -25739.200000 0 0 1
-32.075609 -28.814142 23.260253 48.991212 0.731886 1.076078 0.060294 -0.024626 -273512.000000 0 0 1
-31.607509 -30.099842 22.919223 49.298335 0.760970 1.087265 0.072617 -0.028782 254234.000000 0 0 1
-31.115409 -30.110242 21.610873 48.392408 0.768982 1.107862 0.065381 -0.023463 -607939.000000 0 0 1
-31.188409 -31.413942 20.733373 48.881748 0.789001 1.132769 0.080787 -0.018215 343971.000000 0 0 1
-30.286409 -32.490542 20.968673 49.118094 0.820494 1.129731 0.098922 -0.032033 431538.000000 0 0 1
-28.893009 -32.244542 20.905673 48.078723 0.840163 1.120956 0.114428 -0.028932 89828.400000 0 0 1
-28.032009 -33.529542 20.881973 48.436355 0.874463 1.125061 0.104654 -0.016594 -33295.900000 0 0 1
-28.258309 33.219932 19.801673 47.897830 -0.865929 1.144595 0.095460 -0.014915 357507.000000 0 0 1
-29.337909 32.284532 19.979273 47.980989 -0.833179 1.141314 0.103401 -0.015040 518117.000000 0 0 1
-29.104409 31.166432 21.084573 47.570709 -0.819597 1.111602 0.108632 -0.017197 -350918.000000 0 0 1
-28.151509 30.196432 20.765073 46.211689 -0.820431 1.104762 0.088417 -0.016730 -251159.000000 0 0 1
-28.134709 29.241332 21.870573 46.097064 -0.804683 1.076462 0.086796 -0.020272 657367.000000 0 0 1
-27.116709 28.026632 21.764673 44.659926 -0.801898 1.061753 0.066240 -0.020179 100266.000000 0 0 1
-25.748909 28.294632 21.670873 43.968389 -0.832468 1.055407 0.069523 -0.015276 -400750.000000 0 0 1
-25.057609 27.170132 21.163473 42.590990 -0.825824 1.050773 0.053706 -0.018168 -45539.600000 0 0 1
-23.582409 27.533732 20.897373 41.844194 -0.862546 1.047880 0.043820 -0.009807 -46595.400000 0 0 1
-22.852309 27.658632 22.101373 42.139039 -0.880267 1.018684 0.057219 -0.019218 -815823.000000 0 0 1
-21.518409 27.978232 21.961573 41.570832 -0.915175 1.014208 0.068703 -0.033962 -796531.000000 0 0 1
-20.968809 28.386832 23.390073 42.339092 -0.934579 0.985500 0.063324 -0.028263 -388695.000000 0 0 1
-20.682709 27.234632 24.092833 41.832574 -0.921289 0.957049 0.067734 -0.039433 215028.000000 0 0 1
-20.269309 27.417732 25.443293 42.543367 -0.934193 0.929724 0.069813 -0.039281 -57405.600000 0 0 1
-18.784909 27.710432 25.776563 42.251297 -0.975057 0.914638 0.073358 -0.033497 -391955.000000 0 0 1
-18.467009 29.046132 25.425273 42.791970 -1.004481 0.934576 0.043496 -0.023208 -651911.000000 0 0 1
-17.196309 29.486532 25.768453 42.768935 -1.042827 0.924162 0.042197 -0.011468 -1115510.000000 0 0 1
-16.975309 29.798532 27.288553 43.826690 -1.052977 0.898676 0.031449 -0.005704 -564900.000000 0 0 1
-16.799009 28.670832 28.095763 43.515460 -1.040789 0.868922 0.050775 -0.010216 254238.000000 0 0 1
-17.112109 28.995132 29.442433 44.725818 -1.037635 0.852255 0.047179 -0.005221 -129671.000000 0 0 1
-17.147609 27.824032 30.401513 44.637084 -1.018487 0.821557 0.049666 0.002213 -78618.000000 0 0 1
-15.880109 27.254132 30.661583 43.989752 -1.043218 0.799568 0.056312 0.005853 180642.000000 0 0 1
-15.929409 26.121232 31.579183 43.969417 -1.023183 0.769573 0.069357 -0.002844 -178637.000000 0 0 1
-16.437509 26.309232 33.048640 45.327475 -1.012355 0.753778 0.053569 -0.001094 193431.000000 0 0 1
-17.836409 26.393532 33.180878 45.997029 -0.976506 0.765018 0.046186 -0.004505 -229928.000000 0 0 1
-18.308909 27.044832 -33.458170 46.755622 -0.975685 2.368274 0.066256 -0.007405 775505.000000 0 0 1
-19.612809 26.433832 -32.820740 46.482370 -0.932462 2.354758 0.048114 -0.008423 591328.000000 0 0 1
-20.733109 26.556032 -33.662790 47.626338 -0.907916 2.355775 0.049074 -0.002737 -960364.000000 0 0 1
-21.850909 25.975932 -33.096990 47.409092 -0.871434 2.343557 0.073018 -0.006610 -735990.000000 0 0 1
-22.960609 25.836532 33.639276 48.231907 -0.844266 0.798965 0.066927 -0.017445 -365678.000000 0 0 1
-22.683609 24.972032 32.658352 46.954408 -0.833381 0.801635 0.076884 -0.013424 -102299.000000 0 0 1
-22.919909 23.594832 32.907309 46.528801 -0.799907 0.785201 0.075975 -0.010595 -168726.000000 0 0 1
-23.097709 22.820032 31.591383 45.302025 -0.779351 0.799102 0.071610 -0.013616 829070.000000 0 0 1
-24.471509 22.652232 31.203153 45.668535 -0.746811 0.818588 0.088669 -0.009631 624930.000000 0 0 1
-24.599409 21.985032 29.956223 44.562853 -0.729336 0.833588 0.110475 -0.018696 -452892.000000 0 0 1
-26.065009 21.686232 29.708113 45.080476 -0.693954 0.851306 0.108921 -0.019380 -461263.000000 0 0 1
-26.610509 20.531832 30.300533 45.252598 -0.657163 0.837144 0.112059 -0.018723 583064.000000 0 0 1
-27.757209 19.990832 29.620653 45.249078 -0.624157 0.857125 0.095738 -0.015394 397641.000000 0 0 1
-28.227409 18.731232 30.323163 45.465810 -0.585865 0.840696 0.112002 -0.012773 -199988.000000 0 0 1
-29.205909 19.011932 31.322753 46.856734 -0.577051 0.838634 0.089497 -0.004608 161710.000000 0 0 1
-29.299709 18.038232 32.311342 47.200356 -0.551844 0.816800 0.078834 0.006163 60806.800000 0 0 1
-30.286809 16.881332 31.958214 47.155038 -0.508493 0.826130 0.058244 0.004434 750854.000000 0 0 1
-31.672409 17.255932 31.825777 48.101858 -0.498862 0.847802 0.054164 0.001820 707615.000000 0 0 1
-32.319709 16.196332 31.150393 47.720349 -0.464550 0.859562 0.061928 0.016891 -439569.000000 0 0 1
-33.838709 16.335032 31.262703 48.879935 -0.449738 0.876843 0.069326 0.010584 -434433.000000 0 0 1
-34.308109 16.359832 32.604675 50.077493 -0.444957 0.861784 0.053229 0.011780 -585641.000000 0 0 1
-35.683809 16.341632 32.747560 51.115417 -0.429451 0.875440 0.080798 -0.001230 -1052360.000000 0 0 1
-36.155009 17.147932 -33.889920 52.438181 -0.442868 2.273500 0.060735 0.011178 839879.000000 0 0 1
37.425316 17.325432 -33.899790 53.385584 0.433557 2.258803 0.069769 -0.006108 912081.000000 0 0 1
36.979416 17.717932 -32.618790 52.396448 0.446812 2.242778 0.065263 -0.011798 648517.000000 0 0 1
35.422016 17.662432 -32.495030 51.211402 0.462550 2.258193 0.088345 -0.021046 760079.000000 0 0 1
34.855816 16.339332 -32.427180 50.333127 0.438352 2.270840 0.094574 -0.015296 -59916.600000 0 0 1
33.683816 16.366332 -31.666470 49.043059 0.452289 2.272719 0.098968 -0.024066 -225313.000000 0 0 1
32.762416 15.114732 -31.793690 48.090225 0.432247 2.293115 0.106956 -0.025669 445338.000000 0 0 1
32.001416 15.050632 -33.031980 48.391361 0.439616 2.322112 0.107329 -0.032796 218775.000000 0 0 1
31.326916 13.832732 -33.224090 47.713313 0.415814 2.341064 0.112498 -0.036068 7427.600000 0 0 1
32.237916 12.619332 -33.588520 48.236080 0.373109 2.341076 0.106753 -0.026088 77651.300000 0 0 1
32.984916 12.155732 -32.494310 47.871147 0.353081 2.316906 0.100516 -0.008359 -258089.000000 0 0 1
33.968116 11.251532 -32.887920 48.600876 0.319864 2.314059 0.098819 -0.005985 -614235.000000 0 0 1
18.229316 -20.903368 9.688850 29.379118 -0.853625 1.234718 0.049805 -0.024610 43769.000000 0 0 1
18.088016 -21.922768 10.622350 30.341694 -0.880949 1.213128 0.039660 -0.020591 376499.000000 0 0 1
19.281716 -22.683368 10.821150 31.676759 -0.866280 1.222165 0.032291 -0.020444 -17151.200000 0 0 1
19.021916 -24.090968 11.489450 32.775227 -0.902437 1.212635 0.040186 -0.023039 -124958.000000 0 0 1
18.213016 -24.945768 10.705750 32.689729 -0.940150 1.237144 0.037406 -0.026442 -475242.000000 0 0 1
16.879716 -24.938468 11.117150 32.100514 -0.975774 1.217147 0.045263 -0.022851 -499314.000000 0 0 1
16.002516 -25.930718 10.294650 32.163061 -1.017879 1.244986 0.068090 -0.027536 40640.100000 0 0 1
15.617416 -25.445448 9.026750 31.190651 -1.020320 1.277190 0.065358 -0.032546 -177490.000000 0 0 1
14.736716 -26.333778 8.425450 31.330925 -1.060603 1.298527 0.080348 -0.025669 -368140.000000 0 0 1
14.496316 -25.834648 7.002250 30.440166 -1.059456 1.338684 0.081164 -0.027816 85749.000000 0 0 1
13.886116 -24.528368 7.063150 29.057755 -1.055658 1.325264 0.095139 -0.033341 132127.000000 0 0 1
13.428416 -24.071168 5.822650 28.171736 -1.061936 1.362612 0.094604 -0.021551 -39045.700000 0 0 1
13.020516 -22.601668 5.769950 26.714445 -1.048146 1.353095 0.121340 -0.024180 96916.500000 0 0 1
12.374716 -22.087868 4.574550 25.728078 -1.060118 1.392042 0.111471 -0.020972 81985.700000 0 0 1
11.513216 -21.028268 4.887950 24.467003 -1.069866 1.369666 0.112672 -0.022203 86072.000000 0 1 0
10.706016 -20.557168 3.647450 23.463159 -1.090654 1.414709 0.092269 -0.020414 -94580.300000 0 1 0
11.499416 -20.017368 2.665350 23.238668 -1.049359 1.455849 0.082130 -0.016194 -163363.000000 0 1 0
10.662816 -19.667968 1.567450 22.427249 -1.074007 1.500849 0.064197 -0.002113 380583.000000 0 1 0
11.487916 -19.290168 0.321950 22.454096 -1.033668 1.556458 0.064980 -0.002093 256682.000000 0 1 0
12.309916 -18.165368 0.682750 21.954060 -0.975223 1.539692 0.072203 -0.004901 -211953.000000 0 1 0
13.007216 -17.759868 -0.464850 22.018553 -0.938659 1.591910 0.090707 -0.013802 -234188.000000 0 1 0
14.124216 -16.757468 -0.109850 21.916165 -0.870461 1.575809 0.085471 -0.005110 82127.500000 0 1 0
15.278716 -17.301668 0.488850 23.087353 -0.847410 1.549621 0.094687 -0.013144 -537680.000000 0 1 0
16.397516 -16.487568 0.257850 23.254783 -0.788137 1.559708 0.090565 -0.020566 400471.000000 0 1 0
17.637116 -17.156968 0.966550 24.624452 -0.771599 1.531535 0.080454 -0.019091 711177.000000 0 1 0
18.179416 -18.389268 0.422250 25.861837 -0.791137 1.554468 0.070961 -0.019080 125291.000000 0 0 1
19.431116 -18.779768 0.917250 27.038663 -0.768354 1.536866 0.057983 -0.017598 94257.100000 0 0 1
19.747416 -20.208468 0.432250 28.258263 -0.796937 1.555499 0.043593 -0.015768 529109.000000 0 0 1
18.800416 -21.149068 0.971450 28.313997 -0.844121 1.536480 0.049038 -0.012676 444496.000000 0 0 1
18.917716 -22.285768 0.187350 29.233038 -0.866959 1.564387 0.061852 -0.015364 416842.000000 0 0 1
17.861016 -23.405568 0.530150 29.446860 -0.918958 1.552792 0.066133 -0.012661 394974.000000 0 0 1
18.124516 -24.042868 1.754550 30.160173 -0.924841 1.512589 0.052413 -0.005946 325801.000000 0 0 1
16.997916 -24.839368 2.096450 30.171484 -0.970676 1.501256 0.053037 -0.006906 -11676.500000 0 0 1
17.178316 -25.649848 3.431950 31.061029 -0.980680 1.460080 0.052019 -0.017138 409685.000000 0 0 1
18.169516 -26.671828 3.407750 32.451972 -0.972782 1.465593 0.053703 -0.017714 158601.000000 0 0 1
19.456616 -26.208198 3.753150 32.855984 -0.932186 1.456316 0.058866 -0.010366 361245.000000 0 0 1
20.575516 -27.335198 3.802550 34.424182 -0.925562 1.460109 0.078318 -0.017881 613603.000000 0 0 1
20.974616 -27.773908 2.539450 34.896608 -0.923981 1.497961 0.087294 -0.017669 -430803.000000 0 0 1
21.784616 -28.927918 2.505950 36.299776 -0.925336 1.501706 0.121336 -0.024298 94247.100000 0 0 1
21.163216 -30.324408 2.930050 37.094968 -0.961485 1.491726 0.117815 -0.025940 170660.000000 0 0 1
20.984316 -30.376528 4.371650 37.177766 -0.966267 1.452936 0.129601 -0.031316 228640.000000 0 0 1
20.088216 -31.451208 4.703650 37.614349 -1.002398 1.445419 0.112641 -0.040810 158967.000000 0 0 1
20.045016 -31.926018 6.199950 38.203569 -1.010144 1.407788 0.115715 -0.048896 -31554.400000 0 0 1
21.193516 -32.662488 6.582750 39.488427 -0.995220 1.403314 0.113951 -0.055900 132865.000000 0 0 1
21.003816 -33.116468 7.894050 40.002209 -1.005579 1.372152 0.099952 -0.049690 381937.000000 0 0 1
22.158316 33.628012 8.358950 41.130357 0.988173 1.366140 0.112194 -0.050711 577065.000000 0 0 1
23.314416 -33.363158 8.800150 41.642586 -0.960871 1.357865 0.109846 -0.048518 -186856.000000 0 0 1
24.360016 33.389487 8.937150 42.286415 0.940498 1.357842 0.125173 -0.053671 72533.700000 0 0 1
25.490816 -33.769438 9.874950 43.447339 -0.924199 1.341507 0.106799 -0.042028 204812.000000 0 0 1
26.110316 -32.581758 9.388650 42.795634 -0.895215 1.349614 0.100058 -0.042653 204701.000000 0 0 1
26.970616 -31.948688 10.337950 43.069781 -0.869688 1.328402 0.084544 -0.033711 71812.600000 0 0 1
27.544916 -30.627438 9.698350 42.318085 -0.838338 1.339564 0.084448 -0.043366 -231190.000000 0 0 1
26.626116 -29.621268 9.344050 40.910645 -0.838598 1.340361 0.083819 -0.047700 -64718.800000 0 0 1
27.027016 -29.012838 8.126350 40.475201 -0.820819 1.368649 0.085193 -0.046398 73046.800000 0 0 1
26.477216 -27.576258 8.049850 39.067801 -0.805728 1.363262 0.078121 -0.038555 -146307.000000 0 0 1
27.112516 -26.679638 8.942750 39.075112 -0.777351 1.339889 0.070004 -0.041736 14725.700000 0 0 1
26.470116 -25.424158 9.053750 37.802450 -0.765245 1.328944 0.057226 -0.030944 -321590.000000 0 0 1
27.169116 -24.411468 9.980550 37.864126 -0.731986 1.304056 0.065219 -0.045149 -67207.800000 0 0 1
28.461816 -24.114368 9.521550 38.499839 -0.702897 1.320889 0.087207 -0.039153 -336571.000000 0 0 1
29.243916 -23.290168 10.384350 38.800429 -0.672549 1.299859 0.055660 -0.039762 329661.000000 0 0 1
30.715016 -23.118368 9.961750 39.712814 -0.645210 1.317244 0.072157 -0.042357 95891.800000 0 0 1
30.813716 -22.453968 8.719650 39.111355 -0.629729 1.345963 0.089347 -0.034321 902802.000000 0 0 1
32.204016 -22.303468 8.319450 40.046930 -0.605721 1.361530 0.102178 -0.041561 1309400.000000 0 0 1
32.331616 -21.434568 7.077750 39.431823 -0.585432 1.390325 0.110162 -0.026618 -98187.200000 0 0 1
31.984116 -20.111068 7.294150 38.479129 -0.561315 1.380081 0.102718 -0.016302 -216476.000000 0 0 1
32.138116 -19.300468 6.124050 37.985136 -0.540822 1.408867 0.091516 -0.025299 79773.800000 0 0 1
31.774216 -17.839068 6.294750 36.979143 -0.511578 1.399739 0.097088 -0.020808 19923.100000 0 0 1
32.573816 -17.223868 7.273150 37.558139 -0.486393 1.375915 0.111591 -0.020525 54652.400000 0 0 1
32.210616 -15.875968 7.425850 36.670334 -0.457935 1.366883 0.108094 -0.019440 -48638.800000 0 0 1
32.828216 -15.216968 8.675750 37.209092 -0.434051 1.335468 0.109751 -0.039553 -819303.000000 0 0 1
34.204116 -15.111568 8.701750 38.392727 -0.416019 1.342158 0.110033 -0.032684 -1001230.000000 0 0 1
34.717016 -14.715468 9.957250 38.999526 -0.400912 1.312621 0.095565 -0.040641 946984.000000 0 0 1
36.283116 -14.731168 10.100450 40.441203 -0.385673 1.318368 0.089383 -0.045696 594143.000000 0 0 1
36.917816 -13.808968 9.268650 40.490994 -0.357934 1.339842 0.138222 -0.035972 775116.000000 0 0 1
-36.729809 -14.276668 9.141350 40.453262 0.370722 1.342854 0.138673 -0.044333 1614940.000000 0 0 1
-35.778809 -13.277168 8.375850 39.071232 0.355339 1.354746 0.155680 -0.036544 442073.000000 0 0 1
-36.196409 -13.200868 7.013650 39.161642 0.349711 1.390730 0.192145 -0.044257 1040530.000000 0 0 1
-35.141209 -12.609568 6.216450 37.849042 0.344516 1.405806 0.189669 -0.032724 1264310.000000 0 0 1
-34.056809 -13.570668 5.623050 37.089728 0.379188 1.418603 0.170518 -0.029156 647726.000000 0 0 1
-33.185309 -14.182268 6.566750 36.681380 0.403873 1.390805 0.162843 -0.023742 254676.000000 0 0 1
-32.181209 -14.952168 5.933250 35.977784 0.434949 1.405125 0.147031 -0.013857 487363.000000 0 0 1
-31.415409 -15.872268 6.954550 35.877884 0.467829 1.375722 0.115879 -0.020249 659264.000000 0 0 1
-32.350109 -16.798368 7.525650 37.220291 0.478943 1.367201 0.126709 -0.030329 645225.000000 0 0 1
-31.971209 -17.145868 8.890250 37.352048 0.492257 1.330477 0.102657 -0.021345 580478.000000 0 0 1
-33.180109 -17.918568 9.503150 38.888360 0.495164 1.323926 0.056166 -0.021284 729336.000000 0 0 1
-34.399309 -17.146768 9.655050 39.630090 0.462417 1.324690 0.077145 -0.019744 1609430.000000 0 0 1
-35.396109 -17.699768 10.538150 40.953863 0.463686 1.310551 0.089097 -0.024497 749316.000000 0 0 1
-36.078609 -19.068668 10.119050 42.043730 0.486211 1.327731 0.097485 -0.027843 -931111.000000 0 0 1
-35.447409 -20.268968 10.450150 42.149205 0.519429 1.320251 0.101948 -0.016864 -250844.000000 0 0 1
-35.153709 -20.516168 11.821750 42.384551 0.528283 1.288131 0.115691 -0.036289 98711.100000 0 0 1
-36.223409 -21.322568 12.599250 43.880842 0.532025 1.279573 0.106336 -0.057796 82524.000000 0 0 1
-36.302509 -22.688668 12.267050 44.532329 0.558591 1.291724 0.146197 -0.064696 298363.000000 0 0 1
37.386816 -23.105868 11.972850 45.552215 -0.553566 1.304834 0.137320 -0.043360 229743.000000 0 0 1
37.118816 -24.604368 12.061950 46.137534 -0.585359 1.306288 0.138083 -0.038965 -464671.000000 0 0 1
37.208316 -25.004598 13.447550 46.803048 -0.591697 1.279366 0.154707 -0.042653 142237.000000 0 0 1
36.496316 -26.180208 13.767650 46.978001 -0.622268 1.273364 0.145670 -0.045891 547564.000000 0 0 1
34.975216 -25.963198 14.048550 45.768058 -0.638575 1.258809 0.149803 -0.038928 413244.000000 0 0 1
34.163816 -25.924268 12.834950 44.765723 -0.649124 1.280001 0.120157 -0.037251 796180.000000 0 0 1
33.002016 -25.083238 12.943550 43.426229 -0.649903 1.268138 0.098335 -0.018422 79738.000000 0 0 1
33.212716 -23.523168 13.130650 42.764914 -0.616247 1.258712 0.121257 -0.025296 -483428.000000 0 0 1
33.880516 -23.253768 14.334050 43.521168 -0.601504 1.235173 0.135502 -0.036674 -278996.000000 0 0 1
34.206716 -21.892968 14.489050 43.119996 -0.569327 1.228112 0.128539 -0.049481 -20097.300000 0 0 1
35.511116 -21.741068 15.298050 44.359258 -0.549366 1.218699 0.108426 -0.039166 -10101.300000 0 0 1
35.728616 -20.507568 15.974950 44.184764 -0.521069 1.200868 0.112412 -0.020913 31937.300000 0 0 1
35.092516 -20.511268 17.254350 44.157778 -0.528938 1.169358 0.099788 -0.017408 131168.000000 0 0 1
35.200916 -19.096568 17.794150 43.822542 -0.497068 1.152669 0.080627 -0.003588 -443826.000000 0 0 1
34.594116 -18.132168 16.999050 42.596902 -0.482773 1.160296 0.076742 -0.016615 -95832.600000 0 0 1
34.624916 -16.805568 17.472750 42.268297 -0.451868 1.144636 0.056345 -0.012951 -609099.000000 0 0 1
35.950216 -16.070568 17.636150 43.147595 -0.420375 1.149723 0.044402 -0.024375 -211130.000000 0 0 1
36.747816 -16.524068 18.755750 44.443503 -0.422572 1.135131 0.044638 -0.006003 279865.000000 0 0 1
-37.205109 -15.634068 18.963950 44.590084 0.397809 1.131508 0.053239 -0.018100 -294793.000000 0 0 1
-36.788209 -15.480068 20.458750 44.850477 0.398298 1.097127 0.042689 -0.005911 348789.000000 0 0 1
-35.879609 -16.507168 20.908650 44.687857 0.431197 1.083903 0.062350 -0.008758 435955.000000 0 0 1
-35.503609 -16.280868 22.228550 44.940865 0.429957 1.053401 0.052720 -0.006425 20894.700000 0 0 1
-34.506209 -17.335368 22.759550 44.823995 0.465553 1.038221 0.066978 -0.005113 -526317.000000 0 0 1
-35.023409 -18.652768 23.018050 45.873691 0.489371 1.045152 0.066298 -0.011576 302201.000000 0 0 1
-34.108409 -19.639368 23.493350 45.836948 0.522430 1.032654 0.057101 -0.007880 -203511.000000 0 0 1
-32.974009 -20.167268 22.586450 44.767753 0.548913 1.041965 0.054602 -0.004013 -130981.000000 0 0 1
-31.842809 -19.329368 22.715250 43.629938 0.545569 1.023202 0.053897 0.005743 -622054.000000 0 0 1
-30.703309 -20.028468 22.307350 42.912126 0.578006 1.024135 0.046782 0.004389 -736167.000000 0 0 1
-29.449809 -19.169268 22.381250 41.661402 0.577017 1.003661 0.057067 0.009217 -452605.000000 0 0 1
-28.975409 -18.771968 23.668850 41.858996 0.574868 0.969827 0.052726 0.005766 561640.000000 0 0 1
-27.887309 -17.857768 23.510150 40.611932 0.569565 0.953420 0.075455 0.000822 209426.000000 0 0 1
-27.450509 -17.265368 24.883150 40.875353 0.561444 0.916304 0.071232 -0.013710 322516.000000 0 0 1
-26.318509 -16.358268 24.841650 39.716047 0.556115 0.895048 0.077102 -0.018897 1088570.000000 0 0 1
-25.794109 -15.918768 26.122750 40.014264 0.552933 0.859474 0.067177 -0.024150 543551.000000 0 0 1
-24.789009 -16.931068 26.775750 40.225574 0.599230 0.842445 0.058863 -0.010690 -330082.000000 0 0 1
-25.310109 -18.078568 27.402750 41.452949 0.620247 0.848570 0.059805 -0.010028 -822477.000000 0 0 1
-24.316309 -18.873468 27.946550 41.575237 0.660038 0.833631 0.053853 -0.005260 -810842.000000 0 0 1
-24.809509 -20.173968 28.571150 42.881363 0.682711 0.841582 0.044002 0.001385 -656414.000000 0 0 1
-25.870609 -19.901468 29.427050 43.946651 0.655720 0.837115 0.049809 -0.012590 -320424.000000 0 0 1
-26.193709 -21.103768 30.116850 45.149796 0.678195 0.840564 0.048271 -0.012420 -851438.000000 0 0 1
-27.396209 -20.945868 31.024950 46.387813 0.652750 0.838180 0.065394 -0.021837 -1155650.000000 0 0 1
-27.235409 -20.108668 32.093850 46.649129 0.635989 0.812089 0.077432 -0.032392 207192.000000 0 0 1
-28.363209 -20.076868 32.946450 47.885497 0.615974 0.812031 0.084966 -0.037854 623576.000000 0 0 1
-29.610009 -19.232268 32.503450 47.990697 0.576037 0.826728 0.072549 -0.038761 -486035.000000 0 0 1
-30.428609 -19.768268 31.578750 48.103036 0.576137 0.854652 0.078657 -0.044439 -570371.000000 0 0 1
-31.721409 -19.226668 31.743350 48.821643 0.544900 0.862962 0.083122 -0.045401 402046.000000 0 0 1
-32.812909 -19.933668 30.859650 49.258056 0.545912 0.893755 0.080012 -0.020168 121683.000000 0 0 1
-32.743409 -19.520968 29.479350 48.189533 0.537606 0.912541 0.063918 -0.027488 169883.000000 0 0 1
-33.906209 -19.974168 28.829650 48.782652 0.532367 0.938521 0.064832 -0.027258 190648.000000 0 0 1
-34.589209 -18.942168 27.879350 48.295727 0.501024 0.955423 0.059675 -0.020169 903203.000000 0 0 1
-35.773309 -19.384468 27.170650 48.925775 0.496580 0.982019 0.049369 -0.020116 846797.000000 0 0 1
-36.326709 -18.256768 26.515850 48.538950 0.465703 0.992880 0.046518 -0.014990 120908.000000 0 0 1
-37.422409 -18.733668 25.504350 49.008763 0.464128 1.023472 0.037280 -0.014398 93267.300000 0 0 1
36.373216 -19.034668 26.146950 48.672296 -0.482126 1.003678 0.039523 -0.012761 -210514.000000 0 0 1
35.406316 -19.436568 25.151750 47.581487 -0.502043 1.013841 0.073080 -0.011555 -701177.000000 0 0 1
34.205816 -19.876568 25.932850 47.303578 -0.526397 0.990560 0.072293 -0.015535 -1237810.000000 0 0 1
33.578316 -18.757968 26.542350 46.731799 -0.509447 0.966757 0.067139 -0.032930 257668.000000 0 0 1
32.476116 -19.199568 27.331950 46.587091 -0.533917 0.943837 0.056123 -0.020102 225802.000000 0 0 1
-29.847354 -5.054968 33.656586 45.267903 0.167769 0.732511 0.090338 -0.028381 549277.000000 0 0 1
-31.053864 -5.202168 32.895647 45.536015 0.165980 0.763516 0.098150 -0.025195 656165.000000 0 0 1
-31.230784 -4.153368 31.963544 44.880736 0.132214 0.778185 0.086839 -0.029496 295147.000000 0 0 1
-32.107914 -4.590568 30.720653 44.673818 0.142011 0.812527 0.093779 -0.035959 405774.000000 0 0 1
-31.528654 -5.571268 29.865543 43.784081 0.174899 0.820153 0.069296 -0.034891 733784.000000 0 0 1
-30.262924 -5.243468 29.263153 42.422525 0.171561 0.809580 0.069363 -0.035420 451585.000000 0 0 1
-30.046844 -6.193568 28.109573 41.609148 0.203283 0.829069 0.061192 -0.034020 -606795.000000 0 0 1
-30.908134 -6.167768 27.014243 41.510522 0.196964 0.862184 0.060885 -0.035839 -462321.000000 0 0 1
-30.433264 -6.922168 25.968333 40.601161 0.223649 0.876824 0.079958 -0.032357 25500.000000 0 0 1
-31.123684 -6.521468 24.606953 40.208399 0.206546 0.912228 0.085778 -0.033072 125124.000000 0 0 1
-30.617534 -5.328268 24.035833 39.287976 0.172301 0.912480 0.088344 -0.031961 424642.000000 0 0 1
-31.337044 -5.014968 22.818243 39.087497 0.158688 0.947428 0.091874 -0.023368 321273.000000 0 0 1
-30.747194 -3.768368 22.183473 38.101142 0.121952 0.949332 0.099479 -0.023450 962216.000000 0 0 1
-29.442424 -4.026568 21.609673 36.742993 0.135918 0.942051 0.117145 -0.019610 937566.000000 0 0 1
-28.971254 -2.856268 20.982373 35.885259 0.098272 0.946277 0.128364 -0.021980 -17180.800000 0 0 1
-27.562714 -2.963168 20.360673 34.395357 0.107095 0.937308 0.143006 -0.023304 91321.000000 0 0 1
-27.557254 -3.796168 19.227273 33.815694 0.136894 0.966005 0.148754 -0.020099 910394.000000 0 0 1
-26.231274 -3.596868 18.698473 32.413733 0.136272 0.955906 0.161529 -0.023010 780846.000000 0 0 1
-26.030064 -4.097868 17.243873 31.491394 0.156147 0.991334 0.144844 -0.020050 120507.000000 0 0 1
-26.845854 -3.462868 16.245873 31.569284 0.128282 1.030243 0.153204 -0.014997 312164.000000 0 0 1
-26.378454 -3.715068 14.922373 30.533617 0.139917 1.060175 0.154897 -0.015837 584353.000000 0 0 1
-27.542024 -3.990568 13.897873 31.106890 0.143889 1.107636 0.170850 -0.012513 1030220.000000 0 0 1
-28.324444 -2.853568 13.485773 31.500525 0.100407 1.128393 0.181107 -0.009620 539839.000000 0 0 1
-29.568504 -3.189068 12.893173 32.414511 0.107438 1.161723 0.187134 -0.005563 336334.000000 0 0 1
-30.124474 -1.964068 12.134773 32.536045 0.065106 1.188595 0.173886 -0.000771 -350926.000000 0 0 1
-29.329384 -1.711168 11.017973 31.377326 0.058277 1.212003 0.187566 -0.010074 4896.640000 0 0 1
-29.588364 -0.494968 10.339573 31.346819 0.016727 1.234658 0.186478 -0.012714 258182.000000 0 0 1
-30.904274 -0.428868 9.510673 32.337455 0.013876 1.272275 0.185023 -0.004321 438431.000000 0 0 1
-30.868484 -1.183668 8.341973 31.997701 0.038327 1.307044 0.185231 -0.006764 964092.000000 0 0 1
-32.174864 -1.148768 7.710673 33.105831 0.035689 1.335728 0.172311 -0.013619 995352.000000 0 0 1
-32.219104 -2.039068 6.452373 32.922053 0.063203 1.373530 0.193303 -0.024424 -306556.000000 0 0 1
-31.616704 -1.458368 5.289473 32.089271 0.046094 1.405204 0.194663 -0.040891 591324.000000 0 0 1
-32.300114 -0.336268 4.684273 32.639743 0.010410 1.426785 0.200015 -0.027967 -3213.140000 0 0 1
-31.969424 -0.211268 3.151773 32.125105 0.006608 1.472529 0.162343 -0.019359 -11910.300000 0 0 1
-32.636464 -1.103968 2.275773 32.734335 0.033813 1.501218 0.142703 -0.041172 321838.000000 0 0 1
-32.208034 -0.821768 0.934373 32.232062 0.025509 1.541803 0.160140 -0.056367 -356902.000000 0 0 1
-33.063474 -1.488068 -0.113327 33.097137 0.044976 1.574220 0.150419 -0.062780 -170313.000000 0 0 1
-34.398643 -1.052468 -0.184827 34.415236 0.030587 1.576167 0.145370 -0.051292 -262198.000000 0 0 1
-35.130546 -1.476668 -1.280527 35.184877 0.042009 1.607199 0.132440 -0.047653 -69543.500000 0 0 1
-36.644394 -1.262068 -1.026627 36.680490 0.034427 1.598788 0.128559 -0.042502 -121049.000000 0 0 1
-37.173174 -2.100468 -0.009227 37.232471 0.056445 1.571044 0.121882 -0.037393 482309.000000 0 0 1
36.438541 -1.858568 0.059473 36.485957 -0.050961 1.569166 0.123170 -0.034951 590102.000000 0 0 1
35.604091 -2.909968 0.883273 35.733729 -0.081550 1.546076 0.142588 -0.041085 -121837.000000 0 0 1
35.834221 -2.920868 2.299473 36.026524 -0.081331 1.506926 0.148069 -0.029787 325926.000000 0 0 1
35.198481 -4.040768 2.941973 35.551597 -0.114299 1.487949 0.139307 -0.023243 197623.000000 0 0 1
35.265581 -4.031668 4.505973 35.780153 -0.113829 1.444526 0.140715 -0.004639 177166.000000 0 0 1
34.397751 -3.011668 4.964073 34.884343 -0.087332 1.428011 0.171349 -0.019291 179891.000000 0 0 1
34.317351 -2.920168 6.381573 35.027595 -0.084889 1.387586 0.169867 -0.026080 104253.000000 0 0 1
33.428741 -1.759968 6.911573 34.181106 -0.052600 1.367188 0.198785 -0.026533 1044970.000000 0 0 1
31.993801 -1.884168 6.816873 32.766189 -0.058824 1.361220 0.205338 -0.032487 1079060.000000 0 0 1
31.410221 -0.947568 7.725173 32.360132 -0.030158 1.329744 0.232855 -0.032180 -1034290.000000 0 0 1
29.935141 -1.130568 7.912373 30.983810 -0.037749 1.312565 0.199383 -0.039898 -1992490.000000 0 0 1
29.143841 -0.567668 6.925173 29.960703 -0.019476 1.337545 0.207800 -0.043073 619704.000000 0 0 1
27.728441 -0.599968 7.131873 28.637214 -0.021634 1.319105 0.203103 -0.032098 1171520.000000 0 0 1
26.975041 -1.975468 6.907973 27.915504 -0.073103 1.320738 0.210575 -0.042049 -117756.000000 0 0 1
27.510241 -2.929768 7.833573 28.753465 -0.106097 1.294869 0.188696 -0.042551 434548.000000 0 0 1
27.068841 -4.240568 7.533373 28.415775 -0.155396 1.302476 0.187931 -0.055912 -233387.000000 0 0 1
27.381241 -5.255068 8.631273 29.186417 -0.189617 1.270578 0.171157 -0.032491 -339554.000000 0 0 1
26.756641 -4.977068 9.850073 28.943272 -0.183911 1.223535 0.164625 -0.031494 206781.000000 0 0 1
27.009141 -5.916768 10.889173 29.716593 -0.215659 1.195623 0.153533 -0.028178 -564024.000000 0 0 1
26.149841 -5.886268 12.128173 29.420314 -0.221407 1.145887 0.140700 -0.017051 405476.000000 0 0 1
24.811241 -6.357468 11.936173 28.257517 -0.250837 1.134697 0.168924 -0.030177 308367.000000 0 0 1
23.938441 -6.144168 12.980873 27.915996 -0.251242 1.087164 0.172583 -0.034144 -48768.400000 0 0 1
22.711441 -7.062868 12.955773 27.084049 -0.301502 1.072017 0.167185 -0.043592 29247.700000 0 0 1
23.227541 -8.345968 13.308173 28.040708 -0.344948 1.076285 0.148963 -0.031723 343878.000000 0 0 1
22.235341 -9.319368 13.148973 27.461910 -0.396883 1.071500 0.203202 -0.058177 -170746.000000 0 0 1
22.561341 -10.630568 13.927273 28.565574 -0.440331 1.061510 0.151915 -0.047900 -178404.000000 0 0 1
22.544541 -10.372068 15.295573 29.151169 -0.431197 1.018435 0.123710 -0.036138 217720.000000 0 0 1
22.973241 -11.485868 16.016473 30.269165 -0.463621 1.013216 0.117375 -0.033308 -323199.000000 0 0 1
22.841541 -11.404868 17.532573 30.970924 -0.463090 0.969032 0.125556 -0.034411 571851.000000 0 0 1
21.527741 -11.619068 18.068173 30.412255 -0.494921 0.934640 0.105937 -0.029913 577026.000000 0 0 1
21.528041 -11.978768 19.462973 31.396731 -0.507764 0.902175 0.131298 -0.024536 76315.800000 0 0 1
21.733541 -10.917968 20.558373 31.846437 -0.465530 0.869057 0.107260 -0.026911 702295.000000 0 0 1
20.602041 -10.025168 20.757773 30.916553 -0.452879 0.834683 0.111147 -0.031861 908598.000000 0 0 1
20.730841 -8.732168 20.159873 30.206605 -0.398661 0.840085 0.123720 -0.028027 -1035100.000000 0 0 1
21.701041 -7.718968 20.851373 31.069236 -0.341740 0.835070 0.115258 -0.013971 401615.000000 0 0 1
23.050641 -8.124768 20.919273 32.170792 -0.338878 0.862874 0.117586 -0.027106 167539.000000 0 0 1
23.734941 -8.017568 19.658473 31.844691 -0.325762 0.905460 0.120664 -0.029412 -319509.000000 0 0 1
25.161041 -8.656068 19.754773 33.139954 -0.331343 0.932160 0.147082 -0.022272 474630.000000 0 0 1
25.142541 -10.020068 20.084273 33.703518 -0.379239 0.932398 0.125879 -0.029196 319894.000000 0 0 1
26.442941 -10.578368 19.930673 34.761512 -0.380545 0.960202 0.119598 -0.032565 477421.000000 0 0 1
26.485741 -12.109168 20.126073 35.400356 -0.428822 0.966082 0.099568 -0.028033 154395.000000 0 0 1
25.620841 -12.763268 19.212973 34.474147 -0.462174 0.979647 0.105822 -0.032050 212362.000000 0 0 1
25.591141 -14.134168 19.383073 35.076840 -0.504613 0.985329 0.092871 -0.025439 123866.000000 0 0 1
24.533441 -14.782768 18.449473 34.070559 -0.542297 0.998567 0.086048 -0.020524 -280425.000000 0 0 1
24.802441 -14.659268 17.045473 33.475414 -0.533806 1.036549 0.099361 -0.022701 469423.000000 0 0 1
23.817541 -15.202568 16.153773 32.547468 -0.568101 1.051448 0.079638 -0.021122 156671.000000 0 0 1
23.528241 -16.700168 16.301073 33.139081 -0.617268 1.056527 0.058639 -0.018460 -1373470.000000 0 0 1
24.613041 -17.496668 16.068873 34.207365 -0.617984 1.081790 0.093287 -0.020442 -835034.000000 0 0 1
24.505741 -18.876768 16.434273 35.027832 -0.656367 1.082437 0.063515 -0.006951 -429891.000000 0 0 1
25.741941 -19.670668 16.012173 36.138240 -0.652495 1.111764 0.053053 0.000186 -300801.000000 0 0 1
25.879141 -19.853868 14.642473 35.753434 -0.654404 1.148846 0.054603 -0.016936 -307747.000000 0 0 1
26.927441 -20.747468 14.412073 36.922247 -0.656490 1.169800 0.057196 -0.024088 -349179.000000 0 0 1
27.351441 -20.838268 12.938073 36.738651 -0.651055 1.210913 0.047703 -0.037906 -149888.000000 0 0 1
26.301841 -21.199068 12.051573 35.866805 -0.678384 1.228120 0.058914 -0.030409 311589.000000 0 0 1
26.480641 -20.687568 10.692973 35.263855 -0.663193 1.262718 0.085606 -0.027583 -579498.000000 0 0 1
25.229841 -20.829068 9.820473 34.158990 -0.690141 1.279188 0.052046 -0.024947 -169159.000000 0 0 1
24.803341 -22.147268 9.407473 34.557311 -0.728887 1.295088 0.038469 -0.025296 106125.000000 0 0 1
23.443741 -22.344568 9.747273 33.821561 -0.761397 1.278453 0.015417 -0.007300 308930.000000 0 0 1
22.663541 -23.321168 8.806873 33.690859 -0.799698 1.306321 0.026506 -0.010525 11115.400000 0 0 1
23.324341 -24.585368 8.674373 34.981566 -0.811713 1.320212 0.018092 -0.010899 220931.000000 0 0 1
22.841441 -25.386238 7.558073 34.975948 -0.838116 1.352985 0.033167 -0.010337 295085.000000 0 0 1
21.389141 -25.932128 7.489273 34.439219 -0.881108 1.351581 0.032570 -0.004871 317317.000000 0 0 1
20.447641 -24.910868 7.310573 33.046964 -0.883481 1.347733 0.033522 -0.005444 -906127.000000 0 0 1
19.126041 -25.334758 7.501173 32.617832 -0.924146 1.338748 0.045576 -0.018594 -26616.900000 0 0 1
18.162341 -24.122768 7.501273 31.113464 -0.925434 1.327303 0.055918 -0.018969 -96878.600000 0 0 1
18.092041 -23.441668 6.265773 30.267039 -0.913495 1.362272 0.062479 -0.017441 -41733.100000 0 0 1
16.979941 -22.575568 6.322873 28.947424 -0.925928 1.350595 0.070006 -0.014206 -123699.000000 0 0 1
16.725241 -21.819368 5.052673 27.952603 -0.916799 1.389039 0.077008 -0.011433 -413838.000000 0 0 1
15.750741 -20.823068 5.182773 26.618548 -0.923207 1.374839 0.097247 -0.011216 -354032.000000 0 0 1
15.513041 -20.396368 3.862673 25.914986 -0.920559 1.421187 0.102397 -0.011808 51903.800000 0 0 1
14.801841 -19.013568 3.777473 24.390153 -0.909311 1.415293 0.118910 -0.010642 388030.000000 0 1 0
15.581041 -17.937468 4.303373 24.146234 -0.855585 1.391618 0.092130 -0.009180 233852.000000 0 1 0
14.928841 -16.705468 4.119673 22.779698 -0.841501 1.388947 0.070911 -0.005602 25492.100000 0 1 0
15.919441 -15.545368 4.260273 22.654734 -0.773510 1.381618 0.067223 -0.013219 -358992.000000 0 1 0
16.209841 -15.184068 5.598473 22.905409 -0.752736 1.323878 0.082928 -0.022535 522794.000000 0 1 0
17.291941 -14.264668 5.743073 23.140330 -0.689759 1.319991 0.089965 -0.028039 1062160.000000 0 1 0
18.755341 -14.817568 5.718373 24.576878 -0.668641 1.335971 0.116094 -0.035830 97136.900000 0 1 0
19.681941 -13.782368 5.580473 24.667268 -0.610897 1.342591 0.134512 -0.036337 126765.000000 0 1 0
20.948241 -14.316468 5.179473 25.896273 -0.599512 1.369430 0.139399 -0.032880 535679.000000 0 0 1
21.985941 -13.225268 4.842073 26.110055 -0.541546 1.384268 0.134605 -0.036822 -13578.600000 0 0 1
22.315241 -12.465468 5.971573 26.249144 -0.509428 1.341291 0.166142 -0.044604 377876.000000 0 0 1
23.287241 -11.444168 5.746173 26.575987 -0.456772 1.352858 0.160881 -0.043039 176353.000000 0 0 1
23.576841 -10.643468 7.098973 26.824359 -0.424049 1.302959 0.181774 -0.047027 -16245.700000 0 0 1
24.253341 -11.362868 8.108873 27.983801 -0.438138 1.276810 0.184842 -0.026815 292775.000000 0 0 1
24.444341 -10.585468 9.277873 28.207390 -0.408664 1.235640 0.207152 -0.052510 60968.800000 0 0 1
24.894241 -11.466668 10.473873 29.341263 -0.431646 1.205777 0.173228 -0.043023 1466860.000000 0 0 1
23.769141 -12.271768 10.999173 28.923177 -0.476594 1.180687 0.179123 -0.047769 1616700.000000 0 0 1
24.239041 -13.117568 12.024673 30.069826 -0.496043 1.159398 0.173370 -0.041766 199427.000000 0 0 1
23.312341 -14.336368 12.293473 30.002102 -0.551353 1.148612 0.124835 -0.042917 628472.000000 0 0 1
22.069441 -14.100268 12.937973 29.210767 -0.568536 1.111946 0.114089 -0.040116 288037.000000 0 0 1
21.246641 -15.251468 13.078573 29.241684 -0.622592 1.107099 0.084749 -0.042063 836105.000000 0 0 1
19.879741 -14.820968 13.735573 28.346625 -0.640635 1.064939 0.086763 -0.046070 -8655.600000 0 0 1
19.976641 -14.374568 15.050073 28.847861 -0.623739 1.021948 0.091640 -0.051023 242734.000000 0 0 1
19.686141 -12.969468 15.139373 28.016992 -0.582545 0.999927 0.118338 -0.055853 511490.000000 0 0 1
18.158341 -12.648068 15.277973 26.890806 -0.608402 0.966542 0.137351 -0.058978 611309.000000 0 0 1
17.382041 -12.865868 14.054773 25.791521 -0.637188 0.994481 0.157847 -0.075109 2512120.000000 0 0 1
15.929441 -12.914068 14.306773 25.004079 -0.681234 0.961638 0.210216 -0.071124 1769870.000000 0 0 1
15.255241 -11.558268 14.167273 23.812340 -0.648385 0.933587 0.169614 -0.061578 -925402.000000 0 1 0
15.586141 -10.510468 14.992973 24.045519 -0.593301 0.897553 0.145464 -0.050127 81928.100000 0 1 0
15.135841 -9.261068 14.526573 22.932125 -0.549097 0.884780 0.135172 -0.045263 -594236.000000 0 1 0
15.529841 -8.125068 15.508373 23.403041 -0.482028 0.846425 0.141254 -0.038619 114122.000000 0 1 0
16.908141 -7.856368 15.651673 24.343020 -0.434970 0.872435 0.123236 -0.042415 580025.000000 0 1 0
17.633141 -8.670868 16.579973 25.710059 -0.457015 0.869926 0.132161 -0.039280 -673141.000000 0 0 1
19.148241 -8.760668 16.494773 26.748495 -0.429088 0.906301 0.113231 -0.031109 -619919.000000 0 0 1
19.666741 -7.503968 16.882473 26.983479 -0.364506 0.894820 0.100720 -0.029969 916516.000000 0 0 1
21.036941 -7.491868 16.411073 27.712890 -0.342125 0.937032 0.093756 -0.021613 809412.000000 0 0 1
21.730341 -6.135968 16.704373 28.087255 -0.275204 0.933865 0.084179 -0.008780 -230890.000000 0 0 1
21.979641 -5.923568 18.088973 29.075836 -0.263248 0.899335 0.112076 -0.013375 651265.000000 0 0 1
22.562041 -4.556268 18.210273 29.349946 -0.199264 0.901476 0.133065 -0.012678 450554.000000 0 0 1
-5.488484 -32.929642 -6.548950 34.020193 1.405641 1.764507 0.058868 -0.025404 -54987.300000 0 0 1
-5.969984 -31.606342 -6.598250 32.835019 1.384110 1.773126 0.047018 -0.030515 68615.000000 0 0 1
-5.735984 -30.952342 -5.309350 31.923944 1.387558 1.737885 0.052013 -0.028121 -511911.000000 0 0 1
-6.503384 -29.602442 -5.283150 30.765406 1.354541 1.743375 0.047866 -0.025362 655195.000000 0 0 1
-7.881084 -29.714042 -4.960250 31.139040 1.311535 1.730771 0.033946 -0.025768 -129120.000000 0 0 1
-8.739484 -30.107342 -6.003550 31.919794 1.288283 1.760006 0.033279 -0.026846 -283620.000000 0 0 1
-10.181584 -29.913542 -5.437450 32.063227 1.242729 1.741205 0.062905 -0.017742 24646.000000 0 0 1
-11.182984 -30.287842 -6.324550 32.900037 1.217100 1.764236 0.045105 -0.022368 244931.000000 0 0 1
-12.512384 -29.906842 -5.917750 32.954494 1.174547 1.751349 0.058997 -0.014458 1312750.000000 0 0 1
-13.627384 -30.399442 -6.887350 34.018631 1.149376 1.774664 0.068117 -0.019914 237575.000000 0 0 1
-13.647084 -29.788142 -8.151250 33.764170 1.141195 1.814622 0.084054 -0.031312 14916.700000 0 0 1
-14.671484 -30.403142 -8.911050 34.914328 1.121194 1.828878 0.094871 -0.028991 166156.000000 0 0 1
-14.853484 -29.680642 -10.279450 34.745267 1.106794 1.871143 0.138405 -0.029129 52295.800000 0 0 1
-15.536084 -28.407442 -10.240250 33.959025 1.070335 1.877111 0.149160 -0.031415 287050.000000 0 0 1
-14.798084 -27.422142 -9.584550 32.600932 1.075942 1.869201 0.118560 -0.027705 -128687.000000 0 0 1
-15.528084 -26.031642 -9.455750 31.751834 1.032948 1.873185 0.113087 -0.013752 78548.800000 0 0 1
-15.893684 -25.427642 -10.647450 31.820470 1.012157 1.911988 0.131024 -0.019945 94893.300000 0 0 1
-16.293284 -24.136642 -10.294650 30.887350 0.977017 1.910594 0.090478 -0.002162 -318864.000000 0 0 1
-16.872384 -23.267942 -11.435450 30.932895 0.943400 1.949467 0.118957 -0.002439 286808.000000 0 0 1
-18.211784 -23.673742 -11.689650 32.074336 0.915069 1.943844 0.133911 -0.014758 274613.000000 0 0 1
-18.790784 -23.080142 -12.879150 32.429292 0.887484 1.979201 0.145891 -0.020941 599990.000000 0 0 1
-20.221784 -23.680342 -13.095750 33.781323 0.864015 1.968891 0.127010 -0.010718 430905.000000 0 0 1
-20.327484 -25.018042 -13.546850 34.966071 0.888472 1.968637 0.169600 -0.023669 -32467.100000 0 0 1
-20.195784 -25.866942 -12.451850 35.100099 0.907900 1.933446 0.184946 -0.019286 -802003.000000 0 0 1
-19.997584 -27.359842 -12.829750 36.236263 0.939625 1.932703 0.190466 -0.028686 798479.000000 0 0 1
-18.905484 -27.865342 -13.613250 36.321002 0.974674 1.954981 0.187307 -0.038813 619045.000000 0 0 1
-17.586884 -27.552842 -13.202650 35.252908 1.002693 1.954667 0.181666 -0.036304 484145.000000 0 0 1
-16.495984 -28.634342 -13.551450 35.716730 1.048143 1.959960 0.167286 -0.041405 229952.000000 0 0 1
-16.253884 -28.689242 -14.945250 36.202511 1.055336 1.996348 0.188100 -0.051845 -187947.000000 0 0 1
-15.518584 -29.851242 -15.309650 36.963610 1.091384 1.997840 0.166170 -0.052776 -103825.000000 0 0 1
-16.278184 -31.192242 -15.413150 38.412243 1.089809 1.983684 0.171395 -0.057890 -348810.000000 0 0 1
-16.712884 -31.668242 -14.170250 38.509661 1.085197 1.947617 0.160047 -0.047222 -116090.000000 0 0 1
-17.025384 -33.039642 -14.150450 39.770804 1.094982 1.934566 0.137128 -0.040136 -355643.000000 0 0 1
-17.711084 -33.316342 -12.768350 39.833301 1.082187 1.897101 0.162776 -0.038198 1365470.000000 0 0 1
-19.089684 -32.892142 -12.559450 40.050578 1.044934 1.889767 0.203386 -0.045676 1406240.000000 0 0 1
-19.390184 -31.457742 -12.528250 39.019557 1.018414 1.897662 0.210516 -0.046689 -407424.000000 0 0 1
-18.693384 -30.575942 -11.482850 37.632256 1.022054 1.880875 0.194772 -0.044633 -440288.000000 0 0 1
-18.991484 -30.897342 -10.153650 37.661901 1.019664 1.843774 0.196881 -0.046619 -35340.800000 0 0 1
-18.680184 -29.775442 -9.377550 36.379454 1.010495 1.831510 0.182926 -0.038736 -53206.100000 0 0 1
-18.760484 -30.067342 -7.848050 36.298660 1.012953 1.788725 0.186475 -0.038757 719947.000000 0 0 1
-17.760984 -30.956042 -7.300050 36.428283 1.049903 1.772558 0.160667 -0.032640 527373.000000 0 0 1
-18.148484 -31.251942 -5.992550 36.632799 1.044677 1.735119 0.183727 -0.034098 392216.000000 0 0 1
-17.259584 -32.327942 -5.228850 37.017968 1.080405 1.712522 0.166490 -0.020513 1220790.000000 0 0 1
-15.952884 -31.875442 -4.843950 35.972241 1.106768 1.705865 0.157111 -0.020533 756687.000000 0 0 1
-15.942884 -31.646642 -3.451150 35.603313 1.104131 1.667882 0.135571 -0.021841 -47617.500000 0 0 1
-14.644884 -31.036542 -2.890750 34.439744 1.129914 1.654832 0.130398 -0.025233 470899.000000 0 0 1
-13.482584 -31.870242 -2.967650 34.731820 1.170582 1.656345 0.068252 -0.014664 63143.900000 0 0 1
-12.344584 -31.130142 -2.601950 33.589353 1.193270 1.648338 0.067278 -0.018418 16340.300000 0 0 1
-11.175084 -32.064642 -2.192550 34.026916 1.235443 1.635277 0.067227 -0.023915 -80100.500000 0 0 1
-11.384984 -32.824342 -0.973450 34.756336 1.236934 1.598808 0.079843 -0.018357 574643.000000 0 0 1
-10.244484 -33.620542 -0.606350 35.151927 1.275025 1.588047 0.093552 -0.027903 1006350.000000 0 0 1
-8.990484 -33.011042 0.119550 34.213623 1.304898 1.567302 0.089978 -0.038847 195120.000000 0 0 1
-9.346184 -32.629542 1.432650 33.971910 1.291832 1.528612 0.110363 -0.034291 450569.000000 0 0 1
-8.238284 -32.137242 2.227250 33.251049 1.319853 1.503763 0.100230 -0.037903 1051410.000000 0 0 1
-7.200584 -33.214542 2.615950 34.086616 1.357310 1.493977 0.120424 -0.048686 -151513.000000 0 0 1
-7.871284 33.366332 3.313850 34.441992 -1.339127 1.474432 0.147034 -0.057083 240517.000000 0 0 1
-7.009984 32.436332 3.925450 33.416533 -1.357954 1.453054 0.149009 -0.052279 -267472.000000 0 0 1
-6.102184 32.893932 5.062450 33.836014 -1.387371 1.420615 0.144550 -0.046864 57770.400000 0 0 1
-4.963084 33.612632 4.571250 34.283197 -1.424200 1.437060 0.143518 -0.050331 -186541.000000 0 0 1
-4.261884 -33.768642 5.763450 34.521040 1.445252 1.403056 0.124327 -0.050604 135643.000000 0 0 1
-2.972284 -32.907842 5.583450 33.510229 1.480719 1.403396 0.143053 -0.045359 222623.000000 0 0 1
-3.114484 -31.541742 5.032850 32.092228 1.472374 1.413322 0.131175 -0.038700 68090.200000 0 0 1
-3.609684 -31.595742 3.676650 32.013099 1.457044 1.455694 0.125191 -0.046606 -146285.000000 0 0 1
-3.884984 -30.246942 3.005350 30.643151 1.443054 1.472563 0.114776 -0.044525 408662.000000 0 0 1
-2.685884 -29.552142 2.657450 29.792702 1.480159 1.481480 0.094343 -0.032362 -4308.740000 0 0 1
-2.885584 -28.453442 1.761550 28.653586 1.469728 1.509280 0.095608 -0.031974 4370.160000 0 0 1
-3.262484 -27.119442 2.517250 27.430721 1.451071 1.478899 0.118787 -0.027263 46612.400000 0 0 1
-3.147084 -25.935542 1.741150 26.183737 1.450044 1.504250 0.101648 -0.028365 -354087.000000 0 0 1
-3.154784 -24.731442 2.510850 25.057958 1.443920 1.470426 0.085123 -0.024627 346266.000000 0 0 1
-4.428684 -24.387942 3.343950 25.011337 1.391161 1.436697 0.081196 -0.019912 147186.000000 0 0 1
-4.641984 -25.257742 4.475250 26.067785 1.389040 1.398264 0.111068 -0.025598 -32110.500000 0 0 1
-5.629284 -24.656342 5.302350 25.840645 1.346334 1.364134 0.075688 -0.018341 86822.000000 0 0 1
-6.188784 -25.644642 6.379550 27.141248 1.333996 1.333526 0.086123 -0.024433 -130032.000000 0 0 1
-5.252784 -25.897342 7.393850 27.439626 1.370680 1.297965 0.087867 -0.029727 19941.100000 0 0 1
-5.809484 -26.867542 8.229150 28.693794 1.357848 1.279920 0.089800 -0.026011 219728.000000 0 0 1
-4.868284 -27.258042 9.385150 29.236657 1.394060 1.244005 0.081447 -0.029111 -237202.000000 0 0 1
-4.779984 -26.271642 10.380150 28.649519 1.390820 1.200046 0.073168 -0.034797 -618242.000000 0 0 1
-5.896484 -25.669542 10.977150 28.534045 1.345006 1.175910 0.061705 -0.035023 -457564.000000 0 0 1
-5.507684 -24.491842 11.903950 27.782889 1.349598 1.128005 0.059123 -0.034818 91738.600000 0 0 1
-4.910584 -25.008942 13.080650 28.647241 1.376910 1.096614 0.091252 -0.037893 -469366.000000 0 0 1
-4.318184 -23.932942 13.746350 27.935543 1.392288 1.056326 0.077464 -0.040640 -248.488000 0 0 1
-3.209084 -24.427942 14.705350 28.692680 1.440175 1.032688 0.080495 -0.040338 -140896.000000 0 0 1
-3.694584 -24.929742 15.928150 29.813553 1.423667 1.007166 0.085746 -0.041317 -429767.000000 0 0 1
-2.733284 -25.674542 16.586550 30.688216 1.464737 0.999782 0.105879 -0.041017 -193764.000000 0 0 1
-3.294884 -26.085542 17.975550 31.850152 1.445151 0.971116 0.127125 -0.033749 -5381.680000 0 0 1
-3.416484 -24.965642 18.782050 31.428030 1.434794 0.930266 0.133961 -0.034666 -35964.900000 0 0 1
-3.984184 -25.189142 20.081650 32.459810 1.413925 0.903758 0.178312 -0.039044 10980.500000 0 0 1
-3.271584 -24.383942 21.207450 32.481315 1.437423 0.859373 0.142604 -0.037985 -597979.000000 0 0 1
-2.071184 -24.985742 21.626750 33.110322 1.488091 0.859030 0.096756 -0.042398 445390.000000 0 0 1
-1.218684 -24.237942 22.542950 33.123219 1.520559 0.822244 0.073812 -0.031577 853657.000000 0 0 1
-0.574384 -22.943742 21.963750 31.767146 1.545767 0.807374 0.076123 -0.029163 -698474.000000 0 0 1
-1.504984 -21.896342 21.801250 30.935567 1.502172 0.788753 0.120713 -0.025694 -418831.000000 0 0 1
-0.882684 -20.701342 21.447750 29.821648 1.528183 0.768145 0.130345 -0.028520 355607.000000 0 0 1
-1.910284 -19.536742 21.129550 28.840794 1.473327 0.748622 0.100998 -0.012607 304219.000000 0 0 1
-2.591184 -18.990842 22.265650 29.378998 1.435190 0.710744 0.098894 -0.035041 -502275.000000 0 0 1
-3.825484 -19.556142 22.545250 30.089289 1.377620 0.723825 0.130203 -0.042851 -529776.000000 0 0 1
-5.051384 -19.044742 21.725850 29.329699 1.311528 0.736617 0.123584 -0.039272 -306535.000000 0 0 1
-5.129984 -19.591942 20.431950 28.768481 1.314704 0.780986 0.120733 -0.038041 -627677.000000 0 0 1
-5.807084 -20.815642 20.399650 29.717990 1.298737 0.814213 0.122410 -0.036165 -282408.000000 0 0 1
-5.749084 -21.588542 19.050350 29.360398 1.310534 0.864731 0.096338 -0.034395 -79043.900000 0 0 1
-6.354384 -22.861542 18.981250 30.386118 1.299689 0.896089 0.080670 -0.039635 -347918.000000 0 0 1
-6.212784 -23.456442 17.695350 30.032129 1.311877 0.940711 0.076382 -0.048443 -258519.000000 0 0 1
-6.806684 -24.837742 17.541450 31.160020 1.303317 0.972849 0.073404 -0.054269 205512.000000 0 0 1
-8.215484 -24.869142 17.731350 31.628613 1.251735 0.975673 0.081535 -0.049787 -184913.000000 0 0 1
-8.749484 -26.152842 17.538750 32.682295 1.247949 1.004342 0.088467 -0.046004 430514.000000 0 0 1
-10.291284 -26.213142 17.681350 33.251609 1.196685 1.010138 0.065766 -0.047058 -357318.000000 0 0 1
-11.009284 -25.592742 16.606350 32.433989 1.164553 1.033280 0.083559 -0.050704 520433.000000 0 0 1
-12.394784 -25.957942 16.653250 33.238173 1.125314 1.046010 0.093864 -0.052351 705950.000000 0 0 1
-13.249984 -25.223642 17.706450 33.545679 1.087114 1.014751 0.093433 -0.043930 -956139.000000 0 0 1
-13.444084 -23.840442 17.378850 32.421205 1.057329 1.005065 0.090541 -0.053467 -17184.300000 0 0 1
-13.813984 -23.129742 18.536550 32.701908 1.032409 0.968139 0.090456 -0.039690 544128.000000 0 0 1
-12.544984 -22.387642 19.082650 31.980161 1.060039 0.931410 0.083087 -0.043189 743512.000000 0 0 1
-11.688784 -23.189742 19.875950 32.702373 1.103914 0.917530 0.088935 -0.044157 129310.000000 0 0 1
-10.355784 -22.723142 19.677350 31.792791 1.143181 0.903423 0.111826 -0.052369 936396.000000 0 0 1
-9.259584 -23.581242 20.422950 32.540925 1.196627 0.892319 0.116969 -0.051249 509348.000000 0 0 1
-9.167984 -23.464442 21.841950 33.342207 1.198317 0.856502 0.124077 -0.047301 755120.000000 0 0 1
-7.973584 -24.094242 22.355950 33.821577 1.251207 0.848650 0.133268 -0.045006 805690.000000 0 0 1
-7.957484 -24.032842 23.926350 34.833451 1.251049 0.813611 0.135735 -0.043587 72294.800000 0 0 1
-6.761084 -24.497642 24.502350 35.301726 1.301511 0.803650 0.133171 -0.034821 -124946.000000 0 0 1
-6.740384 -24.055242 25.875350 35.966946 1.297598 0.767829 0.123074 -0.026683 56910.300000 0 0 1
-5.481184 -24.640842 26.540850 36.628284 1.351917 0.760343 0.135711 -0.016333 820021.000000 0 0 1
-4.250484 -24.064542 26.071850 35.733880 1.395971 0.753043 0.127889 -0.019085 85169.200000 0 0 1
-3.153984 -24.376242 26.866250 36.413517 1.442124 0.740976 0.119547 -0.012872 -581748.000000 0 0 1
-1.848184 -23.725542 26.446850 35.577423 1.493055 0.732716 0.108070 -0.013516 -769665.000000 0 0 1
-1.940184 -22.266142 26.588350 34.734504 1.483880 0.699019 0.114876 -0.017718 -348644.000000 0 0 1
-0.695184 -21.726442 26.220650 34.059420 1.538810 0.692190 0.114499 -0.024575 -23409.900000 0 0 1
0.214416 -21.467242 27.433450 34.835078 -1.560809 0.664016 0.105081 -0.012923 -440305.000000 0 0 1
0.726816 -22.676642 27.884250 35.948432 -1.538756 0.683015 0.104994 -0.014898 -91786.200000 0 0 1
1.509016 -22.421442 29.058550 36.734147 -1.503595 0.658273 0.078616 -0.022711 164941.000000 0 0 1
1.952716 -23.746342 29.724450 38.095207 -1.488749 0.675703 0.125079 -0.037455 -568655.000000 0 0 1
2.838916 -24.603042 29.002250 38.137903 -1.455916 0.706779 0.096216 -0.031581 412464.000000 0 0 1
3.487116 -25.530342 29.857250 39.438734 -1.435049 0.712004 0.107876 -0.023311 -407630.000000 0 0 1
4.668816 -24.927142 30.693250 39.815021 -1.385643 0.690549 0.073820 -0.029107 610011.000000 0 0 1
5.844816 -24.458742 29.975350 39.126891 -1.336229 0.698036 0.085874 -0.030228 1095180.000000 0 0 1
6.578116 -25.500442 29.370650 39.448438 -1.318339 0.730962 0.075149 -0.031778 -623542.000000 0 0 1
7.958816 -25.011142 28.839650 38.995197 -1.262717 0.738366 0.074085 -0.025818 199455.000000 0 0 1
7.910816 -24.264542 27.660650 37.635895 -1.255639 0.745198 0.069022 -0.033432 509313.000000 0 0 1
9.168416 -24.177542 26.976150 37.367447 -1.208338 0.764229 0.079336 -0.021338 431638.000000 0 0 1
9.217316 -23.010842 25.954650 35.890133 -1.189804 0.762416 0.078747 -0.019549 -379312.000000 0 0 1
8.378816 -23.157042 24.872050 35.001029 -1.223625 0.780433 0.065223 -0.018446 -324914.000000 0 0 1
8.258916 -21.950842 24.189650 33.692556 -1.210934 0.769940 0.071259 -0.018777 245326.000000 0 0 1
7.587716 -22.089242 22.766850 32.616522 -1.239921 0.798173 0.051918 -0.009779 627956.000000 0 0 1
8.364516 -22.826242 21.784550 32.643056 -1.219549 0.840143 0.045631 -0.005585 781453.000000 0 0 1
7.750916 -22.657642 20.457150 31.495086 -1.241187 0.863824 0.053473 -0.003529 97554.600000 0 0 1
8.264316 -23.528142 19.334250 31.554487 -1.233006 0.911291 0.090063 -0.019541 -401408.000000 0 0 1
9.588316 -23.263742 18.972950 31.513653 -1.179854 0.924724 0.102587 -0.016379 -633346.000000 0 0 1
10.042816 -24.230442 18.086950 31.860795 -1.177878 0.967103 0.105928 -0.024627 283999.000000 0 0 1
11.395516 -23.772742 17.474150 31.628262 -1.123803 0.985453 0.120101 -0.023668 378912.000000 0 0 1
11.192916 -22.679542 16.612350 30.259101 -1.112342 0.989625 0.148075 -0.018411 611384.000000 0 0 1
12.428816 -22.316242 15.958050 30.118923 -1.062640 1.012391 0.131166 -0.027376 973895.000000 0 0 1
-12.741484 22.123732 11.658150 28.066304 -1.048271 1.142437 0.027094 -0.015886 -951739.000000 0 0 1
-13.771284 21.526232 10.971050 27.809906 -1.001665 1.165271 0.003699 -0.015671 -302286.000000 0 0 1
-13.222484 20.415832 10.249550 26.394954 -0.996069 1.171994 0.042858 -0.022576 336483.000000 0 0 1
-14.256884 19.808532 9.279750 26.110352 -0.946948 1.207449 0.046135 -0.020098 -245681.000000 0 0 1
-14.539884 20.534932 8.075850 26.425575 -0.954684 1.260220 0.051554 -0.015192 -187701.000000 0 0 1
-15.394084 20.025432 7.085650 26.233608 -0.915417 1.297301 0.069920 -0.017637 728354.000000 0 0 1
-16.923784 19.758132 7.305350 27.021591 -0.862513 1.297037 0.051816 -0.022481 550549.000000 0 0 1
-17.211784 18.843432 8.344950 26.850673 -0.830621 1.254771 0.036175 -0.022927 735226.000000 0 0 1
-18.633684 18.712232 8.513150 27.745910 -0.787501 1.258941 0.046953 -0.018306 812364.000000 0 0 1
-18.968284 17.549132 9.469350 27.521563 -0.746555 1.219548 0.056350 -0.019653 -153832.000000 0 0 1
-18.810184 16.301332 8.826550 26.409552 -0.714066 1.230021 0.058851 -0.015567 126964.000000 0 0 1
-19.089784 15.204632 9.761150 26.284611 -0.672591 1.190319 0.072872 -0.028769 -275437.000000 0 0 1
-17.936184 14.814632 10.691950 25.602692 -0.690373 1.139983 0.053585 -0.025505 -399923.000000 0 0 1
-17.009784 13.917432 10.123850 24.197521 -0.685741 1.139131 0.031951 -0.011548 -810217.000000 0 1 0
-16.180784 13.368132 11.058850 23.723889 -0.690498 1.085864 0.018187 -0.011485 -433830.000000 0 1 0
-16.769684 12.294532 12.104450 24.060248 -0.632623 1.043627 0.026778 -0.012537 -147758.000000 0 1 0
-17.319384 11.201532 11.365750 23.550280 -0.574096 1.067157 -0.004636 -0.015486 86769.500000 0 1 0
-18.257384 10.461632 12.115950 24.281146 -0.520336 1.048368 0.035063 -0.014340 -5863.890000 0 1 0
-19.393384 9.866632 11.245950 24.493370 -0.470633 1.093766 0.053351 -0.019727 -91288.200000 0 1 0
-18.917284 8.914132 10.314150 23.317527 -0.440357 1.112596 0.036950 -0.017246 157573.000000 0 1 0
-18.714484 9.432732 8.997450 22.807070 -0.466869 1.165270 0.064077 -0.018678 471625.000000 0 1 0
-20.055184 9.684132 8.182950 23.726641 -0.449853 1.218681 0.080120 -0.023716 786919.000000 0 1 0
-20.574684 8.552332 7.595350 23.540377 -0.393944 1.242266 0.071243 -0.025530 780621.000000 0 1 0
-21.804584 8.840132 6.899350 24.519153 -0.385175 1.285558 0.116845 -0.015032 706792.000000 0 1 0
-22.042884 7.670032 5.911450 24.076199 -0.334856 1.322729 0.124665 -0.022116 -504411.000000 0 1 0
-22.636584 6.504232 6.382550 24.401986 -0.279795 1.306160 0.134756 -0.029866 -166814.000000 0 1 0
-22.276284 5.359832 5.650950 23.598599 -0.236119 1.328985 0.129901 -0.031153 -290765.000000 0 1 0
-23.197484 4.106132 5.714550 24.241280 -0.175193 1.332820 0.139206 -0.033116 247091.000000 0 1 0
-24.432684 4.305432 5.053050 25.318493 -0.174425 1.369868 0.186333 -0.036474 134487.000000 0 0 1
-25.220874 3.164432 4.946450 25.895434 -0.124817 1.378599 0.199658 -0.037672 219807.000000 0 0 1
-26.366754 3.184132 3.887150 26.841281 -0.120181 1.425465 0.212044 -0.043473 303193.000000 0 0 1
-25.961714 2.934932 2.574450 26.253613 -0.112571 1.472578 0.213757 -0.037873 292875.000000 0 0 1
-27.114434 2.854432 1.760650 27.321058 -0.104887 1.506309 0.215159 -0.039908 82045.500000 0 0 1
-26.855104 2.847632 0.232750 27.006662 -0.105642 1.562178 0.242921 -0.045104 -557623.000000 0 0 1
-26.363724 4.077332 -0.207950 26.677965 -0.153441 1.578591 0.233748 -0.044726 154819.000000 0 0 1
-26.393674 4.231432 -1.633050 26.780551 -0.158967 1.631813 0.250517 -0.042535 790276.000000 0 0 1
-27.803594 4.600632 -2.238850 28.270446 -0.163983 1.650073 0.261518 -0.055073 970353.000000 0 0 1
-28.827104 3.623932 -2.124750 29.131587 -0.125057 1.643797 0.249880 -0.059339 429102.000000 0 0 1
-30.062004 4.274632 -1.847350 30.420540 -0.141247 1.631561 0.210110 -0.031747 410313.000000 0 0 1
-31.299564 3.329332 -1.845050 31.530166 -0.105971 1.629347 0.208867 -0.034795 -60160.200000 0 0 1
-31.571754 2.764632 -3.084150 31.842280 -0.087344 1.667805 0.196832 -0.038650 464184.000000 0 0 1
-32.396584 1.611332 -2.937750 32.569394 -0.049697 1.661119 0.205108 -0.048143 84246.700000 0 0 1
-32.812484 0.975532 -4.307150 33.108342 -0.029722 1.701259 0.203480 -0.062406 -971315.000000 0 0 1
-31.673794 0.581332 -4.974150 32.067263 -0.018352 1.726541 0.236960 -0.065301 -542093.000000 0 0 1
-31.815504 -0.065868 -6.210450 32.416050 0.002070 1.763574 0.252693 -0.063773 -333733.000000 0 0 1
-32.365644 0.727532 -7.434050 33.216401 -0.022475 1.796515 0.241245 -0.060991 -496841.000000 0 0 1
-33.732544 1.009232 -7.436550 34.557276 -0.029910 1.787688 0.235515 -0.058631 -141037.000000 0 0 1
-34.114101 2.030532 -8.393850 35.190221 -0.059452 1.811646 0.204832 -0.046432 -255966.000000 0 0 1
-35.639743 2.158332 -8.489350 36.700391 -0.060486 1.804225 0.190887 -0.041605 -84303.400000 0 0 1
-36.237564 2.860032 -7.384650 37.092774 -0.078761 1.771221 0.166136 -0.030749 -61695.500000 0 0 1
37.386631 2.765132 -7.376750 38.207624 0.073826 1.765086 0.154821 -0.019845 -146997.000000 0 0 1
36.552311 3.568432 -6.295950 37.261832 0.097317 1.740576 0.189179 -0.026506 396291.000000 0 0 1
35.238351 3.070132 -6.145350 35.901705 0.086905 1.742815 0.172737 -0.024595 51071.200000 0 0 1
34.471691 3.845932 -5.295650 35.087499 0.111108 1.722302 0.172062 -0.032595 -22955.500000 0 0 1
33.094641 3.217732 -4.952350 33.617478 0.096924 1.718649 0.158908 -0.024392 66848.200000 0 0 1
33.218051 2.066632 -4.194050 33.545490 0.062134 1.696150 0.164902 -0.029071 -645366.000000 0 0 1
32.211831 1.174632 -4.465050 32.541027 0.036450 1.708443 0.139917 -0.032479 -719046.000000 0 0 1
32.328951 -0.301468 -3.831950 32.556655 -0.009325 1.688771 0.186881 -0.035008 -287040.000000 0 0 1
33.476961 -1.012368 -4.242950 33.759953 -0.030232 1.696810 0.130571 -0.037194 -1229.180000 0 0 1
33.523421 -2.349468 -3.786850 33.818338 -0.069970 1.683008 0.144245 -0.027204 -660266.000000 0 0 1
34.918251 -2.906268 -3.600850 35.223525 -0.083039 1.673204 0.120749 -0.028507 -600182.000000 0 0 1
34.735781 -4.243368 -3.125750 35.133331 -0.121559 1.659882 0.097386 -0.032940 -368995.000000 0 0 1
35.910751 -4.876868 -2.733250 36.343315 -0.134979 1.646074 0.130119 -0.032009 -754701.000000 0 0 1
35.700031 -6.337268 -2.182850 36.323794 -0.175684 1.630927 0.135979 -0.038218 -386500.000000 0 0 1
35.160751 -6.453668 -0.913950 35.759803 -0.181527 1.596357 0.142534 -0.043916 -58306.600000 0 0 1
35.051251 -7.832668 -0.615150 35.921014 -0.219851 1.587922 0.172556 -0.043313 -210161.000000 0 0 1
34.204821 -8.202168 0.609550 35.179779 -0.235352 1.553469 0.176855 -0.024537 925924.000000 0 0 1
32.795671 -7.925168 0.382650 33.741825 -0.237107 1.559456 0.154646 -0.025495 1827520.000000 0 0 1
31.961451 -7.850268 1.573450 32.949003 -0.240849 1.523024 0.194084 -0.042159 -462567.000000 0 0 1
31.662341 -9.207568 2.317050 33.055285 -0.283000 1.500643 0.166429 -0.034770 -475370.000000 0 0 1
30.516521 -9.859768 1.826950 32.121812 -0.312509 1.513890 0.156768 -0.038493 978401.000000 0 0 1
29.280441 -9.208968 2.175450 30.771446 -0.304714 1.500040 0.161000 -0.042634 -1011850.000000 0 0 1
27.983341 -9.933568 1.836950 29.750925 -0.341106 1.509013 0.143597 -0.042919 -1301100.000000 0 0 1
26.830641 -9.272968 2.250850 28.476965 -0.332760 1.491673 0.143035 -0.051001 229118.000000 0 0 1
26.252841 -8.252368 1.450550 27.557527 -0.304562 1.518135 0.171108 -0.054322 -233466.000000 0 0 1
25.653741 -8.659868 0.062150 27.076033 -0.325556 1.568501 0.141345 -0.043235 -111072.000000 0 0 1
26.736541 -8.928868 -0.847950 28.200821 -0.322312 1.600869 0.140693 -0.054542 860318.000000 0 0 1
26.400641 -9.331568 -2.138550 28.082831 -0.339754 1.647022 0.141140 -0.053911 -381238.000000 0 0 1
25.616441 -10.678268 -2.170650 27.837729 -0.394949 1.648851 0.127651 -0.026407 -118599.000000 0 0 1
24.258541 -10.633968 -1.825250 26.549757 -0.413132 1.639599 0.113127 -0.022263 60697.200000 0 0 1
23.586841 -11.875668 -2.013350 26.484413 -0.466433 1.646890 0.094129 -0.017145 -1103480.000000 0 0 1
22.137141 -11.992168 -1.678950 25.232597 -0.496465 1.637384 0.116135 -0.027057 -1063870.000000 0 0 1
21.273941 -11.596168 -2.737950 24.383356 -0.499064 1.683321 0.123293 -0.020841 376441.000000 0 1 0
19.922241 -11.786668 -2.384850 23.270340 -0.534245 1.673461 0.141473 -0.031669 103067.000000 0 1 0
18.865641 -11.472668 -3.476750 22.352232 -0.546372 1.726974 0.125667 -0.022130 126756.000000 0 1 0
18.787241 -12.482068 -4.448250 22.990201 -0.586425 1.765509 0.117241 -0.025188 535423.000000 0 1 0
18.292941 -11.894368 -5.680050 22.547076 -0.576527 1.825460 0.126952 -0.015027 78861.800000 0 1 0
18.501141 -12.804568 -6.934250 23.544277 -0.605402 1.869749 0.124612 -0.013290 -49361.100000 0 1 0
17.412541 -13.694068 -7.152650 23.278412 -0.666423 1.883114 0.111946 -0.026685 711141.000000 0 1 0
17.703541 -14.661168 -8.164150 24.393002 -0.691671 1.912075 0.111236 -0.024016 -397772.000000 0 1 0
16.588741 -15.694968 -8.366950 24.321270 -0.757720 1.921989 0.095749 -0.030016 -553280.000000 0 1 0
15.470541 -15.123068 -8.972350 23.421099 -0.774041 1.963934 0.113139 -0.024687 26999.600000 0 1 0
14.698841 -16.102468 -9.679950 23.854702 -0.830937 1.988637 0.102595 -0.027701 140011.000000 0 1 0
14.111841 -15.652968 -11.034050 23.788857 -0.837129 2.053113 0.106143 -0.045250 48485.900000 0 1 0
13.011141 -14.732668 -10.979250 22.514111 -0.847370 2.080205 0.078409 -0.046736 315100.000000 0 1 0
13.270341 -13.348568 -10.787750 21.694740 -0.788337 2.091225 0.080973 -0.037855 -498608.000000 0 1 0
13.541741 -12.542468 -12.087250 22.063405 -0.747107 2.150578 0.103196 -0.028968 -382041.000000 0 1 0
14.783141 -12.595168 -12.730550 23.221679 -0.705651 2.151029 0.123771 -0.030408 -294256.000000 0 1 0
14.715641 -12.087968 -14.065850 23.675244 -0.687676 2.206963 0.144593 -0.027140 -1204330.000000 0 1 0
16.022741 -11.625068 -14.615150 24.606361 -0.627659 2.206766 0.152363 -0.038493 -763587.000000 0 1 0
16.924141 -12.690368 -14.923050 25.887630 -0.643398 2.185180 0.144592 -0.034010 7002.400000 0 0 1
18.096941 -12.191568 -15.502950 26.767051 -0.592843 2.188519 0.139259 -0.031004 -169212.000000 0 0 1
19.201341 -13.240668 -15.805250 28.174682 -0.603692 2.166358 0.124559 -0.021836 -67961.600000 0 0 1
20.082941 -13.377368 -14.704850 28.257938 -0.587614 2.118092 0.108911 -0.039726 -240306.000000 0 0 1
21.029741 -14.381968 -14.993350 29.561656 -0.599830 2.102716 0.080180 -0.024367 -631339.000000 0 0 1
22.075941 -14.321668 -13.885450 29.753370 -0.575493 2.056335 0.064299 -0.023882 -447918.000000 0 0 1
22.754941 -13.057568 -13.934650 29.706260 -0.520958 2.059047 0.068886 -0.028138 -294048.000000 0 0 1
23.785141 -12.971568 -12.997450 30.048763 -0.499277 2.018110 0.067223 -0.023534 83451.300000 0 0 1
24.540441 -11.581768 -13.091950 30.129217 -0.440954 2.020309 0.079776 -0.022243 192534.000000 0 0 1
23.716141 -10.453268 -12.730550 28.875475 -0.415148 2.027373 0.068372 -0.009563 491754.000000 0 0 1
24.304541 -9.160868 -12.854850 28.980672 -0.360453 2.030370 0.079411 -0.014371 334805.000000 0 0 1
25.535941 -8.706468 -12.006850 29.530514 -0.328589 1.989516 0.090043 -0.010635 385710.000000 0 0 1
26.765941 -9.292768 -12.365350 30.913961 -0.334166 1.982305 0.085775 -0.012899 214349.000000 0 0 1
27.696541 -9.051168 -11.313650 31.257330 -0.315857 1.941157 0.098662 -0.018065 -483319.000000 0 0 1
28.954541 -9.912768 -11.380850 32.651985 -0.329849 1.926820 0.129813 -0.024140 -609716.000000 0 0 1
29.635741 -9.607968 -12.540950 33.583710 -0.313510 1.953493 0.127336 -0.030384 32630.100000 0 0 1
30.908391 -10.251768 -12.660750 34.938831 -0.320264 1.941605 0.121811 -0.035289 488158.000000 0 0 1
31.667331 -9.604168 -13.818550 35.861012 -0.294466 1.966369 0.103471 -0.032394 -145414.000000 0 0 1
31.165931 -10.110068 -15.050350 36.056091 -0.313684 2.001395 0.084115 -0.023746 472958.000000 0 0 1
32.058911 -9.676168 -16.048750 37.134409 -0.293130 2.017705 0.064679 -0.029215 83547.800000 0 0 1
31.722761 -10.326668 -17.402050 37.627184 -0.314710 2.051593 0.035172 -0.015057 350783.000000 0 0 1
30.437561 -10.048968 -17.939250 36.732050 -0.318883 2.081030 0.041545 -0.012587 498285.000000 0 0 1
30.406481 -8.786268 -18.638150 36.730548 -0.281298 2.102995 0.031116 -0.011641 -573124.000000 0 0 1
28.957741 -8.528668 -19.058750 35.700488 -0.286423 2.133945 0.011446 -0.015761 -359219.000000 0 0 1
28.528241 -9.130568 -20.238750 36.150170 -0.309752 2.165004 0.018168 -0.008891 -636359.000000 0 0 1
27.286741 -8.635768 -20.598150 35.262253 -0.306509 2.194618 0.065569 -0.010307 -600566.000000 0 0 1
26.793141 -9.286068 -21.942150 35.854726 -0.333628 2.229350 0.085947 -0.011854 2873.420000 0 0 1
26.539241 -10.689768 -22.008250 36.096613 -0.382910 2.226483 0.084042 -0.012465 438610.000000 0 0 1
26.166841 -11.156268 -23.330250 36.789488 -0.403015 2.257712 0.099617 -0.020375 -649412.000000 0 0 1
26.388741 -12.658668 -23.468950 37.515318 -0.447276 2.246675 0.098244 -0.009155 721048.000000 0 0 1
27.600841 -13.130568 -24.054550 38.895238 -0.444044 2.237558 0.093007 -0.007897 -37352.100000 0 0 1
28.787341 -13.013168 -23.345750 39.282026 -0.424553 2.207205 0.067730 0.000163 -329412.000000 0 0 1
29.975441 -13.692068 -24.106650 40.830507 -0.428475 2.202360 0.063147 0.000896 631975.000000 0 0 1
30.610081 -12.861368 -25.158550 41.657466 -0.397771 2.219230 0.068807 -0.016368 345256.000000 0 0 1
31.904211 -13.358868 -25.386540 42.904713 -0.396538 2.203957 0.036032 -0.014535 -299732.000000 0 0 1
32.515291 -12.839368 -26.686620 43.980327 -0.376078 2.222806 0.058000 -0.019370 -103028.000000 0 0 1
32.306161 -13.689668 -27.791260 44.759905 -0.400810 2.240682 0.053547 -0.027019 266205.000000 0 0 1
33.028121 -13.169368 -28.887410 45.812350 -0.379413 2.253070 0.045439 -0.027878 46407.200000 0 0 1
32.661901 -13.889668 -30.217410 46.613458 -0.402087 2.276087 0.060526 -0.035232 71178.600000 0 0 1
33.065111 -15.228968 -30.099180 47.235406 -0.431613 2.261677 0.063905 -0.036013 -54930.000000 0 0 1
33.239931 -15.895568 -31.334040 48.367180 -0.446062 2.275538 0.049401 -0.034737 101932.000000 0 0 1
32.016291 -16.536368 -32.042210 48.220302 -0.476759 2.297616 0.052585 -0.028565 478195.000000 0 0 1
31.168871 -15.603368 -32.744470 47.824302 -0.464133 2.324965 0.060952 -0.028265 185981.000000 0 0 1
30.061841 -16.301968 -33.259590 47.703970 -0.496898 2.342292 0.059384 -0.024228 193834.000000 0 0 1
29.154641 -15.434568 33.585828 47.076818 -0.486893 0.776421 0.076679 -0.022789 306727.000000 0 0 1
28.468341 -14.269168 -33.760230 46.409144 -0.464631 2.385391 0.079921 -0.022008 -65117.000000 0 0 1
29.239141 -13.146668 -33.543400 46.399589 -0.422543 2.378822 0.075607 -0.026542 -681447.000000 0 0 1
28.411041 -11.953968 -33.000030 45.156246 -0.398266 2.390285 0.086151 -0.015876 137765.000000 0 0 1
27.509141 -11.467368 33.837723 45.091516 -0.394953 0.722094 0.086490 -0.022935 -232281.000000 0 0 1
26.831741 -10.364268 -33.410930 44.086853 -0.368613 2.430798 0.052395 -0.020712 -82408.100000 0 0 1
21.135716 -29.241242 9.271950 37.252353 -0.944928 1.319256 0.048596 -0.025625 -99942.700000 0 0 1
21.610616 -29.075142 7.924850 37.083498 -0.931618 1.355432 0.056290 -0.031178 353389.000000 0 0 1
22.822416 -29.800042 7.782750 38.333750 -0.917227 1.366349 0.082888 -0.031083 248064.000000 0 0 1
23.505116 -29.622242 6.399850 38.352650 -0.900034 1.403144 0.087918 -0.031327 -152557.000000 0 0 1
24.079516 -28.399142 6.101950 37.730202 -0.867525 1.408357 0.084001 -0.029348 2104.110000 0 0 1
24.906616 -28.415942 4.948350 38.108942 -0.851117 1.440581 0.092971 -0.025913 121339.000000 0 0 1
25.171816 -26.995242 4.366850 37.167631 -0.820338 1.453034 0.086206 -0.028430 78444.900000 0 0 1
25.872116 -26.126142 5.224050 37.138018 -0.790283 1.429662 0.079478 -0.028811 56123.800000 0 0 1
25.647516 -24.843042 4.798250 36.027698 -0.769466 1.437217 0.071986 -0.018569 -144065.000000 0 0 1
26.381016 -23.817142 5.672350 35.991524 -0.734367 1.412534 0.068672 -0.011914 596379.000000 0 0 1
27.791616 -23.755642 5.404650 36.958283 -0.707261 1.424034 0.088863 -0.021146 592444.000000 0 0 1
28.545116 -23.004642 6.301250 37.198696 -0.678331 1.400581 0.078847 -0.011964 -314913.000000 0 0 1
28.207216 -21.495442 6.541150 36.062275 -0.651172 1.388402 0.066001 -0.003981 -423476.000000 0 0 1
28.414616 -20.644642 5.414450 35.537416 -0.628323 1.417841 0.085753 -0.007983 141923.000000 0 0 1
27.935716 -19.336042 5.663050 34.443532 -0.605446 1.405631 0.094124 -0.014897 127948.000000 0 0 1
27.523016 -18.528442 4.432950 33.473432 -0.592511 1.437974 0.088411 -0.018572 1410600.000000 0 0 1
28.780416 -18.118342 3.802650 34.220561 -0.561855 1.459445 0.127210 -0.018190 1714710.000000 0 0 1
28.581916 -17.045842 2.934950 33.408092 -0.537758 1.482831 0.121968 -0.008356 277940.000000 0 0 1
29.848816 -16.151442 2.841650 34.057244 -0.495991 1.487262 0.130601 -0.030114 355126.000000 0 0 1
29.842116 -15.119042 3.835450 33.672660 -0.468941 1.456645 0.130462 -0.030231 -113802.000000 0 0 1
31.070416 -14.456542 3.903950 34.490625 -0.435490 1.457364 0.148928 -0.033767 -280477.000000 0 0 1
30.934116 -13.233842 4.824150 33.990095 -0.404246 1.428387 0.149601 -0.035004 148761.000000 0 0 1
30.610516 -13.476142 6.155950 34.007438 -0.414713 1.388775 0.129921 -0.037120 152110.000000 0 0 1
30.147316 -12.315742 6.883950 33.285536 -0.387828 1.362478 0.123416 -0.030178 26567.900000 0 0 1
29.919116 -12.494542 8.433650 33.502142 -0.395595 1.316324 0.134196 -0.020449 321527.000000 0 0 1
28.758116 -13.283842 8.733750 32.859825 -0.432719 1.301775 0.114925 -0.017021 162195.000000 0 0 1
28.493116 -13.755742 10.067350 33.202856 -0.449772 1.262740 0.127999 -0.017536 -236464.000000 0 0 1
29.420516 -14.723542 10.801450 34.626880 -0.464009 1.253564 0.124778 -0.023839 -337159.000000 0 0 1
30.536216 -14.259742 11.549050 35.625571 -0.436883 1.240653 0.102015 -0.016038 168434.000000 0 0 1
31.060116 -15.444942 12.127450 36.747137 -0.461453 1.234467 0.111754 -0.023142 313987.000000 0 0 1
32.038316 -15.285842 13.340450 37.922003 -0.445170 1.211317 0.105920 -0.021127 252226.000000 0 0 1
33.329016 -14.835742 13.033150 38.739974 -0.418797 1.227677 0.070515 -0.022586 248862.000000 0 0 1
34.181216 -14.752542 14.198850 39.844703 -0.407446 1.206433 0.056690 -0.025402 742913.000000 0 0 1
35.685216 -14.549842 13.877850 40.960069 -0.387150 1.225140 0.065402 -0.023640 263421.000000 0 0 1
36.116116 -13.240942 13.413450 40.738398 -0.351405 1.235278 0.077407 -0.033137 -255914.000000 0 0 1
37.485016 -13.246942 13.151550 41.875663 -0.339694 1.251328 0.085416 -0.034315 -813379.000000 0 0 1
-36.906109 -11.820142 13.363450 40.992175 0.309953 1.238727 0.101100 -0.034219 25174.600000 0 0 1
-35.744009 -11.682742 12.546450 39.642578 0.315900 1.248770 0.122984 -0.038041 -280459.000000 0 0 1
-35.015909 -10.583142 12.946350 38.803669 0.293509 1.230637 0.128909 -0.033810 260112.000000 0 0 1
-33.601109 -10.528242 12.253850 37.283176 0.303641 1.235902 0.144775 -0.033910 814078.000000 0 0 1
-32.778309 -11.652042 12.534450 36.977020 0.341549 1.224964 0.130814 -0.035711 198185.000000 0 0 1
-32.980909 -12.659942 11.564450 37.171911 0.366513 1.254438 0.116536 -0.029300 -240702.000000 0 0 1
-32.012609 -13.880342 11.630150 36.779497 0.409124 1.249061 0.087735 -0.023346 509183.000000 0 0 1
-30.703909 -13.697142 11.121650 35.412326 0.419609 1.251328 0.102054 -0.022816 123865.000000 0 0 1
-29.943509 -14.880342 11.198450 35.262495 0.461202 1.247626 0.093481 -0.020306 202937.000000 0 0 1
-28.536509 -14.794742 10.555350 33.832412 0.478298 1.253510 0.093685 -0.012342 153154.000000 0 0 1
-28.563909 -14.749442 9.157450 33.426065 0.476655 1.293287 0.100812 -0.012551 985376.000000 0 0 1
-27.216509 -14.965342 8.706250 32.256760 0.502738 1.297502 0.087271 -0.007961 828046.000000 0 0 1
-27.211709 -14.844842 7.144050 31.810122 0.499406 1.344280 0.128240 -0.007705 81547.200000 0 0 1
-27.743809 -15.969542 6.427750 32.650592 0.522291 1.372637 0.132378 0.001807 270587.000000 0 0 1
-27.676709 -15.840342 5.004550 32.279439 0.519829 1.415130 0.146244 -0.001505 -414061.000000 0 0 1
-28.280009 -16.997042 4.147550 33.254481 0.541174 1.445749 0.126526 -0.002104 -582935.000000 0 0 1
-29.656809 -17.119242 4.268350 34.508166 0.523520 1.446788 0.084436 -0.012450 -909325.000000 0 0 1
-30.089509 -18.177642 3.429150 35.320876 0.543443 1.473558 0.097454 -0.011717 -735330.000000 0 0 1
-31.577809 -18.343542 3.718450 36.707906 0.526257 1.469324 0.123540 -0.024611 -871232.000000 0 0 1
-32.350109 -17.295342 3.219950 36.824264 0.490966 1.483244 0.147806 -0.028788 -674694.000000 0 0 1
-33.711909 -17.589942 3.293750 38.167363 0.480913 1.484391 0.151082 -0.030113 -360296.000000 0 0 1
-34.665509 -16.442842 2.878650 38.475332 0.442900 1.495908 0.146971 -0.044254 239311.000000 0 0 1
-34.933409 -16.417942 1.470350 38.627112 0.439343 1.532722 0.126954 -0.039600 -150110.000000 0 0 1
-35.984509 -15.560642 1.108650 39.220499 0.408144 1.542525 0.173771 -0.049886 -134607.000000 0 0 1
-36.675709 -15.973042 -0.182250 40.003486 0.410748 1.575352 0.154769 -0.048727 -594096.000000 0 0 1
-35.827609 -15.938742 -1.307850 39.234825 0.418582 1.604136 0.160911 -0.042436 144288.000000 0 0 1
-36.079309 -17.080042 -2.128050 39.974654 0.442144 1.624056 0.135444 -0.029421 -60280.000000 0 0 1
-34.821809 -17.473442 -2.916350 39.068973 0.465083 1.645512 0.116316 -0.033828 54021.500000 0 0 1
-35.053309 -18.645242 -3.669650 39.872871 0.488849 1.662960 0.103278 -0.032001 341143.000000 0 0 1
-33.829809 -19.041642 -4.267050 39.054421 0.512667 1.680274 0.114502 -0.024779 423280.000000 0 0 1
-34.112309 -20.221642 -5.314850 40.010149 0.535106 1.704028 0.121282 -0.025201 220083.000000 0 0 1
-34.580309 -21.478742 -4.782850 40.987922 0.555809 1.687752 0.102921 -0.028822 93186.300000 0 0 1
-34.977809 -22.387842 -5.797650 41.931793 0.569355 1.709504 0.104476 -0.026215 530537.000000 0 0 1
-35.827509 -23.639042 -5.417650 43.263906 0.583235 1.696349 0.075063 -0.023960 371113.000000 0 0 1
-34.967509 -24.599542 -4.822150 43.024612 0.613069 1.683111 0.091546 -0.024153 42392.800000 0 0 1
-35.654709 -25.794942 -4.532150 44.240001 0.626301 1.673421 0.061955 -0.011178 348083.000000 0 0 1
-34.678109 -26.890442 -4.005150 44.064819 0.659579 1.661814 0.068913 -0.016647 -310675.000000 0 0 1
-33.792809 -27.341242 -4.999750 43.754942 0.680256 1.685314 0.048114 -0.016100 755958.000000 0 0 1
-32.773009 -28.292042 -4.620350 43.541444 0.712149 1.677110 0.058235 -0.016660 555792.000000 0 0 1
-31.804909 -28.034442 -3.479150 42.539236 0.722472 1.652675 0.072000 -0.027242 -977345.000000 0 0 1
-32.288109 -28.270442 -2.194350 42.971560 0.719152 1.621884 0.066917 -0.022365 -162592.000000 0 0 1
-31.221709 -28.205942 -1.295350 42.095703 0.734695 1.601573 0.086968 -0.019598 84924.600000 0 0 1
-31.753009 -28.154742 0.199850 42.437990 0.725407 1.566087 0.076921 -0.016531 492648.000000 0 0 1
-32.380009 -29.350442 0.669850 43.707689 0.736360 1.555470 0.065935 -0.012739 239959.000000 0 0 1
-33.211309 -29.065342 1.785450 44.169819 0.718923 1.530363 0.078290 -0.013249 153345.000000 0 0 1
-33.863109 -30.326542 2.420450 45.522169 0.730358 1.517600 0.055145 -0.009917 -1082880.000000 0 0 1
-34.721309 -30.074942 3.461750 46.065769 0.713813 1.495577 0.056987 -0.011432 -225409.000000 0 0 1
-35.196709 -31.305442 4.091250 47.281892 0.726951 1.484159 0.056336 -0.001066 442014.000000 0 0 1
-36.386909 -31.940942 3.301650 48.529700 0.720422 1.502710 0.041791 0.001175 -166985.000000 0 0 1
-37.162209 -32.986542 3.925450 49.845269 0.725942 1.491962 0.043571 -0.001615 -86411.300000 0 0 1
36.987516 -33.337842 2.869750 49.877084 -0.733548 1.513228 0.042461 0.000268 -950499.000000 0 0 1
35.790216 33.468732 3.365950 49.116446 0.751892 1.502213 0.046880 0.003050 -308492.000000 0 0 1
34.935016 -33.664942 4.385650 48.713628 -0.766886 1.480645 0.042701 -0.003064 517618.000000 0 0 1
34.205116 -32.549342 3.941350 47.381261 -0.760599 1.487516 0.045891 -0.009923 -284774.000000 0 0 1
33.147816 -32.661042 2.778050 46.618011 -0.778002 1.511169 0.062117 -0.010072 -234452.000000 0 0 1
33.784816 -32.923242 1.552850 47.199205 -0.772483 1.537890 0.063897 -0.000748 43345.500000 0 0 1
32.994616 -32.394742 0.461450 46.241507 -0.776225 1.560817 0.078981 -0.000945 -897026.000000 0 0 1
33.320416 -32.906642 -0.989950 46.840978 -0.779150 1.591932 0.093246 -0.008299 627009.000000 0 0 1
34.553916 -32.561342 -1.622950 47.506295 -0.755718 1.604966 0.061203 -0.009675 411766.000000 0 0 1
35.697116 -32.853442 -0.821450 48.521207 -0.743939 1.587727 0.050967 -0.000673 -973804.000000 0 0 1
36.996216 -32.769842 -1.651050 49.450061 -0.724893 1.604191 0.044981 -0.003210 -302856.000000 0 0 1
37.315116 33.666732 -2.279750 50.309681 0.734045 1.616126 0.051822 -0.011292 390332.000000 0 0 1
-36.839309 -33.712942 -3.369850 50.050504 0.741114 1.638176 0.048693 -0.009079 -116206.000000 0 0 1
-36.082209 32.811032 -4.041950 48.936969 -0.737952 1.653486 0.053035 -0.013757 602273.000000 0 0 1
-34.873709 32.325832 -3.434650 47.675274 -0.747501 1.642901 0.056379 -0.010005 532539.000000 0 0 1
-34.057909 31.739332 -4.429550 46.764808 -0.750175 1.665658 0.082223 -0.018560 -301094.000000 0 0 1
-32.779009 31.192132 -3.810050 45.408468 -0.760597 1.654801 0.088634 -0.021011 -286487.000000 0 0 1
-31.680809 32.053632 -3.533350 45.206123 -0.791248 1.649037 0.065727 -0.029956 1223000.000000 0 0 1
-30.444009 31.319832 -3.307050 43.803038 -0.799577 1.646366 0.068446 -0.029608 1393790.000000 0 0 1
-30.132709 30.946332 -1.828850 43.231936 -0.798718 1.613112 0.062651 -0.018654 -88538.400000 0 0 1
-31.182509 30.135332 -1.349350 43.385572 -0.768322 1.601903 0.049167 -0.015639 -113690.000000 0 0 1
-31.044609 29.917232 0.042350 43.113922 -0.766907 1.569814 0.043687 -0.013889 113620.000000 0 0 1
-32.349009 29.325832 0.631450 43.667626 -0.736419 1.556335 0.044482 -0.014413 18548.400000 0 0 1
-32.608809 27.957032 0.277250 42.953544 -0.708743 1.564342 0.050754 -0.023464 -436620.000000 0 0 1
-33.662309 27.844332 -0.644850 43.690659 -0.691088 1.585556 0.066997 -0.022763 -176420.000000 0 0 1
-33.874009 26.419432 -1.149150 42.973892 -0.662384 1.597540 0.082694 -0.014576 126895.000000 0 0 1
-34.310709 25.534632 -0.084250 42.769724 -0.639790 1.572766 0.102367 -0.021646 -55088.800000 0 0 1
-34.684309 24.262632 -0.536550 42.331601 -0.610409 1.583472 0.096681 -0.015827 -231302.000000 0 0 1
-34.516009 23.181732 0.520650 41.581470 -0.591426 1.558275 0.100870 -0.019481 -545127.000000 0 0 1
-33.213909 23.044332 0.999150 40.437647 -0.606563 1.546085 0.105903 -0.020781 -506793.000000 0 0 1
-32.863009 23.869832 2.059950 40.669271 -0.628188 1.520123 0.101582 -0.025807 -1006740.000000 0 0 1
-31.370709 23.828532 2.425250 39.469002 -0.649604 1.509311 0.096478 -0.031566 233705.000000 0 0 1
-30.504609 24.532132 1.521050 39.174868 -0.677303 1.531959 0.095655 -0.031806 140161.000000 0 0 1
-30.427509 25.868632 1.761850 39.976537 -0.704594 1.526710 0.052042 -0.027119 -473155.000000 0 0 1
-29.841909 26.660732 0.534950 40.020249 -0.729156 1.557429 0.036289 -0.021333 188961.000000 0 0 1
-28.446809 26.402732 0.446450 38.813973 -0.748148 1.559294 0.047299 -0.016832 7004.080000 0 0 1
-27.802809 27.123032 -0.591350 38.845910 -0.773023 1.586020 0.036590 -0.007515 174364.000000 0 0 1
-26.615609 26.457432 -1.261550 37.549672 -0.782418 1.604399 0.037851 -0.011680 -405272.000000 0 0 1
-27.145309 25.470032 -2.139750 37.284968 -0.753569 1.628217 0.060463 -0.020335 600298.000000 0 0 1
-26.173909 24.730432 -2.918750 36.127370 -0.757049 1.651675 0.068701 -0.005149 1388440.000000 0 0 1
-25.166809 23.740032 -2.171250 34.665137 -0.756233 1.633472 0.075563 -0.006849 915167.000000 0 0 1
-25.765209 22.510332 -1.797050 34.260625 -0.718077 1.623273 0.074957 -0.009453 97999.200000 0 0 1
-24.826809 21.705032 -1.105950 32.995484 -0.718410 1.604321 0.089839 -0.028117 -148349.000000 0 0 1
-25.399409 20.280732 -0.819850 32.513231 -0.673809 1.596015 0.121761 -0.041197 -221387.000000 0 0 1
-26.349509 20.173732 0.207550 33.186129 -0.653424 1.564542 0.103452 -0.033751 1335810.000000 0 0 1
-27.725509 20.545932 -0.065850 34.508600 -0.637747 1.572705 0.095035 -0.030940 1448920.000000 0 0 1
-28.540509 19.849532 -1.222350 34.785898 -0.607690 1.605943 0.108346 -0.037840 -407107.000000 0 0 1
-28.966809 18.553232 -0.931650 34.411719 -0.569668 1.597873 0.122671 -0.041398 517045.000000 0 0 1
-29.943809 18.084032 -1.874850 35.031114 -0.543306 1.624341 0.135774 -0.042555 266021.000000 0 0 1
-30.312109 16.611132 -1.561250 34.600450 -0.501309 1.615934 0.152261 -0.051859 -67578.500000 0 0 1
-31.005709 16.384332 -0.348250 35.070238 -0.486132 1.580727 0.140294 -0.050440 237048.000000 0 0 1
-31.140009 14.988532 -0.044050 34.559487 -0.448598 1.572071 0.145581 -0.058393 -198681.000000 0 0 1
-29.919009 14.278132 0.574850 33.156336 -0.445263 1.553458 0.194102 -0.055605 -1043490.000000 0 0 1
-29.693509 14.703832 1.896450 33.188909 -0.459790 1.513624 0.196621 -0.051982 1297570.000000 0 0 1
-28.319909 14.460132 2.292050 31.880498 -0.472091 1.498839 0.229868 -0.054651 1349170.000000 0 0 1
-27.647109 13.055532 2.233150 30.656100 -0.441178 1.497887 0.229085 -0.055208 -612778.000000 0 0 1
-27.614509 12.448632 0.940250 30.305339 -0.423519 1.539765 0.217443 -0.060106 85254.000000 0 0 1
-27.139809 11.122432 0.993450 29.347311 -0.388943 1.536938 0.245778 -0.048790 -145936.000000 0 0 1
-27.101809 10.485632 -0.392450 29.062184 -0.369161 1.584301 0.229496 -0.046515 -68528.500000 0 0 1
-28.368209 10.076432 -0.866750 30.117121 -0.341301 1.599580 0.236871 -0.050242 433083.000000 0 0 1
-28.186509 8.966432 -1.770350 29.631239 -0.307988 1.630578 0.235267 -0.045729 -986930.000000 0 0 1
-29.382409 8.709432 -2.615950 30.757492 -0.288166 1.655950 0.231062 -0.053553 -1086700.000000 0 0 1
-29.248109 7.778532 -3.707350 30.491013 -0.259933 1.692686 0.224729 -0.045489 1610740.000000 0 0 1
-30.557809 7.536532 -4.324150 31.769124 -0.241806 1.707332 0.225179 -0.040837 1498730.000000 0 0 1
-11.623584 18.560932 -20.382650 29.917692 -1.011306 2.320321 0.139234 -0.011309 429073.000000 0 0 1
-12.032784 17.629232 -21.367750 30.201961 -0.971880 2.356744 0.130407 -0.018313 -876364.000000 0 0 1
-11.021484 16.708632 -21.484750 29.364025 -0.987682 2.391564 0.121011 -0.033482 -595908.000000 0 0 1
-11.149084 15.649332 -22.594750 29.660182 -0.951775 2.436864 0.118795 -0.030943 -89817.600000 0 0 1
-10.265084 14.565232 -22.379250 28.606795 -0.956879 2.469155 0.126965 -0.035241 119835.000000 0 0 1
-10.518484 13.496332 -23.270850 28.884631 -0.908769 2.507565 0.108182 -0.037099 -123438.000000 0 0 1
-9.594084 12.359732 -22.914750 27.746985 -0.910714 2.542498 0.085983 -0.030092 -42890.600000 0 0 1
-8.218584 12.422332 -23.230650 27.595698 -0.986311 2.571445 0.081190 -0.022778 -223237.000000 0 0 1
-7.549584 11.358632 -22.636550 26.427791 -0.984187 2.599330 0.064482 -0.017417 384280.000000 0 0 1
-5.995084 11.407832 -22.595150 26.011929 -1.086939 2.623258 0.055882 -0.007001 443192.000000 0 0 1
-5.425984 11.064332 -23.822450 26.821071 -1.114856 2.664207 0.044917 -0.015169 -1817560.000000 0 0 1
-4.078384 10.906532 -23.735350 26.437709 -1.212956 2.685508 0.043081 -0.015452 -1214400.000000 0 0 1
-3.350784 10.766732 -25.115890 27.531040 -1.269081 2.719602 0.063584 -0.028471 33875.900000 0 0 1
-3.257384 9.414332 -25.553980 27.427105 -1.237687 2.769876 0.063330 -0.031811 297189.000000 0 0 1
-2.495284 9.371932 -26.769160 28.471871 -1.310582 2.794004 0.064466 -0.034153 286491.000000 0 0 1
-2.271584 7.925632 -27.398100 28.611739 -1.291667 2.849289 0.071958 -0.005157 99701.300000 0 0 1
-1.387684 6.971032 -26.783090 27.710194 -1.374301 2.882188 0.062439 -0.023149 355728.000000 0 0 1
-1.798384 6.513632 -25.513840 26.393514 -1.301412 2.882687 0.077474 -0.028253 148983.000000 0 0 1
-0.652684 5.618632 -24.932050 25.565643 -1.455150 2.918496 0.004035 -0.011174 270132.000000 0 0 1
0.389016 6.448332 -24.487050 25.324848 1.510541 2.883654 0.040764 -0.001937 6613.960000 0 0 1
1.391816 5.732732 -23.756550 24.478052 1.332621 2.898194 0.044344 0.017341 413106.000000 0 1 0
1.676916 6.230332 -22.310950 23.225149 1.307874 2.860084 0.048341 0.014564 84674.700000 0 1 0
2.322916 7.503632 -22.201350 23.549954 1.270581 2.801532 0.036483 0.001085 184466.000000 0 1 0
2.356716 7.948232 -20.857550 22.444729 1.282546 2.763269 0.051103 -0.000972 319760.000000 0 1 0
3.063716 9.347332 -20.792450 23.001846 1.254067 2.699707 0.054898 -0.013847 162846.000000 0 1 0
2.641916 9.995532 -19.569350 22.132551 1.312396 2.655550 0.061570 -0.024479 351686.000000 0 1 0
3.124716 11.364632 -19.584650 22.857760 1.302476 2.599838 0.063927 -0.023166 160924.000000 0 1 0
4.371516 11.522232 -18.680550 22.379341 1.208175 2.558426 0.069070 -0.033305 882726.000000 0 1 0
5.550616 10.908932 -19.254950 22.815942 1.100123 2.575355 0.077873 -0.028803 525765.000000 0 1 0
6.529216 10.660532 -18.235250 22.108866 1.021261 2.540633 0.080528 -0.028146 249109.000000 0 1 0
7.616416 9.708232 -18.767550 22.460643 0.905559 2.559975 0.123125 -0.036829 -144505.000000 0 1 0
7.287216 8.313532 -19.002350 21.984259 0.851090 2.614676 0.099350 -0.028632 71971.100000 0 1 0
6.542016 8.037432 -20.177450 22.683204 0.887611 2.667117 0.075195 -0.019861 -198546.000000 0 1 0
6.517916 6.537932 -20.376050 22.369872 0.786931 2.716184 0.086851 -0.015241 480283.000000 0 1 0
7.830416 6.059032 -20.671250 22.920032 0.658548 2.694912 0.086916 -0.007121 759993.000000 0 1 0
7.733416 4.710532 -21.060150 22.924326 0.547094 2.735525 0.072009 0.000838 -202631.000000 0 1 0
7.849016 4.591232 -22.582650 24.344661 0.529275 2.758792 0.089637 -0.010615 -458854.000000 0 1 0
6.732016 5.134032 -23.248250 24.741856 0.651535 2.792351 0.100138 -0.015655 54648.100000 0 1 0
6.710816 4.860732 -24.600850 25.958882 0.626858 2.816701 0.095642 -0.023558 -127327.000000 0 0 1
5.632416 5.701432 -25.332340 26.569868 0.791487 2.835186 0.074028 -0.024616 12391.500000 0 0 1
5.818716 7.144932 -25.421770 27.040227 0.887346 2.793856 0.072781 -0.035342 216003.000000 0 0 1
5.228416 7.770032 -24.280650 26.024213 0.978494 2.773464 0.092386 -0.030522 -360353.000000 0 0 1
4.854616 9.240132 -24.531050 26.659327 1.087048 2.739305 0.093892 -0.041864 68195.600000 0 0 1
3.752316 9.410332 -25.393300 27.339603 1.191373 2.761985 0.101574 -0.044196 489866.000000 0 0 1
2.502216 9.569932 -24.709050 26.615443 1.315055 2.760806 0.082551 -0.028567 -115973.000000 0 0 1
1.401716 10.110532 -25.587370 27.548161 1.433035 2.762020 0.074009 -0.014184 -586612.000000 0 0 1
1.484016 11.483832 -25.757210 28.240300 1.442282 2.719108 0.099649 -0.041492 257018.000000 0 0 1
0.614816 12.000732 -26.781970 29.354207 1.519610 2.719839 0.109907 -0.042348 322171.000000 0 0 1
0.404216 13.473632 -26.883410 30.073574 1.540805 2.676815 0.099712 -0.045008 -135423.000000 0 0 1
-0.115884 14.002632 -25.682250 29.251753 -1.562521 2.642408 0.096791 -0.036764 154837.000000 0 0 1
-0.431384 15.392532 -25.693960 29.954894 -1.542778 2.601683 0.103611 -0.049768 -372024.000000 0 0 1
-0.975384 15.981232 -24.340150 29.134070 -1.509839 2.559753 0.107441 -0.039770 172204.000000 0 0 1
-2.156184 15.266432 -24.025850 28.547408 -1.430487 2.571058 0.091920 -0.037447 -173287.000000 0 0 1
-2.670484 15.699532 -22.781750 27.795951 -1.402309 2.531521 0.086821 -0.041574 -769776.000000 0 0 1
-3.799484 14.838332 -22.264350 27.024312 -1.320124 2.538991 0.082128 -0.032884 -845900.000000 0 0 1
-5.073784 15.091932 -22.771150 27.785517 -1.246475 2.531392 0.094654 -0.032635 -591453.000000 0 0 1
-5.369984 14.609232 -24.084350 28.676162 -1.218551 2.567846 0.099501 -0.034513 -766483.000000 0 0 1
-6.797184 14.885332 -24.544950 29.499650 -1.142437 2.553575 0.078803 -0.036486 -318329.000000 0 0 1
-7.112884 16.282932 -24.774150 30.487464 -1.158948 2.519398 0.082589 -0.038167 979257.000000 0 0 1
-8.550184 16.319732 -24.983250 31.041940 -1.088199 2.506173 0.088784 -0.036292 1131330.000000 0 0 1
-9.044284 17.731032 -25.342360 32.224583 -1.099116 2.475803 0.092700 -0.032535 -146353.000000 0 0 1
-9.649684 18.476532 -24.311950 32.024515 -1.089494 2.432828 0.099233 -0.033605 -125132.000000 0 0 1
-10.791984 19.166232 -24.748350 33.110303 -1.057972 2.415014 0.099238 -0.024711 418049.000000 0 0 1
-11.576984 20.078432 -23.759250 33.191444 -1.047769 2.368601 0.105807 -0.028710 600155.000000 0 0 1
-10.839384 21.283932 -23.426350 33.455820 -1.099756 2.346498 0.112348 -0.029681 555625.000000 0 0 1
-11.451984 22.507832 -23.886150 34.760590 -1.100134 2.328371 0.106048 -0.036049 264504.000000 0 0 1
-10.851184 23.006132 -25.232580 35.828946 -1.130073 2.352164 0.099500 -0.023919 395827.000000 0 0 1
-11.469884 22.350632 -26.386300 36.432757 -1.096661 2.380737 0.096849 -0.026053 443451.000000 0 0 1
-11.094284 22.953732 -27.621550 37.588655 -1.120571 2.396223 0.100153 -0.025433 -77239.900000 0 0 1
-11.719084 22.207332 -28.845140 38.243230 -1.085225 2.425315 0.095203 -0.023194 -204305.000000 0 0 1
-11.154784 21.008232 -29.234020 37.688233 -1.082679 2.458589 0.088033 -0.020414 -363157.000000 0 0 1
-11.122384 19.946832 -28.289350 36.357542 -1.062136 2.462412 0.098544 -0.022524 -247064.000000 0 0 1
-10.154684 18.855232 -28.797970 35.888166 -1.076778 2.502163 0.086604 -0.021395 -1239700.000000 0 0 1
-8.845984 19.345832 -28.779140 35.787589 -1.141925 2.505066 0.079560 -0.019860 -705630.000000 0 0 1
-7.913084 18.565632 -29.492420 35.736570 -1.167891 2.541481 0.077035 -0.020117 419031.000000 0 0 1
-7.499984 17.207332 -28.837930 34.408839 -1.159763 2.564581 0.092913 -0.032462 -144275.000000 0 0 1
-8.582184 16.279532 -29.001310 34.347533 -1.085645 2.576146 0.071749 -0.031566 551930.000000 0 0 1
-8.311584 15.043732 -28.360370 33.161828 -1.066040 2.596755 0.067605 -0.036637 -1098240.000000 0 0 1
-9.581384 14.269532 -28.452130 33.240730 -0.979484 2.598166 0.070611 -0.034893 -1408210.000000 0 0 1
-10.507184 14.794432 -27.542030 32.982412 -0.953249 2.559024 0.081849 -0.034574 -722066.000000 0 0 1
-11.618284 13.930232 -27.586800 33.016169 -0.875645 2.559937 0.107376 -0.038459 34352.500000 0 0 1
-12.751084 14.236032 -26.575630 32.734062 -0.840367 2.518135 0.089502 -0.033576 401493.000000 0 0 1
-13.491584 15.425732 -26.805980 33.742208 -0.852184 2.488873 0.091419 -0.034989 -562713.000000 0 0 1
-14.347484 15.710732 -25.754410 33.406092 -0.830721 2.451127 0.076298 -0.035737 -415965.000000 0 0 1
-15.190584 16.995532 -25.930210 34.525030 -0.841418 2.420455 0.064518 -0.030512 -222241.000000 0 0 1
-14.521484 18.265332 -25.989270 34.927611 -0.899093 2.409967 0.067229 -0.025840 -228230.000000 0 0 1
-15.398484 19.319432 -26.338420 36.111856 -0.897859 2.388177 0.062177 -0.024635 -541667.000000 0 0 1
-14.849884 20.768832 -26.649330 36.905964 -0.950069 2.377611 0.060263 -0.024554 -275618.000000 0 0 1
-15.865984 21.685032 -26.966400 38.067792 -0.939139 2.357994 0.044148 -0.016554 -84544.800000 0 0 1
-15.436584 23.028532 -26.967040 38.675866 -0.980266 2.342361 0.056735 -0.020826 34816.800000 0 0 1
-15.481184 23.702132 -25.596000 38.165604 -0.992206 2.305889 0.040050 -0.024623 105134.000000 0 0 1
-14.854784 24.943732 -25.648560 38.738908 -1.033669 2.294398 0.069598 -0.027334 -92523.100000 0 0 1
-14.463384 25.498932 -24.405650 38.144734 -1.054832 2.265056 0.082339 -0.028960 -84692.900000 0 0 1
-14.063184 26.955732 -24.537450 39.070079 -1.089929 2.249824 0.094000 -0.030903 -157600.000000 0 0 1
-15.049084 27.844832 -24.986450 40.325330 -1.075305 2.239057 0.095386 -0.038014 -504525.000000 0 0 1
-15.499384 28.778232 -24.044850 40.577979 -1.076763 2.205028 0.099805 -0.038253 10159.000000 0 0 1
-16.780584 29.469832 -24.555850 41.869425 -1.053169 2.197510 0.081089 -0.037944 240012.000000 0 0 1
-17.902484 28.623432 -24.661150 41.808756 -1.011875 2.201677 0.069701 -0.034083 -1156100.000000 0 0 1
-19.019484 29.281932 -25.154280 43.033825 -0.994752 2.195089 0.064900 -0.030917 48513.500000 0 0 1
-20.152384 28.207032 -25.343530 42.942400 -0.950441 2.202072 0.069466 -0.007940 567798.000000 0 0 1
-20.695484 27.576532 -24.161250 42.101475 -0.926992 2.182034 0.063937 -0.015231 68075.500000 0 0 1
-21.875084 26.836632 -24.422050 42.369336 -0.886903 2.185123 0.059007 -0.027279 150655.000000 0 0 1
-22.483584 26.085732 -23.235550 41.543564 -0.859428 2.164344 0.055707 -0.025190 -323046.000000 0 0 1
-23.207284 26.998232 -22.459850 42.094268 -0.860764 2.133601 0.066673 -0.023835 -411688.000000 0 0 1
-23.526484 26.459032 -21.218950 41.277350 -0.843999 2.110705 0.057819 -0.022730 -407161.000000 0 0 1
-24.427384 27.462432 -20.463050 42.066836 -0.843822 2.078808 0.042772 -0.019265 -574279.000000 0 0 1
-25.766524 27.147432 -20.690250 42.766614 -0.811489 2.075781 0.072155 -0.032270 -1013490.000000 0 0 1
-26.601204 28.227832 -20.457150 43.851220 -0.815057 2.056140 0.067617 -0.032705 441630.000000 0 0 1
-28.125644 27.980432 -20.689750 44.743962 -0.782810 2.051500 0.067083 -0.031714 658834.000000 0 0 1
-28.403774 27.808932 -22.077850 45.470238 -0.774817 2.077783 0.063085 -0.030200 -939511.000000 0 0 1
-29.768514 27.846632 -22.345550 46.485728 -0.752053 2.072246 0.068419 -0.034868 -626044.000000 0 0 1
-30.178574 27.466832 -23.768950 47.224317 -0.738391 2.098233 0.061167 -0.031980 -83859.600000 0 0 1
-30.192784 26.063132 -23.895450 46.496060 -0.712121 2.110549 0.069750 -0.016391 -171319.000000 0 0 1
-30.385294 25.713132 -25.219490 47.121693 -0.702305 2.135540 0.070305 -0.010006 -125758.000000 0 0 1
-30.702424 24.223832 -25.423820 46.645509 -0.667990 2.147237 0.058477 -0.012704 -961339.000000 0 0 1
-29.683374 23.317332 -25.236320 45.405644 -0.665858 2.160118 0.088970 -0.020659 -1015130.000000 0 0 1
-29.944944 22.077632 -25.856640 45.306592 -0.635307 2.178159 0.074554 -0.010688 -205373.000000 0 0 1
-28.831174 20.991832 -25.798380 44.016474 -0.629334 2.197042 0.101606 -0.010338 49787.900000 0 0 1
-28.665194 20.420932 -24.481950 42.872761 -0.618996 2.178565 0.093271 -0.009178 93533.000000 0 0 1
-27.862944 19.241132 -24.570850 41.836485 -0.604365 2.198524 0.118977 -0.015322 252786.000000 0 0 1
-28.687364 17.903132 -24.646850 41.844404 -0.557936 2.200632 0.104209 -0.015941 328037.000000 0 0 1
-29.433214 17.720032 -25.859570 43.000360 -0.541920 2.216024 0.083347 -0.017716 356925.000000 0 0 1
-29.804254 16.318432 -25.944480 42.751618 -0.500937 2.222907 0.061384 -0.011523 -15623.200000 0 0 1
-30.697064 15.982432 -27.149530 43.986871 -0.480031 2.235999 0.019335 -0.005136 -485691.000000 0 0 1
-32.018204 16.416732 -27.125280 45.060573 -0.473781 2.216767 0.008484 -0.001049 -885032.000000 0 0 1
-32.709844 15.750432 -28.116170 45.918722 -0.448754 2.229766 0.006773 0.004456 -64455.200000 0 0 1
-33.887364 16.591832 -28.685610 47.397326 -0.455307 2.220833 0.009150 -0.003687 -23730.500000 0 0 1
-35.032950 16.528232 -27.871690 47.721286 -0.440827 2.194507 0.000020 -0.000138 -255173.000000 0 0 1
-36.150214 17.117632 -28.507450 49.117471 -0.442235 2.190008 0.023989 0.000987 298685.000000 0 0 1
-37.494304 16.812832 -27.811310 49.618173 -0.421531 2.165794 0.050067 -0.005973 14157.100000 0 0 1
37.447631 17.477232 -26.594360 49.143043 0.436664 2.142615 0.050438 -0.024586 -87927.900000 0 0 1
36.267541 17.035032 -25.962160 47.744744 0.439119 2.145719 0.059782 -0.018396 99154.500000 0 0 1
35.601601 18.024832 -24.966050 47.070927 0.468669 2.129859 0.065099 -0.009445 -30413.300000 0 0 1
34.977401 19.137732 -25.568200 47.364588 0.500649 2.141016 0.066326 -0.023940 -24668.300000 0 0 1
34.504141 19.959332 -24.545450 46.812282 0.524432 2.122734 0.080617 -0.018461 -154308.000000 0 0 1
33.676151 21.198532 -25.028550 47.009459 0.561816 2.132248 0.103455 -0.031257 -52808.400000 0 0 1
32.498641 20.850532 -25.685990 46.375386 0.570434 2.157803 0.110793 -0.032022 -273382.000000 0 0 1
31.358081 21.508332 -25.164850 45.598325 0.601196 2.155414 0.109124 -0.022439 679026.000000 0 0 1
30.086021 21.538332 -26.080730 45.268895 0.621312 2.184781 0.080583 -0.021594 612311.000000 0 0 1
29.655541 20.208732 -26.244590 44.459222 0.598167 2.202235 0.102260 -0.031777 536045.000000 0 0 1
28.304041 20.189632 -26.745810 43.864317 0.619605 2.226528 0.119046 -0.038641 797523.000000 0 0 1
27.772641 18.746732 -26.813820 42.915504 0.593755 2.245678 0.129571 -0.027617 -345687.000000 0 0 1
28.570141 17.908632 -27.595630 43.571675 0.559914 2.256656 0.125499 -0.036728 -298512.000000 0 0 1
29.484241 17.211032 -26.807630 43.407247 0.528375 2.236464 0.117644 -0.027517 994017.000000 0 0 1
30.693941 16.410132 -27.495630 44.355609 0.490972 2.239400 0.101113 -0.018989 1394740.000000 0 0 1
30.194821 15.217132 -28.166420 44.007221 0.466815 2.265348 0.118179 -0.029308 435008.000000 0 0 1
29.554241 14.186232 -27.440470 42.751394 0.447525 2.267720 0.124192 -0.021988 -320708.000000 0 0 1
30.429531 13.377432 -26.464200 42.488421 0.414189 2.243185 0.109292 -0.018228 -305395.000000 0 0 1
30.873441 14.163432 -25.368650 42.395053 0.430113 2.212283 0.102536 -0.024129 61876.500000 0 0 1
31.478621 13.319232 -24.418450 42.006740 0.400277 2.191120 0.078083 -0.015161 -114999.000000 0 0 1
-15.988084 -30.714642 -23.714250 41.968723 1.090855 2.171285 0.136880 -0.017386 538088.000000 0 0 1
-15.005484 -29.798842 -24.280250 41.263374 1.104305 2.199901 0.144674 -0.037178 898528.000000 0 0 1
-15.269784 -29.570942 -25.618920 41.999237 1.094132 2.226838 0.116312 -0.024997 48552.900000 0 0 1
-14.432084 -28.374042 -26.117780 41.176567 1.100263 2.257883 0.127447 -0.028427 4706.640000 0 0 1
-14.841284 -27.115142 -25.625780 40.151902 1.069995 2.262981 0.137663 -0.026808 -138555.000000 0 0 1
-14.270084 -26.052942 -26.310530 39.681671 1.069694 2.295669 0.121276 -0.024016 -290973.000000 0 0 1
-14.680984 -24.685242 -25.680700 38.527792 1.034263 2.300367 0.072861 -0.018823 51563.400000 0 0 1
-13.915484 -24.352742 -24.518750 37.254071 1.051662 2.289155 0.115037 -0.034256 312069.000000 0 0 1
-14.514484 -23.246042 -23.877850 36.348320 1.012639 2.287519 0.071026 -0.028586 -470860.000000 0 0 1
-13.866684 -22.766942 -22.618450 34.960161 1.023734 2.274411 0.094494 -0.033005 -178978.000000 0 0 1
-12.522584 -22.383942 -22.868850 34.363356 1.060731 2.298961 0.131197 -0.041313 -151031.000000 0 0 1
-12.128284 -21.523442 -21.830350 32.968439 1.057654 2.294493 0.103481 -0.032170 -43807.700000 0 0 1
-10.594184 -21.353842 -21.836250 32.327157 1.110253 2.312408 0.123518 -0.038324 -10004.200000 0 0 1
-10.131184 -20.494642 -22.855050 32.326839 1.111692 2.356042 0.148258 -0.044787 326839.000000 0 0 1
-8.726884 -20.273142 -22.789450 31.725665 1.164306 2.372193 0.176215 -0.052967 341922.000000 0 0 1
-8.276184 -19.030942 -23.641250 31.457601 1.160587 2.421171 0.204022 -0.049767 -91241.100000 0 0 1
-8.691784 -17.733742 -23.219050 30.482076 1.115078 2.436772 0.135953 -0.035743 -249447.000000 0 0 1
-8.746784 -16.747542 -24.200750 30.702812 1.089490 2.478717 0.134772 -0.029133 515716.000000 0 0 1
-7.374784 -16.260242 -24.788450 30.549143 1.144997 2.517389 0.155389 -0.036017 604210.000000 0 0 1
-6.797684 -17.072542 -25.778020 31.657329 1.191873 2.522289 0.169980 -0.049292 -273490.000000 0 0 1
-5.611384 -16.525142 -26.293100 31.557805 1.243446 2.555616 0.149534 -0.047698 -132807.000000 0 0 1
-5.192484 -17.009942 -27.687280 32.907225 1.274519 2.570617 0.164985 -0.048841 -101711.000000 0 0 1
-6.047684 -16.602642 -28.728860 33.727875 1.221474 2.590177 0.182696 -0.049974 -261551.000000 0 0 1
-6.244784 -17.611842 -29.716790 35.103588 1.230048 2.580258 0.175162 -0.052883 31301.100000 0 0 1
-6.953784 -17.144642 -31.009820 36.109594 1.185476 2.603660 0.170788 -0.048865 83483.300000 0 0 1
-6.331084 -16.122542 -31.770760 36.185634 1.196612 2.642451 0.138081 -0.043078 -300141.000000 0 0 1
-6.329284 -14.829142 -31.147300 35.073032 1.167390 2.663926 0.123206 -0.037852 -73963.900000 0 0 1
-7.296284 -13.875042 -31.865980 35.513282 1.086678 2.684405 0.114841 -0.035360 -72907.900000 0 0 1
-6.828284 -13.571042 -33.168010 36.481715 1.104631 2.712078 0.117045 -0.042708 -819793.000000 0 0 1
-7.745284 -12.963242 33.827333 37.044885 1.032231 0.419864 0.112748 -0.041053 -697281.000000 0 0 1
-8.190184 -11.499142 -33.583090 36.429840 0.951901 2.743641 0.085675 -0.030287 281721.000000 0 0 1
-7.101384 -10.573742 -33.537250 35.874514 0.979382 2.778630 0.070260 -0.028035 281277.000000 0 0 1
-6.605684 -10.118342 32.997872 35.140795 0.992425 0.351030 0.054352 -0.027060 457490.000000 0 0 1
-5.300784 -9.260342 33.030676 34.711350 1.050905 0.312456 0.058428 -0.019004 449207.000000 0 0 1
-5.096684 -8.619242 31.744293 33.286148 1.036788 0.305560 0.047906 -0.014706 -215585.000000 0 0 1
-3.931984 -7.835042 31.766855 32.954233 1.105673 0.269257 0.043234 -0.027604 -956945.000000 0 0 1
-3.864184 -6.827242 30.622473 31.611375 1.055756 0.250789 0.046154 -0.025547 111265.000000 0 0 1
-4.829584 -5.793842 30.660693 31.574857 0.875917 0.241218 0.059047 -0.022051 -514188.000000 0 0 1
-6.096884 -6.218042 30.274573 31.502156 0.795236 0.280086 0.045690 -0.014967 -725307.000000 0 0 1
-7.310084 -5.264642 30.417393 31.723360 0.624148 0.287934 0.037021 -0.011449 298806.000000 0 0 1
-8.424584 -5.720442 29.700203 31.397438 0.596505 0.330305 0.059523 -0.006509 412856.000000 0 0 1
-9.631884 -4.938842 29.913363 31.811549 0.473803 0.347197 0.051389 -0.012778 507000.000000 0 0 1
-10.801984 -5.480042 29.127573 31.545669 0.469485 0.394090 0.060371 -0.015546 -694388.000000 0 0 1
-10.638484 -5.394142 27.701983 30.160802 0.469264 0.406586 0.046308 -0.005297 815306.000000 0 0 1
-11.629184 -6.236042 27.056673 30.102985 0.492218 0.453764 0.059198 -0.008829 611459.000000 0 0 1
-11.473484 -6.175742 25.512783 28.647561 0.493787 0.472190 0.041758 -0.009179 144564.000000 0 0 1
-10.314784 -6.878942 25.073243 27.971095 0.588165 0.459220 0.049697 -0.006300 359829.000000 0 0 1
-9.826984 -6.312742 23.829853 26.538316 0.571006 0.455727 0.044663 -0.005758 -17966.300000 0 0 1
-10.599884 -6.537242 22.473573 25.693473 0.552629 0.506021 0.050368 -0.013471 -244793.000000 0 0 1
-11.779884 -5.800242 22.448973 26.007016 0.457537 0.529244 0.025793 -0.003799 -735526.000000 0 0 1
-12.421984 -5.810142 21.233873 25.277278 0.437500 0.573443 0.020742 -0.010966 -456610.000000 0 0 1
-13.598884 -4.847942 21.096373 25.563434 0.342450 0.600141 0.028302 -0.010061 -120845.000000 0 0 1
-13.239184 -3.485942 20.797173 24.898799 0.257461 0.582176 0.020281 -0.008590 171412.000000 0 1 0
-14.391584 -2.686342 20.983173 25.585693 0.184537 0.609187 0.038689 -0.009342 284483.000000 0 0 1
-14.147884 -1.273942 20.471473 24.917198 0.089803 0.606619 0.031870 -0.007863 -383392.000000 0 1 0
-13.152284 -0.616942 21.190773 24.948187 0.046873 0.555965 0.025054 -0.005633 -410274.000000 0 1 0
-13.089984 0.810058 20.989073 24.749648 -0.061805 0.558492 0.037236 -0.011156 -197659.000000 0 1 0
-12.619084 1.282058 19.547073 23.301782 -0.101249 0.575600 0.050812 -0.018272 315667.000000 0 1 0
-13.391484 1.032058 18.330173 22.724265 -0.076916 0.632361 0.061569 -0.017346 107729.000000 0 1 0
-14.641784 1.680058 18.240073 23.450047 -0.114244 0.679596 0.070818 -0.018167 453819.000000 0 1 0
-15.674784 0.930058 17.306273 23.368161 -0.059265 0.736845 0.088714 -0.020681 280199.000000 0 1 0
-16.026684 -0.298942 17.814573 23.964619 0.018651 0.732702 0.073023 -0.020724 455780.000000 0 1 0
-17.096984 -0.921942 17.110973 24.206244 0.053872 0.785715 0.090273 -0.021205 126947.000000 0 1 0
-17.149184 -2.484942 17.370573 24.535816 0.143900 0.784179 0.087441 -0.019095 36486.200000 0 1 0
-17.703984 -2.869442 18.608873 25.844824 0.160682 0.766961 0.099855 -0.021445 -264114.000000 0 0 1
-17.687084 -4.271042 18.763373 26.136926 0.236942 0.770033 0.108704 -0.024231 -388597.000000 0 0 1
-18.088984 -4.735742 20.156773 27.494256 0.256056 0.747888 0.110763 -0.020636 127602.000000 0 0 1
-17.263284 -4.386942 21.278873 27.749895 0.248852 0.696941 0.087353 -0.014176 112664.000000 0 0 1
-17.976484 -4.393842 22.481673 29.118473 0.239722 0.688695 0.084379 -0.016476 -815948.000000 0 0 1
-18.172684 -5.772742 23.175223 30.011031 0.307579 0.688463 0.122650 -0.015472 -353430.000000 0 0 1
-17.105184 -6.387042 23.831523 30.022044 0.357365 0.653763 0.047081 -0.018438 -455734.000000 0 0 1
-16.017684 -6.730842 23.018383 28.839494 0.397809 0.646570 0.078392 -0.015425 -569652.000000 0 0 1
-14.862284 -7.392142 23.799343 29.016202 0.461546 0.609020 0.085921 -0.014408 -139074.000000 0 0 1
-15.219984 -8.699442 24.158873 29.849277 0.519260 0.627731 0.087284 -0.020838 -47207.500000 0 0 1
-15.373884 -8.740842 25.546353 31.070481 0.516974 0.605519 0.083371 -0.022172 -23399.100000 0 0 1
-16.500084 -9.716442 25.939813 32.241835 0.532197 0.635898 0.086547 -0.021916 -995859.000000 0 0 1
-16.262584 -11.096842 25.805873 32.458506 0.598785 0.651720 0.093604 -0.029198 -433339.000000 0 0 1
-15.497984 -11.662042 26.818043 33.096800 0.645091 0.626148 0.088952 -0.034321 -342164.000000 0 0 1
-15.556484 -13.190742 26.596053 33.516413 0.703289 0.654219 0.071383 -0.033946 153764.000000 0 0 1
-16.762284 -13.788442 27.038713 34.672573 0.688363 0.676402 0.081465 -0.030784 -109708.000000 0 0 1
-16.942784 -15.178942 26.751153 35.115273 0.730542 0.704694 0.094945 -0.023203 -187332.000000 0 0 1
-15.983384 -16.191142 27.400723 35.614902 0.791855 0.692956 0.085875 -0.022975 -217308.000000 0 0 1
-14.723184 -16.235142 26.777303 34.603120 0.834198 0.685914 0.114709 -0.036510 -258027.000000 0 0 1
-13.866484 -17.074842 27.533253 35.240738 0.888721 0.674066 0.126175 -0.036598 -769310.000000 0 0 1
-12.516384 -17.224842 26.875483 34.287704 0.942409 0.669998 0.112283 -0.041201 -597309.000000 0 0 1
-11.554484 -17.925142 27.674293 34.938279 0.998229 0.656569 0.116526 -0.042055 424199.000000 0 0 1
-10.343884 -18.003242 26.917373 33.994965 1.049295 0.657038 0.106645 -0.034609 431181.000000 0 0 1
-9.172784 -18.669142 27.700613 34.641028 1.114106 0.644088 0.120620 -0.038598 192563.000000 0 0 1
-9.410984 -19.973642 28.231523 35.840367 1.130477 0.663727 0.125876 -0.026246 -286147.000000 0 0 1
-8.257484 -20.480142 28.857863 36.337288 1.187539 0.653161 0.127457 -0.023757 63086.300000 0 0 1
-8.458084 -21.818642 29.551883 37.694908 1.200978 0.669752 0.119710 -0.021315 8573.710000 0 0 1
-8.696984 -22.878942 28.716343 37.732107 1.207535 0.705853 0.124227 -0.019979 34868.100000 0 0 1
-8.762784 -24.107342 29.441853 39.048342 1.222154 0.716689 0.114033 -0.023722 -51761.900000 0 0 1
-9.002384 -25.326142 28.519403 39.189447 1.229267 0.755787 0.115184 -0.018024 234587.000000 0 0 1
-10.262284 -25.369742 27.849883 39.045541 1.186409 0.776648 0.099368 -0.021518 548776.000000 0 0 1
-10.478984 -26.661342 27.301013 39.572485 1.196304 0.809447 0.099966 -0.018061 -144971.000000 0 0 1
-11.744084 -26.734142 26.414603 39.374727 1.156883 0.835440 0.091766 -0.028302 -114439.000000 0 0 1
-11.842284 -26.010842 25.188753 38.095628 1.143558 0.848382 0.107410 -0.032654 88147.000000 0 0 1
-12.401984 -24.719542 25.308183 37.488253 1.105784 0.829701 0.104484 -0.019175 -198244.000000 0 0 1
-12.649284 -24.185742 23.871603 36.260280 1.088914 0.852185 0.105343 -0.042170 -49114.600000 0 0 1
-13.911984 -24.547442 23.358323 36.629653 1.055193 0.879302 0.095507 -0.035212 11973.300000 0 0 1
-14.098384 -24.049242 22.057473 35.548032 1.040563 0.901419 0.094550 -0.042190 241265.000000 0 0 1
-15.577884 -24.270142 21.647073 36.059756 1.000169 0.926906 0.081355 -0.039464 127609.000000 0 0 1
-16.088584 -25.579442 21.473673 37.071135 1.009351 0.952981 0.089133 -0.043858 34078.200000 0 0 1
-17.192584 -25.599342 20.597173 37.083080 0.979384 0.981913 0.079730 -0.041505 -43708.800000 0 0 1
-17.523784 -26.924842 19.999173 37.841737 0.993830 1.013969 0.069437 -0.039775 -37845.100000 0 0 1
-16.480784 -27.364142 19.150473 37.244505 1.028704 1.030742 0.062925 -0.038121 47622.200000 0 0 1
-16.414884 -28.741842 18.887773 38.108921 1.051887 1.052241 0.075692 -0.032928 -80719.200000 0 0 1
-15.360384 -29.078242 17.818773 37.403131 1.084810 1.074243 0.085894 -0.040408 -203490.000000 0 0 1
-15.642284 -28.758442 16.470373 36.646995 1.072633 1.104666 0.078289 -0.048417 328500.000000 0 0 1
-14.468284 -28.882742 15.638573 35.890235 1.106404 1.119943 0.081417 -0.050285 609170.000000 0 0 1
-14.583984 -28.238742 14.258673 34.834306 1.094073 1.149078 0.078399 -0.042842 -53891.400000 0 0 1
-14.540684 -26.821642 14.153173 33.632488 1.074019 1.136449 0.070808 -0.044339 -251051.000000 0 0 1
-14.829184 -26.215942 12.892673 32.762804 1.056013 1.166344 0.069099 -0.043924 -255026.000000 0 0 1
-13.865884 -26.396442 11.718473 32.036815 1.087119 1.196324 0.066182 -0.038305 -157702.000000 0 0 1
-14.333184 -25.913642 10.450073 31.403201 1.065566 1.231556 0.046994 -0.025147 -435416.000000 0 0 1
-13.559484 -26.396342 9.412773 31.132407 1.096258 1.263643 0.054149 -0.020097 -207476.000000 0 0 1
-13.951684 -25.787842 8.061373 30.408025 1.074875 1.302482 0.062134 -0.014667 194619.000000 0 0 1
-15.130984 -26.270742 7.447473 31.217998 1.048238 1.329910 0.050939 -0.018908 -2068.220000 0 0 1
-15.274584 -25.623842 6.200373 30.468653 1.033243 1.365865 0.056311 -0.014625 -106712.000000 0 0 1
-16.186784 -26.406642 5.252873 31.415209 1.020886 1.402799 0.063651 -0.026699 -210750.000000 0 0 1
-15.636884 -27.594042 4.738473 32.068620 1.055240 1.422493 0.074209 -0.024848 84659.400000 0 0 1
-16.280484 -27.907342 3.482873 32.496220 1.042690 1.463412 0.093834 -0.019545 160719.000000 0 0 1
-15.712184 -29.198742 2.775873 33.273784 1.077126 1.487274 0.100704 -0.026956 485681.000000 0 0 1
-14.357584 -29.041542 2.354173 32.482203 1.111654 1.498257 0.069497 -0.016021 1739.550000 0 0 1
-13.917784 -30.081042 1.632673 33.184927 1.137451 1.521577 0.076860 -0.018495 -448326.000000 0 0 1
-12.521184 -29.856742 1.057273 32.393254 1.173699 1.538152 0.060552 -0.015950 -289233.000000 0 0 1
-12.519784 -29.075642 -0.135727 31.656853 1.164197 1.575084 0.059144 -0.004635 35488.800000 0 0 1
-12.518184 -27.687242 0.018273 30.385665 1.146174 1.570195 0.048799 -0.007380 -553843.000000 0 0 1
-12.334284 -26.963742 -1.340227 29.681209 1.141773 1.615966 0.051864 -0.004677 -414568.000000 0 0 1
-11.015284 -27.142342 -1.770827 29.345852 1.185271 1.631176 0.048158 -0.007058 -731503.000000 0 0 1
-10.775384 -26.500742 -2.970627 28.761482 1.184607 1.674266 0.068026 -0.007521 -404842.000000 0 0 1
-9.404884 -26.910542 -3.461527 28.716046 1.234579 1.691633 0.057839 -0.008036 -438356.000000 0 0 1
-9.002284 -26.114042 -4.581727 27.999581 1.238824 1.735171 0.058175 -0.010113 144452.000000 0 0 1
-7.609384 -26.250942 -4.858727 27.760077 1.288658 1.746728 0.061661 -0.008512 693632.000000 0 0 1
-7.001284 -25.060542 -5.608527 26.617744 1.298367 1.783094 0.045268 -0.012634 -109642.000000 0 0 1
-7.359184 -24.926242 -6.972627 26.908970 1.283714 1.832906 0.055395 -0.010563 -314041.000000 0 0 1
-6.650484 -23.852642 -7.551427 25.888250 1.298886 1.866793 0.048748 -0.007067 -475967.000000 0 0 1
-6.706284 -23.703842 -9.053427 26.245207 1.295082 1.922988 0.052731 -0.013027 -201177.000000 0 0 1
-5.870284 -24.580142 -9.768427 27.093648 1.336365 1.939646 0.032989 -0.017140 -235162.000000 0 0 1
-6.088684 -24.536442 -11.179027 27.641991 1.327561 1.987143 0.021108 -0.000848 -371787.000000 0 0 1
-7.350284 -25.182042 -11.740627 28.740289 1.286800 1.991615 0.036901 -0.006366 -204759.000000 0 0 1
-7.520984 -24.974442 -13.178127 29.222440 1.278287 2.038636 0.058728 -0.005867 -695654.000000 0 0 1
-8.631084 -25.608642 -13.698227 30.297517 1.245715 2.039941 0.083340 -0.011383 -1213020.000000 0 0 1
-8.812384 -25.384942 -15.185427 30.865038 1.236663 2.085175 0.088646 -0.016136 353634.000000 0 0 1
-7.899384 -25.999342 -16.099127 31.583982 1.275829 2.105661 0.078971 -0.030117 481016.000000 0 0 1
-6.546184 -25.587542 -16.051527 30.906736 1.320334 2.116891 0.076486 -0.030860 -327425.000000 0 0 1
-5.571884 -26.374042 -16.922327 31.827679 1.362594 2.131386 0.072749 -0.028313 -391198.000000 0 0 1
-5.870884 -26.300242 -18.268827 32.556413 1.351172 2.166563 0.126780 -0.034581 1159320.000000 0 0 1
-4.782684 -26.900142 -19.050127 33.307642 1.394841 2.179671 0.101722 -0.034516 946610.000000 0 0 1
-25.896724 14.083432 -4.431550 29.809764 -0.498094 1.720010 0.156205 -0.054794 -17203.800000 0 0 1
-25.696174 12.755332 -4.002450 28.965694 -0.460756 1.709419 0.162937 -0.047831 98786.000000 0 0 1
-24.409384 12.275832 -4.318550 27.661597 -0.465976 1.727558 0.149869 -0.034199 -391235.000000 0 0 1
-24.187884 10.700532 -4.206750 26.781558 -0.416509 1.728526 0.158351 -0.049078 102322.000000 0 0 1
-24.795884 9.806232 -5.178450 27.162739 -0.376602 1.762616 0.139752 -0.040948 -65606.000000 0 0 1
-26.182304 9.887832 -5.326350 28.489511 -0.361095 1.758861 0.164334 -0.047880 -699408.000000 0 0 1
-26.743244 9.307832 -6.612750 29.078605 -0.334931 1.800213 0.170722 -0.040634 -119624.000000 0 0 1
-26.555214 10.185232 -7.668350 29.457120 -0.366245 1.834152 0.183637 -0.033848 71104.400000 0 0 1
-26.676824 9.529632 -8.956950 29.710163 -0.343097 1.877038 0.172929 -0.036303 -133688.000000 0 0 1
-26.970484 10.502932 -10.160750 30.675062 -0.371355 1.908412 0.180239 -0.032238 448711.000000 0 0 1
-25.863214 11.276632 -10.638950 30.153864 -0.411160 1.931382 0.159163 -0.038598 539818.000000 0 0 1
-26.279084 12.063232 -11.755350 31.213780 -0.430349 1.956928 0.182093 -0.043515 -527191.000000 0 0 1
-25.356234 13.131132 -12.291350 31.087658 -0.477838 1.977275 0.154227 -0.032831 -589659.000000 0 0 1
-25.244274 14.284132 -11.488050 31.197517 -0.514920 1.947907 0.144879 -0.035918 446080.000000 0 0 1
-24.377284 15.228432 -12.124350 31.195464 -0.558382 1.969970 0.120888 -0.032002 121402.000000 0 0 1
-24.377284 16.596332 -11.412750 31.621845 -0.597731 1.940044 0.128211 -0.034621 -295938.000000 0 0 1
-23.516384 16.700832 -10.303750 30.628506 -0.617525 1.913899 0.115845 -0.018784 -24688.800000 0 0 1
-23.558484 17.990732 -9.694950 31.187508 -0.652188 1.886894 0.067945 -0.006784 135329.000000 0 0 1
-22.523184 18.117732 -8.536750 30.140042 -0.677420 1.857963 0.080024 -0.011489 41897.600000 0 0 1
-22.760484 17.428432 -7.322550 29.587322 -0.653494 1.820885 0.116251 -0.026117 150346.000000 0 0 1
-23.781884 18.072032 -6.573050 30.584005 -0.649812 1.787404 0.136142 -0.034456 -60489.200000 0 0 1
-23.923484 17.376432 -5.203850 30.022550 -0.628182 1.745008 0.154336 -0.024966 1641550.000000 0 0 1
-22.717584 17.445832 -4.342950 28.970794 -0.654887 1.721271 0.120580 -0.039981 1787570.000000 0 0 1
-22.988084 16.693232 -3.154250 28.584354 -0.628074 1.681370 0.130882 -0.037157 -268252.000000 0 0 1
-21.842284 16.740932 -2.141150 27.603056 -0.653944 1.648444 0.137582 -0.056941 -538814.000000 0 0 1
-21.446984 17.984932 -1.679250 28.040164 -0.697825 1.630719 0.128503 -0.051115 105726.000000 0 0 1
-20.471884 17.767132 -0.686650 27.115319 -0.714783 1.596122 0.169803 -0.073804 503.986000 0 0 1
-19.808384 18.978832 0.016350 27.432980 -0.764014 1.570200 0.140283 -0.062970 266357.000000 0 0 1
-20.680984 19.601332 0.958850 28.510256 -0.758602 1.537158 0.135882 -0.059094 242080.000000 0 0 1
-20.845084 20.972532 0.762850 29.579496 -0.788446 1.545004 0.152841 -0.056714 960377.000000 0 0 1
-21.955884 21.507732 1.792050 30.787251 -0.775088 1.512556 0.112513 -0.047795 1173650.000000 0 0 1
-21.477284 21.452932 3.141950 30.518419 -0.784831 1.467661 0.128713 -0.044703 748437.000000 0 0 1
-22.620584 21.401932 4.006650 31.397241 -0.757723 1.442836 0.099902 -0.022163 496713.000000 0 0 1
-22.336884 21.291832 5.537150 31.351851 -0.761449 1.393252 0.104406 -0.027276 -197762.000000 0 0 1
-21.716384 22.485732 6.059050 31.842135 -0.802802 1.379345 0.096327 -0.017911 -146859.000000 0 0 1
-20.778884 22.179132 7.041550 31.197105 -0.817982 1.343123 0.078853 -0.012034 -452836.000000 0 0 1
-21.267184 21.804432 8.461650 31.612116 -0.797871 1.299821 0.087712 -0.022054 -887933.000000 0 0 1
-22.032884 20.630932 8.433350 31.340146 -0.752550 1.298347 0.094851 -0.026756 252978.000000 0 0 1
-22.514884 20.162432 9.693950 31.739823 -0.730332 1.260418 0.114552 -0.028752 381735.000000 0 0 1
-23.318484 21.157732 10.622050 33.229946 -0.736854 1.245433 0.136358 -0.029618 -65508.500000 0 0 1
-24.647784 21.424032 10.178150 34.206683 -0.715540 1.268672 0.157818 -0.030132 453792.000000 0 0 1
-25.223754 22.497632 10.878650 35.506707 -0.728334 1.259405 0.164517 -0.031534 111282.000000 0 0 1
-26.771644 22.408632 10.669550 36.506260 -0.696915 1.274201 0.164726 -0.034890 408125.000000 0 0 1
-27.630364 23.194432 11.454850 37.850129 -0.698340 1.263338 0.154418 -0.030211 148422.000000 0 0 1
-27.525824 24.628932 11.259550 38.613893 -0.729911 1.274904 0.147252 -0.033700 -307381.000000 0 0 1
-28.030434 25.466632 12.472650 39.872567 -0.737511 1.252643 0.150859 -0.035470 228639.000000 0 0 1
-27.202484 25.338332 13.617150 39.590820 -0.749933 1.219679 0.116251 -0.033483 271618.000000 0 0 1
-27.783674 26.027832 14.733050 40.822094 -0.752780 1.201554 0.116563 -0.024625 101831.000000 0 0 1
-26.823034 26.111832 15.913650 40.676126 -0.771964 1.168830 0.095111 -0.026933 5382.100000 0 0 1
-26.361644 24.909232 16.506950 39.848281 -0.757078 1.143683 0.095578 -0.022246 -65056.200000 0 0 1
-25.493404 25.125932 17.584050 39.880132 -0.778139 1.114170 0.075111 -0.013703 -152736.000000 0 0 1
-24.840984 23.807632 18.033250 38.846827 -0.764160 1.088049 0.077779 -0.004404 -630505.000000 0 0 1
-23.748184 23.928832 18.870350 38.634898 -0.789187 1.060509 0.074534 -0.020789 -197552.000000 0 0 1
-23.292884 22.628732 19.298850 37.776495 -0.770936 1.034601 0.082074 -0.024314 217942.000000 0 0 1
-21.816484 22.581632 19.785950 37.112975 -0.802630 1.008503 0.099563 -0.031426 170027.000000 0 0 1
-20.891784 22.670632 18.704750 36.059560 -0.826210 1.025445 0.104104 -0.036256 10398.500000 0 0 1
-19.541784 22.410832 18.968050 35.269160 -0.853680 1.002961 0.087247 -0.039390 133292.000000 0 0 1
-19.064484 20.890032 19.245050 34.208478 -0.831057 0.973292 0.099333 -0.028209 -223065.000000 0 0 1
-19.631284 20.244232 20.359950 34.781372 -0.800769 0.945461 0.104757 -0.024338 -378463.000000 0 0 1
-18.924984 20.509732 21.532250 35.248290 -0.825563 0.913633 0.094000 -0.019879 -377869.000000 0 0 1
-19.603984 20.176732 22.867950 36.254101 -0.799795 0.888253 0.086232 -0.018751 -3340.140000 0 0 1
-20.721384 21.018632 23.120750 37.493036 -0.792519 0.906293 0.074972 -0.018996 -49361.700000 0 0 1
-21.332084 20.701932 24.322450 38.408455 -0.770408 0.885041 0.074569 -0.017046 -521514.000000 0 0 1
-22.411484 21.715732 24.669250 39.779637 -0.769633 0.901865 0.075924 -0.021747 -909715.000000 0 0 1
-21.940884 23.023132 24.993150 40.449037 -0.809463 0.904737 0.082847 -0.027737 -292329.000000 0 0 1
-22.932684 23.967032 25.193850 41.654012 -0.807449 0.921236 0.080871 -0.029207 -190179.000000 0 0 1
-23.939984 24.357932 24.062750 41.778555 -0.794051 0.957019 0.068116 -0.028683 297351.000000 0 0 1
-24.907884 23.403532 23.664250 41.570720 -0.754270 0.965200 0.062665 -0.025595 -86111.300000 0 0 1
-25.437694 23.917832 22.478550 41.526187 -0.754614 0.998802 0.052191 -0.015377 134033.000000 0 0 1
-26.531714 23.071332 21.753150 41.345106 -0.715750 1.016746 0.051636 -0.018385 998705.000000 0 0 1
-27.855084 23.195932 22.286350 42.551597 -0.694386 1.019551 0.072904 -0.022564 965856.000000 0 0 1
-28.707614 22.110732 21.886950 42.332614 -0.656307 1.027427 0.088297 -0.026949 107051.000000 0 0 1
-30.204624 22.324432 22.124250 43.591078 -0.636493 1.038468 0.098440 -0.018891 -880705.000000 0 0 1
-30.744814 23.411032 21.391350 44.169106 -0.650797 1.065227 0.115723 -0.027245 -274850.000000 0 0 1
-32.124114 23.609432 21.437350 45.265042 -0.633796 1.077427 0.118879 -0.025448 12276.300000 0 0 1
-33.032574 22.635132 20.593850 45.028955 -0.600749 1.095787 0.130490 -0.036256 -414469.000000 0 0 1
-32.996494 21.309932 21.101050 44.588520 -0.573434 1.077832 0.122046 -0.035716 939156.000000 0 0 1
-33.826824 20.400832 20.298750 44.412692 -0.542693 1.096122 0.127728 -0.033412 1912600.000000 0 0 1
-35.405669 20.407132 20.466850 45.704534 -0.522871 1.106484 0.151985 -0.034807 1146350.000000 0 0 1
-36.067794 19.647532 19.484150 45.459250 -0.498795 1.127846 0.133293 -0.027668 -602369.000000 0 0 1
-37.446134 19.820632 19.584950 46.675911 -0.486820 1.137798 0.153805 -0.032549 -595939.000000 0 0 1
36.687951 19.184032 18.527750 45.357583 0.481797 1.150006 0.143490 -0.030209 -154773.000000 0 0 1
36.697621 17.788332 18.633250 44.836795 0.451355 1.142217 0.167200 -0.040140 82241.900000 0 0 1
35.898241 17.144832 17.671950 43.530757 0.445564 1.152762 0.189121 -0.056934 -24652.600000 0 0 1
36.288861 15.641532 17.535050 43.232129 0.406966 1.153159 0.195705 -0.072251 32399.400000 0 0 1
35.489331 14.963832 16.597050 41.938896 0.399024 1.163919 0.224045 -0.074881 12974.400000 0 0 1
35.948971 13.638432 16.379150 41.792486 0.362608 1.168083 0.203255 -0.069107 67845.800000 0 0 1
34.942201 12.850332 15.531850 40.340139 0.352408 1.175564 0.183675 -0.071520 -183108.000000 0 0 1
34.889851 13.175732 14.141850 39.886007 0.361081 1.208356 0.181098 -0.067094 360480.000000 0 0 1
34.027961 12.373032 13.313050 38.577602 0.348751 1.218453 0.183170 -0.053958 51793.800000 0 0 1
34.209161 12.717232 11.798150 38.356108 0.355918 1.258132 0.196117 -0.047694 -379.667000 0 0 1
35.490951 12.282432 11.388250 39.244846 0.333171 1.276377 0.177603 -0.040912 297254.000000 0 0 1
35.527261 12.194032 9.947650 38.856614 0.330631 1.311905 0.158840 -0.033239 -875007.000000 0 0 1
36.889671 12.353632 9.319450 40.003902 0.323142 1.335672 0.117788 -0.019983 -1277600.000000 0 0 1
-37.176154 11.382332 9.736650 40.080248 -0.297110 1.325412 0.170779 -0.033509 1103460.000000 0 0 1
-35.858355 11.437432 9.157850 38.736323 -0.308761 1.332122 0.176336 -0.030462 975641.000000 0 0 1
-35.802469 11.235632 7.617350 38.289427 -0.304090 1.370519 0.150037 -0.042552 -944433.000000 0 0 1
-36.352834 12.250632 6.805050 38.960432 -0.325040 1.395230 0.135867 -0.043070 82271.000000 0 0 1
-35.803803 12.188332 5.540350 38.225165 -0.328115 1.425344 0.158394 -0.051132 -186229.000000 0 0 1
-36.756324 12.920232 4.531650 39.223661 -0.338020 1.455004 0.169318 -0.059420 -281528.000000 0 0 1
37.050591 12.179932 4.499450 39.259930 0.317609 1.455937 0.180027 -0.056933 -149030.000000 0 0 1
35.915871 13.003832 4.329450 38.442081 0.347381 1.457934 0.151424 -0.053797 60054.300000 0 0 1
35.371101 13.595432 5.664550 38.314980 0.366956 1.422411 0.156709 -0.045991 -1734090.000000 0 0 1
34.541881 14.735832 5.416450 37.942380 0.403232 1.427552 0.143002 -0.032809 266116.000000 0 0 1
33.996731 15.257232 6.606050 37.844428 0.421843 1.395339 0.123560 -0.032534 -637833.000000 0 0 1
32.820061 14.479532 7.131150 36.574124 0.415494 1.374561 0.189921 -0.043232 -1590290.000000 0 0 1
33.169181 13.207332 7.655850 36.513562 0.378937 1.359557 0.218032 -0.038532 -304359.000000 0 0 1
32.072071 12.358832 7.860350 35.258241 0.367810 1.345971 0.222702 -0.027534 -347587.000000 0 0 1
31.695801 11.356532 6.692550 34.327610 0.344048 1.374578 0.217313 -0.033082 -161772.000000 0 0 1
31.201351 11.999532 5.563150 33.888961 0.367146 1.405892 0.208449 -0.048039 144246.000000 0 0 1
31.505101 11.254632 4.415350 33.745125 0.343103 1.439576 0.209396 -0.044926 -136814.000000 0 0 1
30.584601 11.595432 3.235250 32.868506 0.362383 1.472207 0.172606 -0.052962 -36031.000000 0 0 1
29.269741 11.093932 3.348550 31.480245 0.362294 1.464225 0.140165 -0.044709 369455.000000 0 0 1
28.431241 11.685432 2.365950 30.829896 0.389959 1.493979 0.153591 -0.048390 572117.000000 0 0 1
27.014041 11.073132 2.127150 29.272810 0.389014 1.498066 0.176017 -0.035664 635537.000000 0 0 1
27.009041 9.724232 1.533050 28.747160 0.345588 1.517442 0.126094 -0.033666 441750.000000 0 0 1
25.689641 9.198032 1.676950 27.338135 0.343823 1.509417 0.124980 -0.034203 28661.800000 0 0 1
25.606841 7.675632 1.513950 26.775318 0.291227 1.514223 0.132089 -0.032211 103807.000000 0 0 1
26.250241 6.912032 2.521150 27.261833 0.257469 1.478185 0.146280 -0.026140 1459010.000000 0 0 1
27.696741 6.915632 2.394450 28.647318 0.244688 1.487115 0.187996 -0.044249 1043770.000000 0 0 1
28.368341 6.316932 3.711150 29.299130 0.219101 1.443791 0.195782 -0.049183 436107.000000 0 0 1
29.779441 6.172732 3.816750 30.651024 0.204387 1.445949 0.239299 -0.049293 706324.000000 0 0 1
30.143991 5.483832 5.032850 31.049351 0.179953 1.407986 0.228690 -0.036988 -1251850.000000 0 0 1
31.614311 5.485732 5.282250 32.518611 0.171810 1.407636 0.227713 -0.044335 -1043110.000000 0 0 1
32.229551 6.689132 5.751450 33.415081 0.204641 1.397814 0.226934 -0.046251 -1250660.000000 0 0 1
33.540181 6.534732 6.105450 34.712000 0.192422 1.393988 0.199527 -0.037031 -1298080.000000 0 0 1
34.049091 7.651032 6.914450 35.576516 0.221035 1.375197 0.176815 -0.040133 -353465.000000 0 0 1
33.634881 7.531432 8.266050 35.445102 0.220284 1.335422 0.188505 -0.041465 187832.000000 0 0 1
34.077171 8.570632 9.150450 36.310330 0.246396 1.316043 0.179916 -0.040405 -114330.000000 0 0 1
33.359831 8.467232 10.512350 35.987246 0.248566 1.274361 0.194437 -0.041288 -518246.000000 0 0 1
32.095371 9.030532 10.597050 34.985151 0.274275 1.263061 0.188564 -0.046535 -516377.000000 0 0 1
31.428021 8.584632 11.762950 34.637890 0.266647 1.224307 0.175170 -0.053159 -131023.000000 0 0 1
30.049331 9.212132 12.033550 33.654598 0.297471 1.205142 0.162895 -0.048971 -443838.000000 0 0 1
29.881441 10.598632 12.369550 34.032885 0.340846 1.198818 0.199520 -0.055392 29149.300000 0 0 1
30.109501 11.554832 11.344150 34.187511 0.366429 1.232563 0.206763 -0.059012 -171730.000000 0 0 1
29.098141 11.638232 10.166550 32.947064 0.380476 1.257105 0.162398 -0.044652 -101154.000000 0 0 1
29.081341 12.917432 9.548650 33.222901 0.418006 1.279273 0.141649 -0.028775 309722.000000 0 0 1
28.109541 12.955832 8.515950 32.101733 0.431886 1.302302 0.114406 -0.025538 46628.000000 0 0 1
27.913741 14.309432 7.833250 32.331047 0.473701 1.326078 0.111975 -0.029103 8818.800000 0 0 1
27.314941 15.385832 8.566050 32.499339 0.512978 1.304069 0.110405 -0.014869 270977.000000 0 0 1
27.615741 16.673032 8.068750 33.252427 0.543173 1.325698 0.106911 -0.007642 -530190.000000 0 0 1
26.747741 17.902132 8.530950 33.297223 0.589820 1.311701 0.127424 -0.023488 932129.000000 0 0 1
25.425141 18.085232 8.010250 32.213002 0.618278 1.319494 0.129596 -0.029056 1366700.000000 0 0 1
24.417141 17.162732 8.509650 31.034985 0.612668 1.293043 0.127380 -0.028365 232364.000000 0 0 1
23.071741 17.855632 8.797450 30.471691 0.658634 1.277918 0.125458 -0.037737 -320085.000000 0 0 1
22.494541 18.348432 7.619050 30.011985 0.684231 1.314120 0.126207 -0.036601 -483754.000000 0 0 1
21.345541 19.087332 7.891850 29.702520 0.729605 1.301870 0.158053 -0.049397 -351014.000000 0 0 1
20.851041 19.786732 6.612850 29.495940 0.759214 1.344679 0.149069 -0.037721 -163062.000000 0 0 1
21.815441 20.725032 6.233250 30.729364 0.759772 1.366535 0.101217 -0.019991 -33406.600000 0 0 1
21.641141 21.106532 4.891250 30.622688 0.772893 1.410383 0.112263 -0.030129 -323203.000000 0 0 1
18.342516 16.940232 32.674546 41.122322 0.745675 0.652498 0.133183 -0.047343 320621.000000 0 0 1
17.172816 17.476632 32.039709 40.334616 0.794166 0.652863 0.116135 -0.040448 635772.000000 0 0 1
16.741016 16.491432 31.141643 39.013214 0.777888 0.646440 0.121473 -0.049212 -354245.000000 0 0 1
16.405016 17.002332 29.726463 37.971917 0.803276 0.671557 0.120907 -0.048155 -932011.000000 0 0 1
17.494316 17.429632 29.023653 38.107947 0.783546 0.704992 0.123571 -0.038632 -899078.000000 0 0 1
17.100016 17.607332 27.714283 37.020402 0.800014 0.724815 0.112093 -0.034234 229284.000000 0 0 1
18.251116 18.082732 26.794613 37.121958 0.780764 0.764397 0.108635 -0.034829 -88020.100000 0 0 1
18.834616 19.341432 27.041133 38.210688 0.798673 0.784580 0.114486 -0.035046 587838.000000 0 0 1
19.719416 19.666232 25.943013 38.061214 0.784048 0.820832 0.118637 -0.030319 126251.000000 0 0 1
20.662116 20.866732 26.176713 39.339088 0.790325 0.842750 0.135020 -0.034494 -84970.500000 0 0 1
20.019916 22.141232 26.167043 39.695659 0.835670 0.851053 0.101739 -0.029050 341841.000000 0 0 1
20.957116 23.202332 26.180843 40.779719 0.836198 0.873684 0.115307 -0.033892 -28718.800000 0 0 1
20.248216 24.547432 26.140883 41.181458 0.881079 0.883081 0.119038 -0.036020 172030.000000 0 0 1
19.748116 24.922532 24.842243 40.351676 0.900719 0.907594 0.099551 -0.030363 298165.000000 0 0 1
19.031116 26.143332 24.827773 40.768560 0.941555 0.916006 0.102084 -0.029876 -1086.350000 0 0 1
19.240816 27.022832 23.596483 40.709170 0.952048 0.952515 0.078944 -0.026118 -41320.800000 0 0 1
20.325116 27.930232 23.544643 41.803809 0.941714 0.972522 0.087118 -0.029040 -53303.200000 0 0 1
20.203516 28.809732 22.473773 41.752284 0.959216 1.002420 0.070747 -0.022293 -666540.000000 0 0 1
21.423116 29.657232 22.228273 42.808848 0.945223 1.024829 0.072708 -0.019415 -978138.000000 0 0 1
22.515716 28.995732 21.661373 42.625404 0.910538 1.037726 0.071572 -0.020878 -285206.000000 0 0 1
23.564516 29.918032 21.367673 43.668668 0.903640 1.059494 0.091830 -0.036741 253614.000000 0 0 1
23.864816 30.041532 19.844273 43.195119 0.899483 1.093465 0.098419 -0.031386 -174805.000000 0 0 1
23.059316 30.958832 19.136073 43.085620 0.930607 1.110581 0.066488 -0.019255 25514.600000 0 0 1
23.233216 30.887932 17.729273 42.522627 0.925903 1.140723 0.075166 -0.006447 -190749.000000 0 0 1
22.824316 32.185132 16.933473 42.936868 0.953951 1.165402 0.089945 -0.011267 -304603.000000 0 0 1
23.680116 33.290832 17.191173 44.323401 0.952520 1.172490 0.089691 -0.011961 213267.000000 0 0 1
23.800216 -33.536042 16.097273 44.161506 -0.953596 1.197691 0.090194 -0.012581 61198.800000 0 0 1
24.831616 33.628532 15.046973 44.428580 0.934755 1.225285 0.071575 -0.007030 -63114.700000 0 0 1
24.383516 32.491832 14.254673 43.051954 0.927007 1.233323 0.093454 -0.016851 688025.000000 0 0 1
23.313416 32.753132 13.321873 42.352749 0.952200 1.250818 0.074136 -0.022475 532323.000000 0 0 1
22.960816 31.609332 12.353873 40.975202 0.942575 1.264535 0.081263 -0.032237 -35097.400000 0 0 1
24.057816 31.202232 11.563473 41.061804 0.913972 1.285323 0.116271 -0.051637 100381.000000 0 0 1
23.668916 30.026732 10.874973 39.750312 0.903254 1.293681 0.113173 -0.055166 -415520.000000 0 0 1
24.795716 29.239032 10.136273 39.654667 0.867444 1.312314 0.122607 -0.056729 1131050.000000 0 0 1
25.765416 28.439632 10.896373 39.892359 0.834693 1.294136 0.117411 -0.056638 787987.000000 0 0 1
26.579416 29.207032 11.724773 41.194495 0.832465 1.282186 0.109508 -0.049317 -687902.000000 0 0 1
28.044016 28.684932 11.851073 41.829895 0.796696 1.283546 0.112722 -0.045619 466133.000000 0 0 1
28.257516 27.581232 12.658973 41.466386 0.773287 1.260561 0.115605 -0.040180 78697.600000 0 0 1
29.608016 27.464532 13.082073 42.450863 0.747859 1.257528 0.106059 -0.024372 357039.000000 0 0 1
29.691516 26.729132 14.457173 42.485792 0.732941 1.223579 0.086312 -0.028739 -359869.000000 0 0 1
30.927016 26.992332 15.044773 43.719693 0.717569 1.219496 0.074655 -0.036101 -470840.000000 0 0 1
31.015016 26.228432 16.208773 43.733125 0.701974 1.191110 0.085914 -0.043725 241791.000000 0 0 1
32.381316 26.255532 16.950673 45.002532 0.681306 1.184608 0.090198 -0.051730 -348735.000000 0 0 1
33.475116 25.975632 16.119073 45.333667 0.659915 1.207278 0.093599 -0.041079 -174036.000000 0 0 1
34.579116 25.954832 17.043473 46.474171 0.643880 1.195305 0.089191 -0.042890 100905.000000 0 0 1
35.950516 26.219332 16.421673 47.429572 0.630132 1.217244 0.107807 -0.047890 -363727.000000 0 0 1
36.265416 27.550132 16.114973 48.310274 0.649668 1.230706 0.101201 -0.040819 -778195.000000 0 0 1
-37.457109 27.660832 15.617873 49.112876 -0.636079 1.247178 0.138725 -0.043852 -422093.000000 0 0 1
-37.314209 28.791632 14.586873 49.336448 -0.657182 1.270649 0.100013 -0.038486 107098.000000 0 0 1
-37.372509 30.105732 15.106073 50.311559 -0.678121 1.265841 0.093432 -0.031392 2108.660000 0 0 1
-37.442209 31.060732 14.048773 50.636510 -0.692510 1.289664 0.083325 -0.011260 -153270.000000 0 0 1
36.350616 31.968532 14.197373 50.447198 0.721345 1.285512 0.069798 -0.010802 -806701.000000 0 0 1
36.155516 32.827532 13.032773 50.544252 0.737192 1.310001 0.045128 -0.004395 372744.000000 0 0 1
35.016416 33.683532 13.127673 50.329569 0.765999 1.306910 0.041649 0.001538 1150710.000000 0 0 1
33.621016 33.002132 12.882173 48.841211 0.776109 1.303882 0.056877 0.000678 260430.000000 0 0 1
33.187316 32.141932 13.884973 48.242038 0.769398 1.278848 0.053521 -0.019712 254190.000000 0 0 1
32.133016 31.261632 13.473273 46.811852 0.771654 1.278849 0.071208 -0.018118 235551.000000 0 0 1
31.503616 30.432232 14.593173 46.168813 0.768102 1.249198 0.095202 -0.021878 -403283.000000 0 0 1
30.725216 31.069132 15.548573 46.379823 0.790964 1.228932 0.095821 -0.025798 -360236.000000 0 0 1
30.200016 30.096932 16.371473 45.671561 0.783689 1.204178 0.093835 -0.029609 -330542.000000 0 0 1
29.218016 30.580032 17.437473 45.748184 0.808171 1.179743 0.092522 -0.029074 -148772.000000 0 0 1
28.802716 29.646132 18.400373 45.244484 0.799827 1.151971 0.083607 -0.029462 20546.100000 0 0 1
29.692016 29.588032 19.519873 46.239517 0.783644 1.134984 0.089528 -0.039713 213625.000000 0 0 1
29.392116 28.498232 20.559573 45.812027 0.769958 1.105395 0.097800 -0.047988 116279.000000 0 0 1
28.246216 28.722932 21.359273 45.596865 0.793766 1.083275 0.104963 -0.052878 -54004.100000 0 0 1
28.054116 27.764632 22.366573 45.367079 0.780212 1.055246 0.102673 -0.050903 -452204.000000 0 0 1
26.760716 27.890032 23.176353 45.068095 0.806059 1.030661 0.109111 -0.044316 188764.000000 0 0 1
25.690316 27.141932 22.525673 43.635797 0.812867 1.028365 0.099842 -0.042196 1027490.000000 0 0 1
24.567416 26.964932 23.394833 43.335710 0.831889 1.000536 0.091872 -0.045990 229394.000000 0 0 1
24.666916 25.614032 24.189303 43.007648 0.804232 0.973460 0.118913 -0.045389 -781379.000000 0 0 1
25.710616 25.564132 25.103643 44.099360 0.782541 0.965201 0.101085 -0.049948 -483731.000000 0 0 1
25.621316 24.412532 25.954253 43.886750 0.761244 0.938013 0.113847 -0.048647 -943111.000000 0 0 1
26.860316 24.260232 26.825533 45.051578 0.734580 0.932983 0.113420 -0.056149 -371671.000000 0 0 1
27.196616 25.417532 27.648333 46.369572 0.751597 0.931962 0.130655 -0.052436 190295.000000 0 0 1
27.918716 26.375532 26.924263 46.904577 0.756983 0.959387 0.103069 -0.035080 -903129.000000 0 0 1
28.068416 27.692832 27.690863 48.182080 0.778663 0.958543 0.083543 -0.034470 -295109.000000 0 0 1
29.130316 27.606832 28.643693 49.306933 0.758553 0.950930 0.097103 -0.035885 298344.000000 0 0 1
29.348316 28.907632 29.224423 50.507839 0.777834 0.953771 0.096743 -0.038446 -353695.000000 0 0 1
30.743716 29.146532 29.815153 51.803859 0.758736 0.957533 0.076087 -0.030899 -211604.000000 0 0 1
31.682616 29.200432 28.763653 51.805416 0.744651 0.982163 0.049363 -0.029679 -1118500.000000 0 0 1
32.964016 29.467932 29.211463 52.993348 0.729458 0.986960 0.080900 -0.038630 -631672.000000 0 0 1
33.911816 29.841132 28.059253 53.177308 0.721634 1.014959 0.072110 -0.032353 -267361.000000 0 0 1
33.715716 31.155932 27.605293 53.567657 0.745959 1.029398 0.054381 -0.027195 139829.000000 0 0 1
34.242716 31.277132 26.295033 53.312769 0.740167 1.055007 0.052912 -0.027842 -23020.100000 0 0 1
33.919516 32.696132 25.845393 53.735975 0.767035 1.069036 0.036567 -0.026869 -267775.000000 0 0 1
34.469616 33.685732 26.623723 55.060927 0.773897 1.066111 0.050373 -0.030922 -127430.000000 0 0 1
33.949416 -32.715442 26.283473 53.978551 -0.766890 1.062231 0.046690 -0.025379 -553753.000000 0 0 1
34.788116 -31.519342 26.680023 53.995422 -0.736141 1.053978 0.038192 -0.026026 -443225.000000 0 0 1
34.814416 -31.217342 28.092123 54.550283 -0.730977 1.029816 0.042019 -0.034041 623220.000000 0 0 1
35.995416 -30.549642 28.549123 55.172484 -0.703744 1.026925 0.049180 -0.039339 108343.000000 0 0 1
35.991716 -30.099942 30.014853 55.698308 -0.696488 1.001686 0.048590 -0.035620 -645599.000000 0 0 1
35.926716 -31.195842 30.960563 56.766768 -0.715033 0.993931 0.072279 -0.037625 -196976.000000 0 0 1
34.732316 -31.909242 31.088073 56.488953 -0.743061 0.988026 0.067977 -0.046146 -870162.000000 0 0 1
34.686016 -32.802342 32.359037 57.673396 -0.757494 0.975114 0.099144 -0.045729 -347888.000000 0 0 1
34.345416 -32.129642 33.559404 57.776770 -0.752078 0.951029 0.088748 -0.044551 161642.000000 0 0 1
34.735216 -32.743642 -32.983490 58.022340 -0.755893 2.175431 0.103174 -0.040615 191561.000000 0 0 1
34.008416 33.586932 -32.618010 57.866993 0.779163 2.169621 0.107893 -0.039824 301885.000000 0 0 1
34.277816 32.624432 -33.580800 58.025790 0.760690 2.187957 0.114677 -0.043239 157926.000000 0 0 1
33.425916 31.503832 -33.417280 56.802270 0.755804 2.199762 0.123524 -0.035673 298796.000000 0 0 1
33.645016 30.508832 33.204511 56.261137 0.736552 0.939508 0.122687 -0.032137 837343.000000 0 0 1
34.968016 29.952832 33.227045 56.780022 0.708301 0.945683 0.107862 -0.040355 535162.000000 0 0 1
35.059816 28.847132 32.358086 55.752968 0.688488 0.951597 0.095915 -0.037022 -904716.000000 0 0 1
36.397516 28.191532 32.074609 56.109912 0.659026 0.962294 0.090418 -0.029861 -822298.000000 0 0 1
36.740016 27.321432 33.103570 56.498989 0.639420 0.944788 0.080938 -0.022854 -1194730.000000 0 0 1
-36.963509 26.977832 32.934986 56.381005 -0.630480 0.946963 0.063308 -0.022971 -1319060.000000 0 0 1
-36.650809 25.689832 33.680962 56.014788 -0.611353 0.925686 0.061532 -0.019982 -162078.000000 0 0 1
-37.156809 24.568032 33.048733 55.465624 -0.584208 0.932483 0.059407 -0.019523 -29511.100000 0 0 1
-37.176109 23.437132 33.845533 55.469652 -0.562498 0.914530 0.039454 -0.016275 -58371.300000 0 0 1
37.362016 22.173132 33.167609 54.659476 0.535602 0.918762 0.040838 -0.022930 -544517.000000 0 0 1
-36.768509 21.713332 32.205498 53.484448 -0.533436 0.924609 0.056653 -0.011182 -189199.000000 0 0 1
-37.136709 20.457232 31.752517 52.970330 -0.503505 0.927995 0.057582 -0.009342 44186.000000 0 0 1
-35.958109 19.870632 30.952373 51.438089 -0.504841 0.925118 0.061703 -0.005906 -5825.300000 0 0 1
-35.613509 20.550832 29.735163 50.742868 -0.523375 0.944687 0.065337 -0.001351 -130247.000000 0 0 1
-34.544809 19.980332 29.026133 49.346468 -0.524377 0.941951 0.102090 -0.005234 -130281.000000 0 0 1
-35.033009 19.047032 27.933873 48.686778 -0.497984 0.959723 0.114961 -0.000347 -266622.000000 0 0 1
-35.579309 17.854032 28.445503 48.926479 -0.465094 0.950357 0.106893 -0.008666 97719.500000 0 0 1
-36.165909 17.060532 27.443773 48.499437 -0.440777 0.969323 0.100724 -0.018622 -103746.000000 0 0 1
-36.805609 15.747632 27.993853 48.849734 -0.404290 0.960561 0.091377 -0.024095 -297829.000000 0 0 1
-35.945409 14.819132 28.571253 48.249307 -0.391037 0.937061 0.100319 -0.016959 -130690.000000 0 0 1
-36.653109 13.714032 29.119503 48.779817 -0.358032 0.931092 0.106580 -0.027009 67645.800000 0 0 1
-35.726509 12.538332 29.517123 48.008892 -0.337524 0.908631 0.104150 -0.010221 32556.700000 0 0 1
-34.609709 12.883032 30.294723 47.765832 -0.356347 0.883779 0.102594 -0.002001 -182668.000000 0 0 1
-33.947209 11.774632 30.788423 47.317882 -0.333867 0.862327 0.074269 0.006952 -12987.400000 0 0 1
-32.408009 11.982032 30.848843 46.319534 -0.354138 0.841962 0.063922 0.013747 -578857.000000 0 0 1
-31.835509 11.866932 29.589973 45.054303 -0.356803 0.854279 0.053025 0.007528 763835.000000 0 0 1
-30.445609 12.225432 29.614323 44.197335 -0.381842 0.836523 0.048116 0.011333 1335640.000000 0 0 1
-29.355309 11.203332 30.070213 43.490994 -0.364584 0.807354 0.052016 0.009887 4753.100000 0 0 1
-29.084009 10.153132 29.183363 42.433882 -0.335870 0.812429 0.059247 0.007063 680423.000000 0 0 1
-27.977309 9.312632 29.595783 41.777569 -0.321328 0.783549 0.054062 0.001904 21789.800000 0 0 1
-27.711609 8.178232 28.645643 40.686479 -0.286973 0.789700 0.052264 -0.004490 -250364.000000 0 0 1
-28.561009 7.042832 28.588823 41.020160 -0.241766 0.799667 0.062121 -0.011091 224027.000000 0 0 1
-29.861109 7.422332 28.143763 41.699499 -0.243625 0.829942 0.074404 -0.011905 -133243.000000 0 0 1
-30.900909 6.271732 28.108983 42.241161 -0.200243 0.842712 0.085406 -0.025138 -81771.800000 0 0 1
-31.273809 5.897132 29.386973 43.317681 -0.186376 0.825206 0.091003 -0.022894 -181848.000000 0 0 1
-32.077709 4.745032 29.325253 43.720306 -0.146858 0.835581 0.118389 -0.032482 -239181.000000 0 0 1
-32.634809 4.409932 30.725033 45.038938 -0.134316 0.820045 0.107031 -0.030102 -544404.000000 0 0 1
-33.942709 4.872832 30.814143 46.101664 -0.142586 0.838747 0.110593 -0.026652 -504707.000000 0 0 1
-34.693209 4.421332 31.966816 47.381898 -0.126758 0.830288 0.117304 -0.026756 750446.000000 0 0 1
-36.156009 4.926232 31.948326 48.499693 -0.135416 0.851663 0.098248 -0.020794 159790.000000 0 0 1
-36.228709 6.295632 32.167465 48.855912 -0.172057 0.852085 0.092739 -0.015427 -549170.000000 0 0 1
37.493616 6.757632 31.918999 49.701704 0.178320 0.873417 0.098960 -0.011275 -232566.000000 0 0 1
37.327716 8.212132 32.470229 50.150905 0.216551 0.866562 0.080643 -0.002692 -97554.900000 0 0 1
37.367416 8.327632 33.864723 51.112550 0.219275 0.846576 0.076577 -0.004524 135767.000000 0 0 1
37.335916 9.666232 -33.453260 51.054160 0.253337 2.285310 0.077118 -0.005926 -133087.000000 0 0 1
37.298216 9.827832 -31.936330 50.076665 0.257637 2.262368 0.067210 -0.001378 -494602.000000 0 0 1
36.095416 9.270732 -31.500810 48.796788 0.251406 2.272541 0.073868 -0.003075 -239154.000000 0 0 1
36.010516 9.400632 -30.061370 47.841562 0.255354 2.250230 0.064604 0.006866 -1299100.000000 0 0 1
34.725516 8.835932 -29.614190 46.485862 0.249163 2.261472 0.081999 0.003760 -1294840.000000 0 0 1
34.796116 7.423132 -29.336980 46.114325 0.210182 2.260332 0.088757 -0.004348 1005550.000000 0 0 1
33.517116 7.060332 -28.775750 44.735770 0.207613 2.269516 0.110501 -0.024127 765571.000000 0 0 1
36.712941 6.303532 -19.517850 42.053787 0.170040 2.053433 0.094366 -0.019496 -341659.000000 0 0 1
36.211711 7.378932 -18.746450 41.438702 0.201020 2.040240 0.090595 -0.018873 759491.000000 0 0 1
37.042591 8.565632 -18.702450 42.371042 0.227243 2.027951 0.062340 -0.012288 -772033.000000 0 0 1
-36.582664 8.580932 -18.053850 41.687710 -0.230398 2.018696 0.067085 -0.006498 467194.000000 0 0 1
-35.597391 7.814632 -18.796450 41.006697 -0.216100 2.046962 0.075405 -0.011985 585261.000000 0 0 1
-35.093815 8.539532 -19.940650 41.256866 -0.238695 2.075250 0.062373 -0.003288 -836359.000000 0 0 1
-34.124646 7.715132 -20.837350 40.721123 -0.222349 2.107969 0.047521 0.000967 -215759.000000 0 0 1
-34.558908 6.575532 -21.615050 41.288813 -0.188023 2.121760 0.043602 0.009435 269341.000000 0 0 1
-35.473299 6.885132 -22.668550 42.657041 -0.191710 2.131065 0.048475 0.012092 346062.000000 0 0 1
-35.469624 5.617032 -23.620350 42.983324 -0.157058 2.152590 0.075540 0.002774 -35581.600000 0 0 1
-34.245010 5.482432 -24.288550 42.340423 -0.158747 2.181750 0.071336 -0.001283 -230455.000000 0 0 1
-34.119138 4.165932 -24.808850 42.390442 -0.121498 2.195980 0.073036 -0.000876 173670.000000 0 0 1
-32.828604 3.927932 -25.636340 41.837397 -0.119084 2.230346 0.078383 -0.004315 349714.000000 0 0 1
-31.650204 4.159232 -24.903250 40.487115 -0.130664 2.233297 0.075063 -0.004159 -56746.100000 0 0 1
-30.478234 4.010632 -25.689960 40.062226 -0.130838 2.266924 0.077612 -0.006574 919244.000000 0 0 1
-29.156544 4.417632 -24.945450 38.625056 -0.150371 2.272914 0.056162 -0.012219 354032.000000 0 0 1
-29.063874 5.792632 -24.686350 38.570445 -0.196729 2.265337 0.029650 -0.006498 -670258.000000 0 0 1
-27.890754 6.065532 -24.016750 37.302669 -0.214140 2.270296 0.040144 -0.010653 -708879.000000 0 0 1
-27.302344 7.468332 -24.231050 37.260404 -0.267010 2.278797 0.031953 -0.014398 -357957.000000 0 0 1
-28.006944 8.490832 -23.562250 37.572101 -0.294361 2.248648 0.030197 -0.013130 -135642.000000 0 0 1
-27.592704 9.827332 -23.916650 37.814546 -0.342149 2.255537 0.022462 -0.018478 -116769.000000 0 0 1
-26.141874 10.219132 -23.581650 36.659548 -0.372646 2.269546 0.054368 -0.019610 -335195.000000 0 0 1
-26.021464 10.470232 -22.177950 35.757570 -0.382547 2.239833 0.061816 -0.022653 81187.000000 0 0 1
-24.679084 10.751832 -21.859350 34.676941 -0.410870 2.252828 0.083595 -0.026576 -440346.000000 0 0 1
-24.390684 11.291632 -20.422950 33.756530 -0.433570 2.220571 0.102409 -0.043811 -1106620.000000 0 0 1
-24.836284 12.607832 -19.972650 34.273972 -0.469739 2.192887 0.124907 -0.047603 1206640.000000 0 0 1
-26.246444 12.873532 -19.909850 35.369560 -0.456008 2.168698 0.099951 -0.039374 418629.000000 0 0 1
-27.178624 11.935832 -19.152750 35.326612 -0.413805 2.143804 0.095698 -0.030759 -1079140.000000 0 0 1
-26.829954 11.816732 -17.784750 34.289633 -0.414868 2.116082 0.097022 -0.041070 293555.000000 0 0 1
-27.778244 11.025332 -17.126350 34.445619 -0.377836 2.091165 0.114180 -0.039045 -769251.000000 0 0 1
-27.474164 11.014832 -15.630950 33.473613 -0.381296 2.056650 0.144844 -0.039887 97207.400000 0 0 1
-26.536314 10.032432 -15.288750 32.226876 -0.361454 2.065090 0.158645 -0.043521 154780.000000 0 0 1
-25.178214 10.351632 -15.488350 31.320723 -0.390068 2.088065 0.141227 -0.035517 -1096750.000000 0 0 1
-24.315684 9.111132 -15.335050 30.156740 -0.358509 2.104252 0.098158 -0.030567 -162597.000000 0 0 1
-22.927984 9.417232 -15.500550 29.234291 -0.389723 2.129654 0.087250 -0.025697 540994.000000 0 0 1
-22.238684 8.213432 -15.193450 28.157778 -0.353791 2.140738 0.099336 -0.028439 -829394.000000 0 0 1
-20.743884 8.422232 -14.992450 26.944689 -0.385677 2.160862 0.143598 -0.038193 -742746.000000 0 0 1
-20.100984 8.711432 -16.241850 27.271529 -0.408950 2.208760 0.151215 -0.047631 -798375.000000 0 0 1
-18.756884 8.851732 -15.949850 26.164318 -0.440932 2.226356 0.159005 -0.049679 -719381.000000 0 0 1
-17.841984 9.166932 -17.233850 26.445692 -0.474614 2.280580 0.114492 -0.036996 479823.000000 0 0 1
-17.647884 8.143932 -18.222950 26.642960 -0.432350 2.323985 0.150733 -0.045434 467703.000000 0 0 1
-16.798584 7.040332 -17.863550 25.512058 -0.396865 2.346474 0.166487 -0.050197 -287828.000000 0 0 1
-16.478984 6.164832 -19.122950 25.985559 -0.357984 2.397801 0.139402 -0.050471 -106619.000000 0 0 1
-17.556584 5.475932 -19.729550 26.971737 -0.302340 2.391301 0.135598 -0.034063 -7783.090000 0 0 1
-18.415184 6.284532 -20.496350 28.261541 -0.328876 2.382177 0.113276 -0.031431 54902.100000 0 0 1
-19.434084 5.456532 -21.362050 29.390381 -0.273724 2.384503 0.099035 -0.009538 108098.000000 0 0 1
-20.445884 4.911632 -20.565550 29.412585 -0.235759 2.345087 0.092662 -0.012529 -27255.300000 0 0 1
-21.083084 3.777832 -21.085650 30.056165 -0.177306 2.348355 0.075737 0.003795 417557.000000 0 0 1
-22.114084 3.009432 -20.155350 30.072039 -0.135256 2.305322 0.081864 -0.005116 582726.000000 0 0 1
-22.630784 1.824632 -20.718450 30.736555 -0.080452 2.310495 0.077555 -0.000876 103599.000000 0 0 1
-23.603184 1.280032 -19.867250 30.878089 -0.054178 2.269740 0.080901 -0.008416 -425274.000000 0 0 1
-24.149184 -0.129368 -20.265350 31.525929 0.005357 2.268964 0.081517 0.009225 727945.000000 0 0 1
-23.119384 -1.158168 -20.251150 30.756403 0.050053 2.289536 0.063860 0.000327 798212.000000 0 0 1
-23.627684 -2.452668 -20.501250 31.378086 0.103434 2.282813 0.076292 -0.005497 -730046.000000 0 0 1
-24.240884 -2.706268 -21.873850 32.762931 0.111180 2.301831 0.077241 -0.010232 236228.000000 0 0 1
-23.366584 -2.527368 -22.992150 32.878926 0.107743 2.345211 0.059948 -0.008846 880238.000000 0 0 1
-22.240184 -3.432968 -23.083550 32.237576 0.153150 2.368916 0.057684 -0.019789 467278.000000 0 0 1
-21.350684 -3.080068 -24.260250 32.463799 0.143272 2.414788 0.064326 -0.021485 -679011.000000 0 0 1
-22.045984 -3.319768 -25.406070 33.801104 0.149461 2.421333 0.066000 -0.021493 -175305.000000 0 0 1
-21.289884 -3.129668 -26.583960 34.201767 0.145957 2.461109 0.070012 -0.027208 -261826.000000 0 0 1
-22.071184 -3.444368 -27.874750 35.721177 0.154809 2.466010 0.073794 -0.029494 -308591.000000 0 0 1
-22.559384 -4.741368 -27.842390 36.146992 0.207158 2.450037 0.074939 -0.028491 482052.000000 0 0 1
-23.436084 -5.071668 -28.929340 37.574972 0.213118 2.449496 0.044799 -0.022073 129916.000000 0 0 1
-22.842184 -6.282868 -29.759580 38.037776 0.268418 2.469257 0.057613 -0.025407 291819.000000 0 0 1
-21.723184 -6.002768 -30.582850 37.990007 0.269602 2.506511 0.045503 -0.026112 -163600.000000 0 0 1
-20.981284 -7.165368 -30.876780 38.012265 0.329094 2.518855 0.047561 -0.029604 -351136.000000 0 0 1
-19.669884 -6.623068 -31.498060 37.721308 0.324787 2.558966 0.055266 -0.028873 -580173.000000 0 0 1
-19.707984 -6.179468 -32.840580 38.795542 0.303843 2.580180 0.064759 -0.032965 211231.000000 0 0 1
-19.849684 -7.237168 -33.767820 39.832803 0.349621 2.582504 0.060119 -0.032257 -550831.000000 0 0 1
-19.705484 -6.785568 32.521474 38.626368 0.331632 0.569909 0.062307 -0.027471 611633.000000 0 0 1
-18.369584 -6.629168 32.043950 37.526021 0.346332 0.547338 0.073005 -0.029271 426615.000000 0 0 1
-17.598184 -5.528568 32.383776 37.268889 0.304392 0.517775 0.061300 -0.028407 -927066.000000 0 0 1
-16.311184 -5.512068 31.589793 35.977113 0.325883 0.499019 0.064844 -0.027799 -688121.000000 0 0 1
-16.523684 -5.321368 30.196903 34.831050 0.311557 0.521739 0.057255 -0.029472 -367848.000000 0 0 1
-15.337484 -4.979268 29.565463 33.677116 0.313913 0.499317 0.049184 -0.018765 -408654.000000 0 0 1
-15.553984 -4.960868 28.025143 32.433706 0.308746 0.527487 0.050813 -0.010970 540899.000000 0 0 1
-16.514684 -3.937268 27.711693 32.498843 0.234041 0.549668 0.046802 -0.017896 359837.000000 0 0 1
-16.908284 -3.817068 26.369503 31.556470 0.222029 0.581519 0.059776 -0.014279 60379.000000 0 0 1
-15.834284 -3.270968 25.390833 30.101797 0.203710 0.567032 0.054706 -0.008689 146166.000000 0 0 1
-15.795984 -1.861968 25.323163 29.903890 0.117335 0.560822 0.052175 -0.008036 -484631.000000 0 0 1
-14.776484 -1.495768 24.466153 28.621224 0.100883 0.545582 0.046240 -0.009200 -549504.000000 0 0 1
-14.592084 0.039732 24.396203 28.427192 -0.002723 0.539044 0.039408 -0.000893 -41148.200000 0 0 1
-15.697584 0.587532 23.708703 28.440498 -0.037411 0.585158 0.040792 -0.010393 141635.000000 0 0 1
-15.936284 1.888332 24.218883 29.053145 -0.117943 0.585192 0.026018 -0.007989 294095.000000 0 0 1
-16.844784 2.835232 23.377783 28.953515 -0.166752 0.631022 0.044264 -0.010819 584555.000000 0 0 1
-16.039484 3.341532 22.289673 27.663341 -0.205394 0.633859 0.056601 -0.010620 930962.000000 0 0 1
-16.770784 4.171132 21.422073 27.523858 -0.243768 0.678828 0.073205 -0.012003 -146726.000000 0 0 1
-15.801784 4.685732 20.328573 26.170658 -0.288272 0.681276 0.064223 -0.008537 253151.000000 0 0 1
-14.876484 5.602932 20.873973 26.237862 -0.360199 0.650854 0.072231 -0.011345 18554.200000 0 0 1
-13.657184 5.632832 20.179273 25.009009 -0.391188 0.631945 0.055233 -0.008034 91402.900000 0 0 1
-12.579084 6.654032 20.586573 25.026316 -0.486559 0.604833 0.043101 -0.003980 173979.000000 0 0 1
-12.909784 8.035732 20.448073 25.482528 -0.556766 0.639432 0.052886 -0.002842 55846.400000 0 0 1
-11.732584 8.827232 20.408773 25.141432 -0.645016 0.623639 0.036158 -0.001983 218871.000000 0 0 1
-11.973684 10.340732 20.562573 25.944542 -0.712349 0.655803 0.022480 -0.002288 -133801.000000 0 0 1
-12.643384 10.940132 19.495473 25.682973 -0.713301 0.708895 0.035517 -0.003422 74490.600000 0 0 1
-13.097284 12.234532 19.793173 26.701916 -0.751353 0.735845 0.021115 0.001583 -365387.000000 0 0 1
-13.505084 12.938632 18.530573 26.328267 -0.763980 0.790024 0.032233 -0.005292 -168374.000000 0 0 1
-12.471984 13.632932 17.832973 25.679216 -0.829841 0.803139 0.024322 -0.012563 237206.000000 0 0 1
-12.253384 15.003132 18.194373 26.575828 -0.885942 0.816713 0.028641 -0.012922 322725.000000 0 0 1
-13.287584 16.057032 17.568773 27.258943 -0.879496 0.870409 0.030220 -0.016208 513033.000000 0 0 1
-13.236784 16.421032 16.191273 26.589849 -0.892355 0.916089 0.008550 -0.023383 249037.000000 0 0 1
-13.840684 15.371432 15.354373 25.760478 -0.837751 0.932231 0.035204 -0.018402 58656.800000 0 0 1
-14.029184 15.864032 13.930573 25.348499 -0.846701 0.988956 0.016249 -0.023925 -42290.500000 0 0 1
-15.041284 16.858132 13.886873 26.519466 -0.842292 1.019669 0.015046 -0.020489 -78828.600000 0 0 1
-15.257184 17.334532 12.607973 26.310239 -0.849051 1.071049 -0.004258 -0.011190 89053.300000 0 0 1
-16.598084 18.079132 12.487573 27.537082 -0.828082 1.100128 0.027759 -0.019988 1107940.000000 0 0 1
-17.836784 17.333132 12.683873 27.918972 -0.771079 1.099199 0.052590 -0.026164 430370.000000 0 0 1
-18.855084 18.201432 13.044073 29.273780 -0.767761 1.108964 0.079339 -0.028265 -127645.000000 0 0 1
-20.118684 17.363732 13.421573 29.772458 -0.712030 1.103129 0.101669 -0.027803 213506.000000 0 0 1
-20.763384 16.831332 12.301773 29.423553 -0.681187 1.139452 0.114250 -0.030584 -549859.000000 0 0 1
-22.020084 16.326732 12.707173 30.214542 -0.638005 1.136729 0.161866 -0.046562 41113.600000 0 0 1
-22.862984 15.833632 11.525673 30.104171 -0.605705 1.177906 0.148833 -0.039272 159610.000000 0 0 1
-22.288984 14.669532 10.895373 28.821921 -0.582084 1.183136 0.127989 -0.036482 625276.000000 0 0 1
-23.071184 14.308032 9.739773 28.842027 -0.555118 1.226331 0.146786 -0.028776 365971.000000 0 0 1
-22.450984 13.078732 9.081473 27.524045 -0.527487 1.234549 0.150128 -0.029270 -703053.000000 0 0 1
-22.553684 11.855532 9.845673 27.315922 -0.483963 1.202060 0.142247 -0.032810 464203.000000 0 0 1
-23.853784 11.335732 10.102873 28.276667 -0.443626 1.205435 0.174486 -0.030564 757862.000000 0 0 1
-24.753684 10.982232 8.858273 28.492513 -0.417570 1.254658 0.199822 -0.031842 -236552.000000 0 0 1
-25.221454 12.088632 8.049873 29.104248 -0.446951 1.290555 0.202681 -0.031425 820680.000000 0 0 1
-26.360914 11.564132 7.330573 29.704616 -0.413404 1.321438 0.236331 -0.037015 -51469.800000 0 0 1
-26.668114 12.494132 6.166873 30.088569 -0.438135 1.364376 0.207686 -0.036659 -249048.000000 0 0 1
-25.781794 12.560832 5.032873 29.117095 -0.453353 1.397074 0.215581 -0.047262 400439.000000 0 0 1
-24.487684 13.039532 5.287673 28.242442 -0.489303 1.382461 0.207165 -0.054363 -789903.000000 0 0 1
-24.394084 14.606932 5.543073 28.968249 -0.539529 1.378259 0.195400 -0.043576 35121.400000 0 0 1
-23.100984 15.102732 5.936473 28.231006 -0.579021 1.358933 0.149005 -0.045344 775477.000000 0 0 1
-23.196684 16.394632 6.474573 29.134004 -0.615253 1.346691 0.147462 -0.043759 193570.000000 0 0 1
-21.867784 17.197232 6.512073 28.571872 -0.666405 1.340856 0.122722 -0.031783 344951.000000 0 0 1
-21.430384 17.627832 5.183873 28.228963 -0.688348 1.386112 0.141700 -0.050412 479258.000000 0 0 1
-20.106284 18.116832 5.212073 27.561712 -0.733397 1.380545 0.128815 -0.036487 -7077.890000 0 0 1
-19.483684 18.664132 3.889173 27.259667 -0.763918 1.427636 0.112398 -0.037536 -238931.000000 0 0 1
-18.128484 19.006132 4.003073 26.568771 -0.809028 1.419552 0.094127 -0.039431 -53596.900000 0 0 1
-17.592284 19.958332 3.077873 26.782397 -0.848325 1.455620 0.103189 -0.040375 87394.300000 0 0 1
-17.799484 21.398332 3.525373 28.055989 -0.876954 1.444808 0.119777 -0.049211 -110573.000000 0 0 1
-17.140584 21.798032 4.699373 28.125397 -0.904443 1.402922 0.077513 -0.043146 42114.600000 0 0 1
-17.611984 23.087332 5.010273 29.467096 -0.919127 1.399937 0.064191 -0.040755 -182087.000000 0 0 1
-16.967784 23.682632 6.295373 29.806115 -0.949105 1.357983 0.033973 -0.012587 80575.000000 0 0 1
-17.343684 23.071632 7.520073 29.827086 -0.926188 1.315924 0.034970 -0.010884 635103.000000 0 0 1
-16.393284 23.384032 8.568873 29.815739 -0.959369 1.279291 0.028063 -0.016849 596279.000000 0 0 1
-16.770484 22.708132 9.896173 29.913921 -0.934681 1.233622 0.008101 -0.002938 -211363.000000 0 0 1
-17.885984 23.328932 10.453173 31.199621 -0.916701 1.229147 0.013048 -0.008131 -585762.000000 0 0 1
-18.607384 22.479032 11.325673 31.301957 -0.879353 1.200577 0.019102 -0.007429 72457.100000 0 0 1
-19.842784 23.161432 11.949073 32.756196 -0.862416 1.197391 0.044477 -0.017706 -331333.000000 0 0 1
-20.867484 23.712132 11.153573 33.498049 -0.849122 1.231353 0.081639 -0.009689 72144.700000 0 0 1
-20.529384 24.908432 10.450173 33.927743 -0.881476 1.257693 0.029611 -0.005935 -838970.000000 0 0 1
-21.704184 25.546732 9.709373 34.899557 -0.866542 1.288867 0.054827 -0.012960 531615.000000 0 0 1
-22.682484 26.094032 10.635573 36.173319 -0.855227 1.272369 0.085765 -0.032894 625090.000000 0 0 1
-23.579984 26.998232 10.017073 37.219107 -0.852879 1.298299 0.096751 -0.026473 148002.000000 0 0 1
-24.433084 27.744832 11.129573 38.608532 -0.848783 1.278380 0.106822 -0.031019 -77955.500000 0 0 1
-23.724884 28.629032 11.949773 39.054944 -0.878799 1.259836 0.107835 -0.032255 184440.000000 0 0 1
-24.594684 29.372432 12.778773 40.384840 -0.873699 1.248838 0.099941 -0.031185 -65453.400000 0 0 1
9.682916 -32.289542 27.759683 43.668906 -1.279452 0.881900 0.057691 -0.034389 -260676.000000 0 0 1
11.047416 -32.399942 27.442003 43.873285 -1.242188 0.895046 0.066751 -0.044974 241051.000000 0 0 1
11.159716 -31.988942 26.103843 42.769642 -1.235136 0.914312 0.079372 -0.036942 3227.610000 0 0 1
12.636216 -31.956842 25.637103 42.873940 -1.194249 0.929837 0.055835 -0.035009 -20967.600000 0 0 1
13.148116 -33.245542 25.542553 43.938150 -1.194188 0.950434 0.084500 -0.044879 -220389.000000 0 0 1
14.536216 -33.239342 25.320963 44.241458 -1.158537 0.961445 0.091474 -0.040553 28887.100000 0 0 1
15.230616 33.059032 25.214863 44.279347 1.139072 0.964960 0.113439 -0.032261 81345.000000 0 0 1
15.294816 32.555232 23.952933 43.214784 1.131590 0.983303 0.100492 -0.040802 289385.000000 0 0 1
16.354916 31.621732 23.945753 42.904736 1.093480 0.978685 0.101841 -0.032620 -222414.000000 0 0 1
16.641416 30.958532 22.584373 41.778240 1.077570 0.999673 0.096716 -0.039547 -517837.000000 0 0 1
15.682816 30.094032 22.059973 40.475226 1.090390 0.994378 0.099181 -0.033864 -413111.000000 0 0 1
15.803716 28.695432 22.431473 39.703353 1.067385 0.970391 0.101030 -0.029627 -105356.000000 0 0 1
15.327416 28.224232 23.851403 40.005330 1.073298 0.932030 0.099626 -0.035975 -398074.000000 0 0 1
16.171816 28.515532 24.934453 41.187257 1.054902 0.920538 0.096418 -0.031146 -180796.000000 0 0 1
15.642816 28.227832 26.193763 41.564666 1.064763 0.888995 0.098088 -0.031142 -217964.000000 0 0 1
16.617116 28.596132 27.367213 42.928216 1.044392 0.879533 0.111825 -0.033790 378769.000000 0 0 1
16.546316 29.989132 27.525793 43.940846 1.066615 0.893834 0.120047 -0.045276 253056.000000 0 0 1
17.366916 30.344732 28.622973 45.185032 1.050978 0.884778 0.140592 -0.048440 56217.400000 0 0 1
17.218816 31.800432 29.079703 46.404572 1.074530 0.893542 0.140502 -0.049841 100424.000000 0 0 1
17.904516 32.704932 28.232673 46.768238 1.069908 0.922697 0.129070 -0.047788 278840.000000 0 0 1
17.312916 -33.703742 28.349043 47.321745 -1.096265 0.928457 0.130505 -0.038967 268432.000000 0 0 1
18.119216 -32.590042 27.586833 46.383728 -1.063378 0.933839 0.108849 -0.040911 -606309.000000 0 0 1
17.959916 -32.619542 26.147123 45.500166 -1.067502 0.958608 0.120850 -0.037515 85421.200000 0 0 1
18.409816 -31.420042 25.573863 44.499021 -1.040790 0.958551 0.126828 -0.042690 -779636.000000 0 0 1
19.886616 -31.036542 25.592773 44.874653 -1.000952 0.963905 0.132978 -0.039696 -827028.000000 0 0 1
20.276416 -30.409542 26.792123 45.317669 -0.982717 0.938242 0.124112 -0.038044 -381024.000000 0 0 1
21.429916 -29.641142 26.707533 45.289413 -0.944814 0.940099 0.138226 -0.038800 -533640.000000 0 0 1
21.545416 -28.771042 27.912463 45.509157 -0.928027 0.910517 0.132988 -0.041062 842374.000000 0 0 1
20.343116 -27.950342 27.995033 44.483546 -0.941635 0.890100 0.142134 -0.038134 1057700.000000 0 0 1
20.430616 -26.983842 29.015713 44.580819 -0.922740 0.862084 0.146116 -0.035352 -33390.800000 0 0 1
19.084516 -26.500242 29.610483 44.082449 -0.946665 0.834286 0.145531 -0.042699 315835.000000 0 0 1
18.320816 -25.740742 28.698963 42.683353 -0.952232 0.833392 0.136627 -0.038956 172560.000000 0 0 1
17.080916 -25.232442 29.126253 42.151779 -0.975713 0.807945 0.127114 -0.030357 132660.000000 0 0 1
16.197316 -24.589942 27.996123 40.630053 -0.988332 0.810619 0.121484 -0.032658 -323550.000000 0 0 1
15.678916 -25.584642 27.103323 40.435040 -1.021000 0.836193 0.110277 -0.030264 441157.000000 0 0 1
14.914116 -25.103142 26.003553 39.099659 -1.034716 0.843224 0.111638 -0.035559 1661100.000000 0 0 1
13.422416 -24.577142 26.397743 38.484257 -1.070926 0.814907 0.061526 -0.029559 2084060.000000 0 0 1
12.471916 -25.544842 26.873253 39.118530 -1.116604 0.813485 0.064151 -0.027317 626876.000000 0 0 1
12.161016 -26.610742 25.952343 39.109411 -1.142139 0.845198 0.047955 -0.030723 -1153560.000000 0 0 1
11.243316 -27.701542 26.466943 39.928519 -1.185237 0.846167 0.065230 -0.033096 -1673510.000000 0 0 1
9.941216 -27.337942 26.607933 39.423000 -1.222021 0.829921 0.051982 -0.039926 -1911170.000000 0 0 1
9.167416 -28.486842 26.620293 40.052237 -1.259450 0.843785 0.043654 -0.036468 -757626.000000 0 0 1
7.673116 -28.166242 26.852663 39.664586 -1.304828 0.827127 0.050773 -0.037294 296164.000000 0 0 1
6.813716 -27.877942 25.724353 38.540222 -1.331083 0.839993 0.065823 -0.036080 461304.000000 0 0 1
7.266016 -26.814642 24.901913 37.308515 -1.306179 0.840005 0.072704 -0.030569 -683951.000000 0 0 1
6.274916 -26.312542 23.769533 36.009931 -1.336693 0.849867 0.065188 -0.017961 -225450.000000 0 0 1
6.063316 -27.269242 22.736573 36.018427 -1.352006 0.887635 0.072184 -0.014715 -287238.000000 0 0 1
5.413116 -28.478342 22.932083 36.962119 -1.382959 0.901517 0.067498 -0.022503 -289159.000000 0 0 1
3.941516 -28.414342 23.452663 37.053175 -1.432960 0.885444 0.106046 -0.025463 -579000.000000 0 0 1
3.007616 -28.217042 22.406073 36.156318 -1.464609 0.902436 0.117920 -0.024490 252066.000000 0 0 1
1.688916 -27.947042 22.836353 36.130162 -1.510437 0.886590 0.138807 -0.021587 49446.200000 0 0 1
1.415716 -26.568642 23.458633 35.471178 -1.517561 0.848188 0.129496 -0.023978 -942262.000000 0 0 1
1.723716 -26.576242 24.838443 36.417250 -1.506028 0.820232 0.097597 -0.021038 207460.000000 0 0 1
1.480016 -25.288642 25.390123 35.865920 -1.512338 0.784251 0.096153 -0.014728 -436116.000000 0 0 1
2.698616 -24.743442 26.124913 36.083674 -1.462162 0.761199 0.094444 -0.015963 -430464.000000 0 0 1
3.839316 -24.470742 25.343223 35.437784 -1.415171 0.773962 0.087264 -0.016338 190496.000000 0 0 1
4.893616 -23.837042 26.064083 35.657937 -1.368315 0.751087 0.066396 -0.016211 165221.000000 0 0 1
4.797516 -22.352442 26.505043 35.002359 -1.359373 0.711726 0.072483 -0.016665 -472525.000000 0 0 1
4.846416 -21.545242 25.341763 33.613839 -1.349538 0.716805 0.064756 -0.014803 251782.000000 0 0 1
4.359716 -20.240242 25.624793 32.943961 -1.358639 0.679591 0.085044 -0.027172 -130482.000000 0 0 1
4.341816 -19.245142 24.447553 31.415119 -1.348905 0.678986 0.089419 -0.029170 204138.000000 0 0 1
5.612616 -18.769042 24.042273 31.013050 -1.280224 0.683716 0.067251 -0.014765 177635.000000 0 0 1
5.451016 -17.832042 23.007963 29.615227 -1.274131 0.681075 0.073772 -0.013403 1489020.000000 0 0 1
6.906816 -17.299242 22.634573 29.313679 -1.190932 0.688578 0.102365 -0.016689 923817.000000 0 0 1
7.637616 -18.243042 21.913173 29.518281 -1.174309 0.734211 0.108958 -0.014839 -981094.000000 0 0 1
8.760616 -17.847342 21.233773 29.088643 -1.114484 0.752521 0.094305 -0.014047 291558.000000 0 0 1
10.097116 -17.638342 22.047473 29.985896 -1.050879 0.744744 0.112773 -0.010159 260934.000000 0 0 1
10.066016 -16.619642 23.058303 30.153317 -1.026218 0.700218 0.125277 -0.004042 583839.000000 0 0 1
11.259216 -16.751842 23.850943 31.245186 -0.979029 0.702317 0.128064 -0.007509 662910.000000 0 0 1
11.289416 -15.864542 25.124523 31.786416 -0.952319 0.659307 0.139970 -0.025971 -84730.500000 0 0 1
11.441416 -14.496042 24.815113 30.932686 -0.902627 0.639776 0.167660 -0.026682 222969.000000 0 0 1
11.479716 -13.729842 26.012293 31.574227 -0.874419 0.602634 0.147600 -0.021506 21339.500000 0 0 1
11.583516 -12.182542 26.008183 30.968012 -0.810598 0.573807 0.161884 -0.021024 367537.000000 0 0 1
10.307416 -11.655442 25.695053 30.038773 -0.846699 0.544481 0.166962 -0.014137 300133.000000 0 0 1
10.403016 -10.250942 25.614113 29.485375 -0.778035 0.518213 0.167466 -0.010404 153418.000000 0 0 1
9.208616 -9.688642 24.829523 28.198823 -0.810795 0.493846 0.159632 -0.008802 -116115.000000 0 0 1
8.009116 -9.527042 25.536823 28.408446 -0.871743 0.453506 0.128599 -0.013423 125171.000000 0 0 1
6.973316 -9.176042 24.584583 27.151954 -0.920959 0.438371 0.113197 -0.008891 1053970.000000 0 0 1
5.564316 -9.098442 25.255983 27.415469 -1.021914 0.399563 0.073116 -0.017551 -351103.000000 0 0 1
5.432916 -7.981942 26.129733 27.856614 -0.973175 0.353958 0.087364 -0.007230 965659.000000 0 0 1
4.170216 -7.840142 26.830413 28.261805 -1.081951 0.319628 0.069221 -0.010892 1178980.000000 0 0 1
2.841916 -7.812042 26.057313 27.351198 -1.221893 0.308817 0.043767 -0.010834 -580092.000000 0 0 1
2.733016 -6.669342 25.278053 26.285537 -1.181881 0.277762 0.055897 -0.013762 -645564.000000 0 0 1
1.616116 -6.658342 24.458563 25.400131 -1.332681 0.273133 0.041704 -0.015014 -342239.000000 0 0 1
1.789216 -5.504042 23.434453 24.138545 -1.256498 0.242123 0.038916 -0.029312 50048.000000 0 1 0
1.581416 -4.233142 24.041843 24.462841 -1.213271 0.185792 0.055491 -0.028357 -38745.200000 0 1 0
2.017416 -3.149442 23.224423 23.523664 -1.001084 0.159674 0.052992 -0.034547 -174995.000000 0 1 0
0.975016 -2.487942 22.191073 22.351381 -1.197295 0.119840 0.037936 -0.038230 1352960.000000 0 1 0
-0.138484 -1.782942 22.776773 22.846870 1.493280 0.078354 0.042543 -0.036291 632618.000000 0 1 0
-1.110084 -2.524942 23.481873 23.643307 1.156585 0.116925 0.042627 -0.031864 -15709.800000 0 1 0
-2.283184 -1.593942 23.943303 24.104675 0.609465 0.115777 0.053056 -0.039930 194120.000000 0 1 0
-1.860484 -0.692942 24.898123 24.977152 0.356535 0.079570 0.059780 -0.039125 -105807.000000 0 1 0
-2.830484 0.244058 25.312663 25.471594 -0.086012 0.111768 0.057458 -0.036254 -501274.000000 0 0 1
-2.332284 1.186058 26.435513 26.564688 -0.470456 0.098657 0.098567 -0.040655 -238993.000000 0 0 1
-2.416184 0.718058 27.744333 27.858600 -0.288874 0.090603 0.121351 -0.035528 733788.000000 0 0 1
-1.458684 -0.344942 28.012113 28.052188 0.232209 0.053459 0.117350 -0.041538 921040.000000 0 0 1
-0.052584 0.116058 28.568393 28.568677 -1.145382 0.004460 0.133468 -0.039762 64320.700000 0 0 1
0.801616 0.781058 27.693943 27.716550 0.772410 0.040392 0.099924 -0.035633 314484.000000 0 0 1
1.599616 -0.065942 26.836243 26.883956 -0.041200 0.059587 0.094512 -0.040844 356933.000000 0 0 1
2.759116 -0.911942 27.455783 27.609136 -0.319216 0.105447 0.098140 -0.042441 -487804.000000 0 0 1
2.413316 -2.101942 28.150523 28.331859 -0.716547 0.113201 0.112986 -0.044582 467348.000000 0 0 1
3.482116 -3.027642 28.466253 28.837811 -0.715697 0.160699 0.122781 -0.030895 770857.000000 0 0 1
4.021016 -3.927642 27.284833 27.857801 -0.773652 0.203167 0.114757 -0.033610 352979.000000 0 0 1
4.820316 -3.226742 26.334893 26.966162 -0.589896 0.216802 0.111145 -0.022447 -114092.000000 0 0 1
5.222916 -4.100842 25.333963 26.189797 -0.665628 0.256350 0.092157 -0.016920 -182563.000000 0 0 1
6.565416 -3.676642 24.638333 25.761790 -0.510489 0.296412 0.076570 -0.016207 59317.200000 0 0 1
7.653116 -3.763242 25.530283 26.917049 -0.457007 0.322393 0.089962 -0.015450 132052.000000 0 0 1
8.256416 -5.101142 25.610803 27.388014 -0.553434 0.362227 0.119507 -0.015966 75253.400000 0 0 1
9.255316 -5.527442 24.512373 26.778161 -0.538371 0.414329 0.108896 -0.024991 204513.000000 0 0 1
8.573716 -5.911342 23.287793 25.510270 -0.603626 0.420514 0.098149 -0.022027 435667.000000 0 0 1
9.378316 -5.724542 22.123173 24.701376 -0.548033 0.460962 0.103731 -0.020420 256258.000000 0 1 0
9.430116 -4.200942 21.673773 24.006821 -0.419090 0.444520 0.107687 -0.024121 1289270.000000 0 1 0
8.084416 -3.735542 21.425073 23.202280 -0.432843 0.393940 0.070793 -0.024011 867475.000000 0 1 0
8.117416 -2.550942 20.623073 22.309435 -0.304483 0.391310 0.063685 -0.026694 -84062.100000 0 1 0
6.720816 -1.980942 20.345073 21.517795 -0.286631 0.331670 0.064258 -0.020552 -316370.000000 0 1 0
6.099116 -1.507942 21.486873 22.386577 -0.242379 0.284470 0.068317 -0.023107 -84534.600000 0 1 0
4.833116 -0.942942 21.204173 21.768443 -0.192680 0.228185 0.023537 -0.014735 -70671.700000 0 1 0
4.291816 -0.349942 22.548273 22.955757 -0.081357 0.188699 0.027202 -0.026296 -251676.000000 0 1 0
3.073616 0.338058 22.344573 22.557512 0.109547 0.137512 0.028811 -0.026949 -184495.000000 0 1 0
2.560016 0.723058 23.610003 23.759393 0.275272 0.112198 0.045587 -0.027761 282011.000000 0 1 0
1.089616 1.197058 23.406993 23.462897 0.832350 0.069045 0.048337 -0.038880 171759.000000 0 1 0
0.832516 2.533058 23.207473 23.360143 1.253257 0.114391 0.051044 -0.026410 310721.000000 0 1 0
-0.558784 2.808058 23.168723 23.344960 -1.374369 0.122953 0.044461 -0.025048 271894.000000 0 1 0
-0.899584 4.283058 22.657073 23.075892 -1.363772 0.190813 0.056216 -0.023206 -89074.400000 0 1 0
-0.616984 5.435058 23.463633 24.092792 -1.457761 0.229035 0.072376 -0.026066 -217932.000000 0 1 0
-1.318184 6.584058 23.016193 23.975666 -1.373200 0.283861 0.069858 -0.027159 16766.900000 0 1 0
-1.047784 7.840058 23.869163 25.145602 -1.437939 0.319992 0.087779 -0.026351 -603548.000000 0 0 1
0.138216 8.513058 23.626093 25.113414 1.554562 0.345885 0.079358 -0.020536 -735713.000000 0 0 1
0.068316 9.764058 24.325483 26.212032 1.563800 0.381714 0.099310 -0.023529 -905200.000000 0 0 1
0.705816 10.885058 23.460153 25.872021 1.506044 0.435221 0.095749 -0.030723 713635.000000 0 0 1
2.130916 10.936058 23.375233 25.894781 1.378355 0.444791 0.076041 -0.023747 469460.000000 0 0 1
2.761816 11.234058 24.603203 27.187300 1.329734 0.439529 0.094050 -0.030032 -1418570.000000 0 0 1
4.054716 12.052058 24.481483 27.586878 1.246258 0.479052 0.077757 -0.031666 1160850.000000 0 0 1
5.316916 11.379058 24.172963 27.241232 1.133687 0.479194 0.074119 -0.023719 1360020.000000 0 0 1
5.327216 10.603058 22.963233 25.847904 1.105213 0.476952 0.080728 -0.025072 -605532.000000 0 0 1
6.752616 10.289058 22.427173 25.582037 0.990011 0.501886 0.073167 -0.017436 147676.000000 0 0 1
7.440316 11.372058 21.955273 25.820845 0.991430 0.554255 0.065419 -0.017901 367105.000000 0 0 1
8.723716 11.046058 21.404973 25.618187 0.902332 0.581685 0.069624 -0.008961 688377.000000 0 0 1
9.467216 12.184058 20.708173 25.824560 0.910228 0.640363 0.064420 -0.026791 -405722.000000 0 0 1
9.002716 12.544058 19.411173 24.803144 0.948298 0.671950 0.061650 -0.027089 263844.000000 0 1 0
9.859416 13.451058 18.721973 25.072920 0.938274 0.727708 0.075405 -0.024324 208035.000000 0 0 1
11.184716 12.898058 18.122173 24.897207 0.856422 0.755572 0.069570 -0.021330 510029.000000 0 1 0
12.198516 12.713058 19.126173 26.004541 0.806050 0.744401 0.068852 -0.023611 645815.000000 0 0 1
13.373316 12.177058 18.488873 25.864353 0.738613 0.774401 0.068635 -0.022317 181584.000000 0 0 1
14.482616 11.894058 19.491473 27.039458 0.687573 0.765764 0.072787 -0.009882 -140732.000000 0 0 1
15.130916 13.101058 19.954673 28.262543 0.713622 0.786896 0.073673 -0.009043 983369.000000 0 0 1
16.303416 12.783058 20.747773 29.320267 0.664953 0.784664 0.073352 -0.005952 1064900.000000 0 0 1
17.075016 13.985058 21.336873 30.698537 0.686241 0.802313 0.074248 -0.007258 -106806.000000 0 0 1
16.455716 14.617058 22.408773 31.410223 0.726294 0.776425 0.084950 -0.016409 -171188.000000 0 0 1
17.253216 15.644058 22.937513 32.688523 0.736522 0.793017 0.093433 -0.017371 -142828.000000 0 0 1
-21.681784 12.677732 -24.129450 34.828939 -0.529107 2.336159 0.052081 -0.014055 50418.200000 0 0 1
-21.607184 12.775732 -25.534190 35.806208 -0.533977 2.364738 0.060101 -0.026466 286223.000000 0 0 1
-22.522384 13.745532 -26.043390 37.073651 -0.547963 2.349668 0.066392 -0.029506 316851.000000 0 0 1
-22.243284 13.923332 -27.566220 38.059418 -0.559287 2.380807 0.073132 -0.018152 392772.000000 0 0 1
-20.950484 14.457432 -27.808140 37.699241 -0.604035 2.400352 0.083020 -0.022759 44675.000000 0 0 1
-20.765884 14.809432 -29.207300 38.776379 -0.619505 2.423746 0.090201 -0.026983 462052.000000 0 0 1
-19.343284 15.371032 -29.540130 38.510395 -0.671467 2.445056 0.079262 -0.025494 107195.000000 0 0 1
-18.450584 14.349832 -29.936940 37.981075 -0.661022 2.478686 0.078818 -0.017875 -226593.000000 0 0 1
-17.151684 14.943032 -30.051070 37.690068 -0.716690 2.493639 0.073127 -0.017192 441747.000000 0 0 1
-16.219084 14.405332 -28.934910 36.163535 -0.726242 2.498280 0.090774 -0.014152 -534484.000000 0 0 1
-16.581584 14.473532 -27.554570 35.265938 -0.717621 2.467601 0.094866 -0.026673 -355902.000000 0 0 1
-17.194684 13.265432 -27.001510 34.651268 -0.657110 2.464242 0.097578 -0.021687 386134.000000 0 0 1
-17.960684 13.625532 -25.688680 34.178203 -0.649002 2.421296 0.087343 -0.028624 -120146.000000 0 0 1
-17.111484 14.002232 -24.634950 33.102056 -0.685797 2.410151 0.129432 -0.040573 114234.000000 0 0 1
-17.801284 14.640732 -23.540650 32.945393 -0.688283 2.366756 0.108561 -0.034163 62267.500000 0 0 1
-16.817084 15.089332 -22.432950 31.839276 -0.731300 2.352611 0.108576 -0.032535 106094.000000 0 0 1
-16.111484 16.218132 -22.868850 32.335615 -0.788697 2.356375 0.093959 -0.034235 -241585.000000 0 0 1
-15.547684 16.986732 -21.779550 31.695872 -0.829601 2.328344 0.093495 -0.026907 -503439.000000 0 0 1
-15.286884 18.432432 -22.232950 32.676405 -0.878415 2.319101 0.091336 -0.028459 -332632.000000 0 0 1
-16.298484 19.388932 -22.173650 33.663660 -0.871780 2.289862 0.063950 -0.026245 164171.000000 0 0 1
-17.431484 19.059632 -23.008350 34.590611 -0.829986 2.298507 0.044025 -0.028191 814490.000000 0 0 1
-18.731284 19.904232 -22.745150 35.558140 -0.815748 2.264853 0.034936 -0.023372 424405.000000 0 0 1
-18.751284 21.241132 -23.248550 36.650940 -0.847576 2.257929 0.039628 -0.018095 404610.000000 0 0 1
-20.023784 21.892532 -23.231850 37.682273 -0.829951 2.235111 0.065544 -0.032013 504113.000000 0 0 1
-19.756584 23.409632 -23.448150 38.576537 -0.869824 2.224127 0.058751 -0.031701 71561.000000 0 0 1
-19.109284 24.014932 -22.360750 37.972159 -0.898667 2.200459 0.060432 -0.039179 -533392.000000 0 0 1
-18.505684 25.223132 -22.667450 38.632629 -0.937823 2.197828 0.055564 -0.024353 -268234.000000 0 0 1
-17.328984 25.387032 -21.659450 37.602219 -0.971849 2.184642 0.061592 -0.030338 366730.000000 0 0 1
-16.130584 24.633532 -21.799950 36.636654 -0.991039 2.208101 0.077049 -0.044671 197874.000000 0 0 1
-16.284584 23.266532 -21.575750 35.665560 -0.960128 2.220495 0.083553 -0.030351 -542103.000000 0 0 1
-14.958884 22.438532 -21.512550 34.497039 -0.982798 2.244143 0.112226 -0.032602 625175.000000 0 0 1
-14.122584 22.834932 -20.437750 33.742897 -1.016911 2.221430 0.138184 -0.046689 -98445.900000 0 0 1
-13.140684 21.863732 -20.162350 32.514930 -1.029622 2.239660 0.132864 -0.042043 -155554.000000 0 0 1
-12.401284 22.086432 -18.807950 31.549030 -1.059175 2.209493 0.129046 -0.047721 45953.800000 0 0 1
-13.153884 21.967332 -17.597250 31.068498 -1.031265 2.172929 0.146819 -0.047885 -226917.000000 0 0 1
-13.964384 23.088532 -17.381650 32.096824 -1.026841 2.143062 0.152049 -0.055855 -297968.000000 0 0 1
-14.601384 23.166332 -15.959450 31.695164 -1.008406 2.098475 0.155838 -0.060366 -25138.700000 0 0 1
-13.737784 23.450832 -14.867550 30.979223 -1.040874 2.071360 0.154093 -0.067841 -77768.100000 0 0 1
-14.440984 23.616132 -13.646350 30.862381 -1.021972 2.028810 0.155253 -0.054818 -175971.000000 0 0 1
-13.538984 23.836432 -12.409950 30.091302 -1.054242 1.995894 0.181219 -0.048922 53359.700000 0 0 1
-12.903484 25.143132 -12.443650 30.879142 -1.096644 1.985566 0.170409 -0.054773 153548.000000 0 0 1
-11.944484 25.327932 -11.455250 30.255538 -1.130131 1.959098 0.106388 -0.046962 -110366.000000 0 0 1
-11.432684 26.794832 -11.363550 31.269787 -1.167508 1.942715 0.137172 -0.041538 -55507.800000 0 0 1
-10.859684 27.203432 -12.569450 31.873979 -1.190977 1.976155 0.127680 -0.039300 -221153.000000 0 0 1
-10.727684 28.637632 -12.595150 33.073176 -1.212376 1.961487 0.103867 -0.041601 -815443.000000 0 0 1
-10.208884 29.028732 -13.963950 33.791722 -1.232624 1.996801 0.132435 -0.050580 1604170.000000 0 0 1
-8.801484 28.821132 -14.281950 33.348131 -1.274408 2.013372 0.117802 -0.049068 1208290.000000 0 0 1
-8.273484 27.525232 -14.173050 32.046283 -1.278809 2.028922 0.121115 -0.050033 -1090280.000000 0 0 1
-6.890984 27.441032 -14.797150 31.928851 -1.324764 2.052671 0.125748 -0.053873 -125304.000000 0 0 1
-5.889684 28.267232 -14.242850 32.196018 -1.365378 2.029046 0.108483 -0.047627 24871.000000 0 0 1
-4.602084 27.929432 -14.759250 31.922842 -1.407488 2.051430 0.116259 -0.050205 1255260.000000 0 0 1
-3.407484 28.827432 -14.257450 32.340480 -1.453139 2.027347 0.091606 -0.039076 527747.000000 0 0 1
-3.516984 30.195832 -14.611850 33.729269 -1.454846 2.018847 0.076850 -0.028764 -71282.500000 0 0 1
-4.506184 30.896232 -13.881750 34.169955 -1.425969 1.989149 0.060086 -0.029205 140561.000000 0 0 1
-4.441684 32.434032 -14.259050 35.707359 -1.434698 1.981583 0.055272 -0.027677 38492.400000 0 0 1
-3.434584 33.156232 -13.592350 35.998390 -1.467577 1.957980 0.033623 -0.028090 -183895.000000 0 0 1
-3.651484 -33.191842 -13.782250 36.124536 1.461225 1.962237 0.030160 -0.023049 188103.000000 0 0 1
-2.790884 -32.219842 -12.954950 34.838742 1.484392 1.951803 0.033388 -0.020854 -395143.000000 0 0 1
-3.046384 -32.342242 -11.583350 34.488767 1.476881 1.913313 0.030795 -0.029171 -204594.000000 0 0 1
-2.185684 -31.608642 -10.775250 33.466244 1.501758 1.898610 0.031336 -0.030477 -450069.000000 0 0 1
-2.624784 -31.600942 -9.300250 33.045479 1.487926 1.856089 0.030268 -0.027142 -317413.000000 0 0 1
-1.754184 -30.836642 -8.506850 32.036575 1.513971 1.839556 0.034325 -0.024914 -172590.000000 0 0 1
-2.101784 -30.882442 -7.124750 31.763261 1.502844 1.797029 0.044124 -0.037122 634338.000000 0 0 1
-0.949884 -30.295142 -6.220850 30.941830 1.539452 1.773226 0.067187 -0.033902 556391.000000 0 0 1
-1.106084 -30.500542 -4.867050 30.906223 1.534548 1.728933 0.088209 -0.037537 -776763.000000 0 0 1
-0.005084 -30.031742 -4.160050 30.318502 1.570627 1.708442 0.077022 -0.028223 -523660.000000 0 0 1
-0.024484 -30.195642 -2.594150 30.306880 1.569985 1.656497 0.080807 -0.021223 -566265.000000 0 0 1
-0.027484 -31.516642 -1.973550 31.578385 1.569924 1.633334 0.093324 -0.031313 907028.000000 0 0 1
1.154716 -32.350342 -2.152350 32.442420 -1.535117 1.637189 0.078086 -0.030406 933278.000000 0 0 1
2.542416 -31.814142 -1.777450 31.965025 -1.491051 1.626431 0.091896 -0.026059 -1237750.000000 0 0 1
2.786616 -32.086642 -0.390250 32.209783 -1.484167 1.582912 0.075858 -0.021567 367607.000000 0 0 1
4.117716 -32.000942 0.127650 32.265030 -1.442825 1.566840 0.072462 -0.016473 648363.000000 0 0 1
4.640916 -30.565742 0.227350 30.916895 -1.420113 1.563443 0.061002 -0.015403 -471025.000000 0 0 1
4.690716 -29.913142 -1.023950 30.295996 -1.415252 1.604601 0.075834 -0.020460 -174986.000000 0 0 1
4.576016 -28.564842 -0.830550 28.940973 -1.411949 1.599498 0.080270 -0.015190 -169552.000000 0 0 1
4.126416 -27.830942 -2.110250 28.214213 -1.423601 1.645660 0.087841 -0.013175 657022.000000 0 0 1
2.805816 -28.190342 -2.556150 28.444716 -1.471592 1.660781 0.092095 -0.020706 630783.000000 0 0 1
2.383916 -27.245542 -3.558150 27.580120 -1.483521 1.700168 0.100507 -0.026468 -191527.000000 0 0 1
2.995016 -27.201942 -4.950150 27.810425 -1.461135 1.749746 0.081354 -0.023989 -358282.000000 0 0 1
2.633216 -28.338142 -5.676350 29.020769 -1.478141 1.767662 0.072670 -0.028871 24129.300000 0 0 1
3.096516 -28.178042 -7.004950 29.200339 -1.461344 1.813052 0.089003 -0.038221 110054.000000 0 0 1
2.088016 -28.681942 -8.076350 29.870404 -1.498126 1.844584 0.072329 -0.031454 -492699.000000 0 0 1
0.929716 -27.933442 -8.199450 29.126835 -1.537525 1.856162 0.069987 -0.031879 -1010660.000000 0 0 1
0.374316 -28.138642 -9.473050 29.692793 -1.557495 1.895508 0.076671 -0.029091 -319349.000000 0 0 1
-1.055984 -27.577542 -9.596750 29.218719 1.532524 1.905453 0.043001 -0.025429 -914821.000000 0 0 1
-1.226384 -26.230342 -9.111850 27.794975 1.524076 1.904795 0.041127 -0.020148 -884527.000000 0 0 1
-2.530484 -25.748542 -9.125150 27.434633 1.472834 1.909871 0.051090 -0.027175 -286300.000000 0 0 1
-3.543284 -26.442542 -8.209250 27.913342 1.437590 1.869308 0.047425 -0.022103 -1030540.000000 0 0 1
-3.282784 -26.349242 -6.795650 27.408759 1.446848 1.821347 0.057901 -0.022381 234344.000000 0 0 1
-2.228084 -27.205542 -6.308850 28.016200 1.489081 1.797930 0.061397 -0.022820 543895.000000 0 0 1
-1.967584 -26.906442 -4.805550 27.402943 1.497799 1.747074 0.075204 -0.023715 461842.000000 0 0 1
-3.090284 -27.192142 -3.958350 27.651961 1.457636 1.714439 0.085720 -0.032649 284184.000000 0 0 1
-2.754684 -27.138842 -2.592250 27.401182 1.469639 1.665542 0.090063 -0.020043 -6744.990000 0 0 1
-3.960084 -27.147242 -1.612650 27.481915 1.425944 1.629510 0.106498 -0.024106 214575.000000 0 0 1
-4.818784 -26.062042 -1.863850 26.569242 1.387965 1.641005 0.093218 -0.017524 -414213.000000 0 0 1
-5.828384 -25.936942 -0.897750 26.598890 1.349754 1.604554 0.113938 -0.023037 -24903.300000 0 0 1
-6.800984 -24.738942 -1.055750 25.678459 1.302514 1.611922 0.078748 -0.021489 197083.000000 0 0 1
-6.261984 -23.467442 -0.723550 24.299317 1.310035 1.600577 0.080105 -0.027555 -93180.300000 0 1 0
-6.639184 -23.049442 0.542250 23.992698 1.290347 1.548194 0.079346 -0.014250 -78176.000000 0 1 0
-6.018784 -21.648342 0.786450 22.483215 1.299620 1.535810 0.053411 -0.018333 308568.000000 0 1 0
-4.847084 -21.755142 1.568450 22.343689 1.351575 1.500542 0.046168 -0.016888 -183757.000000 0 1 0
-4.163484 -20.553542 1.701450 21.039905 1.370933 1.489840 0.024407 -0.013927 -316343.000000 0 1 0
-3.117084 -20.464842 2.789050 20.887910 1.419644 1.436872 0.028512 -0.006563 -702739.000000 0 1 0
-3.734184 -20.354942 4.070650 21.091183 1.389360 1.376575 0.012903 0.001455 173119.000000 0 1 0
-2.859984 -20.253442 5.198250 21.104578 1.430514 1.321926 0.032022 -0.003140 325155.000000 0 1 0
-1.946784 -21.518542 5.426250 22.277383 1.480572 1.324744 0.046486 -0.022326 344994.000000 0 1 0
-0.918784 -21.559442 4.451950 22.033465 1.528206 1.367342 0.068522 -0.026821 -761909.000000 0 1 0
-0.215684 -22.755642 4.674250 23.231754 1.561318 1.368213 0.077687 -0.029778 -935600.000000 0 1 0
0.767116 -23.126542 3.546050 23.409397 -1.537638 1.418731 0.083941 -0.033878 145271.000000 0 1 0
1.922916 -22.342842 3.482250 22.694190 -1.484944 1.416745 0.045858 -0.033445 10075.300000 0 1 0
2.939416 -22.597342 4.426050 23.213573 -1.441445 1.378955 0.076377 -0.035595 -765608.000000 0 1 0
4.065516 -21.583242 4.558350 22.430856 -1.384613 1.366153 0.076772 -0.039975 -54529.600000 0 1 0
4.835116 -21.418742 3.395650 22.218715 -1.348775 1.417367 0.056036 -0.023753 -559615.000000 0 1 0
6.093116 -20.826942 3.621950 22.000139 -1.286180 1.405410 0.073185 -0.019802 244056.000000 0 1 0
6.808216 -20.522042 2.301850 21.744069 -1.250470 1.464737 0.075288 -0.014045 -171712.000000 0 1 0
7.388016 -21.668542 1.728950 22.958610 -1.242201 1.495418 0.074049 -0.007451 -298222.000000 0 1 0
7.087016 -21.794642 0.343150 22.920514 -1.256409 1.555824 0.069328 -0.012001 -59654.500000 0 1 0
8.012316 -22.724742 -0.463350 24.100328 -1.231824 1.590023 0.070446 0.000846 543749.000000 0 1 0
9.272416 -22.109342 -0.714650 23.985650 -1.173688 1.600596 0.071449 0.003019 104310.000000 0 1 0
10.137216 -22.803942 -1.597950 25.006726 -1.152494 1.634741 0.073766 0.001203 414462.000000 0 0 1
11.452216 -22.094542 -1.959450 24.963202 -1.092594 1.649371 0.084243 -0.001725 255185.000000 0 1 0
11.260416 -20.943742 -2.756550 23.938167 -1.077484 1.686205 0.086613 -0.006705 98107.900000 0 1 0
12.449016 -20.761842 -3.519250 24.462567 -1.030663 1.715160 0.090922 -0.007756 341135.000000 0 1 0
12.590416 -19.458242 -4.332150 23.577728 -0.996499 1.755585 0.084598 -0.026936 -139609.000000 0 1 0
12.926616 -18.317142 -3.567650 22.701172 -0.956247 1.728608 0.100116 -0.029853 101504.000000 0 1 0
13.120316 -17.160842 -4.387150 22.042783 -0.918048 1.771163 0.105529 -0.037072 -485492.000000 0 1 0
13.717916 -15.903242 -3.692350 21.324347 -0.859041 1.744825 0.125050 -0.031911 896413.000000 0 1 0
15.050816 -16.132442 -3.204950 22.294718 -0.820070 1.715050 0.108713 -0.025337 965924.000000 0 1 0
16.051516 -15.800342 -4.184250 22.908730 -0.777513 1.754476 0.111734 -0.035306 274372.000000 0 1 0
17.418016 -15.434642 -3.539850 23.540306 -0.725100 1.721743 0.107052 -0.030868 232914.000000 0 1 0
18.162016 -16.521042 -3.041750 24.739763 -0.738120 1.694058 0.110754 -0.031135 519847.000000 0 1 0
19.558216 -16.276042 -3.150550 25.639019 -0.694060 1.693989 0.075986 -0.009407 -44496.700000 0 0 1
20.397916 -17.058442 -2.168850 26.679005 -0.696477 1.652180 0.073912 -0.023951 99575.900000 0 0 1
21.794716 -16.817042 -2.340850 27.627923 -0.657189 1.655626 0.058698 -0.013036 449781.000000 0 0 1
22.511516 -17.508842 -1.324750 28.549656 -0.661040 1.617215 0.058392 -0.013370 -457773.000000 0 0 1
24.026916 -17.370042 -1.443550 29.683243 -0.625957 1.619447 0.078057 -0.016752 -548925.000000 0 0 1
24.576816 -16.146042 -1.077750 29.425773 -0.581254 1.607431 0.064978 -0.015489 -354753.000000 0 0 1
25.828116 -16.264842 -0.480550 30.526506 -0.561996 1.586539 0.118011 -0.024334 -548365.000000 0 0 1
26.396016 -14.964742 0.105350 30.343109 -0.515750 1.567324 0.097919 -0.019314 -62629.600000 0 0 1
25.737016 -14.415842 1.235950 29.525211 -0.510580 1.528923 0.075139 -0.012586 1120650.000000 0 0 1
26.505916 -13.237042 1.741850 29.678560 -0.463167 1.512072 0.067965 -0.015358 1296390.000000 0 0 1
25.619516 -12.534842 2.849350 28.663577 -0.455026 1.471225 0.083717 -0.021807 164416.000000 0 0 1
25.364916 -13.311242 4.003550 28.923979 -0.483282 1.431934 0.104474 -0.014890 512147.000000 0 0 1
26.497216 -13.901642 4.649450 30.281603 -0.483169 1.416646 0.106964 -0.015499 511569.000000 0 0 1
25.986316 -14.669442 5.890750 30.416806 -0.513912 1.375897 0.108963 -0.012900 443849.000000 0 0 1
25.254516 -15.840742 5.598650 30.332566 -0.560211 1.385156 0.111700 -0.020015 84498.800000 0 0 1
24.576816 -16.340442 6.743450 30.273818 -0.586759 1.346163 0.094467 -0.018153 347504.000000 0 0 1
23.788916 -17.676142 6.392250 30.318631 -0.639033 1.358367 0.088119 -0.014924 -25266.700000 0 0 1
24.669816 -18.732742 6.235250 31.597370 -0.649451 1.372158 0.090607 -0.016428 -333320.000000 0 0 1
24.018616 -19.976742 6.040850 31.819114 -0.693785 1.379787 0.060825 -0.004258 -73220.000000 0 0 1
1.869016 23.190432 -3.224850 23.488061 1.490376 1.708529 0.048657 -0.017648 -360145.000000 0 1 0
2.648716 24.214832 -2.745750 24.513526 1.461845 1.683041 0.059723 -0.022022 -180868.000000 0 1 0
3.375716 24.794132 -3.831550 25.314526 1.435479 1.722738 0.071254 -0.020759 -392173.000000 0 0 1
4.415016 25.819832 -3.460650 26.422191 1.401441 1.702149 0.051197 -0.013727 -1059750.000000 0 0 1
5.487016 25.258332 -2.800550 25.998726 1.356884 1.678724 0.049892 -0.023450 -786996.000000 0 0 1
6.227616 26.180832 -2.015450 26.986686 1.337267 1.645549 0.045657 -0.021914 -116719.000000 0 0 1
7.302216 25.414932 -1.236850 26.472078 1.291013 1.617536 0.037522 -0.037304 -42584.300000 0 0 1
8.332416 24.957732 -2.095150 26.395212 1.248571 1.650256 0.043261 -0.033558 -474193.000000 0 0 1
9.372116 24.318732 -1.399450 26.099727 1.202951 1.624441 0.029977 -0.033746 -171085.000000 0 0 1
10.565016 24.118232 -2.354650 26.435829 1.157923 1.659985 0.044865 -0.027790 -1663510.000000 0 0 1
11.396816 25.226832 -2.388350 27.784613 1.146468 1.656862 0.048892 -0.027718 -299010.000000 0 0 1
12.424216 25.194532 -3.362550 28.291913 1.112659 1.689930 0.064679 -0.030374 710164.000000 0 0 1
13.496816 24.052032 -3.321250 27.779399 1.059432 1.690641 0.051313 -0.025202 -834070.000000 0 0 1
13.089116 22.711732 -3.623450 26.462750 1.047974 1.708154 0.062203 -0.023062 -176261.000000 0 0 1
12.862416 22.439532 -5.031350 26.349361 1.050313 1.762924 0.075126 -0.026284 -302186.000000 0 0 1
11.924616 21.270532 -5.340350 24.963000 1.059839 1.786393 0.075931 -0.023854 387033.000000 0 1 0
10.605116 21.448132 -4.803450 24.404180 1.111595 1.768919 0.073129 -0.023776 327117.000000 0 1 0
9.832216 20.287732 -4.928650 23.077178 1.119513 1.786027 0.052825 -0.015221 -522029.000000 0 1 0
8.351816 20.633232 -4.790150 22.769028 1.186180 1.782760 0.045947 -0.016572 -511074.000000 0 1 0
7.917916 21.029932 -3.494450 22.741210 1.210705 1.725069 0.039929 -0.018542 147621.000000 0 1 0
6.555616 21.417232 -3.612650 22.687556 1.273761 1.730712 0.045039 -0.013965 481040.000000 0 1 0
5.974616 21.987832 -2.272150 22.898111 1.305479 1.670189 0.044748 -0.024632 89816.200000 0 1 0
5.525216 21.121732 -1.280150 21.869942 1.314940 1.629364 0.034805 -0.028281 -42212.700000 0 1 0
5.083816 21.896032 -0.194450 22.479307 1.342659 1.579447 0.052391 -0.020911 91546.700000 0 1 0
4.577416 21.077332 0.991350 21.591421 1.356945 1.524866 0.035950 -0.019306 -139411.000000 0 1 0
3.922116 21.800732 1.997850 22.240646 1.392793 1.480846 0.046752 -0.015241 197227.000000 0 1 0
3.442616 20.874332 3.009050 21.369224 1.407347 1.429514 0.041968 -0.014346 484379.000000 0 1 0
2.350516 21.581932 3.886750 22.054740 1.462313 1.393639 0.041885 -0.008874 836530.000000 0 1 0
1.008416 21.542032 3.408550 21.833329 1.524019 1.414038 0.033980 -0.012181 343265.000000 0 1 0
0.118016 22.267132 4.210950 22.662110 1.565496 1.383896 0.037150 -0.008434 701317.000000 0 1 0
-1.351384 22.340532 3.697350 22.684709 -1.510380 1.407077 0.029095 -0.008981 1307220.000000 0 1 0
-2.336784 22.799032 4.653950 23.386229 -1.468658 1.370455 0.047470 -0.019820 330532.000000 0 1 0
-3.643684 22.748732 4.123350 23.404770 -1.411974 1.393696 0.062708 -0.017899 -430420.000000 0 1 0
-4.704384 22.839032 5.176850 23.886239 -1.367657 1.352333 0.074767 -0.036320 -561247.000000 0 1 0
-4.929984 24.162732 5.668050 25.303541 -1.369526 1.344877 0.107869 -0.030902 206882.000000 0 0 1
-6.067884 24.148732 6.528650 25.741091 -1.324621 1.314368 0.117617 -0.036127 730559.000000 0 0 1
-6.614384 25.543032 6.979550 27.293052 -1.317411 1.312197 0.140069 -0.042652 593765.000000 0 0 1
-5.706884 26.049532 7.987550 27.837881 -1.355125 1.279775 0.127087 -0.046867 473295.000000 0 0 1
-6.059484 27.348032 8.588450 29.298357 -1.352750 1.273289 0.142626 -0.049527 -112666.000000 0 0 1
-6.317984 28.559032 7.704050 30.247110 -1.353077 1.313255 0.166680 -0.051239 196604.000000 0 0 1
-7.487584 28.481532 6.908750 30.248842 -1.313721 1.340365 0.152550 -0.054371 -198935.000000 0 0 1
-7.737484 29.669332 6.120050 31.266483 -1.315688 1.373786 0.164689 -0.056749 368679.000000 0 0 1
-9.187484 29.616332 5.506250 31.493742 -1.269993 1.395057 0.155287 -0.056571 693519.000000 0 0 1
-10.196784 30.018232 6.369250 32.336296 -1.243339 1.372531 0.140255 -0.042393 -520224.000000 0 0 1
-10.746484 29.030632 7.206950 31.783717 -1.216260 1.342057 0.112440 -0.037181 -433461.000000 0 0 1
-11.794184 29.649432 8.179350 32.940756 -1.192198 1.319866 0.080716 -0.030763 -427307.000000 0 0 1
-11.303784 30.399932 9.251350 33.727124 -1.214803 1.292935 0.090761 -0.030522 -226624.000000 0 0 1
-12.365484 30.901132 10.037650 34.764056 -1.190150 1.277890 0.092609 -0.028026 -24461.900000 0 0 1
-11.957084 31.254132 11.479350 35.377509 -1.205400 1.240333 0.083355 -0.037241 -147043.000000 0 0 1
-11.185384 32.422032 11.601350 36.206247 -1.238589 1.244619 0.085840 -0.034155 90121.400000 0 0 1
-10.542184 32.533632 12.842250 36.530785 -1.257433 1.211574 0.076313 -0.039174 -64235.700000 0 0 1
-9.876784 -33.830942 13.113250 37.603734 1.286745 1.214589 0.082051 -0.044665 201355.000000 0 0 1
-10.792884 -32.803742 13.523350 37.087098 1.252938 1.197553 0.078329 -0.026984 59466.800000 0 0 1
-10.252484 -31.502242 13.516650 35.779946 1.256155 1.183408 0.092079 -0.020003 117559.000000 0 0 1
-11.240584 -30.436242 14.033050 35.350277 1.217018 1.162582 0.075153 -0.026509 -79708.400000 0 0 1
-11.535084 -30.385942 15.408450 35.969209 1.207982 1.128098 0.065704 -0.032838 -21779.000000 0 0 1
-10.572184 -29.769342 16.260150 35.529949 1.229553 1.095450 0.078062 -0.034267 216336.000000 0 0 1
-10.819284 -30.151642 17.720250 36.608547 1.226278 1.065523 0.086184 -0.042725 360053.000000 0 0 1
-11.945484 -29.529242 18.323550 36.748105 1.186390 1.048784 0.091539 -0.048765 206676.000000 0 0 1
-12.294084 -30.122542 19.519950 37.941277 1.183296 1.030398 0.093513 -0.046260 -220885.000000 0 0 1
-12.407084 -29.109742 20.713650 37.820208 1.167895 0.991199 0.106874 -0.054596 -377952.000000 0 0 1
-11.225884 -29.011042 21.449050 37.785219 1.201588 0.967139 0.104988 -0.051716 -233731.000000 0 0 1
-11.255984 -27.966542 22.446350 37.585413 1.188154 0.930779 0.107945 -0.052593 208279.000000 0 0 1
-9.898084 -27.885342 23.186350 37.592169 1.229713 0.906142 0.126073 -0.052049 9220.250000 0 0 1
-9.802484 -28.887942 24.164450 38.916867 1.243660 0.900874 0.105745 -0.037461 -127368.000000 0 0 1
-8.548884 -28.841442 24.798250 38.985451 1.282637 0.881376 0.130857 -0.036279 -373854.000000 0 0 1
-8.508184 -29.989742 25.853550 40.499134 1.294357 0.878414 0.118465 -0.039405 -119237.000000 0 0 1
-8.180884 -31.263442 25.429950 41.121917 1.314859 0.904086 0.132569 -0.028583 218606.000000 0 0 1
-8.474484 -32.207542 26.378250 42.484759 1.313507 0.900922 0.141739 -0.028344 -293976.000000 0 0 1
-8.660684 -33.648442 25.849250 43.305991 1.318877 0.931167 0.128935 -0.025839 -771620.000000 0 0 1
-7.479484 33.319032 25.660150 42.714680 -1.349976 0.926378 0.118429 -0.022367 -164408.000000 0 0 1
-7.587484 32.035132 25.046350 41.365919 -1.338233 0.920424 0.083394 -0.013914 -43014.100000 0 0 1
-8.322284 31.866132 23.680550 40.564507 -1.315338 0.947426 0.086708 -0.013741 246228.000000 0 0 1
-8.969984 30.598632 23.584050 39.660362 -1.285636 0.933966 0.096568 -0.011653 336304.000000 0 0 1
-9.830684 30.567932 22.433750 39.170320 -1.259642 0.960972 0.078130 -0.013078 138921.000000 0 0 1
-10.602384 29.253832 22.466750 38.379058 -1.223094 0.945434 0.082866 -0.022331 -36754.900000 0 0 1
-9.766184 28.127132 22.187250 37.132035 -1.236604 0.930388 0.069201 -0.014491 344525.000000 0 0 1
-10.232084 26.934432 22.902350 36.805935 -1.207747 0.899188 0.056999 -0.019379 -246203.000000 0 0 1
-9.483984 25.597032 22.706950 35.507177 -1.215967 0.876945 0.062348 -0.023933 213168.000000 0 0 1
-8.130884 25.717832 23.140650 35.538822 -1.264583 0.861714 0.059315 -0.031546 203796.000000 0 0 1
-7.443284 24.530232 22.892850 34.368843 -1.276193 0.841838 0.062032 -0.029629 -1095420.000000 0 0 1
-6.006884 24.467832 23.312750 34.325527 -1.330056 0.824170 0.062644 -0.031330 -1167810.000000 0 0 1
-5.126184 25.264232 22.555450 34.253577 -1.370611 0.851993 0.068207 -0.024324 -783251.000000 0 0 1
-3.864784 25.088532 23.138850 34.347888 -1.417952 0.831644 0.087619 -0.024714 -287563.000000 0 0 1
-2.759784 25.768632 22.272050 34.171378 -1.464104 0.860874 0.092119 -0.021457 58878.600000 0 0 1
-2.326884 24.874032 21.247450 32.796128 -1.477521 0.866019 0.077403 -0.019871 -19437.600000 0 0 1
-1.604584 25.401032 20.157050 32.466811 -1.507710 0.900969 0.088877 -0.023063 127938.000000 0 0 1
-1.075484 24.283232 19.183250 30.964966 -1.526536 0.902672 0.080583 -0.028031 659203.000000 0 0 1
0.020416 23.524732 19.769650 30.728692 1.569928 0.871916 0.074687 -0.022012 600871.000000 0 0 1
0.363716 22.410632 18.965650 29.360937 1.554568 0.868531 0.064697 -0.020478 -43943.000000 0 0 1
1.492416 21.460432 19.453650 29.003827 1.501365 0.835608 0.060670 -0.017254 -366145.000000 0 0 1
2.720016 22.070632 19.176250 29.363921 1.448173 0.859185 0.065425 -0.025100 -472272.000000 0 0 1
3.765416 21.126732 19.475450 28.979481 1.394418 0.833832 0.070156 -0.019622 426279.000000 0 0 1
5.175516 21.697632 19.207150 29.436166 1.336643 0.859915 0.069876 -0.025816 -59221.300000 0 0 1
6.105616 20.675432 18.934550 28.692669 1.283650 0.850099 0.079043 -0.025893 -506031.000000 0 0 1
7.337316 21.227132 18.559350 29.135491 1.237995 0.880194 0.100160 -0.029534 385972.000000 0 0 1
8.485616 20.181232 18.248550 28.500832 1.172768 0.875932 0.096168 -0.020363 412187.000000 0 0 1
8.909416 19.491232 19.357450 28.879001 1.142055 0.836190 0.098680 -0.025957 250144.000000 0 0 1
9.966516 18.587032 19.010550 28.393842 1.078604 0.837219 0.083323 -0.020324 476615.000000 0 0 1
10.614716 17.892532 20.217650 29.009797 1.035356 0.799696 0.089634 -0.022134 -176661.000000 0 0 1
9.749816 16.932132 20.801050 28.538390 1.048348 0.754112 0.096043 -0.025325 -22637.400000 0 0 1
10.278516 16.387732 21.972550 29.274539 1.010611 0.721874 0.097978 -0.032279 -427662.000000 0 0 1
9.406016 15.295832 22.598650 28.864072 1.019464 0.671429 0.081974 -0.030950 597615.000000 0 0 1
8.256016 15.774732 23.323550 29.342665 1.088628 0.652006 0.090247 -0.030464 1357710.000000 0 0 1
7.196116 14.793232 23.542450 28.720564 1.118050 0.609897 0.076847 -0.026240 1064950.000000 0 0 1
7.454316 13.766232 24.665750 29.214298 1.074508 0.565531 0.086741 -0.028581 -496163.000000 0 0 1
7.449616 14.444732 25.928450 30.601170 1.094642 0.559911 0.089670 -0.037613 113719.000000 0 0 1
7.735916 13.567232 26.988550 31.181662 1.052584 0.524596 0.094160 -0.034518 -839865.000000 0 0 1
8.884016 14.114232 27.835450 32.449185 1.009013 0.539790 0.067238 -0.029916 -41901.400000 0 0 1
10.201416 14.005332 27.333350 32.362482 0.941266 0.564979 0.096289 -0.034057 277617.000000 0 0 1
10.607416 15.073432 26.524150 32.299477 0.957581 0.607295 0.081763 -0.030527 -813204.000000 0 0 1
11.996216 14.861332 25.912150 32.190184 0.891674 0.635170 0.095625 -0.033718 -332678.000000 0 0 1
11.972416 14.155832 24.702050 30.885557 0.868770 0.643846 0.102597 -0.031339 392476.000000 0 0 1
13.267816 13.686632 24.341150 30.916831 0.800935 0.664361 0.106462 -0.034150 -213920.000000 0 0 1
13.217216 12.452532 23.369750 29.595702 0.755618 0.660585 0.089657 -0.027573 55555.700000 0 0 1
12.797516 11.188832 23.858750 29.295159 0.718432 0.619056 0.105104 -0.020929 1618710.000000 0 0 1
11.413116 11.117332 24.325050 29.078555 0.772271 0.579879 0.116227 -0.023917 1196420.000000 0 0 1
11.052216 9.701932 24.790650 28.824561 0.720429 0.535423 0.119795 -0.018060 -116904.000000 0 0 1
11.093616 8.753132 23.762250 27.646522 0.668012 0.536501 0.124127 -0.011120 163079.000000 0 0 1
10.815216 7.471332 24.215850 27.553532 0.604536 0.497317 0.129545 -0.012991 43549.100000 0 0 1
11.168016 6.281232 23.224250 26.524409 0.512337 0.504161 0.134439 -0.024631 532207.000000 0 0 1
12.567916 5.984332 23.199850 27.055458 0.444394 0.540420 0.144783 -0.022271 811819.000000 0 0 1
12.808716 4.859532 22.332950 26.199980 0.362616 0.550232 0.156568 -0.031296 14440.200000 0 0 1
12.448616 3.443932 22.836450 26.236086 0.269901 0.514739 0.151253 -0.039297 225190.000000 0 0 1
13.389316 3.022932 23.832550 27.502770 0.222049 0.522547 0.159194 -0.037368 516391.000000 0 0 1
13.147916 1.692432 24.228150 27.617663 0.128019 0.500651 0.159650 -0.036501 -93457.100000 0 0 1
14.318316 1.166532 25.119250 28.937030 0.081292 0.519503 0.133384 -0.021575 239965.000000 0 0 1
15.328916 0.631332 24.301350 28.738996 0.041162 0.563131 0.155637 -0.035860 -913386.000000 0 0 1
16.584916 1.052432 24.658650 29.735771 0.063372 0.593016 0.141528 -0.037121 -1037120.000000 0 0 1
17.789516 0.675132 23.770850 29.698081 0.037933 0.642806 0.132004 -0.037335 143653.000000 0 0 1
18.146716 -0.702268 23.973550 30.075365 -0.038680 0.648293 0.130440 -0.038205 -155585.000000 0 0 1
19.144516 -1.170068 23.108650 30.031505 -0.061042 0.692769 0.121537 -0.028317 -322256.000000 0 0 1
19.233316 -2.712268 23.268250 30.309872 -0.140095 0.695585 0.116054 -0.025649 75024.600000 0 0 1
18.181116 -3.539468 22.804350 29.378891 -0.192273 0.682156 0.106717 -0.016039 218522.000000 0 0 1
18.499016 -4.832268 23.198350 30.062067 -0.255508 0.689315 0.111200 -0.020346 41093.000000 0 0 1
17.508716 -5.913868 22.741750 29.303860 -0.325736 0.682392 0.114584 -0.021916 -185979.000000 0 0 1
17.598316 -6.072768 21.327950 28.310081 -0.332282 0.717625 0.113013 -0.022220 634143.000000 0 0 1
16.691016 -7.041268 20.755650 27.549347 -0.399208 0.717580 0.126772 -0.028005 84573.300000 0 0 1
17.093916 -8.473968 20.940350 28.328579 -0.460226 0.738922 0.123659 -0.029041 -220166.000000 0 0 1
17.047316 -8.974368 22.261950 29.440528 -0.484574 0.713361 0.118869 -0.024230 -20762.100000 0 0 1
17.511216 -10.295068 22.341450 30.195555 -0.531484 0.737886 0.098254 -0.023196 -235143.000000 0 0 1
17.115916 -11.165468 23.526950 31.163114 -0.578021 0.715201 0.110378 -0.023223 -266868.000000 0 0 1
15.872916 -11.749868 23.236350 30.494866 -0.637229 0.704438 0.134381 -0.026505 -162201.000000 0 0 1
15.553916 -12.850868 24.070550 31.407969 -0.690522 0.697604 0.153363 -0.020616 -10495.700000 0 0 1
14.598916 -13.857768 23.454950 30.907940 -0.759359 0.709228 0.179131 -0.030579 -150099.000000 0 0 1
15.264516 -14.650868 22.497850 30.883760 -0.764888 0.754712 0.164432 -0.037467 224314.000000 0 0 1
14.330816 -15.428168 21.797750 30.307467 -0.822256 0.768117 0.178255 -0.027330 -53150.300000 0 0 1
14.943216 -16.357468 20.693250 30.316284 -0.830550 0.819511 0.136467 -0.042018 -338671.000000 0 0 1
15.757216 -17.378568 21.124150 31.567930 -0.834290 0.837712 0.165401 -0.042221 -183780.000000 0 0 1
16.186016 -18.289968 20.110150 31.637449 -0.846349 0.881954 0.145743 -0.037184 -286169.000000 0 0 1
-24.701084 -32.156942 25.512213 47.907050 0.915785 1.009203 0.077307 -0.021245 -511821.000000 0 0 1
-25.395344 -33.370242 25.478663 49.067900 0.920281 1.024819 0.077361 -0.015325 -335609.000000 0 0 1
-26.549274 -33.369042 26.277433 50.088526 0.898728 1.018528 0.080762 -0.027590 -403893.000000 0 0 1
-26.436624 -33.690442 27.742763 51.025502 0.905459 0.995952 0.071860 -0.028105 268800.000000 0 0 1
-27.581834 -33.245242 28.495273 51.749244 0.878237 0.987664 0.090942 -0.029980 899698.000000 0 0 1
-27.211434 -33.060942 29.852993 52.198556 0.882146 0.961961 0.056799 -0.021604 91172.100000 0 0 1
-28.398494 -32.593442 30.730913 53.039570 0.854069 0.952809 0.038407 -0.019549 61309.800000 0 0 1
-28.682314 -31.244542 30.346013 52.151482 0.828128 0.949755 0.030763 -0.014963 186265.000000 0 0 1
-29.730324 -30.651542 31.077973 52.813347 0.800654 0.941657 0.033848 -0.003299 -260344.000000 0 0 1
-29.818864 -29.149742 30.649613 51.752013 0.774052 0.936960 0.025060 -0.008074 -298069.000000 0 0 1
-30.473234 -28.812942 29.443263 51.241676 0.757401 0.958686 0.027908 -0.008902 178043.000000 0 0 1
-30.843864 -27.466942 29.466403 50.735054 0.727550 0.951098 0.039021 -0.010251 -238274.000000 0 0 1
-31.586954 -26.999542 28.247783 50.245877 0.707256 0.973764 0.032314 -0.021713 -108750.000000 0 0 1
-30.706844 -26.937842 27.143413 49.044087 0.720108 0.984296 0.048568 -0.011667 33227.700000 0 0 1
-30.046944 -25.729442 26.961713 47.872299 0.708145 0.972542 0.044370 -0.009581 -338812.000000 0 0 1
-29.072824 -25.837242 25.784293 46.664997 0.726541 0.985387 0.039974 0.001060 10989.500000 0 0 1
-29.748664 -25.972042 24.510813 46.479134 0.717724 1.015317 0.033637 -0.009148 560782.000000 0 0 1
-28.798894 -26.030442 23.456243 45.355877 0.734949 1.027267 0.040187 0.010024 144701.000000 0 0 1
-29.399624 -26.263842 22.014873 45.152873 0.729123 1.061500 0.025622 0.012827 -48939.400000 0 0 1
-29.956694 -25.109542 21.432473 44.578510 0.697600 1.069252 0.022007 0.001649 226320.000000 0 0 1
-30.417814 -25.382242 20.099773 44.424121 0.695399 1.101284 0.017090 0.012661 -399723.000000 0 0 1
-31.083654 -24.189442 19.467673 43.935327 0.661309 1.111744 0.026100 0.005222 81209.500000 0 0 1
-32.332394 -23.868242 20.075773 44.923416 0.635916 1.107512 0.052602 -0.004176 365689.000000 0 0 1
-32.970594 -22.787442 19.385073 44.520879 0.604758 1.120297 0.071965 -0.004777 847506.000000 0 0 1
-34.487383 -22.692642 19.780973 45.777969 0.581977 1.123969 0.101627 -0.004272 862123.000000 0 0 1
-35.369887 -23.692642 19.296973 46.741238 0.590206 1.145219 0.095873 -0.014130 633457.000000 0 0 1
-36.718524 -23.257642 19.193473 47.513759 0.564619 1.154959 0.098795 -0.025200 627137.000000 0 0 1
37.367091 -24.212442 18.386673 48.172726 -0.574941 1.179181 0.110851 -0.031293 109968.000000 0 0 1
36.979331 -25.409442 19.020573 48.732872 -0.602033 1.169836 0.112180 -0.028017 -254085.000000 0 0 1
36.296601 -26.187342 18.104973 48.280536 -0.624998 1.186405 0.107914 -0.021555 -274523.000000 0 0 1
35.788841 -27.548242 18.701873 48.882582 -0.656018 1.178201 0.092320 -0.006949 410496.000000 0 0 1
34.580801 -27.569342 19.479173 48.325341 -0.673058 1.155912 0.076759 -0.004091 526339.000000 0 0 1
34.613241 -26.854042 20.697973 48.452266 -0.659829 1.129422 0.074432 -0.006632 -977260.000000 0 0 1
33.302131 -26.800942 21.444073 47.824373 -0.677650 1.105831 0.059923 -0.001691 -1196890.000000 0 0 1
32.394111 -25.916942 20.886873 46.447043 -0.674772 1.104376 0.060084 0.007400 -198633.000000 0 0 1
31.190981 -25.973942 21.669873 46.012024 -0.694387 1.080416 0.055442 0.004626 515929.000000 0 0 1
30.130891 -24.936442 21.174173 44.475188 -0.691347 1.074594 0.057441 0.019636 -127710.000000 0 0 1
30.514801 -23.594842 20.962473 43.900967 -0.658201 1.072995 0.052116 0.014489 -287552.000000 0 0 1
31.335971 -22.966242 21.920673 44.608376 -0.632469 1.057097 0.071378 0.000047 -211541.000000 0 0 1
32.302351 -21.941642 21.259473 44.461699 -0.596669 1.072246 0.065152 -0.001177 23415.900000 0 0 1
31.763161 -20.674342 20.770473 43.217350 -0.577001 1.069452 0.064760 -0.010023 -248788.000000 0 0 1
32.767741 -19.768742 20.442973 43.387131 -0.542842 1.080173 0.064702 -0.012114 -435066.000000 0 0 1
32.264921 -18.265642 20.623273 42.426150 -0.515131 1.063177 0.053719 -0.005898 245051.000000 0 0 1
32.297691 -17.759142 21.948273 42.898189 -0.502734 1.033708 0.040360 -0.013518 88073.900000 0 0 1
31.218121 -18.264042 22.724273 42.714621 -0.529351 1.009833 0.064861 -0.014015 -44074.900000 0 0 1
31.058521 -17.838442 24.201633 43.226852 -0.521345 0.976561 0.065172 -0.009045 -133756.000000 0 0 1
30.658111 -16.498542 24.233993 42.419430 -0.493697 0.962714 0.078964 -0.013879 66568.600000 0 0 1
30.948861 -15.890842 25.429193 43.092861 -0.474353 0.939611 0.075944 -0.015876 -121467.000000 0 0 1
30.413051 -14.447242 25.485793 42.227978 -0.443476 0.922877 0.089224 -0.024386 -609952.000000 0 0 1
29.041741 -14.314142 25.708173 41.342805 -0.457937 0.899720 0.096369 -0.025701 -256070.000000 0 0 1
28.711941 -13.012342 26.257943 41.026530 -0.425514 0.876267 0.089946 -0.023808 163575.000000 0 0 1
29.157441 -11.728042 25.420383 40.421519 -0.382429 0.890681 0.103877 -0.029233 -160183.000000 0 0 1
28.421341 -11.650142 24.175313 39.088927 -0.389019 0.904003 0.099585 -0.023414 426149.000000 0 0 1
29.000541 -10.844542 23.184073 38.679926 -0.357843 0.928067 0.101671 -0.018804 -159860.000000 0 0 1
30.177521 -11.446642 22.398473 39.286129 -0.362544 0.964124 0.106740 -0.026843 -28928.000000 0 0 1
29.770541 -12.523342 21.578073 38.842405 -0.398191 0.981798 0.093215 -0.022077 146219.000000 0 0 1
30.349931 -13.750242 22.012173 39.933986 -0.425393 0.986978 0.086130 -0.021433 71782.100000 0 0 1
29.962341 -14.940142 21.093773 39.571416 -0.462552 1.008588 0.090606 -0.015018 -96288.100000 0 0 1
30.591341 -14.885142 19.863373 39.394811 -0.452854 1.042326 0.087630 -0.018813 -314587.000000 0 0 1
29.823441 -15.599342 18.919473 38.609889 -0.481922 1.058688 0.089905 -0.027087 -398024.000000 0 0 1
30.244491 -15.616742 17.451073 38.251167 -0.476642 1.097050 0.108632 -0.030083 -139829.000000 0 0 1
29.546841 -16.542742 16.592273 37.709172 -0.510398 1.115191 0.097267 -0.033145 1516150.000000 0 0 1
28.134241 -16.249342 16.390573 36.389937 -0.523760 1.103566 0.106114 -0.029854 1110280.000000 0 0 1
27.822941 -15.109842 15.299573 35.163906 -0.497508 1.120655 0.121319 -0.032127 -269906.000000 0 0 1
27.904141 -15.531442 13.914973 34.835230 -0.507896 1.159878 0.124745 -0.040896 -407892.000000 0 0 1
26.860841 -16.380842 13.609073 34.278909 -0.547624 1.162539 0.127338 -0.045588 -748560.000000 0 0 1
26.890041 -16.986642 12.171073 34.055180 -0.563408 1.205322 0.105018 -0.023063 -123332.000000 0 0 1
26.461841 -16.119042 11.097173 32.912001 -0.547115 1.226880 0.126964 -0.028052 -58813.700000 0 0 1
26.240541 -16.830042 9.870673 32.699335 -0.570288 1.264152 0.102865 -0.024000 149204.000000 0 0 1
27.496141 -17.284442 9.047173 33.714107 -0.561193 1.299117 0.098893 -0.022879 299173.000000 0 0 1
28.137641 -18.362242 9.684373 34.966925 -0.578191 1.290169 0.094866 -0.015490 -886576.000000 0 0 1
29.423541 -18.560342 9.177873 35.978666 -0.562759 1.312853 0.102886 -0.014912 -548455.000000 0 0 1
30.299491 -19.371042 10.122973 37.360019 -0.568830 1.296409 0.099400 -0.033216 -228050.000000 0 0 1
30.683031 -18.702442 11.338273 37.680050 -0.547402 1.265150 0.094735 -0.040500 169674.000000 0 0 1
31.098441 -19.588242 12.364073 38.777346 -0.562100 1.246283 0.070900 -0.037548 -47835.500000 0 0 1
31.057801 -19.086142 13.861873 39.000248 -0.551039 1.207422 0.080703 -0.029640 46907.500000 0 0 1
31.299891 -20.098142 14.784473 40.027479 -0.570812 1.192478 0.085729 -0.026814 87197.100000 0 0 1
31.124031 -19.507442 16.097173 40.104421 -0.559867 1.157772 0.095694 -0.032016 120717.000000 0 0 1
30.688581 -20.559342 17.148873 40.725414 -0.590262 1.136155 0.087910 -0.018221 -421920.000000 0 0 1
29.399641 -21.079142 17.152573 40.035982 -0.622035 1.128043 0.032201 -0.001450 -509327.000000 0 0 1
29.228441 -21.901642 18.303473 40.853406 -0.643070 1.106238 0.047018 -0.000028 -1143610.000000 0 0 1
28.053741 -22.784742 18.169873 40.451219 -0.682125 1.104949 0.046383 0.009893 -580557.000000 0 0 1
26.820541 -22.102742 18.430273 39.338881 -0.689263 1.083204 0.059340 0.012857 -229842.000000 0 0 1
25.767841 -22.896342 18.006973 38.890554 -0.726460 1.089401 0.050497 -0.000732 -744757.000000 0 0 1
24.426641 -22.608142 18.688373 38.171248 -0.746755 1.059173 0.033525 0.009685 -384344.000000 0 0 1
23.825041 -21.391142 18.266073 36.862758 -0.731622 1.052368 0.034056 0.004471 687210.000000 0 0 1
22.629641 -21.031842 18.994573 36.266139 -0.748819 1.019543 0.035899 -0.002248 845855.000000 0 0 1
22.833541 -20.493742 20.452373 36.873617 -0.731448 0.982840 0.020718 -0.001112 -151232.000000 0 0 1
23.119841 -21.475242 21.451973 38.156260 -0.748536 0.973736 0.039824 0.000865 -91047.200000 0 0 1
23.054041 -20.847942 22.703973 38.491504 -0.735190 0.939931 0.067673 0.001553 -121982.000000 0 0 1
23.220341 -21.782342 23.921333 39.823169 -0.753455 0.926434 0.074698 0.001183 139506.000000 0 0 1
22.138241 -22.655442 24.230563 39.880960 -0.796944 0.917796 0.089031 -0.006386 -20952.700000 0 0 1
22.400341 -23.517442 25.263003 41.146867 -0.809722 0.909714 0.092920 0.000388 32523.700000 0 0 1
21.153641 -24.310542 25.740903 41.244067 -0.854724 0.896802 0.118152 -0.009893 146947.000000 0 0 1
20.609141 -25.313142 24.942103 41.080413 -0.887476 0.918323 0.106755 -0.011385 339077.000000 0 0 1
19.478541 -25.896142 25.582533 41.285466 -0.925902 0.902500 0.115097 -0.024349 255487.000000 0 0 1
18.698241 -26.898942 24.685623 41.018987 -0.963347 0.925031 0.125860 -0.031292 -5808.720000 0 0 1
18.037541 -26.236442 23.616483 39.641418 -0.968509 0.932594 0.118193 -0.029963 109285.000000 0 0 1
17.537541 -27.134442 22.678073 39.473260 -0.997012 0.958782 0.109039 -0.037034 -865237.000000 0 0 1
16.562141 -26.419842 21.765773 38.027114 -1.010844 0.961397 0.106212 -0.030948 334461.000000 0 0 1
15.332141 -26.018042 22.394773 37.597060 -1.038290 0.932719 0.093785 -0.036843 404225.000000 0 0 1
14.713041 -24.961742 21.734973 36.221143 -1.038190 0.927216 0.071965 -0.026467 -647310.000000 0 0 1
13.494941 -24.461542 22.498873 35.870319 -1.066664 0.892807 0.072290 -0.025879 -105929.000000 0 0 1
12.438341 -25.434442 22.461373 36.140510 -1.115959 0.900139 0.064667 -0.025930 132540.000000 0 0 1
11.239241 -24.736042 22.160873 35.061326 -1.144317 0.886587 0.065343 -0.022088 422187.000000 0 0 1
9.958841 -25.625442 22.168373 35.316831 -1.200129 0.892201 0.054123 -0.026731 218898.000000 0 0 1
9.871241 -26.548742 21.078873 35.307166 -1.214820 0.931022 0.066867 -0.035455 -205833.000000 0 0 1
8.664241 -27.258642 21.156673 35.576782 -1.263042 0.933933 0.078168 -0.037273 -565906.000000 0 0 1
8.278541 -27.977342 19.857073 35.292623 -1.283104 0.973219 0.099657 -0.035399 -16457.300000 0 0 1
8.758741 -29.310542 19.822273 36.451967 -1.280417 0.995848 0.105605 -0.040508 129873.000000 0 0 1
8.389641 -29.998142 18.661873 36.311707 -1.298092 1.031030 0.108360 -0.042516 -56030.200000 0 0 1
8.810241 -31.515842 18.617473 37.649421 -1.298205 1.053542 0.114329 -0.032062 362267.000000 0 0 1
8.134141 -32.370242 19.563073 38.687345 -1.324609 1.040637 0.110937 -0.034119 245781.000000 0 0 1
8.906541 -33.529642 19.757273 39.923842 -1.311160 1.053106 0.125893 -0.039842 157228.000000 0 0 1
8.351841 33.158432 20.811073 40.029185 1.324052 1.024065 0.141174 -0.044816 -70861.800000 0 0 1
7.387841 32.230432 20.426373 38.866665 1.345469 1.017435 0.125950 -0.043252 -326534.000000 0 0 1
7.475041 31.056932 21.227573 38.353867 1.334601 0.984276 0.130772 -0.052346 41032.500000 0 0 1
6.585241 29.827432 20.854873 36.986036 1.353504 0.971746 0.123361 -0.047671 342730.000000 0 0 1
5.204141 30.145932 21.008173 37.110695 1.399850 0.969036 0.120054 -0.047608 -153036.000000 0 0 1
4.514341 28.939932 20.791773 35.919309 1.416053 0.953483 0.115023 -0.046877 -194286.000000 0 0 1
3.047441 29.012832 21.253873 36.093745 1.466142 0.941159 0.093672 -0.037198 -133096.000000 0 0 1
2.787841 28.830832 22.598773 36.738175 1.474400 0.908245 0.086491 -0.043961 437097.000000 0 0 1
1.390641 28.655632 22.863703 36.685529 1.522305 0.897924 0.064587 -0.028611 678450.000000 0 0 1
1.157941 28.089632 24.293503 37.155653 1.529597 0.858160 0.075810 -0.029114 -210561.000000 0 0 1
1.221841 29.015632 25.346013 38.546338 1.528711 0.853239 0.081204 -0.038535 64966.900000 0 0 1
1.229741 28.434232 26.690643 39.018050 1.527575 0.817484 0.081540 -0.035236 514503.000000 0 0 1
2.634241 27.919232 27.172753 39.048448 1.476723 0.801162 0.069183 -0.035209 297737.000000 0 0 1
3.166241 26.808832 26.468613 37.806429 1.453237 0.795246 0.076457 -0.036420 -124131.000000 0 0 1
4.049441 26.097032 27.279923 37.969030 1.416855 0.769184 0.048471 -0.028053 -517902.000000 0 0 1
4.487141 24.733032 26.767423 36.719916 1.391325 0.753992 0.040842 -0.014686 26289.200000 0 0 1
3.462741 23.770832 26.643993 35.874021 1.426142 0.733688 0.049522 -0.011901 -90471.100000 0 0 1
4.031041 22.548632 26.434173 34.977930 1.393894 0.714015 0.058917 -0.007098 1207740.000000 0 0 1
2.795441 21.528932 26.327113 34.123691 1.441673 0.689569 0.052160 -0.000879 1186810.000000 0 0 1
3.104741 20.126532 26.422213 33.359407 1.417742 0.656642 0.062884 -0.001155 69824.100000 0 0 1
3.692841 19.500932 25.312943 32.166264 1.383645 0.664961 0.066621 -0.005186 -480809.000000 0 0 1
4.046441 17.978032 25.549703 31.501915 1.349409 0.624847 0.059207 -0.013129 184569.000000 0 0 1
5.222241 17.700532 26.298683 32.127891 1.283903 0.611893 0.063986 -0.015346 804941.000000 0 0 1
6.416941 17.822932 25.498103 31.764561 1.225207 0.638951 0.084075 -0.021354 466716.000000 0 0 1
7.750541 17.678132 26.320953 32.640157 1.157609 0.632761 0.058910 -0.025156 671887.000000 0 0 1
8.249141 18.819232 27.034013 33.956585 1.157685 0.649916 0.056285 -0.021225 253351.000000 0 0 1
8.805341 19.786132 26.183163 33.979157 1.152087 0.691069 0.050343 -0.024210 -635490.000000 0 0 1
9.308141 21.023232 26.912553 35.396374 1.153984 0.706991 0.028933 -0.018014 51554.400000 0 0 1
10.489241 20.783532 27.657743 36.151489 1.103404 0.699675 0.041436 -0.036240 143915.000000 0 0 1
10.585441 21.596932 28.778763 37.505950 1.115071 0.696157 0.052261 -0.032566 -494497.000000 0 0 1
11.683141 21.172832 29.728613 38.321992 1.066573 0.682880 0.073285 -0.036679 -928861.000000 0 0 1
12.995641 21.312132 29.310503 38.499341 1.023219 0.705442 0.090811 -0.036925 -789633.000000 0 0 1
13.900841 20.915832 30.342623 39.387564 0.984220 0.691390 0.108141 -0.022267 498550.000000 0 0 1
15.298241 20.644432 29.711433 39.281013 0.933058 0.713033 0.086245 -0.030394 401124.000000 0 0 1
16.023241 21.856832 29.470003 40.036814 0.938199 0.743546 0.078590 -0.040236 -219659.000000 0 0 1
17.241041 21.604732 28.834243 39.942853 0.897263 0.764270 0.143643 -0.028166 -222196.000000 0 0 1
-8.527384 16.518532 4.221950 19.063133 -1.094248 1.347473 0.030636 -0.020965 -168805.000000 0 1 0
-8.568984 17.806732 4.796250 20.334975 -1.122284 1.332691 0.045054 -0.022827 -322119.000000 0 1 0
-7.276384 18.202032 5.162250 20.270880 -1.190500 1.313297 0.038320 -0.016975 -343416.000000 0 1 0
-7.169484 19.647432 5.672450 21.670251 -1.220904 1.305949 0.047845 -0.020361 -33039.700000 0 1 0
-7.332384 20.747032 4.760450 22.513665 -1.231079 1.357741 0.059764 -0.027078 -15203.900000 0 1 0
-8.605584 20.909032 4.172950 22.992547 -1.180354 1.388293 0.055935 -0.038953 -33399.600000 0 1 0
-8.780584 22.128332 3.238550 24.026027 -1.193049 1.435591 0.105910 -0.040564 317922.000000 0 1 0
-8.037784 22.117932 2.009850 23.618814 -1.222229 1.485598 0.065657 -0.034132 225076.000000 0 1 0
-8.625384 21.311732 0.983650 23.012057 -1.186224 1.528038 0.081990 -0.040157 196445.000000 0 1 0
-7.724584 21.400332 -0.323450 22.754077 -1.224394 1.585012 0.042251 -0.015264 1811850.000000 0 1 0
-6.468084 20.681432 -0.391050 21.672809 -1.267685 1.588841 0.021354 -0.011522 253750.000000 0 1 0
-5.417484 21.419632 0.114450 22.094408 -1.323070 1.565616 0.030894 -0.018881 -928171.000000 0 1 0
-4.065484 21.117132 -0.535350 21.511579 -1.380603 1.595685 0.030425 -0.016211 -427223.000000 0 1 0
-4.088184 21.547032 -1.915850 22.014957 -1.383292 1.657931 0.031132 -0.015594 -573945.000000 0 1 0
-2.841084 21.382132 -2.497250 21.714134 -1.438698 1.686057 0.032772 -0.010329 -654668.000000 0 1 0
-2.845384 21.676232 -3.995750 22.224340 -1.440275 1.751571 0.036682 -0.012132 -656102.000000 0 1 0
-1.580684 21.974232 -4.466750 22.479264 -1.498986 1.770833 0.052071 -0.010122 -674991.000000 0 1 0
-1.610184 22.568432 -5.712550 23.335810 -1.499570 1.818107 0.059347 -0.013316 398608.000000 0 1 0
-0.208484 23.128532 -6.113950 23.923897 -1.561782 1.829221 0.062648 -0.022081 257309.000000 0 1 0
0.766716 22.120132 -6.262150 23.002231 1.536149 1.846518 0.069688 -0.015614 -1298160.000000 0 1 0
1.888916 22.682732 -6.800750 23.755516 1.487713 1.861139 0.076580 -0.017471 -251259.000000 0 1 0
3.180916 21.773132 -6.730050 23.010456 1.425729 1.867613 0.066205 -0.010368 735108.000000 0 1 0
3.139816 20.759032 -7.706750 22.364925 1.420684 1.922599 0.065879 -0.017590 -57609.300000 0 1 0
4.278916 19.931832 -7.722150 21.799510 1.359328 1.932892 0.064212 -0.016148 106365.000000 0 1 0
4.192816 18.926732 -8.925150 21.341490 1.352788 2.002266 0.052873 -0.014218 131626.000000 0 1 0
4.530216 19.335532 -10.209850 22.329951 1.340653 2.045671 0.057956 -0.018068 -142152.000000 0 1 0
3.380816 19.203432 -10.997650 22.386380 1.396529 2.084338 0.059558 -0.019912 -259716.000000 0 1 0
3.666416 19.440632 -12.489350 23.395825 1.384390 2.133918 0.067088 -0.018820 40752.200000 0 1 0
4.002116 20.762932 -12.818650 24.727193 1.380379 2.115779 0.111215 -0.029571 -98514.500000 0 1 0
4.125816 20.907532 -14.233450 25.626907 1.375963 2.159653 0.117017 -0.032321 47579.500000 0 0 1
4.391316 22.367732 -14.672750 27.108830 1.376938 2.142723 0.102724 -0.028980 -220618.000000 0 0 1
3.249116 23.118032 -14.938250 27.715546 1.431166 2.140027 0.128506 -0.035485 -380194.000000 0 0 1
3.619916 24.401732 -15.369650 29.065004 1.423524 2.127985 0.105848 -0.031223 -16305.600000 0 0 1
2.337816 25.183432 -15.672550 29.753982 1.478230 2.125555 0.106126 -0.036509 319503.000000 0 0 1
1.509516 25.539532 -14.549450 29.431834 1.511760 2.087876 0.128501 -0.044986 145743.000000 0 0 1
1.729816 26.852532 -14.115050 30.385611 1.506466 2.053901 0.098743 -0.036014 -1343360.000000 0 0 1
0.921116 27.297232 -12.868050 30.192285 1.537065 2.011088 0.104684 -0.043450 -598435.000000 0 0 1
-0.459884 27.383032 -13.112750 30.364225 -1.554003 2.017338 0.098258 -0.045213 31217.400000 0 0 1
-1.202184 26.188032 -13.357750 29.422572 -1.524923 2.042042 0.092938 -0.041280 -1082600.000000 0 0 1
-1.292884 25.224832 -12.157050 28.031368 -1.519587 2.019385 0.129784 -0.043908 -738967.000000 0 0 1
-2.110184 25.519232 -11.039150 27.884528 -1.488294 1.977831 0.121831 -0.037425 37981.100000 0 0 1
-2.311484 24.312232 -10.284750 26.499126 -1.476006 1.969383 0.138778 -0.031887 -344067.000000 0 0 1
-3.289584 24.366632 -9.097550 26.216780 -1.436604 1.925180 0.099155 -0.025306 -195161.000000 0 0 1
-2.929384 24.833732 -7.791150 26.191555 -1.453379 1.872836 0.104925 -0.029629 -1157.600000 0 0 1
-2.449384 26.219632 -7.766350 27.455141 -1.477649 1.857586 0.097651 -0.030836 125960.000000 0 0 1
-2.235784 26.662632 -6.327750 27.494274 -1.487137 1.803026 0.083521 -0.025700 32880.500000 0 0 1
-1.200184 25.973332 -5.664050 26.610823 -1.524621 1.785285 0.072572 -0.022570 -245488.000000 0 0 1
-1.125784 26.117532 -4.273250 26.488744 -1.527718 1.732828 0.070669 -0.027774 -758925.000000 0 0 1
-2.249784 25.553332 -3.432650 25.880831 -1.482980 1.703821 0.068613 -0.021090 -903800.000000 0 0 1
-3.295684 26.469032 -3.229150 26.868171 -1.446923 1.691272 0.057458 -0.019256 156452.000000 0 0 1
-4.245284 26.227432 -2.199350 26.659666 -1.410324 1.653387 0.053984 -0.010996 312321.000000 0 0 1
-5.184484 24.972732 -2.309450 25.609564 -1.366098 1.661098 0.058312 -0.022121 -1019040.000000 0 0 1
-6.118084 25.291632 -3.286150 26.227779 -1.333454 1.696419 0.061007 -0.024633 -888276.000000 0 0 1
-6.881584 24.194732 -3.700450 25.425078 -1.293689 1.716858 0.017022 -0.026390 -600111.000000 0 0 1
-8.244984 24.731532 -4.108050 26.391372 -1.249004 1.727091 0.050428 -0.024069 -934110.000000 0 0 1
-8.996784 25.210532 -3.056550 26.941707 -1.228018 1.684492 0.084689 -0.031392 -359472.000000 0 0 1
-10.252984 25.729132 -3.487650 27.915509 -1.191586 1.696060 0.108509 -0.037153 419023.000000 0 0 1
-11.231584 26.056732 -2.342750 28.470867 -1.163818 1.653175 0.112360 -0.041349 -102720.000000 0 0 1
-11.857584 24.945332 -1.686050 27.671550 -1.127068 1.631765 0.112571 -0.038096 912436.000000 0 0 1
-10.924884 24.070132 -0.969550 26.451170 -1.144723 1.607459 0.127546 -0.047457 473867.000000 0 0 1
-11.574384 22.772132 -0.474750 25.549203 -1.100555 1.589379 0.105338 -0.045455 -495546.000000 0 0 1
-12.493584 22.944432 0.562550 26.131458 -1.072174 1.549267 0.127692 -0.050332 -335274.000000 0 0 1
-13.101284 21.704132 0.752350 25.362946 -1.027711 1.541129 0.127303 -0.052822 -447782.000000 0 0 1
-13.954684 21.703832 2.039050 25.883340 -0.999386 1.491936 0.126626 -0.053599 -395546.000000 0 0 1
-13.244284 21.567432 3.210950 25.512260 -1.020083 1.444603 0.128295 -0.049825 -269428.000000 0 0 1
-13.283684 22.694032 4.059450 26.607414 -1.041227 1.417630 0.126403 -0.050422 -77503.600000 0 0 1
-13.086184 22.436932 5.542450 26.559045 -1.042789 1.360567 0.120594 -0.048218 -1019690.000000 0 0 1
-11.785384 22.121232 5.863550 25.741512 -1.081283 1.340993 0.113648 -0.034749 -943261.000000 0 0 1
-11.698784 21.551132 7.170750 25.548630 -1.073468 1.286304 0.084552 -0.035686 -635929.000000 0 0 1
-10.259684 21.406532 7.668250 24.945998 -1.123863 1.258343 0.073765 -0.030339 -376510.000000 0 1 0
-9.712484 22.648932 8.099750 25.940556 -1.165688 1.253243 0.087621 -0.034827 778136.000000 0 0 1
-8.502184 22.513732 8.883850 25.653032 -1.209709 1.217164 0.096843 -0.037013 647043.000000 0 0 1
-8.519384 22.244932 10.383950 25.985445 -1.205047 1.159709 0.076057 -0.030954 -321347.000000 0 0 1
-9.325484 21.159132 10.751150 25.500211 -1.155677 1.135576 0.078317 -0.028480 40022.600000 0 0 1
-9.278484 20.943332 12.154850 25.931715 -1.153755 1.082949 0.054761 -0.021169 -199294.000000 0 0 1
-10.191784 19.814932 12.710950 25.652919 -1.095736 1.052389 0.043368 -0.020424 -79602.900000 0 0 1
-9.730484 18.482832 12.347250 24.264212 -1.086205 1.036929 0.056716 -0.029855 -433157.000000 0 1 0
-10.489084 17.485032 12.876450 24.115352 -1.030458 1.007528 0.046519 -0.028233 -638874.000000 0 1 0
-10.760984 16.336432 11.891150 22.892734 -0.988322 1.024614 0.041708 -0.029702 -186462.000000 0 1 0
-11.209784 15.150932 12.471750 22.599880 -0.933807 0.986215 0.035371 -0.025436 -104767.000000 0 1 0
-11.462984 14.102032 11.514550 21.514000 -0.888263 1.006038 0.027848 -0.017361 95837.600000 0 1 0
-11.791884 12.751232 12.208750 21.229603 -0.824467 0.958093 0.009824 -0.021755 -205608.000000 0 1 0
-12.991284 12.793632 12.934250 22.354984 -0.777733 0.953804 0.025145 -0.017072 -120374.000000 0 1 0
-13.075184 11.628232 13.693450 22.219064 -0.726892 0.906770 0.012580 -0.000304 -154709.000000 0 1 0
-13.883284 11.662632 14.984250 23.522124 -0.698688 0.880160 0.024074 -0.006200 -256417.000000 0 1 0
-15.218484 12.061532 14.785650 24.406931 -0.670187 0.920029 0.048975 -0.019264 338848.000000 0 1 0
-15.950484 12.295432 16.038550 25.745499 -0.656712 0.898269 0.047219 -0.013275 40210.700000 0 0 1
-17.179384 13.178132 15.946450 26.890215 -0.654349 0.935991 0.052458 -0.015157 -917046.000000 0 0 1
-18.118984 12.728432 15.054050 26.775642 -0.612396 0.973717 0.055391 -0.017971 -40896.000000 0 0 1
-19.155284 13.714932 14.851850 27.849627 -0.621375 1.008315 0.096361 -0.027171 701551.000000 0 0 1
-20.286284 13.272032 13.876350 27.932656 -0.579348 1.050913 0.114344 -0.031240 687887.000000 0 0 1
-21.304784 12.474632 14.526450 28.644860 -0.529713 1.038954 0.110706 -0.017657 578076.000000 0 0 1
-22.444284 12.446332 13.694350 29.089385 -0.506325 1.080635 0.108352 -0.021023 429446.000000 0 0 1
-23.600184 11.435632 14.066450 29.759156 -0.451217 1.078471 0.122138 -0.031277 639244.000000 0 0 1
-24.290684 11.947032 15.186350 31.038591 -0.457095 1.059540 0.130240 -0.026981 -216319.000000 0 0 1
-25.295334 11.074732 15.656350 31.743108 -0.412677 1.055008 0.103128 -0.031374 -185056.000000 0 0 1
-25.958704 11.788932 16.865550 33.125217 -0.426293 1.036605 0.096283 -0.026494 -553959.000000 0 0 1
-26.941084 12.694832 16.464850 34.030458 -0.440349 1.065774 0.109331 -0.024031 -292244.000000 0 0 1
-27.546744 13.116932 17.667450 35.256429 -0.444402 1.045912 0.089822 -0.008261 -667989.000000 0 0 1
-28.726254 14.035132 17.478950 36.437567 -0.454472 1.070488 0.091779 -0.012427 -568255.000000 0 0 1
-28.382114 15.334732 17.092650 36.508316 -0.495362 1.083561 0.110332 -0.011795 -287001.000000 0 0 1
-29.538824 16.031132 16.734450 37.544389 -0.497232 1.108813 0.106910 -0.016050 -76026.600000 0 0 1
-29.245304 17.534832 16.524350 37.892114 -0.540109 1.119548 0.101826 -0.016522 -63994.000000 0 0 1
-28.988904 18.309632 17.716750 38.593813 -0.563337 1.093863 0.092257 -0.011456 114460.000000 0 0 1
-30.020124 18.462832 18.680250 39.887790 -0.551387 1.083408 0.098897 -0.019645 -738492.000000 0 0 1
-29.410714 18.826732 20.082650 40.283356 -0.569407 1.048889 0.093413 -0.029501 354487.000000 0 0 1
-28.865774 17.798532 20.903350 39.836801 -0.552533 1.018405 0.092827 -0.024819 68876.700000 0 0 1
-27.690044 17.261032 20.344050 38.452076 -0.557423 1.013286 0.096742 -0.005444 -516188.000000 0 0 1
-27.110074 15.996632 21.052950 37.869184 -0.533080 0.981304 0.105826 -0.007041 641427.000000 0 0 1
-28.095254 14.937032 21.084950 38.171106 -0.488651 0.985580 0.084933 -0.006651 1017460.000000 0 0 1
-27.468464 13.742832 21.473450 37.476540 -0.463898 0.960654 0.076110 0.004938 493673.000000 0 0 1
-28.566254 12.635332 21.495650 37.917614 -0.416446 0.968054 0.091504 -0.005360 226206.000000 0 0 1
-29.258214 12.419332 20.295550 37.711964 -0.401424 1.002529 0.113071 -0.019189 -102163.000000 0 0 1
-30.361224 11.605632 20.651250 38.509333 -0.365113 1.004789 0.143828 -0.025559 344283.000000 0 0 1
-31.357284 11.352332 19.424550 38.593625 -0.347353 1.043371 0.151374 -0.029420 94981.100000 0 0 1
-30.822254 10.748832 18.272750 37.409118 -0.335548 1.060476 0.171527 -0.036899 158175.000000 0 0 1
-30.395534 9.382932 18.467350 36.782753 -0.299414 1.044811 0.172175 -0.034812 -334568.000000 0 0 1
-29.616604 8.746532 17.323450 35.408290 -0.287163 1.059569 0.164664 -0.044393 -421980.000000 0 0 1
-30.270064 8.609732 16.067650 35.335162 -0.277112 1.098737 0.179171 -0.039546 102620.000000 0 0 1
-30.632204 9.807532 15.443250 35.679316 -0.309858 1.123161 0.190788 -0.043867 -280145.000000 0 0 1
-29.435924 10.613132 14.916050 34.664113 -0.346043 1.125969 0.184132 -0.039009 -116155.000000 0 0 1
-28.846484 10.166232 13.708050 33.516900 -0.338834 1.149450 0.185448 -0.043742 262688.000000 0 0 1
-27.941394 11.087232 13.134150 32.804788 -0.377747 1.158872 0.144015 -0.029240 -76465.800000 0 0 1
-27.631304 10.950032 11.599150 31.905054 -0.377305 1.198718 0.194541 -0.023575 39075.200000 0 0 1
-26.972104 9.813332 11.060850 30.759361 -0.348944 1.202965 0.194555 -0.028891 473094.000000 0 0 1
-27.876434 8.769132 10.836750 31.167746 -0.304771 1.215689 0.207427 -0.027804 -225461.000000 0 0 1
-27.214414 7.578732 10.159250 30.021190 -0.271601 1.225577 0.216106 -0.034350 -15014.700000 0 0 1
-26.824254 7.948432 8.807350 29.330660 -0.288073 1.265812 0.222725 -0.020282 286919.000000 0 0 1
-26.320864 6.901232 8.040350 28.373617 -0.256424 1.283486 0.233117 -0.037001 25659.900000 0 0 1
-25.594734 7.337032 6.737150 27.464735 -0.279175 1.322965 0.233045 -0.036196 -1085280.000000 0 0 1
-26.482474 7.718632 5.774450 28.182317 -0.283605 1.364439 0.242774 -0.039994 -125006.000000 0 0 1
-25.800974 8.183532 4.637050 27.462023 -0.307142 1.401130 0.230668 -0.042737 -288615.000000 0 0 1
-26.853344 8.477432 3.592250 28.387906 -0.305792 1.443915 0.243209 -0.044647 -772345.000000 0 0 1
-27.426664 7.409332 2.894050 28.556884 -0.263852 1.469279 0.260487 -0.044833 77543.600000 0 0 1
-26.668184 6.532432 2.063850 27.534055 -0.240222 1.495770 0.246525 -0.037066 -361737.000000 0 0 1
-25.751894 7.023532 0.905650 26.707869 -0.266262 1.536880 0.238331 -0.037686 73591.500000 0 0 1
-24.779184 7.850532 1.506150 26.036653 -0.306815 1.512917 0.209022 -0.037747 250526.000000 0 0 1
-23.617784 8.052032 0.688550 24.962152 -0.328573 1.543209 0.188848 -0.025591 914618.000000 0 1 0
-22.384884 8.351532 1.623450 23.947165 -0.357093 1.502951 0.141323 -0.029271 259278.000000 0 1 0
-22.414584 9.718532 2.055150 24.517077 -0.409116 1.486873 0.132095 -0.036900 791264.000000 0 1 0
-21.377284 10.051732 2.997350 23.811965 -0.439530 1.444586 0.117721 -0.044839 252378.000000 0 1 0
-21.452084 11.499832 3.499050 24.590270 -0.492086 1.428018 0.104855 -0.055479 -850167.000000 0 1 0
-21.171784 12.390632 2.499850 24.658091 -0.529498 1.469241 0.156205 -0.053630 249287.000000 0 1 0
-21.500884 13.708032 2.868050 25.659771 -0.567578 1.458790 0.159791 -0.059458 -17776.400000 0 0 1
-20.392584 14.416932 3.698550 25.246479 -0.615388 1.423770 0.124590 -0.050375 14631.100000 0 0 1
-19.914284 13.669732 4.783550 24.623620 -0.601559 1.375286 0.117249 -0.047113 -217449.000000 0 1 0
-19.027084 14.484532 5.533150 24.544803 -0.650668 1.343411 0.097198 -0.038427 -94539.200000 0 1 0
-18.558884 13.588932 6.668450 23.949102 -0.632016 1.288624 0.078659 -0.031552 -549139.000000 0 1 0
-17.493084 12.754432 6.385150 22.571080 -0.629999 1.283990 0.060643 -0.033469 -104735.000000 0 1 0
-16.909084 12.150132 7.557150 22.150697 -0.623072 1.222635 0.054621 -0.019775 96556.700000 0 1 0
11.698316 -32.025242 -14.580250 37.081672 -1.220571 1.974898 0.092728 -0.019786 -662461.000000 0 0 1
12.963716 -32.269242 -14.070850 37.514673 -1.188794 1.955275 0.048238 -0.023280 -772104.000000 0 0 1
13.417216 -31.089742 -13.444450 36.432773 -1.163379 1.948752 0.055011 -0.030229 115223.000000 0 0 1
14.845016 -31.054942 -12.842550 36.738468 -1.124883 1.927905 0.108784 -0.022762 791265.000000 0 0 1
15.817216 -31.539942 -13.799850 37.886516 -1.105951 1.943615 0.101331 -0.025825 1245460.000000 0 0 1
17.178416 -31.120342 -13.548250 38.041145 -1.066419 1.934938 0.114288 -0.025347 1706580.000000 0 0 1
18.201716 -32.256942 -13.972250 39.585812 -1.057061 1.931530 0.106482 -0.030461 426646.000000 0 0 1
18.302916 -33.316442 -13.041950 40.187989 -1.068440 1.901304 0.104040 -0.035102 -197923.000000 0 0 1
19.075416 33.348432 -13.624250 40.762846 1.051217 1.911587 0.083368 -0.021123 -180870.000000 0 0 1
18.962616 32.072632 -12.744350 39.378332 1.036843 1.900369 0.073438 -0.028737 -519356.000000 0 0 1
19.831116 31.985432 -11.678850 39.404779 1.015797 1.871698 0.065512 -0.027793 -316810.000000 0 0 1
19.519616 30.799432 -10.944750 38.071091 1.005919 1.862393 0.062572 -0.024969 790471.000000 0 0 1
20.563516 30.552932 -9.774750 38.103617 0.978391 1.830227 0.071967 -0.022867 1947600.000000 0 0 1
21.821416 29.889432 -10.121250 38.366549 0.940172 1.837760 0.058025 -0.019288 1025470.000000 0 0 1
22.577016 29.841832 -8.948150 38.475005 0.923113 1.805516 0.053963 -0.015357 380757.000000 0 0 1
23.919116 29.040232 -9.100250 38.707541 0.881797 1.808121 0.032084 -0.005130 878747.000000 0 0 1
24.830316 29.574432 -10.080350 39.909962 0.872379 1.826139 0.041257 -0.009884 1001610.000000 0 0 1
26.036916 28.766532 -10.028550 40.075007 0.835164 1.823729 0.030813 0.002545 743641.000000 0 0 1
27.161016 29.393932 -10.879650 41.473978 0.824860 1.836227 0.033272 -0.000483 -147124.000000 0 0 1
27.692516 30.575732 -10.302850 42.519402 0.834840 1.815542 0.039517 -0.012289 536055.000000 0 0 1
28.783716 31.110932 -11.058650 43.802810 0.824234 1.826023 0.061752 -0.007895 452532.000000 0 0 1
29.155916 32.582032 -10.812150 45.039525 0.840836 1.813223 0.060762 -0.017928 -492220.000000 0 0 1
28.646516 33.509832 -11.720150 45.616813 0.863482 1.830636 0.059493 -0.010376 -162160.000000 0 0 1
29.105116 -32.860642 -11.525750 45.384716 -0.845931 1.827565 0.070509 -0.006006 -352734.000000 0 0 1
28.071616 -31.788142 -11.842050 44.031077 -0.847406 1.843096 0.054346 -0.005696 -22179.200000 0 0 1
26.926416 -31.867442 -10.991750 43.143763 -0.869241 1.828406 0.053614 -0.008025 -156592.000000 0 0 1
25.812316 -31.146542 -11.443750 42.039768 -0.878776 1.846488 0.055855 -0.018782 -43119.000000 0 0 1
25.793716 -29.620642 -11.170250 40.834700 -0.854349 1.847876 0.067562 -0.014745 -682908.000000 0 0 1
26.781416 -28.970542 -11.993550 41.235686 -0.824643 1.865915 0.049284 -0.010602 325137.000000 0 0 1
27.072416 -27.695142 -11.452550 40.386848 -0.796768 1.858313 0.041943 -0.007184 -239442.000000 0 0 1
28.093816 -26.988042 -12.375650 40.875098 -0.765326 1.878391 0.055960 -0.019847 1009010.000000 0 0 1
29.447616 -27.497942 -12.349850 42.140452 -0.751174 1.868226 0.039975 -0.008166 1088900.000000 0 0 1
29.601116 -28.350942 -13.490950 43.150987 -0.763829 1.888773 0.048266 -0.012581 517759.000000 0 0 1
31.068316 -28.896442 -13.633650 44.565918 -0.749195 1.881702 0.058294 -0.011105 716001.000000 0 0 1
31.332116 -30.032942 -12.838250 45.260355 -0.764230 1.858398 0.061747 -0.013760 -245680.000000 0 0 1
32.617516 -30.485842 -13.157750 46.544766 -0.751630 1.857394 0.072326 -0.018966 -409759.000000 0 0 1
33.058816 -31.705642 -12.310050 47.430690 -0.764507 1.833340 0.061083 -0.014505 -69611.100000 0 0 1
34.033716 -32.457742 -13.016750 48.797896 -0.761701 1.840814 0.050474 -0.016601 78460.700000 0 0 1
34.809416 -33.272642 -12.133250 49.658634 -0.762830 1.817628 0.052720 -0.013049 183612.000000 0 0 1
34.094216 33.192032 -11.508450 48.954785 0.771991 1.808101 0.058499 -0.021488 35137.200000 0 0 1
33.292116 33.575232 -10.410750 48.415338 0.789632 1.787519 0.066803 -0.023059 -172647.000000 0 0 1
32.703216 32.494932 -9.731750 47.118233 0.782204 1.778833 0.074471 -0.019660 -225593.000000 0 0 1
32.070016 32.953232 -8.408550 46.745108 0.798980 1.751662 0.064815 -0.015985 -549761.000000 0 0 1
31.142016 -33.728742 -8.603250 46.706200 -0.825252 1.756053 0.068533 -0.013474 -189349.000000 0 0 1
30.421016 -33.454742 -7.352150 45.811702 -0.832857 1.731980 0.066061 -0.014446 184770.000000 0 0 1
29.287816 -32.486742 -7.539450 44.384771 -0.837136 1.741490 0.051698 -0.015763 -730762.000000 0 0 1
29.856316 -31.167642 -7.660550 43.834981 -0.806884 1.746457 0.038582 -0.020064 716936.000000 0 0 1
28.979316 -30.086942 -8.055250 42.543059 -0.804148 1.761290 0.027233 -0.009216 528199.000000 0 0 1
27.849116 -29.672942 -7.068650 41.304026 -0.817094 1.742780 0.040037 -0.011030 -231700.000000 0 0 1
27.079916 -28.714342 -7.642850 40.202592 -0.814684 1.762069 0.046402 -0.022261 -902745.000000 0 0 1
26.066316 -28.276742 -6.788150 39.052605 -0.826051 1.745504 0.057129 -0.026647 -184995.000000 0 0 1
25.025916 -27.369342 -7.501850 37.837218 -0.830094 1.770385 0.094620 -0.032621 -170895.000000 0 0 1
24.205316 -28.078942 -8.407750 38.013347 -0.859351 1.793819 0.119362 -0.031130 -109497.000000 0 0 1
23.457616 -27.177942 -9.185150 37.057621 -0.858739 1.821268 0.137351 -0.036011 -78714.400000 0 0 1
22.450216 -28.064442 -10.011950 37.307697 -0.896084 1.842488 0.127193 -0.028612 -330157.000000 0 0 1
22.925016 -28.900842 -11.098750 38.522685 -0.900197 1.863048 0.128396 -0.026330 -907781.000000 0 0 1
22.015716 -29.610342 -11.901650 38.770006 -0.931459 1.882815 0.111204 -0.024120 -316239.000000 0 0 1
21.386116 -30.874342 -11.213450 39.196076 -0.964998 1.860936 0.108069 -0.030691 69855.900000 0 0 1
22.323316 -31.893942 -10.968950 40.445912 -0.960122 1.845436 0.082250 -0.026152 -189886.000000 0 0 1
21.774416 -33.118442 -10.562450 41.018553 -0.989187 1.831235 0.073641 -0.023885 1245790.000000 0 0 1
22.996616 33.538632 -10.475550 41.993111 0.969749 1.822918 0.054097 -0.017068 1252670.000000 0 0 1
23.820516 33.665932 -9.363050 42.290409 0.955018 1.794045 0.057581 -0.012827 57442.500000 0 0 1
25.061116 32.997632 -9.534950 42.518449 0.921254 1.796974 0.039832 -0.006874 -128272.000000 0 0 1
26.179916 33.352332 -8.563150 43.256140 0.905300 1.770076 0.032315 -0.007509 -548475.000000 0 0 1
26.048016 32.976932 -7.211050 42.637735 0.902253 1.740737 0.037142 -0.012049 132705.000000 0 0 1
26.568416 31.664632 -7.120150 41.943131 0.872690 1.741380 0.045845 -0.009731 -164931.000000 0 0 1
26.484816 31.171232 -5.693750 41.297821 0.866502 1.709107 0.055569 -0.007670 -184429.000000 0 0 1
27.507116 31.639032 -4.826250 42.201451 0.855144 1.685409 0.056762 0.001479 -156806.000000 0 0 1
28.317216 30.641032 -4.269650 41.940046 0.824792 1.672777 0.071751 0.000260 -245945.000000 0 0 1
27.708216 29.640032 -3.258450 40.704966 0.819071 1.650932 0.070022 0.002061 -666640.000000 0 0 1
27.336316 30.227032 -2.024650 40.804986 0.835574 1.620434 0.087878 -0.000803 168030.000000 0 0 1
26.944216 29.206932 -1.070250 39.751492 0.825673 1.597723 0.079068 0.002601 -370924.000000 0 0 1
25.583016 28.549732 -1.216950 38.354386 0.840148 1.602531 0.049274 0.003437 -362118.000000 0 0 1
24.452216 29.323232 -0.807750 38.189204 0.875732 1.591949 0.059457 -0.006431 1001690.000000 0 0 1
23.209116 28.695532 -1.191150 36.925810 0.890709 1.603060 0.066661 -0.002319 607478.000000 0 0 1
21.986916 29.311132 -0.525450 36.644823 0.927217 1.585136 0.063275 -0.009366 -369703.000000 0 0 1
21.798916 28.880732 0.836450 36.193771 0.924236 1.547684 0.073384 -0.020373 -461123.000000 0 0 1
20.765416 29.559232 1.442750 36.152901 0.958393 1.530879 0.087258 -0.020610 -1018200.000000 0 0 1
19.983016 28.813032 2.539350 35.156224 0.964419 1.498503 0.085921 -0.028912 -441402.000000 0 0 1
19.256416 27.813632 1.921150 33.883603 0.965232 1.514067 0.078606 -0.020069 -384221.000000 0 0 1
18.624716 26.944432 2.815250 32.875646 0.965983 1.485058 0.082714 -0.023509 -646999.000000 0 0 1
18.129716 25.692632 2.066450 31.512984 0.956296 1.505175 0.094185 -0.019923 -238067.000000 0 0 1
19.095816 24.829732 1.491150 31.359039 0.915201 1.523227 0.097747 -0.026621 91633.200000 0 0 1
20.080916 24.396332 2.404150 31.689180 0.882121 1.494857 0.104248 -0.016383 -623246.000000 0 0 1
21.184016 23.552832 1.785350 31.728314 0.838299 1.514497 0.107713 -0.013941 -481979.000000 0 0 1
20.611616 22.366932 1.308150 30.443877 0.826217 1.527814 0.101144 -0.013738 -80735.100000 0 0 1
21.554516 21.376832 1.004950 30.373937 0.781259 1.537704 0.063035 -0.018709 -391294.000000 0 0 1
21.288916 20.507432 -0.209550 29.560390 0.766703 1.577885 0.119341 -0.018217 -260155.000000 0 0 1
21.348716 21.206732 -1.452950 30.126471 0.782062 1.619043 0.081695 -0.010533 303886.000000 0 0 1
21.500616 20.332232 -2.529350 29.699727 0.757476 1.656064 0.133934 -0.015232 -19557.800000 0 0 1
21.574316 21.089232 -3.826650 30.411348 0.774029 1.696960 0.095160 -0.024530 747595.000000 0 0 1
22.748316 21.934132 -3.954450 31.846973 0.767179 1.695288 0.102836 -0.017935 1043790.000000 0 0 1
22.851916 22.548332 -5.209450 32.523464 0.778711 1.731664 0.058188 -0.006549 349289.000000 0 0 1
24.091216 23.512832 -5.208850 34.064235 0.773249 1.724311 0.063569 0.000279 331139.000000 0 0 1
23.859816 24.712432 -4.466050 34.640161 0.802950 1.700083 0.046009 0.000508 32737.100000 0 0 1
23.982716 24.681332 -3.049650 34.549084 0.799753 1.659181 0.069914 -0.003395 -433934.000000 0 0 1
22.725816 24.511732 -2.191550 33.497621 0.823187 1.636267 0.062388 -0.008856 -917581.000000 0 0 1
21.760216 25.541732 -2.241350 33.629016 0.865173 1.637495 0.074636 -0.016650 -269559.000000 0 0 1
20.611616 25.400832 -1.511750 32.746395 0.889110 1.616978 0.080266 -0.005841 -550172.000000 0 0 1
19.585416 24.321632 -1.964150 31.288787 0.892852 1.633612 0.095915 -0.022974 -844622.000000 0 0 1
19.022916 24.632632 -3.246150 31.291778 0.913197 1.674721 0.079805 -0.021128 291622.000000 0 0 1
18.255116 23.510732 -3.699750 29.994865 0.910575 1.694457 0.080138 -0.025499 226941.000000 0 0 1
17.463416 23.895232 -4.994550 30.014972 0.939676 1.737976 0.076815 -0.020973 -124580.000000 0 0 1
17.006316 22.741232 -5.629550 28.949443 0.928693 1.766505 0.086920 -0.028363 2007.550000 0 0 1
16.381016 23.061732 -6.843550 29.103528 0.953183 1.808164 0.085840 -0.027210 -50366.000000 0 0 1
15.761316 21.900232 -7.633550 28.041226 0.946979 1.846502 0.096702 -0.026233 -826455.000000 0 0 1
16.728316 20.988232 -8.019350 28.011648 0.897867 1.861145 0.092551 -0.026977 -163665.000000 0 0 1
16.243816 20.084832 -8.985250 27.349529 0.890736 1.905547 0.133707 -0.034385 93149.500000 0 0 1
17.170916 18.856732 -9.227850 27.121392 0.832156 1.917971 0.138294 -0.034121 739582.000000 0 0 1
18.420016 19.102432 -9.884250 28.317809 0.803583 1.927350 0.113848 -0.034285 574711.000000 0 0 1
18.957816 17.900432 -10.291350 28.030985 0.756718 1.946731 0.123604 -0.034735 41142.200000 0 0 1
20.475516 17.810232 -10.613650 29.139332 0.715895 1.943611 0.090672 -0.030374 31174.300000 0 0 1
20.868216 18.389132 -11.817350 30.220728 0.722332 1.972552 0.099924 -0.030112 -767321.000000 0 0 1
22.239116 18.489232 -11.954450 31.294390 0.693586 1.962756 0.084326 -0.023495 -930334.000000 0 0 1
22.625116 18.868032 -13.381450 32.356788 0.695097 1.997156 0.087680 -0.028470 -209881.000000 0 0 1
22.388616 17.825432 -14.337250 32.008638 0.672409 2.035232 0.091623 -0.027080 19795.200000 0 0 1
22.431316 18.177532 -15.703850 32.866358 0.681029 2.068955 0.102376 -0.029509 -45920.300000 0 0 1
22.376916 16.999332 -16.754050 32.716996 0.649669 2.108413 0.083141 -0.021505 -257183.000000 0 0 1
23.475616 16.106332 -16.722950 33.017806 0.601328 2.101897 0.096281 -0.022828 122938.000000 0 0 1
23.664516 15.469732 -17.980450 33.505500 0.578979 2.137248 0.092516 -0.028650 -225298.000000 0 0 1
24.510416 16.313832 -18.954150 35.016588 0.587255 2.142768 0.096620 -0.022543 -393425.000000 0 0 1
25.875116 16.424732 -18.594550 35.847604 0.565594 2.116139 0.105440 -0.020015 78664.100000 0 0 1
26.594716 17.023432 -19.644450 37.188447 0.569388 2.127324 0.106583 -0.021690 -108141.000000 0 0 1
28.099616 17.098232 -19.316650 38.145392 0.546636 2.101796 0.091378 -0.021651 -253457.000000 0 0 1
28.359816 17.953832 -18.264150 38.212543 0.564384 2.069130 0.084773 -0.018498 -215234.000000 0 0 1
29.705916 17.927632 -17.861050 39.023820 0.542992 2.046199 0.068960 -0.028001 -393500.000000 0 0 1
30.080416 18.993432 -16.800550 39.342602 0.563204 2.012004 0.078249 -0.033007 -13901.400000 0 0 1
29.316816 18.975532 -15.625850 38.258512 0.574445 1.991528 0.071181 -0.027836 283947.000000 0 0 1
28.059016 19.645332 -15.689150 37.674884 0.610822 2.000317 0.063780 -0.022755 263942.000000 0 0 1
27.048816 19.177532 -14.621750 36.238264 0.616739 1.986123 0.070349 -0.028130 -216932.000000 0 0 1
27.524216 19.310632 -13.365750 36.181850 0.611790 1.949165 0.063939 -0.029068 787387.000000 0 0 1
26.443616 18.978332 -12.447450 34.847969 0.622500 1.936057 0.063332 -0.031114 731664.000000 0 0 1
26.628616 19.609932 -11.030850 34.861329 0.634755 1.892750 0.061080 -0.028519 -97184.600000 0 0 1
26.327516 20.992332 -10.856650 35.379132 0.673125 1.882695 0.059121 -0.019550 56357.400000 0 0 1
26.827216 21.479232 -9.631750 35.690721 0.675138 1.844051 0.052935 -0.009865 162945.000000 0 0 1
25.858016 21.303332 -8.429850 34.547523 0.689120 1.817292 0.072792 -0.014608 -430150.000000 0 0 1
25.881916 19.964532 -7.924650 33.634152 0.657038 1.808646 0.087693 -0.028696 215281.000000 0 0 1
24.942016 19.753432 -6.902450 32.556813 0.669828 1.784430 0.086897 -0.031717 372382.000000 0 0 1
23.445316 19.554332 -7.283750 31.386426 0.695155 1.804998 0.097800 -0.034750 129250.000000 0 0 1
22.787716 20.718432 -7.747450 31.757777 0.737871 1.817238 0.093498 -0.026140 -132828.000000 0 0 1
21.459216 20.427032 -8.099750 30.714289 0.760761 1.837666 0.091434 -0.029223 -229327.000000 0 0 1
20.588516 21.659732 -8.410350 31.044564 0.810748 1.845137 0.084198 -0.027676 -471457.000000 0 0 1
20.926416 22.423532 -9.563450 32.127702 0.819920 1.873047 0.098208 -0.028110 -87829.200000 0 0 1
20.387416 22.111332 -10.823850 31.964253 0.825940 1.916250 0.101866 -0.014725 -111836.000000 0 0 1
18.875316 22.371232 -11.022450 31.276892 0.869953 1.930947 0.098514 -0.014069 -383925.000000 0 0 1
18.532416 23.720932 -10.737750 31.959855 0.907582 1.913438 0.108630 -0.025343 -52291.800000 0 0 1
17.125116 23.786132 -10.746150 31.217454 0.946798 1.922221 0.102706 -0.020494 -118955.000000 0 0 1
16.749716 25.151932 -10.163350 31.882070 0.983296 1.895238 0.106081 -0.025098 131161.000000 0 0 1
17.403216 26.265632 -10.804950 33.309192 0.985625 1.901156 0.109617 -0.026456 342948.000000 0 0 1
17.228416 27.529432 -10.150350 34.025249 1.011609 1.873726 0.107144 -0.035033 20302.300000 0 0 1
20.781816 29.038032 33.102762 48.691725 0.949627 0.823247 0.066148 -0.006151 -59476.700000 0 0 1
19.398216 29.186232 33.276917 48.326806 0.984201 0.811266 0.089969 -0.030186 -404019.000000 0 0 1
18.637216 28.033832 32.931831 47.092962 0.984079 0.796387 0.088015 -0.026496 1066690.000000 0 0 1
17.090116 28.305432 32.959298 46.686025 1.027606 0.786993 0.115957 -0.039590 782251.000000 0 0 1
16.604716 28.889832 31.756953 46.030893 1.049143 0.809438 0.125308 -0.043527 -444717.000000 0 0 1
15.357316 29.470732 32.037732 46.160454 1.090408 0.803695 0.138843 -0.048820 -268283.000000 0 0 1
14.315716 29.320532 30.934563 44.961990 1.116594 0.812045 0.131922 -0.048223 -89284.100000 0 0 1
13.785516 28.005232 30.823723 43.868387 1.113370 0.791694 0.119896 -0.049294 217202.000000 0 0 1
12.373516 27.967532 30.694233 43.329236 1.154260 0.783574 0.118182 -0.033421 235764.000000 0 0 1
11.791316 26.530432 30.591833 42.175339 1.152572 0.759255 0.089586 -0.027781 -121284.000000 0 0 1
12.016516 25.928232 29.328653 40.949234 1.136811 0.772426 0.090068 -0.029632 1086510.000000 0 0 1
13.244116 25.158232 29.379693 40.884100 1.086227 0.768996 0.081788 -0.025252 947916.000000 0 0 1
13.676816 24.546832 28.014283 39.678739 1.062463 0.786923 0.091496 -0.024841 -140968.000000 0 0 1
13.841316 25.359632 26.852703 39.443132 1.071183 0.821948 0.077596 -0.028278 157688.000000 0 0 1
13.738016 24.636232 25.622313 38.107479 1.062111 0.833391 0.082978 -0.020370 20406.900000 0 0 1
12.526616 23.734032 25.237973 36.839865 1.085164 0.816093 0.081736 -0.020316 -175325.000000 0 0 1
12.520416 23.294632 23.891123 35.639676 1.077616 0.836113 0.093674 -0.024414 18592.200000 0 0 1
11.597516 22.279632 23.551993 34.432264 1.090849 0.817551 0.100153 -0.030877 -4294.180000 0 0 1
11.594116 22.065132 22.019573 33.258912 1.086997 0.847225 0.129700 -0.043826 -69096.600000 0 0 1
11.137516 23.208732 21.340573 33.438146 1.123370 0.878625 0.131212 -0.040494 -9375.810000 0 0 1
11.115216 22.951132 19.914073 32.355414 1.119788 0.907803 0.125817 -0.029676 -804476.000000 0 0 1
10.726216 24.129332 19.007273 32.535409 1.152500 0.946899 0.123703 -0.033781 -1082920.000000 0 0 1
9.385516 24.353332 18.822573 32.178595 1.202948 0.945989 0.122986 -0.038766 -1358190.000000 0 0 1
8.755616 24.936032 19.917773 33.093567 1.233121 0.924965 0.133849 -0.045623 -200566.000000 0 0 1
7.274916 25.334632 19.628473 32.864037 1.291167 0.930712 0.120630 -0.044270 488562.000000 0 0 1
7.167216 26.391032 18.689973 33.123567 1.305615 0.971272 0.128234 -0.052114 -589815.000000 0 0 1
5.828316 26.678932 18.434873 32.948130 1.355714 0.976999 0.103897 -0.051040 -906722.000000 0 0 1
5.751916 27.853632 17.475573 33.381208 1.367154 1.019825 0.110412 -0.042844 -89795.100000 0 0 1
6.299816 27.648632 16.219773 32.668266 1.346768 1.051235 0.110247 -0.033441 -152236.000000 0 0 1
6.899816 28.844732 15.687973 33.552027 1.336003 1.084255 0.108713 -0.033792 242476.000000 0 0 1
7.762916 28.691032 14.421773 33.036733 1.306554 1.119050 0.108044 -0.040229 -251688.000000 0 0 1
7.037116 28.451732 13.253373 32.166348 1.328327 1.146120 0.099223 -0.036972 -332128.000000 0 0 1
7.042216 27.094132 12.860573 30.807128 1.316506 1.140154 0.088279 -0.033855 7904.650000 0 0 1
6.556016 27.017032 11.345373 30.026969 1.332736 1.183335 0.091517 -0.032508 -388820.000000 0 0 1
7.307316 27.453432 10.279673 30.211910 1.310656 1.223611 0.079430 -0.024737 -416181.000000 0 0 1
7.647016 28.860932 10.241573 31.564538 1.311787 1.240351 0.074454 -0.022020 -331701.000000 0 0 1
7.913316 29.347132 8.799373 31.643383 1.307415 1.289002 0.050111 -0.009383 -525653.000000 0 0 1
6.843516 29.593432 7.910973 31.387712 1.343540 1.316008 0.085467 -0.023891 -309606.000000 0 0 1
6.440916 28.419232 7.270973 30.033402 1.347922 1.326271 0.085500 -0.013122 859567.000000 0 0 1
4.879116 28.213332 7.270873 29.540878 1.399554 1.322112 0.092922 -0.024277 1337450.000000 0 0 1
4.154416 29.075132 6.326073 30.043996 1.428871 1.358648 0.088824 -0.019535 -48746.300000 0 0 1
2.768416 28.822232 6.395173 29.652714 1.475039 1.353419 0.098207 -0.015130 -13140.400000 0 0 1
2.026916 29.748032 5.443673 30.309856 1.502765 1.390216 0.103562 -0.021543 -324604.000000 0 0 1
2.473616 29.471632 4.096773 29.857653 1.487060 1.433152 0.086527 -0.019859 263789.000000 0 0 1
1.782816 30.269232 3.159973 30.485903 1.511966 1.466956 0.057929 -0.025104 762678.000000 0 0 1
0.369016 29.745732 2.748373 29.874710 1.558391 1.478669 0.097071 -0.026088 385449.000000 0 0 1
0.462316 28.742832 1.762273 28.800516 1.554713 1.509569 0.099052 -0.025744 498529.000000 0 0 1
-0.809084 28.107732 1.554273 28.162297 -1.542019 1.515578 0.087073 -0.022806 717379.000000 0 0 1
-1.318984 28.236032 0.120573 28.267079 -1.524117 1.566531 0.083210 -0.024599 -144561.000000 0 0 1
-1.757184 29.553432 -0.237027 29.606574 -1.511408 1.578802 0.089150 -0.026516 -104011.000000 0 0 1
-1.584284 29.820832 -1.586127 29.904979 -1.517719 1.623860 0.082499 -0.031068 -861998.000000 0 0 1
-2.557484 30.884432 -2.122627 31.062750 -1.488177 1.639183 0.098684 -0.027915 13477.200000 0 0 1
-3.821284 30.400032 -2.552227 30.745374 -1.445752 1.653904 0.077125 -0.032028 160025.000000 0 0 1
-3.760584 29.567032 -3.739227 30.038862 -1.444287 1.695600 0.059185 -0.029374 -869651.000000 0 0 1
-5.080584 29.105332 -4.410127 29.872762 -1.397979 1.718968 0.070385 -0.024020 -285434.000000 0 0 1
-5.659084 30.253632 -4.944527 31.172999 -1.385879 1.730085 0.076673 -0.028122 -553490.000000 0 0 1
-6.449784 29.881132 -6.013627 31.155184 -1.358210 1.765037 0.072219 -0.031404 -449383.000000 0 0 1
-7.200484 30.979532 -6.783627 32.520701 -1.342424 1.780934 0.076668 -0.024080 -195881.000000 0 0 1
-8.332884 31.512532 -6.156727 33.172005 -1.312283 1.757479 0.065232 -0.019744 -244278.000000 0 0 1
-8.734584 32.635632 -6.901727 34.482043 -1.309286 1.772312 0.063587 -0.029493 -182706.000000 0 0 1
-9.879884 33.505132 -6.343927 35.502837 -1.284046 1.750449 0.056881 -0.022661 495987.000000 0 0 1
-11.153484 32.893432 -6.470927 35.330596 -1.243883 1.754990 0.068975 -0.017823 -134560.000000 0 0 1
-12.193484 33.645432 -5.886727 36.267750 -1.223108 1.733831 0.068622 -0.018175 1110500.000000 0 0 1
-13.638784 33.147432 -6.278227 36.389350 -1.180451 1.744193 0.096204 -0.013938 819609.000000 0 0 1
-13.996584 33.531232 -7.591627 37.119815 -1.175364 1.776766 0.080151 -0.016798 89888.300000 0 0 1
-15.282484 33.018532 -7.887927 37.228983 -1.137311 1.784290 0.107867 -0.015594 -349153.000000 0 0 1
-15.786484 33.337832 -9.324327 38.046908 -1.128548 1.818393 0.133195 -0.030153 1031050.000000 0 0 1
-17.114984 32.794832 -9.513927 38.196053 -1.089798 1.822528 0.179309 -0.043267 983591.000000 0 0 1
-18.123484 33.765532 -9.286627 39.431121 -1.078187 1.808545 0.180706 -0.044930 -1122780.000000 0 0 1
-19.526384 33.192732 -9.564727 39.680236 -1.039044 1.814239 0.190939 -0.054507 -164048.000000 0 0 1
-20.206784 32.555432 -8.490827 39.246203 -1.015303 1.788868 0.183461 -0.051060 133180.000000 0 0 1
-20.491984 33.381432 -7.389627 39.860356 -1.020238 1.757263 0.167566 -0.030846 -818039.000000 0 0 1
-21.227784 32.682132 -6.276227 39.473176 -0.994757 1.730474 0.167479 -0.035137 -649100.000000 0 0 1
-20.948784 33.323532 -5.075827 39.687194 -1.009578 1.699043 0.162745 -0.026791 657541.000000 0 0 1
-21.966384 33.192432 -4.051627 40.008440 -0.986178 1.672240 0.140633 -0.025996 531326.000000 0 0 1
-23.143084 -33.503842 -4.189527 40.934849 0.966299 1.673322 0.149242 -0.035137 -643504.000000 0 0 1
-23.900784 -33.821142 -5.300127 41.751748 0.955600 1.698084 0.152839 -0.042046 -305950.000000 0 0 1
-24.916584 -32.810042 -5.406427 41.551949 0.921294 1.701279 0.152779 -0.053797 346532.000000 0 0 1
-25.499544 -32.835442 -6.877727 42.139009 0.910496 1.734745 0.198385 -0.052205 597152.000000 0 0 1
-24.521584 -32.274942 -7.795727 41.276547 0.921071 1.760803 0.223934 -0.046686 756004.000000 0 0 1
-24.887684 -32.511942 -9.153527 41.954859 0.917453 1.790741 0.195037 -0.040534 737721.000000 0 0 1
-26.263334 -31.917242 -9.602627 42.434461 0.882273 1.799067 0.168675 -0.027650 -485999.000000 0 0 1
-27.443894 -32.563442 -9.209027 43.570073 0.870507 1.783764 0.160320 -0.015270 76126.800000 0 0 1
-28.649204 -32.052542 -9.759327 44.083861 0.841406 1.794027 0.077787 -0.007027 457529.000000 0 0 1
-29.016434 -30.559642 -9.427027 43.182334 0.811296 1.790876 0.047824 0.013282 -1111760.000000 0 0 1
-28.325714 -29.510442 -10.075727 42.127574 0.805880 1.812309 0.075906 0.015931 -303260.000000 0 0 1
-28.617274 -29.382442 -11.449627 42.583685 0.798590 1.843020 0.065652 0.014675 -383250.000000 0 0 1
-27.663874 -28.443942 -12.175227 41.504023 0.799300 1.868526 0.134671 0.006295 216907.000000 0 0 1
-26.349104 -28.974142 -12.320127 41.055593 0.832812 1.875577 0.136562 -0.013610 248669.000000 0 0 1
-25.534914 -28.106242 -13.090827 40.166683 0.833297 1.902773 0.121482 -0.019822 81738.000000 0 0 1
-24.090784 -28.538042 -13.420627 39.684996 0.869700 1.915777 0.148219 -0.036534 119578.000000 0 0 1
-24.006584 -29.696142 -14.248827 40.757895 0.890950 1.927937 0.169502 -0.050649 -123282.000000 0 0 1
-24.125284 -30.893842 -13.530327 41.467198 0.907805 1.903172 0.172026 -0.052548 -50469.800000 0 0 1
-24.414784 -32.164542 -14.406927 42.874223 0.921523 1.913493 0.180968 -0.049767 212446.000000 0 0 1
-24.564284 -33.280542 -13.532927 43.521703 0.934956 1.886985 0.160199 -0.058297 -67209.700000 0 0 1
-24.511284 33.183632 -14.270027 43.653066 -0.934595 1.903814 0.160876 -0.057797 -93280.300000 0 0 1
-24.889584 31.888732 -13.419627 42.620054 -0.908051 1.891112 0.129451 -0.057523 109544.000000 0 0 1
-24.026884 31.458332 -12.360327 41.469211 -0.918541 1.873456 0.128211 -0.057395 270147.000000 0 0 1
-23.869484 32.288532 -11.207427 41.688224 -0.934207 1.842984 0.166433 -0.056400 363003.000000 0 0 1
-23.101984 31.430532 -10.154727 40.307549 -0.936953 1.825472 0.165035 -0.058373 586199.000000 0 0 1
-24.080184 30.774232 -9.345027 40.177583 -0.906831 1.805539 0.149074 -0.051441 452573.000000 0 0 1
-23.504284 29.958532 -8.358127 38.984911 -0.905541 1.786868 0.154558 -0.041180 -263386.000000 0 0 1
-24.547884 29.332832 -7.411927 38.960882 -0.873972 1.762203 0.131036 -0.037716 437178.000000 0 0 1
-25.430814 28.444632 -8.182727 39.022819 -0.841280 1.782055 0.127412 -0.024770 287796.000000 0 0 1
-25.909724 27.300532 -7.542827 38.386548 -0.811530 1.768580 0.121764 -0.023414 -701536.000000 0 0 1
-24.967184 26.184232 -7.112727 36.872282 -0.809187 1.764915 0.119500 -0.019810 192298.000000 0 0 1
-23.971284 26.579832 -6.150027 36.317114 -0.836955 1.740959 0.121191 -0.014269 600833.000000 0 0 1
-22.969184 25.589532 -5.896727 34.888092 -0.839308 1.740630 0.112405 -0.026184 -351403.000000 0 0 1
-21.736184 26.288732 -5.358027 34.529228 -0.879911 1.726600 0.110884 -0.040600 -346633.000000 0 0 1
-20.858784 26.659632 -6.431527 34.455615 -0.906873 1.758559 0.120340 -0.026508 939774.000000 0 0 1
-19.608484 27.256432 -6.025527 34.113234 -0.947164 1.748361 0.126658 -0.026938 750641.000000 0 0 1
-18.468484 27.070532 -7.036327 33.517287 -0.972092 1.782301 0.139642 -0.031460 -419474.000000 0 0 1
-18.633484 27.620432 -8.277827 34.330998 -0.977303 1.814314 0.145473 -0.038913 -55821.700000 0 0 1
-18.435184 29.020932 -8.243127 35.355617 -1.004869 1.806111 0.132934 -0.034609 -361961.000000 0 0 1
-18.462284 29.735432 -9.655927 36.308247 -1.015162 1.839978 0.152093 -0.041784 541474.000000 0 0 1
-17.325684 29.522132 -10.533427 35.814644 -1.040086 1.869320 0.143297 -0.040085 714662.000000 0 0 1
-17.391784 30.216532 -11.745827 36.789637 -1.048532 1.895755 0.153226 -0.047667 -119368.000000 0 0 1
-16.013684 30.776532 -12.172927 36.767012 -1.091024 1.908247 0.134229 -0.040390 151104.000000 0 0 1
-15.943684 31.464232 -13.388427 37.728622 -1.101784 1.933562 0.135418 -0.042894 -172739.000000 0 0 1
-16.051284 30.688432 -14.622627 37.593148 -1.088887 1.970310 0.139799 -0.045887 -191176.000000 0 0 1
-15.497384 31.535132 -15.756827 38.508584 -1.114026 1.992348 0.163836 -0.052767 388928.000000 0 0 1
-14.075684 31.621932 -15.729127 38.019428 -1.152005 1.997325 0.154228 -0.053484 312946.000000 0 0 1
-13.602584 31.916932 -17.036127 38.651655 -1.167921 2.027242 0.149185 -0.059754 2003080.000000 0 0 1
-12.002684 32.011832 -17.238727 38.288321 -1.212074 2.037824 0.161735 -0.065585 1725860.000000 0 0 1
-11.485784 30.711832 -17.150027 37.003558 -1.212915 2.052703 0.161864 -0.076435 -877802.000000 0 0 1
-10.223084 30.394732 -17.616627 36.588205 -1.246339 2.073143 0.158082 -0.069683 -447132.000000 0 0 1
-10.022184 30.559632 -19.124827 37.417834 -1.253894 2.107278 0.161442 -0.074835 -730125.000000 0 0 1
-10.973884 29.814732 -19.831227 37.451595 -1.218116 2.128826 0.143848 -0.076463 -178679.000000 0 0 1
-10.717584 29.769032 -21.214627 38.093599 -1.225219 2.161455 0.141506 -0.080306 -1084180.000000 0 0 1
-11.917984 29.292832 -22.065127 38.561356 -1.184393 2.179992 0.134913 -0.072832 917883.000000 0 0 1
-12.961684 30.260832 -22.363227 39.797451 -1.166107 2.167509 0.140815 -0.069892 746111.000000 0 0 1
-13.732584 30.559132 -21.205027 39.649686 -1.148460 2.135079 0.136868 -0.062363 -1108810.000000 0 0 1
-14.619984 31.782932 -21.289727 40.953036 -1.139662 2.117480 0.169563 -0.066586 -262568.000000 0 0 1
-15.627784 31.700332 -22.282427 41.780920 -1.112777 2.133312 0.128395 -0.052686 180289.000000 0 0 1
-16.263484 32.945632 -22.577527 43.123779 -1.112245 2.121811 0.117472 -0.050557 303875.000000 0 0 1
-16.734284 33.122932 -24.034827 44.213548 -1.102983 2.145526 0.104581 -0.035847 184586.000000 0 0 1
-15.669784 33.275732 -24.953927 44.446765 -1.130693 2.166914 0.119701 -0.034585 -39923.400000 0 0 1
-16.037184 32.951932 -26.281327 45.096887 -1.117858 2.192935 0.126311 -0.030489 -16242.700000 0 0 1
-16.559684 -33.561742 -27.120027 46.218065 1.112435 2.197878 0.109093 -0.019269 -608524.000000 0 0 1
-17.808284 -33.149742 -26.703927 46.142606 1.077828 2.187962 0.107991 -0.010616 -1196760.000000 0 0 1
-18.294384 -32.146642 -27.522827 46.104198 1.053414 2.210515 0.093329 0.000837 486205.000000 0 0 1
-19.799084 -31.801642 -27.296327 46.351242 1.013939 2.200496 0.102545 -0.005180 783511.000000 0 0 1
-20.719084 -32.837142 -27.638827 47.659869 1.007919 2.189425 0.094424 -0.006272 38812.500000 0 0 1
-22.043084 -32.364842 -27.402027 47.793845 0.972881 2.181371 0.078943 0.002003 1188290.000000 0 0 1
-23.123984 -33.522142 -27.389127 49.077662 0.966941 2.162863 0.053113 0.010675 204436.000000 0 0 1
-23.331984 33.385132 -26.194127 48.426034 -0.960827 2.142315 0.082144 -0.002711 48877.200000 0 0 1
-24.559784 32.669832 -26.051827 48.468532 -0.926172 2.138266 0.060127 -0.003456 549256.000000 0 0 1
-24.758784 31.547032 -27.100327 48.400830 -0.905379 2.165079 0.062612 -0.008072 -60995.000000 0 0 1
-23.802584 30.520832 -26.864027 47.114331 -0.908445 2.177531 0.069063 -0.038223 104268.000000 0 0 1
-24.019184 29.776632 -25.683027 46.078052 -0.892016 2.162024 0.048402 -0.030893 32901.200000 0 0 1
33.031941 10.081532 -25.657720 43.024005 0.296226 2.209753 0.061294 -0.011979 61634.500000 0 0 1
32.513731 8.767432 -25.820030 42.434473 0.263389 2.224925 0.052554 -0.010619 239.618000 0 0 1
31.111291 8.829832 -25.964720 41.473425 0.276542 2.247282 0.081500 -0.019672 -31993.400000 0 0 1
30.465371 7.432532 -25.860500 40.646609 0.239292 2.260395 0.074058 -0.016966 -62795.000000 0 0 1
30.697631 6.961932 -24.531850 39.907702 0.223018 2.232820 0.054679 -0.003148 -57623.700000 0 0 1
29.856341 5.900832 -24.169250 38.863524 0.195126 2.241964 0.056314 -0.003299 -241126.000000 0 0 1
30.005601 5.454632 -22.705050 38.021157 0.179823 2.210763 0.063800 -0.009638 219192.000000 0 0 1
31.318861 5.181732 -22.234550 38.756891 0.163965 2.181804 0.089927 -0.015115 563044.000000 0 0 1
31.164671 4.924732 -20.843050 37.814315 0.156727 2.154592 0.090614 -0.017030 224202.000000 0 0 1
32.491921 4.681732 -20.073750 38.478552 0.143104 2.119623 0.087495 -0.014586 -36948.900000 0 0 1
33.185351 3.482032 -20.272750 39.043264 0.104544 2.116756 0.108792 -0.010742 589713.000000 0 0 1
34.067621 3.297032 -19.154950 39.222255 0.096479 2.081017 0.119591 -0.017606 13413.600000 0 0 1
34.737451 1.934432 -19.067050 39.673478 0.055630 2.072134 0.126597 -0.021668 -58698.200000 0 0 1
33.833941 0.906732 -18.751950 38.693582 0.026793 2.076733 0.129985 -0.023918 319959.000000 0 0 1
34.567951 -0.271268 -18.699950 39.302734 -0.007847 2.066661 0.144423 -0.029634 294878.000000 0 0 1
33.642381 -1.465068 -18.252650 38.302943 -0.043521 2.067504 0.106354 -0.030149 400336.000000 0 0 1
33.225831 -1.474868 -16.911850 37.311415 -0.044360 2.041218 0.104314 -0.031365 679870.000000 0 0 1
31.829391 -1.170368 -16.801550 36.010720 -0.036753 2.056206 0.096305 -0.036490 505833.000000 0 0 1
31.214831 -1.415468 -15.409650 34.840013 -0.045315 2.028955 0.110762 -0.031647 -83865.800000 0 0 1
31.073681 -2.752068 -15.015050 34.620792 -0.088335 2.019392 0.097317 -0.029014 37493.300000 0 0 1
29.965941 -2.882268 -14.172750 33.273592 -0.095890 2.010803 0.083131 -0.031658 -262335.000000 0 0 1
29.775141 -4.335568 -13.562150 33.004364 -0.144594 1.994259 0.083032 -0.038742 -119254.000000 0 0 1
29.414341 -5.373068 -14.435950 33.203463 -0.180676 2.020582 0.071405 -0.034799 297938.000000 0 0 1
29.117641 -6.599268 -13.825050 32.901662 -0.222876 2.004454 0.081064 -0.030438 -385151.000000 0 0 1
28.534841 -7.532368 -14.868850 33.046276 -0.258084 2.037495 0.057842 -0.019778 31876.500000 0 0 1
27.192841 -7.219668 -15.245150 31.999825 -0.259512 2.067367 0.071202 -0.018843 476095.000000 0 0 1
26.760241 -8.308668 -16.009350 32.271407 -0.301049 2.089880 0.070936 -0.012713 1093680.000000 0 0 1
25.247941 -8.168468 -16.480150 31.237441 -0.312902 2.126542 0.057596 -0.016953 1181620.000000 0 0 1
25.132541 -7.364568 -17.661750 31.588271 -0.285049 2.164125 0.061707 -0.019541 413738.000000 0 0 1
23.772741 -6.990268 -17.846950 30.537201 -0.285985 2.194978 0.120135 -0.025624 590016.000000 0 0 1
23.311641 -7.115268 -19.364150 31.129245 -0.296242 2.242163 0.086582 -0.022728 86640.900000 0 0 1
24.014641 -6.213968 -20.189050 31.983028 -0.253204 2.253951 0.080886 -0.024541 308070.000000 0 0 1
23.640841 -6.473968 -21.490750 32.598373 -0.267294 2.290628 0.096572 -0.024702 -518633.000000 0 0 1
24.567141 -5.754968 -22.428950 33.759766 -0.230106 2.297446 0.090468 -0.028131 -509536.000000 0 0 1
24.461441 -6.091868 -23.814650 34.678675 -0.244075 2.327768 0.101496 -0.035106 193433.000000 0 0 1
24.588441 -4.912668 -24.695950 35.193972 -0.197199 2.348591 0.096021 -0.040091 -144899.000000 0 0 1
24.254241 -5.226068 -26.169340 36.061258 -0.212226 2.382835 0.096694 -0.038504 -249274.000000 0 0 1
22.927741 -5.590568 -26.439710 35.440005 -0.239167 2.412894 0.093986 -0.036877 -392917.000000 0 0 1
22.785341 -5.705268 -27.849620 36.432446 -0.245348 2.440935 0.078475 -0.035317 -141211.000000 0 0 1
21.652641 -6.622068 -28.262570 36.214106 -0.296799 2.466149 0.066876 -0.036331 -160239.000000 0 0 1
21.998241 -7.999068 -28.214020 36.659768 -0.348759 2.449039 0.059318 -0.023845 1122380.000000 0 0 1
20.819541 -8.802768 -28.475250 36.356318 -0.400017 2.470636 0.060053 -0.031931 835367.000000 0 0 1
20.919741 -10.224468 -27.888310 36.330884 -0.454605 2.445916 0.089673 -0.026269 -227450.000000 0 0 1
19.620641 -10.770168 -27.786610 35.679991 -0.502014 2.463504 0.104569 -0.021707 255878.000000 0 0 1
19.502341 -12.067468 -27.126560 35.522040 -0.554107 2.439751 0.108690 -0.022214 -167964.000000 0 0 1
19.463541 -13.291368 -28.125500 36.695144 -0.599147 2.444114 0.099459 -0.015319 -952576.000000 0 0 1
18.307341 -13.358168 -28.858110 36.693185 -0.630357 2.475870 0.094150 -0.016608 -630253.000000 0 0 1
18.365541 -14.378368 -29.821610 37.859727 -0.664226 2.477842 0.080137 -0.018099 -969552.000000 0 0 1
17.092041 -14.505368 -30.614020 37.944192 -0.703717 2.509541 0.073408 -0.020363 -262734.000000 0 0 1
16.023841 -15.183268 -29.938220 37.196668 -0.758469 2.506241 0.062490 -0.019343 615658.000000 0 0 1
14.920241 -15.432968 -30.811520 37.551828 -0.802289 2.533093 0.056192 -0.023103 867424.000000 0 0 1
13.788441 -16.062668 -29.875800 36.615486 -0.861437 2.525138 0.056168 -0.028785 542762.000000 0 0 1
14.078941 -17.365168 -29.501770 37.015132 -0.889530 2.493140 0.046309 -0.020687 154930.000000 0 0 1
13.005041 -17.807568 -28.708390 36.199616 -0.940017 2.486609 0.042972 -0.019354 67132.100000 0 0 1
13.287741 -19.218068 -28.072940 36.523802 -0.965853 2.447478 0.048853 -0.016125 -21465.600000 0 0 1
14.291041 -19.105768 -27.098890 36.105595 -0.928579 2.419683 0.056173 -0.015835 -137758.000000 0 0 1
14.253441 -20.270668 -26.241100 36.092324 -0.957955 2.384819 0.062168 -0.013436 -9184.440000 0 0 1
15.327341 -20.187568 -25.111030 35.679533 -0.921404 2.351520 0.057094 -0.010889 -741704.000000 0 0 1
16.596141 -20.330668 -25.651510 36.698336 -0.886189 2.344771 0.062628 -0.015555 -692982.000000 0 0 1
17.514441 -20.245168 -24.577450 36.341071 -0.857591 2.313524 0.063939 -0.008371 253957.000000 0 0 1
18.992641 -20.670168 -24.863350 37.498832 -0.827668 2.295673 0.067195 -0.006068 492197.000000 0 0 1
19.324741 -22.035368 -24.894050 38.454086 -0.850842 2.274926 0.079662 -0.013949 340601.000000 0 0 1
18.980841 -22.747568 -23.658150 37.913483 -0.875422 2.244652 0.087348 -0.022747 -695915.000000 0 0 1
19.498841 -24.159168 -23.507250 38.941764 -0.891742 2.218870 0.080550 -0.024933 -1002840.000000 0 0 1
20.898241 -24.200868 -23.461350 39.659216 -0.858498 2.203806 0.092509 -0.021395 -238588.000000 0 0 1
21.345941 -25.510768 -23.213350 40.562397 -0.874050 2.180089 0.098648 -0.031905 -112376.000000 0 0 1
21.399841 -25.836838 -21.751950 39.983030 -0.879055 2.146028 0.110354 -0.034409 -115257.000000 0 0 1
20.144641 -25.958638 -21.082450 39.040070 -0.910844 2.141258 0.085880 -0.024919 502738.000000 0 0 1
20.356641 -26.336468 -19.747650 38.703643 -0.912771 2.106245 0.095505 -0.033517 -187631.000000 0 0 1
19.086541 -26.923698 -19.150250 38.156436 -0.954114 2.096576 0.083919 -0.026564 -699593.000000 0 0 1
18.751041 -28.217158 -19.518250 39.099509 -0.984277 2.093465 0.087256 -0.025073 123726.000000 0 0 1
17.591941 -28.815318 -18.988350 38.734433 -1.022687 2.083137 0.076723 -0.010842 674623.000000 0 0 1
16.173041 -28.326828 -19.407350 37.955522 -1.052015 2.107514 0.065231 -0.012440 239598.000000 0 0 1
15.695441 -27.105968 -18.819450 36.541101 -1.045931 2.111829 0.059398 -0.016378 -287048.000000 0 0 1
14.407641 -26.851878 -19.325350 36.084243 -1.078330 2.135969 0.055503 -0.005218 -162628.000000 0 0 1
13.606141 -25.868378 -18.479250 34.580091 -1.086585 2.134582 0.051448 -0.016054 -429790.000000 0 0 1
13.140441 -26.389478 -17.222450 34.142180 -1.108796 2.099522 0.051390 -0.010260 184090.000000 0 0 1
12.070641 -25.630108 -16.676350 32.874054 -1.130653 2.102822 0.066320 -0.027496 1335900.000000 0 0 1
10.596241 -25.922898 -17.180550 32.854957 -1.182761 2.121071 0.085032 -0.018449 816639.000000 0 0 1
9.961441 -26.980968 -16.421150 33.118833 -1.217118 2.089581 0.100856 -0.013382 1128680.000000 0 0 1
8.519141 -26.967648 -16.466550 32.725785 -1.264815 2.098056 0.103640 -0.010147 1394040.000000 0 0 1
7.882041 -27.796408 -17.589750 33.825525 -1.294486 2.117664 0.108268 -0.010848 -105774.000000 0 0 1
7.949041 -27.154788 -18.790750 33.965600 -1.286022 2.157032 0.095585 -0.008652 -105032.000000 0 0 1
7.053141 -27.848798 -19.620050 34.788628 -1.322747 2.169992 0.094783 -0.010382 105874.000000 0 0 1
7.058441 -27.364468 -21.070850 35.250764 -1.318357 2.211477 0.088097 -0.022352 -187290.000000 0 0 1
6.390741 -26.130008 -21.206950 34.254249 -1.330930 2.238398 0.084035 -0.025893 80325.500000 0 0 1
6.181841 -25.867438 -22.565050 34.878660 -1.336215 2.274385 0.063358 -0.024546 -43515.900000 0 0 1
4.851141 -25.163878 -22.941950 34.396037 -1.380351 2.300963 0.050143 -0.032351 -399509.000000 0 0 1
3.738141 -25.999358 -22.852750 34.816497 -1.427997 2.286803 0.052841 -0.028847 -76597.500000 0 0 1
2.608441 -25.252348 -23.319550 34.471531 -1.467866 2.313779 0.054592 -0.031202 567356.000000 0 0 1
1.485141 -26.141378 -23.905350 35.454802 -1.514045 2.310743 0.027196 -0.022795 38597.100000 0 0 1
1.939741 -26.814748 -25.063950 36.755882 -1.498584 2.321158 0.034983 -0.023741 260104.000000 0 0 1
0.925641 -26.917198 -26.047350 37.468077 -1.536421 2.339477 0.054105 -0.036997 293431.000000 0 0 1
1.377041 -27.939478 -27.133670 38.971101 -1.521550 2.340958 0.059682 -0.028824 454464.000000 0 0 1
2.416441 -27.581948 -28.062130 39.421899 -1.483410 2.362912 0.053332 -0.030111 461821.000000 0 0 1
2.664941 -28.574418 -29.048150 40.833739 -1.477802 2.362251 0.073660 -0.043990 -335634.000000 0 0 1
4.079741 -29.128648 -28.867150 41.212070 -1.431642 2.346829 0.062700 -0.039830 -533877.000000 0 0 1
4.423941 -30.029478 -27.821690 41.175080 -1.424528 2.312700 0.064811 -0.054277 -1107410.000000 0 0 1
5.619841 -30.589038 -28.206700 41.986780 -1.389102 2.307432 0.091752 -0.051629 -765381.000000 0 0 1
5.989241 -31.804888 -27.303720 42.342827 -1.384664 2.271591 0.121484 -0.064937 214870.000000 0 0 1
5.132541 -32.906378 -27.657160 43.290774 -1.416069 2.263824 0.120560 -0.072789 358843.000000 0 0 1
5.345341 33.615279 -26.891210 43.378530 1.413101 2.239437 0.121849 -0.075196 -220235.000000 0 0 1
4.116241 32.725874 -26.601510 42.374126 1.445674 2.249491 0.137853 -0.072436 46844.700000 0 0 1
3.372441 32.347624 -27.760740 42.759804 1.466915 2.277362 0.121265 -0.072950 295840.000000 0 0 1
1.988341 32.402143 -27.525650 42.561882 1.509509 2.274073 0.086702 -0.077518 -556.866000 0 0 1
1.005741 32.559297 -28.703090 43.416434 1.539917 2.293095 0.096055 -0.067834 -58331.100000 0 0 1
0.949841 31.299146 -29.378860 42.937817 1.540458 2.324328 0.121126 -0.062779 -76847.700000 0 0 1
-0.147159 31.292856 -30.254390 43.526918 -1.566094 2.339318 0.120075 -0.057129 14453.300000 0 0 1
-0.150459 30.117216 -31.246750 43.398488 -1.565801 2.374593 0.110414 -0.046328 152829.000000 0 0 1
0.939441 30.101066 -32.165360 44.063217 1.539597 2.389092 0.121112 -0.050194 74859.400000 0 0 1
0.808941 29.172336 -33.241950 44.234679 1.543074 2.421115 0.131709 -0.049235 -562177.000000 0 0 1
2.128941 28.829456 33.874953 44.532936 1.497084 0.706449 0.119965 -0.038869 -473238.000000 0 0 1
2.650341 29.867706 33.125247 44.680938 1.482292 0.735682 0.117085 -0.046076 -502781.000000 0 0 1
3.630041 29.455356 32.200402 43.791108 1.448176 0.744660 0.088514 -0.044803 -638337.000000 0 0 1
3.211041 28.523096 31.011943 42.256579 1.458691 0.746756 0.090189 -0.042089 -370793.000000 0 0 1
2.958741 27.188926 31.371923 41.619580 1.462401 0.717004 0.105021 -0.039088 247138.000000 0 0 1
4.053741 26.306466 31.134533 40.961227 1.417902 0.707333 0.089907 -0.034102 145566.000000 0 0 1
3.661541 24.894836 31.661333 40.442549 1.424763 0.671528 0.099426 -0.041964 -142135.000000 0 0 1
2.871941 24.256856 30.712253 39.241376 1.452948 0.671885 0.099161 -0.029206 -108307.000000 0 0 1
2.718341 22.969366 31.113993 38.769340 1.452998 0.639254 0.079069 -0.020910 -190612.000000 0 0 1
1.928241 22.043406 30.175433 37.419068 1.483544 0.632726 0.071269 -0.008833 -953.018000 0 0 1
0.539841 22.245106 30.248093 37.551076 1.546533 0.634246 0.065378 -0.015184 -242008.000000 0 0 1
-0.200859 21.722306 29.140163 36.346225 -1.561550 0.640598 0.074021 -0.008776 872032.000000 0 0 1
-1.617759 21.223906 29.597143 36.456306 -1.494720 0.623478 0.075850 -0.004887 637999.000000 0 0 1
-2.502159 22.271906 29.977333 37.429121 -1.458919 0.641984 0.092566 -0.011191 143297.000000 0 0 1
-3.828959 21.850306 30.173963 37.450833 -1.397322 0.633948 0.067204 -0.007468 -192000.000000 0 0 1
-4.835259 22.958646 30.457763 38.446775 -1.363223 0.656381 0.037351 -0.017020 -352990.000000 0 0 1
-4.773459 23.384026 31.815014 39.771771 -1.369430 0.643602 0.047674 -0.015260 34324.400000 0 0 1
-5.517559 24.537186 32.128257 40.801249 -1.349610 0.664163 0.038946 -0.028569 -8395.370000 0 0 1
-5.492559 25.013366 33.615741 42.259375 -1.354642 0.651026 0.076596 -0.023081 426686.000000 0 0 1
-6.626359 25.850496 33.874513 43.123537 -1.319865 0.667256 0.073602 -0.015409 615384.000000 0 0 1
-6.570359 26.217926 -32.569760 42.324207 -1.325248 2.448902 0.085802 -0.015896 755284.000000 0 0 1
-8.026359 26.644566 -32.173930 42.538419 -1.278204 2.428512 0.099731 -0.017017 185790.000000 0 0 1
-8.449559 27.872016 -32.736830 43.817170 -1.276447 2.414520 0.098224 -0.022330 503825.000000 0 0 1
-9.810759 28.140046 -32.372080 44.000736 -1.235333 2.397521 0.095649 -0.019713 788896.000000 0 0 1
-10.082259 28.533476 -30.923750 43.267650 -1.231142 2.367003 0.099829 -0.019162 -655101.000000 0 0 1
-9.566859 29.794386 -30.569710 43.746284 -1.260099 2.344509 0.100359 -0.020854 87897.600000 0 0 1
-9.410659 29.883146 -29.164340 42.803290 -1.265713 2.320412 0.118233 -0.027688 -77011.300000 0 0 1
-8.809659 31.250536 -28.701680 43.335811 -1.296023 2.294692 0.106434 -0.031138 942481.000000 0 0 1
-7.401459 31.256926 -28.993890 43.271500 -1.338285 2.305067 0.086504 -0.031281 907388.000000 0 0 1
-6.693159 32.438217 -28.518530 43.707469 -1.367316 2.281657 0.095999 -0.028292 226460.000000 0 0 1
-5.171059 32.424266 -28.741870 43.636773 -1.412647 2.289835 0.099370 -0.034904 -393112.000000 0 0 1
-4.480159 33.499484 -28.168740 43.997331 -1.437847 2.265604 0.119212 -0.042313 -199384.000000 0 0 1
-4.305059 -33.090848 -29.086570 44.266988 1.441425 2.287723 0.119378 -0.039947 -249100.000000 0 0 1
-3.321459 -33.334358 -30.287920 45.161594 1.471483 2.305890 0.115789 -0.051868 -208714.000000 0 0 1
-3.667759 33.587831 -31.468350 46.171982 -1.462028 2.320670 0.114311 -0.042069 236589.000000 0 0 1
-4.650959 -33.576498 -32.400860 46.891666 1.433154 2.333630 0.142667 -0.044172 583208.000000 0 0 1
-4.184759 -32.451258 -33.342870 46.715557 1.442549 2.365623 0.115517 -0.057776 -114806.000000 0 0 1
-4.041559 -31.163878 -32.752810 45.390175 1.441829 2.376883 0.109637 -0.053213 29862.300000 0 0 1
-3.326759 -30.201158 -33.469160 45.203561 1.461085 2.404476 0.105284 -0.074440 -105386.000000 0 0 1
34.385501 18.386232 12.833773 41.050237 0.491028 1.252830 0.116296 -0.037404 -869198.000000 0 0 1
35.681591 17.980432 13.021073 42.024043 0.466773 1.255763 0.124479 -0.045225 -1229030.000000 0 0 1
35.665411 16.722832 13.685873 41.701052 0.438444 1.236409 0.137236 -0.025817 966017.000000 0 0 1
37.092221 16.219232 14.172373 42.892336 0.412215 1.234051 0.112738 -0.043493 1434120.000000 0 0 1
-36.944284 15.783932 13.227773 42.296414 -0.403763 1.252720 0.109795 -0.020856 333101.000000 0 0 1
-37.294374 14.547532 12.654873 41.983888 -0.371920 1.264613 0.147213 -0.043797 641236.000000 0 0 1
-36.028214 13.633132 12.279373 40.431145 -0.361750 1.262211 0.156146 -0.033595 1194440.000000 0 0 1
-35.454332 12.934232 13.366873 40.037199 -0.349811 1.230399 0.138042 -0.038805 177563.000000 0 0 1
-36.199384 11.768032 13.673873 40.445726 -0.314313 1.225921 0.147005 -0.044822 280168.000000 0 0 1
-35.501917 11.135032 14.910873 40.083777 -0.303929 1.189641 0.190036 -0.057549 152070.000000 0 0 1
-35.612668 11.870532 16.091973 40.842665 -0.321742 1.165818 0.185723 -0.051444 188861.000000 0 0 1
-34.802772 11.449732 17.189073 40.469662 -0.317836 1.132122 0.185213 -0.046293 -105384.000000 0 0 1
-34.887160 12.286432 18.447273 41.332460 -0.338612 1.108154 0.182747 -0.047380 47125.300000 0 0 1
-36.224884 12.346132 18.902973 42.684793 -0.328473 1.112021 0.198189 -0.057838 145958.000000 0 0 1
-36.256224 13.216132 20.035873 43.481216 -0.349552 1.091907 0.210754 -0.051334 190881.000000 0 0 1
37.381601 13.188732 20.746473 44.740841 0.339179 1.088626 0.208650 -0.061484 77037.600000 0 0 1
37.029331 11.944332 21.274873 44.344770 0.312027 1.070414 0.175404 -0.046557 -605087.000000 0 0 1
35.951431 12.067232 22.125373 43.905075 0.323837 1.042646 0.175959 -0.054412 -552136.000000 0 0 1
35.639911 10.773832 22.943663 43.734316 0.293563 1.018534 0.163061 -0.051391 274661.000000 0 0 1
36.601671 10.510732 23.986953 45.005908 0.279641 1.008685 0.148625 -0.036462 356589.000000 0 0 1
36.610241 11.315632 25.157013 45.839160 0.299770 0.989856 0.143833 -0.030503 -372383.000000 0 0 1
-37.009504 11.517332 25.849653 46.589236 -0.301699 0.982624 0.123237 -0.026796 879529.000000 0 0 1
-36.247444 12.612432 25.296823 45.966073 -0.334851 0.988029 0.145441 -0.031712 -83801.100000 0 0 1
-35.422015 12.150632 24.235583 44.606283 -0.330447 0.996407 0.139923 -0.028884 -617415.000000 0 0 1
-34.293689 13.178332 23.951523 43.856596 -0.366880 0.993056 0.145822 -0.032489 189721.000000 0 0 1
-33.305514 13.316332 24.954663 43.695734 -0.380354 0.962950 0.122008 -0.030050 390146.000000 0 0 1
-33.782594 14.002932 26.185983 44.978345 -0.392945 0.949376 0.114928 -0.023865 -373424.000000 0 0 1
-32.574784 14.408932 27.049613 44.726004 -0.416461 0.921301 0.107060 -0.015529 378752.000000 0 0 1
-31.767874 15.487932 26.568703 44.215041 -0.453626 0.926173 0.115071 -0.025386 135882.000000 0 0 1
-31.713954 16.615032 27.450503 45.115012 -0.482587 0.916683 0.117842 -0.016761 134093.000000 0 0 1
-30.890214 17.745632 26.839323 44.603386 -0.521439 0.925127 0.105918 -0.011036 -350404.000000 0 0 1
-31.720624 18.370732 25.897483 44.881638 -0.524941 0.955724 0.104061 -0.030822 155231.000000 0 0 1
-31.159604 19.463032 25.239873 44.573330 -0.558329 0.968841 0.109891 -0.034792 -772206.000000 0 0 1
-32.164664 20.360032 24.502693 45.271166 -0.564327 0.998882 0.120420 -0.012037 -342724.000000 0 0 1
-32.855994 21.260632 25.326663 46.615134 -0.574324 0.996417 0.103687 -0.018430 582722.000000 0 0 1
-33.893174 21.972632 24.655533 47.322713 -0.575173 1.022764 0.099066 -0.007705 216535.000000 0 0 1
-34.152323 23.433232 25.120443 48.441038 -0.601362 1.025610 0.103947 -0.014770 256597.000000 0 0 1
-35.149981 24.107732 24.352713 49.089292 -0.601168 1.051706 0.109175 -0.020665 238638.000000 0 0 1
-34.937119 25.493932 24.435143 49.675135 -0.630388 1.056527 0.111859 -0.016332 31835.000000 0 0 1
-35.805207 26.355432 23.525553 50.299834 -0.634531 1.084102 0.121578 -0.022559 -147306.000000 0 0 1
-35.526142 26.151832 22.123173 49.350379 -0.634565 1.105947 0.117973 -0.029148 -18985.100000 0 0 1
-36.534134 26.626332 21.261473 49.957529 -0.629799 1.131181 0.117598 -0.036664 -39840.500000 0 0 1
-36.240744 26.269432 19.785973 48.938322 -0.627216 1.154578 0.140128 -0.050842 56950.700000 0 0 1
-36.452864 24.927032 19.453373 48.255590 -0.599781 1.155860 0.147239 -0.052084 7008.710000 0 0 1
-36.081194 24.705332 18.136073 47.340502 -0.600394 1.177648 0.150038 -0.050702 -327232.000000 0 0 1
-36.377944 23.343832 17.529073 46.642874 -0.570520 1.185521 0.152008 -0.042086 -352114.000000 0 0 1
37.354431 23.322432 16.985173 47.199422 0.558135 1.202679 0.146389 -0.052070 -738867.000000 0 0 1
37.219451 22.277832 16.060373 46.254999 0.539355 1.216198 0.125871 -0.042648 -98463.900000 0 0 1
35.904721 22.250432 15.267173 44.914555 0.554785 1.223969 0.122354 -0.034242 131258.000000 0 0 1
34.860271 21.547132 15.902173 43.959032 0.553622 1.200652 0.143672 -0.045640 -528541.000000 0 0 1
33.681661 21.508332 15.149573 42.738416 0.568303 1.208447 0.143509 -0.038827 -1069940.000000 0 0 1
32.642081 20.633232 15.874073 41.751909 0.563692 1.180784 0.125505 -0.044629 156570.000000 0 0 1
31.950061 21.211632 17.002073 41.950092 0.586084 1.153497 0.125602 -0.038782 331227.000000 0 0 1
31.096671 22.298032 16.646173 41.728890 0.622081 1.160466 0.115647 -0.027551 -150169.000000 0 0 1
30.256321 22.873132 17.805173 41.900469 0.647316 1.131901 0.098437 -0.023672 719924.000000 0 0 1
31.142491 23.634732 18.644673 43.313729 0.649187 1.125798 0.070794 -0.026319 243270.000000 0 0 1
30.470441 24.287732 19.713273 43.668694 0.672965 1.102431 0.076061 -0.019469 -77250.100000 0 0 1
31.385051 24.905732 20.777273 45.133269 0.670798 1.092403 0.073470 -0.024643 -34882.900000 0 0 1
32.220851 25.905532 20.193573 46.011523 0.677175 1.116444 0.086399 -0.039009 -173013.000000 0 0 1
33.011201 26.377832 21.225273 47.286802 0.674166 1.105304 0.094838 -0.042570 -286652.000000 0 0 1
34.295791 27.143732 20.762773 48.415661 0.669512 1.127583 0.103112 -0.046194 724017.000000 0 0 1
35.270651 27.556032 21.741773 49.760008 0.663218 1.118611 0.104927 -0.034408 425399.000000 0 0 1
34.856921 28.389932 22.805253 50.409054 0.683502 1.101337 0.072701 -0.029427 -952228.000000 0 0 1
35.953511 28.692632 23.823583 51.802367 0.673550 1.092921 0.060642 -0.027831 815787.000000 0 0 1
37.109701 29.453532 23.395753 52.839396 0.670880 1.112110 0.081835 -0.027097 560276.000000 0 0 1
-37.225784 30.035532 24.470133 53.727829 -0.678902 1.097923 0.083158 -0.021668 -670098.000000 0 0 1
-36.025754 30.844432 24.008823 53.156914 -0.708069 1.102172 0.102871 -0.028320 -1305490.000000 0 0 1
-34.893256 30.075232 23.987523 51.937079 -0.711374 1.090708 0.100822 -0.032046 -547073.000000 0 0 1
-33.683994 30.840732 24.120103 51.648249 -0.741362 1.084893 0.106137 -0.027363 1316520.000000 0 0 1
-32.386034 29.955632 24.000593 50.221744 -0.746433 1.072542 0.125622 -0.028474 338615.000000 0 0 1
-31.893704 29.878832 22.679973 49.237528 -0.752792 1.092099 0.109097 -0.024626 582600.000000 0 0 1
-32.535724 28.871632 21.796773 48.654330 -0.725800 1.106278 0.114140 -0.026305 212331.000000 0 0 1
-32.253914 27.472632 22.242773 47.851870 -0.705516 1.087359 0.104285 -0.022384 -161653.000000 0 0 1
-30.906434 27.144432 21.956073 46.627213 -0.720683 1.080502 0.087571 -0.021010 485909.000000 0 0 1
-30.241214 26.288132 22.900013 46.152005 -0.715582 1.051595 0.082023 -0.023251 123824.000000 0 0 1
-29.889204 26.840232 24.332333 46.966211 -0.731704 1.026190 0.098619 -0.022639 43958.500000 0 0 1
-31.062614 27.099832 25.105493 48.265647 -0.717370 1.023767 0.089504 -0.015920 556640.000000 0 0 1
-30.716364 27.692032 26.339123 49.031552 -0.733665 1.003698 0.100173 -0.014764 -32505.800000 0 0 1
-31.953484 27.775732 27.250163 50.349656 -0.715567 0.998911 0.100914 -0.020752 240218.000000 0 0 1
-32.429484 26.518732 27.787913 50.270098 -0.685462 0.985109 0.081775 -0.005260 -140036.000000 0 0 1
-33.530514 26.694432 28.627723 51.540611 -0.672373 0.981904 0.079336 -0.001558 -289165.000000 0 0 1
-34.165673 25.374032 29.141793 51.578860 -0.638797 0.970369 0.071837 0.003366 -335157.000000 0 0 1
-33.485524 24.601332 30.091933 51.303317 -0.633628 0.944004 0.061281 0.008446 -641147.000000 0 0 1
-34.154798 23.479632 30.563403 51.497233 -0.602252 0.935401 0.054281 -0.001697 -400781.000000 0 0 1
-33.426314 22.655032 31.649363 51.305469 -0.595644 0.906023 0.052401 -0.009100 -496797.000000 0 0 1
-32.323124 21.941932 31.124813 49.949842 -0.596377 0.898069 0.061991 -0.001238 -14479.400000 0 0 1
-31.470414 21.306032 32.033166 49.703699 -0.595135 0.870450 0.053796 0.002201 229349.000000 0 0 1
-30.517144 22.207032 32.868747 50.048006 -0.629069 0.854303 0.055152 0.004413 -712044.000000 0 0 1
-31.136924 22.915532 -33.900970 51.418920 -0.634455 2.290696 0.065360 -0.005937 40440.100000 0 0 1
-31.252364 22.262132 -32.682700 50.403091 -0.618956 2.276312 0.053243 -0.001722 -105236.000000 0 0 1
-30.026664 22.413432 -31.739420 49.105532 -0.641226 2.273589 0.073377 -0.003267 187856.000000 0 0 1
-30.054094 23.739332 -31.208560 49.404237 -0.668544 2.254538 0.060142 -0.004593 -249117.000000 0 0 1
-29.207744 23.878032 -30.121100 48.275598 -0.685335 2.244571 0.082822 -0.007190 -451868.000000 0 0 1
-29.410684 25.103832 -29.191330 48.449194 -0.706558 2.217444 0.066943 -0.007682 -299346.000000 0 0 1
-29.141554 26.427432 -29.689980 49.286248 -0.736595 2.217299 0.072462 -0.011142 61214.700000 0 0 1
-30.085354 26.918532 -30.633060 50.676624 -0.729901 2.219911 0.054615 0.002677 -203886.000000 0 0 1
-29.651334 28.237632 -31.334250 51.559681 -0.760982 2.223993 0.063144 -0.003499 -331078.000000 0 0 1
-29.924214 29.369132 -30.541600 51.872862 -0.776037 2.200342 0.057582 -0.010907 79536.700000 0 0 1
-29.501944 30.575232 -31.163600 52.691360 -0.803261 2.203636 0.062958 -0.020337 68147.700000 0 0 1
-29.879264 31.872032 -30.380420 53.212468 -0.817658 2.178431 0.043913 -0.012100 -172498.000000 0 0 1
-29.145914 32.036332 -29.234800 52.254037 -0.832606 2.164548 0.041261 -0.015807 -243241.000000 0 0 1
-29.611114 33.145932 -28.513620 52.806225 -0.841664 2.141194 0.029665 -0.009777 -263286.000000 0 0 1
-29.010584 33.290532 -27.059820 51.789066 -0.853988 2.120577 0.021813 -0.010659 -165916.000000 0 0 1
-27.683424 33.704732 -26.927280 51.258749 -0.883171 2.123888 0.038072 0.002478 -351763.000000 0 0 1
-27.305924 -32.669342 -27.344810 50.602747 0.874588 2.141687 0.033344 0.015898 -301254.000000 0 0 1
-27.853424 -31.547742 -26.379610 49.668471 0.847511 2.130711 0.037752 0.008935 565013.000000 0 0 1
-29.244354 -31.262942 -26.518580 50.357113 0.818747 2.125405 0.035288 -0.001792 130952.000000 0 0 1
-29.609894 -30.363642 -25.513200 49.493635 0.797966 2.112369 0.043190 0.000275 -6389.060000 0 0 1
-31.141784 -30.271642 -25.345100 50.284760 0.771231 2.099056 0.031645 -0.003083 -176495.000000 0 0 1
-31.682874 -29.449542 -26.315540 50.631884 0.748882 2.117346 0.029231 -0.000596 808948.000000 0 0 1
-33.064334 -29.198942 -25.956830 51.181885 0.723396 2.102670 0.033612 -0.002278 903202.000000 0 0 1
-33.733634 -28.230742 -26.991790 51.609006 0.696823 2.121170 0.051213 -0.008717 262510.000000 0 0 1
-35.153405 -28.225342 -26.943430 52.520284 0.676518 2.109484 0.054112 -0.019017 -13432.700000 0 0 1
-35.642992 -27.655342 -28.085720 53.141777 0.659871 2.127635 0.062731 -0.022567 -144939.000000 0 0 1
-37.152954 -27.880842 -28.268270 54.376267 0.643779 2.117488 0.052457 -0.024411 214036.000000 0 0 1
37.058111 -27.268342 -27.251910 53.474598 -0.634368 2.105543 0.039016 -0.019930 1030250.000000 0 0 1
35.655871 -27.427142 -27.554840 52.752805 -0.655688 2.120388 0.042346 -0.022055 617714.000000 0 0 1
34.675661 -26.944942 -26.525410 51.303301 -0.660593 2.114175 0.037139 -0.020036 -527395.000000 0 0 1
34.459261 -27.696542 -25.353370 50.964031 -0.677022 2.091483 0.028396 -0.013321 52757.100000 0 0 1
33.431961 -27.169642 -24.550350 49.584323 -0.682428 2.088773 0.031574 -0.005707 -96259.700000 0 0 1
33.153021 -27.991542 -23.300650 49.250071 -0.701183 2.063613 0.023598 -0.004995 -314059.000000 0 0 1
32.519001 -29.264342 -23.507150 49.663600 -0.732768 2.063861 0.041834 -0.011547 196720.000000 0 0 1
32.205791 -29.969542 -22.254250 49.301501 -0.749447 2.039120 0.047244 -0.017524 -130124.000000 0 0 1
33.300511 -30.055242 -21.150750 49.594312 -0.734220 2.011389 0.034749 -0.007478 -407472.000000 0 0 1
34.465381 -30.782042 -21.543950 50.985668 -0.729006 2.007052 0.021117 -0.014703 -59407.700000 0 0 1
35.467691 -30.815042 -20.590650 51.298136 -0.715319 1.983832 0.013332 -0.006204 -445350.000000 0 0 1
36.390541 -29.609342 -20.641050 51.254634 -0.683012 1.985278 0.005181 0.004445 -1029260.000000 0 0 1
35.718201 -28.395242 -20.320750 49.950100 -0.671672 1.989768 -0.001011 0.010020 305903.000000 0 0 1
36.398501 -27.234342 -20.861950 50.017809 -0.642365 2.001038 -0.013414 0.011374 679695.000000 0 0 1
35.551521 -25.956742 -20.476150 48.548283 -0.630654 2.006192 -0.011395 0.016577 1262970.000000 0 0 1
34.288871 -25.849742 -21.153950 47.868835 -0.645981 2.028528 0.011791 0.008236 625976.000000 0 0 1
33.395841 -25.029242 -20.387550 46.447791 -0.643163 2.025209 0.039516 0.008395 -287621.000000 0 0 1
32.067641 -24.845042 -21.121250 45.735291 -0.659166 2.050837 0.053800 -0.000087 -537088.000000 0 0 1
31.334881 -26.039442 -21.203050 45.929256 -0.693363 2.050646 0.083504 -0.012114 12775.900000 0 0 1
30.394141 -25.962642 -22.270150 45.758301 -0.706927 2.079094 0.090400 -0.019823 -79988.100000 0 0 1
29.661441 -27.268142 -22.591450 46.192274 -0.743383 2.081824 0.098909 -0.018162 -61556.200000 0 0 1
28.914441 -27.767242 -21.447850 45.465095 -0.765162 2.062063 0.093989 -0.022780 301037.000000 0 0 1
28.340941 -29.006442 -21.836450 46.058801 -0.797002 2.064737 0.078468 -0.019769 -107064.000000 0 0 1
27.629741 -29.554642 -20.550150 45.378278 -0.819047 2.040770 0.080600 -0.012971 18033.800000 0 0 1
28.490641 -30.080742 -19.539250 45.807749 -0.812540 2.011470 0.090048 -0.019420 212541.000000 0 0 1
29.188541 -31.286042 -19.863150 47.173425 -0.820068 2.005417 0.083476 -0.013808 396368.000000 0 0 1
30.139871 -31.742842 -18.703350 47.600789 -0.811296 1.974602 0.066485 -0.018818 -128507.000000 0 0 1
29.527441 -32.194842 -17.510750 47.063828 -0.828587 1.952028 0.075023 -0.024748 -221670.000000 0 0 1
28.960941 -31.191542 -16.737550 45.736134 -0.822464 1.945459 0.061343 -0.024338 -75940.600000 0 0 1
28.171441 -31.767842 -15.530650 45.210916 -0.845327 1.921454 0.061645 -0.016959 1036060.000000 0 0 1
26.865441 -32.328242 -15.822250 44.913369 -0.877424 1.930806 0.060365 -0.012793 990855.000000 0 0 1
26.365841 -33.169642 -14.789250 44.878777 -0.899186 1.906610 0.053367 -0.014283 647875.000000 0 0 1
24.813741 -33.337642 -14.934150 44.160490 -0.930943 1.915778 0.051945 -0.007908 638897.000000 0 0 1
24.135141 -32.185642 -14.518350 42.769183 -0.927377 1.917137 0.066466 -0.000821 -78932.600000 0 0 1
22.749441 -32.424942 -14.378550 42.138541 -0.958995 1.919012 0.070764 -0.008697 -23048.900000 0 0 1
-0.508684 -6.993168 -28.675680 29.520463 1.498184 2.901783 0.115088 -0.029049 -145391.000000 0 0 1
-0.018884 -8.285268 -28.591900 29.768150 1.568517 2.859540 0.117913 -0.030045 -158541.000000 0 0 1
-0.147784 -8.943268 -29.865870 31.176498 1.554273 2.850605 0.115291 -0.034364 19851.100000 0 0 1
0.187116 -10.436168 -29.839120 31.612049 -1.552869 2.805092 0.136170 -0.025846 -386173.000000 0 0 1
1.550716 -10.688368 -29.699510 31.602323 -1.426717 2.792808 0.080616 -0.029683 -572576.000000 0 0 1
1.843316 -12.028768 -29.308470 31.734452 -1.418737 2.748043 0.095037 -0.034699 329150.000000 0 0 1
3.335116 -12.341368 -29.002490 31.695059 -1.306862 2.726422 0.072151 -0.027201 -130870.000000 0 0 1
4.174516 -12.300568 -30.176130 32.853148 -1.243617 2.735106 0.078325 -0.040264 1504910.000000 0 0 1
5.559716 -12.597668 -29.854420 32.877014 -1.155177 2.709434 0.080808 -0.033008 1359000.000000 0 0 1
5.903416 -14.044668 -29.388420 33.102601 -1.172887 2.663334 0.076204 -0.032075 -1319630.000000 0 0 1
5.395816 -14.436068 -28.152340 32.094690 -1.213102 2.640722 0.070403 -0.028856 -106551.000000 0 0 1
6.094616 -15.514868 -27.496810 32.154782 -1.196491 2.596615 0.078486 -0.024085 -174808.000000 0 0 1
5.884416 -16.937168 -28.055980 33.296126 -1.236416 2.572926 0.043013 -0.022685 -165224.000000 0 0 1
6.443116 -17.147968 -29.345140 34.593406 -1.211380 2.583538 0.070672 -0.041608 3128.650000 0 0 1
6.063716 -18.446168 -29.674290 35.462561 -1.253199 2.562168 0.057922 -0.034359 -126304.000000 0 0 1
6.480616 -18.901568 -31.107860 36.972511 -1.240495 2.570624 0.061601 -0.054540 281685.000000 0 0 1
7.877216 -18.993168 -31.335620 37.479488 -1.177648 2.560884 0.055721 -0.043797 145401.000000 0 0 1
8.105716 -19.728468 -32.501060 38.874592 -1.180960 2.560838 0.059302 -0.033318 -464580.000000 0 0 1
9.551816 -19.644168 -32.963090 39.543593 -1.118216 2.556369 0.058547 -0.036571 -699211.000000 0 0 1
9.816116 -18.361968 -33.535490 39.473371 -1.079861 2.585971 0.063845 -0.049343 578538.000000 0 0 1
11.117216 -18.159568 33.672429 39.839614 -1.021457 0.563858 0.066875 -0.037585 552909.000000 0 0 1
11.349416 -16.705968 33.235636 38.890952 -0.974055 0.546045 0.069452 -0.036194 545811.000000 0 0 1
10.417516 -16.383068 32.158432 37.564535 -1.004418 0.543150 0.084935 -0.035734 639064.000000 0 0 1
10.098616 -14.991768 32.039538 36.786780 -0.978002 0.513659 0.083461 -0.029043 49682.800000 0 0 1
8.960316 -14.843968 31.005003 35.523807 -1.027709 0.509896 0.111569 -0.045387 161899.000000 0 0 1
9.356216 -15.261368 29.723423 34.697695 -1.020825 0.542076 0.129861 -0.040993 75454.900000 0 0 1
8.244016 -15.041368 28.885703 33.594499 -1.069421 0.535851 0.134488 -0.044744 -75165.500000 0 0 1
8.323016 -15.871468 27.617623 32.922776 -1.087819 0.575609 0.119224 -0.039074 -300136.000000 0 0 1
7.863916 -17.176068 27.828133 33.634260 -1.141441 0.596379 0.120656 -0.036202 213405.000000 0 0 1
8.152216 -18.010968 26.733993 33.249962 -1.145762 0.636753 0.103575 -0.026412 74389.800000 0 0 1
7.764016 -19.493268 27.043053 34.228558 -1.191763 0.659869 0.107400 -0.031584 -224530.000000 0 0 1
8.420616 -19.857068 28.227233 35.524451 -1.169721 0.652471 0.106378 -0.029360 291522.000000 0 0 1
7.841616 -20.969968 28.858013 36.524176 -1.212951 0.659813 0.095251 -0.034867 -50705.500000 0 0 1
8.360616 -21.143268 30.358383 37.928473 -1.194239 0.642815 0.094031 -0.034119 86435.900000 0 0 1
7.807716 -20.313268 31.416013 38.217210 -1.203840 0.605815 0.128805 -0.043716 310521.000000 0 0 1
8.020016 -18.922968 31.108893 37.284884 -1.169922 0.583832 0.109430 -0.045657 -148608.000000 0 0 1
7.362916 -17.871168 32.071641 37.445712 -1.179988 0.542378 0.107724 -0.036570 -646944.000000 0 0 1
5.989416 -18.103268 32.141479 37.372130 -1.251285 0.535451 0.127726 -0.039935 -1031240.000000 0 0 1
5.406216 -17.061868 32.906842 37.459241 -1.263945 0.498145 0.126602 -0.040313 305942.000000 0 0 1
3.897916 -17.409168 33.085623 37.588979 -1.350529 0.494524 0.128639 -0.045396 302839.000000 0 0 1
3.658716 -18.294368 -33.647770 38.473920 -1.373409 2.635325 0.126367 -0.050517 -219123.000000 0 0 1
2.297616 -18.434068 -33.316270 38.145350 -1.446796 2.632944 0.129198 -0.068225 -58540.200000 0 0 1
2.123516 -19.264268 -32.037600 37.443679 -1.461009 2.597546 0.084613 -0.037294 -343695.000000 0 0 1
0.931616 -20.012768 -32.040810 37.788785 -1.524279 2.582793 0.099199 -0.038590 -174279.000000 0 0 1
0.748116 -20.808768 -30.893290 37.255333 -1.534860 2.548527 0.094094 -0.050329 12435.500000 0 0 1
-0.021384 -20.061468 -29.780360 35.907280 1.569730 2.548772 0.093727 -0.045753 -438313.000000 0 0 1
-1.329684 -19.724868 -30.190440 36.087409 1.503487 2.561829 0.108163 -0.052656 -167776.000000 0 0 1
-2.001984 -18.744868 -29.453950 34.970175 1.464398 2.572257 0.136624 -0.047677 23318.600000 0 0 1
-1.557684 -17.337268 -29.924800 34.619371 1.481191 2.614742 0.122554 -0.045341 -301454.000000 0 0 1
-2.283084 -16.297268 -29.365220 33.661989 1.431612 2.630796 0.131978 -0.047081 -675415.000000 0 0 1
-1.949284 -15.012868 -29.904730 33.518335 1.441678 2.672968 0.125652 -0.042246 42565.100000 0 0 1
-2.871184 -13.871768 -29.465740 32.694028 1.366698 2.693460 0.124245 -0.028120 30311.500000 0 0 1
-2.797984 -13.631268 -28.071240 31.331049 1.368346 2.681375 0.125595 -0.033276 -231695.000000 0 0 1
-3.811484 -12.735068 -27.702400 30.726736 1.279991 2.694188 0.101014 -0.034087 22363.600000 0 0 1
-4.083884 -12.516368 -26.177910 29.302227 1.255404 2.675600 0.107189 -0.032704 -266512.000000 0 0 1
-4.581784 -13.654368 -25.492550 29.279764 1.247048 2.627327 0.113105 -0.027207 105374.000000 0 0 1
-4.719684 -13.554468 -24.068750 28.023271 1.235725 2.603884 0.098996 -0.018192 -234390.000000 0 0 1
-5.931084 -12.731368 -23.599450 27.462693 1.134829 2.604750 0.078218 -0.015440 -1401830.000000 0 0 1
-7.177984 -13.191568 -23.907950 28.233508 1.072468 2.580724 0.069151 -0.010159 -1934730.000000 0 0 1
-8.123984 -12.298868 -23.521450 27.758239 0.987042 2.581806 0.046914 -0.016849 -906498.000000 0 0 1
-9.580584 -12.748968 -23.665250 28.537130 0.926349 2.548613 0.061983 -0.020920 -122299.000000 0 0 1
-10.020184 -13.574868 -22.583150 28.190065 0.934927 2.499932 0.053759 -0.022757 -86422.900000 0 0 1
-11.342484 -14.031468 -22.773050 29.054188 0.890978 2.471579 0.062201 -0.017565 142009.000000 0 0 1
-11.780484 -15.063868 -21.771550 28.977582 0.907106 2.420862 0.059215 -0.014157 -166375.000000 0 0 1
-11.092084 -16.267068 -21.948750 29.485580 0.972340 2.410416 0.072101 -0.022243 -782278.000000 0 0 1
-11.803184 -17.363668 -21.485450 30.040583 0.973782 2.367727 0.079744 -0.022109 -182070.000000 0 0 1
-12.500784 -18.039068 -22.685150 31.564118 0.964795 2.372728 0.080040 -0.023031 -219490.000000 0 0 1
-13.668484 -17.357368 -23.053150 31.930446 0.903740 2.377456 0.061061 -0.020831 -680332.000000 0 0 1
-14.374784 -18.123968 -24.007450 33.338720 0.900254 2.374753 0.038884 -0.022366 -312312.000000 0 0 1
-15.424284 -17.348268 -24.794150 33.964993 0.844038 2.389106 0.055454 -0.019210 -891208.000000 0 0 1
-16.488084 -16.984168 -23.987850 33.700679 0.800218 2.362842 0.063946 -0.017009 -869763.000000 0 0 1
-17.589484 -16.829468 -24.847850 34.785580 0.763320 2.366441 0.069027 -0.010701 -398359.000000 0 0 1
-18.605384 -15.743568 -24.566250 34.605214 0.702274 2.360153 0.073403 -0.006732 -470568.000000 0 0 1
-19.342484 -15.893568 -23.415050 34.278298 0.687829 2.322777 0.078597 -0.008231 -543905.000000 0 0 1
-20.287284 -14.875368 -23.290850 34.282855 0.632686 2.317704 0.086210 -0.013287 -198036.000000 0 0 1
-20.772484 -14.659368 -21.826050 33.507754 0.614548 2.280189 0.089883 -0.023494 -135249.000000 0 0 1
-19.846984 -14.293968 -20.824150 32.122663 0.624160 2.276106 0.096647 -0.020519 -152574.000000 0 0 1
-20.364884 -14.331668 -19.504250 31.631329 0.613234 2.235228 0.102194 -0.018281 55498.300000 0 0 1
-21.006184 -13.001568 -18.931650 31.124072 0.554230 2.224668 0.110330 -0.025990 640229.000000 0 0 1
-22.401584 -12.936068 -19.215050 32.224074 0.523683 2.209674 0.107629 -0.025518 324989.000000 0 0 1
-23.118884 -12.107768 -18.350750 31.903461 0.482441 2.183640 0.112281 -0.024189 -217271.000000 0 0 1
-24.482184 -11.708268 -18.923750 33.084274 0.446086 2.179722 0.120043 -0.027163 -126883.000000 0 0 1
-24.447984 -10.786168 -19.964450 33.356028 0.415502 2.212456 0.100601 -0.027414 272856.000000 0 0 1
-25.789184 -10.350668 -20.158250 34.330356 0.381676 2.198372 0.100235 -0.026230 507221.000000 0 0 1
-26.242694 -9.518968 -21.396250 35.172279 0.347969 2.224747 0.095236 -0.018962 10172.900000 0 0 1
-26.277884 -10.242568 -22.600450 36.141634 0.371664 2.246351 0.081074 -0.017965 229666.000000 0 0 1
-26.661434 -9.309968 -23.611950 36.810755 0.335955 2.267172 0.048616 -0.012212 -271320.000000 0 0 1
-26.734094 -9.781568 -25.075100 37.936150 0.350754 2.292923 0.054775 -0.008975 -29941.800000 0 0 1
-25.587114 -9.436768 -25.820060 37.555671 0.353332 2.328857 0.034540 -0.012182 -289064.000000 0 0 1
-24.710684 -10.537468 -25.848820 37.280257 0.403084 2.336945 0.046950 -0.005836 -117187.000000 0 0 1
-23.680684 -10.374168 -27.023460 37.398737 0.412902 2.378319 0.053843 -0.018035 10880.300000 0 0 1
-24.219684 -10.653568 -28.294670 38.738610 0.414400 2.389703 0.063025 -0.010304 256624.000000 0 0 1
-23.283284 -10.564968 -29.374810 38.943668 0.425974 2.425368 0.060014 -0.009087 284934.000000 0 0 1
-23.944784 -11.094368 -30.667620 40.459122 0.433885 2.431023 0.051014 -0.016463 366433.000000 0 0 1
-25.012284 -10.280668 -31.112030 41.222140 0.389974 2.426055 0.039196 -0.021050 175166.000000 0 0 1
-24.517084 -9.114068 -31.803060 41.177521 0.355913 2.453314 0.033429 -0.018544 -635634.000000 0 0 1
-25.601984 -8.127668 -32.265480 41.983112 0.307399 2.447344 0.045301 -0.018092 -812916.000000 0 0 1
-26.423964 -8.604368 -33.313180 43.382357 0.314799 2.446348 0.057750 -0.025270 1745120.000000 0 0 1
-27.603554 -9.397768 -32.933260 43.987201 0.328146 2.416897 0.068889 -0.029099 910705.000000 0 0 1
-28.716084 -8.689568 -32.126430 43.957133 0.293843 2.390375 0.066130 -0.014427 19194.500000 0 0 1
-30.050924 -9.158168 -32.351130 45.094630 0.295813 2.370867 0.092783 -0.015468 788255.000000 0 0 1
-30.948954 -8.566668 -31.430980 44.934753 0.270039 2.345467 0.097458 -0.006807 1250910.000000 0 0 1
-32.469764 -8.981268 -31.510550 46.128771 0.269857 2.322795 0.092355 -0.008772 983331.000000 0 0 1
-32.718294 -10.341968 -31.381390 46.499835 0.306153 2.311586 0.091848 -0.010586 775636.000000 0 0 1
-34.112514 -10.621768 -31.181850 47.421443 0.301859 2.288355 0.085656 -0.010427 739023.000000 0 0 1
-34.345686 -12.166368 -31.193560 47.965454 0.340441 2.278820 0.087840 -0.024376 261224.000000 0 0 1
-35.720990 -12.487568 -31.028120 48.935393 0.336306 2.257592 0.058982 -0.019679 315154.000000 0 0 1
-35.860374 -13.891868 -31.203070 49.523549 0.369587 2.252434 0.057437 -0.027701 525738.000000 0 0 1
-37.179594 -14.517568 -30.653210 50.325950 0.372265 2.225713 0.052280 -0.030608 399156.000000 0 0 1
-37.239414 -14.594568 -29.233080 49.541380 0.373514 2.201947 0.049319 -0.029957 -28773.100000 0 0 1
37.001841 -15.688168 -28.784740 49.434968 -0.401009 2.192320 0.037278 -0.032084 25286.300000 0 0 1
37.076441 -15.805168 -27.267550 48.661947 -0.402959 2.165600 0.044029 -0.026245 1886490.000000 0 0 1
-36.554314 -16.017668 -26.798810 48.072443 0.412988 2.162128 0.055010 -0.035794 1898570.000000 0 0 1
-36.437304 -15.934768 -25.406920 47.192219 0.412259 2.139299 0.061493 -0.035403 107414.000000 0 0 1
-35.100703 -15.296068 -24.934950 45.692240 0.410963 2.148039 0.103686 -0.036035 6264.650000 0 0 1
-33.967464 -16.020468 -25.321680 45.294938 0.440705 2.164024 0.097655 -0.032754 -455126.000000 0 0 1
-32.819004 -15.544068 -24.666450 43.899189 0.442330 2.167463 0.112334 -0.021733 570293.000000 0 0 1
-31.499574 -16.325468 -25.024750 43.416381 0.478161 2.185100 0.104832 -0.025947 600249.000000 0 0 1
-31.270834 -17.570768 -24.359350 43.358677 0.511926 2.167369 0.111533 -0.034234 150518.000000 0 0 1
-32.091184 -18.646568 -24.807350 44.642392 0.526369 2.159990 0.095929 -0.036995 115732.000000 0 0 1
-31.870084 -19.834068 -23.863150 44.480809 0.556685 2.137059 0.091373 -0.032924 409444.000000 0 0 1
-30.541534 -20.294968 -24.070250 43.863971 0.586504 2.151662 0.089702 -0.024687 257893.000000 0 0 1
-30.391764 -21.581268 -23.417150 44.020147 0.617474 2.131715 0.086834 -0.019884 -441873.000000 0 0 1
-28.967204 -22.144668 -23.429150 43.340631 0.652700 2.141925 0.085655 -0.019522 -220614.000000 0 0 1
-28.005314 -21.617768 -22.535450 41.946060 0.657381 2.137967 0.093386 -0.024547 -62234.400000 0 0 1
-28.186144 -21.744968 -21.121150 41.393300 0.657105 2.106278 0.116530 -0.037761 -587825.000000 0 0 1
-27.931484 -23.126268 -20.546450 41.679115 0.691561 2.086294 0.106860 -0.031826 -19464.000000 0 0 1
-28.091494 -23.103968 -19.156250 41.108238 0.688283 2.055556 0.111591 -0.035979 -57347.600000 0 0 1
-28.157754 -24.378968 -18.550950 41.609265 0.713595 2.032905 0.100983 -0.017021 -2178.890000 0 0 1
-28.369004 -24.209168 -17.017150 40.993506 0.706445 1.998869 0.099355 -0.017702 192728.000000 0 0 1
-29.452144 -23.410868 -16.615250 41.128628 0.671610 1.986663 0.109744 -0.016604 -171841.000000 0 0 1
-28.987004 -22.076068 -16.354250 39.938210 0.650874 1.992690 0.116425 -0.026934 68831.000000 0 0 1
-29.970824 -21.162668 -15.608250 39.871371 0.614814 1.973020 0.109369 0.000510 387001.000000 0 0 1
-31.145164 -20.806268 -16.331350 40.861167 0.588954 1.981963 0.108595 -0.012832 602246.000000 0 0 1
-32.009914 -19.990068 -15.534750 40.811344 0.558237 1.961293 0.118855 -0.017877 359463.000000 0 0 1
-32.979634 -19.100668 -16.380150 41.482539 0.524959 1.976721 0.126696 -0.040458 261477.000000 0 0 1
-34.132355 -19.810868 -16.816750 42.898615 0.525893 1.973613 0.060317 -0.023066 -20234.100000 0 0 1
-34.660256 -19.262368 -17.957050 43.529620 0.507246 1.996020 0.062660 -0.028933 -657188.000000 0 0 1
-35.910451 -20.016868 -18.447050 45.061393 0.508515 1.992566 0.040617 -0.019815 148048.000000 0 0 1
-37.107574 -19.719468 -17.735750 45.611251 0.488461 1.970175 0.029625 -0.005462 275272.000000 0 0 1
-37.308134 -20.393668 -16.538450 45.621474 0.500251 1.941761 0.062753 -0.020858 -740521.000000 0 0 1
37.256181 -21.900968 -16.590250 46.291595 -0.531436 1.937335 0.034310 0.019822 79521.800000 0 0 1
35.849671 -22.126468 -16.594150 45.278530 -0.552972 1.946031 0.035160 -0.008957 371014.000000 0 0 1
35.626281 -23.518368 -16.489050 45.762804 -0.583471 1.939402 0.020063 0.004298 369575.000000 0 0 1
34.162161 -23.850468 -16.083850 44.660813 -0.609486 1.939207 0.015524 -0.003592 75881.800000 0 0 1
33.179701 -23.665368 -17.065350 44.183349 -0.619562 1.967347 0.017365 -0.000744 -77308.600000 0 0 1
31.950001 -24.051768 -16.464650 43.247830 -0.645287 1.961355 0.035919 0.000297 -207876.000000 0 0 1
30.755421 -24.113068 -17.396550 42.778217 -0.664925 1.989601 0.054511 -0.020834 -815363.000000 0 0 1
30.333041 -22.876868 -17.909450 42.002295 -0.646177 2.011297 0.051765 -0.015666 -382957.000000 0 0 1
29.214241 -22.987568 -18.715250 41.619235 -0.666678 2.037201 0.086757 -0.020595 -806108.000000 0 0 1
35.219301 29.024732 -18.392250 49.204767 0.689273 1.953888 0.083657 -0.027875 239470.000000 0 0 1
34.170821 29.470232 -19.249450 49.057934 0.711671 1.974016 0.065056 -0.039526 230401.000000 0 0 1
34.363941 28.984432 -20.493150 49.405940 0.700682 1.998510 0.074615 -0.032784 -467910.000000 0 0 1
33.302081 29.517932 -21.427250 49.390930 0.725233 2.019535 0.079173 -0.020513 -247952.000000 0 0 1
32.010471 28.961932 -21.148550 48.070000 0.735441 2.026343 0.067572 -0.018201 528143.000000 0 0 1
31.139471 29.012232 -22.278050 48.038399 0.750048 2.053025 0.091928 -0.003081 378881.000000 0 0 1
30.347021 30.316932 -22.542950 48.458669 0.784902 2.054656 0.080851 -0.003116 -769719.000000 0 0 1
31.099221 31.436132 -22.913550 49.803842 0.790786 2.048877 0.097736 -0.030816 -67778.700000 0 0 1
30.271261 32.597532 -23.023850 50.090378 0.822383 2.048393 0.077822 -0.018327 199303.000000 0 0 1
31.036391 -33.744942 -22.720050 51.168147 -0.827184 2.030885 0.070288 -0.011125 222216.000000 0 0 1
31.405501 -33.623242 -21.366250 50.728143 -0.819489 2.005555 0.075583 -0.022711 1256390.000000 0 0 1
32.757001 33.596132 -21.106850 51.451145 0.798044 1.993504 0.075116 -0.027390 891450.000000 0 0 1
33.131191 33.267232 -19.630750 50.889595 0.787447 1.966819 0.069150 -0.032685 -226811.000000 0 0 1
32.948741 -33.302842 -18.758550 50.463670 -0.790743 1.951662 0.056193 -0.028237 102402.000000 0 0 1
33.124331 -33.604442 -17.378250 50.284027 -0.792593 1.923676 0.053427 -0.037573 -479658.000000 0 0 1
33.272881 -32.332042 -16.543550 49.255807 -0.771058 1.913325 0.051286 -0.024821 -255253.000000 0 0 1
34.396541 -31.544642 -16.850650 49.619863 -0.742176 1.917282 0.056155 -0.010951 225882.000000 0 0 1
35.527121 -31.871642 -16.022450 50.345772 -0.731215 1.894677 0.055266 -0.011428 -223245.000000 0 0 1
36.763431 -31.070642 -16.356950 50.837825 -0.701672 1.898371 0.037144 0.008754 -598893.000000 0 0 1
37.463631 -31.569642 -17.460450 52.009934 -0.700226 1.913159 0.029798 0.003021 -389418.000000 0 0 1
-36.398284 -30.813242 -17.751850 50.886335 0.702492 1.927143 0.025443 0.011156 218632.000000 0 0 1
-35.394009 -31.435042 -18.743350 50.913759 0.726227 1.947803 0.054291 -0.000722 -446287.000000 0 0 1
-34.818013 -32.607342 -18.267550 51.080683 0.752623 1.936516 0.041201 -0.008872 214902.000000 0 0 1
-33.756794 -33.161042 -19.017950 50.998610 0.776496 1.952941 0.065252 -0.012846 1954300.000000 0 0 1
-32.304514 -32.477042 -19.048150 49.610199 0.788061 1.964874 0.062428 -0.016636 649701.000000 0 0 1
-32.315584 -31.376542 -19.986850 49.277363 0.770656 1.988430 0.065295 -0.007658 292302.000000 0 0 1
-31.070334 -30.773742 -20.315050 48.219188 0.780602 2.005682 0.080435 -0.013236 757234.000000 0 0 1
-30.037284 -31.691742 -21.062550 48.479232 0.812194 2.020241 0.083341 -0.012796 -51151.900000 0 0 1
-30.542754 -32.118842 -22.314850 49.622901 0.810545 2.037213 0.069036 -0.003135 -341879.000000 0 0 1
-29.961524 -33.345542 -22.729550 50.261819 0.838801 2.040052 0.064189 -0.006361 -621105.000000 0 0 1
-30.647374 33.501232 -23.820650 51.273945 -0.829857 2.053952 0.050876 -0.012870 -492267.000000 0 0 1
-31.811974 32.785832 -23.440450 51.345566 -0.800473 2.044880 0.063467 -0.029944 17288.800000 0 0 1
-32.338884 32.056532 -24.515550 51.714958 -0.781014 2.064683 0.063395 -0.023246 113425.000000 0 0 1
-33.229804 32.796532 -25.531080 53.213423 -0.778836 2.071208 0.065277 -0.030766 -462691.000000 0 0 1
-32.555264 33.623432 -26.484770 53.775677 -0.801537 2.085762 0.049253 -0.026636 -124008.000000 0 0 1
-33.453174 -33.250942 -27.218650 54.457276 0.782366 2.094183 0.055717 -0.024734 109427.000000 0 0 1
-32.734694 -32.363942 -28.226140 53.997221 0.779703 2.120850 0.046236 -0.018728 -97520.100000 0 0 1
-32.484554 -33.007642 -29.466560 54.891063 0.793385 2.137458 0.049836 -0.018008 -111615.000000 0 0 1
-33.523094 -32.893542 -30.404510 55.948343 0.775920 2.145325 0.059993 -0.018625 -280380.000000 0 0 1
-33.331314 -33.814542 -31.606640 57.038403 0.792595 2.158113 0.072670 -0.013416 -367731.000000 0 0 1
-32.396794 -33.486742 -32.578680 56.853184 0.801940 2.180997 0.065365 -0.029196 -384452.000000 0 0 1
-32.502764 33.203932 -33.551020 57.311445 -0.796069 2.196189 0.074339 -0.033711 -28413.300000 0 0 1
-31.581784 33.343732 33.016087 56.562139 -0.812529 0.947502 0.074644 -0.034926 804713.000000 0 0 1
-30.233944 32.887132 33.125981 55.614616 -0.827407 0.932741 0.058495 -0.021669 394694.000000 0 0 1
-30.035334 31.563232 32.635172 54.437243 -0.810197 0.927919 0.067755 -0.025897 1658540.000000 0 0 1
-28.477184 31.192032 32.692539 53.410626 -0.830865 0.912085 0.063740 -0.016744 1713140.000000 0 0 1
-27.848574 31.152532 -33.824910 53.760095 -0.841338 2.251297 0.067388 -0.020675 -141455.000000 0 0 1
-26.554154 30.618432 33.885033 52.828089 -0.856367 0.874448 0.068459 -0.017334 -833219.000000 0 0 1
-26.249734 29.063132 33.828623 51.750265 -0.836218 0.858346 0.086633 -0.022646 -364812.000000 0 0 1
-26.575604 28.481632 -32.757150 50.896925 -0.820003 2.269986 0.079448 -0.021022 176126.000000 0 0 1
-26.554584 27.081632 -32.874480 50.192551 -0.795224 2.284936 0.080332 -0.013510 -464568.000000 0 0 1
-26.484894 26.300632 -31.474220 48.824168 -0.781907 2.271354 0.096660 -0.003451 268507.000000 0 0 1
-25.278414 26.465432 -30.684770 47.759527 -0.808334 2.268533 0.080120 -0.015119 754418.000000 0 0 1
-25.128904 27.739732 -30.079520 48.018039 -0.834741 2.247750 0.073344 -0.025660 -634953.000000 0 0 1
-23.765584 27.922532 -29.442500 47.024797 -0.865649 2.247345 0.089924 -0.029174 -1072720.000000 0 0 1
-22.703084 27.931432 -30.374890 47.098077 -0.888290 2.271726 0.081515 -0.025526 455478.000000 0 0 1
-21.418884 27.962532 -29.734500 46.095686 -0.917143 2.271899 0.068586 -0.026087 823713.000000 0 0 1
-20.953384 29.230232 -28.920130 46.150023 -0.948858 2.248049 0.066750 -0.014925 -759553.000000 0 0 1
-20.536384 30.282132 -29.739310 47.150579 -0.974873 2.253291 0.071809 -0.003110 -176989.000000 0 0 1
-20.240084 31.374532 -28.948260 47.244301 -0.997865 2.230314 0.085738 -0.010589 -46556.100000 0 0 1
-19.788684 32.637532 -29.769810 48.404980 -1.025745 2.233202 0.080974 -0.004410 74199.500000 0 0 1
-18.500484 32.443432 -30.309150 48.098740 -1.052548 2.252535 0.075899 -0.010191 -343589.000000 0 0 1
-18.051184 33.631532 -30.976700 49.157717 -1.078195 2.252542 0.082835 -0.009166 359248.000000 0 0 1
-16.556184 33.677032 -31.386380 48.921923 -1.113878 2.267327 0.056275 0.001029 -6434.000000 0 0 1
-15.735884 -33.424242 -30.393810 47.839123 1.130786 2.259237 0.064606 -0.007517 828598.000000 0 0 1
-14.335184 -33.193342 -30.639490 47.392761 1.163122 2.273786 0.080356 -0.010695 1393800.000000 0 0 1
-13.479584 33.208632 -30.606620 47.130432 -1.185209 2.277595 0.085785 -0.014345 -1262880.000000 0 0 1
-13.477384 32.764532 -29.283980 45.964181 -1.180552 2.261532 0.090499 -0.021554 -124413.000000 0 0 1
-13.351184 31.334332 -29.261060 44.903275 -1.168004 2.280549 0.091826 -0.019224 -34699.600000 0 0 1
-13.167884 30.768032 -27.850210 43.539627 -1.166410 2.264842 0.076543 -0.032273 -60308.600000 0 0 1
-11.942584 31.045232 -27.217160 42.979129 -1.203563 2.256560 0.094208 -0.033116 -197528.000000 0 0 1
-11.941284 30.531932 -25.900650 41.780819 -1.197979 2.239434 0.082302 -0.039783 921797.000000 0 0 1
-10.570784 30.752032 -25.154150 41.111558 -1.239707 2.229195 0.107924 -0.041124 2015540.000000 0 0 1
-9.405684 30.101632 -25.763030 40.722338 -1.267944 2.255768 0.121592 -0.038544 1009160.000000 0 0 1
-8.231684 30.523032 -25.087100 40.358130 -1.307376 2.241595 0.140313 -0.041885 379768.000000 0 0 1
-6.905484 29.962332 -25.648500 40.040886 -1.344280 2.266021 0.131849 -0.044806 75538.900000 0 0 1
-6.638584 28.671032 -25.083230 38.668686 -1.343263 2.276632 0.129606 -0.056166 -101976.000000 0 0 1
-5.530284 28.131532 -25.769960 38.549422 -1.376685 2.302975 0.123163 -0.061357 -205251.000000 0 0 1
-5.009884 26.915532 -24.995850 37.072056 -1.386769 2.310746 0.130222 -0.049475 79648.400000 0 0 1
-5.816484 25.716032 -25.021450 36.348573 -1.348358 2.330043 0.136563 -0.045319 428985.000000 0 0 1
-5.403584 24.803832 -24.013450 34.943877 -1.356295 2.328425 0.128329 -0.051211 132605.000000 0 0 1
-6.300684 23.515432 -24.023150 34.202133 -1.309007 2.349542 0.114335 -0.043295 285682.000000 0 0 1
-6.186584 22.760832 -25.190990 34.509640 -1.305400 2.389074 0.117009 -0.041867 220933.000000 0 0 1
-6.920784 21.526332 -25.114280 33.793598 -1.259730 2.408587 0.108645 -0.039516 57442.300000 0 0 1
-6.816684 20.641032 -26.391230 34.190882 -1.251824 2.452588 0.094326 -0.030467 -341887.000000 0 0 1
-5.614884 19.949032 -26.527410 33.662951 -1.296433 2.478399 0.102212 -0.033282 -771742.000000 0 0 1
-5.402384 18.878032 -25.666020 32.315792 -1.292073 2.488528 0.102800 -0.035668 826055.000000 0 0 1
-4.186784 17.907032 -26.098150 31.926547 -1.341116 2.527755 0.110646 -0.047739 1236420.000000 0 0 1
-4.378484 17.183732 -27.307800 32.560216 -1.321301 2.565662 0.103974 -0.041373 -291810.000000 0 0 1
-3.376584 16.213232 -27.496160 32.098427 -1.365470 2.599479 0.098753 -0.048953 -462021.000000 0 0 1
-2.967884 16.325032 -28.973910 33.388657 -1.390961 2.621508 0.091839 -0.045113 -307849.000000 0 0 1
-2.100384 17.349332 -29.355970 34.164073 -1.450318 2.604626 0.101770 -0.048703 -38311.000000 0 0 1
-2.070284 17.373732 -30.783290 35.408241 -1.452194 2.624747 0.105075 -0.044839 -124725.000000 0 0 1
-1.208684 18.501732 -31.353600 36.425585 -1.505561 2.607553 0.116193 -0.028948 243058.000000 0 0 1
0.169116 18.490532 -31.000180 36.096253 1.561650 2.603758 0.134904 -0.036300 791125.000000 0 0 1
1.021616 19.526032 -31.523060 37.094648 1.518523 2.586403 0.136172 -0.023539 795820.000000 0 0 1
0.785416 20.921032 -30.839230 37.274181 1.533272 2.545190 0.125892 -0.028744 -29303.100000 0 0 1
1.313416 20.896432 -29.505250 36.179355 1.508025 2.524436 0.137412 -0.047906 -124341.000000 0 0 1
0.993316 22.088232 -28.800050 36.308670 1.525856 2.486843 0.130421 -0.051147 106718.000000 0 0 1
2.031716 22.478232 -27.724800 35.750011 1.480655 2.458332 0.141048 -0.052900 146745.000000 0 0 1
3.220416 22.964032 -28.322720 36.604567 1.431468 2.455533 0.128806 -0.059707 -466730.000000 0 0 1
4.274416 22.888432 -27.383070 35.944171 1.386173 2.436918 0.133083 -0.059859 383770.000000 0 0 1
4.957516 24.348532 -27.229840 36.863154 1.369936 2.401897 0.132599 -0.056426 144878.000000 0 0 1
5.786016 24.720832 -28.308340 38.025776 1.340881 2.410509 0.117445 -0.063141 130701.000000 0 0 1
6.306216 26.000532 -28.136750 38.826186 1.332849 2.381373 0.129349 -0.065620 -235247.000000 0 0 1
7.172116 26.560032 -29.262830 40.164509 1.307053 2.387035 0.130537 -0.058397 552936.000000 0 0 1
8.542516 26.154932 -29.289710 40.186343 1.255107 2.387433 0.103774 -0.054493 552261.000000 0 0 1
9.344516 26.928732 -30.143530 41.486250 1.236788 2.384143 0.107264 -0.051445 491484.000000 0 0 1
10.863216 26.773532 -29.819140 41.521230 1.185348 2.371960 0.101691 -0.049779 1194200.000000 0 0 1
11.738716 27.718332 -30.525810 42.871068 1.170197 2.363192 0.100071 -0.044418 519038.000000 0 0 1
12.962116 27.935832 -29.857560 42.894068 1.136364 2.340715 0.096609 -0.039555 5607.170000 0 0 1
13.973716 28.850932 -30.556780 44.287219 1.119753 2.332242 0.093021 -0.038239 -222722.000000 0 0 1
13.595316 30.221632 -30.531500 45.059429 1.148064 2.315267 0.102935 -0.033428 593198.000000 0 0 1
14.363516 30.854032 -31.570350 46.421642 1.135102 2.318666 0.134172 -0.045104 367237.000000 0 0 1
13.880316 32.294032 -31.862600 47.442523 1.164858 2.307168 0.131992 -0.049396 216799.000000 0 0 1
12.667716 32.471632 -32.564730 47.700519 1.198839 2.322236 0.122184 -0.051551 225028.000000 0 0 1
11.953716 33.638132 -32.155780 48.045910 1.229353 2.304025 0.113300 -0.044522 375862.000000 0 0 1
10.621816 -33.810642 -32.899880 48.356846 -1.266403 2.319045 0.086687 -0.038936 -40752.600000 0 0 1
10.847016 -33.230442 33.657543 48.525769 -1.255282 0.804320 0.075234 -0.020296 -221811.000000 0 0 1
9.636216 -33.058742 32.979923 47.680315 -1.287167 0.806972 0.077964 -0.029821 -233260.000000 0 0 1
9.790816 -32.314742 31.655763 46.283798 -1.276605 0.817634 0.086349 -0.024647 -12043.700000 0 0 1
9.851116 -30.907042 31.840817 45.454674 -1.262242 0.794704 0.075762 -0.034608 7092.780000 0 0 1
10.038816 -30.270642 30.610803 44.205326 -1.250575 0.805891 0.093847 -0.029800 -66390.700000 0 0 1
9.428516 -28.788942 30.532973 43.011191 -1.254301 0.781462 0.088048 -0.045133 710460.000000 0 0 1
8.033416 -28.707342 30.799663 42.863347 -1.297937 0.769074 0.062425 -0.030507 168534.000000 0 0 1
7.612816 -28.640742 32.182280 43.748671 -1.311000 0.744219 0.059781 -0.024920 175931.000000 0 0 1
6.081616 -28.294742 32.296279 43.366209 -1.359079 0.730661 0.060158 -0.026548 842159.000000 0 0 1
5.143216 -29.263642 31.879055 43.578522 -1.396819 0.750231 0.075603 -0.040090 -85832.800000 0 0 1
5.289716 -29.921642 30.612153 43.132235 -1.395819 0.781684 0.076478 -0.029771 -1207460.000000 0 0 1
4.738016 -29.298342 29.260473 41.677535 -1.410468 0.792499 0.057578 -0.030936 787714.000000 0 0 1
3.334216 -29.540242 29.060003 41.571946 -1.458402 0.796757 0.096598 -0.037991 739282.000000 0 0 1
2.862416 -28.682642 28.040613 40.213970 -1.471330 0.799193 0.096195 -0.035544 -88597.100000 0 0 1
1.536816 -29.253842 27.480383 40.166161 -1.518311 0.817335 0.086105 -0.020303 -62542.800000 0 0 1
1.634516 -30.555542 26.913943 40.751357 -1.517354 0.849388 0.105733 -0.034683 88715.400000 0 0 1
1.481116 -31.688042 27.798343 42.179066 -1.524090 0.851234 0.146444 -0.044602 -606786.000000 0 0 1
1.915016 -33.018842 27.183113 42.811597 -1.512864 0.882856 0.161642 -0.047229 768801.000000 0 0 1
3.333216 -33.090242 26.915103 42.784310 -1.470404 0.890417 0.115328 -0.031354 1131450.000000 0 0 1
3.776716 -32.556142 25.688313 41.641991 -1.455306 0.906018 0.100840 -0.044370 -79874.500000 0 0 1
5.262616 -32.126942 25.804113 41.541398 -1.408431 0.900566 0.109571 -0.025397 409668.000000 0 0 1
5.923516 -31.931742 24.560313 40.717725 -1.387376 0.923308 0.100734 -0.038598 422861.000000 0 0 1
7.280816 -31.549242 24.687133 40.716330 -1.343991 0.919371 0.093516 -0.037352 200994.000000 0 0 1
8.049316 -31.281242 23.346843 39.854519 -1.318939 0.944927 0.088498 -0.031747 -289367.000000 0 0 1
9.333316 -30.799042 23.601863 39.909143 -1.276554 0.938015 0.086746 -0.025774 -93146.700000 0 0 1
10.091316 -30.660642 22.401473 39.290401 -1.252834 0.964106 0.080113 -0.031464 940955.000000 0 0 1
11.345516 -29.719842 22.421173 38.919131 -1.206122 0.956851 0.062801 -0.031349 438880.000000 0 0 1
12.487116 -30.027642 23.170933 39.930934 -1.176698 0.951730 0.063885 -0.030267 227001.000000 0 0 1
13.401516 -28.933542 23.183383 39.423594 -1.137034 0.942140 0.077638 -0.028283 423752.000000 0 0 1
14.673316 -29.154942 24.044073 40.539293 -1.104522 0.935886 0.093194 -0.034967 -136992.000000 0 0 1
14.500116 -29.148042 25.455803 41.326258 -1.109179 0.907178 0.080641 -0.032259 173749.000000 0 0 1
15.728216 -29.090042 26.147373 42.157946 -1.075142 0.901768 0.095328 -0.037480 -243639.000000 0 0 1
-10.689084 -13.868168 25.558863 30.981254 0.914138 0.600632 0.121911 -0.046247 -318838.000000 0 0 1
-9.317784 -13.612968 25.502443 30.372827 0.970564 0.574164 0.139967 -0.046541 -1165080.000000 0 0 1
-8.703584 -14.199068 26.619163 31.399773 1.020896 0.559067 0.147965 -0.050265 88548.500000 0 0 1
-7.157484 -14.117168 26.492173 30.860318 1.101560 0.538548 0.134412 -0.041579 243963.000000 0 0 1
-6.574684 -15.057068 25.575123 30.397840 1.159099 0.571026 0.117937 -0.048373 66577.000000 0 0 1
-6.760784 -14.751368 24.204473 29.140480 1.141049 0.590588 0.117420 -0.046763 -448924.000000 0 0 1
-6.192084 -15.886068 23.250463 28.832154 1.199131 0.632745 0.112882 -0.044620 469496.000000 0 0 1
-6.952384 -17.089468 23.181953 29.627496 1.184422 0.672210 0.134253 -0.042170 -102087.000000 0 0 1
-7.232784 -17.781668 24.401563 31.047337 1.184480 0.666570 0.137129 -0.043246 -296786.000000 0 0 1
-7.850284 -19.178168 24.276903 31.918601 1.182269 0.706578 0.138728 -0.042948 -1133450.000000 0 0 1
-9.079184 -19.153568 23.672033 31.775083 1.128147 0.730281 0.133357 -0.040505 -1450510.000000 0 0 1
-9.582884 -20.463068 23.606003 32.677396 1.132828 0.763536 0.122265 -0.040594 618556.000000 0 0 1
-11.116384 -20.547468 23.294893 32.991279 1.074881 0.786832 0.097406 -0.039344 980863.000000 0 0 1
-11.897484 -20.049068 24.391963 33.741415 1.035230 0.762793 0.107282 -0.038548 -264222.000000 0 0 1
-13.228884 -20.476468 24.396673 34.488937 0.997201 0.785016 0.107014 -0.033465 -213674.000000 0 0 1
-13.973484 -20.350468 25.740203 35.664518 0.969092 0.764496 0.101846 -0.035709 -476930.000000 0 0 1
-13.655584 -21.324668 26.756013 36.838847 1.001224 0.757874 0.109139 -0.025957 -135219.000000 0 0 1
-12.590384 -21.009168 27.611963 36.909665 1.030906 0.725609 0.123389 -0.028700 -307075.000000 0 0 1
-12.306484 -22.304268 28.461803 38.196913 1.066607 0.730061 0.114063 -0.022617 -360411.000000 0 0 1
-13.251084 -22.710168 29.419633 39.457037 1.042607 0.729344 0.119669 -0.017459 -144983.000000 0 0 1
-12.951384 -24.002368 29.966833 40.519910 1.075982 0.738383 0.101645 -0.009130 -267345.000000 0 0 1
-14.142284 -24.568668 30.724043 41.804192 1.048494 0.745202 0.098111 -0.019332 -231816.000000 0 0 1
-14.135484 -24.251168 32.132604 42.666559 1.043061 0.718020 0.116973 -0.019589 -490701.000000 0 0 1
-15.313284 -24.734368 32.696064 43.764348 1.016444 0.727117 0.115225 -0.020859 -525360.000000 0 0 1
-15.365584 -24.341468 -33.637800 44.273127 1.007714 2.433770 0.118190 -0.026844 161482.000000 0 0 1
-15.543784 -22.974168 -33.328390 43.361309 0.975964 2.447478 0.127695 -0.034204 178098.000000 0 0 1
-16.776884 -22.369568 -33.713150 43.799975 0.927304 2.449178 0.112099 -0.036653 -183560.000000 0 0 1
-17.032884 -20.865368 -33.382610 42.893838 0.886181 2.462688 0.108234 -0.029777 -295490.000000 0 0 1
-17.171684 -20.591368 -32.011270 41.756347 0.875708 2.444358 0.098514 -0.027988 139808.000000 0 0 1
-16.966984 -19.186968 -31.813200 40.842355 0.846725 2.463749 0.083825 -0.026111 -153721.000000 0 0 1
-17.049684 -18.842768 -30.324880 39.564377 0.835314 2.444122 0.076474 -0.018950 -159828.000000 0 0 1
-18.326784 -19.042068 -29.766800 39.806202 0.804537 2.415528 0.076844 -0.017674 -191597.000000 0 0 1
-18.372284 -18.830068 -28.365830 38.687628 0.797703 2.393815 0.072868 -0.019044 -80003.900000 0 0 1
-17.638184 -19.788268 -27.424690 38.141771 0.842783 2.373187 0.056975 -0.015782 404206.000000 0 0 1
-16.211184 -19.787568 -27.527690 37.578239 0.884421 2.392847 0.052775 -0.017714 433864.000000 0 0 1
-15.724384 -20.865768 -26.782560 37.415799 0.924997 2.368578 0.040055 -0.027101 -575011.000000 0 0 1
-14.247984 -21.220668 -26.991000 37.173053 0.979510 2.383415 0.145151 -0.027885 -827500.000000 0 0 1
-13.515284 -20.218068 -26.328680 35.841771 0.981542 2.395845 0.124807 -0.025821 -50032.200000 0 0 1
-12.118784 -20.299268 -26.564830 35.561431 1.032581 2.414353 0.084662 -0.037242 227295.000000 0 0 1
-11.246784 -21.290668 -25.800000 35.290546 1.084805 2.390691 0.142261 -0.059552 -726708.000000 0 0 1
-11.240884 -22.620768 -26.278620 36.450274 1.109610 2.375960 0.145027 -0.058209 86202.200000 0 0 1
-10.761984 -23.441468 -25.235670 36.085478 1.140400 2.345257 0.210309 -0.056343 -195591.000000 0 0 1
-10.716384 -24.872568 -25.725870 37.353793 1.163980 2.330502 0.200211 -0.044388 -25577.600000 0 0 1
-9.481684 -25.169558 -26.360630 37.660214 1.210525 2.346137 0.191887 -0.041798 210182.000000 0 0 1
-9.526484 -26.445978 -26.983870 38.965021 1.225042 2.335766 0.181287 -0.028168 -63754.800000 0 0 1
-9.472884 -27.730638 -26.128650 39.261051 1.241621 2.298974 0.200732 -0.026985 -543876.000000 0 0 1
-10.583484 -28.021728 -25.340820 39.234991 1.209671 2.272963 0.175541 -0.030165 -236458.000000 0 0 1
-10.300684 -29.171628 -24.527650 39.480293 1.231357 2.241150 0.183794 -0.039475 -149287.000000 0 0 1
-11.308784 -29.287838 -23.381250 39.145228 1.202308 2.210920 0.187393 -0.043212 -87253.300000 0 0 1
-11.262984 -28.245498 -22.401250 37.768756 1.191365 2.205720 0.190261 -0.052235 114170.000000 0 0 1
-12.051984 -27.101558 -22.727150 37.366671 1.152361 2.224612 0.162205 -0.048255 -71248.200000 0 0 1
-11.918984 -25.983428 -21.697850 35.888680 1.140719 2.220044 0.185985 -0.063810 91113.700000 0 0 1
-12.598884 -26.338758 -20.480950 35.664146 1.124626 2.182512 0.136348 -0.045381 350289.000000 0 0 1
-12.590684 -25.307708 -19.492750 34.336172 1.109148 2.174509 0.123450 -0.033226 -18883.400000 0 0 1
-13.204684 -25.779128 -18.124350 34.167516 1.097418 2.129934 0.134983 -0.029177 168623.000000 0 0 1
-14.607484 -25.902528 -18.244550 34.888152 1.057313 2.121098 0.157126 -0.035229 134552.000000 0 0 1
-15.163984 -26.333398 -16.988750 34.813961 1.048326 2.080578 0.141130 -0.025991 614535.000000 0 0 1
-16.721784 -26.439758 -16.990350 35.599871 1.006859 2.068329 0.152604 -0.038444 106102.000000 0 0 1
-17.415584 -25.188358 -16.920450 34.986534 0.965856 2.075591 0.135312 -0.030577 2277520.000000 0 0 1
-18.866384 -25.270238 -16.667450 35.669724 0.929484 2.056999 0.146010 -0.030283 2496270.000000 0 0 1
-19.816584 -26.049138 -17.670650 37.195516 0.920458 2.065845 0.133018 -0.028630 -509071.000000 0 0 1
-19.753184 -27.474838 -17.776350 38.223731 0.947462 2.054499 0.130133 -0.042305 -44765.800000 0 0 1
-20.080784 -28.163348 -16.568550 38.352691 0.951391 2.017511 0.140654 -0.041126 39284.100000 0 0 1
-21.584784 -28.530248 -16.503550 39.398542 0.923111 2.003016 0.140455 -0.037149 141321.000000 0 0 1
-21.928584 -29.469888 -17.481250 40.680845 0.931081 2.014976 0.120519 -0.032332 219953.000000 0 0 1
-23.310984 -29.800328 -17.308350 41.605774 0.906979 1.999848 0.129996 -0.034274 584401.000000 0 0 1
-23.883784 -30.773698 -18.367550 43.067650 0.910793 2.011395 0.093560 -0.031807 -169175.000000 0 0 1
-23.295784 -32.074618 -18.353150 43.684239 0.942637 2.004387 0.091704 -0.034152 23887.800000 0 0 1
-23.617784 -32.976748 -19.422350 44.972139 0.949284 2.017367 0.064454 -0.006469 -283364.000000 0 0 1
-22.892284 33.427785 -19.215050 44.840736 -0.970326 2.013648 0.053901 -0.010635 -157379.000000 0 0 1
-23.758384 32.525026 -18.553750 44.346136 -0.939915 2.002463 0.062253 -0.013489 80629.400000 0 0 1
-23.034584 31.358236 -18.191250 42.951747 -0.937249 2.008132 0.063047 -0.011787 151794.000000 0 0 1
-23.782884 30.057926 -17.743950 42.236859 -0.901423 2.004358 0.084624 -0.040664 27475.600000 0 0 1
-24.305584 30.131516 -16.423250 42.052263 -0.892014 1.972019 0.091434 -0.049724 989063.000000 0 0 1
-25.124904 29.004706 -15.932350 41.549652 -0.856952 1.964329 0.088332 -0.039273 858219.000000 0 0 1
-24.201884 27.822706 -15.551650 40.021094 -0.854884 1.969893 0.083925 -0.044596 93749.300000 0 0 1
-23.587184 27.252456 -16.683150 39.716232 -0.857368 2.004306 0.062298 -0.028171 -105703.000000 0 0 1
-22.667584 26.215946 -16.444250 38.360247 -0.857859 2.013827 0.074824 -0.033343 -169032.000000 0 0 1
-22.045684 25.669066 -17.710050 38.191085 -0.861191 2.052988 0.067338 -0.023550 -1272350.000000 0 0 1
-22.076184 24.229956 -17.741050 37.271886 -0.831876 2.066886 0.082204 -0.041979 28676.300000 0 0 1
-21.463484 23.669826 -18.879450 37.113009 -0.834244 2.104472 0.080111 -0.033153 486049.000000 0 0 1
-19.989284 24.140526 -19.143850 36.726332 -0.879191 2.119119 0.073067 -0.038065 -1360700.000000 0 0 1
-19.122284 23.517986 -18.248950 35.380526 -0.888123 2.112727 0.097712 -0.043575 3230.490000 0 0 1
-17.799784 24.022166 -18.216350 35.010458 -0.933097 2.118012 0.115183 -0.059710 175571.000000 0 0 1
-17.638184 25.365866 -17.486350 35.500776 -0.963197 2.085828 0.143418 -0.054443 -779031.000000 0 0 1
-18.383684 26.443116 -17.974150 36.881815 -0.963288 2.079842 0.111749 -0.045668 -94015.700000 0 0 1
-17.893884 27.665756 -17.430450 37.274733 -0.996682 2.057394 0.121258 -0.058228 -551311.000000 0 0 1
-18.843284 28.870156 -17.516350 38.670115 -0.992532 2.040889 0.096927 -0.043799 -72402.000000 0 0 1
-19.145184 29.424246 -18.822150 39.832118 -0.993957 2.062964 0.069755 -0.037607 448288.000000 0 0 1
-19.974284 28.586686 -19.639250 40.023378 -0.960925 2.083683 0.068361 -0.025986 -152411.000000 0 0 1
-20.256584 29.057916 -21.103950 41.231886 -0.962012 2.108117 0.063024 -0.027497 238353.000000 0 0 1
-21.197584 30.115426 -21.168550 42.478041 -0.957472 2.092481 0.068319 -0.024018 87083.300000 0 0 1
-21.574184 30.387976 -22.521450 43.544118 -0.953418 2.114384 0.070936 -0.021384 -209752.000000 0 0 1
-22.285884 31.674146 -22.706850 44.894467 -0.957659 2.101085 0.072688 -0.019673 -231437.000000 0 0 1
-21.440084 32.820939 -22.705450 45.303738 -0.992144 2.095761 0.050406 -0.016694 -56426.700000 0 0 1
-21.985184 -33.772598 -23.391450 46.595027 0.993735 2.096725 0.068539 -0.005337 -621505.000000 0 0 1
-20.949784 -32.654038 -23.593850 45.407591 1.000372 2.117181 0.073790 -0.009614 105683.000000 0 0 1
-20.627584 -31.904658 -22.439150 44.123915 0.996858 2.104294 0.086331 -0.016690 6348.890000 0 0 1
-19.915884 -32.538848 -21.415650 43.749847 1.021553 2.082315 0.102376 -0.033125 -699390.000000 0 0 1
-19.682684 -31.456308 -20.345050 42.318180 1.011683 2.072322 0.117458 -0.038098 -230950.000000 0 0 1
-18.698784 -30.528248 -20.718250 41.362595 1.021231 2.095427 0.133453 -0.040564 -99961.200000 0 0 1
-18.290884 -29.804498 -19.591250 40.083433 1.020367 2.081466 0.121887 -0.041847 -22393.400000 0 0 1
-17.047484 -28.918658 -19.867350 39.007910 1.038135 2.105186 0.143930 -0.043642 246322.000000 0 0 1
-15.879884 -29.704098 -20.059150 39.202980 1.079851 2.107928 0.155433 -0.052896 -646275.000000 0 0 1
-14.826184 -28.825458 -20.302650 38.248141 1.095740 2.130357 0.144969 -0.049396 -1134590.000000 0 0 1
-13.494184 -29.558428 -20.351150 38.340096 1.142529 2.130348 0.184719 -0.055152 -476635.000000 0 0 1
-12.923284 -30.151738 -19.142250 37.981104 1.165873 2.099013 0.167275 -0.050403 640010.000000 0 0 1
-11.967684 -29.309718 -18.488950 36.662328 1.183140 2.099372 0.129007 -0.041267 96907.900000 0 0 1
-11.104984 -29.964208 -17.393050 36.382586 1.215881 2.069241 0.105922 -0.021938 -243323.000000 0 0 1
-11.750084 -30.509848 -16.280650 36.523620 1.203179 2.032816 0.133681 -0.037355 -388156.000000 0 0 1
-11.924684 -31.893088 -16.406150 37.795884 1.212994 2.019805 0.148198 -0.035804 281042.000000 0 0 1
-12.917484 -32.561248 -15.390050 38.261598 1.193126 1.984750 0.156296 -0.042116 147859.000000 0 0 1
-12.318284 -32.645648 -14.069550 37.622210 1.209982 1.954081 0.136481 -0.036336 -260903.000000 0 0 1
-13.095884 -33.364288 -13.161550 38.182512 1.196762 1.922717 0.139874 -0.038028 -456964.000000 0 0 1
-12.508884 -33.724528 -11.783650 37.850632 1.215613 1.887378 0.112728 -0.032241 -161524.000000 0 0 1
-12.397984 -32.548198 -10.978450 36.518783 1.206853 1.876144 0.065386 -0.027211 304350.000000 0 0 1
-11.808684 -32.867018 -9.697850 36.245471 1.225872 1.841656 0.082103 -0.029725 1054670.000000 0 0 1
-10.456984 -32.115028 -9.331350 35.039943 1.256013 1.840355 0.080199 -0.026152 1762590.000000 0 0 1
-9.312684 -32.770308 -9.870450 35.468929 1.293915 1.852804 0.062783 -0.030276 250650.000000 0 0 1
-8.053984 -32.140718 -9.745350 34.537867 1.325267 1.856846 0.049141 -0.034279 840991.000000 0 0 1
-6.847484 -32.941068 -10.336650 35.197277 1.365844 1.868868 0.054371 -0.045406 444667.000000 0 0 1
-6.478684 33.545538 -9.633350 35.497576 -1.380014 1.845623 0.051569 -0.027831 123084.000000 0 0 1
-5.377084 33.006007 -10.375050 35.013586 -1.409303 1.871628 0.063500 -0.026942 450670.000000 0 0 1
-4.548884 32.015962 -9.512050 33.707466 -1.429659 1.856877 0.075306 -0.034836 -118945.000000 0 0 1
-3.966584 32.600031 -8.386150 33.894297 -1.449717 1.820814 0.088656 -0.038304 -516556.000000 0 0 1
-3.249084 31.620296 -7.687650 32.703205 -1.468403 1.808090 0.076813 -0.034542 -107349.000000 0 0 1
-2.813284 32.041193 -6.248250 32.765733 -1.483219 1.762666 0.077626 -0.035575 52565.000000 0 0 1
-1.751684 32.990348 -6.328550 33.637509 -1.517749 1.760064 0.055404 -0.032078 105957.000000 0 0 1
-1.465984 33.674890 -5.077450 34.087063 -1.527290 1.720308 0.065852 -0.032299 52074.900000 0 0 1
-0.397584 33.004303 -4.184050 33.270834 -1.558750 1.696887 0.067260 -0.034040 -409008.000000 0 0 1
0.912316 33.160021 -4.680950 33.501203 1.543291 1.710980 0.068038 -0.027413 70296.600000 0 0 1
1.832216 32.286882 -3.989550 32.583988 1.514109 1.693543 0.067970 -0.025393 209984.000000 0 0 1
3.251616 32.464386 -4.543950 32.941719 1.470970 1.709177 0.073265 -0.017461 -384322.000000 0 0 1
3.947516 33.549318 -4.007750 34.017668 1.453672 1.688884 0.070852 -0.022786 -1707460.000000 0 0 1
5.269116 33.472936 -4.328650 34.160478 1.414663 1.697853 0.081009 -0.023529 -1127530.000000 0 0 1
6.042516 -32.903798 -3.991850 33.691346 -1.389178 1.689558 0.086560 -0.024724 175722.000000 0 0 1
5.975516 -31.879808 -4.955750 32.811406 -1.385507 1.722414 0.083349 -0.028392 -81336.200000 0 0 1
6.463316 -30.654998 -4.341050 31.628279 -1.362999 1.708483 0.070528 -0.023705 297213.000000 0 0 1
6.273516 -29.433118 -5.283650 30.554580 -1.360794 1.744595 0.072988 -0.024729 -23457.900000 0 0 1
7.347616 -29.269068 -6.197850 30.807128 -1.324842 1.773361 0.095880 -0.023231 17784.500000 0 0 1
7.318116 -28.040568 -6.932050 29.797342 -1.315508 1.805587 0.084167 -0.020482 19361.200000 0 0 1
7.428716 -26.691628 -6.126150 28.375315 -1.299350 1.788407 0.090423 -0.017437 279235.000000 0 0 1
6.299416 -26.320158 -5.364850 27.590124 -1.335877 1.766491 0.077773 -0.013423 -142627.000000 0 0 1
6.697416 -25.175718 -4.598250 26.454036 -1.310791 1.745504 0.062133 -0.014166 71050.700000 0 0 1
5.669216 -24.740068 -3.573950 25.631701 -1.345534 1.710687 0.063067 -0.012918 773092.000000 0 0 1
4.441916 -24.161968 -4.079250 24.903244 -1.388987 1.735342 0.061632 -0.021939 656922.000000 0 1 0
3.719316 -23.515868 -3.051050 24.002880 -1.413934 1.698253 0.061703 -0.027416 295267.000000 0 1 0
2.329416 -22.969368 -3.458150 23.344739 -1.469728 1.719478 0.080883 -0.025200 435205.000000 0 1 0
1.382316 -23.990768 -3.673950 24.309785 -1.513241 1.722508 0.099504 -0.025888 -24813.700000 0 1 0
0.223416 -23.519568 -4.368550 23.922880 -1.561297 1.754436 0.060922 -0.018357 500306.000000 0 1 0
-15.653284 23.079632 18.030473 33.208323 -0.974831 0.996850 0.003351 -0.015674 -13591.700000 0 0 1
-15.987184 22.507632 19.268073 33.666633 -0.953191 0.961465 0.034919 -0.018089 277429.000000 0 0 1
-15.712084 23.468032 20.253973 34.754015 -0.980828 0.948650 0.043575 -0.023027 -907042.000000 0 0 1
-15.711084 22.898432 21.632973 35.201731 -0.969446 0.908990 0.064186 -0.031150 -261648.000000 0 0 1
-14.741484 21.936732 22.016573 34.398562 -0.979111 0.876242 0.047772 -0.031250 303675.000000 0 0 1
-13.369184 22.277732 21.942973 34.007742 -1.030293 0.869466 0.050276 -0.034319 -78887.600000 0 0 1
-12.746084 23.308132 22.929313 35.092522 -1.070374 0.858735 0.068914 -0.024614 -666616.000000 0 0 1
-12.366884 22.796632 24.134933 35.427691 -1.073739 0.821334 0.064078 -0.021836 -24282.600000 0 0 1
-12.140084 23.888132 25.011983 36.655474 -1.100606 0.819819 0.084476 -0.028453 95654.600000 0 0 1
-11.496784 23.641232 26.442433 37.286542 -1.118167 0.782478 0.085460 -0.031500 177199.000000 0 0 1
-10.119384 23.372432 26.401053 36.683622 -1.162201 0.767432 0.055928 -0.026365 -395198.000000 0 0 1
-9.624184 22.709432 27.490353 36.933220 -1.169945 0.731271 0.050198 -0.021848 208233.000000 0 0 1
-8.100584 22.362432 27.554543 36.399872 -1.223259 0.712093 0.043774 -0.027741 1443060.000000 0 0 1
-7.158784 23.409132 27.906533 37.121561 -1.274016 0.720068 0.044122 -0.023738 442179.000000 0 0 1
-7.050484 24.578632 27.162123 37.304148 -1.291443 0.755212 0.049870 -0.019706 -707264.000000 0 0 1
-5.904384 25.399632 27.757013 38.084838 -1.342393 0.754198 0.050958 -0.026095 -681480.000000 0 0 1
-4.644084 24.851632 27.593223 37.424018 -1.386055 0.741712 0.038886 -0.024807 125750.000000 0 0 1
-3.588484 25.676032 28.194673 38.302421 -1.431936 0.743496 0.044987 -0.019347 802892.000000 0 0 1
-2.178884 25.095732 28.120083 37.752912 -1.484191 0.730493 0.052224 -0.020670 -473139.000000 0 0 1
-1.541784 25.208932 26.855363 36.865674 -1.509712 0.754717 0.047757 -0.026597 97048.900000 0 0 1
-0.166984 24.902832 27.074253 36.785787 -1.564091 0.743657 0.064413 -0.020132 287120.000000 0 0 1
0.488716 24.715532 25.708143 35.665179 1.551025 0.765813 0.056432 -0.031116 -489803.000000 0 0 1
0.069916 23.577432 24.989613 34.356673 1.567831 0.756332 0.052508 -0.012089 -273468.000000 0 0 1
0.617616 23.428232 23.693613 33.326428 1.544440 0.779940 0.068667 -0.011304 -276701.000000 0 0 1
0.102416 22.263132 22.883123 31.926398 1.566196 0.771671 0.042418 -0.007956 -247825.000000 0 0 1
0.698016 21.011632 23.127103 31.254421 1.537588 0.737782 0.060325 -0.008413 -286191.000000 0 0 1
0.081816 19.933332 22.439373 30.014495 1.566692 0.726328 0.055000 -0.008689 -451192.000000 0 0 1
0.808516 18.626532 22.532673 29.245902 1.527417 0.691241 0.059209 -0.004326 129324.000000 0 0 1
2.122116 18.813532 22.020873 29.040854 1.458474 0.710138 0.068816 -0.012435 61070.300000 0 0 1
2.922716 17.632432 22.057373 28.389657 1.406532 0.680988 0.050106 -0.017335 -780995.000000 0 0 1
4.220416 17.822332 21.326173 28.111441 1.338275 0.709589 0.061607 -0.017946 -568140.000000 0 0 1
5.209316 18.510832 22.104373 29.298314 1.296471 0.715967 0.060564 -0.012810 -124019.000000 0 0 1
6.398116 18.656732 21.350173 29.066122 1.240426 0.745811 0.085072 -0.028270 790654.000000 0 0 1
7.636616 18.945132 22.303373 30.243617 1.187628 0.741499 0.092688 -0.035131 206842.000000 0 0 1
7.563116 20.145632 23.097383 31.567964 1.211656 0.750025 0.071311 -0.021520 61616.700000 0 0 1
7.361416 21.451632 22.568473 31.995296 1.240225 0.787853 0.082319 -0.030208 94420.400000 0 0 1
6.153516 22.199932 23.185443 32.684362 1.300399 0.782186 0.067409 -0.021578 125488.000000 0 0 1
5.905316 23.468932 22.652073 33.147850 1.324291 0.818435 0.072903 -0.028351 433979.000000 0 0 1
4.630316 23.922332 23.094533 33.571942 1.379604 0.812188 0.050590 -0.024111 75601.000000 0 0 1
4.343216 25.369732 22.627273 34.270692 1.401243 0.849643 0.073336 -0.028382 -66321.800000 0 0 1
4.191116 25.410232 21.202073 33.358256 1.407330 0.882028 0.074243 -0.037785 568298.000000 0 0 1
2.894516 25.041432 20.706273 32.622098 1.455718 0.883135 0.075718 -0.037648 381151.000000 0 0 1
2.637116 25.460432 19.252373 32.028766 1.467587 0.925924 0.084404 -0.038039 -711310.000000 0 0 1
2.339516 26.831132 19.108373 33.022915 1.483822 0.953736 0.086988 -0.043996 133885.000000 0 0 1
1.681716 26.942132 17.862073 32.369126 1.508458 0.986246 0.096046 -0.041009 593449.000000 0 0 1
0.460716 27.959232 17.913673 33.208894 1.554320 1.001043 0.092438 -0.029854 649083.000000 0 0 1
0.774116 29.289832 18.248973 34.518380 1.544373 1.013759 0.084719 -0.025495 479452.000000 0 0 1
-0.417984 29.990932 18.620273 35.303616 -1.556860 1.015221 0.071309 -0.023448 467437.000000 0 0 1
-0.058084 31.395132 19.098173 36.747761 -1.568946 1.024285 0.077182 -0.011738 169701.000000 0 0 1
0.558116 31.321732 20.377773 37.371327 1.552979 0.994075 0.085996 -0.013620 -30892.100000 0 0 1
0.791516 32.605632 20.838773 38.704111 1.546526 1.002244 0.098706 -0.016879 -482332.000000 0 0 1
1.350716 32.532532 22.257473 39.440908 1.529301 0.971181 0.098927 -0.030334 120888.000000 0 0 1
0.422516 32.031832 23.229053 39.570263 1.557607 0.943407 0.111598 -0.025810 286584.000000 0 0 1
0.920716 32.251532 24.534293 40.533204 1.542256 0.920668 0.116976 -0.030406 -151349.000000 0 0 1
-0.023884 31.858132 25.690943 40.926345 -1.570047 0.892155 0.131948 -0.033104 14475.700000 0 0 1
-1.184284 32.683332 25.781463 41.644767 -1.534577 0.903225 0.131459 -0.030851 358138.000000 0 0 1
-2.029784 32.648132 26.891973 42.346178 -1.508705 0.882722 0.139495 -0.029689 233693.000000 0 0 1
-1.397184 33.229332 28.216763 43.615667 -1.528774 0.867230 0.157656 -0.046470 590038.000000 0 0 1
-0.214784 32.538432 28.703433 43.389893 -1.564195 0.847948 0.149659 -0.045788 809178.000000 0 0 1
0.163916 33.010332 29.997963 44.604783 1.565831 0.833177 0.147419 -0.055429 -256455.000000 0 0 1
1.286816 32.097332 30.572233 44.345869 1.530727 0.810130 0.121734 -0.043156 51323.000000 0 0 1
2.535916 32.059532 29.940103 43.939211 1.491860 0.821125 0.096051 -0.043641 -152687.000000 0 0 1
2.597616 31.422932 28.672823 42.617826 1.488318 0.832824 0.089997 -0.043965 -1012970.000000 0 0 1
4.019116 31.305832 28.106903 42.263536 1.443112 0.843250 0.069782 -0.042289 -81212.300000 0 0 1
4.751216 30.227532 28.677713 41.936726 1.414890 0.817793 0.071561 -0.040814 885854.000000 0 0 1
6.125316 30.207732 28.256003 41.814212 1.370736 0.828813 0.067256 -0.050381 808752.000000 0 0 1
6.992516 29.076332 28.867153 41.564900 1.334790 0.803061 0.070476 -0.033761 121414.000000 0 0 1
7.032716 29.278932 30.256943 42.687206 1.335065 0.782992 0.077366 -0.044237 109885.000000 0 0 1
7.609816 28.167832 30.914363 42.509222 1.306936 0.756506 0.058114 -0.040892 -175567.000000 0 0 1
7.583816 28.304532 32.461427 43.731054 1.309009 0.734305 0.088526 -0.049911 1200570.000000 0 0 1
6.261416 28.370132 33.092013 44.035793 1.353574 0.720494 0.097004 -0.053133 887740.000000 0 0 1
6.163916 27.912532 -33.374710 43.942856 1.353455 2.433344 0.125569 -0.054225 -191150.000000 0 0 1
6.401116 26.400032 -33.071040 42.797543 1.332921 2.453931 0.113321 -0.045469 784345.000000 0 0 1
7.789916 26.077932 -33.306920 43.012699 1.280517 2.456485 0.084269 -0.042980 927430.000000 0 0 1
8.083016 24.824132 -32.696410 41.840505 1.256012 2.467788 0.096941 -0.047677 350391.000000 0 0 1
9.508816 24.276332 -33.002640 42.058675 1.197474 2.472978 0.072049 -0.040231 118224.000000 0 0 1
9.670016 23.793932 33.475357 42.193127 1.184779 0.654448 0.043287 -0.023937 288271.000000 0 0 1
10.940516 23.297132 33.083637 41.916325 1.131757 0.661164 0.058536 -0.038146 -6258.750000 0 0 1
10.950016 21.756632 33.474911 41.398352 1.104516 0.629019 0.049155 -0.039913 -314436.000000 0 0 1
10.139916 20.979332 32.607986 40.077812 1.120574 0.620450 0.027465 -0.032824 215882.000000 0 0 1
9.919316 19.703032 33.149291 39.818059 1.104400 0.587157 0.017875 -0.029074 887723.000000 0 0 1
8.605416 19.468332 -33.788670 39.934238 1.154597 2.579436 0.045573 -0.036069 587841.000000 0 0 1
8.710316 19.885932 -32.412770 39.011633 1.157955 2.551428 0.057035 -0.025156 -46816.100000 0 0 1
7.496916 20.512932 -32.085950 38.813558 1.220404 2.543957 0.082653 -0.037562 -268243.000000 0 0 1
7.562516 21.119932 -30.611060 37.951023 1.226946 2.509163 0.099066 -0.047728 163494.000000 0 0 1
8.465716 22.226032 -30.623590 38.774593 1.206870 2.481255 0.121269 -0.057570 360303.000000 0 0 1
8.477116 22.867632 -29.423300 38.216759 1.215798 2.449490 0.097286 -0.053706 -2207890.000000 0 0 1
9.849716 23.117332 -29.034770 38.398513 1.168016 2.428195 0.098099 -0.051119 -2200720.000000 0 0 1
10.539916 21.935132 -28.675210 37.609939 1.122867 2.437867 0.092065 -0.043688 -543288.000000 0 0 1
11.928116 22.120332 -28.582780 38.060010 1.076253 2.420360 0.103691 -0.044483 -219599.000000 0 0 1
12.601516 20.727632 -28.515780 37.437717 1.024546 2.436707 0.093243 -0.051183 -15641.900000 0 0 1
12.668316 19.935832 -29.719420 37.962712 1.004714 2.470043 0.080428 -0.047367 1327350.000000 0 0 1
11.352116 19.407932 -30.089030 37.561790 1.041538 2.499851 0.086390 -0.041540 1300280.000000 0 0 1
11.363516 18.433932 -31.285230 38.048718 1.018372 2.536134 0.076754 -0.041357 -510307.000000 0 0 1
11.907216 17.135032 -31.000920 37.369080 0.963498 2.549165 0.102605 -0.032289 267435.000000 0 0 1
11.923516 16.115932 -31.990690 37.753115 0.933817 2.581801 0.077604 -0.024149 -167484.000000 0 0 1
12.980916 16.288132 -33.116030 39.121335 0.897915 2.580164 0.063783 -0.012752 -81135.100000 0 0 1
12.805116 17.535332 -33.749130 40.130570 0.940058 2.569894 0.060226 -0.026634 -73737.200000 0 0 1
13.394916 17.592132 32.752269 39.517313 0.920029 0.593822 0.064093 -0.031067 -255756.000000 0 0 1
12.646316 17.025732 31.570123 38.032585 0.931934 0.591544 0.072064 -0.040920 -989173.000000 0 0 1
13.235916 17.524732 30.365173 37.474651 0.923931 0.626157 0.060978 -0.034585 444505.000000 0 0 1
12.504416 17.183232 29.161213 36.083241 0.941714 0.629767 0.054839 -0.034307 737997.000000 0 0 1
10.995216 17.572732 29.072863 35.706121 1.011696 0.619401 0.035446 -0.036015 390677.000000 0 0 1
10.161016 16.763732 29.894383 35.748330 1.025881 0.580396 0.040091 -0.032683 -384980.000000 0 0 1
8.890416 17.338232 30.071883 35.832554 1.096990 0.574924 0.045562 -0.031118 -50621.200000 0 0 1
8.022816 16.479732 31.000103 36.013241 1.117741 0.533962 0.064451 -0.030650 -132373.000000 0 0 1
8.487416 16.660432 32.322127 37.340677 1.099629 0.524447 0.078447 -0.030151 169452.000000 0 0 1
7.983916 15.746532 33.282334 37.675058 1.101543 0.487717 0.094818 -0.029530 -249503.000000 0 0 1
8.171916 16.160932 -33.058230 37.693534 1.102632 2.640434 0.094426 -0.026684 1421680.000000 0 0 1
6.972216 16.877532 -32.562410 37.333275 1.179043 2.630496 0.087574 -0.031314 1600640.000000 0 0 1
6.995916 16.976332 -31.134900 36.145825 1.179904 2.608755 0.093923 -0.039774 -650950.000000 0 0 1
5.719216 17.473932 -30.491410 35.605811 1.254486 2.598976 0.105106 -0.044708 -1056730.000000 0 0 1
5.898016 17.714632 -29.068800 34.548370 1.249394 2.570654 0.099261 -0.049355 413711.000000 0 0 1
5.117716 18.772032 -28.485330 34.496293 1.304640 2.542328 0.114651 -0.050435 -335930.000000 0 0 1
3.601016 18.696032 -28.461910 34.243090 1.380518 2.552009 0.138133 -0.061681 -1752920.000000 0 0 1
3.116616 17.796132 -27.462770 32.872775 1.397426 2.559704 0.145553 -0.059046 226321.000000 0 0 1
1.807416 17.345332 -27.811960 32.827312 1.466969 2.581527 0.133654 -0.057069 840031.000000 0 0 1
0.622616 18.357032 -27.681830 33.221258 1.536892 2.555768 0.131954 -0.059282 -618324.000000 0 0 1
0.311116 18.640532 -26.339530 32.269754 1.554108 2.525651 0.139781 -0.061681 -46146.800000 0 0 1
-0.511984 19.782932 -26.133610 32.780971 -1.544922 2.493471 0.145429 -0.062025 -8770.350000 0 0 1
-0.772284 20.107732 -24.675550 31.840227 -1.532408 2.457480 0.133830 -0.062684 -278035.000000 0 0 1
-1.813684 19.432232 -24.051650 30.973907 -1.477732 2.459909 0.127578 -0.054827 -428841.000000 0 0 1
-2.394484 20.155832 -23.004150 30.678690 -1.452552 2.418619 0.131726 -0.044890 386094.000000 0 0 1
-3.473884 19.324532 -22.223050 29.654162 -1.392931 2.417963 0.113974 -0.046786 506302.000000 0 0 1
-4.805684 19.434532 -22.678450 30.250747 -1.328384 2.418378 0.107619 -0.037834 -134504.000000 0 0 1
-5.655784 18.587232 -21.929650 29.298168 -1.275415 2.416592 0.096892 -0.041172 435807.000000 0 0 1
-7.172884 18.882632 -22.181050 30.000050 -1.207766 2.402926 0.122663 -0.035169 746154.000000 0 0 1
-7.788284 19.710132 -21.192050 29.970813 -1.194486 2.356170 0.083792 -0.026725 178604.000000 0 0 1
-7.483384 21.124032 -21.352250 30.953907 -1.230332 2.332020 0.088228 -0.037896 157667.000000 0 0 1
-8.161884 21.984632 -20.206850 30.955729 -1.215314 2.282026 0.091076 -0.041425 365760.000000 0 0 1
-7.353284 21.998032 -19.063850 30.023567 -1.248203 2.258757 0.101382 -0.043963 167556.000000 0 0 1
-7.884084 23.007832 -18.190550 30.371289 -1.240667 2.212972 0.111172 -0.042941 281533.000000 0 0 1
-7.014484 23.282432 -16.926250 29.627227 -1.278167 2.178894 0.126115 -0.044746 297190.000000 0 0 1
-5.681184 23.675532 -17.154350 29.783861 -1.335289 2.184576 0.136059 -0.052557 -109141.000000 0 0 1
-4.947984 23.922632 -15.949350 29.174589 -1.366840 2.149198 0.128103 -0.042072 929140.000000 0 0 1
-3.406684 24.064332 -16.182750 29.198955 -1.430165 2.158226 0.126679 -0.042957 745496.000000 0 0 1
-2.950084 25.350632 -16.491350 30.386217 -1.454946 2.144474 0.104152 -0.048235 206693.000000 0 0 1
-1.621184 25.326832 -17.020550 30.557745 -1.506873 2.161561 0.103143 -0.053110 896905.000000 0 0 1
-0.978384 26.727332 -17.252650 31.827055 -1.534207 2.143701 0.077964 -0.064153 383123.000000 0 0 1
-1.749884 27.385132 -18.275450 32.969677 -1.506984 2.158331 0.087502 -0.062034 62963.400000 0 0 1
-1.245784 28.630732 -18.555950 34.140798 -1.527312 2.145412 0.091443 -0.063637 -1204570.000000 0 0 1
-2.134584 29.513632 -19.450950 35.411162 -1.498597 2.152309 0.138346 -0.064616 819764.000000 0 0 1
-3.240684 30.142132 -18.760250 35.651047 -1.463694 2.124944 0.107153 -0.053377 614680.000000 0 0 1
-4.319884 29.299632 -18.391250 34.862127 -1.424413 2.126501 0.074504 -0.054042 8547.050000 0 0 1
-5.483384 30.127632 -17.714650 35.377260 -1.390762 2.095245 0.103473 -0.043809 844319.000000 0 0 1
-6.034784 31.206532 -18.484950 36.769004 -1.379772 2.097552 0.148009 -0.048211 179802.000000 0 0 1
-5.796684 32.378132 -17.742650 37.373073 -1.393642 2.065470 0.140154 -0.069506 -308354.000000 0 0 1
-6.648284 33.582132 -18.138950 38.742493 -1.375353 2.058041 0.147157 -0.049048 -456225.000000 0 0 1
-7.985684 33.397232 -17.779750 38.668666 -1.336091 2.048563 0.151061 -0.069614 -272742.000000 0 0 1
-8.786284 -33.117342 -17.940350 38.675745 1.311463 2.053150 0.204186 -0.057315 215509.000000 0 0 1
30.861616 -19.959268 -26.011140 45.026560 -0.574076 2.186685 0.085738 -0.008551 -251269.000000 0 0 1
30.297416 -21.208668 -25.700070 45.035925 -0.610737 2.178102 0.103534 -0.017967 73668.200000 0 0 1
29.059916 -21.375268 -26.385170 44.694048 -0.634194 2.202290 0.112317 -0.018382 502890.000000 0 0 1
28.219316 -22.599368 -25.904350 44.475797 -0.675257 2.192520 0.104800 -0.014589 334183.000000 0 0 1
28.614616 -23.918268 -26.391100 45.687744 -0.696237 2.186632 0.080665 0.001733 411844.000000 0 0 1
29.974916 -24.307768 -26.193510 46.641860 -0.681374 2.167100 0.083280 0.000394 496993.000000 0 0 1
30.289316 -25.739938 -26.770330 47.923247 -0.704379 2.163503 0.075423 -0.006265 22165.200000 0 0 1
29.769716 -26.843128 -25.965700 47.759890 -0.733749 2.145602 0.089895 -0.012687 121637.000000 0 0 1
29.792216 -28.116658 -26.548020 48.815161 -0.756472 2.145812 0.072141 -0.006257 597787.000000 0 0 1
28.681316 -28.388558 -27.648930 48.918211 -0.780268 2.171481 0.077941 -0.009725 161161.000000 0 0 1
28.819216 -27.751208 -28.907510 49.359101 -0.766521 2.196487 0.053857 -0.006554 722168.000000 0 0 1
29.931816 -28.088788 -29.778610 50.711529 -0.753644 2.198411 0.028379 -0.007317 174533.000000 0 0 1
30.064616 -29.584438 -30.280330 51.923198 -0.777348 2.193428 0.038120 -0.008015 -669564.000000 0 0 1
30.683916 -30.538228 -29.422600 52.342864 -0.783018 2.167735 0.049839 -0.012328 1329020.000000 0 0 1
32.013316 -30.252518 -28.912750 52.687895 -0.757127 2.151671 0.054428 -0.016616 931785.000000 0 0 1
33.200516 -30.141668 -29.874160 53.881906 -0.737145 2.158483 0.052225 -0.020661 -636757.000000 0 0 1
33.065316 -28.942088 -30.657220 53.580077 -0.719000 2.179953 0.053977 -0.027479 49472.000000 0 0 1
34.262916 -28.640028 -31.362900 54.569498 -0.696245 2.183074 0.053756 -0.023155 217004.000000 0 0 1
34.120816 -27.186728 -31.954210 54.077905 -0.672773 2.202961 0.040869 -0.020009 178197.000000 0 0 1
34.124416 -26.015958 -31.214180 53.062518 -0.651381 2.199693 0.032606 -0.008206 670979.000000 0 0 1
32.886216 -25.834318 -30.485970 51.752387 -0.665878 2.200708 0.044837 -0.012862 659185.000000 0 0 1
32.894416 -24.572868 -29.584510 50.607427 -0.641593 2.195169 0.039328 -0.012740 -64348.200000 0 0 1
33.849716 -24.437068 -28.541080 50.572391 -0.625292 2.170455 0.040044 -0.006280 149709.000000 0 0 1
33.658816 -23.115568 -27.903000 49.455260 -0.601785 2.170269 0.038309 -0.004750 -43901.500000 0 0 1
34.673916 -22.764468 -26.794930 49.380864 -0.580952 2.144347 0.036272 -0.006141 -461348.000000 0 0 1
34.555016 -23.489568 -25.602440 49.002998 -0.597021 2.120538 0.033687 -0.011905 -3963.960000 0 0 1
33.586816 -23.133868 -24.631950 47.644338 -0.603155 2.114135 0.078242 -0.008135 -19361.600000 0 0 1
33.882316 -21.807668 -23.838650 46.817378 -0.571884 2.105032 0.057736 0.003465 -65308.500000 0 0 1
33.833516 -20.672268 -24.626550 46.674580 -0.548468 2.126595 0.046803 -0.009758 31473.100000 0 0 1
33.961616 -19.597668 -23.722650 45.828201 -0.523376 2.114890 0.017797 -0.014458 -174809.000000 0 0 1
34.147616 -18.250268 -24.421750 45.777219 -0.490828 2.133519 0.012097 -0.014700 295043.000000 0 0 1
33.105816 -17.974968 -25.369020 45.416755 -0.497418 2.163473 0.033634 -0.010282 459378.000000 0 0 1
33.322716 -16.825268 -26.104820 45.551670 -0.467575 2.181057 0.036719 -0.011096 -470327.000000 0 0 1
32.321116 -16.664768 -27.256900 45.445655 -0.476050 2.214009 0.040524 -0.008926 -574891.000000 0 0 1
31.030716 -16.509168 -26.739050 44.163726 -0.488939 2.221131 0.061054 -0.008450 1337.460000 0 0 1
30.093216 -16.356668 -27.802560 44.114902 -0.497865 2.252646 0.060704 -0.013297 -520500.000000 0 0 1
28.712616 -15.764568 -27.607110 42.837932 -0.502111 2.271106 0.074039 -0.006116 -383229.000000 0 0 1
27.822616 -16.651568 -26.950320 42.162690 -0.539309 2.264252 0.081684 0.001854 39227.900000 0 0 1
27.783316 -16.612268 -25.568760 41.250958 -0.538890 2.239328 0.098947 -0.004188 -66266.800000 0 0 1
26.836516 -17.680568 -24.929650 40.672946 -0.582554 2.230559 0.112624 -0.013323 203101.000000 0 0 1
26.816616 -17.550268 -23.528950 39.758700 -0.579501 2.204079 0.116007 0.001874 200888.000000 0 0 1
26.146216 -18.627568 -22.873450 39.418341 -0.619025 2.189862 0.128040 -0.003770 10630.500000 0 0 1
26.166816 -18.366168 -21.346450 38.440724 -0.611992 2.159530 0.116154 -0.016915 317094.000000 0 0 1
25.222716 -17.377968 -20.867050 37.062284 -0.603292 2.168840 0.117996 -0.014986 506653.000000 0 0 1
25.365816 -15.997668 -21.272650 36.767861 -0.562672 2.187766 0.109923 -0.013157 -370825.000000 0 0 1
26.581116 -15.148068 -20.840450 37.018158 -0.517979 2.168782 0.094222 -0.010430 -61939.100000 0 0 1
26.532916 -14.500268 -19.567650 36.015917 -0.500153 2.145166 0.087393 -0.014075 -217495.000000 0 0 1
27.699716 -13.777368 -19.335250 36.482078 -0.461552 2.129389 0.065496 -0.007757 -579509.000000 0 0 1
27.619816 -12.595168 -18.311650 35.451502 -0.427848 2.113586 0.068596 -0.014902 -480513.000000 0 0 1
27.880316 -12.967268 -16.981350 35.125892 -0.435344 2.075379 0.070765 -0.012023 255776.000000 0 0 1
27.801216 -11.909068 -16.066850 34.247294 -0.404717 2.059115 0.059206 -0.019522 -48809.400000 0 0 1
28.308316 -12.197468 -14.622650 34.116871 -0.406840 2.013744 0.077753 -0.021542 -203500.000000 0 0 1
27.667816 -13.306568 -13.974450 33.732151 -0.448284 1.997944 0.109178 -0.030505 287115.000000 0 0 1
28.157916 -13.672468 -12.699850 33.780035 -0.452032 1.956226 0.122115 -0.030236 -332763.000000 0 0 1
27.570216 -14.923968 -12.050950 33.586709 -0.496145 1.937780 0.124294 -0.039430 -239886.000000 0 0 1
26.243416 -14.885368 -11.583550 32.318256 -0.515956 1.937373 0.103819 -0.035602 190129.000000 0 0 1
25.826016 -16.143868 -11.076550 32.408294 -0.558672 1.919608 0.083178 -0.030810 -600557.000000 0 0 1
24.386716 -16.229968 -10.599450 31.152401 -0.587212 1.917974 0.077902 -0.030631 -667271.000000 0 0 1
24.134416 -15.598168 -9.372450 30.226076 -0.573773 1.886072 0.065313 -0.024777 822791.000000 0 0 1
22.724316 -15.511468 -9.135350 28.990598 -0.598948 1.891373 0.076080 -0.026833 587437.000000 0 0 1
22.227916 -15.180568 -7.679750 27.991221 -0.599192 1.848723 0.069466 -0.025518 -172928.000000 0 0 1
22.634116 -13.897968 -7.167450 27.510526 -0.550670 1.834372 0.090074 -0.006969 514525.000000 0 0 1
22.367416 -13.658968 -5.744550 26.830366 -0.548224 1.786573 0.094633 -0.007720 -157415.000000 0 0 1
23.231216 -14.460668 -4.707550 27.766190 -0.556776 1.741162 0.080708 -0.009324 388258.000000 0 0 1
24.596016 -14.042968 -4.751450 28.718378 -0.518781 1.737010 0.090019 -0.011090 548775.000000 0 0 1
25.366116 -14.731868 -3.800450 29.578898 -0.526159 1.699638 0.091345 -0.020617 -457826.000000 0 0 1
26.866316 -14.532668 -4.056850 30.813234 -0.495849 1.702839 0.109851 -0.022564 -340608.000000 0 0 1
27.364216 -13.274968 -3.636150 30.630812 -0.451674 1.689786 0.107872 -0.021845 251934.000000 0 0 1
28.738516 -13.129668 -3.949150 31.841581 -0.428549 1.695141 0.128343 -0.034934 -102547.000000 0 0 1
29.296516 -11.840268 -3.385550 31.779549 -0.384081 1.677531 0.148737 -0.042983 -674394.000000 0 0 1
29.657816 -12.018468 -1.973850 32.061280 -0.385014 1.632400 0.156786 -0.045747 660305.000000 0 0 1
30.325916 -10.925768 -1.317150 32.260943 -0.345802 1.611636 0.153544 -0.040849 -254149.000000 0 0 1
31.828616 -10.806868 -1.560350 33.649426 -0.327320 1.617184 0.175751 -0.043128 -801559.000000 0 0 1
32.031216 -10.365168 -2.934950 33.794222 -0.312961 1.657754 0.174745 -0.047981 394674.000000 0 0 1
33.340816 -10.601468 -3.414450 35.151950 -0.307863 1.668084 0.201614 -0.047462 -56068.100000 0 0 1
33.361616 -10.350968 -4.941350 35.278278 -0.300848 1.711326 0.188629 -0.048847 846435.000000 0 0 1
32.412316 -11.160668 -5.745350 34.758133 -0.331618 1.736854 0.163143 -0.046406 1497840.000000 0 0 1
32.620016 -10.961868 -7.125650 35.142608 -0.324191 1.774976 0.153586 -0.040162 -407467.000000 0 0 1
31.295616 -11.291668 -7.791750 34.170582 -0.346270 1.800845 0.159830 -0.031355 -344542.000000 0 0 1
31.120816 -12.688568 -7.911750 34.526812 -0.387143 1.801999 0.146127 -0.028956 1985640.000000 0 0 1
29.706716 -13.013868 -8.150950 33.440809 -0.412896 1.817019 0.147230 -0.026723 1845420.000000 0 0 1
29.428016 -14.499568 -8.181350 33.810946 -0.457801 1.815196 0.157865 -0.030820 86251.600000 0 0 1
30.082416 -15.136368 -9.270950 34.928669 -0.466175 1.839441 0.164224 -0.037495 288821.000000 0 0 1
29.949116 -16.569868 -9.253450 35.456119 -0.505348 1.834837 0.153373 -0.038393 -138296.000000 0 0 1
30.283816 -17.267568 -10.555950 36.423982 -0.518213 1.864822 0.133311 -0.042639 -128895.000000 0 0 1
31.592616 -16.910468 -10.949350 37.469262 -0.491461 1.867346 0.154972 -0.040441 337405.000000 0 0 1
32.047216 -17.421268 -12.197650 38.461764 -0.497926 1.893505 0.141194 -0.034659 80226.800000 0 0 1
31.501216 -16.700068 -13.481950 38.117999 -0.487468 1.932309 0.125161 -0.029672 200258.000000 0 0 1
32.271116 -15.518068 -13.785650 38.370294 -0.448223 1.938292 0.119746 -0.033201 623476.000000 0 0 1
31.645416 -14.699468 -14.764550 37.887975 -0.434851 1.971091 0.104820 -0.028850 -626022.000000 0 0 1
32.610716 -13.643468 -15.397350 38.557508 -0.396245 1.981587 0.094164 -0.031850 -123948.000000 0 0 1
33.535916 -14.205968 -16.270350 39.889741 -0.400688 1.990931 0.066680 -0.024411 -472376.000000 0 0 1
34.730616 -14.582568 -15.645150 40.787715 -0.397523 1.964461 0.078975 -0.030773 -1091490.000000 0 0 1
35.709916 -15.177768 -16.648050 42.222272 -0.401896 1.976097 0.073136 -0.026237 -92292.200000 0 0 1
37.061716 -15.315768 -16.268650 43.276004 -0.391877 1.956194 0.071937 -0.032910 506373.000000 0 0 1
-37.095109 -15.868068 -17.255850 43.881739 0.404212 1.974944 0.066449 -0.032377 1688020.000000 0 0 1
-35.529909 -15.718868 -16.953950 42.389782 0.416526 1.982263 0.079417 -0.029913 1663510.000000 0 0 1
-35.012009 -16.608768 -15.971850 41.914101 0.442937 1.961740 0.078452 -0.035799 171047.000000 0 0 1
-35.303509 -16.219168 -14.632850 41.515291 0.430661 1.931004 0.079542 -0.033955 -310131.000000 0 0 1
-34.727009 -17.226168 -13.610150 41.084573 0.460479 1.908447 0.083327 -0.028096 688314.000000 0 0 1
-33.300009 -17.266368 -13.504750 39.867233 0.478345 1.916377 0.109436 -0.033774 710176.000000 0 0 1
-32.942509 -17.973468 -12.315650 39.495945 0.499460 1.887905 0.123431 -0.014896 1611000.000000 0 0 1
-31.357109 -18.021868 -12.114150 38.141953 0.521631 1.894001 0.165608 -0.023052 1370500.000000 0 0 1
-30.867309 -16.711968 -11.846750 37.046269 0.496227 1.896296 0.146119 -0.037862 75969.000000 0 0 1
-29.486409 -16.609868 -11.566350 35.764737 0.513001 1.900118 0.147524 -0.025220 173802.000000 0 0 1
-29.140009 -16.780668 -10.089450 35.107377 0.522483 1.862295 0.159526 -0.028228 -276713.000000 0 0 1
-29.594409 -18.010468 -9.545650 35.935016 0.546702 1.839660 0.179293 -0.029932 -33328.500000 0 0 1
-29.870209 -17.788968 -8.143050 35.706946 0.537135 1.800873 0.162928 -0.036248 -223960.000000 0 0 1
-30.585509 -18.931468 -7.341350 36.711976 0.554250 1.772125 0.162396 -0.040164 1181840.000000 0 0 1
-31.973009 -19.135468 -7.666250 38.042224 0.539307 1.773705 0.145714 -0.031628 803766.000000 0 0 1
-32.169809 -19.783368 -8.915950 38.804283 0.551352 1.802635 0.137431 -0.020020 -317880.000000 0 0 1
-33.613109 -20.295968 -9.142950 40.315765 0.543217 1.799570 0.116859 -0.023275 -358402.000000 0 0 1
-34.557609 -19.314668 -9.362450 40.680956 0.509660 1.803021 0.114274 -0.023548 -72157.600000 0 0 1
-35.816609 -19.965868 -9.520650 42.096414 0.508543 1.798933 0.104695 -0.027548 258530.000000 0 0 1
-37.047409 -19.162568 -9.933050 42.876333 0.477348 1.804588 0.104616 -0.045442 -166284.000000 0 0 1
-37.272109 -19.121568 -11.337150 43.397873 0.474014 1.835100 0.100596 -0.048782 1060650.000000 0 0 1
36.476516 -18.455468 -11.577750 42.487466 -0.468400 1.846785 0.111404 -0.054657 845557.000000 0 0 1
36.050016 -18.510968 -13.096050 42.588333 -0.474373 1.883364 0.088384 -0.050510 -511220.000000 0 0 1
35.190416 -19.551468 -13.326250 42.405356 -0.507125 1.890472 0.060058 -0.036495 -402697.000000 0 0 1
34.687316 -19.548068 -14.670350 42.432959 -0.513187 1.923813 0.048496 -0.035980 -418773.000000 0 0 1
33.404316 -20.385768 -14.792350 41.835887 -0.547939 1.932192 0.062899 -0.035111 -699970.000000 0 0 1
32.297316 -19.717568 -14.194650 40.415185 -0.548106 1.929671 0.091677 -0.039137 705611.000000 0 0 1
31.097616 -20.371668 -14.660150 39.962314 -0.579944 1.946416 0.108338 -0.033875 702535.000000 0 0 1
30.455216 -19.759668 -15.974950 39.663127 -0.575539 1.985333 0.101019 -0.027229 -359089.000000 0 0 1
30.065816 -18.374168 -15.926150 38.667888 -0.548564 1.995302 0.077463 -0.029084 290785.000000 0 0 1
29.520516 -17.980468 -17.168850 38.594397 -0.547072 2.031807 0.070474 -0.024084 -133942.000000 0 0 1
28.607316 -16.735268 -17.027550 37.261041 -0.529317 2.045393 0.085023 -0.003555 18017.700000 0 0 1
27.587416 -17.000468 -16.081950 36.176104 -0.552275 2.031464 0.093125 -0.022834 -158165.000000 0 0 1
26.776816 -15.912068 -15.834350 34.941643 -0.536179 2.041110 0.073729 -0.016997 -1383070.000000 0 0 1
25.373116 -16.209968 -15.281350 33.765037 -0.568507 2.040452 0.059276 -0.016160 -415692.000000 0 0 1
24.509716 -16.768368 -16.211250 33.833548 -0.600010 2.070479 0.079452 -0.013145 48718.400000 0 0 1
23.926316 -15.769468 -17.082150 33.360824 -0.582735 2.108357 0.090476 -0.014988 -283272.000000 0 0 1
22.767816 -16.318968 -17.990450 33.291717 -0.621883 2.141695 0.081572 -0.019018 881643.000000 0 0 1
21.486716 -16.438368 -17.381250 32.155975 -0.653062 2.141863 0.070901 -0.016090 301778.000000 0 0 1
20.613316 -17.144168 -18.253650 32.434966 -0.693776 2.168538 0.065072 -0.020622 1350970.000000 0 0 1
19.100216 -17.212568 -17.802750 31.273449 -0.733462 2.176403 0.074129 -0.016963 1000280.000000 0 0 1
18.326016 -16.033068 -17.833750 30.181861 -0.718762 2.202941 0.082966 -0.019369 -53322.800000 0 0 1
17.066516 -16.410268 -17.361450 29.359543 -0.765798 2.203515 0.094739 -0.019898 -904848.000000 0 0 1
15.927016 -15.460968 -17.164650 28.059518 -0.770551 2.229033 0.104240 -0.015588 -573757.000000 0 0 1
15.430316 -14.898568 -18.375450 28.243922 -0.767867 2.279168 0.102588 -0.005655 525441.000000 0 0 1
14.124316 -14.368568 -18.152050 27.119162 -0.793970 2.304122 0.107970 -0.005269 327218.000000 0 0 1
13.512816 -13.840568 -19.457450 27.436287 -0.797380 2.359140 0.093633 -0.006112 55300.600000 0 0 1
13.985516 -12.560168 -19.901550 27.375612 -0.731756 2.384711 0.110457 -0.014936 560200.000000 0 0 1
13.169016 -12.097768 -21.013150 27.592235 -0.743026 2.436514 0.103197 -0.007273 565564.000000 0 0 1
13.407516 -10.620968 -21.496550 27.471223 -0.669945 2.469486 0.114037 -0.007044 1653640.000000 0 0 1
14.732316 -10.357568 -22.092450 28.502573 -0.612771 2.457676 0.110841 -0.005266 1444140.000000 0 0 1
14.983716 -9.066368 -22.537250 28.541871 -0.544147 2.480987 0.125949 -0.014100 382784.000000 0 0 1
16.335416 -8.824568 -23.273250 29.771848 -0.495296 2.468215 0.097402 -0.013051 438415.000000 0 0 1
16.498516 -9.604068 -24.446750 31.017458 -0.527166 2.478612 0.116109 -0.012320 -186374.000000 0 0 1
17.855716 -9.717868 -24.783050 32.054065 -0.498413 2.454611 0.102945 -0.023166 -314322.000000 0 0 1
23.136816 5.300832 -7.631150 24.932820 0.225221 1.881857 0.218586 0.015962 -119226.000000 0 1 0
22.774716 6.654032 -7.547650 24.898411 0.284256 1.878780 0.175777 0.004881 392405.000000 0 1 0
22.006016 6.805132 -6.393050 23.904929 0.299912 1.841528 0.149892 -0.002007 -253782.000000 0 1 0
21.546416 8.301432 -6.120250 23.887639 0.367754 1.829896 0.127910 0.002758 -389441.000000 0 1 0
20.606216 8.847032 -7.021950 23.498806 0.405539 1.874254 0.106114 0.000033 412994.000000 0 1 0
20.176416 10.154632 -6.817750 23.594195 0.466278 1.863935 0.089134 0.002146 31778.600000 0 1 0
19.533216 10.583732 -5.447450 22.874366 0.496551 1.811253 0.100166 -0.002154 -647904.000000 0 1 0
20.395316 10.964532 -4.406650 23.571348 0.493274 1.758852 0.115908 0.001730 126455.000000 0 1 0
20.831216 12.350932 -4.633450 24.656722 0.535186 1.759839 0.163399 -0.005255 243771.000000 0 1 0
21.675216 12.987532 -3.486450 25.507770 0.539822 1.707907 0.140082 -0.023841 736066.000000 0 0 1
22.990516 12.432432 -3.465050 26.365428 0.495724 1.702602 0.128546 -0.040587 1038210.000000 0 0 1
23.907116 13.016832 -2.531250 27.338532 0.498592 1.663518 0.133507 -0.040246 419417.000000 0 0 1
24.821316 12.001932 -1.808150 27.629939 0.450388 1.636285 0.115714 -0.039557 -272546.000000 0 0 1
25.961416 11.608832 -2.546550 28.552496 0.420487 1.660103 0.097497 -0.031710 -63854.900000 0 0 1
26.661816 10.665332 -1.817150 28.773317 0.380526 1.633992 0.120745 -0.035379 -451779.000000 0 0 1
28.163416 10.625232 -2.127050 30.176115 0.360760 1.641343 0.133622 -0.034266 -277801.000000 0 0 1
28.952116 11.770532 -1.920150 31.312257 0.386142 1.632157 0.123950 -0.045171 -327476.000000 0 0 1
30.295216 11.417232 -1.871450 32.429240 0.360405 1.628537 0.120505 -0.039839 -813205.000000 0 0 1
31.265416 12.469632 -1.350850 33.687427 0.379499 1.610907 0.109262 -0.039221 -1089850.000000 0 0 1
31.145016 12.947032 -0.003450 33.728885 0.393969 1.570899 0.143382 -0.044194 92843.100000 0 0 1
32.178816 13.752932 0.484750 34.997919 0.403894 1.556945 0.135121 -0.045161 596959.000000 0 0 1
33.632516 13.112032 0.553950 36.102332 0.371736 1.555452 0.144941 -0.050839 1289790.000000 0 0 1
34.713716 14.071332 0.637950 37.462668 0.385113 1.553767 0.137432 -0.059165 824314.000000 0 0 1
35.400816 14.354032 -0.555150 38.204243 0.385215 1.585328 0.144033 -0.045004 -505003.000000 0 0 1
34.824216 15.411832 -1.554550 38.113872 0.416650 1.611595 0.081005 -0.025143 954548.000000 0 0 1
33.547716 14.996532 -2.114650 36.807839 0.420374 1.628279 0.095651 -0.019576 894836.000000 0 0 1
33.021316 15.969532 -2.968950 36.800108 0.450452 1.651562 0.068617 -0.008561 300613.000000 0 0 1
31.641216 15.575432 -3.575850 35.447812 0.457430 1.671845 0.091731 -0.026684 -545588.000000 0 0 1
31.596616 14.705632 -4.673250 35.163063 0.435601 1.704093 0.081264 -0.022868 1222460.000000 0 0 1
30.367316 14.695132 -5.446750 34.172911 0.450695 1.730867 0.074421 -0.037786 710653.000000 0 0 1
29.071316 14.225232 -4.757950 32.712944 0.455069 1.716760 0.102428 -0.042904 -767326.000000 0 0 1
28.073116 14.027632 -5.748450 31.904843 0.463393 1.751961 0.114781 -0.046441 34097.300000 0 0 1
27.048916 13.218632 -5.219350 30.555158 0.454562 1.742455 0.107590 -0.025398 -100694.000000 0 0 1
25.918216 12.936132 -6.240750 29.631814 0.462938 1.782995 0.103336 -0.028009 -48238.800000 0 0 1
26.416716 12.146332 -7.350250 29.990039 0.430971 1.818409 0.091698 -0.015236 569126.000000 0 0 1
25.460116 11.893832 -8.365150 29.319899 0.437028 1.860122 0.106644 -0.010142 -27024.500000 0 0 1
25.125016 13.064632 -9.283050 29.801444 0.479508 1.887564 0.109767 -0.007116 -83133.200000 0 0 1
24.360416 14.041232 -8.577350 29.396547 0.522882 1.866885 0.094898 -0.018870 19957.900000 0 0 1
24.202516 15.208332 -9.364350 30.078999 0.561025 1.887384 0.094232 -0.032409 -1669100.000000 0 0 1
23.349916 16.219232 -8.626950 29.710374 0.607104 1.865408 0.082460 -0.020435 137145.000000 0 0 1
21.945516 16.027332 -8.701250 28.534064 0.630789 1.880674 0.103930 -0.020161 537504.000000 0 0 1
21.455216 14.797932 -8.114850 27.297543 0.603788 1.872633 0.120158 -0.022489 -1704030.000000 0 0 1
20.006516 14.535432 -8.524150 26.157229 0.628314 1.902740 0.141942 -0.006425 -369561.000000 0 0 1
19.052916 15.192432 -7.735350 25.566760 0.673142 1.878168 0.171130 -0.032103 634357.000000 0 0 1
17.696916 14.818732 -7.964050 24.417243 0.697111 1.903040 0.183977 -0.025191 926243.000000 0 1 0
16.678816 15.171032 -6.808550 23.552059 0.738093 1.864067 0.166556 -0.011998 399254.000000 0 1 0
16.743016 14.255732 -5.705250 22.717930 0.705331 1.824648 0.132711 -0.016728 493039.000000 0 1 0
16.161216 14.773932 -4.523650 22.358832 0.740583 1.774523 0.113443 -0.004941 -235463.000000 0 1 0
15.967916 13.788132 -3.334950 21.359045 0.712274 1.727575 0.094869 0.002751 -93285.700000 0 1 0
17.118416 13.362432 -2.607450 21.872210 0.662792 1.690293 0.098449 0.000049 562657.000000 0 1 0
16.866016 12.426732 -1.568850 21.008271 0.634994 1.645544 0.087418 -0.007309 -84417.800000 0 1 0
16.894316 13.087132 -0.160150 21.370929 0.659090 1.578290 0.098711 -0.014392 -185366.000000 0 1 0
15.798616 13.957632 -0.057250 21.081154 0.723608 1.573512 0.089617 -0.016818 142921.000000 0 1 0
16.003816 14.851632 1.034050 21.857776 0.748074 1.523471 0.095987 -0.014404 -31602.200000 0 1 0
14.796816 15.726932 1.476850 21.644012 0.815861 1.502510 0.093672 -0.011059 20450.600000 0 1 0
14.576416 16.785532 0.564250 22.238354 0.855721 1.545421 0.085676 -0.014467 -162325.000000 0 1 0
13.753116 17.728032 1.145750 22.466510 0.910997 1.519776 0.066425 -0.019528 -548825.000000 0 1 0
13.682116 19.125832 0.399650 23.519300 0.949827 1.553803 0.055310 -0.016876 -217807.000000 0 1 0
13.070816 18.954832 -0.863850 23.040793 0.967100 1.608297 0.051229 -0.022038 -67177.200000 0 1 0
12.787416 20.237532 -1.329850 23.975909 1.007275 1.626291 0.055053 -0.032043 -369967.000000 0 1 0
11.285016 20.543232 -1.384950 23.479652 1.068468 1.629816 0.037947 -0.026932 -455924.000000 0 1 0
10.760916 20.674532 -0.096750 23.307573 1.090890 1.574947 0.027523 -0.022398 -531964.000000 0 1 0
9.366516 20.734732 -0.047050 22.752208 1.146504 1.572864 0.029683 -0.015691 -130306.000000 0 1 0
8.722116 20.708232 1.383750 22.512684 1.172157 1.509292 0.030382 -0.019877 62025.200000 0 1 0
8.799816 21.909232 2.095450 23.703209 1.188869 1.482277 0.043827 -0.017868 583256.000000 0 1 0
7.648116 22.068932 2.935750 23.540393 1.237193 1.445760 0.039698 -0.017216 570932.000000 0 1 0
7.469516 23.530732 3.466250 24.929980 1.263420 1.431305 0.045321 -0.011113 76954.300000 0 1 0
8.056216 23.659832 4.739850 25.439270 1.242608 1.383381 0.051490 -0.019956 205161.000000 0 0 1
7.627016 24.915132 5.319350 26.593809 1.273735 1.369416 0.050164 -0.012317 -50553.500000 0 0 1
8.152916 25.124332 6.726750 27.257133 1.257014 1.321431 0.060066 -0.020460 -142289.000000 0 0 1
7.468116 24.375332 7.680750 26.625618 1.273497 1.278166 0.066938 -0.022582 76498.100000 0 0 1
8.122416 24.469332 8.947950 27.290799 1.250298 1.236744 0.072769 -0.026838 -5647.440000 0 0 1
7.615716 23.472332 9.963750 26.612513 1.257057 1.187046 0.075845 -0.023761 214725.000000 0 0 1
6.270416 23.672432 10.381250 26.598356 1.311860 1.169842 0.073197 -0.023528 483787.000000 0 0 1
5.750516 22.509332 11.043750 25.723586 1.320674 1.127052 0.067204 -0.025144 340401.000000 0 0 1
4.415716 22.733332 11.812550 25.996909 1.378946 1.099117 0.062697 -0.031562 1173320.000000 0 0 1
3.315216 23.081332 10.949650 25.761083 1.428140 1.131783 0.056937 -0.025186 795015.000000 0 0 1
2.061416 23.197832 11.601650 26.018977 1.482167 1.108626 0.064848 -0.031522 624178.000000 0 0 1
0.866716 23.597332 10.697550 25.923404 1.534083 1.145424 0.075922 -0.028268 45082.500000 0 0 1
0.803116 24.975332 10.358250 27.050057 1.538651 1.177831 0.077946 -0.023448 14319.700000 0 0 1
-0.125784 25.287732 9.333150 26.955388 -1.565822 1.217231 0.080610 -0.021291 226689.000000 0 0 1
-1.455384 25.848932 9.872250 27.708244 -1.514552 1.206499 0.087204 -0.038548 -14856.800000 0 0 1
-2.342884 24.954032 10.517050 27.180897 -1.477183 1.173499 0.078905 -0.039316 -407633.000000 0 0 1
-3.632184 25.467432 10.394650 27.745840 -1.429131 1.186790 0.096077 -0.046451 -1534110.000000 0 0 1
-4.822984 24.598432 10.722350 27.263764 -1.377184 1.166598 0.094762 -0.046639 -341361.000000 0 0 1
-5.345684 24.596332 12.031450 27.898238 -1.356788 1.124905 0.088118 -0.037278 232846.000000 0 0 1
-6.178984 25.715332 12.295050 29.165501 -1.334983 1.135630 0.095371 -0.040808 -333668.000000 0 0 1
-6.702484 25.769732 13.760850 29.972711 -1.316343 1.093800 0.077884 -0.033193 -321881.000000 0 0 1
-7.874384 25.030832 13.927250 29.707184 -1.266011 1.082845 0.044165 -0.025225 -363912.000000 0 0 1
-8.160084 24.990132 15.288550 30.411075 -1.255179 1.044043 0.045008 -0.011370 80204.600000 0 0 1
-9.370184 24.103932 15.645150 30.225331 -1.200034 1.026733 0.031588 -0.016722 770047.000000 0 0 1
-10.654984 24.567132 15.242850 30.812614 -1.161572 1.053312 0.022557 -0.009280 306406.000000 0 0 1
-11.736584 23.706832 15.517750 30.668581 -1.111099 1.040276 0.014096 -0.008465 -247063.000000 0 0 1
-13.070384 24.343132 15.151450 31.511736 -1.078049 1.069207 0.012826 -0.011651 -528475.000000 0 0 1
-13.436284 25.328132 16.157050 32.910459 -1.083056 1.057628 0.016823 -0.017454 -348258.000000 0 0 1
-14.516584 26.100332 15.739850 33.759465 -1.063218 1.085766 0.011641 -0.016964 -679367.000000 0 0 1
-15.176584 26.979732 16.829150 35.234287 -1.058393 1.072835 0.017953 -0.019686 -226746.000000 0 0 1
-16.128684 26.229332 17.527550 35.430599 -1.019486 1.053306 0.021447 -0.027380 -283935.000000 0 0 1
-16.720984 26.957032 18.599250 36.772340 -1.015596 1.040494 0.048484 -0.034019 -395357.000000 0 0 1
-18.072984 26.406332 19.017850 37.223726 -0.970604 1.034557 0.043758 -0.043301 -498862.000000 0 0 1
-19.144784 26.734832 18.169150 37.568498 -0.949347 1.066002 0.039147 -0.035973 -60689.200000 0 0 1
-20.300084 25.998732 18.543250 37.840185 -0.907866 1.058659 0.054830 -0.028901 -229402.000000 0 0 1
-21.527084 26.206032 17.681950 38.246867 -0.883109 1.090197 0.052601 -0.029730 -758544.000000 0 0 1
-22.161784 27.430832 17.807250 39.505612 -0.891248 1.103188 0.045864 -0.033216 129782.000000 0 0 1
-22.918384 27.681432 16.624050 39.596377 -0.879253 1.137530 0.052516 -0.032302 68420.600000 0 0 1
-23.856384 28.934732 16.615750 41.017423 -0.881300 1.153719 0.061656 -0.031739 585333.000000 0 0 1
-25.034954 28.708932 17.398550 41.876739 -0.853653 1.142336 0.061391 -0.027947 151808.000000 0 0 1
-25.860914 29.841832 17.308950 43.115213 -0.856744 1.157688 0.063537 -0.028397 -29158.500000 0 0 1
-27.275624 29.653632 17.898850 44.087032 -0.827145 1.152736 0.072499 -0.021092 -334033.000000 0 0 1
-28.161964 28.921032 17.091950 43.836709 -0.798695 1.170273 0.103189 -0.015042 772103.000000 0 0 1
-29.493254 28.835632 17.657250 44.867853 -0.774124 1.166318 0.127917 -0.025905 1111960.000000 0 0 1
-29.750014 27.682032 18.621650 44.700381 -0.749406 1.141107 0.114945 -0.028036 -569054.000000 0 0 1
-29.854994 26.452932 17.921150 43.729234 -0.725053 1.148539 0.113617 -0.025667 181853.000000 0 0 1
-29.851644 25.383932 18.866450 43.490316 -0.704689 1.122081 0.113522 -0.021904 -104679.000000 0 0 1
-29.835844 24.066232 18.126650 42.402082 -0.678765 1.129077 0.110047 -0.024409 -174317.000000 0 0 1
-31.064654 23.749232 17.527350 42.851450 -0.652723 1.149410 0.126259 -0.028740 -133664.000000 0 0 1
-30.875584 22.773632 16.562150 41.788094 -0.635514 1.163273 0.137447 -0.029203 -39038.100000 0 0 1
-31.399434 21.357832 16.907250 41.568456 -0.597312 1.151922 0.124676 -0.018109 -355268.000000 0 0 1
-32.791054 21.233432 16.842250 42.541430 -0.574642 1.163746 0.130908 -0.019381 -422862.000000 0 0 1
-33.054504 19.834432 16.720250 42.018707 -0.540458 1.161544 0.115566 -0.020867 980779.000000 0 0 1
-34.505712 19.497932 16.192750 42.813767 -0.514335 1.182931 0.122738 -0.034528 996437.000000 0 0 1
-34.552566 19.725232 14.784250 42.444536 -0.518729 1.215019 0.103704 -0.033723 -321253.000000 0 0 1
-35.740443 19.237732 14.238250 43.013921 -0.493787 1.233417 0.117782 -0.037828 -310170.000000 0 0 1
-36.118444 19.507232 12.745950 42.982943 -0.495203 1.269734 0.119838 -0.031730 99942.000000 0 0 1
-36.486444 20.892832 12.493950 43.861941 -0.520043 1.281949 0.115667 -0.036614 59472.000000 0 0 1
-36.811234 21.261732 11.133350 43.944052 -0.523777 1.314652 0.075028 -0.030182 129675.000000 0 0 1
-35.641864 21.243932 10.113050 42.707387 -0.537502 1.331727 0.093000 -0.036695 44891.100000 0 0 1
-35.479898 19.941032 9.567350 41.809115 -0.512038 1.339917 0.104142 -0.024411 -627196.000000 0 0 1
-34.193714 19.671232 9.116950 40.488100 -0.522051 1.343673 0.125270 -0.024121 -793542.000000 0 0 1
-33.557584 18.534032 9.863950 39.584332 -0.504611 1.318954 0.098294 -0.035978 -388484.000000 0 0 1
-33.195044 18.855532 11.162350 39.774868 -0.516575 1.286337 0.120659 -0.044163 26757.300000 0 0 1
-32.581914 17.756232 11.800050 38.937207 -0.498975 1.262901 0.137703 -0.050280 160891.000000 0 0 1
-31.937204 18.017032 13.215450 38.977514 -0.513634 1.224886 0.112888 -0.030279 309254.000000 0 0 1
-30.773624 18.823432 13.283750 38.442107 -0.548959 1.217969 0.140574 -0.029304 -126747.000000 0 0 1
-30.958624 20.206132 13.132550 39.232487 -0.578258 1.229471 0.141303 -0.026540 -351274.000000 0 0 1
-29.644294 20.981532 13.064650 38.596554 -0.615926 1.225482 0.146966 -0.037185 -190691.000000 0 0 1
-28.923114 20.950032 14.262450 38.456051 -0.626872 1.190844 0.127476 -0.021064 344565.000000 0 0 1
-27.774884 21.817832 14.298350 38.103869 -0.665851 1.186133 0.139620 -0.023139 366808.000000 0 0 1
-26.969814 21.736932 15.580050 37.981615 -0.678372 1.148123 0.105531 -0.022175 -539040.000000 0 0 1
-26.403514 20.498632 15.795150 36.970613 -0.660159 1.129364 0.132120 -0.030633 -253090.000000 0 0 1
-25.920674 20.337032 17.125150 37.131483 -0.665272 1.091446 0.107828 -0.014569 -58109.600000 0 0 1
-25.011584 19.102232 17.291150 35.909031 -0.652234 1.068401 0.124820 -0.025408 65060.700000 0 0 1
-24.593284 19.089932 18.666050 36.299815 -0.660075 1.030700 0.110313 -0.023001 -128827.000000 0 0 1
-23.832084 17.935032 18.874150 35.296844 -0.645136 1.006613 0.097646 -0.019193 -87324.000000 0 0 1
-23.209884 17.849232 20.295350 35.625764 -0.655573 0.964678 0.083782 -0.017380 -61172.700000 0 0 1
-24.134384 17.391632 21.254950 36.561049 -0.624429 0.950403 0.089787 -0.010412 54896.100000 0 0 1
-24.044484 17.985332 22.506750 37.525501 -0.642221 0.927580 0.124849 -0.017465 -120627.000000 0 0 1
-24.486784 17.102432 23.689450 38.121986 -0.609675 0.900253 0.128206 -0.027022 -145663.000000 0 0 1
-23.585784 16.061032 24.059650 37.324426 -0.597834 0.870285 0.119172 -0.027879 127783.000000 0 0 1
-24.121284 15.087632 24.945050 37.838189 -0.558952 0.850968 0.127373 -0.027638 63611.300000 0 0 1
21.609816 24.816932 33.177377 46.729034 0.854368 0.781305 0.132499 -0.038209 71035.800000 0 0 1
22.546116 23.890932 32.636090 46.305706 0.814350 0.788660 0.154024 -0.051806 122686.000000 0 0 1
22.498616 22.599632 33.178787 46.019159 0.787638 0.765584 0.161657 -0.053410 269045.000000 0 0 1
21.364616 21.651932 32.659188 44.630433 0.792077 0.749882 0.153313 -0.053311 228571.000000 0 0 1
21.624116 21.026032 31.427423 43.558918 0.771376 0.764841 0.162580 -0.050793 191738.000000 0 0 1
20.569116 20.165432 31.034783 42.342543 0.775488 0.748154 0.165232 -0.050353 109453.000000 0 0 1
20.999616 19.409132 29.790773 41.293928 0.746059 0.764928 0.146289 -0.037449 -175609.000000 0 0 1
22.174216 18.657632 29.802613 41.569206 0.699487 0.771394 0.161840 -0.047105 -520028.000000 0 0 1
22.233516 18.063132 28.496223 40.405949 0.682273 0.788023 0.135886 -0.045285 389386.000000 0 0 1
23.378316 16.986932 28.365423 40.493194 0.628363 0.794700 0.130438 -0.045240 1091270.000000 0 0 1
24.677016 17.590432 28.359363 41.504601 0.619283 0.818548 0.139456 -0.045687 -127082.000000 0 0 1
25.643916 16.655032 28.667703 41.914648 0.576005 0.817627 0.112913 -0.035444 245443.000000 0 0 1
27.022716 17.316332 29.085423 43.313328 0.569885 0.834549 0.094001 -0.041145 780449.000000 0 0 1
27.830516 17.469732 27.913383 43.114802 0.560552 0.866602 0.075226 -0.020521 -299476.000000 0 0 1
29.087816 17.950232 28.283523 44.365184 0.552902 0.879526 0.073417 -0.008882 398474.000000 0 0 1
30.233916 17.807132 27.198113 44.395056 0.532276 0.911402 0.062999 0.005695 664957.000000 0 0 1
30.207016 18.700532 26.102933 44.085563 0.554330 0.937138 0.076879 0.000763 380325.000000 0 0 1
31.408916 18.601332 25.339173 44.436508 0.534687 0.964007 0.081513 0.000418 379165.000000 0 0 1
31.690816 19.785732 24.371723 44.606770 0.558122 0.992774 0.094621 -0.008198 -232402.000000 0 0 1
30.731316 19.766732 23.377773 43.378079 0.571588 1.001629 0.084460 -0.020050 -75790.300000 0 0 1
31.044116 20.805332 22.428373 43.584756 0.590435 1.030264 0.090657 -0.022253 -181588.000000 0 0 1
31.638916 20.366332 21.097073 43.138092 0.571942 1.059786 0.089019 -0.015384 -1072870.000000 0 0 1
30.844716 19.623532 20.312073 41.821763 0.566616 1.063653 0.098172 -0.027260 -1023330.000000 0 0 1
31.387216 19.221832 19.103873 41.467989 0.549494 1.092024 0.114310 -0.030952 -447064.000000 0 0 1
32.317316 17.998332 19.127273 41.643745 0.508145 1.093581 0.135209 -0.043249 -38932.500000 0 0 1
31.695116 16.777932 19.548173 40.843732 0.486854 1.071727 0.127683 -0.038221 -139456.000000 0 0 1
32.613616 15.733832 19.605873 41.177563 0.449494 1.074548 0.121387 -0.036885 -1073240.000000 0 0 1
32.067516 14.301532 19.884273 40.351502 0.419507 1.055519 0.127957 -0.036116 374414.000000 0 0 1
31.338816 14.031732 21.119773 40.311980 0.420975 1.019364 0.095784 -0.041562 509345.000000 0 0 1
30.093616 14.700232 21.183573 39.629110 0.454392 1.006826 0.095269 -0.023082 -730364.000000 0 0 1
29.390916 14.103432 22.463973 39.589934 0.447404 0.967432 0.058685 -0.018487 -143494.000000 0 0 1
29.018316 12.763732 22.194373 38.698394 0.414382 0.959998 0.066640 -0.013271 138593.000000 0 0 1
28.355616 12.203732 23.347473 38.704994 0.406420 0.923269 0.053602 -0.003104 -196939.000000 0 0 1
27.753216 10.841532 23.079993 37.689069 0.372412 0.911730 0.072711 -0.009309 -1035330.000000 0 0 1
26.545516 11.014132 22.412673 36.445898 0.393298 0.908464 0.057576 -0.004731 -722797.000000 0 0 1
26.162416 9.716132 22.103873 35.601355 0.355591 0.900942 0.062843 0.000397 -218889.000000 0 0 1
24.789316 9.462032 21.452873 34.121343 0.364630 0.890886 0.062569 -0.006979 341896.000000 0 0 1
23.662416 9.419932 22.323673 33.867262 0.378865 0.851106 0.045246 -0.002811 1470100.000000 0 0 1
22.466616 8.993932 21.629373 32.457194 0.380786 0.841431 0.030833 0.008120 1265030.000000 0 0 1
21.112716 8.954232 22.391373 32.051500 0.401121 0.797349 0.040870 -0.001323 338280.000000 0 0 1
21.027516 7.966132 23.402893 32.454755 0.362136 0.765418 0.063026 0.002480 210301.000000 0 0 1
19.708016 7.877532 23.897693 31.961870 0.380258 0.726214 0.058156 0.000009 90099.500000 0 0 1
19.558916 6.877832 25.075603 32.536774 0.338141 0.690881 0.081308 -0.009364 -129002.000000 0 0 1
19.788516 5.515832 24.634153 32.075712 0.271839 0.695084 0.077740 -0.016660 250914.000000 0 0 1
19.665616 4.569632 25.661133 32.651367 0.228315 0.666625 0.108977 -0.041657 -230402.000000 0 0 1
20.285516 3.243432 25.269053 32.566042 0.158547 0.682604 0.104573 -0.039342 -946614.000000 0 0 1
21.658316 3.264632 25.119953 33.327954 0.149607 0.717092 0.120411 -0.028211 -965361.000000 0 0 1
22.234016 2.012432 24.952183 33.481529 0.090265 0.729883 0.097614 -0.029804 434377.000000 0 0 1
23.784216 2.038032 24.755343 34.389963 0.085480 0.767221 0.095903 -0.021698 219204.000000 0 0 1
24.470916 2.314032 25.945093 35.739731 0.094282 0.758388 0.103569 -0.033787 -104773.000000 0 0 1
25.834116 2.427132 25.566913 36.427456 0.093676 0.792793 0.101314 -0.028550 122439.000000 0 0 1
26.599916 3.250032 26.640283 37.786544 0.121579 0.788344 0.073488 -0.024409 -549068.000000 0 0 1
26.798316 2.523532 27.827963 38.715804 0.093891 0.768757 0.055581 -0.015222 204944.000000 0 0 1
27.583116 3.079032 28.886343 40.059076 0.111167 0.765417 0.056527 -0.000854 698736.000000 0 0 1
29.114516 3.177932 28.612463 40.944198 0.108722 0.797055 0.073347 -0.006470 -289455.000000 0 0 1
29.437116 4.280032 27.714913 40.656843 0.144384 0.820741 0.062532 -0.004199 -305958.000000 0 0 1
30.793916 4.328032 27.357623 41.417830 0.139634 0.849275 0.054163 0.000354 -236674.000000 0 0 1
31.204516 3.271532 26.305383 40.943839 0.104460 0.873073 0.065955 0.002934 -314982.000000 0 0 1
30.413416 3.347532 25.118903 39.587134 0.109626 0.883407 0.065864 0.006298 336205.000000 0 0 1
30.794716 2.302832 24.282203 39.284131 0.074641 0.904451 0.081601 0.007149 -297755.000000 0 0 1
30.437016 2.433532 22.772263 38.090813 0.079783 0.929991 0.088877 0.002873 252229.000000 0 0 1
31.082416 3.467332 22.021073 38.250054 0.111094 0.957320 0.105063 -0.005010 454469.000000 0 0 1
32.508816 3.463132 22.028373 39.421639 0.106129 0.977872 0.099948 -0.002135 579003.000000 0 0 1
33.121416 4.833032 21.497073 39.780781 0.144896 0.999898 0.091480 -0.005502 -28196.100000 0 0 1
32.924216 5.078432 20.120073 38.918014 0.153040 1.027470 0.100726 -0.009967 6014.350000 0 0 1
33.418216 6.338032 19.721773 39.317886 0.187432 1.045351 0.116741 -0.015468 1158530.000000 0 0 1
34.964216 6.427832 19.343573 40.472055 0.181810 1.072478 0.099136 -0.015082 1307910.000000 0 0 1
35.865516 6.290832 20.427373 41.751496 0.173634 1.059554 0.092014 -0.018065 341203.000000 0 0 1
36.078916 7.518732 21.176273 42.504753 0.205456 1.049264 0.111582 -0.028867 -430684.000000 0 0 1
36.747216 7.182232 22.546573 43.706868 0.193016 1.028786 0.110912 -0.028576 -287639.000000 0 0 1
36.017516 6.447432 23.487123 43.479602 0.177132 1.000137 0.100722 -0.013599 -107544.000000 0 0 1
36.773516 6.170032 24.637173 44.691734 0.166236 0.986912 0.104021 -0.014180 -17620.100000 0 0 1
36.044916 5.232732 25.657053 44.552237 0.144165 0.957108 0.093999 -0.009935 132357.000000 0 0 1
35.768316 3.959832 25.078263 43.863105 0.110259 0.962172 0.093622 -0.012783 -39391.300000 0 0 1
35.221316 3.104532 25.987933 43.881111 0.087916 0.936966 0.083979 0.000197 -293244.000000 0 0 1
35.449816 1.657832 25.530033 43.717508 0.046732 0.947177 0.069342 0.005512 3289.130000 0 0 1
34.441716 1.229232 24.647383 42.370229 0.035675 0.949961 0.069487 0.004936 -118573.000000 0 0 1
34.701416 -0.049968 24.100733 42.249688 -0.001440 0.963760 0.073182 0.002554 -169040.000000 0 0 1
33.685416 -0.520068 23.059933 40.825706 -0.015438 0.970559 0.089014 0.013150 -1015110.000000 0 0 1
32.448516 -0.906268 23.533683 40.094411 -0.027922 0.943502 0.087887 0.009805 -1006490.000000 0 0 1
31.732716 -1.492568 22.488873 38.922262 -0.047001 0.954779 0.094746 -0.000091 220899.000000 0 0 1
30.241916 -1.881968 22.656173 37.834078 -0.062150 0.928757 0.106419 0.012034 645712.000000 0 0 1
29.373816 -0.760068 22.669173 37.111860 -0.025870 0.913683 0.094133 0.005944 -632887.000000 0 0 1
28.025416 -1.071568 22.536073 35.978421 -0.038217 0.893899 0.088942 0.011330 -491890.000000 0 0 1
27.117016 0.169632 22.504973 35.239682 0.006255 0.878085 0.093253 -0.002347 -146383.000000 0 0 1
27.182716 1.039532 21.417573 34.622148 0.038224 0.903825 0.088461 -0.004563 235318.000000 0 0 1
26.334516 2.148732 21.705973 34.194635 0.081413 0.883076 0.106879 -0.005589 216637.000000 0 0 1
26.167316 3.258932 20.611273 33.468995 0.123904 0.907355 0.093114 -0.006047 -115167.000000 0 0 1
25.535616 2.752332 19.454873 32.220104 0.107370 0.922522 0.084025 -0.003611 452221.000000 0 0 1
24.803416 3.805532 18.815673 31.364328 0.152241 0.927412 0.092992 -0.009515 201040.000000 0 0 1
24.376716 3.562532 17.371573 30.144444 0.145118 0.956630 0.110037 -0.014201 289038.000000 0 0 1
25.476516 3.723332 16.453973 30.555676 0.145120 1.002150 0.107876 -0.012532 732499.000000 0 0 1
25.114516 4.140632 15.127973 29.609784 0.163400 1.034552 0.090491 -0.012654 -546730.000000 0 0 1
24.785216 3.040932 14.162173 28.707514 0.122081 1.054887 0.100086 -0.014117 352567.000000 0 0 1
23.435216 2.607332 14.303973 27.579180 0.110801 1.025524 0.120685 -0.013284 660346.000000 0 0 1
23.284316 1.481632 13.445573 26.928387 0.063547 1.047996 0.115805 -0.015399 -142322.000000 0 0 1
21.915616 0.750932 13.575873 25.790744 0.034251 1.016453 0.156220 -0.021613 -28305.400000 0 0 1
20.783116 1.470732 13.139573 24.632283 0.070648 1.008147 0.183498 -0.026673 470231.000000 0 1 0
20.441816 1.497632 11.762973 23.632145 0.073133 1.049790 0.166984 -0.017886 -728488.000000 0 1 0
20.069616 0.123532 11.039573 22.905827 0.006155 1.067912 0.158469 -0.015245 -277805.000000 0 1 0
21.004616 -0.928168 10.911173 23.687741 -0.044160 1.092097 0.163855 -0.034758 572532.000000 0 1 0
22.163416 -0.698868 10.115773 24.372819 -0.031522 1.142806 0.162227 -0.035058 463846.000000 0 1 0
23.360316 -1.670268 10.283473 25.578194 -0.071379 1.157052 0.182122 -0.046561 354710.000000 0 0 1
24.082716 -1.406868 11.487673 26.719340 -0.058352 1.126372 0.166002 -0.044149 135177.000000 0 0 1
25.255216 -2.173068 11.597373 27.875567 -0.085833 1.141709 0.119027 -0.032470 -199781.000000 0 0 1
25.868516 -2.099768 12.985473 29.020883 -0.080993 1.106881 0.114058 -0.021921 -178703.000000 0 0 1
26.467916 -0.866168 13.311673 29.639526 -0.032714 1.105017 0.103682 -0.019958 65305.800000 0 0 1
26.650216 -0.696068 14.711073 30.448879 -0.026113 1.066559 0.095826 -0.008723 140410.000000 0 0 1
27.876416 0.163532 15.133973 31.720001 0.005866 1.073431 0.127666 -0.006600 782707.000000 0 0 1
29.113916 -0.501268 14.845973 32.684466 -0.017216 1.099299 0.130750 0.000125 944960.000000 0 0 1
30.221116 0.390432 15.029573 33.754353 0.012918 1.109328 0.116824 0.001078 819640.000000 0 0 1
31.594016 -0.257168 15.386073 35.142271 -0.008140 1.117621 0.113985 0.002378 445970.000000 0 0 1
32.184416 -0.915268 14.288573 35.225526 -0.028431 1.153127 0.138178 -0.009133 -247439.000000 0 0 1
33.446816 -1.433668 14.594073 36.520294 -0.042838 1.159699 0.118628 -0.010301 -315882.000000 0 0 1
33.950016 -2.389968 13.496573 36.612471 -0.070281 1.193258 0.119824 -0.020106 -32517.200000 0 0 1
34.274416 -1.629968 12.361273 36.471817 -0.047521 1.225020 0.131846 -0.016317 219063.000000 0 0 1
35.106916 -2.298768 11.419073 36.988851 -0.065386 1.256953 0.137028 -0.028395 138250.000000 0 0 1
35.009716 -1.729068 9.959273 36.439772 -0.049348 1.293966 0.209115 -0.030234 -110648.000000 0 0 1
35.517416 -0.358068 9.867273 36.864321 -0.010081 1.299828 0.161335 -0.018935 566688.000000 0 0 1
34.522416 0.652532 9.852473 35.906744 0.018899 1.292840 0.189040 -0.035710 -403237.000000 0 0 1
35.041216 2.078332 9.453273 36.353413 0.059242 1.307735 0.191083 -0.039976 11069.600000 0 0 1
35.581216 2.085932 8.113773 36.554170 0.058558 1.346966 0.171807 -0.033626 478296.000000 0 0 1
35.957016 3.311932 7.608273 36.902056 0.091849 1.363132 0.176653 -0.030005 -70179.000000 0 0 1
36.420316 3.433532 6.129573 37.091781 0.093997 1.404781 0.169505 -0.028819 15905.600000 0 0 1
36.692216 4.726232 5.680673 37.428947 0.128102 1.418435 0.154618 -0.008327 124892.000000 0 0 1
36.699816 4.755332 4.273373 37.252536 0.128856 1.455830 0.144609 -0.010710 -159433.000000 0 0 1
37.079416 6.106232 3.595373 37.750442 0.163215 1.475411 0.140840 -0.021416 218624.000000 0 0 1
36.068816 7.106632 3.751973 36.953227 0.194538 1.469088 0.166843 -0.032861 489363.000000 0 0 1
36.380016 8.322132 3.088173 37.447300 0.224886 1.488235 0.149094 -0.035957 -854340.000000 0 0 1
35.215216 9.296632 3.162273 36.558703 0.258106 1.484190 0.188557 -0.045181 323729.000000 0 0 1
34.203116 9.327132 2.149173 35.517144 0.266225 1.510248 0.205579 -0.047267 594574.000000 0 0 1
33.260616 8.288432 2.211273 34.349038 0.244222 1.506375 0.234129 -0.041313 -1007480.000000 0 0 1
32.079416 8.367632 1.253173 33.176447 0.255156 1.533014 0.241523 -0.049870 -347177.000000 0 0 1
32.335716 8.263332 -0.182427 33.375357 0.250194 1.576262 0.227320 -0.032408 -230160.000000 0 0 1
31.199016 7.835732 -0.860627 32.179465 0.246064 1.597544 0.205766 -0.036157 -565341.000000 0 0 1
31.483916 7.535232 -2.322327 32.456277 0.234917 1.642410 0.161918 -0.027214 -701466.000000 0 0 1
30.390316 6.935832 -2.948727 31.310894 0.224382 1.665112 0.170116 -0.027928 305916.000000 0 0 1
30.668316 6.475932 -4.249627 31.631355 0.208103 1.705552 0.152505 -0.027231 -240230.000000 0 0 1
29.467316 5.767432 -4.924927 30.427634 0.193280 1.733369 0.160229 -0.016600 -268554.000000 0 0 1
29.355316 4.426632 -4.511827 30.028091 0.149667 1.721621 0.163544 -0.024255 358557.000000 0 0 1
28.139616 3.892632 -4.938927 28.833723 0.137460 1.742935 0.147856 -0.021116 -588436.000000 0 0 1
28.022216 2.398532 -4.824227 28.535429 0.085386 1.740673 0.175073 -0.017110 -280780.000000 0 0 1
28.114116 2.022032 -3.461727 28.398516 0.071799 1.692998 0.186267 -0.031301 501523.000000 0 0 1
27.694816 0.654032 -3.305027 27.898993 0.023611 1.689539 0.167377 -0.041428 -48099.100000 0 0 1
28.097716 0.091532 -1.917727 28.163233 0.003258 1.638942 0.186599 -0.038013 -1335580.000000 0 0 1
29.445416 0.189932 -1.719227 29.496175 0.006450 1.629116 0.185695 -0.037687 -1187640.000000 0 0 1
29.647316 0.128932 -0.322227 29.649347 0.004349 1.581664 0.204963 -0.032025 -276467.000000 0 0 1
31.033416 0.695232 0.028473 31.041216 0.022399 1.569879 0.228834 -0.032549 173365.000000 0 0 1
32.084716 -0.131868 -0.493127 32.088776 -0.004110 1.586165 0.202793 -0.028535 531870.000000 0 0 1
33.352616 0.458632 -0.278127 33.356929 0.013750 1.579134 0.159735 -0.025314 -32231.900000 0 0 1
-3.352684 -21.377468 -8.211150 23.144321 1.415231 1.933475 0.022103 0.013298 282472.000000 0 1 0
-3.904484 -21.920068 -7.056650 23.356598 1.394521 1.877719 0.025322 0.000855 -363440.000000 0 1 0
-3.191084 -23.081468 -6.681450 24.240028 1.433414 1.850049 0.030652 -0.002780 -206372.000000 0 1 0
-3.590384 -23.670468 -5.311750 24.523388 1.420262 1.789126 0.039287 -0.001793 -505098.000000 0 1 0
-3.182684 -22.908268 -4.195250 23.505708 1.432748 1.750236 0.050729 -0.003750 -236167.000000 0 1 0
-3.463484 -23.505368 -2.991450 23.946749 1.424500 1.696044 0.059942 -0.015842 -253480.000000 0 1 0
-2.960384 -22.780668 -1.722050 23.036670 1.441569 1.645619 0.063709 -0.024178 1706620.000000 0 1 0
-1.507184 -22.817368 -1.595450 22.922682 1.504838 1.640454 0.063662 -0.020661 1033510.000000 0 1 0
-1.139084 -22.372768 -0.264750 22.403311 1.519926 1.582614 0.059378 -0.029544 -501722.000000 0 1 0
0.351416 -22.438468 -0.010650 22.441222 -1.555136 1.571271 0.068186 -0.027730 -694888.000000 0 1 0
1.091216 -21.400668 -0.649350 21.438307 -1.519851 1.601090 0.050748 -0.023890 162552.000000 0 1 0
2.339016 -21.150568 -0.022350 21.279521 -1.460655 1.571847 0.038223 -0.021422 380096.000000 0 1 0
3.177416 -20.007668 -0.647650 20.268749 -1.413302 1.602755 0.037060 -0.022285 177268.000000 0 1 0
3.928316 -20.495368 -1.730550 20.940071 -1.381425 1.653534 0.032335 -0.014335 -333893.000000 0 1 0
4.798716 -19.495768 -2.250850 20.203439 -1.329453 1.682437 0.046980 -0.013265 -153160.000000 0 1 0
5.583216 -20.009368 -3.435850 21.055929 -1.298687 1.734707 0.051315 -0.007190 -285724.000000 0 1 0
6.655016 -20.899668 -3.081050 22.149000 -1.262521 1.710354 0.063539 -0.010894 647720.000000 0 1 0
7.483616 -21.412268 -4.134950 23.056182 -1.234566 1.751114 0.066293 -0.012246 731800.000000 0 1 0
8.586516 -20.467568 -4.684050 22.684574 -1.173578 1.778779 0.085688 -0.019155 -231051.000000 0 1 0
8.183116 -19.468768 -5.642950 21.859533 -1.172896 1.831899 0.076949 -0.020623 -154594.000000 0 1 0
9.249316 -18.587668 -5.817950 21.561535 -1.109067 1.844013 0.088102 -0.038845 -305524.000000 0 1 0
9.152616 -17.857968 -7.127650 21.295088 -1.097181 1.912092 0.070446 -0.022349 -290998.000000 0 1 0
10.299116 -17.068368 -7.358750 21.249757 -1.027878 1.924418 0.081678 -0.038086 51864.200000 0 1 0
10.417216 -16.312768 -8.542750 21.156638 -1.002482 1.986448 0.082898 -0.021268 -195573.000000 0 1 0
10.881116 -17.062368 -9.857950 22.510048 -1.003098 2.024097 0.079943 -0.007106 265330.000000 0 1 0
9.840116 -17.570268 -10.719550 22.813394 -1.060275 2.059951 0.076520 -0.019453 517486.000000 0 1 0
9.246816 -16.551268 -11.480850 22.164340 -1.061316 2.115293 0.062708 -0.033027 -46565.700000 0 1 0
8.537416 -17.018068 -12.786150 22.934422 -1.105815 2.162179 0.071071 -0.040148 -735493.000000 0 1 0
7.330516 -17.660868 -12.655250 22.930287 -1.177365 2.155439 0.061307 -0.033055 -706089.000000 0 1 0
6.922016 -18.188368 -13.876050 23.901376 -1.207148 2.190206 0.076275 -0.026461 -101629.000000 0 1 0
5.645316 -19.041268 -13.656950 24.102940 -1.282574 2.173181 0.080404 -0.020751 -26766.000000 0 1 0
5.838216 -20.280468 -13.072450 24.824808 -1.290501 2.125379 0.086420 -0.023162 196759.000000 0 1 0
4.620516 -21.017068 -13.016650 25.149542 -1.354393 2.114805 0.108020 -0.022147 303744.000000 0 0 1
4.743416 -22.505868 -12.560250 26.206372 -1.363073 2.070633 0.097488 -0.021865 -404382.000000 0 0 1
5.386716 -23.247668 -13.551050 27.442699 -1.343105 2.087244 0.116650 -0.024438 -206311.000000 0 0 1
5.139216 -24.681668 -13.583050 28.637310 -1.365510 2.064980 0.101999 -0.025338 501914.000000 0 0 1
3.738716 -25.134438 -14.098450 29.060011 -1.423130 2.077330 0.115860 -0.023726 301290.000000 0 0 1
2.635816 -24.574568 -13.419350 28.123582 -1.463947 2.068213 0.112846 -0.020733 245262.000000 0 0 1
1.358816 -24.707868 -14.051950 28.456676 -1.515856 2.087252 0.091547 -0.019550 628831.000000 0 0 1
0.603716 -25.901558 -13.503950 29.216636 -1.547492 2.051272 0.069064 -0.016175 -1121440.000000 0 0 1
1.106816 -27.151898 -13.918650 30.531613 -1.530055 2.044153 0.088722 -0.016554 42652.200000 0 0 1
0.525416 -28.262118 -13.248150 31.217572 -1.552208 2.009075 0.062833 -0.011156 949675.000000 0 0 1
-0.954584 -28.708628 -13.530050 31.751516 1.537558 2.010999 0.035082 -0.015963 855267.000000 0 0 1
-1.986184 -27.890668 -13.013750 30.841400 1.499703 2.006399 0.034661 -0.018488 817197.000000 0 0 1
-3.269584 -28.489048 -13.332350 31.623845 1.456530 2.005996 0.038762 -0.020064 515215.000000 0 0 1
-4.461184 -27.718668 -12.735550 30.828898 1.411220 1.996656 0.023868 -0.017135 -254255.000000 0 0 1
-4.695484 -27.861158 -11.336350 30.443464 1.403834 1.952362 0.019135 -0.025062 -76982.500000 0 0 1
-5.235484 -29.119298 -11.057150 31.584875 1.392903 1.928450 0.016221 -0.023007 -818779.000000 0 0 1
-5.812484 -29.307958 -9.630950 31.392619 1.375012 1.882615 0.028313 -0.028004 467393.000000 0 0 1
-7.149884 -28.886608 -9.362950 31.196503 1.328157 1.875623 0.034711 -0.027684 249158.000000 0 0 1
-7.206484 -27.504788 -9.026850 29.831707 1.314548 1.878208 0.038094 -0.023176 91203.600000 0 0 1
-8.667784 -27.015998 -8.706450 29.678222 1.260333 1.868538 0.044927 -0.024119 1247370.000000 0 0 1
-9.652484 -26.993918 -9.766050 30.285603 1.227385 1.899129 0.063756 -0.023945 322342.000000 0 0 1
-10.091784 -28.282828 -10.103950 31.683627 1.228062 1.895366 0.072093 -0.033635 -839495.000000 0 0 1
-11.346884 -28.226028 -11.007850 32.351710 1.188566 1.917985 0.075577 -0.037967 -288162.000000 0 0 1
-11.263384 -27.677948 -12.291450 32.311180 1.184318 1.961034 0.091712 -0.038495 -172751.000000 0 0 1
-12.102184 -28.399848 -13.178750 33.566258 1.167964 1.974274 0.110564 -0.043508 -3654.790000 0 0 1
-12.185284 -27.551278 -14.458450 33.415577 1.154384 2.018266 0.126181 -0.032622 26514.000000 0 0 1
-13.294684 -26.677758 -14.536850 33.162801 1.108475 2.024556 0.114858 -0.034754 -68574.900000 0 0 1
-13.218884 -25.532978 -13.718550 31.857031 1.093075 2.015986 0.125934 -0.031647 -182541.000000 0 0 1
-14.225084 -24.427968 -14.073150 31.577399 1.043472 2.032721 0.150545 -0.023286 -82074.300000 0 0 1
-13.874384 -23.608068 -15.187550 31.312953 1.039472 2.077188 0.145983 -0.026402 754545.000000 0 0 1
-15.034984 -22.883268 -15.606850 31.516161 0.989495 2.088863 0.161830 -0.028813 664935.000000 0 0 1
-14.602484 -21.933668 -16.764150 31.230674 0.983424 2.137418 0.153312 -0.022697 458401.000000 0 0 1
-13.737984 -20.818468 -16.507750 29.910643 0.987497 2.155440 0.127641 -0.018638 472043.000000 0 0 1
-13.453684 -20.233368 -17.766350 30.100398 0.984000 2.202148 0.098974 -0.020030 -178844.000000 0 0 1
-13.519384 -18.679168 -17.699350 29.068058 0.944296 2.225461 0.090190 -0.015372 -324990.000000 0 0 1
-12.298484 -18.060868 -17.416250 27.942323 0.972973 2.243743 0.071181 -0.001497 -444052.000000 0 0 1
-12.370684 -16.673368 -17.525550 27.169466 0.932472 2.271880 0.069750 0.000798 70971.300000 0 0 1
-11.020884 -15.961168 -17.838050 26.351751 0.966488 2.314368 0.067144 -0.000167 161565.000000 0 0 1
-10.210784 -16.096968 -16.701050 25.343590 1.005516 2.290265 0.077959 0.002236 144053.000000 0 0 1
-9.002784 -15.331468 -16.835750 24.485638 1.039835 2.328942 0.057129 -0.000088 145339.000000 0 1 0
-8.561384 -14.817868 -15.425850 23.039604 1.046880 2.304381 0.058651 -0.004252 -99988.300000 0 1 0
-8.166384 -15.803668 -14.458850 22.923876 1.093847 2.253294 0.060033 0.001593 206606.000000 0 1 0
-6.989684 -16.564068 -14.696250 23.220762 1.171488 2.256080 0.053405 0.007395 -115842.000000 0 1 0
-6.541484 -17.396568 -13.459150 22.947337 1.211130 2.197556 0.043629 0.005928 -400524.000000 0 1 0
-5.983784 -16.627368 -12.376350 21.574268 1.225351 2.181767 0.042630 -0.006040 360208.000000 0 1 0
-5.642284 -17.458168 -11.259750 21.526842 1.258203 2.121229 0.034108 -0.008405 -3798.600000 0 1 0
-4.483084 -18.477968 -11.422050 22.180995 1.332778 2.111743 0.036215 -0.007048 80676.800000 0 1 0
-3.193984 -17.927468 -11.684750 21.636289 1.394485 2.141297 0.037537 -0.003595 -39288.700000 0 1 0
-2.260684 -18.978568 -11.674950 22.396454 1.452237 2.119153 0.023765 0.004384 1066930.000000 0 1 0
-0.790184 -18.605668 -12.095650 22.205855 1.528352 2.146834 0.030789 0.003967 400400.000000 0 1 0
-0.732984 -18.286068 -13.497950 22.740101 1.530733 2.206290 0.042167 0.001740 -114475.000000 0 1 0
0.449816 -17.647268 -13.930050 22.487211 -1.545313 2.238858 0.046882 -0.004811 432006.000000 0 1 0
1.782216 -18.424768 -14.092050 23.264441 -1.474367 2.221484 0.056204 -0.016016 79724.500000 0 1 0
1.744716 -19.332468 -15.208650 24.659509 -1.480792 2.235398 0.076952 -0.012677 16504.400000 0 1 0
1.179816 -20.592568 -14.924350 25.459419 -1.513566 2.197159 0.079525 -0.015627 -759782.000000 0 0 1
1.071716 -21.486868 -16.178150 26.917774 -1.520960 2.215574 0.090622 -0.015220 1261320.000000 0 0 1
2.213316 -22.269368 -16.659150 27.898938 -1.471733 2.210708 0.115309 -0.016057 400870.000000 0 0 1
3.410316 -21.592568 -16.854350 27.603231 -1.414151 2.227606 0.117052 -0.019748 -251617.000000 0 0 1
4.623616 -22.566268 -17.080750 28.676929 -1.368703 2.208842 0.122626 -0.026604 419436.000000 0 0 1
4.880616 -23.100768 -18.349650 29.902768 -1.362583 2.231464 0.101477 -0.024322 324441.000000 0 0 1
6.223716 -23.561168 -18.412850 30.543351 -1.312544 2.217856 0.115919 -0.023976 329163.000000 0 0 1
6.803116 -23.522668 -19.800450 31.490571 -1.289263 2.250772 0.096896 -0.018536 -283681.000000 0 0 1
7.007616 -22.204668 -20.323550 30.906320 -1.265097 2.288406 0.101414 -0.023315 93871.900000 0 0 1
7.662616 -22.192568 -21.585150 31.892702 -1.238334 2.314211 0.058665 -0.020221 -191232.000000 0 0 1
8.016016 -20.698968 -21.868150 31.159585 -1.201315 2.348733 0.039678 -0.017615 -12719.700000 0 0 1
6.934316 -19.959668 -22.395650 30.790229 -1.236425 2.385267 0.076403 -0.022791 85562.400000 0 0 1
7.232016 -18.587468 -22.438250 30.021177 -1.199739 2.414957 0.075841 -0.015420 229195.000000 0 0 1
5.959116 -17.719268 -22.660150 29.376281 -1.246372 2.451796 0.072421 -0.014086 -325504.000000 0 0 1
5.526816 -17.956368 -23.970750 30.456094 -1.272207 2.476824 0.055116 -0.022958 1012490.000000 0 0 1
4.346416 -17.249868 -24.424750 30.216182 -1.323966 2.512112 0.086869 -0.018278 1226190.000000 0 0 1
2.960616 -17.272268 -23.750050 29.515442 -1.401037 2.505908 0.106049 -0.009244 -82688.200000 0 0 1
2.955816 -16.677668 -22.454150 28.125972 -1.395386 2.495334 0.110316 -0.011279 222101.000000 0 0 1
1.676816 -16.096768 -22.170050 27.448656 -1.467000 2.511023 0.109455 -0.011988 752230.000000 0 0 1
1.631416 -15.238368 -20.892550 25.910770 -1.464143 2.508712 0.107027 -0.010395 302936.000000 0 0 1
2.614516 -14.217768 -20.849450 25.370853 -1.388937 2.535337 0.101217 -0.009345 -49385.300000 0 0 1
2.676416 -13.541468 -19.630250 23.997526 -1.375665 2.528742 0.096577 -0.013297 -592647.000000 0 1 0
3.706416 -12.453168 -19.506550 23.437670 -1.281517 2.553992 0.084185 -0.010215 -103651.000000 0 1 0
5.025016 -13.028568 -19.304950 23.825940 -1.202685 2.515374 0.071472 -0.010159 1363280.000000 0 1 0
6.117716 -12.118668 -19.519550 23.776067 -1.103302 2.533912 0.059749 -0.007849 631146.000000 0 1 0
6.231216 -11.021168 -18.437650 22.366071 -1.056217 2.539863 0.065338 -0.009029 -723620.000000 0 1 0
5.328616 -9.911668 -18.361450 21.535509 -1.077515 2.591761 0.039849 -0.003011 77178.700000 0 1 0
5.576316 -8.890168 -19.329350 21.994411 -1.010584 2.644201 0.051336 -0.005703 -231274.000000 0 1 0
4.960516 -9.021168 -20.749950 23.163519 -1.068049 2.681031 0.074114 -0.015864 1119510.000000 0 1 0
3.516216 -9.139368 -20.759450 22.953138 -1.203520 2.700832 0.068520 -0.017782 792382.000000 0 1 0
3.050816 -9.554768 -21.990650 24.170017 -1.261731 2.713675 0.077160 -0.015456 351333.000000 0 1 0
1.515516 -9.319568 -22.056050 23.992091 -1.409591 2.737107 0.069190 -0.014414 461261.000000 0 1 0
1.199516 -7.965768 -22.267550 23.679866 -1.421335 2.794477 0.067440 -0.010964 157472.000000 0 1 0
-0.199084 -7.697368 -22.167050 23.466299 1.544938 2.807272 0.063697 -0.020779 535694.000000 0 1 0
-0.728684 -6.605168 -23.028350 23.967981 1.460920 2.860657 0.071539 -0.020670 -227301.000000 0 1 0
-0.770784 -7.030668 -24.376350 25.381702 1.461601 2.859197 0.083221 -0.022804 -283607.000000 0 0 1
-1.618284 -6.273968 -25.211860 26.031123 1.318362 2.890042 0.098572 -0.029509 -213597.000000 0 0 1
-1.087484 -4.875768 -25.649690 26.131634 1.351350 2.949239 0.097625 -0.025866 -131475.000000 0 0 1
-1.747084 -4.225568 -26.731280 27.119532 1.178745 2.972178 0.102305 -0.027252 -221920.000000 0 0 1
-1.340884 -2.883168 -27.056950 27.243149 1.135479 3.024610 0.078349 -0.026048 -208837.000000 0 0 1
-1.979484 -1.756068 -26.153010 26.286537 0.725661 3.040756 0.072982 -0.026698 661363.000000 0 0 1
-3.380184 -1.578168 -25.985220 26.251626 0.436809 2.999006 0.063976 -0.033706 581394.000000 0 0 1
-4.080784 -1.082568 -27.142080 27.468477 0.259311 2.987280 0.084654 -0.029376 310092.000000 0 0 1
-5.607084 -1.001668 -26.866590 27.463728 0.176778 2.932681 0.080547 -0.035471 313485.000000 0 0 1
-6.117184 -0.013268 -25.974280 26.684889 0.002169 2.910298 0.089965 -0.032846 -36187.300000 0 0 1
-7.498884 -0.222868 -25.798210 26.866904 0.029711 2.858595 0.098505 -0.042518 -332362.000000 0 0 1
-8.286184 1.003732 -25.209920 26.555760 -0.120546 2.821862 0.099993 -0.038830 -697718.000000 0 0 1
-8.534684 2.059532 -26.169940 27.603410 -0.236786 2.817905 0.121581 -0.036623 -10957.600000 0 0 1
-9.353784 1.763532 -27.267030 28.880689 -0.186349 2.805731 0.101557 -0.035284 -509992.000000 0 0 1
-10.822884 1.380432 -26.991580 29.113326 -0.126863 2.757453 0.092231 -0.034739 -1204330.000000 0 0 1
-11.707284 2.362432 -27.403730 29.893243 -0.199118 2.730588 0.094149 -0.045558 -1296630.000000 0 0 1
-12.975084 1.990332 -27.014500 30.034936 -0.152210 2.689273 0.049109 -0.024833 -1193880.000000 0 0 1
-14.111184 2.707832 -27.718350 31.221223 -0.189588 2.663349 0.032238 -0.016196 490361.000000 0 0 1
-15.434684 2.168232 -27.472060 31.585515 -0.139565 2.625528 0.036233 -0.011537 1909620.000000 0 0 1
-16.556284 2.714832 -28.192350 32.806850 -0.162530 2.604781 0.044380 -0.013517 753553.000000 0 0 1
-17.136384 3.986832 -27.621510 32.749019 -0.228587 2.574433 0.051051 -0.004664 -315787.000000 0 0 1
-16.274384 5.146032 -27.725020 32.557855 -0.306256 2.589753 0.061937 -0.011288 238607.000000 0 0 1
-16.013284 5.673632 -29.043720 33.647481 -0.340507 2.612324 0.059980 -0.019169 -751451.000000 0 0 1
-17.159084 6.226232 -29.865720 35.002305 -0.348079 2.592982 0.063737 -0.013679 -547515.000000 0 0 1
-17.672784 7.405432 -29.266390 34.981270 -0.396803 2.561899 0.070493 -0.010986 101591.000000 0 0 1
-18.692384 7.983732 -30.072680 36.297538 -0.403658 2.547228 0.067023 -0.012556 -41261.900000 0 0 1
-19.630284 8.867032 -29.234600 36.313002 -0.424268 2.506594 0.067300 -0.016626 -506299.000000 0 0 1
-19.036084 9.966632 -28.641190 35.805363 -0.482322 2.497947 0.068187 -0.013757 -155853.000000 0 0 1
-19.953384 10.660032 -27.845470 35.876789 -0.490668 2.459320 0.077839 -0.015472 -248631.000000 0 0 1
-9.044384 25.033032 30.493653 40.476122 -1.224092 0.717619 0.071214 -0.016909 -378075.000000 0 0 1
-9.911384 26.163732 30.639143 41.491367 -1.208680 0.740033 0.073342 -0.018215 476736.000000 0 0 1
-9.432484 27.134532 31.606433 42.710903 -1.236244 0.737713 0.079456 -0.020941 1228800.000000 0 0 1
-7.999984 27.755832 31.300133 42.592069 -1.290175 0.745304 0.079179 -0.023884 947319.000000 0 0 1
-7.973684 28.651632 30.184823 42.374747 -1.299367 0.777983 0.090606 -0.022581 704478.000000 0 0 1
-6.630384 28.751032 29.706683 41.869689 -1.344145 0.782003 0.096490 -0.020706 477030.000000 0 0 1
-6.369384 29.995532 28.888993 42.129265 -1.361560 0.815200 0.124348 -0.020994 -297361.000000 0 0 1
-6.658884 31.209432 29.560853 43.499580 -1.360587 0.823625 0.129906 -0.029880 413151.000000 0 0 1
-6.519284 32.341132 28.668483 43.707343 -1.371883 0.855397 0.133634 -0.032824 -42436.700000 0 0 1
-7.059884 33.664832 29.254443 45.155125 -1.364081 0.866017 0.144760 -0.045425 -363234.000000 0 0 1
-6.256684 -33.646042 30.347423 45.740227 1.386940 0.845345 0.164431 -0.054230 126281.000000 0 0 1
-6.840584 -32.680042 31.251033 45.731890 1.364456 0.818451 0.158003 -0.060103 -49759.300000 0 0 1
-7.859084 -33.305042 32.241642 47.016109 1.339063 0.815153 0.105419 -0.045032 209734.000000 0 0 1
-7.301384 33.368732 33.111514 47.572627 -1.355382 0.800956 0.111682 -0.043787 165080.000000 0 0 1
-7.170484 32.071232 32.499410 46.218951 -1.350834 0.790961 0.115340 -0.038639 -7680.320000 0 0 1
-7.114784 30.991432 33.624221 46.278259 -1.345134 0.757485 0.109777 -0.022689 232099.000000 0 0 1
-5.920484 31.107232 -33.427510 46.044657 -1.382721 2.383255 0.116542 -0.031995 -21956.600000 0 0 1
-5.977684 30.172032 -32.365200 44.649640 -1.375209 2.381642 0.096565 -0.028912 -292587.000000 0 0 1
-4.682684 29.943532 -31.551900 43.750029 -1.415669 2.376309 0.099467 -0.031236 736678.000000 0 0 1
-3.841084 28.816832 -31.833140 43.110469 -1.438284 2.401504 0.116003 -0.025768 559432.000000 0 0 1
-3.304384 28.661832 -33.173770 43.964970 -1.456014 2.425765 0.102187 -0.028922 -334988.000000 0 0 1
-2.594784 27.334732 -33.409310 43.244681 -1.476154 2.453667 0.101357 -0.036939 -462888.000000 0 0 1
-1.494784 27.013532 -32.557620 42.331595 -1.515518 2.448243 0.113910 -0.033877 548159.000000 0 0 1
-0.922784 25.720032 -32.735010 41.640755 -1.534934 2.475317 0.125874 -0.033232 277490.000000 0 0 1
-0.202384 25.411532 33.742859 42.241774 -1.562832 0.645493 0.111123 -0.030326 -781893.000000 0 0 1
-1.159684 25.200932 32.752185 41.341716 -1.524811 0.656340 0.112940 -0.024158 -222005.000000 0 0 1
-0.686484 25.134932 31.419963 40.242393 -1.543491 0.674903 0.120098 -0.026134 122406.000000 0 0 1
-0.136184 26.521132 30.901783 40.722343 -1.565661 0.709265 0.095435 -0.029141 278323.000000 0 0 1
-1.212684 27.444732 30.712043 41.205746 -1.526639 0.729761 0.100362 -0.032150 295124.000000 0 0 1
-0.925084 28.574032 30.008363 41.446749 -1.538433 0.761181 0.094087 -0.027198 -377039.000000 0 0 1
-2.065584 29.598832 30.066643 42.241692 -1.501123 0.778772 0.105916 -0.028394 -109961.000000 0 0 1
-2.167284 30.268432 31.309483 43.602280 -1.499316 0.769771 0.123673 -0.037096 -97546.800000 0 0 1
-3.028784 31.378232 31.348083 44.457500 -1.474569 0.788197 0.127946 -0.034751 14857.100000 0 0 1
-2.810084 32.055232 32.736251 45.903122 -1.483356 0.776801 0.139895 -0.033394 122957.000000 0 0 1
-1.509484 32.583732 32.738221 46.214384 -1.524503 0.783569 0.179156 -0.053757 -508584.000000 0 0 1
-1.027684 33.016432 -33.860530 47.304084 -1.539680 2.368573 0.143569 -0.046264 651165.000000 0 0 1
0.505816 33.352532 -33.853670 47.525974 1.555632 2.363594 0.149967 -0.060372 815775.000000 0 0 1
0.759116 -33.060142 33.315505 46.941156 -1.547839 0.781683 0.180770 -0.066203 -103120.000000 0 0 1
2.085416 -32.871242 32.898159 46.552727 -1.507439 0.785993 0.135987 -0.063500 -227301.000000 0 0 1
2.365816 -31.387642 32.661709 45.360428 -1.495564 0.766924 0.140243 -0.061855 -147568.000000 0 0 1
1.991816 -30.588142 33.780293 45.614800 -1.505771 0.736900 0.138964 -0.060843 286011.000000 0 0 1
2.341016 -29.201142 33.575853 44.559230 -1.490799 0.717411 0.103587 -0.059490 -189424.000000 0 0 1
1.842416 -28.245542 -33.150930 43.591160 -1.505660 2.434874 0.112296 -0.052442 -1001140.000000 0 0 1
0.470216 -28.077342 -33.156850 43.450373 -1.554051 2.438888 0.114483 -0.055118 -811483.000000 0 0 1
0.008816 -27.295242 -32.058700 42.104519 -1.570473 2.436278 0.106825 -0.044230 -81543.300000 0 0 1
-1.526884 -27.165542 -32.131330 42.103686 1.514649 2.438966 0.134395 -0.042185 -147671.000000 0 0 1
-2.062484 -26.669642 -30.935360 40.896456 1.493615 2.428636 0.117509 -0.029554 -594320.000000 0 0 1
-3.346984 -26.189042 -31.164110 40.844460 1.443684 2.438730 0.139443 -0.033597 -745897.000000 0 0 1
-3.830984 -25.287242 -30.022250 39.439276 1.420441 2.436000 0.145160 -0.034488 -378410.000000 0 0 1
-4.432784 -26.015242 -28.972840 39.190149 1.402025 2.402810 0.144443 -0.034054 -75459.500000 0 0 1
-4.625984 -25.131342 -27.842900 37.791681 1.388762 2.399043 0.165127 -0.027348 114285.000000 0 0 1
-3.402784 -24.925642 -26.906920 36.835430 1.435118 2.389796 0.160344 -0.041171 100448.000000 0 0 1
-2.509884 -23.962842 -27.420120 36.501784 1.466436 2.420674 0.169706 -0.041549 -27016.300000 0 0 1
-1.388684 -23.863142 -26.569310 35.739421 1.512668 2.408962 0.127670 -0.046390 -274361.000000 0 0 1
-0.321784 -22.797842 -27.038170 35.368174 1.556683 2.441027 0.092228 -0.037245 1017670.000000 0 0 1
0.436016 -22.941442 -28.264160 36.405529 -1.551793 2.459682 0.051592 -0.038238 897640.000000 0 0 1
1.269916 -24.134742 -28.180890 37.124938 -1.518227 2.432699 0.036533 -0.024654 314798.000000 0 0 1
2.213916 -24.555642 -29.375520 38.351038 -1.480880 2.443336 0.035191 -0.030632 960314.000000 0 0 1
3.327016 -23.680342 -29.522470 37.992155 -1.431213 2.460790 0.054255 -0.026777 780521.000000 0 0 1
4.121016 -23.786642 -30.728570 39.077258 -1.399250 2.475682 0.061555 -0.019600 -102193.000000 0 0 1
5.065016 -22.587042 -30.998130 38.687374 -1.350201 2.500172 0.073828 -0.028813 973860.000000 0 0 1
6.302116 -22.508042 -30.223270 38.206997 -1.297793 2.483304 0.034885 -0.026010 2001330.000000 0 0 1
7.301016 -23.520242 -30.373190 39.102906 -1.269813 2.460286 0.048588 -0.012289 -272290.000000 0 0 1
8.004116 -23.726042 -31.672270 40.374789 -1.245430 2.472616 0.054630 -0.009137 -1214410.000000 0 0 1
7.211416 -24.468042 -32.551390 41.355563 -1.284183 2.476906 0.050465 -0.016304 47072.400000 0 0 1
7.408916 -24.196742 33.861743 42.272828 -1.273666 0.641785 0.072543 -0.019858 -184123.000000 0 0 1
6.744916 -22.899242 33.362774 41.023699 -1.284349 0.621070 0.088894 -0.017887 -354502.000000 0 0 1
5.343916 -23.035642 33.405704 40.928466 -1.342844 0.615998 0.096477 -0.025289 -245364.000000 0 0 1
4.740016 -21.896342 32.825771 39.742280 -1.357611 0.598883 0.120012 -0.036519 46566.100000 0 0 1
3.301716 -21.612942 33.338901 39.868571 -1.419203 0.580442 0.108816 -0.034569 390931.000000 0 0 1
2.309816 -22.552642 32.968903 40.011317 -1.468733 0.602380 0.103108 -0.032381 -15733.800000 0 0 1
2.262816 -23.777342 33.667319 41.279180 -1.475915 0.617030 0.105384 -0.023613 1105360.000000 0 0 1
0.804116 -24.444442 33.518719 41.493155 -1.537913 0.630364 0.102750 -0.025524 1739670.000000 0 0 1
0.491416 -24.978942 32.254655 40.798919 -1.551126 0.659047 0.108764 -0.028225 -410015.000000 0 0 1
-0.813884 -25.478042 32.249081 41.107132 1.538863 0.668886 0.099924 -0.033940 -456571.000000 0 0 1
-1.160484 -26.459142 31.140733 40.880046 1.526965 0.704773 0.095310 -0.040749 -222877.000000 0 0 1
-2.488984 -26.604342 30.712073 40.708936 1.477512 0.716010 0.114733 -0.040877 -189982.000000 0 0 1
-2.607584 -27.584542 29.672463 40.597556 1.476546 0.751167 0.138056 -0.046284 -523656.000000 0 0 1
-3.963684 -27.705942 29.005263 40.306765 1.428698 0.767552 0.152539 -0.043811 150252.000000 0 0 1
-5.067484 -28.125842 29.829793 41.310518 1.392537 0.763982 0.164006 -0.042426 431627.000000 0 0 1
-6.108584 -28.676542 29.100543 41.309811 1.360917 0.789154 0.148050 -0.041207 -378584.000000 0 0 1
-7.475684 -28.917442 29.746413 42.153925 1.317817 0.787440 0.108826 -0.032891 794939.000000 0 0 1
-8.604984 -29.304442 28.895353 42.044470 1.285184 0.813090 0.122388 -0.031934 1648940.000000 0 0 1
-9.866384 -29.478642 29.513963 42.865019 1.247820 0.811333 0.100474 -0.024793 294525.000000 0 0 1
-9.996884 -30.692742 30.420543 44.355288 1.255924 0.815042 0.077322 -0.021713 -881404.000000 0 0 1
-9.863184 -32.008142 29.804453 44.834239 1.271883 0.843611 0.096118 -0.025935 717120.000000 0 0 1
-11.121084 -32.537542 29.372573 45.222983 1.241452 0.863863 0.078383 -0.019765 403082.000000 0 0 1
-11.015484 33.657732 29.104103 45.839204 -1.254504 0.882895 0.081218 -0.022526 -246117.000000 0 0 1
-10.846584 32.868832 30.275383 45.984860 -1.252052 0.852136 0.071726 -0.015510 111811.000000 0 0 1
-10.492384 31.597132 29.885963 44.739688 -1.250185 0.839283 0.087020 -0.015666 -218066.000000 0 0 1
-11.147684 30.484432 30.735353 44.701604 -1.220218 0.812663 0.074102 -0.010191 -194264.000000 0 0 1
-12.549784 30.582032 30.612563 45.054265 -1.181387 0.823770 0.054812 -0.001358 103099.000000 0 0 1
-13.300784 29.403832 30.983773 44.738020 -1.145991 0.805764 0.058467 0.000667 262246.000000 0 0 1
-13.335984 29.078932 32.513608 45.613238 -1.140803 0.777299 0.077086 -0.007914 -465511.000000 0 0 1
-14.259684 29.854332 33.272538 46.922079 -1.125195 0.782573 0.073386 -0.000661 376549.000000 0 0 1
-14.267584 29.462032 -33.178450 46.608849 -1.119812 2.362923 0.079944 -0.002237 375711.000000 0 0 1
-15.530884 30.048232 -32.479170 46.893508 -1.093748 2.335905 0.070796 -0.002899 439781.000000 0 0 1
-15.684884 29.496632 -31.137280 45.668338 -1.082071 2.321035 0.058165 -0.010369 -190678.000000 0 0 1
-16.919784 29.824432 -30.534850 45.914626 -1.054758 2.298337 0.070363 -0.006228 57719.500000 0 0 1
-16.986384 29.256532 -29.086470 44.615072 -1.044763 2.280940 0.092690 -0.016841 -151627.000000 0 0 1
-17.296384 27.907732 -29.063540 43.848555 -1.015967 2.295370 0.085243 -0.020512 43888.100000 0 0 1
-17.310884 27.339532 -27.783640 42.650291 -1.006335 2.280263 0.092141 -0.019638 30850.900000 0 0 1
-18.089184 25.977332 -27.778630 42.115230 -0.962528 2.291065 0.062486 -0.026626 -137431.000000 0 0 1
-19.480584 26.120232 -27.803560 42.834538 -0.929986 2.277187 0.064731 -0.030843 -581971.000000 0 0 1
-20.078684 24.838232 -27.702380 42.278992 -0.890968 2.285281 0.045294 -0.027962 -474752.000000 0 0 1
-21.564784 24.764032 -28.021180 43.168087 -0.854344 2.277221 0.072957 -0.024616 -459274.000000 0 0 1
-22.418784 25.014932 -26.915410 43.044024 -0.840076 2.246312 0.076540 -0.027655 334668.000000 0 0 1
-23.758984 24.644432 -27.202330 43.724182 -0.803689 2.242263 0.087706 -0.027758 589070.000000 0 0 1
-24.744384 24.678932 -25.997420 43.556860 -0.784074 2.210380 0.088918 -0.027220 68972.200000 0 0 1
-24.899884 26.003632 -25.495920 44.116154 -0.807078 2.186983 0.061769 -0.018171 49649.900000 0 0 1
-26.155914 26.262732 -24.884250 44.644023 -0.787436 2.162038 0.067245 -0.014282 462030.000000 0 0 1
-26.385354 25.715932 -23.436350 43.666447 -0.772550 2.137333 0.072179 -0.021719 -761111.000000 0 0 1
-26.233384 24.283032 -23.274150 42.656091 -0.746809 2.147929 0.067495 -0.011723 -18524.600000 0 0 1
-27.438064 23.538032 -23.127250 42.915685 -0.709040 2.139927 0.075163 -0.015291 222587.000000 0 0 1
-28.296604 23.813332 -21.843950 42.952657 -0.699575 2.104306 0.078116 -0.020973 -27095.300000 0 0 1
-27.745054 23.456832 -20.574250 41.752973 -0.701842 2.086057 0.074691 -0.013854 28331.400000 0 0 1
-26.547364 24.068532 -20.159450 41.115206 -0.736464 2.083249 0.060486 -0.009654 -104286.000000 0 0 1
-25.818154 23.474632 -18.940250 39.703507 -0.737891 2.068083 0.051058 -0.014565 14531.400000 0 0 1
-26.454054 23.726532 -17.695450 39.697534 -0.731097 2.032816 0.038263 -0.006454 -176110.000000 0 0 1
-25.511724 23.821232 -16.658050 38.675442 -0.751145 2.016080 0.074833 -0.028349 -309698.000000 0 0 1
-26.087934 24.122432 -15.260350 38.669760 -0.746273 1.976464 0.074218 -0.030754 -54539.100000 0 0 1
-26.612174 25.453632 -15.111850 39.805316 -0.763150 1.960208 0.088907 -0.029103 101894.000000 0 0 1
-27.247684 25.508232 -13.836350 39.806416 -0.752438 1.925797 0.057233 -0.039412 61053.200000 0 0 1
-26.946904 26.860432 -13.134050 40.250736 -0.783791 1.903189 0.064095 -0.029579 -1367760.000000 0 0 1
-25.636494 27.039132 -12.830350 39.407643 -0.812020 1.902422 0.099834 -0.051570 -1745050.000000 0 0 1
-25.351414 28.058032 -11.902850 39.643728 -0.836032 1.875746 0.106544 -0.048009 -117758.000000 0 0 1
-23.837084 28.260432 -11.749550 38.793176 -0.870100 1.878506 0.125542 -0.058008 -250574.000000 0 0 1
-23.080384 27.231832 -11.188550 37.409363 -0.867725 1.874529 0.118282 -0.052647 -291110.000000 0 0 1
-21.838384 27.677332 -10.696650 36.842476 -0.902777 1.865373 0.108267 -0.053714 -161044.000000 0 0 1
-21.112484 26.620832 -9.880550 35.384049 -0.900288 1.853796 0.163363 -0.043284 -252635.000000 0 0 1
-20.553984 25.669632 -10.772350 34.604043 -0.895621 1.887360 0.157416 -0.053142 -125206.000000 0 0 1
-19.808284 24.659432 -10.134950 33.214047 -0.894062 1.880882 0.166751 -0.038980 -57085.100000 0 0 1
-19.291684 23.691532 -11.234450 32.552582 -0.887405 1.923160 0.152460 -0.042516 -428385.000000 0 0 1
-18.613884 22.576032 -10.724850 31.163702 -0.881295 1.922125 0.103216 -0.024292 125761.000000 0 0 1
-18.080284 21.843832 -11.835250 30.726581 -0.879388 1.966199 0.116505 -0.013446 -69925.400000 0 0 1
-17.386684 20.584632 -11.383650 29.250835 -0.869420 1.970531 0.090660 0.000781 -686565.000000 0 0 1
-18.251784 19.659332 -10.812150 28.922648 -0.822509 1.953931 0.097878 -0.000891 -79689.500000 0 0 1
-17.604884 18.411932 -10.536650 27.567230 -0.807802 1.962990 0.119082 -0.022874 -442955.000000 0 0 1
-18.661084 17.248832 -10.320350 27.427502 -0.746091 1.956571 0.091626 -0.008999 540734.000000 0 0 1
-19.364984 16.709232 -11.405650 28.005176 -0.711912 1.990259 0.080781 -0.007441 -160169.000000 0 0 1
-20.184084 17.649132 -12.002350 29.375934 -0.718495 1.991691 0.092182 -0.009852 -1283850.000000 0 0 1
-21.100884 17.165332 -13.152050 30.213777 -0.682912 2.021168 0.096394 -0.016041 40201.600000 0 0 1
-20.362084 16.843332 -14.340550 30.065988 -0.691102 2.067999 0.082983 -0.020099 84252.500000 0 0 1
-21.172084 16.568332 -15.449450 31.007294 -0.664013 2.092378 0.082311 -0.027097 -471955.000000 0 0 1
-20.423484 16.342532 -16.736450 31.053274 -0.674853 2.139997 0.097380 -0.037583 -395290.000000 0 0 1
-19.803684 17.479032 -17.289250 31.569299 -0.723127 2.150362 0.086243 -0.035216 1104280.000000 0 0 1
-18.780184 17.126932 -18.285350 31.311038 -0.739388 2.194432 0.081332 -0.026290 435225.000000 0 0 1
-18.307484 18.324032 -19.098950 32.182355 -0.785850 2.206148 0.062411 -0.022973 -513907.000000 0 0 1
-17.649984 19.192032 -18.195250 31.795018 -0.827229 2.180064 0.083033 -0.018845 53493.400000 0 0 1
-17.032984 20.266532 -18.749950 32.440954 -0.871873 2.187037 0.098442 -0.033899 -270163.000000 0 0 1
34.125271 30.401332 1.863650 45.741101 0.727750 1.530042 0.107088 -0.007526 394607.000000 0 0 1
35.435611 30.148632 1.376550 46.545864 0.704959 1.541218 0.116858 -0.009283 271616.000000 0 0 1
35.669581 30.960532 0.253250 47.232803 0.714841 1.565435 0.121226 -0.010156 115490.000000 0 0 1
37.024211 30.848532 -0.494850 48.194076 0.694659 1.581064 0.086289 -0.007162 811234.000000 0 0 1
-36.883004 31.304232 0.321950 48.377832 -0.703765 1.564141 0.054724 0.000743 690869.000000 0 0 1
-35.723541 31.399532 -0.494150 47.564127 -0.721068 1.581186 0.064645 -0.000783 -99155.700000 0 0 1
-34.840349 32.563832 -0.029750 47.689139 -0.751637 1.571420 0.038627 -0.003037 -19402.300000 0 0 1
-34.082986 32.220332 1.147650 46.916062 -0.757313 1.546332 0.037545 -0.000445 65289.500000 0 0 1
-33.682524 33.416632 1.740850 47.478567 -0.781436 1.534122 0.023281 -0.003557 104032.000000 0 0 1
-32.821474 33.157232 3.032550 46.753049 -0.790487 1.505888 0.049083 -0.005727 164331.000000 0 0 1
-32.577794 -33.344642 3.822550 46.773814 0.797030 1.488981 0.042494 0.004332 -30471.300000 0 0 1
-31.957224 -33.632842 5.043550 46.667651 0.810939 1.462511 0.071936 -0.019458 -647258.000000 0 0 1
-31.648244 -32.370442 5.918450 45.656160 0.796679 1.440800 0.092187 -0.017494 693543.000000 0 0 1
-32.819544 -31.691842 6.426550 46.073809 0.767919 1.430856 0.095134 -0.011347 708438.000000 0 0 1
-33.556934 -32.405142 7.373850 47.228537 0.767939 1.414024 0.079830 -0.022862 -700224.000000 0 0 1
-34.636488 -31.541842 8.163450 47.552245 0.738670 1.398268 0.104477 -0.018344 1038750.000000 0 0 1
-35.856682 -31.178242 7.543450 48.111205 0.715720 1.413355 0.066193 -0.021999 702057.000000 0 0 1
-36.681634 -32.357842 7.215850 49.443308 0.722852 1.424331 0.045103 -0.015856 -1283540.000000 0 0 1
36.851431 -32.098542 7.167750 49.393532 -0.716575 1.425167 0.044786 -0.007213 -1188910.000000 0 0 1
36.246171 -31.989042 8.457750 49.077665 -0.723090 1.397598 0.041712 -0.007272 -199137.000000 0 0 1
34.888801 -31.914142 8.090250 47.970752 -0.740899 1.401337 0.035446 0.004013 -373115.000000 0 0 1
33.913611 -32.250942 9.252250 47.705978 -0.760274 1.375616 0.037007 -0.008718 -364254.000000 0 0 1
32.559101 -32.158242 8.862850 46.613278 -0.779204 1.379496 0.040444 -0.015812 177825.000000 0 0 1
31.667241 -32.460742 9.926850 46.422584 -0.797771 1.355296 0.047954 -0.019811 150454.000000 0 0 1
31.407591 -31.249542 10.970250 45.643368 -0.782876 1.328073 0.063420 -0.015502 -187253.000000 0 0 1
30.693881 -30.073642 10.507150 44.237297 -0.775192 1.330986 0.057321 -0.019959 477616.000000 0 0 1
31.378671 -29.380142 9.476550 44.018391 -0.752517 1.353811 0.061319 -0.027036 88234.700000 0 0 1
30.699901 -28.029442 9.054150 42.545401 -0.739959 1.356345 0.055612 -0.039636 401894.000000 0 0 1
31.225041 -27.596942 7.800550 42.396261 -0.723797 1.385751 0.063170 -0.038899 -106499.000000 0 0 1
30.553311 -26.401142 7.564550 41.082204 -0.712624 1.385608 0.072989 -0.040067 216953.000000 0 0 1
30.812371 -25.795942 6.116350 40.647787 -0.697013 1.419751 0.074684 -0.036855 242847.000000 0 0 1
32.125361 -25.340742 5.866850 41.335359 -0.667879 1.428382 0.079542 -0.032566 -246648.000000 0 0 1
32.093931 -24.583442 4.665450 40.695607 -0.653653 1.455901 0.083372 -0.028508 972616.000000 0 0 1
33.513051 -24.019642 4.257250 41.451079 -0.621863 1.467909 0.091079 -0.028350 872300.000000 0 0 1
34.478461 -24.955642 3.926550 42.743024 -0.626524 1.478803 0.071810 -0.016085 -278316.000000 0 0 1
35.806091 -24.440842 3.964250 43.533277 -0.598945 1.479607 0.059812 -0.011102 273006.000000 0 0 1
36.794711 -25.551042 3.662350 44.945737 -0.606972 1.489222 0.058685 -0.011401 -519020.000000 0 0 1
36.840151 -26.489742 4.720950 45.620067 -0.623394 1.467127 0.049758 -0.010868 -502377.000000 0 0 1
-37.493054 -27.640242 4.372750 46.784966 0.635265 1.477195 0.047618 -0.015971 -851545.000000 0 0 1
37.183361 -28.766242 5.348550 47.314966 -0.658455 1.457513 0.054598 -0.015129 631174.000000 0 0 1
35.842431 -29.228542 5.303350 46.552261 -0.684105 1.456626 0.033490 -0.015520 1164580.000000 0 0 1
34.800571 -28.344642 5.814250 45.258192 -0.683513 1.441972 0.051694 -0.020140 -668553.000000 0 0 1
33.460221 -28.947042 6.172650 44.672354 -0.713206 1.432177 0.067796 -0.027313 -526154.000000 0 0 1
32.708591 -29.566042 5.144050 44.389909 -0.734978 1.454652 0.047379 -0.030927 81313.500000 0 0 1
31.995641 -28.631142 4.316750 43.152029 -0.729960 1.470593 0.068052 -0.033339 -1335140.000000 0 0 1
30.595651 -29.160142 4.129250 42.467145 -0.761380 1.473408 0.066461 -0.039003 -940824.000000 0 0 1
30.516181 -30.159542 3.151050 43.020511 -0.779520 1.497485 0.070597 -0.031430 -497661.000000 0 0 1
29.256141 -30.735742 3.347750 42.565421 -0.810057 1.492065 0.102746 -0.035597 -180539.000000 0 0 1
29.058941 -32.150642 2.740550 43.423455 -0.835865 1.507642 0.106795 -0.021586 -165205.000000 0 0 1
29.028041 -32.134142 1.349050 43.324937 -0.836139 1.539653 0.106684 -0.014193 283428.000000 0 0 1
28.875241 -33.460142 0.921150 44.206438 -0.858818 1.549957 0.101823 -0.007619 -51204.700000 0 0 1
28.524541 -33.607042 -0.620250 44.084775 -0.867019 1.584866 0.103329 -0.009928 -368224.000000 0 0 1
29.613941 -33.443442 -1.482350 44.695041 -0.846054 1.603968 0.089825 -0.010278 200004.000000 0 0 1
29.212241 -33.403442 -2.855650 44.466838 -0.852234 1.635060 0.089528 -0.010251 -857537.000000 0 0 1
30.376561 -32.988142 -3.677750 44.994208 -0.826590 1.652626 0.085606 -0.014819 -839155.000000 0 0 1
30.533811 -31.573642 -3.793450 44.086265 -0.802139 1.656949 0.068265 -0.016699 109732.000000 0 0 1
31.561271 -31.258842 -4.705150 44.669536 -0.780584 1.676324 0.068105 -0.018550 -350535.000000 0 0 1
31.935341 -29.800942 -4.686750 43.930943 -0.750839 1.677684 0.052083 -0.012837 59476.700000 0 0 1
30.893051 -28.855542 -5.052250 42.574031 -0.751310 1.689746 0.062715 -0.016447 520609.000000 0 0 1
31.160911 -27.460542 -4.950250 41.828085 -0.722359 1.689422 0.058868 -0.019828 -508422.000000 0 0 1
32.299181 -26.969542 -5.829050 42.480243 -0.695716 1.708449 0.062624 -0.016260 287409.000000 0 0 1
33.624231 -27.291942 -5.381150 43.639383 -0.681819 1.694420 0.056442 -0.016035 507088.000000 0 0 1
34.687431 -26.860242 -6.197250 44.306843 -0.658904 1.711128 0.063105 -0.020991 296280.000000 0 0 1
35.004651 -27.691742 -7.511350 45.261225 -0.669283 1.737523 0.065701 -0.017005 -195973.000000 0 0 1
33.860501 -27.644042 -8.371750 44.506323 -0.684667 1.760026 0.073616 -0.015777 377691.000000 0 0 1
33.804041 -28.704142 -9.304450 45.312401 -0.703991 1.777607 0.056122 -0.008635 184175.000000 0 0 1
33.545601 -30.132042 -8.690650 45.921397 -0.731843 1.761195 0.047432 -0.003539 -320920.000000 0 0 1
34.675961 -30.719642 -8.111750 47.031044 -0.724974 1.744140 0.059131 -0.012309 -790297.000000 0 0 1
34.444701 -32.001942 -7.600550 47.626989 -0.748652 1.731067 0.065259 -0.021028 836882.000000 0 0 1
35.759841 -32.698742 -7.054450 48.966715 -0.740713 1.715366 0.059342 -0.020959 821921.000000 0 0 1
35.582781 33.685132 -6.485450 49.425535 0.758009 1.702392 0.062198 -0.021595 112501.000000 0 0 1
34.947831 33.663932 -5.197250 48.801871 0.766688 1.677496 0.068359 -0.019713 -110314.000000 0 0 1
34.533581 32.276432 -4.728850 47.504719 0.751626 1.670506 0.074461 -0.020224 -481890.000000 0 0 1
33.423391 31.747032 -5.369350 46.409342 0.759681 1.686751 0.095513 -0.031134 -475155.000000 0 0 1
33.176081 30.421732 -5.049050 45.294890 0.742116 1.682499 0.104265 -0.017197 265943.000000 0 0 1
31.904701 29.775732 -5.665850 44.006886 0.750896 1.699904 0.115547 -0.023683 146928.000000 0 0 1
31.926981 29.575832 -7.085350 44.093811 0.747188 1.732184 0.076508 -0.015039 37254.100000 0 0 1
30.722931 29.041132 -7.612450 42.956201 0.757265 1.748951 0.053762 -0.007973 254118.000000 0 0 1
30.922271 28.587032 -9.083150 43.080261 0.746177 1.783233 0.043683 0.001860 -356056.000000 0 0 1
31.733381 27.428832 -9.266450 42.955970 0.712768 1.788225 0.047445 -0.001221 98841.900000 0 0 1
32.294421 27.356032 -10.559450 43.620913 0.702798 1.815298 0.041689 0.007687 400740.000000 0 0 1
33.454701 28.345232 -10.907550 45.184553 0.702908 1.814605 0.054378 -0.008167 -587228.000000 0 0 1
34.693381 27.961132 -10.326450 45.739383 0.678359 1.798527 0.068027 -0.015942 249757.000000 0 0 1
35.742651 28.775032 -10.805950 47.141363 0.677820 1.802077 0.076351 -0.016708 -52504.300000 0 0 1
35.961041 30.095732 -10.011850 47.949835 0.696838 1.781142 0.068146 -0.020477 -835422.000000 0 0 1
36.717901 29.902132 -8.842350 48.171868 0.683445 1.755401 0.081148 -0.020792 -114258.000000 0 0 1
36.768931 31.099932 -8.089750 48.832408 0.702063 1.737227 0.064766 -0.020474 -785085.000000 0 0 1
-37.155314 31.054232 -7.017750 48.929863 -0.696189 1.714717 0.062137 -0.015402 150382.000000 0 0 1
-35.824334 31.225832 -7.476750 48.107560 -0.716922 1.726846 0.069104 -0.014005 -216435.000000 0 0 1
-35.193196 30.099432 -7.953350 46.987154 -0.707541 1.740882 0.084361 -0.015824 -363234.000000 0 0 1
-33.708654 30.412532 -8.334650 46.159093 -0.734039 1.752356 0.077149 -0.016099 -123720.000000 0 0 1
-32.968344 30.787632 -7.230150 45.684407 -0.751207 1.729728 0.068964 -0.020571 -192689.000000 0 0 1
-31.670284 31.320532 -7.448650 45.160436 -0.779846 1.736491 0.066041 -0.021395 352946.000000 0 0 1
-31.466964 32.591432 -8.388950 46.073265 -0.802950 1.753896 0.046842 -0.022285 -502827.000000 0 0 1
-31.675154 -33.797442 -7.849750 46.980858 0.817802 1.738668 0.035713 -0.020978 -6911.440000 0 0 1
-30.636524 -33.371942 -6.984250 45.837352 0.828107 1.723762 0.057490 -0.034333 -108374.000000 0 0 1
-30.904824 -31.949442 -6.477150 44.920245 0.802016 1.715493 0.048119 -0.031981 249346.000000 0 0 1
-31.867704 -31.794442 -5.426950 45.341911 0.784247 1.690773 0.029506 -0.033033 95216.100000 0 0 1
-31.709534 -32.543842 -4.209250 45.632378 0.798382 1.663170 0.045461 -0.032822 -606847.000000 0 0 1
-32.911844 -32.479442 -3.268050 46.354976 0.778786 1.641355 0.039206 -0.028392 -625317.000000 0 0 1
-33.187264 -31.241842 -2.802250 45.665083 0.755213 1.632200 0.044797 -0.020735 -247030.000000 0 0 1
-34.005904 -31.363942 -1.662150 46.291048 0.745005 1.606711 0.055561 -0.015851 -15742.700000 0 0 1
-34.978610 -30.126942 -1.626250 46.192862 0.711016 1.606009 0.067224 -0.010919 351627.000000 0 0 1
-35.920681 -30.253742 -0.564650 46.967042 0.699970 1.582819 0.058200 -0.009149 -98135.600000 0 0 1
-36.502404 -28.975642 -0.325950 46.606003 0.670950 1.577790 0.057913 -0.012406 111086.000000 0 0 1
37.493341 -28.964142 0.851850 47.385628 -0.657755 1.552818 0.055139 -0.006499 239027.000000 0 0 1
36.264911 -29.626942 0.532850 46.831436 -0.684997 1.559418 0.033432 -0.005071 608571.000000 0 0 1
35.248101 -29.585142 1.516050 46.043541 -0.698273 1.537864 0.044320 -0.013925 13278.600000 0 0 1
34.495551 -28.269942 1.657550 44.630484 -0.686533 1.533648 0.032450 -0.002818 -1098160.000000 0 0 1
33.519561 -28.171942 0.637150 43.790698 -0.698931 1.556246 0.040290 -0.015726 -153719.000000 0 0 1
32.851081 -26.947942 0.816750 42.497672 -0.687001 1.551576 0.050247 -0.015892 -769945.000000 0 0 1
31.581001 -26.746442 -0.020650 41.385169 -0.702701 1.571295 0.060061 -0.035790 -420516.000000 0 0 1
30.442991 -27.297142 0.624150 40.893755 -0.730969 1.555533 0.063570 -0.027836 121313.000000 0 0 1
30.187511 -28.696342 0.378150 41.652237 -0.760080 1.561717 0.063282 -0.025867 -419969.000000 0 0 1
29.792341 -29.056042 -1.078250 41.629314 -0.772887 1.596700 0.066155 -0.026598 29088.300000 0 0 1
28.599941 -28.487142 -1.621550 40.399298 -0.783422 1.610945 0.083704 -0.025021 545386.000000 0 0 1
28.273341 -28.956642 -2.909150 40.575018 -0.797337 1.642556 0.077680 -0.019336 895820.000000 0 0 1
26.863441 -29.665642 -3.061350 40.138094 -0.834929 1.647141 0.093742 -0.024334 1309800.000000 0 0 1
25.766041 -28.760342 -2.944650 38.726181 -0.840258 1.646907 0.096895 -0.030471 -63131.300000 0 0 1
24.549441 -29.446342 -3.158150 38.467337 -0.875841 1.652988 0.074317 -0.022536 -990559.000000 0 0 1
23.411041 -28.501042 -3.030750 37.007724 -0.883136 1.652783 0.074429 -0.018856 -1086590.000000 0 0 1
23.292741 -27.703442 -4.221250 36.439696 -0.871674 1.686899 0.076246 -0.020526 324069.000000 0 0 1
22.516541 -26.495442 -4.029650 35.003444 -0.866403 1.686174 0.088751 -0.033952 288941.000000 0 0 1
22.131641 -25.883442 -5.393750 34.479771 -0.863378 1.727874 0.094856 -0.039673 216359.000000 0 0 1
20.805641 -26.168242 -5.820150 33.934138 -0.899067 1.743162 0.104969 -0.032983 -137023.000000 0 0 1
20.519841 -25.457542 -7.028150 33.444659 -0.892382 1.782517 0.117602 -0.032677 486649.000000 0 0 1
19.009941 -25.604642 -7.363750 32.729197 -0.932150 1.797729 0.122245 -0.027634 329561.000000 0 0 1
18.148841 -25.071642 -6.407950 31.607427 -0.944223 1.774947 0.120615 -0.028840 1188440.000000 0 0 1
16.747941 -25.178842 -6.816450 30.998896 -0.983838 1.792501 0.116587 -0.030800 1923450.000000 0 0 1
15.762941 -24.318642 -5.952650 29.585481 -0.995699 1.773381 0.097433 -0.020120 164012.000000 0 0 1
15.706341 -24.790742 -4.628350 29.710127 -1.006068 1.727217 0.087652 -0.013954 -131604.000000 0 0 1
14.742541 -24.112642 -3.892250 28.529136 -1.022034 1.707654 0.078828 -0.018431 -228875.000000 0 0 1
14.906541 -24.548742 -2.382150 28.818749 -1.025083 1.653550 0.082870 -0.013763 128303.000000 0 0 1
14.408541 -25.843942 -2.136150 29.666117 -1.062197 1.642865 0.089188 -0.009610 127145.000000 0 0 1
14.703841 -26.274742 -0.840850 30.120957 -1.060598 1.598716 0.077509 -0.007760 -96659.200000 0 0 1
14.443241 -27.806142 -0.728550 31.341977 -1.091729 1.594044 0.075020 -0.013409 14399.800000 0 0 1
13.074041 -28.142942 -0.668150 31.038720 -1.135902 1.592324 0.081974 -0.008958 -245278.000000 0 0 1
12.762241 -29.278742 -1.482250 31.973686 -1.159740 1.617171 0.083939 -0.009488 -5396.500000 0 0 1
13.287541 -30.694642 -1.092050 33.465092 -1.162258 1.603435 0.073359 -0.007490 47915.400000 0 0 1
14.657341 -30.751342 -1.467650 34.097458 -1.126010 1.613852 0.082636 -0.005767 -32404.600000 0 0 1
15.092341 -32.100242 -1.491050 35.502500 -1.131302 1.612807 0.078770 -0.011163 -281695.000000 0 0 1
16.545141 -32.192042 -1.996850 36.249919 -1.096050 1.625910 0.074152 -0.016777 -348367.000000 0 0 1
17.399841 -31.512542 -1.118950 36.014536 -1.066299 1.601871 0.074045 -0.005756 -173487.000000 0 0 1
18.629641 -31.239642 -1.763950 36.415522 -1.033068 1.619255 0.079544 -0.009016 -52796.200000 0 0 1
19.546841 -30.237742 -1.049050 36.020835 -0.996929 1.599924 0.075289 -0.015578 -231164.000000 0 0 1
19.152741 -28.869042 -1.221750 34.666147 -0.985034 1.606047 0.077217 -0.009329 -123984.000000 0 0 1
19.836241 -27.910342 -0.476850 34.244576 -0.952917 1.584722 0.071463 -0.013611 -772906.000000 0 0 1
19.303741 -26.468742 -0.550150 32.764789 -0.940673 1.587588 0.071537 -0.013502 -382534.000000 0 0 1
19.441741 -25.593242 -1.682150 32.184234 -0.921152 1.623086 0.080485 -0.025664 106127.000000 0 0 1
18.783541 -26.154342 -2.812850 32.323105 -0.947973 1.657929 0.094350 -0.022106 16619.900000 0 0 1
33.282951 -29.304342 13.818650 46.448405 -0.721915 1.268718 0.067708 -0.034156 371446.000000 0 0 1
34.158831 -29.648042 14.885050 47.617191 -0.714821 1.252869 0.075990 -0.024214 257745.000000 0 0 1
33.420591 -30.189142 15.971350 47.784979 -0.734641 1.230004 0.060484 -0.010958 281562.000000 0 0 1
34.377851 -30.660142 17.085050 49.130234 -0.728298 1.215626 0.061071 -0.005289 -334199.000000 0 0 1
33.684241 -31.132842 18.225050 49.356199 -0.746055 1.192588 0.049997 -0.001730 -68423.900000 0 0 1
34.424421 -31.489842 19.387450 50.522511 -0.740906 1.176955 0.031740 -0.003054 -6907.150000 0 0 1
35.409121 -32.705942 19.276750 51.914137 -0.745733 1.190366 0.033939 0.001835 408562.000000 0 0 1
36.475121 -32.517842 18.349050 52.197051 -0.728103 1.211587 0.044859 0.004846 -17978.500000 0 0 1
37.015261 -33.772142 18.023150 53.249611 -0.739615 1.225511 0.057936 -0.004765 53823.100000 0 0 1
-36.797264 -33.742142 17.045750 52.755364 0.742114 1.241783 0.061870 -0.002976 13257.400000 0 0 1
-35.629453 -33.170142 17.571950 51.754127 0.749667 1.224382 0.071041 -0.006410 -43685.400000 0 0 1
-34.627160 -33.096042 16.565350 50.683321 0.762794 1.237838 0.085097 -0.001603 408061.000000 0 0 1
-33.409684 -32.236342 17.087250 49.470828 0.767526 1.218131 0.072691 -0.007326 955404.000000 0 0 1
-32.296054 -32.120742 16.193650 48.342647 0.782677 1.229216 0.083498 -0.011321 245005.000000 0 0 1
-32.450534 -31.158942 15.209250 47.489347 0.765096 1.244785 0.094714 -0.017667 -286823.000000 0 0 1
-31.270044 -31.023342 14.223350 46.287872 0.781438 1.258463 0.086856 -0.023343 1246040.000000 0 0 1
-30.025194 -30.508442 14.754850 45.276737 0.793381 1.238852 0.080316 -0.027545 276088.000000 0 0 1
-29.023694 -30.449742 13.798650 44.271485 0.809371 1.253833 0.074805 -0.017084 -120295.000000 0 0 1
-27.706524 -29.941942 14.409350 43.264312 0.824155 1.231256 0.080686 -0.019812 289132.000000 0 0 1
-26.544384 -30.078242 13.615950 42.363889 0.847728 1.243584 0.080191 -0.018460 -904742.000000 0 0 1
-25.432604 -29.555042 14.251750 41.514217 0.860228 1.220370 0.065773 -0.025884 219075.000000 0 0 1
-24.146284 -29.669342 13.341050 40.512918 0.887669 1.235230 0.066939 -0.026474 683688.000000 0 0 1
-23.732984 -30.986142 13.052750 41.155435 0.917182 1.248066 0.065036 -0.024795 65959.400000 0 0 1
-22.555284 -31.021842 12.264450 40.268005 0.942128 1.261309 0.060736 -0.038313 261508.000000 0 0 1
-22.012084 -32.455442 12.093350 41.038234 0.974835 1.271671 0.046994 -0.030030 -303391.000000 0 0 1
-22.714384 -33.160542 11.143350 41.710179 0.970221 1.300350 0.043709 -0.026139 -278914.000000 0 0 1
-22.396084 33.159632 11.214350 41.556076 -0.976771 1.297548 0.046425 -0.015712 362684.000000 0 0 1
-23.301684 32.294732 10.255950 41.123019 -0.945765 1.318739 0.049081 -0.006320 179362.000000 0 0 1
-23.043984 32.684832 8.885750 40.966816 -0.956698 1.352157 0.039397 -0.004771 597279.000000 0 0 1
-24.178584 32.422232 8.029750 41.234475 -0.930027 1.374810 0.044964 -0.017746 190961.000000 0 0 1
-24.051684 33.054632 6.595350 41.407618 -0.941764 1.410836 0.037422 -0.008447 -753646.000000 0 0 1
-23.398084 32.186832 5.651950 40.192127 -0.942214 1.429705 0.034595 -0.007269 1253070.000000 0 0 1
-21.976284 31.952332 5.812850 39.213490 -0.968317 1.422012 0.046206 -0.011217 834922.000000 0 0 1
-21.136984 33.199032 5.466750 39.734534 -1.003846 1.432777 0.059489 -0.015545 -1179080.000000 0 0 1
-21.142384 -33.424242 6.385450 40.061881 1.006789 1.410724 0.055494 -0.020869 -60851.200000 0 0 1
-20.526284 -33.536342 7.665150 40.059569 1.021556 1.378265 0.047358 -0.022096 -325887.000000 0 0 1
-20.583984 -32.248142 8.549050 39.201139 1.002690 1.350948 0.043454 -0.023807 -343486.000000 0 0 1
-19.722584 -31.223942 8.063450 37.801245 1.007430 1.355833 0.060817 -0.037356 -72026.000000 0 0 1
-19.712784 -30.045642 8.825750 37.003085 0.990149 1.329961 0.058532 -0.035719 134192.000000 0 0 1
-19.077684 -30.042742 10.249250 37.034734 1.005025 1.290389 0.046902 -0.031035 -416808.000000 0 0 1
-17.723184 -30.368842 10.205850 36.613347 1.042525 1.288307 0.054864 -0.039951 -844959.000000 0 0 1
-17.156684 -30.272442 11.518050 36.652940 1.055190 1.251134 0.072977 -0.037202 915294.000000 0 0 1
-15.661184 -30.758142 11.476650 36.373747 1.099838 1.249792 0.067305 -0.032486 392906.000000 0 0 1
-14.712884 -29.909342 10.912050 35.072932 1.113637 1.254420 0.081567 -0.032565 -769265.000000 0 0 1
-13.722984 -30.790642 10.442050 35.290513 1.151535 1.270411 0.098145 -0.025296 187874.000000 0 0 1
-12.486284 -30.076342 9.802850 34.008668 1.177296 1.278402 0.114518 -0.020010 485322.000000 0 0 1
-11.547984 -29.588542 10.729450 33.525496 1.198692 1.245026 0.108431 -0.028984 -346557.000000 0 0 1
-10.320584 -29.257642 10.087750 32.623408 1.231675 1.256426 0.106842 -0.028199 264357.000000 0 0 1
-9.365184 -28.784342 11.182950 32.269233 1.256242 1.216904 0.097890 -0.023512 -336844.000000 0 0 1
-9.773384 -27.595042 11.724250 31.535114 1.230410 1.189866 0.074233 -0.027351 -643749.000000 0 0 1
-8.968084 -27.314742 12.816450 31.476707 1.253561 1.151440 0.070728 -0.023882 -150869.000000 0 0 1
-9.435784 -26.007542 13.471250 30.771754 1.222756 1.117669 0.066563 -0.035288 249254.000000 0 0 1
-9.120484 -24.814642 12.734850 29.344950 1.218578 1.121901 0.049338 -0.033531 -473623.000000 0 0 1
-10.074684 -24.448842 11.793950 28.954143 1.179927 1.151265 0.044429 -0.027856 -190987.000000 0 0 1
-9.663084 -23.088142 11.135550 27.394123 1.174418 1.152183 0.030495 -0.018964 -440077.000000 0 0 1
-8.550384 -23.225042 10.330050 26.818307 1.218041 1.175386 0.017547 -0.017154 -711318.000000 0 0 1
-8.167184 -21.932642 9.812250 25.377627 1.214328 1.173800 0.003954 -0.009991 -323944.000000 0 0 1
-6.904384 -21.971942 8.955750 24.711176 1.266330 1.199936 0.018518 -0.017095 952333.000000 0 1 0
-5.690784 -22.450842 9.599450 25.071393 1.322547 1.177879 0.055722 -0.022967 913097.000000 0 0 1
-4.612884 -22.555842 8.695650 24.610141 1.369068 1.209662 0.054213 -0.028849 1329700.000000 0 1 0
-3.341084 -23.388642 9.191150 25.350910 1.428906 1.199786 0.083415 -0.035301 1397940.000000 0 0 1
-2.442784 -22.637942 10.009950 24.872529 1.463306 1.156605 0.076589 -0.031891 -174243.000000 0 1 0
-1.330484 -23.450042 10.361650 25.671744 1.514120 1.155325 0.101535 -0.045955 224957.000000 0 0 1
-0.439784 -22.850842 11.449450 25.562557 1.551553 1.106382 0.097732 -0.042969 -496437.000000 0 0 1
-0.984384 -22.614842 12.724350 25.967464 1.527296 1.058694 0.100725 -0.035374 -781817.000000 0 0 1
-0.068784 -22.547242 13.781350 26.425527 1.567746 1.022169 0.128723 -0.034314 -148940.000000 0 0 1
0.698516 -21.171842 13.891450 25.331940 -1.537816 0.990374 0.102317 -0.029715 584372.000000 0 0 1
1.704716 -20.995942 12.879050 24.690192 -1.489781 1.022040 0.094020 -0.040310 33871.500000 0 1 0
2.171716 -19.659242 12.923050 23.626413 -1.460774 0.992050 0.073715 -0.030751 1744.420000 0 1 0
3.654516 -19.567442 12.514950 23.513066 -1.386158 1.009534 0.071311 -0.031163 -738.738000 0 1 0
3.879116 -20.099142 11.200350 23.333900 -1.380141 1.070138 0.085951 -0.032049 -125540.000000 0 1 0
5.286216 -20.190442 11.035550 23.608926 -1.314726 1.084413 0.100918 -0.035246 264864.000000 0 1 0
5.704616 -21.019042 9.849350 23.902980 -1.305778 1.146088 0.106008 -0.043233 -612879.000000 0 1 0
5.619116 -20.332042 8.626850 22.790106 -1.301159 1.182583 0.089331 -0.039186 -437200.000000 0 1 0
5.859716 -21.094642 7.475350 23.134413 -1.299845 1.241765 0.086587 -0.039887 726313.000000 0 1 0
7.353316 -21.573042 7.255050 23.918678 -1.242290 1.262620 0.080331 -0.026553 623279.000000 0 1 0
8.276616 -20.630842 6.772850 23.238019 -1.189276 1.275048 0.083112 -0.034490 -106773.000000 0 1 0
8.846916 -19.668142 7.639250 22.879289 -1.148101 1.230365 0.095616 -0.025614 284526.000000 0 1 0
9.663616 -20.123542 8.878350 24.024311 -1.123102 1.192264 0.088600 -0.015741 -498981.000000 0 1 0
8.893116 -20.261042 10.000950 24.282017 -1.157189 1.146295 0.097911 -0.024703 -954439.000000 0 1 0
9.490016 -19.785642 11.185650 24.630282 -1.123568 1.099387 0.092282 -0.019645 -126894.000000 0 1 0
8.707816 -20.220242 12.405250 25.270031 -1.164151 1.057665 0.128654 -0.023359 -320749.000000 0 0 1
9.107416 -21.436342 12.977650 26.662355 -1.169045 1.062442 0.105470 -0.023350 9955.520000 0 0 1
8.357416 -21.742442 14.181850 27.270956 -1.203825 1.023904 0.137664 -0.025449 469852.000000 0 0 1
8.679016 -23.130442 14.752150 28.774444 -1.211832 1.032490 0.124299 -0.028837 58563.900000 0 0 1
8.163816 -24.128442 13.850450 28.994216 -1.244539 1.072765 0.133334 -0.034564 -120532.000000 0 0 1
8.115616 -25.429242 14.365250 30.312868 -1.261869 1.077083 0.139493 -0.046834 142623.000000 0 0 1
8.263616 -26.514642 13.278950 30.783829 -1.268675 1.124795 0.137108 -0.060991 1532.010000 0 0 1
9.582416 -26.683842 12.815950 31.114285 -1.226029 1.146259 0.125406 -0.049396 -298524.000000 0 0 1
9.682016 -27.718742 11.880750 31.673685 -1.234750 1.186293 0.111556 -0.058366 -322737.000000 0 0 1
11.102416 -28.071542 11.418850 32.274839 -1.194172 1.209165 0.106687 -0.051740 -280929.000000 0 0 1
11.940816 -28.604542 12.401650 33.385683 -1.175342 1.190209 0.100164 -0.046804 -504573.000000 0 0 1
13.153616 -29.017042 11.855350 33.993465 -1.145196 1.214555 0.130284 -0.041019 -248655.000000 0 0 1
14.061016 -29.842742 12.841250 35.400553 -1.130477 1.199588 0.110657 -0.044598 -106014.000000 0 0 1
14.762016 -28.963442 13.732650 35.289995 -1.099437 1.171102 0.099050 -0.040245 1136890.000000 0 0 1
15.846816 -29.570442 14.493750 36.545881 -1.078842 1.162997 0.088942 -0.033738 1791010.000000 0 0 1
17.212716 -29.769942 13.725150 37.025758 -1.046567 1.191042 0.089428 -0.020317 -17816.600000 0 0 1
17.963116 -28.629642 13.789250 36.503060 -1.010451 1.183425 0.065792 -0.026212 -1037940.000000 0 0 1
19.181116 -28.704742 13.159150 36.946457 -0.981718 1.206632 0.063352 -0.022968 -512521.000000 0 0 1
20.084816 -27.451942 13.050350 36.432411 -0.939152 1.204449 0.022372 -0.022246 322781.000000 0 0 1
21.297116 -27.572642 12.324250 36.955445 -0.913112 1.230794 0.021774 -0.023305 446674.000000 0 0 1
21.987316 -26.282442 12.319350 36.413943 -0.874146 1.225672 0.009945 -0.015437 -992893.000000 0 0 1
23.334216 -26.518642 11.710150 37.213595 -0.849188 1.250683 0.022258 -0.014285 -1844340.000000 0 0 1
24.186116 -27.245242 12.500250 38.516590 -0.844808 1.240269 0.029886 -0.021490 -942852.000000 0 0 1
25.297516 -27.588742 11.745350 39.230807 -0.828695 1.266742 0.032211 -0.026732 -633960.000000 0 0 1
26.462616 -28.417242 12.376450 40.755199 -0.821000 1.262246 0.047365 -0.024647 646586.000000 0 0 1
27.501816 -27.616442 12.928050 41.062784 -0.787478 1.250512 0.032478 -0.021155 438747.000000 0 0 1
28.580116 -27.399842 12.032250 41.380544 -0.764317 1.275764 0.021026 -0.022785 464248.000000 0 0 1
29.861116 -26.642242 12.560850 41.943656 -0.728492 1.266660 0.057797 -0.035809 375491.000000 0 0 1
29.799616 -25.262742 12.740550 41.091908 -0.703189 1.255551 0.063434 -0.039199 -121490.000000 0 0 1
28.886616 -24.903742 13.752950 40.543515 -0.711489 1.224715 0.062369 -0.030784 -201169.000000 0 0 1
29.556316 -24.741242 15.135050 41.409837 -0.696950 1.196633 0.048042 -0.015527 35358.400000 0 0 1
29.966516 -25.955542 15.753650 42.659814 -0.713796 1.192556 0.040682 -0.019534 120245.000000 0 0 1
30.692416 -25.603842 16.932950 43.408593 -0.695254 1.170075 0.053240 0.002986 241071.000000 0 0 1
31.351116 -26.818642 17.664050 44.879290 -0.707637 1.166263 0.048465 0.026884 237580.000000 0 0 1
30.366616 -27.760242 18.059850 44.932400 -0.740589 1.157169 0.026057 0.021935 129281.000000 0 0 1
30.888316 -28.706942 18.959550 46.234631 -0.748811 1.148263 0.047608 0.006585 369947.000000 0 0 1
29.794516 -29.624542 19.636050 46.377809 -0.782538 1.133609 0.036727 0.018750 -527411.000000 0 0 1
28.964116 -28.906842 20.528150 45.781333 -0.784408 1.105827 0.022516 0.021968 612424.000000 0 0 1
27.935116 -29.691642 21.162750 45.932846 -0.815870 1.091976 0.023002 0.013996 604099.000000 0 0 1
26.829416 -30.266942 20.262850 45.238130 -0.845531 1.106364 0.061280 0.003018 -1383580.000000 0 0 1
27.095716 -31.430642 19.510250 45.855348 -0.859331 1.131311 0.058998 0.002805 -389438.000000 0 0 1
26.309816 -31.743542 18.388650 45.144228 -0.878725 1.151266 0.069819 0.004218 -422648.000000 0 0 1
26.640016 -30.894842 17.172350 44.261398 -0.859216 1.172362 0.065805 0.006948 472231.000000 0 0 1
27.971516 -30.999042 16.670150 44.958205 -0.836693 1.190934 0.053955 0.002705 325185.000000 0 0 1
28.164116 -29.962542 15.720350 44.023866 -0.816328 1.205649 0.049106 -0.012256 6502.880000 0 0 1
29.602216 -29.920442 15.142750 44.730604 -0.790744 1.225440 0.061837 -0.011128 -22455.600000 0 0 1
29.949916 -30.966442 14.251350 45.376414 -0.802084 1.251320 0.092139 -0.003846 175791.000000 0 0 1
29.911316 -32.371242 14.618550 46.435828 -0.824874 1.250538 0.086276 -0.012017 -423661.000000 0 0 1
28.862816 -33.190642 13.826750 46.107048 -0.855029 1.266226 0.093986 -0.016149 17106.700000 0 0 1
29.117816 -33.401942 12.448250 46.027121 -0.853816 1.296931 0.093966 -0.016997 22832.300000 0 0 1
28.644216 33.012432 12.103350 45.351989 0.856127 1.300646 0.097555 -0.028223 -353948.000000 0 0 1
29.096916 32.483432 10.760450 44.917604 0.840336 1.328884 0.105433 -0.033656 -1266200.000000 0 0 1
30.429216 32.141532 10.749250 45.547356 0.812757 1.332547 0.081676 -0.032648 -799857.000000 0 0 1
30.682916 31.240632 9.650650 44.839196 0.794404 1.353871 0.085026 -0.043306 -463954.000000 0 0 1
32.137216 30.791732 9.569850 45.524867 0.764020 1.359005 0.054719 -0.034727 -418577.000000 0 0 1
32.466516 29.764032 10.500750 45.279554 0.741998 1.336756 0.042311 -0.020277 222063.000000 0 0 1
33.850516 29.469432 10.537050 46.101348 0.716319 1.340195 0.044415 -0.015938 136217.000000 0 0 1
34.236616 28.636132 11.770450 46.159695 0.696556 1.312955 0.043387 -0.013328 -94016.400000 0 0 1
33.739616 27.296032 11.723250 44.954084 0.680217 1.306963 0.046688 -0.019639 244492.000000 0 0 1
33.821916 26.611032 12.926350 44.935060 0.666639 1.279006 0.059189 -0.034594 -73709.100000 0 0 1
33.774216 25.126532 12.653050 43.956114 0.639622 1.278809 0.050251 -0.030877 78585.800000 0 0 1
34.858916 24.625232 11.890750 44.305034 0.615025 1.299082 0.050551 -0.018886 -278050.000000 0 0 1
35.014416 23.202232 11.845350 43.642471 0.585215 1.295930 0.065245 -0.022648 -1167490.000000 0 0 1
33.928416 22.358932 11.268750 42.166859 0.582678 1.300267 0.058885 -0.017088 -927134.000000 0 0 1
32.773816 22.330632 12.069150 41.454126 0.598103 1.275373 0.096722 -0.035544 -771257.000000 0 0 1
31.674716 22.039832 11.270350 40.200282 0.607914 1.286632 0.098583 -0.029147 -44780.800000 0 0 1
30.305316 21.937732 12.014150 39.293970 0.626581 1.260070 0.095188 -0.028419 506011.000000 0 0 1
29.800316 23.072932 12.651550 39.755261 0.658842 1.246928 0.103592 -0.025451 -946073.000000 0 0 1
28.756616 22.756232 13.474550 39.068563 0.669437 1.218669 0.141634 -0.033064 -713498.000000 0 0 1
25.253816 9.676532 25.641213 37.267443 0.365915 0.812022 0.045937 -0.000647 -388309.000000 0 0 1
24.949716 8.498032 26.381123 37.291669 0.328282 0.784946 0.044922 -0.010661 654351.000000 0 0 1
23.554416 8.212132 26.357033 36.289707 0.335467 0.757880 0.053847 -0.016494 147397.000000 0 0 1
23.271716 6.840132 27.040843 36.325850 0.285874 0.731165 0.065918 -0.014777 -138811.000000 0 0 1
23.501716 6.931032 28.463443 37.557123 0.286786 0.710753 0.075717 -0.012928 -440607.000000 0 0 1
24.801916 6.794532 28.930733 38.707726 0.267392 0.726634 0.054755 -0.010976 -903948.000000 0 0 1
24.929516 6.783432 30.485463 39.960721 0.265672 0.703032 0.067323 -0.009004 -118614.000000 0 0 1
24.947716 8.098932 31.012203 40.616967 0.313903 0.702037 0.094572 -0.019366 205198.000000 0 0 1
24.959716 8.080332 32.420260 41.705545 0.313087 0.680337 0.104605 -0.017242 -107420.000000 0 0 1
25.064816 9.467032 33.064334 42.557254 0.361137 0.681009 0.143409 -0.028407 -612519.000000 0 0 1
26.257216 10.149932 32.806058 43.228462 0.368865 0.709175 0.108313 -0.028302 -397515.000000 0 0 1
26.795816 10.637332 -33.787680 44.415942 0.377898 2.435204 0.127011 -0.025964 433620.000000 0 0 1
28.023616 11.590732 33.854443 45.450979 0.392180 0.730477 0.108075 -0.033743 186147.000000 0 0 1
27.697916 12.835632 33.292497 45.169884 0.433954 0.742100 0.107814 -0.039773 324610.000000 0 0 1
27.277216 13.774632 -33.503310 45.345989 0.467629 2.402140 0.118654 -0.047680 79698.400000 0 0 1
26.833716 15.156032 33.789423 45.732688 0.514145 0.739440 0.115647 -0.042956 -138227.000000 0 0 1
27.993516 15.828432 33.309942 46.300415 0.514614 0.767814 0.102459 -0.046488 688185.000000 0 0 1
27.764116 17.228632 33.245774 46.614948 0.555383 0.776744 0.121436 -0.056371 -136611.000000 0 0 1
28.062116 17.941832 -33.190370 47.021190 0.568860 2.354433 0.109706 -0.055988 -458400.000000 0 0 1
27.276516 17.508632 -32.082310 45.605209 0.570656 2.351077 0.119170 -0.052945 689750.000000 0 0 1
28.097616 16.768132 -31.173710 45.193434 0.538049 2.331987 0.112832 -0.047028 176247.000000 0 0 1
27.266016 16.146532 -30.020420 43.650564 0.534654 2.329173 0.119829 -0.037828 -59881.700000 0 0 1
26.437416 15.116032 -30.483520 43.089168 0.519401 2.356683 0.138750 -0.033358 -545806.000000 0 0 1
25.547916 14.697532 -29.525520 41.718938 0.522054 2.357069 0.159652 -0.031374 -101063.000000 0 0 1
24.574816 13.562732 -30.021290 41.099235 0.504297 2.389790 0.130334 -0.023363 -174499.000000 0 0 1
23.709316 13.953132 -31.079830 41.506353 0.531927 2.417041 0.149124 -0.027596 334238.000000 0 0 1
23.133916 12.836432 -31.779760 41.351000 0.506578 2.447347 0.130662 -0.029061 36757.900000 0 0 1
22.150216 11.894832 -31.030100 39.937278 0.492813 2.460636 0.138460 -0.031461 -646552.000000 0 0 1
20.972916 12.591032 -30.661290 39.223870 0.540675 2.468183 0.169430 -0.032238 146081.000000 0 0 1
20.243516 11.731232 -29.792800 37.881825 0.525214 2.475864 0.153941 -0.019501 365109.000000 0 0 1
18.953516 12.299232 -29.128600 36.864376 0.575613 2.481859 0.136315 -0.008636 620220.000000 0 0 1
17.859416 12.543632 -29.994710 37.094259 0.612304 2.512578 0.104329 -0.003319 338874.000000 0 0 1
16.697216 12.886232 -29.259700 36.069128 0.657282 2.517018 0.099023 -0.008953 -90805.900000 0 0 1
15.564416 13.503432 -30.148510 36.517480 0.714614 2.542045 0.095330 -0.007396 441337.000000 0 0 1
14.842916 12.562232 -30.973080 36.571211 0.702368 2.580972 0.080632 -0.008455 25957.900000 0 0 1
13.708916 12.058432 -30.307130 35.381666 0.721432 2.599396 0.063961 -0.011652 -259971.000000 0 0 1
12.718416 11.445932 -31.358230 35.722626 0.732787 2.642099 0.071676 -0.008738 137096.000000 0 0 1
12.172716 12.411532 -32.224200 36.614481 0.795112 2.646857 0.073453 -0.008822 -444243.000000 0 0 1
11.132416 11.841732 -32.948850 36.739407 0.816263 2.683338 0.077137 -0.005669 -130510.000000 0 0 1
10.519716 12.865032 33.852743 37.711824 0.885356 0.456345 0.087523 -0.014623 -80671.300000 0 0 1
11.390516 13.031332 32.761656 37.052471 0.852484 0.486026 0.076515 -0.007988 239864.000000 0 0 1
10.714616 13.174432 31.548373 35.828320 0.888005 0.493790 0.070219 -0.023737 -180380.000000 0 0 1
11.736116 13.269832 30.348903 35.140871 0.846655 0.528359 0.081884 -0.019758 465198.000000 0 0 1
12.228016 11.972032 29.986133 34.525673 0.774821 0.518594 0.082535 -0.020059 222220.000000 0 0 1
12.203816 11.840832 28.627863 33.297042 0.770303 0.535973 0.101744 -0.021295 -307368.000000 0 0 1
12.813316 10.524132 28.074593 32.605540 0.687620 0.533490 0.121410 -0.010927 9258.840000 0 0 1
12.203716 9.298532 28.507863 32.374244 0.651101 0.493728 0.119887 -0.023351 457032.000000 0 0 1
12.804616 8.164832 27.833933 31.707263 0.567643 0.499461 0.109012 -0.025178 -103031.000000 0 0 1
12.020716 6.854132 28.001303 31.233791 0.518214 0.458976 0.097473 -0.020900 298232.000000 0 0 1
10.674316 6.878832 27.525983 30.314008 0.572448 0.432243 0.091839 -0.025563 315308.000000 0 0 1
9.944216 5.668432 27.679053 29.952438 0.518086 0.392122 0.085034 -0.029942 56518.200000 0 0 1
10.446616 4.359932 27.001903 29.278722 0.395376 0.396971 0.084816 -0.023473 -340492.000000 0 0 1
11.429816 3.781132 27.833723 30.325794 0.319481 0.408234 0.089878 -0.023320 151825.000000 0 0 1
11.688916 2.453432 27.460123 29.945091 0.206891 0.410263 0.077356 -0.020606 -173634.000000 0 0 1
12.220416 1.568832 28.563593 31.107534 0.127680 0.407231 0.075100 -0.019649 -807705.000000 0 0 1
11.179916 1.281832 29.409943 31.489338 0.114156 0.365444 0.065662 -0.020905 -298369.000000 0 0 1
11.345316 0.084132 30.103673 32.170707 0.007415 0.360422 0.072296 -0.024912 -28371.300000 0 0 1
10.206016 -0.082068 31.118343 32.749363 -0.008041 0.316929 0.083730 -0.021377 -116559.000000 0 0 1
10.387316 0.790432 32.221519 33.863659 0.075950 0.312697 0.065200 -0.030288 410054.000000 0 0 1
9.152216 1.046232 32.869936 34.136350 0.113821 0.273241 0.086812 -0.030005 -59562.700000 0 0 1
9.284716 2.277932 33.804333 35.130156 0.240590 0.275609 0.083234 -0.036469 -114746.000000 0 0 1
9.368016 3.548232 33.243004 34.719548 0.362063 0.292686 0.059194 -0.031574 -173383.000000 0 0 1
10.258116 3.794032 32.210187 34.016463 0.354254 0.327343 0.068696 -0.034421 -802474.000000 0 0 1
10.140816 5.100132 31.453193 33.438763 0.465990 0.346342 0.068826 -0.029057 -105668.000000 0 0 1
10.540316 6.233832 32.157494 34.410222 0.534092 0.363851 0.067810 -0.030732 67441.300000 0 0 1
10.746116 7.401532 31.385773 33.990123 0.603145 0.394004 0.076387 -0.029260 -221446.000000 0 0 1
10.980616 8.663832 32.349581 35.243883 0.668005 0.408097 0.087417 -0.026074 316058.000000 0 0 1
9.869516 9.165332 33.105049 35.740103 0.748421 0.386400 0.086605 -0.028365 471145.000000 0 0 1
9.253816 8.311232 -33.738550 35.958301 0.731787 2.788387 0.073889 -0.029688 1278760.000000 0 0 1
7.737516 8.696232 -33.449950 35.417407 0.843670 2.806712 0.079261 -0.032448 1396190.000000 0 0 1
7.077916 7.819432 -32.541930 34.208443 0.835132 2.828169 0.081233 -0.025171 671797.000000 0 0 1
5.694216 8.116432 -32.326030 33.812317 0.959020 2.843993 0.073165 -0.030482 989139.000000 0 0 1
5.071516 7.340932 -31.130520 32.383928 0.966235 2.862462 0.077742 -0.026790 92657.800000 0 0 1
5.758216 7.797332 -29.928020 31.458573 0.934705 2.828375 0.085278 -0.031286 506279.000000 0 0 1
5.313016 7.324732 -28.646030 30.041219 0.943257 2.835630 0.079145 -0.035359 371726.000000 0 0 1
3.871016 7.748932 -28.201280 29.501574 1.107505 2.843589 0.069701 -0.035015 726217.000000 0 0 1
2.882716 7.053132 -28.964070 29.949525 1.182800 2.884354 0.051731 -0.031811 9979.780000 0 0 1
1.588316 7.261332 -28.417600 29.373622 1.355452 2.885760 0.065854 -0.022382 179851.000000 0 0 1
0.478216 6.583932 -29.251670 29.987281 1.498290 2.919639 0.063987 -0.038762 -628518.000000 0 0 1
0.192616 7.222832 -30.437670 31.283512 1.544135 2.908523 0.068028 -0.041888 27937.900000 0 0 1
-0.039284 6.348132 -31.519910 32.152838 -1.564608 2.942847 0.096152 -0.053094 -821744.000000 0 0 1
-0.065284 7.023232 -32.921540 33.662410 -1.561501 2.931402 0.111806 -0.055198 -48873.900000 0 0 1
1.210716 7.517932 -33.282510 34.142504 1.411124 2.916671 0.075489 -0.037553 498473.000000 0 0 1
2.181716 6.562232 -33.714060 34.415993 1.249827 2.939280 0.081684 -0.042194 -187194.000000 0 0 1
2.069316 6.197132 32.607987 33.256087 1.248522 0.197746 0.099239 -0.044547 -651224.000000 0 0 1
0.848816 5.593532 32.273796 32.765928 1.420196 0.173536 0.112432 -0.046831 -374853.000000 0 0 1
0.550016 5.542632 30.880453 31.378746 1.471886 0.178450 0.143109 -0.045753 17094.200000 0 0 1
1.404816 4.591432 30.001193 30.382994 1.273876 0.158699 0.145994 -0.049835 76481.200000 0 0 1
1.111216 4.837132 28.609133 29.036445 1.344988 0.171771 0.126519 -0.046042 105404.000000 0 0 1
1.696016 3.870532 27.794743 28.114147 1.157810 0.150881 0.104831 -0.033576 -82101.200000 0 0 1
1.466416 4.198332 26.316463 26.689560 1.234758 0.167403 0.099470 -0.030908 -48728.400000 0 0 1
2.302716 5.270932 26.008663 26.637113 1.158914 0.217653 0.105214 -0.030707 -57513.400000 0 0 1
2.145016 5.772232 24.695813 25.451973 1.215001 0.244367 0.091129 -0.032549 -620442.000000 0 0 1
2.827316 7.211032 24.470493 25.667056 1.197134 0.306547 0.089354 -0.027432 -112542.000000 0 0 1
4.224716 7.244132 24.405133 25.805740 1.042828 0.330978 0.080796 -0.017052 -412197.000000 0 0 1
4.724416 6.786732 23.153043 24.585428 0.962676 0.343034 0.070065 -0.021224 -799319.000000 0 1 0
6.266016 6.689932 23.052703 24.808170 0.818106 0.378450 0.080055 -0.021980 122132.000000 0 1 0
6.899716 5.821132 24.007043 25.648193 0.700812 0.359670 0.091921 -0.020872 140735.000000 0 0 1
6.489316 4.453932 24.127103 25.378452 0.601505 0.315335 0.090092 -0.027513 -938544.000000 0 0 1
6.681016 3.549032 22.925503 24.141464 0.488304 0.318737 0.091070 -0.022977 -61492.200000 0 1 0
5.907316 3.770432 21.755673 22.856550 0.568081 0.311629 0.055183 -0.019167 -364224.000000 0 1 0
4.596316 3.270632 21.908973 22.623578 0.618454 0.252010 0.053309 -0.031294 -519424.000000 0 1 0
3.616816 3.735932 20.838773 21.477733 0.801597 0.244535 0.026560 -0.031187 -175865.000000 0 1 0
3.370516 5.133232 20.990473 21.870309 0.989791 0.284613 0.028277 -0.025967 -872556.000000 0 1 0
2.266216 5.512232 20.275073 21.132890 1.180736 0.285899 0.034606 -0.025405 -1084040.000000 0 1 0
1.950116 7.001732 20.373373 21.631032 1.299161 0.342677 0.043272 -0.018881 66684.600000 0 1 0
2.840216 7.891932 19.714473 21.424516 1.225339 0.402249 0.046477 -0.014846 -64243.100000 0 1 0
2.509016 9.097232 20.265373 22.354869 1.301687 0.435805 0.053437 -0.010538 468741.000000 0 1 0
3.410816 10.276132 19.740373 22.514771 1.250322 0.501683 0.076029 -0.019805 -406869.000000 0 1 0
3.121116 10.542232 18.378273 21.415904 1.282960 0.539121 0.041128 -0.011245 477995.000000 0 1 0
3.998516 11.436332 17.621073 21.384107 1.234449 0.602314 0.041545 -0.017934 1184230.000000 0 1 0
5.520816 11.062932 17.684773 21.578209 1.107919 0.610143 0.047906 -0.020901 246955.000000 0 1 0
5.906016 9.736232 17.201273 20.629082 1.025537 0.584775 0.038579 -0.016304 240622.000000 0 1 0
7.228416 9.519832 17.685573 21.346117 0.921369 0.594346 0.036813 -0.002434 402871.000000 0 1 0
7.504816 8.046532 18.081573 21.166300 0.820218 0.546666 0.047203 -0.008105 -106368.000000 0 1 0
6.828516 7.744032 19.275373 21.866382 0.848140 0.491752 0.053162 -0.011257 -192508.000000 0 1 0
6.991816 6.423032 19.643773 21.817852 0.743024 0.450216 0.056693 -0.022729 17906.300000 0 1 0
8.351416 5.866032 20.133473 22.572400 0.612335 0.469154 0.084221 -0.016454 182821.000000 0 1 0
9.312516 5.726432 19.103273 22.010226 0.551316 0.519783 0.076601 -0.016824 19122.700000 0 1 0
10.519116 5.033232 19.369273 22.608715 0.446287 0.541925 0.103821 -0.019934 425497.000000 0 1 0
10.409616 3.488732 19.221473 22.135862 0.323380 0.518949 0.106255 -0.027560 -471652.000000 0 1 0
9.557116 2.938632 20.161573 22.504734 0.298306 0.460385 0.119223 -0.033767 -139619.000000 0 1 0
9.731016 1.543932 20.167873 22.445924 0.157349 0.454435 0.111981 -0.035252 160573.000000 0 1 0
8.861516 0.903132 21.291173 23.079345 0.101566 0.396235 0.108259 -0.035455 -26383.800000 0 1 0
9.335116 1.093732 22.627873 24.502271 0.116631 0.393687 0.134294 -0.034296 270129.000000 0 1 0
8.681916 0.226132 23.537813 25.088951 0.026040 0.353478 0.121385 -0.036564 -616902.000000 0 0 1
9.340916 0.329332 24.930753 26.625244 0.035242 0.358689 0.129874 -0.034481 -44270.900000 0 0 1
10.662316 -0.170268 25.002043 27.181173 -0.015968 0.403151 0.129467 -0.036194 242532.000000 0 0 1
10.701716 -1.588668 24.918883 27.166180 -0.147374 0.409611 0.134999 -0.038958 -1269640.000000 0 0 1
12.117816 -2.106368 24.783903 27.668034 -0.172104 0.460660 0.142512 -0.038830 -701226.000000 0 0 1
12.256016 -3.506268 24.683663 27.781056 -0.278643 0.476715 0.143512 -0.026871 -1080980.000000 0 0 1
13.573416 -3.854968 24.841733 28.569391 -0.276722 0.516561 0.141127 -0.022532 -1073660.000000 0 0 1
13.767416 -5.401568 24.858093 28.924790 -0.373889 0.536693 0.148253 -0.023868 -5822.820000 0 0 1
13.415516 -6.022468 23.618013 27.821875 -0.421954 0.556894 0.154542 -0.037832 174479.000000 0 0 1
13.260016 -7.376968 23.754333 28.187161 -0.507691 0.568451 0.156276 -0.035849 -32083.300000 0 0 1
12.589616 -8.077068 22.575373 27.081081 -0.570423 0.585164 0.138063 -0.029982 34552.600000 0 0 1
12.244016 -9.395368 22.939973 27.648350 -0.654509 0.592217 0.155200 -0.024401 -262068.000000 0 0 1
12.443516 -10.235168 21.816873 27.121499 -0.688329 0.636110 0.157784 -0.029318 -20705.000000 0 0 1
11.964416 -11.674168 22.005873 27.634976 -0.773120 0.649634 0.187006 -0.026337 -817531.000000 0 0 1
10.594816 -11.634568 22.179273 27.194364 -0.832138 0.617060 0.176641 -0.020068 -1304610.000000 0 0 1
10.023616 -12.899168 22.246173 27.599885 -0.910191 0.633393 0.160628 -0.020878 235315.000000 0 0 1
8.513316 -12.959568 22.600573 27.408263 -0.989576 0.601320 0.114779 -0.014821 953768.000000 0 0 1
7.668016 -12.455668 21.530073 26.028565 -1.018967 0.596742 0.102770 -0.020974 -969287.000000 0 0 1
6.327816 -12.537868 21.798873 25.931260 -1.103399 0.572331 0.054861 -0.016088 -1016970.000000 0 0 1
5.502116 -11.501668 21.020973 24.585422 -1.124597 0.545211 0.030073 -0.003533 -467501.000000 0 1 0
5.750916 -10.253768 21.585473 24.579370 -1.059654 0.498722 0.039364 0.000589 -96794.700000 0 1 0
5.147316 -9.246068 20.790373 23.328614 -1.062821 0.470821 0.024272 -0.006627 -22548.100000 0 1 0
5.432816 -7.932168 21.502973 23.554461 -0.970270 0.420452 0.038077 -0.026691 -54283.400000 0 1 0
4.834416 -6.863168 20.866873 22.492244 -0.957123 0.382495 0.027347 -0.032769 -311567.000000 0 1 0
5.076216 -5.684468 21.580073 22.886256 -0.841863 0.339482 0.043430 -0.028504 8442.410000 0 1 0
-8.237484 -15.524768 -20.518750 27.016544 1.082967 2.433323 0.054014 -0.000922 28811.600000 0 0 1
-7.618484 -14.835268 -19.416150 25.595182 1.096377 2.431937 0.038005 0.000787 -287872.000000 0 0 1
-6.703084 -13.903168 -19.892950 25.178539 1.121550 2.481729 0.045153 -0.005252 -445313.000000 0 0 1
-6.035484 -13.188668 -18.701250 23.666532 1.141618 2.481929 0.034634 -0.008154 -196016.000000 0 1 0
-5.272884 -14.129068 -17.989950 23.474926 1.213610 2.443932 0.039789 -0.001420 -176322.000000 0 1 0
-4.747984 -13.686768 -16.752650 22.147736 1.236883 2.428595 0.050627 -0.009564 -3334.460000 0 1 0
-3.719284 -14.678868 -16.184350 22.163831 1.322642 2.389432 0.044810 -0.001009 -227176.000000 0 1 0
-2.511184 -14.688068 -16.884650 22.519697 1.401466 2.418515 0.041811 -0.011190 -7186.240000 0 1 0
-1.510984 -15.568568 -16.352050 22.628586 1.474046 2.378393 0.048519 0.001246 1336130.000000 0 1 0
-0.133884 -15.705268 -17.123950 23.235813 1.562272 2.399364 0.059291 -0.001935 1176490.000000 0 1 0
-0.144584 -16.483268 -18.343150 24.661512 1.562025 2.409529 0.102355 -0.012905 -247399.000000 0 1 0
-0.356084 -17.856968 -18.072250 25.408744 1.550858 2.362087 0.092692 -0.007710 -104030.000000 0 0 1
-0.640484 -18.616368 -19.450050 26.931093 1.536406 2.377796 0.106648 -0.020310 380618.000000 0 0 1
-1.960184 -18.324968 -19.889150 27.115033 1.464234 2.394268 0.117933 -0.019508 197514.000000 0 0 1
-2.065284 -18.543668 -21.257950 28.284862 1.459879 2.421230 0.129210 -0.033192 602671.000000 0 0 1
-3.245384 -17.678568 -21.856350 28.297779 1.389241 2.453360 0.130095 -0.032315 642768.000000 0 0 1
-3.088284 -16.243668 -21.851150 27.401952 1.382916 2.493821 0.120927 -0.020256 -311018.000000 0 0 1
-3.444084 -15.631468 -20.656550 26.132308 1.353931 2.482356 0.090103 -0.011047 -344986.000000 0 0 1
-2.670084 -14.374668 -20.288450 25.007631 1.387140 2.517152 0.088622 -0.012699 -219361.000000 0 0 1
-2.849184 -13.376868 -21.344550 25.350508 1.360939 2.571734 0.081799 -0.018752 -258168.000000 0 0 1
-1.958784 -12.317768 -21.318350 24.698912 1.413096 2.612230 0.076472 -0.008267 -370403.000000 0 1 0
-2.142884 -11.423668 -22.608150 25.420869 1.385368 2.666727 0.094052 -0.004941 -387463.000000 0 0 1
-3.264484 -10.602568 -22.603250 25.178923 1.272112 2.685329 0.084365 -0.010533 -356607.000000 0 0 1
-3.217684 -9.830568 -23.778550 25.930927 1.254473 2.731279 0.100359 -0.016449 -283785.000000 0 0 1
-4.284684 -8.748168 -23.709250 25.632352 1.115358 2.751763 0.081801 -0.017585 -473120.000000 0 0 1
-5.604784 -9.232468 -23.858050 26.188902 1.025192 2.716495 0.064772 -0.017536 -300825.000000 0 0 1
-6.373884 -8.089668 -23.829550 25.959903 0.903474 2.733645 0.076098 -0.023084 -1063970.000000 0 0 1
-7.881584 -8.307268 -23.539350 26.176918 0.811687 2.688827 0.050790 -0.025462 425257.000000 0 0 1
-8.736084 -8.569368 -24.649050 27.519609 0.775765 2.680778 0.048766 -0.026017 98904.800000 0 0 1
-8.880784 -7.569268 -25.605390 28.138907 0.705839 2.713993 0.039814 -0.028520 -592404.000000 0 0 1
-10.027484 -7.848368 -26.603750 29.494182 0.664094 2.695176 0.038685 -0.033131 92620.800000 0 0 1
-10.375584 -6.712568 -27.386620 30.045603 0.574234 2.717717 0.041303 -0.038659 361044.000000 0 0 1
-11.132284 -7.061768 -28.563690 31.459190 0.565295 2.709187 0.051682 -0.032182 637746.000000 0 0 1
-11.973584 -5.925768 -29.295310 32.197773 0.459562 2.713731 0.048311 -0.037894 355314.000000 0 0 1
-11.221384 -5.091768 -30.144730 32.566091 0.425973 2.753540 0.024180 -0.030945 213397.000000 0 0 1
-12.093684 -4.402468 -31.027970 33.591276 0.349119 2.748402 0.056221 -0.043109 318542.000000 0 0 1
-11.364984 -3.226268 -31.777560 33.902580 0.276601 2.785654 0.043509 -0.040586 146511.000000 0 0 1
-10.279984 -3.724368 -32.523850 34.312531 0.347584 2.817283 0.037960 -0.022059 140498.000000 0 0 1
-9.573984 -2.734668 -33.249210 34.708061 0.278227 2.850629 0.037166 -0.020895 -484444.000000 0 0 1
-8.482284 -3.272768 33.664487 34.870587 0.368236 0.263777 0.038020 -0.023823 -663259.000000 0 0 1
-7.313884 -3.677168 -33.499700 34.485422 0.465857 2.901922 0.051004 -0.027416 -278648.000000 0 0 1
-6.212784 -3.930268 33.463736 34.261747 0.564053 0.216253 0.052147 -0.025273 886062.000000 0 0 1
-4.811484 -3.385568 33.882713 34.389689 0.613167 0.171921 0.082261 -0.032467 647921.000000 0 0 1
-4.773484 -1.982668 33.829493 34.222094 0.393669 0.151619 0.109247 -0.049743 91012.800000 0 0 1
-3.431284 -1.556468 -33.855470 34.064485 0.425853 3.030758 0.112763 -0.045941 121176.000000 0 0 1
-3.286284 -0.200968 -33.162320 33.325358 0.061077 3.042635 0.123077 -0.051792 -18788.600000 0 0 1
-3.831584 -0.179268 -31.853860 32.083976 0.046753 3.021752 0.114779 -0.047164 189168.000000 0 0 1
-4.320484 1.086432 -31.448760 31.762736 -0.246353 3.000870 0.143305 -0.051674 -286170.000000 0 0 1
-4.982684 1.026132 -30.037490 30.465240 -0.203100 2.973821 0.128559 -0.059945 855753.000000 0 0 1
-5.995684 0.031932 -29.841380 30.437759 -0.005326 2.943311 0.119010 -0.058732 164114.000000 0 0 1
-7.284584 0.338332 -30.302290 31.167425 -0.046412 2.905427 0.127673 -0.059879 15620.500000 0 0 1
-8.264284 -0.899468 -30.212570 31.335392 0.108411 2.873084 0.103693 -0.055044 420371.000000 0 0 1
-8.588584 -1.186968 -28.827100 30.102730 0.137333 2.849433 0.090666 -0.051297 536130.000000 0 0 1
-9.605784 -2.208568 -28.805400 30.445031 0.225993 2.811908 0.036390 -0.034115 350155.000000 0 0 1
-10.002784 -2.686068 -27.415300 29.306472 0.262343 2.780380 0.029195 -0.034672 -536651.000000 0 0 1
-10.837384 -1.816268 -26.747550 28.916762 0.166050 2.751790 0.036414 -0.030162 -261121.000000 0 0 1
-11.073584 -2.334468 -25.470120 27.871150 0.207772 2.723469 0.037532 -0.028379 -443781.000000 0 0 1
-11.936784 -1.433268 -24.628950 27.406682 0.119499 2.687473 0.048798 -0.025837 -153201.000000 0 0 1
-11.325384 -0.174568 -24.274850 26.787369 0.015413 2.705017 0.058536 -0.028942 303742.000000 0 0 1
-12.075284 0.488632 -23.278650 26.228739 -0.040443 2.662741 0.072281 -0.029854 374565.000000 0 0 1
-11.327184 1.794032 -22.807050 25.528125 -0.157078 2.675673 0.082354 -0.036437 357271.000000 0 0 1
-11.141384 2.828032 -23.775250 26.408156 -0.248581 2.691253 0.068141 -0.032216 -712051.000000 0 0 1
-10.324484 3.789132 -23.307950 25.772330 -0.351743 2.700718 0.086717 -0.031617 -1235760.000000 0 0 1
-10.236884 5.041332 -24.192050 26.748160 -0.457603 2.700857 0.113338 -0.040791 344300.000000 0 0 1
-11.405984 5.828332 -24.408850 27.565519 -0.472400 2.658333 0.101824 -0.036959 485801.000000 0 0 1
-12.374984 5.299832 -25.308800 28.666423 -0.404637 2.652741 0.082817 -0.035094 813873.000000 0 0 1
-13.736984 6.077832 -25.407280 29.515667 -0.416552 2.607649 0.075563 -0.024850 844350.000000 0 0 1
-13.605084 7.286932 -26.085250 30.309040 -0.491723 2.607326 0.081169 -0.027421 -437784.000000 0 0 1
-14.898384 7.780032 -26.236110 31.158052 -0.481255 2.571837 0.082740 -0.019004 -524077.000000 0 0 1
-14.991184 9.339432 -26.215810 31.610588 -0.557156 2.548715 0.100855 -0.023598 -203635.000000 0 0 1
-14.792184 9.836832 -24.902350 30.589197 -0.586849 2.521956 0.128412 -0.034276 -20339.000000 0 0 1
-15.061184 11.197032 -24.773050 31.079202 -0.639287 2.493264 0.105773 -0.027400 -233562.000000 0 0 1
-14.700484 11.714932 -23.419550 30.030304 -0.672853 2.465245 0.106906 -0.033158 32554.400000 0 0 1
-15.531984 11.142932 -22.430550 29.470952 -0.622321 2.435815 0.120518 -0.031479 64069.600000 0 0 1
-15.251584 11.736032 -21.192250 28.626154 -0.655862 2.404329 0.114000 -0.023924 81527.300000 0 0 1
-16.419584 11.598932 -20.156550 28.467955 -0.615014 2.357520 0.112486 -0.027263 773873.000000 0 0 1
-17.556684 12.374832 -20.535650 29.716772 -0.613974 2.333731 0.089826 -0.025450 139062.000000 0 0 1
-18.358384 12.738832 -19.450150 29.624592 -0.606618 2.287038 0.085878 -0.017493 131135.000000 0 0 1
-19.788884 13.174332 -19.887450 30.994735 -0.587364 2.267430 0.077103 -0.025540 218461.000000 0 0 1
-19.841584 14.433332 -20.508650 31.978340 -0.628898 2.267026 0.058034 -0.029719 -432082.000000 0 0 1
-21.110784 14.964932 -20.338050 32.912773 -0.616658 2.236914 0.050931 -0.037350 -686982.000000 0 0 1
-21.334884 16.268032 -21.130250 34.151334 -0.651459 2.237914 0.055522 -0.035685 -118846.000000 0 0 1
-21.379184 16.095832 -22.504550 34.965698 -0.645338 2.270012 0.066917 -0.035359 211679.000000 0 0 1
-21.570184 17.296932 -23.225050 36.108996 -0.675893 2.269457 0.068172 -0.023002 36035.700000 0 0 1
-20.933284 17.197932 -24.668950 36.640528 -0.687749 2.309418 0.066496 -0.014745 -253463.000000 0 0 1
-19.538584 17.001632 -24.687050 35.780751 -0.716080 2.332221 0.064209 -0.020685 -283748.000000 0 0 1
-19.007084 17.025532 -25.990440 36.423082 -0.730460 2.365378 0.038742 -0.020733 -191442.000000 0 0 1
-18.797884 18.437432 -26.699780 37.499034 -0.775718 2.363156 0.040680 -0.017838 -1146610.000000 0 0 1
-19.962984 19.165832 -26.958180 38.634095 -0.765028 2.343093 0.047422 -0.019950 69100.800000 0 0 1
-19.647184 20.538332 -27.117360 39.283408 -0.807570 2.332701 0.042216 -0.019016 -218019.000000 0 0 1
-20.934984 21.375732 -27.253500 40.471579 -0.795815 2.309593 0.080224 -0.020882 -16177.600000 0 0 1
-21.667284 21.524532 -26.072780 40.156774 -0.782093 2.277427 0.101827 -0.014826 -418953.000000 0 0 1
-22.839384 20.775932 -26.008890 40.370028 -0.738123 2.270855 0.132286 -0.023531 -1033330.000000 0 0 1
-23.597884 21.100432 -24.763050 40.190758 -0.729583 2.234626 0.137215 -0.010437 -523020.000000 0 0 1
-23.046384 20.590032 -23.561250 38.861520 -0.729166 2.222180 0.104556 -0.009302 -256088.000000 0 0 1
-23.931584 20.645732 -22.482350 38.786892 -0.711820 2.189080 0.098005 -0.020692 -85371.800000 0 0 1
-23.305384 20.100132 -21.180450 37.359974 -0.711688 2.173569 0.069928 -0.022700 -48572.800000 0 0 1
-22.286484 20.866632 -20.585850 36.822288 -0.752507 2.164047 0.078061 -0.025757 -192732.000000 0 0 1
-21.516884 20.092932 -19.658550 35.400011 -0.751190 2.159551 0.075025 -0.023573 -199781.000000 0 0 1
-22.135484 19.548832 -18.337750 34.762186 -0.723424 2.126475 0.078152 -0.026118 -820117.000000 0 0 1
-23.093784 18.506932 -18.629650 34.969890 -0.675583 2.132624 0.098090 -0.034956 514236.000000 0 0 1
-23.947484 18.177832 -17.556150 34.815714 -0.649281 2.099320 0.080660 -0.028555 -307806.000000 0 0 1
-24.984284 19.230132 -17.170450 35.900373 -0.655984 2.069492 0.072433 -0.026688 -1848270.000000 0 0 1
-26.039734 19.255132 -18.063150 37.082411 -0.636716 2.079572 0.078938 -0.020477 -816874.000000 0 0 1
-26.936744 20.298932 -17.771050 38.124074 -0.645787 2.055716 0.073769 -0.019775 -1584560.000000 0 0 1
-28.210144 20.052732 -18.604250 39.294305 -0.617960 2.064010 0.064197 -0.010567 45029.000000 0 0 1
-29.010394 18.985832 -18.027450 39.077535 -0.579497 2.050285 0.057873 -0.014497 437974.000000 0 0 1
-29.480284 19.120432 -16.664450 38.889355 -0.575379 2.013639 0.075934 -0.023540 -912656.000000 0 0 1
-30.581024 18.072132 -16.334350 39.097467 -0.533745 2.001803 0.080163 -0.024873 -43782.500000 0 0 1
-30.066234 16.754532 -16.267250 38.069885 -0.508396 2.012300 0.113336 -0.044807 551324.000000 0 0 1
-31.024244 15.787832 -15.831450 38.241262 -0.470732 1.997628 0.111297 -0.038855 324640.000000 0 0 1
-30.304814 14.420632 -15.741650 37.069339 -0.444144 2.009376 0.155237 -0.036348 174388.000000 0 0 1
-29.459354 14.259832 -14.610650 35.842258 -0.450807 1.990662 0.155656 -0.036641 391515.000000 0 0 1
-30.191544 14.042632 -13.408450 35.895840 -0.435355 1.953616 0.131621 -0.022108 261005.000000 0 0 1
-29.434084 14.740832 -12.258450 35.127297 -0.464294 1.927270 0.151832 -0.038064 217048.000000 0 0 1
-29.522274 16.154532 -12.339450 35.844045 -0.500689 1.922240 0.147667 -0.029577 -388743.000000 0 0 1
-30.568814 16.706232 -11.607450 36.718980 -0.500162 1.892429 0.102896 -0.020006 -302817.000000 0 0 1
-30.461184 18.261032 -11.328150 37.278358 -0.540041 1.879559 0.159467 -0.003160 -318437.000000 0 0 1
-29.367324 18.680132 -10.576350 36.376452 -0.566531 1.865804 0.097260 -0.024310 -582807.000000 0 0 1
-29.357004 20.093832 -10.531850 37.101424 -0.600223 1.858620 0.051783 -0.015249 307766.000000 0 0 1
-28.012134 20.874032 -10.387750 36.445990 -0.640408 1.859821 0.117369 -0.014141 619530.000000 0 0 1
-28.275834 22.274932 -10.447050 37.481145 -0.667241 1.853266 0.093326 -0.020966 -120133.000000 0 0 1
-27.045784 22.951532 -10.425250 36.972058 -0.703691 1.856650 0.086676 -0.015256 -255226.000000 0 0 1
-27.157454 24.400532 -9.871850 37.820189 -0.731977 1.834876 0.105784 0.000589 57041.300000 0 0 1
-27.468704 24.432332 -8.487950 37.729482 -0.726962 1.797707 0.097608 -0.006818 -432945.000000 0 0 1
-28.839994 24.474932 -8.232150 38.710927 -0.703707 1.785090 0.106888 -0.013615 -661991.000000 0 0 1
-29.102474 23.980132 -6.820250 38.321228 -0.689198 1.749725 0.105619 -0.002796 -142484.000000 0 0 1
-28.671014 22.639732 -6.609450 37.125050 -0.668391 1.749783 0.131726 -0.021463 410935.000000 0 0 1
-29.021864 22.169732 -5.314950 36.905478 -0.652336 1.715314 0.105215 -0.007836 -314572.000000 0 0 1
-29.057294 20.589732 -5.319450 36.007776 -0.616468 1.719070 0.136154 -0.029081 622527.000000 0 0 1
-27.794754 19.893832 -5.272850 34.584908 -0.621212 1.723854 0.148410 -0.033840 971265.000000 0 0 1
-27.075574 19.827532 -6.515950 34.185894 -0.632079 1.762573 0.136156 -0.021776 -502881.000000 0 0 1
-27.643544 18.928932 -7.667350 34.369438 -0.600418 1.795776 0.157806 -0.028237 -414729.000000 0 0 1
-27.328654 17.588532 -7.420750 33.335856 -0.571858 1.795283 0.146842 -0.025534 311772.000000 0 0 1
-27.524884 16.739632 -8.581550 33.338829 -0.546401 1.831131 0.114362 -0.031567 -38150.100000 0 0 1
-27.250914 15.268932 -8.428550 32.354181 -0.510724 1.834346 0.166041 -0.035170 -220747.000000 0 0 1
-28.310174 14.617432 -7.806050 32.803501 -0.476627 1.811065 0.158202 -0.030402 -285785.000000 0 0 1
-28.294054 13.202532 -8.043450 32.242168 -0.436588 1.822929 0.159572 -0.040707 218707.000000 0 0 1
-29.277984 12.367032 -7.155850 32.578367 -0.399667 1.792252 0.138564 -0.034945 392606.000000 0 0 1
-30.642214 12.609432 -7.506950 33.974952 -0.390385 1.793590 0.150603 -0.030697 350173.000000 0 0 1
-31.510914 11.782332 -6.756650 34.313457 -0.357817 1.769001 0.167611 -0.035929 -117438.000000 0 0 1
-31.826484 10.400632 -7.354850 34.281074 -0.315852 1.787023 0.139386 -0.024879 -360939.000000 0 0 1
-30.711864 9.536732 -7.497050 33.020806 -0.301083 1.799834 0.143551 -0.021330 100381.000000 0 0 1
-31.124954 8.297932 -8.013250 33.193834 -0.260541 1.814613 0.144719 -0.025422 127534.000000 0 0 1
-29.972094 7.316832 -8.410650 31.978141 -0.239438 1.836940 0.172266 -0.030395 123020.000000 0 0 1
-29.595774 7.420232 -9.764150 32.036047 -0.245656 1.880510 0.157057 -0.038790 379535.000000 0 0 1
-28.637404 6.406032 -10.069650 31.024764 -0.220072 1.901351 0.172119 -0.042340 -61647.600000 0 0 1
-28.058114 6.615532 -11.493450 31.034213 -0.231551 1.950180 0.140899 -0.036274 -114356.000000 0 0 1
-27.190984 7.693832 -11.734750 30.598186 -0.275747 1.964392 0.167338 -0.036793 143911.000000 0 0 1
-26.394884 7.522832 -12.857650 30.308449 -0.277649 2.008904 0.147858 -0.025758 -328913.000000 0 0 1
-32.661054 25.780432 -33.803740 53.610334 -0.668202 2.253052 0.045963 0.003348 -34859.500000 0 0 1
-32.970414 27.149932 -33.837830 54.490052 -0.688885 2.240803 0.045433 -0.011648 225354.000000 0 0 1
-32.979284 27.575032 32.581390 53.940361 -0.696388 0.922253 0.047734 -0.018217 -116305.000000 0 0 1
-33.465544 28.991432 32.324454 54.820764 -0.713885 0.940185 0.067371 -0.022474 -133324.000000 0 0 1
-33.240704 29.347632 30.980463 54.092671 -0.723277 0.960965 0.090633 -0.022053 209785.000000 0 0 1
-33.614414 30.720532 30.772783 54.960387 -0.740447 0.976521 0.107721 -0.026926 44823.600000 0 0 1
-33.338464 31.115132 29.302993 54.205812 -0.750917 0.999661 0.115723 -0.038596 1311150.000000 0 0 1
-31.916864 31.102032 29.015783 53.178363 -0.772469 0.993654 0.100032 -0.031341 1174950.000000 0 0 1
-31.632604 31.643532 27.734733 52.641715 -0.785571 1.015896 0.103869 -0.037776 -482046.000000 0 0 1
-30.156884 31.831432 27.392403 51.701272 -0.812406 1.012407 0.129060 -0.030111 -713148.000000 0 0 1
-29.639314 30.616332 26.836903 50.359389 -0.801611 1.008763 0.157177 -0.031219 387558.000000 0 0 1
-28.433734 30.819132 26.111603 49.397489 -0.825634 1.013844 0.124431 -0.024176 -22944.600000 0 0 1
-28.615484 31.459332 24.731343 49.195273 -0.832701 1.044056 0.134592 -0.039306 -427196.000000 0 0 1
-28.928994 32.811432 24.764643 50.266931 -0.848199 1.055649 0.115945 -0.033868 -724660.000000 0 0 1
-30.045494 33.209332 24.049223 50.832633 -0.835374 1.077983 0.126883 -0.031712 -668842.000000 0 0 1
-30.414874 -33.075042 24.468153 51.163595 0.827273 1.072154 0.124951 -0.030433 -213275.000000 0 0 1
-30.952434 -33.008742 25.773343 52.075862 0.817536 1.053055 0.127520 -0.038888 201296.000000 0 0 1
-30.901274 -31.716242 26.431263 51.569569 0.798412 1.032661 0.094981 -0.035425 -307525.000000 0 0 1
-31.178374 -31.773242 27.918493 52.545905 0.794847 1.010643 0.108752 -0.038292 750046.000000 0 0 1
-32.570504 -32.013642 28.175453 53.661598 0.776776 1.018013 0.103660 -0.046845 700328.000000 0 0 1
-32.739734 -32.399842 29.511633 54.704446 0.780180 1.000984 0.088564 -0.039800 170892.000000 0 0 1
-34.182869 -32.889442 29.785673 56.012233 0.766116 1.010106 0.099764 -0.045489 257379.000000 0 0 1
-34.451673 -33.104742 31.099443 57.008921 0.765463 0.993788 0.100475 -0.044364 182790.000000 0 0 1
-35.854058 -33.242242 31.307453 58.057874 0.747616 1.001255 0.095823 -0.051908 520927.000000 0 0 1
-36.293944 -33.696942 32.739135 59.368217 0.748310 0.986684 0.114736 -0.044279 320064.000000 0 0 1
-35.836636 32.633932 32.955084 58.611224 -0.738657 0.973673 0.090389 -0.033339 -73936.100000 0 0 1
-36.414674 32.123132 -33.701200 59.107486 -0.722864 2.177507 0.117835 -0.038636 -92485.800000 0 0 1
-35.932924 30.721232 -33.256260 57.800934 -0.707367 2.183839 0.086441 -0.031298 83227.900000 0 0 1
-34.756969 30.877432 -32.486810 56.717330 -0.726359 2.180695 0.096257 -0.026231 -329280.000000 0 0 1
-34.390060 29.585832 -32.016070 55.525007 -0.710445 2.185365 0.066169 -0.020719 26780.400000 0 0 1
-33.849464 29.723632 -30.571940 54.441932 -0.720590 2.167056 0.062476 -0.021212 -622422.000000 0 0 1
-34.760254 29.932432 -29.574570 54.579125 -0.710909 2.143452 0.074189 -0.026791 -960718.000000 0 0 1
-35.040854 31.284932 -29.275680 55.350464 -0.728830 2.128118 0.068650 -0.019862 564503.000000 0 0 1
-36.147274 31.298432 -28.154960 55.488008 -0.713629 2.102968 0.079169 -0.017087 581228.000000 0 0 1
-35.697690 30.974532 -26.862470 54.363030 -0.714675 2.087632 0.081032 -0.034197 -201128.000000 0 0 1
-36.802914 30.603332 -26.070800 54.504174 -0.693683 2.069545 0.124026 -0.034564 -12693.800000 0 0 1
-36.517694 30.338332 -24.533750 53.440259 -0.693232 2.047764 0.115780 -0.039732 -311916.000000 0 0 1
-36.111464 31.458732 -23.826650 53.492045 -0.716649 2.032444 0.114030 -0.041862 -114719.000000 0 0 1
-36.038544 31.294632 -22.382350 52.717172 -0.715060 2.009288 0.105489 -0.043608 102994.000000 0 0 1
-37.336324 30.959432 -21.579750 53.086468 -0.692296 1.989418 0.090214 -0.038038 1136120.000000 0 0 1
36.582901 31.922532 -21.554450 53.122039 0.717474 1.988599 0.088717 -0.045213 854862.000000 0 0 1
36.804641 33.197232 -20.921250 53.799038 0.733911 1.970209 0.089573 -0.048381 -478778.000000 0 0 1
37.054361 33.111432 -19.360850 53.331371 0.729263 1.942313 0.078143 -0.039947 -109235.000000 0 0 1
-36.799434 32.337632 -19.205050 52.618958 -0.720952 1.944411 0.075214 -0.044537 -298784.000000 0 0 1
-36.609504 32.198732 -17.760250 51.888733 -0.721383 1.920134 0.068415 -0.037123 -409210.000000 0 0 1
-35.549276 31.168832 -17.498850 50.412864 -0.719836 1.925285 0.090393 -0.043461 -451440.000000 0 0 1
-35.170047 31.012232 -16.136050 49.588939 -0.722657 1.902227 0.049721 -0.026810 389699.000000 0 0 1
-34.022992 30.164132 -16.005750 48.203972 -0.725352 1.909264 0.074536 -0.030337 268923.000000 0 0 1
-33.556634 29.925132 -14.536150 47.253157 -0.728255 1.883490 0.063250 -0.020115 -461371.000000 0 0 1
-34.482281 29.258132 -13.734450 47.262047 -0.703621 1.865652 0.057542 -0.012959 -121919.000000 0 0 1
-33.952764 29.081132 -12.460050 46.408569 -0.708266 1.842617 0.082598 -0.012185 -410875.000000 0 0 1
-34.804648 28.058832 -11.764750 46.228464 -0.678498 1.828118 0.080385 -0.021166 -409684.000000 0 0 1
-34.418030 27.756032 -10.487550 45.442126 -0.678655 1.803685 0.112569 -0.018971 218383.000000 0 0 1
-35.240173 26.750032 -9.940550 45.345877 -0.649286 1.791807 0.114940 -0.030933 -201913.000000 0 0 1
-34.425784 26.008832 -8.925550 44.059725 -0.647015 1.774787 0.140824 -0.023579 -288450.000000 0 0 1
-34.078494 26.906832 -7.922850 44.137206 -0.668339 1.751280 0.125046 -0.023428 71171.700000 0 0 1
-32.891364 26.480632 -7.300250 42.852764 -0.677839 1.741988 0.107483 -0.030773 -219364.000000 0 0 1
-32.522784 27.282032 -6.033150 42.877029 -0.697991 1.711973 0.098637 -0.033360 40477.300000 0 0 1
-31.395594 26.676432 -5.430650 41.554871 -0.704312 1.701857 0.103108 -0.024207 101892.000000 0 0 1
-31.131414 27.156932 -4.125650 41.517284 -0.717317 1.670332 0.096038 -0.016459 246363.000000 0 0 1
-30.377064 26.130832 -3.221650 40.199073 -0.710395 1.651025 0.101509 -0.015122 7028.050000 0 0 1
-31.174254 25.086132 -2.758450 40.109315 -0.677604 1.639624 0.093493 -0.001144 -421760.000000 0 0 1
-30.386244 24.066632 -2.159650 38.822554 -0.669859 1.626454 0.120952 -0.015568 205927.000000 0 0 1
-31.089514 22.803432 -1.604050 38.589213 -0.632842 1.612376 0.123013 -0.023665 -81305.800000 0 0 1
-31.704514 21.924732 -2.530950 38.629986 -0.605021 1.636361 0.121795 -0.026477 -272412.000000 0 0 1
-32.611544 21.073932 -1.915950 38.875369 -0.573707 1.620101 0.121397 -0.023755 -509060.000000 0 0 1
-33.244424 20.195032 -2.955850 39.009846 -0.545895 1.646641 0.144909 -0.021505 200100.000000 0 0 1
-32.248214 19.427432 -3.661850 37.825673 -0.542208 1.667757 0.148804 -0.023811 621090.000000 0 0 1
-32.800654 18.623632 -4.715750 38.012641 -0.516393 1.695174 0.138746 -0.026004 519813.000000 0 0 1
-31.645554 17.885532 -5.491150 36.762563 -0.514425 1.720725 0.134902 -0.041509 420246.000000 0 0 1
-31.114694 16.929032 -4.588150 35.717887 -0.498290 1.699607 0.177299 -0.042040 113329.000000 0 0 1
-30.370584 15.957532 -5.365450 34.724678 -0.483782 1.725932 0.175445 -0.042218 300216.000000 0 0 1
-29.769724 14.777032 -4.539550 33.544070 -0.460746 1.706544 0.192895 -0.042420 114941.000000 0 0 1
-30.781124 14.126932 -3.795750 34.080134 -0.430270 1.682405 0.187638 -0.046739 602341.000000 0 0 1
-30.275594 12.875932 -3.386850 33.073735 -0.402117 1.673379 0.208967 -0.052259 582807.000000 0 0 1
-31.457614 12.079132 -2.750350 33.809042 -0.366621 1.652236 0.185765 -0.055120 -104128.000000 0 0 1
-32.405444 11.601332 -3.617550 34.609108 -0.343789 1.675514 0.147634 -0.034399 -87935.500000 0 0 1
-33.383564 10.869832 -2.864250 35.225268 -0.314778 1.652199 0.150760 -0.033647 389940.000000 0 0 1
-34.489034 10.176932 -3.726050 36.151720 -0.286934 1.674047 0.129284 -0.022082 -146402.000000 0 0 1
-34.059300 9.271732 -4.689450 35.608873 -0.265783 1.702873 0.142628 -0.023085 111331.000000 0 0 1
-35.083027 8.605832 -5.436150 36.529862 -0.240549 1.720165 0.136327 -0.025026 -76265.100000 0 0 1
-34.620984 7.538332 -6.417950 36.008736 -0.214392 1.749987 0.147316 -0.026189 -341797.000000 0 0 1
-34.120627 6.339932 -5.800950 35.186119 -0.183714 1.736417 0.155109 -0.030712 515524.000000 0 0 1
-33.687854 5.432432 -6.792250 34.792492 -0.159882 1.767280 0.162202 -0.033880 175294.000000 0 0 1
-32.495234 4.544132 -6.314450 33.413495 -0.138939 1.760919 0.179955 -0.034919 38817.000000 0 0 1
-31.193364 5.054732 -6.446350 32.251073 -0.160649 1.772032 0.190762 -0.037863 405527.000000 0 0 1
-30.273974 4.014932 -6.099550 31.142217 -0.131851 1.767932 0.186065 -0.039705 28748.800000 0 0 1
-28.779154 4.309332 -5.900650 29.692216 -0.148634 1.770855 0.212837 -0.039700 -309509.000000 0 0 1
-28.138504 4.439932 -7.130250 29.365436 -0.156498 1.816059 0.205405 -0.033902 1248270.000000 0 0 1
-26.718234 4.694632 -6.895750 27.990265 -0.173933 1.819722 0.222634 -0.043499 1668870.000000 0 0 1
-25.948314 5.008132 -8.211150 27.673441 -0.190660 1.872048 0.200544 -0.040300 -221534.000000 0 0 1
-25.862834 3.862132 -9.049950 27.671354 -0.148236 1.903978 0.193461 -0.055692 402904.000000 0 0 1
-24.887684 4.056932 -10.060850 27.149147 -0.161588 1.950426 0.182005 -0.057652 61874.300000 0 0 1
-25.269544 3.372732 -11.358050 27.909326 -0.132686 1.989923 0.164058 -0.057156 501847.000000 0 0 1
-26.372564 3.996132 -12.032750 29.262062 -0.150382 1.994574 0.154630 -0.045200 480772.000000 0 0 1
-26.802884 3.302232 -13.109050 30.019102 -0.122587 2.022713 0.153634 -0.043989 301017.000000 0 0 1
-27.825604 4.066132 -14.017150 31.420983 -0.145102 2.033208 0.132891 -0.036296 -121104.000000 0 0 1
-27.152474 4.979132 -14.837250 31.339952 -0.181362 2.063976 0.101318 -0.027960 390400.000000 0 0 1
-27.938824 5.780532 -15.748350 32.588387 -0.204021 2.075160 0.140230 -0.025735 67143.000000 0 0 1
-28.860934 5.128332 -16.792550 33.782289 -0.175856 2.091028 0.076964 -0.016894 -231960.000000 0 0 1
-30.071244 4.598332 -16.301450 34.513209 -0.151739 2.062723 0.091668 -0.021043 -288807.000000 0 0 1
-30.770474 4.004432 -17.365450 35.558633 -0.129411 2.081007 0.085833 -0.010868 -311948.000000 0 0 1
-32.167284 3.537832 -16.940450 36.527103 -0.109542 2.053051 0.088066 -0.006977 -470589.000000 0 0 1
-32.107214 2.478732 -16.019450 35.967208 -0.077049 2.032407 0.108696 -0.023548 214236.000000 0 0 1
-31.963624 1.179132 -16.567850 36.021622 -0.036873 2.048726 0.139206 -0.033217 -163366.000000 0 0 1
-32.013224 0.068832 -15.532350 35.582371 -0.002150 2.022521 0.149510 -0.030123 -401832.000000 0 0 1
-31.776294 -1.155168 -16.175550 35.675141 0.036337 2.041386 0.157922 -0.017507 312644.000000 0 0 1
-31.881964 -2.192468 -15.225150 35.398753 0.068660 2.015404 0.178356 -0.036288 -153391.000000 0 0 1
-31.634874 -3.606568 -15.822450 35.554500 0.113516 2.031992 0.161411 -0.026059 619659.000000 0 0 1
-32.670924 -3.887968 -16.782250 36.934394 0.118447 2.042472 0.166865 -0.031371 989070.000000 0 0 1
-32.238304 -4.929168 -17.642250 37.079022 0.151723 2.066671 0.159771 -0.027482 267575.000000 0 0 1
-33.176164 -4.859168 -18.859650 38.470193 0.145432 2.083162 0.168440 -0.030403 57107.200000 0 0 1
-32.865454 -5.920868 -19.744650 38.794921 0.178243 2.104760 0.157101 -0.025634 459644.000000 0 0 1
-33.803194 -6.126668 -20.789550 40.154668 0.179299 2.115000 0.151025 -0.025174 -254505.000000 0 0 1
-33.441834 -7.354168 -21.628750 40.499912 0.216464 2.134173 0.144295 -0.027676 -191975.000000 0 0 1
-32.329504 -7.002868 -22.422750 39.962691 0.213314 2.166501 0.145397 -0.019869 -8931.150000 0 0 1
-32.102274 -7.953368 -23.404050 40.516189 0.242861 2.186639 0.134323 -0.011171 506891.000000 0 0 1
-30.768344 -7.798468 -24.224050 39.928832 0.248230 2.222675 0.122573 -0.000573 441635.000000 0 0 1
-30.782014 -6.610668 -25.017150 40.213071 0.211544 2.242237 0.113684 0.000269 26033.900000 0 0 1
-30.772404 -6.830168 -26.443890 41.144518 0.218417 2.268823 0.096532 0.000795 204991.000000 0 0 1
-32.173794 -6.996768 -27.100560 42.644438 0.214134 2.259453 0.119565 0.001093 237520.000000 0 0 1
-32.815944 -8.186568 -26.667220 43.070253 0.244479 2.238464 0.116917 -0.010192 45113.100000 0 0 1
-34.041582 -8.413668 -27.344470 44.467281 0.242303 2.233099 0.111933 -0.013494 543017.000000 0 0 1
-34.954276 -9.475268 -26.691080 44.988841 0.264715 2.205926 0.091783 -0.018421 -474943.000000 0 0 1
-34.437058 -10.719168 -26.947450 45.021956 0.301762 2.212474 0.096652 -0.010691 80479.400000 0 0 1
-35.274017 -11.866968 -26.715540 45.812676 0.324528 2.193394 0.076996 -0.014579 739107.000000 0 0 1
-36.580434 -12.030468 -27.576240 47.363586 0.317735 2.192258 0.064736 -0.009962 1636740.000000 0 0 1
37.349891 -11.071768 -27.291560 47.564983 -0.288182 2.181903 0.064207 -0.024236 1737360.000000 0 0 1
36.411541 -10.977268 -28.388280 47.457298 -0.292812 2.212032 0.065165 -0.023202 925593.000000 0 0 1
35.415641 -9.751868 -28.338270 46.394224 -0.268696 2.227885 0.077851 -0.021296 702301.000000 0 0 1
34.270761 -9.940568 -27.519280 45.062298 -0.282313 2.227733 0.057209 -0.022731 313498.000000 0 0 1
33.507161 -8.761568 -27.352500 44.132234 -0.255757 2.239265 0.047944 -0.019431 -600081.000000 0 0 1
32.259191 -8.951868 -26.528510 42.714788 -0.270687 2.240893 0.047098 -0.012068 -813291.000000 0 0 1
32.401891 -9.223168 -25.139660 42.035126 -0.277315 2.211879 0.035015 -0.003378 -341165.000000 0 0 1
31.215881 -9.712068 -24.582250 40.902842 -0.301632 2.215537 0.024564 -0.001059 -370784.000000 0 0 1
31.284161 -9.824068 -23.044650 40.078260 -0.304275 2.183390 0.014404 0.001411 242304.000000 0 0 1
32.245641 -10.752868 -22.543450 40.787408 -0.321871 2.156404 -0.009703 0.005717 472992.000000 0 0 1
32.481061 -10.688668 -21.173350 40.219121 -0.317912 2.125216 -0.006679 0.005434 -15548.800000 0 0 1
33.372291 -11.834568 -20.659550 40.994924 -0.340787 2.098967 0.019326 -0.001844 1735900.000000 0 0 1
34.806291 -11.727268 -20.935050 42.276270 -0.324984 2.088857 0.028722 -0.005060 1793420.000000 0 0 1
35.579061 -12.463468 -19.987150 42.669588 -0.336945 2.058294 0.053578 -0.010190 388003.000000 0 0 1
37.097871 -12.458168 -20.339950 44.104098 -0.323986 2.050121 0.065797 -0.024250 54094.500000 0 0 1
-37.179034 -11.238968 -20.172850 43.766869 0.293559 2.049823 0.098045 -0.022153 347278.000000 0 0 1
-37.387634 -10.335168 -21.225650 44.217407 0.269698 2.071484 0.107032 -0.018828 -452996.000000 0 0 1
-36.705074 -10.657968 -22.639650 44.423062 0.282597 2.105560 0.082111 -0.023910 190431.000000 0 0 1
-37.179874 -11.777868 -23.372850 45.468135 0.306780 2.110695 0.066940 -0.017798 504001.000000 0 0 1
36.519181 -11.634968 -23.915250 45.177010 -0.308431 2.128651 0.067091 -0.013749 285988.000000 0 0 1
36.134711 -12.844068 -24.824650 45.683155 -0.341521 2.145289 0.051831 -0.022157 -241140.000000 0 0 1
36.006541 -14.140368 -24.257550 45.660154 -0.374212 2.130887 0.034997 -0.026633 413926.000000 0 0 1
34.971241 -14.279868 -23.303550 44.384206 -0.387668 2.123560 0.010991 -0.017594 -334350.000000 0 0 1
-30.437474 8.212432 -18.766250 36.688636 -0.263538 2.107726 0.063164 0.004449 740352.000000 0 0 1
-29.236324 7.512332 -19.137150 35.741128 -0.251511 2.135822 0.057085 0.003633 904338.000000 0 0 1
-28.421944 8.348832 -19.986850 35.734914 -0.285709 2.164348 0.079615 -0.013481 425884.000000 0 0 1
-27.038064 7.762632 -20.361950 34.726421 -0.279580 2.197346 0.069632 -0.013793 -461381.000000 0 0 1
-26.167374 7.753232 -19.288250 33.419764 -0.288053 2.186032 0.077090 -0.019297 -220628.000000 0 0 1
-25.112324 6.832532 -19.495850 32.517695 -0.265648 2.213730 0.089251 -0.021187 386911.000000 0 0 1
-23.706884 7.183532 -18.934050 31.178802 -0.294220 2.223420 0.064307 -0.018913 389433.000000 0 0 1
-23.172084 8.218632 -19.728150 31.522869 -0.340836 2.246999 0.063794 -0.017754 508838.000000 0 0 1
-21.852884 8.579232 -19.268450 30.371449 -0.374103 2.258063 0.059522 -0.012569 793841.000000 0 0 1
-21.196084 9.587232 -20.216650 30.820479 -0.424774 2.286235 0.059443 -0.011845 -573803.000000 0 0 1
-20.537084 9.034832 -21.319150 30.950059 -0.414446 2.330662 0.090576 -0.021478 -49276.900000 0 0 1
-20.073584 10.051232 -22.151450 31.538274 -0.464223 2.349514 0.077031 -0.021727 -406631.000000 0 0 1
-19.069584 9.544932 -23.184050 31.500078 -0.464073 2.397939 0.103451 -0.020538 -314891.000000 0 0 1
-19.576984 8.709832 -24.172650 32.302267 -0.418606 2.416332 0.103106 -0.022671 -283204.000000 0 0 1
-18.526784 8.197932 -24.925650 32.120645 -0.416592 2.459097 0.100428 -0.015953 -514587.000000 0 0 1
-19.099884 7.318432 -26.031190 33.105707 -0.365911 2.475602 0.085422 -0.009160 160535.000000 0 0 1
-19.687684 6.179432 -25.372620 32.704130 -0.304135 2.458815 0.094715 -0.002763 352599.000000 0 0 1
-20.436984 5.301232 -26.207290 33.654055 -0.253800 2.463429 0.081459 -0.002904 -283333.000000 0 0 1
-20.945684 4.049732 -25.422300 33.187578 -0.190988 2.443421 0.067208 0.004447 522545.000000 0 0 1
-19.992684 3.012932 -25.063600 32.202006 -0.149576 2.462789 0.070287 0.003961 658060.000000 0 0 1
-18.962184 3.445832 -24.198850 30.935780 -0.179760 2.469031 0.069820 -0.000876 -48439.300000 0 0 1
-17.987384 2.339532 -23.655750 29.809627 -0.129339 2.487435 0.061086 0.002022 339079.000000 0 0 1
-18.442984 1.517632 -22.547350 29.168988 -0.082103 2.454338 0.072485 0.002842 691658.000000 0 0 1
-19.515584 0.610532 -22.880750 30.079220 -0.031274 2.435161 0.065850 0.004263 679294.000000 0 0 1
-19.989784 -0.189468 -21.629850 29.452975 0.009478 2.395558 0.079670 0.001931 112455.000000 0 0 1
-19.149584 -1.277568 -21.412450 28.754682 0.066616 2.410821 0.099729 -0.008439 394455.000000 0 0 1
-19.801484 -2.036668 -20.401750 28.504003 0.102494 2.368494 0.088854 -0.005540 178726.000000 0 0 1
-19.150984 -3.416668 -20.158550 28.014299 0.176549 2.373995 0.081771 -0.023254 -17778.500000 0 0 1
-19.326784 -4.204468 -21.337050 29.094189 0.214209 2.394075 0.084096 -0.030408 388249.000000 0 0 1
-19.508584 -5.571168 -21.020750 29.214631 0.278171 2.373919 0.084293 -0.027150 -277886.000000 0 0 1
-19.381484 -6.479068 -22.275350 30.229314 0.322613 2.399238 0.069856 -0.032623 -34096.300000 0 0 1
-18.034884 -6.645468 -22.685350 29.732883 0.353041 2.438694 0.077979 -0.026398 138940.000000 0 0 1
-17.863284 -7.698768 -23.573550 30.562725 0.406927 2.451704 0.098352 -0.034007 1198160.000000 0 0 1
-16.502984 -7.570668 -24.384450 30.401725 0.430103 2.501557 0.077694 -0.033880 556047.000000 0 0 1
-16.541084 -8.415268 -25.518060 31.553059 0.470623 2.512794 0.088892 -0.052423 162430.000000 0 0 1
-15.423384 -8.430868 -26.399900 31.716163 0.500251 2.554185 0.099755 -0.046338 -191323.000000 0 0 1
-14.233084 -9.259868 -25.945040 31.007594 0.576788 2.562084 0.076478 -0.038100 -547387.000000 0 0 1
-13.422984 -8.641768 -24.925250 29.599404 0.572007 2.571936 0.065657 -0.028613 353646.000000 0 0 1
-12.841984 -9.685568 -24.136150 29.004836 0.646191 2.553756 0.049289 -0.017598 -52712.200000 0 0 1
-11.986184 -9.170068 -23.001750 27.510711 0.653066 2.560934 0.057865 -0.018172 75886.600000 0 0 1
-12.821784 -8.528168 -22.013050 26.864514 0.586939 2.531177 0.063468 -0.019417 272190.000000 0 0 1
-12.133484 -7.912068 -20.954450 25.473736 0.577840 2.536748 0.068288 -0.020536 -1315700.000000 0 0 1
-12.859884 -7.815068 -19.573150 24.689271 0.546069 2.486152 0.061087 -0.018429 96722.300000 0 1 0
-13.758784 -6.726568 -19.528850 24.817873 0.454722 2.476544 0.053333 -0.013280 567729.000000 0 1 0
-15.020584 -6.966468 -20.189850 26.110910 0.434266 2.454722 0.070711 -0.017755 253116.000000 0 0 1
-16.009484 -5.826568 -19.762450 26.092276 0.349043 2.430128 0.087325 -0.018469 -215751.000000 0 0 1
-16.327284 -5.702768 -18.406250 25.256520 0.336032 2.387324 0.073697 -0.012600 585183.000000 0 0 1
-15.532684 -4.662368 -17.791550 24.073661 0.291608 2.402450 0.075243 -0.016879 -193387.000000 0 1 0
-15.414484 -4.739968 -16.237950 22.885467 0.298324 2.359629 0.091737 -0.013604 829686.000000 0 1 0
-16.537584 -4.147568 -15.503650 23.044677 0.245728 2.308736 0.115980 -0.028218 1034180.000000 0 1 0
-16.678284 -2.740468 -15.530050 22.953382 0.162858 2.313919 0.066572 -0.033171 37253.400000 0 1 0
-17.883984 -2.184068 -14.736150 23.275763 0.121522 2.256362 0.057556 -0.032272 22031.400000 0 1 0
-17.741284 -2.627768 -13.402150 22.389192 0.147047 2.212547 0.095661 -0.039441 373278.000000 0 1 0
-18.654384 -2.119768 -12.460750 22.533303 0.113148 2.156748 0.089443 -0.045165 -278378.000000 0 1 0
-18.228084 -0.790168 -11.763550 21.708720 0.043322 2.143470 0.089155 -0.042391 -7152.910000 0 1 0
-17.820784 0.216032 -12.703250 21.886059 -0.012122 2.190049 0.113293 -0.046575 1016670.000000 0 1 0
-16.823284 1.059632 -12.118150 20.760425 -0.062903 2.194092 0.098130 -0.038589 -417617.000000 0 1 0
-16.362084 2.226032 -13.055850 21.050611 -0.135218 2.239810 0.111334 -0.040243 476539.000000 0 1 0
-15.571584 1.798332 -14.171250 21.131317 -0.114979 2.305851 0.094986 -0.040795 674318.000000 0 1 0
-14.275284 1.299132 -13.898250 19.965791 -0.090756 2.340752 0.086520 -0.033695 -759329.000000 0 1 0
-13.583184 0.398232 -14.924950 20.184538 -0.029310 2.403012 0.074166 -0.036600 -37136.600000 0 1 0
-13.108984 1.008932 -16.136550 20.814698 -0.076814 2.457904 0.084813 -0.048301 172440.000000 0 1 0
-12.900684 0.043932 -17.141150 21.453405 -0.003405 2.496417 0.057745 -0.032914 -208515.000000 0 1 0
-12.365184 0.581832 -18.475250 22.238956 -0.047019 2.551269 0.072770 -0.033793 244844.000000 0 1 0
-11.067784 1.112132 -18.220150 21.347284 -0.100148 2.593484 0.038919 -0.026620 -43485.000000 0 1 0
-10.706384 1.901832 -19.328350 22.177212 -0.175802 2.629133 0.048259 -0.024652 -366195.000000 0 1 0
-9.375784 2.616332 -19.184350 21.512549 -0.272130 2.672049 0.037578 -0.025124 -1355270.000000 0 1 0
-8.265684 1.765632 -19.218850 20.995313 -0.210447 2.727266 0.042268 -0.018713 -541628.000000 0 1 0
-6.995184 2.351632 -19.092150 20.468829 -0.324309 2.772743 0.037981 -0.014700 51610.900000 0 1 0
-6.583184 3.371032 -20.163550 21.477218 -0.473255 2.790026 0.042232 -0.012852 -1284560.000000 0 1 0
-6.359684 2.738932 -21.378450 22.471881 -0.406664 2.828359 0.037019 -0.014091 270985.000000 0 1 0
-6.399084 3.728732 -22.403650 23.596085 -0.527600 2.822322 0.045091 -0.007810 -332596.000000 0 1 0
-5.911784 3.231132 -23.740250 24.677699 -0.500197 2.865076 0.070582 -0.021760 -1170070.000000 0 1 0
-4.567784 2.924132 -23.700150 24.312801 -0.569430 2.916625 0.074795 -0.022728 -817613.000000 0 1 0
-4.159384 2.328132 -24.977350 25.428108 -0.510283 2.953022 0.103859 -0.030022 659621.000000 0 0 1
-2.782784 1.593132 -24.846250 25.052307 -0.519950 3.013246 0.076383 -0.028830 741429.000000 0 0 1
-1.670384 2.464732 -24.703050 24.881836 -0.975184 3.021642 0.075856 -0.028587 784703.000000 0 1 0
-0.356984 1.908332 -24.775750 24.851699 -1.385868 3.063392 0.076614 -0.020653 1053770.000000 0 1 0
0.285116 1.012032 -23.639450 23.662820 1.296188 3.097144 0.077830 -0.021353 -249589.000000 0 1 0
-0.210984 -0.328068 -23.519750 23.522984 0.999279 3.125010 0.064396 -0.024868 -300724.000000 0 1 0
0.586616 -1.138568 -22.726950 22.763011 -1.095045 3.085296 0.066038 -0.017834 -701204.000000 0 1 0
0.092316 -2.570768 -22.761750 22.906650 -1.534902 3.029055 0.076047 -0.019090 59670.600000 0 1 0
-1.045384 -2.912668 -21.975650 22.192468 1.226207 3.001694 0.067222 -0.021613 367169.000000 0 1 0
-2.273984 -2.994568 -22.698750 23.008078 0.921326 2.977431 0.081759 -0.022611 323771.000000 0 1 0
-3.083884 -1.707268 -22.768150 23.039395 0.505610 2.987994 0.084066 -0.022791 -1779490.000000 0 1 0
-3.568084 -1.238568 -21.510150 21.839226 0.334110 2.967776 0.059250 -0.020070 240846.000000 0 1 0
-4.382184 -0.072368 -21.603650 22.043739 0.016513 2.941437 0.054549 -0.016431 424814.000000 0 1 0
-5.770784 -0.336168 -22.242350 22.981233 0.058188 2.887328 0.052081 -0.016166 -1144880.000000 0 1 0
-6.569884 -1.180768 -21.475550 22.489038 0.177826 2.840234 0.055630 -0.013879 -472941.000000 0 1 0
-7.903684 -0.716468 -21.523550 22.940025 0.090403 2.788342 0.038566 -0.013550 -261091.000000 0 1 0
-8.837884 -1.892668 -21.258650 23.100229 0.210967 2.739589 0.033845 -0.009431 -398235.000000 0 1 0
-9.083284 -2.843468 -22.301450 24.247598 0.303380 2.738210 0.066602 -0.019293 212208.000000 0 1 0
-9.588884 -4.098868 -21.778750 24.146663 0.403953 2.695028 0.054879 -0.025472 28009.200000 0 1 0
-10.204184 -5.118668 -22.818950 25.515301 0.464946 2.677715 0.041959 -0.023101 154096.000000 0 0 1
-11.566084 -4.822468 -23.027850 26.216643 0.395032 2.643233 0.039246 -0.021628 -58448.400000 0 0 1
-12.163684 -5.404468 -24.175250 27.597213 0.418114 2.638308 0.023463 -0.030268 939519.000000 0 0 1
-13.730584 -5.260268 -24.093850 28.226104 0.365858 2.593657 0.075399 -0.034519 709759.000000 0 0 1
-14.272384 -4.003368 -24.359450 28.515096 0.273470 2.594932 0.063102 -0.034707 -901092.000000 0 0 1
-15.632184 -3.882168 -24.138750 29.019229 0.243420 2.553173 0.062399 -0.038226 -590394.000000 0 0 1
-16.153184 -2.459868 -24.249650 29.240756 0.151123 2.548668 0.069276 -0.027605 -380463.000000 0 0 1
-15.983784 -1.981968 -25.561600 30.212661 0.123369 2.579339 0.069700 -0.022259 -231391.000000 0 0 1
-16.535984 -0.748968 -25.930490 30.763452 0.045262 2.573445 0.054206 -0.013621 1231010.000000 0 0 1
-18.111784 -0.866068 -26.169520 31.837565 0.047782 2.535658 0.066529 -0.008093 1399030.000000 0 0 1
-18.594684 -1.485568 -27.395430 33.143306 0.079723 2.543791 0.068102 -0.019466 86372.700000 0 0 1
-18.485584 -0.708668 -28.606780 34.067093 0.038317 2.567562 0.049978 -0.020521 -110922.000000 0 0 1
-18.538584 -1.526168 -29.860240 35.180139 0.082139 2.584472 0.059841 -0.019890 1503020.000000 0 0 1
-19.909784 -1.965068 -30.060020 36.109081 0.098380 2.554362 0.066164 -0.022260 1232070.000000 0 0 1
-19.940684 -2.658368 -31.257630 37.171726 0.132532 2.569737 0.070507 -0.027506 -449445.000000 0 0 1
-21.357184 -3.050368 -31.749460 38.385703 0.141867 2.544754 0.053529 -0.022045 267721.000000 0 0 1
-22.240084 -1.985568 -32.077150 39.083338 0.089043 2.533497 0.046716 -0.018754 38012.400000 0 0 1
-22.907284 -1.467368 -30.952950 38.535463 0.063969 2.503499 0.039597 -0.007097 -765446.000000 0 0 1
-23.945284 -0.465268 -31.503220 39.573298 0.019428 2.491574 0.030165 -0.004051 -274677.000000 0 0 1
-23.328484 0.603132 -32.185140 39.755064 -0.025848 2.514243 0.030574 0.000083 1011100.000000 0 0 1
-24.301484 1.487532 -32.804350 40.852175 -0.061135 2.503111 0.026227 -0.007073 708299.000000 0 0 1
-23.605584 2.812632 -33.241970 40.867628 -0.118592 2.520780 0.037676 -0.007731 -548815.000000 0 0 1
-23.370384 3.776832 -32.209930 39.973977 -0.160222 2.507775 0.030321 -0.008989 875051.000000 0 0 1
-24.459084 4.305332 -31.411750 40.043485 -0.174237 2.472591 0.028701 -0.010772 366927.000000 0 0 1
-25.665634 4.977032 -32.117250 41.412719 -0.191541 2.458367 0.032123 -0.017630 -414152.000000 0 0 1
-26.577594 4.049532 -32.576910 42.237687 -0.151203 2.451640 0.054669 -0.032855 524012.000000 0 0 1
-27.832874 4.630532 -32.986890 43.407898 -0.164859 2.433999 0.070928 -0.035867 1002800.000000 0 0 1
-28.743784 3.680532 -33.798350 44.520555 -0.127353 2.432822 0.084019 -0.035988 152146.000000 0 0 1
-28.292284 3.595232 32.630981 43.337743 -0.126397 0.718269 0.102032 -0.034726 494901.000000 0 0 1
-29.186834 2.873332 31.790062 43.251998 -0.098130 0.745135 0.114951 -0.041213 -12484.900000 0 0 1
-29.230544 1.329732 31.955067 43.328042 -0.045460 0.741414 0.106237 -0.028217 140818.000000 0 0 1
-29.850644 0.859632 33.189776 44.647073 -0.028790 0.732686 0.111475 -0.021171 461595.000000 0 0 1
-29.893194 -0.544068 32.979858 44.514830 0.018198 0.736426 0.094174 -0.013748 -493995.000000 0 0 1
-29.836224 -1.407668 -33.504100 44.885482 0.047145 2.413485 0.053924 -0.005383 1020100.000000 0 0 1
-28.505224 -1.584468 -32.954840 43.601374 0.055528 2.427704 0.062385 -0.011795 1379870.000000 0 0 1
-27.946684 -0.441668 -32.323870 42.732245 0.015803 2.428631 0.054975 -0.005355 -415909.000000 0 0 1
-28.254324 -0.365168 -30.814280 41.808611 0.012924 2.399464 0.072337 -0.008812 -86463.300000 0 0 1
-27.361784 -1.099668 -29.977770 40.602256 0.040168 2.401384 0.055749 -0.009804 563052.000000 0 0 1
-27.440424 -0.522668 -28.706500 39.715402 0.019045 2.378649 0.062439 -0.011089 -243589.000000 0 0 1
-26.331124 -1.029968 -27.773720 38.285355 0.039096 2.382469 0.057450 -0.005539 -167129.000000 0 0 1
-26.342154 -2.437168 -27.507440 38.164225 0.092257 2.375702 0.050825 -0.000871 398097.000000 0 0 1
-25.321634 -2.720568 -26.559430 36.796602 0.107030 2.377182 0.052475 -0.004416 -209595.000000 0 0 1
-25.636424 -4.004468 -25.787200 36.581985 0.154950 2.353100 0.058814 -0.009360 -637633.000000 0 0 1
-26.809174 -4.067768 -25.072560 36.931176 0.150582 2.317059 0.071965 -0.005399 -912389.000000 0 0 1
-27.022404 -5.190568 -24.299750 36.710082 0.189772 2.294196 0.062850 -0.004406 464412.000000 0 0 1
-27.936694 -5.089468 -23.022750 36.556922 0.180202 2.252064 0.084635 -0.008698 417751.000000 0 0 1
-28.129364 -6.210868 -22.282750 36.419183 0.217310 2.229182 0.096360 -0.014367 170815.000000 0 0 1
-29.013294 -5.881968 -21.211950 36.418616 0.200023 2.192533 0.132678 -0.012096 62150.200000 0 0 1
-29.631604 -6.978768 -20.345450 36.615194 0.231303 2.159948 0.137115 -0.031233 -327127.000000 0 0 1
-28.760154 -7.736668 -19.521850 35.610463 0.262786 2.151013 0.134987 -0.035188 398794.000000 0 0 1
-29.430474 -8.699268 -18.653350 35.913472 0.287403 2.116941 0.139637 -0.033905 698026.000000 0 0 1
-30.187174 -8.124368 -17.394950 35.775062 0.262904 2.078568 0.137742 -0.043330 405737.000000 0 0 1
-29.266354 -7.582968 -16.461950 34.424071 0.253527 2.069412 0.146206 -0.048754 332591.000000 0 0 1
-29.859224 -6.948268 -15.352350 34.286241 0.228632 2.035066 0.144536 -0.050679 -1105660.000000 0 0 1
-28.810484 -6.410368 -14.450350 32.862584 0.218935 2.026084 0.168193 -0.051519 -710117.000000 0 0 1
-27.956094 -5.573868 -15.229250 32.319363 0.196799 2.061460 0.165559 -0.040224 169487.000000 0 0 1
-26.909804 -5.106068 -14.407950 30.948320 0.187518 2.055051 0.163973 -0.058851 -138684.000000 0 0 1
-14.308684 21.258232 -4.891150 26.087817 -0.978361 1.759400 0.096306 -0.036455 -160535.000000 0 0 1
-14.580984 20.564732 -6.126550 25.943167 -0.954037 1.809201 0.124647 -0.042217 218240.000000 0 0 1
-15.527184 19.508032 -6.031250 25.652149 -0.898537 1.808135 0.096492 -0.042230 26325.900000 0 0 1
-15.697284 18.704332 -7.366950 25.505464 -0.872587 1.863809 0.125393 -0.051092 551961.000000 0 0 1
-14.487784 18.007432 -7.775750 24.384950 -0.893290 1.895339 0.104257 -0.044649 599985.000000 0 1 0
-14.582784 17.101032 -8.872950 24.162618 -0.864712 1.946813 0.084210 -0.047707 -405314.000000 0 1 0
-14.999984 15.641932 -8.437250 23.256327 -0.806345 1.942060 0.093212 -0.049763 -361515.000000 0 1 0
-16.342284 15.640532 -8.046250 24.009136 -0.763460 1.912543 0.091733 -0.040225 -327786.000000 0 1 0
-16.652984 14.612432 -7.160750 23.283500 -0.720225 1.883409 0.093515 -0.031188 -195658.000000 0 1 0
-18.039584 14.859532 -6.516250 24.263013 -0.689037 1.842702 0.112946 -0.041408 188890.000000 0 1 0
-19.022784 14.525132 -7.493250 25.079764 -0.652126 1.874207 0.107594 -0.038919 594137.000000 0 0 1
-20.319384 15.036732 -7.159450 26.272388 -0.637083 1.846796 0.085702 -0.031513 190089.000000 0 0 1
-21.485584 14.471132 -7.925150 27.089702 -0.592737 1.867691 0.089692 -0.020385 -546695.000000 0 0 1
-21.915084 13.156932 -7.512150 26.642225 -0.540684 1.856637 0.129974 -0.032677 342873.000000 0 0 1
-22.792484 12.632732 -8.516650 27.415626 -0.506100 1.886673 0.140733 -0.033598 365837.000000 0 0 1
-23.322884 11.233632 -8.170150 27.145953 -0.448866 1.876507 0.142672 -0.030565 33493.200000 0 0 1
-22.272184 10.273532 -8.261550 25.881438 -0.432188 1.895689 0.151866 -0.027381 198779.000000 0 0 1
-22.416084 9.217332 -7.422250 25.348172 -0.390118 1.867963 0.158343 -0.035766 -446191.000000 0 0 1
-21.164584 8.349232 -7.212150 23.867643 -0.375748 1.877767 0.124524 -0.021846 -539218.000000 0 1 0
-21.049084 7.238032 -8.136050 23.699121 -0.331198 1.921231 0.130355 -0.027888 762938.000000 0 1 0
-20.009784 6.418332 -7.575750 22.337825 -0.310392 1.916804 0.106144 -0.016773 90387.200000 0 1 0
-19.639484 5.116032 -8.390750 21.961052 -0.254834 1.962836 0.087785 -0.032834 -62993.200000 0 1 0
-20.608084 4.065632 -8.409950 22.626306 -0.194782 1.951624 0.105755 -0.035058 461247.000000 0 1 0
-20.301984 3.052732 -9.411750 22.584746 -0.149248 2.000642 0.094951 -0.034387 373121.000000 0 1 0
-21.279884 1.813532 -9.452750 23.355445 -0.085017 1.987485 0.102364 -0.032089 380255.000000 0 1 0
-21.116884 0.957332 -8.274850 22.700494 -0.045304 1.943917 0.105808 -0.036149 476905.000000 0 1 0
-22.073884 -0.112868 -8.166350 23.536320 0.005113 1.925133 0.132702 -0.036630 98416.600000 0 1 0
-21.869884 -1.301368 -9.110050 23.727165 0.059435 1.964867 0.104478 -0.051649 524167.000000 0 1 0
-20.613484 -1.981068 -8.929050 22.551458 0.095811 1.977889 0.073482 -0.030153 931100.000000 0 1 0
-20.611484 -3.376168 -9.360150 22.887642 0.162359 1.992111 0.065742 -0.028684 128386.000000 0 1 0
-21.599184 -4.443268 -8.743050 23.721473 0.202884 1.948268 0.069834 -0.031962 336693.000000 0 1 0
-21.348984 -4.605268 -7.344950 23.042046 0.212458 1.895220 0.078715 -0.031239 638028.000000 0 1 0
-22.543084 -4.960368 -6.656450 24.022993 0.216588 1.851557 0.133219 -0.035137 145706.000000 0 1 0
-22.869184 -6.430268 -6.637650 24.665894 0.274099 1.843257 0.142399 -0.039882 -495700.000000 0 1 0
-21.815684 -7.123568 -6.030850 23.728473 0.315619 1.827776 0.122277 -0.038227 358976.000000 0 1 0
-21.953284 -8.457368 -6.093750 24.302418 0.367721 1.824248 0.125449 -0.036648 395061.000000 0 1 0
-20.677184 -9.195468 -5.572450 23.305681 0.418451 1.812238 0.106201 -0.041315 846569.000000 0 1 0
-19.481084 -9.224368 -6.360250 22.473415 0.442227 1.857730 0.101544 -0.036431 1045340.000000 0 1 0
-18.479484 -9.927568 -5.595250 21.710706 0.492979 1.831456 0.090867 -0.028347 152598.000000 0 1 0
-17.961084 -11.265668 -6.183050 22.084970 0.560199 1.854555 0.092534 -0.026060 59286.300000 0 1 0
-16.826284 -11.255468 -7.043850 21.434206 0.589562 1.905645 0.094577 -0.028331 648346.000000 0 1 0
-17.007484 -10.635768 -8.292750 21.705846 0.558857 1.962811 0.086028 -0.034756 -407929.000000 0 1 0
-15.893284 -11.109968 -9.226550 21.474568 0.610078 2.014902 0.073717 -0.021577 79542.900000 0 1 0
-16.107984 -12.387168 -9.710150 22.521014 0.655556 2.016574 0.094466 -0.020544 645051.000000 0 1 0
-15.161584 -12.639968 -10.789350 22.495610 0.694945 2.071018 0.085750 -0.007732 901041.000000 0 1 0
-15.385584 -14.076468 -11.341350 23.737930 0.740993 2.068915 0.101300 -0.009870 -158617.000000 0 1 0
-16.109184 -14.006268 -12.497650 24.736058 0.715683 2.100457 0.098980 -0.015930 -329729.000000 0 1 0
-16.211984 -15.283368 -13.130950 25.861778 0.755922 2.103351 0.080663 -0.011488 -69079.800000 0 0 1
-16.701484 -15.140568 -14.547150 26.829013 0.736417 2.143870 0.099469 -0.011914 -100236.000000 0 0 1
-16.914584 -16.425568 -15.163950 28.032977 0.770732 2.142342 0.090055 -0.003156 144178.000000 0 0 1
-17.253584 -16.227368 -16.528050 28.882348 0.754757 2.180049 0.099076 -0.011929 -197292.000000 0 0 1
-17.851284 -17.415368 -17.322350 30.364900 0.773038 2.177878 0.106388 -0.019113 1191890.000000 0 0 1
-19.149684 -17.775868 -16.757750 31.040522 0.748210 2.141075 0.085746 -0.013307 737320.000000 0 0 1
-20.084984 -17.925468 -17.801050 32.273927 0.728645 2.155031 0.093860 -0.014360 986683.000000 0 0 1
-21.572584 -17.691368 -17.307350 32.831467 0.686869 2.126048 0.086742 -0.017254 851388.000000 0 0 1
-21.987484 -16.423968 -16.817950 32.187569 0.641558 2.120575 0.081050 -0.010791 200358.000000 0 0 1
-21.395884 -15.974468 -15.627450 30.938401 0.641331 2.100312 0.069908 -0.011096 -501980.000000 0 0 1
-21.684684 -14.511068 -15.337450 30.266053 0.589744 2.102212 0.086544 -0.023759 -974193.000000 0 0 1
-22.916384 -14.330468 -14.747450 30.789775 0.558842 2.070280 0.098223 -0.024515 -541349.000000 0 0 1
-23.144084 -12.958868 -14.503950 30.231530 0.510428 2.071180 0.109064 -0.031945 -978178.000000 0 0 1
-24.583084 -12.783268 -14.088150 31.084014 0.479521 2.041180 0.140907 -0.042157 -1080900.000000 0 0 1
-24.980484 -13.122868 -12.785250 30.978974 0.483702 1.996221 0.144624 -0.043484 588641.000000 0 0 1
-26.192034 -12.432568 -12.459150 31.556644 0.443179 1.976667 0.147001 -0.049478 647686.000000 0 0 1
-27.041474 -13.168868 -11.301850 32.130860 0.453184 1.930230 0.154827 -0.046177 -3376.840000 0 0 1
-28.156694 -12.368868 -11.069950 32.685350 0.413909 1.916312 0.149869 -0.048772 -86634.600000 0 0 1
-28.989724 -12.797468 -9.967150 33.219322 0.415720 1.875532 0.144181 -0.038821 534543.000000 0 0 1
-29.665604 -11.599768 -9.289350 33.179733 0.372739 1.854560 0.136731 -0.039149 234010.000000 0 0 1
-28.707074 -10.691368 -8.687750 31.841458 0.356515 1.847144 0.141466 -0.047869 436353.000000 0 0 1
-29.329524 -9.548768 -8.121050 31.895946 0.314746 1.828241 0.164877 -0.050988 -117815.000000 0 0 1
-28.422294 -8.375168 -7.674550 30.608315 0.286559 1.824235 0.164437 -0.048508 -248594.000000 0 0 1
-27.799324 -8.614168 -6.451050 29.809769 0.300487 1.788929 0.153842 -0.047645 -392373.000000 0 0 1
-27.101034 -7.545868 -5.860150 28.735823 0.271557 1.776169 0.156973 -0.041860 -325063.000000 0 0 1
-27.842994 -6.255568 -5.493050 29.060936 0.221003 1.760959 0.167745 -0.047391 -655134.000000 0 0 1
-28.634864 -6.238268 -4.299450 29.620207 0.214504 1.716464 0.163891 -0.044235 550217.000000 0 0 1
-28.009164 -6.545368 -2.984750 28.918227 0.229567 1.674194 0.162670 -0.032176 310502.000000 0 0 1
-27.365544 -5.332868 -2.164350 27.964207 0.192463 1.648271 0.184203 -0.035113 375233.000000 0 0 1
-28.351284 -4.438468 -1.737950 28.749187 0.155292 1.631285 0.202918 -0.034031 657024.000000 0 0 1
-27.688054 -3.590068 -0.760750 27.930193 0.128942 1.598037 0.198755 -0.051317 198126.000000 0 0 1
-28.627504 -2.555368 -0.117250 28.741566 0.089027 1.574876 0.205816 -0.051999 568601.000000 0 0 1
-29.706894 -2.996668 0.715850 29.866235 0.100534 1.546825 0.183804 -0.035499 606454.000000 0 0 1
-29.213014 -3.287368 2.015650 29.466418 0.112060 1.502338 0.189566 -0.033296 68246.300000 0 0 1
-30.309044 -3.662568 3.049350 30.681445 0.120258 1.471245 0.157061 -0.032217 100503.000000 0 0 1
-30.756264 -5.014468 2.894450 31.296493 0.161617 1.478179 0.169012 -0.033080 294394.000000 0 0 1
-31.791754 -5.336068 3.810750 32.460916 0.166294 1.453130 0.178752 -0.035083 65044.600000 0 0 1
-32.224634 -6.820668 3.635150 33.138540 0.208582 1.460880 0.190512 -0.033659 -32866.700000 0 0 1
-31.355024 -7.798768 4.145150 32.575153 0.243778 1.443202 0.182385 -0.021111 397548.000000 0 0 1
-31.972204 -9.079868 3.839850 33.457589 0.276707 1.455775 0.201860 -0.021164 303016.000000 0 0 1
-31.036724 -10.277468 4.080650 32.947781 0.319774 1.446625 0.193523 -0.019254 -79789.200000 0 0 1
-30.829194 -10.449068 5.456450 33.005985 0.326783 1.404717 0.165742 -0.014529 -215456.000000 0 0 1
-29.952544 -11.463968 5.784550 32.588932 0.365537 1.392350 0.168560 -0.014975 -423690.000000 0 0 1
-29.963684 -11.805568 7.280850 33.018246 0.375320 1.348459 0.148859 -0.023843 -110683.000000 0 0 1
-29.360544 -10.803168 8.051550 32.304449 0.352574 1.318901 0.135538 -0.014417 262138.000000 0 0 1
-29.426184 -11.137468 9.456650 32.853793 0.361825 1.278825 0.158262 -0.017972 -138946.000000 0 0 1
-29.703414 -9.912568 10.360550 32.983220 0.322097 1.251271 0.167294 -0.026072 43339.900000 0 0 1
-28.625364 -8.993368 10.304150 31.724874 0.304410 1.239999 0.130288 -0.020459 332815.000000 0 0 1
-28.849694 -7.871268 11.161650 31.919338 0.266354 1.213564 0.151537 -0.018536 -319204.000000 0 0 1
-27.823654 -6.739768 11.191450 30.738067 0.237654 1.198140 0.166877 -0.010808 -525876.000000 0 0 1
-27.938404 -5.916768 10.081850 30.285413 0.208695 1.231425 0.198807 -0.004100 183874.000000 0 0 1
-27.379844 -4.641268 10.191650 29.581531 0.167918 1.219061 0.184861 -0.011860 -328045.000000 0 0 1
-27.577214 -3.861968 8.906350 29.235947 0.139137 1.261239 0.194868 -0.016782 65305.300000 0 0 1
-26.640004 -4.213368 7.907350 28.106378 0.156860 1.285610 0.147289 -0.013303 294987.000000 0 0 1
-26.827564 -3.542368 6.674350 27.871374 0.131283 1.328977 0.163799 -0.027836 -341491.000000 0 0 1
-25.985714 -4.119368 5.537150 26.886550 0.157216 1.363367 0.155742 -0.016753 227111.000000 0 0 1
-24.607284 -3.787868 5.717950 25.545280 0.152734 1.345048 0.164602 -0.027701 484703.000000 0 0 1
-23.791684 -4.384568 4.743850 24.653048 0.182245 1.377164 0.153483 -0.017137 -1265030.000000 0 1 0
-22.406084 -3.841868 4.699350 23.213712 0.169814 1.366949 0.147713 -0.016944 -1281460.000000 0 1 0
-22.283384 -2.479968 4.412750 22.851079 0.110836 1.376466 0.131421 -0.020730 -249192.000000 0 1 0
-20.972984 -2.028668 4.222250 21.489740 0.096428 1.373032 0.102913 -0.013417 -556398.000000 0 1 0
-20.686884 -0.561968 4.594050 21.198308 0.027159 1.352345 0.085152 -0.020593 -426356.000000 0 1 0
-20.835584 0.446732 3.593750 21.147959 -0.021438 1.400034 0.097147 -0.021315 -13849.600000 0 1 0
-22.098084 0.926032 3.260050 22.356448 -0.041881 1.424453 0.107176 -0.035519 -690013.000000 0 1 0
-21.964084 2.127232 2.327350 22.189246 -0.096549 1.465717 0.116854 -0.030331 -26285.400000 0 1 0
-21.238384 3.194932 3.007750 21.686934 -0.149312 1.431658 0.085351 -0.033830 627637.000000 0 1 0
-21.195384 4.429432 2.318250 21.777017 -0.206016 1.464140 0.094148 -0.023320 -24118.200000 0 1 0
-20.350284 4.490832 0.997850 20.863780 -0.217196 1.522951 0.070459 -0.009470 -961677.000000 0 1 0
-20.902084 5.222732 -0.064550 21.544795 -0.244853 1.573792 0.105134 -0.005059 371354.000000 0 1 0
-21.998484 4.681432 -0.764750 22.504087 -0.209679 1.604786 0.150908 -0.018812 -186629.000000 0 1 0
-21.655784 3.452032 -1.604450 21.987809 -0.158075 1.643831 0.148022 -0.022429 -503771.000000 0 1 0
-21.259684 2.316132 -0.901250 21.404459 -0.108517 1.612914 0.099715 -0.022810 395318.000000 0 1 0
-20.940184 1.327232 -1.773050 21.056983 -0.063297 1.655099 0.100608 -0.018225 -126097.000000 0 1 0
-20.087584 0.206332 -1.124650 20.120100 -0.010271 1.626722 0.094915 -0.018344 -194314.000000 0 1 0
-20.827184 -0.412568 -0.092450 20.831475 0.019807 1.575234 0.113440 -0.025180 585684.000000 0 1 0
-20.115484 -1.248668 0.805250 20.170282 0.061995 1.530863 0.096356 -0.021813 -230477.000000 0 1 0
-19.361284 -2.499068 0.274450 19.523831 0.128366 1.556739 0.077669 -0.016819 -73154.300000 0 1 0
-18.396484 -2.877968 1.241050 18.661552 0.155183 1.504244 0.053580 -0.015059 -265307.000000 0 1 0
-17.690984 -3.981368 0.902150 18.155883 0.221363 1.521087 0.042231 -0.012246 -667013.000000 0 1 0
-18.374884 -5.385268 0.532450 19.155181 0.285094 1.542996 0.035870 -0.016267 331172.000000 0 1 0
-19.178384 -5.926968 1.610650 20.137864 0.299733 1.490730 0.062705 -0.015882 669189.000000 0 1 0
-19.962084 -7.046068 1.362850 21.212949 0.339321 1.506506 0.071709 -0.020600 -440829.000000 0 1 0
-20.764284 -7.414668 2.629050 22.204610 0.342975 1.452117 0.090246 -0.018462 -545622.000000 0 1 0
-20.066184 -8.195168 3.567850 21.966840 0.387733 1.407654 0.070952 -0.014418 405079.000000 0 1 0
-20.830484 -8.493068 4.685950 22.978237 0.387146 1.365426 0.069677 -0.017095 321656.000000 0 1 0
-19.897784 -9.317068 5.692450 22.696554 0.437924 1.317283 0.061806 -0.009835 284335.000000 0 1 0
-19.453284 -10.529368 5.118550 22.704568 0.496112 1.343400 0.076110 -0.012001 133714.000000 0 1 0
-18.498184 -11.150168 5.943950 22.401777 0.542454 1.302246 0.079495 -0.016947 -205296.000000 0 1 0
-17.949084 -12.455368 5.345450 22.491768 0.606639 1.330838 0.070352 -0.016400 -860944.000000 0 1 0
-18.921784 -13.438868 5.097250 23.761714 0.617561 1.354601 0.100883 -0.017446 -465942.000000 0 1 0
-18.414584 -14.695868 4.788950 24.041620 0.673554 1.370261 0.104839 -0.011289 -555043.000000 0 1 0
-19.343584 -15.909668 4.841150 25.509381 0.688297 1.379859 0.120325 -0.009116 133370.000000 0 0 1
-18.635284 -17.133868 4.554150 25.721266 0.743448 1.392800 0.126075 -0.022453 634399.000000 0 0 1
-19.535184 -18.217068 4.574050 27.099943 0.750497 1.401200 0.132306 -0.019784 477665.000000 0 0 1
-18.737584 -19.585368 4.495450 27.475312 0.807517 1.406440 0.128233 -0.019794 -18974.700000 0 0 1
-18.268584 -19.959768 3.236350 27.250825 0.829608 1.451754 0.127361 -0.025008 457041.000000 0 0 1
-17.486684 -21.168968 3.206250 27.643975 0.880370 1.454551 0.105201 -0.016402 1112340.000000 0 0 1
-15.953884 -20.906068 3.478150 26.527111 0.918950 1.439301 0.093028 -0.013528 512838.000000 0 0 1
-15.259284 -22.169768 3.539250 27.145361 0.967971 1.440043 0.075550 -0.013819 -471029.000000 0 0 1
-13.949384 -21.807568 3.921950 26.182762 1.001726 1.420439 0.063813 -0.014341 -209749.000000 0 0 1
-13.141084 -23.068668 4.348450 26.902798 1.052991 1.408448 0.062752 -0.009088 -275612.000000 0 0 1
-12.797384 -23.809568 3.216850 27.221621 1.077609 1.452347 0.070624 -0.014874 34308.500000 0 0 1
-12.620584 -25.154738 3.588650 28.371084 1.105775 1.443967 0.066105 -0.017904 -148010.000000 0 0 1
19.223616 19.076632 -23.954550 36.156407 0.781561 2.294982 0.074134 -0.012247 -461314.000000 0 0 1
18.602716 19.152532 -25.151480 36.680751 0.799960 2.326342 0.059848 -0.019125 -1195410.000000 0 0 1
19.465516 19.248632 -26.192990 37.887846 0.779796 2.334124 0.082905 -0.024343 -873719.000000 0 0 1
18.843616 19.303532 -27.600470 38.593965 0.797454 2.367635 0.077020 -0.021959 -19747.900000 0 0 1
18.319416 20.599532 -27.837720 39.177549 0.843918 2.361080 0.054115 -0.019812 126524.000000 0 0 1
17.270416 20.511032 -28.784180 39.338260 0.870961 2.391623 0.050807 -0.022156 59863.900000 0 0 1
16.745816 21.926732 -29.225540 40.191244 0.918574 2.384975 0.060793 -0.016736 -318963.000000 0 0 1
16.023916 22.670932 -28.288110 39.635265 0.955518 2.365578 0.050593 -0.024284 301886.000000 0 0 1
15.816716 23.951232 -28.877610 40.715432 0.987164 2.359237 0.050143 -0.018365 -397236.000000 0 0 1
15.105016 24.954232 -27.969060 40.412170 1.026482 2.335184 0.052242 -0.026879 644782.000000 0 0 1
13.693316 24.675832 -27.904220 39.686888 1.064177 2.350557 0.066839 -0.038854 838905.000000 0 0 1
13.055616 25.491632 -26.924560 39.309087 1.097474 2.325324 0.066401 -0.032342 -44530.100000 0 0 1
11.599216 25.024532 -26.594620 38.315047 1.136761 2.337971 0.099218 -0.041863 631884.000000 0 0 1
10.945916 25.799532 -25.598620 37.956795 1.169546 2.310968 0.089681 -0.038525 -47919.200000 0 0 1
10.521616 27.078832 -26.034740 39.009938 1.200195 2.301491 0.104749 -0.048967 -325076.000000 0 0 1
9.726916 27.831532 -24.931050 38.610417 1.234574 2.272746 0.126015 -0.054278 72821.700000 0 0 1
10.648216 28.382932 -24.007850 38.669784 1.211883 2.240613 0.104606 -0.041499 729136.000000 0 0 1
9.971716 29.207732 -23.013450 38.498644 1.241797 2.211517 0.125713 -0.047553 -160702.000000 0 0 1
10.930016 29.654532 -21.947550 38.477935 1.217668 2.177781 0.092275 -0.040504 -296711.000000 0 0 1
11.924816 30.569432 -22.373250 39.714654 1.198863 2.169231 0.074977 -0.041058 314013.000000 0 0 1
12.708816 31.130932 -21.330750 39.820219 1.183209 2.136105 0.064442 -0.030077 -191628.000000 0 0 1
13.899216 31.947932 -21.856950 41.128881 1.160437 2.131079 0.069203 -0.013234 -132165.000000 0 0 1
15.037016 31.146032 -22.097250 41.042364 1.121011 2.139335 0.062094 -0.015275 218002.000000 0 0 1
16.087816 31.972032 -22.619950 42.340179 1.104605 2.134408 0.061278 -0.013624 610663.000000 0 0 1
17.364616 31.243532 -23.131850 42.576645 1.063524 2.145158 0.023566 0.002471 422731.000000 0 0 1
18.226716 30.727232 -22.156350 42.039027 1.035408 2.125913 0.026734 0.009154 -830697.000000 0 0 1
19.317116 30.141132 -22.748650 42.416269 1.000853 2.136866 0.021626 0.009727 -260224.000000 0 0 1
20.315216 29.328132 -21.836550 41.829203 0.964995 2.120038 0.021317 0.010593 585123.000000 0 0 1
21.111116 30.121932 -20.979350 42.345521 0.959497 2.089129 0.031689 0.011635 40267.100000 0 0 1
21.929816 29.339032 -20.151950 41.806659 0.928921 2.073763 0.045270 0.007140 80488.400000 0 0 1
22.516216 30.089432 -18.925650 42.077715 0.928378 2.037314 0.051867 0.001509 411343.000000 0 0 1
23.563416 31.007132 -19.256250 43.445138 0.920967 2.029997 0.048466 -0.001323 504074.000000 0 0 1
24.157116 31.617232 -18.118150 43.720510 0.918364 1.998089 0.054440 -0.005419 -1071530.000000 0 0 1
25.296116 32.525332 -18.409850 45.129960 0.909779 1.990982 0.056823 -0.010242 -754917.000000 0 0 1
26.481216 31.874132 -18.787350 45.499227 0.877552 1.996450 0.050087 -0.005509 -582540.000000 0 0 1
27.599916 32.705232 -18.707050 46.704832 0.869855 1.982900 0.050671 -0.015681 206928.000000 0 0 1
28.922916 32.023532 -19.165650 47.216139 0.836229 1.988774 0.068642 -0.020457 453978.000000 0 0 1
29.457516 31.092932 -18.213850 46.543098 0.812401 1.972876 0.055040 -0.002320 11140.100000 0 0 1
30.656016 30.555432 -18.730550 47.162053 0.783755 1.979209 0.044305 -0.004995 -33953.100000 0 0 1
31.272816 29.456432 -17.805650 46.504963 0.755498 1.963704 0.043980 -0.014260 -178715.000000 0 0 1
31.953816 29.877332 -16.645950 46.805865 0.751828 1.934393 0.044920 -0.008092 48941.800000 0 0 1
31.997616 28.797032 -15.707950 45.824188 0.732801 1.920679 0.042582 -0.007876 -556036.000000 0 0 1
32.486116 29.250632 -14.319950 46.000089 0.733038 1.887360 0.051782 -0.017238 565986.000000 0 0 1
33.870716 29.588232 -14.213350 47.166813 0.718016 1.876896 0.041261 -0.009622 301309.000000 0 0 1
34.117916 30.866232 -14.683650 48.294576 0.735402 1.879731 0.045931 -0.008874 -1114910.000000 0 0 1
35.604816 31.102832 -14.910450 49.572277 0.718012 1.876309 0.064572 -0.026015 -255465.000000 0 0 1
36.253616 31.257432 -13.635750 49.772336 0.711527 1.848307 0.061169 -0.016945 -499726.000000 0 0 1
-37.381309 31.463732 -13.808250 50.773974 -0.699654 1.846221 0.045508 -0.020991 -77264.800000 0 0 1
-36.711409 31.599632 -12.397150 49.999536 -0.710706 1.821355 0.048110 -0.015499 -165992.000000 0 0 1
-37.081209 32.772832 -11.695550 50.851356 -0.723799 1.802869 0.049601 -0.015430 655898.000000 0 0 1
-36.103009 33.031032 -10.680550 50.085432 -0.740992 1.785693 0.032840 -0.006125 308061.000000 0 0 1
-36.379909 -33.286542 -9.999050 50.313742 0.741025 1.770862 0.025861 0.001232 -76856.000000 0 0 1
-35.468409 -32.757942 -9.061750 49.124394 0.745691 1.756324 0.025070 -0.001005 -219989.000000 0 0 1
-35.463109 -33.386242 -7.802650 49.327016 0.755242 1.729646 0.033843 -0.007671 149887.000000 0 0 1
-34.997209 -32.419142 -6.717850 48.176082 0.747176 1.710696 0.042273 -0.011305 -66462.700000 0 0 1
-36.038209 -31.495142 -6.523450 48.303746 0.718228 1.706261 0.045714 -0.010330 -172389.000000 0 0 1
-35.800009 -30.610842 -5.463350 47.418482 0.707419 1.686268 0.059481 -0.014864 -1061950.000000 0 0 1
-37.027409 -29.945042 -4.962850 47.878642 0.680039 1.674638 0.049744 -0.016798 -1323190.000000 0 0 1
37.048916 -30.799342 -4.364650 48.376356 -0.693546 1.661142 0.041397 -0.016378 1095560.000000 0 0 1
35.734716 -30.206242 -4.162850 46.975699 -0.701754 1.659530 0.044071 -0.012582 1178710.000000 0 0 1
35.584216 -29.426242 -2.851550 46.263068 -0.690957 1.632473 0.030773 -0.004809 -286779.000000 0 0 1
36.195416 -28.146842 -2.884850 45.942085 -0.660955 1.633631 0.044119 -0.015446 274138.000000 0 0 1
35.368916 -27.306742 -2.144950 44.734988 -0.657467 1.618763 0.050088 -0.013187 -86975.200000 0 0 1
35.885216 -25.860842 -2.277650 44.291303 -0.624454 1.622243 0.059348 -0.019487 -228893.000000 0 0 1
35.533216 -25.299042 -3.503950 43.759897 -0.618723 1.650954 0.062200 -0.016832 284299.000000 0 0 1
35.508316 -23.907342 -3.490350 42.948621 -0.592573 1.652154 0.068584 -0.021515 -261461.000000 0 0 1
35.062116 -23.297642 -4.838250 42.373822 -0.586479 1.685226 0.076037 -0.021479 173486.000000 0 0 1
36.074716 -23.268142 -5.864350 43.326460 -0.572851 1.706566 0.062709 -0.023579 485181.000000 0 0 1
35.486916 -23.016842 -7.132650 42.894882 -0.575391 1.737854 0.063396 -0.023714 489598.000000 0 0 1
36.510616 -22.879042 -8.326250 43.883961 -0.559778 1.761687 0.076751 -0.032339 693392.000000 0 0 1
37.249016 -24.037942 -8.695650 45.176611 -0.573086 1.764486 0.056679 -0.013283 83349.700000 0 0 1
-36.754009 -23.723242 -9.631150 44.792950 0.573177 1.787503 0.065942 -0.018693 371768.000000 0 0 1
-36.099909 -24.954542 -10.366550 45.093214 0.604838 1.802763 0.051398 -0.014979 -255278.000000 0 0 1
-35.394409 -25.841742 -9.544350 44.851470 0.630648 1.785235 0.056908 0.000904 -177101.000000 0 0 1
-36.126709 -26.759942 -8.756250 45.802898 0.637538 1.763153 0.037016 -0.000377 24361.100000 0 0 1
-35.216509 -27.909342 -8.231150 45.682444 0.670156 1.751968 0.040337 -0.003282 216755.000000 0 0 1
-34.631009 -28.778942 -9.197850 45.957966 0.693369 1.772293 0.044513 0.003372 777217.000000 0 0 1
-33.773709 -29.838142 -8.673650 45.893467 0.723608 1.760935 0.021202 -0.001874 588966.000000 0 0 1
-33.209509 -30.789242 -9.775750 46.329409 0.747599 1.783400 0.022793 0.008469 -52682.900000 0 0 1
-32.439209 -30.169042 -10.786350 45.594064 0.749154 1.809634 0.033168 0.027169 131559.000000 0 0 1
-32.187009 -31.093442 -11.838750 46.292134 0.768119 1.829409 0.042539 0.023304 -176372.000000 0 0 1
-32.105709 -30.431442 -13.247650 46.177369 0.758632 1.861771 0.021024 0.028623 -332136.000000 0 0 1
-31.034409 -29.569342 -13.534350 44.951742 0.761228 1.876628 0.022230 0.022347 -453484.000000 0 0 1
-31.247209 -28.992242 -14.781950 45.115897 0.747982 1.904605 0.016536 0.028078 -635907.000000 0 0 1
-30.170109 -28.033942 -15.179650 43.892586 0.748713 1.923926 0.040032 0.005078 -186942.000000 0 0 1
-28.987209 -28.736642 -15.579050 43.689354 0.781057 1.935408 0.064852 -0.005485 142464.000000 0 0 1
-28.034209 -27.818342 -16.102150 42.650395 0.781533 1.957933 0.082833 0.001025 -56121.800000 0 0 1
-26.769309 -28.535642 -16.608950 42.505717 0.817325 1.972238 0.107558 -0.016381 -491594.000000 0 0 1
-26.872009 -29.159742 -17.880650 43.498425 0.826205 1.994418 0.095998 -0.018518 -193556.000000 0 0 1
-27.041909 -28.289042 -18.978850 43.494039 0.807934 2.022340 0.072516 -0.002251 -649935.000000 0 0 1
-25.811909 -27.541342 -19.443050 42.459537 0.817802 2.046450 0.079530 -0.010001 -602017.000000 0 0 1
-25.475009 -26.434642 -18.634950 41.170714 0.803883 2.040505 0.102419 -0.015967 -76109.300000 0 0 1
-24.090609 -26.166742 -18.751050 40.207682 0.826685 2.055962 0.101772 -0.027937 123642.000000 0 0 1
-23.573109 -25.122742 -17.756750 38.757525 0.817210 2.046709 0.119693 -0.026279 -59645.600000 0 0 1
-23.892909 -25.477842 -16.438750 38.603419 0.817490 2.010683 0.129923 -0.024379 122896.000000 0 0 1
-23.656209 -24.341542 -15.619950 37.364551 0.799676 2.002085 0.138224 -0.021189 4791.990000 0 0 1
-24.174609 -24.464342 -14.161950 37.195114 0.791355 1.961401 0.117594 -0.013586 -50598.200000 0 0 1
-25.576609 -24.381642 -14.110650 38.049150 0.761483 1.950724 0.083969 0.005468 -404084.000000 0 0 1
-26.041409 -23.908042 -12.879850 37.624991 0.742714 1.920183 0.081787 0.011419 -412012.000000 0 0 1
-27.558509 -23.749242 -12.829450 38.575804 0.711291 1.909832 0.079771 0.036319 -1203720.000000 0 0 1
-28.247609 -24.990642 -12.939550 39.873444 0.724297 1.901296 0.091217 0.021468 842287.000000 0 0 1
-29.605709 -24.998842 -12.477150 40.707731 0.701230 1.882316 0.072341 0.026742 1009170.000000 0 0 1
-30.641209 -24.042242 -13.181150 41.117585 0.665303 1.897130 0.081755 0.020660 -1210050.000000 0 0 1
-30.764809 -22.761942 -12.545850 40.273785 0.636986 1.887582 0.096044 0.009994 317227.000000 0 0 1
-31.355009 -22.714942 -11.247950 40.318997 0.626944 1.853522 0.116753 0.000524 -343794.000000 0 0 1
-32.803409 -23.240742 -11.104350 41.707341 0.616398 1.840291 0.093535 -0.001458 -152685.000000 0 0 1
-33.951409 -22.515842 -11.491150 42.328569 0.585584 1.845722 0.124616 -0.028922 269410.000000 0 0 1
-34.110709 -22.315242 -12.860850 42.742390 0.579322 1.876424 0.113029 -0.013347 -1023720.000000 0 0 1
-35.529909 -21.880642 -13.243050 43.778022 0.551983 1.878116 0.068525 -0.023141 -459904.000000 0 0 1
-36.480009 -22.705642 -12.622150 44.784549 0.556737 1.856509 0.071138 -0.016407 -969143.000000 0 0 1
37.260416 -22.314542 -13.022250 45.341552 -0.539596 1.862102 0.085067 -0.029005 -830234.000000 0 0 1
36.178216 -23.356442 -12.729050 44.904514 -0.573272 1.858206 0.060993 -0.005652 -495564.000000 0 0 1
36.287716 -24.564142 -13.435450 45.833467 -0.595072 1.868302 0.035700 0.010456 375797.000000 0 0 1
35.522616 -25.670042 -12.883850 45.681516 -0.625759 1.856712 0.033384 0.005618 424657.000000 0 0 1
35.439116 -26.927542 -13.785350 46.594628 -0.649760 1.871149 0.026898 0.004595 -73107.700000 0 0 1
34.748416 -26.733342 -14.959450 46.323958 -0.655764 1.899621 0.026024 -0.006493 -466739.000000 0 0 1
34.679816 -27.868042 -15.809650 47.215066 -0.676921 1.912235 0.016784 0.012537 390235.000000 0 0 1
33.713316 -27.734142 -17.047750 46.865724 -0.688398 1.943095 0.014443 -0.005339 915887.000000 0 0 1
32.313916 -27.797442 -16.759650 45.801450 -0.710404 1.945417 0.062444 -0.009111 612679.000000 0 0 1
31.621116 -27.706742 -17.995550 45.731809 -0.719515 1.975234 0.054784 -0.014073 -1089580.000000 0 0 1
30.126816 -27.858142 -17.941650 44.783969 -0.746293 1.982997 0.067242 -0.025941 -1105830.000000 0 0 1
29.564616 -26.866642 -17.103950 43.456047 -0.737625 1.975332 0.063645 -0.024490 -1627470.000000 0 0 1
28.202916 -26.921442 -17.182750 42.607692 -0.762155 1.985893 0.107000 -0.029089 -1396640.000000 0 0 1
27.541616 -25.888842 -16.204650 41.126189 -0.754475 1.975801 0.089884 -0.030730 -130434.000000 0 0 1
27.692216 -24.550342 -16.593650 40.557704 -0.725330 1.992304 0.073449 -0.030172 -89776.300000 0 0 1
27.234416 -23.661242 -15.556450 39.288305 -0.715307 1.977905 0.075459 -0.022200 -175521.000000 0 0 1
26.982316 -22.175442 -15.953950 38.396928 -0.687923 1.999289 0.064837 -0.021994 253446.000000 0 0 1
25.594216 -21.874342 -16.071750 37.307531 -0.707193 2.016165 0.084167 -0.028002 438762.000000 0 0 1
25.347516 -20.532242 -16.438250 36.527874 -0.680827 2.037583 0.076435 -0.030749 275497.000000 0 0 1
23.874316 -20.047942 -16.378250 35.215764 -0.698501 2.054525 0.081282 -0.028387 445110.000000 0 0 1
23.245216 -19.791442 -15.121650 34.069129 -0.705318 2.030689 0.091122 -0.032171 228127.000000 0 0 1
21.877216 -19.469042 -15.219250 33.004268 -0.727220 2.050064 0.082288 -0.036198 62275.200000 0 0 1
21.506316 -18.248342 -14.390450 31.663996 -0.703629 2.042577 0.061290 -0.024488 -224986.000000 0 0 1
21.370916 -18.525142 -12.998750 31.126587 -0.714189 2.001609 0.061237 -0.032281 86608.600000 0 0 1
20.920116 -17.437742 -12.224850 29.852522 -0.694860 1.992711 0.064505 -0.040589 49446.400000 0 0 1
19.969216 -17.723442 -11.030750 28.888881 -0.725887 1.962576 0.070726 -0.034628 11449.300000 0 0 1
20.593416 -18.128342 -9.828150 29.143062 -0.721823 1.914778 0.073299 -0.039524 -163313.000000 0 0 1
19.635016 -18.360842 -8.832550 28.296083 -0.751876 1.888249 0.065906 -0.041849 -223370.000000 0 0 1
20.166416 -19.188342 -7.653750 28.869650 -0.760551 1.839119 0.068487 -0.036462 -288750.000000 0 0 1
21.036716 -18.470542 -6.845650 28.819564 -0.720535 1.810624 0.059316 -0.038168 -156635.000000 0 0 1
21.685516 -19.225542 -5.843150 29.563922 -0.725341 1.769751 0.054599 -0.029334 294010.000000 0 0 1
22.984016 -18.574542 -5.238550 30.012014 -0.679691 1.746243 0.059731 -0.023725 736807.000000 0 0 1
24.041816 -18.632142 -6.189850 31.039972 -0.659303 1.771558 0.056754 -0.026483 451677.000000 0 0 1
24.914116 -17.501942 -6.072250 31.046793 -0.612396 1.767649 0.080979 -0.025141 -244304.000000 0 0 1
25.877716 -17.358342 -7.253250 31.993403 -0.590847 1.799496 0.102003 -0.036803 -181963.000000 0 0 1
26.963316 -18.250642 -7.289350 33.365266 -0.595033 1.791044 0.121327 -0.044019 395016.000000 0 0 1
26.582716 -19.477042 -7.912550 33.891067 -0.632334 1.806441 0.122045 -0.049120 -482125.000000 0 0 1
27.720016 -20.494142 -7.751550 35.334058 -0.636635 1.791974 0.128374 -0.048773 1287530.000000 0 0 1
28.879716 -20.244742 -8.614150 36.305525 -0.611398 1.810349 0.136141 -0.038256 1410530.000000 0 0 1
29.988616 -21.068942 -8.253650 37.567807 -0.612445 1.792303 0.138209 -0.036570 431544.000000 0 0 1
-30.872144 29.064832 4.268250 42.615393 -0.755254 1.470471 0.061281 -0.025129 307415.000000 0 0 1
-30.346704 30.023632 3.371550 42.821820 -0.780047 1.491980 0.056277 -0.022455 -229754.000000 0 0 1
-29.300114 30.793132 3.920150 42.685844 -0.810238 1.478829 0.055717 -0.016219 166659.000000 0 0 1
-28.805854 31.899132 2.946750 43.081495 -0.836310 1.502343 0.051533 -0.009791 -512969.000000 0 0 1
-28.079644 31.446432 1.811450 42.197463 -0.841898 1.527855 0.049345 -0.015310 166555.000000 0 0 1
-27.630214 32.503132 0.954050 42.670746 -0.866257 1.548436 0.052238 -0.025586 432424.000000 0 0 1
-26.568404 33.482132 1.592550 42.772298 -0.900025 1.533554 0.080926 -0.008392 314435.000000 0 0 1
-25.251084 32.949032 1.699050 41.546874 -0.916902 1.529890 0.054506 -0.015752 55740.500000 0 0 1
-24.386584 33.790632 2.416650 41.741496 -0.945657 1.512868 0.059654 -0.008491 412072.000000 0 0 1
-22.890984 33.403732 2.238750 40.556362 -0.970017 1.515567 0.065369 -0.021542 344831.000000 0 0 1
-22.406184 33.693532 0.943250 40.474448 -0.983949 1.547489 0.111941 -0.018281 -1293250.000000 0 0 1
-21.099384 33.257132 0.916350 39.396200 -1.005443 1.547534 0.125828 -0.027925 -1219200.000000 0 0 1
-20.297684 33.753932 -0.329150 39.388225 -1.029390 1.579153 0.137655 -0.028516 253087.000000 0 0 1
-19.860684 -32.569642 -0.345050 38.149016 1.023208 1.579841 0.132254 -0.024505 217253.000000 0 0 1
-18.877984 -32.213742 0.597850 37.342481 1.040718 1.554786 0.142507 -0.025768 -412819.000000 0 0 1
-18.689684 -30.671542 0.602250 35.922284 1.023531 1.554030 0.145237 -0.031877 -41909.300000 0 0 1
-17.803184 -30.190342 -0.396850 35.050929 1.037986 1.582119 0.154774 -0.025910 126508.000000 0 0 1
-17.715184 -28.836342 -0.263050 33.844225 1.019903 1.578569 0.116849 -0.024342 189181.000000 0 0 1
-16.570084 -28.271442 -1.167450 32.790319 1.040655 1.606407 0.099653 -0.020462 269441.000000 0 0 1
-16.885284 -28.283242 -2.573850 33.040570 1.032581 1.648775 0.092579 -0.022776 932650.000000 0 0 1
-15.791184 -27.795242 -3.419350 32.150100 1.054144 1.677354 0.072875 -0.008852 916738.000000 0 0 1
-16.221384 -27.641942 -4.892450 32.421387 1.040110 1.722277 0.100622 -0.017415 -362687.000000 0 0 1
-17.108984 -26.606442 -5.099450 32.040981 0.999330 1.730630 0.110024 -0.016358 -697799.000000 0 0 1
-17.611884 -26.656942 -6.426550 32.589439 0.986945 1.769295 0.124127 -0.015234 415419.000000 0 0 1
-18.600684 -25.482242 -6.649650 32.242021 0.940253 1.778529 0.092204 -0.014793 160813.000000 0 0 1
-17.850384 -24.285442 -6.681150 30.871616 0.936949 1.788940 0.077692 0.003361 -26980.100000 0 0 1
-18.419484 -23.187842 -7.302950 30.500598 0.899504 1.812582 0.052877 0.006407 -321006.000000 0 0 1
-17.431184 -22.061042 -7.080250 28.994235 0.902100 1.817486 0.067313 0.009602 992880.000000 0 0 1
-16.214684 -22.107642 -7.854250 28.519345 0.937977 1.849803 0.085326 0.003247 118132.000000 0 0 1
-15.247584 -21.201742 -7.444250 27.155470 0.947322 1.848486 0.113047 -0.015695 -80984.600000 0 0 1
-14.138284 -20.985342 -8.482550 26.687624 0.977925 1.894253 0.116582 -0.009098 -193590.000000 0 0 1
-14.511884 -20.157542 -9.583150 26.622510 0.946824 1.939026 0.121426 -0.006825 -85521.800000 0 0 1
-13.605484 -20.001842 -10.691850 26.448034 0.973475 1.986965 0.116808 -0.004026 140419.000000 0 0 1
-14.218884 -19.138042 -11.801250 26.602834 0.931813 2.030418 0.137125 -0.006771 -68080.800000 0 0 1
-15.387884 -19.694342 -12.342650 27.874631 0.907540 2.029506 0.108012 0.012595 -377258.000000 0 0 1
-15.757484 -18.981442 -13.563450 28.152453 0.877938 2.073488 0.118824 -0.004399 549162.000000 0 0 1
-17.093184 -19.426242 -14.233150 29.531989 0.849197 2.073683 0.128836 -0.007429 323782.000000 0 0 1
-18.232984 -19.192342 -13.440650 29.689034 0.811026 2.040603 0.114343 -0.009215 -361329.000000 0 0 1
-19.351584 -19.665042 -14.123850 30.994851 0.793432 2.043937 0.089543 -0.003971 -898557.000000 0 0 1
-20.754684 -19.274742 -13.681450 31.455598 0.748444 2.020773 0.065078 0.009574 364694.000000 0 0 1
-21.697184 -20.042342 -14.503450 32.906129 0.745772 2.027233 0.090561 -0.002646 611923.000000 0 0 1
-23.027784 -19.659242 -14.191050 33.438758 0.706649 2.009084 0.074401 0.004269 -229241.000000 0 0 1
-24.070384 -20.381142 -15.057650 34.950066 0.702593 2.016212 0.095324 -0.009561 -379894.000000 0 0 1
-24.171084 -20.041242 -16.429550 35.437590 0.692259 2.052872 0.099574 -0.025709 -61389.800000 0 0 1
-24.786384 -21.002642 -17.181450 36.751571 0.702951 2.057260 0.114668 -0.032039 -339104.000000 0 0 1
-25.097254 -20.579542 -18.674050 37.444757 0.686813 2.092905 0.112973 -0.028723 197125.000000 0 0 1
-23.930084 -20.144142 -19.362150 36.787609 0.699709 2.125066 0.096814 -0.030733 297255.000000 0 0 1
-24.193984 -19.559342 -20.656050 37.344198 0.679865 2.156908 0.105733 -0.032529 -809210.000000 0 0 1
-23.106684 -18.625942 -21.122050 36.427813 0.678440 2.189320 0.085189 -0.023106 364184.000000 0 0 1
-21.861884 -19.334242 -21.253750 36.103694 0.724119 2.200229 0.069337 -0.018040 676527.000000 0 0 1
-20.837984 -18.646942 -21.949950 35.548984 0.729964 2.236301 0.068198 -0.017444 -33840.100000 0 0 1
-19.562184 -19.432342 -22.216750 35.410153 0.782068 2.249021 0.075568 -0.016795 -646031.000000 0 0 1
-19.626784 -20.549242 -23.130850 36.640390 0.808355 2.254017 0.046158 -0.010671 -16439.700000 0 0 1
-18.517584 -21.423942 -23.039850 36.506450 0.858035 2.253789 0.046041 -0.010498 -119169.000000 0 0 1
-18.673984 -22.708742 -23.887250 37.881464 0.882590 2.253095 0.048581 -0.009328 -167911.000000 0 0 1
-18.309284 -22.554142 -25.258790 38.495787 0.888906 2.286494 0.044897 -0.011975 246476.000000 0 0 1
-18.590684 -23.771142 -25.900400 39.768221 0.907085 2.280071 0.060311 -0.019517 -149001.000000 0 0 1
-18.289784 -23.642342 -27.413950 40.558614 0.912360 2.312994 0.076925 -0.009999 427650.000000 0 0 1
-16.932084 -23.716642 -27.845200 40.305455 0.950781 2.333466 0.060636 -0.011823 404673.000000 0 0 1
-16.900884 -23.762542 -29.255900 41.306246 0.952566 2.357838 0.096442 -0.019720 -308368.000000 0 0 1
-15.508384 -23.528542 -29.848300 41.049035 0.988029 2.384940 0.066345 -0.030832 -459563.000000 0 0 1
-14.636484 -24.586442 -29.566370 41.144744 1.033835 2.372575 0.080519 -0.023140 -594629.000000 0 0 1
-13.319484 -24.176842 -29.842580 40.651050 1.067248 2.395160 0.108179 -0.028288 -341289.000000 0 0 1
-12.351784 -25.341442 -29.635120 40.902268 1.117268 2.381156 0.104567 -0.023190 -933260.000000 0 0 1
-12.576584 -26.481442 -30.436620 42.259023 1.127413 2.374944 0.100861 -0.015492 57800.000000 0 0 1
-11.685684 -27.530742 -30.145780 42.464868 1.169384 2.360152 0.090650 -0.016668 -160198.000000 0 0 1
-10.342084 -27.457042 -30.890700 42.603793 1.210567 2.381931 0.109283 -0.022464 -606907.000000 0 0 1
-9.529184 -26.488442 -30.334020 41.383519 1.225463 2.393515 0.140682 -0.034600 439600.000000 0 0 1
-8.448184 -25.999242 -31.193040 41.476959 1.256619 2.421974 0.134823 -0.022816 1577250.000000 0 0 1
-7.540084 -24.812642 -30.613290 40.120986 1.275783 2.438776 0.184331 -0.032551 249440.000000 0 0 1
-8.125884 -23.550342 -30.549830 39.420054 1.238544 2.457483 0.192141 -0.028903 -155249.000000 0 0 1
-8.945284 -23.373242 -29.400800 38.610019 1.205279 2.436391 0.178908 -0.019935 9961.620000 0 0 1
-9.311284 -21.903142 -29.248710 37.708549 1.168831 2.458544 0.188735 -0.041844 -186264.000000 0 0 1
-9.939884 -21.466642 -30.411970 38.529286 1.137153 2.480498 0.174516 -0.039161 -129230.000000 0 0 1
-10.444684 -20.159742 -30.232450 37.808830 1.092777 2.497448 0.177034 -0.039132 318098.000000 0 0 1
-11.239084 -19.597742 -31.456450 38.728500 1.050099 2.518761 0.149614 -0.034019 101371.000000 0 0 1
-11.886984 -18.359942 -31.270180 38.160346 0.996222 2.531233 0.147233 -0.034303 79047.800000 0 0 1
-12.573584 -18.139142 -32.493710 39.280589 0.964666 2.544939 0.142412 -0.024246 -495262.000000 0 0 1
-13.401984 -16.856642 -32.502990 38.989792 0.899077 2.556441 0.141344 -0.029409 -212727.000000 0 0 1
-12.836484 -15.585442 -32.830950 38.542867 0.881818 2.590215 0.140574 -0.032291 -302481.000000 0 0 1
-11.912184 -15.095342 -31.895930 37.244057 0.902719 2.599059 0.131145 -0.029133 2794.430000 0 0 1
-11.612584 -13.641242 -32.133640 36.790031 0.865557 2.633005 0.103562 -0.037743 94327.100000 0 0 1
-10.928184 -13.310942 -33.359520 37.542828 0.883385 2.665020 0.107101 -0.034943 145325.000000 0 0 1
-11.696484 -13.151642 33.243234 37.614971 0.843893 0.486923 0.114949 -0.033345 -162140.000000 0 0 1
-12.364484 -11.770842 33.012388 37.165185 0.760807 0.477251 0.100033 -0.026388 -753542.000000 0 0 1
-13.636784 -11.701142 33.526160 38.037902 0.709153 0.492003 0.094288 -0.023561 -1240520.000000 0 0 1
-14.499684 -10.934642 32.718016 37.420260 0.646139 0.506723 0.076471 -0.034403 -359511.000000 0 0 1
-15.578084 -10.211842 33.469436 38.303545 0.580250 0.507845 0.084862 -0.035018 -628371.000000 0 0 1
-15.015184 -9.293942 -33.418380 37.797106 0.554251 2.655472 0.091071 -0.033449 -295877.000000 0 0 1
-15.810984 -8.762942 -32.391610 37.094376 0.506086 2.632571 0.086683 -0.039894 261533.000000 0 0 1
-15.036284 -7.562042 -31.716060 35.905191 0.465981 2.653711 0.084196 -0.042509 128779.000000 0 0 1
-14.875384 -6.322742 -32.387380 36.196636 0.401911 2.678695 0.078433 -0.049265 945383.000000 0 0 1
-16.026984 -5.423042 -32.373390 36.528208 0.326276 2.659998 0.081852 -0.040961 822855.000000 0 0 1
-16.321884 -4.734742 -31.022680 35.372706 0.282336 2.640427 0.081976 -0.045440 -238431.000000 0 0 1
-16.760684 -5.696142 -30.103300 34.922417 0.327605 2.610008 0.082505 -0.052183 -185691.000000 0 0 1
-17.086284 -5.223042 -28.769720 33.866178 0.296665 2.585856 0.084186 -0.052796 548626.000000 0 0 1
-15.870284 -4.644042 -27.953740 32.478371 0.284677 2.607415 0.081303 -0.051702 622482.000000 0 0 1
-15.445684 -3.406742 -28.463320 32.562795 0.217087 2.634388 0.078548 -0.041483 -840472.000000 0 0 1
-14.217684 -3.018842 -27.951670 31.504790 0.209223 2.662080 0.062905 -0.037122 -478173.000000 0 0 1
-13.761484 -1.538942 -28.372510 31.571286 0.111367 2.687549 0.040116 -0.019319 104197.000000 0 0 1
-13.358984 -1.445942 -29.751880 32.645483 0.107818 2.717379 0.034378 -0.024162 268126.000000 0 0 1
-13.744284 -0.192942 -30.346920 33.314833 0.014037 2.716288 0.022585 -0.025780 12996.700000 0 0 1
-13.900184 -0.307942 -31.825200 34.729717 0.022150 2.729708 0.012154 -0.023841 -665970.000000 0 0 1
-15.086384 -0.925942 -32.245460 35.612161 0.061299 2.703263 0.029100 -0.019650 -128152.000000 0 0 1
-15.203884 -0.936942 -33.664340 36.950287 0.061547 2.716671 0.023809 -0.018983 -1043860.000000 0 0 1
-16.539684 -1.273942 33.551681 37.428590 0.076872 0.459175 0.029880 -0.014171 -890137.000000 0 0 1
-16.392484 -1.495942 32.167598 36.134551 0.091006 0.472975 0.036820 -0.020007 10381.000000 0 0 1
-17.659784 -1.676942 31.599323 36.238065 0.094674 0.511538 0.040533 -0.012952 -94060.600000 0 0 1
-17.594784 -1.531942 30.080463 34.882052 0.086849 0.530908 0.048172 -0.006808 178482.000000 0 0 1
-17.199084 -0.201942 29.763453 34.376044 0.011741 0.524010 0.036919 0.001305 77599.000000 0 0 1
-17.322484 -0.050942 28.373863 33.243754 0.002941 0.548112 0.040253 -0.010225 -227865.000000 0 0 1
-16.867284 1.326058 27.876393 32.609155 -0.078456 0.545508 0.039870 -0.008310 -22970.500000 0 0 1
-17.551784 2.485058 28.483793 33.549473 -0.140650 0.556690 0.039934 -0.006793 495174.000000 0 0 1
-18.907284 2.683058 28.127473 33.997631 -0.140965 0.596448 0.054366 -0.010595 68778.800000 0 0 1
-19.118384 3.117058 26.672613 32.964480 -0.161618 0.628123 0.071756 -0.017997 -551587.000000 0 0 1
-18.645184 4.477058 26.509913 32.717922 -0.235657 0.626206 0.069404 -0.018778 270626.000000 0 0 1
-19.071184 5.050058 25.280543 32.067413 -0.258859 0.662664 0.080143 -0.016746 -557226.000000 0 0 1
-18.852584 6.596058 25.304233 32.237123 -0.336564 0.668196 0.078069 -0.014763 1667400.000000 0 0 1
-17.488584 7.136058 25.350323 31.613490 -0.387419 0.640356 0.073477 -0.016696 1617780.000000 0 0 1
-16.791384 6.921058 24.125373 30.197438 -0.390961 0.645297 0.062920 -0.019991 40542.300000 0 0 1
-15.551784 7.832058 23.854513 29.533657 -0.466533 0.630545 0.055657 -0.012820 7376.970000 0 0 1
-14.427584 7.395058 24.576603 29.442342 -0.473648 0.583142 0.054752 -0.015567 -1087550.000000 0 0 1
-13.370684 8.067058 24.011623 28.642812 -0.542871 0.576616 0.063509 -0.011211 -1123550.000000 0 0 1
-12.005184 7.964058 24.693203 28.588546 -0.585727 0.528142 0.053093 -0.004442 144631.000000 0 0 1
-11.064684 8.915058 24.134743 28.006987 -0.678220 0.532107 0.037659 -0.003389 308345.000000 0 0 1
-9.828984 8.843058 24.811393 28.114299 -0.732645 0.489605 0.039740 -0.010878 -274339.000000 0 0 1
-9.580384 10.101058 25.698043 29.226778 -0.811847 0.496482 0.045090 -0.026248 -981034.000000 0 0 1
-10.508884 10.355058 26.705263 30.509588 -0.778025 0.504726 0.034244 -0.021573 -127787.000000 0 0 1
-10.631984 11.711058 27.224793 31.486145 -0.833656 0.526324 0.046486 -0.023010 -467492.000000 0 0 1
-11.222484 12.773058 26.257183 31.281541 -0.849928 0.574650 0.040264 -0.029747 729947.000000 0 0 1
-12.619884 12.708058 25.918753 31.504571 -0.788879 0.604655 0.052814 -0.029626 852470.000000 0 0 1
-12.879384 11.830058 24.825953 30.367034 -0.742957 0.613688 0.046001 -0.022269 -397404.000000 0 0 1
-14.362384 11.609058 24.477833 30.662887 -0.679779 0.646348 0.060784 -0.021655 -78729.700000 0 0 1
-14.920184 12.688058 23.782973 30.809552 -0.704724 0.688917 0.063121 -0.030098 200035.000000 0 0 1
-16.238684 12.522058 23.258373 31.007237 -0.656885 0.722591 0.068966 -0.019222 630768.000000 0 0 1
-16.468784 11.879058 21.842973 29.823621 -0.624884 0.748949 0.052804 -0.002806 -109635.000000 0 0 1
-16.277984 10.452058 21.815973 29.157417 -0.570800 0.725431 0.053796 -0.001143 -76294.900000 0 0 1
-16.213084 10.001058 20.478273 27.968642 -0.552718 0.749269 0.061290 -0.013321 17234.400000 0 0 1
-16.743084 8.573058 20.430773 27.771292 -0.473230 0.744127 0.068941 -0.009876 -161772.000000 0 0 1
-18.134884 8.492058 20.535373 28.682584 -0.437945 0.772809 0.065515 0.003495 -820471.000000 0 0 1
-18.578184 7.134058 20.558473 28.612838 -0.366639 0.769146 0.061069 0.004306 300393.000000 0 0 1
-20.119884 6.996058 20.707073 29.707532 -0.334641 0.799548 0.077319 -0.002408 433125.000000 0 0 1
-20.370384 7.476058 22.010673 30.908150 -0.351744 0.778266 0.076098 -0.011446 59894.700000 0 0 1
-21.780584 7.481058 22.186873 31.978390 -0.330849 0.804032 0.075700 -0.008610 210416.000000 0 0 1
-22.281984 8.033058 23.491853 33.359916 -0.346014 0.789509 0.086396 -0.002969 -714858.000000 0 0 1
-22.425684 9.474058 23.529903 33.857428 -0.399721 0.802418 0.084262 -0.005039 217580.000000 0 0 1
-21.249484 10.273058 23.566783 33.353704 -0.450320 0.786155 0.075162 -0.001347 294664.000000 0 0 1
-20.399684 10.116058 24.879993 33.726782 -0.460357 0.741150 0.073715 -0.007991 -219083.000000 0 0 1
-20.734384 10.821058 26.077473 35.029196 -0.481006 0.731086 0.087641 -0.008132 -15404.600000 0 0 1
-20.068884 10.242058 27.191983 35.313791 -0.471889 0.691939 0.097578 -0.014335 160294.000000 0 0 1
-31.920004 -13.666068 20.502673 40.323785 0.404523 1.037411 0.071351 -0.011576 -134863.000000 0 0 1
-31.452124 -15.028068 20.523973 40.451358 0.445737 1.038661 0.075797 -0.017493 -53858.900000 0 0 1
-32.158694 -15.934668 19.727873 40.954660 0.460042 1.068202 0.079897 -0.014075 -71697.300000 0 0 1
-31.856424 -15.884268 18.220073 39.988908 0.462543 1.097719 0.086320 -0.012620 275083.000000 0 0 1
-32.527794 -14.833668 17.586973 39.842147 0.427858 1.113620 0.082379 -0.027073 -1355.110000 0 0 1
-31.968924 -14.761368 16.298973 38.801631 0.432575 1.137286 0.078656 -0.024498 -318474.000000 0 0 1
-32.704784 -13.639868 15.521773 38.685583 0.395126 1.157938 0.085809 -0.028258 -550629.000000 0 0 1
-33.950504 -14.012068 15.003373 39.674626 0.391424 1.182988 0.097775 -0.022559 825237.000000 0 0 1
-35.113431 -13.991368 15.863673 40.992286 0.379180 1.173430 0.084128 -0.023839 70482.200000 0 0 1
-35.580486 -12.670468 16.400673 41.176374 0.342105 1.161130 0.092770 -0.027473 -1409830.000000 0 0 1
-36.694034 -12.876868 17.214573 42.527725 0.337499 1.154053 0.067231 -0.025308 -535254.000000 0 0 1
-37.162584 -11.626068 17.559773 42.714971 0.303198 1.147145 0.062308 -0.020437 -76653.300000 0 0 1
36.855291 -11.676468 18.749173 42.967242 -0.306815 1.119247 0.059722 0.000252 7400.740000 0 0 1
-37.505974 -12.118168 19.961173 44.181404 0.312512 1.102014 0.053866 -0.006770 251892.000000 0 0 1
36.857551 -11.676768 21.157373 44.073352 -0.306805 1.070086 0.047194 -0.006038 -1338970.000000 0 0 1
37.441811 -12.211368 22.508873 45.361394 -0.315265 1.051566 0.045621 -0.012329 294899.000000 0 0 1
-36.307704 -11.672868 22.845933 44.457191 0.311062 1.031088 0.049629 -0.010250 232441.000000 0 0 1
-35.241212 -12.200368 22.071673 43.335329 0.333282 1.036399 0.043897 -0.014798 -795212.000000 0 0 1
-33.938934 -11.380768 22.192873 42.117653 0.323547 1.015817 0.067046 -0.019390 -86646.400000 0 0 1
-33.961944 -10.164868 21.483573 41.452166 0.290816 1.025965 0.081923 -0.020116 1099620.000000 0 0 1
-32.606934 -9.647368 21.483573 40.222230 0.287662 1.007328 0.102254 -0.026757 943244.000000 0 0 1
-32.395884 -8.366068 20.567373 39.274689 0.252723 1.019631 0.120968 -0.023475 39663.900000 0 0 1
-32.543014 -8.496768 19.167073 38.712007 0.255392 1.052824 0.128299 -0.018384 381180.000000 0 0 1
-33.857924 -8.873868 18.778573 39.720767 0.256326 1.078371 0.109017 -0.023644 94787.000000 0 0 1
-34.299453 -8.696568 17.307373 39.390709 0.248315 1.115891 0.121142 -0.023490 -66612.500000 0 0 1
-35.654900 -8.978768 17.043873 40.526334 0.246695 1.136731 0.082090 -0.024317 -5982.830000 0 0 1
-36.070544 -8.657368 15.750173 40.300150 0.235556 1.169272 0.090283 -0.019152 303486.000000 0 0 1
37.414381 -8.437468 15.579273 41.397349 -0.221804 1.184959 0.067326 -0.022473 386009.000000 0 0 1
36.657431 -9.643668 15.513173 40.956393 -0.257247 1.182326 0.057194 -0.007889 -1082020.000000 0 0 1
35.332851 -9.266868 15.549173 39.699647 -0.256496 1.168350 0.054806 -0.008920 -1200770.000000 0 0 1
34.363931 -10.441968 15.658673 39.180460 -0.294998 1.159656 0.046883 -0.010775 -207939.000000 0 0 1
34.326341 -11.057468 16.963573 39.853834 -0.311632 1.131122 0.039328 -0.011140 366356.000000 0 0 1
33.196151 -11.928368 17.096573 39.199020 -0.344962 1.119483 0.054723 -0.012184 453197.000000 0 0 1
33.015191 -12.364868 18.593973 39.857604 -0.358350 1.085455 0.052132 -0.008715 -81367.800000 0 0 1
33.848071 -13.406368 19.037773 41.083566 -0.377118 1.088978 0.036904 -0.004802 -401995.000000 0 0 1
33.812441 -13.441968 20.456173 41.742337 -0.378388 1.058640 0.049323 -0.005409 -133734.000000 0 0 1
34.182151 -14.835968 21.100673 42.822468 -0.409491 1.055552 0.033172 -0.003519 164409.000000 0 0 1
34.165361 -14.787068 22.525773 43.512524 -0.408466 1.026654 0.039510 -0.011734 2295.890000 0 0 1
34.526281 -16.020768 23.184963 44.567607 -0.434449 1.023688 0.038174 -0.002400 -192804.000000 0 0 1
35.104671 -15.775268 24.572953 45.662096 -0.422337 1.002558 0.048181 -0.000030 -148044.000000 0 0 1
36.395551 -15.226968 24.536493 46.460049 -0.396245 1.014411 0.042774 -0.002977 -236168.000000 0 0 1
36.877091 -14.953868 25.828443 47.440979 -0.385244 0.995083 0.047087 -0.009102 119006.000000 0 0 1
-36.960874 -13.925468 25.852853 47.205877 0.360315 0.991229 0.043240 -0.010200 37684.500000 0 0 1
-35.756103 -14.544268 25.497533 46.261851 0.386323 0.987046 0.029770 -0.010874 -137709.000000 0 0 1
-34.647687 -13.684268 25.684243 45.248224 0.376149 0.967172 0.043461 -0.011749 861629.000000 0 0 1
-33.211624 -14.186868 25.347403 44.122217 0.403704 0.958826 0.039971 -0.011938 148424.000000 0 0 1
-32.835574 -14.378568 23.974223 43.124025 0.412743 0.981307 0.042689 -0.009701 222214.000000 0 0 1
-31.551244 -14.957968 23.794503 42.253996 0.442701 0.972627 0.051637 -0.019552 212969.000000 0 0 1
-31.234594 -16.382568 24.383843 42.878435 0.483056 0.965904 0.055965 -0.017424 -885829.000000 0 0 1
-31.112904 -16.364268 25.776283 43.591499 0.484202 0.938109 0.057762 -0.016740 26412.000000 0 0 1
-30.944694 -17.685468 26.229473 44.253080 0.519214 0.936370 0.065638 -0.024927 -255159.000000 0 0 1
-30.514004 -17.695968 27.718223 44.861471 0.525531 0.904775 0.074104 -0.031447 -49097.600000 0 0 1
-29.340724 -16.958668 27.992063 43.954864 0.524079 0.880408 0.073209 -0.032867 -278519.000000 0 0 1
-28.667074 -17.478868 29.086123 44.422005 0.547535 0.856920 0.089947 -0.035760 -571993.000000 0 0 1
-27.421064 -16.675068 29.410423 43.530973 0.546363 0.828990 0.069800 -0.031633 -696564.000000 0 0 1
-27.587344 -15.435968 30.159323 43.691137 0.510131 0.808914 0.089651 -0.039616 -638884.000000 0 0 1
-26.500324 -14.635868 29.849823 42.514559 0.504600 0.792442 0.072134 -0.036646 -919543.000000 0 0 1
-26.540084 -13.293068 30.608413 42.637503 0.464341 0.770051 0.082893 -0.035869 -155236.000000 0 0 1
-26.178794 -13.372568 31.999901 43.452831 0.472264 0.743021 0.083454 -0.040389 141588.000000 0 0 1
-26.027054 -12.042568 32.492004 43.337758 0.433360 0.723129 0.084322 -0.032590 -101013.000000 0 0 1
-25.236344 -11.998168 33.873973 43.912130 0.443801 0.689752 0.076614 -0.037565 588245.000000 0 0 1
-23.843784 -12.305568 33.837223 43.184612 0.476438 0.670440 0.049799 -0.026769 488066.000000 0 0 1
-23.510684 -13.677868 33.753453 43.348955 0.526909 0.678293 0.054755 -0.026836 -316176.000000 0 0 1
-23.415184 -14.361868 -32.650480 42.668348 0.550183 2.442172 0.058158 -0.028722 -22654.600000 0 0 1
-22.380884 -13.921968 -31.761470 41.273673 0.556473 2.448906 0.034376 -0.018320 242074.000000 0 0 1
-22.329384 -14.754368 -30.630270 40.675621 0.583902 2.423463 0.048660 -0.014530 344076.000000 0 0 1
-21.054384 -14.631868 -29.731660 39.260033 0.607333 2.429967 0.044100 -0.010332 280300.000000 0 0 1
-20.893584 -13.487368 -28.890880 38.119993 0.573224 2.430874 0.062210 -0.021635 141940.000000 0 0 1
-21.479984 -13.641068 -27.587640 37.530605 0.565800 2.396567 0.065794 -0.014590 161903.000000 0 0 1
-20.944184 -12.650968 -26.486950 36.059178 0.543379 2.395787 0.060453 -0.015201 482430.000000 0 0 1
-19.543684 -12.756068 -26.235420 35.113674 0.578268 2.414570 0.069858 -0.020377 530172.000000 0 0 1
-19.002784 -11.614368 -25.561150 33.902385 0.548609 2.424871 0.078464 -0.026572 893138.000000 0 0 1
-17.536284 -11.797568 -25.046750 32.772603 0.592204 2.440688 0.093774 -0.029377 -19318.400000 0 0 1
-17.453084 -12.693868 -23.954650 32.242358 0.628823 2.408272 0.103439 -0.026231 1069020.000000 0 0 1
-16.141484 -12.751268 -23.326350 31.100819 0.668594 2.418894 0.110397 -0.026949 2269640.000000 0 0 1
-15.003084 -13.439768 -24.239450 31.516199 0.730490 2.448245 0.073522 -0.019820 160593.000000 0 0 1
-14.317784 -12.589168 -25.115020 31.531735 0.721242 2.492280 0.064532 -0.024322 -42285.500000 0 0 1
-13.601584 -13.391068 -26.049730 32.294151 0.777599 2.509240 0.085089 -0.019656 -209996.000000 0 0 1
-12.727884 -12.559068 -26.970710 32.359672 0.778722 2.556148 0.097723 -0.022101 -238288.000000 0 0 1
-13.441784 -11.865568 -27.950250 33.206772 0.723196 2.571226 0.106901 -0.027817 -293878.000000 0 0 1
-12.580984 -11.157268 -28.815150 33.362833 0.725494 2.613342 0.099462 -0.034974 -214208.000000 0 0 1
-13.284684 -10.150968 -29.769950 34.143445 0.652471 2.629882 0.077220 -0.032526 312274.000000 0 0 1
-12.454784 -9.197568 -30.491450 34.197155 0.636085 2.671744 0.064162 -0.021335 150023.000000 0 0 1
-11.579984 -9.703768 -31.475600 34.913787 0.697473 2.694074 0.082287 -0.015951 -172438.000000 0 0 1
-10.873684 -8.615168 -32.262000 35.118296 0.670025 2.735488 0.066944 -0.025333 333765.000000 0 0 1
-9.693384 -8.237368 -31.540660 34.009251 0.704374 2.758235 0.070968 -0.020441 135717.000000 0 0 1
-9.103984 -7.067768 -32.023810 34.034692 0.660145 2.796124 0.057411 -0.030683 -515527.000000 0 0 1
-7.606584 -6.919868 -31.739870 33.364113 0.738160 2.828280 0.076803 -0.019812 -768789.000000 0 0 1
-7.258184 -6.913068 -30.344550 31.957212 0.761050 2.822552 0.062384 -0.015881 -155838.000000 0 0 1
-7.429284 -5.609668 -29.714260 31.138398 0.646741 2.837985 0.038041 -0.018712 -459285.000000 0 0 1
-6.687984 -4.388968 -30.323800 31.361202 0.580754 2.883666 0.049534 -0.025866 -1245720.000000 0 0 1
-5.343484 -4.385068 -30.027240 30.812607 0.687199 2.915329 0.092140 -0.029069 -1310780.000000 0 0 1
-4.860684 -3.146168 -30.471040 31.016268 0.574453 2.953813 0.103854 -0.042294 985580.000000 0 0 1
-3.297184 -3.004068 -30.238780 30.565988 0.738915 2.995140 0.094964 -0.031668 423198.000000 0 0 1
-2.519184 -3.906168 -31.014920 31.361277 0.997997 2.992835 0.107469 -0.032505 -212658.000000 0 0 1
-1.137584 -3.687968 -31.004590 31.243876 1.271598 3.017750 0.109917 -0.029120 -223026.000000 0 0 1
-0.540684 -2.326968 -31.395110 31.485870 1.342492 3.065646 0.102042 -0.026992 -1160210.000000 0 0 1
0.818816 -2.149868 -31.054190 31.139285 -1.206891 3.067647 0.105108 -0.017556 315536.000000 0 0 1
1.378816 -0.865268 -31.467480 31.509556 -0.560427 3.089908 0.064948 -0.020096 294574.000000 0 0 1
1.429516 0.127532 -30.308000 30.341961 0.088978 3.094274 0.073310 -0.033487 -547369.000000 0 0 1
0.207516 0.709632 -29.976550 29.985666 1.286301 3.116933 0.094454 -0.031911 -773115.000000 0 0 1
0.370816 1.596132 -28.939590 28.985945 1.342524 3.085030 0.107986 -0.049526 842880.000000 0 0 1
-0.989284 1.940632 -28.196960 28.280970 -1.099360 3.064495 0.088093 -0.045466 1921650.000000 0 0 1
-2.035384 2.634232 -28.932890 29.123771 -0.912946 3.027038 0.084547 -0.063366 981690.000000 0 0 1
-2.078984 3.997932 -28.498990 28.853042 -1.091265 2.984774 0.115440 -0.057075 -736900.000000 0 0 1
-3.309584 4.590532 -29.137660 29.682142 -0.946142 2.949759 0.148381 -0.059498 -699464.000000 0 0 1
-3.219984 4.645732 -30.539570 31.058275 -0.964712 2.958575 0.153269 -0.063578 108338.000000 0 0 1
-4.432484 5.034332 -31.143080 31.857226 -0.848887 2.929454 0.173026 -0.056168 -394961.000000 0 0 1
-4.208784 5.694232 -32.495460 33.257977 -0.934288 2.927044 0.171751 -0.052628 -106786.000000 0 0 1
-3.973584 4.916932 -33.648840 34.237552 -0.891110 2.955881 0.187601 -0.050084 1008550.000000 0 0 1
-2.663984 4.320932 -33.653430 34.034109 -1.018311 2.991885 0.180306 -0.056982 391248.000000 0 0 1
-2.056584 3.683232 32.893010 33.162416 -1.061554 0.127553 0.141657 -0.055976 -322765.000000 0 0 1
-2.866284 2.621232 32.459098 32.690664 -0.740772 0.119096 0.146382 -0.056614 -10479.000000 0 0 1
-2.591184 2.023532 31.175063 31.347942 -0.663004 0.105071 0.135931 -0.047024 -153474.000000 0 0 1
-2.562184 2.950732 29.919753 30.173883 -0.855761 0.129877 0.130634 -0.045284 794994.000000 0 0 1
-3.794984 3.708932 29.863523 30.331306 -0.773931 0.175854 0.128923 -0.046662 837278.000000 0 0 1
-3.880584 4.650732 28.789443 29.419726 -0.875427 0.207368 0.123460 -0.043611 -272676.000000 0 0 1
-5.219484 5.390332 28.768883 29.731252 -0.801500 0.255128 0.128038 -0.035681 -219643.000000 0 0 1
-5.324284 6.234332 27.631703 28.822316 -0.863969 0.288431 0.125234 -0.027463 -115151.000000 0 0 1
-6.575784 6.879232 27.556953 29.153910 -0.807947 0.332518 0.111945 -0.020810 -293249.000000 0 0 1
-6.651484 7.765332 26.332333 28.247733 -0.862505 0.370372 0.096013 -0.016949 -216747.000000 0 0 1
-5.582084 8.680632 26.374173 28.321547 -0.999322 0.372994 0.112758 -0.024680 -181334.000000 0 0 1
-5.594684 9.455832 25.242103 27.529566 -1.036528 0.410531 0.100435 -0.025911 217840.000000 0 0 1
-4.461984 10.515432 25.100883 27.577853 -1.169496 0.427071 0.094872 -0.031637 -306513.000000 0 0 1
-4.632384 11.333732 23.971953 26.917782 -1.182791 0.472217 0.102805 -0.031363 397071.000000 0 0 1
-3.925784 12.598032 24.024073 27.409456 -1.268714 0.502277 0.087636 -0.022761 -851292.000000 0 0 1
-2.413084 12.760232 24.057083 27.338430 -1.383894 0.494991 0.085245 -0.017275 -1005170.000000 0 0 1
-1.722484 12.331132 25.193983 28.102679 -1.432009 0.458996 0.091088 -0.020930 -116219.000000 0 0 1
-2.153684 12.945632 26.433563 29.512049 -1.405942 0.460822 0.095610 -0.021981 -446948.000000 0 0 1
-1.265184 12.412132 27.610583 30.298614 -1.469216 0.424410 0.096474 -0.022942 571469.000000 0 0 1
0.078416 12.813232 27.466313 30.308141 1.564676 0.436503 0.086539 -0.018568 43928.300000 0 0 1
0.998616 12.187432 28.377853 30.900377 1.489041 0.406865 0.095280 -0.032146 1138300.000000 0 0 1
2.505616 12.462632 28.086703 30.829502 1.372391 0.425013 0.083056 -0.026539 633055.000000 0 0 1
2.860116 13.800732 28.423413 31.725871 1.366445 0.460329 0.082594 -0.025276 202544.000000 0 0 1
4.260916 13.985032 28.272923 31.829149 1.275054 0.477228 0.086280 -0.025542 152431.000000 0 0 1
4.804616 15.422032 28.398673 32.671211 1.268784 0.517161 0.084834 -0.025619 -276960.000000 0 0 1
4.810716 16.093332 29.651373 34.078472 1.280325 0.515409 0.093147 -0.023707 1191780.000000 0 0 1
3.744316 17.081032 29.821303 34.570098 1.355001 0.530344 0.078638 -0.021187 965958.000000 0 0 1
4.180216 18.446232 29.225033 34.811496 1.347944 0.574393 0.081013 -0.014824 -183055.000000 0 0 1
5.102816 19.210132 29.929973 35.928696 1.311161 0.586219 0.102077 -0.014935 -193747.000000 0 0 1
5.700616 20.187632 29.098263 35.871248 1.295581 0.624619 0.084887 -0.017472 270589.000000 0 0 1
6.817216 20.925632 29.893133 37.120829 1.255856 0.634627 0.087051 -0.013001 117081.000000 0 0 1
6.273716 21.859332 30.830023 38.310315 1.291305 0.635551 0.075712 -0.023612 -56832.900000 0 0 1
7.282116 22.597632 31.434733 39.393206 1.259053 0.646871 0.048478 -0.024262 -340389.000000 0 0 1
7.684516 23.897732 30.649783 39.617706 1.259680 0.686233 0.046544 -0.015565 -13645.800000 0 0 1
8.218216 23.684932 29.364703 38.610891 1.236814 0.706669 0.030107 -0.012237 179710.000000 0 0 1
8.565916 24.903832 28.730663 38.974694 1.239513 0.741936 0.033572 -0.010708 13233.200000 0 0 1
9.030016 24.738532 27.268283 37.909042 1.220805 0.767990 0.058477 -0.018308 348774.000000 0 0 1
7.956516 24.497432 26.360963 36.855538 1.256755 0.773813 0.065120 -0.021082 870592.000000 0 0 1
8.535516 24.563932 25.093103 36.137316 1.236367 0.803236 0.083755 -0.027242 3265.240000 0 0 1
28.147441 2.969932 6.959550 29.146771 0.105124 1.329691 0.216462 -0.024422 -254583.000000 0 0 1
28.819041 4.096732 7.480750 30.054649 0.141208 1.319247 0.203651 -0.046020 224185.000000 0 0 1
28.634541 4.123532 8.910550 30.271081 0.143022 1.272012 0.176051 -0.030727 -365595.000000 0 0 1
29.541641 5.098432 9.665950 31.498145 0.170901 1.258890 0.164129 -0.036743 10858.900000 0 0 1
29.162741 6.468032 9.429350 31.324328 0.218258 1.265031 0.171632 -0.039045 377857.000000 0 0 1
30.026511 7.042632 8.449350 31.977829 0.230383 1.303396 0.183180 -0.050265 125284.000000 0 0 1
29.513341 8.410032 7.996150 31.712842 0.277599 1.315903 0.210775 -0.051068 -193349.000000 0 0 1
28.256341 8.384732 7.388350 30.386054 0.288462 1.325185 0.184279 -0.050502 -449282.000000 0 0 1
28.102141 9.337832 6.376950 30.291763 0.320804 1.358692 0.197460 -0.073644 1099330.000000 0 0 1
26.756241 9.212532 5.505450 28.828409 0.331600 1.378643 0.166170 -0.053681 461687.000000 0 0 1
25.677041 9.772032 6.148850 28.153355 0.363649 1.350616 0.138456 -0.044583 -676006.000000 0 0 1
24.557241 9.610832 5.282650 26.894843 0.373040 1.373092 0.166457 -0.041472 350605.000000 0 0 1
23.288841 10.384332 5.727650 26.134468 0.419433 1.349842 0.080651 -0.030670 14155.800000 0 0 1
23.502041 11.773232 5.642950 26.884899 0.464403 1.359331 0.078311 -0.024527 111274.000000 0 0 1
22.395341 12.549232 6.060750 26.377400 0.510755 1.338954 0.076888 -0.012185 -320974.000000 0 0 1
22.623041 14.110932 6.232550 27.381838 0.557694 1.341167 0.073485 0.002676 -179851.000000 0 0 1
22.423841 14.862332 5.018250 27.366045 0.585315 1.386378 0.060247 -0.006816 330201.000000 0 0 1
22.663141 16.217732 5.146250 28.339313 0.621119 1.388189 0.105814 -0.004779 -270847.000000 0 0 1
22.307841 17.112732 3.917950 28.387245 0.654367 1.432336 0.093244 -0.025385 -678448.000000 0 0 1
20.916541 17.082232 3.809150 27.272953 0.684832 1.430671 0.119958 -0.008219 -374857.000000 0 0 1
20.492741 17.857132 2.718350 27.317010 0.716781 1.471120 0.111884 -0.014807 336538.000000 0 0 1
18.946741 17.822832 2.494050 26.131449 0.754841 1.475208 0.096523 -0.014987 180938.000000 0 0 1
18.275141 18.548932 3.500250 26.273474 0.792833 1.437175 0.101080 -0.023983 110104.000000 0 0 1
16.907041 18.438332 3.143950 25.213182 0.828695 1.445776 0.092485 -0.027780 -53822.900000 0 0 1
15.984341 19.349932 4.022750 25.418528 0.880362 1.411868 0.102433 -0.036150 301257.000000 0 0 1
14.601741 19.098432 3.876650 24.351373 0.918047 1.410920 0.105530 -0.036593 252711.000000 0 1 0
13.736341 20.124332 4.344950 24.749836 0.971862 1.394327 0.076250 -0.041661 936061.000000 0 1 0
12.274241 19.791332 3.850850 23.604721 1.015669 1.406925 0.063242 -0.039161 594909.000000 0 1 0
11.447241 19.137732 4.792150 22.809139 1.031738 1.359121 0.051383 -0.037158 -318603.000000 0 1 0
10.142941 19.652232 4.633250 22.595497 1.094335 1.364280 0.040266 -0.014810 -459982.000000 0 1 0
9.284841 19.119332 5.781350 22.026828 1.118714 1.305217 0.030539 -0.016136 -793335.000000 0 1 0
9.457441 19.762532 7.060550 23.018520 1.124452 1.259037 0.054884 -0.017783 22516.700000 0 1 0
8.823341 18.984632 8.093750 22.444964 1.135734 1.201881 0.054799 -0.015976 535457.000000 0 1 0
7.613941 19.730232 8.755650 22.889202 1.202502 1.178271 0.051660 -0.021552 1086540.000000 0 1 0
6.429741 19.985232 8.002350 22.467503 1.259530 1.206626 0.047121 -0.024220 398251.000000 0 1 0
6.466941 21.178032 7.227750 23.293148 1.274429 1.255293 0.056754 -0.023945 -1469570.000000 0 1 0
5.242741 21.299332 6.359250 22.838300 1.329448 1.288620 0.045460 -0.016885 -158708.000000 0 1 0
3.958141 21.414632 6.959850 22.862477 1.388026 1.261464 0.040759 -0.013903 314193.000000 0 1 0
3.707941 22.533032 7.787450 24.127386 1.407702 1.242148 0.061972 -0.018458 -816879.000000 0 1 0
3.611741 23.968232 7.094750 25.255817 1.421233 1.286048 0.090687 -0.017446 -380812.000000 0 0 1
2.556541 24.032232 6.176250 24.944542 1.464815 1.320595 0.062123 -0.015120 -322139.000000 0 1 0
2.628341 25.222032 5.428650 25.933171 1.466963 1.359904 0.073856 -0.014461 -469715.000000 0 0 1
1.403841 25.595132 4.614250 26.045592 1.516003 1.392696 0.073683 -0.009893 48369.700000 0 0 1
0.212941 25.838632 5.377650 26.393169 1.562555 1.365608 0.083470 -0.018944 439276.000000 0 0 1
-0.837759 26.234632 4.517150 26.633859 -1.538874 1.400371 0.080858 -0.014371 -247389.000000 0 0 1
-2.080059 26.762632 5.228150 27.347736 -1.493230 1.378439 0.107319 -0.022632 -165174.000000 0 0 1
-3.026959 27.194532 4.265050 27.692882 -1.459945 1.416168 0.135928 -0.030529 -567036.000000 0 0 1
-4.172859 27.686732 4.873950 28.420473 -1.421205 1.398450 0.130880 -0.042749 -869911.000000 0 0 1
-5.279759 28.093232 3.915150 28.851932 -1.385026 1.434678 0.154792 -0.047690 -525621.000000 0 0 1
-4.891259 29.225032 3.200550 29.803866 -1.404968 1.463202 0.139584 -0.044705 -121969.000000 0 0 1
-5.536359 29.411832 1.962850 29.992665 -1.384738 1.505305 0.135368 -0.056192 -680230.000000 0 0 1
-4.651959 30.139532 0.949150 30.511195 -1.417657 1.539683 0.121245 -0.044569 -332596.000000 0 0 1
-4.303559 31.469132 1.265950 31.787254 -1.434884 1.530960 0.119494 -0.043459 8959.920000 0 0 1
-3.101459 31.412932 2.029450 31.630840 -1.472383 1.506592 0.122480 -0.042944 -551215.000000 0 0 1
-2.459659 32.808932 2.044850 32.964487 -1.495967 1.508725 0.112649 -0.046915 -658430.000000 0 0 1
-1.722459 33.035732 0.847150 33.091451 -1.518704 1.545193 0.087801 -0.031295 346455.000000 0 0 1
-0.890059 -33.489742 0.724350 33.509397 1.544226 1.549178 0.094372 -0.035127 1069050.000000 0 0 1
0.454541 -33.683342 1.529550 33.721116 -1.557303 1.525422 0.083719 -0.025358 25643.800000 0 0 1
0.269941 -33.667342 2.973150 33.799444 -1.562779 1.482718 0.074681 -0.024410 601844.000000 0 0 1
1.495541 33.770932 3.697450 34.005641 1.526540 1.461850 0.077589 -0.021449 819991.000000 0 0 1
1.368841 -33.691342 5.270450 34.128549 -1.530190 1.415746 0.076614 -0.020606 108304.000000 0 0 1
0.605041 33.002632 5.908750 33.532867 1.552465 1.393664 0.095374 -0.033832 13481.400000 0 0 1
0.071441 33.333032 7.205550 34.103022 1.568653 1.357904 0.112075 -0.040566 -364775.000000 0 0 1
1.010641 33.307432 8.385150 34.361566 1.540463 1.324280 0.105009 -0.026659 -461279.000000 0 0 1
1.355941 31.994632 8.833050 33.219239 1.528441 1.301657 0.107088 -0.034854 372290.000000 0 0 1
2.553741 32.172332 9.596050 33.669938 1.491585 1.281786 0.122801 -0.036451 281318.000000 0 0 1
3.236341 30.793132 9.758850 32.464227 1.466081 1.265471 0.116550 -0.037969 -419488.000000 0 0 1
2.459441 29.931432 10.507750 31.817484 1.488811 1.234227 0.130401 -0.040061 -70052.400000 0 0 1
2.947141 28.579132 10.489550 30.585668 1.468037 1.220734 0.112410 -0.039933 -187619.000000 0 0 1
2.352241 27.620332 11.565850 30.036389 1.485838 1.175522 0.109215 -0.044915 -396693.000000 0 0 1
2.728441 27.882332 12.904850 30.844838 1.473251 1.139136 0.101741 -0.039181 -60101.600000 0 0 1
2.428641 26.880532 13.871550 30.346025 1.480692 1.096050 0.104769 -0.031992 493172.000000 0 0 1
0.909541 26.624132 14.194750 30.185470 1.536647 1.081221 0.097884 -0.047400 581271.000000 0 0 1
0.191441 27.669332 14.833250 31.395126 1.563878 1.078705 0.103196 -0.049592 103487.000000 0 0 1
-0.344859 28.599032 13.886750 31.794110 -1.558738 1.118790 0.114041 -0.050335 -220692.000000 0 0 1
-1.132359 29.768332 14.604750 33.177320 -1.532776 1.114972 0.092416 -0.046552 -350545.000000 0 0 1
-2.346359 29.393432 15.136950 33.145234 -1.491139 1.096530 0.092076 -0.042768 -772760.000000 0 0 1
-2.996459 30.482132 15.836650 34.480990 -1.472809 1.093605 0.090618 -0.034065 1282870.000000 0 0 1
-4.424159 30.027432 16.359850 34.479916 -1.424512 1.076429 0.078589 -0.027939 771010.000000 0 0 1
-5.407459 29.909632 15.380650 34.064514 -1.391935 1.102333 0.091112 -0.036555 -556283.000000 0 0 1
-6.543859 29.331332 15.948550 34.022131 -1.351290 1.082899 0.080947 -0.024322 -428073.000000 0 0 1
-7.790459 29.132132 15.064550 33.709243 -1.309493 1.107503 0.062395 -0.033850 -25777.100000 0 0 1
-8.924659 28.826732 15.846550 34.084354 -1.270559 1.087250 0.051874 -0.025568 -307746.000000 0 0 1
-9.984859 28.405232 15.030850 33.652357 -1.232773 1.107778 0.055054 -0.029189 -397920.000000 0 0 1
-11.247459 28.026232 15.802750 34.083749 -1.189153 1.088692 0.039302 -0.023527 -616914.000000 0 0 1
-11.894359 29.119932 16.391850 35.470255 -1.183017 1.090401 0.036567 -0.035305 -14007.900000 0 0 1
-11.891259 29.035532 17.807550 36.077320 -1.182092 1.054579 0.050639 -0.030146 -184077.000000 0 0 1
-12.871159 30.050632 18.450950 37.538578 -1.166121 1.056962 0.058385 -0.027752 -425272.000000 0 0 1
-14.192459 29.907232 17.968050 37.665890 -1.127716 1.073515 0.072598 -0.021984 331123.000000 0 0 1
-15.076159 30.859932 18.605150 39.061204 -1.116363 1.074346 0.067999 -0.020991 557513.000000 0 0 1
-15.792059 30.412532 19.917350 39.635995 -1.091858 1.044301 0.065476 -0.033431 -105898.000000 0 0 1
-14.892559 30.121132 20.981750 39.614452 -1.111621 1.012610 0.050879 -0.036250 -49679.600000 0 0 1
-15.587359 30.071132 22.218350 40.507948 -1.092577 0.990235 0.046617 -0.031293 -363956.000000 0 0 1
-14.844259 30.472232 23.476550 41.231752 -1.117489 0.965044 0.032469 -0.018894 -611322.000000 0 0 1
-13.743959 29.568832 23.699950 40.310047 -1.135693 0.942285 0.037235 -0.020663 494547.000000 0 0 1
-13.378359 29.253532 24.997950 40.738767 -1.141868 0.910165 0.040264 -0.016870 -327497.000000 0 0 1
-13.105459 30.387732 25.988550 42.078166 -1.163623 0.905076 0.033066 -0.008710 -368830.000000 0 0 1
-14.217059 31.214332 26.308850 43.227479 -1.143406 0.916484 0.033555 -0.011072 296465.000000 0 0 1
-13.804859 32.558632 26.611350 44.258362 -1.169773 0.925703 0.030221 -0.013053 -75614.400000 0 0 1
-14.960559 33.421932 27.151250 45.585461 -1.149918 0.932769 0.047638 -0.017181 27537.800000 0 0 1
-15.636859 32.919932 28.314150 46.151104 -1.127351 0.910299 0.023609 -0.016497 261206.000000 0 0 1
-14.931559 33.066532 29.520150 46.773778 -1.146645 0.887792 0.050616 -0.006408 -498595.000000 0 0 1
-15.616259 32.284632 30.638250 47.168500 -1.120269 0.863805 0.037973 -0.009339 -819097.000000 0 0 1
-16.786659 32.911332 31.025350 48.244379 -1.099135 0.872273 0.046475 -0.008025 -1140770.000000 0 0 1
-17.277659 32.322832 32.155850 48.757376 -1.079905 0.850633 0.042944 -0.006920 -897741.000000 0 0 1
-18.731859 32.650332 32.407350 49.670546 -1.049931 0.859989 0.042905 -0.006232 -738450.000000 0 0 1
-18.985959 -33.658042 32.531850 50.513877 1.057204 0.871057 0.063322 -0.011551 -514668.000000 0 0 1
-20.385759 -33.524142 32.580450 50.999343 1.024448 0.877806 0.067027 -0.007848 -70768.900000 0 0 1
-20.826359 -31.997142 32.773250 50.315408 0.993801 0.861426 0.075231 -0.007107 -274405.000000 0 0 1
-20.597359 -31.389542 -33.774072 50.499926 0.990085 2.303382 0.087050 -0.011695 239223.000000 0 0 1
-21.427059 -31.898742 -32.725872 50.474066 0.979303 2.276238 0.078212 -0.016899 313504.000000 0 0 1
-21.088459 -31.150542 -31.411672 49.007882 0.975684 2.266533 0.092326 -0.016344 217829.000000 0 0 1
-21.347459 -29.749442 -31.578472 48.352282 0.948372 2.282456 0.097642 -0.018478 -14448.000000 0 0 1
-20.893959 -28.983842 -30.473072 46.959863 0.946192 2.276957 0.091079 -0.008926 143044.000000 0 0 1
-21.301759 -27.472942 -30.528072 46.265437 0.911254 2.291410 0.100153 -0.018761 496931.000000 0 0 1
-22.625859 -27.162042 -30.110772 46.436673 0.876257 2.276312 0.091896 -0.012818 211888.000000 0 0 1
-22.979159 -25.808542 -30.224072 45.908791 0.843327 2.289421 0.100038 -0.017759 692568.000000 0 0 1
-24.262559 -25.406742 -29.399372 45.809359 0.808430 2.267609 0.096175 -0.021315 584909.000000 0 0 1
-24.160559 -25.596342 -27.982172 44.965624 0.814246 2.242476 0.094807 -0.013643 -294495.000000 0 0 1
-23.330359 -24.745842 -27.265472 43.589773 0.814832 2.246571 0.105003 -0.019303 -358839.000000 0 0 1
-23.207759 -25.178442 -25.811172 42.880889 0.826104 2.216709 0.106378 -0.016531 764423.000000 0 0 1
-24.361059 -24.850342 -24.997972 42.847396 0.795340 2.193728 0.088421 -0.020141 903641.000000 0 0 1
-24.248359 -25.393742 -23.677072 42.348894 0.808467 2.164091 0.096442 -0.017318 -438443.000000 0 0 1
-25.528759 -25.210542 -22.843072 42.533456 0.779127 2.137746 0.089759 -0.016039 1073890.000000 0 0 1
-26.787359 -25.822142 -23.194372 43.844322 0.767053 2.128238 0.079647 -0.011454 977811.000000 0 0 1
-26.780559 -27.237042 -23.043272 44.609945 0.793849 2.113613 0.073218 -0.002007 -663142.000000 0 0 1
-28.224359 -27.759942 -22.951572 45.760283 0.777103 2.096199 0.052467 0.001827 310820.000000 0 0 1
-28.948659 -27.297442 -21.818872 45.378832 0.756050 2.072382 0.065053 0.002594 137258.000000 0 0 1
-30.064159 -26.469042 -22.124372 45.759717 0.721891 2.075434 0.066262 0.005908 431028.000000 0 0 1
-30.825759 -26.084042 -20.795672 45.420972 0.702270 2.046364 0.078395 0.009347 -7187.980000 0 0 1
-31.488059 -27.128742 -20.121072 46.177095 0.711165 2.021653 0.073167 0.012304 72473.300000 0 0 1
-32.017259 -26.686942 -18.882372 45.758515 0.694847 1.996161 0.076115 0.015152 -719630.000000 0 0 1
-32.994459 -27.758142 -18.286772 46.835401 0.699420 1.971914 0.052788 0.011574 415454.000000 0 0 1
-34.221059 -27.877642 -19.002372 48.055530 0.683601 1.977327 0.043778 0.021611 861491.000000 0 0 1
-35.161359 -26.808542 -19.074872 48.154645 0.651417 1.978080 0.026655 0.021556 -127015.000000 0 0 1
-35.870159 -26.295542 -17.776672 47.897118 0.632581 1.951036 0.042854 0.012764 -811400.000000 0 0 1
-35.101059 -25.400142 -17.102372 46.580497 0.626409 1.946747 0.039746 0.023611 -406498.000000 0 0 1
-35.689059 -24.999242 -15.894972 46.382337 0.611044 1.920580 0.037554 0.019001 -125102.000000 0 0 1
-35.160159 -25.553042 -14.529072 45.828907 0.628462 1.893391 0.059652 0.013881 122613.000000 0 0 1
-35.597759 -26.906842 -14.316872 46.863114 0.647240 1.881264 0.044748 0.027293 772550.000000 0 0 1
-34.962659 -27.459242 -13.112372 46.350100 0.665767 1.857611 0.027204 0.027862 170248.000000 0 0 1
-35.668559 -28.744442 -12.724972 47.543811 0.678314 1.841747 0.029673 0.018607 -167948.000000 0 0 1
-35.404559 -29.930742 -13.474572 48.279356 0.701813 1.853649 0.024416 0.022553 35721.000000 0 0 1
-36.006459 -31.007342 -12.858772 49.226704 0.710938 1.835077 0.003914 0.018238 -371703.000000 0 0 1
-35.738359 -32.207342 -13.811972 50.053109 0.733477 1.850370 0.002160 0.018927 -31490.300000 0 0 1
-34.398059 -32.634342 -13.949072 49.424724 0.759093 1.856913 0.020818 0.013463 67474.300000 0 0 1
-34.076659 -33.301642 -15.151372 49.997821 0.773896 1.878678 0.058136 -0.015902 492737.000000 0 0 1
-32.607859 -33.800742 -15.326472 49.403071 0.803359 1.886235 0.064677 -0.010225 630410.000000 0 0 1
-32.422159 33.033932 -16.402772 49.106904 -0.794744 1.911363 0.081725 -0.022743 -822304.000000 0 0 1
-31.080359 32.649532 -16.377672 47.960492 -0.810015 1.919290 0.097805 -0.030210 -542456.000000 0 0 1
9.916116 20.200532 -9.346450 24.366924 1.114468 1.964456 0.074505 -0.016732 192129.000000 0 1 0
8.552616 19.769132 -9.279450 23.453657 1.162485 1.977572 0.077011 -0.028141 925302.000000 0 1 0
7.897116 19.567232 -10.577950 23.603687 1.187200 2.035489 0.084470 -0.034823 350342.000000 0 1 0
8.208716 18.285032 -11.363150 23.040108 1.148832 2.086549 0.079016 -0.026063 183058.000000 0 1 0
9.552316 17.992432 -11.753450 23.518460 1.082730 2.094111 0.107053 -0.033164 533132.000000 0 1 0
9.541716 16.785532 -12.528150 23.016363 1.053899 2.146369 0.103622 -0.041325 -702959.000000 0 1 0
10.818016 16.563532 -13.293350 23.834706 0.992229 2.162446 0.148693 -0.037889 -691212.000000 0 1 0
10.753316 15.317132 -14.033650 23.392128 0.958699 2.214210 0.163029 -0.046383 113147.000000 0 1 0
11.968116 14.991532 -14.660450 24.143542 0.897078 2.223354 0.181852 -0.057576 -370621.000000 0 1 0
11.747016 13.725032 -15.520350 23.817014 0.862897 2.280554 0.155369 -0.058578 -309658.000000 0 1 0
11.556016 12.537532 -14.751150 22.546122 0.826113 2.284007 0.165548 -0.057833 1090180.000000 0 1 0
12.675216 11.848332 -14.133750 22.378717 0.751693 2.254374 0.180991 -0.060575 995903.000000 0 1 0
13.767916 11.211332 -15.075650 23.292159 0.683405 2.274756 0.195024 -0.068718 874001.000000 0 1 0
14.553616 12.130432 -15.859250 24.707710 0.694836 2.267737 0.170830 -0.061097 428957.000000 0 1 0
15.548616 11.481932 -16.593850 25.474498 0.636070 2.280212 0.174093 -0.069969 77800.100000 0 0 1
16.313016 12.193332 -17.753050 27.017820 0.641874 2.287744 0.130771 -0.063419 672842.000000 0 0 1
17.184816 13.264732 -17.302650 27.760632 0.657362 2.243727 0.102171 -0.048039 202735.000000 0 0 1
17.790516 13.740632 -18.474350 29.096547 0.657657 2.258718 0.077436 -0.038289 314932.000000 0 0 1
19.007016 14.720932 -18.240750 30.177764 0.658998 2.219863 0.069171 -0.011213 194456.000000 0 0 1
18.731116 16.005432 -17.753550 30.368027 0.707091 2.195200 0.069099 -0.018573 307595.000000 0 0 1
17.989816 16.919832 -18.572450 30.900649 0.754758 2.215595 0.066985 -0.014879 132605.000000 0 0 1
17.663916 18.240632 -17.887050 31.059316 0.801459 2.184501 0.061313 -0.006059 572859.000000 0 0 1
18.734316 19.187332 -18.071050 32.337148 0.797344 2.163774 0.076863 -0.009212 694230.000000 0 0 1
18.373616 20.364032 -17.326050 32.441880 0.836735 2.134197 0.053501 -0.003891 90019.700000 0 0 1
19.293316 21.644232 -17.370750 33.800115 0.842762 2.110551 0.063979 -0.003471 -5733.080000 0 0 1
20.573616 21.526232 -16.827950 34.202810 0.808022 2.085187 0.101204 -0.010141 -534854.000000 0 0 1
20.534216 21.682132 -15.399450 33.599285 0.812583 2.046908 0.094710 -0.008273 87954.100000 0 0 1
21.506016 22.834532 -14.829150 34.696228 0.815351 2.012411 0.086962 -0.011403 425582.000000 0 0 1
22.797816 22.331032 -14.661050 35.119251 0.775055 2.001450 0.090917 -0.021528 -212449.000000 0 0 1
23.694016 23.267232 -14.025250 36.048275 0.776310 1.970417 0.081731 -0.030830 -366209.000000 0 0 1
25.142016 22.817132 -13.977250 36.716563 0.736960 1.961328 0.070860 -0.021544 -621573.000000 0 0 1
25.702916 22.848232 -15.273450 37.629242 0.726668 1.988752 0.087488 -0.010460 -100771.000000 0 0 1
26.798816 23.734932 -15.309450 38.934596 0.724842 1.974916 0.065992 -0.002410 -401493.000000 0 0 1
27.276016 23.989632 -16.715450 39.986120 0.721381 2.002073 0.085136 -0.007208 2890.040000 0 0 1
28.109516 22.949632 -17.262850 40.185028 0.684683 2.014829 0.089318 -0.011325 346355.000000 0 0 1
27.949116 23.014932 -18.686350 40.743341 0.688882 2.047256 0.086019 -0.012448 -291805.000000 0 0 1
28.766416 21.935532 -19.418550 41.057939 0.651478 2.063438 0.077870 -0.011785 425581.000000 0 0 1
30.149016 22.225832 -19.489150 42.222953 0.635258 2.050569 0.075163 0.000413 172939.000000 0 0 1
30.932516 21.377032 -20.321750 42.740748 0.604718 2.066289 0.087219 -0.007030 6485.370000 0 0 1
32.363716 21.867932 -20.511550 44.117346 0.594226 2.054354 0.094794 -0.011852 -571717.000000 0 0 1
32.379316 23.110432 -21.276450 45.113185 0.619888 2.061928 0.083449 -0.001333 -830601.000000 0 0 1
33.644616 23.626332 -21.102350 46.211177 0.612223 2.045023 0.077532 -0.006610 -734796.000000 0 0 1
33.825616 25.110532 -21.550750 47.319615 0.638589 2.043651 0.087358 -0.007209 -54631.100000 0 0 1
33.991716 25.426532 -22.961550 48.261559 0.642234 2.066639 0.088253 -0.003730 564960.000000 0 0 1
32.902916 24.995732 -23.811850 47.690593 0.649668 2.093585 0.095643 -0.007965 284341.000000 0 0 1
32.862916 25.510332 -25.286130 48.684049 0.660100 2.116936 0.099225 -0.008206 -585454.000000 0 0 1
32.421816 26.869232 -25.246100 49.096796 0.692021 2.110883 0.103648 -0.007555 465638.000000 0 0 1
31.043616 27.105132 -25.528250 48.477684 0.717770 2.125390 0.086035 -0.003466 443767.000000 0 0 1
30.587516 26.950032 -26.982420 48.887129 0.722263 2.155477 0.090767 0.001173 -609353.000000 0 0 1
30.647916 25.596232 -27.341470 48.394399 0.695821 2.171195 0.083985 -0.005481 -6924.900000 0 0 1
30.342516 25.424932 -28.763300 48.932840 0.697445 2.199148 0.094640 -0.015130 -195221.000000 0 0 1
29.589616 24.123932 -29.058630 47.978260 0.683991 2.221394 0.109595 -0.028885 -219280.000000 0 0 1
28.230316 24.235932 -28.719080 47.001241 0.709412 2.228155 0.112889 -0.025172 -138652.000000 0 0 1
27.479616 23.082232 -29.046720 46.169586 0.698646 2.251231 0.123202 -0.038424 201502.000000 0 0 1
26.008016 23.167332 -28.570220 45.048858 0.727696 2.257776 0.111241 -0.034345 34801.800000 0 0 1
25.821916 23.097532 -27.145370 44.012935 0.729764 2.235415 0.105225 -0.019509 49972.100000 0 0 1
24.478916 23.227532 -26.749080 43.060990 0.759173 2.241057 0.061767 -0.010179 -400722.000000 0 0 1
24.259816 23.201032 -25.246640 42.002612 0.763093 2.215639 0.076616 -0.006289 -160059.000000 0 0 1
24.664616 21.958932 -24.688550 41.231814 0.727431 2.212766 0.081642 -0.017794 200013.000000 0 0 1
24.914516 22.153632 -23.350550 40.703375 0.726808 2.181783 0.101251 -0.009810 -98234.400000 0 0 1
25.546416 20.926532 -22.601950 40.017337 0.686314 2.170992 0.099481 -0.008759 -323151.000000 0 0 1
26.872216 20.659732 -22.935550 40.926519 0.655434 2.165675 0.088331 -0.006116 -432162.000000 0 0 1
27.317616 19.433332 -22.427250 40.334701 0.618326 2.160396 0.100646 -0.014198 275742.000000 0 0 1
28.711716 19.070032 -22.983950 41.428139 0.586286 2.158908 0.115920 -0.023203 211248.000000 0 0 1
29.656016 18.348232 -22.192950 41.335988 0.554057 2.137545 0.115850 -0.023486 1018340.000000 0 0 1
30.828716 18.271732 -23.051950 42.610542 0.535024 2.142412 0.105501 -0.019926 758387.000000 0 0 1
32.122216 17.866232 -22.320950 43.003067 0.507587 2.116541 0.072265 -0.014381 -300852.000000 0 0 1
32.813016 18.860532 -21.660750 43.607359 0.521675 2.090615 0.072064 -0.012578 1392860.000000 0 0 1
34.169116 18.416532 -21.304750 44.278545 0.494345 2.072766 0.078767 -0.017451 1727430.000000 0 0 1
34.975616 19.379832 -20.410650 44.893944 0.505982 2.042766 0.053890 -0.024017 -85087.100000 0 0 1
34.402316 19.508932 -19.100450 43.919756 0.515863 2.020717 0.064181 -0.022992 434542.000000 0 0 1
34.991416 20.506132 -18.231750 44.466812 0.530087 1.993259 0.032959 -0.016890 116885.000000 0 0 1
34.212216 20.559732 -16.875650 43.335504 0.541116 1.970797 0.027439 -0.018228 199734.000000 0 0 1
34.560616 19.410732 -16.175950 42.812078 0.511738 1.958254 0.031250 -0.031949 401588.000000 0 0 1
34.076516 19.491932 -14.853650 41.973507 0.519580 1.932514 0.026591 -0.029726 -442282.000000 0 0 1
34.497316 18.308132 -14.016250 41.493467 0.487914 1.915369 0.023509 -0.017953 -430876.000000 0 0 1
35.901916 18.269432 -13.835750 42.592813 0.470719 1.901636 0.013174 -0.025564 107251.000000 0 0 1
36.249616 17.166232 -13.087750 42.190086 0.442270 1.886209 0.009476 -0.009636 -252130.000000 0 0 1
36.075316 17.408632 -11.582150 41.696943 0.449601 1.852268 0.032434 -0.021990 -762630.000000 0 0 1
36.935516 18.448532 -11.203750 42.779723 0.463231 1.835780 0.016483 -0.022563 -369710.000000 0 0 1
36.774316 18.792732 -9.810250 42.447121 0.472432 1.804022 0.021961 -0.019960 29641.200000 0 0 1
35.602116 19.817732 -9.512150 41.841775 0.507930 1.800138 0.025366 -0.015471 335502.000000 0 0 1
34.361616 19.166232 -9.683550 40.519579 0.508797 1.812116 0.059541 -0.032094 -1154450.000000 0 0 1
33.376316 20.113732 -9.419750 40.090802 0.542355 1.807974 0.033688 -0.014854 -19527.300000 0 0 1
31.952816 19.533132 -9.692750 38.684301 0.548695 1.824055 0.020601 -0.014121 330350.000000 0 0 1
31.773116 19.227932 -11.049050 38.746945 0.544208 1.859969 0.033506 -0.024754 984117.000000 0 0 1
30.514316 18.540532 -11.313750 37.454983 0.545990 1.877652 0.045616 -0.029742 1095880.000000 0 0 1
30.371016 18.045532 -12.761550 37.561909 0.536121 1.917444 0.048676 -0.027388 -693814.000000 0 0 1
31.276816 17.032432 -13.061350 37.933387 0.498665 1.922314 0.061421 -0.030661 -292181.000000 0 0 1
30.956716 16.246132 -14.207650 37.737414 0.483291 1.956798 0.045699 -0.028380 -479926.000000 0 0 1
32.090816 15.476832 -14.888250 38.613635 0.449373 1.966622 0.050473 -0.031804 -312690.000000 0 0 1
32.685416 14.477832 -14.053650 38.411575 0.416971 1.945364 0.037015 -0.028993 698485.000000 0 0 1
33.898416 14.071632 -14.698850 39.536940 0.393466 1.951717 0.040542 -0.024087 497729.000000 0 0 1
34.887416 13.220732 -13.862650 39.800661 0.362233 1.926555 0.042005 -0.037710 -120850.000000 0 0 1
35.612916 13.844332 -12.818150 40.301989 0.370766 1.894471 0.037448 -0.018381 291349.000000 0 0 1
36.382316 12.820932 -12.186950 40.454554 0.338807 1.876800 0.040141 -0.016705 122081.000000 0 0 1
37.418316 13.322332 -11.147050 41.253747 0.342043 1.844404 0.068045 -0.016426 -151430.000000 0 0 1
-36.443009 13.828532 -11.742150 40.708712 -0.362672 1.863397 0.053483 -0.017307 -254130.000000 0 0 1
-35.466109 14.196232 -10.771050 39.691225 -0.380744 1.845614 0.049824 -0.019468 -212187.000000 0 0 1
-34.052109 14.531332 -11.316450 38.713922 -0.403342 1.867437 0.094159 -0.026014 628487.000000 0 0 1
-33.174709 13.440032 -11.671350 37.648588 -0.384920 1.885997 0.123325 -0.033571 574474.000000 0 0 1
-32.798709 12.624632 -10.572650 36.700375 -0.367433 1.863018 0.139709 -0.022878 -653209.000000 0 0 1
-31.674609 11.586932 -10.855450 35.431322 -0.350691 1.882184 0.175847 -0.030127 51888.600000 0 0 1
-31.989609 10.572032 -11.818750 35.704142 -0.319183 1.908180 0.159164 -0.025417 509727.000000 0 0 1
-30.952609 9.587332 -11.930650 34.530006 -0.300371 1.923584 0.169163 -0.032021 313623.000000 0 0 1
-30.940209 8.870432 -13.335950 34.840043 -0.279207 1.963596 0.156214 -0.029301 335879.000000 0 0 1
-32.130409 8.140332 -13.613750 35.832420 -0.248132 1.960515 0.128381 -0.026081 705079.000000 0 0 1
-31.911309 7.328432 -14.744650 35.908804 -0.225736 1.993923 0.130515 -0.021674 768588.000000 0 0 1
-33.290509 6.877032 -15.347950 37.297602 -0.203711 1.994895 0.113953 -0.019503 597367.000000 0 0 1
-34.142509 6.093732 -14.548750 37.609980 -0.176620 1.967990 0.116479 -0.027880 -324244.000000 0 0 1
-35.285009 5.809032 -15.288050 38.890888 -0.163168 1.974798 0.092458 -0.034542 -785274.000000 0 0 1
-36.279909 4.938232 -14.515950 39.386936 -0.135283 1.948242 0.102336 -0.035314 -687076.000000 0 0 1
-37.308509 4.414632 -15.294050 40.562566 -0.117780 1.957404 0.105380 -0.033869 376281.000000 0 0 1
36.606016 4.089132 -14.401250 39.548924 0.111245 1.943503 0.107348 -0.036140 818023.000000 0 0 1
35.512516 3.188532 -14.987350 38.677205 0.089546 1.968713 0.104526 -0.036274 -240585.000000 0 0 1
36.030316 1.862132 -15.160850 39.134417 0.051636 1.968611 0.116724 -0.035117 -231487.000000 0 0 1
35.113616 0.839332 -15.259750 38.295306 0.023899 1.980651 0.113210 -0.035740 -498252.000000 0 0 1
34.369116 0.417932 -13.977050 37.104834 0.012160 1.957018 0.107967 -0.037282 -647671.000000 0 0 1
35.218516 -0.212568 -13.081050 37.569974 -0.006036 1.926423 0.116204 -0.038648 -335883.000000 0 0 1
34.821516 -0.288068 -11.763450 36.755948 -0.008273 1.896570 0.114168 -0.032091 -559949.000000 0 0 1
35.002416 0.944732 -10.895250 36.671080 0.026984 1.872458 0.117370 -0.042598 99412.700000 0 0 1
34.217316 2.038032 -11.388850 36.120412 0.059491 1.891572 0.112683 -0.032076 767711.000000 0 0 1
34.535716 3.227032 -10.677650 36.292446 0.093170 1.869427 0.129639 -0.031712 141498.000000 0 0 1
33.582016 4.377632 -11.132850 35.649065 0.129626 1.888399 0.132608 -0.032792 323778.000000 0 0 1
33.838916 4.815532 -12.408850 36.362634 0.141358 1.919046 0.114356 -0.029749 1017060.000000 0 0 1
32.692716 5.613132 -12.694650 35.517250 0.170036 1.936303 0.125601 -0.033261 427302.000000 0 0 1
32.928916 6.339332 -14.112850 36.382319 0.190189 1.969153 0.097778 -0.028994 -340411.000000 0 0 1
32.904416 5.451832 -15.196250 36.651727 0.164195 1.998313 0.099357 -0.024549 220816.000000 0 0 1
33.224616 5.993932 -16.486350 37.571293 0.178487 2.025061 0.089377 -0.023705 -513260.000000 0 0 1
32.227816 6.929332 -17.254950 37.207272 0.211787 2.053022 0.093183 -0.024764 943489.000000 0 0 1
31.021116 6.309732 -17.738150 36.287247 0.200664 2.081540 0.079635 -0.025786 1286330.000000 0 0 1
29.944716 6.131232 -16.815750 34.886207 0.201960 2.073752 0.072901 -0.016038 447277.000000 0 0 1
28.547816 6.274332 -17.507350 34.071283 0.216344 2.110457 0.052491 -0.014295 325892.000000 0 0 1
28.259316 5.304832 -18.499450 34.190054 0.185560 2.142513 0.067944 -0.017612 25967.000000 0 0 1
27.031916 5.525532 -19.138550 33.578863 0.201630 2.177251 0.044733 -0.014314 -238238.000000 0 0 1
26.471316 4.359232 -19.950250 33.432708 0.163213 2.210214 0.065023 0.005657 -218538.000000 0 0 1
25.964516 3.321632 -19.147850 32.431921 0.127239 2.202352 0.068056 -0.011737 187517.000000 0 0 1
25.584416 2.194232 -19.927950 32.503849 0.085555 2.230769 0.066120 -0.011721 -477663.000000 0 0 1
24.482116 1.340332 -19.250850 31.173157 0.054693 2.236415 0.073722 -0.016446 382460.000000 0 0 1
23.284316 2.080832 -19.045650 30.153375 0.089129 2.254445 0.081396 -0.016772 360549.000000 0 0 1
22.258016 1.403632 -18.330650 28.868706 0.062978 2.258761 0.098943 -0.022502 -217842.000000 0 0 1
21.062216 2.345232 -18.235050 27.957720 0.110891 2.281328 0.110973 -0.035286 -548510.000000 0 0 1
20.176516 2.148932 -19.341250 28.032011 0.106107 2.332244 0.115026 -0.024852 965543.000000 0 0 1
18.969216 2.911432 -19.410750 27.296241 0.152294 2.361878 0.121674 -0.021269 1397980.000000 0 0 1
17.713316 2.450332 -18.601450 25.802706 0.137460 2.375912 0.163527 -0.032371 -117869.000000 0 0 1
17.881616 2.705832 -17.234650 24.982131 0.150180 2.332118 0.174493 -0.036464 85599.200000 0 1 0
16.818316 2.442632 -16.331750 23.570071 0.144228 2.336302 0.140625 -0.021562 -167406.000000 0 1 0
15.699616 3.480132 -16.286950 22.887857 0.218143 2.362566 0.133557 -0.025098 -307242.000000 0 1 0
14.868316 3.496532 -17.427650 23.173596 0.230970 2.421960 0.123720 -0.018599 -184892.000000 0 1 0
13.895016 4.478032 -17.266650 22.611091 0.311766 2.439723 0.120732 -0.027553 -409688.000000 0 1 0
-19.825484 -21.560468 -17.116550 33.924620 0.827296 2.099653 0.120130 -0.024953 88748.500000 0 0 1
-19.888784 -22.026168 -18.406050 34.921318 0.836347 2.125948 0.118190 -0.023024 255804.000000 0 0 1
-21.173184 -21.811468 -18.977850 35.835773 0.800246 2.128900 0.123588 -0.023435 150321.000000 0 0 1
-21.310784 -22.507968 -20.372150 37.091543 0.812713 2.152251 0.100215 -0.012421 -129984.000000 0 0 1
-21.431984 -23.880168 -20.208950 37.920891 0.839375 2.132849 0.088116 -0.014630 187894.000000 0 0 1
-21.357984 -24.559368 -21.470150 38.990939 0.855006 2.153933 0.078107 -0.018625 -150905.000000 0 0 1
-20.983884 -26.031108 -21.360650 39.676433 0.892342 2.139299 0.080038 -0.008673 627560.000000 0 0 1
-22.084984 -26.913178 -20.997650 40.656696 0.883619 2.113511 0.088483 -0.001925 735574.000000 0 0 1
-21.725384 -28.266968 -21.106850 41.430820 0.915511 2.105340 0.108235 -0.020605 9187.390000 0 0 1
-23.011584 -29.114388 -21.312650 42.794972 0.901946 2.092108 0.098526 -0.013376 196259.000000 0 0 1
-23.668284 -28.736348 -22.485050 43.491870 0.881809 2.114132 0.074205 -0.007531 -119996.000000 0 0 1
-23.147184 -29.398098 -23.635250 44.256811 0.903804 2.134177 0.066309 -0.007381 -320562.000000 0 0 1
-23.620584 -28.854448 -25.005750 44.897646 0.884809 2.161505 0.061755 0.004577 178926.000000 0 0 1
-24.968684 -29.146838 -25.346710 45.993793 0.862453 2.154466 0.056265 0.010553 476314.000000 0 0 1
-25.483484 -28.369258 -26.418170 46.391189 0.838933 2.176651 0.057461 0.016527 -50504.100000 0 0 1
-24.946184 -28.657908 -27.853530 47.110581 0.854531 2.203388 0.074306 -0.001238 -323951.000000 0 0 1
-25.274724 -29.940418 -28.330250 48.351249 0.869698 2.196818 0.052788 0.002835 178014.000000 0 0 1
-24.720984 -30.210418 -29.612430 48.996861 0.885000 2.219776 0.085459 -0.008387 -5339.500000 0 0 1
-25.364794 -31.384328 -30.340830 50.486778 0.891076 2.215505 0.053133 -0.004428 454025.000000 0 0 1
-24.688184 -32.652678 -30.054650 50.783715 0.923412 2.204107 0.056226 -0.006696 281581.000000 0 0 1
-25.532274 -33.684938 -30.459510 52.099460 0.922212 2.195234 0.053714 -0.008025 -37187.300000 0 0 1
-24.858784 32.592711 -30.482940 51.082811 -0.919210 2.210223 0.066571 -0.004287 849812.000000 0 0 1
-23.787084 32.484898 -31.435500 51.081157 -0.938752 2.233694 0.072787 -0.019566 575756.000000 0 0 1
-23.177284 31.212686 -31.599130 50.099134 -0.932074 2.253293 0.073141 -0.016096 1118170.000000 0 0 1
-21.833684 31.087286 -32.439530 49.954501 -0.958505 2.277567 0.066890 -0.014539 995102.000000 0 0 1
-22.077484 30.770396 -33.793230 50.756428 -0.948428 2.299351 0.064625 -0.004908 244343.000000 0 0 1
-21.467884 29.557196 33.567580 49.611292 -0.942626 0.827645 0.050126 0.003972 -2111.320000 0 0 1
-21.670884 29.312036 32.043466 48.534590 -0.934168 0.849686 0.048088 0.001026 -269552.000000 0 0 1
-20.981184 30.266746 31.324093 48.347542 -0.964643 0.865980 0.039195 -0.003003 -70481.400000 0 0 1
-21.054384 30.139576 29.899883 47.388650 -0.961036 0.888019 0.058017 -0.000724 -140010.000000 0 0 1
-20.656984 31.404866 29.108723 47.542553 -0.988983 0.911872 0.045159 -0.021195 -71818.300000 0 0 1
-21.545584 32.448663 29.385423 48.791711 -0.984649 0.924464 0.043987 -0.013746 -200168.000000 0 0 1
-21.042084 33.683309 28.943783 49.143435 -1.012410 0.941018 0.047970 -0.027896 -293722.000000 0 0 1
-22.073884 -32.871818 28.929723 49.038165 0.979445 0.939808 0.072961 -0.030458 -232878.000000 0 0 1
-22.483884 -32.573338 30.272083 49.829172 0.966641 0.917865 0.060149 -0.019999 -45116.800000 0 0 1
-23.574484 -31.670398 30.407223 49.833419 0.930908 0.914512 0.072303 -0.019441 -66294.500000 0 0 1
-23.449484 -30.217058 29.894983 48.545431 0.910840 0.907377 0.085018 -0.017927 -465157.000000 0 0 1
-23.358084 -30.223248 28.481853 47.647253 0.912830 0.930086 0.056698 -0.010646 -184068.000000 0 0 1
-23.361684 -28.893348 27.990393 46.519415 0.890864 0.925178 0.061759 -0.012352 154884.000000 0 0 1
-24.662384 -28.243458 27.401943 46.441281 0.852983 0.939695 0.065907 -0.002769 -379363.000000 0 0 1
-25.724374 -28.095168 28.296463 47.452836 0.829421 0.931903 0.080285 -0.004263 -343797.000000 0 0 1
-26.658774 -29.115588 28.445933 48.657772 0.829419 0.946394 0.072501 -0.007733 -49957.900000 0 0 1
-27.707274 -29.240118 27.271173 48.645600 0.812309 0.975675 0.060362 0.000554 -524621.000000 0 0 1
-27.107234 -29.559678 26.055593 47.827509 0.828649 0.994667 0.066212 -0.001876 156179.000000 0 0 1
-28.004124 -29.937778 24.998173 48.014687 0.818758 1.023201 0.066246 -0.001973 68360.200000 0 0 1
-27.243934 -30.027348 23.660893 46.943705 0.833960 1.042541 0.060979 -0.004311 -475489.000000 0 0 1
-26.717034 -28.790558 23.177773 45.605979 0.822736 1.037682 0.047014 -0.008656 207487.000000 0 0 1
-26.145704 -28.793228 21.905173 44.637254 0.833551 1.057860 0.081638 -0.012483 917532.000000 0 0 1
-24.789684 -29.620938 21.770973 44.338512 0.873958 1.057539 0.089736 -0.018328 244826.000000 0 0 1
-24.899584 -31.032928 21.773673 45.355537 0.894618 1.070066 0.102684 -0.031352 -9030.980000 0 0 1
-23.734984 -31.669918 21.310773 44.949774 0.927648 1.076853 0.093728 -0.014281 483915.000000 0 0 1
-22.762784 -32.304508 22.389073 45.420217 0.956969 1.055340 0.082658 -0.008732 296154.000000 0 0 1
-22.223084 -31.423398 23.329193 45.006073 0.955245 1.025868 0.088007 -0.018188 -152931.000000 0 0 1
-21.281484 -32.153258 24.068053 45.453325 0.986117 1.012772 0.070756 -0.021565 -780757.000000 0 0 1
-20.525384 -31.430788 25.132163 45.175341 0.992291 0.980840 0.059759 -0.011042 -1196690.000000 0 0 1
-19.456084 -30.659428 24.596123 43.857827 1.005332 0.975427 0.074433 -0.020215 346561.000000 0 0 1
-18.770284 -29.932368 25.614543 43.639145 1.010696 0.943494 0.095266 -0.021495 390807.000000 0 0 1
-17.864384 -30.811238 26.565473 44.431891 1.045362 0.929928 0.073688 -0.030594 -653198.000000 0 0 1
-18.599584 -31.581198 27.518933 45.832393 1.038545 0.926763 0.077310 -0.031514 496408.000000 0 0 1
-17.753884 -32.072798 28.552913 46.466478 1.065232 0.909064 0.072006 -0.027164 -14170.800000 0 0 1
-18.142384 -31.373618 29.917963 46.995048 1.046509 0.880690 0.097446 -0.027557 46811.900000 0 0 1
-17.951784 -29.988638 29.843423 45.958839 1.031393 0.864065 0.093433 -0.026254 195379.000000 0 0 1
-18.244784 -29.402528 31.095913 46.522431 1.015427 0.838731 0.110098 -0.024346 -87354.000000 0 0 1
-17.898884 -27.856948 31.284353 45.553159 0.999691 0.813766 0.116999 -0.029264 136367.000000 0 0 1
-18.734884 -26.880668 30.648173 44.865094 0.962110 0.818772 0.120837 -0.025349 278975.000000 0 0 1
-18.892584 -26.941318 29.271083 44.040443 0.959232 0.843783 0.115284 -0.017859 -246435.000000 0 0 1
-17.596784 -26.680598 28.484333 42.811895 0.987747 0.842851 0.102650 -0.017800 -143437.000000 0 0 1
-17.158084 -25.353268 28.482863 41.814609 0.975838 0.821437 0.105342 -0.006904 -233396.000000 0 0 1
-15.979984 -25.167628 27.755583 40.732564 1.005080 0.821109 0.097937 -0.010078 -421165.000000 0 0 1
-15.937484 -23.817368 27.009793 39.380190 0.981074 0.814994 0.098937 -0.007730 -358531.000000 0 0 1
-16.877384 -23.829868 25.971533 39.079780 0.954558 0.843868 0.118791 -0.012144 -67918.500000 0 0 1
-16.656284 -22.786768 25.009503 37.711322 0.939591 0.845733 0.097510 -0.016584 -116392.000000 0 0 1
-17.361784 -21.429468 25.281073 37.413718 0.889877 0.828860 0.095173 -0.013780 -538285.000000 0 0 1
-17.230984 -20.475868 24.224473 36.096995 0.871242 0.835113 0.085601 -0.017915 92610.900000 0 0 1
-17.943984 -19.293168 24.506063 35.982774 0.821615 0.821601 0.083690 -0.006310 -199137.000000 0 0 1
-17.486384 -18.087268 23.691123 34.557086 0.802288 0.815417 0.079291 -0.019628 -11573.700000 0 0 1
-16.191684 -17.640468 24.007113 33.907200 0.828195 0.784100 0.092284 -0.028413 -542084.000000 0 0 1
-15.795184 -16.651568 23.145233 32.595465 0.811786 0.781191 0.092253 -0.026023 -327017.000000 0 0 1
-14.375284 -16.136468 23.405323 31.856609 0.843056 0.745559 0.113491 -0.036506 -1033100.000000 0 0 1
-13.385184 -17.038468 23.031553 31.621590 0.904906 0.754887 0.088420 -0.034899 -1381760.000000 0 0 1
-12.120784 -16.539068 23.277923 31.021216 0.938357 0.722149 0.090214 -0.040124 -892907.000000 0 0 1
-11.514084 -15.783868 22.047273 29.458222 0.940555 0.725112 0.099286 -0.036809 -369067.000000 0 0 1
-11.094084 -16.706668 21.004273 29.040849 0.984607 0.762276 0.114158 -0.034404 673153.000000 0 0 1
-9.756784 -17.211968 21.213373 29.007824 1.055101 0.750573 0.098241 -0.034213 752704.000000 0 0 1
-9.396784 -18.417968 20.318373 28.988918 1.099025 0.794136 0.091206 -0.027040 120869.000000 0 0 1
-9.241984 -18.015268 18.977573 27.750899 1.096796 0.817764 0.081870 -0.031135 -145461.000000 0 0 1
-8.644384 -19.130568 18.276573 27.834100 1.146395 0.854461 0.075577 -0.030756 350444.000000 0 0 1
-8.307784 -18.752968 16.846373 26.542294 1.153769 0.883177 0.066937 -0.031707 324758.000000 0 0 1
-7.196184 -17.877568 16.781273 25.553936 1.188114 0.854362 0.059798 -0.026591 -281671.000000 0 0 1
-7.038684 -17.636168 15.400073 24.448716 1.191062 0.889381 0.066033 -0.026567 546435.000000 0 1 0
-5.954584 -16.547768 15.138173 23.204525 1.225381 0.860076 0.046378 -0.026027 498559.000000 0 1 0
-6.455484 -15.365568 15.722173 22.912020 1.173061 0.814548 0.061006 -0.033803 107764.000000 0 1 0
-5.512484 -14.313168 15.657773 21.918488 1.203171 0.775082 0.042458 -0.023578 113890.000000 0 1 0
-5.770284 -13.210868 16.727173 22.082154 1.158988 0.711325 0.035697 -0.016101 -132598.000000 0 1 0
-5.165884 -13.522168 17.969273 23.074448 1.205876 0.678122 0.046402 -0.021242 224669.000000 0 1 0
-5.880384 -14.475368 18.786473 24.434540 1.184928 0.693757 0.069181 -0.027399 107014.000000 0 1 0
-7.275684 -14.184768 19.380573 25.094817 1.096864 0.688352 0.099426 -0.037621 22627.700000 0 0 1
-7.305084 -13.310868 20.489973 25.502597 1.068870 0.637735 0.087913 -0.033311 -278617.000000 0 0 1
-8.586384 -12.855468 20.825373 25.936176 0.981929 0.638573 0.092545 -0.027725 189484.000000 0 0 1
-8.266284 -11.820368 21.931773 26.249861 0.960523 0.581753 0.091222 -0.022937 152333.000000 0 0 1
-7.549884 -10.704368 21.458173 25.140355 0.956516 0.548064 0.065974 -0.020042 -153050.000000 0 0 1
-7.152584 -9.833568 22.511173 25.585375 0.941940 0.495260 0.066493 -0.022486 897039.000000 0 0 1
-5.645584 -9.994368 22.933483 25.645753 1.056603 0.464064 0.063601 -0.021585 688549.000000 0 0 1
-5.442684 -11.145668 23.720403 26.767634 1.116534 0.481805 0.078530 -0.014023 -364076.000000 0 0 1
-4.227584 -11.121468 24.416063 27.160701 1.207537 0.453434 0.057540 -0.014090 -511265.000000 0 0 1
-4.104684 -12.357968 25.335903 28.486414 1.250112 0.474759 0.063187 -0.018761 -422106.000000 0 0 1
-2.819084 -12.871568 25.597153 28.789560 1.355184 0.475394 0.031411 -0.015286 -185366.000000 0 0 1
-2.793684 -13.958768 26.492563 30.075036 1.373268 0.493074 0.040824 -0.022398 22276.600000 0 0 1
-2.876184 -15.425368 26.030923 30.394463 1.386455 0.542470 0.060626 -0.036469 152498.000000 0 0 1
-1.630184 -15.919868 25.565173 30.160865 1.468753 0.559299 0.054456 -0.035135 -40370.200000 0 0 1
-1.640184 -17.203568 24.955793 30.355305 1.475744 0.605666 0.074588 -0.032150 -1156740.000000 0 0 1
-0.287484 -17.895068 24.981203 30.730711 1.554733 0.621670 0.082699 -0.035692 -206631.000000 0 0 1
0.283816 -18.414068 26.187293 32.014571 -1.555385 0.612905 0.089259 -0.034485 38344.500000 0 0 1
0.582316 -17.413468 27.170703 32.277160 -1.537368 0.570199 0.100834 -0.041337 -661537.000000 0 0 1
1.605416 -17.903968 28.214083 33.453907 -1.481367 0.567269 0.093839 -0.035676 742054.000000 0 0 1
2.915516 -18.121168 27.620823 33.163034 -1.411273 0.586505 0.090189 -0.033324 821801.000000 0 0 1
3.868016 -18.374268 28.640793 34.247194 -1.363313 0.580304 0.102274 -0.045617 675908.000000 0 0 1
4.705516 -17.097168 29.078693 34.059146 -1.302224 0.547612 0.114611 -0.045633 -209672.000000 0 0 1
3.881016 -16.135268 29.661253 33.988220 -1.334750 0.510107 0.114067 -0.053193 250403.000000 0 0 1
4.652516 -15.009268 30.110013 33.963759 -1.270212 0.480998 0.135845 -0.062047 557342.000000 0 0 1
3.702716 -14.034068 30.892083 34.131891 -1.312837 0.439229 0.120073 -0.059173 385427.000000 0 0 1
3.288916 -14.619568 32.103011 35.428125 -1.349514 0.436718 0.109111 -0.068231 -409364.000000 0 0 1
2.533716 -13.665568 32.786743 35.610925 -1.387469 0.400943 0.105747 -0.058273 -201142.000000 0 0 1
1.696616 -14.345568 33.891073 36.841263 -1.453076 0.402916 0.100756 -0.057458 539076.000000 0 0 1
2.513016 -14.647568 -32.775840 35.987806 -1.400885 2.715889 0.104263 -0.051938 212209.000000 0 0 1
1.676316 -15.217768 -31.820720 35.312161 -1.461083 2.693157 0.108818 -0.055757 237621.000000 0 0 1
2.390916 -15.506668 -30.472330 34.274423 -1.417815 2.666104 0.099833 -0.045552 293841.000000 0 0 1
1.527016 -16.028768 -29.467460 33.579523 -1.475816 2.641509 0.095062 -0.041675 -323431.000000 0 0 1
2.113416 -15.963868 -28.206530 32.479531 -1.439174 2.622844 0.088747 -0.033727 -39306.200000 0 0 1
2.045016 -17.302268 -27.469850 32.529113 -1.453149 2.576371 0.092569 -0.036402 -183033.000000 0 0 1
2.912716 -18.237768 -28.033860 33.570781 -1.412426 2.559051 0.070621 -0.034119 -308859.000000 0 0 1
2.704016 -19.470968 -27.372750 33.700114 -1.432805 2.518787 0.081017 -0.037837 -967961.000000 0 0 1
3.679216 -20.574268 -27.821540 34.797632 -1.393841 2.497299 0.058121 -0.032916 1901590.000000 0 0 1
5.075116 -20.413568 -27.356530 34.508698 -1.327122 2.486092 0.060189 -0.024112 1961380.000000 0 0 1
5.305716 -20.464668 -25.967090 33.484967 -1.317119 2.458279 0.082778 -0.030378 -565780.000000 0 0 1
6.328416 -21.563368 -25.475900 33.971299 -1.285332 2.418744 0.035009 -0.022915 30374.000000 0 0 1
5.932016 -22.930168 -25.647030 34.910622 -1.317647 2.395944 0.039905 -0.023671 193787.000000 0 0 1
5.984516 -23.388868 -26.944630 36.178262 -1.320300 2.410992 0.023293 -0.010555 -382454.000000 0 0 1
5.320416 -24.747968 -27.109990 37.090703 -1.359035 2.390452 0.035390 -0.004874 -306602.000000 0 0 1
5.754916 -25.713568 -26.173660 37.139831 -1.350616 2.352843 0.047578 -0.014681 -18760.600000 0 0 1
5.280116 -26.980168 -26.489960 38.177572 -1.377535 2.337634 0.059649 -0.015842 -246572.000000 0 0 1
5.815116 -27.998468 -25.462560 38.289316 -1.366014 2.298296 0.087244 -0.022640 -69766.200000 0 0 1
7.201316 -28.245358 -25.559140 38.767626 -1.321159 2.290671 0.111177 -0.030749 -265735.000000 0 0 1
7.614716 -29.149928 -24.587950 38.887909 -1.315280 2.255286 0.116685 -0.041215 1062510.000000 0 0 1
9.137516 -29.512008 -24.853350 39.650243 -1.270537 2.248255 0.129457 -0.052200 1056500.000000 0 0 1
9.309916 -30.047478 -26.101080 40.875320 -1.270336 2.263414 0.120019 -0.045223 -623053.000000 0 0 1
10.633016 -30.407598 -26.344740 41.614040 -1.234404 2.256313 0.137470 -0.029292 -218171.000000 0 0 1
11.168316 -29.966758 -27.761130 42.348768 -1.214052 2.285688 0.131720 -0.046090 337548.000000 0 0 1
10.640516 -30.786618 -28.833250 43.501640 -1.238028 2.295359 0.131233 -0.047703 249249.000000 0 0 1
11.254516 -30.495518 -30.095190 44.298546 -1.217248 2.317703 0.122575 -0.030307 63915.700000 0 0 1
-35.757267 -4.650768 -5.710050 36.507759 0.129339 1.727848 0.187898 -0.050944 -21831.800000 0 0 1
-35.360905 -4.094968 -4.469150 35.876673 0.115291 1.695691 0.170173 -0.055150 306220.000000 0 0 1
-34.454849 -3.020768 -4.622050 34.894484 0.087450 1.703645 0.193903 -0.066123 -199300.000000 0 0 1
-35.107526 -1.728168 -5.119850 35.520949 0.049185 1.715436 0.217410 -0.046903 72223.300000 0 0 1
-36.190654 -1.202068 -4.351450 36.471133 0.033203 1.690393 0.154029 -0.041131 504036.000000 0 0 1
-36.758574 -0.084568 -4.990650 37.095909 0.002301 1.705739 0.137314 -0.037446 195992.000000 0 0 1
37.032361 0.497932 -4.253550 37.279168 0.013445 1.685145 0.160757 -0.033499 334389.000000 0 0 1
37.475901 1.104532 -3.028250 37.614272 0.029465 1.651392 0.168694 -0.030866 -32640.000000 0 0 1
36.462791 1.889332 -2.481450 36.595933 0.051769 1.638655 0.155998 -0.031485 -1169180.000000 0 0 1
36.929011 2.672532 -1.210450 37.045370 0.072244 1.603477 0.154364 -0.031938 887021.000000 0 0 1
-37.202024 3.826732 -1.369650 37.423394 -0.102503 1.607403 0.195631 -0.058549 1533390.000000 0 0 1
-36.079264 3.651232 -2.255550 36.333625 -0.100857 1.632915 0.174044 -0.027000 -282255.000000 0 0 1
-35.256709 4.908832 -2.637050 35.694344 -0.138342 1.644742 0.168350 -0.036688 367497.000000 0 0 1
-34.419715 5.419132 -1.589650 34.879948 -0.156161 1.616387 0.183404 -0.039183 539096.000000 0 0 1
-33.947574 6.705732 -1.957850 34.658878 -0.195021 1.627316 0.197422 -0.050890 -20715.900000 0 0 1
-33.239964 7.415432 -0.763150 34.065617 -0.219494 1.593201 0.192193 -0.048592 -25664.200000 0 0 1
-31.880324 7.082932 -0.492550 32.661378 -0.218622 1.585877 0.221784 -0.042367 596437.000000 0 0 1
-31.371804 7.661432 0.672250 32.300767 -0.239526 1.549983 0.236606 -0.046725 -99070.300000 0 0 1
-31.383354 9.194632 0.888650 32.714612 -0.285002 1.543629 0.241894 -0.051617 -484138.000000 0 0 1
-32.687134 9.729032 1.029150 34.119817 -0.289291 1.540629 0.206824 -0.051007 102954.000000 0 0 1
-32.745454 11.085232 1.438350 34.600809 -0.326418 1.529214 0.208148 -0.044287 -255248.000000 0 0 1
-34.161268 11.669632 1.568250 36.133529 -0.329176 1.527381 0.192249 -0.049524 -492009.000000 0 0 1
-34.735377 11.968232 0.329150 36.740895 -0.331815 1.561838 0.155736 -0.041291 1949620.000000 0 0 1
-36.050544 12.633032 0.362250 38.201655 -0.337054 1.561314 0.154679 -0.038440 1906800.000000 0 0 1
-37.341204 11.786632 0.461350 39.159967 -0.305749 1.559015 0.166852 -0.055051 -194405.000000 0 0 1
37.343721 11.141832 -0.748350 38.977608 0.289951 1.589997 0.173116 -0.051025 -29385.700000 0 0 1
36.260491 10.268332 -0.545750 37.690313 0.275957 1.585277 0.192074 -0.050062 -29910.500000 0 0 1
36.185761 9.110832 -1.574550 37.348303 0.246653 1.612967 0.195887 -0.046540 41168.800000 0 0 1
35.738541 9.585332 -2.839050 37.110404 0.262040 1.647374 0.184959 -0.049395 188403.000000 0 0 1
35.183841 8.510932 -3.577750 36.374976 0.237340 1.669313 0.163986 -0.046123 28926.700000 0 0 1
34.413651 8.978532 -4.848750 35.894620 0.255211 1.706293 0.137150 -0.038450 784948.000000 0 0 1
33.036581 9.344232 -4.699050 34.652726 0.275645 1.706819 0.152998 -0.033788 706266.000000 0 0 1
32.509231 9.856232 -5.867450 34.473502 0.294374 1.741831 0.133203 -0.020763 747809.000000 0 0 1
31.062351 10.497832 -5.715150 33.282684 0.325909 1.743367 0.157116 -0.027127 889643.000000 0 0 1
30.062131 9.523732 -5.549750 32.019258 0.306799 1.745001 0.146427 -0.014102 -292230.000000 0 0 1
28.787941 10.046032 -5.750650 31.028024 0.335754 1.757211 0.156142 -0.014421 432877.000000 0 0 1
27.665041 8.922632 -6.044850 29.690201 0.311991 1.775827 0.159075 -0.004938 739140.000000 0 0 1
27.869241 8.175432 -7.268350 29.939292 0.285344 1.816016 0.167012 -0.011059 568363.000000 0 0 1
26.907041 7.113632 -7.392750 28.796620 0.258465 1.830426 0.183511 -0.012299 202085.000000 0 0 1
27.143741 6.132332 -8.585150 29.122036 0.222191 1.870042 0.182373 -0.025609 -356294.000000 0 0 1
28.079041 5.135832 -8.296650 29.726145 0.180907 1.853656 0.163015 -0.022411 318305.000000 0 0 1
27.937241 4.098232 -9.239850 29.709590 0.145655 1.887047 0.152156 -0.021682 -810270.000000 0 0 1
28.856541 2.990532 -8.834350 30.326374 0.103266 1.866391 0.122176 -0.013357 -101224.000000 0 0 1
30.244661 3.330532 -9.025750 31.737928 0.109678 1.859160 0.148980 -0.013542 1564290.000000 0 0 1
31.216431 2.609832 -8.271650 32.399027 0.083410 1.828960 0.110611 -0.011160 174000.000000 0 0 1
31.292171 1.034732 -8.363450 32.407066 0.033055 1.831825 0.099539 -0.013714 -463323.000000 0 0 1
30.217591 0.358432 -7.698250 31.184841 0.011861 1.820234 0.133576 -0.023656 784220.000000 0 0 1
30.467041 -1.039468 -7.392950 31.368404 -0.034105 1.808716 0.123309 -0.031752 -207963.000000 0 0 1
30.413841 -2.076868 -8.535750 31.657134 -0.068181 1.843806 0.119060 -0.022743 -306933.000000 0 0 1
31.559261 -2.044468 -9.346350 32.977584 -0.064691 1.858150 0.106024 -0.017796 165783.000000 0 0 1
31.601241 -3.266468 -10.062750 33.325173 -0.102999 1.877541 0.089546 -0.030495 408149.000000 0 0 1
32.725941 -3.286068 -11.187750 34.741203 -0.100076 1.898670 0.094670 -0.035773 25278.400000 0 0 1
33.974281 -3.570468 -10.640250 35.780091 -0.104709 1.872743 0.106718 -0.023952 -966358.000000 0 0 1
34.889531 -3.886768 -11.624750 36.980010 -0.110945 1.890571 0.119661 -0.049452 -914997.000000 0 0 1
36.277871 -4.181768 -11.071250 38.159450 -0.114764 1.865160 0.156323 -0.043429 -884688.000000 0 0 1
36.357911 -5.355868 -10.365150 38.184019 -0.146258 1.845698 0.151116 -0.049955 329927.000000 0 0 1
-37.341934 -5.733068 -10.019750 39.085592 0.152339 1.830045 0.176354 -0.048758 -32023.400000 0 0 1
-37.401004 -6.915868 -8.984450 39.081769 0.182846 1.802759 0.175117 -0.055853 -23812.000000 0 0 1
37.044021 -6.512068 -7.739250 38.400032 -0.174015 1.773729 0.170276 -0.052804 614876.000000 0 0 1
36.516861 -7.714068 -7.156250 38.002630 -0.208186 1.760237 0.174425 -0.046887 -218005.000000 0 0 1
36.276251 -7.648768 -5.627550 37.498524 -0.207804 1.721439 0.170762 -0.039142 -323188.000000 0 0 1
37.422791 -7.601068 -4.793650 38.486628 -0.200387 1.695674 0.174189 -0.032409 321036.000000 0 0 1
-37.348314 -8.773068 -4.057750 38.578862 0.230716 1.676172 0.201561 -0.032409 -289830.000000 0 0 1
-36.799094 -10.027568 -4.731250 38.433191 0.266036 1.694213 0.199098 -0.038464 -635758.000000 0 0 1
37.305901 -10.622168 -5.611450 39.192462 -0.277391 1.714467 0.191454 -0.042271 -216045.000000 0 0 1
-37.104774 -11.575468 -6.423450 39.395639 0.302399 1.734577 0.149425 -0.033686 -250437.000000 0 0 1
37.233731 -11.986768 -7.748650 39.875743 -0.311455 1.766360 0.146372 -0.046290 -52258.700000 0 0 1
37.380671 -10.941768 -8.662050 39.900726 -0.284757 1.789629 0.165619 -0.054320 134388.000000 0 0 1
37.412951 -11.372968 -9.976350 40.355927 -0.295109 1.820595 0.173245 -0.039578 -91513.300000 0 0 1
37.456631 -10.208968 -10.950750 40.337837 -0.266091 1.845722 0.152769 -0.046342 -1360790.000000 0 0 1
36.286421 -9.526368 -11.035050 39.105349 -0.256739 1.856870 0.145862 -0.048922 -896916.000000 0 0 1
36.360301 -8.712568 -12.174450 39.321718 -0.235183 1.885581 0.141400 -0.057182 -981338.000000 0 0 1
35.081151 -7.976768 -12.488250 38.082441 -0.223579 1.904904 0.133381 -0.055079 -868677.000000 0 0 1
35.286081 -7.265568 -13.694250 38.541256 -0.203067 1.934046 0.132349 -0.048939 1121340.000000 0 0 1
34.154541 -6.479968 -14.078550 37.506375 -0.187496 1.955586 0.108822 -0.052334 439313.000000 0 0 1
34.633791 -5.647068 -15.287450 38.276559 -0.161628 1.981653 0.103438 -0.051390 239622.000000 0 0 1
35.630471 -4.697268 -14.963750 38.929533 -0.131077 1.965333 0.115117 -0.048060 311506.000000 0 0 1
35.467741 -3.519868 -15.758350 38.970190 -0.098917 1.987085 0.110902 -0.045492 998616.000000 0 0 1
36.822731 -2.699168 -15.852350 40.180791 -0.073171 1.976348 0.113353 -0.050090 453964.000000 0 0 1
-37.241954 -3.115768 -16.794150 40.972120 0.083468 1.993132 0.128012 -0.042540 1727040.000000 0 0 1
-35.836905 -2.793368 -16.547550 39.571556 0.077789 2.002224 0.147043 -0.034371 1751220.000000 0 0 1
-35.449032 -1.294268 -16.325750 39.049188 0.036494 2.002129 0.147820 -0.027945 -1114780.000000 0 0 1
-35.803636 -0.371168 -17.368450 39.795743 0.010366 2.022434 0.123425 -0.028281 288410.000000 0 0 1
-35.949088 0.889232 -16.817450 39.698290 -0.024731 2.008247 0.126200 -0.024900 -113533.000000 0 0 1
-36.197864 2.013932 -17.834450 40.403080 -0.055579 2.027969 0.107783 -0.024750 34030.900000 0 0 1
-35.049708 2.233932 -18.628450 39.755397 -0.063650 2.058475 0.099677 -0.010988 180841.000000 0 0 1
-35.072225 3.377032 -19.399150 40.221789 -0.095992 2.074080 0.091823 0.001353 -236080.000000 0 0 1
-34.147812 3.581632 -20.624250 40.053225 -0.104504 2.111712 0.078481 0.006647 901598.000000 0 0 1
-32.748374 3.760932 -20.338450 38.733101 -0.114342 2.123620 0.086448 0.003751 650168.000000 0 0 1
-32.026564 4.046632 -21.458650 38.762736 -0.125686 2.157465 0.069472 0.006623 -504762.000000 0 0 1
-30.640694 4.664632 -21.211950 37.557392 -0.151077 2.170972 0.079761 -0.001892 -16726.600000 0 0 1
-29.707594 3.721932 -20.755150 36.430347 -0.124636 2.176963 0.084819 0.007411 278055.000000 0 0 1
-28.362344 4.170332 -20.780750 35.406974 -0.145992 2.198035 0.056983 0.007831 803820.000000 0 0 1
-27.298584 3.163932 -20.215750 34.115974 -0.115386 2.205029 0.075878 0.006631 359240.000000 0 0 1
-27.293994 3.223532 -18.819550 33.309589 -0.117560 2.171216 0.078623 0.006995 -158899.000000 0 0 1
-26.621394 2.171732 -18.205250 32.324080 -0.081398 2.169062 0.082861 0.005197 -634591.000000 0 0 1
-26.009544 2.549332 -16.838050 31.088830 -0.097703 2.143149 0.094201 -0.003846 8868.070000 0 0 1
-24.808484 3.270032 -17.076750 30.294708 -0.131056 2.169640 0.088164 -0.011478 33434.300000 0 0 1
-24.303384 3.779132 -15.867950 29.269919 -0.154263 2.143760 0.102286 -0.026643 -1046870.000000 0 0 1
-23.111684 4.689232 -16.007550 28.502289 -0.200177 2.167143 0.121281 -0.037622 -388608.000000 0 0 1
-21.974184 3.944732 -16.436050 27.723084 -0.177625 2.205408 0.137529 -0.042909 -884143.000000 0 0 1
-20.923784 4.785432 -16.643250 27.160686 -0.224841 2.230357 0.128353 -0.039768 -888108.000000 0 0 1
-19.682184 4.017232 -17.160950 26.420157 -0.201340 2.277776 0.175021 -0.051267 116266.000000 0 0 1
-19.008684 3.095932 -16.304650 25.234034 -0.161452 2.273309 0.201852 -0.049041 458905.000000 0 0 1
-17.992584 2.322732 -16.933050 24.816453 -0.128384 2.321744 0.158990 -0.052661 -264531.000000 0 1 0
-18.009784 0.937932 -16.422150 24.390962 -0.052032 2.309444 0.177459 -0.045166 657184.000000 0 1 0
-18.983384 0.054632 -17.011450 25.490415 -0.002878 2.301463 0.119431 -0.031235 470802.000000 0 0 1
-20.329084 0.248132 -16.655950 26.282197 -0.012205 2.257169 0.125705 -0.034696 -711035.000000 0 0 1
-21.284484 -0.816768 -17.187950 27.370093 0.038355 2.249755 0.095621 -0.030268 -385433.000000 0 0 1
-21.280984 -2.052268 -16.512650 27.014064 0.096139 2.228450 0.100025 -0.028390 339916.000000 0 0 1
-22.191684 -2.940868 -17.111550 28.176669 0.131753 2.223448 0.089395 -0.017823 -81966.700000 0 0 1
-22.138684 -4.282268 -16.355650 27.856174 0.191070 2.198325 0.108247 -0.025027 -151710.000000 0 0 1
-22.585684 -4.003568 -15.047650 27.433072 0.175439 2.151392 0.104206 -0.032242 250867.000000 0 0 1
-22.785384 -5.158768 -14.291450 27.386715 0.222653 2.119801 0.102825 -0.040115 -85414.000000 0 0 1
-23.080084 -4.768668 -12.823750 26.830561 0.203747 2.069119 0.119394 -0.051055 -48906.000000 0 0 1
-24.288984 -4.047068 -12.710050 27.710627 0.165105 2.047295 0.113656 -0.053279 359006.000000 0 0 1
-24.399184 -3.503168 -11.403550 27.159405 0.142603 2.004104 0.134422 -0.064212 -333773.000000 0 0 1
-25.036004 -2.107368 -11.279350 27.540265 0.083976 1.992766 0.187487 -0.060931 -236206.000000 0 0 1
-25.263254 -1.682268 -9.939650 27.200343 0.066491 1.944884 0.189721 -0.063787 743619.000000 0 0 1
-25.907084 -0.393368 -9.958350 27.757890 0.015183 1.937733 0.219153 -0.062509 193911.000000 0 0 1
-26.392844 0.174132 -8.584650 27.754436 -0.006598 1.885261 0.241078 -0.055710 436532.000000 0 0 1
-25.267674 0.456232 -7.732850 26.428402 -0.018054 1.867737 0.202640 -0.055425 675328.000000 0 0 1
-25.627574 0.910032 -6.466550 26.446493 -0.035495 1.817815 0.204964 -0.058145 -521623.000000 0 0 1
-24.450984 1.163232 -5.531750 25.095896 -0.047538 1.793046 0.150399 -0.043926 -379912.000000 0 0 1
-23.948084 2.459932 -5.657450 24.729916 -0.102360 1.801610 0.170016 -0.040488 777150.000000 0 1 0
-22.613884 2.626332 -5.164650 23.344356 -0.115620 1.793880 0.148076 -0.030595 574607.000000 0 1 0
-22.057884 4.066032 -5.307750 23.048971 -0.182288 1.803163 0.130220 -0.033013 -304876.000000 0 1 0
-22.518884 4.964032 -4.325650 23.461735 -0.216969 1.756228 0.134376 -0.032802 701429.000000 0 1 0
-22.139584 6.296132 -4.614450 23.475425 -0.277069 1.768650 0.105333 -0.032261 -572134.000000 0 1 0
-22.845484 7.205232 -3.590950 24.222436 -0.305515 1.719594 0.133653 -0.030458 -170766.000000 0 1 0
-22.183784 7.278332 -2.330350 23.463267 -0.317026 1.670279 0.113596 -0.029326 1445380.000000 0 1 0
-20.850684 7.828132 -2.286050 22.388763 -0.359154 1.673082 0.116083 -0.027547 317905.000000 0 1 0
-20.680584 9.353532 -2.510850 22.835925 -0.424753 1.680971 0.121719 -0.031252 -713929.000000 0 1 0
-20.615684 9.642732 -3.912050 23.093134 -0.437506 1.741020 0.109827 -0.028479 652645.000000 0 1 0
-20.276084 11.013032 -4.162950 23.446463 -0.497572 1.749294 0.128005 -0.020752 -182003.000000 0 1 0
-20.120284 11.332532 -5.648850 23.773128 -0.512951 1.810706 0.125007 -0.028103 -715981.000000 0 1 0
-18.926284 10.919032 -6.229050 22.720707 -0.523279 1.848510 0.092576 -0.028562 -309600.000000 0 1 0
-18.974884 11.414232 -7.561250 23.398791 -0.541554 1.899849 0.103715 -0.022725 -682237.000000 0 1 0
-17.770884 11.070532 -8.397650 22.558402 -0.557130 1.952242 0.099620 -0.014585 -712557.000000 0 1 0
-17.560984 9.699832 -8.684350 21.860760 -0.504647 1.979323 0.104301 -0.019214 332409.000000 0 1 0
-18.465184 9.050532 -9.596050 22.692715 -0.455729 2.007406 0.110906 -0.018664 -26533.500000 0 1 0
-18.411284 9.519232 -11.090250 23.507122 -0.477181 2.062108 0.115475 -0.023269 -27708.300000 0 1 0
-17.147684 9.373232 -11.696150 22.774996 -0.500243 2.110116 0.105664 -0.019829 -182999.000000 0 1 0
-17.061584 10.197332 -12.813250 23.648733 -0.538710 2.143392 0.104868 -0.026354 836598.000000 0 1 0
-15.725584 9.916832 -13.604250 23.037212 -0.562629 2.202516 0.074794 -0.019999 572254.000000 0 1 0
-15.841084 8.735332 -14.425150 23.137219 -0.503944 2.243958 0.093821 -0.034814 156208.000000 0 1 0
-15.717584 7.501732 -13.736950 22.181574 -0.445309 2.238641 0.088967 -0.029663 -342219.000000 0 1 0
-15.730584 6.157032 -14.457150 22.234421 -0.373075 2.278663 0.103717 -0.035568 785740.000000 0 1 0
-14.615184 5.895832 -15.376950 22.018515 -0.383438 2.343906 0.097540 -0.038444 1367000.000000 0 1 0
-14.629384 4.627932 -15.915950 22.107783 -0.306384 2.374491 0.105678 -0.046606 -291809.000000 0 1 0
33.486651 -15.414068 28.231803 46.432574 -0.431390 0.917236 0.070252 -0.019065 114300.000000 0 0 1
32.724041 -14.241668 28.566603 45.713661 -0.410483 0.895789 0.083471 -0.016355 170108.000000 0 0 1
31.780271 -14.495768 29.601393 45.785973 -0.427936 0.867787 0.088611 -0.014689 366287.000000 0 0 1
32.344661 -14.490568 31.071453 47.133734 -0.421194 0.851017 0.080680 -0.024362 62527.300000 0 0 1
32.730611 -13.169668 31.460543 47.270486 -0.382544 0.842575 0.073500 -0.027427 145326.000000 0 0 1
32.864591 -13.176368 32.847896 48.297849 -0.381307 0.822882 0.068193 -0.029190 -129410.000000 0 0 1
32.888581 -11.756968 33.443989 48.356855 -0.343322 0.807083 0.083496 -0.026885 -156106.000000 0 0 1
32.930281 -11.673868 -32.954770 48.028111 -0.340680 2.326988 0.063835 -0.035559 192670.000000 0 0 1
32.714261 -10.339268 -32.519360 47.271895 -0.306114 2.329418 0.079967 -0.029132 -227383.000000 0 0 1
32.224011 -10.177868 -31.058980 45.898105 -0.305931 2.314060 0.083850 -0.029373 -7190.410000 0 0 1
30.929591 -10.748368 -30.893640 45.017596 -0.334456 2.327127 0.115956 -0.031210 408279.000000 0 0 1
30.494051 -10.433868 -29.582330 43.747765 -0.329674 2.313391 0.106965 -0.032082 -1322080.000000 0 0 1
29.511541 -9.303368 -29.382730 42.671167 -0.305384 2.330332 0.100915 -0.016950 -565964.000000 0 0 1
28.939541 -9.245968 -28.096400 41.381066 -0.309243 2.317152 0.089197 -0.019952 256011.000000 0 0 1
27.964341 -10.233468 -27.836950 40.763022 -0.350810 2.322517 0.103205 -0.017411 -1964940.000000 0 0 1
27.525941 -10.203468 -26.374090 39.463664 -0.354983 2.302735 0.107935 -0.012705 -564308.000000 0 0 1
26.546341 -9.209568 -25.999890 38.282092 -0.333932 2.317422 0.102558 -0.008799 1309160.000000 0 0 1
25.283041 -9.258168 -26.675940 37.901868 -0.351017 2.351551 0.098158 -0.014277 403566.000000 0 0 1
24.399441 -10.556668 -26.489510 37.529589 -0.408341 2.354390 0.103265 -0.012700 -966494.000000 0 0 1
24.882141 -11.593968 -27.311500 38.722849 -0.436043 2.353653 0.103688 -0.012289 314338.000000 0 0 1
24.289241 -12.850168 -26.952400 38.490595 -0.486615 2.346521 0.118702 -0.018968 260242.000000 0 0 1
24.968041 -13.996668 -27.755170 39.870530 -0.510932 2.340792 0.105857 -0.010200 126526.000000 0 0 1
24.923741 -13.994268 -29.196600 40.859195 -0.511617 2.366800 0.105808 -0.019534 775031.000000 0 0 1
25.996141 -14.740868 -29.822660 42.219469 -0.515832 2.355156 0.100508 -0.016799 265399.000000 0 0 1
26.048741 -14.620168 -31.384610 43.327588 -0.511449 2.380897 0.107188 -0.021289 211823.000000 0 0 1
24.955641 -15.284268 -32.046560 43.397867 -0.549529 2.401545 0.106879 -0.019206 448138.000000 0 0 1
24.938041 -15.362768 -33.455110 44.465322 -0.552128 2.422474 0.102378 -0.020758 42936.400000 0 0 1
25.053741 -14.165068 33.423758 44.107671 -0.514580 0.710898 0.079972 -0.023352 135604.000000 0 0 1
23.901741 -13.361868 33.532256 43.292550 -0.509752 0.684793 0.077473 -0.020938 -162654.000000 0 0 1
23.992441 -12.293968 32.576215 42.284615 -0.473526 0.691323 0.068524 -0.014611 -472111.000000 0 0 1
22.948441 -11.141268 32.687672 41.463752 -0.451973 0.662685 0.070529 -0.014260 218321.000000 0 0 1
21.605741 -11.563668 32.537995 40.733863 -0.491419 0.645507 0.061616 -0.015505 183880.000000 0 0 1
21.261341 -11.729168 31.146073 39.492985 -0.504122 0.662189 0.054138 -0.011175 -1144210.000000 0 0 1
19.801541 -12.165568 30.914583 38.675748 -0.550922 0.644621 0.064975 -0.008551 555384.000000 0 0 1
18.839041 -11.101168 30.953333 37.897945 -0.532488 0.615032 0.068740 -0.011997 439046.000000 0 0 1
18.176941 -11.038668 32.227382 38.611624 -0.545762 0.583290 0.043035 0.001137 125051.000000 0 0 1
17.368741 -9.701368 32.438049 38.052815 -0.509386 0.550146 0.050142 -0.005250 183253.000000 0 0 1
16.390241 -9.475068 31.389583 36.656825 -0.524155 0.542716 0.087143 -0.009769 852891.000000 0 0 1
15.560141 -8.303268 31.417913 36.029814 -0.490184 0.511528 0.098644 -0.004717 136925.000000 0 0 1
14.564641 -8.308868 32.557091 36.621445 -0.518432 0.475602 0.111749 -0.021086 -1906570.000000 0 0 1
13.527241 -9.237068 32.419942 36.323027 -0.599122 0.467838 0.114604 -0.017108 88571.500000 0 0 1
12.367841 -9.122168 33.217478 36.600250 -0.635499 0.433324 0.111290 -0.022757 222921.000000 0 0 1
11.393541 -8.034868 32.781702 35.623193 -0.614216 0.402116 0.145264 -0.029611 -683759.000000 0 0 1
11.888941 -6.712168 33.042203 35.751745 -0.513962 0.391829 0.128908 -0.030533 890837.000000 0 0 1
10.841241 -5.872368 32.519671 34.778531 -0.496425 0.362396 0.157508 -0.022304 736311.000000 0 0 1
11.106141 -4.378468 32.629197 34.744523 -0.375530 0.350743 0.155664 -0.027774 -51461.700000 0 0 1
10.995741 -3.901568 -33.819860 35.775850 -0.340967 2.809391 0.146388 -0.049369 239688.000000 0 0 1
11.309441 -2.520868 -33.840570 35.769294 -0.219314 2.811705 0.106046 -0.044488 -333330.000000 0 0 1
10.872141 -1.705468 -32.588800 34.396830 -0.155598 2.815921 0.093993 -0.044887 -2115740.000000 0 0 1
9.538641 -1.599868 -32.520870 33.928634 -0.166178 2.852518 0.093295 -0.028377 -2091110.000000 0 0 1
9.129341 -0.812568 -31.395570 32.706068 -0.088772 2.857552 0.089223 -0.021214 -354989.000000 0 0 1
7.611441 -0.701768 -31.212830 32.135140 -0.091939 2.901429 0.093119 -0.020155 -688446.000000 0 0 1
7.115041 0.262632 -32.119790 32.899448 0.036896 2.923453 0.097307 -0.020216 207784.000000 0 0 1
5.737341 0.508332 -31.883210 32.399298 0.088370 2.962867 0.112177 -0.020887 -16475.900000 0 0 1
5.106441 1.384632 -32.937680 33.359911 0.264787 2.982322 0.105757 -0.026097 -129751.000000 0 0 1
5.654641 2.715632 -32.996710 33.587683 0.447722 2.953727 0.088208 -0.031819 59177.300000 0 0 1
5.046641 3.447132 33.777133 34.325589 0.599263 0.179001 0.084432 -0.030043 225434.000000 0 0 1
5.969541 4.627632 33.373123 34.217185 0.659440 0.222575 0.074707 -0.028899 146176.000000 0 0 1
5.462741 5.381532 32.346550 33.243070 0.777910 0.232769 0.093811 -0.044988 282338.000000 0 0 1
6.409341 6.408232 32.124153 33.378231 0.785312 0.274989 0.092608 -0.036781 193581.000000 0 0 1
5.722541 7.547432 31.324913 32.725546 0.922061 0.293626 0.098088 -0.033007 -584802.000000 0 0 1
4.698241 8.170332 32.051842 33.408807 1.048934 0.285989 0.106401 -0.040530 -2116.690000 0 0 1
4.136941 9.402432 31.564583 33.194019 1.156301 0.314627 0.112547 -0.045460 122406.000000 0 0 1
3.657041 9.429432 30.142913 31.794392 1.200823 0.323724 0.117206 -0.042343 -615367.000000 0 0 1
2.468741 8.733832 29.825123 31.175511 1.295319 0.295405 0.111667 -0.047130 -89950.800000 0 0 1
2.315441 8.502532 28.428623 29.763080 1.304920 0.300583 0.091282 -0.029965 920880.000000 0 0 1
0.904041 7.911332 28.036763 29.145610 1.457018 0.276726 0.103946 -0.038608 1056810.000000 0 0 1
-0.211659 8.697632 28.418853 29.720781 -1.546466 0.297082 0.108397 -0.034851 690592.000000 0 0 1
-1.357159 8.306532 27.617553 28.871606 -1.408843 0.295816 0.113615 -0.031840 214892.000000 0 0 1
-2.727859 8.544432 28.175483 29.568672 -1.261769 0.308194 0.112839 -0.033839 -877247.000000 0 0 1
-3.080059 9.928932 28.389203 30.232719 -1.269999 0.351020 0.106796 -0.032895 -310097.000000 0 0 1
-4.345459 10.039032 28.998273 30.992984 -1.162290 0.360729 0.095321 -0.022987 -306187.000000 0 0 1
-4.628059 11.327132 29.804153 32.218169 -1.182914 0.389569 0.074522 -0.017578 -21809.500000 0 0 1
-4.852159 12.546532 29.126453 32.082849 -1.201779 0.432666 0.068040 -0.022588 879272.000000 0 0 1
-6.095059 12.630432 28.391843 31.666612 -1.121190 0.458797 0.068886 -0.029116 799280.000000 0 0 1
-6.100959 14.049132 27.753813 31.699747 -1.161110 0.504282 0.050052 -0.022327 332051.000000 0 0 1
-5.160459 14.273932 26.709493 30.720881 -1.223887 0.516760 0.050501 -0.014521 -44266.200000 0 0 1
-5.403959 15.548132 26.097783 30.855169 -1.236294 0.562704 0.035897 -0.012835 146879.000000 0 0 1
-4.167759 16.220432 25.448523 30.464733 -1.319292 0.582039 0.062722 -0.019315 148063.000000 0 0 1
-3.887059 15.708232 24.149063 29.069486 -1.328216 0.590368 0.048544 -0.012397 367706.000000 0 0 1
-2.974659 16.557432 23.403893 28.822550 -1.393036 0.623227 0.059371 -0.009953 569574.000000 0 0 1
-2.823159 16.275532 21.917173 27.444957 -1.399045 0.645853 0.068904 -0.010405 -5829.960000 0 0 1
-1.929359 15.231532 21.593473 26.495284 -1.444799 0.618079 0.064533 -0.013766 -94454.400000 0 0 1
-1.896159 15.085532 20.212873 25.292864 -1.445758 0.644911 0.068998 -0.019391 131081.000000 0 0 1
-1.078959 13.864732 19.765673 24.167681 -1.493132 0.613122 0.068936 -0.025928 -141604.000000 0 1 0
-1.639559 12.651532 20.220973 23.908935 -1.441921 0.562828 0.072949 -0.019590 -138542.000000 0 1 0
-1.121959 11.564432 19.486273 22.687215 -1.474081 0.537659 0.070633 -0.020835 -244444.000000 0 1 0
-2.113659 10.424332 19.168073 21.921434 -1.370746 0.506601 0.056762 -0.017564 -173938.000000 0 1 0
-2.558259 9.587832 20.221373 22.524990 -1.310047 0.456205 0.093309 -0.031925 141205.000000 0 1 0
-3.424359 10.066432 21.280173 23.788759 -1.242900 0.463379 0.100922 -0.027134 165285.000000 0 1 0
-4.905959 9.955732 20.888373 23.653946 -1.112944 0.488406 0.082057 -0.019667 -442426.000000 0 1 0
-5.483859 8.701832 21.124273 23.495308 -1.008469 0.453122 0.063564 -0.018135 884109.000000 0 1 0
-6.893459 8.737032 20.796673 23.587224 -0.902803 0.491359 0.057007 -0.018077 1262940.000000 0 1 0
-7.594859 7.362132 20.968973 23.485756 -0.769840 0.467189 0.056501 -0.013096 77488.300000 0 1 0
-7.680859 6.886232 22.261873 24.535827 -0.730903 0.433928 0.051811 -0.012227 306902.000000 0 1 0
-8.352659 5.605132 22.280473 24.445939 -0.591038 0.424079 0.053677 -0.008235 348071.000000 0 1 0
-8.360659 5.009632 23.722193 25.646432 -0.539824 0.389838 0.057677 -0.013441 30093.100000 0 0 1
-9.238259 5.633832 24.640083 26.911321 -0.547621 0.413792 0.046874 -0.013097 133751.000000 0 0 1
-9.335759 4.885132 25.848273 27.913333 -0.482091 0.387070 0.047106 -0.005164 -578100.000000 0 0 1
-10.253759 5.524432 26.863173 29.279498 -0.494182 0.409113 0.052836 -0.009487 -819739.000000 0 0 1
-9.718159 6.625832 27.516943 29.925348 -0.598406 0.403940 0.056689 -0.012156 -502030.000000 0 0 1
-10.542159 7.098732 28.541903 31.243709 -0.592626 0.418930 0.051979 -0.015205 -310408.000000 0 0 1
-9.822359 8.108932 29.403373 32.043593 -0.690132 0.408783 0.064622 -0.011306 -818430.000000 0 0 1
-8.792459 7.585232 30.134123 32.294093 -0.711820 0.367814 0.090318 -0.022780 -921874.000000 0 0 1
-8.279959 8.513732 31.054293 33.247714 -0.799318 0.365268 0.092118 -0.019487 -74742.300000 0 0 1
-7.137459 7.857732 31.839694 33.562679 -0.833395 0.321813 0.115900 -0.023927 127395.000000 0 0 1
-5.844759 7.843932 31.284413 32.778087 -0.930418 0.303050 0.129684 -0.032750 -242732.000000 0 0 1
-4.885859 7.379132 32.198456 33.392571 -0.985949 0.268235 0.143000 -0.035658 819761.000000 0 0 1
-3.381259 7.440332 31.770006 32.804340 -1.144248 0.251784 0.121268 -0.036824 966306.000000 0 0 1
-2.838359 8.767432 31.750954 33.061265 -1.257705 0.282480 0.108984 -0.039498 54140.400000 0 0 1
-1.424259 8.744832 31.614763 32.832817 -1.409345 0.273241 0.101515 -0.046313 426093.000000 0 0 1
-0.811759 10.133632 31.433413 33.036479 -1.490862 0.312799 0.102999 -0.044110 -64247.800000 0 0 1
-0.972459 11.081132 32.498706 34.349717 -1.483262 0.329783 0.094842 -0.051558 -42948.300000 0 0 1
-1.671759 12.244532 32.096746 34.393669 -1.435104 0.367533 0.081807 -0.039204 -55830.300000 0 0 1
-1.844459 13.232532 33.252568 35.836228 -1.432300 0.382046 0.077503 -0.039392 -107423.000000 0 0 1
-0.588659 13.737832 33.659675 36.359982 -1.527973 0.387824 0.127941 -0.044396 -226929.000000 0 0 1
-0.709959 14.956432 -33.454710 36.652647 -1.523363 2.720763 0.119677 -0.043392 -298063.000000 0 0 1
0.610741 15.329532 -32.787830 36.199576 1.530977 2.703946 0.100275 -0.039986 538021.000000 0 0 1
1.667541 15.699332 -33.727790 37.239945 1.464976 2.703797 0.121709 -0.039388 662219.000000 0 0 1
2.826841 16.117432 -33.067400 36.894655 1.397172 2.682072 0.118444 -0.037915 119016.000000 0 0 1
3.881641 16.800332 33.790453 37.935643 1.343735 0.471845 0.118615 -0.030468 512906.000000 0 0 1
3.617741 18.188932 33.532950 38.319500 1.374461 0.505178 0.114083 -0.026857 -191612.000000 0 0 1
4.827741 18.839032 33.284700 38.549805 1.319932 0.528785 0.088896 -0.004937 -315642.000000 0 0 1
4.685041 20.381932 33.201969 39.239566 1.344859 0.562105 0.099934 -0.021969 -251123.000000 0 0 1
4.437241 21.076432 -33.367600 39.715259 1.363296 2.568394 0.118319 -0.041075 199530.000000 0 0 1
4.384741 22.464132 -33.530030 40.597119 1.378031 2.542631 0.100233 -0.037680 -77555.300000 0 0 1
4.203841 23.175032 -32.182280 39.880490 1.391352 2.509796 0.116919 -0.045731 -28346.000000 0 0 1
3.920641 24.553632 -32.194490 40.678464 1.412456 2.483955 0.126572 -0.045169 186175.000000 0 0 1
3.647941 24.965032 -30.860170 39.861139 1.425701 2.456234 0.133597 -0.051141 -182939.000000 0 0 1
3.089341 26.390432 -30.784060 40.665185 1.454264 2.429525 0.133200 -0.057253 -382086.000000 0 0 1
4.063441 27.382132 -30.788580 41.403253 1.423474 2.409275 0.140666 -0.055243 -70347.500000 0 0 1
3.491441 28.607932 -30.409000 41.896434 1.449352 2.383013 0.133758 -0.056259 -59424.400000 0 0 1
4.596041 29.626332 -30.069670 42.462079 1.416890 2.357676 0.153784 -0.068508 307437.000000 0 0 1
5.426941 29.329832 -28.932300 41.554407 1.387834 2.340958 0.146952 -0.078016 514725.000000 0 0 1
6.211141 30.544632 -28.780000 42.424535 1.370185 2.316353 0.156159 -0.082910 139632.000000 0 0 1
7.513241 30.459132 -27.950200 42.016915 1.328958 2.298575 0.162133 -0.073447 -1178600.000000 0 0 1
8.526641 29.828632 -28.629950 42.215221 1.292367 2.316093 0.163899 -0.070623 -255919.000000 0 0 1
9.806541 30.445332 -28.497940 42.839457 1.259187 2.298593 0.162874 -0.066297 535561.000000 0 0 1
10.042241 31.774932 -29.240110 44.333700 1.264687 2.291011 0.176994 -0.069242 -778635.000000 0 0 1
9.291141 32.769632 -28.513270 44.420498 1.294518 2.267763 0.183206 -0.068396 400186.000000 0 0 1
9.170641 -33.633342 -29.110580 45.417267 -1.304602 2.266543 0.160260 -0.060671 -249740.000000 0 0 1
7.925241 -33.542742 -30.009980 45.700370 -1.338778 2.287189 0.131676 -0.046414 -429834.000000 0 0 1
8.010841 33.498332 -31.259880 46.513352 1.336063 2.307787 0.109035 -0.046335 552035.000000 0 0 1
6.830441 32.768632 -31.672360 46.082280 1.365294 2.328562 0.106111 -0.046880 470701.000000 0 0 1
6.969541 31.996232 -32.975490 46.472748 1.356323 2.359679 0.113779 -0.061149 -111936.000000 0 0 1
6.637441 32.883332 33.784183 47.610295 1.371624 0.781868 0.102162 -0.049903 141186.000000 0 0 1
6.547141 32.133232 32.564749 46.215501 1.369798 0.788897 0.100086 -0.045505 -121724.000000 0 0 1
6.004741 32.894832 31.336513 45.826891 1.390241 0.817836 0.084591 -0.049876 -324831.000000 0 0 1
6.984641 33.580632 30.607493 45.970237 1.365724 0.842216 0.082983 -0.044885 50618.900000 0 0 1
6.498441 -33.367442 29.459583 44.983141 -1.378450 0.856742 0.065511 -0.047840 -31706.000000 0 0 1
18.498916 -21.811368 28.890923 40.652566 -0.867388 0.780333 0.120673 -0.017412 -403611.000000 0 0 1
17.707316 -20.689968 29.272993 39.981645 -0.862921 0.749307 0.121822 -0.015390 652893.000000 0 0 1
16.318416 -21.007268 29.310693 39.581722 -0.910364 0.736966 0.117951 -0.013225 398649.000000 0 0 1
15.739516 -21.561168 30.621873 40.624075 -0.940223 0.716991 0.116434 -0.015789 -323935.000000 0 0 1
16.407316 -22.751068 31.057073 41.849168 -0.946005 0.734570 0.139500 -0.022231 299303.000000 0 0 1
15.894016 -23.060668 32.348062 42.787980 -0.967338 0.713603 0.128583 -0.026699 -51446.200000 0 0 1
16.699716 -24.032968 33.229858 44.279651 -0.963524 0.722047 0.148882 -0.036417 -16338.800000 0 0 1
16.750216 -25.394468 32.793774 44.731201 -0.987701 0.747884 0.148388 -0.040474 -115171.000000 0 0 1
17.623616 -26.147168 33.597614 46.076739 -0.977723 0.753693 0.147308 -0.036658 -35386.500000 0 0 1
17.517116 -27.648218 33.386231 46.753756 -1.006057 0.775478 0.136859 -0.027118 197269.000000 0 0 1
18.085716 -28.147958 32.169495 46.414190 -0.999695 0.805021 0.130268 -0.036428 17145.500000 0 0 1
17.631016 -29.441508 31.952160 46.889185 -1.031224 0.821068 0.123227 -0.035123 95665.500000 0 0 1
18.332316 -30.224338 30.770283 46.865710 -1.025581 0.854544 0.138777 -0.038794 1289800.000000 0 0 1
19.656316 -30.710088 31.116983 47.934819 -1.001440 0.864327 0.127679 -0.039947 777635.000000 0 0 1
20.157516 -31.332188 29.994913 47.830181 -0.999111 0.892955 0.109892 -0.042156 -906571.000000 0 0 1
21.637616 -31.711888 30.138763 48.807533 -0.972036 0.905233 0.096792 -0.032992 280963.000000 0 0 1
22.524516 -30.561318 30.213773 48.520306 -0.935650 0.898603 0.098768 -0.037133 411615.000000 0 0 1
23.880016 -30.894428 30.367633 49.466291 -0.912765 0.909798 0.070569 -0.030827 -331678.000000 0 0 1
24.785316 -29.662818 30.474683 49.222972 -0.874740 0.903181 0.068070 -0.034170 -730096.000000 0 0 1
26.122316 -29.994858 30.294783 49.998408 -0.854297 0.919881 0.073935 -0.045217 -519597.000000 0 0 1
26.916516 -28.839998 30.035483 49.581998 -0.819882 0.920058 0.068614 -0.044720 380697.000000 0 0 1
28.129716 -29.065648 29.087353 49.821350 -0.801760 0.947354 0.045707 -0.034922 906800.000000 0 0 1
29.244716 -29.760378 29.680723 51.204285 -0.794137 0.952493 0.031107 -0.024707 485020.000000 0 0 1
30.364616 -29.861308 28.840293 51.434134 -0.777041 0.975538 0.022847 -0.040063 -74293.700000 0 0 1
31.378916 -30.922608 29.260823 52.887048 -0.778074 0.984511 0.009076 -0.029203 -42371.800000 0 0 1
30.783716 -32.229408 29.204883 53.285055 -0.808337 0.990720 0.006119 -0.030166 604379.000000 0 0 1
31.731016 -33.282368 29.406923 54.583336 -0.809256 1.001840 0.034990 -0.023765 -516558.000000 0 0 1
30.881916 33.117721 29.499273 54.043347 0.820319 0.993399 0.034081 -0.025285 -384207.000000 0 0 1
30.195716 32.896616 30.693793 54.185585 0.828181 0.968596 0.054239 -0.021961 526796.000000 0 0 1
29.174416 -33.822908 31.038433 54.392279 -0.859053 0.963511 0.037913 -0.015281 -309597.000000 0 0 1
27.877516 -33.822558 30.211623 53.234044 -0.881456 0.967300 0.045935 -0.011093 -146167.000000 0 0 1
27.208516 32.546776 30.319823 52.142954 0.874497 0.950256 0.044143 -0.009335 -132038.000000 0 0 1
25.957016 32.482593 29.702773 51.099318 0.896601 0.950501 0.034321 -0.008019 -293905.000000 0 0 1
25.316716 31.094576 29.821843 49.971503 0.887466 0.931318 0.052431 -0.026002 -77737.600000 0 0 1
25.976016 30.017546 29.176823 49.265541 0.857452 0.936965 0.043662 -0.025562 61479.500000 0 0 1
25.191416 28.848236 29.245003 48.188156 0.852964 0.918652 0.091874 -0.051932 46824.600000 0 0 1
24.410616 28.549246 27.894923 46.787438 0.863386 0.932030 0.083833 -0.055217 745926.000000 0 0 1
23.333916 29.430066 27.487043 46.541788 0.900424 0.939008 0.107789 -0.053795 620820.000000 0 0 1
22.575616 28.819486 26.469843 45.176032 0.906293 0.944773 0.095706 -0.043613 -456706.000000 0 0 1
21.254716 29.570986 26.320143 44.932796 0.947584 0.944970 0.117585 -0.034899 -518434.000000 0 0 1
21.271116 30.838456 25.722133 45.443359 0.966976 0.969119 0.111538 -0.047532 -501049.000000 0 0 1
19.971016 31.279696 25.459683 45.005070 1.002572 0.969506 0.117889 -0.043138 -655137.000000 0 0 1
19.890816 32.772260 25.063553 45.802263 1.025289 0.991767 0.132136 -0.039099 -79092.600000 0 0 1
20.531616 33.199048 23.853923 45.746407 1.016928 1.022261 0.130569 -0.037286 -409275.000000 0 0 1
21.911716 33.341852 23.849473 46.482252 0.989388 1.032018 0.126223 -0.038648 -976229.000000 0 0 1
22.496116 33.443516 22.439673 46.131150 0.978656 1.062795 0.123005 -0.042507 -136154.000000 0 0 1
22.180016 -33.041588 21.847573 45.398415 -0.979610 1.068727 0.132076 -0.036469 232792.000000 0 0 1
22.737616 -33.070658 20.510873 45.070650 -0.968477 1.098331 0.133214 -0.034390 273146.000000 0 0 1
22.497916 -31.815178 19.588073 43.612548 -0.955292 1.104995 0.107469 -0.026670 -490800.000000 0 0 1
23.160816 -30.753248 20.155973 43.456287 -0.925303 1.088492 0.104425 -0.021460 -156836.000000 0 0 1
22.755316 -29.454318 19.804573 42.161385 -0.913011 1.081809 0.107067 -0.029989 -232500.000000 0 0 1
23.353616 -28.911548 18.490973 41.511264 -0.891341 1.109125 0.081945 -0.021350 -263921.000000 0 0 1
22.933816 -29.513768 17.297973 41.185462 -0.910204 1.137349 0.057440 -0.027982 -21855.700000 0 0 1
23.403016 -28.830928 16.204373 40.515494 -0.888942 1.159329 0.048998 -0.021772 -650166.000000 0 0 1
22.953516 -29.461008 14.897273 40.208751 -0.908920 1.191251 0.030867 -0.019594 17127.800000 0 0 1
23.649016 -30.664178 14.511073 41.353827 -0.913848 1.212264 0.060685 -0.021468 184080.000000 0 0 1
23.767516 -30.902888 13.081573 41.121902 -0.915181 1.247054 0.058490 -0.025051 625815.000000 0 0 1
22.454116 -31.107898 12.220373 40.264453 -0.945580 1.262430 0.058309 -0.028772 754655.000000 0 0 1
21.601516 -32.156348 12.567173 40.725791 -0.979272 1.257096 0.070237 -0.027131 73534.600000 0 0 1
20.433716 -32.319328 11.777173 40.009718 -1.007004 1.272013 0.082455 -0.026360 922650.000000 0 0 1
19.391716 -33.347188 12.388273 40.515959 -1.044084 1.260057 0.098952 -0.021896 141903.000000 0 0 1
18.909516 -32.814718 13.609873 40.244306 -1.048022 1.225813 0.092465 -0.015988 470860.000000 0 0 1
19.644316 -33.179648 14.829273 41.312172 -1.036236 1.203647 0.086038 -0.018507 -823965.000000 0 0 1
19.461016 -32.142708 15.944273 40.817945 -1.026374 1.169492 0.085581 -0.026689 262609.000000 0 0 1
18.129716 -31.884328 16.364473 40.163328 -1.053778 1.151138 0.104883 -0.040246 275582.000000 0 0 1
17.289716 -32.956328 16.747973 40.811131 -1.087643 1.147928 0.101097 -0.033352 -718396.000000 0 0 1
17.545316 -33.588038 18.147473 42.015773 -1.089415 1.124175 0.089555 -0.032922 -67175.200000 0 0 1
18.610316 33.157158 18.114173 42.117268 1.059337 1.126205 0.069857 -0.021307 199301.000000 0 0 1
18.909116 32.662437 19.381573 42.426817 1.046017 1.096375 0.061650 -0.021008 396727.000000 0 0 1
19.803516 31.400736 19.383073 41.879458 1.008130 1.089611 0.064554 -0.013475 167048.000000 0 0 1
19.008416 30.272386 19.062373 40.510632 1.010105 1.080880 0.046325 -0.010904 105251.000000 0 0 1
19.814816 29.128516 18.789273 39.926610 0.973445 1.080831 0.044749 -0.016681 -96999.900000 0 0 1
19.118216 27.791346 18.626473 38.533241 0.968224 1.066277 0.045029 -0.014902 -163703.000000 0 0 1
18.621816 27.118006 19.760373 38.374870 0.969055 1.029870 0.046764 -0.021411 -42286.000000 0 0 1
18.330116 25.755616 19.440173 37.111525 0.952265 1.019454 0.055534 -0.026823 -522156.000000 0 0 1
18.232416 24.979476 20.760673 37.247829 0.940287 0.979586 0.066269 -0.019950 -170624.000000 0 0 1
17.060616 25.152936 21.525373 37.243476 0.974800 0.954565 0.061379 -0.017456 -188388.000000 0 0 1
16.056816 24.253276 21.169073 35.974608 0.985999 0.941662 0.077544 -0.025403 180479.000000 0 0 1
14.626416 24.480966 21.763773 35.873550 1.032246 0.918919 0.102821 -0.043347 744799.000000 0 0 1
13.916716 25.611206 21.270873 36.084054 1.073047 0.940380 0.111284 -0.041895 -554717.000000 0 0 1
12.729116 25.842886 21.940173 36.211274 1.113120 0.919908 0.119586 -0.047054 -810253.000000 0 0 1
11.957616 27.093886 21.454673 36.570019 1.155167 0.943851 0.134038 -0.051001 -162857.000000 0 0 1
12.465216 28.365316 21.763773 37.863368 1.156748 0.958440 0.116179 -0.055553 -120208.000000 0 0 1
12.046716 29.162166 20.658173 37.713598 1.179053 0.991106 0.129290 -0.056060 2558.520000 0 0 1
12.397616 30.661786 20.730973 39.033566 1.186559 1.010891 0.136354 -0.049997 112874.000000 0 0 1
11.657116 31.504806 21.627173 39.952169 1.216407 0.998782 0.123865 -0.046319 -25017.500000 0 0 1
12.085816 31.352186 22.938333 40.684072 1.202865 0.971797 0.104322 -0.043007 -144693.000000 0 0 1
11.415516 32.211476 24.014643 41.768365 1.230213 0.958256 0.091768 -0.039551 101199.000000 0 0 1
10.132516 31.729705 24.379933 41.277394 1.261694 0.938949 0.090919 -0.042389 35750.100000 0 0 1
9.707916 32.266414 25.607103 42.321258 1.278544 0.920949 0.081348 -0.035207 -283525.000000 0 0 1
8.269216 31.910106 26.059043 42.020335 1.317233 0.901858 0.128801 -0.053010 80209.500000 0 0 1
7.251516 32.812463 25.580163 42.232535 1.353294 0.920153 0.123301 -0.046283 357424.000000 0 0 1
6.538916 32.390372 24.474543 41.120517 1.371595 0.933294 0.123095 -0.057299 -502046.000000 0 0 1
5.469216 31.313886 24.564733 40.173348 1.397883 0.912881 0.118879 -0.055003 -905038.000000 0 0 1
6.065016 30.105166 24.935393 39.558555 1.371996 0.888803 0.095375 -0.055852 -401748.000000 0 0 1
5.387816 28.910496 24.601353 38.341517 1.386548 0.874165 0.088555 -0.051484 135718.000000 0 0 1
6.365316 27.636256 24.663163 37.583927 1.344419 0.855004 0.089228 -0.046983 1833790.000000 0 0 1
7.478716 27.460946 23.724113 37.052238 1.304905 0.875923 0.098989 -0.050011 1761400.000000 0 0 1
8.547116 28.418816 23.769213 38.021807 1.278647 0.895477 0.115925 -0.047583 -99904.200000 0 0 1
9.759916 27.910766 24.545163 38.428269 1.234404 0.877954 0.099147 -0.053108 -1091390.000000 0 0 1
9.587416 27.823776 25.950673 39.236699 1.238961 0.848129 0.091173 -0.046028 125083.000000 0 0 1
10.823316 27.617466 26.590533 39.836228 1.197291 0.839955 0.099498 -0.027978 248390.000000 0 0 1
11.870316 28.774016 26.662723 40.984744 1.179530 0.862485 0.101915 -0.032799 -210265.000000 0 0 1
11.457916 29.925516 27.369843 42.141769 1.205134 0.863908 0.099001 -0.043606 -402874.000000 0 0 1
12.541416 30.764836 27.617083 43.202611 1.183709 0.877279 0.092282 -0.032554 -618517.000000 0 0 1
12.293716 32.059932 28.454353 44.594001 1.204629 0.878800 0.077827 -0.037735 -270889.000000 0 0 1
12.039816 31.827700 29.807083 45.237395 1.209152 0.851436 0.077732 -0.050528 437876.000000 0 0 1
10.669116 31.736516 30.176973 45.074230 1.246488 0.837268 0.094715 -0.046827 206223.000000 0 0 1
10.351316 31.579916 31.699123 45.926847 1.254051 0.809018 0.127983 -0.042821 -81294.100000 0 0 1
10.680716 30.294226 32.176537 45.465893 1.231837 0.784549 0.097681 -0.048965 202192.000000 0 0 1
10.980516 30.387426 33.600019 46.614683 1.224046 0.765836 0.125138 -0.046035 -86776.200000 0 0 1
11.158916 29.006576 -33.604100 45.772682 1.203546 2.395213 0.109088 -0.044131 90473.800000 0 0 1
12.359016 28.318396 33.889733 45.860559 1.159284 0.739251 0.120200 -0.040584 241936.000000 0 0 1
12.383516 26.997206 -33.399150 44.695680 1.140734 2.414721 0.120070 -0.039820 497310.000000 0 0 1
13.579916 26.119616 33.853643 44.863322 1.091346 0.715759 0.122376 -0.036709 700776.000000 0 0 1
13.482416 24.751896 -33.574390 43.836874 1.072030 2.443227 0.094731 -0.036522 -201885.000000 0 0 1
13.823216 24.422126 -32.267590 42.763523 1.055743 2.425778 0.089502 -0.035263 -256844.000000 0 0 1
13.671816 22.858576 -32.022600 41.651890 1.031772 2.447782 0.080866 -0.050213 -251297.000000 0 0 1
14.769716 22.144306 -32.524930 42.028394 0.982580 2.455741 0.070605 -0.030210 75462.900000 0 0 1
14.673616 20.783706 -32.269900 41.092869 0.956045 2.473964 0.067891 -0.026070 185739.000000 0 0 1
15.901516 20.023206 -32.859970 41.636097 0.899630 2.480331 0.089017 -0.043434 1100580.000000 0 0 1
17.120816 20.206906 -32.131750 41.640014 0.867886 2.452236 0.113650 -0.050826 728369.000000 0 0 1
18.295516 19.848906 -32.846080 42.515526 0.826100 2.453670 0.124313 -0.049974 -28123.400000 0 0 1
19.559116 19.879306 -31.990480 42.439800 0.793517 2.424599 0.102835 -0.043869 -847263.000000 0 0 1
20.098516 21.116006 -32.137680 43.389705 0.810081 2.404871 0.113532 -0.037608 -545530.000000 0 0 1
21.187416 21.353006 -31.279860 43.396856 0.789291 2.375732 0.097576 -0.032493 -62036.400000 0 0 1
20.845416 21.810006 -29.814520 42.415956 0.808008 2.350274 0.076571 -0.031641 -200718.000000 0 0 1
20.350316 23.146336 -29.763880 42.845966 0.849591 2.338760 0.064331 -0.021447 99454.400000 0 0 1
19.892516 23.569496 -28.472160 41.974960 0.869799 2.316261 0.051707 -0.008906 -206158.000000 0 0 1
20.989116 24.086816 -27.498790 42.153305 0.854012 2.281480 0.044242 -0.010755 222917.000000 0 0 1
21.718716 25.276706 -27.916710 43.473638 0.860963 2.268099 0.035823 -0.004958 225399.000000 0 0 1
20.915216 26.394846 -28.328010 44.006935 0.900708 2.270142 0.033024 0.000054 -986963.000000 0 0 1
21.642816 27.471696 -29.164960 45.537901 0.903525 2.265886 0.027908 0.005017 -456116.000000 0 0 1
21.913116 27.144876 -30.573720 46.387297 0.891641 2.290414 0.042054 0.002673 328214.000000 0 0 1
22.669116 25.978626 -30.958110 46.337700 0.853324 2.302446 0.065162 -0.011998 83520.600000 0 0 1
24.078016 25.885086 -30.352870 46.594906 0.821551 2.280251 0.084285 -0.020167 -638883.000000 0 0 1
25.119716 26.572556 -31.003830 47.940988 0.813496 2.274057 0.078017 -0.006155 -270563.000000 0 0 1
26.368116 26.115826 -30.539320 48.062085 0.780591 2.259341 0.109102 -0.017955 -41196.800000 0 0 1
27.533116 27.037576 -31.002060 49.499805 0.776318 2.247603 0.088822 -0.003475 49561.900000 0 0 1
27.592116 28.238236 -30.236370 49.728874 0.796971 2.224366 0.060956 -0.001451 -20791.300000 0 0 1
28.661116 29.066086 -30.625060 51.031277 0.792413 2.214452 0.067360 -0.008647 75468.300000 0 0 1
28.796516 30.301996 -29.742290 51.303549 0.810867 2.189196 0.048943 0.003790 -178618.000000 0 0 1
29.224216 30.016686 -28.416170 50.621487 0.798774 2.166808 0.069426 -0.002151 293467.000000 0 0 1
28.901916 31.095556 -27.634990 50.655178 0.821944 2.147843 0.044667 0.002153 -853806.000000 0 0 1
29.334916 31.014136 -26.163490 50.069373 0.813216 2.120629 0.059089 -0.002859 -82434.900000 0 0 1
28.669516 30.075316 -25.325820 48.660692 0.809324 2.118183 0.048473 -0.001845 1453380.000000 0 0 1
27.252316 30.299736 -25.090430 47.857000 0.838299 2.122665 0.034052 0.002898 997661.000000 0 0 1
26.691816 29.750016 -23.740750 46.488060 0.839528 2.106778 0.037148 0.011217 -35380.300000 0 0 1
26.963616 30.535246 -22.621150 46.595647 0.847435 2.077706 0.049376 0.004015 201207.000000 0 0 1
26.296216 30.010936 -21.477850 45.314957 0.851275 2.064588 0.043426 0.001065 209620.000000 0 0 1
3.275416 -25.985488 -19.561550 32.689878 -1.445410 2.212296 0.095011 -0.024340 -63441.900000 0 0 1
2.994016 -27.018948 -18.660350 32.972660 -1.460435 2.172362 0.099963 -0.020281 229911.000000 0 0 1
3.245116 -26.604508 -17.323250 31.912781 -1.449420 2.144601 0.117808 -0.016340 85184.400000 0 0 1
3.146616 -27.841618 -16.367350 32.449145 -1.458255 2.099483 0.115956 -0.020718 406045.000000 0 0 1
4.408016 -28.474448 -16.202150 33.056534 -1.417209 2.083040 0.116315 -0.023238 208719.000000 0 0 1
4.305816 -29.413228 -15.132450 33.356694 -1.425438 2.041659 0.117900 -0.019191 778247.000000 0 0 1
5.663716 -30.120218 -14.711950 33.996274 -1.384930 2.018339 0.147913 -0.020095 818986.000000 0 0 1
6.551316 -29.116028 -14.247750 33.070549 -1.349475 2.016207 0.128684 -0.015886 -417155.000000 0 0 1
7.887716 -29.534568 -14.100250 33.664875 -1.309820 2.002966 0.126429 -0.014954 199553.000000 0 0 1
8.255916 -30.198898 -12.755550 33.805881 -1.303932 1.957694 0.114116 -0.022384 -727995.000000 0 0 1
8.505716 -29.311778 -11.722450 32.694699 -1.288372 1.937503 0.104546 -0.034258 -77411.500000 0 0 1
8.671916 -29.819458 -10.383050 32.744616 -1.287788 1.893458 0.109104 -0.031890 659021.000000 0 0 1
9.846216 -30.824988 -10.080650 33.893175 -1.261617 1.872790 0.105148 -0.024426 414988.000000 0 0 1
11.137716 -30.257698 -10.082150 33.782047 -1.218093 1.873861 0.106336 -0.035143 8610.920000 0 0 1
12.088816 -31.311058 -9.891650 34.990949 -1.202340 1.857395 0.102022 -0.031996 33294.100000 0 0 1
13.290016 -30.893498 -9.028050 34.821522 -1.164540 1.833059 0.107844 -0.039063 -620107.000000 0 0 1
14.090316 -29.967648 -9.659650 34.495010 -1.131285 1.854622 0.130582 -0.047455 -958741.000000 0 0 1
15.317716 -29.948348 -9.029250 34.829058 -1.098014 1.833036 0.115169 -0.035398 -657167.000000 0 0 1
16.549516 -29.274948 -9.663050 34.989764 -1.056272 1.850601 0.118083 -0.041135 138359.000000 0 0 1
16.500416 -27.848528 -9.613950 33.767325 -1.035905 1.859502 0.129547 -0.041996 40262.900000 0 0 1
15.957216 -27.268338 -10.770650 33.379663 -1.041336 1.899346 0.116599 -0.044196 -376993.000000 0 0 1
15.757016 -25.739758 -10.616350 31.992586 -1.021479 1.909047 0.117625 -0.043577 75756.800000 0 0 1
14.642116 -25.479588 -9.723750 30.954035 -1.049217 1.890342 0.100561 -0.043672 973780.000000 0 0 1
13.941616 -24.260168 -9.926850 29.689506 -1.049209 1.911718 0.082361 -0.032350 266774.000000 0 0 1
13.431116 -23.860268 -11.359150 29.643507 -1.058098 1.964046 0.058314 -0.030856 54371.800000 0 0 1
14.442616 -23.326368 -12.229350 30.037736 -1.016412 1.990109 0.050045 -0.026862 344016.000000 0 0 1
13.927616 -23.437768 -13.549850 30.445129 -1.034624 2.032035 0.067517 -0.029650 11300.500000 0 0 1
14.720016 -22.827768 -14.707350 30.888379 -0.998065 2.067062 0.059181 -0.029741 -640727.000000 0 0 1
15.913416 -23.482268 -14.981550 32.079597 -0.975209 2.056705 0.056524 -0.027269 -389947.000000 0 0 1
16.409516 -23.063668 -16.243750 32.635324 -0.952402 2.091782 0.059386 -0.030445 -931120.000000 0 0 1
17.348016 -24.034668 -16.996250 34.168573 -0.945594 2.091422 0.069048 -0.031031 217421.000000 0 0 1
18.721716 -23.980468 -16.693350 34.702066 -0.907931 2.072646 0.109186 -0.037816 -292431.000000 0 0 1
19.364916 -22.840868 -17.211950 34.539201 -0.867570 2.092469 0.106128 -0.039477 -909692.000000 0 0 1
20.840816 -22.791668 -16.780250 35.147923 -0.830079 2.068510 0.094484 -0.029469 -275284.000000 0 0 1
21.681416 -23.718768 -17.361350 36.525063 -0.830243 2.066132 0.122799 -0.030005 78842.000000 0 0 1
23.034716 -23.665568 -16.912750 37.103886 -0.798906 2.044091 0.124321 -0.009529 267852.000000 0 0 1
23.890816 -24.794668 -17.429350 38.591824 -0.803961 2.039391 0.115215 -0.020452 -585660.000000 0 0 1
24.462516 -24.487168 -18.669150 39.326495 -0.785902 2.065444 0.134074 -0.024949 -133653.000000 0 0 1
25.080516 -25.609268 -19.322450 40.721296 -0.795829 2.065198 0.124657 -0.031808 498054.000000 0 0 1
26.216416 -25.286508 -20.352050 41.724260 -0.767345 2.080335 0.111825 -0.035932 368674.000000 0 0 1
25.836816 -24.249068 -21.271850 41.328561 -0.753708 2.111455 0.135625 -0.033327 -167050.000000 0 0 1
25.997916 -22.929168 -20.805050 40.428807 -0.722759 2.111349 0.142133 -0.029338 -194132.000000 0 0 1
24.853316 -21.930268 -21.202250 39.346656 -0.722999 2.139877 0.174131 -0.027662 -115345.000000 0 0 1
24.711616 -21.521468 -22.525050 39.764499 -0.716506 2.173002 0.166014 -0.023530 68310.800000 0 0 1
24.304816 -22.561268 -23.427250 40.602597 -0.748213 2.185834 0.126980 -0.028585 -243072.000000 0 0 1
23.718316 -21.862968 -24.693250 40.623939 -0.744716 2.224146 0.117569 -0.027058 148050.000000 0 0 1
24.652916 -21.137868 -25.466800 41.269039 -0.708785 2.235838 0.117827 -0.019059 57721.700000 0 0 1
23.982516 -20.127468 -26.171010 40.806835 -0.698223 2.267038 0.106361 -0.011599 17889.300000 0 0 1
24.580616 -19.656068 -27.543060 41.823293 -0.674532 2.289697 0.104254 -0.007595 -65769.300000 0 0 1
23.771516 -18.625068 -28.087790 41.241994 -0.664601 2.319990 0.101375 -0.006777 335843.000000 0 0 1
24.211816 -18.174968 -29.351490 42.166947 -0.643927 2.340717 0.094769 -0.015566 271822.000000 0 0 1
23.251216 -17.073168 -30.045870 41.651727 -0.633372 2.376560 0.111314 -0.017483 -683896.000000 0 0 1
22.045416 -17.697868 -30.238140 41.395168 -0.676441 2.389814 0.107609 -0.014660 -746569.000000 0 0 1
21.124816 -16.878068 -30.954640 41.101298 -0.674112 2.423604 0.107419 -0.016723 533706.000000 0 0 1
19.920316 -17.648968 -31.548650 41.274960 -0.725014 2.440834 0.100447 -0.013299 334835.000000 0 0 1
20.331416 -18.218568 -32.781100 42.660089 -0.730645 2.447173 0.101251 -0.009904 670487.000000 0 0 1
19.259416 -18.965468 -33.303750 42.892351 -0.777708 2.459808 0.102485 -0.011833 45302.200000 0 0 1
19.780816 -19.656468 33.241921 43.389892 -0.782245 0.698012 0.119154 -0.018975 -113597.000000 0 0 1
20.682016 -20.668068 33.565286 44.514529 -0.785061 0.716620 0.123311 -0.018522 -341318.000000 0 0 1
20.750316 -21.554268 32.491262 44.168362 -0.804400 0.744210 0.132052 -0.025927 -42500.900000 0 0 1
21.619216 -22.797168 32.769060 45.397276 -0.811913 0.764355 0.120368 -0.018668 -9544.170000 0 0 1
21.102316 -23.740068 33.720927 46.324934 -0.844153 0.755510 0.131651 -0.022674 -74531.300000 0 0 1
21.093516 -23.350168 -32.722330 45.397330 -0.836130 2.375750 0.129830 -0.025711 205048.000000 0 0 1
20.064016 -24.125268 -31.822850 44.691017 -0.877047 2.363229 0.127675 -0.027632 265721.000000 0 0 1
20.292416 -25.523808 -31.734120 45.500563 -0.899088 2.342622 0.132885 -0.036129 48818.100000 0 0 1
21.448016 -25.919888 -31.014260 45.757429 -0.879526 2.315559 0.110379 -0.032505 184060.000000 0 0 1
21.579916 -27.416758 -30.965370 46.650032 -0.903967 2.296658 0.105086 -0.035634 417976.000000 0 0 1
20.466516 -28.026178 -30.291800 46.064499 -0.940046 2.288419 0.102701 -0.031750 471324.000000 0 0 1
20.478016 -29.429158 -30.353400 46.976093 -0.962867 2.273320 0.094393 -0.022641 -426715.000000 0 0 1
19.142816 -29.993658 -29.812240 46.420217 -1.002741 2.268194 0.111901 -0.023697 1098650.000000 0 0 1
17.949416 -29.871568 -30.643640 46.406085 -1.029725 2.292063 0.128856 -0.031423 836064.000000 0 0 1
17.964116 -30.403258 -31.927560 47.607107 -1.037123 2.305877 0.130477 -0.032115 -978353.000000 0 0 1
16.647916 -30.883898 -32.539850 47.851960 -1.076400 2.318574 0.138283 -0.046099 60498.800000 0 0 1
15.617016 -29.936978 -32.756040 47.043299 -1.089969 2.341020 0.148061 -0.037191 989966.000000 0 0 1
14.392616 -30.555718 -33.229990 47.381763 -1.130593 2.348050 0.100620 -0.027520 752676.000000 0 0 1
13.435816 -29.607088 33.853643 46.937937 -1.144783 0.765202 0.093286 -0.011658 -499585.000000 0 0 1
12.624316 -28.946638 -33.052470 45.713750 -1.159542 2.378977 0.109499 -0.019022 -679859.000000 0 0 1
11.829816 -28.042968 -33.764730 45.457778 -1.171600 2.407996 0.095302 -0.022418 -394293.000000 0 0 1
10.751916 -27.353138 -32.937880 44.144102 -1.196271 2.413049 0.106259 -0.021757 -306418.000000 0 0 1
9.706916 -28.192248 -32.523510 44.122621 -1.239198 2.399590 0.091285 -0.013478 -162023.000000 0 0 1
8.867316 -27.493388 -31.633430 42.839112 -1.258804 2.401527 0.058991 -0.020234 -134039.000000 0 0 1
8.065916 -28.314308 -30.607610 42.468633 -1.293277 2.375624 0.047758 -0.020441 57751.800000 0 0 1
7.006816 -29.057738 -31.204000 43.210383 -1.334179 2.377689 0.053887 -0.023350 55758.000000 0 0 1
7.320116 -30.296758 -31.865930 44.574826 -1.333726 2.367258 0.062971 -0.018500 -786771.000000 0 0 1
6.083816 -31.041278 -32.341380 45.238684 -1.377258 2.367285 0.095988 -0.038641 -607199.000000 0 0 1
5.280316 -31.372688 -31.270450 44.609061 -1.404050 2.347579 0.106728 -0.054086 -356334.000000 0 0 1
4.153316 -32.130248 -31.668110 45.304216 -1.442244 2.344809 0.134135 -0.076213 -919196.000000 0 0 1
3.324716 -32.635598 -30.512550 44.801246 -1.469273 2.320012 0.112564 -0.080030 931192.000000 0 0 1
2.187116 -31.785428 -30.139850 43.857809 -1.502096 2.328448 0.117515 -0.075433 1097610.000000 0 0 1
1.012216 -31.938428 -30.895540 44.447971 -1.539114 2.339348 0.103466 -0.044958 -526630.000000 0 0 1
0.015516 -30.788178 -30.701390 43.479736 -1.570292 2.354783 0.075205 -0.027360 -103004.000000 0 0 1
-0.734984 -30.889388 -29.515840 42.730308 1.547007 2.333318 0.039026 -0.028844 204934.000000 0 0 1
-1.664284 -29.821478 -29.312250 41.848517 1.515046 2.346806 0.088733 -0.023015 474052.000000 0 0 1
-2.366284 -29.968368 -27.908550 41.019380 1.492000 2.319070 0.086780 -0.026685 -373041.000000 0 0 1
-1.570484 -29.674478 -26.826620 40.033843 1.517922 2.305138 0.062645 -0.024502 -453552.000000 0 0 1
-2.336084 -29.800798 -25.670310 39.401899 1.492566 2.280355 0.081812 -0.028930 -310523.000000 0 0 1
-1.367584 -29.854828 -24.504850 38.648010 1.525021 2.257578 0.042895 -0.029200 -230030.000000 0 0 1
-1.852984 -30.170508 -23.225550 38.119801 1.509456 2.225946 0.078648 -0.034462 -791428.000000 0 0 1
-0.804384 -30.420988 -22.339250 37.750836 1.544361 2.204031 0.059722 -0.028810 -95902.400000 0 0 1
-1.203684 -30.405508 -20.812650 36.866111 1.531229 2.170681 0.016250 -0.012826 -1717.150000 0 0 1
-1.505084 -29.131088 -20.266550 35.519271 1.519176 2.178007 0.013323 -0.017574 -72270.000000 0 0 1
-0.346484 -28.390688 -19.948450 34.700026 1.558593 2.183257 0.054176 -0.030516 -75275.500000 0 0 1
-0.634984 -27.007918 -19.439350 33.282415 1.547290 2.194533 0.062938 -0.041656 -160017.000000 0 0 1
-1.137984 -27.006938 -18.146650 32.557189 1.528685 2.162020 0.042573 -0.032129 -150381.000000 0 0 1
-1.201884 -25.709478 -17.651450 31.208900 1.524082 2.171945 0.055793 -0.029189 -94995.800000 0 0 1
-1.916184 -25.819818 -16.308850 30.599237 1.496718 2.132918 0.040751 -0.017140 -287027.000000 0 0 1
-2.200284 -24.548968 -15.685350 29.215120 1.481407 2.137545 0.038848 -0.007612 -139866.000000 0 0 1
-3.073484 -24.765768 -14.631450 28.928686 1.447326 2.101078 0.034758 -0.004343 -567344.000000 0 0 1
-3.068084 -23.614668 -13.571650 27.409038 1.441597 2.088807 0.035538 0.001466 350202.000000 0 0 1
-1.819284 -23.454468 -12.882250 26.821152 1.493385 2.071795 0.041979 -0.003767 355287.000000 0 0 1
-1.768784 -22.462868 -11.859550 25.462874 1.492216 2.055288 0.048856 -0.003320 356724.000000 0 0 1
-0.438484 -22.511168 -11.065350 25.087585 1.551320 2.027585 0.049575 -0.007913 578338.000000 0 0 1
-0.017584 -21.297368 -10.375050 23.690079 1.569971 2.024112 0.043484 -0.007387 424900.000000 0 1 0
1.379616 -21.385868 -10.071250 23.678867 -1.506375 2.010119 0.040851 -0.002000 701110.000000 0 1 0
1.968916 -20.023668 -9.766050 22.365143 -1.472782 2.022683 0.049389 -0.007480 -1167970.000000 0 1 0
2.182416 -19.301068 -10.947050 22.296458 -1.458202 2.084007 0.045171 -0.000787 -168341.000000 0 1 0
2.887116 -18.122868 -10.640250 21.212937 -1.412816 2.096235 0.023797 -0.004551 222827.000000 0 1 0
4.398016 -18.145368 -10.269950 21.308890 -1.333005 2.073682 0.055242 -0.027582 -98059.900000 0 1 0
4.566116 -18.643268 -8.953950 21.180039 -1.330604 2.007279 0.058255 -0.023212 -720291.000000 0 1 0
5.694016 -19.434268 -8.803450 22.081968 -1.285784 1.980864 0.077772 -0.016636 -685452.000000 0 1 0
5.491816 -20.504068 -7.714250 22.585094 -1.309099 1.919377 0.072719 -0.024705 -155345.000000 0 1 0
4.492616 -21.423768 -8.070750 23.330204 -1.364089 1.924032 0.078322 -0.035871 24396.300000 0 1 0
4.438616 -22.474468 -7.176550 24.006372 -1.375810 1.874382 0.093088 -0.027867 151570.000000 0 1 0
3.481616 -23.613068 -7.652750 25.065179 -1.424407 1.881064 0.089342 -0.019129 418569.000000 0 0 1
3.941516 -24.384968 -8.744750 26.203680 -1.410545 1.911046 0.105555 -0.024161 881531.000000 0 0 1
2.853316 -25.267348 -9.127750 27.016589 -1.458348 1.915436 0.086258 -0.019144 1058410.000000 0 0 1
3.256016 -26.207508 -10.341850 28.361752 -1.447190 1.944043 0.088951 -0.018066 -308740.000000 0 0 1
4.355916 -27.019128 -10.043150 29.152566 -1.410956 1.922506 0.088016 -0.026431 -294214.000000 0 0 1
4.830216 -27.744618 -11.164450 30.294219 -1.398428 1.948228 0.113500 -0.024399 145251.000000 0 0 1
4.478316 -29.264478 -11.112850 31.622150 -1.418945 1.929890 0.104244 -0.028790 355644.000000 0 0 1
3.157416 -29.669908 -11.456350 31.961237 -1.464777 1.937398 0.118195 -0.025647 390063.000000 0 0 1
3.065516 -31.065698 -11.257350 33.184377 -1.472436 1.916901 0.109247 -0.029231 -1153120.000000 0 0 1
1.785716 -31.666398 -11.712650 33.810290 -1.514464 1.924551 0.078251 -0.032061 -1304620.000000 0 0 1
1.669316 -31.486998 -13.092050 34.141169 -1.517830 1.964345 0.088419 -0.031738 490151.000000 0 0 1
0.832016 -32.482448 -13.685650 35.257604 -1.545188 1.969432 0.076666 -0.021839 -269127.000000 0 0 1
0.392716 -32.197858 -15.078950 35.556026 -1.558600 2.008753 0.074966 -0.016142 -317259.000000 0 0 1
-0.704284 -31.323858 -15.168050 34.810197 1.548316 2.021652 0.068722 -0.016587 -377335.000000 0 0 1
-1.066784 -31.183788 -16.516350 35.303774 1.536600 2.057636 0.029846 -0.012887 -361283.000000 0 0 1
-2.304684 -30.292238 -16.665550 34.650711 1.494861 2.072544 0.033483 -0.002283 -424515.000000 0 0 1
-3.440184 -30.939268 -16.174650 35.081226 1.460060 2.049989 0.043057 -0.013432 -774272.000000 0 0 1
-4.581284 -30.573618 -16.908950 35.237009 1.422059 2.071295 0.054846 -0.007624 197909.000000 0 0 1
-5.937084 -30.497548 -16.187750 35.034164 1.378527 2.051109 0.062692 -0.014072 -144228.000000 0 0 1
-5.990684 -29.335938 -15.377750 33.659482 1.369356 2.045261 0.041256 -0.004894 904827.000000 0 0 1
-7.267684 -29.045208 -14.753250 33.378162 1.325611 2.028627 0.055679 -0.009772 1047030.000000 0 0 1
-7.817284 -29.998978 -13.615050 33.858797 1.315880 1.984619 0.052870 -0.019546 91876.500000 0 0 1
-8.305384 -31.210148 -14.171550 35.268762 1.310712 1.984295 0.065899 -0.022723 -159272.000000 0 0 1
-8.971084 -32.086798 -13.287750 35.869308 1.298170 1.950289 0.064052 -0.025449 258282.000000 0 0 1
-9.252384 -33.484488 -13.885850 37.411687 1.301205 1.951058 0.110353 -0.033498 -282745.000000 0 0 1
-8.054484 33.478074 -13.959950 37.155570 -1.334694 1.955966 0.108270 -0.031231 -87959.500000 0 0 1
-8.237284 32.309997 -14.703350 36.441422 -1.321169 1.986112 0.134629 -0.039451 -124476.000000 0 0 1
-7.308384 -22.092168 -3.448350 23.523764 1.251315 1.717917 0.066966 -0.010476 151351.000000 0 1 0
-7.397184 -21.066868 -4.383250 22.753991 1.233116 1.764645 0.061811 -0.009500 24936.400000 0 1 0
-6.137084 -20.844268 -4.989450 22.294437 1.284462 1.796506 0.050241 -0.015553 241744.000000 0 1 0
-6.180084 -19.641168 -6.012650 21.450428 1.265954 1.854908 0.058752 -0.022896 -311186.000000 0 1 0
-6.981584 -19.913068 -7.109650 22.267014 1.233584 1.895777 0.063264 -0.021646 -359068.000000 0 1 0
-6.952084 -18.890768 -8.082750 21.691552 1.218164 1.952629 0.045116 -0.023701 -568402.000000 0 1 0
-7.889984 -19.321168 -9.198650 22.807335 1.183104 1.985938 0.051559 -0.016052 -3363.130000 0 1 0
-7.350884 -20.262868 -10.166650 23.832332 1.222785 2.011516 0.043848 -0.005091 -386912.000000 0 1 0
-8.315084 -20.529668 -11.128650 24.788197 1.185963 2.036386 0.074400 -0.003956 -259614.000000 0 1 0
-7.807184 -21.470068 -12.209050 25.903220 1.222030 2.061598 0.058375 0.004079 -92042.400000 0 0 1
-6.904284 -20.813868 -13.075550 25.531475 1.250502 2.108464 0.053278 0.017797 -59736.500000 0 0 1
-6.552884 -21.717468 -14.170750 26.746941 1.277750 2.129171 0.035025 0.021812 -41639.100000 0 0 1
-5.596784 -21.177868 -15.245950 26.688294 1.312428 2.178836 0.025599 0.027122 1375890.000000 0 0 1
-4.265784 -20.905368 -14.713950 25.917786 1.369508 2.174525 0.023193 0.011991 1251970.000000 0 0 1
-3.329284 -20.130368 -15.448050 25.592149 1.406894 2.218836 0.036864 0.013406 314107.000000 0 0 1
-3.442684 -18.586568 -15.446250 24.411047 1.387648 2.255904 0.046510 0.012171 -221487.000000 0 1 0
-4.569484 -18.107068 -16.176050 24.706490 1.323599 2.284620 0.044364 0.017252 220908.000000 0 1 0
-4.456384 -18.208968 -17.585950 25.703920 1.330778 2.324267 0.072787 0.004478 -12231.200000 0 0 1
-5.868684 -18.121468 -18.215850 26.356142 1.257603 2.333865 0.062012 0.013391 420756.000000 0 0 1
-6.706284 -19.210368 -17.913050 27.108851 1.234926 2.292657 0.048811 0.013554 -385414.000000 0 0 1
-7.996584 -19.115168 -18.445750 27.741317 1.174583 2.298183 0.046257 0.012588 163380.000000 0 0 1
-8.909684 -20.307168 -17.978350 28.547935 1.157341 2.252041 0.080306 -0.000910 79698.600000 0 0 1
-8.396384 -21.570168 -18.330250 29.525742 1.199584 2.240588 0.082488 -0.000018 8147.430000 0 0 1
-9.286084 -22.641068 -18.144750 30.464426 1.181576 2.208814 0.115779 0.004678 -225597.000000 0 0 1
-8.892284 -23.955568 -18.854250 31.755703 1.215362 2.206480 0.126468 -0.020052 -635185.000000 0 0 1
-8.996484 -23.826868 -20.292550 32.564458 1.209768 2.243561 0.121770 -0.024079 -256004.000000 0 0 1
-8.365384 -24.734968 -21.101550 33.571918 1.244672 2.250481 0.130935 -0.049902 1390320.000000 0 0 1
-6.757884 -24.693268 -21.081850 33.164301 1.303664 2.259684 0.111477 -0.033948 1378690.000000 0 0 1
-6.104184 -23.567868 -21.683850 32.602067 1.317361 2.298433 0.138924 -0.054086 104741.000000 0 0 1
-6.186284 -22.328568 -20.958550 31.242533 1.300519 2.306129 0.115488 -0.043205 -754523.000000 0 0 1
-5.328784 -22.224968 -19.653950 30.143372 1.335473 2.281036 0.114970 -0.019676 -256646.000000 0 0 1
-3.954084 -22.368668 -19.897250 30.197560 1.395835 2.290155 0.094314 -0.037175 -338832.000000 0 0 1
-3.207384 -21.954468 -18.755450 29.052588 1.425730 2.272564 0.046929 -0.028306 913220.000000 0 0 1
-1.735584 -22.487468 -18.849750 29.394073 1.493769 2.266958 0.086864 -0.034057 875381.000000 0 0 1
-0.823484 -21.840668 -19.708750 29.430048 1.533110 2.304576 0.133344 -0.041040 -618123.000000 0 0 1
0.449916 -22.394368 -19.694150 29.825654 -1.550708 2.292027 0.089904 -0.036169 508259.000000 0 0 1
1.586916 -21.662268 -20.527150 29.885381 -1.497670 2.327960 0.081230 -0.035651 830781.000000 0 0 1
1.524516 -21.953368 -21.893050 31.041587 -1.501464 2.353616 0.080715 -0.049540 -1086700.000000 0 0 1
2.457816 -21.324468 -22.658850 31.212133 -1.456045 2.383230 0.084188 -0.046593 -1366020.000000 0 0 1
2.201616 -21.430268 -24.151850 32.363796 -1.468422 2.413224 0.113142 -0.053102 342097.000000 0 0 1
1.400116 -20.469768 -24.860650 32.233889 -1.502503 2.451612 0.113518 -0.050403 283762.000000 0 0 1
0.080616 -20.331368 -24.362350 31.731610 -1.566831 2.446138 0.137188 -0.047442 42231.300000 0 0 1
-0.873684 -19.299968 -25.063550 31.645436 1.525559 2.484893 0.151768 -0.053870 521414.000000 0 0 1
-0.514484 -17.942068 -24.809750 30.621988 1.542129 2.515279 0.115454 -0.043646 625069.000000 0 0 1
-1.456184 -17.061568 -25.467980 30.689339 1.485654 2.549660 0.132831 -0.053772 573167.000000 0 0 1
-1.135084 -15.588268 -25.145120 29.606748 1.498108 2.585461 0.133630 -0.034395 474861.000000 0 0 1
0.151116 -15.282668 -25.670310 29.875534 -1.560909 2.604582 0.129840 -0.031524 -65784.000000 0 0 1
0.705816 -14.023068 -25.234940 28.878137 -1.520506 2.633846 0.113905 -0.031219 332465.000000 0 0 1
0.237716 -12.642768 -25.794480 28.727187 -1.551996 2.685799 0.113309 -0.022223 100622.000000 0 0 1
1.114716 -11.596068 -25.372820 27.919372 -1.474962 2.711169 0.097538 -0.020854 84168.600000 0 0 1
0.948516 -10.310468 -25.981550 27.968667 -1.479059 2.762368 0.086034 -0.022344 -471072.000000 0 0 1
1.942316 -9.183968 -25.567590 27.236363 -1.362378 2.789723 0.097328 -0.027519 1020740.000000 0 0 1
3.260416 -9.334468 -26.124610 27.933095 -1.234756 2.779779 0.071523 -0.017481 439826.000000 0 0 1
3.435416 -9.105368 -27.506990 29.177805 -1.210015 2.801539 0.076842 -0.024292 -182063.000000 0 0 1
4.894316 -8.712768 -27.875430 29.612602 -1.058984 2.797366 0.082334 -0.028621 -281769.000000 0 0 1
5.127716 -7.313168 -27.901360 29.296105 -0.959291 2.831782 0.075570 -0.024248 691121.000000 0 0 1
6.423316 -6.949568 -28.373440 29.909991 -0.824730 2.819666 0.085562 -0.026352 509403.000000 0 0 1
7.675816 -7.136068 -27.463470 29.395302 -0.748974 2.777033 0.103716 -0.024631 880.230000 0 0 1
8.064316 -8.477768 -27.187660 29.598557 -0.810387 2.735185 0.084353 -0.022921 -53627.400000 0 0 1
8.704216 -9.162068 -28.199000 30.901302 -0.811019 2.720274 0.084980 -0.033599 -548847.000000 0 0 1
9.241516 -10.609068 -27.777010 31.137119 -0.854182 2.672739 0.081136 -0.025407 -359019.000000 0 0 1
8.204216 -11.407768 -27.292690 30.697512 -0.947315 2.666138 0.086361 -0.024857 -314278.000000 0 0 1
8.514516 -12.642668 -26.589090 30.648225 -0.978095 2.621066 0.079757 -0.019726 -415307.000000 0 0 1
9.440416 -13.654768 -27.295820 31.947393 -0.965890 2.595189 0.070616 -0.025871 -238356.000000 0 0 1
8.946416 -14.190068 -28.481980 33.054796 -1.008273 2.609327 0.083642 -0.039764 -317843.000000 0 0 1
9.786516 -15.227268 -28.977390 34.166280 -0.999572 2.583239 0.076160 -0.037429 141219.000000 0 0 1
9.209016 -15.927668 -30.239350 35.396537 -1.046577 2.595004 0.070815 -0.046008 -274570.000000 0 0 1
9.266016 -15.150368 -31.399640 36.073953 -1.021889 2.626860 0.089226 -0.045198 351695.000000 0 0 1
8.438716 -15.740668 -32.400300 36.996756 -1.078680 2.637805 0.102611 -0.045733 46189.000000 0 0 1
7.157416 -14.940668 -32.693270 36.651085 -1.124044 2.672577 0.109065 -0.049823 -32549.300000 0 0 1
7.477816 -13.853468 -33.501500 37.016034 -1.075834 2.702302 0.123231 -0.044688 677340.000000 0 0 1
6.262616 -13.152468 -33.781260 36.788331 -1.126406 2.734460 0.108577 -0.060084 658316.000000 0 0 1
6.543816 -11.915068 33.189759 35.865729 -1.068564 0.388735 0.140919 -0.045140 133392.000000 0 0 1
6.864816 -12.235368 31.806587 34.763327 -1.059499 0.415421 0.149039 -0.044127 230804.000000 0 0 1
7.161516 -11.075968 31.049633 33.734909 -0.996828 0.401692 0.152785 -0.041454 -342038.000000 0 0 1
7.346616 -11.300268 29.578543 32.504754 -0.994331 0.427570 0.167022 -0.030192 -65101.200000 0 0 1
6.289916 -11.877568 28.825653 31.804999 -1.083779 0.436292 0.143947 -0.024363 127650.000000 0 0 1
6.648316 -12.060568 27.468303 30.727269 -1.066998 0.464738 0.134556 -0.022152 -334279.000000 0 0 1
5.598816 -12.843168 26.704073 30.156280 -1.159698 0.483178 0.102312 -0.043508 -811301.000000 0 0 1
5.616316 -14.216768 26.864673 30.909063 -1.194566 0.517311 0.102822 -0.035697 -196541.000000 0 0 1
5.014616 -15.035168 25.887493 30.353994 -1.248873 0.549371 0.060910 -0.031952 912204.000000 0 0 1
3.441816 -15.145168 25.903603 30.202961 -1.347337 0.540112 0.063550 -0.039785 843699.000000 0 0 1
2.724516 -13.983768 25.520513 29.227818 -1.378373 0.509152 0.064938 -0.041447 -360811.000000 0 0 1
1.435816 -14.349168 25.095313 28.943651 -1.471066 0.521565 0.050132 -0.031773 36601.800000 0 0 1
0.586316 -13.145468 24.592253 27.891325 -1.526224 0.491307 0.030132 -0.031830 -405092.000000 0 0 1
1.138416 -12.484268 23.474493 26.612117 -1.479860 0.490499 0.007800 -0.008608 -24816.000000 0 0 1
0.456216 -11.253868 23.127073 25.723903 -1.530280 0.453202 0.014893 -0.004755 429667.000000 0 0 1
-1.019684 -11.387768 22.689373 25.407256 1.481492 0.466768 0.026829 -0.013063 -325532.000000 0 0 1
-1.078884 -11.908668 21.430773 24.540953 1.480446 0.508931 0.023429 -0.010737 485548.000000 0 1 0
-2.316084 -12.633168 21.301673 24.874132 1.389476 0.542582 0.044746 -0.017831 942310.000000 0 1 0
-2.339384 -13.339568 19.922673 24.090033 1.397190 0.597030 0.064056 -0.022894 -609668.000000 0 1 0
-1.476684 -14.380068 19.891173 24.589138 1.468465 0.628447 0.073374 -0.027651 -910140.000000 0 1 0
-1.747584 -15.216568 18.763773 24.221420 1.456450 0.684592 0.076676 -0.028267 461141.000000 0 1 0
-2.847284 -16.312368 18.823873 25.070671 1.397990 0.721475 0.084332 -0.022861 44591.500000 0 0 1
-2.880884 -17.146068 17.712073 24.819441 1.404331 0.776120 0.074584 -0.022440 -359658.000000 0 1 0
-3.808784 -18.200368 17.887473 25.801587 1.364504 0.804779 0.085886 -0.022558 30528.000000 0 0 1
-3.530084 -19.477468 17.086673 26.149333 1.391503 0.858694 0.091005 -0.027235 110564.000000 0 0 1
-2.479284 -20.218768 17.693973 26.981885 1.448783 0.855591 0.111972 -0.031748 -52959.500000 0 0 1
-2.346684 -21.542368 17.234573 27.687742 1.462291 0.898912 0.109824 -0.052384 419118.000000 0 0 1
-1.192984 -22.382368 17.909773 28.690653 1.517547 0.896642 0.137864 -0.041255 1307380.000000 0 0 1
0.056716 -22.193268 17.242673 28.104344 -1.568241 0.910282 0.133112 -0.053399 -578370.000000 0 0 1
1.087716 -22.911968 17.805873 29.037743 -1.523358 0.910694 0.147781 -0.039037 147294.000000 0 0 1
2.458716 -22.872868 17.075873 28.649587 -1.463713 0.932255 0.146349 -0.047798 607895.000000 0 0 1
3.120216 -21.585968 17.140773 27.739788 -1.427242 0.904711 0.135730 -0.040201 282579.000000 0 0 1
4.275216 -21.622768 16.304773 27.416549 -1.375596 0.933897 0.118381 -0.035310 163864.000000 0 0 1
5.242016 -20.460368 16.557773 26.837758 -1.319988 0.905925 0.091626 -0.021991 -864616.000000 0 0 1
6.186416 -20.793168 17.601273 27.936220 -1.281615 0.889176 0.093772 -0.014165 482173.000000 0 0 1
6.953916 -19.702468 18.116773 27.654324 -1.231499 0.856461 0.099644 -0.007351 768292.000000 0 0 1
7.824716 -18.927268 17.055373 26.652456 -1.178784 0.876405 0.104808 -0.019080 -209289.000000 0 0 1
7.010416 -18.119068 16.169873 25.276696 -1.201627 0.876669 0.077641 -0.018562 565716.000000 0 0 1
7.840416 -17.485168 15.193473 24.454955 -1.149271 0.900416 0.123114 -0.028254 75119.500000 0 1 0
7.045316 -16.597368 14.287473 23.005238 -1.169363 0.900711 0.067540 -0.023809 -146531.000000 0 1 0
5.994516 -17.221768 13.580673 22.736715 -1.235835 0.930664 0.069421 -0.027849 104626.000000 0 1 0
5.466916 -16.410768 12.506273 21.344960 -1.249229 0.944791 0.042170 -0.024755 5890.730000 0 1 0
6.111516 -16.684968 11.117673 20.960473 -1.219685 1.011711 0.048076 -0.024353 217359.000000 0 1 0
7.451016 -16.226068 11.149273 21.050159 -1.140318 1.012605 0.062614 -0.021691 92315.600000 0 1 0
8.144216 -16.582468 9.944873 20.981110 -1.114267 1.076978 0.072230 -0.023247 320834.000000 0 1 0
9.516516 -15.908668 9.764873 20.952387 -1.031704 1.085975 0.071808 -0.020617 600888.000000 0 1 0
10.326916 -16.622668 8.800473 21.457088 -1.014895 1.148186 0.077286 -0.014474 611276.000000 0 1 0
11.573016 -15.945768 8.529873 21.470001 -0.942981 1.162232 0.069625 -0.022648 988473.000000 0 1 0
12.552516 -16.888268 7.779773 22.434440 -0.931617 1.216662 0.079284 -0.022478 54224.500000 0 1 0
12.797816 -18.143068 8.328473 23.713255 -0.956467 1.211927 0.102924 -0.029423 -224701.000000 0 1 0
13.580216 -18.920968 7.481273 24.462108 -0.948267 1.259985 0.092584 -0.025341 189416.000000 0 1 0
14.352116 -20.072268 8.227973 26.011127 -0.950059 1.248943 0.096781 -0.029400 -228570.000000 0 0 1
13.488216 -21.056268 8.688673 26.472465 -1.001072 1.236383 0.100725 -0.025383 -319623.000000 0 0 1
14.090216 -22.119468 9.402973 27.860742 -1.003611 1.226538 0.081355 -0.017237 131954.000000 0 0 1
13.032116 -22.946768 10.183173 28.285813 -1.054293 1.202518 0.103920 -0.022258 170092.000000 0 0 1
12.812016 -22.329768 11.413673 28.160934 -1.049891 1.153488 0.122697 -0.024125 469031.000000 0 0 1
11.740116 -22.985468 12.154173 28.528687 -1.098576 1.130693 0.142880 -0.031345 664083.000000 0 0 1
11.907016 -24.488568 12.596373 30.002260 -1.118227 1.137519 0.117408 -0.029120 -232449.000000 0 0 1
13.028316 -24.569368 13.449373 30.891366 -1.083230 1.120340 0.109004 -0.025514 -85523.300000 0 0 1
13.216716 -25.885028 13.918573 32.224881 -1.098710 1.124176 0.103954 -0.043831 833638.000000 0 0 1
14.539516 -26.111858 14.765173 33.335221 -1.062735 1.111932 0.083872 -0.030132 776362.000000 0 0 1
14.605416 -25.475608 16.001973 33.442307 -1.050233 1.071856 0.080562 -0.024779 384860.000000 0 0 1
15.637716 -26.042788 16.803473 34.714862 -1.030037 1.065528 0.084148 -0.029459 29206.800000 0 0 1
15.664616 -25.489448 18.239173 35.039400 -1.019745 1.023321 0.107738 -0.028839 595.698000 0 0 1
15.986616 -24.138668 18.464573 34.339302 -0.985835 1.003078 0.089024 -0.021546 314440.000000 0 0 1
17.371416 -23.928468 18.720973 34.997321 -0.942851 1.006376 0.083780 -0.028631 201011.000000 0 0 1
17.786116 -22.467268 19.077173 34.424738 -0.901170 0.983430 0.080606 -0.026350 -208623.000000 0 0 1
17.958816 -21.467968 18.126473 33.346090 -0.874169 0.996093 0.082834 -0.025739 1002820.000000 0 0 1
16.741116 -20.742568 17.841073 32.075270 -0.891747 0.980960 0.104477 -0.025641 149083.000000 0 0 1
17.022916 -19.698568 16.770673 30.968835 -0.858133 0.998536 0.089020 -0.024277 543793.000000 0 0 1
17.907616 -18.597368 17.123673 30.980074 -0.804291 0.985158 0.070241 -0.027385 -76410.800000 0 0 1
19.254816 -18.931068 17.076173 31.948849 -0.776920 1.006898 0.067601 -0.022897 -1112030.000000 0 0 1
20.105116 -17.670568 17.433273 31.943445 -0.721040 0.993507 0.073649 -0.030344 -334719.000000 0 0 1
19.987016 -17.295168 18.812073 32.442222 -0.713321 0.952235 0.065973 -0.019921 304515.000000 0 0 1
20.689216 -16.077468 18.987373 32.358136 -0.660617 0.943710 0.064755 -0.025915 -128407.000000 0 0 1
21.257716 -15.944068 20.394873 33.497084 -0.643525 0.916180 0.049123 -0.020096 -726198.000000 0 0 1
22.297516 -16.789968 20.734773 34.770865 -0.645417 0.931880 0.052239 -0.008987 -506322.000000 0 0 1
22.719916 -16.688268 22.078073 35.806901 -0.633521 0.906396 0.066047 -0.011394 206177.000000 0 0 1
34.579171 -1.557168 -7.418050 35.400159 -0.045002 1.781909 0.126961 -0.023588 -426189.000000 0 0 1
35.781561 -1.087668 -7.958450 36.672061 -0.030388 1.789554 0.143602 -0.032253 159594.000000 0 0 1
36.679891 -2.195868 -8.205950 37.650682 -0.059794 1.790509 0.182741 -0.051182 -945463.000000 0 0 1
-37.048734 -1.627168 -8.685350 38.087946 0.043891 1.800854 0.158173 -0.051786 -953299.000000 0 0 1
-36.091734 -2.662568 -8.995250 37.290978 0.073639 1.814417 0.195855 -0.042614 61552.400000 0 0 1
-34.823761 -2.113168 -9.206650 36.082159 0.060607 1.828807 0.294346 -0.058425 23011.600000 0 0 1
-33.622634 -3.115268 -9.164250 34.988139 0.092390 1.835812 0.261884 -0.051608 406004.000000 0 0 1
-33.339074 -3.458268 -7.811850 34.416253 0.103361 1.799773 0.243908 -0.054458 -264003.000000 0 0 1
-32.203674 -4.260068 -7.764450 33.399273 0.131522 1.805417 0.229056 -0.065261 -470423.000000 0 0 1
-31.517324 -4.499968 -6.408650 32.475563 0.141819 1.769438 0.202947 -0.081603 -35500.000000 0 0 1
-31.026154 -3.279568 -5.837450 31.740410 0.105312 1.755761 0.204045 -0.075817 283320.000000 0 0 1
-30.448934 -3.577368 -4.608950 31.002864 0.116951 1.720011 0.203458 -0.062669 -378052.000000 0 0 1
-30.274144 -2.413368 -3.624750 30.585731 0.079549 1.689587 0.217707 -0.065959 -426966.000000 0 0 1
-29.136884 -1.639468 -3.898750 29.442250 0.056209 1.703607 0.213620 -0.063260 119422.000000 0 0 1
-29.094454 -0.327368 -3.343850 29.287809 0.011251 1.685218 0.238916 -0.076336 419491.000000 0 0 1
-27.615664 0.171732 -3.116950 27.791541 -0.006219 1.683187 0.275350 -0.055502 1011910.000000 0 0 1
-26.957534 -0.418268 -2.005050 27.035233 0.015515 1.645029 0.247115 -0.055019 1275920.000000 0 0 1
-25.648914 0.130832 -1.708750 25.706103 -0.005101 1.637318 0.229243 -0.048375 1003240.000000 0 0 1
-25.106814 -0.357768 -0.343750 25.111716 0.014249 1.584486 0.224588 -0.047458 -105417.000000 0 0 1
-24.819584 -1.752968 -0.402850 24.884673 0.070511 1.586986 0.204242 -0.047691 200114.000000 0 1 0
-24.121284 -2.121468 0.747450 24.225929 0.087724 1.539938 0.178003 -0.038196 -311528.000000 0 1 0
-24.149484 -3.686568 0.943250 24.447455 0.151487 1.532204 0.178044 -0.024345 949374.000000 0 1 0
-25.362954 -4.268268 1.514950 25.764173 0.166725 1.511962 0.176823 -0.034340 1089240.000000 0 0 1
-25.382264 -5.716968 1.518050 26.062377 0.221538 1.512517 0.148585 -0.015079 465027.000000 0 0 1
-26.604094 -6.434668 2.213350 27.460548 0.237310 1.490108 0.160359 -0.018291 519147.000000 0 0 1
-26.594054 -6.522468 3.608950 27.619030 0.240513 1.439753 0.159611 -0.020815 -356254.000000 0 0 1
-27.733934 -7.132168 4.131450 28.932815 0.251710 1.427512 0.165431 -0.010759 -336700.000000 0 0 1
-27.727764 -7.522368 5.682250 29.286565 0.264917 1.375535 0.161567 -0.003867 -177714.000000 0 0 1
-26.768314 -8.541268 5.865250 28.703607 0.308869 1.365008 0.153530 -0.000690 -65332.200000 0 0 1
-26.721874 -9.004168 7.216150 29.106810 0.325010 1.320264 0.145481 -0.015904 -87290.000000 0 0 1
-25.929724 -8.125968 8.221950 28.389829 0.303690 1.276978 0.123955 -0.012631 -1313340.000000 0 0 1
-24.610884 -8.016668 7.863350 27.051707 0.314898 1.275860 0.129370 -0.013657 -1046340.000000 0 0 1
-24.044084 -6.762368 8.308650 26.322638 0.274166 1.249658 0.132434 -0.015402 725674.000000 0 0 1
-22.554084 -6.464968 7.990150 24.785581 0.279158 1.242563 0.093965 -0.017249 449169.000000 0 1 0
-21.506784 -7.049568 8.726750 24.256841 0.316747 1.202781 0.090619 -0.017952 109189.000000 0 1 0
-20.293684 -6.686968 8.095650 22.849260 0.318305 1.208624 0.089363 -0.011993 -209340.000000 0 1 0
-19.069484 -6.801868 9.003850 22.158067 0.342621 1.152344 0.078929 -0.009284 -371649.000000 0 1 0
-19.091484 -5.812068 10.037750 22.338785 0.295518 1.104768 0.085818 -0.003804 594447.000000 0 1 0
-18.038184 -6.002568 10.988650 21.958081 0.321244 1.046692 0.084310 -0.011166 219172.000000 0 1 0
-17.892184 -4.826168 11.939050 22.044570 0.263466 0.998473 0.091216 -0.014360 136032.000000 0 1 0
-18.909784 -4.710568 12.917450 23.380118 0.244138 0.985439 0.109630 -0.025479 33315.400000 0 1 0
-19.532584 -3.471468 13.028250 23.734115 0.175890 0.989719 0.141404 -0.028238 172850.000000 0 1 0
-20.801084 -3.577368 13.914950 25.280595 0.170314 0.987929 0.139299 -0.035082 -250022.000000 0 0 1
-20.517784 -3.867868 15.253550 25.857507 0.186326 0.939851 0.142084 -0.037421 -111285.000000 0 0 1
-21.652284 -4.078468 16.058950 27.264357 0.186181 0.940964 0.135715 -0.032041 -214570.000000 0 0 1
-21.377784 -4.746568 17.378050 27.955969 0.218488 0.899984 0.132293 -0.026559 -51775.300000 0 0 1
-22.564984 -4.753768 18.134550 29.336645 0.207634 0.904405 0.127625 -0.027431 631422.000000 0 0 1
-22.243284 -5.287068 19.427950 30.002700 0.233362 0.866444 0.134327 -0.017134 -153737.000000 0 0 1
-23.172684 -4.827068 20.542750 31.341322 0.205372 0.856015 0.135966 -0.024013 -470556.000000 0 0 1
-23.114384 -3.435568 20.730850 31.238534 0.147553 0.845134 0.140513 -0.035441 355709.000000 0 0 1
-23.702484 -3.067868 21.983350 32.472870 0.128717 0.827150 0.135321 -0.034600 16921.200000 0 0 1
-23.804184 -1.543768 22.088950 32.510677 0.064762 0.823802 0.120139 -0.024690 -929354.000000 0 0 1
-24.936484 -1.060068 21.487450 32.934215 0.042485 0.860003 0.134130 -0.035094 -837472.000000 0 0 1
-25.030494 0.358632 21.544450 33.027528 -0.014327 0.860158 0.123532 -0.025462 -567544.000000 0 0 1
-26.402894 0.854732 21.082950 33.798435 -0.032361 0.897220 0.131440 -0.026985 -185253.000000 0 0 1
-27.371764 0.637332 22.079250 35.172617 -0.023280 0.892150 0.131271 -0.027523 -212825.000000 0 0 1
-28.606284 1.283732 21.906550 36.053632 -0.044846 0.917748 0.104864 -0.025485 -198978.000000 0 0 1
-29.507384 1.169132 23.147250 37.521298 -0.039601 0.905986 0.085443 -0.020878 -522009.000000 0 0 1
-29.062114 1.993732 24.241750 37.897809 -0.068495 0.876739 0.082650 -0.022293 -238388.000000 0 0 1
-29.826414 1.805732 25.355850 39.189218 -0.060468 0.867139 0.078993 -0.026386 -741761.000000 0 0 1
-29.540024 2.804432 26.533950 39.806135 -0.094653 0.841186 0.100073 -0.030516 78885.500000 0 0 1
-28.327044 2.504632 27.196850 39.349247 -0.088189 0.807696 0.089531 -0.036060 264578.000000 0 0 1
-28.004654 3.550032 28.156950 39.870757 -0.126093 0.786672 0.084155 -0.029434 274984.000000 0 0 1
-26.609004 3.239832 28.760750 39.315600 -0.121161 0.750225 0.091533 -0.031277 170894.000000 0 0 1
-26.773124 2.136832 29.670650 40.021416 -0.079644 0.735688 0.084767 -0.031637 -242264.000000 0 0 1
-25.536874 1.760432 30.180050 39.573558 -0.068828 0.703424 0.072648 -0.033150 -462141.000000 0 0 1
-25.531774 0.487632 31.074250 40.220869 -0.019097 0.687886 0.075513 -0.036178 871.446000 0 0 1
-26.237244 -0.584768 30.501950 40.238090 0.022284 0.710499 0.057815 -0.032997 -128703.000000 0 0 1
-26.620824 -1.612168 31.408050 41.203555 0.060487 0.703990 0.054617 -0.025878 -702127.000000 0 0 1
-27.455194 -2.735368 30.716850 41.289161 0.099303 0.731842 0.060088 -0.016411 1057520.000000 0 0 1
-28.781394 -2.315068 30.307350 41.860049 0.080263 0.761189 0.074093 -0.030362 984354.000000 0 0 1
-28.778244 -1.372468 29.208350 41.026805 0.047655 0.778549 0.073476 -0.033055 -1072010.000000 0 0 1
-30.198394 -1.198568 28.623350 41.625422 0.039669 0.812561 0.097089 -0.045491 283039.000000 0 0 1
-31.046944 -0.614268 29.606250 42.904780 0.019783 0.809244 0.108900 -0.041883 -901572.000000 0 0 1
-32.370524 -0.905568 29.290250 43.664512 0.027968 0.835506 0.102540 -0.043541 -921409.000000 0 0 1
-33.374804 -0.523268 30.337550 45.105635 0.015677 0.833095 0.113731 -0.045416 -455000.000000 0 0 1
-33.468414 -1.395868 31.453750 45.950208 0.041683 0.816854 0.119638 -0.039243 -319292.000000 0 0 1
-34.418784 -0.958468 32.378450 47.264526 0.027840 0.816127 0.131790 -0.038079 -86389.800000 0 0 1
-34.807378 -1.934768 33.507150 48.353139 0.055528 0.805199 0.132057 -0.035733 -63333.400000 0 0 1
-35.577517 -2.999968 33.002950 48.620513 0.084123 0.824687 0.123839 -0.031372 -191650.000000 0 0 1
-35.654379 -4.024968 -33.866772 49.339572 0.112413 2.327326 0.110901 -0.025683 433937.000000 0 0 1
-36.859464 -4.968268 33.630950 50.143241 0.133982 0.835647 0.107100 -0.032556 694961.000000 0 0 1
36.852291 -4.516668 -33.857472 50.247587 -0.121953 2.310153 0.101468 -0.038459 83847.500000 0 0 1
35.836191 -5.334168 33.414750 49.287234 -0.147764 0.825813 0.100569 -0.031386 25717.100000 0 0 1
34.406521 -4.943368 33.869150 48.532102 -0.142699 0.798376 0.102629 -0.032966 -338700.000000 0 0 1
33.955051 -5.594568 -32.714072 47.481103 -0.163297 2.330893 0.102674 -0.030329 534940.000000 0 0 1
33.275021 -6.838268 -32.961872 47.333645 -0.202686 2.341128 0.111688 -0.033589 237379.000000 0 0 1
31.883151 -6.776668 -33.672572 46.864706 -0.209430 2.372448 0.110865 -0.042566 278198.000000 0 0 1
30.858991 -6.434868 -32.735572 45.445600 -0.205579 2.375066 0.119157 -0.042024 312242.000000 0 0 1
29.590741 -6.958668 -33.105972 44.944859 -0.230967 2.398812 0.093869 -0.028602 427393.000000 0 0 1
28.401941 -6.382768 -32.314872 43.493229 -0.221057 2.408317 0.099360 -0.038170 1059840.000000 0 0 1
27.106341 -6.948568 -32.597672 42.960965 -0.250941 2.432225 0.080490 -0.029103 644155.000000 0 0 1
26.053541 -6.555268 -31.779672 41.613773 -0.246491 2.439793 0.070532 -0.031604 17193.700000 0 0 1
24.689441 -7.106568 -32.299472 41.271391 -0.280262 2.469647 0.053657 -0.027811 121162.000000 0 0 1
24.521241 -8.534368 -32.151772 41.326301 -0.334927 2.462269 0.057811 -0.028389 259345.000000 0 0 1
24.074841 -8.934268 -30.850672 40.139545 -0.355351 2.447424 0.062095 -0.030825 -289601.000000 0 0 1
23.908141 -10.480368 -30.589072 40.213538 -0.413132 2.435135 0.076801 -0.026502 -213060.000000 0 0 1
22.865041 -11.019068 -31.360472 40.344878 -0.449077 2.461175 0.089059 -0.033039 -171885.000000 0 0 1
22.709541 -12.401868 -31.169072 40.509760 -0.499850 2.448731 0.086897 -0.023105 -87103.200000 0 0 1
21.484141 -12.938668 -31.982072 40.642716 -0.542067 2.476578 0.075135 -0.019620 945047.000000 0 0 1
20.156841 -12.635668 -31.587172 39.543745 -0.559941 2.496079 0.063243 -0.018318 193277.000000 0 0 1
19.799741 -11.256368 -31.789172 39.106100 -0.516944 2.519903 0.059868 -0.024860 700928.000000 0 0 1
18.283241 -10.938768 -31.394772 37.941603 -0.539165 2.545347 0.058794 -0.024294 1495950.000000 0 0 1
17.360941 -11.433468 -32.349872 38.453097 -0.582379 2.570445 0.039493 -0.007233 283508.000000 0 0 1
16.037341 -11.166868 -31.894072 37.404907 -0.608241 2.591873 0.083247 -0.022730 162602.000000 0 0 1
14.853541 -11.476468 -32.779372 37.773327 -0.657835 2.621537 0.080025 -0.021782 -830099.000000 0 0 1
14.526541 -12.827868 -32.969572 38.243526 -0.723379 2.610187 0.086829 -0.015880 625495.000000 0 0 1
13.274541 -12.979368 -33.654672 38.435848 -0.774156 2.637486 0.079409 -0.018694 659376.000000 0 0 1
12.082541 -13.209868 -32.702372 37.281813 -0.829940 2.640726 0.066391 -0.027494 -444154.000000 0 0 1
11.803441 -12.107468 -31.835872 36.047673 -0.798112 2.653354 0.144091 -0.024783 -331535.000000 0 0 1
10.692441 -12.279268 -31.009272 35.024044 -0.854366 2.658088 0.130121 -0.035314 -537712.000000 0 0 1
9.394141 -11.624268 -31.429772 34.802357 -0.891106 2.697715 0.117019 -0.029058 -812226.000000 0 0 1
9.498041 -10.168868 -31.567672 34.498356 -0.819494 2.726425 0.120496 -0.023423 728112.000000 0 0 1
8.257841 -9.537068 -31.933072 34.334657 -0.857162 2.765355 0.112141 -0.021511 472341.000000 0 0 1
8.459241 -8.067468 -32.341072 34.388773 -0.761697 2.794761 0.136553 -0.030196 -59993.400000 0 0 1
8.844541 -7.260068 -31.201472 33.233512 -0.687327 2.790088 0.131944 -0.037345 306270.000000 0 0 1
9.328741 -5.991868 -31.599172 33.487842 -0.570944 2.804141 0.128016 -0.023838 -235435.000000 0 0 1
9.264041 -4.817168 -30.493372 32.231558 -0.479508 2.811684 0.114071 -0.030981 136460.000000 0 0 1
7.994441 -4.412468 -29.987872 31.347303 -0.504333 2.846012 0.119946 -0.030360 11050.300000 0 0 1
7.992341 -3.458968 -28.935072 30.217220 -0.408446 2.849242 0.121726 -0.026308 -72772.400000 0 0 1
6.585241 -3.057868 -28.447972 29.359889 -0.434724 2.891704 0.103173 -0.020312 -1110300.000000 0 0 1
5.971141 -2.210468 -29.352072 30.034727 -0.354549 2.927979 0.098088 -0.016938 -864467.000000 0 0 1
4.700741 -1.784468 -28.994072 29.426816 -0.362810 2.969884 0.103154 -0.024774 454372.000000 0 0 1
3.493541 -2.817268 -29.001272 29.346475 -0.678644 2.988060 0.086182 -0.025531 135574.000000 0 0 1
3.635741 -3.652768 -27.843172 28.316136 -0.787734 2.958564 0.088509 -0.023460 265994.000000 0 0 1
2.621141 -4.666468 -27.824072 28.334172 -1.059017 2.951554 0.085185 -0.021127 547303.000000 0 0 1
2.709441 -5.529568 -26.563472 27.267843 -1.115188 2.913805 0.063910 -0.026618 64276.800000 0 0 1
2.499041 -4.906568 -25.320572 25.912371 -1.099716 2.927462 0.064670 -0.030647 10560.900000 0 0 1
2.846341 -5.798368 -24.310272 25.153768 -1.114466 2.881890 0.067866 -0.037876 -61858.200000 0 0 1
2.862241 -5.191968 -22.949572 23.702992 -1.066969 2.888786 0.093778 -0.046670 4257.420000 0 1 0
3.948941 -4.300068 -22.774972 23.511361 -0.827938 2.890653 0.084325 -0.041922 218571.000000 0 1 0
3.786941 -3.659668 -21.538572 22.173051 -0.768308 2.901791 0.066160 -0.035707 355415.000000 0 1 0
4.809441 -2.493068 -21.381172 22.056759 -0.478235 2.893451 0.068912 -0.031302 774664.000000 0 1 0
6.161141 -2.823768 -21.081372 22.144019 -0.429750 2.830540 0.067280 -0.032062 386513.000000 0 1 0
6.829041 -1.736368 -20.453972 21.633672 -0.248986 2.809829 0.071579 -0.033534 -74070.000000 0 1 0
8.313841 -2.004268 -20.135672 21.876525 -0.236562 2.739959 0.088913 -0.039919 -971994.000000 0 1 0
9.064141 -1.990168 -21.336372 23.267148 -0.216135 2.731332 0.098894 -0.048601 -280146.000000 0 1 0
10.103041 -2.940268 -21.332172 23.786092 -0.283205 2.683356 0.080234 -0.047619 197344.000000 0 1 0
11.416041 -2.435068 -20.693472 23.758690 -0.210153 2.628001 0.090596 -0.041088 -805068.000000 0 1 0
11.238541 -2.261668 -19.281772 22.432269 -0.198590 2.605195 0.074971 -0.024817 767997.000000 0 1 0
12.434941 -1.873468 -18.564572 22.422778 -0.149537 2.546209 0.089904 -0.032656 645155.000000 0 1 0
12.803041 -0.369068 -18.614272 22.595247 -0.028819 2.538902 0.085578 -0.025616 -119098.000000 0 1 0
13.257841 0.160732 -19.840572 23.863036 0.012123 2.552482 0.093654 -0.030162 273880.000000 0 1 0
13.540341 1.555032 -19.687172 23.944597 0.114343 2.536056 0.123962 -0.036365 -6961.970000 0 1 0
13.848741 2.350132 -20.974072 25.243265 0.168099 2.551480 0.121998 -0.030812 -235189.000000 0 0 1
15.141341 1.997032 -21.422472 26.309136 0.131136 2.522249 0.140671 -0.025789 147870.000000 0 0 1
15.609241 2.960532 -22.370972 27.438541 0.187439 2.524064 0.148217 -0.031906 -314000.000000 0 0 1
17.079741 2.734632 -22.742572 28.573070 0.158762 2.491362 0.133043 -0.021393 -249341.000000 0 0 1
17.220841 1.590932 -23.549372 29.217484 0.092123 2.508164 0.113575 -0.014546 357353.000000 0 0 1
18.590241 1.369532 -23.848972 30.269558 0.073537 2.478166 0.111545 -0.016903 60958.200000 0 0 1
9.998616 26.627432 3.320250 28.635931 1.211587 1.454588 0.030457 -0.005259 -160267.000000 0 0 1
10.021216 26.926132 4.730650 29.117356 1.214505 1.407605 0.040094 -0.005936 -312920.000000 0 0 1
11.214116 27.463932 5.242750 30.124913 1.183137 1.395872 0.030953 -0.002085 -441841.000000 0 0 1
11.195716 27.908532 6.723250 30.812860 1.189293 1.350831 0.039642 -0.011477 -118463.000000 0 0 1
11.364616 26.921332 7.680650 30.214318 1.171349 1.313770 0.044328 -0.016693 135034.000000 0 0 1
11.182516 27.501232 8.960450 31.010581 1.184597 1.277668 0.049281 -0.010390 -475024.000000 0 0 1
11.198416 26.465832 10.204750 30.495602 1.170513 1.229584 0.077481 -0.010982 333249.000000 0 0 1
12.474516 25.997032 10.617950 30.727839 1.123403 1.217973 0.059288 -0.011650 306040.000000 0 0 1
13.072616 25.027732 9.780450 29.882066 1.089448 1.237350 0.070284 -0.022162 38112.100000 0 0 1
14.489916 24.599432 10.233250 30.328356 1.038479 1.226627 0.095689 -0.029116 -869960.000000 0 0 1
15.503316 25.477332 10.098250 31.486853 1.024140 1.244314 0.084298 -0.026289 -1586680.000000 0 0 1
16.688616 24.811232 10.395050 31.656978 0.978681 1.236224 0.092575 -0.024573 -554456.000000 0 0 1
17.839616 25.713132 10.883250 33.134004 0.964248 1.236122 0.085865 -0.024410 -509037.000000 0 0 1
18.320516 26.478432 9.787550 33.653303 0.965525 1.275697 0.073105 -0.024321 334926.000000 0 0 1
19.738516 26.416732 9.632550 34.354604 0.929091 1.286600 0.078528 -0.038205 885051.000000 0 0 1
20.542216 27.361032 10.634950 35.828912 0.926794 1.269429 0.070710 -0.036459 -419355.000000 0 0 1
20.451816 28.760032 10.573050 36.840272 0.952647 1.279706 0.080969 -0.048546 -323988.000000 0 0 1
19.209016 29.279232 10.949650 36.689979 0.990171 1.267742 0.066320 -0.024159 -249798.000000 0 0 1
19.316916 30.775432 11.258250 38.039699 1.010277 1.270335 0.076966 -0.020268 -468764.000000 0 0 1
19.569116 31.617432 10.140950 38.541552 1.016571 1.304544 0.096504 -0.044683 1320920.000000 0 0 1
18.523416 31.785832 9.076950 37.892573 1.043152 1.328900 0.093915 -0.047372 2432560.000000 0 0 1
17.167516 32.475732 9.567850 37.959723 1.084511 1.315995 0.090027 -0.039420 914631.000000 0 0 1
17.393416 33.795432 9.986450 39.298745 1.095484 1.313862 0.085028 -0.041323 -604203.000000 0 0 1
16.220716 -33.201042 10.218250 38.338407 -1.116342 1.301008 0.087714 -0.031137 -506469.000000 0 0 1
16.506716 -31.654642 10.273850 37.148890 -1.090126 1.290585 0.096191 -0.017177 20577.400000 0 0 1
16.991316 -31.243842 9.011850 36.689180 -1.072703 1.322630 0.097037 -0.031950 144856.000000 0 0 1
17.229116 -29.835642 8.965550 35.600408 -1.047110 1.316217 0.076241 -0.038443 -240742.000000 0 0 1
17.786616 -29.367142 7.650850 35.175677 -1.026223 1.351540 0.079429 -0.030503 -441391.000000 0 0 1
16.905816 -29.549542 6.582950 34.674447 -1.051131 1.379787 0.075082 -0.027881 -85005.300000 0 0 1
17.437716 -28.998942 5.404450 34.266903 -1.029405 1.412419 0.067700 -0.023210 34537.600000 0 0 1
16.490916 -29.328742 4.236450 33.912725 -1.058575 1.445547 0.072836 -0.028685 119255.000000 0 0 1
16.655016 -30.662842 3.866950 35.107730 -1.073215 1.460427 0.085991 -0.030233 34768.600000 0 0 1
16.795616 -30.722042 2.479150 35.101037 -1.070493 1.500108 0.076681 -0.025893 -91865.700000 0 0 1
17.049216 -32.119142 1.913650 36.413969 -1.082804 1.518219 0.064164 -0.023334 200207.000000 0 0 1
18.311616 -32.588842 2.391950 37.457567 -1.058864 1.506895 0.069715 -0.015885 279082.000000 0 0 1
18.632816 -33.761142 1.689950 38.598607 -1.066495 1.527000 0.080670 -0.020778 -1105530.000000 0 0 1
20.082916 33.546132 1.873250 39.143014 1.031359 1.522921 0.101695 -0.027977 -828545.000000 0 0 1
20.509116 33.123232 3.161650 39.086678 1.016396 1.489820 0.101619 -0.051763 -302642.000000 0 0 1
21.843916 32.688932 3.113350 39.438762 0.981708 1.491773 0.114968 -0.036810 44440.800000 0 0 1
22.436216 32.218932 4.517550 39.520269 0.962512 1.456236 0.128234 -0.036289 264008.000000 0 0 1
21.897716 30.947932 4.931350 38.230913 0.955010 1.441447 0.120734 -0.047566 339165.000000 0 0 1
22.493116 30.441532 6.106950 38.339562 0.934440 1.410829 0.104252 -0.047758 49257.500000 0 0 1
21.378616 29.809932 6.927550 37.331866 0.948643 1.384148 0.099851 -0.055432 -277179.000000 0 0 1
20.684416 28.771232 6.218650 35.976388 0.947480 1.397070 0.098014 -0.047053 -942469.000000 0 0 1
19.510216 28.520632 6.874850 35.232635 0.970839 1.374409 0.095896 -0.053242 -260382.000000 0 0 1
18.252116 29.052132 6.077250 34.843925 1.009861 1.395486 0.076343 -0.046145 155463.000000 0 0 1
18.013916 30.439632 6.273250 35.922501 1.036434 1.395263 0.071619 -0.039865 83265.500000 0 0 1
18.392416 31.212632 5.143650 36.591892 1.038310 1.429761 0.091847 -0.042882 -230421.000000 0 0 1
18.042716 32.653232 5.321550 37.684109 1.065993 1.429108 0.094583 -0.043339 778057.000000 0 0 1
16.666916 33.002932 5.550250 37.386962 1.103146 1.421791 0.061506 -0.036088 615110.000000 0 0 1
16.591716 -33.309342 5.778650 37.658865 -1.108662 1.416740 0.066370 -0.034411 -986812.000000 0 0 1
15.147916 -32.885242 5.832250 36.673064 -1.139138 1.411085 0.067224 -0.034844 -465511.000000 0 0 1
14.349616 -33.160042 4.669150 36.432140 -1.162390 1.442283 0.061808 -0.023096 770035.000000 0 0 1
13.182516 -32.304442 4.638550 35.197611 -1.183351 1.438626 0.058261 -0.023976 685027.000000 0 0 1
12.606116 -32.188642 3.224750 34.719186 -1.197524 1.477781 0.060767 -0.020718 -559233.000000 0 0 1
11.633616 -31.213642 3.192150 33.463746 -1.214035 1.475260 0.061357 -0.016874 -666120.000000 0 0 1
11.002516 -31.150042 1.950150 33.093558 -1.231264 1.511834 0.063568 -0.014536 -459354.000000 0 0 1
10.057416 -29.917842 1.756750 31.611945 -1.246497 1.515195 0.065288 -0.005893 342319.000000 0 0 1
9.417716 -29.797342 0.518750 31.254505 -1.264672 1.554198 0.083174 -0.008230 -152872.000000 0 0 1
8.480216 -30.789842 0.151650 31.936678 -1.302037 1.566048 0.074843 -0.008287 -559272.000000 0 0 1
8.725716 -31.366542 -1.259050 32.581947 -1.299471 1.609449 0.095703 -0.010804 603359.000000 0 0 1
10.020416 -31.981542 -1.213450 33.536550 -1.267166 1.606987 0.088212 -0.016123 364438.000000 0 0 1
10.251616 -32.754242 -2.336250 34.400495 -1.267469 1.638762 0.098155 -0.018719 -141969.000000 0 0 1
11.535316 -33.591642 -2.259450 35.588861 -1.240015 1.634327 0.080710 -0.019584 -365048.000000 0 0 1
11.520016 33.286932 -1.132450 35.242206 1.237616 1.602935 0.072120 -0.017228 35652.800000 0 0 1
12.644416 32.439432 -1.002450 34.831063 1.199127 1.599581 0.082825 -0.023098 -213676.000000 0 0 1
12.741416 31.572632 0.301450 34.047991 1.187226 1.561943 0.066997 -0.020357 -297183.000000 0 0 1
13.085416 32.256332 1.494150 34.841521 1.185412 1.527899 0.055266 -0.015810 1768740.000000 0 0 1
14.433616 32.833032 1.584650 35.900535 1.156619 1.526642 0.059450 -0.017103 1243850.000000 0 0 1
15.677116 31.949832 1.754750 35.632049 1.114633 1.521530 0.053371 -0.021145 -612924.000000 0 0 1
16.096816 31.383932 0.523150 35.275096 1.096882 1.555965 0.066763 -0.025464 -310361.000000 0 0 1
17.113516 30.456932 0.680950 34.942250 1.058869 1.551307 0.067932 -0.022634 -353375.000000 0 0 1
17.702316 29.731532 -0.617850 34.608059 1.033762 1.588650 0.077083 -0.020092 499188.000000 0 0 1
18.689716 30.495832 -1.337450 35.792318 1.020974 1.608172 0.063263 -0.011082 241982.000000 0 0 1
18.247516 31.565332 -2.093450 36.520194 1.046645 1.628151 0.080176 -0.024863 459998.000000 0 0 1
19.453116 32.450232 -2.601350 37.923717 1.030763 1.639444 0.077189 -0.016998 804700.000000 0 0 1
20.282216 33.036632 -1.636450 38.800326 1.020196 1.612985 0.070896 -0.010302 447406.000000 0 0 1
21.314716 -33.799642 -2.189350 40.019073 -1.008166 1.625531 0.066242 -0.005425 440840.000000 0 0 1
22.299716 -33.304142 -1.028750 40.093659 -0.980781 1.596458 0.081116 -0.005083 45806.800000 0 0 1
23.192516 33.482932 -0.367550 40.732477 0.965009 1.579820 0.084611 -0.005868 855126.000000 0 0 1
24.055416 32.640932 -1.123450 40.562984 0.935686 1.598496 0.081819 -0.003447 155992.000000 0 0 1
25.001716 33.311232 -2.178250 41.706939 0.926944 1.623048 0.078748 -0.006018 -737431.000000 0 0 1
24.322316 -33.724742 -3.236350 41.706201 -0.945983 1.648473 0.070948 -0.012540 235875.000000 0 0 1
25.271416 -33.127042 -4.129550 41.870020 -0.919113 1.669585 0.064069 -0.006741 326199.000000 0 0 1
24.665116 -32.597942 -5.460150 41.240841 -0.923055 1.703583 0.056576 -0.009317 124880.000000 0 0 1
23.696316 -31.569042 -5.354750 39.834572 -0.926899 1.705629 0.070320 -0.011307 399666.000000 0 0 1
23.059616 -31.246042 -6.577850 39.386916 -0.935019 1.738589 0.079561 -0.017358 250631.000000 0 0 1
22.028316 -30.072942 -6.502050 37.840523 -0.938592 1.743481 0.092991 -0.015978 -686194.000000 0 0 1
20.804816 -30.352542 -5.950150 37.276285 -0.969910 1.731105 0.114239 -0.015262 -1302140.000000 0 0 1
20.093016 -29.132642 -5.960850 35.888325 -0.967011 1.737664 0.120823 -0.019622 312353.000000 0 0 1
18.824716 -29.097542 -5.073350 35.025359 -0.996567 1.716156 0.110442 -0.010988 512968.000000 0 0 1
17.648816 -29.740942 -5.546750 35.025287 -1.035230 1.729830 0.118029 -0.020916 -1042.310000 0 0 1
16.613116 -29.399442 -4.643450 34.086426 -1.056447 1.707447 0.086045 -0.013886 341612.000000 0 0 1
15.260516 -30.099542 -4.968450 34.110867 -1.101563 1.716972 0.069131 -0.020172 293391.000000 0 0 1
15.369416 -31.521942 -4.900850 35.410028 -1.117135 1.709645 0.072839 -0.006632 251519.000000 0 0 1
14.085416 -32.100742 -5.116950 35.426540 -1.157305 1.715742 0.080961 -0.007399 352977.000000 0 0 1
14.052916 -33.649942 -5.334750 36.854614 -1.175192 1.716058 0.080855 -0.020686 -29852.600000 0 0 1
14.287416 33.281332 -4.134050 36.453638 1.165296 1.684447 0.086642 -0.029278 -199799.000000 0 0 1
14.522616 31.899232 -4.316250 35.314266 1.143572 1.693327 0.088416 -0.030122 -813294.000000 0 0 1
13.453316 30.934032 -4.753650 34.066160 1.160567 1.710795 0.087127 -0.030472 -545807.000000 0 0 1
12.467516 30.439532 -3.849750 33.118343 1.182056 1.687302 0.082728 -0.030655 280148.000000 0 0 1
12.915516 29.471132 -2.929250 32.310040 1.157762 1.661582 0.089954 -0.036641 -214152.000000 0 0 1
11.775416 28.684532 -2.266650 31.090200 1.181259 1.643767 0.075289 -0.032906 256741.000000 0 0 1
10.794016 29.333632 -1.489450 31.292031 1.218200 1.618413 0.073084 -0.035504 162379.000000 0 0 1
9.884416 28.404232 -0.917350 30.088929 1.235912 1.601289 0.056775 -0.028247 277850.000000 0 0 1
8.845416 29.051632 0.011050 30.368386 1.275242 1.570432 0.041928 -0.011656 346871.000000 0 0 1
7.917416 28.181232 0.653350 29.279587 1.296910 1.548480 0.036613 -0.010357 86977.700000 0 0 1
6.824016 28.958932 1.113950 29.772938 1.339374 1.533373 0.056410 -0.005762 25938.100000 0 0 1
5.803316 28.137932 1.921350 28.794328 1.367403 1.504020 0.061930 -0.011340 85732.300000 0 0 1
5.081116 27.265432 1.098250 27.756579 1.386552 1.531219 0.060752 -0.015390 -456419.000000 0 0 1
3.882916 26.790232 1.630850 27.119241 1.426861 1.510624 0.065025 -0.021627 -265446.000000 0 0 1
3.214716 25.771432 0.760750 25.982299 1.446698 1.541513 0.071086 -0.021164 478097.000000 0 0 1
1.978516 25.188232 1.210150 25.294783 1.492408 1.522936 0.073433 -0.019118 725669.000000 0 0 1
1.269816 24.699332 0.095950 24.732138 1.519431 1.566917 0.056343 -0.011737 -768185.000000 0 1 0
-0.046984 24.042232 0.402250 24.045643 -1.568842 1.554067 0.051999 -0.013467 91124.700000 0 1 0
-1.091384 24.946132 0.850250 24.984466 -1.527075 1.536759 0.057049 -0.016205 116575.000000 0 1 0
-2.341984 24.318532 0.744750 24.442393 -1.474788 1.540322 0.054139 -0.014802 -147546.000000 0 1 0
-3.463784 25.214632 1.370350 25.488298 -1.434279 1.517006 0.084665 -0.034475 610819.000000 0 0 1
-4.707284 24.487332 1.321350 24.970661 -1.380880 1.517855 0.079361 -0.023822 539969.000000 0 1 0
-5.681984 25.039232 2.211050 25.770853 -1.347652 1.484894 0.076735 -0.029831 -88685.000000 0 0 1
-6.951184 25.416932 1.454550 26.390436 -1.303838 1.515652 0.086970 -0.035716 -570147.000000 0 0 1
-6.692784 26.384232 0.412750 27.222995 -1.322370 1.555634 0.092057 -0.033694 477379.000000 0 0 1
-7.848184 26.699232 -0.376250 27.831359 -1.284901 1.584316 0.097601 -0.029729 103936.000000 0 0 1
-7.625084 27.853232 -1.376250 28.910872 -1.303584 1.618418 0.091412 -0.029366 -190722.000000 0 0 1
-7.742084 29.131632 -0.760550 30.152451 -1.311039 1.596022 0.118407 -0.048054 48191.300000 0 0 1
-7.625884 30.094632 -1.790250 31.097363 -1.322623 1.628397 0.111743 -0.043959 -13434.600000 0 0 1
-7.475984 31.568632 -1.302050 32.467895 -1.338263 1.610910 0.095238 -0.042402 -645329.000000 0 0 1
-7.780184 32.681532 -2.171750 33.664972 -1.337086 1.635352 0.085948 -0.025050 -97490.800000 0 0 1
-7.055784 32.893732 -3.407150 33.814056 -1.359496 1.671729 0.074754 -0.028380 1412480.000000 0 0 1
-5.497784 33.157932 -3.198050 33.762429 -1.406485 1.665661 0.092570 -0.028061 1006450.000000 0 0 1
-5.304984 -33.320342 -2.433050 33.827618 1.412910 1.642783 0.086325 -0.029122 -50588.900000 0 0 1
-4.752684 -33.747342 -1.178850 34.100744 1.430885 1.605373 0.107948 -0.041083 -382556.000000 0 0 1
-4.442984 -32.455542 -0.351750 32.760129 1.434748 1.581534 0.107706 -0.036312 -56932.200000 0 0 1
-5.524784 -31.574342 -0.093550 32.054189 1.397573 1.573715 0.095242 -0.034277 -170073.000000 0 0 1
-5.852384 -30.669942 -1.137550 31.244035 1.382245 1.607213 0.107117 -0.031843 -681742.000000 0 0 1
-7.273884 -30.175942 -0.948150 31.054723 1.334260 1.601333 0.115320 -0.041425 -743620.000000 0 0 1
-7.544384 -29.331242 0.158350 30.286376 1.319040 1.565568 0.104295 -0.027971 -622001.000000 0 0 1
-8.737284 -28.649342 -0.100950 29.952214 1.274783 1.574167 0.051726 -0.013254 -428728.000000 0 0 1
-9.029184 -27.676742 1.113550 29.133627 1.255446 1.532565 0.067029 -0.009536 -547476.000000 0 0 1
-8.012084 -26.773742 1.424150 27.983119 1.280026 1.519881 0.079433 -0.019018 -618025.000000 0 0 1
-7.847084 -26.476142 2.781750 27.754296 1.282661 1.470400 0.093180 -0.009116 243612.000000 0 0 1
-8.793384 -25.387342 3.368350 27.077417 1.237360 1.446076 0.071211 -0.004322 517039.000000 0 0 1
-8.192884 -24.107542 3.190050 25.660735 1.243195 1.446157 0.078214 -0.007128 442747.000000 0 0 1
-9.168684 -23.155742 3.612250 25.165482 1.193780 1.426759 0.069201 -0.011606 635559.000000 0 0 1
-8.482984 -21.774742 3.741250 23.666376 1.199306 1.412047 0.034814 -0.003166 415611.000000 0 1 0
-7.586884 -21.792542 4.835350 23.576605 1.235778 1.364240 0.027681 -0.004182 -93032.800000 0 1 0
-6.826184 -20.589442 5.061850 22.274295 1.250662 1.341543 0.007027 -0.004688 146836.000000 0 1 0
-7.562484 -19.410842 5.691250 21.595423 1.199287 1.304107 0.010646 -0.010662 -115689.000000 0 1 0
-7.872184 -19.694942 7.047550 22.350167 1.190544 1.249998 0.000789 -0.011787 -77453.700000 0 1 0
-8.886684 -18.850342 7.528450 22.158206 1.130262 1.224136 0.001862 -0.010944 -552112.000000 0 1 0
-28.585144 29.377632 -6.023050 41.429855 -0.799070 1.716693 0.097519 -0.001718 -197742.000000 0 0 1
-27.828334 29.966332 -5.021050 41.202041 -0.822374 1.692964 0.087297 -0.013373 -282788.000000 0 0 1
-26.686064 29.231632 -4.644350 39.852281 -0.830890 1.687601 0.068710 -0.003374 364753.000000 0 0 1
-25.690944 30.067532 -3.745050 39.725389 -0.863729 1.665210 0.060306 -0.011029 253329.000000 0 0 1
-26.027354 30.128832 -2.335450 39.882628 -0.858306 1.629388 0.035753 -0.019303 358029.000000 0 0 1
-25.252774 31.070432 -1.560750 40.068819 -0.888324 1.609758 0.031610 -0.020455 349531.000000 0 0 1
-23.930084 30.540132 -0.977350 38.811130 -0.906159 1.595981 0.033950 -0.008713 -160326.000000 0 0 1
-22.910184 30.195732 -1.855950 37.948693 -0.921736 1.619723 0.080235 -0.022033 -633670.000000 0 0 1
-21.714984 30.042332 -1.163150 37.086860 -0.944923 1.602164 0.079443 -0.016561 -566828.000000 0 0 1
-20.634384 29.137232 -1.700050 35.744178 -0.954602 1.618376 0.105762 -0.022102 289938.000000 0 0 1
-19.342984 29.264832 -1.112350 35.097276 -0.986753 1.602495 0.121636 -0.016705 478988.000000 0 0 1
-18.354484 28.466832 -1.766150 33.917059 -0.998108 1.622892 0.120552 -0.013996 670229.000000 0 0 1
-16.942984 28.732232 -1.158550 33.375861 -1.037995 1.605515 0.126017 -0.019043 138480.000000 0 0 1
-16.740684 28.386732 0.180150 32.955872 -1.037958 1.565330 0.119429 -0.037963 301901.000000 0 0 1
-15.691784 29.230432 0.701250 33.183460 -1.078120 1.549662 0.122800 -0.046496 453718.000000 0 0 1
-15.047384 28.597632 1.947350 32.373454 -1.086428 1.510607 0.125386 -0.048178 -146154.000000 0 0 1
-15.858984 28.556332 3.115150 32.812736 -1.063849 1.475716 0.103688 -0.041448 -54731.800000 0 0 1
-15.229584 27.862632 4.184750 32.027779 -1.070571 1.439762 0.108144 -0.049317 358922.000000 0 0 1
-14.056884 28.548932 4.917750 32.199717 -1.113264 1.417470 0.122852 -0.041519 193119.000000 0 0 1
-14.408184 29.725332 5.684050 33.518645 -1.119455 1.400394 0.099060 -0.044402 -102073.000000 0 0 1
-14.382484 30.935132 4.942450 34.471235 -1.135601 1.426921 0.111842 -0.046029 -23298.900000 0 0 1
-14.042184 32.058332 5.932950 35.498162 -1.157950 1.402874 0.113282 -0.039753 80067.400000 0 0 1
-15.178984 32.513232 6.609750 36.485622 -1.134014 1.388630 0.097672 -0.031374 93685.000000 0 0 1
-14.731884 33.661232 7.297450 37.461443 -1.158259 1.374744 0.120446 -0.047979 637924.000000 0 0 1
-15.842184 -33.477942 8.233850 37.941319 1.128807 1.352040 0.088314 -0.035567 462370.000000 0 0 1
-16.139484 33.413832 9.380650 38.274845 -1.120826 1.323187 0.062197 -0.033994 -413840.000000 0 0 1
-17.381684 33.714232 9.946850 39.213674 -1.094779 1.314337 0.069038 -0.033811 -830697.000000 0 0 1
-17.521784 33.039732 11.342550 39.080561 -1.083184 1.276324 0.053270 -0.027743 383076.000000 0 0 1
-16.716184 33.548532 12.422550 39.487398 -1.108535 1.250766 0.055185 -0.034257 -649865.000000 0 0 1
-15.388284 33.170332 12.296050 38.578013 -1.136429 1.246405 0.065070 -0.030176 -976183.000000 0 0 1
-14.471084 33.408032 13.502550 38.830758 -1.162033 1.215649 0.056682 -0.026472 -84135.600000 0 0 1
-14.905184 32.681932 14.626850 38.784249 -1.142908 1.184097 0.039546 -0.025810 -128641.000000 0 0 1
-14.156884 31.450732 14.837650 37.546262 -1.147835 1.164529 0.029823 -0.020048 280826.000000 0 0 1
-14.813184 30.075232 14.296050 36.446222 -1.113136 1.167719 0.023980 -0.031742 364736.000000 0 0 1
-14.665884 29.949932 12.897250 35.755079 -1.115439 1.201766 0.022901 -0.027286 392440.000000 0 0 1
-15.867084 29.442332 12.322350 35.643451 -1.076499 1.217799 0.006847 -0.027084 313734.000000 0 0 1
-15.883084 29.320532 10.788450 35.047919 -1.074344 1.257895 0.024116 -0.019004 410445.000000 0 0 1
-15.025284 28.285432 10.244250 33.626916 -1.082500 1.261231 0.011771 -0.010731 464199.000000 0 0 1
-15.024584 28.324032 8.825650 33.254790 -1.083084 1.302183 0.037129 -0.008660 -460868.000000 0 0 1
-14.534784 26.986932 8.314150 31.759716 -1.076758 1.305927 0.047398 -0.015528 -1100490.000000 0 0 1
-13.163184 26.858832 8.286450 31.037583 -1.115110 1.300537 0.068245 -0.020041 -961754.000000 0 0 1
-12.753184 25.555832 7.981550 29.655512 -1.107923 1.298294 0.072407 -0.025678 -576812.000000 0 0 1
-11.457484 25.494732 7.215450 28.867249 -1.148437 1.318165 0.107181 -0.038347 -597165.000000 0 0 1
-11.743684 25.725332 5.823650 28.872508 -1.142548 1.367701 0.126866 -0.039690 753103.000000 0 0 1
-10.604284 25.375432 5.044750 27.960918 -1.174958 1.389381 0.148085 -0.034577 205116.000000 0 0 1
-10.856584 25.559832 3.544050 27.995191 -1.169136 1.443861 0.143805 -0.039525 -113127.000000 0 0 1
-10.835084 26.881032 3.065350 29.144216 -1.187642 1.465423 0.147817 -0.037968 255898.000000 0 0 1
-11.285484 27.152832 1.702250 29.453966 -1.176890 1.512971 0.146629 -0.047265 94879.700000 0 0 1
-10.849084 28.549832 1.243250 30.566996 -1.207645 1.530112 0.165549 -0.038953 32922.200000 0 0 1
-11.499684 29.514432 1.989150 31.738008 -1.199262 1.508081 0.152919 -0.047953 -337214.000000 0 0 1
-10.878884 30.746632 1.837450 32.666217 -1.230719 1.514517 0.136074 -0.052603 -265304.000000 0 0 1
-11.272684 31.866032 2.825850 33.919063 -1.230783 1.487388 0.116923 -0.048434 205454.000000 0 0 1
-12.546784 32.464332 2.663550 34.906291 -1.202000 1.494416 0.140933 -0.047732 -120400.000000 0 0 1
-12.724184 33.263232 1.523150 35.646423 -1.205440 1.528054 0.125807 -0.038524 -927840.000000 0 0 1
-14.212484 33.538132 1.258250 36.447006 -1.169967 1.536267 0.135089 -0.040016 -1076.560000 0 0 1
-14.926184 32.498632 0.635750 35.768090 -1.140247 1.553021 0.114557 -0.028533 -225842.000000 0 0 1
-15.251584 32.707532 -0.772950 36.096966 -1.134469 1.592211 0.115182 -0.021024 317561.000000 0 0 1
-14.086784 32.698232 -1.830950 35.650586 -1.164013 1.622177 0.119867 -0.019123 398669.000000 0 0 1
-13.568284 31.358032 -1.969550 34.224314 -1.162431 1.628376 0.120710 -0.020832 -1575260.000000 0 0 1
-12.223684 31.392632 -2.130150 33.755790 -1.199478 1.633943 0.106441 -0.021591 -1715970.000000 0 0 1
-11.596684 30.007132 -2.386850 32.258458 -1.202013 1.644855 0.075719 -0.030583 65629.500000 0 0 1
-11.895684 29.587432 -3.722550 32.105775 -1.188522 1.687004 0.087356 -0.031117 82357.800000 0 0 1
-10.768784 29.696832 -4.572150 31.918225 -1.222920 1.714537 0.079060 -0.029709 176624.000000 0 0 1
-11.054484 28.943832 -5.900350 31.539835 -1.205965 1.758981 0.080671 -0.024196 105453.000000 0 0 1
-11.301884 27.540932 -5.768350 30.323413 -1.181385 1.762190 0.080402 -0.022413 62875.900000 0 0 1
-11.122684 26.904432 -7.081350 29.961777 -1.178779 1.809400 0.065341 -0.022183 228240.000000 0 0 1
-11.735284 25.476832 -7.215750 28.962958 -1.139141 1.822586 0.083283 -0.026804 -167631.000000 0 0 1
-11.046584 24.579032 -6.458250 27.710374 -1.148416 1.806022 0.055160 -0.017477 -211537.000000 0 0 1
-11.558284 23.268432 -6.698550 26.830662 -1.109763 1.823126 0.087597 -0.031553 250696.000000 0 0 1
-10.884384 22.155232 -5.795150 25.355628 -1.114150 1.801389 0.085281 -0.036286 -118739.000000 0 0 1
-9.520084 21.938532 -6.122450 24.686344 -1.161375 1.821421 0.087444 -0.035211 282664.000000 0 1 0
-8.954284 20.760132 -5.560350 23.282607 -1.163584 1.811947 0.077327 -0.031639 -244390.000000 0 1 0
-8.621384 20.752232 -4.090850 22.841157 -1.177048 1.750868 0.063532 -0.035518 -523910.000000 0 1 0
-9.764884 20.716432 -3.265650 23.134130 -1.130323 1.712431 0.086981 -0.039785 -15334.900000 0 1 0
-10.375284 19.417832 -3.235350 22.252331 -1.080073 1.716707 0.082239 -0.042412 757983.000000 0 1 0
-11.722884 19.407632 -2.384850 22.798458 -1.027415 1.675594 0.084449 -0.039745 850436.000000 0 1 0
-11.646584 19.378532 -0.940850 22.628646 -1.029639 1.612386 0.082378 -0.040657 3158.360000 0 1 0
-11.277584 18.147932 -0.387750 21.370112 -1.014772 1.588942 0.073031 -0.027666 -126535.000000 0 1 0
-11.050084 18.195132 1.146350 21.318567 -1.025019 1.516998 0.068733 -0.026585 594313.000000 0 1 0
-12.289884 18.445232 1.794950 22.237124 -0.983054 1.489990 0.094387 -0.028198 562360.000000 0 1 0
-11.932284 18.677032 3.117950 22.381522 -1.002282 1.431033 0.086034 -0.017725 674634.000000 0 1 0
-13.143684 18.630932 4.113350 23.168680 -0.956404 1.392311 0.097382 -0.030616 639944.000000 0 1 0
-13.560384 17.317932 4.478750 22.446692 -0.906492 1.369920 0.055562 -0.028304 -387132.000000 0 1 0
-14.871284 17.265432 4.935850 23.315507 -0.859760 1.357484 0.073387 -0.036675 -435551.000000 0 1 0
-15.444184 15.914032 5.425250 22.830081 -0.800380 1.330865 0.056264 -0.024695 -235357.000000 0 1 0
-14.722784 15.394632 6.504650 22.272529 -0.807702 1.274429 0.058899 -0.019121 -136282.000000 0 1 0
-15.223284 15.786332 7.769350 23.266273 -0.803553 1.230324 0.046805 -0.018157 -252248.000000 0 1 0
-14.135484 15.668332 8.873950 22.892259 -0.836784 1.172727 0.034256 -0.006494 1837600.000000 0 1 0
-12.991184 16.584632 8.807350 22.833973 -0.906305 1.174816 0.041109 -0.018345 1350130.000000 0 1 0
-12.032384 16.404132 7.782450 21.781652 -0.937941 1.205427 0.042955 -0.021277 -565527.000000 0 1 0
-10.881284 17.383932 7.710650 21.910216 -1.011522 1.211174 0.054210 -0.020315 -281093.000000 0 1 0
-9.950484 17.295232 8.730750 21.779880 -1.048713 1.158338 0.055455 -0.024902 -330704.000000 0 1 0
-9.101984 18.399432 8.946450 22.392503 -1.111407 1.159794 0.058753 -0.023553 260082.000000 0 1 0
-7.719184 18.209932 9.613750 21.991172 -1.169858 1.118353 0.051215 -0.031479 -259953.000000 0 1 0
-6.804884 17.510732 8.758150 20.727696 -1.200145 1.134557 0.044330 -0.024862 7071.890000 0 1 0
-5.515184 17.538632 9.351750 20.627072 -1.266128 1.100251 0.033858 -0.027949 445983.000000 0 1 0
-4.677784 18.778032 8.867750 21.286925 -1.326656 1.141114 0.025195 -0.019720 -1220720.000000 0 1 0
-5.057784 20.013032 9.442050 22.699228 -1.323255 1.141794 0.042572 -0.027101 -278630.000000 0 1 0
-4.592184 21.177232 8.815450 23.393920 -1.357257 1.184428 0.046302 -0.021338 483564.000000 0 1 0
-3.061884 21.458232 8.911850 23.436125 -1.429063 1.180718 0.047142 -0.023996 344599.000000 0 1 0
-2.111784 20.648832 8.256050 22.338225 -1.468879 1.192225 0.033073 -0.009015 -548447.000000 0 1 0
-0.949384 21.413632 8.076650 22.905835 -1.526490 1.210446 0.028277 -0.012340 -108897.000000 0 1 0
0.338916 20.590232 7.853450 22.039719 1.554338 1.206457 0.020254 -0.005723 165004.000000 0 1 0
0.677816 19.909632 9.013050 21.865223 1.536765 1.145919 0.021458 -0.012019 -502806.000000 0 1 0
2.028516 19.505532 9.041150 21.594515 1.467172 1.138807 0.012184 -0.011195 71376.800000 0 1 0
2.593816 19.090132 10.441650 21.913217 1.435751 1.074127 0.013031 -0.024689 1247310.000000 0 1 0
3.994016 18.703632 10.335450 21.739355 1.360414 1.075348 0.027837 -0.011346 1250200.000000 0 1 0
4.387316 18.361632 11.690750 22.205219 1.336254 1.016334 0.026010 -0.014281 482801.000000 0 1 0
5.928016 18.282032 11.901950 22.605984 1.257240 1.016323 0.048649 -0.021474 477576.000000 0 1 0
6.665416 17.429332 11.032250 21.677637 1.205532 1.036863 0.039584 -0.020667 382207.000000 0 1 0
7.645116 16.771832 11.865550 21.921073 1.143104 0.998832 0.041763 -0.014980 707451.000000 0 1 0
8.896516 16.228532 11.084150 21.572474 1.069334 1.031176 0.042366 -0.016872 -309656.000000 0 1 0
9.861916 17.164132 10.856350 22.577094 1.049289 1.069165 0.058715 -0.022729 -853738.000000 0 1 0
10.931116 16.579232 10.157350 22.305426 0.987893 1.098002 0.061250 -0.024570 78203.000000 0 1 0
12.050916 17.580132 9.711050 23.422001 0.969879 1.143280 0.069915 -0.022132 512710.000000 0 1 0
13.004516 16.924332 8.866450 23.111997 0.915628 1.177073 0.076020 -0.020193 -70688.200000 0 1 0
13.756216 17.914032 8.217850 24.034956 0.915936 1.221845 0.095631 -0.023352 192376.000000 0 1 0
14.844816 17.420832 7.230950 24.002929 0.865067 1.264790 0.108744 -0.028196 191146.000000 0 1 0
16.136216 17.092332 7.661250 24.722865 0.814164 1.255724 0.117993 -0.029708 403534.000000 0 1 0
17.016716 16.744632 6.582950 24.764623 0.777339 1.301741 0.125289 -0.024295 689683.000000 0 1 0
18.511416 16.627432 6.975850 25.841953 0.731834 1.297463 0.122201 -0.023677 105543.000000 0 0 1
18.769616 15.490332 7.759250 25.543196 0.689971 1.262149 0.130272 -0.025928 563975.000000 0 0 1
19.927316 15.693532 8.577750 26.776159 0.667096 1.244697 0.122742 -0.025967 248211.000000 0 0 1
20.235316 14.557532 9.650450 26.730525 0.623636 1.201427 0.122657 -0.025682 -46905.100000 0 0 1
20.791616 13.413532 9.070150 26.353022 0.572952 1.219432 0.128588 -0.032655 143415.000000 0 0 1
20.883116 12.450532 10.057750 26.311188 0.537621 1.178554 0.128931 -0.039143 -178808.000000 0 0 1
21.882716 11.341532 9.694750 26.485313 0.478170 1.196044 0.116295 -0.032590 -636089.000000 0 0 1
23.239216 11.627532 9.968550 27.832224 0.463920 1.204494 0.113605 -0.036354 635020.000000 0 0 1
24.120016 10.782232 9.225050 27.984518 0.420377 1.234865 0.131782 -0.037205 66071.200000 0 0 1
24.204216 9.222032 9.610550 27.627027 0.364029 1.215501 0.148505 -0.046902 -931140.000000 0 0 1
23.094016 8.490332 9.149350 26.251284 0.352304 1.214794 0.146563 -0.047851 288069.000000 0 0 1
23.119916 7.063432 9.423050 25.946415 0.296507 1.199125 0.129840 -0.048119 -488452.000000 0 0 1
24.269416 6.201132 8.894250 26.581315 0.250160 1.229610 0.143646 -0.051819 -175496.000000 0 0 1
24.105016 5.961832 7.501650 25.939738 0.242462 1.277410 0.135068 -0.036553 1478700.000000 0 0 1
25.256016 5.330632 6.842850 26.704056 0.208011 1.311658 0.155094 -0.047904 1001720.000000 0 0 1
24.951416 5.026232 5.324550 26.003596 0.198781 1.364576 0.172342 -0.048796 -127735.000000 0 0 1
23.931316 4.068132 5.156950 24.816360 0.168382 1.361466 0.148401 -0.042068 383373.000000 0 1 0
23.810516 3.818032 3.765250 24.406867 0.158997 1.415908 0.169006 -0.040168 302331.000000 0 1 0
22.751516 2.685432 3.524450 23.178973 0.117490 1.418150 0.162905 -0.030893 196006.000000 0 1 0
23.207116 1.425132 3.933850 23.581273 0.061332 1.403192 0.180146 -0.030382 -157581.000000 0 1 0
22.270416 0.415332 3.683150 22.576748 0.018647 1.406925 0.159083 -0.029026 -387145.000000 0 1 0
22.698716 -1.105968 3.804950 23.041973 -0.048685 1.404905 0.167792 -0.035321 -626370.000000 0 1 0
22.857016 -1.425268 5.203050 23.485023 -0.062275 1.347395 0.160839 -0.034156 671899.000000 0 1 0
22.913716 -2.829368 5.360850 23.701950 -0.122857 1.342645 0.150246 -0.035794 -396590.000000 0 1 0
22.702716 -3.256568 6.787050 23.918248 -0.142472 1.283083 0.176909 -0.039370 -104987.000000 0 1 0
22.832516 -4.660568 7.051150 24.346733 -0.201354 1.276973 0.166665 -0.042546 589091.000000 0 1 0
22.950616 -4.930968 8.464150 24.953698 -0.211634 1.224736 0.192935 -0.046405 -127746.000000 0 1 0
22.675116 -6.402068 8.768450 25.140268 -0.275176 1.214526 0.195388 -0.051980 -299323.000000 0 0 1
21.355716 -6.729668 8.444450 23.930395 -0.305272 1.210154 0.203984 -0.054719 61847.900000 0 1 0
20.868316 -7.921668 9.003850 24.068834 -0.362800 1.187384 0.179560 -0.048284 -155593.000000 0 1 0
-27.445004 -32.876542 5.066350 43.124971 0.875199 1.453044 0.052203 -0.010386 490700.000000 0 0 1
-28.540304 -33.645942 5.551350 44.468144 0.867317 1.445631 0.053270 -0.020000 107477.000000 0 0 1
-28.388624 33.826432 6.930950 44.701002 -0.872580 1.415117 0.059720 -0.011054 319289.000000 0 0 1
-29.162154 32.559532 7.543250 44.356003 -0.840386 1.399904 0.081717 -0.022312 458701.000000 0 0 1
-30.550324 32.747632 7.710350 45.444243 -0.820098 1.400305 0.081950 -0.015805 -499241.000000 0 0 1
-31.190594 31.550432 7.922850 45.067222 -0.791133 1.394077 0.100321 -0.030635 -946362.000000 0 0 1
-32.696114 31.645232 7.932250 46.188496 -0.769067 1.398204 0.096503 -0.024170 -996125.000000 0 0 1
-33.286594 31.839432 6.684450 46.544910 -0.763181 1.426685 0.076687 -0.020425 -378647.000000 0 0 1
-34.684264 31.918732 6.772450 47.620056 -0.743899 1.428094 0.059715 -0.015962 -227992.000000 0 0 1
-35.411860 31.873832 5.408950 47.949950 -0.732864 1.457752 0.032993 -0.007027 -226623.000000 0 0 1
-35.189501 30.674832 4.773250 46.925795 -0.716960 1.468901 0.038217 -0.009184 106549.000000 0 0 1
-35.695714 30.574532 3.469650 47.127746 -0.708274 1.497107 0.051418 0.004315 -117507.000000 0 0 1
-35.309944 29.166432 2.908750 45.890454 -0.690402 1.507369 0.066191 -0.011008 13395.400000 0 0 1
-35.984765 28.047832 3.445750 45.754316 -0.662076 1.495415 0.087669 -0.020667 197110.000000 0 0 1
-35.400326 26.814232 2.965550 44.508208 -0.648257 1.504118 0.098384 -0.019725 27988.000000 0 0 1
-35.979028 25.570332 3.636650 44.289475 -0.617872 1.488593 0.112724 -0.021602 718603.000000 0 0 1
-37.346834 25.272332 3.308150 45.215270 -0.594912 1.497566 0.111317 -0.015523 722870.000000 0 0 1
37.064711 24.402532 4.275250 44.581993 0.582241 1.474752 0.111775 -0.017298 274845.000000 0 0 1
35.563751 24.079332 4.120350 43.145937 0.595174 1.475153 0.131065 -0.019710 99886.100000 0 0 1
35.144301 23.339032 2.936250 42.290116 0.586218 1.501309 0.125280 -0.030837 407167.000000 0 0 1
35.742611 22.053632 2.772250 42.090169 0.552835 1.504884 0.120912 -0.027203 587664.000000 0 0 1
34.632711 21.139032 2.055150 40.626432 0.548015 1.520188 0.126786 -0.027765 2410680.000000 0 0 1
33.419091 20.847832 2.835150 39.490579 0.557758 1.498941 0.127782 -0.037694 1488850.000000 0 0 1
33.589591 20.103332 4.057750 39.355685 0.539315 1.467508 0.112203 -0.027179 -489369.000000 0 0 1
33.631481 18.552632 3.895050 38.606322 0.504105 1.469733 0.126434 -0.044580 -713593.000000 0 0 1
32.401171 18.061632 3.503050 37.260298 0.508536 1.476642 0.110452 -0.060882 -568284.000000 0 0 1
32.440931 16.744132 2.951750 36.626395 0.476478 1.490118 0.113524 -0.059313 -368786.000000 0 0 1
31.553541 15.662532 3.597850 35.410244 0.460747 1.469016 0.143722 -0.056673 600804.000000 0 0 1
30.167691 16.035732 3.547050 34.348447 0.488570 1.467345 0.132825 -0.052538 427259.000000 0 0 1
29.389841 15.190532 4.318750 33.364152 0.477047 1.440989 0.126524 -0.055380 -552336.000000 0 0 1
27.884241 15.426732 4.134450 32.134228 0.505329 1.441777 0.106614 -0.044136 -448583.000000 0 0 1
27.455541 14.841232 2.922250 31.346586 0.495563 1.477437 0.106161 -0.041110 1434900.000000 0 0 1
26.051541 15.171332 2.726650 30.270228 0.527347 1.480597 0.074595 -0.024510 1475870.000000 0 0 1
25.310941 14.582732 1.446750 29.247101 0.522693 1.521310 0.070524 -0.027371 -41091.800000 0 0 1
25.880441 14.932332 0.190750 29.879895 0.523316 1.564412 0.089047 -0.028360 688833.000000 0 0 1
27.112441 14.297732 -0.125050 30.651676 0.485287 1.574876 0.096927 -0.031743 -429478.000000 0 0 1
28.019741 14.923232 -1.260650 31.771024 0.489384 1.610486 0.125339 -0.034463 356403.000000 0 0 1
28.502341 16.247432 -1.031550 32.824177 0.518098 1.602228 0.114758 -0.031789 249966.000000 0 0 1
29.310941 16.332132 0.105150 33.554148 0.508356 1.567663 0.107794 -0.033753 -1387030.000000 0 0 1
29.996341 17.672232 0.243350 34.815908 0.532401 1.563807 0.130194 -0.031768 -295804.000000 0 0 1
30.979251 17.952332 -0.737550 35.812626 0.525206 1.591392 0.111627 -0.034167 247258.000000 0 0 1
31.426191 19.304832 -0.581550 36.886586 0.550862 1.586563 0.103142 -0.020799 -2778.340000 0 0 1
32.605481 19.578732 -1.538750 38.063262 0.540768 1.611233 0.099935 -0.019046 -279287.000000 0 0 1
33.003501 20.966632 -1.671350 39.135970 0.565961 1.613516 0.041061 -0.010559 840798.000000 0 0 1
32.084531 21.777132 -2.432650 38.853293 0.596316 1.633448 0.080277 -0.012158 41531.000000 0 0 1
32.735081 23.148832 -2.641850 40.180011 0.615513 1.636594 0.079361 -0.010429 -20823.000000 0 0 1
32.929481 23.983232 -1.492050 40.764842 0.629482 1.607406 0.105504 -0.005873 -258821.000000 0 0 1
34.127981 23.707032 -0.842650 41.562634 0.607127 1.591072 0.121011 -0.002883 -1017490.000000 0 0 1
34.577171 24.817932 0.121750 42.562017 0.622543 1.567936 0.128396 -0.023477 -101007.000000 0 0 1
35.253491 25.927732 -0.482450 43.764011 0.634134 1.581820 0.156356 -0.017995 889956.000000 0 0 1
36.531081 26.032932 0.192450 44.858338 0.619148 1.566506 0.137150 -0.016389 717350.000000 0 0 1
37.400741 27.205832 -0.239650 46.249650 0.628889 1.575978 0.110383 -0.020592 -60876.600000 0 0 1
-37.144004 27.132432 -1.584150 46.025595 -0.630882 1.605222 0.113911 -0.030565 206065.000000 0 0 1
36.878611 27.695232 -2.412350 46.183084 0.644130 1.623055 0.101498 -0.025843 71780.800000 0 0 1
36.784881 27.109132 -3.815650 45.854026 0.635106 1.654106 0.109101 -0.025472 277111.000000 0 0 1
-37.156854 27.459632 -4.713050 46.442179 -0.636436 1.672453 0.101413 -0.022198 338583.000000 0 0 1
-37.203104 26.976132 -6.078450 46.354398 -0.627377 1.702305 0.083514 -0.021032 -309616.000000 0 0 1
36.562681 27.149232 -6.969450 46.070421 0.638709 1.722658 0.067235 -0.007516 87609.700000 0 0 1
35.455151 26.496932 -6.376150 44.719240 0.641794 1.713866 0.080792 -0.014650 311369.000000 0 0 1
34.226441 26.629632 -7.122050 43.946674 0.661208 1.733575 0.064917 -0.012934 1052640.000000 0 0 1
33.077021 25.802832 -6.458450 42.445106 0.662478 1.723550 0.059801 -0.011224 -237960.000000 0 0 1
33.102441 24.362432 -6.424650 41.600190 0.634462 1.725855 0.044672 -0.007890 12489.200000 0 0 1
34.310341 23.790032 -5.954550 42.173710 0.606268 1.712461 0.038926 -0.007088 -82278.800000 0 0 1
34.543911 22.249732 -6.270150 41.564975 0.572216 1.722226 0.028881 -0.005966 -224841.000000 0 0 1
33.780261 21.369832 -5.485950 40.346888 0.564055 1.707188 0.047134 -0.011016 143695.000000 0 0 1
34.077711 20.002532 -5.771550 39.933726 0.530782 1.715832 0.045748 -0.017711 -447730.000000 0 0 1
33.017121 19.060632 -5.222550 38.480034 0.523558 1.706938 0.074152 -0.017321 24312.900000 0 0 1
31.782161 19.224432 -5.901450 37.609994 0.544001 1.728359 0.047203 -0.024094 159085.000000 0 0 1
30.765821 18.379932 -5.416650 36.244968 0.538516 1.720804 0.126402 -0.039128 166596.000000 0 0 1
29.484541 18.346132 -6.285750 35.290641 0.556604 1.749866 0.087523 -0.038913 75156.800000 0 0 1
29.543841 17.534432 -7.411150 35.145696 0.535630 1.783261 0.077900 -0.037556 650805.000000 0 0 1
28.200441 17.306332 -7.847950 34.005357 0.550425 1.803681 0.092187 -0.042887 641470.000000 0 0 1
28.009341 16.132732 -8.776250 33.493444 0.522568 1.835920 0.086466 -0.034262 -294075.000000 0 0 1
27.629541 16.430832 -10.088150 33.691758 0.536501 1.874886 0.061187 -0.033969 204568.000000 0 0 1
27.856841 15.371032 -10.984350 33.658998 0.504214 1.903228 0.053610 -0.024037 -329398.000000 0 0 1
27.232941 15.521632 -12.391550 33.706151 0.518037 1.947261 0.060235 -0.021493 -568361.000000 0 0 1
25.834741 15.460732 -12.318950 32.530364 0.539277 1.959178 0.056804 -0.027183 120087.000000 0 0 1
25.093141 15.578132 -13.553150 32.496643 0.555582 2.001008 0.050967 -0.028360 112793.000000 0 0 1
24.985241 14.266632 -14.446850 32.194883 0.518825 2.036141 0.054729 -0.030298 -333722.000000 0 0 1
26.221941 13.719432 -14.890250 33.129028 0.482038 2.036960 0.064484 -0.033344 457968.000000 0 0 1
26.638841 14.309932 -16.138950 34.276343 0.492950 2.061048 0.068044 -0.032292 -355297.000000 0 0 1
28.019941 13.882132 -16.666450 35.434464 0.459991 2.060479 0.080926 -0.025653 -141007.000000 0 0 1
28.124141 12.579432 -17.193350 35.282016 0.420592 2.079805 0.082367 -0.031495 2048990.000000 0 0 1
29.533641 12.156132 -17.107050 36.230631 0.390469 2.062548 0.075811 -0.016877 2007450.000000 0 0 1
29.771941 10.821432 -17.810350 36.341167 0.348631 2.082986 0.046854 -0.014316 -353846.000000 0 0 1
29.314841 10.811432 -19.098850 36.619844 0.353328 2.119456 0.063883 -0.017597 -58274.800000 0 0 1
29.346041 9.538732 -19.655950 36.585979 0.314271 2.137974 0.065316 -0.013799 -1289840.000000 0 0 1
30.579411 9.073032 -20.334750 37.827534 0.288430 2.138343 0.076297 -0.017084 -1920580.000000 0 0 1
30.997301 9.656132 -21.580050 38.984254 0.301987 2.157427 0.070114 -0.016255 580559.000000 0 0 1
31.740891 8.798132 -22.466350 39.870141 0.270397 2.169398 0.072822 -0.019350 39224.700000 0 0 1
33.142391 8.319232 -21.988650 40.634079 0.245934 2.142586 0.080706 -0.013451 -424327.000000 0 0 1
34.015291 9.407132 -22.002050 41.588752 0.269812 2.128263 0.077951 -0.016829 711586.000000 0 0 1
35.410141 9.083032 -22.147450 42.742123 0.251096 2.115500 0.052636 -0.008581 1231780.000000 0 0 1
36.384821 10.283332 -22.038750 43.764239 0.275443 2.098533 0.071035 -0.010599 64712.100000 0 0 1
36.301221 10.831732 -20.773150 43.204500 0.289974 2.072374 0.041328 -0.009094 231152.000000 0 0 1
37.170551 11.917732 -20.531150 44.104538 0.310268 2.055008 0.024389 -0.000800 -116659.000000 0 0 1
36.892791 12.640832 -19.233350 43.483220 0.330100 2.028976 0.027026 -0.009844 -137055.000000 0 0 1
37.368421 11.829632 -18.167850 43.201966 0.306586 2.004829 0.037707 -0.002451 341913.000000 0 0 1
37.065931 12.359632 -16.906350 42.573095 0.321855 1.979166 0.046744 -0.006434 -335550.000000 0 0 1
-37.406354 11.361132 -15.821650 42.173869 -0.294868 1.955358 0.050312 -0.006907 -769759.000000 0 0 1
36.897681 10.190932 -15.520650 41.305986 0.269476 1.956000 0.037636 -0.013062 -47367.700000 0 0 1
37.498441 9.247432 -14.632550 41.300842 0.241784 1.932953 0.033735 -0.016475 -330659.000000 0 0 1
36.571031 8.047232 -14.483650 40.149400 0.216592 1.939862 0.080268 -0.010577 335387.000000 0 0 1
35.455291 8.208332 -13.592050 38.848400 0.227504 1.928233 0.102354 -0.016336 1135070.000000 0 0 1
35.805081 7.919732 -12.240350 38.659438 0.217685 1.892960 0.106129 -0.022159 -347627.000000 0 0 1
34.747951 8.590832 -11.336550 37.546502 0.242373 1.877517 0.123974 -0.027521 -87182.800000 0 0 1
34.687071 9.994332 -11.358850 37.843137 0.280530 1.875653 0.119704 -0.032374 755828.000000 0 0 1
33.694231 10.472832 -10.415950 36.789583 0.301353 1.857844 0.108316 -0.026328 324700.000000 0 0 1
34.046151 10.361332 -8.906050 36.685355 0.295426 1.816015 0.132674 -0.022556 -86887.700000 0 0 1
35.121111 11.156932 -8.416450 37.799553 0.307588 1.795338 0.125369 -0.022395 210607.000000 0 0 1
34.858281 12.557632 -8.148350 37.936651 0.345775 1.787271 0.125921 -0.029251 -523649.000000 0 0 1
34.680121 12.785032 -6.643950 37.554093 0.353197 1.748649 0.117091 -0.035690 -363554.000000 0 0 1
35.859381 12.758332 -5.888650 38.514237 0.341822 1.724294 0.130487 -0.033386 152602.000000 0 0 1
35.493831 12.993932 -4.524950 38.067433 0.350936 1.689945 0.127474 -0.034817 502603.000000 0 0 1
36.784751 12.832532 -3.681850 39.132439 0.335654 1.665023 0.141012 -0.031713 25456.500000 0 0 1
-37.351654 13.906432 -3.795450 40.036737 -0.356411 1.665738 0.133026 -0.030482 -397730.000000 0 0 1
-36.154684 13.600132 -3.129850 38.754622 -0.359792 1.651645 0.138859 -0.039939 91925.800000 0 0 1
-35.235790 14.848632 -2.890350 38.345755 -0.398824 1.646244 0.133988 -0.040055 296741.000000 0 0 1
-35.884572 15.838632 -2.114450 39.281493 -0.415660 1.624650 0.142908 -0.034645 521178.000000 0 0 1
-35.060275 16.981432 -1.881750 39.001704 -0.451049 1.619063 0.143491 -0.032524 282891.000000 0 0 1
-35.829403 17.950332 -0.948750 40.085667 -0.464443 1.594467 0.134881 -0.025207 -184654.000000 0 0 1
-36.935864 18.482732 -1.618350 41.333866 -0.463968 1.609959 0.110351 -0.023602 -24872.300000 0 0 1
37.296171 19.208532 -0.655250 41.957138 0.475597 1.586414 0.105302 -0.022501 387798.000000 0 0 1
36.302861 20.173332 -1.347850 41.553312 0.507205 1.603239 0.109798 -0.019486 -22829.900000 0 0 1
37.030291 21.294932 -1.829250 42.755850 0.521885 1.613593 0.102755 -0.021082 234475.000000 0 0 1
36.564031 21.822532 -3.053850 42.690482 0.538086 1.642392 0.087249 -0.015496 -609322.000000 0 0 1
37.304741 23.034432 -3.552350 43.986906 0.553164 1.651644 0.101753 -0.026750 264726.000000 0 0 1
-36.325854 22.753332 -3.808550 43.032393 -0.559582 1.659417 0.115744 -0.023897 593307.000000 0 0 1
-35.670456 23.975232 -4.108850 43.174944 -0.591776 1.666108 0.129344 -0.022883 -928160.000000 0 0 1
-34.197559 23.838232 -4.380650 41.915683 -0.608760 1.675499 0.148530 -0.032441 -854029.000000 0 0 1
-34.054199 23.021832 -5.540550 41.477595 -0.594460 1.704776 0.121174 -0.018148 -297624.000000 0 0 1
-32.744494 22.990032 -6.048650 40.463930 -0.612136 1.720841 0.129781 -0.015254 -433638.000000 0 0 1
-32.609784 22.201532 -7.383950 40.135131 -0.597740 1.755828 0.127302 -0.031231 -348939.000000 0 0 1
-33.353084 22.644232 -8.492450 41.198436 -0.596441 1.778420 0.140191 -0.037503 -120848.000000 0 0 1
-32.941514 21.930132 -9.620350 40.726222 -0.587353 1.809270 0.096996 -0.028044 -309799.000000 0 0 1
-33.927934 22.000132 -10.767150 41.845454 -0.575276 1.831031 0.099796 -0.018843 -359208.000000 0 0 1
-34.038079 23.318232 -11.329150 42.786451 -0.600631 1.838776 0.096123 -0.022587 -91089.400000 0 0 1
-34.398666 23.325332 -12.697450 43.457618 -0.595868 1.867302 0.060056 -0.019341 -741193.000000 0 0 1
-34.601326 24.767132 -13.225050 44.559674 -0.621242 1.872130 0.056016 -0.017261 866244.000000 0 0 1
-33.410594 25.562132 -13.364150 44.139448 -0.653089 1.878395 0.063130 -0.016956 183513.000000 0 0 1
-32.430384 25.101532 -14.292150 43.429049 -0.658693 1.906138 0.081683 -0.026827 -123433.000000 0 0 1
-31.107384 25.843432 -13.917350 42.769673 -0.693230 1.902233 0.084678 -0.030562 224123.000000 0 0 1
-30.415414 25.297532 -12.757950 41.567148 -0.693794 1.882756 0.065030 -0.031467 466990.000000 0 0 1
-31.022694 25.630632 -11.475650 41.845279 -0.690508 1.848596 0.086943 -0.025339 -132638.000000 0 0 1
-30.976754 27.052532 -10.911750 42.549560 -0.717876 1.830142 0.095942 -0.010938 -311666.000000 0 0 1
-29.692164 27.526032 -10.625950 41.859501 -0.747559 1.827453 0.095068 -0.018711 -602838.000000 0 0 1
-29.769974 28.745732 -9.949750 42.562495 -0.767896 1.806748 0.080161 -0.014547 40121.800000 0 0 1
-28.423554 29.466332 -9.859150 42.111352 -0.803409 1.807111 0.088140 -0.026819 93824.600000 0 0 1
-28.616914 30.689032 -9.151650 42.947609 -0.820323 1.785531 0.081915 -0.042175 498161.000000 0 0 1
-27.377234 31.393832 -9.255750 42.670300 -0.853635 1.789448 0.121381 -0.033879 575719.000000 0 0 1
35.896861 -24.390468 33.422064 54.776947 -0.596807 0.914548 0.027006 -0.008867 53346.600000 0 0 1
35.366661 -23.055868 33.610401 53.963254 -0.577717 0.898430 0.023784 -0.010696 -84970.500000 0 0 1
34.350001 -23.100368 -33.239380 53.088661 -0.592030 2.247352 0.031231 -0.011154 -267562.000000 0 0 1
33.805321 -21.745268 -32.826780 51.896569 -0.571615 2.255628 0.028641 -0.005987 116408.000000 0 0 1
33.225391 -21.022168 -33.901400 51.914959 -0.564127 2.282359 0.021381 -0.001383 -35279.900000 0 0 1
32.915991 -19.714468 -33.554220 50.970661 -0.539634 2.289361 0.027427 -0.002959 223668.000000 0 0 1
32.638131 -18.817468 32.999838 50.083271 -0.522997 0.851442 0.035296 -0.006263 40451.700000 0 0 1
33.859091 -18.591668 32.353149 50.386649 -0.502144 0.873565 0.045241 -0.014595 119740.000000 0 0 1
33.598021 -18.332468 30.990533 49.247533 -0.499491 0.890169 0.055989 -0.014050 621200.000000 0 0 1
34.932301 -18.191568 30.182023 49.620090 -0.480122 0.916927 0.049503 -0.015390 399626.000000 0 0 1
35.728631 -17.073868 30.475513 49.968079 -0.445793 0.914862 0.047503 -0.024919 -463943.000000 0 0 1
36.945691 -17.224968 29.823303 50.508544 -0.436264 0.939167 0.050547 -0.020940 -475198.000000 0 0 1
-37.058044 -16.055268 30.043373 50.335619 0.408835 0.931213 0.049683 -0.025032 128529.000000 0 0 1
-35.804415 -16.338868 29.445643 49.152422 0.428111 0.928460 0.059682 -0.018728 -73782.300000 0 0 1
-34.899328 -15.278068 29.652363 48.276755 0.412642 0.909404 0.065830 -0.025092 -860604.000000 0 0 1
-33.536384 -15.883268 29.922453 47.668862 0.442316 0.892182 0.076136 -0.027289 -756318.000000 0 0 1
-32.603134 -14.885768 30.370013 46.977528 0.428308 0.867835 0.078086 -0.027042 -364659.000000 0 0 1
-31.494564 -15.542768 30.890743 46.773103 0.458439 0.849394 0.082536 -0.032679 -396676.000000 0 0 1
-30.412264 -14.583868 31.439923 46.109259 0.447145 0.820498 0.082500 -0.042688 252935.000000 0 0 1
-30.924994 -13.810968 32.513697 46.949319 0.420019 0.805809 0.091751 -0.041858 989589.000000 0 0 1
-29.785624 -13.111068 33.041028 46.376643 0.414659 0.777813 0.090333 -0.045069 704540.000000 0 0 1
-30.099004 -12.361768 -33.425590 46.647973 0.389699 2.369640 0.092288 -0.024824 -93781.000000 0 0 1
-30.252674 -13.225068 -32.341090 46.217667 0.412120 2.345852 0.097262 -0.027915 244801.000000 0 0 1
-30.420534 -12.565168 -31.093720 45.278159 0.391705 2.327773 0.102800 -0.019059 -335736.000000 0 0 1
-30.650594 -13.587668 -29.928170 44.941951 0.417275 2.299535 0.107879 -0.023876 365225.000000 0 0 1
-31.949384 -14.164968 -29.855740 45.964928 0.417315 2.277766 0.112313 -0.027778 345966.000000 0 0 1
-32.128604 -14.726268 -28.555110 45.436818 0.429779 2.250365 0.110788 -0.019575 450800.000000 0 0 1
-33.308924 -15.730968 -28.457050 46.548377 0.441223 2.228554 0.092473 -0.025265 349309.000000 0 0 1
-33.072114 -16.924868 -29.191110 47.247611 0.473008 2.236779 0.095731 -0.021482 -345019.000000 0 0 1
-34.232382 -17.685668 -29.206790 48.349513 0.476867 2.219402 0.078779 -0.020827 -510437.000000 0 0 1
-34.011234 -19.054268 -29.805390 49.073317 0.510667 2.223535 0.071499 -0.020693 375015.000000 0 0 1
-35.192637 -19.813668 -30.095730 50.367212 0.512774 2.211209 0.046999 -0.023874 493194.000000 0 0 1
-34.864471 -21.028668 -30.717500 51.002951 0.542736 2.217137 0.042740 -0.022769 238264.000000 0 0 1
-36.158354 -21.811468 -31.069890 52.426183 0.542784 2.205130 0.043206 -0.017723 492610.000000 0 0 1
-36.901274 -22.370168 -29.957090 52.531473 0.544978 2.177630 0.037624 -0.019929 -483845.000000 0 0 1
37.048001 -23.134768 -30.370530 53.199069 -0.558207 2.178379 0.042877 -0.015995 -714844.000000 0 0 1
37.298141 -24.644468 -30.586720 54.166858 -0.583890 2.170837 0.040474 -0.015631 40654.700000 0 0 1
-36.863554 -24.881968 -31.702290 54.617480 0.593732 2.190068 0.047027 -0.015054 -262015.000000 0 0 1
-36.229344 -26.126718 -31.550610 54.686486 0.624779 2.185769 0.045517 -0.010794 -133333.000000 0 0 1
-36.498234 -27.134848 -32.662770 55.993549 0.639300 2.193620 0.058267 -0.014256 -12246.800000 0 0 1
37.237501 -27.698168 -32.826130 56.845182 -0.639537 2.186417 0.052627 -0.015009 -695310.000000 0 0 1
37.124781 -28.867288 -33.620190 57.809055 -0.660917 2.191457 0.060457 -0.019997 158550.000000 0 0 1
-37.198994 -30.185288 -33.132780 58.246870 0.681686 2.175883 0.075498 -0.024469 401978.000000 0 0 1
37.205151 -30.545928 -31.890410 57.743183 -0.687423 2.155893 0.087797 -0.025060 -139784.000000 0 0 1
-37.058884 -31.408088 -31.105630 57.683525 0.703052 2.140338 0.080711 -0.029263 24632.900000 0 0 1
37.169311 -31.825988 -29.792020 57.288878 -0.708108 2.117684 0.076152 -0.026528 525791.000000 0 0 1
36.067641 -32.697548 -29.979690 57.173299 -0.736429 2.122766 0.104984 -0.021259 186168.000000 0 0 1
35.603031 -33.106338 -28.698210 56.455227 -0.749077 2.104047 0.096799 -0.026485 -608311.000000 0 0 1
34.543251 33.522045 -28.796450 56.090990 0.770396 2.109925 0.102668 -0.037609 -84370.900000 0 0 1
33.342571 -33.713758 -29.415370 55.799717 -0.790934 2.126051 0.109142 -0.034638 311256.000000 0 0 1
32.235891 33.122362 -29.199000 54.670148 0.798961 2.134232 0.096100 -0.036903 -276645.000000 0 0 1
30.961801 33.608111 -29.862860 54.588723 0.826359 2.149635 0.061192 -0.018820 -481736.000000 0 0 1
30.748151 33.047777 -31.160650 54.850619 0.821429 2.174992 0.079111 -0.014670 -1079470.000000 0 0 1
29.520441 33.393230 -31.644380 54.661970 0.846878 2.188188 0.060002 -0.008917 -1053770.000000 0 0 1
29.158841 32.824944 -33.043890 54.951011 0.844476 2.215965 0.067780 -0.014927 120071.000000 0 0 1
29.001641 31.425506 -33.106480 54.080464 0.825489 2.229599 0.047410 -0.001020 -31215.900000 0 0 1
28.779341 31.062486 33.347001 53.899453 0.823533 0.903723 0.059546 -0.008408 49925.100000 0 0 1
28.979541 29.592746 33.219904 53.095258 0.795867 0.894811 0.070111 -0.027111 221090.000000 0 0 1
30.321981 29.199526 33.431671 53.756037 0.766542 0.899611 0.081207 -0.019447 -9745.100000 0 0 1
30.430221 27.783386 33.437557 53.065857 0.739962 0.889096 0.075208 -0.025745 -488638.000000 0 0 1
31.824871 27.221066 33.645185 53.719711 0.707586 0.893986 0.104320 -0.024195 -594151.000000 0 0 1
32.423001 27.495786 -32.915930 53.765488 0.703351 2.229653 0.108986 -0.016858 220461.000000 0 0 1
33.576731 26.673306 -32.675180 53.912239 0.671316 2.221920 0.116049 -0.022276 540736.000000 0 0 1
33.954031 26.803106 -31.181970 53.325397 0.668240 2.195367 0.109063 -0.021865 386350.000000 0 0 1
34.857041 27.831346 -30.714040 54.156711 0.673791 2.173817 0.097775 -0.023430 410095.000000 0 0 1
34.364551 29.141846 -30.858780 54.611664 0.703344 2.171300 0.127574 -0.027070 348711.000000 0 0 1
33.283991 29.660626 -29.843110 53.648746 0.727897 2.160685 0.142848 -0.022387 733710.000000 0 0 1
33.793381 29.752216 -28.479240 53.275267 0.721889 2.134793 0.117373 -0.022879 289753.000000 0 0 1
32.712811 29.842126 -27.582260 52.167629 0.739540 2.127892 0.106835 -0.021007 -186026.000000 0 0 1
33.189631 30.305796 -26.202340 52.024566 0.740011 2.098619 0.118352 -0.028905 -212808.000000 0 0 1
33.625511 31.600066 -26.131950 53.029407 0.754355 2.086081 0.119101 -0.034762 94267.200000 0 0 1
34.096451 32.047571 -24.871750 52.992629 0.754432 2.059344 0.089189 -0.042781 144669.000000 0 0 1
34.597371 33.487300 -24.827050 54.173423 0.769095 2.046865 0.090684 -0.040677 679106.000000 0 0 1
33.528621 -33.213988 -24.886850 53.354406 -0.780684 2.056063 0.077750 -0.025486 948178.000000 0 0 1
33.927361 -31.852548 -24.642650 52.658435 -0.753867 2.057790 0.055013 -0.025727 -810724.000000 0 0 1
34.511671 -31.018218 -25.847420 53.115669 -0.732138 2.079019 0.050448 -0.027730 -980077.000000 0 0 1
35.771901 -31.361618 -26.220940 54.320508 -0.719798 2.074540 0.067872 -0.034584 -1115360.000000 0 0 1
36.828171 -30.775178 -25.459920 54.328935 -0.696099 2.058530 0.072319 -0.033876 -1283110.000000 0 0 1
-36.820674 -31.199598 -25.932980 54.787739 0.702947 2.063870 0.063684 -0.029328 -1226720.000000 0 0 1
-36.494164 -32.559818 -25.629660 55.216349 0.728485 2.053491 0.064825 -0.029506 -195291.000000 0 0 1
-36.372634 -32.880018 -24.228650 54.690872 0.735008 2.029751 0.070069 -0.026236 -567539.000000 0 0 1
-35.170652 -32.349838 -23.421050 53.216842 0.743645 2.026513 0.051992 -0.015837 -142485.000000 0 0 1
-35.144674 -30.922778 -23.508250 52.383242 0.721582 2.036190 0.017094 -0.012883 -209489.000000 0 0 1
-34.702952 -30.387788 -22.239250 51.208366 0.719200 2.020046 0.040784 -0.012994 5511.700000 0 0 1
-34.556114 -28.818928 -22.268650 50.205063 0.695117 2.030356 0.042622 -0.000800 -205915.000000 0 0 1
-35.725882 -28.122068 -22.592250 50.770061 0.666864 2.031961 0.017672 0.009649 -557774.000000 0 0 1
-35.890476 -27.810028 -23.958750 51.337565 0.659221 2.056341 0.028553 0.000677 -172320.000000 0 0 1
-37.136204 -26.947948 -24.213950 51.880679 0.627735 2.056379 0.022440 -0.003660 -117182.000000 0 0 1
-36.928804 -25.727708 -23.567050 50.804107 0.608497 2.053167 0.011021 0.006606 -32683.200000 0 0 1
37.418781 -24.646468 -24.227950 50.937286 -0.582443 2.066491 0.019226 0.006177 -218211.000000 0 0 1
-37.261074 -24.211968 -25.665830 51.316097 0.576229 2.094570 0.036802 -0.006142 188240.000000 0 0 1
-36.128444 -23.332268 -25.544340 50.021720 0.573427 2.106754 0.028244 -0.007175 342258.000000 0 0 1
-35.749277 -22.696268 -26.797520 50.112258 0.565668 2.135008 0.036381 -0.018968 328236.000000 0 0 1
-34.696028 -21.546168 -26.680710 48.784341 0.555716 2.149467 0.041512 -0.025245 150712.000000 0 0 1
-34.894529 -20.561868 -25.652940 47.942589 0.532483 2.135394 0.043362 -0.024838 -288741.000000 0 0 1
-35.970300 -19.679668 -25.891920 48.492714 0.500621 2.134043 0.042367 -0.025950 -276677.000000 0 0 1
-36.974484 -19.698068 -24.726950 48.647182 0.489501 2.103996 0.040430 -0.025727 -319267.000000 0 0 1
-36.542374 -19.248468 -23.446850 47.493193 0.484813 2.087123 0.033441 -0.024407 -156401.000000 0 0 1
-35.786361 -20.202068 -22.708350 46.951638 0.513922 2.075621 0.022746 -0.026686 -220018.000000 0 0 1
-36.504224 -21.486868 -22.309150 47.874231 0.532005 2.055555 0.036219 -0.014889 -550128.000000 0 0 1
-37.480524 -21.174268 -21.367750 48.059546 0.514241 2.031535 0.028133 -0.013259 -739204.000000 0 0 1
36.793531 -22.310368 -21.063250 47.908004 -0.545088 2.026017 0.033167 -0.005420 -613787.000000 0 0 1
35.687311 -22.023268 -20.060150 46.486752 -0.552911 2.016978 0.015209 -0.005842 269409.000000 0 0 1
34.443521 -21.628868 -20.660650 45.618269 -0.560719 2.040815 0.040472 0.000472 730155.000000 0 0 1
33.398771 -21.529468 -19.702950 44.353152 -0.572583 2.031110 0.050840 -0.007794 183431.000000 0 0 1
32.105331 -20.886968 -20.213650 43.308305 -0.576780 2.056396 0.052755 -0.004908 -482114.000000 0 0 1
31.520131 -21.590768 -21.295350 43.739819 -0.600576 2.079292 0.056277 0.000646 571013.000000 0 0 1
30.266011 -21.063168 -21.731950 42.801473 -0.607992 2.103354 0.104044 -0.008107 363702.000000 0 0 1
30.223741 -19.733468 -22.476250 42.521360 -0.578420 2.127732 0.096906 -0.005149 -606801.000000 0 0 1
30.475661 -18.616868 -21.674850 41.775026 -0.548379 2.116298 0.084415 0.003277 111207.000000 0 0 1
30.512861 -17.467668 -22.499750 41.741979 -0.519930 2.140069 0.081703 -0.003287 152773.000000 0 0 1
31.381131 -16.335468 -21.842650 41.577929 -0.479953 2.123914 0.055259 -0.002016 -322782.000000 0 0 1
30.883411 -15.872768 -20.634450 40.391959 -0.474751 2.106976 0.045209 -0.002208 164192.000000 0 0 1
31.804011 -15.327668 -19.694550 40.426573 -0.449097 2.079641 0.031773 0.002744 347392.000000 0 0 1
32.778001 -16.287668 -18.923850 41.204339 -0.461171 2.047968 0.051350 -0.005297 952974.000000 0 0 1
33.795201 -16.872868 -19.791850 42.644186 -0.463062 2.053433 0.037288 -0.007131 289082.000000 0 0 1
34.573941 -17.752868 -19.021950 43.270732 -0.474370 2.025953 0.032043 -0.014165 408497.000000 0 0 1
35.907561 -18.140568 -19.771650 44.825788 -0.467800 2.027595 0.021229 -0.022093 412486.000000 0 0 1
36.660341 -16.975968 -20.006450 45.082392 -0.433662 2.030603 0.038143 -0.025172 -50483.000000 0 0 1
37.361701 -17.173068 -21.234150 46.278505 -0.430845 2.047479 0.043648 -0.023046 430667.000000 0 0 1
-36.874184 -15.912668 -21.804750 45.698638 0.407397 2.068196 0.054966 -0.029891 65528.800000 0 0 1
-35.855638 -15.368668 -21.017750 44.312171 0.404938 2.064978 0.083736 -0.029824 -456627.000000 0 0 1
-35.283944 -14.286968 -21.598150 43.767045 0.384736 2.086882 0.098108 -0.035134 -840667.000000 0 0 1
-34.077331 -13.713968 -20.797250 42.212119 0.382605 2.085968 0.100331 -0.033620 747736.000000 0 0 1
-32.877944 -14.501368 -20.823350 41.531443 0.415400 2.095998 0.118723 -0.041754 574351.000000 0 0 1
-32.884384 -15.702868 -20.101150 41.617532 0.445500 2.074871 0.100988 -0.042949 -412536.000000 0 0 1
-31.762794 -16.703868 -20.525850 41.342530 0.484148 2.090338 0.080573 -0.047397 405971.000000 0 0 1
-31.729764 -17.846368 -19.660950 41.374191 0.512351 2.065986 0.103812 -0.059897 -229822.000000 0 0 1
-30.909214 -18.826368 -20.189350 41.441784 0.547074 2.079647 0.111015 -0.064477 -427238.000000 0 0 1
-31.080874 -20.222468 -19.487250 41.889400 0.576825 2.054665 0.099250 -0.026573 118593.000000 0 0 1
-32.201044 -20.969668 -19.966550 43.304703 0.577226 2.049998 0.077064 -0.030102 555851.000000 0 0 1
-32.345274 -22.231168 -19.351050 43.759624 0.602157 2.028860 0.069934 -0.000591 -221994.000000 0 0 1
-33.297464 -23.097268 -20.158350 45.261064 0.606461 2.032394 0.034396 -0.009992 -183343.000000 0 0 1
-32.844054 -23.313568 -21.519950 45.665770 0.617290 2.061503 0.037569 -0.011965 560519.000000 0 0 1
-33.750844 -24.157368 -22.217950 47.077969 0.621222 2.062286 0.029496 -0.000428 6583.460000 0 0 1
-33.465164 -24.185668 -23.745250 47.630879 0.625807 2.092694 0.031464 0.006983 482687.000000 0 0 1
-32.159304 -24.622768 -24.152150 47.157479 0.653442 2.108493 0.042182 -0.005483 452502.000000 0 0 1
-32.107264 -25.100558 -25.477650 48.062720 0.663527 2.129505 0.042752 0.004325 582248.000000 0 0 1
-30.658684 -25.625528 -25.760060 47.541595 0.696211 2.143424 0.052907 -0.002993 721279.000000 0 0 1
-29.763034 -24.556768 -25.911650 46.478883 0.689845 2.162159 0.065122 -0.012419 717067.000000 0 0 1
-28.379444 -24.883568 -26.154530 45.919976 0.719858 2.176776 0.055169 -0.009021 1477990.000000 0 0 1
-27.467594 -23.641368 -26.383390 44.827070 0.710673 2.200072 0.064648 -0.008925 211935.000000 0 0 1
-27.486374 -23.094368 -27.710960 45.351382 0.698784 2.228155 0.075115 -0.017075 -240182.000000 0 0 1
-26.484004 -22.129868 -27.822080 44.330595 0.696071 2.249269 0.089062 -0.022747 -219736.000000 0 0 1
-26.372744 -21.484068 -29.205580 44.833611 0.683599 2.280253 0.061607 -0.022317 -86531.000000 0 0 1
-25.645154 -22.323268 -30.069540 45.389199 0.716257 2.294924 0.073491 -0.023191 120726.000000 0 0 1
-25.461444 -21.766868 -31.376460 45.897319 0.707329 2.323512 0.066960 -0.023392 165258.000000 0 0 1
-24.812884 -22.796468 -32.334910 46.700155 0.743070 2.335598 0.057417 -0.030286 187925.000000 0 0 1
-25.704234 -23.882768 -32.563150 47.869123 0.748682 2.318905 0.050780 -0.027123 39406.900000 0 0 1
-25.124314 -25.000168 -33.181260 48.551370 0.782921 2.323241 0.064065 -0.011781 -61993.600000 0 0 1
-19.969584 -14.093168 -11.572550 27.043032 0.614562 2.012999 0.049189 0.003057 117910.000000 0 0 1
-19.853284 -13.402868 -10.323550 26.083815 0.593815 1.977717 0.052184 -0.001099 37212.900000 0 0 1
-19.455284 -14.282368 -9.248650 25.846308 0.633255 1.936742 0.040469 -0.013115 -264417.000000 0 0 1
-20.029584 -13.800768 -7.918250 25.580150 0.603318 1.885513 0.087825 -0.032348 -836415.000000 0 0 1
-21.365484 -14.089168 -7.686150 26.722003 0.582980 1.862552 0.097504 -0.029486 -557487.000000 0 0 1
-21.745884 -13.649968 -6.380150 26.455839 0.560541 1.814360 0.113779 -0.036498 -105076.000000 0 0 1
-22.993784 -14.376668 -5.842750 27.740591 0.558773 1.783006 0.108293 -0.030215 -360117.000000 0 0 1
-22.928784 -15.679168 -5.338150 28.285354 0.599784 1.760660 0.091996 -0.026565 157624.000000 0 0 1
-22.597084 -15.756068 -3.950550 27.829637 0.608885 1.713232 0.104341 -0.032403 -144361.000000 0 0 1
-22.422084 -17.168768 -3.381750 28.442093 0.653479 1.689978 0.082341 -0.021192 -106563.000000 0 0 1
-23.590784 -17.943868 -3.323150 29.825338 0.650270 1.682449 0.081480 -0.014498 -173076.000000 0 0 1
-23.321384 -19.048968 -2.544050 30.219568 0.684903 1.655082 0.077757 -0.012734 -363734.000000 0 0 1
-24.466984 -20.027968 -2.381150 31.708401 0.685963 1.645962 0.079622 -0.026647 -553217.000000 0 0 1
-24.589584 -20.860568 -3.510450 32.436618 0.703535 1.679234 0.063671 -0.034162 -758292.000000 0 0 1
-25.616674 -21.759668 -3.337350 33.776249 0.704165 1.669765 0.087565 -0.032417 -496441.000000 0 0 1
-25.506944 -22.985468 -4.295050 34.603228 0.733448 1.695240 0.092463 -0.033905 -567561.000000 0 0 1
-24.359084 -23.700368 -3.960450 34.216335 0.771693 1.686804 0.092881 -0.034412 -873305.000000 0 0 1
-23.930184 -24.560768 -4.969850 34.649450 0.798402 1.714725 0.099057 -0.031869 -822941.000000 0 0 1
-22.428684 -24.616468 -5.234250 33.710736 0.831869 1.726697 0.083210 -0.019870 -481558.000000 0 0 1
-21.983984 -23.466368 -5.914050 32.694678 0.818002 1.752685 0.055207 -0.008752 -81806.100000 0 0 1
-21.922884 -22.261068 -5.148750 31.665085 0.793052 1.734122 0.047427 -0.014807 -1044180.000000 0 0 1
-21.833184 -20.948968 -5.912350 30.830229 0.764733 1.763763 0.042358 -0.000411 -182366.000000 0 0 1
-20.541184 -20.617368 -6.345350 29.787238 0.787249 1.785464 0.013464 0.015679 -338266.000000 0 0 1
-20.627784 -19.439268 -7.166350 29.236059 0.755744 1.818440 0.001945 0.008020 -460895.000000 0 0 1
-19.356984 -19.034668 -7.886750 28.270342 0.777003 1.853524 0.015428 0.010666 -1126590.000000 0 0 1
-19.086384 -19.938168 -8.924050 29.007917 0.807222 1.883510 0.023820 0.016650 -322639.000000 0 0 1
-17.939784 -19.632868 -9.689950 28.305131 0.830429 1.920201 0.044266 0.016937 -234519.000000 0 0 1
-17.934484 -18.225768 -10.385050 27.598434 0.793453 1.956586 0.054201 0.011512 -518834.000000 0 0 1
-17.750584 -17.117368 -9.536650 26.439274 0.767240 1.939815 0.071129 -0.004623 -398208.000000 0 0 1
-16.445484 -16.965068 -9.050550 25.301777 0.800948 1.936604 0.125184 -0.010948 -601068.000000 0 0 1
-16.287884 -15.729268 -8.172450 24.072681 0.767953 1.917172 0.105082 -0.015839 -253350.000000 0 1 0
-16.722084 -16.001668 -6.842850 24.135162 0.763387 1.858261 0.077576 -0.014700 214384.000000 0 1 0
-16.803284 -14.769468 -6.106950 23.190135 0.721070 1.837282 0.091261 -0.024755 -282409.000000 0 1 0
-17.548584 -14.959568 -4.803750 23.554564 0.705924 1.776179 0.100285 -0.025214 -93878.600000 0 1 0
-18.085284 -13.849468 -4.106250 23.146199 0.653528 1.749145 0.108477 -0.025799 151438.000000 0 1 0
-18.709484 -14.184368 -2.915850 23.658894 0.648689 1.694356 0.113048 -0.021858 -350922.000000 0 1 0
-19.418484 -12.949668 -2.326350 23.455987 0.588146 1.670139 0.125177 -0.022357 -222537.000000 0 1 0
-20.648784 -12.762368 -3.001550 24.459346 0.553600 1.693822 0.147412 -0.036821 105731.000000 0 1 0
-21.421484 -11.817668 -2.296450 24.572564 0.504127 1.664389 0.156960 -0.032999 748830.000000 0 1 0
-22.958984 -11.924068 -2.626850 26.003820 0.479018 1.671987 0.135111 -0.023546 1005020.000000 0 0 1
-23.403684 -11.279968 -3.843450 26.262943 0.449123 1.717669 0.147168 -0.033087 558777.000000 0 0 1
-24.757084 -11.566868 -4.170850 27.642388 0.437077 1.722261 0.128320 -0.022100 352867.000000 0 0 1
-25.278914 -10.907168 -5.448150 28.065497 0.407340 1.766159 0.139163 -0.034374 -107906.000000 0 0 1
-24.747684 -11.540768 -6.589350 28.090153 0.436357 1.807581 0.132881 -0.037520 136948.000000 0 0 1
-25.306044 -11.149368 -7.834650 28.741712 0.414994 1.846878 0.146557 -0.040594 -451714.000000 0 0 1
-24.456584 -11.627868 -8.975050 28.528640 0.443815 1.890829 0.152298 -0.047423 -282724.000000 0 0 1
-23.325584 -10.782868 -9.086050 27.256364 0.433016 1.910656 0.150767 -0.047216 -154578.000000 0 0 1
-22.309784 -11.310868 -9.888150 26.896797 0.469225 1.947259 0.115975 -0.045040 -797623.000000 0 0 1
-20.982184 -10.619168 -9.617550 25.407007 0.468519 1.959014 0.122995 -0.048566 -806239.000000 0 0 1
-20.948984 -9.312668 -10.198750 25.091835 0.418304 1.989369 0.130712 -0.054937 489129.000000 0 0 1
-19.894084 -8.492768 -9.715150 23.712566 0.403478 1.992927 0.126931 -0.039786 -12546.200000 0 1 0
-19.756884 -7.170068 -10.439250 23.467472 0.348134 2.031791 0.102655 -0.039414 -162258.000000 0 1 0
-19.191684 -7.295268 -11.731950 23.646993 0.363258 2.089931 0.105755 -0.035636 519833.000000 0 1 0
-19.068284 -6.089968 -12.459350 23.578010 0.309138 2.127548 0.114084 -0.045035 -336285.000000 0 1 0
-18.476684 -6.192568 -13.883050 23.926446 0.323390 2.189818 0.121975 -0.032504 70064.600000 0 1 0
-19.349884 -6.744868 -14.894550 25.332960 0.335404 2.199320 0.138174 -0.039982 577443.000000 0 0 1
-18.973684 -6.452768 -16.219550 25.782022 0.327820 2.251195 0.135806 -0.047704 -282667.000000 0 0 1
-19.674684 -7.280968 -17.357350 27.228354 0.354440 2.262011 0.123966 -0.043113 481840.000000 0 0 1
-21.039184 -6.954068 -17.620850 28.310787 0.319225 2.242611 0.119591 -0.051613 711971.000000 0 0 1
-21.539884 -7.824168 -18.617450 29.526152 0.348422 2.253046 0.110993 -0.052845 137959.000000 0 0 1
-22.984584 -7.629768 -19.149450 30.874032 0.320506 2.239851 0.107857 -0.044235 -183852.000000 0 0 1
-23.234184 -6.430868 -19.858150 31.233467 0.270025 2.259837 0.093557 -0.038254 1053380.000000 0 0 1
-24.616284 -6.280968 -20.210550 32.463492 0.249825 2.242809 0.081483 -0.037510 691356.000000 0 0 1
-25.665764 -5.811868 -19.231750 32.594009 0.222689 2.201904 0.109294 -0.030730 -566756.000000 0 0 1
-25.588994 -4.404068 -18.940350 32.139217 0.170438 2.201016 0.103421 -0.030299 460244.000000 0 0 1
-26.635364 -4.143468 -18.009850 32.418600 0.154326 2.159809 0.121300 -0.021930 37855.000000 0 0 1
-26.836284 -2.623668 -17.608450 32.204460 0.097456 2.149299 0.103910 -0.017169 98712.600000 0 0 1
-27.177634 -1.597468 -18.588150 32.965057 0.058711 2.169866 0.107966 -0.013248 1610770.000000 0 0 1
-28.434364 -1.893568 -19.292150 34.413452 0.066496 2.165905 0.118005 -0.008121 1190410.000000 0 0 1
-28.875174 -0.642168 -20.079650 35.176418 0.022236 2.178309 0.116426 -0.001142 -228961.000000 0 0 1
-28.248204 -0.452168 -21.334150 35.402139 0.016006 2.217580 0.100847 -0.001546 -16362.200000 0 0 1
-28.760284 -1.275468 -22.365950 36.455678 0.044319 2.231295 0.115677 0.006142 -32351.000000 0 0 1
-28.050654 -1.184068 -23.775050 36.789865 0.042187 2.273442 0.107870 0.004360 -422930.000000 0 0 1
-28.017354 -0.027168 -24.523950 37.234352 0.000970 2.289803 0.114153 0.003291 53599.100000 0 0 1
-27.410714 1.143432 -24.025050 36.467214 -0.041691 2.290035 0.080911 0.005961 -219715.000000 0 0 1
-25.938164 1.069532 -23.556250 35.054659 -0.041211 2.307684 0.067712 0.002115 -781103.000000 0 0 1
-25.154444 0.858932 -24.672350 35.244980 -0.034133 2.346228 0.061439 0.002865 -490842.000000 0 0 1
-23.779584 0.790832 -24.322850 34.024918 -0.033245 2.367212 0.063153 0.000773 33883.700000 0 0 1
-22.960784 0.351332 -25.518700 34.329653 -0.015300 2.408850 0.062043 -0.003138 -498498.000000 0 0 1
-23.135684 1.195232 -26.663680 35.321951 -0.051616 2.426261 0.042115 0.001923 537043.000000 0 0 1
-22.253684 0.914932 -27.777990 35.604498 -0.041091 2.465753 0.043438 0.007138 391252.000000 0 0 1
-22.088784 1.970632 -28.941350 36.460931 -0.088979 2.487768 0.045275 0.003671 -380659.000000 0 0 1
-21.209184 3.065432 -28.696800 35.815257 -0.143539 2.500170 0.055653 0.004194 376888.000000 0 0 1
-20.896784 3.813132 -29.886820 36.666572 -0.180489 2.523693 0.044992 -0.003276 2225.020000 0 0 1
-20.145684 3.098132 -31.031340 37.126689 -0.152591 2.560426 0.047187 0.000596 257553.000000 0 0 1
-18.722284 3.062532 -30.897840 36.257130 -0.162141 2.590946 0.039052 0.002855 461633.000000 0 0 1
-18.124984 2.358632 -31.950590 36.809216 -0.129404 2.621967 0.020771 0.002544 -46160.000000 0 0 1
-16.599684 2.238432 -32.083600 36.192782 -0.134039 2.660444 0.022498 -0.006366 -171104.000000 0 0 1
-15.948384 3.494832 -32.133190 36.043122 -0.215724 2.671488 0.021562 -0.005541 -409151.000000 0 0 1
-14.617484 3.304332 -32.550980 35.835118 -0.222317 2.710128 0.008981 -0.007814 -151877.000000 0 0 1
-13.994484 4.734532 -32.838230 36.008481 -0.326227 2.718828 0.028676 -0.012123 -358075.000000 0 0 1
-13.808784 5.543732 -31.678750 34.999409 -0.381768 2.702464 0.045522 -0.024497 391065.000000 0 0 1
-13.300884 6.839832 -32.074950 35.390666 -0.474974 2.705268 0.087235 -0.017022 64195.000000 0 0 1
-12.763584 7.705432 -30.864880 34.277158 -0.543139 2.691600 0.091344 -0.024210 -369697.000000 0 0 1
-11.593684 7.230232 -30.258220 33.200145 -0.557617 2.717441 0.127094 -0.045500 -61057.500000 0 0 1
-11.872284 6.378332 -29.139620 32.105322 -0.492998 2.708390 0.106190 -0.034485 215250.000000 0 0 1
-10.662984 5.523132 -28.627600 31.044221 -0.477922 2.744413 0.121069 -0.045772 720037.000000 0 0 1
-9.969984 4.702932 -29.634360 31.618245 -0.440760 2.785468 0.111000 -0.050008 632060.000000 0 0 1
-10.798484 3.652132 -30.075560 32.163405 -0.326131 2.779299 0.104365 -0.047198 -393259.000000 0 0 1
-10.350584 2.961532 -31.353260 33.150145 -0.278677 2.810832 0.093655 -0.040686 -614662.000000 0 0 1
-11.138184 1.879432 -31.729740 33.680377 -0.167163 2.799587 0.085546 -0.034293 -63607.200000 0 0 1
-10.681984 1.124532 -32.833130 34.545387 -0.104887 2.825427 0.079763 -0.033619 -811025.000000 0 0 1
-11.163184 1.602532 33.576166 35.419539 -0.142581 0.324042 0.073523 -0.028556 -661310.000000 0 0 1
-12.548984 1.634132 33.417190 35.733122 -0.129492 0.362007 0.008529 -0.018255 -611319.000000 0 0 1
-12.860684 1.545032 32.030561 34.550560 -0.119563 0.384294 0.008438 -0.015799 -130763.000000 0 0 1
-14.322384 1.491332 31.537353 34.669286 -0.103752 0.428325 0.012262 -0.010285 227351.000000 0 0 1
-15.103384 2.660732 31.765930 35.274155 -0.174379 0.449777 0.006954 0.000898 -118957.000000 0 0 1
-16.465884 2.320232 31.708103 35.803807 -0.139990 0.482997 0.016150 0.008643 -191725.000000 0 0 1
-17.350384 3.579132 31.520433 36.157762 -0.203432 0.512039 0.024741 -0.000749 -339867.000000 0 0 1
-17.702584 4.229932 32.698991 37.423225 -0.234547 0.507912 0.024360 -0.009132 365238.000000 0 0 1
-16.958784 5.446632 32.929020 37.437769 -0.310763 0.495845 0.029849 -0.003698 -426694.000000 0 0 1
-17.503584 6.372332 -33.733350 38.534672 -0.349144 2.637064 0.036853 -0.000535 114490.000000 0 0 1
-18.780384 6.949232 33.893323 39.366890 -0.354403 0.533642 0.048520 -0.008252 496310.000000 0 0 1
-19.802284 6.124032 -33.300900 39.224790 -0.299929 2.584841 0.041467 -0.010561 181053.000000 0 0 1
-21.283884 6.479232 -33.480020 40.198207 -0.295507 2.555076 0.038921 -0.004060 58334.700000 0 0 1
-21.747884 7.699032 -32.890940 40.175359 -0.340245 2.529913 0.055303 -0.015148 326529.000000 0 0 1
-21.299284 8.821132 -33.656750 40.795204 -0.392646 2.541029 0.058115 -0.003821 -318276.000000 0 0 1
-21.550384 10.187932 -32.985760 40.697338 -0.441610 2.515825 0.068428 -0.010008 -538474.000000 0 0 1
-20.783784 10.378432 -31.785440 39.369934 -0.463129 2.510449 0.073184 -0.014894 310047.000000 0 0 1
-20.418684 11.734832 -31.595440 39.406862 -0.521617 2.501056 0.084286 -0.009218 543565.000000 0 0 1
-19.460984 12.503732 -32.597890 39.971185 -0.571087 2.524449 0.085848 -0.023370 -305789.000000 0 0 1
-20.029884 12.737432 -33.843090 41.337551 -0.566414 2.529941 0.105738 -0.025124 228460.000000 0 0 1
-19.059084 12.818032 32.935393 40.153341 -0.592059 0.608965 0.107247 -0.032787 140989.000000 0 0 1
-19.686284 12.417232 31.570183 39.222620 -0.562727 0.635294 0.113872 -0.033351 -81265.100000 0 0 1
-19.935084 11.001432 31.433883 38.814019 -0.504272 0.626885 0.085060 -0.022447 1535960.000000 0 0 1
-18.721484 10.321232 30.973343 37.634689 -0.503844 0.604124 0.086896 -0.018419 1262990.000000 0 0 1
-18.863184 8.703432 30.950893 37.276363 -0.432292 0.591135 0.094528 -0.021585 -1057.080000 0 0 1
-19.546584 8.230632 29.821263 36.593988 -0.398544 0.618201 0.088844 -0.022175 72153.100000 0 0 1
-19.778884 6.827832 29.888853 36.485163 -0.332400 0.610772 0.067222 -0.016650 -22496.200000 0 0 1
-20.408684 6.239832 28.612653 35.695011 -0.296718 0.640852 0.059235 -0.011560 210323.000000 0 0 1
-21.793384 6.377532 28.358833 36.329711 -0.284687 0.675177 0.082378 -0.016758 160241.000000 0 0 1
-22.335484 5.406932 27.457693 35.805498 -0.237509 0.696867 0.082952 -0.012911 -536623.000000 0 0 1
-23.852884 5.433932 27.378013 36.715709 -0.223988 0.729248 0.082297 -0.010749 -818140.000000 0 0 1
-24.199484 6.085432 26.170263 36.159787 -0.246361 0.761590 0.084365 -0.013657 1653950.000000 0 0 1
-25.596304 6.478532 25.999283 37.055430 -0.247898 0.793111 0.080574 -0.012383 1071250.000000 0 0 1
-25.846964 7.067932 24.600873 36.376148 -0.266927 0.828080 0.073126 -0.003450 -180315.000000 0 0 1
-26.051654 6.133032 23.494293 35.612983 -0.231208 0.850362 0.073639 -0.004297 563778.000000 0 0 1
-27.163104 5.253732 23.649963 36.397207 -0.191055 0.863509 0.077605 -0.011400 -79259.900000 0 0 1
-27.450964 4.489932 22.357073 35.686883 -0.162126 0.893769 0.089682 -0.015518 -144390.000000 0 0 1
-28.203514 5.205932 21.408573 35.789201 -0.182530 0.929562 0.075027 -0.012936 -58993.700000 0 0 1
-28.333344 4.550732 20.194473 35.089946 -0.159254 0.957574 0.117868 -0.014746 -146732.000000 0 0 1
-29.119654 5.338632 19.145873 35.256484 -0.181321 0.996737 0.108026 -0.020284 259679.000000 0 0 1
-30.508974 5.340832 19.448173 36.572577 -0.173302 1.010108 0.113330 -0.018374 -352188.000000 0 0 1
-31.260464 5.769132 18.360573 36.709810 -0.182497 1.047019 0.133952 -0.024051 -1297460.000000 0 0 1
-32.694734 5.637332 18.816473 38.141641 -0.170744 1.054881 0.130346 -0.020403 -1114770.000000 0 0 1
-33.040954 6.719332 19.656873 39.028794 -0.200628 1.042977 0.124744 -0.035651 -758302.000000 0 0 1
-34.310097 6.669032 20.199573 40.369314 -0.191981 1.046771 0.115547 -0.028264 -672873.000000 0 0 1
-34.727180 7.953032 20.959573 41.334386 -0.225132 1.039010 0.132046 -0.031814 -248136.000000 0 0 1
-34.031653 8.065632 22.146373 41.396493 -0.232710 1.006310 0.108424 -0.020169 -119156.000000 0 0 1
-34.692665 8.850832 23.104973 42.611712 -0.249793 0.997718 0.139494 -0.021926 -10571.600000 0 0 1
-0.322984 32.468932 11.895450 34.580885 -1.560849 1.219634 0.113465 -0.027437 102140.000000 0 0 1
-0.842984 32.537532 13.237850 35.137477 -1.544894 1.184517 0.106442 -0.029639 137413.000000 0 0 1
-0.286384 33.686732 13.867950 36.430729 -1.562295 1.180280 0.099353 -0.031697 227114.000000 0 0 1
-0.403084 33.620132 15.427050 36.992833 -1.558808 1.140623 0.102695 -0.024756 -239596.000000 0 0 1
-1.680484 -33.803542 15.915750 37.400730 1.521124 1.131231 0.080997 -0.015119 -684138.000000 0 0 1
-1.604184 -33.468942 17.290450 37.705479 1.522902 1.094415 0.068164 -0.012955 -494407.000000 0 0 1
-2.953084 -33.120942 17.871450 37.750579 1.481871 1.077640 0.069406 -0.007488 -767652.000000 0 0 1
-3.836584 33.502732 18.070350 38.258202 -1.456777 1.078868 0.067601 -0.003094 -136116.000000 0 0 1
-4.731384 33.825332 19.117550 39.141025 -1.431821 1.060510 0.070996 -0.005631 85508.200000 0 0 1
-5.758384 32.770032 19.588350 38.610070 -1.396851 1.038704 0.067511 -0.012971 728394.000000 0 0 1
-6.823784 32.546132 18.647850 38.125544 -1.364125 1.059719 0.063338 -0.021247 -232717.000000 0 0 1
-7.815984 31.762532 19.218650 37.938168 -1.329515 1.039585 0.061700 -0.034195 -287429.000000 0 0 1
-8.968484 31.537632 18.201150 37.501171 -1.293736 1.064034 0.049514 -0.031939 -60288.900000 0 0 1
-9.749584 32.686532 17.936650 38.538127 -1.280923 1.086680 0.051217 -0.031442 -232708.000000 0 0 1
-10.629584 32.323232 16.882150 37.984028 -1.253084 1.110232 0.051585 -0.021366 296577.000000 0 0 1
-11.668784 33.472832 16.562150 39.126664 -1.235365 1.133716 0.069673 -0.035170 -32511.700000 0 0 1
-12.785584 33.452432 17.406750 39.818731 -1.205727 1.118369 0.056170 -0.030692 -464777.000000 0 0 1
-13.611284 -33.155542 17.027850 39.680029 1.181247 1.127268 0.041586 -0.031136 54054.900000 0 0 1
-14.949884 -33.024842 17.779550 40.376375 1.145711 1.114813 0.068219 -0.033089 263047.000000 0 0 1
-14.721884 -32.542642 19.099650 40.503754 1.145959 1.079746 0.063050 -0.024154 475380.000000 0 0 1
-15.868384 -32.841542 19.901950 41.550693 1.120695 1.071304 0.050123 -0.034160 559465.000000 0 0 1
-15.726384 -32.338942 21.366850 41.829040 1.118170 1.034665 0.055933 -0.034311 -77017.600000 0 0 1
-15.900884 -30.925542 21.501050 40.884256 1.095880 1.017023 0.067391 -0.030515 75271.000000 0 0 1
-15.880384 -30.581242 22.896250 41.371938 1.091840 0.984326 0.063892 -0.027099 142781.000000 0 0 1
-15.741084 -29.047942 23.188250 40.364088 1.074193 0.958831 0.084793 -0.039039 -180030.000000 0 0 1
-15.853084 -28.699342 24.554150 40.961919 1.066124 0.927997 0.082338 -0.046492 -204088.000000 0 0 1
-15.813484 -27.285542 24.787850 40.112400 1.045545 0.904651 0.081428 -0.032249 577427.000000 0 0 1
-17.126884 -26.531542 24.352550 39.878560 0.997570 0.913893 0.098975 -0.030796 737110.000000 0 0 1
-18.239084 -26.670542 25.238250 40.999406 0.970981 0.907680 0.106709 -0.020639 9374.470000 0 0 1
-19.234684 -25.793342 24.806850 40.628185 0.930038 0.914001 0.106044 -0.019680 -594875.000000 0 0 1
-20.488084 -25.664842 25.721350 41.713710 0.897097 0.906359 0.098165 -0.000787 469851.000000 0 0 1
-21.294384 -26.828242 25.853650 42.914061 0.899890 0.924227 0.096423 -0.000627 446186.000000 0 0 1
-21.926884 -27.440642 24.706350 42.943926 0.896625 0.957805 0.104486 -0.005420 933608.000000 0 0 1
-23.281484 -26.791942 24.148350 42.929925 0.855390 0.973382 0.077389 0.007800 941738.000000 0 0 1
-23.202884 -25.492342 23.627050 41.790798 0.832380 0.969921 0.084701 0.004301 580378.000000 0 0 1
-24.433584 -25.213642 22.945650 41.943183 0.801109 0.991942 0.082013 -0.000222 385952.000000 0 0 1
-24.852484 -23.787242 22.718050 41.226068 0.763501 0.987162 0.077312 0.013691 -59267.400000 0 0 1
-25.376374 -23.262542 23.958850 41.942016 0.741966 0.962784 0.069118 0.014852 150841.000000 0 0 1
-25.896494 -21.997442 23.704750 41.429833 0.704167 0.961652 0.053491 0.012190 -48346.100000 0 0 1
-26.419254 -21.316142 24.968450 42.139986 0.678898 0.936623 0.056384 0.014097 809016.000000 0 0 1
-27.559164 -21.919042 25.639750 43.558567 0.671896 0.941437 0.041027 0.011314 1103480.000000 0 0 1
-28.090424 -21.057942 26.623450 44.060378 0.643276 0.921973 0.047498 0.002496 -392523.000000 0 0 1
-29.304244 -21.576742 27.441350 45.577650 0.634676 0.924694 0.049301 -0.003973 -157960.000000 0 0 1
-30.595854 -21.279342 27.018150 46.031480 0.607698 0.943511 0.052661 -0.011643 -172985.000000 0 0 1
-31.044184 -21.980442 25.880650 46.007491 0.616100 0.973352 0.052666 -0.003593 -299100.000000 0 0 1
-32.571934 -22.303542 25.872150 47.199015 0.600416 0.990645 0.055306 -0.009125 558228.000000 0 0 1
-33.093174 -22.944742 24.715550 47.249103 0.606241 1.020323 0.046996 -0.012719 107049.000000 0 0 1
-32.711524 -24.298242 24.565350 47.580509 0.638880 1.028283 0.043638 -0.012433 -489954.000000 0 0 1
-33.070614 -24.954042 23.232250 47.498497 0.646419 1.059721 0.049886 -0.009875 1134380.000000 0 0 1
-34.448294 -25.396442 23.181850 48.673015 0.635280 1.074380 0.069460 -0.015829 777292.000000 0 0 1
-34.599830 -25.948742 21.875950 48.466923 0.643480 1.102509 0.080482 -0.011964 304309.000000 0 0 1
-36.019534 -26.507942 21.567350 49.651067 0.634437 1.121448 0.082458 -0.013244 345713.000000 0 0 1
-36.474334 -27.597842 22.369950 50.915937 0.647735 1.115921 0.064328 -0.016738 655655.000000 0 0 1
-35.614502 -28.772742 22.297150 50.925694 0.679536 1.117605 0.055895 -0.019004 -17222.300000 0 0 1
-35.980547 -29.855642 21.162250 51.320561 0.692633 1.145760 0.059234 -0.017729 54844.500000 0 0 1
-35.756054 -29.426842 19.846850 50.381861 0.688602 1.165895 0.052972 -0.018772 288235.000000 0 0 1
-36.522524 -30.214742 18.978150 51.058746 0.691161 1.189965 0.058876 -0.010535 -416052.000000 0 0 1
-36.604454 -29.671642 17.548450 50.281612 0.681172 1.214289 0.074969 -0.006433 81481.100000 0 0 1
-35.404740 -29.684642 16.764750 49.150081 0.697743 1.222717 0.083180 -0.015499 493843.000000 0 0 1
-35.496892 -28.883842 15.580850 48.343237 0.683039 1.242642 0.094636 -0.023374 -54296.300000 0 0 1
-36.334344 -29.592642 14.457950 49.040201 0.683492 1.271531 0.089856 -0.019273 27129.100000 0 0 1
-35.709190 -30.672742 13.862750 49.072795 0.709672 1.284404 0.098348 -0.030196 -97910.400000 0 0 1
-36.519084 -31.383742 12.925350 49.856268 0.709914 1.308548 0.099923 -0.026915 196937.000000 0 0 1
-36.820194 -30.808042 11.529450 49.373985 0.696731 1.335108 0.108741 -0.026803 301032.000000 0 0 1
37.171791 -29.825242 11.629850 49.056503 -0.676180 1.331447 0.109938 -0.028693 170672.000000 0 0 1
36.966861 -29.140742 10.381550 48.202782 -0.667562 1.353723 0.085750 -0.025319 -100014.000000 0 0 1
35.874451 -28.065942 10.420350 46.725336 -0.663878 1.345892 0.124563 -0.017777 -52913.700000 0 0 1
35.930051 -27.229242 9.347550 46.041035 -0.648500 1.366349 0.134604 -0.061808 -35139.800000 0 0 1
34.862591 -26.321042 9.426150 44.688363 -0.646690 1.358269 0.117815 -0.052359 -98453.000000 0 0 1
34.905491 -25.175142 8.346150 43.838787 -0.624837 1.379244 0.104834 -0.049716 -6569.110000 0 0 1
35.627101 -24.034442 8.726950 43.853214 -0.593483 1.370455 0.122892 -0.056315 -21994.800000 0 0 1
35.944581 -23.332542 7.552350 43.513887 -0.575760 1.396351 0.111083 -0.047030 92497.000000 0 0 1
36.421031 -21.866542 7.899250 43.209204 -0.540701 1.386948 0.121006 -0.044349 741850.000000 0 0 1
35.348601 -21.050842 8.376350 41.986007 -0.537120 1.369945 0.104157 -0.049547 516475.000000 0 0 1
35.870151 -19.716042 8.356750 41.775894 -0.502575 1.369400 0.123558 -0.033032 616828.000000 0 0 1
35.011671 -18.812542 9.286850 40.816350 -0.493058 1.341258 0.122574 -0.024580 363533.000000 0 0 1
35.467021 -18.943442 10.618950 41.587566 -0.490565 1.312597 0.107035 -0.042145 292190.000000 0 0 1
34.753691 -18.139542 11.543650 40.867076 -0.481050 1.284430 0.102293 -0.033082 48485.400000 0 0 1
35.333361 -18.450142 12.954450 41.912670 -0.481229 1.256569 0.086251 -0.042567 412393.000000 0 0 1
36.587221 -17.798642 13.116250 42.748712 -0.452766 1.258944 0.070516 -0.031832 207386.000000 0 0 1
37.216171 -18.255342 14.265250 43.838319 -0.456036 1.239355 0.058970 -0.018390 183494.000000 0 0 1
-36.508914 -17.455742 14.677250 43.046782 0.445993 1.222858 0.077044 -0.029647 106009.000000 0 0 1
-35.412589 -17.760942 13.855250 41.969876 0.464881 1.234362 0.076808 -0.026631 -854383.000000 0 0 1
-34.321191 -17.110442 14.421750 40.971920 0.462478 1.211099 0.079685 -0.022858 -14978.400000 0 0 1
-33.051084 -17.248642 13.477950 39.642716 0.480997 1.223895 0.089577 -0.020897 753741.000000 0 0 1
-32.443704 -18.527242 13.340250 39.671336 0.518867 1.227844 0.079423 -0.021617 457318.000000 0 0 1
-31.346214 -18.517742 12.432550 38.471551 0.533589 1.241727 0.070238 -0.018325 356311.000000 0 0 1
-30.710284 -19.945642 12.224650 38.605599 0.576008 1.248596 0.066541 -0.022896 119688.000000 0 0 1
-31.420644 -20.850542 11.448950 39.409141 0.585872 1.276031 0.089655 -0.025947 -586722.000000 0 0 1
-30.498644 -21.569842 10.672250 38.849997 0.615568 1.292514 0.083737 -0.021450 -151026.000000 0 0 1
-31.147824 -22.485942 9.610450 39.600067 0.625280 1.325661 0.103885 -0.028510 257193.000000 0 0 1
-31.808524 -23.622842 10.096750 40.887226 0.638785 1.321274 0.116249 -0.028234 -862937.000000 0 0 1
-33.132184 -23.490442 10.487050 41.946641 0.616735 1.318106 0.129257 -0.037505 -1070950.000000 0 0 1
-33.800694 -24.830542 10.708250 43.286364 0.633583 1.320819 0.153110 -0.043888 -187137.000000 0 0 1
-34.062998 -25.394642 9.454650 43.526613 0.640628 1.351835 0.142432 -0.036081 -442818.000000 0 0 1
-34.772178 -26.568342 9.504750 44.780815 0.652445 1.356919 0.153261 -0.032448 -107885.000000 0 0 1
-34.989488 -27.260042 8.141250 45.096054 0.661862 1.389270 0.138338 -0.026024 245365.000000 0 0 1
-33.752184 -27.759042 7.675850 44.369956 0.688273 1.396925 0.125987 -0.024807 76667.900000 0 0 1
-33.903194 -28.443042 6.459950 44.723195 0.698043 1.425846 0.112713 -0.028508 275686.000000 0 0 1
-32.494014 -28.665942 5.854150 43.724916 0.722889 1.436507 0.126214 -0.022644 269918.000000 0 0 1
-31.974434 -27.648342 5.091050 42.575979 0.712967 1.450934 0.123872 -0.016403 -187506.000000 0 0 1
-30.725264 -27.955442 4.486450 41.781297 0.738232 1.463209 0.108860 -0.024312 -368540.000000 0 0 1
-30.037584 -26.686842 3.948850 40.373722 0.726396 1.472832 0.115132 -0.014803 94336.500000 0 0 1
-30.497714 -26.243842 2.670650 40.323469 0.710569 1.504517 0.106550 -0.009845 -237970.000000 0 0 1
-29.803034 -25.075942 2.333650 39.018837 0.699474 1.510952 0.117346 -0.027536 -71463.100000 0 0 1
-30.163044 -24.430742 1.001650 38.828774 0.680782 1.544997 0.113799 -0.025167 -387516.000000 0 0 1
-29.670904 -25.048842 -0.157350 38.830810 0.701130 1.574849 0.108716 -0.025948 -141102.000000 0 0 1
-29.953754 -24.368342 -1.395750 38.639249 0.682938 1.606927 0.115400 -0.030778 172109.000000 0 0 1
-31.416594 -24.410142 -1.907650 39.830849 0.660547 1.618708 0.110795 -0.030324 386657.000000 0 0 1
-32.143304 -23.232442 -1.554150 39.690726 0.625850 1.609963 0.103352 -0.021680 -1194550.000000 0 0 1
-33.438084 -23.259342 -2.001450 40.781224 0.607763 1.619894 0.090958 -0.019350 -1014910.000000 0 0 1
-34.247386 -21.923942 -1.858850 40.706240 0.569429 1.616477 0.085902 -0.020832 -23531.200000 0 0 1
-34.464144 -21.509742 -0.518950 40.628998 0.557966 1.583570 0.080545 -0.026659 -177985.000000 0 0 1
-35.341747 -20.411542 -0.581250 40.816761 0.523747 1.585037 0.077835 -0.026315 -277609.000000 0 0 1
-35.484151 -19.947042 0.869550 40.715667 0.512116 1.549438 0.088843 -0.037386 -286625.000000 0 0 1
-36.362354 -20.712942 1.662850 41.880924 0.517786 1.531082 0.074184 -0.036298 180547.000000 0 0 1
-36.489824 -20.143642 2.961950 41.785724 0.504404 1.499853 0.095088 -0.044349 -1105740.000000 0 0 1
-37.455484 -20.988942 3.808750 43.104008 0.510770 1.482319 0.102215 -0.022623 1259210.000000 0 0 1
36.179731 -21.086342 3.378150 42.012125 -0.527693 1.490300 0.090187 -0.029572 1234840.000000 0 0 1
35.487511 -19.862142 3.648650 40.831125 -0.510255 1.481317 0.101941 -0.042374 -884764.000000 0 0 1
34.329021 -19.521742 2.706850 39.584178 -0.517061 1.502361 0.103188 -0.028029 213325.000000 0 0 1
33.226761 -20.409242 2.840350 39.097601 -0.550825 1.498085 0.090258 -0.024162 -510307.000000 0 0 1
32.065071 -19.951842 2.219950 37.830846 -0.556605 1.512082 0.116996 -0.038359 -496520.000000 0 0 1
30.857791 -20.785042 2.635450 37.298349 -0.592770 1.500079 0.112462 -0.025315 -418424.000000 0 0 1
30.782571 -22.047942 1.951550 37.914205 -0.621547 1.519301 0.098509 -0.029818 388108.000000 0 0 1
29.774741 -22.839142 2.647250 37.618739 -0.654333 1.500368 0.110887 -0.026815 575409.000000 0 0 1
29.354341 -24.109742 1.855050 38.031542 -0.687615 1.522000 0.094930 -0.023754 380202.000000 0 0 1
28.492641 -23.802342 0.724650 37.133639 -0.695948 1.551280 0.100528 -0.027204 555710.000000 0 0 1
28.180941 -24.965242 -0.068250 37.648816 -0.724965 1.572609 0.093906 -0.032623 135861.000000 0 0 1
27.203741 -24.694842 -1.254250 36.762098 -0.737093 1.604921 0.105772 -0.034068 152284.000000 0 0 1
27.816241 -24.079942 -2.358050 36.866614 -0.713527 1.634802 0.092291 -0.036165 -40125.000000 0 0 1
28.261041 -24.932742 -3.388450 37.839260 -0.722910 1.660465 0.089247 -0.038025 -262856.000000 0 0 1
27.228041 -25.481142 -4.424550 37.553048 -0.752268 1.688892 0.087195 -0.037344 236585.000000 0 0 1
26.553041 -24.674242 -5.347450 36.639834 -0.748739 1.717266 0.083719 -0.044728 223885.000000 0 0 1
25.480741 -23.914842 -4.857050 35.281422 -0.753708 1.708901 0.088492 -0.044482 -536425.000000 0 0 1
24.842341 -22.860042 -5.759450 34.247550 -0.743867 1.739770 0.082832 -0.046652 -55994.400000 0 0 1
24.102841 -23.470042 -6.821850 34.326774 -0.772097 1.770861 0.055777 -0.040480 353612.000000 0 0 1
23.052241 -22.683342 -7.352250 33.166178 -0.777332 1.794332 0.057528 -0.037532 -97175.900000 0 0 1
23.359941 -21.277242 -8.016650 32.598689 -0.738774 1.819264 0.052393 -0.033051 -861034.000000 0 0 1
23.925541 -21.285742 -9.307950 33.348946 -0.727076 1.853661 0.050406 -0.031352 114997.000000 0 0 1
23.449341 -20.226842 -10.082650 32.567722 -0.711750 1.885558 0.046369 -0.029218 -400720.000000 0 0 1
24.127541 -20.053842 -11.443050 33.395182 -0.693454 1.920539 0.048080 -0.022067 1026300.000000 0 0 1
25.495941 -19.580842 -11.417150 34.114567 -0.654921 1.912052 0.076890 -0.020105 1042620.000000 0 0 1
25.980741 -19.526142 -12.753750 34.913138 -0.644500 1.944751 0.063426 -0.024632 704408.000000 0 0 1
27.532041 -19.687042 -12.932250 36.233078 -0.620762 1.935763 0.071925 -0.021338 604417.000000 0 0 1
27.867541 -21.040442 -12.815550 37.195945 -0.646704 1.922547 0.036142 -0.019535 -299120.000000 0 0 1
28.836341 -21.267042 -11.850450 37.739300 -0.635458 1.890208 0.064382 -0.025487 -767450.000000 0 0 1
29.323241 -22.693142 -11.794450 38.909384 -0.658620 1.878768 0.056179 -0.009128 -487790.000000 0 0 1
30.051601 -22.933142 -12.983350 39.969927 -0.651849 1.901626 0.051937 -0.023447 296625.000000 0 0 1
30.308021 -24.347442 -13.150350 41.040294 -0.676770 1.896975 0.034168 -0.017480 -233874.000000 0 0 1
-3.480084 -8.892768 -27.708060 29.307488 1.197779 2.809696 0.059985 -0.018004 16475.600000 0 0 1
-3.433784 -7.548068 -27.366100 28.594888 1.143857 2.847369 0.075767 -0.016396 -673913.000000 0 0 1
-4.572484 -6.872668 -27.808090 29.007430 0.983731 2.853030 0.076647 -0.019248 -424701.000000 0 0 1
-4.836184 -5.501868 -27.104040 28.076470 0.849701 2.877635 0.073843 -0.022676 -241759.000000 0 0 1
-5.526984 -5.603668 -25.863310 27.034412 0.792287 2.846176 0.060453 -0.025418 286189.000000 0 0 1
-5.424884 -4.401068 -25.127350 26.080308 0.681578 2.870432 0.071768 -0.022999 7855.240000 0 0 1
-6.059684 -4.376868 -23.732050 24.881457 0.625532 2.836452 0.060797 -0.020922 303133.000000 0 1 0
-5.290784 -5.215668 -22.825250 24.003908 0.778249 2.826918 0.060199 -0.028668 833691.000000 0 1 0
-5.774984 -5.155068 -21.499750 22.850917 0.728742 2.795987 0.055648 -0.021412 -501634.000000 0 1 0
-5.078884 -6.052168 -20.532950 22.000587 0.872615 2.774267 0.049282 -0.026992 -484552.000000 0 1 0
-5.413984 -7.438468 -20.713350 22.664617 0.941632 2.723603 0.045036 -0.019383 536551.000000 0 1 0
-4.514884 -8.291568 -19.987050 22.104670 1.072174 2.700300 0.046888 -0.023384 -947440.000000 0 1 0
-4.982984 -9.749368 -20.088950 22.878946 1.098302 2.642577 0.046982 -0.016172 1056900.000000 0 1 0
-6.230284 -9.998268 -19.372450 22.673191 1.013538 2.595232 0.041570 -0.009662 1083550.000000 0 1 0
-7.375284 -9.411768 -19.941150 23.251358 0.906121 2.601447 0.030098 -0.010918 -1354860.000000 0 1 0
-8.517884 -9.166468 -18.927850 22.690129 0.822057 2.557456 0.024606 -0.003226 -113457.000000 0 1 0
-9.181684 -10.371368 -18.624350 23.210665 0.846167 2.502110 0.037183 -0.007011 -17929.600000 0 1 0
-9.991484 -10.272568 -17.481050 22.604037 0.799268 2.454920 0.055447 -0.005741 -12222.800000 0 1 0
-10.927984 -11.523868 -17.310650 23.492104 0.811932 2.399226 0.056740 0.006027 322625.000000 0 1 0
-12.077584 -11.597568 -18.150050 24.694046 0.765126 2.396459 0.080052 -0.008375 306780.000000 0 1 0
-11.877984 -11.838768 -19.516150 25.731751 0.783745 2.431722 0.077667 -0.019886 -791327.000000 0 0 1
-13.217384 -11.750568 -20.291350 26.916797 0.726718 2.424705 0.084772 -0.023086 487623.000000 0 0 1
-14.160484 -12.799668 -20.246050 27.825408 0.734966 2.385628 0.090131 -0.020934 174203.000000 0 0 1
-14.786184 -13.058868 -18.991450 27.383214 0.723444 2.337192 0.090183 -0.012790 -223260.000000 0 0 1
-15.926684 -14.125068 -19.158750 28.639736 0.725519 2.303601 0.083793 -0.010819 257283.000000 0 0 1
-15.508184 -15.400368 -19.587450 29.348650 0.781910 2.301516 0.098460 -0.017073 -207501.000000 0 0 1
-16.286084 -15.865568 -20.654050 30.717137 0.772320 2.308236 0.118584 -0.017789 58995.000000 0 0 1
-16.057984 -17.347068 -20.979850 31.605912 0.823969 2.296678 0.061614 -0.014991 -158996.000000 0 0 1
-16.615484 -18.329868 -20.132050 31.896046 0.834418 2.253866 0.081852 -0.009736 180466.000000 0 0 1
-16.128184 -19.578768 -20.527650 32.631746 0.881735 2.251152 0.062516 -0.010087 -324296.000000 0 0 1
-16.835384 -20.679868 -19.783150 33.203314 0.887520 2.209081 0.082880 -0.014009 -302325.000000 0 0 1
-16.448984 -21.916268 -20.357650 34.136868 0.926951 2.209747 0.071092 -0.017842 204422.000000 0 0 1
-17.139984 -23.003768 -19.781950 34.846491 0.930442 2.174492 0.093205 -0.012232 -176358.000000 0 0 1
-16.815584 -24.356868 -20.387650 35.939910 0.966553 2.173984 0.093188 -0.016922 -59308.600000 0 0 1
-17.303584 -24.650168 -21.666550 37.100999 0.958752 2.194430 0.054252 -0.015706 179706.000000 0 0 1
-16.712484 -25.864198 -22.113250 37.911207 0.997123 2.193570 0.070787 -0.016354 -109619.000000 0 0 1
-17.126284 -26.327098 -23.526250 39.241688 0.994056 2.213700 0.075591 -0.016982 -1323860.000000 0 0 1
-18.379884 -26.793288 -23.815050 40.284699 0.969536 2.203303 0.097808 -0.007994 -1016870.000000 0 0 1
-18.423984 -28.164778 -23.668550 41.144843 0.991509 2.183705 0.108104 -0.008965 -209740.000000 0 0 1
-19.359084 -28.846188 -24.725550 42.640702 0.979721 2.189351 0.113433 -0.007956 -29241.500000 0 0 1
-18.970084 -28.936528 -26.123650 43.354720 0.990511 2.217496 0.113640 -0.008264 -138877.000000 0 0 1
-19.148284 -27.689288 -26.783950 43.020151 0.965770 2.242845 0.122210 -0.011890 -386566.000000 0 0 1
-18.008284 -27.188168 -27.656850 42.759748 0.985783 2.274173 0.122849 -0.016031 -398492.000000 0 0 1
-17.701084 -28.004398 -28.766990 43.876125 1.007120 2.285828 0.136115 -0.021696 52190.900000 0 0 1
-16.529884 -27.619048 -29.454120 43.630196 1.031484 2.311877 0.099317 -0.012963 11246.000000 0 0 1
-16.520984 -27.714798 -30.995250 44.741015 1.033244 2.336120 0.111041 -0.022907 -16123.300000 0 0 1
-16.598584 -29.104278 -31.400190 45.918884 1.052491 2.323780 0.093317 -0.019830 337119.000000 0 0 1
-17.315684 -29.285888 -32.624020 47.136215 1.036825 2.335221 0.099927 -0.021224 209723.000000 0 0 1
-17.340484 -30.710018 -33.170320 48.415573 1.056773 2.325560 0.090556 -0.020647 -101819.000000 0 0 1
-16.069584 -31.025708 -33.675420 48.526899 1.092897 2.337762 0.079419 -0.016993 -244252.000000 0 0 1
-16.041584 -32.216668 33.341236 49.060005 1.108808 0.823578 0.067629 -0.016916 187997.000000 0 0 1
-14.621684 -32.542028 32.792613 48.457535 1.148511 0.827486 0.046222 -0.015900 237826.000000 0 0 1
-13.810084 -33.223938 33.708164 49.303030 1.176858 0.817984 0.050185 -0.012544 -173605.000000 0 0 1
-12.720584 -33.802458 33.005409 48.926235 1.210868 0.830380 0.053306 -0.015217 14217.700000 0 0 1
-11.877984 32.935090 33.870643 48.713727 -1.224667 0.801959 0.060078 -0.017595 -95537.800000 0 0 1
-11.096784 33.617296 -33.001630 48.398025 -1.251966 2.321126 0.074616 -0.021390 -45245.100000 0 0 1
-10.378484 32.839927 -32.030510 47.033257 -1.264696 2.319949 0.078454 -0.029556 -67353.100000 0 0 1
-9.532484 33.764746 -31.113940 46.893535 -1.295637 2.296286 0.071345 -0.028805 -146838.000000 0 0 1
-10.263384 -33.278588 -30.102350 46.032086 1.271644 2.283581 0.090276 -0.028097 -163446.000000 0 0 1
-9.468784 -32.354958 -29.403170 44.733070 1.286093 2.288030 0.098833 -0.029621 -694965.000000 0 0 1
-10.409484 -31.389668 -28.638110 43.747113 1.250587 2.284487 0.101956 -0.019608 396568.000000 0 0 1
-10.792584 -31.768848 -27.316210 43.265631 1.243307 2.254103 0.140943 -0.032323 368412.000000 0 0 1
-11.550484 -33.020088 -27.306190 44.377560 1.234298 2.233582 0.119820 -0.036194 -175703.000000 0 0 1
-12.062084 -33.399038 -25.864070 43.931079 1.224222 2.200298 0.148281 -0.041752 -351173.000000 0 0 1
-11.009584 -33.472368 -24.962050 43.182337 1.253027 2.187147 0.161241 -0.054678 -728023.000000 0 0 1
-11.357284 -33.533588 -23.587050 42.542194 1.244238 2.158485 0.179831 -0.066767 823677.000000 0 0 1
-10.088784 -33.580498 -22.652150 41.743901 1.278940 2.144380 0.178179 -0.072649 1457480.000000 0 0 1
-9.231084 32.947144 -22.653550 41.035479 -1.297622 2.155615 0.153363 -0.069926 740279.000000 0 0 1
-8.162784 33.018397 -21.688050 40.338779 -1.328437 2.138441 0.162891 -0.068181 586610.000000 0 0 1
-7.408784 31.691866 -21.493450 39.002985 -1.341145 2.154445 0.159158 -0.069464 -228673.000000 0 0 1
-6.391484 31.594816 -22.479450 39.298971 -1.371195 2.179752 0.130563 -0.075500 -282937.000000 0 0 1
-5.502784 30.572636 -22.098850 38.122511 -1.392713 2.189132 0.111284 -0.063482 -590610.000000 0 0 1
-4.035784 30.872706 -22.381550 38.345082 -1.440810 2.194059 0.099602 -0.064821 -553897.000000 0 0 1
-3.770084 31.215966 -23.723950 39.388779 -1.450604 2.217178 0.114689 -0.058614 -215907.000000 0 0 1
-2.591884 30.524196 -24.105850 38.981232 -1.486087 2.237497 0.105699 -0.067363 255283.000000 0 0 1
-2.226484 30.694266 -25.650610 40.063063 -1.498386 2.265628 0.107251 -0.035019 -440932.000000 0 0 1
-1.506584 31.825047 -26.044580 41.151228 -1.523492 2.256088 0.099489 -0.056118 -494173.000000 0 0 1
-2.110884 33.081219 -25.917120 42.077547 -1.507074 2.234371 0.105149 -0.051655 -506524.000000 0 0 1
-1.346684 -33.435618 -26.519250 42.696893 1.530541 2.240948 0.040805 -0.025808 -489007.000000 0 0 1
-0.119284 -33.061928 -25.963030 42.037890 1.567188 2.236497 0.076238 -0.048846 -555309.000000 0 0 1
0.382916 -32.003278 -26.736470 41.703659 -1.558832 2.266735 0.039055 -0.030418 35721.600000 0 0 1
1.839216 -31.560528 -26.366210 41.165843 -1.512586 2.265929 0.061575 -0.031157 499633.000000 0 0 1
1.901316 -30.919298 -25.073770 39.853631 -1.509381 2.251251 0.042420 -0.024539 -926081.000000 0 0 1
3.138116 -30.415688 -24.762150 39.346231 -1.467986 2.251500 0.035757 -0.024804 -1257360.000000 0 0 1
3.105716 -29.624108 -23.460150 37.915852 -1.466340 2.237937 0.055400 -0.022154 -274467.000000 0 0 1
3.077116 -30.448238 -22.263150 37.844572 -1.470078 2.199725 0.073825 -0.022625 508578.000000 0 0 1
3.106516 -29.551998 -21.132250 36.462899 -1.466061 2.188979 0.079004 -0.011519 -475392.000000 0 0 1
3.350216 -30.333498 -19.821250 36.389929 -1.460796 2.146816 0.080100 -0.016075 354209.000000 0 0 1
2.258416 -31.029918 -19.183650 36.550905 -1.498143 2.123332 0.070418 -0.019969 708327.000000 0 0 1
1.868716 -32.296268 -19.737850 37.896223 -1.512999 2.118630 0.077107 -0.017716 -545707.000000 0 0 1
2.507416 -33.449938 -18.986650 38.544498 -1.495976 2.085860 0.045612 -0.015368 531896.000000 0 0 1
3.875716 -33.766978 -19.274950 39.073695 -1.456518 2.086673 0.070011 -0.012032 639156.000000 0 0 1
4.324316 33.077076 -18.218150 38.009126 1.440799 2.070665 0.065687 -0.025333 9674.620000 0 0 1
5.319316 32.000281 -18.705550 37.446104 1.406075 2.093855 0.075996 -0.023206 667257.000000 0 0 1
6.578416 32.565696 -19.083450 38.314203 1.371474 2.092177 0.090552 -0.023881 449783.000000 0 0 1
7.542516 31.635526 -19.541150 37.941437 1.336747 2.111844 0.088435 -0.047065 -230874.000000 0 0 1
8.921716 32.162441 -19.871250 38.844385 1.300204 2.107796 0.091577 -0.044231 -524163.000000 0 0 1
9.659116 32.478091 -18.713150 38.707970 1.281723 2.075382 0.090251 -0.036578 -7607.870000 0 0 1
10.965216 32.939434 -18.974150 39.563375 1.249445 2.070982 0.088707 -0.023327 549485.000000 0 0 1
11.987316 33.072133 -17.772650 39.412293 1.223065 2.038617 0.082721 -0.021313 230704.000000 0 0 1
12.629716 31.950339 -17.322850 38.476162 1.194355 2.037811 0.084777 -0.029747 -383345.000000 0 0 1
13.272316 32.285104 -16.110750 38.445267 1.180760 2.003203 0.086292 -0.030477 -1116660.000000 0 0 1
14.442316 31.494396 -15.654250 38.020166 1.140840 1.995154 0.076804 -0.024607 -867661.000000 0 0 1
14.309716 30.240896 -15.037450 36.679758 1.128825 1.993213 0.090009 -0.022546 -796251.000000 0 0 1
15.580916 29.700486 -14.831750 36.672396 1.087662 1.987162 0.086950 -0.013883 -486853.000000 0 0 1
15.609216 28.496126 -13.853150 35.321192 1.069670 1.973824 0.094012 -0.017637 -551875.000000 0 0 1
15.404016 28.970766 -12.523850 35.120305 1.082105 1.935421 0.083028 -0.021135 -564894.000000 0 0 1
14.097116 29.064306 -12.029150 34.469741 1.119195 1.927276 0.098606 -0.023463 -340905.000000 0 0 1
13.467316 27.692636 -11.677650 32.933542 1.118157 1.933264 0.093558 -0.022950 -988589.000000 0 0 1
12.803416 27.099426 -12.770350 32.578953 1.129422 1.973581 0.081495 -0.022438 -11274.300000 0 0 1
12.349816 25.776896 -12.572150 31.225395 1.124005 1.985180 0.093903 -0.025640 15473.200000 0 0 1
11.346416 25.527026 -11.439950 30.186796 1.152537 1.959481 0.075381 -0.019853 -1356570.000000 0 0 1
10.170916 26.251376 -11.510950 30.415198 1.201161 1.958929 0.077604 -0.017936 -614817.000000 0 0 1
9.764816 26.497116 -10.176050 30.016675 1.217716 1.916664 0.065242 -0.011575 340243.000000 0 0 1
8.719316 27.624686 -9.915350 30.618033 1.265058 1.900582 0.066709 -0.004796 860611.000000 0 0 1
9.317016 28.887986 -10.286850 32.049053 1.258807 1.897552 0.065537 -0.021988 216269.000000 0 0 1
8.278816 29.822876 -10.382550 32.645675 1.300015 1.894455 0.060343 -0.013806 128588.000000 0 0 1
8.679116 31.164626 -11.044450 34.183927 1.299186 1.899788 0.095281 -0.020623 2519.030000 0 0 1
9.567916 31.921279 -10.210650 34.853557 1.279583 1.868116 0.073056 -0.022524 -75844.100000 0 0 1
9.965016 33.104456 -10.804750 36.220839 1.278406 1.873710 0.098353 -0.021939 -111219.000000 0 0 1
11.173316 33.011169 -11.747750 36.777574 1.244429 1.895921 0.081369 -0.023839 -1548060.000000 0 0 1
12.380516 32.862082 -11.112850 36.833260 1.210500 1.877279 0.080100 -0.016720 -850807.000000 0 0 1
13.406916 32.962579 -12.089050 37.582205 1.184501 1.898289 0.090266 -0.022788 790201.000000 0 0 1
14.909316 32.809385 -11.691250 37.887052 1.144271 1.884498 0.101067 -0.027762 746287.000000 0 0 1
15.250516 33.722826 -10.676750 38.520128 1.146088 1.851647 0.108957 -0.026724 162726.000000 0 0 1
16.654016 33.609200 -10.475650 38.944497 1.110739 1.843140 0.106861 -0.034156 419148.000000 0 0 1
17.320316 -32.980178 -9.597150 38.468048 -1.087213 1.822943 0.115113 -0.034992 87853.600000 0 0 1
17.059116 -33.270288 -8.250050 38.288233 -1.097006 1.787972 0.109430 -0.038996 121952.000000 0 0 1
17.724216 -32.441048 -7.302350 37.681477 -1.070759 1.765822 0.106169 -0.030888 -293530.000000 0 0 1
18.185216 -33.227498 -6.036850 38.356385 -1.070033 1.728842 0.103127 -0.028601 692364.000000 0 0 1
19.170616 33.451340 -6.281350 39.063539 1.050399 1.732296 0.090782 -0.023412 827295.000000 0 0 1
20.536816 -33.801308 -6.268950 40.044837 -1.024826 1.727991 0.093624 -0.020170 114497.000000 0 0 1
21.515716 32.882055 -6.855150 39.889205 0.991383 1.743508 0.061539 -0.010938 -155934.000000 0 0 1
21.671616 31.579126 -6.204750 38.799473 0.969349 1.731404 0.065200 -0.006884 237322.000000 0 0 1
22.558916 31.642566 -5.074050 39.190594 0.951446 1.700632 0.067353 -0.007601 5140.720000 0 0 1
22.860716 30.228426 -4.573650 38.174447 0.923297 1.690894 0.050934 -0.014121 323897.000000 0 0 1
23.797716 29.521976 -5.416050 38.304203 0.892346 1.712667 0.047775 -0.013319 391628.000000 0 0 1
24.059916 28.280086 -4.805750 37.439793 0.865854 1.699511 0.041922 -0.008447 -93851.600000 0 0 1
25.035916 27.375836 -5.593250 37.516902 0.830013 1.720440 0.033525 0.002054 -658139.000000 0 0 1
26.266616 27.997166 -5.855850 38.833844 0.817279 1.722166 0.046762 0.003641 116338.000000 0 0 1
27.197416 27.162956 -6.572150 38.996395 0.784764 1.740137 0.030475 0.006609 200489.000000 0 0 1
27.904116 26.080856 -5.796350 38.632220 0.751638 1.721404 0.040856 0.009626 -1063610.000000 0 0 1
28.974416 26.685446 -5.095350 39.718918 0.744297 1.699436 0.063378 0.004721 -362101.000000 0 0 1
29.603316 25.792366 -4.280050 39.495839 0.716711 1.679377 0.075857 0.000181 848524.000000 0 0 1
30.961316 26.382246 -3.674250 40.842700 0.705714 1.660879 0.090873 -0.005433 1071350.000000 0 0 1
30.717516 27.472486 -2.788050 41.304679 0.729690 1.638347 0.100663 -0.008100 774169.000000 0 0 1
31.906716 27.737176 -2.024450 42.325972 0.715604 1.618645 0.124914 -0.016695 888766.000000 0 0 1
31.685616 29.046536 -1.194950 43.001249 0.741971 1.598589 0.148721 -0.013706 254078.000000 0 0 1
31.900716 30.209116 -1.957450 43.978154 0.758169 1.615321 0.119934 -0.014030 83554.700000 0 0 1
31.555616 31.305436 -1.124650 44.464054 0.781418 1.596092 0.139866 -0.010368 158437.000000 0 0 1
34.432991 22.455032 19.102773 45.329629 0.577876 1.135787 0.141993 -0.031536 319669.000000 0 0 1
35.109711 22.396232 20.359873 46.355231 0.567817 1.116073 0.120845 -0.036760 71428.400000 0 0 1
35.688871 23.599832 20.743573 47.549379 0.584254 1.119366 0.131318 -0.036207 -221658.000000 0 0 1
35.824391 23.699032 22.293173 48.394387 0.584440 1.092062 0.103965 -0.016569 330314.000000 0 0 1
34.601011 23.849532 23.013993 47.913193 0.603490 1.069769 0.094326 -0.013652 492872.000000 0 0 1
34.790341 24.014032 24.404433 48.812067 0.604152 1.047235 0.093526 -0.013586 -67455.600000 0 0 1
33.462611 24.420532 25.071393 48.421932 0.630438 1.026555 0.108012 -0.026662 311420.000000 0 0 1
33.002511 25.765532 24.788543 48.656965 0.662870 1.036245 0.092277 -0.028333 248087.000000 0 0 1
31.622491 26.020132 24.916823 47.936179 0.688511 1.024189 0.093993 -0.035521 51939.200000 0 0 1
31.303511 27.508532 25.225103 48.712780 0.720960 1.026480 0.083291 -0.028763 -142968.000000 0 0 1
31.535151 28.332532 24.134653 48.781960 0.731954 1.053254 0.077959 -0.041694 260217.000000 0 0 1
31.131431 29.693532 24.331203 49.425492 0.761763 1.056089 0.068282 -0.032123 -15145.300000 0 0 1
31.513611 30.576232 23.109423 49.619140 0.770302 1.086330 0.070623 -0.033616 -595870.000000 0 0 1
32.862471 30.863032 22.961873 50.593640 0.754033 1.099716 0.031134 -0.028415 -895133.000000 0 0 1
33.032991 31.689732 21.797673 50.700653 0.764647 1.126382 0.032257 -0.014069 515304.000000 0 0 1
34.536531 32.083432 21.690773 51.890348 0.748593 1.139541 0.002392 -0.028098 541556.000000 0 0 1
34.880401 32.989332 22.761863 53.132295 0.757542 1.128075 0.016714 -0.013606 64642.600000 0 0 1
36.207481 33.435132 22.555773 54.200117 0.745611 1.141581 0.028264 -0.016043 87231.000000 0 0 1
36.505001 -32.930342 23.257153 54.386742 -0.733962 1.128932 0.026230 -0.005180 -295019.000000 0 0 1
35.787331 -31.854342 22.671373 53.003993 -0.727319 1.128817 0.009702 0.000275 162143.000000 0 0 1
35.962601 -30.681842 23.414513 52.753422 -0.706326 1.110908 0.028335 -0.002536 -1033500.000000 0 0 1
35.042951 -29.500542 23.096723 51.300575 -0.699737 1.103781 0.018967 -0.005898 66382.200000 0 0 1
33.669321 -29.701042 23.399103 50.628975 -0.722859 1.090358 0.011446 -0.000166 615942.000000 0 0 1
32.894801 -30.362042 22.400273 50.056905 -0.745380 1.106833 0.020408 0.010384 -424964.000000 0 0 1
32.427671 -31.820842 22.706473 50.790784 -0.775953 1.107322 0.008786 0.012698 -332378.000000 0 0 1
31.473871 -31.769742 23.749323 50.635476 -0.790076 1.082609 0.006794 0.003371 -97380.800000 0 0 1
30.952711 -33.054342 23.847353 51.179645 -0.818221 1.086084 0.009941 0.001840 -44485.000000 0 0 1
30.145221 -33.219942 25.166213 51.435758 -0.833884 1.059538 0.010100 -0.008490 13296.700000 0 0 1
29.844141 33.123632 25.392393 51.309077 0.837433 1.053087 0.022833 -0.019408 364656.000000 0 0 1
29.012241 32.876532 26.532643 51.249953 0.847757 1.026623 0.029954 -0.014828 -607052.000000 0 0 1
28.596141 31.350932 26.706243 50.138245 0.831320 1.009065 0.049249 -0.024169 1205190.000000 0 0 1
27.625241 30.828032 25.747353 48.748823 0.840136 1.014360 0.049201 -0.022745 1198830.000000 0 0 1
26.330341 31.419532 25.685313 48.375708 0.873296 1.011069 0.046661 -0.017544 -8635.790000 0 0 1
25.614141 31.167032 24.340403 47.116062 0.882883 1.027915 0.078226 -0.033797 -93393.700000 0 0 1
26.109241 31.848432 23.233343 47.284282 0.884100 1.057152 0.089144 -0.040748 345022.000000 0 0 1
27.420941 31.596232 22.742773 47.617892 0.856028 1.072864 0.066274 -0.031639 190502.000000 0 0 1
27.627141 32.358532 21.479573 47.662413 0.864111 1.103291 0.076726 -0.015990 -438895.000000 0 0 1
28.989141 32.588432 21.272773 48.527385 0.843783 1.117016 0.072533 -0.011228 -425365.000000 0 0 1
29.159041 33.411232 20.150473 48.709359 0.853252 1.144295 0.060838 -0.017180 -335004.000000 0 0 1
30.585571 -33.829742 19.796673 49.717571 -0.835719 1.161262 0.063669 -0.018451 -184003.000000 0 0 1
31.296681 32.792032 19.207473 49.231358 0.808726 1.170005 0.083223 -0.035106 -66699.500000 0 0 1
32.204161 33.230032 18.206373 49.727407 0.801075 1.195956 0.068943 -0.019524 9799.480000 0 0 1
33.084621 32.141832 17.558873 49.355887 0.770945 1.207069 0.059539 -0.022542 1416.330000 0 0 1
34.075221 31.622032 18.425473 50.005716 0.748075 1.193437 0.048024 -0.025068 272296.000000 0 0 1
34.917741 30.638832 17.814973 49.752989 0.720220 1.204598 0.066340 -0.033176 47848.100000 0 0 1
35.851361 29.918532 18.761973 50.323457 0.695436 1.188742 0.081793 -0.048625 -136406.000000 0 0 1
36.851701 30.818632 19.212673 51.739373 0.696479 1.190349 0.081446 -0.039488 410296.000000 0 0 1
-37.126694 30.156232 19.941273 51.821271 -0.682167 1.175796 0.095474 -0.038949 306179.000000 0 0 1
-36.068404 31.071532 20.546573 51.851052 -0.711110 1.163355 0.096782 -0.035766 -120613.000000 0 0 1
-35.143524 31.648832 19.649773 51.213567 -0.733124 1.177015 0.096155 -0.033815 268809.000000 0 0 1
-34.114965 32.470932 20.187373 51.241802 -0.760713 1.165857 0.087320 -0.023620 359173.000000 0 0 1
-34.518682 33.782932 20.949173 52.646878 -0.774627 1.161549 0.068752 -0.020531 -369670.000000 0 0 1
-34.727056 33.580732 22.354073 53.229114 -0.768618 1.137396 0.079049 -0.020671 210388.000000 0 0 1
-34.571066 -32.915142 23.112603 53.035437 0.760866 1.119874 0.078126 -0.019439 -120198.000000 0 0 1
-34.620815 -33.131442 24.623183 53.875731 0.763419 1.096136 0.088989 -0.028035 219126.000000 0 0 1
-35.898153 -33.457242 25.151153 55.142043 0.750218 1.097171 0.072073 -0.017737 -38199.000000 0 0 1
-35.822611 -33.759342 26.516693 55.911427 0.755754 1.076670 0.096448 -0.023195 34533.900000 0 0 1
-37.212004 33.729432 27.132593 57.084021 -0.736347 1.075480 0.070634 -0.032074 -215781.000000 0 0 1
-37.208714 33.020832 28.348293 57.258095 -0.725837 1.052850 0.094786 -0.037825 619871.000000 0 0 1
36.497711 32.813032 28.925823 56.969125 0.732286 1.038230 0.101361 -0.044542 507723.000000 0 0 1
36.579331 31.705232 30.029463 56.965234 0.714140 1.015548 0.113077 -0.037518 -37187.000000 0 0 1
36.753201 30.328832 29.738473 56.169499 0.689921 1.012854 0.099105 -0.037423 172015.000000 0 0 1
-37.090014 29.995032 29.017073 55.833338 -0.680029 1.024286 0.090707 -0.033591 -417394.000000 0 0 1
-37.026464 28.612632 28.400613 54.737890 -0.657910 1.025294 0.091943 -0.026401 -906816.000000 0 0 1
37.143091 28.458332 27.324443 54.185894 0.653777 1.042257 0.081231 -0.028861 -219637.000000 0 0 1
37.073351 27.162832 26.831703 53.218353 0.632323 1.042363 0.079284 -0.027285 -12670.700000 0 0 1
36.465221 26.041432 27.747643 52.704841 0.620156 1.016350 0.086788 -0.022134 -318906.000000 0 0 1
37.361001 25.608132 28.752693 53.650146 0.600876 1.005188 0.075647 -0.014399 14032.400000 0 0 1
37.060191 24.342932 29.241113 53.113829 0.581175 0.987789 0.070778 -0.009361 -135773.000000 0 0 1
37.447161 23.173332 28.304563 52.349226 0.554148 0.999542 0.072983 0.003504 -185641.000000 0 0 1
36.876511 23.112032 27.001453 51.216419 0.559851 1.015491 0.082577 -0.001404 -108972.000000 0 0 1
37.306641 22.044232 26.162593 50.618326 0.533696 1.027617 0.083131 -0.012184 -247495.000000 0 0 1
36.929131 20.566232 26.597573 49.941581 0.508134 1.009158 0.079747 -0.007956 586167.000000 0 0 1
35.569161 20.231132 26.210213 48.594642 0.517149 1.001114 0.105988 -0.001698 1288280.000000 0 0 1
35.136601 18.926332 26.553103 47.935937 0.494088 0.983720 0.109262 0.001696 -286592.000000 0 0 1
34.836591 18.740332 28.075473 48.507941 0.493544 0.953563 0.087627 -0.003520 208488.000000 0 0 1
33.672281 19.373432 28.652533 48.271317 0.522099 0.935305 0.089785 -0.012128 1009200.000000 0 0 1
33.801971 20.793132 28.838323 49.056870 0.551482 0.942392 0.090411 -0.017802 -943109.000000 0 0 1
32.740291 21.365532 29.803213 49.159375 0.578184 0.919451 0.091556 -0.028789 459606.000000 0 0 1
31.361551 21.254332 29.438983 47.978612 0.595616 0.910203 0.099050 -0.036567 773933.000000 0 0 1
30.973631 22.002032 28.261103 47.351295 0.617637 0.931241 0.110664 -0.030572 -669559.000000 0 0 1
30.926991 23.539432 28.363403 48.115136 0.650586 0.940369 0.119064 -0.030341 -554039.000000 0 0 1
32.171581 24.182132 28.225043 49.157290 0.644563 0.959196 0.111416 -0.031399 -315490.000000 0 0 1
32.318491 25.502532 28.675763 50.171340 0.668059 0.962395 0.093119 -0.028745 -48614.900000 0 0 1
32.566441 25.662332 30.197083 51.293198 0.667380 0.941328 0.085413 -0.030262 -435267.000000 0 0 1
33.581151 24.776332 30.544963 51.716101 0.635650 0.938960 0.068540 -0.026832 -315552.000000 0 0 1
34.020471 24.800132 31.871092 52.803461 0.629910 0.922813 0.076501 -0.026087 -73386.600000 0 0 1
33.565291 23.577632 32.631936 52.415425 0.612362 0.898782 0.086865 -0.023125 -382955.000000 0 0 1
33.915121 23.670332 -33.808590 53.418543 0.609334 2.256089 0.076708 -0.035819 109081.000000 0 0 1
33.673091 22.494732 -33.126630 52.318865 0.588948 2.256436 0.072192 -0.032545 -208195.000000 0 0 1
34.152081 22.415932 -31.680790 51.696335 0.580831 2.230427 0.059400 -0.026660 -204815.000000 0 0 1
33.473641 23.402032 -30.934500 51.235564 0.610134 2.219018 0.051680 -0.026395 -4024.160000 0 0 1
33.636051 23.356932 -29.518860 50.480623 0.606959 2.195376 0.075720 -0.031198 285981.000000 0 0 1
35.000191 23.767932 -28.859730 51.213396 0.596547 2.169436 0.083523 -0.008396 480710.000000 0 0 1
35.281171 23.320332 -27.582810 50.491685 0.584059 2.148718 0.083881 -0.016347 -367434.000000 0 0 1
36.467131 23.918332 -27.118330 51.355059 0.580503 2.127106 0.091995 -0.007552 -141268.000000 0 0 1
37.074961 23.102432 -25.980080 50.825580 0.557252 2.107332 0.068254 -0.008137 -496333.000000 0 0 1
-37.033934 22.108532 -26.376060 50.556859 -0.538196 2.119651 0.042450 -0.005244 -129938.000000 0 0 1
-37.029034 21.024232 -25.510660 49.638306 -0.516389 2.110557 0.026035 -0.005601 -634885.000000 0 0 1
-35.968661 19.981032 -25.839280 48.586568 -0.507065 2.131544 0.025055 0.004596 -300334.000000 0 0 1
-34.680096 20.298532 -25.355360 47.514563 -0.529546 2.133687 0.030995 0.000198 -678300.000000 0 0 1
-33.821844 19.237832 -25.549270 46.548646 -0.517162 2.151811 0.008055 -0.001323 -729882.000000 0 0 1
-32.450024 19.548532 -24.958950 45.366269 -0.542197 2.153359 0.016167 -0.000285 -848789.000000 0 0 1
-32.588664 19.776232 -23.589550 44.828420 -0.545437 2.124944 0.030184 -0.003494 857462.000000 0 0 1
-31.331704 19.875232 -22.886150 43.594453 -0.565294 2.123486 0.052970 -0.009632 491412.000000 0 0 1
-31.526124 20.240732 -21.404550 43.147868 -0.570752 2.089868 0.049477 -0.015176 112998.000000 0 0 1
-32.377724 19.347532 -20.714050 43.031568 -0.538621 2.073012 0.052850 -0.015793 38625.100000 0 0 1
-32.674134 20.007432 -19.506150 42.992863 -0.549438 2.041717 0.049016 -0.016257 -561235.000000 0 0 1
-33.603194 19.126532 -18.636750 42.922340 -0.517455 2.019943 0.047780 -0.016738 60781.200000 0 0 1
-34.094335 19.861332 -17.508950 43.167806 -0.527483 1.988434 0.052711 -0.021745 691782.000000 0 0 1
-35.264500 20.645032 -17.810750 44.576060 -0.529640 1.981832 0.029782 -0.018656 -458808.000000 0 0 1
-36.485934 20.452732 -16.952250 45.132210 -0.510918 1.955855 0.026806 -0.020922 -849097.000000 0 0 1
-36.343294 20.981132 -15.642650 44.785437 -0.523564 1.927599 0.042865 -0.024867 -196510.000000 0 0 1
-37.404684 20.622332 -14.813250 45.208664 -0.503864 1.904626 0.031534 -0.013725 -1118730.000000 0 0 1
-37.448224 21.530432 -13.538750 45.268386 -0.521788 1.874522 0.034741 -0.017319 -49673.400000 0 0 1
37.157741 22.902632 -13.730150 45.757461 0.552364 1.875556 0.048379 -0.023715 -164010.000000 0 0 1
35.819501 23.067532 -14.100450 44.877281 0.572141 1.890410 0.041345 -0.007609 -466856.000000 0 0 1
35.359231 24.493532 -14.477950 45.385233 0.605814 1.895472 0.070462 -0.017125 -62409.800000 0 0 1
35.494051 25.484432 -13.465450 45.723104 0.622699 1.869728 0.057770 -0.009674 1935.360000 0 0 1
35.284401 26.786232 -13.966050 46.449346 0.649333 1.876194 0.048643 -0.004701 1150720.000000 0 0 1
36.611231 27.485032 -14.556850 48.038642 0.643966 1.878660 0.078216 -0.009369 1392650.000000 0 0 1
37.014681 26.999332 -15.835550 48.474892 0.630201 1.903580 0.078648 -0.014122 -1331990.000000 0 0 1
-36.880154 27.656732 -16.198350 48.861305 -0.643442 1.908707 0.094971 -0.026003 -1692840.000000 0 0 1
-36.444504 27.382232 -17.673150 48.890988 -0.644358 1.940652 0.109074 -0.034047 257700.000000 0 0 1
-35.669803 26.181432 -17.969750 47.756823 -0.633179 1.956570 0.101552 -0.037644 1411200.000000 0 0 1
-34.260815 26.280732 -17.684750 46.660805 -0.654342 1.959519 0.114030 -0.031629 856611.000000 0 0 1
-33.431844 25.136532 -18.312850 45.660638 -0.644699 1.983475 0.099619 -0.033668 -161370.000000 0 0 1
-33.302454 25.270332 -19.741250 46.231592 -0.649118 2.011977 0.074060 -0.027107 463616.000000 0 0 1
-32.497084 24.249032 -20.373650 45.377986 -0.641059 2.036416 0.057696 -0.023410 299895.000000 0 0 1
-32.581744 24.314932 -21.929650 46.191942 -0.641113 2.065477 0.049202 -0.018786 -629137.000000 0 0 1
-33.721774 23.615132 -22.324550 46.831806 -0.610923 2.067689 0.058293 -0.013382 -366587.000000 0 0 1
-33.790674 23.099132 -23.668750 47.282018 -0.599631 2.095073 0.038097 -0.012420 135880.000000 0 0 1
-34.715938 24.041932 -24.553550 48.847596 -0.605697 2.097465 0.046846 -0.006834 195702.000000 0 0 1
-33.983964 25.210532 -24.897750 49.095607 -0.638256 2.102645 0.050101 -0.009654 349154.000000 0 0 1
-34.781242 26.113732 -25.645560 50.491153 -0.644012 2.103567 0.073735 -0.011640 183623.000000 0 0 1
-34.069703 27.476432 -25.858940 50.836834 -0.678678 2.104430 0.063743 -0.008323 1111330.000000 0 0 1
-32.872294 27.376332 -26.674070 50.413860 -0.694429 2.128338 0.034866 -0.004231 378592.000000 0 0 1
-32.570684 28.702032 -27.002870 51.125444 -0.722344 2.127239 0.042382 -0.011436 -2297.020000 0 0 1
-31.168254 28.905332 -27.617550 50.692281 -0.747747 2.146956 0.045921 -0.009903 -194773.000000 0 0 1
-30.191414 28.704932 -26.642030 49.449897 -0.760165 2.139771 0.031301 -0.013496 -796349.000000 0 0 1
-28.885494 28.523532 -27.136840 48.830029 -0.779093 2.160050 0.061913 -0.009630 -194639.000000 0 0 1
-27.958314 29.608132 -26.656620 48.671184 -0.814050 2.150395 0.049444 -0.021421 -694868.000000 0 0 1
-27.541534 29.783832 -25.292490 47.805050 -0.824494 2.128307 0.043022 -0.026504 -169590.000000 0 0 1
-28.301664 30.698932 -24.600050 48.462058 -0.826007 2.103210 0.046187 -0.015188 -497452.000000 0 0 1
-27.764324 30.931232 -23.175150 47.588721 -0.839301 2.079435 0.019225 -0.014906 -42354.600000 0 0 1
-26.829804 31.990232 -23.174850 47.752351 -0.872907 2.077518 0.014047 -0.016291 153177.000000 0 0 1
-26.664444 32.656332 -21.947350 47.530146 -0.886065 2.050771 0.034470 0.010469 -217381.000000 0 0 1
-26.088134 -33.602642 -22.169850 47.971142 0.910630 2.051214 0.026415 0.027307 59978.400000 0 0 1
-27.033284 -32.656042 -22.635650 48.058175 0.879321 2.061226 0.011207 0.002833 36151.900000 0 0 1
-26.394994 -31.357142 -22.796750 46.900510 0.871109 2.078379 0.031567 -0.003834 358777.000000 0 0 1
17.193616 8.098432 -24.869150 31.299834 0.440191 2.489055 0.117414 -0.009842 483502.000000 0 0 1
15.815516 7.838932 -24.618950 30.293103 0.460160 2.519553 0.108236 -0.013299 382255.000000 0 0 1
15.592516 6.438632 -24.917450 30.090893 0.391604 2.546458 0.118001 -0.020241 -1019300.000000 0 0 1
14.146216 6.029032 -24.987350 29.339944 0.402882 2.589921 0.087878 -0.020046 -1022320.000000 0 0 1
13.499316 6.157532 -23.736750 27.992499 0.427945 2.582937 0.109288 -0.042506 310807.000000 0 0 1
12.210516 5.570232 -23.791750 27.316141 0.427984 2.627985 0.101872 -0.036447 -200133.000000 0 0 1
11.473116 5.588732 -22.440850 25.815849 0.453287 2.624513 0.117570 -0.042678 -579111.000000 0 0 1
11.860016 4.735832 -21.381350 24.904823 0.379912 2.603178 0.103857 -0.040515 90279.600000 0 1 0
11.272216 4.995132 -20.108350 23.587283 0.417132 2.591561 0.112930 -0.043247 -353400.000000 0 1 0
11.703816 6.356432 -19.494850 23.610013 0.497536 2.542243 0.125063 -0.051263 -82676.300000 0 1 0
11.114616 6.612732 -18.221750 22.344912 0.536704 2.524348 0.108260 -0.045153 -321470.000000 0 1 0
11.225916 7.948132 -17.739050 22.447002 0.616086 2.482035 0.110902 -0.051048 -73871.300000 0 1 0
12.633416 8.435432 -17.316150 23.034946 0.588723 2.421484 0.103191 -0.051830 14017.200000 0 1 0
13.168816 7.721932 -16.228450 22.280227 0.530345 2.386749 0.113525 -0.057140 -559832.000000 0 1 0
14.539716 7.900932 -16.090250 23.080819 0.497765 2.342178 0.111580 -0.055273 -894979.000000 0 1 0
15.072816 7.447732 -14.721050 22.346539 0.458930 2.289968 0.107776 -0.061028 -824980.000000 0 1 0
16.454416 7.630832 -14.665350 23.324877 0.434234 2.250732 0.097033 -0.061615 -295627.000000 0 1 0
16.915016 7.569032 -13.371450 22.851776 0.420751 2.195847 0.076449 -0.062075 -781236.000000 0 1 0
17.799916 8.733132 -13.063150 23.743430 0.456122 2.153376 0.123030 -0.060456 -677809.000000 0 1 0
17.140616 9.986032 -13.167150 23.809565 0.527523 2.156780 0.159064 -0.044340 957736.000000 0 1 0
18.075516 11.034032 -12.883950 24.788512 0.548061 2.117360 0.199826 -0.055937 203855.000000 0 1 0
17.386416 12.334832 -12.355250 24.639151 0.617042 2.096068 0.234867 -0.048418 -229290.000000 0 1 0
16.733816 12.037932 -11.114350 23.419248 0.623613 2.065285 0.274748 -0.035168 757030.000000 0 1 0
15.876416 13.071032 -10.615350 23.142993 0.688787 2.047311 0.156771 -0.023212 1246710.000000 0 1 0
14.513616 13.396932 -11.363850 22.787275 0.745410 2.092886 0.119242 -0.036514 923496.000000 0 1 0
13.670016 14.442732 -10.856650 22.656758 0.812878 2.070516 0.148693 -0.044463 568457.000000 0 1 0
14.220616 15.748632 -11.047050 23.922430 0.836340 2.050804 0.168270 -0.043115 -35437.500000 0 1 0
13.342716 16.860832 -10.439750 23.901969 0.901356 2.022805 0.153317 -0.033199 70029.500000 0 1 0
13.385016 16.873432 -9.000750 23.342769 0.900179 1.966644 0.143312 -0.012471 203020.000000 0 1 0
12.319916 17.592432 -8.419050 23.068472 0.959871 1.944385 0.114038 0.005778 76946.100000 0 1 0
12.246516 17.475532 -6.854950 22.413427 0.959547 1.881618 0.083101 0.004647 94895.300000 0 1 0
13.199916 18.333132 -6.278550 23.446998 0.946771 1.841881 0.086291 0.004466 42341.100000 0 1 0
13.409516 18.018032 -4.885250 22.985436 0.931000 1.784967 0.083024 0.001055 -9705.350000 0 1 0
14.562916 18.897232 -4.361650 24.252998 0.914218 1.751620 0.076089 -0.010924 -15958.900000 0 1 0
15.853816 18.615932 -4.862150 24.930642 0.865359 1.767081 0.089995 -0.025856 88698.000000 0 1 0
16.724116 19.714232 -4.715250 26.278900 0.867274 1.751204 0.078036 -0.027636 -361809.000000 0 0 1
18.067716 19.474532 -5.410050 27.110301 0.822854 1.771702 0.069295 -0.019426 -602440.000000 0 0 1
18.832416 18.457732 -4.845550 26.810952 0.775351 1.752525 0.085497 -0.037866 -85281.700000 0 0 1
19.667616 17.820732 -5.786750 27.163948 0.736172 1.785472 0.114696 -0.037501 -475003.000000 0 0 1
20.702816 16.929232 -5.150750 27.234826 0.685456 1.761066 0.124597 -0.047192 289399.000000 0 0 1
22.046716 17.402232 -4.975150 28.524507 0.668204 1.746110 0.105969 -0.052469 262004.000000 0 0 1
22.826516 16.430232 -4.457050 28.475738 0.623883 1.727964 0.121884 -0.057609 -482364.000000 0 0 1
24.350916 16.610932 -4.637150 29.839459 0.598644 1.726832 0.132835 -0.060038 161331.000000 0 0 1
24.911916 17.751932 -3.980750 30.847707 0.619124 1.700202 0.137833 -0.058462 890254.000000 0 0 1
26.336316 17.574032 -3.924350 31.903741 0.588436 1.694115 0.119846 -0.052372 660776.000000 0 0 1
27.030216 18.738532 -3.173450 33.042941 0.606177 1.666985 0.137669 -0.037838 -261915.000000 0 0 1
26.953216 19.896332 -3.978450 33.736745 0.635893 1.688998 0.132977 -0.043521 215138.000000 0 0 1
27.268116 20.991432 -3.138850 34.554924 0.656063 1.661758 0.160048 -0.017367 -195394.000000 0 0 1
27.315216 22.339632 -3.881850 35.499985 0.685528 1.680363 0.106107 -0.014685 -141247.000000 0 0 1
28.377316 22.641832 -4.769050 36.615140 0.673450 1.701415 0.100429 -0.002238 155432.000000 0 0 1
28.615916 21.810332 -5.914950 36.462966 0.651248 1.733734 0.083125 -0.002357 23837.400000 0 0 1
29.603716 22.410032 -6.943150 37.772965 0.647966 1.755660 0.051426 0.001235 -75775.100000 0 0 1
29.022116 23.447032 -7.696150 38.095633 0.679541 1.774218 0.022834 0.008228 728108.000000 0 0 1
29.989016 24.291432 -8.362550 39.488568 0.680815 1.784183 0.009570 0.013385 596214.000000 0 0 1
31.039516 23.791132 -9.374750 40.216358 0.653964 1.806069 0.011624 0.002858 126249.000000 0 0 1
30.394716 23.324632 -10.531150 39.733894 0.654539 1.839044 0.004820 0.011090 -31688.800000 0 0 1
31.334216 22.693332 -11.358750 40.321726 0.626806 1.856365 -0.008831 -0.001153 -218590.000000 0 0 1
30.824616 22.062832 -12.658650 39.964571 0.621221 1.893094 0.010836 0.005721 -109330.000000 0 0 1
30.881916 22.961332 -13.725750 40.857211 0.639341 1.913404 0.013473 -0.002905 -78547.700000 0 0 1
30.814316 22.328732 -14.980550 40.896347 0.627060 1.945832 0.031284 -0.008433 -62696.500000 0 0 1
31.049516 23.332332 -16.182250 42.075354 0.644432 1.965573 0.031857 -0.008604 -1069390.000000 0 0 1
32.264416 23.975932 -16.169350 43.327656 0.639075 1.953239 0.033616 -0.003887 -931262.000000 0 0 1
32.380216 24.660432 -17.428650 44.276101 0.650877 1.975379 0.053350 -0.009047 -858437.000000 0 0 1
33.729516 25.329632 -17.525750 45.677373 0.644117 1.964580 0.060001 -0.013837 -714306.000000 0 0 1
34.714816 24.319432 -17.711950 45.937636 0.611094 1.966617 0.057175 -0.003229 -322047.000000 0 0 1
35.951116 24.902032 -18.068150 47.318622 0.605785 1.962583 0.072157 -0.015931 -214735.000000 0 0 1
37.093216 23.904732 -18.307150 47.775461 0.572464 1.964045 0.053540 -0.023063 -218281.000000 0 0 1
37.146516 23.239332 -19.536150 47.974903 0.559040 1.990200 0.043314 -0.019234 -627052.000000 0 0 1
-36.593209 23.205132 -20.082550 47.758244 -0.565143 2.004797 0.076841 -0.010421 -637170.000000 0 0 1
-36.382609 22.336532 -21.351550 47.733673 -0.550602 2.034547 0.070416 -0.014446 -349270.000000 0 0 1
-36.361809 20.952232 -21.020050 46.936336 -0.522747 2.035146 0.048918 -0.015306 144741.000000 0 0 1
-35.952809 20.258632 -22.195150 46.857671 -0.513132 2.064251 0.040783 -0.011439 -115952.000000 0 0 1
-35.751109 18.738632 -21.967450 45.954836 -0.482774 2.069198 0.039434 -0.008215 246974.000000 0 0 1
-36.927609 17.965932 -21.742550 46.466778 -0.452804 2.057728 0.042261 -0.014862 422708.000000 0 0 1
-36.662909 16.563332 -21.762350 45.739618 -0.424328 2.066656 0.031349 -0.014963 -357308.000000 0 0 1
37.057316 15.779432 -21.524550 45.667728 0.402558 2.061594 0.020774 -0.010630 -397715.000000 0 0 1
36.047916 16.053232 -22.459350 45.404635 0.418964 2.088227 0.056075 -0.000509 470277.000000 0 0 1
34.989316 15.072832 -22.523350 44.257697 0.406759 2.104719 0.090125 -0.009088 632840.000000 0 0 1
35.415816 13.703932 -23.233150 44.518053 0.369201 2.119852 0.061737 -0.011311 -292953.000000 0 0 1
35.616316 13.773032 -24.638250 45.445151 0.368993 2.143794 0.085698 -0.008402 56447.200000 0 0 1
36.430916 12.772732 -25.181160 46.091704 0.337211 2.148769 0.065086 -0.002617 -391607.000000 0 0 1
36.351516 12.616832 -26.717630 46.844945 0.334070 2.177718 0.057880 0.007490 -677562.000000 0 0 1
35.160116 12.135032 -27.258060 46.113930 0.332335 2.203221 0.055002 0.004094 -39487.700000 0 0 1
34.438316 13.144932 -28.029460 46.308071 0.364627 2.220917 0.069968 0.009609 308357.000000 0 0 1
34.933516 13.353232 -29.494540 47.629688 0.365109 2.238580 0.073272 -0.001363 -729579.000000 0 0 1
36.230016 13.859332 -29.556110 48.767395 0.365362 2.221898 0.066692 0.009233 -473065.000000 0 0 1
36.778416 13.833732 -30.883770 49.978308 0.359767 2.236921 0.070494 -0.000627 -117117.000000 0 0 1
-36.718009 14.181832 -30.944670 50.069043 -0.368585 2.237043 0.059653 0.001668 230088.000000 0 0 1
-35.869909 13.158332 -30.496780 48.886047 -0.351593 2.244435 0.056843 0.007812 -73019.900000 0 0 1
-35.851109 12.951432 -29.120240 47.969052 -0.346667 2.223156 0.040841 0.009299 -945208.000000 0 0 1
-34.867709 11.808832 -28.738710 46.702452 -0.326551 2.233636 0.046835 0.003305 116899.000000 0 0 1
-35.232109 10.522632 -29.194920 46.950725 -0.290232 2.241861 0.051015 0.000203 396623.000000 0 0 1
-34.170809 9.588632 -29.023840 45.847239 -0.273573 2.256290 0.049493 -0.004079 158434.000000 0 0 1
-34.423509 8.168832 -29.552690 46.098473 -0.232994 2.266698 0.062205 -0.004380 -479264.000000 0 0 1
-34.513309 8.150132 -30.991810 47.096554 -0.231896 2.289020 0.066479 -0.007198 108568.000000 0 0 1
-34.905009 6.917032 -31.548500 47.555365 -0.195633 2.296157 0.078447 -0.012968 -517236.000000 0 0 1
-36.291009 6.320232 -31.325380 48.355579 -0.172425 2.275507 0.091121 -0.011615 -678194.000000 0 0 1
-36.432509 5.732232 -30.011400 47.548610 -0.156059 2.253861 0.095921 -0.019545 832744.000000 0 0 1
37.297016 5.105832 -29.865620 48.053014 0.136051 2.241470 0.085726 -0.002506 535985.000000 0 0 1
37.034716 4.358632 -28.612780 47.002755 0.117152 2.225276 0.098939 -0.006790 -95385.200000 0 0 1
-37.046809 3.306232 -28.410350 46.803260 -0.089009 2.223097 0.105844 -0.007282 279030.000000 0 0 1
-37.262409 2.449432 -27.294830 46.254670 -0.065640 2.201978 0.111594 -0.004071 -210531.000000 0 0 1
-36.388309 1.148032 -27.351330 45.535944 -0.031539 2.215115 0.131427 -0.009772 -752483.000000 0 0 1
-35.137309 1.317932 -26.801240 44.211693 -0.037490 2.222073 0.121743 -0.006661 -774454.000000 0 0 1
-34.392809 0.092032 -26.863120 43.640588 -0.002676 2.233885 0.140322 -0.010877 780233.000000 0 0 1
-33.132009 0.174732 -25.923390 42.068785 -0.005274 2.234723 0.135857 -0.013437 485183.000000 0 0 1
-33.468009 0.226432 -24.563750 41.515499 -0.006766 2.203933 0.124521 -0.000736 478772.000000 0 0 1
-32.287809 0.499532 -23.842050 40.139699 -0.015470 2.206789 0.136672 0.008719 361360.000000 0 0 1
-32.687609 0.298932 -22.361350 39.605543 -0.009145 2.170747 0.129543 0.013351 -203096.000000 0 0 1
-32.740909 -1.098668 -22.123950 39.530283 0.033544 2.164785 0.149341 -0.002770 282081.000000 0 0 1
-33.053209 -1.376768 -20.754450 39.053262 0.041629 2.131095 0.152137 -0.008980 706748.000000 0 0 1
-34.528909 -1.154968 -20.278350 40.059842 0.033437 2.101571 0.140332 -0.009626 961612.000000 0 0 1
-35.555009 -2.123968 -20.561850 41.127357 0.059667 2.094344 0.136945 -0.017132 716598.000000 0 0 1
-36.841309 -1.745068 -20.130550 42.018642 0.047332 2.070410 0.124893 -0.016238 255314.000000 0 0 1
37.324016 -2.993768 -19.764550 42.340078 -0.080039 2.056471 0.123443 -0.027343 28656.200000 0 0 1
36.698016 -3.775268 -20.762850 42.333119 -0.102513 2.083418 0.108635 -0.018193 408218.000000 0 0 1
-37.389009 -4.660368 -21.367650 43.315510 0.124006 2.086679 0.105496 -0.022371 -158323.000000 0 0 1
37.117616 -5.505568 -22.512250 43.758771 -0.147254 2.111177 0.103289 -0.025240 -166084.000000 0 0 1
36.122116 -6.451668 -22.134050 42.852625 -0.176743 2.113573 0.106214 -0.024653 551837.000000 0 0 1
35.780916 -7.337368 -23.243050 43.293767 -0.202260 2.137517 0.105707 -0.018749 -342607.000000 0 0 1
34.372416 -7.049068 -23.749350 42.369611 -0.202275 2.165819 0.088554 -0.017258 -811723.000000 0 0 1
34.332216 -6.110668 -24.815250 42.799976 -0.176142 2.189274 0.101329 -0.018308 2121960.000000 0 0 1
32.945416 -5.712368 -25.150690 41.840038 -0.171682 2.215692 0.076078 -0.019238 1972720.000000 0 0 1
32.824816 -4.450768 -25.985720 42.101491 -0.134770 2.235996 0.106414 -0.034821 94463.400000 0 0 1
33.316416 -4.695168 -27.315870 43.338031 -0.140005 2.252733 0.119099 -0.039273 400400.000000 0 0 1
32.853016 -3.741468 -28.243000 43.485472 -0.113397 2.277698 0.105633 -0.034805 -39917.600000 0 0 1
31.952216 -4.290568 -29.387510 43.623145 -0.133482 2.309957 0.114647 -0.036319 96301.300000 0 0 1
31.560116 -3.242068 -30.208230 43.807409 -0.102368 2.331690 0.095847 -0.040775 -325512.000000 0 0 1
30.993916 -3.766268 -31.353580 44.247650 -0.120923 2.358299 0.104248 -0.045051 -1068950.000000 0 0 1
30.619816 -2.614968 -32.334220 44.608440 -0.085194 2.381606 0.108212 -0.041339 -544664.000000 0 0 1
29.764216 -1.664468 -31.726820 43.534700 -0.055864 2.387322 0.098868 -0.040980 72356.600000 0 0 1
28.424916 -2.051068 -31.519640 42.493181 -0.072033 2.406484 0.108217 -0.042114 -404770.000000 0 0 1
27.483216 -2.288768 -32.717860 42.790466 -0.083087 2.441227 0.094836 -0.042014 -1019630.000000 0 0 1
27.742516 -3.460368 -33.516770 43.646250 -0.124091 2.446382 0.114236 -0.042814 -178801.000000 0 0 1
27.127916 -3.428368 33.036960 42.884942 -0.125711 0.691387 0.084925 -0.035651 -670328.000000 0 0 1
27.689416 -4.500868 32.115959 42.642659 -0.161139 0.717972 0.069123 -0.030991 -120735.000000 0 0 1
29.084016 -4.521668 31.900355 43.404587 -0.154234 0.745198 0.074705 -0.023417 -76738.500000 0 0 1
29.511316 -3.728368 30.767813 42.795757 -0.125671 0.768512 0.080615 -0.028499 -232766.000000 0 0 1
30.163316 -2.378568 31.041133 43.347839 -0.078693 0.772606 0.078696 -0.031044 -1381860.000000 0 0 1
31.490516 -2.499368 31.365653 44.516330 -0.079203 0.788955 0.082705 -0.033995 -1159420.000000 0 0 1
32.002016 -1.224868 31.774893 45.114002 -0.038256 0.789325 0.086031 -0.031994 715532.000000 0 0 1
33.482216 -1.192568 32.274552 46.520186 -0.035603 0.804078 0.077798 -0.033357 907783.000000 0 0 1
34.472816 -1.580068 31.329913 46.609389 -0.045803 0.833647 0.092869 -0.032078 357969.000000 0 0 1
35.736316 -1.747968 31.959703 47.974601 -0.048874 0.841722 0.101912 -0.035201 -78331.400000 0 0 1
36.707616 -2.525768 31.108893 48.182900 -0.068699 0.868933 0.111558 -0.032277 -606139.000000 0 0 1
37.084816 -1.848468 29.935383 47.695153 -0.049803 0.892278 0.103670 -0.026938 140756.000000 0 0 1
-36.877409 -2.587968 29.330893 47.190488 0.070063 0.900086 0.104946 -0.027203 152443.000000 0 0 1
-36.365309 -2.061068 27.962573 45.919377 0.056616 0.916061 0.093830 -0.026116 285307.000000 0 0 1
-37.384309 -1.916968 26.970523 46.137516 0.051232 0.946449 0.090217 -0.028670 290427.000000 0 0 1
-36.804609 -1.548268 25.711883 44.923015 0.042042 0.961422 0.083230 -0.023854 212558.000000 0 0 1
-27.469424 14.950532 11.683850 33.385626 -0.498426 1.213261 0.175462 -0.038581 -99039.300000 0 0 1
-28.347734 14.237232 12.505950 34.098264 -0.465434 1.195270 0.134135 -0.023364 -1037920.000000 0 0 1
-29.407354 15.018432 12.859950 35.436198 -0.472174 1.199413 0.136263 -0.023920 -1251810.000000 0 0 1
-30.437604 14.180332 13.626150 36.238123 -0.435983 1.185302 0.128403 -0.024231 -288337.000000 0 0 1
-31.566654 14.954732 13.955450 37.614522 -0.442429 1.190697 0.121287 -0.021598 -338327.000000 0 0 1
-32.619854 14.169732 14.478550 38.398758 -0.409797 1.184179 0.137948 -0.031559 385560.000000 0 0 1
-33.678514 15.036632 15.197950 39.891356 -0.419919 1.179936 0.119861 -0.035005 -81555.700000 0 0 1
-33.151214 15.578132 16.366350 40.119056 -0.439288 1.150595 0.109724 -0.027822 465207.000000 0 0 1
-34.137115 15.973732 17.336050 41.485436 -0.437663 1.139683 0.117253 -0.038153 779255.000000 0 0 1
-33.397294 16.285132 18.694250 41.593987 -0.453693 1.104651 0.156389 -0.023952 466918.000000 0 0 1
-32.939474 15.135532 19.389050 41.109957 -0.430722 1.079648 0.152313 -0.029155 207918.000000 0 0 1
-32.019334 15.496732 20.430950 41.022070 -0.450750 1.049450 0.130820 -0.027646 451157.000000 0 0 1
-32.671394 15.903332 21.768850 42.358220 -0.453005 1.031045 0.124835 -0.042273 -101676.000000 0 0 1
-33.444704 17.105032 21.656250 43.360391 -0.472759 1.047835 0.145122 -0.043264 297914.000000 0 0 1
-33.912604 17.683732 22.863350 44.559083 -0.480660 1.032002 0.153312 -0.050850 -342121.000000 0 0 1
-34.767517 16.856332 23.898950 45.432103 -0.451438 1.016863 0.124313 -0.037901 1054460.000000 0 0 1
-36.117084 16.499132 23.538150 46.159611 -0.428514 1.035693 0.135511 -0.026939 1162160.000000 0 0 1
-37.046114 17.584732 23.602250 47.314940 -0.443180 1.048545 0.124543 -0.029880 -1281050.000000 0 0 1
36.595421 17.177132 23.149850 46.585344 0.438852 1.050734 0.126568 -0.034125 -884279.000000 0 0 1
35.869171 16.626132 24.221350 46.364852 0.434041 1.021124 0.124641 -0.024210 12244.200000 0 0 1
34.642911 15.995232 23.927150 45.038731 0.432555 1.010713 0.121784 -0.023299 249386.000000 0 0 1
34.023661 15.251132 25.113750 44.954499 0.421398 0.978041 0.077368 -0.014232 -66969.600000 0 0 1
33.745191 15.997132 26.312850 45.683829 0.442678 0.956997 0.110795 -0.017186 227618.000000 0 0 1
33.631991 15.257332 27.556750 46.078970 0.425890 0.929752 0.095627 -0.016406 -322061.000000 0 0 1
32.862171 13.991232 27.819950 45.272801 0.402510 0.909049 0.086573 -0.006586 -452624.000000 0 0 1
33.443271 12.876832 27.210550 44.996436 0.367539 0.921374 0.090535 -0.018199 205532.000000 0 0 1
32.522901 11.808532 27.089050 43.943113 0.348283 0.906561 0.086449 -0.015816 216326.000000 0 0 1
33.274181 10.568332 26.516950 43.840728 0.307537 0.921222 0.099309 -0.012666 -186513.000000 0 0 1
34.176861 10.115932 27.467750 44.998525 0.287772 0.914213 0.100404 -0.011906 -572665.000000 0 0 1
34.774331 8.922532 27.151650 45.011974 0.251166 0.923277 0.094844 -0.015155 -440849.000000 0 0 1
35.808471 8.380732 28.144450 46.309754 0.229905 0.917580 0.080904 -0.014054 324107.000000 0 0 1
37.137211 8.833032 27.924450 47.296615 0.233510 0.939228 0.093794 -0.015202 197375.000000 0 0 1
-36.893644 7.979632 28.454650 47.270314 -0.213006 0.924848 0.098846 -0.018958 -241512.000000 0 0 1
-35.552507 8.655532 28.697950 46.502380 -0.238812 0.905708 0.099176 -0.015997 260165.000000 0 0 1
-34.789808 8.999632 27.496050 45.247728 -0.253137 0.917663 0.089005 -0.014772 -179424.000000 0 0 1
-33.514824 9.462232 27.744350 44.525568 -0.275168 0.898083 0.092850 0.003178 -594946.000000 0 0 1
-32.703724 10.004832 26.555850 43.299462 -0.296882 0.910556 0.092707 -0.000959 449252.000000 0 0 1
-31.992134 9.053232 25.694150 42.019603 -0.275773 0.912867 0.082500 -0.006314 671393.000000 0 0 1
-31.270864 9.737832 24.697950 41.020496 -0.301885 0.924683 0.080687 -0.002968 -185501.000000 0 0 1
-30.317584 8.807632 23.938850 39.620687 -0.282730 0.922034 0.076468 -0.002115 -36412.600000 0 0 1
-29.504044 9.394532 22.949850 38.541426 -0.308265 0.932959 0.088415 -0.006532 116655.000000 0 0 1
-28.741984 8.395632 22.282850 37.324438 -0.284197 0.931035 0.064985 0.002710 -843898.000000 0 0 1
-27.730754 8.894532 21.327950 36.096937 -0.310380 0.938682 0.069782 0.003472 -880141.000000 0 0 1
-26.587424 9.394432 22.051150 35.796644 -0.339648 0.907127 0.069307 0.001552 1057340.000000 0 0 1
-25.511924 9.979132 21.316050 34.710450 -0.372859 0.909538 0.056750 0.006824 646295.000000 0 0 1
-24.725684 9.136132 20.318250 33.281521 -0.353940 0.914109 0.049951 0.005284 -487551.000000 0 0 1
-25.442244 8.919832 19.051650 33.012673 -0.337202 0.955622 0.053013 -0.000225 525742.000000 0 0 1
-24.734784 8.209632 18.056250 31.705453 -0.320466 0.964899 0.066542 -0.012524 -266379.000000 0 0 1
-24.595384 6.683932 18.276450 31.362980 -0.265347 0.948701 0.074179 -0.014092 -34343.800000 0 0 1
-23.498984 6.342032 19.113350 30.947436 -0.263605 0.905100 0.065551 -0.009257 537432.000000 0 0 1
-23.628584 5.002532 19.512150 31.049305 -0.208634 0.891270 0.081466 -0.018593 -1863.100000 0 0 1
-23.584084 3.762032 18.553250 30.242106 -0.158183 0.910323 0.102098 -0.022424 -120670.000000 0 0 1
-24.852884 3.602932 17.927650 30.855269 -0.143967 0.950810 0.123235 -0.022914 573770.000000 0 0 1
-24.899084 2.736232 16.831550 30.178675 -0.109454 0.979148 0.128573 -0.021154 -109713.000000 0 0 1
-24.788784 1.175732 17.181550 30.183966 -0.047394 0.965230 0.124095 -0.023121 -859360.000000 0 0 1
-23.524184 0.748032 17.542350 29.354401 -0.031788 0.930285 0.114207 -0.022842 -531918.000000 0 0 1
-23.628684 -0.330068 18.430550 29.968464 0.013968 0.908413 0.137534 -0.029071 -207952.000000 0 0 1
-22.390784 -1.250568 18.548750 29.102702 0.055794 0.879736 0.135343 -0.023522 160062.000000 0 0 1
-21.346384 -0.678768 19.328250 28.804689 0.031787 0.835225 0.111540 -0.024305 146546.000000 0 0 1
-20.364684 -1.636968 19.655350 28.350182 0.080210 0.804730 0.100334 -0.026776 -261355.000000 0 0 1
-19.265584 -1.122868 20.584650 28.216155 0.058218 0.753156 0.113908 -0.024658 -173890.000000 0 0 1
-19.627684 -1.154068 21.919550 29.445620 0.058730 0.731149 0.104374 -0.017955 -133948.000000 0 0 1
-18.631084 -0.604668 22.770250 29.427321 0.032443 0.686011 0.077403 -0.019039 -290077.000000 0 0 1
-18.961584 -0.653168 24.277550 30.811812 0.034433 0.663356 0.085502 -0.015354 233322.000000 0 0 1
-19.859784 0.329532 24.764850 31.746140 -0.016591 0.675986 0.078324 -0.022177 -801642.000000 0 0 1
-21.189484 -0.057968 24.716350 32.556037 0.002736 0.708722 0.144175 -0.026022 -954833.000000 0 0 1
-22.136184 0.926232 25.434950 33.731369 -0.041818 0.716598 0.113165 -0.029138 -189674.000000 0 0 1
-22.184784 2.227632 24.843750 33.381715 -0.100077 0.731412 0.092595 -0.025197 -42818.500000 0 0 1
-23.332784 2.475732 24.075250 33.617938 -0.105710 0.772536 0.095922 -0.022744 -1015470.000000 0 0 1
-23.157784 3.796132 23.222250 33.014641 -0.162480 0.790637 0.099388 -0.022244 378292.000000 0 0 1
-22.309184 3.686732 22.091150 31.611875 -0.163776 0.797044 0.103008 -0.021409 -22150.100000 0 0 1
-20.966484 3.354132 22.252150 30.757143 -0.158632 0.761968 0.100717 -0.023265 -916232.000000 0 0 1
-20.282684 2.603032 21.066050 29.358841 -0.127640 0.770537 0.092580 -0.023307 -136465.000000 0 0 1
-19.821084 3.460132 20.042950 28.400136 -0.172827 0.787337 0.078156 -0.016054 257592.000000 0 0 1
-19.455184 2.606332 18.924450 27.265949 -0.133173 0.803670 0.102412 -0.026866 158347.000000 0 0 1
-18.815784 3.370232 17.732750 26.073792 -0.177238 0.822899 0.072543 -0.022125 -938879.000000 0 0 1
-17.528084 3.847832 17.795150 25.272652 -0.216096 0.789604 0.094338 -0.033973 -873182.000000 0 0 1
-17.180384 4.451432 16.599350 24.300602 -0.253525 0.818819 0.098075 -0.027970 109950.000000 0 1 0
-15.856784 5.266232 16.658750 23.594168 -0.320651 0.786886 0.106481 -0.026264 -81077.800000 0 1 0
-15.749084 6.519332 17.344150 24.317790 -0.392474 0.776702 0.106816 -0.030090 41827.900000 0 1 0
-16.444284 7.629832 16.793150 24.711105 -0.434419 0.823608 0.114094 -0.033129 -218692.000000 0 1 0
-15.899484 8.130732 15.467650 23.625211 -0.472713 0.856998 0.067461 -0.038831 -145924.000000 0 1 0
-16.166984 7.391332 14.299650 22.814100 -0.428814 0.893370 0.103352 -0.038278 620379.000000 0 1 0
-17.513384 7.483732 13.844050 23.545331 -0.403830 0.942244 0.075131 -0.044132 370538.000000 0 1 0
-17.624984 6.530732 12.622750 22.641209 -0.354853 0.979410 0.080078 -0.041274 -101288.000000 0 1 0
-17.355384 5.227132 13.064550 22.343114 -0.292541 0.946257 0.075324 -0.030548 204628.000000 0 1 0
-17.674884 4.311532 12.117150 21.859007 -0.239263 0.983236 0.057098 -0.037716 -31694.200000 0 1 0
-17.416684 2.919532 12.559250 21.670240 -0.166084 0.952605 0.064068 -0.012499 -513701.000000 0 1 0
-18.271084 2.420032 13.552550 22.877078 -0.131685 0.936753 0.082369 -0.029591 76128.700000 0 1 0
-18.032384 1.029232 13.776250 22.715881 -0.057015 0.919197 0.080844 -0.019405 207640.000000 0 1 0
-19.150484 0.483332 14.737350 24.169488 -0.025233 0.915051 0.106969 -0.032179 1162630.000000 0 1 0
-20.453784 0.560732 14.123250 24.862379 -0.027408 0.966653 0.124274 -0.030135 874710.000000 0 1 0
-21.461784 0.050332 14.974450 26.169541 -0.002345 0.961599 0.127129 -0.036065 -120434.000000 0 0 1
-22.865284 -0.026668 14.366150 27.003855 0.001166 1.009831 0.134035 -0.033067 -295312.000000 0 0 1
-22.848884 -1.102668 13.470750 26.547099 0.048222 1.038599 0.143401 -0.038487 2276680.000000 0 0 1
-24.122884 -1.176768 12.703950 27.288984 0.048744 1.086558 0.160481 -0.029666 1895310.000000 0 0 1
-24.070384 -2.479368 11.842350 26.940154 0.102643 1.115665 0.161330 -0.034856 -50613.500000 0 0 1
-23.846984 -3.666068 12.520350 27.182308 0.152539 1.092118 0.133481 -0.029583 308024.000000 0 0 1
-23.620684 -4.745068 11.628350 26.752026 0.198247 1.121123 0.115714 -0.023463 -59269.300000 0 0 1
-23.505884 -6.117268 12.327850 27.238272 0.254597 1.101125 0.105087 -0.019290 343682.000000 0 0 1
-24.756684 -6.464368 12.908050 28.658318 0.255413 1.103570 0.118245 -0.018411 477699.000000 0 0 1
-24.767184 -7.879268 13.130250 29.118718 0.308009 1.102999 0.115210 -0.020211 -4919.470000 0 0 1
-25.581884 -8.271068 14.382050 30.490765 0.312709 1.079595 0.123933 -0.015671 1097090.000000 0 0 1
-26.981864 -7.953168 14.282150 31.547641 0.286642 1.100986 0.142172 -0.021677 1114540.000000 0 0 1
-27.780094 -8.308468 15.421950 32.842059 0.290612 1.081982 0.137772 -0.014118 -300132.000000 0 0 1
-29.231764 -7.846368 15.255550 33.893854 0.262238 1.103921 0.151868 -0.025012 213127.000000 0 0 1
-30.131184 -8.401568 14.250550 34.373722 0.271926 1.143319 0.139218 -0.025719 1084420.000000 0 0 1
-30.375574 -9.843568 14.377450 35.018315 0.313383 1.147718 0.129416 -0.024964 -606967.000000 0 0 1
-30.981734 -10.502868 15.616550 36.249893 0.326844 1.125414 0.131282 -0.031107 222151.000000 0 0 1
-29.986824 -10.640468 16.670350 35.921160 0.340978 1.088199 0.127202 -0.024413 984326.000000 0 0 1
-30.509644 -11.166468 17.909250 37.098108 0.350855 1.067000 0.109008 -0.023702 744527.000000 0 0 1
-29.357894 -11.213368 18.997650 36.722422 0.364853 1.027067 0.125005 -0.025374 1600680.000000 0 0 1
-28.293344 -12.115368 18.575750 35.949325 0.404583 1.027780 0.113040 -0.023315 915316.000000 0 0 1
-27.088974 -11.835268 19.285850 35.296318 0.411910 0.992738 0.110166 -0.026454 362832.000000 0 0 1
-25.830224 -12.601668 18.826350 34.357444 0.453893 0.990878 0.097113 -0.020289 -237476.000000 0 0 1
-25.547164 -12.182568 17.541350 33.298221 0.444970 1.015970 0.097570 -0.016189 -361481.000000 0 0 1
-24.705584 -13.134668 16.965050 32.721527 0.488644 1.025738 0.088806 -0.027398 -476515.000000 0 0 1
-24.330984 -12.829168 15.509350 31.577275 0.485230 1.057381 0.082087 -0.022197 -552061.000000 0 0 1
-23.325884 -11.861768 15.397750 30.362627 0.470443 1.038947 0.072863 -0.020473 -353738.000000 0 0 1
-23.075384 -11.591468 13.997750 29.372989 0.465510 1.074068 0.063545 -0.012436 -336340.000000 0 0 1
-21.717284 -10.980468 13.657750 27.906007 0.468125 1.059372 0.071128 -0.020088 -440767.000000 0 0 1
-21.507684 -9.561568 13.871850 27.320913 0.418325 1.038240 0.083116 -0.030722 551527.000000 0 0 1
-20.175684 -9.097568 13.635450 25.995182 0.423617 1.018624 0.085530 -0.025267 658276.000000 0 0 1
-19.623384 -8.988168 12.168450 24.777723 0.429514 1.057439 0.088752 -0.013498 -311914.000000 0 1 0
-19.147184 -10.185268 11.560650 24.576472 0.488877 1.081058 0.085324 -0.025737 355278.000000 0 1 0
-19.010584 -10.247068 10.149950 23.862653 0.494374 1.131449 0.102252 -0.022920 -1275780.000000 0 1 0
-18.419384 -11.546668 9.638050 23.780060 0.559947 1.153490 0.091327 -0.017349 793752.000000 0 1 0
-16.998384 -11.749468 9.747050 22.847320 0.604803 1.130048 0.109100 -0.027205 1063780.000000 0 1 0
-16.494884 -11.756168 11.043750 23.070611 0.619209 1.071630 0.105306 -0.021988 -1500150.000000 0 1 0
-14.991884 -11.991468 11.134750 22.193119 0.674658 1.045209 0.108400 -0.022255 -408458.000000 0 1 0
-14.560784 -13.349168 10.960050 22.590693 0.742014 1.064253 0.101620 -0.025367 283179.000000 0 1 0
-13.151484 -13.401368 10.817050 21.669489 0.794809 1.048140 0.102852 -0.034589 377628.000000 0 1 0
-12.656684 -14.896868 10.751150 22.309091 0.866523 1.067954 0.104870 -0.036248 181691.000000 0 1 0
-13.052784 -15.550568 9.557950 22.439914 0.872502 1.130801 0.089182 -0.035513 316899.000000 0 1 0
-12.595584 -16.931168 9.671750 23.213271 0.931192 1.141042 0.081379 -0.024400 333493.000000 0 1 0
-12.933884 -17.749668 8.466850 23.537706 0.941078 1.202835 0.075217 -0.014749 247071.000000 0 1 0
-11.890884 -17.649368 7.516450 22.569677 0.977921 1.231278 0.055095 -0.013376 183402.000000 0 1 0
-12.348384 -18.341068 6.338950 23.001297 0.978240 1.291592 0.030962 -0.015944 294188.000000 0 1 0
-11.436684 -18.156268 5.076850 22.050447 1.008679 1.338474 0.042233 -0.018845 -49254.200000 0 1 0
-11.740984 -19.051368 4.010350 22.735176 1.018492 1.393474 0.056045 -0.018400 364686.000000 0 1 0
-10.906284 -18.760168 2.908250 21.894037 1.044201 1.437570 0.072230 -0.033925 151191.000000 0 1 0
-11.408484 -19.555368 1.663950 22.700983 1.042677 1.497432 0.083126 -0.032643 64397.000000 0 1 0
-11.162384 -20.946068 1.749250 23.799085 1.081168 1.497229 0.068343 -0.029623 -235939.000000 0 1 0
-11.656584 -21.789968 0.767050 24.723815 1.079580 1.539767 0.071235 -0.024734 -227425.000000 0 1 0
-10.992684 -21.677368 -0.663950 24.314362 1.101482 1.598107 0.089787 -0.029202 -160854.000000 0 1 0
-11.248284 -20.577568 -1.476350 23.497655 1.070545 1.633667 0.100275 -0.048889 188018.000000 0 1 0
-12.352984 -20.756468 -2.355850 24.268852 1.033959 1.668022 0.118365 -0.032993 1445680.000000 0 1 0
-13.739684 -20.149868 -1.874850 24.460399 0.972339 1.647520 0.153212 -0.026867 889969.000000 0 1 0
-14.285084 -20.654968 -0.679250 25.122753 0.965727 1.597837 0.136877 -0.022088 -955141.000000 0 0 1
-15.319084 -19.870568 -0.239450 25.091256 0.914026 1.580340 0.150823 -0.011897 -604113.000000 0 0 1
27.032216 -19.697968 -3.664950 33.647920 -0.629719 1.679933 0.109817 -0.030731 267324.000000 0 0 1
25.727116 -20.101868 -3.258650 32.811406 -0.663265 1.670275 0.101354 -0.033508 481852.000000 0 0 1
25.785916 -21.259768 -2.465050 33.510710 -0.689486 1.644423 0.097911 -0.029632 -111223.000000 0 0 1
24.453316 -21.631568 -1.781850 32.696550 -0.724245 1.625320 0.089132 -0.028504 -519083.000000 0 0 1
23.503316 -22.039768 -2.684950 32.332123 -0.753274 1.653935 0.092465 -0.037312 -161623.000000 0 0 1
22.282216 -22.349668 -1.982650 31.621760 -0.786909 1.633536 0.069112 -0.031427 858045.000000 0 0 1
21.179516 -22.979268 -2.875750 31.382935 -0.826132 1.662559 0.078059 -0.037241 113975.000000 0 0 1
20.560216 -21.997568 -3.690050 30.335325 -0.819159 1.692740 0.079703 -0.044111 -523613.000000 0 0 1
19.734416 -22.689168 -4.603450 30.421000 -0.854935 1.722705 0.092681 -0.034448 -489467.000000 0 0 1
18.765016 -21.767968 -5.309350 29.226006 -0.859350 1.753476 0.085645 -0.026158 -368561.000000 0 0 1
17.651016 -21.227968 -4.615150 27.990795 -0.877142 1.736434 0.093579 -0.024285 244363.000000 0 0 1
17.895416 -20.330368 -3.576850 27.319656 -0.849011 1.702099 0.075977 -0.031116 -734680.000000 0 0 1
16.681716 -19.941668 -2.707450 26.139626 -0.874177 1.674559 0.083518 -0.017576 -173750.000000 0 0 1
16.325316 -20.964668 -1.854650 26.635934 -0.909175 1.640482 0.082298 -0.024161 231901.000000 0 0 1
15.275916 -20.339968 -1.106450 25.461581 -0.926637 1.614266 0.084126 -0.014269 -15596.900000 0 0 1
14.979016 -21.002868 0.247350 25.798305 -0.951273 1.561208 0.075999 -0.016648 74388.900000 0 0 1
14.282116 -22.258768 0.201950 26.447540 -1.000321 1.563160 0.090215 -0.015582 46275.300000 0 0 1
13.785916 -22.456368 1.514350 26.393810 -1.020220 1.513390 0.073516 -0.006183 115262.000000 0 0 1
12.650016 -23.509068 1.643550 26.746970 -1.077142 1.509309 0.079476 -0.015590 -32275.200000 0 0 1
13.076316 -24.817768 1.820450 28.110953 -1.085866 1.505992 0.071699 -0.016160 -244699.000000 0 0 1
12.027116 -25.743958 1.831950 28.473829 -1.133746 1.506414 0.072016 -0.005022 -339239.000000 0 0 1
12.385916 -27.049318 2.559450 29.860129 -1.141391 1.484976 0.073702 -0.012438 -100993.000000 0 0 1
12.352716 -26.998688 3.995350 29.957997 -1.141698 1.437033 0.080861 -0.015056 88708.300000 0 0 1
12.838416 -28.192598 4.506250 31.304214 -1.143475 1.426344 0.076472 -0.015181 109002.000000 0 0 1
12.051716 -28.595568 5.776750 31.564556 -1.171933 1.386745 0.081662 -0.023976 -281218.000000 0 0 1
12.759016 -29.617338 6.349650 32.867876 -1.164027 1.376387 0.072044 -0.023089 -350948.000000 0 0 1
12.324616 -29.826078 7.662750 33.169396 -1.178949 1.337672 0.076505 -0.027237 -249358.000000 0 0 1
13.240516 -30.796968 8.454150 34.572202 -1.164758 1.323755 0.077362 -0.025919 46242.400000 0 0 1
12.809716 -31.288188 9.716350 35.177365 -1.182204 1.290948 0.078066 -0.021074 -793816.000000 0 0 1
11.698616 -32.100168 9.788350 35.539980 -1.221315 1.291772 0.069446 -0.014641 -461771.000000 0 0 1
11.280016 -32.283108 11.295950 36.014390 -1.234648 1.251761 0.080901 -0.019340 -178872.000000 0 0 1
12.228916 -33.067028 11.994950 37.240483 -1.216573 1.242855 0.081652 -0.025640 163431.000000 0 0 1
11.947116 -33.316148 13.391250 37.842104 -1.226482 1.209089 0.090278 -0.021968 -22590.300000 0 0 1
10.958316 33.242189 13.741050 37.602451 1.252364 1.196702 0.097732 -0.023575 -91521.000000 0 0 1
11.406216 32.022604 13.244850 36.482530 1.228615 1.199261 0.112374 -0.024119 -156101.000000 0 0 1
10.413416 31.037476 13.315850 35.342270 1.247087 1.184491 0.102094 -0.017027 -335511.000000 0 0 1
10.731316 29.841286 12.420250 34.057688 1.225583 1.197504 0.102978 -0.014732 -143988.000000 0 0 1
10.469616 30.076306 11.063850 33.713586 1.235814 1.236429 0.083766 -0.009598 -645304.000000 0 0 1
11.507016 30.764596 10.450750 34.468681 1.212873 1.262752 0.057444 -0.007405 -751592.000000 0 0 1
11.188816 31.359496 9.058750 34.506066 1.228084 1.305157 0.041379 -0.007114 228971.000000 0 0 1
10.112816 32.309975 9.075450 35.050925 1.267462 1.308891 0.059517 -0.011387 122766.000000 0 0 1
9.514216 32.284044 7.802250 34.549312 1.284206 1.343002 0.055578 -0.003707 -102606.000000 0 0 1
9.871916 33.502727 6.927450 35.607261 1.284246 1.374996 0.052831 -0.002683 82899.600000 0 0 1
9.131816 -33.032588 7.274950 35.035223 -1.301084 1.361628 0.059046 -0.008430 46448.800000 0 0 1
9.528716 -32.027368 6.429450 34.027732 -1.281618 1.380706 0.066308 -0.016923 -409261.000000 0 0 1
8.738116 -30.778318 6.604150 32.669165 -1.294170 1.367241 0.071639 -0.015044 -448092.000000 0 0 1
8.953016 -30.162878 7.871950 32.433367 -1.282257 1.325636 0.083070 -0.021453 101504.000000 0 0 1
8.176216 -28.995338 8.003050 31.170963 -1.295949 1.311141 0.097576 -0.023134 -129734.000000 0 0 1
8.922916 -27.735088 7.511650 30.087845 -1.259534 1.318470 0.099581 -0.027761 -619543.000000 0 0 1
9.708416 -27.234218 8.552150 30.151206 -1.228362 1.283206 0.103222 -0.035953 -198842.000000 0 0 1
10.524816 -26.106358 8.252750 29.332943 -1.187576 1.285598 0.108166 -0.039360 -104335.000000 0 0 1
10.008816 -24.884968 7.450950 27.838008 -1.188392 1.299839 0.093727 -0.037889 -362278.000000 0 0 1
9.878016 -25.294158 6.133350 27.838599 -1.198484 1.348656 0.095682 -0.028877 -272797.000000 0 0 1
9.087816 -24.366068 5.428350 26.566156 -1.213806 1.365014 0.087107 -0.018774 123880.000000 0 0 1
8.686716 -24.796368 4.022950 26.580125 -1.233835 1.418861 0.078056 -0.010720 1054440.000000 0 0 1
7.591016 -25.749878 3.876050 27.123855 -1.284119 1.427404 0.066883 -0.011137 620964.000000 0 0 1
7.953016 -27.081638 4.163150 28.530639 -1.285159 1.424355 0.064160 -0.014796 -160468.000000 0 0 1
7.007416 -28.110818 3.509850 29.182889 -1.326497 1.450234 0.070403 -0.011741 -196783.000000 0 0 1
5.962416 -28.450398 4.362050 29.393928 -1.364214 1.421846 0.063036 -0.012656 -263511.000000 0 0 1
4.948316 -29.315998 3.835650 29.977087 -1.403580 1.442492 0.064549 -0.007849 630816.000000 0 0 1
5.133216 -30.854438 4.056350 31.540454 -1.405937 1.441831 0.073218 -0.003538 169756.000000 0 0 1
6.249516 -31.349928 3.329450 32.139690 -1.374029 1.467017 0.074469 -0.004180 141586.000000 0 0 1
6.479716 -32.765088 3.530850 33.585780 -1.375553 1.465472 0.070965 -0.004353 -369868.000000 0 0 1
7.654916 -33.310588 2.759550 34.290059 -1.344914 1.490233 0.069300 -0.005426 -454849.000000 0 0 1
7.272716 -33.595338 1.415450 34.402654 -1.357606 1.529641 0.075421 -0.009391 206640.000000 0 0 1
8.160216 33.194972 0.771150 34.191958 1.329749 1.548241 0.067430 -0.007881 -20317.700000 0 0 1
7.451016 32.663245 -0.483150 33.505800 1.346518 1.585217 0.086121 -0.012195 779448.000000 0 0 1
6.367516 31.774680 -0.224950 32.407193 1.373020 1.577738 0.062965 -0.008521 379660.000000 0 0 1
5.075616 32.366601 -0.355750 32.764086 1.415247 1.581654 0.065790 -0.014914 376327.000000 0 0 1
3.947116 31.357736 -0.023550 31.605188 1.445581 1.571541 0.069121 -0.015982 69078.500000 0 0 1
3.779316 30.368386 -0.965650 30.617880 1.446984 1.602340 0.070613 -0.014940 -849907.000000 0 0 1
2.473816 29.915006 -0.976250 30.032989 1.488289 1.603308 0.063635 -0.021922 -647647.000000 0 0 1
2.161916 28.893316 -2.056750 29.046994 1.496111 1.641663 0.050884 -0.022004 -199694.000000 0 0 1
2.069416 29.466006 -3.341450 29.726979 1.500681 1.683439 0.064905 -0.032795 24370.900000 0 0 1
1.891216 28.434056 -4.278650 28.816299 1.504382 1.719828 0.072572 -0.033025 -75719.000000 0 0 1
1.784316 29.055016 -5.697050 29.661998 1.509462 1.764063 0.077607 -0.034918 -176909.000000 0 0 1
0.572316 29.746896 -5.873250 30.326563 1.551559 1.765695 0.083066 -0.034061 2312.780000 0 0 1
0.500516 30.345046 -7.128350 31.175082 1.554304 1.801493 0.076157 -0.033421 -115464.000000 0 0 1
0.441716 29.480156 -8.433750 30.665989 1.555814 1.849406 0.081649 -0.034395 -596925.000000 0 0 1
-0.853284 28.980466 -8.701450 30.270625 -1.541361 1.862365 0.093745 -0.031670 190660.000000 0 0 1
-1.077884 28.662726 -10.049950 30.392683 -1.533208 1.907810 0.101102 -0.033507 -59162.600000 0 0 1
-1.398584 29.859046 -10.927350 31.826493 -1.523991 1.921268 0.077511 -0.032461 -108855.000000 0 0 1
-0.205284 30.506726 -11.366050 32.555945 -1.564067 1.927432 0.076371 -0.026899 338479.000000 0 0 1
-0.373984 31.871057 -11.702550 33.953701 -1.559063 1.922675 0.063649 -0.032887 50112.900000 0 0 1
-0.525784 32.938700 -10.494150 34.574002 -1.554835 1.879189 0.058354 -0.034997 141988.000000 0 0 1
0.589616 33.007876 -9.623550 34.387211 1.552935 1.854443 0.060677 -0.041940 83428.800000 0 0 1
0.252716 -33.771308 -8.597250 34.849359 -1.563313 1.820067 0.061499 -0.033103 -186392.000000 0 0 1
1.375816 -33.449598 -7.586450 34.326705 -1.529688 1.793643 0.062917 -0.030437 64206.400000 0 0 1
2.413916 -32.665088 -8.152050 33.753383 -1.497031 1.814726 0.073595 -0.032181 -324356.000000 0 0 1
3.413116 -32.503748 -7.183250 33.462547 -1.466173 1.787146 0.072167 -0.037441 -734759.000000 0 0 1
4.684816 -31.736698 -7.650850 32.980312 -1.424240 1.804911 0.060642 -0.031576 280469.000000 0 0 1
5.582316 -32.395708 -8.516250 33.958366 -1.400156 1.824287 0.077373 -0.026000 -79708.200000 0 0 1
6.421016 -33.251368 -7.799450 34.752184 -1.380039 1.797155 0.089717 -0.016247 -1658110.000000 0 0 1
6.644416 33.089157 -8.471650 34.796687 1.372628 1.816729 0.082532 -0.016689 -694807.000000 0 0 1
5.574516 32.234339 -8.630650 33.832174 1.399553 1.828749 0.075645 -0.014513 -963947.000000 0 0 1
4.613116 32.627685 -9.583050 34.317364 1.430341 1.853807 0.075137 -0.024148 -234824.000000 0 0 1
3.724816 31.418166 -9.880350 33.145086 1.452791 1.873492 0.066021 -0.032199 -178050.000000 0 0 1
4.469016 30.424026 -10.521050 32.500553 1.424948 1.900454 0.053988 -0.023727 67742.400000 0 0 1
3.693116 29.283966 -10.716750 31.401250 1.445345 1.919079 0.052183 -0.028425 76607.200000 0 0 1
4.477316 28.368776 -11.660950 30.996961 1.414262 1.956484 0.055109 -0.026027 129795.000000 0 0 1
4.424916 28.855296 -12.951750 31.936747 1.418633 1.988370 0.059620 -0.024530 -20255.600000 0 0 1
5.390916 28.238376 -13.762550 31.872804 1.382159 2.017279 0.055417 -0.031688 -237119.000000 0 0 1
5.354716 28.693826 -15.207850 32.913331 1.386303 2.051110 0.060442 -0.024338 90542.100000 0 0 1
4.252316 28.193526 -15.951850 32.671373 1.421099 2.080881 0.054660 -0.023478 172051.000000 0 0 1
4.168616 28.771946 -17.218450 33.788715 1.426913 2.105507 0.084372 -0.024847 37205.800000 0 0 1
3.082616 28.098456 -18.072150 33.550385 1.461526 2.139639 0.072339 -0.037990 71052.700000 0 0 1
3.492516 26.833116 -18.448350 32.749892 1.441367 2.169183 0.093672 -0.028926 -284513.000000 0 0 1
2.515616 26.257156 -19.266550 32.664453 1.475281 2.201647 0.100463 -0.039965 -30356.500000 0 0 1
3.011016 25.014176 -20.053350 32.201119 1.451000 2.243053 0.118754 -0.040634 113689.000000 0 0 1
3.401316 23.931846 -19.195150 30.866746 1.429617 2.241927 0.116720 -0.041580 4815.020000 0 0 1
4.434616 23.144666 -19.740250 30.741159 1.381486 2.268088 0.124682 -0.035041 121779.000000 0 0 1
4.934116 22.029406 -18.816150 29.388565 1.350454 2.265625 0.122990 -0.031051 -467168.000000 0 0 1
4.047416 20.980406 -18.686550 28.385668 1.380223 2.289367 0.153794 -0.027492 -767996.000000 0 0 1
4.565516 19.881806 -17.953750 27.174755 1.345077 2.292517 0.137392 -0.022748 -301891.000000 0 0 1
3.666616 18.670006 -17.673750 25.968724 1.376874 2.319348 0.122197 -0.031605 -758917.000000 0 0 1
2.736516 19.007506 -16.712350 25.457346 1.427809 2.286945 0.121577 -0.032164 -51017.100000 0 0 1
1.749716 17.988706 -16.415250 24.415476 1.473834 2.308148 0.086212 -0.021215 520123.000000 0 1 0
2.235216 16.923206 -15.440950 23.017689 1.439476 2.306123 0.075471 -0.018635 474599.000000 0 1 0
3.339716 16.170106 -16.009550 22.998516 1.367124 2.340764 0.080944 -0.026161 364913.000000 0 1 0
3.053416 15.023506 -16.822350 22.760065 1.370285 2.402555 0.085676 -0.033613 -303007.000000 0 1 0
2.978116 15.151406 -18.384350 24.008719 1.376713 2.442982 0.083479 -0.028210 -183949.000000 0 1 0
4.293716 15.356806 -18.878750 24.711833 1.298161 2.440218 0.112801 -0.032912 160203.000000 0 1 0
4.277016 15.890806 -20.214850 26.066276 1.307877 2.458330 0.104499 -0.030150 -533298.000000 0 0 1
4.472816 14.814806 -21.340050 26.360620 1.277583 2.514169 0.103315 -0.042760 222110.000000 0 0 1
3.400316 13.919906 -21.601250 25.921804 1.331211 2.555889 0.093293 -0.034892 -827166.000000 0 0 1
2.263316 14.536806 -22.096750 26.546331 1.416341 2.554192 0.096749 -0.036425 -1641720.000000 0 0 1
1.400216 13.477006 -22.672250 26.412520 1.467271 2.602920 0.089768 -0.022007 -998713.000000 0 0 1
0.816316 12.702906 -21.680450 25.141044 1.506622 2.610695 0.087001 -0.015905 -165374.000000 0 0 1
0.137616 11.627206 -22.328850 25.175154 1.558961 2.661474 0.055257 -0.009553 -25631.400000 0 0 1
-0.587284 10.716406 -21.325550 23.873947 -1.516049 2.675333 0.028260 -0.002488 -463308.000000 0 1 0
-1.694184 11.282306 -20.651050 23.592934 -1.421747 2.636866 0.030250 0.000683 27023.900000 0 1 0
-2.163584 10.458506 -19.601750 22.322411 -1.366801 2.642714 0.018219 0.004896 601529.000000 0 1 0
-3.270884 9.431806 -20.058750 22.405604 -1.236981 2.679802 0.025647 0.002059 -62481.300000 0 1 0
-2.745884 8.369706 -20.853850 22.637909 -1.253787 2.741928 0.024045 0.006527 735823.000000 0 1 0
-3.712984 7.291206 -21.067350 22.600468 -1.099783 2.771142 0.027423 0.004339 872263.000000 0 1 0
-3.012284 6.147806 -21.867850 22.914454 -1.115199 2.838191 0.031123 -0.004632 368131.000000 0 1 0
-2.150784 5.378606 -21.060350 21.842472 -1.190396 2.873178 0.035775 -0.005241 -17650.100000 0 1 0
-1.694084 4.225006 -21.753150 22.224314 -1.189457 2.935313 0.061548 -0.010942 106916.000000 0 1 0
-0.904484 3.107306 -21.014150 21.261889 -1.287540 2.988789 0.059016 -0.009626 1314040.000000 0 1 0
0.525516 3.317606 -20.923650 21.191550 1.413699 2.982416 0.041516 -0.006413 689384.000000 0 1 0
1.054416 2.272106 -20.173550 20.328462 1.136304 3.018060 0.044887 -0.002429 -959291.000000 0 1 0
2.560016 2.211006 -20.240950 20.521654 0.712376 2.976004 0.034476 -0.007566 -1059980.000000 0 1 0
3.042516 1.825606 -21.491750 21.782678 0.540443 2.977973 0.058695 -0.007876 -12962.500000 0 1 0
4.444616 1.680306 -21.280650 21.804680 0.361446 2.921912 0.069246 -0.012517 173618.000000 0 1 0
5.210716 1.389006 -22.563550 23.199023 0.260510 2.906994 0.077557 -0.009126 1404560.000000 0 1 0
6.641416 1.163106 -22.316850 23.313151 0.173371 2.848187 0.071274 -0.021870 1467860.000000 0 1 0
7.186016 0.673006 -23.523950 24.606259 0.093383 2.843897 0.076467 -0.021296 752620.000000 0 1 0
8.753916 0.645406 -23.298350 24.897002 0.073595 2.781288 0.087831 -0.033121 702237.000000 0 1 0
9.221616 1.920606 -23.427450 25.250195 0.205337 2.759302 0.082083 -0.041261 -1304540.000000 0 0 1
10.574116 1.811906 -23.673050 25.990541 0.169705 2.716095 0.095403 -0.035296 -1339440.000000 0 0 1
13.363916 -19.852668 22.529373 32.867846 -0.978315 0.815570 0.109970 -0.013884 -248414.000000 0 0 1
12.854216 -21.186968 22.365973 33.381960 -1.025462 0.836585 0.098571 -0.008620 770382.000000 0 0 1
11.637916 -21.339668 21.604873 32.520656 -1.071518 0.844182 0.087410 0.000766 834256.000000 0 0 1
11.747316 -20.921268 20.165973 31.342708 -1.059166 0.871862 0.115863 -0.018776 -354167.000000 0 0 1
11.812516 -19.514168 19.942373 30.299118 -1.026467 0.852393 0.146809 -0.027167 -114695.000000 0 0 1
11.886416 -19.254868 18.537173 29.251728 -1.017739 0.884454 0.153935 -0.025369 29022.300000 0 0 1
11.762916 -17.762568 18.133373 27.976673 -0.985871 0.865630 0.184024 -0.044518 -1211.980000 0 0 1
10.513416 -17.151168 18.340573 27.222621 -1.020883 0.831558 0.210910 -0.050079 -439017.000000 0 0 1
10.520616 -15.725868 18.040773 26.142987 -0.981180 0.809196 0.218869 -0.047135 13567.000000 0 0 1
9.281716 -15.039468 18.641673 25.687503 -1.017857 0.758731 0.183543 -0.042068 -201675.000000 0 0 1
8.089816 -15.628968 18.203373 25.319411 -1.093155 0.768507 0.149597 -0.032594 -480841.000000 0 0 1
6.993316 -14.897468 18.751073 24.948823 -1.131903 0.720340 0.110091 -0.019063 952006.000000 0 1 0
5.589416 -15.415968 18.284873 24.560746 -1.222965 0.731047 0.035309 -0.001803 233110.000000 0 1 0
5.233516 -14.946468 16.992473 23.227801 -1.233987 0.750193 0.005100 -0.008898 -249983.000000 0 1 0
3.866316 -15.102968 16.701973 22.847406 -1.320181 0.750977 -0.009644 -0.003582 -38965.600000 0 1 0
3.406116 -16.547968 16.406773 23.550352 -1.367799 0.800054 -0.003876 -0.001498 -1052530.000000 0 1 0
2.021216 -16.589268 16.302873 23.346794 -1.449555 0.797788 -0.004812 0.007884 -1104590.000000 0 1 0
1.502816 -17.900768 16.266973 24.234487 -1.487040 0.834926 0.023400 0.002328 518202.000000 0 1 0
-0.009384 -17.895468 15.931273 23.959410 1.570272 0.843399 0.035731 0.009792 254374.000000 0 1 0
-0.168484 -17.415668 14.624473 22.742231 1.561122 0.872317 0.040530 -0.004233 424303.000000 0 1 0
-1.548084 -17.439368 14.238673 22.566965 1.482259 0.888017 0.039081 -0.005248 630774.000000 0 1 0
-1.930084 -18.385268 13.089773 22.651390 1.466200 0.954668 0.036429 -0.005186 474486.000000 0 1 0
-3.339084 -18.588568 13.019373 22.938797 1.393061 0.967245 0.027795 -0.008632 271140.000000 0 1 0
-3.545884 -19.765968 12.266773 23.531691 1.393291 1.022438 0.055673 -0.019674 241012.000000 0 1 0
-5.001684 -20.280368 12.170473 24.174999 1.328995 1.043230 0.034846 -0.016306 392485.000000 0 1 0
-5.544384 -20.669268 13.439373 25.270053 1.308723 1.010036 0.024421 -0.017168 637075.000000 0 0 1
-6.902984 -21.109368 13.287573 25.880807 1.254747 1.031638 0.019329 -0.020353 613448.000000 0 0 1
-7.509084 -21.827968 14.491573 27.255315 1.239466 1.010193 0.037977 -0.026683 -1493300.000000 0 0 1
-8.865184 -21.828668 14.546473 27.689025 1.185020 1.017668 0.033883 -0.027819 -1772920.000000 0 0 1
-9.457484 -22.582168 15.618573 29.040285 1.174186 1.002942 0.037959 -0.033427 134911.000000 0 0 1
-10.941484 -22.174468 15.586373 29.229405 1.112421 1.008367 0.066834 -0.036494 -206798.000000 0 0 1
-11.050384 -20.841968 16.040373 28.527043 1.083283 0.973648 0.058833 -0.034691 -831485.000000 0 0 1
-12.249384 -20.244368 15.681073 28.386227 1.026653 0.985534 0.081811 -0.032156 -467038.000000 0 0 1
-12.496384 -18.944768 16.479273 28.046930 0.987687 0.942755 0.089274 -0.025646 -27024.400000 0 0 1
-12.633184 -19.324368 17.838573 29.176073 0.991794 0.912954 0.091927 -0.031879 -182638.000000 0 0 1
-12.966384 -18.253068 18.657773 29.144710 0.953146 0.876068 0.097977 -0.035027 -139505.000000 0 0 1
-13.481884 -18.690868 20.055873 30.550741 0.945912 0.854657 0.099250 -0.034166 -139613.000000 0 0 1
-14.613984 -19.501968 19.859973 31.437459 0.927705 0.887014 0.095413 -0.028090 -577696.000000 0 0 1
-15.178984 -19.892568 21.055273 32.702299 0.918997 0.871281 0.085676 -0.025595 207204.000000 0 0 1
-16.577784 -20.545168 20.827373 33.625977 0.891866 0.902839 0.091063 -0.023957 -679436.000000 0 0 1
-16.627284 -21.687568 20.038773 33.887602 0.916709 0.938089 0.094198 -0.026602 -118609.000000 0 0 1
-17.866184 -21.945068 19.415273 34.318207 0.887497 0.969463 0.088982 -0.019499 465493.000000 0 0 1
-19.015284 -22.392368 20.386573 35.757678 0.866775 0.964131 0.092669 -0.026327 -284495.000000 0 0 1
-19.540384 -21.382268 21.222073 35.908277 0.830377 0.938489 0.089797 -0.021762 598769.000000 0 0 1
-20.591084 -21.836068 22.123073 37.285881 0.814734 0.935599 0.083807 -0.016155 831491.000000 0 0 1
-21.024184 -20.759368 23.143333 37.531074 0.779060 0.906323 0.072218 -0.007659 -596419.000000 0 0 1
-22.089584 -20.012768 22.665773 37.445933 0.736110 0.920662 0.085317 -0.004358 -427300.000000 0 0 1
-22.501584 -19.078968 23.634973 37.801326 0.703270 0.895355 0.080652 -0.003756 438343.000000 0 0 1
-23.579384 -18.100368 23.061193 37.622191 0.654693 0.910985 0.082239 -0.005294 424125.000000 0 0 1
-23.021584 -17.418668 21.966973 36.276042 0.647727 0.920339 0.096858 -0.004325 128026.000000 0 0 1
-23.952684 -16.498668 21.396173 36.107248 0.603171 0.936547 0.089377 -0.016368 54558.800000 0 0 1
-23.434084 -15.801468 20.076173 34.668363 0.593265 0.953182 0.101697 -0.012947 602666.000000 0 0 1
-22.372984 -14.858068 20.240773 33.630366 0.586229 0.924968 0.106061 -0.013231 150890.000000 0 0 1
-21.802384 -14.456768 19.003073 32.333556 0.585517 0.942559 0.099641 -0.019138 1166410.000000 0 0 1
-20.497184 -13.538768 18.981973 31.044292 0.583734 0.912907 0.094505 -0.021367 884592.000000 0 0 1
-20.054884 -13.503768 17.671873 29.947374 0.592609 0.939617 0.102986 -0.024303 54846.200000 0 0 1
-19.185084 -12.374668 17.457773 28.739758 0.572863 0.917958 0.102820 -0.027140 -202989.000000 0 0 1
-18.600884 -12.355068 16.033973 27.490523 0.586306 0.948067 0.081259 -0.028391 -11224.700000 0 0 1
-18.108184 -11.123068 15.583973 26.353163 0.550836 0.938063 0.078135 -0.029805 534569.000000 0 0 1
-16.863284 -10.644868 16.105773 25.633562 0.563078 0.891420 0.081304 -0.033971 192755.000000 0 0 1
-16.336484 -9.369068 15.347373 24.294073 0.520711 0.887009 0.072691 -0.035507 190261.000000 0 1 0
-17.213284 -8.245168 15.450473 24.555998 0.446707 0.890281 0.094932 -0.037548 293485.000000 0 1 0
-16.741584 -7.058568 14.803673 23.436142 0.399003 0.887104 0.080638 -0.037076 -928510.000000 0 1 0
-16.837584 -5.745168 15.652773 23.696424 0.328824 0.849240 0.093888 -0.035550 218781.000000 0 1 0
-16.003884 -5.743468 16.799873 23.902876 0.344563 0.791416 0.071337 -0.027110 389764.000000 0 1 0
-14.610984 -5.770168 16.493473 22.777409 0.376119 0.761045 0.057661 -0.023695 -218775.000000 0 1 0
-13.700584 -5.808068 17.765473 23.174376 0.400963 0.697267 0.043474 -0.017527 74240.600000 0 1 0
-13.770684 -6.977268 18.570773 24.149278 0.468974 0.693522 0.035657 -0.018719 154542.000000 0 1 0
-13.323684 -8.209568 17.929273 23.798664 0.552220 0.717620 0.026237 -0.023048 -590567.000000 0 1 0
-13.343184 -9.455168 18.835573 24.944329 0.616484 0.714983 0.044724 -0.023133 295397.000000 0 1 0
-14.589884 -10.076768 19.128473 26.082646 0.604435 0.747517 0.057372 -0.027581 329577.000000 0 0 1
-15.480284 -9.409968 19.987273 26.975503 0.546185 0.736325 0.054099 -0.023950 -886105.000000 0 0 1
-16.909584 -9.921468 20.196673 28.147383 0.530610 0.770543 0.066161 -0.023408 -491506.000000 0 0 1
-17.792084 -9.769168 19.170873 27.919836 0.502132 0.813939 0.098574 -0.023339 -485560.000000 0 0 1
-18.366484 -8.461868 19.103173 27.818378 0.431736 0.813842 0.090352 -0.029108 -554091.000000 0 0 1
-19.438884 -8.388068 18.000373 27.789266 0.407372 0.866175 0.121393 -0.037704 816338.000000 0 0 1
-20.705284 -8.983368 18.337873 29.080703 0.409358 0.888489 0.126217 -0.033219 483424.000000 0 0 1
-21.613884 -8.961668 17.267473 29.079840 0.393051 0.935029 0.128864 -0.026561 -291101.000000 0 0 1
-23.006784 -9.486268 17.613373 30.488232 0.391086 0.954875 0.116479 -0.018713 -24261.100000 0 0 1
-23.725684 -8.533768 18.420573 31.225803 0.345277 0.939843 0.122867 -0.017718 415445.000000 0 0 1
-25.124684 -8.720968 18.320373 32.294599 0.334096 0.967586 0.123119 -0.013311 222206.000000 0 0 1
-25.998054 -7.637768 19.010473 33.100338 0.285743 0.959012 0.119631 -0.009545 80212.500000 0 0 1
-26.012514 -7.743268 20.380673 33.940844 0.289322 0.926700 0.119822 -0.017002 151587.000000 0 0 1
-26.829654 -6.712668 20.889173 34.659022 0.245163 0.923909 0.109359 -0.021411 -671365.000000 0 0 1
-26.894894 -6.623268 22.417673 35.633623 0.241460 0.890381 0.112262 -0.024272 617637.000000 0 0 1
-25.707384 -6.170468 23.083913 35.097170 0.235571 0.853016 0.118236 -0.032683 1170080.000000 0 0 1
-24.584284 -7.069968 23.030893 34.420829 0.280024 0.837803 0.129488 -0.026962 -433280.000000 0 0 1
-23.563584 -6.842368 24.122983 34.408993 0.282607 0.793905 0.132616 -0.025818 -323595.000000 0 0 1
-22.941984 -5.554868 24.036363 33.688840 0.237555 0.776342 0.119264 -0.033148 746561.000000 0 0 1
-21.892484 -5.427068 25.020533 33.686214 0.242998 0.733624 0.111988 -0.024292 680492.000000 0 0 1
-21.383684 -3.977468 25.108343 33.219137 0.183903 0.713861 0.109656 -0.023862 -438605.000000 0 0 1
-20.462884 -3.539468 26.052433 33.316463 0.171275 0.672978 0.095185 -0.025159 -435331.000000 0 0 1
-20.843784 -3.479368 27.407263 34.608198 0.165401 0.656833 0.097139 -0.030890 160407.000000 0 0 1
-21.812884 -2.363968 27.914963 35.505428 0.107954 0.666134 0.101814 -0.028606 1040670.000000 0 0 1
-23.086984 -2.353468 27.263043 35.802530 0.101588 0.705197 0.114014 -0.035937 46795.800000 0 0 1
-24.011584 -1.606068 28.013823 36.931151 0.066788 0.709724 0.090888 -0.020194 460828.000000 0 0 1
-25.318294 -1.322268 27.220353 37.198280 0.052178 0.749890 0.085928 -0.029554 -203087.000000 0 0 1
-25.025504 -0.341868 26.159063 36.203443 0.013660 0.763302 0.082410 -0.027622 440038.000000 0 0 1
-26.158154 0.120232 25.433903 36.484886 -0.004596 0.799441 0.094643 -0.031337 348066.000000 0 0 1
-27.135064 -0.870168 24.709983 36.710382 0.032057 0.832395 0.084618 -0.031552 52465.800000 0 0 1
-28.026384 -1.506368 25.656863 38.026596 0.053697 0.830227 0.066883 -0.029692 588927.000000 0 0 1
-28.595354 -2.734568 25.186063 38.203533 0.095340 0.850962 0.066321 -0.031554 127298.000000 0 0 1
-27.699004 -3.994768 25.379683 37.779906 0.143233 0.834191 0.074158 -0.030226 226479.000000 0 0 1
-27.322614 -4.372768 26.721983 38.467008 0.158696 0.802831 0.060933 -0.030092 150271.000000 0 0 1
-26.566814 -5.578168 26.740753 38.104848 0.206961 0.792920 0.068122 -0.034705 117159.000000 0 0 1
-25.905504 -5.752568 28.165303 38.697177 0.218514 0.755631 0.050793 -0.023511 76642.300000 0 0 1
-26.822504 -6.164568 29.173333 40.106508 0.225905 0.756276 0.065912 -0.026555 536956.000000 0 0 1
-26.257134 -6.878568 30.284533 40.668227 0.256212 0.730751 0.061971 -0.025909 -150481.000000 0 0 1
-27.404344 -7.339668 31.193873 42.165466 0.261687 0.738028 0.065827 -0.026979 -75908.200000 0 0 1
-28.313674 -8.269168 30.679593 42.559144 0.284153 0.765740 0.057597 -0.028344 323544.000000 0 0 1
-29.481624 -8.342368 31.504983 43.946845 0.275759 0.771467 0.064448 -0.026782 -193679.000000 0 0 1
-30.621574 -8.985768 30.758063 44.322492 0.285433 0.803821 0.058430 -0.022517 -1176990.000000 0 0 1
-30.329834 -10.303068 30.366443 44.138112 0.327470 0.812085 0.056713 -0.025785 541760.000000 0 0 1
-31.350874 -10.864068 29.531083 44.418354 0.333582 0.843517 0.049992 -0.029408 83182.500000 0 0 1
-30.929784 -12.133668 28.747853 43.935367 0.373848 0.857511 0.050744 -0.027290 -583856.000000 0 0 1
-29.866934 -11.925668 27.885133 42.565666 0.379897 0.856470 0.060009 -0.027126 -1195610.000000 0 0 1
-29.083964 -13.053668 27.784943 42.288039 0.421878 0.853910 0.063158 -0.025753 -594207.000000 0 0 1
-27.767064 -12.674168 27.033213 40.773018 0.428202 0.845954 0.073538 -0.030685 184037.000000 0 0 1
-26.829524 -11.854268 27.744743 40.374717 0.416045 0.813195 0.070097 -0.030101 170489.000000 0 0 1
-27.233574 -10.597068 28.272413 40.660727 0.371090 0.801925 0.070880 -0.026680 -1166930.000000 0 0 1
-27.601314 -9.515468 27.195593 39.899586 0.331987 0.820848 0.068526 -0.021907 876055.000000 0 0 1
-26.445354 -8.950068 26.511733 38.501071 0.326336 0.811243 0.075037 -0.026116 1181460.000000 0 0 1
-25.720884 -9.809068 25.611113 37.599346 0.364340 0.821453 0.068300 -0.025557 -129982.000000 0 0 1
-26.345944 -10.086568 24.246433 37.198617 0.365636 0.860828 0.086071 -0.024595 -8531.600000 0 0 1
-27.596334 -10.767568 24.301623 38.315363 0.372013 0.883755 0.071454 -0.027833 65207.900000 0 0 1
-28.058334 -10.870668 22.983943 37.864273 0.369624 0.918505 0.090105 -0.026414 625143.000000 0 0 1
-29.408344 -11.700568 22.848483 39.035973 0.378665 0.945523 0.083286 -0.030629 2335620.000000 0 0 1
-30.664494 -11.194768 23.385603 40.156201 0.350039 0.949160 0.085373 -0.024495 1148470.000000 0 0 1
-30.685114 -11.122268 24.779223 40.979153 0.347736 0.921434 0.081990 -0.024745 -461061.000000 0 0 1
-32.093064 -10.719268 25.292343 42.244172 0.322356 0.928897 0.049378 -0.020764 -402296.000000 0 0 1
-32.378054 -9.436268 24.944903 41.947941 0.283585 0.933949 0.056026 -0.024403 336947.000000 0 0 1
-33.716774 -8.991368 25.201383 43.043876 0.260609 0.945323 0.050042 -0.015799 605464.000000 0 0 1
-34.229183 -8.983968 26.703393 44.333056 0.256676 0.924372 0.045835 -0.013324 -501310.000000 0 0 1
-34.572385 -10.320868 27.132033 45.143298 0.290107 0.926019 0.045902 -0.026228 -205291.000000 0 0 1
-35.124247 -10.327568 28.381573 46.323699 0.285970 0.911350 0.065273 -0.027085 -1036860.000000 0 0 1
-35.458626 -11.759268 28.887563 47.223785 0.320220 0.912568 0.080393 -0.021488 828475.000000 0 0 1
-36.740144 -12.322868 28.551553 48.134005 0.323615 0.935808 0.058025 -0.019973 965643.000000 0 0 1
37.159211 -11.720968 29.181263 48.679915 -0.305548 0.927980 0.066816 -0.012854 -112928.000000 0 0 1
35.774561 -12.202068 28.697993 47.458239 -0.328708 0.921407 0.068501 -0.013890 132157.000000 0 0 1
35.627101 -11.840468 27.379093 46.466135 -0.320860 0.940695 0.059881 -0.010183 302313.000000 0 0 1
34.388251 -12.123568 26.717263 45.203372 -0.338944 0.938442 0.067643 -0.006323 267653.000000 0 0 1
34.334831 -11.752968 25.241873 44.205939 -0.329803 0.963065 0.056051 -0.009409 -73231.800000 0 0 1
34.213841 -10.350268 25.102823 43.679133 -0.293764 0.958547 0.069427 -0.025947 174842.000000 0 0 1
34.180231 -10.005168 23.734063 42.798333 -0.284763 0.982967 0.063143 -0.017155 -363826.000000 0 0 1
33.755801 -8.518868 23.450873 41.975810 -0.247206 0.978008 0.084199 -0.003344 797502.000000 0 0 1
32.350691 -8.319768 23.702883 40.958667 -0.251720 0.953660 0.091084 -0.009659 637462.000000 0 0 1
31.898851 -7.052368 23.347073 40.154183 -0.217585 0.950304 0.101497 -0.003412 2172810.000000 0 0 1
30.289851 -6.982668 23.221743 38.800542 -0.226570 0.929181 0.102376 0.004225 2266870.000000 0 0 1
29.766541 -7.621868 22.059173 37.825216 -0.250669 0.948150 0.099485 0.004939 -409378.000000 0 0 1
28.374341 -7.540468 21.944973 36.654382 -0.259746 0.928919 0.110002 -0.013167 -414788.000000 0 0 1
15.746516 -17.257768 25.275553 34.418555 -0.831156 0.746075 0.108484 -0.005196 86122.500000 0 0 1
15.126316 -18.566668 25.249993 34.800700 -0.887154 0.758949 0.122939 -0.010391 227478.000000 0 0 1
16.008616 -19.620968 25.509043 35.943977 -0.886439 0.781740 0.085766 -0.008878 -1126600.000000 0 0 1
15.251416 -20.975868 25.596293 36.438482 -0.942117 0.791959 0.084825 -0.013141 608645.000000 0 0 1
14.439216 -21.225368 26.799413 37.110857 -0.973427 0.763898 0.076473 -0.013319 439416.000000 0 0 1
13.290416 -20.437668 26.819713 36.244040 -0.994217 0.737762 0.093675 -0.020977 -1639330.000000 0 0 1
12.281616 -20.758568 27.902203 36.882098 -1.036546 0.712814 0.075868 -0.018199 -259596.000000 0 0 1
12.671116 -20.333068 29.235473 37.798197 -1.013508 0.686511 0.074617 -0.022259 122092.000000 0 0 1
11.802816 -19.368368 29.805623 37.454176 -1.023504 0.650487 0.065995 -0.025247 -15304.800000 0 0 1
11.691216 -17.972168 29.251063 36.267176 -0.994057 0.632514 0.086725 -0.024524 -36251.600000 0 0 1
12.837416 -17.180868 29.413113 36.402097 -0.929094 0.630037 0.076528 -0.007265 -289081.000000 0 0 1
12.568116 -15.872968 28.910863 35.295136 -0.901079 0.610925 0.097261 -0.006286 -359225.000000 0 0 1
13.627916 -14.953868 29.413553 35.700075 -0.831756 0.602525 0.082966 0.000116 -403105.000000 0 0 1
13.462916 -13.624368 28.941453 34.705637 -0.791359 0.584638 0.131209 -0.005393 58304.900000 0 0 1
14.453516 -12.810568 29.555063 35.306041 -0.725210 0.578816 0.112079 0.002505 167603.000000 0 0 1
14.074716 -11.288268 29.638603 34.698262 -0.675974 0.546822 0.111930 0.002688 -26127.100000 0 0 1
14.022316 -10.650868 28.362573 33.384156 -0.649595 0.555604 0.158762 -0.004766 952342.000000 0 0 1
15.334216 -10.377768 27.812263 33.411947 -0.594966 0.587363 0.139777 -0.007256 548099.000000 0 0 1
15.396816 -9.097568 26.878573 32.284445 -0.533682 0.587092 0.139597 -0.005592 -78601.500000 0 0 1
15.747116 -7.936168 27.527143 32.690947 -0.466823 0.569739 0.142719 -0.015555 -80915.200000 0 0 1
17.150416 -7.876868 27.650903 33.477668 -0.430546 0.598910 0.130043 -0.020139 -656741.000000 0 0 1
17.650016 -6.430968 27.354463 33.183536 -0.349410 0.601764 0.126822 -0.020676 746573.000000 0 0 1
19.077116 -6.356268 27.202213 33.827487 -0.321620 0.636560 0.102547 -0.031151 813235.000000 0 0 1
19.563716 -5.119468 26.741853 33.527223 -0.255943 0.647464 0.105296 -0.032542 73729.600000 0 0 1
21.098216 -4.966868 26.612933 34.322772 -0.231207 0.683492 0.099311 -0.029456 -646670.000000 0 0 1
21.623916 -5.681968 25.462133 33.885081 -0.256954 0.720576 0.099062 -0.022113 597104.000000 0 0 1
23.019016 -5.679368 25.190783 34.593437 -0.241894 0.755111 0.090277 -0.024488 1245780.000000 0 0 1
24.045816 -5.885268 26.404453 36.194375 -0.240034 0.753179 0.075842 -0.022985 -438658.000000 0 0 1
24.308516 -4.741468 27.140313 36.742102 -0.192635 0.739700 0.088412 -0.029983 11396.700000 0 0 1
25.232116 -5.025768 28.173643 38.153272 -0.196608 0.740052 0.088920 -0.031803 -149985.000000 0 0 1
25.782416 -3.733168 28.757683 38.803014 -0.143796 0.736060 0.097470 -0.028848 263290.000000 0 0 1
26.620716 -2.896768 27.912003 38.679888 -0.108390 0.764663 0.086782 -0.019235 631455.000000 0 0 1
26.905216 -1.650168 28.576433 39.283918 -0.061256 0.756222 0.075539 -0.022574 -507148.000000 0 0 1
27.830816 -0.753968 27.739463 39.301407 -0.027084 0.787225 0.080604 -0.018070 -800998.000000 0 0 1
29.138716 -1.220568 27.811193 40.299095 -0.041864 0.809142 0.081388 -0.020120 -908503.000000 0 0 1
29.924216 -0.587768 26.815873 40.185759 -0.019639 0.840221 0.072340 -0.000613 -408678.000000 0 0 1
31.423916 -0.590668 27.054363 41.469868 -0.018795 0.860068 0.061530 -0.004991 -717063.000000 0 0 1
31.823916 0.380432 27.985063 42.380068 0.011954 0.849531 0.049322 0.001775 -59703.900000 0 0 1
33.207916 0.342132 28.271663 43.613870 0.010302 0.865543 0.064934 -0.007347 80955.600000 0 0 1
33.564916 1.309832 29.422083 44.653983 0.039004 0.851454 0.083849 -0.017159 -64019.000000 0 0 1
33.519716 2.614732 28.909923 44.341762 0.077848 0.860604 0.063745 -0.009343 160260.000000 0 0 1
33.773816 3.553432 29.973953 45.296086 0.104827 0.847667 0.054005 -0.008794 81788.600000 0 0 1
34.166616 4.915132 29.391183 45.336054 0.142878 0.865452 0.062231 -0.001987 -188173.000000 0 0 1
34.265116 6.063032 30.280523 46.127742 0.175132 0.854694 0.068108 -0.006183 382927.000000 0 0 1
33.062116 6.714132 30.672953 45.596197 0.200352 0.832933 0.054746 -0.004369 126844.000000 0 0 1
33.182816 7.461332 32.035378 46.722973 0.221177 0.815307 0.047105 -0.006755 -33485.600000 0 0 1
33.609216 6.574332 33.035614 47.583117 0.193172 0.803389 0.046960 -0.001775 279014.000000 0 0 1
33.974716 7.237632 -33.524300 48.275701 0.209892 2.338430 0.055985 -0.011663 -27102.000000 0 0 1
34.267816 6.277332 -32.344340 47.537821 0.181176 2.319093 0.083780 -0.012882 -58471.100000 0 0 1
33.154416 5.472732 -32.017570 46.414339 0.163593 2.332038 0.062306 -0.006334 242064.000000 0 0 1
33.233116 4.205832 -32.612150 46.751271 0.125886 2.342793 0.077239 -0.017287 -21612.500000 0 0 1
33.239316 3.067632 -31.561270 45.938831 0.092029 2.328187 0.087000 -0.034459 -16935.800000 0 0 1
33.587616 1.796132 -32.111330 46.502597 0.053425 2.333015 0.087750 -0.033608 278445.000000 0 0 1
33.821616 0.846632 -31.057250 45.925714 0.025027 2.313456 0.079749 -0.033235 -16232.500000 0 0 1
34.011216 -0.600068 -31.646180 46.460775 -0.017641 2.320112 0.085680 -0.051345 -842006.000000 0 0 1
35.158316 -0.630468 -32.471500 47.863378 -0.017930 2.316407 0.094742 -0.039805 30271.600000 0 0 1
36.061616 -1.684068 -32.192400 48.369689 -0.046666 2.299026 0.104644 -0.034278 643617.000000 0 0 1
36.809616 -1.626568 -30.785620 48.014039 -0.044160 2.266831 0.104197 -0.031556 -802243.000000 0 0 1
35.937916 -1.808468 -29.696220 46.654794 -0.050280 2.260760 0.089023 -0.030187 -366698.000000 0 0 1
36.595716 -1.623368 -28.485080 46.403464 -0.044330 2.231733 0.106212 -0.030483 -405338.000000 0 0 1
35.699816 -1.264668 -27.282240 44.948825 -0.035410 2.223029 0.110219 -0.026772 -294336.000000 0 0 1
35.375916 0.129132 -27.311800 44.692354 0.003650 2.228254 0.099584 -0.019712 430565.000000 0 0 1
34.387516 0.524932 -26.385670 43.347207 0.015264 2.225224 0.104165 -0.013726 -36929.300000 0 0 1
33.926316 1.980232 -26.325180 42.987572 0.058302 2.229877 0.084770 -0.015003 78823.800000 0 0 1
33.258716 2.506932 -27.475090 43.212353 0.075234 2.259861 0.111206 -0.035042 129255.000000 0 0 1
32.333316 3.484632 -27.094000 42.328133 0.107358 2.265417 0.082883 -0.014792 -410652.000000 0 0 1
31.438916 3.787732 -28.299940 42.469271 0.119901 2.300116 0.097801 -0.023752 -358721.000000 0 0 1
30.432116 4.741632 -27.994240 41.620598 0.154567 2.308520 0.078532 -0.024943 510822.000000 0 0 1
29.556116 4.852832 -29.131710 41.782418 0.162738 2.342314 0.076925 -0.030524 -253075.000000 0 0 1
28.417116 5.794732 -28.753090 40.839338 0.201159 2.351886 0.074242 -0.025918 -194312.000000 0 0 1
27.230316 5.170932 -28.231810 39.563414 0.187662 2.365397 0.093681 -0.030693 706964.000000 0 0 1
26.367916 6.148132 -27.719370 38.748290 0.229074 2.367950 0.105452 -0.031165 260087.000000 0 0 1
24.931116 5.615232 -27.420260 37.482823 0.221533 2.391377 0.119073 -0.027644 852381.000000 0 0 1
24.045016 5.366232 -28.510720 37.680504 0.219576 2.428961 0.137829 -0.023886 1564350.000000 0 0 1
22.736116 4.854632 -28.172250 36.526348 0.210362 2.451655 0.137098 -0.017010 1462250.000000 0 0 1
21.749216 4.539032 -29.348890 36.810169 0.205745 2.493611 0.132891 -0.015082 531002.000000 0 0 1
22.117416 3.296832 -29.994180 37.412565 0.147971 2.500954 0.119734 -0.019932 678090.000000 0 0 1
21.388816 3.110932 -31.282270 38.022884 0.144434 2.536980 0.087219 -0.019823 488191.000000 0 0 1
21.779616 3.950032 -32.553970 39.366424 0.179414 2.544453 0.098954 -0.013345 36803.400000 0 0 1
23.044916 3.525232 -33.027540 40.426647 0.151796 2.526941 0.097286 -0.018145 128622.000000 0 0 1
23.453116 4.167632 33.579433 41.170331 0.175865 0.616993 0.092863 -0.023066 904856.000000 0 0 1
24.879616 3.680832 33.096819 41.568537 0.146880 0.649810 0.090626 -0.011776 1019660.000000 0 0 1
24.908616 2.350932 32.661076 41.142580 0.094104 0.653681 0.101463 -0.018639 643329.000000 0 0 1
26.264916 1.957732 32.408642 41.761210 0.074400 0.682424 0.092279 -0.015653 181208.000000 0 0 1
26.462816 0.395132 32.188177 41.671519 0.014930 0.688144 0.072592 -0.013136 -371319.000000 0 0 1
25.851316 -0.214768 31.049693 40.403219 -0.008308 0.694310 0.068631 -0.013667 631524.000000 0 0 1
24.441216 -0.141568 30.871203 39.375427 -0.005792 0.669677 0.084493 -0.024159 57432.000000 0 0 1
23.626016 -1.130768 31.744213 39.587401 -0.047825 0.640367 0.077406 -0.033650 -638766.000000 0 0 1
23.737216 -2.505768 31.387133 39.432048 -0.105173 0.650171 0.070628 -0.040106 214951.000000 0 0 1
23.216416 -3.194968 32.499859 40.068075 -0.136758 0.624739 0.073840 -0.035548 -239502.000000 0 0 1
23.125516 -4.727768 32.330993 40.030418 -0.201661 0.630622 0.073058 -0.034827 -394294.000000 0 0 1
24.342616 -5.413868 32.316079 40.819136 -0.218841 0.657227 0.074525 -0.024024 -515213.000000 0 0 1
24.228416 -6.772068 31.924846 40.645699 -0.272554 0.667386 0.070697 -0.024083 -552.825000 0 0 1
25.581816 -7.482468 31.648633 41.376958 -0.284554 0.699933 0.068082 -0.024507 200326.000000 0 0 1
26.207716 -7.093968 30.470813 40.812243 -0.264348 0.727845 0.080619 -0.026732 -567669.000000 0 0 1
27.361316 -7.803368 30.140923 41.448877 -0.277821 0.756587 0.076410 -0.016456 -156535.000000 0 0 1
27.931216 -7.639968 28.728153 40.790057 -0.266997 0.789370 0.088311 -0.025014 192558.000000 0 0 1
27.051816 -8.113468 27.703223 39.561316 -0.291386 0.795034 0.091058 -0.020732 13761.200000 0 0 1
27.504516 -7.818868 26.427153 38.936198 -0.276969 0.824765 0.107461 -0.018492 -188320.000000 0 0 1
26.911616 -8.752968 25.368583 38.005454 -0.314457 0.839952 0.090525 -0.023677 -630519.000000 0 0 1
25.567316 -8.521468 25.102993 36.830196 -0.321716 0.820867 0.076796 -0.023314 -971485.000000 0 0 1
25.064116 -9.346568 24.132883 36.027272 -0.356934 0.836789 0.080824 -0.026970 16585.800000 0 0 1
23.569816 -9.026568 23.936243 34.784463 -0.365741 0.811887 0.078756 -0.024849 445949.000000 0 0 1
22.571516 -9.433568 24.899053 34.905994 -0.395877 0.776576 0.064827 -0.016678 983464.000000 0 0 1
21.327216 -8.949868 24.423323 33.637018 -0.397327 0.758186 0.082463 -0.015992 471484.000000 0 0 1
20.084416 -8.734368 25.322453 33.479838 -0.410212 0.713082 0.089987 -0.011005 263480.000000 0 0 1
19.402516 -9.919068 25.820843 33.787002 -0.472588 0.700959 0.104930 -0.008288 313608.000000 0 0 1
20.059916 -10.880668 26.654463 35.089166 -0.496996 0.708066 0.074172 -0.012320 -480369.000000 0 0 1
19.122116 -11.902668 27.300783 35.392960 -0.556768 0.689818 0.082807 -0.011355 -177146.000000 0 0 1
18.350216 -12.735668 26.461343 34.628462 -0.606710 0.701074 0.089042 -0.008730 445730.000000 0 0 1
17.630016 -13.741168 27.241673 35.238415 -0.662065 0.687133 0.082945 -0.001345 420152.000000 0 0 1
18.454116 -14.902568 27.942483 36.652739 -0.679326 0.703848 0.077975 0.009521 -43611.200000 0 0 1
17.618916 -15.876268 28.542003 37.109676 -0.733418 0.693324 0.076214 0.008227 580753.000000 0 0 1
18.353416 -17.036768 29.026033 38.335492 -0.748212 0.711845 0.079684 0.009623 445956.000000 0 0 1
18.988216 -17.981768 27.914283 38.250536 -0.758181 0.752804 0.086127 -0.002992 554524.000000 0 0 1
20.032416 -17.326168 27.186763 37.955420 -0.713085 0.772338 0.090195 -0.009085 509545.000000 0 0 1
20.538116 -18.178968 26.150643 37.896507 -0.724540 0.809232 0.086368 -0.001927 -178165.000000 0 0 1
21.718416 -17.567268 25.375603 37.738836 -0.680123 0.833350 0.063784 -0.018015 -167111.000000 0 0 1
22.865716 -17.515068 26.194763 38.933073 -0.653661 0.832789 0.069030 -0.012157 -207139.000000 0 0 1
23.922616 -16.796168 25.605113 38.859035 -0.612137 0.851410 0.077146 -0.009798 848875.000000 0 0 1
25.265116 -16.828268 26.454463 40.266057 -0.587588 0.853975 0.091224 -0.017061 1243040.000000 0 0 1
25.857216 -18.084368 26.850193 41.431544 -0.610319 0.865760 0.090155 -0.016862 389688.000000 0 0 1
26.801416 -18.547068 25.877563 41.616798 -0.605349 0.899750 0.080764 -0.019641 3705.720000 0 0 1
27.503316 -19.835868 26.322953 42.927752 -0.624824 0.910701 0.058599 -0.015410 -201572.000000 0 0 1
28.382316 -19.627168 27.412473 44.070685 -0.605017 0.899487 0.064868 -0.016817 257238.000000 0 0 1
29.071316 -20.820368 27.835473 45.314928 -0.621504 0.909339 0.051028 -0.009265 -6699.420000 0 0 1
28.253816 -21.973068 28.471653 45.735422 -0.660996 0.898825 0.061093 -0.011694 -168517.000000 0 0 1
27.748416 -21.722568 29.763743 46.127269 -0.664190 0.869442 0.066147 -0.015743 -65865.500000 0 0 1
26.984316 -22.804068 30.230533 46.497999 -0.701634 0.863018 0.087655 -0.027767 -199367.000000 0 0 1
26.458116 -22.662968 31.679763 47.087678 -0.708290 0.832833 0.081648 -0.027674 77082.500000 0 0 1
26.037516 -23.935668 32.222937 47.845440 -0.743363 0.831890 0.085098 -0.029788 -41206.300000 0 0 1
26.116716 -23.707068 33.598905 48.713390 -0.737072 0.809685 0.100570 -0.023401 -350877.000000 0 0 1
25.934516 -25.022268 -33.413030 49.144110 -0.767498 2.318421 0.091496 -0.027127 -186971.000000 0 0 1
24.751016 -25.758768 -33.510500 48.980409 -0.805347 2.324249 0.123507 -0.033733 -592711.000000 0 0 1
24.352716 -26.183548 32.952502 48.626128 -0.821610 0.826206 0.114207 -0.035677 -259293.000000 0 0 1
22.891616 -26.666128 32.886136 48.131138 -0.861415 0.818577 0.134681 -0.045616 91848.500000 0 0 1
22.784716 -28.042438 33.242110 49.097449 -0.888475 0.827031 0.125191 -0.037675 -17421.400000 0 0 1
21.459616 -28.505558 33.405997 48.877833 -0.925491 0.818306 0.139730 -0.034532 72.608400 0 0 1
21.499716 -30.057228 33.466775 49.856793 -0.949880 0.834892 0.112259 -0.033742 660.522000 0 0 1
21.959016 -30.680388 -33.112930 50.199110 -0.949588 2.291125 0.074124 -0.028850 416597.000000 0 0 1
23.232916 -31.289938 -33.221630 51.210402 -0.932110 2.276708 0.043759 -0.010510 -73296.300000 0 0 1
23.616216 -32.213648 -32.047390 51.210155 -0.938191 2.246955 0.029186 -0.006949 19992.900000 0 0 1
24.819816 -32.968788 -32.289260 52.398096 -0.925488 2.234743 0.022447 0.000784 1079970.000000 0 0 1
25.335816 -33.539968 -31.051740 52.259387 -0.923853 2.207048 0.020587 0.016290 -169549.000000 0 0 1
26.314816 -32.643098 -30.334830 51.751746 -0.892324 2.197108 0.025496 0.010212 -897736.000000 0 0 1
26.673616 -33.052108 -28.970590 51.412242 -0.891791 2.169408 0.036292 0.013315 -2526.980000 0 0 1
27.528916 -32.070948 -28.435570 50.940834 -0.861460 2.163020 0.038949 0.010512 -182824.000000 0 0 1
28.059916 -32.452358 -27.007010 50.694112 -0.857859 2.132637 0.029919 0.001160 -237465.000000 0 0 1
29.017316 -33.435108 -26.925920 51.816177 -0.856019 2.117230 0.031918 0.005211 -130031.000000 0 0 1
30.288916 -32.955548 -26.488830 52.011005 -0.827537 2.105159 0.034182 -0.007015 538532.000000 0 0 1
-27.775994 -31.053542 9.709050 42.779597 0.841053 1.341846 0.078137 -0.015417 -354224.000000 0 0 1
-27.465884 -32.350042 10.221650 43.650683 0.866871 1.334432 0.074751 -0.017928 583837.000000 0 0 1
-26.115264 -32.418442 10.707950 42.983981 0.892669 1.319030 0.057173 -0.013070 592992.000000 0 0 1
-25.940044 -33.460842 11.823550 43.958050 0.911339 1.298469 0.060530 -0.012978 -349716.000000 0 0 1
-26.155544 32.900232 11.492250 43.573037 -0.899114 1.303892 0.071753 -0.001633 1728870.000000 0 0 1
-27.548104 32.539832 11.129550 44.063654 -0.868282 1.315452 0.058522 -0.026432 1988230.000000 0 0 1
-27.571504 31.048732 10.794250 42.903700 -0.844647 1.316471 0.063349 -0.018203 193069.000000 0 0 1
-27.126664 30.790032 9.469250 42.113521 -0.848566 1.344007 0.092273 -0.032366 -82172.400000 0 0 1
-27.206554 29.464832 9.137350 41.132276 -0.825226 1.346782 0.112014 -0.029909 -136755.000000 0 0 1
-26.704314 29.220332 7.682050 40.323220 -0.830357 1.379113 0.091463 -0.011855 -413032.000000 0 0 1
-25.313254 29.093032 7.699350 39.324869 -0.854760 1.373735 0.071561 -0.005281 -515533.000000 0 0 1
-24.737784 28.996332 6.419050 38.651642 -0.864485 1.403949 0.053651 -0.004183 791844.000000 0 0 1
-23.394184 28.167732 6.492850 37.186908 -0.877714 1.395296 0.079390 -0.002282 662987.000000 0 0 1
-23.558584 26.753832 6.612950 36.256110 -0.848821 1.387374 0.078310 -0.009442 -71924.700000 0 0 1
-24.130284 26.016232 5.567150 35.918075 -0.822989 1.415173 0.063384 -0.011976 -522179.000000 0 0 1
-24.329184 24.551432 6.008250 35.082490 -0.789945 1.398687 0.083651 -0.002323 -818269.000000 0 0 1
-25.443694 24.319032 6.802450 35.847876 -0.762802 1.379880 0.095962 -0.013869 -336123.000000 0 0 1
-25.668004 22.928732 7.111050 35.144562 -0.729090 1.367052 0.114478 -0.028947 -29592.200000 0 0 1
-26.175814 21.969432 6.012550 34.698414 -0.698251 1.396637 0.119722 -0.034341 242661.000000 0 0 1
-27.527544 22.312532 5.656050 35.883223 -0.681143 1.412512 0.115337 -0.036697 835786.000000 0 0 1
-27.900274 21.752432 4.388550 35.649025 -0.662208 1.447379 0.108997 -0.026825 44192.800000 0 0 1
-27.820794 22.762032 3.215250 36.089396 -0.685720 1.481587 0.087432 -0.031801 88018.000000 0 0 1
-26.476724 23.078532 2.875250 35.240639 -0.716932 1.489116 0.082891 -0.030086 350904.000000 0 0 1
-26.384214 24.168932 1.951550 35.833958 -0.741605 1.516308 0.067603 -0.031720 297018.000000 0 0 1
-24.893884 24.499832 1.674850 34.967876 -0.777421 1.522881 0.061197 -0.022442 318231.000000 0 0 1
-24.541684 25.469532 0.741950 35.377137 -0.803949 1.549822 0.042593 -0.020758 -345754.000000 0 0 1
-23.191984 25.846132 0.974250 34.739600 -0.839470 1.542748 0.063336 -0.024856 -735912.000000 0 0 1
-22.519184 26.334032 -0.317050 34.651052 -0.863328 1.579946 0.089816 -0.017922 -238787.000000 0 0 1
-22.276884 25.400832 -1.344150 33.812255 -0.850827 1.610560 0.100390 -0.022090 -709713.000000 0 0 1
-21.185784 24.661132 -0.937850 32.525197 -0.861057 1.599635 0.099674 -0.040294 -1479780.000000 0 0 1
-20.726784 23.707132 -1.988850 31.552864 -0.852372 1.633870 0.121295 -0.049304 -100967.000000 0 0 1
-21.659884 22.693232 -2.350750 31.458852 -0.808692 1.645591 0.104678 -0.031827 -101786.000000 0 0 1
-21.156184 21.796732 -3.254350 30.549508 -0.800310 1.677526 0.115262 -0.034471 -131637.000000 0 0 1
-22.273984 21.057732 -4.033950 30.916520 -0.757337 1.701648 0.110729 -0.023445 303189.000000 0 0 1
-22.867384 21.960032 -4.972250 32.091798 -0.765160 1.726361 0.104671 -0.015091 189303.000000 0 0 1
-24.191384 21.653532 -5.371250 32.908188 -0.730097 1.734749 0.108481 -0.011576 236452.000000 0 0 1
-24.570284 22.364732 -6.680150 33.889593 -0.738441 1.769211 0.111462 -0.008029 -131517.000000 0 0 1
-23.956784 21.754032 -7.786050 33.283449 -0.737247 1.806916 0.117563 -0.016949 199565.000000 0 0 1
-23.452684 22.690132 -8.746350 33.784155 -0.768874 1.832668 0.110968 -0.030316 283932.000000 0 0 1
-22.889884 22.100432 -10.098450 33.381950 -0.767853 1.878124 0.097280 -0.033683 -655862.000000 0 0 1
-23.864384 21.578832 -10.889150 33.966578 -0.735146 1.897143 0.066218 -0.017743 -632395.000000 0 0 1
-23.285484 20.957032 -12.045450 33.563430 -0.732817 1.937871 0.055436 -0.008116 198344.000000 0 0 1
-24.323384 20.571532 -13.112950 34.449447 -0.702022 1.961288 0.040392 -0.020830 308276.000000 0 0 1
-25.166054 19.450132 -12.803950 34.286718 -0.657979 1.953508 0.049383 -0.013680 58849.200000 0 0 1
-26.212554 19.392332 -13.722050 35.375912 -0.636948 1.969140 0.068572 -0.028179 -204142.000000 0 0 1
-26.813054 17.993932 -14.041550 35.212023 -0.591058 1.980973 0.133324 -0.036191 485535.000000 0 0 1
-25.943014 17.125932 -14.792950 34.426282 -0.583468 2.014956 0.113252 -0.039215 405343.000000 0 0 1
-26.688524 15.987032 -15.112950 34.587046 -0.539701 2.023006 0.163468 -0.056481 309998.000000 0 0 1
-26.042004 15.285332 -16.381250 34.353642 -0.530768 2.067854 0.166065 -0.049702 805258.000000 0 0 1
-24.718984 14.810132 -16.147550 33.031978 -0.539787 2.081563 0.131354 -0.052242 431388.000000 0 0 1
-24.129284 14.413432 -17.378750 33.045277 -0.538463 2.124578 0.132058 -0.057150 86507.800000 0 0 1
-23.240584 13.136832 -17.324850 31.825328 -0.514479 2.146438 0.128546 -0.049083 477439.000000 0 0 1
-22.027084 13.319332 -16.606050 30.632628 -0.543853 2.143734 0.101824 -0.050797 252900.000000 0 0 1
-21.251584 12.159032 -16.427150 29.484286 -0.519688 2.161745 0.099845 -0.040298 -136312.000000 0 0 1
-19.999684 12.364832 -15.567550 28.199735 -0.553732 2.155612 0.088347 -0.037082 -906986.000000 0 0 1
-19.136284 13.257932 -16.099950 28.305097 -0.605889 2.175843 0.075373 -0.025957 -1111270.000000 0 0 1
-18.058684 13.473832 -15.247950 27.205885 -0.641009 2.165744 0.079692 -0.012571 -293965.000000 0 0 1
-17.228484 14.729032 -15.651250 27.544993 -0.707345 2.175121 0.067644 -0.002130 -5480.040000 0 0 1
-16.656784 14.560432 -16.936950 27.862428 -0.718345 2.224181 0.089211 -0.013418 625317.000000 0 0 1
-15.637584 15.558932 -17.158350 27.946795 -0.782877 2.231870 0.087033 -0.010107 606058.000000 0 0 1
-14.733784 15.319632 -18.399150 28.112350 -0.804889 2.284299 0.105521 -0.016051 543978.000000 0 0 1
-13.680284 14.363332 -18.246050 26.951323 -0.809750 2.314475 0.105260 -0.013272 259375.000000 0 0 1
-12.872784 14.393032 -19.418750 27.385320 -0.841097 2.359008 0.125848 -0.020954 -23157.800000 0 0 1
-11.883284 13.223832 -19.417050 26.326868 -0.838741 2.400213 0.111377 -0.022284 111279.000000 0 0 1
-12.458584 11.965332 -19.726450 26.220570 -0.765205 2.422384 0.122576 -0.025960 -73977.700000 0 0 1
-11.382084 11.062232 -19.784550 25.364408 -0.771148 2.465482 0.091803 -0.013782 42182.900000 0 0 1
-11.713084 9.782432 -20.504250 25.560058 -0.695822 2.501765 0.108446 -0.025826 -63232.800000 0 0 1
-11.594584 10.098732 -21.886750 26.747870 -0.716553 2.529176 0.116645 -0.031745 -75798.400000 0 0 1
-11.874484 8.947232 -22.669450 27.110151 -0.645727 2.561110 0.103591 -0.013834 23724.000000 0 0 1
-11.784284 9.143032 -24.218450 28.442885 -0.659851 2.589591 0.087277 -0.026050 363308.000000 0 0 1
-10.431084 9.383532 -24.641350 28.355851 -0.732580 2.623982 0.092837 -0.035694 549963.000000 0 0 1
-10.116684 8.711032 -25.875770 29.116745 -0.710878 2.665277 0.080145 -0.041352 -149671.000000 0 0 1
-9.914984 9.628132 -27.137040 30.453682 -0.770721 2.670543 0.120372 -0.048192 -275229.000000 0 0 1
-8.666184 10.179432 -27.446670 30.529383 -0.865523 2.688333 0.099781 -0.056443 -393380.000000 0 0 1
-8.221984 11.199132 -26.581580 29.993365 -0.937508 2.659979 0.088350 -0.041571 15568.600000 0 0 1
-6.705184 11.492932 -26.690220 29.823058 -1.042659 2.679121 0.077549 -0.038849 120630.000000 0 0 1
-6.293084 11.958532 -28.031000 31.118264 -1.086376 2.692380 0.078882 -0.047467 1475010.000000 0 0 1
-4.892584 12.347132 -27.976430 30.968850 -1.193525 2.698367 0.090577 -0.045094 1051990.000000 0 0 1
-4.261884 12.513232 -29.352070 32.191437 -1.242529 2.718436 0.093884 -0.047406 421.295000 0 0 1
-2.859984 12.715632 -29.291080 32.059853 -1.349559 2.722940 0.104261 -0.057465 79295.100000 0 0 1
-2.238684 12.841332 -30.526770 33.193300 -1.398197 2.738027 0.110331 -0.055148 -616063.000000 0 0 1
-0.753984 12.559832 -30.368970 32.872362 -1.510837 2.748804 0.112839 -0.059145 -978226.000000 0 0 1
-0.457084 11.227232 -29.945090 31.983872 -1.530107 2.782613 0.079738 -0.036729 98454.000000 0 0 1
0.863516 10.723232 -29.978610 31.850438 1.490442 2.797052 0.085330 -0.045869 187380.000000 0 0 1
1.487116 10.351532 -31.352350 33.050500 1.428111 2.819640 0.093344 -0.049523 -32449.400000 0 0 1
1.767216 11.546532 -32.141010 34.197806 1.418923 2.793004 0.107154 -0.052196 143724.000000 0 0 1
1.822416 11.198732 -33.498000 35.367341 1.409476 2.815013 0.110599 -0.044046 -97985.300000 0 0 1
2.122116 12.334232 33.269574 35.545762 1.400414 0.359808 0.122202 -0.049094 1086420.000000 0 0 1
3.553016 12.550832 33.112910 35.589495 1.294924 0.375260 0.113038 -0.048067 1160310.000000 0 0 1
3.777716 13.427332 32.004696 34.912247 1.296541 0.411009 0.113590 -0.040599 1180790.000000 0 0 1
5.304316 13.533732 31.596863 34.780159 1.197264 0.431179 0.110260 -0.044485 1041050.000000 0 0 1
5.816516 12.277032 31.191963 34.021992 1.128350 0.410760 0.111397 -0.041400 -609315.000000 0 0 1
7.205816 12.249132 31.148963 34.237741 1.039045 0.428032 0.098121 -0.032529 -549804.000000 0 0 1
7.837916 10.868932 30.794953 33.584159 0.946029 0.410431 0.082504 -0.024520 154833.000000 0 0 1
7.494616 10.605332 29.435643 32.172961 0.955599 0.415490 0.084671 -0.029104 356529.000000 0 0 1
8.350416 9.585832 28.919383 31.590321 0.854168 0.414170 0.090147 -0.024003 147378.000000 0 0 1
7.782516 8.781332 27.757103 30.135297 0.845626 0.399944 0.088553 -0.020054 113521.000000 0 0 1
6.772416 7.896232 28.247623 30.102231 0.861862 0.352856 0.081627 -0.024608 116874.000000 0 0 1
6.249316 7.214032 27.115333 28.746087 0.856931 0.338450 0.093488 -0.026428 86335.100000 0 0 1
5.375616 6.049232 27.651483 28.811369 0.844291 0.284714 0.117923 -0.038671 349848.000000 0 0 1
6.188116 5.031832 28.231583 29.336571 0.682705 0.275335 0.099272 -0.030880 56642.100000 0 0 1
5.391916 4.213032 29.006973 29.803136 0.663272 0.231663 0.105667 -0.036551 -682065.000000 0 0 1
6.069916 3.052932 29.738073 30.504381 0.466014 0.224620 0.110604 -0.027262 -185255.000000 0 0 1
6.197616 1.862132 28.987243 29.700812 0.291878 0.219645 0.110170 -0.021345 733371.000000 0 0 1
7.558516 1.641432 28.598173 29.625681 0.213843 0.264142 0.109634 -0.021236 470949.000000 0 0 1
7.849516 0.254132 28.038763 29.117894 0.032364 0.273100 0.105843 -0.021897 -243540.000000 0 0 1
7.781916 -0.736768 29.037753 30.071451 -0.094396 0.262958 0.090890 -0.026745 206254.000000 0 0 1
7.940516 -2.041068 28.448283 29.606124 -0.251598 0.280591 0.107704 -0.028594 -433311.000000 0 0 1
8.506016 -3.104768 29.378253 30.742050 -0.349982 0.298980 0.102242 -0.020109 497969.000000 0 0 1
9.906916 -3.042068 29.642943 31.402313 -0.297926 0.336327 0.089990 -0.024209 458413.000000 0 0 1
10.670916 -3.908568 28.848183 31.005855 -0.351106 0.375264 0.109455 -0.020870 147985.000000 0 0 1
12.219016 -3.695468 28.923603 31.615434 -0.293690 0.415643 0.099977 -0.017429 1027400.000000 0 0 1
13.035816 -4.734568 28.365993 31.574962 -0.348383 0.454752 0.122698 -0.018615 258032.000000 0 0 1
13.348216 -5.732068 29.265363 32.672511 -0.405613 0.460752 0.132133 -0.015117 -495269.000000 0 0 1
12.693016 -7.136468 28.988583 32.440404 -0.512189 0.465505 0.144614 -0.009576 698671.000000 0 0 1
11.274416 -6.954368 28.940263 31.827889 -0.552701 0.429261 0.143683 -0.008874 238655.000000 0 0 1
10.540716 -8.131268 28.697263 31.634746 -0.657066 0.434350 0.138169 -0.001785 1596500.000000 0 0 1
8.989916 -7.867668 28.493893 30.896937 -0.718924 0.397003 0.130116 -0.005767 1145590.000000 0 0 1
8.244416 -7.405468 29.562453 31.571348 -0.731842 0.358655 0.145208 -0.015132 -846639.000000 0 0 1
6.931516 -7.154568 29.175903 30.829646 -0.801232 0.329022 0.135478 -0.028821 -403824.000000 0 0 1
6.055116 -6.577268 30.331933 31.622003 -0.826709 0.286625 0.120789 -0.035160 81883.200000 0 0 1
6.016116 -7.500468 31.364353 32.805081 -0.894777 0.297466 0.123131 -0.036002 -139266.000000 0 0 1
5.608916 -6.934468 32.593959 33.792203 -0.890685 0.267098 0.120732 -0.029107 717.514000 0 0 1
6.519816 -5.908768 33.358203 34.499149 -0.736273 0.257898 0.124569 -0.026896 -61888.200000 0 0 1
6.530016 -4.615668 32.796466 33.757276 -0.615301 0.239158 0.130335 -0.025578 -177390.000000 0 0 1
7.045016 -3.623468 33.607372 34.528499 -0.475046 0.231503 0.112736 -0.015865 -93747.200000 0 0 1
7.082316 -2.356568 32.763107 33.602586 -0.321216 0.223997 0.114814 -0.022147 378856.000000 0 0 1
5.758216 -1.947568 32.452229 33.016621 -0.326146 0.185165 0.123073 -0.032901 402468.000000 0 0 1
5.846416 -0.743168 31.746383 32.288786 -0.126437 0.183552 0.115091 -0.017679 -563432.000000 0 0 1
4.528516 -0.345968 31.095433 31.425358 -0.076249 0.145032 0.122609 -0.035553 -155320.000000 0 0 1
3.497716 -0.253168 32.068411 32.259589 -0.072255 0.108923 0.110726 -0.029657 832971.000000 0 0 1
2.277116 0.334432 31.543623 31.627476 0.145824 0.072835 0.126810 -0.039315 1363110.000000 0 0 1
1.239416 0.705632 32.651597 32.682730 0.517560 0.043652 0.125807 -0.037908 223664.000000 0 0 1
1.566216 1.865332 33.298083 33.387046 0.872345 0.073017 0.104040 -0.034658 -646316.000000 0 0 1
0.852116 2.044732 -33.367280 33.440729 1.175945 3.075302 0.081081 -0.033088 -652021.000000 0 0 1
1.244816 3.226232 -32.393270 32.577324 1.202554 3.035243 0.069131 -0.033266 -957253.000000 0 0 1
2.366116 3.019032 -31.639300 31.870964 0.906053 3.020947 0.052866 -0.018150 -990080.000000 0 0 1
2.586316 4.078332 -30.700870 31.078372 1.005637 2.985570 0.044949 -0.021605 -419467.000000 0 0 1
3.596516 3.719732 -29.602060 30.050845 0.802238 2.968552 0.055168 -0.022759 -287084.000000 0 0 1
3.057816 3.020532 -28.497560 28.819867 0.779264 2.991897 0.068384 -0.031229 447826.000000 0 0 1
4.001416 2.926732 -27.414130 27.858779 0.631506 2.962688 0.088488 -0.036620 349853.000000 0 0 1
3.442716 2.098732 -26.200500 26.508926 0.547460 2.988901 0.071247 -0.034770 18789.500000 0 0 1
3.772416 0.778232 -26.478480 26.757179 0.203441 2.997135 0.090062 -0.033154 207951.000000 0 0 1
3.288516 -0.076568 -25.456440 25.668084 -0.023279 3.013088 0.090698 -0.025090 -365903.000000 0 0 1
3.856616 -1.506468 -25.316510 25.652848 -0.372393 2.979482 0.088713 -0.027518 378759.000000 0 0 1
5.181516 -1.546968 -24.790550 25.373462 -0.290131 2.926829 0.081412 -0.034368 266169.000000 0 0 1
5.733916 -2.824868 -24.863850 25.672333 -0.457758 2.889962 0.083928 -0.030645 173765.000000 0 0 1
7.236416 -2.889368 -24.498550 25.707841 -0.379887 2.833653 0.104049 -0.037713 910064.000000 0 0 1
8.203216 -2.381868 -25.447210 26.842625 -0.282587 2.817735 0.111010 -0.042846 523735.000000 0 0 1
9.488516 -2.902968 -25.146220 27.033156 -0.296902 2.765751 0.106567 -0.031857 238317.000000 0 0 1
-31.093534 -4.065468 18.223573 36.268919 0.130012 1.044358 0.181375 -0.009021 -1001480.000000 0 0 1
-32.454894 -4.131868 18.034073 37.358001 0.126630 1.067020 0.153579 -0.000673 -1258970.000000 0 0 1
-32.967934 -5.007368 18.998773 38.378533 0.150734 1.052920 0.125876 -0.008841 624558.000000 0 0 1
-34.506352 -4.942368 19.287173 39.838554 0.142263 1.065424 0.118404 -0.002774 236639.000000 0 0 1
-35.252956 -5.268968 18.182073 40.014006 0.148363 1.099106 0.111552 -0.002073 -302642.000000 0 0 1
-36.638034 -5.175468 18.474973 41.357655 0.140331 1.107709 0.071729 -0.004273 -500870.000000 0 0 1
-37.424644 -4.907968 17.215673 41.485799 0.130399 1.142878 0.069479 -0.004214 -1679880.000000 0 0 1
36.281201 -5.015668 17.611073 40.640280 -0.137374 1.122600 0.044553 0.006283 -1447490.000000 0 0 1
35.384131 -4.602968 16.604673 39.356565 -0.129359 1.135252 0.040827 -0.000651 -602275.000000 0 0 1
33.936141 -4.972268 16.890073 38.231658 -0.145483 1.113212 0.046543 0.008558 -870071.000000 0 0 1
33.402741 -4.061968 17.826673 38.079298 -0.121012 1.083605 0.052997 0.006047 431502.000000 0 0 1
32.308261 -4.789068 18.413073 37.494001 -0.147159 1.057451 0.096339 0.002996 535831.000000 0 0 1
31.492201 -4.019368 19.519973 37.268531 -0.126944 1.019531 0.098562 0.005174 449878.000000 0 0 1
30.683021 -2.902068 19.115973 36.266930 -0.094302 1.015623 0.114882 0.009554 402992.000000 0 0 1
31.372141 -1.714368 18.802973 36.615599 -0.054592 1.031510 0.090734 0.011352 -435495.000000 0 0 1
30.462701 -0.504868 18.967773 35.888821 -0.016572 1.013946 0.130764 0.013678 -49805.600000 0 0 1
30.972181 0.690532 18.470373 36.068095 0.022292 1.033172 0.114401 0.003536 522551.000000 0 0 1
30.049411 1.728532 18.911273 35.547027 0.057460 1.009827 0.120118 -0.001765 876881.000000 0 0 1
30.184181 3.095432 18.182073 35.373072 0.102194 1.030945 0.112738 -0.005448 72631.300000 0 0 1
29.860241 3.021132 16.794773 34.392232 0.100833 1.060621 0.114785 -0.003470 135050.000000 0 0 1
29.583641 4.280632 16.236473 34.016741 0.143699 1.073207 0.115998 -0.007825 31369.000000 0 0 1
29.099341 4.213732 14.793473 32.914648 0.143806 1.104647 0.118553 -0.005198 42149.000000 0 0 1
28.538141 5.480732 14.380473 32.423169 0.189739 1.111269 0.141911 -0.030140 322468.000000 0 0 1
28.058241 5.328532 13.070273 31.408441 0.187675 1.141601 0.126434 -0.028726 -460436.000000 0 0 1
27.397841 6.504832 12.430173 30.780899 0.233105 1.155100 0.145796 -0.035026 -1003170.000000 0 0 1
26.231241 6.944632 13.016873 30.095596 0.258809 1.123513 0.095330 -0.028368 -1066120.000000 0 0 1
25.770141 8.152432 12.505773 29.781818 0.306390 1.137447 0.137102 -0.044184 -896717.000000 0 0 1
24.648041 8.673832 13.419573 29.374244 0.338373 1.096347 0.134106 -0.039303 626361.000000 0 0 1
23.363141 8.042432 13.257973 28.040879 0.331531 1.078321 0.126341 -0.027679 1180870.000000 0 0 1
23.318641 6.647932 13.655673 27.828608 0.277723 1.057896 0.134144 -0.029240 -1626560.000000 0 0 1
21.922941 6.027632 13.517273 26.451169 0.268316 1.034417 0.146473 -0.028565 -392900.000000 0 0 1
21.499741 5.893332 12.178473 25.402469 0.267540 1.070802 0.161521 -0.039304 1176970.000000 0 0 1
20.290941 5.131732 12.006673 24.129176 0.247713 1.049967 0.142094 -0.032424 522055.000000 0 1 0
19.904041 5.027732 10.530873 23.072673 0.247423 1.096827 0.149111 -0.033369 -151578.000000 0 1 0
20.838241 4.225532 9.824373 23.422334 0.200065 1.137963 0.151595 -0.035638 556782.000000 0 1 0
20.477241 3.901232 8.476973 22.503246 0.188259 1.184565 0.166172 -0.034101 306772.000000 0 1 0
21.663141 3.265932 7.682273 23.215842 0.149633 1.233532 0.157319 -0.030340 -103829.000000 0 1 0
21.998041 1.918532 8.116773 23.526083 0.086994 1.218545 0.156394 -0.030748 816334.000000 0 1 0
22.898441 1.251532 7.240573 24.048510 0.054601 1.264969 0.150353 -0.022904 393152.000000 0 1 0
24.425741 1.544932 7.200473 25.511771 0.063166 1.284667 0.148872 -0.029282 244367.000000 0 0 1
25.134841 1.274332 8.427573 26.540688 0.050656 1.247668 0.145465 -0.025558 563774.000000 0 0 1
25.119241 2.324132 9.420073 26.927971 0.092261 1.213412 0.141167 -0.025693 -658707.000000 0 0 1
25.890241 1.808732 10.654573 28.055231 0.069748 1.181247 0.106965 -0.015902 -1489630.000000 0 0 1
27.236341 1.996232 10.522973 29.266639 0.073162 1.203005 0.126150 -0.026696 -1497310.000000 0 0 1
27.858541 1.352032 11.607773 30.210374 0.048494 1.176421 0.111768 -0.019238 975824.000000 0 0 1
29.419541 1.114232 11.590773 31.640116 0.037856 1.195733 0.163304 -0.018296 1257760.000000 0 0 1
30.270291 2.146132 12.057073 32.653781 0.070781 1.192606 0.148971 -0.018778 405197.000000 0 0 1
31.608061 1.918232 11.653573 33.742479 0.060614 1.218165 0.170685 -0.017556 -163426.000000 0 0 1
32.667771 2.771532 12.343273 35.031715 0.084637 1.210720 0.155719 -0.018813 -605392.000000 0 0 1
32.573151 4.113832 11.893073 34.919607 0.125630 1.223258 0.169480 -0.032429 903889.000000 0 0 1
33.415181 5.037232 12.662073 36.087063 0.149620 1.212290 0.147296 -0.035905 -116388.000000 0 0 1
34.853141 5.209132 12.247473 37.307869 0.148361 1.236313 0.142990 -0.029977 -761195.000000 0 0 1
35.635071 4.008832 12.312973 37.914882 0.112026 1.240046 0.118052 -0.029521 285355.000000 0 0 1
36.988561 4.246932 11.966473 39.107372 0.114317 1.259818 0.112790 -0.017268 266695.000000 0 0 1
-37.117084 3.259532 12.788573 39.393528 -0.087593 1.240169 0.135502 -0.005385 -348235.000000 0 0 1
-37.132734 1.836332 12.395773 39.190142 -0.049413 1.248971 0.131050 -0.004032 663519.000000 0 0 1
36.770681 1.032032 12.819573 38.954968 0.028059 1.235460 0.124098 -0.006289 256737.000000 0 0 1
36.567981 0.815332 14.383173 39.303405 0.022293 1.196140 0.109841 -0.001252 -110993.000000 0 0 1
-37.429954 0.012032 14.944573 40.303125 -0.000321 1.190921 0.088010 0.006338 218331.000000 0 0 1
37.364561 -0.153368 16.343773 40.782997 -0.004105 1.158461 0.081973 -0.001743 127219.000000 0 0 1
-36.686714 -1.107168 17.127273 40.502892 0.030170 1.134191 0.073976 0.009179 -497220.000000 0 0 1
-35.405126 -0.627768 17.361373 39.437727 0.017729 1.114950 0.095466 0.001720 -381333.000000 0 0 1
-34.561682 -1.477368 18.138173 39.060028 0.042720 1.087877 0.087206 0.003647 231985.000000 0 0 1
-34.673452 -1.408368 19.722373 39.914957 0.040596 1.053986 0.078307 -0.005784 -683484.000000 0 0 1
-35.756366 -2.103968 20.254173 41.148219 0.058774 1.056153 0.069144 -0.014770 -260189.000000 0 0 1
-35.901331 -1.821268 21.609673 41.942825 0.050686 1.029535 0.068540 -0.016476 -99043.700000 0 0 1
-36.292714 -3.038868 22.430973 42.773173 0.083537 1.018766 0.055147 -0.007842 -385574.000000 0 0 1
-35.416128 -4.148968 22.271273 42.041951 0.116618 1.012503 0.074972 -0.015416 168395.000000 0 0 1
-35.688366 -5.311768 23.071813 42.827362 0.147753 1.001883 0.072090 -0.026170 -73808.000000 0 0 1
-35.693888 -5.084668 24.643173 43.671426 0.141500 0.971228 0.068895 -0.031472 -96153.200000 0 0 1
-34.382905 -4.791968 25.035423 42.800929 0.138479 0.946006 0.081616 -0.033109 -587644.000000 0 0 1
-34.249520 -4.705068 26.432373 43.518245 0.136522 0.918030 0.088511 -0.041305 1095790.000000 0 0 1
-32.949854 -3.901068 26.915403 42.724117 0.117846 0.889267 0.096186 -0.043605 816719.000000 0 0 1
-32.894404 -2.501368 26.749193 42.471378 0.075896 0.889479 0.087508 -0.039568 -75153.900000 0 0 1
-32.722464 -2.156668 25.361363 41.456117 0.065813 0.912508 0.084989 -0.032788 -311061.000000 0 0 1
-32.696624 -0.664668 25.019443 41.176250 0.020326 0.917738 0.074808 -0.024815 416729.000000 0 0 1
-33.958164 -0.008868 25.040473 42.192206 0.000261 0.935413 0.083182 -0.032107 503651.000000 0 0 1
-33.663924 1.373432 24.877853 41.881424 -0.040776 0.934766 0.060501 -0.015211 -263667.000000 0 0 1
-34.858514 2.181132 24.405193 42.608529 -0.062490 0.960906 0.083148 -0.012878 -515807.000000 0 0 1
-35.528727 1.698332 23.278813 42.509739 -0.047765 0.991290 0.085364 -0.006442 -160035.000000 0 0 1
-36.666424 2.420732 22.858463 43.275812 -0.065925 1.014312 0.086346 -0.002651 202812.000000 0 0 1
-36.431374 3.816932 22.199273 42.832484 -0.104390 1.025956 0.078953 0.006946 -446998.000000 0 0 1
-35.769483 3.739632 20.967573 41.630276 -0.104170 1.042964 0.058827 -0.003845 -500783.000000 0 0 1
-36.620494 3.606632 19.842373 41.806556 -0.098170 1.076260 0.089035 -0.005923 -161440.000000 0 0 1
-36.099984 2.825832 18.630173 40.721954 -0.078119 1.095618 0.084340 0.001028 -102057.000000 0 0 1
-35.006719 3.434432 17.977173 39.502462 -0.097795 1.098323 0.099945 -0.011907 38142.800000 0 0 1
-34.641537 2.664032 16.837673 38.608812 -0.076752 1.119525 0.127099 -0.005656 -240776.000000 0 0 1
-33.789614 3.494532 15.889973 37.502547 -0.103054 1.133266 0.135731 -0.010583 -356376.000000 0 0 1
-34.446290 4.633532 15.414173 38.021221 -0.133712 1.153369 0.148645 -0.022625 59881.500000 0 0 1
-33.754534 5.225232 14.313073 37.034250 -0.153582 1.173982 0.180333 -0.024116 -140135.000000 0 0 1
-34.185521 6.683232 14.030973 37.552412 -0.193064 1.187869 0.203543 -0.041537 106944.000000 0 0 1
-33.518924 7.290532 12.926173 36.657279 -0.214169 1.210424 0.222107 -0.036407 198355.000000 0 0 1
-33.563604 8.690132 12.927873 37.002214 -0.253352 1.213886 0.202836 -0.046899 124150.000000 0 0 1
-32.537784 9.287932 11.909973 35.872281 -0.278056 1.232362 0.227922 -0.046285 312373.000000 0 0 1
-32.560994 10.673332 11.887873 36.269269 -0.316758 1.236857 0.206317 -0.046654 -243091.000000 0 0 1
-31.741644 11.198532 10.913873 35.384343 -0.339169 1.257246 0.182122 -0.042267 -218240.000000 0 0 1
-32.225064 12.635132 10.704273 36.230964 -0.373669 1.270875 0.160920 -0.032864 22083.700000 0 0 1
-31.481944 13.284932 9.701673 35.520764 -0.399315 1.294154 0.155310 -0.027158 -63387.900000 0 0 1
-31.702934 14.663832 9.521673 36.204506 -0.433232 1.304669 0.139495 -0.031642 -132942.000000 0 0 1
-30.891754 15.340632 8.390673 35.497026 -0.460918 1.332161 0.141628 -0.032040 -766105.000000 0 0 1
-29.511844 15.282032 8.471473 34.296579 -0.477807 1.321207 0.173837 -0.025905 -1017520.000000 0 0 1
-28.887374 16.164032 7.599473 33.963338 -0.510148 1.345131 0.169805 -0.040823 1194350.000000 0 0 1
-27.321374 16.197232 7.923773 32.735210 -0.535139 1.326311 0.178816 -0.028583 1383050.000000 0 0 1
-26.958084 16.797132 9.170473 33.060241 -0.557220 1.289723 0.172131 -0.034879 130031.000000 0 0 1
-27.310484 18.181932 9.389873 34.126455 -0.587367 1.292051 0.169123 -0.044817 -256171.000000 0 0 1
-27.081574 18.639632 10.836373 34.616102 -0.602815 1.252400 0.172486 -0.025342 -873334.000000 0 0 1
-25.773004 18.587132 11.270173 33.715664 -0.624804 1.229965 0.160086 -0.025684 -740406.000000 0 0 1
-25.590994 19.004032 12.619273 34.282623 -0.638752 1.193837 0.165983 -0.033120 -96966.100000 0 0 1
-26.008944 18.014032 13.759673 34.500712 -0.605748 1.160563 0.145175 -0.026091 156412.000000 0 0 1
-25.238484 16.811632 13.795673 33.315652 -0.587618 1.143854 0.155037 -0.032917 254388.000000 0 0 1
-25.637474 16.066032 14.881873 33.717467 -0.559794 1.113672 0.142064 -0.032105 107230.000000 0 0 1
-24.480684 15.152732 15.399173 32.650325 -0.554249 1.079648 0.128242 -0.017274 316405.000000 0 0 1
-23.537684 15.955132 16.153073 32.703373 -0.595708 1.054196 0.116887 -0.016320 658098.000000 0 0 1
-22.338884 15.245632 16.465573 31.663388 -0.598864 1.023923 0.113371 -0.043321 345768.000000 0 0 1
-22.555884 14.170732 17.552473 31.900891 -0.560933 0.988170 0.103980 -0.020094 -498623.000000 0 0 1
-22.691284 14.640232 18.906573 32.964970 -0.572988 0.959981 0.102984 -0.010885 73385.500000 0 0 1
-23.196684 13.604532 19.771573 33.377905 -0.530424 0.936817 0.094529 -0.006403 -290367.000000 0 0 1
-22.893784 13.896932 21.246373 34.185647 -0.545564 0.900141 0.084489 0.000409 103799.000000 0 0 1
-21.549784 13.898232 21.681373 33.580292 -0.572807 0.868912 0.100589 0.000098 -173125.000000 0 0 1
-20.887084 15.141632 21.469873 33.563295 -0.627261 0.876710 0.110609 0.012498 -1175000.000000 0 0 1
-19.504384 15.012532 22.135673 33.102646 -0.655991 0.838340 0.115771 -0.006264 355795.000000 0 0 1
-18.480884 14.644632 21.187073 31.700164 -0.670102 0.838797 0.098926 -0.009743 187412.000000 0 0 1
-17.916984 15.782832 20.592973 31.530726 -0.722154 0.859115 0.088048 -0.023295 -1889150.000000 0 0 1
-16.706084 15.473632 19.709673 30.116403 -0.747118 0.857342 0.079123 -0.012860 1050800.000000 0 0 1
-15.495484 14.916332 20.301173 29.576082 -0.766357 0.814262 0.074001 -0.009690 826722.000000 0 0 1
-14.838684 15.940532 20.979373 30.239398 -0.821181 0.804077 0.062030 -0.017597 -982403.000000 0 0 1
-13.774284 15.361432 21.978573 30.145683 -0.839819 0.753822 0.037265 -0.015088 286313.000000 0 0 1
-12.627384 14.794232 21.378373 28.902508 -0.864254 0.738214 0.021400 -0.007261 -793696.000000 0 0 1
-11.720884 14.574532 22.374273 29.161691 -0.893498 0.696256 0.034262 -0.005190 -551877.000000 0 0 1
-10.415484 13.831032 22.050273 28.035590 -0.925345 0.665659 0.027375 -0.005565 -1082840.000000 0 0 1
-10.062684 13.011032 23.126423 28.379148 -0.912489 0.618224 0.040904 -0.010728 397727.000000 0 0 1
-8.855084 12.275732 22.932703 27.477536 -0.945886 0.583393 0.044307 0.008607 1530260.000000 0 0 1
-7.447184 12.975632 22.873553 27.331795 -1.049762 0.579230 0.046746 0.006502 282802.000000 0 0 1
-7.362584 13.749232 21.676673 26.704441 -1.079161 0.623696 0.030506 0.003451 -825979.000000 0 0 1
-6.505484 14.808932 21.789773 27.137060 -1.156881 0.638564 0.037937 -0.000558 -317833.000000 0 0 1
-7.215084 16.064232 22.455073 28.536771 -1.148658 0.665056 0.044518 -0.013329 1409530.000000 0 0 1
-8.279584 16.636332 21.636873 28.521454 -1.109006 0.709608 0.020089 -0.015508 726664.000000 0 0 1
-7.736784 17.576732 20.668473 28.213208 -1.156145 0.748690 0.025277 -0.007574 -519115.000000 0 0 1
-8.745484 17.902532 19.508473 27.884847 -1.116387 0.795947 0.023949 -0.008586 1331990.000000 0 0 1
-9.963684 18.621332 19.756873 28.919942 -1.079489 0.818719 0.014698 -0.009744 737658.000000 0 0 1
-10.855684 18.008732 20.677773 29.491196 -1.028320 0.793786 0.020980 -0.013397 -1356460.000000 0 0 1
-12.169484 18.732332 20.854673 30.560007 -0.994666 0.819732 0.020691 -0.016492 -421911.000000 0 0 1
-13.000684 18.751632 19.697673 30.143653 -0.964575 0.858650 0.018356 -0.013202 328699.000000 0 0 1
-14.233884 19.414032 19.952073 31.266489 -0.938150 0.878730 0.018414 -0.021345 226829.000000 0 0 1
-15.144484 19.539332 18.725773 31.012828 -0.911438 0.922527 0.034171 -0.016993 -173345.000000 0 0 1
-15.892584 18.370432 18.435073 30.494244 -0.857591 0.921605 0.053581 -0.018541 186367.000000 0 0 1
-16.478984 18.473732 17.145873 30.113397 -0.842406 0.965049 0.076723 -0.026409 -850002.000000 0 0 1
-17.074184 17.195032 16.503473 29.318280 -0.788925 0.972897 0.086969 -0.032044 544601.000000 0 0 1
-18.235384 16.575032 17.038973 29.959765 -0.737737 0.965837 0.085612 -0.031949 909581.000000 0 0 1
-19.405284 17.416432 17.123373 31.194664 -0.731438 0.989725 0.105992 -0.030691 -19632.100000 0 0 1
35.792861 -9.005568 11.494050 38.656724 -0.246486 1.268895 0.081895 -0.033128 -50645.900000 0 0 1
34.555281 -9.634568 11.214850 37.585439 -0.271911 1.267798 0.087769 -0.025858 42076.700000 0 0 1
34.426891 -10.872068 11.942950 38.026921 -0.305890 1.251324 0.063546 -0.026003 -591898.000000 0 0 1
33.039911 -11.519768 12.014850 36.995910 -0.335483 1.240037 0.103368 -0.015577 -270737.000000 0 0 1
32.183001 -10.773568 12.880950 36.300609 -0.323034 1.208052 0.102976 -0.007326 -688487.000000 0 0 1
30.892261 -11.253668 12.750250 35.263943 -0.349346 1.200849 0.116152 -0.015859 -729096.000000 0 0 1
30.217991 -11.926768 13.948650 35.354485 -0.375921 1.165232 0.113376 -0.006863 -546597.000000 0 0 1
30.009501 -11.091368 15.040750 35.352691 -0.354024 1.131339 0.135433 -0.010030 -29961.900000 0 0 1
29.105641 -11.608168 15.983350 35.176063 -0.379496 1.099119 0.137257 -0.013481 268383.000000 0 0 1
27.620741 -11.233868 15.746550 33.720305 -0.386285 1.084929 0.139229 -0.027525 -77832.000000 0 0 1
27.426441 -9.854768 16.022250 33.257159 -0.344950 1.068125 0.123514 -0.016515 -86300.800000 0 0 1
26.343641 -9.203968 15.374950 31.860470 -0.336123 1.067208 0.149889 -0.016221 178893.000000 0 0 1
26.138441 -7.712668 15.727550 31.465206 -0.286928 1.047383 0.158178 -0.024805 -255373.000000 0 0 1
27.200541 -6.855468 15.393950 31.997509 -0.246892 1.068889 0.139040 -0.015120 -179335.000000 0 0 1
27.067541 -5.520668 15.827650 31.837777 -0.201199 1.050503 0.131269 -0.010113 93388.700000 0 0 1
28.326541 -4.689568 15.473450 32.616141 -0.164066 1.076502 0.135092 -0.003562 177649.000000 0 0 1
28.485241 -4.435268 14.114450 32.098259 -0.154464 1.115502 0.132318 -0.006665 1092190.000000 0 0 1
29.688241 -3.636468 13.932150 32.995763 -0.121881 1.134881 0.136170 0.005462 919216.000000 0 0 1
29.896541 -3.215068 12.426350 32.535427 -0.107128 1.178909 0.135336 -0.017595 186694.000000 0 0 1
30.642571 -4.212268 11.719650 33.076586 -0.136608 1.208611 0.129685 -0.030886 405558.000000 0 0 1
30.808451 -3.776368 10.392550 32.732655 -0.121967 1.247707 0.141107 -0.034661 165715.000000 0 0 1
31.507191 -4.870768 9.524750 33.273838 -0.153378 1.280482 0.168650 -0.029244 -204845.000000 0 0 1
32.874931 -5.082968 9.715950 34.655408 -0.153401 1.286628 0.159849 -0.033098 -138045.000000 0 0 1
33.435621 -5.953768 8.750650 35.070814 -0.176220 1.318618 0.162403 -0.036180 -593641.000000 0 0 1
34.886101 -6.275668 9.065450 36.586971 -0.177987 1.320410 0.143769 -0.031893 -284978.000000 0 0 1
35.842001 -5.216368 8.910250 37.299492 -0.144523 1.329580 0.153184 -0.035589 1280460.000000 0 0 1
37.159571 -5.782168 8.757750 38.613021 -0.154366 1.341997 0.143746 -0.034375 1451880.000000 0 0 1
-36.689814 -4.867468 8.246550 37.918864 0.131895 1.351566 0.151882 -0.037165 714759.000000 0 0 1
-36.834154 -4.423968 6.896150 37.734378 0.119532 1.387008 0.155530 -0.036494 419861.000000 0 0 1
-35.631377 -3.729268 6.585150 36.426181 0.104283 1.389016 0.137168 -0.022718 210885.000000 0 0 1
-35.631541 -3.039568 5.198950 36.136889 0.085100 1.426427 0.142320 -0.032970 -293493.000000 0 0 1
-35.346337 -3.886068 4.134250 35.798842 0.109503 1.455052 0.159163 -0.038496 131871.000000 0 0 1
-35.489547 -3.332168 2.861050 35.760270 0.093617 1.490704 0.160519 -0.027736 108773.000000 0 0 1
-34.959304 -4.300868 1.786250 35.268131 0.122410 1.520127 0.186868 -0.043639 505385.000000 0 0 1
-35.898439 -5.377568 1.523350 36.330934 0.148694 1.528854 0.165167 -0.030800 722314.000000 0 0 1
-36.702384 -5.199668 0.352450 37.070551 0.140735 1.561289 0.132627 -0.024234 -55894.400000 0 0 1
-35.930696 -5.232768 -1.008650 36.323741 0.144618 1.598568 0.173128 -0.033387 -1246640.000000 0 0 1
-35.468966 -6.522868 -1.391850 36.090616 0.181871 1.609371 0.174254 -0.043815 801501.000000 0 0 1
-34.551838 -6.545568 -2.509250 35.255784 0.187223 1.642029 0.161563 -0.038988 778416.000000 0 0 1
-33.163944 -5.866968 -2.270850 33.755374 0.175096 1.638121 0.163046 -0.046044 -754529.000000 0 0 1
-32.359994 -6.708568 -1.517850 33.082895 0.204415 1.616693 0.180176 -0.043261 -591510.000000 0 0 1
-31.351424 -5.939668 -0.903250 31.921894 0.187235 1.599096 0.170144 -0.050923 -202997.000000 0 0 1
-30.470684 -6.766868 0.041250 31.213055 0.218531 1.569475 0.168779 -0.041476 -277306.000000 0 0 1
-29.950304 -7.956068 -0.476250 30.992685 0.259646 1.586163 0.148661 -0.028665 146169.000000 0 0 1
-29.657414 -8.809968 0.571350 30.943564 0.288755 1.552331 0.169264 -0.021460 -211384.000000 0 0 1
-29.320724 -10.220268 0.028550 31.050918 0.335399 1.569877 0.135456 -0.017481 -256561.000000 0 0 1
-28.217224 -10.188168 -0.848150 30.012162 0.346495 1.599060 0.125354 -0.024975 -21565.000000 0 0 1
-27.768184 -11.463368 -1.228150 30.066413 0.391512 1.611656 0.108696 -0.006872 82949.400000 0 0 1
-28.636434 -12.354768 -2.210450 31.266143 0.407309 1.641553 0.104958 -0.012692 -209926.000000 0 0 1
-29.505204 -13.249368 -1.576150 32.381894 0.422065 1.619489 0.133585 -0.027041 107035.000000 0 0 1
-29.865114 -14.332068 -2.402550 33.213031 0.447433 1.643197 0.122406 -0.018817 -408881.000000 0 0 1
-30.862164 -15.223268 -1.652650 34.452174 0.458246 1.618784 0.143837 -0.026082 25177.800000 0 0 1
-30.200444 -16.080968 -0.718250 34.222510 0.489288 1.591786 0.113179 -0.022135 1000520.000000 0 0 1
-31.157634 -16.682768 0.179350 35.343246 0.491589 1.565722 0.125630 -0.022457 754435.000000 0 0 1
-31.654654 -18.142668 -0.145250 36.485540 0.520438 1.574777 0.123617 -0.021389 -169795.000000 0 0 1
-30.629854 -19.079668 0.035350 36.086326 0.557096 1.569817 0.139421 -0.028014 19385.900000 0 0 1
-31.031284 -20.434768 -0.023750 37.155361 0.582342 1.571436 0.122078 -0.023341 -166357.000000 0 0 1
-31.950224 -21.019568 1.063250 38.259241 0.581898 1.543002 0.111225 -0.024874 -255646.000000 0 0 1
-31.273504 -21.428068 2.248150 37.976944 0.600712 1.511564 0.125966 -0.027294 777156.000000 0 0 1
-32.247594 -22.014968 3.108850 39.169262 0.599011 1.491343 0.119412 -0.022452 1045130.000000 0 0 1
-31.445384 -22.253868 4.437150 38.778023 0.615874 1.456121 0.125307 -0.026542 648915.000000 0 0 1
-31.190924 -21.067268 5.150050 37.989821 0.594045 1.434814 0.105089 -0.023692 351017.000000 0 0 1
-30.190154 -21.236468 6.166150 37.422645 0.613020 1.405271 0.118056 -0.028168 320657.000000 0 0 1
-29.720654 -19.923668 6.720650 36.406551 0.590558 1.385131 0.120668 -0.022195 -255621.000000 0 0 1
-28.854454 -20.091168 7.795550 36.013958 0.608234 1.352610 0.107354 -0.031834 -56973.500000 0 0 1
-28.050684 -18.935768 8.154350 34.812320 0.593788 1.334362 0.120411 -0.027329 375476.000000 0 0 1
-26.996094 -19.366568 9.157650 34.463250 0.622298 1.301843 0.118975 -0.029725 -440237.000000 0 0 1
-27.568414 -19.617468 10.426050 35.405720 0.618464 1.271892 0.105616 -0.032433 134731.000000 0 0 1
-26.613414 -19.857468 11.463450 35.128386 0.641029 1.238378 0.105077 -0.026009 134089.000000 0 0 1
-26.344354 -18.541468 12.131050 34.423443 0.613280 1.210655 0.091931 -0.019533 -545820.000000 0 0 1
-25.545204 -17.649868 11.371250 33.066306 0.604611 1.219737 0.099166 -0.016677 90168.300000 0 0 1
-25.291884 -16.428268 12.010150 32.462457 0.576057 1.191819 0.098699 -0.011523 -302436.000000 0 0 1
-24.359084 -16.415568 13.216150 32.210285 0.592993 1.148004 0.086799 -0.002422 -758577.000000 0 0 1
-24.917284 -16.965168 14.369050 33.393975 0.597764 1.125984 0.081362 -0.023435 -529706.000000 0 0 1
-23.983584 -17.096368 15.407150 33.239711 0.619289 1.088837 0.091006 -0.025229 -209108.000000 0 0 1
-24.432284 -17.863768 16.691750 34.563930 0.631330 1.066806 0.093108 -0.003538 40940.000000 0 0 1
-25.453964 -17.169868 17.367150 35.275013 0.593438 1.056025 0.090709 -0.013666 -70945.200000 0 0 1
-26.191104 -17.972168 18.275850 36.646684 0.601400 1.048693 0.060807 -0.007626 -160381.000000 0 0 1
-27.320324 -17.188668 18.927850 37.418096 0.561580 1.040432 0.070858 -0.012133 -457783.000000 0 0 1
-26.874924 -16.482668 20.065350 37.370552 0.550149 1.004003 0.086180 -0.012194 183421.000000 0 0 1
-27.822694 -15.492868 20.434950 37.838056 0.508082 1.000284 0.092078 -0.016828 103051.000000 0 0 1
-27.428274 -14.784468 21.721350 37.982993 0.494376 0.962012 0.086531 -0.020850 150808.000000 0 0 1
-26.181614 -14.121768 21.596250 36.760023 0.494651 0.942839 0.086755 -0.019757 101046.000000 0 0 1
-25.611434 -13.760368 22.846950 36.976701 0.493021 0.904760 0.083131 -0.021445 703638.000000 0 0 1
-24.231984 -13.028568 22.595750 35.601974 0.493320 0.883206 0.098008 -0.016236 617206.000000 0 0 1
-24.450284 -11.807968 21.968650 34.926581 0.449905 0.890536 0.110557 -0.024568 581389.000000 0 0 1
-23.330984 -11.354768 21.198250 33.505692 0.452936 0.885792 0.137694 -0.027166 -41796.600000 0 0 1
-22.958084 -9.902868 21.560750 33.015244 0.407233 0.859186 0.149785 -0.030613 -227576.000000 0 0 1
-22.513184 -9.646068 22.843150 33.491784 0.404800 0.820231 0.130282 -0.030374 -194648.000000 0 0 1
-21.110984 -9.564668 22.818050 32.524144 0.425401 0.793194 0.091397 -0.023082 -372207.000000 0 0 1
-20.361984 -9.354168 24.131350 32.930729 0.430638 0.748381 0.085634 -0.021968 15450.800000 0 0 1
-20.475284 -10.550368 24.933150 33.944212 0.475791 0.745818 0.099176 -0.019396 -13120.300000 0 0 1
-19.756184 -10.502568 26.145650 34.412291 0.488614 0.707827 0.093247 -0.024771 -1149960.000000 0 0 1
-19.876784 -11.838868 26.956850 35.523473 0.537187 0.709257 0.091633 -0.031992 1690480.000000 0 0 1
-21.147084 -12.110868 27.619050 36.833195 0.520102 0.722974 0.083370 -0.027034 1645790.000000 0 0 1
-22.341184 -12.439368 26.884850 37.103390 0.508042 0.760353 0.077423 -0.025832 1105040.000000 0 0 1
-23.555384 -12.705268 27.810250 38.596502 0.494652 0.766218 0.064072 -0.023587 145395.000000 0 0 1
-23.540084 -13.940868 28.565350 39.553288 0.534678 0.763820 0.062631 -0.016553 -257167.000000 0 0 1
-22.677184 -13.886768 29.683150 39.852057 0.549464 0.730511 0.053497 -0.012479 -28570.900000 0 0 1
-22.913784 -15.064768 30.725350 41.182956 0.581598 0.728657 0.042096 -0.017869 -539802.000000 0 0 1
-22.514784 -16.366068 30.309350 41.151189 0.628555 0.742861 0.042682 -0.013113 -193735.000000 0 0 1
-22.730084 -17.419268 31.200250 42.350245 0.653885 0.742590 0.032756 -0.014660 -672840.000000 0 0 1
-24.174984 -17.761368 31.550750 43.535570 0.633637 0.760180 0.062258 -0.024060 -445815.000000 0 0 1
-24.817584 -16.820568 32.398950 44.142224 0.595649 0.746651 0.074455 -0.030527 -1555120.000000 0 0 1
-26.018454 -17.282468 32.841550 45.323405 0.586320 0.760336 0.081193 -0.040699 -1771600.000000 0 0 1
-26.789954 -16.191068 33.553250 45.887612 0.543627 0.750710 0.077783 -0.044014 -375244.000000 0 0 1
-26.454334 -15.864968 -32.928372 45.119914 0.540207 2.388821 0.085840 -0.043357 -101155.000000 0 0 1
-27.378164 -14.914968 -32.443472 44.995544 0.498824 2.376095 0.088476 -0.033239 -93788.100000 0 0 1
-26.881664 -14.246168 -31.151672 43.543126 0.487326 2.368023 0.076004 -0.020623 -126846.000000 0 0 1
-26.879014 -15.109668 -30.031872 43.042965 0.512113 2.343004 0.084620 -0.013851 47458.500000 0 0 1
-26.217334 -14.459068 -28.986672 41.673018 0.504000 2.340015 0.087846 -0.001952 -177751.000000 0 0 1
-26.415074 -15.157768 -27.619972 41.114194 0.520955 2.307415 0.078312 -0.003941 32878.600000 0 0 1
-27.712644 -15.015968 -27.071972 41.549508 0.496561 2.280435 0.093922 -0.015192 51435.100000 0 0 1
-27.929174 -13.931068 -26.192472 40.745049 0.462687 2.268994 0.109106 -0.011834 -334397.000000 0 0 1
-27.249544 -13.867968 -24.803172 39.370745 0.470762 2.252337 0.097235 -0.012608 310106.000000 0 0 1
-25.854174 -13.513068 -24.909072 38.360177 0.481615 2.277522 0.073490 -0.007936 850017.000000 0 0 1
-25.195484 -13.830068 -23.708172 37.258027 0.502006 2.260520 0.070051 -0.007142 -152929.000000 0 0 1
-24.623884 -15.265568 -23.698072 37.429558 0.554959 2.256397 0.070402 -0.001991 -481929.000000 0 0 1
-23.606384 -15.550168 -24.655172 37.509287 0.582486 2.288038 0.071132 0.003967 186230.000000 0 0 1
-23.543884 -16.985668 -24.890872 38.241115 0.624975 2.279556 0.081207 0.000589 -190545.000000 0 0 1
-22.520884 -17.411568 -25.954872 38.522828 0.658141 2.310072 0.065032 0.005139 46002.600000 0 0 1
-22.958284 -17.258868 -27.318772 39.639206 0.644620 2.331161 0.064181 -0.003810 438380.000000 0 0 1
-24.051784 -18.137668 -27.611072 40.863610 0.646126 2.312695 0.073234 -0.007616 248765.000000 0 0 1
-24.546484 -17.953768 -29.069072 42.069925 0.631503 2.333627 0.068362 -0.012781 129490.000000 0 0 1
-23.674384 -18.467668 -30.057072 42.484807 0.662470 2.356720 0.059319 -0.016263 139113.000000 0 0 1
-24.251184 -18.109768 -31.288272 43.532052 0.641423 2.372786 0.053819 -0.018529 -683388.000000 0 0 1
-23.409284 -18.341068 -32.515272 44.063957 0.664596 2.400766 0.045803 -0.022555 -1723630.000000 0 0 1
-22.249384 -17.590568 -32.617372 43.224485 0.668989 2.425847 0.049498 -0.015081 -357984.000000 0 0 1
-21.068884 -18.221168 -32.142272 42.532746 0.713045 2.427529 0.055994 -0.014285 -241379.000000 0 0 1
-20.526084 -19.387868 -32.951172 43.393424 0.756889 2.433123 0.055150 -0.014464 -1468860.000000 0 0 1
-20.105784 -18.986268 33.570850 43.493941 0.756768 0.689049 0.059642 -0.016884 -111708.000000 0 0 1
-20.066484 -20.066368 32.627050 43.241731 0.785395 0.715863 0.062751 -0.015990 -590482.000000 0 0 1
-21.347484 -20.711768 32.083050 43.749452 0.770285 0.747580 0.055705 -0.015903 -271732.000000 0 0 1
-22.187184 -21.453968 32.958950 45.153475 0.768599 0.752574 0.045021 -0.018201 547881.000000 0 0 1
-23.435784 -21.843668 32.380050 45.550515 0.750251 0.780076 0.042121 -0.007769 419298.000000 0 0 1
-23.333784 -23.128468 31.500750 45.515808 0.780979 0.806424 0.062898 0.002753 -621510.000000 0 0 1
-22.978984 -24.281268 32.213950 46.425772 0.812947 0.803932 0.063327 0.001068 -227478.000000 0 0 1
-22.883484 -25.439268 31.352450 46.408904 0.838239 0.829059 0.077684 0.008381 -316760.000000 0 0 1
-22.408884 -26.683868 32.116250 47.388189 0.872259 0.826129 0.093493 -0.001092 -466955.000000 0 0 1
-23.375584 -27.238428 32.919150 48.703391 0.861570 0.828596 0.069750 -0.008896 -407691.000000 0 0 1
-22.841184 -28.415838 33.454250 49.480970 0.893731 0.828335 0.075827 -0.018001 61529.700000 0 0 1
-23.964184 -29.269618 -33.653472 50.631500 0.884733 2.297855 0.074258 -0.012456 55490.500000 0 0 1
-24.908184 -30.009438 33.353950 51.317346 0.878022 0.863271 0.051116 -0.009258 698420.000000 0 0 1
-25.955434 -29.212198 32.834450 51.040554 0.844364 0.871994 0.041595 -0.003490 -353411.000000 0 0 1
-26.983924 -28.634198 33.826950 51.887494 0.815061 0.860671 0.025747 -0.006465 -2015350.000000 0 0 1
-28.131154 -28.155248 33.253350 51.863910 0.785826 0.874780 0.029056 -0.005424 -1183090.000000 0 0 1
-28.947944 -27.788148 -33.506172 52.276459 0.764959 2.266521 0.034333 0.004645 -565455.000000 0 0 1
-30.066354 -26.803968 -33.887872 52.638638 0.728096 2.270228 0.029901 -0.003274 -217225.000000 0 0 1
-31.063134 -27.299028 33.039950 52.931971 0.720992 0.896694 0.032209 -0.009778 82105.900000 0 0 1
-32.084714 -26.328548 32.868850 52.943202 0.687173 0.900992 0.038781 -0.012216 -26030.300000 0 0 1
