# x y z rho theta phi s1 s2 stress_xx np intf bulk
-0.767808 -10.855406 -14.372741 18.027897 1.500183 2.493522 0.014184 -0.001181 -119203.000000 1 0 0
2.070992 -13.428106 -12.922541 18.750870 -1.417774 2.331140 0.014043 0.003082 1046590.000000 1 0 0
2.148292 -11.143906 -14.626841 18.513408 -1.380355 2.481715 0.006006 0.000813 -237428.000000 1 0 0
-5.551208 -6.375006 -16.364541 18.418872 0.854363 2.664788 0.023621 -0.009491 -1178730.000000 1 0 0
4.601092 -14.015006 -11.533441 18.724602 -1.253585 2.234389 0.013408 0.003800 1031130.000000 1 0 0
14.063092 -10.606806 -7.861341 19.289261 -0.646203 1.990566 0.044887 -0.007531 -243752.000000 1 0 0
7.106892 10.894794 -10.847041 16.937023 0.992792 2.265859 0.031027 -0.010655 607429.000000 1 0 0
5.702192 -4.146806 -12.691841 14.518740 -0.628769 2.634519 0.011870 -0.002193 2420800.000000 1 0 0
13.660192 0.582594 -10.145141 17.025397 0.042623 2.209161 0.032578 0.000872 1010730.000000 1 0 0
14.128792 5.071294 -10.414941 18.270516 0.344611 2.177352 0.024845 -0.002871 -483691.000000 1 0 0
4.046392 4.284994 -13.479041 14.711186 0.814029 2.729399 0.009810 0.000773 3001370.000000 1 0 0
10.497592 -4.949906 -13.780841 18.017008 -0.440612 2.441651 0.041460 0.002266 346229.000000 1 0 0
2.530292 -7.485706 -12.033841 14.396233 -1.244837 2.560571 0.005648 0.001793 1079000.000000 1 0 0
-5.651508 -2.083806 -15.129841 16.284775 0.353251 2.762711 0.013203 -0.007407 940494.000000 1 0 0
10.691692 0.012394 -9.699141 14.435573 0.001159 2.307556 0.009976 0.003467 1263960.000000 1 0 0
-1.636608 -9.623606 -16.929841 19.542564 1.402346 2.618555 0.033529 -0.010152 629507.000000 1 0 0
8.530592 1.797894 -18.121641 20.109632 0.207718 2.693194 0.045825 -0.006250 -579694.000000 1 0 0
16.470392 -5.983906 -8.838841 19.626667 -0.348485 2.037952 0.089683 -0.006920 -780810.000000 1 0 0
10.156792 7.523194 -10.014741 16.126187 0.637526 2.240844 0.026011 -0.004387 178450.000000 1 0 0
13.923892 -2.302206 -10.585941 17.641912 -0.163860 2.214354 0.052486 -0.008154 -1193850.000000 1 0 0
7.253092 -1.867106 -13.821341 15.720143 -0.251952 2.645002 0.019003 -0.003897 320147.000000 1 0 0
-2.878108 6.647494 -13.876741 15.653646 -1.162202 2.660492 0.010534 -0.003877 577011.000000 1 0 0
11.284792 1.982694 -14.016841 18.103851 0.173921 2.456320 0.035620 0.001356 1304200.000000 1 0 0
-2.357708 10.725794 -12.917041 16.954391 -1.354421 2.436991 0.015478 -0.002439 -1109900.000000 1 0 0
2.845392 -1.069906 -15.324941 15.623533 -0.359659 2.945772 0.011579 -0.007442 907865.000000 1 0 0
-9.049608 0.364594 -15.309341 17.787756 -0.040267 2.607375 0.010876 -0.000096 -415891.000000 1 0 0
2.254592 -1.671406 -18.072041 18.288670 -0.637932 2.987525 0.030943 -0.013385 1260420.000000 1 0 0
1.017892 7.848394 -13.149641 15.347523 1.441822 2.599813 0.009213 -0.004696 -231722.000000 1 0 0
9.452892 -8.946806 -9.970041 16.395250 -0.757900 2.224468 0.026100 -0.004433 -1407190.000000 1 0 0
3.942092 7.282394 -13.470341 15.812129 1.074643 2.590398 0.006692 -0.001225 2387470.000000 1 0 0
-2.751208 9.125394 -15.547341 18.236276 -1.277974 2.591642 0.014263 -0.000372 -14283.300000 1 0 0
5.582992 -7.616306 -15.315641 17.992965 -0.938244 2.589067 0.025710 -0.004779 942679.000000 1 0 0
4.283492 7.400894 -16.380241 18.477928 1.046126 2.660470 0.019563 0.003970 -175389.000000 1 0 0
-0.311508 5.074594 -13.582941 14.503270 -1.509487 2.783433 0.013930 -0.006890 1563120.000000 1 0 0
8.828192 4.344294 -16.733541 19.411884 0.457302 2.610049 0.045618 -0.004639 402753.000000 1 0 0
5.342492 0.281694 -14.429941 15.389762 0.052678 2.786552 0.009631 -0.001466 436008.000000 1 0 0
6.284092 8.007394 -11.607641 15.438442 0.905401 2.421684 0.010478 -0.001870 -2200080.000000 1 0 0
2.799692 -8.337006 -15.001641 17.389456 -1.246814 2.611353 0.013682 -0.004138 1186890.000000 1 0 0
4.076992 11.439594 -13.852541 18.422244 1.228438 2.421806 0.030380 -0.012741 -1032340.000000 1 0 0
0.555692 -4.537906 -13.739441 14.480112 -1.448947 2.820367 0.007439 -0.003074 821238.000000 1 0 0
8.567792 -0.129006 -11.779741 14.566606 -0.015056 2.512703 0.007423 0.000574 1863900.000000 1 0 0
-0.932908 -5.107606 -16.265541 17.074126 1.390137 2.832607 0.018870 -0.011777 -69123.600000 1 0 0
4.511892 0.850994 -11.753841 12.618801 0.186421 2.769187 0.004381 -0.002155 353032.000000 1 0 0
-2.886908 -7.314106 -15.635341 17.501265 1.194864 2.675617 0.005929 -0.004547 1665510.000000 1 0 0
11.480092 -3.805506 -11.442941 16.649783 -0.320088 2.328524 0.025710 0.000718 476598.000000 1 0 0
6.542292 -6.945606 -12.654241 15.848434 -0.815291 2.495519 0.020232 -0.001344 -1411110.000000 1 0 0
3.355192 -4.018806 -14.726841 15.629714 -0.875150 2.800033 0.018913 -0.005656 3315300.000000 1 0 0
-0.708708 -1.477606 -18.307541 18.380741 1.123575 3.052317 0.041077 -0.013366 1034890.000000 1 0 0
15.040592 2.908894 -8.548741 17.543148 0.191044 2.079789 0.029757 -0.000476 -1566460.000000 1 0 0
6.882292 4.298294 -14.385941 16.516554 0.558271 2.628033 0.016133 0.002296 3805360.000000 1 0 0
10.153792 -9.629906 -14.082641 19.853346 -0.758924 2.359348 0.049597 -0.013282 -1909190.000000 1 0 0
9.158492 -3.074106 -15.646841 18.388903 -0.323840 2.588464 0.056221 -0.010670 -739625.000000 1 0 0
-5.427108 -2.258606 -17.991741 18.927693 0.394369 2.825802 0.020632 -0.001168 114457.000000 1 0 0
5.031292 -8.965506 -11.161441 15.174715 -1.059408 2.397243 0.002648 0.002110 1622670.000000 1 0 0
-2.474208 4.035294 -17.115941 17.758399 -1.020769 2.871785 0.017617 0.001927 2423180.000000 1 0 0
9.286692 9.290294 -14.562041 19.611355 0.785592 2.407638 0.066434 -0.008874 -1027530.000000 1 0 0
9.865692 10.003294 -11.683341 18.272882 0.792324 2.264490 0.039076 -0.014168 797616.000000 1 0 0
12.054192 -5.971506 -9.607541 16.530798 -0.459952 2.190987 0.034652 -0.000561 -346538.000000 1 0 0
8.022092 6.900394 -13.653841 17.274165 0.710371 2.482290 0.025382 -0.002151 -338832.000000 1 0 0
3.903092 -4.072906 -17.637641 18.517804 -0.806686 2.832038 0.033687 -0.014786 -342967.000000 1 0 0
9.353292 -7.382806 -12.472741 17.249903 -0.668199 2.379020 0.030921 -0.001876 -133940.000000 1 0 0
12.033392 -8.719606 -8.817741 17.279659 -0.627057 2.106325 0.042840 -0.002243 -503937.000000 1 0 0
-2.976508 -2.553506 -13.868741 14.412563 0.709055 2.866013 0.008237 -0.007649 -1433710.000000 1 0 0
-0.406708 6.197794 -17.635941 18.697713 -1.505269 2.802972 0.026183 -0.002489 1921910.000000 1 0 0
1.075392 -8.515306 -17.464041 19.459179 -1.445172 2.684797 0.028349 -0.007232 1589590.000000 1 0 0
0.041692 8.564394 -15.945541 18.100024 1.565928 2.648700 0.017853 -0.002972 -522200.000000 1 0 0
1.725792 3.437094 -15.039541 15.523523 1.105464 2.891230 0.017932 -0.004727 1990890.000000 1 0 0
-1.992308 -0.457506 -15.741441 15.873613 0.225723 3.012457 0.017589 -0.010297 1912380.000000 1 0 0
14.232992 -4.390006 -8.519341 17.158945 -0.299181 2.090353 0.050364 -0.001825 695415.000000 1 0 0
0.582192 0.671694 -14.631741 14.658717 0.856657 3.080917 0.012584 -0.007230 1556410.000000 1 0 0
8.813992 2.695094 -12.684541 15.679527 0.296746 2.513224 0.012047 0.002604 2180610.000000 1 0 0
5.898192 0.977194 -17.180141 18.190680 0.164185 2.806706 0.031783 -0.003971 -930644.000000 1 0 0
15.194492 1.548894 -12.496941 19.734366 0.101587 2.256552 0.068675 -0.010001 -256669.000000 1 0 0
8.817192 -11.118106 -11.951441 18.552415 -0.900309 2.270771 0.038058 -0.008998 787978.000000 1 0 0
-4.738008 0.727094 -15.062741 15.807073 -0.152272 2.833493 0.014194 -0.007144 24758.600000 1 0 0
2.414892 5.276294 -17.256841 18.206305 1.141568 2.817216 0.025553 -0.002728 2879120.000000 1 0 0
5.915692 -11.560606 -12.431941 17.977658 -1.097824 2.334390 0.014767 -0.004965 1317500.000000 1 0 0
12.799692 7.064994 -8.687941 17.006662 0.504351 2.106976 0.014455 -0.007642 -356879.000000 1 0 0
-5.093008 3.561694 -15.749641 16.931497 -0.610276 2.765748 0.010276 -0.000281 1092840.000000 1 0 0
-0.633908 -4.398106 -19.110341 19.620151 1.427650 2.913131 0.042546 -0.014602 -1554240.000000 1 0 0
9.755792 4.431694 -10.351341 14.898511 0.426393 2.338925 0.001794 0.001381 1713380.000000 1 0 0
13.365492 3.813494 -13.020541 19.045041 0.277939 2.323577 0.054918 -0.002867 782115.000000 1 0 0
-6.329508 5.728194 -17.168641 19.173866 -0.735570 2.680167 0.014918 0.002283 -1376930.000000 1 0 0
-10.199508 3.114694 -15.507241 18.820356 -0.296382 2.539163 0.012283 0.002210 -451289.000000 1 0 0
10.610292 13.670494 -8.394141 19.233364 0.910771 2.022431 0.080219 -0.018546 -1523050.000000 1 0 0
7.403992 13.464494 -12.378241 19.731511 1.068038 2.248921 0.059538 -0.017008 95837.600000 1 0 0
5.328892 15.258894 -11.291341 19.716118 1.234806 2.180587 0.045364 -0.012372 -325783.000000 1 0 0
14.230092 9.447094 -9.787741 19.686111 0.586072 2.091154 0.075848 -0.021859 -292043.000000 1 0 0
8.290892 -17.151006 -2.136241 19.169231 -1.120512 1.682469 0.024694 -0.007508 -322463.000000 1 0 0
0.808892 -15.911806 -0.041541 15.932408 -1.520004 1.573404 0.007985 -0.008813 2834580.000000 1 0 0
-9.072508 -11.623406 7.626559 16.600554 0.908036 1.093459 0.012834 -0.007255 -342440.000000 1 0 0
2.171492 -15.912806 -2.623041 16.273080 -1.435172 1.732692 0.014734 -0.007632 1621140.000000 1 0 0
-1.384808 -10.997806 -9.388241 14.526132 1.445539 2.273522 -0.003943 0.003466 169968.000000 1 0 0
-4.825708 -12.762006 -12.941741 18.805450 1.209284 2.329789 0.010909 -0.002952 1148380.000000 1 0 0
-8.317908 -17.934706 -1.500341 19.826556 1.136535 1.646542 0.048975 -0.022062 -1759220.000000 1 0 0
-11.374508 -7.106006 -8.814341 16.048906 0.558406 2.152224 0.015321 -0.006426 3717440.000000 1 0 0
-13.507908 -11.665606 -4.590941 18.428964 0.712344 1.822563 0.032589 -0.000816 -1979410.000000 1 0 0
-5.791308 -13.398306 9.943659 17.661546 1.162808 0.972771 0.012201 -0.007977 -583070.000000 1 0 0
0.200692 -13.985606 -3.612541 14.446035 -1.556447 1.823550 0.008520 -0.001297 -79251.100000 1 0 0
-14.759608 -11.610806 1.937759 18.878871 0.666554 1.467974 0.016618 -0.002001 290352.000000 1 0 0
-3.830408 -16.484406 -7.464941 18.496838 1.342482 1.986222 0.022121 -0.017026 329041.000000 1 0 0
0.566092 -15.275306 -9.281241 17.882866 -1.533754 2.116479 0.005910 0.003194 1146580.000000 1 0 0
4.559592 -14.099606 -2.635941 15.051145 -1.258026 1.746836 0.010421 -0.003160 114852.000000 1 0 0
-3.426708 -18.074306 -2.475641 18.562103 1.383430 1.704566 0.033935 -0.018381 1372100.000000 1 0 0
-0.866508 -13.469706 0.685159 13.514928 1.506555 1.520078 0.006783 -0.003790 2166290.000000 1 0 0
-8.449608 -11.416106 -10.403541 17.605597 0.933630 2.202998 0.015416 -0.006085 2284050.000000 1 0 0
-3.626408 -14.184406 -0.419041 14.646632 1.320496 1.599410 0.004224 -0.004230 4443440.000000 1 0 0
-1.424408 -14.917006 -7.130341 16.594812 1.475596 2.014927 0.011410 -0.005287 466015.000000 1 0 0
-14.091008 -8.033506 -1.815141 16.321412 0.518156 1.682239 0.005952 0.002180 3096500.000000 1 0 0
-10.753608 -7.411406 -11.608941 17.473882 0.603442 2.297433 0.024813 -0.006151 -1291720.000000 1 0 0
-9.412408 -14.668606 6.982459 18.775414 1.000299 1.189748 0.005273 -0.003485 439759.000000 1 0 0
-2.575208 -14.458106 -12.327541 19.173858 1.394530 2.269120 0.019257 -0.004443 -448060.000000 1 0 0
2.468892 -17.830006 -4.802541 18.629787 -1.433203 1.831529 0.033539 -0.011274 254413.000000 1 0 0
-6.520508 -9.758706 -9.190941 14.907139 0.981751 2.235145 0.003971 -0.003418 2006640.000000 1 0 0
-10.813508 -15.366606 0.561859 18.798411 0.957590 1.540903 0.024910 -0.015310 381501.000000 1 0 0
-12.615608 -11.043206 4.056259 17.249905 0.719034 1.333427 0.018396 -0.003328 2216380.000000 1 0 0
-16.968408 -8.983506 -1.608841 19.267035 0.486910 1.654396 0.003986 -0.000033 1359420.000000 1 0 0
-1.329008 -19.301106 -4.031141 19.762314 1.502048 1.776219 0.058415 -0.019536 -790403.000000 1 0 0
3.352292 -14.252906 -8.829841 17.098225 -1.339794 2.113460 0.016987 0.000248 -50235.700000 1 0 0
-4.319108 -8.103606 -13.040341 15.949095 1.081109 2.528066 0.005638 -0.001944 910748.000000 1 0 0
5.685292 -16.543406 1.331759 17.543672 -1.239782 1.494812 0.023333 -0.005218 3797100.000000 1 0 0
-2.753308 -13.779706 -3.203441 14.412601 1.373584 1.794935 0.003854 -0.000863 -450743.000000 1 0 0
-0.352208 -14.048506 3.681159 14.527061 1.545731 1.314603 0.006077 -0.004467 -4613930.000000 1 0 0
1.224092 -16.209206 7.069059 17.725924 -1.495421 1.160591 0.025236 -0.010926 796362.000000 1 0 0
-5.584908 -10.422706 -14.477741 18.693020 1.078889 2.456720 0.013700 -0.010420 -1100900.000000 1 0 0
-0.157708 -17.324406 -5.871341 18.292965 1.561693 1.897541 0.037370 -0.012975 31965.900000 1 0 0
-6.429608 -13.414306 -1.245241 14.927629 1.123837 1.654312 0.006479 -0.003932 2811000.000000 1 0 0
-1.584408 -17.749906 -0.152341 17.821132 1.481769 1.579345 0.023318 -0.012956 987560.000000 1 0 0
-9.468908 -9.827506 -4.824941 14.474812 0.803980 1.910634 0.010077 -0.001040 958242.000000 1 0 0
-0.735208 -16.649406 4.913659 17.374905 1.526667 1.284082 0.013162 -0.009935 1673740.000000 1 0 0
-6.784308 -9.928706 -6.272941 13.563032 0.971365 2.051612 0.007188 -0.003321 2995650.000000 1 0 0
-5.948908 -14.548006 -8.623641 17.927666 1.182628 2.072619 0.012594 -0.011947 -1182610.000000 1 0 0
-5.723508 -12.237406 -10.271041 16.970768 1.133316 2.220838 0.007297 -0.003918 1043790.000000 1 0 0
-10.580208 -12.254806 -8.531441 18.300453 0.858602 2.055773 0.036590 -0.019763 -437483.000000 1 0 0
4.007992 -16.977106 6.541659 18.630068 -1.338959 1.212014 0.049555 -0.019310 790316.000000 1 0 0
-6.675908 -14.422106 -4.081541 16.408043 1.137272 1.822188 0.021246 -0.015355 208697.000000 1 0 0
-2.819808 -12.217106 -7.033041 14.376115 1.343960 2.081988 0.001072 0.000033 3162150.000000 1 0 0
-7.139808 -12.810906 4.556659 15.357712 1.062349 1.269559 0.001385 -0.003292 934716.000000 1 0 0
2.677392 -16.453406 2.318959 16.830347 -1.409485 1.432572 0.020300 -0.009824 3078180.000000 1 0 0
-6.207508 -12.014406 7.326459 15.380381 1.093900 1.074296 0.002958 -0.003706 911057.000000 1 0 0
-11.097908 -12.987706 -0.889241 17.106573 0.863699 1.622802 0.031756 -0.005049 -91762.800000 1 0 0
-14.253208 -8.720006 4.710059 17.360217 0.549045 1.296039 0.019379 -0.002811 586203.000000 1 0 0
-7.948008 -15.528406 4.575359 18.034305 1.097724 1.314290 0.002168 -0.002344 2315710.000000 1 0 0
-16.524908 -9.196206 1.292059 18.955533 0.507824 1.502581 0.005111 0.001952 -296441.000000 1 0 0
-6.435308 -16.899506 2.459859 18.249861 1.206952 1.435597 0.005459 -0.011040 2007190.000000 1 0 0
-11.550508 -14.953106 -4.656341 19.459988 0.913082 1.812418 0.057019 -0.016367 206920.000000 1 0 0
-10.091908 -10.055206 -12.502641 18.954415 0.783576 2.291104 0.021223 -0.004123 1558950.000000 1 0 0
-4.316708 -16.042006 -4.554041 17.225540 1.307935 1.838354 0.014636 -0.010124 -364552.000000 1 0 0
-11.723808 -8.354206 0.043759 14.395915 0.619122 1.567757 0.003029 0.001684 1731680.000000 1 0 0
-9.595608 -11.138406 3.515259 15.116112 0.859670 1.336097 0.001718 0.003171 1416560.000000 1 0 0
-14.078708 -13.089806 -0.464941 19.229385 0.749015 1.594977 0.021015 -0.001762 2254020.000000 1 0 0
5.608992 -14.821206 -7.091541 17.361420 -1.209010 1.991569 0.010075 -0.011293 386905.000000 1 0 0
-7.337308 -10.511506 -1.282441 12.883032 0.961396 1.670506 0.004746 0.003663 598899.000000 1 0 0
-11.612508 -8.277906 -6.050941 15.491545 0.619294 1.972076 0.010955 -0.002424 501844.000000 1 0 0
-14.398808 -6.666806 -9.277141 18.380352 0.433621 2.099867 0.031660 -0.011130 1835690.000000 1 0 0
-3.730908 -16.400206 1.497659 16.885776 1.347112 1.481986 0.011008 -0.012549 1258990.000000 1 0 0
-7.870608 -15.468106 0.234159 17.356947 1.100111 1.557305 0.023671 -0.012122 1373430.000000 1 0 0
1.040292 -18.584606 3.740859 18.985885 -1.514879 1.372465 0.024946 -0.010461 708373.000000 1 0 0
-14.034608 -8.800706 -4.600741 17.192716 0.560088 1.841696 0.015740 -0.003347 -1451250.000000 1 0 0
-3.288308 -14.373606 11.173859 18.500504 1.345893 0.922316 0.007525 -0.016720 -401740.000000 1 0 0
-10.780908 -12.201306 -3.720041 16.701454 0.847124 1.795418 0.037052 -0.008142 1807430.000000 1 0 0
-9.821408 -10.772306 0.544259 14.587627 0.831540 1.533478 0.005121 0.004354 1408530.000000 1 0 0
-0.254708 -13.248006 -11.107741 17.290358 1.551573 2.268454 0.002178 -0.000137 600758.000000 1 0 0
-5.885508 -12.705506 -6.362741 15.380298 1.136999 1.997304 0.001670 -0.007680 1395170.000000 1 0 0
1.769192 -15.675306 9.857359 18.601419 -1.458407 1.012284 0.026361 -0.018858 -589534.000000 1 0 0
-8.903708 -15.820506 -5.312241 18.915189 1.058182 1.855471 0.054287 -0.021282 -461017.000000 1 0 0
-3.244908 -15.425406 5.962259 16.852926 1.363458 1.209185 -0.000243 -0.006810 -251614.000000 1 0 0
-17.509408 -5.453806 -6.606041 19.492644 0.301954 1.916543 0.027360 -0.007071 -637314.000000 1 0 0
18.701992 5.720794 -3.012641 19.788077 0.296854 1.723636 0.012092 -0.001371 -72543.200000 1 0 0
12.870492 -12.491706 -5.847541 18.864942 -0.770464 1.885956 0.039934 -0.001879 -1180570.000000 1 0 0
11.089292 -13.369306 -1.666641 17.449597 -0.878349 1.666454 0.032572 -0.008424 3409910.000000 1 0 0
18.703892 -2.854606 4.531059 19.455458 -0.151452 1.335744 0.083195 -0.010763 -1121110.000000 1 0 0
8.992792 -16.713906 4.966559 19.618656 -1.077180 1.314856 0.074982 -0.021512 334836.000000 1 0 0
18.170492 -0.989806 6.697659 19.390851 -0.054420 1.218128 0.115221 -0.017267 -568930.000000 1 0 0
18.096292 -4.188806 -4.998741 19.235625 -0.227467 1.833683 0.093372 -0.007962 50943.200000 1 0 0
5.496492 -11.651606 14.747959 19.582483 -1.130014 0.718005 0.004899 -0.006419 -530532.000000 1 0 0
16.031592 -8.880106 -0.786841 18.343591 -0.505842 1.613704 0.035767 -0.003839 -364952.000000 1 0 0
13.997092 -12.608806 -1.452641 18.894728 -0.733266 1.647753 0.041033 0.001402 820892.000000 1 0 0
11.346492 -1.860006 13.954759 18.081421 -0.162483 0.689171 0.051142 -0.006979 -101546.000000 1 0 0
17.029592 -6.111806 -1.414441 18.148328 -0.344576 1.648813 0.047119 -0.003915 -868513.000000 1 0 0
17.753592 3.786594 -1.114341 18.187085 0.210137 1.632106 0.018001 0.005713 1349830.000000 1 0 0
9.705692 -11.035506 9.550259 17.526845 -0.849425 0.994535 0.023883 -0.007204 -300016.000000 1 0 0
9.118592 -11.066906 4.222759 14.948472 -0.881621 1.284410 0.022204 -0.005717 -574477.000000 1 0 0
14.187192 -10.129006 6.880259 18.740628 -0.620030 1.194874 0.067630 -0.014907 -585645.000000 1 0 0
16.322692 -0.560206 -4.803841 17.024129 -0.034307 1.856860 0.044652 -0.001755 -1532880.000000 1 0 0
15.891492 -0.371306 -1.801141 15.997546 -0.023361 1.683624 0.034658 -0.000114 2273990.000000 1 0 0
12.983992 -5.041406 -0.205141 13.929892 -0.370361 1.585524 0.015888 -0.002463 901978.000000 1 0 0
14.367292 -7.444406 1.090759 16.218138 -0.478062 1.503490 0.031533 -0.003053 1689250.000000 1 0 0
15.566392 2.539794 3.669359 16.193434 0.161734 1.342216 0.028857 -0.004782 1479820.000000 1 0 0
15.978192 -6.974606 5.126859 18.172298 -0.411577 1.284788 0.066731 -0.016541 -1545190.000000 1 0 0
13.869992 -12.051506 3.239159 18.657643 -0.715359 1.396302 0.042410 -0.003667 700101.000000 1 0 0
14.032892 -0.934606 9.220459 16.817027 -0.066503 0.990489 0.065278 -0.012713 1447680.000000 1 0 0
14.255092 -2.744306 -1.594941 14.604201 -0.190187 1.680226 0.014577 -0.001100 -88510.500000 1 0 0
15.077892 1.854894 9.092959 17.704953 0.122406 1.031441 0.070549 -0.013086 -1250970.000000 1 0 0
14.449292 -10.092306 -2.985541 17.875965 -0.609694 1.738597 0.037753 -0.003053 289455.000000 1 0 0
7.372792 -12.572006 6.082159 15.792595 -1.040403 1.175451 0.009039 -0.003288 42237.400000 1 0 0
12.454992 -4.637906 6.956659 15.001070 -0.356466 1.088580 0.026937 -0.006700 2098240.000000 1 0 0
15.045592 -8.965406 -5.647941 18.402380 -0.537387 1.882745 0.060153 -0.003033 707192.000000 1 0 0
14.383492 -4.448106 4.704959 15.773621 -0.299922 1.267906 0.031205 -0.008882 527216.000000 1 0 0
17.222092 -4.175306 0.998359 17.749094 -0.237850 1.514518 0.039809 -0.007882 -73973.700000 1 0 0
10.289292 -14.336906 1.024659 17.676717 -0.948304 1.512797 0.045048 -0.006900 -98492.000000 1 0 0
16.463092 -2.578706 8.575259 18.740816 -0.155373 1.095535 0.111001 -0.016396 766862.000000 1 0 0
16.076192 -2.551306 3.188559 16.586742 -0.157388 1.377357 0.038465 -0.002515 1103860.000000 1 0 0
7.937692 -15.140606 2.654759 17.300077 -1.087926 1.416734 0.029689 -0.006867 1745630.000000 1 0 0
16.657492 -7.070506 8.066959 19.812620 -0.401417 1.151451 0.097421 -0.013562 -854399.000000 1 0 0
10.301092 -8.539506 5.201959 14.356045 -0.692170 1.200005 0.017135 -0.006977 1822490.000000 1 0 0
11.063392 -11.759306 2.126759 16.285055 -0.815881 1.439826 0.033396 -0.004378 1366460.000000 1 0 0
12.384492 -7.369506 12.014459 18.762529 -0.536779 0.875851 0.058867 -0.019401 -123380.000000 1 0 0
15.292192 -9.744206 4.344559 18.646069 -0.567325 1.335634 0.055858 -0.010851 73935.800000 1 0 0
7.343592 -10.214006 7.800059 14.801864 -0.947450 1.015771 0.008019 -0.000695 1296770.000000 1 0 0
15.329792 -3.355906 -4.402041 16.298545 -0.215514 1.844281 0.055816 -0.001268 -243111.000000 1 0 0
11.793292 -9.052406 9.777659 17.794111 -0.654664 0.989044 0.050793 -0.012356 -1027250.000000 1 0 0
17.014692 -6.570706 2.458159 18.404251 -0.368535 1.436831 0.053455 -0.008335 969873.000000 1 0 0
17.584292 3.988994 1.935359 18.134635 0.223074 1.463871 0.034361 0.002082 58908.300000 1 0 0
14.801892 -4.936206 8.816059 17.921636 -0.321887 1.056500 0.084567 -0.015953 271086.000000 1 0 0
12.884592 -12.621006 6.034759 19.018959 -0.775064 1.247913 0.048202 -0.009532 -36201.900000 1 0 0
18.422292 0.889394 -1.117941 18.477598 0.048241 1.631336 0.054170 0.000279 1964160.000000 1 0 0
11.775892 -2.125106 11.027559 16.272515 -0.178541 0.826193 0.037292 -0.005192 1974000.000000 1 0 0
5.743692 -12.438606 10.511959 17.268764 -1.138203 0.916342 0.000354 -0.001764 -1819000.000000 1 0 0
10.861192 -5.038806 11.024959 16.275895 -0.434376 0.826602 0.035108 -0.008467 764624.000000 1 0 0
17.891192 1.288194 4.923359 18.600904 0.071878 1.302920 0.068471 -0.003613 -1020780.000000 1 0 0
12.326192 -7.752906 7.237659 16.261189 -0.561455 1.109524 0.041063 -0.012160 -48190.100000 1 0 0
10.673792 -7.902906 14.329059 19.537341 -0.637331 0.747458 0.054609 -0.017244 150884.000000 1 0 0
14.178592 -0.191606 3.741559 14.665212 -0.013513 1.312813 0.013251 -0.002041 2003600.000000 1 0 0
11.760992 -7.650906 2.655859 14.279737 -0.576749 1.383719 0.020924 -0.002295 2141620.000000 1 0 0
9.266592 6.096594 3.589759 11.658668 0.581917 1.257806 0.006672 -0.000899 3288560.000000 1 0 0
-4.059108 14.767594 -9.954041 18.265846 -1.302555 2.147130 0.019231 -0.005233 294702.000000 1 0 0
8.963692 -6.440206 9.214859 14.378374 -0.623019 0.875148 0.012470 -0.004654 -326518.000000 1 0 0
5.887592 -10.382606 -8.558341 14.686983 -1.054947 2.192863 0.006057 -0.004132 756352.000000 1 0 0
5.429492 1.037094 0.574359 5.557412 0.188738 1.467261 0.006532 0.000878 3458000.000000 1 0 0
-0.486008 9.852394 10.950059 14.738034 -1.521507 0.733285 0.014114 -0.004270 1171310.000000 1 0 0
-6.325008 -5.231106 1.005359 8.269278 0.691019 1.448917 0.005785 -0.003349 1544480.000000 1 0 0
-1.086308 3.997694 -10.947941 11.705513 -1.305469 2.779848 0.010155 -0.008128 1375510.000000 1 0 0
10.933992 5.788894 1.251459 12.435015 0.486921 1.469986 0.001173 -0.000183 2126480.000000 1 0 0
-10.034708 -1.834306 -13.566941 16.974155 0.180800 2.496877 0.014463 -0.004543 1178860.000000 1 0 0
7.418392 10.931294 -6.141941 14.568773 0.974552 2.005986 0.006066 -0.002291 1347970.000000 1 0 0
-12.477708 -2.947606 -9.613941 16.025276 0.231977 2.214202 0.022059 -0.002611 1202600.000000 1 0 0
-3.959408 -8.755206 2.529359 9.936207 1.146086 1.313404 0.005192 -0.000101 -1844460.000000 1 0 0
8.118192 -6.573406 -5.884741 11.989366 -0.680636 2.083839 0.006597 -0.004847 997188.000000 1 0 0
14.276292 3.112794 -4.318841 15.236613 0.214679 1.858188 0.017361 -0.002760 1285280.000000 1 0 0
-2.497108 -4.815706 9.814959 11.214276 1.092432 0.504906 0.000355 -0.000139 1060280.000000 1 0 0
3.499892 -1.891406 -4.646141 6.116640 -0.495457 2.433479 0.006278 -0.000494 -2923970.000000 1 0 0
-3.996308 8.443894 -3.441641 9.955637 -1.128754 1.923779 0.000090 -0.003244 754407.000000 1 0 0
5.838392 0.174794 11.766559 13.136563 0.029930 0.460769 0.012621 -0.006002 1692270.000000 1 0 0
7.221792 4.702694 12.456659 15.147209 0.577205 0.605227 0.019492 -0.003796 -676169.000000 1 0 0
1.227692 -14.325906 12.431659 19.007498 -1.485308 0.857884 0.004676 -0.010405 -1265080.000000 1 0 0
2.982092 8.803494 -9.101641 13.009006 1.244188 2.345692 0.006671 -0.001014 321741.000000 1 0 0
-4.442408 -8.839606 -4.546641 10.887864 1.105105 2.001585 0.005824 -0.001723 468955.000000 1 0 0
5.615592 -6.467106 -4.199041 9.538883 -0.855756 2.026621 0.005695 -0.003267 2873650.000000 1 0 0
-3.204308 3.449294 8.685659 9.879569 -0.822201 0.496713 0.001880 -0.001609 2428660.000000 1 0 0
-3.773008 3.145294 -11.131241 12.166881 -0.694913 2.726008 0.002758 -0.007882 -606645.000000 1 0 0
3.063092 -6.022306 8.624059 10.955597 -1.100273 0.664569 -0.002144 -0.000156 -657886.000000 1 0 0
-5.168408 -8.616806 10.597259 14.603551 1.030520 0.758799 0.006116 -0.004793 2301210.000000 1 0 0
-13.215408 -2.535806 6.514959 14.950653 0.189578 1.119909 0.023185 -0.006101 -351172.000000 1 0 0
3.947692 -5.907906 -8.370041 10.979309 -0.981730 2.437728 0.005180 -0.002271 3667690.000000 1 0 0
2.952492 -0.452106 12.441859 12.795369 -0.151947 0.235610 0.002273 -0.004256 959875.000000 1 0 0
1.461692 -1.385106 -7.592741 7.855239 -0.758502 2.882345 0.003942 -0.003261 -587161.000000 1 0 0
3.618992 -3.432106 3.419859 6.047470 -0.758900 0.969754 0.001195 0.000898 2660780.000000 1 0 0
1.557892 0.412094 -11.880141 11.988937 0.258597 3.006771 0.008289 -0.007027 941813.000000 1 0 0
4.086292 3.524494 -10.622841 11.914889 0.711716 2.671575 0.001722 0.000436 1475490.000000 1 0 0
2.808192 3.285894 3.414359 5.508256 0.863626 0.902229 -0.001559 0.001975 -953236.000000 1 0 0
-5.307808 0.911894 2.671859 6.011922 -0.170141 1.110262 0.001842 -0.003265 1911180.000000 1 0 0
-9.520308 -9.245306 5.687759 14.438233 0.770745 1.165885 0.008770 0.000998 -1456420.000000 1 0 0
-3.053308 3.880094 -0.531441 4.965909 -0.904084 1.678020 -0.000223 -0.003881 -61149.500000 1 0 0
-15.891008 -6.567806 5.051559 17.921453 0.391922 1.285051 0.044278 -0.008316 553970.000000 1 0 0
1.011292 6.747194 -8.145341 10.625155 1.422021 2.444340 0.005398 -0.001920 568490.000000 1 0 0
-1.578608 6.586194 -9.481241 11.651776 -1.335550 2.521314 0.005179 -0.003148 167123.000000 1 0 0
2.050992 -0.372306 5.291059 5.686869 -0.179570 0.375296 -0.001231 0.000050 2684130.000000 1 0 0
-3.426408 -0.580206 -6.308841 7.202666 0.167743 2.638102 0.004688 -0.006340 -122416.000000 1 0 0
1.852792 -1.152506 -2.512141 3.327456 -0.556466 2.426410 0.008674 0.000589 1492530.000000 1 0 0
2.483292 -8.582706 -7.647841 11.760912 -1.289151 2.278744 0.002712 -0.000456 903281.000000 1 0 0
-2.524608 13.957594 -5.611941 15.253916 -1.391854 1.947548 0.004078 -0.000177 2300410.000000 1 0 0
6.879492 -5.093006 -8.197341 11.851689 -0.637275 2.334582 0.009973 -0.005179 3827290.000000 1 0 0
-14.189008 -5.060706 -2.175641 15.220779 0.342599 1.714226 0.000235 0.001801 -81796.600000 1 0 0
-2.747508 6.894694 -6.783241 10.054748 -1.191587 2.311261 0.001208 -0.001540 -2468360.000000 1 0 0
-5.686608 -1.141506 -8.088641 9.953224 0.198103 2.519508 0.009596 -0.007582 450805.000000 1 0 0
-5.668208 -10.693606 3.452459 12.585757 1.083394 1.292919 0.003680 0.000566 -2713510.000000 1 0 0
8.104792 -7.497906 6.665259 12.896973 -0.746522 1.027678 0.008308 -0.004268 879890.000000 1 0 0
8.928092 -5.885706 13.092059 16.904271 -0.582840 0.684900 0.032628 -0.008291 463442.000000 1 0 0
-4.797708 9.486294 -0.689041 10.652819 -1.102558 1.635523 0.001528 -0.001156 970495.000000 1 0 0
2.826692 6.613994 12.185659 14.150102 1.166911 0.533227 0.011599 -0.003670 1193900.000000 1 0 0
6.038692 -2.747006 11.001859 12.847285 -0.426922 0.542624 0.011846 -0.002006 323010.000000 1 0 0
-9.639708 -6.444106 -1.112341 11.648510 0.589268 1.666434 0.004142 -0.002131 -60691.800000 1 0 0
0.929092 -13.356006 6.290259 14.792345 -1.501345 1.131572 0.006774 -0.007259 782158.000000 1 0 0
-0.473008 -3.078406 8.734259 9.272950 1.418335 0.342532 -0.002399 -0.000773 521101.000000 1 0 0
4.225492 0.790594 3.418659 5.492453 0.184962 0.898955 -0.000041 0.003069 1411900.000000 1 0 0
-10.304808 5.615294 8.327859 14.390060 -0.498934 0.953634 -0.002981 -0.006504 997034.000000 1 0 0
9.334292 7.934294 -0.008341 12.250799 0.704503 1.571477 0.002385 -0.000873 -1623950.000000 1 0 0
4.296492 2.837594 8.235959 9.713022 0.583682 0.558729 0.000351 -0.003668 3830150.000000 1 0 0
1.297192 2.624694 -9.880241 10.304896 1.111779 2.853512 0.006916 -0.004410 2132230.000000 1 0 0
-1.364908 -10.146406 3.039259 10.679402 1.437078 1.282217 0.005348 -0.002169 -2498500.000000 1 0 0
-10.058008 9.524594 9.066959 16.555699 -0.758166 0.991227 0.004135 -0.008980 2384160.000000 1 0 0
9.796992 -2.005306 -7.661741 12.597800 -0.201897 2.224563 0.015280 0.000597 1855600.000000 1 0 0
-5.126408 -1.789606 6.664459 8.596381 0.335869 0.683664 0.000769 -0.001814 1931270.000000 1 0 0
3.084792 -7.806706 -5.007441 9.774204 -1.194481 2.108671 0.003500 -0.002712 1153220.000000 1 0 0
-5.122108 4.807494 -13.106541 14.870421 -0.753724 2.649579 0.001020 -0.007618 2525530.000000 1 0 0
-5.732308 9.570894 5.530659 12.451889 -1.031163 1.110557 0.002144 -0.004621 1174430.000000 1 0 0
-0.486208 -1.684706 -9.452141 9.613408 1.289830 2.958168 0.005512 -0.006102 436563.000000 1 0 0
-16.726808 -0.079606 6.506059 17.947737 0.004759 1.199847 0.043393 -0.019191 -2170170.000000 1 0 0
-5.891108 -2.876006 4.077959 7.720513 0.454159 1.014319 0.002141 -0.001353 1026960.000000 1 0 0
0.954792 -5.637906 -5.082241 7.650281 -1.403036 2.297381 0.005434 -0.003464 1252480.000000 1 0 0
-6.989108 1.375194 -8.527741 11.111308 -0.194281 2.445702 0.004727 -0.004117 1473710.000000 1 0 0
8.066492 1.975894 4.807659 9.596146 0.240221 1.046044 0.003835 -0.000960 760163.000000 1 0 0
0.505692 -8.092306 -0.446141 8.120357 -1.508387 1.625765 0.001574 0.000827 1793570.000000 1 0 0
5.467192 5.511994 -3.417741 8.482524 0.789479 1.985497 0.003419 0.001816 287918.000000 1 0 0
-0.771008 -0.336906 -1.265541 1.519722 0.411964 2.554844 0.005105 -0.002046 313731.000000 1 0 0
9.063792 6.359394 -6.406541 12.792106 0.611817 2.095342 0.000407 -0.003111 1361460.000000 1 0 0
-14.977108 -7.104206 2.539859 16.770045 0.442908 1.418759 0.003687 -0.005039 1956190.000000 1 0 0
-6.508508 6.855194 8.967959 13.029913 -0.811335 0.811709 0.001408 -0.002566 -746434.000000 1 0 0
-9.496908 -3.227006 -9.589041 13.876403 0.327555 2.333712 0.008442 -0.002904 1574730.000000 1 0 0
14.850092 3.501694 -1.354641 15.317380 0.231573 1.659350 0.010095 -0.000046 1180630.000000 1 0 0
11.977192 1.655794 -5.914241 13.460053 0.137375 2.025718 0.009727 -0.000546 515382.000000 1 0 0
1.712592 -9.350006 12.728159 15.885894 -1.389640 0.641458 -0.000139 -0.005788 2486320.000000 1 0 0
-3.725508 6.324694 7.988559 10.848882 -1.038473 0.743139 0.002652 -0.003250 2946670.000000 1 0 0
-4.170308 13.028594 -12.358541 18.435543 -1.261013 2.305497 0.015843 -0.006936 1120150.000000 1 0 0
-10.317608 7.813594 6.458659 14.464424 -0.648161 1.107924 -0.002592 -0.003938 1128890.000000 1 0 0
8.155692 -9.200006 -7.146941 14.220907 -0.845497 2.097360 0.008953 -0.004771 1345.150000 1 0 0
5.889492 -3.826406 -0.331041 7.031151 -0.576165 1.617896 0.009434 -0.001157 -2224830.000000 1 0 0
-1.581308 -4.428506 4.129759 6.258364 1.227833 0.850139 -0.001640 0.002948 261618.000000 1 0 0
9.947792 -1.950806 -2.572841 10.458667 -0.193647 1.819348 0.009351 -0.002259 -3007970.000000 1 0 0
13.610192 7.001694 1.365859 15.366411 0.475137 1.481793 0.011692 -0.003905 -467968.000000 1 0 0
5.421492 -3.660006 -3.279541 7.317350 -0.593813 2.035533 0.008535 -0.003883 -1757140.000000 1 0 0
-12.215308 -6.051806 1.972959 13.774276 0.459983 1.427067 0.002337 -0.002198 377524.000000 1 0 0
3.789892 -5.741806 -0.237641 6.883901 -0.987387 1.605324 0.005648 -0.000442 -1016450.000000 1 0 0
-5.222908 3.753994 -8.706141 10.824423 -0.623203 2.505302 0.000324 -0.003978 836091.000000 1 0 0
-1.775108 -9.199706 7.247259 11.845183 1.380186 0.912422 0.001001 -0.001886 3692630.000000 1 0 0
-7.405608 -7.459006 2.587459 10.824729 0.788990 1.329427 0.006775 -0.000432 -3716640.000000 1 0 0
-5.860008 13.030494 -8.544641 16.647653 -1.148179 2.109780 0.013838 -0.007900 1644320.000000 1 0 0
9.317692 -13.868306 -4.221641 17.232863 -0.979200 1.818291 0.022020 -0.002060 418582.000000 1 0 0
-6.457808 -5.137006 -6.791341 10.687116 0.671974 2.259413 0.008716 -0.004500 104528.000000 1 0 0
3.378992 0.408994 -6.305041 7.165082 0.120454 2.646591 0.006465 -0.001963 1247350.000000 1 0 0
-3.701908 5.838494 5.027959 8.548246 -1.005714 0.941982 0.002015 -0.001002 -508177.000000 1 0 0
-2.630708 -10.738006 -2.804841 11.405812 1.330538 1.819258 0.007487 -0.000886 2382300.000000 1 0 0
-12.560308 -0.534706 1.734059 12.690714 0.042545 1.433728 0.003450 -0.005395 123598.000000 1 0 0
8.428692 -11.905406 -6.141241 15.827078 -0.954740 1.969280 0.018140 -0.007477 -182212.000000 1 0 0
6.199192 3.935494 1.073059 7.420885 0.565644 1.425688 0.004104 0.000460 -483259.000000 1 0 0
3.463092 -4.766806 -11.041341 12.515057 -0.942505 2.651405 0.006727 -0.003147 -850460.000000 1 0 0
-7.705208 4.250594 8.613659 12.313931 -0.504111 0.796091 -0.000925 -0.000281 2282040.000000 1 0 0
8.089092 8.744494 4.095959 12.596684 0.824313 1.239614 0.009441 -0.000783 1638000.000000 1 0 0
0.166792 10.558794 -6.262741 12.277535 1.555001 2.106095 0.003815 -0.000721 1354090.000000 1 0 0
5.300192 8.056094 3.288959 10.188715 0.988880 1.242106 0.005040 -0.000605 2809790.000000 1 0 0
8.053992 6.700694 -3.841441 11.158976 0.693934 1.922233 -0.001167 -0.000387 1226540.000000 1 0 0
10.474092 2.530394 -8.274141 13.585687 0.237044 2.225638 0.001466 0.001311 377874.000000 1 0 0
3.357192 -12.453306 -0.260941 12.900530 -1.307474 1.591025 0.002954 -0.005074 -2035590.000000 1 0 0
0.583192 2.129994 5.225759 5.673230 1.303546 0.399833 0.000577 -0.000207 826174.000000 1 0 0
-4.914208 13.340094 1.430959 14.288288 -1.217843 1.470479 0.002668 -0.000231 1437760.000000 1 0 0
8.133192 4.045494 -8.043041 12.132821 0.461570 2.295503 -0.000406 0.001711 102815.000000 1 0 0
-13.879608 -0.600106 -3.586741 14.348114 0.043210 1.823456 0.001024 -0.000012 -116653.000000 1 0 0
-8.644308 0.023894 -0.471641 8.657198 -0.002764 1.625303 0.000985 -0.004146 -424183.000000 1 0 0
1.855492 -3.788106 -1.091041 4.356945 -1.115326 1.823904 0.003156 -0.000013 -1574520.000000 1 0 0
8.091092 -5.640906 -0.254441 9.866627 -0.608827 1.596587 0.011625 -0.002623 2665090.000000 1 0 0
-2.216508 -1.106406 7.405459 7.808833 0.462980 0.322822 0.000141 -0.001442 2466150.000000 1 0 0
-5.818708 8.764794 -11.724441 15.752508 -0.984730 2.410268 0.001442 -0.003580 -1266230.000000 1 0 0
-6.232208 9.136794 -8.801341 14.134533 -0.972185 2.242964 0.009967 -0.004101 -799631.000000 1 0 0
-1.626308 13.951694 -8.370041 16.350909 -1.454753 2.108192 0.018154 -0.005065 1015600.000000 1 0 0
-1.509908 7.179894 9.778659 12.225092 -1.363520 0.643694 0.004830 -0.003976 956543.000000 1 0 0
10.068092 2.354594 -4.005541 11.088505 0.229738 1.940387 0.004711 0.000299 -968258.000000 1 0 0
-3.031408 -7.524406 -6.937841 10.674257 1.187812 2.278328 0.007063 -0.002539 1578810.000000 1 0 0
-5.588808 -4.915106 -1.665941 7.626822 0.721348 1.791004 0.004942 -0.001314 204662.000000 1 0 0
5.715492 7.441494 -8.795341 12.860820 0.915839 2.323873 0.001894 0.001809 972049.000000 1 0 0
-9.499608 5.264494 -7.446241 13.168294 -0.506047 2.171796 0.008077 -0.004165 73402.200000 1 0 0
-0.439008 6.167194 -5.314541 8.152997 -1.499732 2.280819 0.004264 -0.001714 -461867.000000 1 0 0
-8.193508 2.798494 -6.317441 10.717985 -0.329127 2.201142 0.006594 -0.001699 1494290.000000 1 0 0
3.643692 1.382294 -1.978541 4.370566 0.362593 2.040584 0.005702 -0.000485 2809730.000000 1 0 0
-6.883608 12.452094 -3.614941 14.680140 -1.065800 1.819602 0.013161 -0.000654 2180800.000000 1 0 0
-6.563308 3.095994 -2.295541 7.611288 -0.440762 1.877163 0.002953 -0.003013 -1087330.000000 1 0 0
12.046992 4.044794 -0.779241 12.731755 0.323925 1.632039 -0.000266 0.000180 -2127690.000000 1 0 0
2.183392 12.325094 -5.585541 13.706692 1.395465 1.990516 0.012047 -0.005682 -226994.000000 1 0 0
-9.141508 -1.517306 -4.221141 10.182702 0.164480 1.998234 0.006451 -0.001582 -761765.000000 1 0 0
-1.212908 5.752294 3.598659 6.892777 -1.362984 1.021495 0.002772 -0.000819 113454.000000 1 0 0
11.648992 2.740494 12.063159 16.992031 0.231054 0.781397 0.060638 -0.002541 -488445.000000 1 0 0
-7.025508 -2.355206 -5.718741 9.359956 0.323462 2.228094 0.009550 -0.005003 -602766.000000 1 0 0
7.555292 -7.324106 10.845759 15.111434 -0.769862 0.770276 0.006753 -0.002018 -311384.000000 1 0 0
-5.505608 -1.972406 -10.925441 12.392231 0.344009 2.650115 0.008791 -0.004514 417171.000000 1 0 0
0.893592 -6.173306 4.451959 7.663430 -1.427044 0.950919 -0.001165 0.001911 1613110.000000 1 0 0
-4.863808 -9.409406 7.536759 12.999858 1.093713 0.952366 0.002214 -0.001679 2247740.000000 1 0 0
-8.888508 9.309394 1.553059 12.964659 -0.808522 1.450716 0.002377 -0.002176 841741.000000 1 0 0
-8.147908 7.207394 -9.193141 14.242499 -0.724224 2.272438 0.004954 -0.002975 -1612230.000000 1 0 0
-1.224408 -10.615106 -0.092641 10.685890 1.455958 1.579466 0.006464 -0.002175 -1299230.000000 1 0 0
-4.022808 10.273694 7.787159 13.504503 -1.197583 0.956193 0.005126 -0.004361 1744920.000000 1 0 0
-7.477308 11.940394 1.971359 14.225660 -1.011320 1.431771 -0.001941 -0.006514 2035400.000000 1 0 0
-8.174208 -8.279906 -2.852041 11.979511 0.791822 1.811181 0.004987 -0.003096 -262774.000000 1 0 0
5.423392 4.592694 -8.116741 10.788304 0.702651 2.422441 0.003334 0.002549 -80429.500000 1 0 0
-8.965208 -0.226906 -10.231641 13.605621 0.025304 2.421911 0.007803 -0.003076 -1264260.000000 1 0 0
-15.198508 -2.245006 -1.545541 15.440965 0.146652 1.671058 -0.003181 -0.000741 -121274.000000 1 0 0
-7.155808 -5.751806 8.715859 12.659189 0.677051 0.811377 0.009168 0.001050 -585821.000000 1 0 0
8.165792 3.484594 -0.958041 8.929747 0.403336 1.678290 0.003601 0.001825 847446.000000 1 0 0
11.890592 7.161694 -5.918041 15.089706 0.542108 1.973808 0.002911 -0.006445 614871.000000 1 0 0
3.737292 13.361594 -9.585541 16.863633 1.298062 2.175374 0.012884 -0.005894 838458.000000 1 0 0
-9.852308 5.428694 -0.522641 11.261077 -0.503616 1.617224 0.000606 -0.000910 1735780.000000 1 0 0
11.327092 -1.321606 -5.214241 12.539456 -0.116151 1.999648 0.017264 -0.002744 -1731430.000000 1 0 0
10.671492 1.763694 -1.319841 10.896482 0.163791 1.692220 0.005297 -0.000613 -309383.000000 1 0 0
14.662192 5.059494 4.807059 16.238416 0.332277 1.270263 0.028507 -0.008089 3861810.000000 1 0 0
0.839492 -0.780106 10.385159 10.448198 -0.748748 0.109905 0.001107 -0.002412 434464.000000 1 0 0
-7.932608 1.283594 -12.665341 14.999492 -0.160422 2.576212 0.002835 -0.004615 -168411.000000 1 0 0
3.187792 -11.529506 -7.847141 14.306263 -1.301046 2.151379 0.001168 0.001046 576361.000000 1 0 0
2.862092 5.043594 -6.876441 8.995268 1.054639 2.440986 0.005338 0.000823 -2371730.000000 1 0 0
6.462192 7.901094 0.591159 10.224317 0.885244 1.512945 0.006123 -0.001712 151216.000000 1 0 0
-9.045608 -5.379506 6.720659 12.487168 0.536520 1.002490 0.006716 -0.000434 -3115800.000000 1 0 0
-0.219308 -6.870406 -11.829641 13.681776 1.538886 2.615205 0.001260 0.001570 1435420.000000 1 0 0
6.522892 -13.364106 -4.668241 15.586530 -1.116722 1.874970 0.008715 -0.003832 2264880.000000 1 0 0
-3.185308 -0.286806 10.069259 10.564962 0.089798 0.307542 0.000317 -0.000798 1192440.000000 1 0 0
8.624392 8.511194 6.957759 13.972507 0.778792 1.049551 0.004653 -0.000968 -665992.000000 1 0 0
-7.965808 5.625594 -2.650741 10.105832 -0.614887 1.836199 0.003605 -0.003913 1676720.000000 1 0 0
-5.378208 5.779294 -6.407641 10.167754 -0.821330 2.252597 0.000436 -0.000856 -1352580.000000 1 0 0
3.319592 -13.648206 2.599059 14.284549 -1.332204 1.387828 0.009176 -0.007226 -1824890.000000 1 0 0
-11.247308 -7.008506 6.506659 14.763391 0.557252 1.114385 0.022849 -0.001957 -237027.000000 1 0 0
-12.906708 -3.732206 -6.763041 15.041649 0.281490 2.037137 0.011010 -0.002176 -333009.000000 1 0 0
6.024992 0.331194 -7.284441 9.459032 0.054915 2.449801 0.004542 0.001380 975619.000000 1 0 0
-1.437308 2.263494 -2.539841 3.693244 -1.005041 2.329112 0.003056 -0.003509 1687950.000000 1 0 0
7.614792 0.869394 -4.966841 9.132930 0.113679 2.145801 0.004880 0.001815 1218860.000000 1 0 0
3.659992 -4.366706 10.947359 12.341326 -0.873217 0.479883 0.000856 -0.001621 1375190.000000 1 0 0
6.028192 -2.513306 2.037459 6.841567 -0.395012 1.268403 0.008460 -0.001128 -1104410.000000 1 0 0
-6.386608 7.728494 1.132259 10.089618 -0.880181 1.458339 0.001189 -0.002500 1300550.000000 1 0 0
6.023192 -3.357606 8.018659 10.575975 -0.508542 0.710255 0.006146 -0.002054 657893.000000 1 0 0
6.752692 -2.255106 -7.889541 10.626816 -0.322311 2.407469 0.009356 -0.002472 228748.000000 1 0 0
12.079292 -8.186706 -5.804641 15.704309 -0.595635 1.949397 0.031191 -0.007405 127414.000000 1 0 0
5.593692 -9.574506 9.967159 14.909890 -1.042055 0.838616 -0.002684 0.001666 2507510.000000 1 0 0
-6.623208 7.522994 -4.509141 10.990663 -0.848919 1.993547 0.005232 -0.002793 642749.000000 1 0 0
-1.325808 -7.492606 9.736859 12.357319 1.395660 0.663336 0.002465 -0.002907 -1153030.000000 1 0 0
10.131092 -9.194206 0.777559 13.703177 -0.736956 1.514023 0.016449 -0.002754 1109580.000000 1 0 0
11.114892 6.109294 9.758459 16.002868 0.502574 0.914995 0.011510 -0.007510 1555550.000000 1 0 0
-15.267808 -4.263006 -4.980441 16.615775 0.272281 1.875218 0.000572 -0.001004 1941610.000000 1 0 0
-4.677308 -4.571506 7.796559 10.176552 0.773959 0.697999 0.004158 -0.000536 -93894.700000 1 0 0
2.963792 10.940194 -11.158541 15.905500 1.306238 2.348370 0.007267 -0.002313 -1451230.000000 1 0 0
9.992592 -1.292606 1.579459 10.198892 -0.128642 1.415305 0.007019 -0.000897 234317.000000 1 0 0
-1.587908 -2.608706 0.633559 3.119006 1.024007 1.366244 0.003286 -0.001279 -1494630.000000 1 0 0
1.590992 3.092794 0.918659 3.597299 1.095680 1.312561 -0.000212 0.000084 20022.400000 1 0 0
-8.899608 -2.357406 4.277559 10.151744 0.258942 1.135850 0.002134 -0.004920 4033110.000000 1 0 0
9.914592 4.930394 -2.695541 11.396221 0.461475 1.809589 -0.002177 -0.000075 1411440.000000 1 0 0
2.512692 8.423494 2.489659 9.136042 1.280904 1.294796 0.001470 -0.002428 911031.000000 1 0 0
-8.105308 -0.097506 2.470259 8.473943 0.012029 1.274989 -0.000202 -0.005298 1027100.000000 1 0 0
6.975092 2.017594 13.844459 15.633030 0.281572 0.483033 0.034305 -0.008889 1029220.000000 1 0 0
6.860692 4.358794 3.862159 8.999136 0.565992 1.127223 0.002281 -0.000060 -387099.000000 1 0 0
-0.362108 3.343294 7.789459 8.484362 -1.462908 0.407547 -0.000465 -0.000448 179310.000000 1 0 0
2.704192 -10.208706 9.235959 14.029728 -1.311853 0.852220 -0.001830 -0.004848 2218880.000000 1 0 0
1.393392 -4.590306 6.865859 8.375707 -1.276085 0.609848 -0.004291 0.000721 1574910.000000 1 0 0
-0.214608 10.895494 -1.921141 11.065650 -1.551102 1.745294 0.006218 -0.005135 2504060.000000 1 0 0
8.735092 5.576394 8.052259 13.123904 0.568170 0.910239 0.005479 -0.004215 -131634.000000 1 0 0
2.549092 11.354694 -2.920941 11.998284 1.349961 1.816714 0.010996 -0.007237 981217.000000 1 0 0
1.455592 2.497694 -6.783141 7.373481 1.043139 2.738717 0.004138 -0.002046 449455.000000 1 0 0
-13.591708 -2.281406 3.587159 14.241034 0.166303 1.316165 0.005802 -0.004081 732243.000000 1 0 0
-0.938708 -10.625806 -5.281741 11.903181 1.482683 2.030548 0.002673 0.000573 572833.000000 1 0 0
-5.685608 2.903694 0.460059 6.400721 -0.472178 1.498858 0.003153 -0.004223 2006100.000000 1 0 0
3.704492 7.235094 -5.012041 9.549366 1.097581 2.123342 0.004645 -0.001119 -2592780.000000 1 0 0
2.866792 9.725194 -6.470641 12.027763 1.284135 2.138830 0.006882 -0.002291 1037170.000000 1 0 0
-12.231608 1.710794 -2.570941 12.615419 -0.138965 1.776028 0.003734 -0.000696 1535530.000000 1 0 0
-2.514208 9.613194 -5.753241 11.481921 -1.314989 2.095631 0.000539 -0.000967 105929.000000 1 0 0
-1.324308 3.448494 1.770259 4.096305 -1.204137 1.123910 -0.000657 -0.002006 -307575.000000 1 0 0
12.988492 3.726494 9.620259 16.587256 0.279402 0.952093 0.045697 -0.005085 1236670.000000 1 0 0
-2.561608 -9.429906 11.724359 15.262554 1.305550 0.694806 0.002689 -0.009569 1147260.000000 1 0 0
-0.467408 -8.911606 -7.538041 11.681492 1.518395 2.272209 0.002300 0.001258 3430390.000000 1 0 0
2.334092 7.641594 -0.519641 8.006995 1.274351 1.635740 0.001028 -0.000805 3248640.000000 1 0 0
-11.818708 -1.339806 -5.576041 13.136559 0.112881 2.009170 0.007424 0.001377 -30057.700000 1 0 0
-6.261108 -7.286806 -10.989941 14.597186 0.860963 2.423225 0.001443 -0.001558 547140.000000 1 0 0
-4.678608 -2.217906 -1.445641 5.375720 0.442675 1.843068 0.003597 -0.003789 -1301400.000000 1 0 0
-10.401008 3.652594 4.555859 11.928045 -0.337723 1.178896 -0.000246 -0.005593 1331860.000000 1 0 0
6.672692 9.368494 -3.744241 12.095984 0.951897 1.885510 0.000680 -0.000932 648039.000000 1 0 0
1.225792 -2.680606 -11.593841 11.962666 -1.141904 2.892631 0.008183 -0.004120 -322634.000000 1 0 0
1.278692 8.765494 7.587359 11.663488 1.425940 0.862524 0.001171 0.001178 303970.000000 1 0 0
10.367992 0.482794 10.544659 14.795883 0.046532 0.777492 0.027886 -0.005750 1177490.000000 1 0 0
-5.307208 -0.872706 -3.949741 6.672970 0.162979 2.204212 0.005024 -0.006426 562283.000000 1 0 0
11.742892 5.702294 5.436059 14.140806 0.452058 1.176213 0.005363 -0.002122 3167270.000000 1 0 0
9.965792 -3.455606 3.649259 11.161331 -0.333774 1.237716 0.014357 -0.004884 -817013.000000 1 0 0
7.363992 -1.660706 -3.372041 8.267828 -0.221807 1.990895 0.008675 -0.000308 -2327460.000000 1 0 0
2.391292 9.167694 10.484959 14.131498 1.315643 0.734812 0.008552 -0.000434 1972360.000000 1 0 0
2.385492 -10.850006 6.372559 12.807135 -1.354379 1.049991 -0.001667 -0.003637 497770.000000 1 0 0
5.928892 -7.529206 -1.469141 9.695312 -0.903753 1.722913 0.005773 -0.002914 1238110.000000 1 0 0
-0.248008 -5.563406 -2.262441 6.010960 1.526247 1.956689 0.003845 0.000062 1666320.000000 1 0 0
7.659292 -5.069606 2.713059 9.577387 -0.584688 1.283586 0.007440 -0.004744 1503650.000000 1 0 0
-2.612908 -12.494206 4.654859 13.586766 1.364638 1.221111 0.006167 -0.002792 -1174620.000000 1 0 0
4.910492 -10.211406 -1.128341 11.386786 -1.122559 1.670051 0.004081 -0.003087 355523.000000 1 0 0
0.937192 0.283994 1.073259 1.452882 0.294231 0.739641 -0.000072 0.000252 -1394540.000000 1 0 0
-1.654908 8.536494 2.452259 9.034601 -1.379309 1.295918 0.000077 -0.001010 -375674.000000 1 0 0
-7.603108 0.613494 -3.026741 8.206387 -0.080515 1.948544 0.002587 -0.002617 -458461.000000 1 0 0
4.464792 -6.315206 12.924759 15.062058 -0.955394 0.539237 0.009980 -0.007676 -92321.600000 1 0 0
-5.172608 13.018694 8.409759 16.339103 -1.192601 1.030137 0.013243 -0.011530 1954230.000000 1 0 0
0.631092 6.059094 8.348359 10.334698 1.467014 0.630388 0.000661 0.001296 1024510.000000 1 0 0
7.980592 -0.521006 -0.719641 8.029892 -0.065192 1.660537 0.007115 -0.000012 5511100.000000 1 0 0
2.464092 -9.164606 -2.381641 9.784374 -1.308138 1.816679 0.000026 -0.000959 773248.000000 1 0 0
-7.222508 12.142994 4.879859 14.947573 -1.034218 1.238235 0.001478 -0.008513 -1104240.000000 1 0 0
-14.983408 0.221694 0.230159 14.986816 -0.014795 1.555438 0.002950 -0.004489 1061240.000000 1 0 0
6.830592 -0.430306 3.911259 7.882899 -0.062914 1.051614 0.005619 0.000892 299086.000000 1 0 0
-4.122008 -4.992006 5.086759 8.233237 0.880567 0.904814 0.005562 -0.000722 -299569.000000 1 0 0
2.872692 5.073294 6.964059 9.082333 1.055572 0.697003 -0.001310 -0.000998 -155862.000000 1 0 0
2.107192 -7.219506 1.833559 7.741025 -1.286810 1.331661 -0.002207 0.000453 1809050.000000 1 0 0
-2.512008 6.421394 -1.791041 7.124066 -1.197905 1.824930 0.001479 -0.002654 1151750.000000 1 0 0
2.595092 -3.825906 -6.619741 8.074220 -0.974787 2.531965 0.004623 -0.003811 -583956.000000 1 0 0
-5.108108 0.885394 -12.167941 13.226318 -0.171626 2.738824 0.004767 -0.004941 318564.000000 1 0 0
-7.495508 6.282794 -11.937341 15.432312 -0.697608 2.455187 0.002448 -0.004864 2347030.000000 1 0 0
-1.136208 11.123594 -8.976341 14.338759 -1.469005 2.247234 0.008532 -0.000428 1263420.000000 1 0 0
4.686692 5.899194 -0.635241 7.561025 0.899441 1.654911 0.001729 0.001210 1424650.000000 1 0 0
-2.704008 13.332194 3.598859 14.071632 -1.370693 1.312170 0.002359 -0.001482 1075050.000000 1 0 0
1.453692 -7.821206 10.244759 12.970720 -1.387028 0.660253 -0.002792 -0.002615 629129.000000 1 0 0
13.050792 -0.198306 -1.124041 13.100609 -0.015194 1.656703 0.016653 -0.001814 -100477.000000 1 0 0
-1.056208 3.116294 -5.443841 6.360996 -1.244016 2.597922 0.003362 -0.004447 162902.000000 1 0 0
6.600592 1.095194 7.340759 9.932472 0.164426 0.739113 0.005939 0.000000 1817160.000000 1 0 0
5.436292 -6.103706 6.928259 10.714909 -0.843169 0.867678 0.001267 -0.000128 1868170.000000 1 0 0
12.252092 -4.886706 2.676559 13.459480 -0.379512 1.370601 0.016408 -0.003842 -1196190.000000 1 0 0
4.490892 -9.152506 13.883559 17.224682 -1.114638 0.633388 0.003066 -0.005404 453416.000000 1 0 0
-2.818508 -4.299706 -1.382041 5.323674 0.990556 1.833407 0.006190 -0.003140 2804020.000000 1 0 0
-9.333008 -5.179706 -7.483841 13.036191 0.506665 2.182279 0.007776 -0.003495 2577780.000000 1 0 0
-10.569708 -3.112306 7.851059 13.529387 0.286362 0.951703 0.008419 -0.002232 -849065.000000 1 0 0
12.147692 -0.561706 1.647459 12.271758 -0.046207 1.436142 0.011063 -0.001825 -570261.000000 1 0 0
-7.578608 4.806194 4.391559 9.991026 -0.565173 1.115698 0.001288 -0.003590 1856140.000000 1 0 0
-1.144408 10.517294 6.987459 12.678632 -1.462411 0.987089 0.002678 -0.000324 2025850.000000 1 0 0
7.419392 -9.970406 1.952659 12.580511 -0.931055 1.414953 0.012432 -0.004833 3896120.000000 1 0 0
-4.284208 -1.688906 1.618759 4.881314 0.375511 1.232772 0.002032 -0.000814 1253720.000000 1 0 0
6.692492 -14.926506 -0.889641 16.382353 -1.149305 1.625128 0.021973 -0.009623 -1230730.000000 1 0 0
-10.460208 1.636994 2.415259 10.859520 -0.155238 1.346511 -0.001497 -0.001690 -178588.000000 1 0 0
-3.004008 8.296294 -11.457341 14.461093 -1.223391 2.485345 0.005020 -0.001907 -830463.000000 1 0 0
-1.351008 -5.141806 -6.844041 8.666274 1.313854 2.481170 0.001137 -0.002172 -813420.000000 1 0 0
12.861492 -0.494006 6.426859 14.386331 -0.038391 1.107685 0.017799 -0.007032 2353660.000000 1 0 0
5.960992 -13.209706 3.706959 14.958988 -1.146896 1.320379 0.010001 -0.002738 713626.000000 1 0 0
-5.564608 3.428994 -4.889941 8.162989 -0.552257 2.213096 0.003120 -0.002713 1706000.000000 1 0 0
-4.467308 8.176894 3.333559 9.896012 -1.070773 1.227218 0.002634 -0.001404 564267.000000 1 0 0
13.989392 6.066294 -4.058041 15.778805 0.409162 1.830902 0.018820 -0.002048 -1462110.000000 1 0 0
-6.727908 -8.504406 5.342059 12.088311 0.901501 1.113059 0.005229 0.001045 1041490.000000 1 0 0
1.645392 11.340294 2.767159 11.788415 1.426709 1.333850 0.004135 -0.003269 1948090.000000 1 0 0
-7.448408 7.334594 6.039459 12.072701 -0.777699 1.046900 0.002848 -0.005349 -44798.500000 1 0 0
-17.549408 -4.203906 5.222759 18.786479 0.235117 1.289078 0.058448 -0.010908 233609.000000 1 0 0
7.444192 -12.947406 -8.638541 17.253281 -1.048995 2.095192 0.021413 -0.008383 -1497330.000000 1 0 0
-2.427308 12.773994 -2.808241 13.302367 -1.383016 1.783505 0.001858 -0.000070 1679140.000000 1 0 0
-5.604008 13.940994 -5.842341 16.121078 -1.188584 1.941642 0.018374 0.000485 2488270.000000 1 0 0
-5.662708 2.475594 7.406859 9.646574 -0.412137 0.695361 0.001256 -0.002835 880852.000000 1 0 0
-7.431408 5.094294 1.454459 9.126506 -0.600934 1.410747 0.003744 -0.003223 2921940.000000 1 0 0
10.796892 -5.652506 -4.898041 13.134478 -0.482295 1.952945 0.018159 -0.006605 2633150.000000 1 0 0
-9.578708 -0.689606 6.808359 11.772042 0.071870 0.954092 0.001301 -0.004603 93911.600000 1 0 0
-11.307508 -4.561506 -2.527941 12.452212 0.383438 1.775229 -0.000192 -0.000120 795767.000000 1 0 0
6.572092 -4.233506 13.493159 15.594239 -0.572262 0.525116 0.027808 -0.013472 -238604.000000 1 0 0
0.205092 10.203394 -11.644841 15.483980 1.550699 2.421974 0.008106 -0.002167 -1457970.000000 1 0 0
-11.835208 -3.298306 1.438459 12.370131 0.271790 1.454248 0.001576 -0.004703 2957300.000000 1 0 0
5.214492 5.952794 5.485959 9.629248 0.851415 0.964633 0.001841 -0.000421 -3837980.000000 1 0 0
-7.139308 0.016594 7.986259 10.712158 -0.002324 0.729463 -0.001384 -0.002576 1638120.000000 1 0 0
1.729492 2.110994 9.702159 10.078657 0.884410 0.274193 0.000022 -0.004325 2765890.000000 1 0 0
10.586692 -4.808806 -1.898541 11.781643 -0.426367 1.732646 0.011088 -0.000853 670969.000000 1 0 0
-9.757008 -2.381506 -1.626341 10.174270 0.239401 1.731333 0.001880 -0.002854 -684360.000000 1 0 0
-2.016008 -5.220306 -9.903341 11.375063 1.202255 2.627255 0.006715 -0.003288 993630.000000 1 0 0
7.647692 -1.558006 6.509959 10.163372 -0.200972 0.875606 0.008646 -0.002521 3431780.000000 1 0 0
1.549192 -11.796706 -2.582041 12.174942 -1.440219 1.784497 0.001245 -0.000976 -4054910.000000 1 0 0
-0.784808 -1.476906 4.805359 5.088089 1.082356 0.334931 -0.000142 -0.000493 1896210.000000 1 0 0
7.645992 1.572494 9.932559 12.632880 0.202834 0.666085 0.011668 -0.003124 1381470.000000 1 0 0
-3.901408 10.687494 -8.020241 13.920049 -1.220782 2.184825 0.008151 0.001807 1796200.000000 1 0 0
-9.609408 12.566894 6.353059 17.047841 -0.917978 1.188922 0.005090 -0.011544 967703.000000 1 0 0
-2.590308 -2.442306 -11.059541 11.618434 0.755998 2.830162 0.009135 -0.006593 -2570310.000000 1 0 0
1.103992 -11.817106 11.120859 16.264572 -1.477644 0.817911 -0.003267 -0.004518 1943960.000000 1 0 0
1.336592 3.510394 -1.916441 4.216881 1.206992 2.042572 0.001448 -0.000186 4102670.000000 1 0 0
-1.891908 -9.460706 -12.011441 15.406460 1.373424 2.464882 0.000821 0.000943 440162.000000 1 0 0
1.309192 -2.640506 1.565059 3.337015 -1.110506 1.082638 0.002377 0.001337 2582980.000000 1 0 0
-1.105808 -2.216906 -6.625241 7.073281 1.108104 2.783758 0.004196 -0.006230 -22021.700000 1 0 0
1.713692 5.862494 4.131759 7.374076 1.286405 0.976038 -0.001516 0.000621 -1014160.000000 1 0 0
-11.058008 8.519894 3.561459 14.406669 -0.656475 1.320998 -0.006012 -0.002331 2030290.000000 1 0 0
-16.437608 -1.691706 4.024159 17.007372 0.102556 1.331918 0.032925 -0.014065 1021310.000000 1 0 0
-12.249108 0.268394 6.768959 13.997553 -0.021908 1.066054 0.002053 -0.003955 -444007.000000 1 0 0
-5.133308 3.073994 4.634059 7.568011 -0.539561 0.911802 0.001453 -0.001672 2189750.000000 1 0 0
5.091992 -6.001906 4.007359 8.832337 -0.867234 1.099867 0.003549 -0.001748 1473140.000000 1 0 0
9.973192 3.507294 6.336359 12.325384 0.338164 1.030850 0.000919 0.000828 -682233.000000 1 0 0
-12.202008 5.730094 3.248859 13.866437 -0.439035 1.334301 -0.002374 0.000234 1961930.000000 1 0 0
-4.997908 12.305194 -1.329841 13.347860 -1.184989 1.670591 0.003975 0.003014 1611980.000000 1 0 0
-1.771908 -12.063706 10.325359 15.977663 1.424960 0.868153 0.009720 -0.007840 231488.000000 1 0 0
5.316492 6.374994 13.870559 16.164715 0.875688 0.539285 0.013330 -0.006142 499521.000000 1 0 0
12.953992 -3.675406 -5.909041 14.704805 -0.276462 1.984326 0.013930 -0.003779 1491300.000000 1 0 0
3.554192 -2.538106 6.413959 7.759712 -0.620137 0.597807 -0.002638 0.001815 795645.000000 1 0 0
7.265392 -11.817306 -0.594841 13.884829 -1.019559 1.613651 0.011961 -0.002712 -533720.000000 1 0 0
-6.105308 -6.556306 -4.172841 9.882942 0.821002 2.006697 0.006469 -0.001999 982067.000000 1 0 0
0.313592 -8.904206 5.100059 10.266150 -1.535593 1.050907 -0.001289 -0.001495 1519150.000000 1 0 0
-10.327708 2.489294 -0.402841 10.631106 -0.236519 1.608698 0.002038 -0.001270 -2005620.000000 1 0 0
-1.868308 8.910894 -0.368941 9.112119 -1.364124 1.611296 0.002624 -0.003495 818278.000000 1 0 0
-3.469708 2.296794 -6.652441 7.846599 -0.584734 2.582642 0.005706 -0.005976 53754.000000 1 0 0
-12.616708 3.019394 6.414359 14.472113 -0.234899 1.111607 -0.002555 -0.006860 368421.000000 1 0 0
11.370692 1.651194 7.984359 13.991749 0.144207 0.963502 0.014699 -0.004453 -1972500.000000 1 0 0
6.048992 2.643194 -3.264141 7.364196 0.411961 2.030011 0.002792 0.001879 2099850.000000 1 0 0
10.531492 -2.445106 6.382359 12.554894 -0.228129 1.037521 0.014721 -0.005955 3768220.000000 1 0 0
-1.024508 10.961794 4.113659 11.752988 -1.477605 1.213215 0.004500 -0.000824 -391759.000000 1 0 0
-1.568508 -12.132806 7.425459 14.310928 1.442231 1.025272 0.001874 -0.002758 -788942.000000 1 0 0
8.212092 8.675194 -7.871841 14.306059 0.812814 2.153454 0.001620 -0.001248 1603690.000000 1 0 0
-4.729408 -6.041906 -8.777141 11.658051 0.906652 2.423227 0.007180 -0.004051 613058.000000 1 0 0
-8.593908 -5.456406 -11.614941 15.444562 0.565698 2.421949 0.006662 -0.003496 928686.000000 1 0 0
6.135092 -0.628606 -10.036641 11.780011 -0.102105 2.590602 0.005548 0.000355 -1457360.000000 1 0 0
-11.241908 -5.500206 -5.347441 13.609846 0.455018 1.974590 0.000709 -0.003072 -240717.000000 1 0 0
3.851492 8.866594 -2.795941 10.063188 1.161006 1.852340 0.006395 -0.005198 983790.000000 1 0 0
11.711692 -10.415506 -4.003341 16.176317 -0.726886 1.820876 0.029176 -0.006336 -300297.000000 1 0 0
3.983192 -11.211806 3.946759 12.535842 -1.229436 1.250510 0.004441 -0.003516 301611.000000 1 0 0
-1.035308 0.857994 3.189359 3.461217 -0.692017 0.398985 0.001045 -0.000829 -1655520.000000 1 0 0
-10.547608 -5.064706 4.471959 12.526041 0.447663 1.205728 0.011680 -0.001994 3157000.000000 1 0 0
4.575292 -8.679106 2.768459 10.194339 -1.085656 1.295774 -0.000373 -0.001298 4097430.000000 1 0 0
-3.707108 -5.689906 2.676259 7.299318 0.993351 1.195396 0.003171 0.000443 2948700.000000 1 0 0
10.099492 5.091194 12.329559 16.731348 0.466925 0.742303 0.028170 0.000971 1645080.000000 1 0 0
1.644492 -12.312106 -5.272941 13.494304 -1.438015 1.972246 0.001527 -0.000968 2571160.000000 1 0 0
9.875092 -10.693806 -1.703841 14.655306 -0.825181 1.687321 0.016386 -0.003263 506328.000000 1 0 0
9.679092 -4.473606 -9.235341 14.106364 -0.432947 2.284573 0.021497 -0.002788 2475210.000000 1 0 0
-7.427808 -3.186106 -12.995041 15.303421 0.405206 2.585188 0.006236 -0.003669 549502.000000 1 0 0
0.361692 6.201394 -2.511041 6.700256 1.512538 1.954943 0.002255 -0.002270 1720870.000000 1 0 0
-5.882308 -9.537606 1.031859 11.253098 1.018152 1.478972 0.006535 -0.000536 781942.000000 1 0 0
-8.950608 -4.065006 0.634159 9.850879 0.426308 1.506376 0.001250 -0.002932 3936670.000000 1 0 0
1.790892 3.851494 12.211259 12.928888 1.135550 0.334745 0.004576 -0.006593 585560.000000 1 0 0
6.644192 4.335594 9.676659 12.513208 0.578158 0.686742 0.003359 -0.002535 1604610.000000 1 0 0
-8.361908 9.825094 -3.696641 13.420847 -0.865677 1.849844 0.006010 -0.001741 3082790.000000 1 0 0
16.440392 2.170594 -6.099841 17.669352 0.131269 1.923271 0.049197 0.003368 -216698.000000 1 0 0
-10.911808 2.562494 -5.091541 12.310878 -0.230657 1.997180 0.006906 -0.000564 1755100.000000 1 0 0
-13.824408 3.928194 1.570159 14.457191 -0.276852 1.461974 -0.002186 0.003553 448991.000000 1 0 0
-17.517308 10.412894 3.458659 20.669948 -0.536317 1.402678 0.053196 -0.017883 -255047.000000 1 0 0
-14.343708 2.842594 -1.127141 14.666041 -0.195642 1.647726 -0.002117 0.001244 1245350.000000 1 0 0
-14.491608 5.026294 5.160359 16.183314 -0.333858 1.246260 0.004102 -0.005789 1654530.000000 1 0 0
-17.361708 7.512994 3.144559 19.177128 -0.408403 1.406078 0.026786 -0.008430 -3104980.000000 1 0 0
-15.031008 12.725394 -3.493441 20.001775 -0.702522 1.746353 0.041089 -0.007566 337463.000000 1 0 0
-8.628608 12.514294 -9.639141 17.999263 -0.967152 2.135931 0.019099 -0.013469 2730080.000000 1 0 0
-12.505408 8.685294 -10.018841 18.226265 -0.607041 2.152792 0.014843 -0.002407 -1100620.000000 1 0 0
-13.865508 -3.572906 -12.228641 18.829701 0.252197 2.277636 0.028765 -0.000800 -1651120.000000 1 0 0
-14.742708 5.680194 -7.691241 17.571774 -0.367760 2.023840 0.025672 0.002251 2567800.000000 1 0 0
-11.106608 13.333994 -8.330741 19.249763 -0.876282 2.018361 0.029749 -0.021870 2781210.000000 1 0 0
-10.898708 13.513594 3.829159 17.778119 -0.892105 1.353709 0.007757 -0.008548 -921542.000000 1 0 0
-15.140008 3.060194 3.159959 15.766102 -0.199439 1.369002 0.002550 -0.005691 1036870.000000 1 0 0
-11.135208 9.463494 -12.549541 19.262439 -0.704419 2.280361 0.020504 -0.008707 578189.000000 1 0 0
-13.210108 11.351594 -9.095941 19.649473 -0.709875 2.052072 0.028829 -0.026584 -623062.000000 1 0 0
-8.945508 14.592294 -3.610441 17.492640 -1.020851 1.778688 0.019029 -0.004398 1406900.000000 1 0 0
-16.676208 8.312994 -4.160341 19.092151 -0.462442 1.790467 0.033872 -0.003528 -1530090.000000 1 0 0
-16.951608 6.672194 0.315659 18.220177 -0.374979 1.553471 0.023552 0.002348 -154640.000000 1 0 0
-10.437208 2.782794 -12.573841 16.576512 -0.260561 2.431856 0.006701 -0.004503 198063.000000 1 0 0
-16.885208 0.760194 2.473359 17.082320 -0.044991 1.425495 0.032774 -0.010598 925773.000000 1 0 0
-12.665908 1.179794 -7.007741 14.523277 -0.092879 2.074323 0.011096 -0.002117 3679780.000000 1 0 0
-12.356008 8.853694 -5.527741 16.174509 -0.621747 1.919581 0.015854 -0.003607 -1519980.000000 1 0 0
-9.662108 13.806494 1.219459 16.895641 -0.960189 1.498558 0.018578 -0.008256 460622.000000 1 0 0
-12.379808 11.092994 2.682259 16.837716 -0.730631 1.410814 0.005424 -0.003123 -214808.000000 1 0 0
-12.652008 6.766894 -3.696141 14.816397 -0.491135 1.822922 0.003622 0.003011 -413215.000000 1 0 0
-16.047308 3.621494 -9.310941 18.903041 -0.221958 2.085829 0.048798 -0.006681 -700516.000000 1 0 0
-15.113908 5.891694 -4.826841 16.924558 -0.371699 1.860009 0.017504 0.004579 464978.000000 1 0 0
-18.041508 5.092394 7.513659 20.196128 -0.275103 1.189596 0.050412 -0.020037 -644715.000000 1 0 0
-15.741408 10.220294 -2.149241 18.890886 -0.575856 1.684815 0.025134 0.000223 -589649.000000 1 0 0
-8.835808 9.937394 -8.396341 15.726470 -0.844010 2.134001 0.007010 -0.006254 -43857.100000 1 0 0
-16.998408 4.147594 -1.241641 17.541097 -0.239323 1.641640 0.018644 0.001218 394929.000000 1 0 0
-10.233108 5.384094 -4.596841 12.443308 -0.484344 1.949184 0.002541 -0.000962 555792.000000 1 0 0
-18.212408 2.498594 6.142359 19.382037 -0.136341 1.248327 0.061930 -0.030608 -2100930.000000 1 0 0
-10.438908 10.018294 -5.873441 15.615195 -0.764840 1.956419 0.006037 -0.004245 1030430.000000 1 0 0
-15.372308 0.405694 -5.927341 16.480468 -0.026385 1.938698 0.010942 0.000597 673105.000000 1 0 0
-16.418908 -4.179206 -8.958341 19.165025 0.249243 2.057180 0.034425 -0.011782 -1504660.000000 1 0 0
-10.108108 9.596794 -1.223941 13.991795 -0.759455 1.658384 0.000184 0.001941 1701800.000000 1 0 0
-17.338608 -2.916306 -3.256141 17.881125 0.166638 1.753917 0.012342 -0.000447 150584.000000 1 0 0
-11.896108 5.018594 -11.483041 17.279002 -0.399215 2.297709 0.013284 -0.004108 807709.000000 1 0 0
-16.473608 6.912694 5.916459 18.819394 -0.397307 1.250992 0.029727 -0.009889 906219.000000 1 0 0
-12.037408 5.986594 -8.779641 16.056793 -0.461511 2.149318 0.015505 -0.002709 1038720.000000 1 0 0
-14.671508 8.405094 -0.155241 16.909254 -0.520244 1.579977 0.020696 -0.000176 443237.000000 1 0 0
-14.945308 11.927394 3.844259 19.503930 -0.673563 1.372396 0.019634 -0.014981 1479440.000000 1 0 0
-17.314308 4.096794 -4.051341 18.247804 -0.232340 1.794680 0.026341 0.000866 -84209.400000 1 0 0
-13.904108 13.520494 -0.864241 19.413266 -0.771411 1.615329 0.032966 -0.006371 -35918.700000 1 0 0
-10.076408 6.876994 -13.030641 17.850060 -0.598874 2.389126 -0.000006 -0.009926 -52572.000000 1 0 0
-15.959708 -1.163906 -8.420541 18.082381 0.072799 2.055195 0.026875 -0.006664 420742.000000 1 0 0
-11.614008 11.869694 -0.120041 16.606903 -0.796285 1.578025 0.018777 -0.005596 1174510.000000 1 0 0
-12.095608 7.315494 -0.958541 14.168239 -0.543946 1.638502 0.000072 0.006740 3178270.000000 1 0 0
-11.476108 0.125194 -11.706141 16.393611 -0.010909 2.366087 0.013760 -0.004591 506523.000000 1 0 0
-19.118808 -1.190706 -4.852441 19.760891 0.062199 1.818891 0.028887 -0.004720 -920647.000000 1 0 0
-17.900408 1.441594 -5.148141 18.681707 -0.080361 1.849980 0.009328 0.001847 -618212.000000 1 0 0
-13.400108 -0.081006 -9.597141 16.482554 0.006045 2.192303 0.020994 -0.002256 140788.000000 1 0 0
-6.205708 11.182494 -13.276741 18.434501 -1.064162 2.374904 0.007462 -0.005188 -618540.000000 1 0 0
16.392892 5.799894 6.998359 18.744137 0.340061 1.188165 0.054611 -0.012269 -138748.000000 1 0 0
14.721492 10.116694 -5.458341 18.677882 0.602088 1.867360 0.054243 -0.028005 603877.000000 1 0 0
2.352092 16.814194 4.348859 17.526038 1.431811 1.320040 0.023388 -0.013659 92190.900000 1 0 0
-3.988708 18.172294 -5.911841 19.521576 -1.354729 1.878464 0.017787 -0.008003 556781.000000 1 0 0
5.422992 14.520994 5.587059 16.476751 1.213378 1.224850 0.017921 -0.005390 -1663320.000000 1 0 0
9.972192 5.956194 15.042859 19.005485 0.538417 0.657535 0.048016 -0.005720 -552322.000000 1 0 0
4.644192 12.558394 -1.175441 13.441110 1.216585 1.658359 0.011794 -0.008655 1774510.000000 1 0 0
3.591692 13.498394 12.947159 19.045624 1.310739 0.823310 0.032446 -0.015826 -642754.000000 1 0 0
-0.783408 12.348894 9.154359 15.391919 -1.507442 0.933841 0.015609 -0.001624 -393533.000000 1 0 0
-7.846308 13.872794 8.370759 18.002460 -1.056063 1.087186 0.016691 -0.019016 1668810.000000 1 0 0
11.361492 12.724494 -4.305241 17.593502 0.841927 1.818013 0.057679 -0.012091 -1372300.000000 1 0 0
-5.909108 16.141494 0.846159 17.209920 -1.219867 1.521610 0.007712 0.004369 633365.000000 1 0 0
3.260192 10.571194 6.835159 13.003783 1.271648 1.017343 0.005522 0.001816 1372970.000000 1 0 0
-1.273608 15.514594 2.430059 15.755313 -1.488889 1.415941 0.013592 -0.007646 -1618490.000000 1 0 0
9.945292 8.889094 9.479259 16.364020 0.729379 0.952958 0.015583 -0.004081 1988060.000000 1 0 0
7.174292 12.287294 6.162859 15.505769 1.042315 1.162054 0.015470 -0.003811 33659.300000 1 0 0
11.829892 13.893494 -1.635741 18.320785 0.865450 1.660199 0.052765 -0.002131 669339.000000 1 0 0
9.594092 15.786294 -1.203641 18.512223 1.024699 1.635861 0.047055 -0.002907 641708.000000 1 0 0
10.169392 13.697894 2.947259 17.312861 0.932173 1.399728 0.030249 -0.005179 1945580.000000 1 0 0
-6.135808 14.511494 6.291259 16.965009 -1.170770 1.190886 0.002795 -0.010222 1151690.000000 1 0 0
-1.002808 18.155194 -6.180841 19.204673 -1.515617 1.898469 0.034601 -0.006947 1365720.000000 1 0 0
-3.617608 15.684894 5.442759 16.991957 -1.344117 1.244736 0.001139 -0.006704 1886250.000000 1 0 0
7.146692 12.226394 10.633159 17.709432 1.041830 0.926766 0.023940 -0.001615 2426400.000000 1 0 0
1.413092 14.619494 6.207159 15.945383 1.474438 1.170951 0.010336 -0.003886 1435370.000000 1 0 0
17.259192 7.770494 -1.566741 18.992497 0.423040 1.653383 0.021256 -0.006397 693153.000000 1 0 0
1.958092 16.081394 -3.280441 16.528963 1.449631 1.770589 0.018720 -0.011253 995991.000000 1 0 0
6.673792 11.116294 0.651159 12.982122 1.030111 1.520617 0.011690 -0.003382 1377580.000000 1 0 0
12.677692 9.250494 3.110159 15.999018 0.630361 1.375154 0.026234 -0.002112 -721860.000000 1 0 0
5.968992 14.223294 -3.430941 15.801971 1.173455 1.789661 0.019586 -0.005137 1777690.000000 1 0 0
3.089492 16.409694 1.539659 16.768827 1.384702 1.478850 0.026506 -0.021566 -1855550.000000 1 0 0
2.680692 18.788694 -2.596641 19.155773 1.429077 1.706769 0.030015 -0.025423 156276.000000 1 0 0
4.037492 11.860494 10.595259 16.408295 1.242686 0.868823 0.020651 -0.005333 3555890.000000 1 0 0
8.007192 11.522094 3.376059 14.431616 0.963473 1.334673 0.013887 0.000968 1510850.000000 1 0 0
0.771192 12.415494 0.258159 12.442100 1.508761 1.550046 0.008325 -0.004506 -234150.000000 1 0 0
11.875992 9.789594 -4.634041 16.073259 0.689394 1.863255 0.028698 -0.008142 -761050.000000 1 0 0
-1.398108 16.449494 9.897659 19.248485 -1.486006 1.030716 0.011681 -0.007594 -722303.000000 1 0 0
8.006192 14.816994 -7.950441 18.623961 1.075401 2.011851 0.042900 -0.008380 1542030.000000 1 0 0
14.345292 7.585994 -1.430141 16.290488 0.486432 1.658699 0.013338 -0.002437 -1209260.000000 1 0 0
12.533092 8.313694 5.963559 16.178996 0.585696 1.193295 0.022923 -0.002223 -2102020.000000 1 0 0
-3.131908 14.171594 10.154559 17.713215 -1.353293 0.960298 0.015966 -0.017650 2458820.000000 1 0 0
-4.771408 17.108494 -3.208541 18.048868 -1.298816 1.749516 0.026164 -0.004229 394721.000000 1 0 0
-7.293508 16.414994 -1.817941 18.054146 -1.152676 1.671661 0.018613 0.000081 1046030.000000 1 0 0
8.230592 11.232894 -1.939641 14.059969 0.938445 1.709193 0.009042 -0.002762 -1010800.000000 1 0 0
8.554992 12.934194 -4.200241 16.066215 0.986432 1.835303 0.035257 -0.002893 1415480.000000 1 0 0
2.545392 14.803394 -7.365641 16.729380 1.400515 2.026709 0.013846 -0.008461 -814602.000000 1 0 0
11.405392 11.375294 9.757859 18.833376 0.784077 1.026150 0.034016 -0.005629 1130720.000000 1 0 0
8.601892 15.702694 1.444659 17.962577 1.069646 1.490283 0.023041 -0.006522 1915040.000000 1 0 0
6.070192 9.895594 7.756659 13.961939 1.020565 0.981763 0.006521 0.003578 2250830.000000 1 0 0
14.424192 11.348294 2.640459 18.542198 0.666612 1.427908 0.040173 -0.006312 1570210.000000 1 0 0
12.140892 12.544094 1.078959 17.490560 0.801731 1.509069 0.040616 -0.002757 3850150.000000 1 0 0
5.188492 15.918894 8.163759 18.627361 1.255721 1.117127 0.026776 -0.005738 -1771850.000000 1 0 0
11.616692 14.976294 5.127459 19.634860 0.911067 1.306593 0.048050 -0.011414 1302840.000000 1 0 0
5.962892 16.917294 1.760559 18.023608 1.231920 1.472960 0.018790 -0.015193 1675480.000000 1 0 0
-0.780208 16.083694 -4.212441 16.644476 -1.522325 1.826662 0.016231 -0.005116 1422910.000000 1 0 0
16.101992 6.406794 2.530059 17.513490 0.378685 1.425826 0.016189 -0.005248 -490047.000000 1 0 0
7.653792 16.611894 -3.122441 18.554923 1.139046 1.739882 0.044334 -0.012693 1544050.000000 1 0 0
14.844492 8.158094 7.445359 18.502616 0.502513 1.156665 0.054762 -0.008981 -479356.000000 1 0 0
2.029992 12.908594 8.615959 15.652073 1.414815 0.987872 0.012097 -0.000427 2083490.000000 1 0 0
15.903392 7.456994 -5.888941 18.525772 0.438454 1.894287 0.019777 -0.012224 -680836.000000 1 0 0
-3.130008 17.025694 0.703159 17.325289 -1.388986 1.530199 0.007573 -0.000991 -719577.000000 1 0 0
-2.922408 18.475894 4.482959 19.235281 -1.413922 1.335574 0.007721 -0.006610 1653040.000000 1 0 0
-1.032308 19.056294 0.783859 19.100325 -1.516678 1.529746 0.015172 -0.013502 -100117.000000 1 0 0
6.842992 16.804894 -5.973341 19.102664 1.184097 1.888827 0.037908 -0.010472 429524.000000 1 0 0
10.970192 9.987494 0.708059 14.852491 0.738543 1.523106 0.014316 -0.002457 -790687.000000 1 0 0
9.193792 8.690094 14.272059 19.071843 0.757241 0.725253 0.038872 -0.005549 367321.000000 1 0 0
6.330792 12.434294 -8.370541 16.271341 1.099864 2.111145 0.027649 -0.007267 1441810.000000 1 0 0
6.434692 8.973994 13.311459 17.295455 0.948727 0.692502 0.019518 -0.009803 335449.000000 1 0 0
16.642892 9.390994 3.001359 19.343856 0.513729 1.415009 0.028634 -0.003218 -480748.000000 1 0 0
2.564792 14.576594 -0.717941 14.817917 1.396626 1.619266 0.015815 -0.013909 -43972.400000 1 0 0
9.108792 12.816694 8.280059 17.770681 0.952927 1.086100 0.027360 -0.009501 1427470.000000 1 0 0
7.269292 9.356694 10.575059 15.881504 0.910295 0.842134 0.011584 -0.002829 1263530.000000 1 0 0
4.208392 15.753294 -5.257741 17.132445 1.309749 1.882718 0.033659 -0.012755 2103180.000000 1 0 0
0.227492 16.296894 -8.182141 18.236993 1.556838 2.036058 0.020733 -0.004452 613660.000000 1 0 0
-2.650008 15.650794 -1.978441 15.996378 -1.403066 1.694794 0.004296 -0.001057 978315.000000 1 0 0
13.336092 10.572294 7.649659 18.658564 0.670309 1.148363 0.054147 -0.010391 1186120.000000 1 0 0
-1.092908 15.836594 7.017959 17.356379 -1.501894 1.154534 0.010665 -0.009385 2404730.000000 1 0 0
13.468092 13.441694 6.720059 20.179886 0.784417 1.231305 0.060677 -0.011320 -259531.000000 1 0 0
5.274692 17.371294 4.530059 18.711110 1.276000 1.326261 0.024384 -0.015984 708236.000000 1 0 0
10.664592 9.446794 -1.933041 14.377485 0.724919 1.705654 0.008631 -0.001819 607615.000000 1 0 0
3.189292 12.697794 4.781059 13.937864 1.324718 1.220659 0.007280 -0.000139 1386100.000000 1 0 0
-0.179208 17.941094 3.466559 18.273806 -1.560808 1.379939 0.016458 -0.014385 684155.000000 1 0 0
-7.728608 15.933894 -5.852941 18.651468 -1.119187 1.889995 0.039939 -0.008108 -5765.880000 1 0 0
-12.396508 -9.064206 8.331759 17.471447 0.631354 1.073696 0.028455 -0.005411 40031.100000 1 0 0
-13.144408 -11.647106 6.909559 18.872535 0.725076 1.195963 0.030956 -0.004617 -2010630.000000 1 0 0
-6.461708 -12.214906 12.501259 18.634352 1.084217 0.835413 0.021146 -0.006954 -1685730.000000 1 0 0
-1.707508 -10.583006 14.428459 17.974872 1.410831 0.638985 0.006548 -0.006750 485872.000000 1 0 0
-8.865608 2.845694 11.039459 14.441836 -0.310593 0.700673 -0.002113 0.000234 1941920.000000 1 0 0
0.425792 10.013594 15.207059 18.212852 1.528301 0.582731 0.018963 -0.012412 618229.000000 1 0 0
0.976092 -6.791706 16.700559 18.055157 -1.428056 0.389828 0.011147 -0.021681 853938.000000 1 0 0
6.108992 2.365294 17.870459 19.033331 0.369408 0.351366 0.050965 -0.015893 2815110.000000 1 0 0
-5.118008 -2.998806 17.605059 18.577539 0.530011 0.324993 0.031714 -0.017021 559493.000000 1 0 0
-4.300108 8.131294 12.979759 15.908583 -1.084348 0.616518 -0.000061 -0.003891 671484.000000 1 0 0
0.099192 -4.815706 18.599359 19.212939 -1.550202 0.253406 0.023745 -0.029030 -1471980.000000 1 0 0
-11.652108 2.038194 11.180659 16.276762 -0.173169 0.813569 0.007244 -0.009655 1557490.000000 1 0 0
-3.425308 -6.136306 14.397959 16.021492 1.061677 0.454079 0.013042 -0.010474 882878.000000 1 0 0
-7.482808 -2.214506 14.653059 16.601464 0.287733 0.489354 0.017173 -0.004982 1186320.000000 1 0 0
-6.110008 -1.112006 10.509459 12.207272 0.180027 0.533725 0.005128 -0.002023 1963280.000000 1 0 0
-3.938008 2.415894 11.189459 12.105719 -0.550273 0.391568 0.001153 -0.000271 -195785.000000 1 0 0
-6.388108 6.251594 13.409159 16.115083 -0.774598 0.587936 -0.010735 -0.003146 -24501.500000 1 0 0
-9.003308 5.436994 12.569659 16.389533 -0.543274 0.696750 -0.001369 -0.002233 -25072.300000 1 0 0
-12.293008 -2.189906 15.706659 20.065216 0.176293 0.671675 0.033977 -0.012291 1160840.000000 1 0 0
-3.617208 -7.700806 17.001659 19.011655 1.131666 0.463986 0.029588 -0.014815 -989697.000000 1 0 0
-0.499708 -5.447306 14.449259 15.450046 1.479317 0.361904 0.010049 -0.008550 2228730.000000 1 0 0
-14.239608 -2.184206 13.569959 19.790932 0.152203 0.815279 0.034956 -0.015902 -874451.000000 1 0 0
-6.472108 1.437594 12.216559 13.899611 -0.218573 0.497216 0.003906 -0.002939 2283340.000000 1 0 0
2.232592 -2.219306 14.606859 14.942226 -0.782414 0.212267 0.006123 -0.009457 -135569.000000 1 0 0
-12.681208 3.951694 9.229859 16.174648 -0.302081 0.963515 -0.000706 -0.006528 796705.000000 1 0 0
-9.026708 -2.869206 12.557059 15.728749 0.307758 0.646245 0.008784 0.002105 97289.000000 1 0 0
-7.137908 -7.317406 15.349459 18.441802 0.797815 0.587518 0.033643 -0.010912 1220190.000000 1 0 0
-3.229508 6.021394 19.406359 20.574102 -1.078502 0.338535 0.034969 -0.015297 223346.000000 1 0 0
0.723892 5.412594 16.242959 17.136333 1.437843 0.324323 0.016432 -0.012077 2755110.000000 1 0 0
3.455592 1.451594 16.853659 17.265400 0.397688 0.218830 0.017757 -0.015994 1945600.000000 1 0 0
-11.874608 11.423994 7.797259 18.229405 -0.766060 1.128817 0.012284 -0.016332 67587.900000 1 0 0
0.710392 -9.479506 15.473859 18.160562 -1.495996 0.550891 -0.003652 -0.003584 -292497.000000 1 0 0
-2.533108 -3.661706 18.941859 19.458128 0.965606 0.230870 0.031296 -0.023773 2343640.000000 1 0 0
-12.822108 2.419594 13.774759 18.973795 -0.186512 0.758325 0.012387 -0.013002 -897087.000000 1 0 0
-5.349108 -0.592006 15.830559 16.720348 0.110225 0.327703 0.015555 -0.003315 1318470.000000 1 0 0
-4.468508 -5.873806 11.669059 13.807103 0.920450 0.563953 0.005545 -0.001477 1095090.000000 1 0 0
2.415492 1.850594 14.058559 14.384101 0.653748 0.213157 0.004378 -0.009045 -456988.000000 1 0 0
0.035492 3.268594 14.399959 14.766305 1.559938 0.223217 0.009362 -0.008685 162687.000000 1 0 0
-12.994908 7.085994 12.278959 19.231531 -0.499220 0.878274 0.019703 -0.004223 1119760.000000 1 0 0
0.937892 1.329994 18.269559 18.341900 0.956599 0.088844 0.015073 -0.014478 982574.000000 1 0 0
-1.976908 6.448794 12.582059 14.275970 -1.273337 0.492094 0.005675 -0.002714 2524320.000000 1 0 0
-13.464608 -2.631506 10.848859 17.490519 0.193006 0.901708 0.036160 -0.011635 -266191.000000 1 0 0
-2.602808 3.625194 13.573459 14.288297 -0.948106 0.317655 0.003327 -0.002762 -592810.000000 1 0 0
3.680192 5.996994 16.341959 17.792340 1.020384 0.406570 0.015721 -0.013064 1082510.000000 1 0 0
-3.740208 12.371494 12.271659 17.822363 -1.277208 0.811303 0.017240 -0.017191 95802.000000 1 0 0
3.757492 -1.538006 17.111659 17.586730 -0.388513 0.232962 0.034695 -0.020689 -1194710.000000 1 0 0
-15.764308 0.544394 9.202159 18.261695 -0.034520 1.042683 0.038983 -0.018307 51844.600000 1 0 0
-4.773208 4.588494 15.163459 16.545944 -0.765670 0.411691 0.004866 -0.004809 52807.700000 1 0 0
-8.056908 -8.097906 10.532159 15.537575 0.787936 0.825961 0.013410 -0.006755 2562210.000000 1 0 0
-2.619208 -0.599806 14.758859 15.001464 0.225121 0.180088 0.012639 -0.004596 1317730.000000 1 0 0
-1.764608 0.959194 17.177259 17.294280 -0.497895 0.116397 0.021866 -0.014104 2187410.000000 1 0 0
-0.674908 -2.543106 14.419559 14.657645 1.311389 0.180485 0.007630 -0.006667 957735.000000 1 0 0
5.152992 -8.243306 16.498959 19.149963 -1.012116 0.532450 0.015671 -0.016469 203522.000000 1 0 0
-4.546708 9.995694 10.632059 15.284866 -1.143903 0.801550 0.003820 -0.009388 -2098090.000000 1 0 0
-6.199208 2.054094 15.281459 16.618438 -0.319962 0.403866 0.008020 -0.001506 -267901.000000 1 0 0
-4.931808 6.870194 17.193559 19.160917 -0.948187 0.457127 0.009893 -0.005909 -55046.100000 1 0 0
-4.363308 9.322994 15.655959 18.736748 -1.133062 0.581618 0.013958 -0.006934 -80344.600000 1 0 0
-4.634608 -9.783306 18.685659 21.595058 1.128388 0.525098 0.054176 -0.015851 -518590.000000 1 0 0
-6.845808 -4.032006 11.063259 13.620494 0.532273 0.622796 0.011583 0.000569 -685331.000000 1 0 0
-2.345908 -0.849606 19.524359 19.683132 0.347471 0.127101 0.034264 -0.017125 -714455.000000 1 0 0
-5.733108 -4.585006 15.203859 16.883369 0.674583 0.449826 0.021067 -0.011835 1724800.000000 1 0 0
-12.882508 0.046694 9.714559 16.134865 -0.003625 0.924687 0.016038 -0.008618 982741.000000 1 0 0
-14.490908 8.633194 10.316459 19.772399 -0.537301 1.021883 0.023153 -0.016680 -245409.000000 1 0 0
-8.393008 10.634694 12.755259 18.607416 -0.902669 0.815515 0.010805 -0.019803 -571446.000000 1 0 0
-10.495308 7.180194 10.804559 16.686676 -0.599998 0.866502 0.008970 -0.008024 37852.100000 1 0 0
-9.908208 -6.468706 14.768559 18.924246 0.578386 0.675485 0.044051 -0.018428 1080240.000000 1 0 0
-0.726208 -13.440606 14.476259 19.767128 1.516818 0.749044 0.006691 -0.007260 -69599.400000 1 0 0
3.744092 -5.682306 16.979159 18.292038 -0.988188 0.381179 0.032344 -0.025552 1749860.000000 1 0 0
-7.357708 9.412694 10.320059 15.787282 -0.907327 0.858340 0.001745 -0.009636 1484220.000000 1 0 0
-10.325208 -6.640406 11.800659 17.028226 0.571527 0.805146 0.034709 -0.015798 1450140.000000 1 0 0
-10.885208 -3.849806 10.693759 15.737384 0.339943 0.823698 0.020721 -0.000778 -1021430.000000 1 0 0
-10.056908 -10.167406 9.909559 17.398762 0.790862 0.964831 0.014235 -0.009193 -237665.000000 1 0 0
-9.858108 -3.590706 15.216059 18.482530 0.349303 0.603654 0.031023 -0.016783 2406590.000000 1 0 0
5.533792 -3.395306 16.042859 17.306770 -0.550330 0.384543 0.040211 -0.023177 -1927200.000000 1 0 0
-11.318208 0.449794 15.327759 19.058970 -0.039720 0.636421 0.016153 -0.005629 -963412.000000 1 0 0
-3.139608 3.198194 18.728959 19.257712 -0.794642 0.234876 0.029749 -0.016540 -150035.000000 1 0 0
0.565092 7.289994 14.016559 15.809088 1.493435 0.480824 0.011554 -0.009767 1507330.000000 1 0 0
-13.189308 -7.407706 12.201559 19.434763 0.511740 0.892045 0.052818 -0.018330 559676.000000 1 0 0
-1.496508 -1.177806 12.174959 12.323002 0.666786 0.155163 0.001895 -0.004383 565317.000000 1 0 0
2.016992 -4.870706 13.204159 14.217660 -1.178189 0.379863 0.007365 -0.008483 726270.000000 1 0 0
-14.708008 -4.079006 8.581059 17.509951 0.270533 1.058629 0.050823 -0.011570 -765705.000000 1 0 0
8.159892 0.815094 16.300059 18.246647 0.099560 0.466122 0.057057 -0.018744 1854090.000000 1 0 0
-1.328508 11.373594 13.331859 17.574471 -1.454517 0.709646 0.020961 -0.009595 -78647.300000 1 0 0
2.733192 -12.129806 -13.563141 18.400036 -1.349169 2.399603 0.009530 -0.000497 -332920.000000 1 0 0
0.761592 -10.593206 -14.125041 17.672375 -1.499025 2.496880 0.008210 0.003558 -3217480.000000 1 0 0
3.192392 -14.286506 -12.216141 19.066456 -1.350953 2.266224 0.010518 -0.000296 -804553.000000 1 0 0
-5.121608 -10.350506 -15.982241 19.717908 1.111304 2.515877 0.012996 -0.013458 -115799.000000 1 0 0
-0.932808 -12.308606 -15.064941 19.476252 1.495156 2.455146 0.018539 -0.003430 -437232.000000 1 0 0
5.763592 -14.888606 -12.291141 20.148492 -1.201447 2.226892 0.020970 0.005868 1146290.000000 1 0 0
2.088592 -11.949106 -16.005541 20.082846 -1.397754 2.493068 0.021980 0.000169 -428269.000000 1 0 0
1.275492 -14.335206 -14.007041 20.082884 -1.482054 2.342646 0.023973 0.007463 -88621.900000 1 0 0
-1.138908 -10.765106 -15.916141 19.248589 1.465392 2.544321 0.025279 -0.007484 -164200.000000 1 0 0
-5.769508 -5.657306 -14.956941 17.000072 0.775579 2.646272 0.014722 -0.006686 -136267.000000 1 0 0
-6.434808 -7.696606 -16.515141 19.323416 0.874452 2.595711 0.021848 -0.005444 379655.000000 1 0 0
4.989792 -12.474206 -11.534341 17.707198 -1.190282 2.280215 0.006756 0.002193 -209299.000000 1 0 0
-1.831008 -15.633506 -13.150541 20.510872 1.454207 2.266792 0.025727 -0.003520 343764.000000 1 0 0
15.997092 -7.546006 -8.702341 19.712430 -0.440762 2.028027 0.079652 0.001066 700473.000000 1 0 0
19.396392 -3.741706 -4.118141 20.178688 -0.190566 1.776324 0.102574 -0.015079 1361750.000000 1 0 0
14.725092 -11.751406 -8.736641 20.766626 -0.673553 2.005020 0.040223 -0.009301 24283.400000 1 0 0
18.035892 -3.412206 -6.408741 19.442441 -0.186980 1.906704 0.110396 -0.004405 571049.000000 1 0 0
9.588692 -9.119606 -15.497641 20.378594 -0.760330 2.434858 0.083933 -0.021174 130376.000000 1 0 0
1.356692 1.908494 -15.331341 15.509126 0.952812 2.990033 0.014736 -0.007507 218275.000000 1 0 0
4.780092 -4.299006 -13.983341 15.390405 -0.732459 2.710657 0.016381 -0.005124 526160.000000 1 0 0
13.260692 -5.630106 -8.647041 16.802243 -0.401507 2.111380 0.036237 0.000637 -1128400.000000 1 0 0
3.025292 0.884294 -12.273341 12.671593 0.284378 2.890218 0.007695 -0.004939 -2767790.000000 1 0 0
0.585392 6.304094 -13.071841 14.524370 1.478203 2.690551 0.013331 -0.004257 292127.000000 1 0 0
3.062792 -1.034406 -16.849241 17.156562 -0.325705 2.952033 0.022675 -0.008536 -119970.000000 1 0 0
13.339492 4.389694 -11.578041 18.200618 0.317913 2.260274 0.031538 -0.000404 298873.000000 1 0 0
-3.964008 9.526094 -16.480741 19.444142 -1.176470 2.582231 0.016770 0.001805 -611045.000000 1 0 0
-0.259908 -5.023806 -17.685941 18.387460 1.519107 2.864475 0.028049 -0.012563 220763.000000 1 0 0
-0.512208 -8.680906 -17.600541 19.631596 1.511861 2.682695 0.033222 -0.007267 -578924.000000 1 0 0
5.466292 -10.069806 -12.231441 16.759758 -1.073467 2.388840 0.005410 -0.000452 505433.000000 1 0 0
1.861592 -9.782806 -18.086241 20.646572 -1.382752 2.638286 0.041312 -0.008924 -26631.800000 1 0 0
10.730492 8.619394 -14.836841 20.237817 0.676727 2.393701 0.067963 -0.014124 -131238.000000 1 0 0
11.195692 -3.776406 -13.020441 17.582282 -0.325324 2.404675 0.029851 0.001442 277953.000000 1 0 0
4.934592 7.480094 -12.228541 15.160449 0.987635 2.509187 0.004224 -0.001125 -717856.000000 1 0 0
9.701892 -5.862206 -12.758341 17.066559 -0.543526 2.415183 0.028286 0.000772 -1449250.000000 1 0 0
-3.390308 0.340294 -15.805941 16.169037 -0.100037 2.929268 0.018902 -0.008834 -912684.000000 1 0 0
-0.791308 10.790394 -12.754341 16.725190 -1.497593 2.438093 0.009859 -0.002467 -1555780.000000 1 0 0
6.754192 -5.367606 -12.642441 15.305608 -0.671505 2.542771 0.017367 -0.003260 484767.000000 1 0 0
17.976692 -5.929006 -8.230841 20.641252 -0.318582 1.980957 0.100354 -0.009996 753438.000000 1 0 0
13.134792 4.958794 -14.091841 19.892018 0.360988 2.358049 0.063471 -0.007380 191320.000000 1 0 0
14.049692 0.852894 -11.659341 18.277349 0.060631 2.262580 0.030212 0.002939 -395980.000000 1 0 0
14.969292 6.265994 -11.106241 19.664459 0.396429 2.170972 0.042025 -0.011028 -174681.000000 1 0 0
8.315992 1.447794 -11.822841 14.526920 0.172370 2.521556 -0.000330 0.004178 787662.000000 1 0 0
9.907792 1.226194 -9.015241 13.451485 0.123134 2.305280 0.001651 0.001463 465420.000000 1 0 0
-0.126308 -5.834606 -13.069841 14.313607 1.549152 2.721635 0.002524 -0.001990 37287.300000 1 0 0
10.622492 -5.696506 -8.956041 15.016597 -0.492240 2.209817 0.023833 -0.004443 -765117.000000 1 0 0
10.279492 8.527894 -11.236541 17.454305 0.692533 2.270210 0.038299 -0.014335 780988.000000 1 0 0
8.144092 8.215294 -14.566741 18.601269 0.789750 2.470439 0.047063 -0.010356 -141540.000000 1 0 0
8.693592 10.645194 -10.756041 17.452539 0.885974 2.234835 0.045476 -0.012855 586074.000000 1 0 0
6.973492 1.966994 -17.846441 19.261207 0.274925 2.755927 0.040003 -0.010320 -1058100.000000 1 0 0
12.105992 2.866194 -12.962941 17.966857 0.232478 2.376751 0.038397 -0.002437 -1571070.000000 1 0 0
2.520992 -0.971706 -19.493441 19.679783 -0.367897 3.003871 0.042108 -0.010073 -385895.000000 1 0 0
10.321892 -1.990206 -15.488741 18.719067 -0.190477 2.545314 0.061173 -0.012399 -59014.500000 1 0 0
8.364092 -0.889906 -13.207841 15.658768 -0.105997 2.574523 0.012554 0.000318 437903.000000 1 0 0
0.442392 4.348394 -14.767541 15.400796 1.469408 2.853832 0.014672 -0.006600 -394537.000000 1 0 0
4.033092 -7.586306 -15.702441 17.899289 -1.082168 2.640933 0.027577 -0.009083 -600039.000000 1 0 0
11.665292 -5.850506 -14.465241 19.482060 -0.464872 2.407577 0.072032 -0.000689 -510284.000000 1 0 0
-5.916108 4.220694 -16.911041 18.406464 -0.619679 2.735713 0.017104 -0.001722 -296130.000000 1 0 0
11.437992 7.727294 -9.109641 16.538569 0.594149 2.154133 0.032700 -0.010505 -2101110.000000 1 0 0
9.461292 6.193494 -13.591441 17.680573 0.579612 2.447636 0.023170 0.003518 -642849.000000 1 0 0
12.066392 0.636694 -10.167941 15.792093 0.052717 2.270332 0.013415 0.005882 -1832420.000000 1 0 0
5.570392 -7.239206 -13.835741 16.578996 -0.914947 2.558083 0.019627 -0.001965 -941322.000000 1 0 0
8.621392 -10.031406 -10.779441 17.063231 -0.860847 2.254586 0.023904 -0.006540 212994.000000 1 0 0
10.170692 4.696394 -15.898841 19.449222 0.432588 2.527773 0.062369 -0.007953 182154.000000 1 0 0
10.013392 -0.476206 -11.103641 14.959466 -0.047521 2.407216 0.006642 0.003021 996565.000000 1 0 0
-1.759008 5.542194 -14.090841 15.243419 -1.263467 2.750226 0.012475 -0.006678 -176296.000000 1 0 0
1.333392 -0.708706 -14.935241 15.011383 -0.488534 3.040830 0.015446 -0.008709 -476805.000000 1 0 0
11.493392 -10.420906 -14.340741 21.127002 -0.736497 2.316906 0.086884 -0.018335 -826277.000000 1 0 0
9.510392 -7.667406 -10.921241 16.386280 -0.678518 2.300283 0.026973 -0.004493 -302268.000000 1 0 0
14.025692 -0.942306 -9.735341 17.099264 -0.067084 2.176502 0.032864 0.000090 947052.000000 1 0 0
4.020792 11.060594 -12.287341 17.014178 1.222125 2.377749 0.020017 -0.010802 -1535390.000000 1 0 0
-1.230608 3.005594 -16.772941 17.084483 -1.182179 2.950328 0.019135 -0.007077 888337.000000 1 0 0
6.164292 -0.479206 -17.756341 18.802015 -0.077583 2.806516 0.030624 -0.004113 25126.300000 1 0 0
6.431192 -6.562306 -16.214941 18.637285 -0.795489 2.626053 0.035031 -0.004029 588549.000000 1 0 0
-1.894908 -5.275606 -19.601241 20.387039 1.225964 2.863046 0.052340 -0.026161 -136178.000000 1 0 0
-0.101108 -4.350906 -15.162841 15.775055 1.547562 2.862084 0.011005 -0.007723 -502545.000000 1 0 0
0.569092 0.847894 -13.081941 13.121737 0.979674 3.063691 0.009592 -0.008509 985675.000000 1 0 0
15.403992 0.450794 -13.644841 20.583194 0.029256 2.295498 0.092142 -0.023907 561428.000000 1 0 0
-0.117408 7.055294 -16.326841 17.786419 -1.554157 2.733649 0.021081 -0.000833 -135532.000000 1 0 0
-5.002608 -0.718606 -18.334941 19.018742 0.142670 2.872626 0.025389 -0.005535 -14044.200000 1 0 0
10.386792 -8.319906 -13.239441 18.772029 -0.675355 2.353607 0.031355 -0.009444 248743.000000 1 0 0
4.248892 8.711394 -17.304341 19.833852 1.117005 2.631020 0.042855 -0.009470 -114043.000000 1 0 0
9.252492 0.692394 -17.187941 19.532366 0.074694 2.646600 0.047185 -0.003264 370512.000000 1 0 0
3.385292 5.022394 -18.496541 19.462956 0.977707 2.825142 0.034156 -0.001864 -489134.000000 1 0 0
1.487192 -8.228506 -15.954341 18.012803 -1.391990 2.658844 0.016141 -0.004987 965454.000000 1 0 0
4.613192 7.733294 -14.846941 17.364246 1.032927 2.596404 0.015500 -0.004060 525013.000000 1 0 0
-5.736408 -0.498406 -15.146741 16.204276 0.086667 2.778315 0.009643 -0.006420 -1061130.000000 1 0 0
2.724292 3.390294 -13.756641 14.427787 0.893891 2.835381 0.011622 -0.003986 838242.000000 1 0 0
-2.391408 -10.361706 -18.150041 21.035869 1.343975 2.611606 0.048420 -0.007019 99978.300000 1 0 0
6.167092 -9.136906 -15.389941 18.930567 -0.977071 2.520027 0.020889 -0.008483 210896.000000 1 0 0
-1.844608 5.490394 -17.369641 18.309873 -1.246674 2.819733 0.018963 -0.000493 1547380.000000 1 0 0
10.044392 -12.092106 -11.598341 19.535362 -0.877640 2.206458 0.054408 -0.014224 330216.000000 1 0 0
10.816192 3.587694 -9.417641 14.783555 0.320277 2.261442 0.000143 0.000944 -433544.000000 1 0 0
4.926292 -0.454606 -11.021941 12.081316 -0.092021 2.719694 0.007459 -0.003472 -580432.000000 1 0 0
6.365392 9.616094 -11.455841 16.254961 0.986065 2.352881 0.019562 -0.006941 -49756.000000 1 0 0
10.854892 -9.507706 -9.528541 17.292144 -0.719335 2.154398 0.046319 -0.005881 -1785070.000000 1 0 0
3.173192 -2.436506 -14.639841 15.176648 -0.654822 2.874830 0.014556 -0.006157 -27849.000000 1 0 0
9.547892 -4.418306 -14.981541 18.306563 -0.433408 2.529365 0.053993 -0.000264 488431.000000 1 0 0
-4.021608 -6.709306 -16.558241 18.312932 1.030813 2.700259 0.017523 -0.008073 -1567710.000000 1 0 0
5.899292 -7.625206 -11.367041 14.904866 -0.912326 2.438181 0.010096 -0.001929 420884.000000 1 0 0
5.511892 6.587494 -17.013841 19.059035 0.874062 2.674079 0.028854 0.003812 -983882.000000 1 0 0
8.802692 1.290494 -19.628841 21.550967 0.145565 2.716039 0.048817 -0.013277 353326.000000 1 0 0
13.069892 5.742994 -9.425741 17.106976 0.414009 2.154344 0.008594 -0.004378 306512.000000 1 0 0
-1.720708 -0.891006 -17.260841 17.369265 0.477797 3.029800 0.028000 -0.009827 -100691.000000 1 0 0
-0.566208 -0.388206 -19.482341 19.494433 0.601013 3.106370 0.047267 -0.015958 -23166.300000 1 0 0
2.921392 6.602594 -16.546041 18.052708 1.154229 2.730140 0.017262 0.003289 -885043.000000 1 0 0
7.669992 3.907994 -15.722341 17.924653 0.471232 2.640660 0.030147 0.001630 -97985.500000 1 0 0
3.131392 -9.885206 -14.727041 18.011348 -1.264021 2.528120 0.013547 -0.003475 412467.000000 1 0 0
9.054592 -10.563206 -13.407941 19.322004 -0.862147 2.337716 0.046679 -0.007296 115194.000000 1 0 0
3.801592 0.119894 -14.819341 15.299652 0.031527 2.890359 0.009852 -0.005745 -1448190.000000 1 0 0
-1.099908 -2.909806 -18.921541 19.175544 1.209398 2.978648 0.049678 -0.012320 298590.000000 1 0 0
9.310492 10.083794 -13.174841 19.024841 0.825250 2.335755 0.064998 -0.017066 376713.000000 1 0 0
4.642792 2.071394 -10.757541 11.898356 0.419650 2.700112 0.002284 0.000561 158292.000000 1 0 0
-0.412108 7.150794 -18.910141 20.221205 -1.513229 2.779518 0.035880 0.000909 39117.300000 1 0 0
0.733992 -1.620506 -17.596741 17.686438 -1.145501 3.040838 0.034212 -0.011445 -1390900.000000 1 0 0
-4.511708 -2.220306 -14.038241 14.911656 0.457325 2.797635 0.012027 -0.009469 -2724710.000000 1 0 0
10.031192 6.009294 -10.529141 15.735286 0.539729 2.303850 0.011249 0.002490 33451.200000 1 0 0
8.394392 5.707394 -17.475941 20.210113 0.597112 2.615374 0.070159 -0.011749 37331.800000 1 0 0
11.421992 0.413694 -13.632741 17.790016 0.036203 2.443881 0.029157 0.005535 341735.000000 1 0 0
6.757292 12.187594 -11.747041 18.226119 1.064551 2.271188 0.044633 -0.015786 -536013.000000 1 0 0
-0.909008 0.539794 -15.160341 15.197158 -0.535868 3.071971 0.016069 -0.009673 -813271.000000 1 0 0
-4.526308 -3.244406 -18.882941 19.687029 0.621905 2.854801 0.036382 -0.004000 163518.000000 1 0 0
5.685292 -12.013206 -13.913041 19.240904 -1.128774 2.379072 0.015274 -0.004205 -37606.200000 1 0 0
2.129792 -4.779406 -14.017941 14.962667 -1.151592 2.784340 0.009370 -0.003226 -14982.700000 1 0 0
11.888992 2.130394 -15.525441 19.670435 0.177309 2.480429 0.070758 -0.000950 595186.000000 1 0 0
9.711092 2.339694 -14.000241 17.198437 0.236424 2.521873 0.022038 0.002292 556373.000000 1 0 0
-2.265308 -4.238006 -16.409041 17.098215 1.079914 2.856705 0.015611 -0.010908 -1110450.000000 1 0 0
-2.924708 10.128694 -14.309641 17.773862 -1.289688 2.506631 0.016553 -0.005395 422172.000000 1 0 0
3.531192 5.763494 -13.693641 15.270985 1.021104 2.683075 0.008129 -0.000387 13622.700000 1 0 0
-5.099508 -2.668806 -16.508841 17.483402 0.482149 2.806129 0.016866 -0.005966 318099.000000 1 0 0
-4.371108 6.130494 -13.657541 15.595447 -0.951392 2.637761 0.005772 -0.004953 -12394.700000 1 0 0
5.960192 -1.129906 -14.329541 15.560730 -0.187352 2.741124 0.014458 0.001122 -1377680.000000 1 0 0
6.678992 -2.862306 -12.759441 14.683496 -0.404877 2.623903 0.014466 -0.004372 1291290.000000 1 0 0
2.737692 -3.184906 -18.225341 18.702985 -0.860765 2.915107 0.039391 -0.020129 -157359.000000 1 0 0
7.442692 -11.905106 -11.958241 18.442471 -1.012076 2.276287 0.026156 -0.005458 238158.000000 1 0 0
-6.148808 -5.416406 -17.451941 19.279926 0.722155 2.702616 0.043196 -0.013536 89823.200000 1 0 0
0.360892 8.634694 -11.939241 14.738848 1.529025 2.515038 0.009475 -0.002485 117880.000000 1 0 0
0.305692 8.527394 -14.408241 16.745367 1.534963 2.606912 0.009644 -0.002712 244861.000000 1 0 0
7.762592 -2.552906 -15.129941 17.195647 -0.317731 2.646386 0.025571 -0.009690 -558899.000000 1 0 0
14.412092 1.524494 -9.085641 17.105009 0.105387 2.130775 0.034681 0.000135 772201.000000 1 0 0
2.908492 10.759894 -14.683341 18.434618 1.306797 2.492296 0.018775 -0.002083 -490533.000000 1 0 0
6.104692 1.000994 -15.607541 16.788823 0.162525 2.764228 0.018772 -0.002458 417674.000000 1 0 0
16.541792 -5.714306 -10.439641 20.378181 -0.332613 2.108651 0.112349 -0.009043 354094.000000 1 0 0
4.931192 -4.267206 -11.267341 13.018398 -0.713338 2.616931 0.009544 -0.002100 -1662320.000000 1 0 0
8.937292 -3.338106 -17.236541 19.700672 -0.357458 2.636070 0.057268 -0.010430 570585.000000 1 0 0
13.363192 -9.558706 -8.774341 18.626133 -0.620922 2.061308 0.058376 -0.004730 -891302.000000 1 0 0
2.326792 -7.738406 -13.588541 15.809660 -1.278715 2.605104 0.008453 0.000511 99196.700000 1 0 0
-6.988408 -2.455206 -18.346541 19.785385 0.337855 2.757870 0.028139 -0.008419 -70619.700000 1 0 0
-1.481508 -6.568706 -15.819941 17.193409 1.348968 2.739174 0.009693 -0.004799 529618.000000 1 0 0
1.557192 -7.287206 -18.353641 19.808694 -1.360274 2.755918 0.045489 -0.012887 -86453.200000 1 0 0
5.502292 10.967794 -14.477141 18.977759 1.105808 2.438502 0.045544 -0.021230 527479.000000 1 0 0
5.299192 -3.296506 -17.483141 18.563637 -0.556495 2.798727 0.023990 -0.012121 -368248.000000 1 0 0
3.831392 13.006994 -14.010641 19.497680 1.284334 2.372555 0.038240 -0.017449 -118255.000000 1 0 0
9.020592 10.380594 -15.674541 20.852315 0.855383 2.421422 0.086489 -0.020764 380827.000000 1 0 0
2.574692 4.022394 -16.284341 16.970223 1.001420 2.856314 0.017245 -0.005147 538891.000000 1 0 0
16.549292 1.702394 -11.601541 20.282331 0.102508 2.179741 0.098970 -0.009865 826377.000000 1 0 0
10.104692 -3.732506 -10.611141 15.120606 -0.353838 2.348671 0.022088 0.001423 -44377.700000 1 0 0
14.643392 -2.146406 -12.006641 19.057686 -0.145542 2.252370 0.090197 -0.014365 165538.000000 1 0 0
-2.685608 -8.819506 -16.088541 18.542852 1.275209 2.621234 0.015938 -0.003229 -666812.000000 1 0 0
13.986292 8.106294 -8.958741 18.482083 0.525276 2.076846 0.047603 -0.013903 421357.000000 1 0 0
-8.278208 0.006094 -16.694141 18.633924 -0.000736 2.681250 0.005794 -0.001031 -135381.000000 1 0 0
-3.541508 3.937294 -15.926641 16.783994 -0.838270 2.820586 0.012943 -0.004187 -503880.000000 1 0 0
15.122992 3.960594 -9.741141 18.419582 0.256140 2.128038 0.024258 -0.003126 727250.000000 1 0 0
5.406192 1.062094 -13.084841 14.197465 0.193988 2.743062 0.006439 0.000414 293464.000000 1 0 0
7.883692 -7.702006 -12.958541 17.011681 -0.773742 2.436797 0.029390 -0.003262 -3121900.000000 1 0 0
3.254492 -6.071506 -11.938841 13.783716 -1.078744 2.618254 0.009072 -0.001186 -999123.000000 1 0 0
-3.159808 3.531294 -18.479641 19.077515 -0.840860 2.890578 0.020211 -0.001032 29781.300000 1 0 0
0.868492 5.269394 -17.790941 18.575209 1.407447 2.849971 0.032948 -0.008020 778919.000000 1 0 0
6.334492 7.242794 -10.224941 14.040415 0.852197 2.386562 0.002737 0.000414 364938.000000 1 0 0
9.644692 3.714494 -11.784341 15.674445 0.367625 2.421612 0.014663 0.001424 -224777.000000 1 0 0
4.459092 1.513694 -17.515841 18.137791 0.327256 2.878960 0.021410 -0.003687 -1494530.000000 1 0 0
2.579592 8.119294 -13.175341 15.689705 1.263171 2.567609 0.007592 -0.002267 -143351.000000 1 0 0
14.545792 -3.514606 -9.815141 17.896075 -0.237080 2.151308 0.064644 -0.002518 214476.000000 1 0 0
-1.347708 9.236194 -16.303941 18.786753 -1.425903 2.621639 0.018635 -0.000554 -1263780.000000 1 0 0
-5.323008 2.013994 -15.799441 16.793241 -0.361710 2.795842 0.016495 -0.005500 414656.000000 1 0 0
4.445692 4.209494 -11.991041 13.463621 0.758115 2.669515 0.005322 -0.000147 418677.000000 1 0 0
9.204592 3.205094 -17.828141 20.318458 0.335076 2.641286 0.053513 -0.005470 774191.000000 1 0 0
-4.408508 14.227494 -13.394141 20.031464 -1.270320 2.303195 0.028159 -0.010117 -192760.000000 1 0 0
15.635092 -4.948506 -7.959241 18.228915 -0.306525 2.022643 0.072320 -0.002868 84682.500000 1 0 0
1.232892 9.210694 -16.814441 19.211516 1.437733 2.636702 0.016491 -0.000254 -195363.000000 1 0 0
0.447692 -3.199706 -12.878741 13.277821 -1.431782 2.895796 0.004833 -0.004657 62005.600000 1 0 0
7.451992 3.457394 -13.109441 15.470721 0.434399 2.581811 0.005591 0.004164 612296.000000 1 0 0
-2.912908 7.610694 -15.122641 17.178532 -1.205258 2.647337 0.012215 -0.002785 -189889.000000 1 0 0
12.218992 -5.122806 -10.940241 17.182426 -0.396990 2.261022 0.040966 -0.005562 -980699.000000 1 0 0
0.617892 -4.565806 -20.069241 20.591329 -1.436283 2.915927 0.062276 -0.016758 -667930.000000 1 0 0
3.361192 -4.590606 -16.227441 17.195962 -0.938792 2.804371 0.027428 -0.011978 740565.000000 1 0 0
-5.705008 4.083694 -14.358841 15.981239 -0.621257 2.687094 0.003316 -0.002793 484771.000000 1 0 0
12.273192 -7.504106 -9.832841 17.424914 -0.548776 2.170379 0.034962 -0.003129 -119498.000000 1 0 0
-2.061908 -1.834806 -14.951741 15.204359 0.727184 2.959049 0.013136 -0.006068 624054.000000 1 0 0
6.972992 5.852094 -14.194541 16.862817 0.698221 2.571342 0.021780 -0.001696 -680808.000000 1 0 0
4.061692 -5.350306 -18.574341 19.751690 -0.921464 2.794579 0.052256 -0.013060 230333.000000 1 0 0
7.578392 7.506994 -12.254341 16.246718 0.780665 2.425331 0.020972 -0.005347 -2140140.000000 1 0 0
12.381592 -2.596206 -10.911741 16.706591 -0.206688 2.282520 0.028015 -0.003107 -406112.000000 1 0 0
7.502992 -0.747006 -10.781741 13.156703 -0.099234 2.531311 0.007916 -0.001100 -1960790.000000 1 0 0
5.296592 3.952994 -14.469541 15.907472 0.641147 2.713132 0.004969 0.003492 1251640.000000 1 0 0
14.741692 2.950094 -13.162841 19.982015 0.197510 2.289932 0.062998 -0.009987 1210890.000000 1 0 0
-6.753908 6.511694 -15.804141 18.379018 -0.767141 2.605873 0.013934 -0.002480 480164.000000 1 0 0
-11.251008 3.769294 -16.550841 20.364752 -0.323266 2.519602 0.031347 -0.014949 155014.000000 1 0 0
-5.090808 6.438394 -17.886941 19.680242 -0.901755 2.711383 0.018258 0.007417 -503493.000000 1 0 0
-10.095008 1.539194 -15.599541 18.644677 -0.151305 2.561981 0.022116 -0.009527 -52589.600000 1 0 0
-7.581308 5.690094 -18.137841 20.465451 -0.643848 2.660017 0.015365 0.002282 -595656.000000 1 0 0
-8.745908 3.721094 -15.708241 18.359910 -0.402266 2.597453 0.005015 0.006778 -1350590.000000 1 0 0
8.998092 13.282594 -12.324241 20.230666 0.975376 2.225830 0.093106 -0.029737 -718794.000000 1 0 0
14.043992 9.205794 -11.367141 20.277875 0.580230 2.165869 0.066869 -0.014084 214315.000000 1 0 0
8.364892 16.008894 -8.955841 20.160932 1.089299 2.031097 0.068001 -0.018014 -283825.000000 1 0 0
7.018692 13.442894 -13.929441 20.591327 1.089616 2.313757 0.076919 -0.024149 -104845.000000 1 0 0
4.662292 15.990594 -12.569041 20.866644 1.287096 2.217239 0.067536 -0.021201 222394.000000 1 0 0
11.209592 10.859494 -11.696041 19.503357 0.769536 2.213915 0.089653 -0.022893 -210356.000000 1 0 0
15.726892 10.015394 -9.458141 20.906929 0.567063 2.040243 0.085451 -0.019534 963075.000000 1 0 0
13.232292 10.585294 -9.335341 19.346591 0.674716 2.074339 0.089506 -0.028007 -816569.000000 1 0 0
10.821892 12.054094 -8.251441 18.179681 0.839211 2.041914 0.067437 -0.008309 431124.000000 1 0 0
5.433992 16.236494 -10.032641 19.844543 1.247836 2.100829 0.052123 -0.016584 -162128.000000 1 0 0
6.794292 14.819394 -11.716941 20.076442 1.140919 2.193971 0.051614 -0.002191 -639017.000000 1 0 0
10.434892 14.044394 -9.942641 20.124315 0.931795 2.087551 0.079324 -0.021690 -567916.000000 1 0 0
8.128992 -18.650406 -1.507041 20.400719 -1.159762 1.644736 0.047593 -0.003968 -358282.000000 1 0 0
7.347292 -17.014906 -3.394541 18.841779 -1.163168 1.751946 0.021776 -0.014405 -352555.000000 1 0 0
4.694692 -18.197806 5.700459 19.639132 -1.318320 1.276298 0.059850 -0.007263 512209.000000 1 0 0
9.835592 -17.028706 -2.610041 19.837541 -1.047019 1.702750 0.041286 -0.007989 250349.000000 1 0 0
-9.707908 -12.244206 -9.822641 18.456662 0.900426 2.131994 0.035097 -0.012889 -44535.700000 1 0 0
-5.162408 -7.127106 -12.134141 14.989446 0.943925 2.514117 0.000927 -0.001913 48173.000000 1 0 0
-10.813108 -9.606406 -5.617041 15.516363 0.726371 1.941217 0.010509 0.000220 -972967.000000 1 0 0
-4.650908 -11.544906 -13.900741 18.658682 1.187832 2.411333 0.011752 -0.007647 95827.600000 1 0 0
-2.695908 -15.315106 7.425359 17.232422 1.396552 1.125312 -0.002427 -0.009125 -112735.000000 1 0 0
-4.777408 -12.048106 -11.530741 17.347579 1.193287 2.297874 0.005349 -0.001212 478028.000000 1 0 0
-14.391508 -12.867806 -4.053641 19.726327 0.729560 1.777765 0.056139 -0.009999 -183989.000000 1 0 0
-3.176508 -12.241906 -3.199141 13.045650 1.316917 1.818550 0.005874 -0.000430 916378.000000 1 0 0
-2.269108 -17.448206 -1.552941 17.663533 1.441474 1.658828 0.020027 -0.012260 -446734.000000 1 0 0
-5.844008 -12.268906 3.847859 14.123899 1.126266 1.294872 0.000582 0.001565 -83535.000000 1 0 0
-8.758808 -10.749906 -11.840541 18.233914 0.887108 2.277551 0.009691 -0.002944 1757840.000000 1 0 0
-9.641508 -12.311906 -7.232541 17.229375 0.906443 2.003999 0.029964 -0.005781 -259476.000000 1 0 0
-10.827908 -15.143206 6.320559 19.659852 0.950051 1.243488 0.038724 -0.016989 283494.000000 1 0 0
-9.295108 -15.474106 0.999559 18.078886 1.029871 1.515479 0.021450 -0.010718 -1116670.000000 1 0 0
-14.957508 -7.647706 -8.097841 18.649115 0.472643 2.019970 0.034596 -0.012080 144317.000000 1 0 0
-2.321508 -16.468206 5.094859 17.393930 1.430750 1.273527 0.005234 -0.009798 419981.000000 1 0 0
4.296892 -15.613406 5.763559 17.188960 -1.302239 1.228866 0.031009 -0.012218 -456366.000000 1 0 0
4.338192 -14.491406 -10.063241 18.168368 -1.279924 2.157823 0.015633 -0.000847 34889.700000 1 0 0
-7.528308 -13.955006 -0.213441 15.857591 1.076073 1.584257 0.009973 -0.004549 657020.000000 1 0 0
2.946692 -14.657506 9.423059 17.672564 -1.372404 1.008415 0.021957 -0.020875 -105333.000000 1 0 0
2.500292 -16.980406 10.378559 20.057421 -1.424601 1.026937 0.052504 -0.024416 -506021.000000 1 0 0
-8.219108 -17.287506 -5.273641 19.855048 1.126992 1.839630 0.057909 -0.018704 -282886.000000 1 0 0
-6.477408 -9.225106 -7.686941 13.643624 0.958629 2.169303 0.006442 -0.003783 376967.000000 1 0 0
-6.137208 -13.114506 -4.818541 15.260208 1.133099 1.892052 0.004559 -0.009142 452029.000000 1 0 0
2.320592 -19.439406 -4.969841 20.198391 -1.451983 1.819401 0.035897 -0.012437 78114.600000 1 0 0
-5.544608 -12.947006 8.446459 16.422860 1.166173 1.030592 0.007518 -0.003234 1271820.000000 1 0 0
2.218292 -17.518106 3.390359 17.980528 -1.444838 1.381104 0.025050 -0.010271 824261.000000 1 0 0
-17.674408 -10.162506 -2.440241 20.533291 0.521822 1.689921 0.038051 -0.008010 368148.000000 1 0 0
-3.341808 -15.343206 2.669159 15.928154 1.356342 1.402427 0.003314 -0.007058 -298201.000000 1 0 0
-10.056608 -10.391506 -14.081241 20.184156 0.801775 2.342892 0.034085 -0.011681 -219606.000000 1 0 0
5.955792 -14.473806 -5.612741 16.627248 -1.180426 1.915123 -0.002948 -0.007865 643696.000000 1 0 0
-7.260908 -12.430706 -10.672241 17.920379 1.042142 2.208730 0.013957 -0.008940 -1469760.000000 1 0 0
-7.587108 -14.160406 3.879159 16.526621 1.078923 1.333864 0.009102 -0.006215 958246.000000 1 0 0
3.353192 -14.972406 -3.191341 15.671679 -1.350474 1.775868 0.012610 -0.005629 -474034.000000 1 0 0
-7.530508 -11.277206 7.823659 15.655465 0.982035 1.047498 0.005990 -0.010483 -2166480.000000 1 0 0
-12.602208 -12.529006 -0.835041 17.790136 0.782485 1.617752 0.018012 0.001067 -992321.000000 1 0 0
-1.778908 -13.681006 4.089559 14.389543 1.441494 1.282621 -0.000458 -0.003480 -4893180.000000 1 0 0
-3.125608 -13.921206 5.313559 15.225089 1.349937 1.214292 -0.000080 -0.003755 346457.000000 1 0 0
-14.347508 -10.358606 -4.374441 18.228754 0.625325 1.813136 0.023614 -0.001485 226530.000000 1 0 0
-6.158708 -8.770106 -10.413241 14.942558 0.958569 2.341841 0.000399 -0.001436 200703.000000 1 0 0
0.816592 -19.544806 2.472059 19.717438 -1.529040 1.445091 0.028373 -0.009650 115701.000000 1 0 0
6.267192 -13.799706 -8.079941 17.175420 -1.144493 2.060581 0.016142 -0.007962 -3426850.000000 1 0 0
-3.885508 -16.814706 -5.899141 18.238185 1.343704 1.900170 0.019977 -0.011454 -130521.000000 1 0 0
-3.570208 -13.685606 -13.236641 19.371393 1.315610 2.323081 0.020364 -0.004412 -1417720.000000 1 0 0
-8.225308 -14.748306 -4.285241 17.422156 1.062051 1.819312 0.026541 -0.017346 -653279.000000 1 0 0
-4.568008 -14.355806 10.285159 18.241172 1.262728 0.971765 0.012823 -0.003811 -1160870.000000 1 0 0
-0.449708 -12.189306 -9.947141 15.739347 1.533919 2.254917 -0.004710 0.001814 703199.000000 1 0 0
2.453592 -17.181406 6.835259 18.653193 -1.428950 1.195617 0.035772 -0.016731 -1349490.000000 1 0 0
-2.815508 -19.125306 -3.518241 19.648981 1.424632 1.750822 0.039580 -0.018655 -1093580.000000 1 0 0
0.766892 -15.378106 -3.099241 15.706036 -1.520969 1.769428 0.010216 -0.002874 -732818.000000 1 0 0
6.139992 -17.900506 0.592159 18.933523 -1.240365 1.539516 0.029802 -0.008203 -390264.000000 1 0 0
-6.770708 -16.474306 4.001559 18.255348 1.180855 1.349803 0.004128 -0.011468 453300.000000 1 0 0
-5.159608 -13.551106 -9.537741 17.355764 1.206993 2.152614 0.007808 -0.009164 -82509.700000 1 0 0
5.649592 -15.118606 -2.117941 16.278078 -1.213179 1.701276 0.016447 -0.005167 -652426.000000 1 0 0
-8.715708 -10.361406 -0.520841 13.549671 0.871451 1.609245 0.005732 0.003693 -1339480.000000 1 0 0
-7.185708 -18.483806 -2.497541 19.988077 1.200020 1.696075 0.039415 -0.025776 -656461.000000 1 0 0
7.849492 -15.997706 -1.138141 17.855993 -1.114646 1.634580 0.020238 -0.004905 -268433.000000 1 0 0
-8.066908 -10.237006 -9.381541 16.058787 0.903407 2.194690 0.012340 -0.005233 491948.000000 1 0 0
-8.757408 -15.462206 -6.879941 19.055331 1.055468 1.940191 0.047274 -0.015720 -220365.000000 1 0 0
-11.469408 -10.574606 -11.829241 19.578064 0.744829 2.219569 0.042470 -0.002488 195967.000000 1 0 0
6.730492 -16.200806 2.523059 17.723754 -1.177049 1.427956 0.033161 -0.005878 392817.000000 1 0 0
-2.221908 -11.260506 -5.966241 12.935684 1.375980 2.050170 0.001534 -0.000327 -451430.000000 1 0 0
-12.317808 -15.374206 -3.321441 19.978153 0.895324 1.737826 0.048274 -0.016861 -37381.000000 1 0 0
-0.438208 -19.873806 -2.835541 20.079853 1.548750 1.712483 0.057031 -0.016038 -565065.000000 1 0 0
-5.822608 -15.638406 -4.690741 17.333943 1.214371 1.844823 0.018968 -0.013855 -3100410.000000 1 0 0
2.105092 -15.935406 -1.024741 16.106480 -1.439455 1.634462 0.008236 -0.008373 1293670.000000 1 0 0
-13.046208 -11.946206 5.313859 18.470314 0.741413 1.278975 0.019341 -0.003006 377856.000000 1 0 0
2.138192 -15.244806 -9.048141 17.856227 -1.431448 2.102174 0.018977 0.003355 -1656650.000000 1 0 0
-11.322008 -16.825906 0.187959 20.281379 0.978497 1.561529 0.063467 -0.025833 538392.000000 1 0 0
-7.826508 -16.583806 -0.920341 18.360934 1.129850 1.620942 0.039790 -0.015411 37096.500000 1 0 0
-2.852108 -14.545206 -1.786741 14.929501 1.377167 1.690762 0.006301 -0.002432 635365.000000 1 0 0
-1.862508 -10.556906 -13.223541 17.022904 1.396168 2.460379 0.004772 -0.000441 350883.000000 1 0 0
1.485592 -19.409106 5.079559 20.117711 -1.494404 1.315542 0.047229 -0.020890 181648.000000 1 0 0
-17.494008 -9.349506 2.582459 20.003067 0.490819 1.441332 0.037405 -0.006618 126925.000000 1 0 0
-2.531808 -15.706406 -7.965641 17.791928 1.410975 2.035000 0.008755 -0.009311 -812522.000000 1 0 0
-10.294108 -12.234006 0.244859 15.990608 0.871296 1.555483 0.008248 -0.000488 43467.700000 1 0 0
-6.825608 -11.450706 -6.592441 14.871714 1.033260 2.030059 0.006435 -0.003107 -141102.000000 1 0 0
-2.113708 -13.590406 -6.592641 15.252207 1.416503 2.017774 0.001797 -0.000785 661511.000000 1 0 0
-14.288108 -14.640506 -0.888541 20.476425 0.797579 1.614203 0.060892 -0.008228 207914.000000 1 0 0
-9.546908 -11.331406 -4.295341 15.427060 0.870662 1.852954 0.016203 -0.003278 1197770.000000 1 0 0
9.560692 -15.115706 -5.227741 18.633859 -1.006822 1.855164 0.023390 -0.002872 189428.000000 1 0 0
-5.471208 -10.979206 -9.306341 15.397567 1.108490 2.219813 0.002810 -0.001832 135589.000000 1 0 0
-10.415808 -16.068906 -4.925441 19.772678 0.995690 1.822551 0.061924 -0.019366 -1200130.000000 1 0 0
2.324492 -17.403906 -3.255941 17.857782 -1.438021 1.754148 0.024112 -0.009071 642114.000000 1 0 0
-0.169908 -14.596106 -8.008141 16.649490 1.559156 2.072573 0.007273 0.001555 -541157.000000 1 0 0
-0.347608 -18.308206 -7.133241 19.651829 1.551812 1.942261 0.047262 -0.013227 134639.000000 1 0 0
-1.951008 -10.041606 -10.530341 14.680885 1.378895 2.370691 0.000648 0.000918 464932.000000 1 0 0
-4.910408 -17.281206 2.101259 18.087772 1.293946 1.454363 0.012583 -0.010722 -395294.000000 1 0 0
0.338892 -12.784706 -2.598141 13.050437 -1.544295 1.771220 0.000830 -0.001416 -1851210.000000 1 0 0
2.671692 -15.017506 3.020159 15.549431 -1.394733 1.375324 0.012538 -0.004889 -781724.000000 1 0 0
-9.434208 -13.045206 6.883759 17.509079 0.944673 1.166737 0.006260 -0.006477 -452858.000000 1 0 0
-0.844108 -17.867806 -4.556441 18.458932 1.523590 1.820216 0.045594 -0.015646 -263320.000000 1 0 0
-9.661708 -17.790006 -2.329141 20.377876 1.073268 1.685344 0.063181 -0.023716 -844313.000000 1 0 0
1.406692 -16.269406 1.368459 16.387344 -1.484548 1.487192 0.008020 -0.011542 569884.000000 1 0 0
-0.381308 -18.021106 4.169059 18.500993 1.549640 1.343502 0.022944 -0.013646 -273514.000000 1 0 0
-17.383008 -9.282006 -0.074141 19.706094 0.490453 1.574559 0.001718 -0.001447 1076110.000000 1 0 0
-14.621308 -7.399506 -10.682441 19.561439 0.468497 2.148494 0.047570 -0.015058 308041.000000 1 0 0
2.939192 -12.693106 -8.930141 15.795608 -1.343249 2.171661 0.001636 0.003295 690203.000000 1 0 0
-11.803608 -14.839606 1.748659 19.041977 0.898859 1.478835 0.033368 -0.005676 261085.000000 1 0 0
-2.221108 -15.445406 10.708559 18.925304 1.427972 0.969353 0.013740 -0.007363 -517153.000000 1 0 0
-6.904008 -15.743606 1.435559 17.250719 1.157524 1.487483 0.016047 -0.013277 -1450760.000000 1 0 0
-12.698408 -15.073706 -5.764241 20.535157 0.870719 1.855321 0.074738 -0.017718 461712.000000 1 0 0
0.928892 -13.703406 -4.980041 14.609825 -1.503114 1.918638 0.006141 -0.001409 256302.000000 1 0 0
6.223592 -16.228506 -7.575241 18.960005 -1.204597 1.981809 0.036237 -0.014282 431126.000000 1 0 0
-6.530308 -12.892306 6.020059 15.655593 1.101940 1.176097 0.004951 -0.003684 59437.700000 1 0 0
-2.482508 -13.561806 0.575859 13.799169 1.389749 1.529053 0.005160 -0.003539 1619830.000000 1 0 0
-4.156408 -15.548506 0.213759 16.095884 1.309585 1.557516 0.005960 -0.009134 217884.000000 1 0 0
-17.489408 -7.535106 -2.036941 19.152190 0.406805 1.677353 -0.010121 0.001811 157804.000000 1 0 0
1.037892 -12.765806 -11.882741 17.471193 -1.489672 2.318741 0.003109 0.003734 -276021.000000 1 0 0
1.390692 -17.047806 -5.650441 18.013584 -1.489401 1.889859 0.037279 -0.013450 -1390990.000000 1 0 0
-12.821808 -6.399106 -9.135241 16.994116 0.462911 2.138329 0.023673 -0.005162 1276620.000000 1 0 0
-11.530908 -13.576106 -8.436341 19.708992 0.866678 2.013125 0.060134 -0.019974 540236.000000 1 0 0
-4.238908 -9.998106 3.541659 11.422514 1.169797 1.255541 0.007277 -0.000500 -5087380.000000 1 0 0
-7.157308 -14.189206 9.949059 18.749518 1.103620 1.011453 0.014262 -0.007454 -1772360.000000 1 0 0
-5.138108 -15.793706 -8.074441 18.467212 1.256269 2.023314 0.018375 -0.020925 -754358.000000 1 0 0
-0.257608 -13.438706 2.197859 13.619683 1.551630 1.408714 0.004292 -0.006368 723185.000000 1 0 0
-10.935608 -13.493206 -4.619041 17.971914 0.889714 1.830728 0.050127 -0.013220 -917310.000000 1 0 0
-9.727008 -10.483306 6.698959 15.792101 0.822802 1.132722 0.014182 -0.001302 -574552.000000 1 0 0
-15.394508 -8.070906 -4.844541 18.044390 0.482876 1.842610 0.017399 -0.002518 -1276350.000000 1 0 0
-14.556208 -7.344206 5.520459 17.213252 0.467274 1.244318 0.033167 -0.005443 -294427.000000 1 0 0
-1.425408 -19.298306 0.133559 19.351337 1.497068 1.563894 0.025387 -0.013222 -342287.000000 1 0 0
-15.157008 -12.236306 -1.371841 19.528032 0.679178 1.641104 0.022266 0.000488 1226370.000000 1 0 0
-4.418108 -12.221806 -6.777841 14.657127 1.223919 2.051526 0.002513 -0.002259 -74294.000000 1 0 0
-7.358108 -18.191906 2.245559 19.751703 1.186441 1.456861 0.022515 -0.015402 -77105.400000 1 0 0
-2.529608 -11.732206 -8.526241 14.722105 1.358435 2.188476 -0.000498 0.002037 14394.100000 1 0 0
-1.341908 -20.432406 -5.177041 21.120741 1.505215 1.818436 0.074108 -0.021187 -272713.000000 1 0 0
-5.364208 -9.017506 -13.813541 17.346587 1.034160 2.491993 0.003994 -0.004042 385547.000000 1 0 0
-8.561408 -18.914506 -0.259741 20.763519 1.145752 1.583306 0.056501 -0.029882 12255.600000 1 0 0
-17.137008 -7.367506 5.728759 19.513480 0.406029 1.272827 0.058999 -0.009579 179178.000000 1 0 0
-3.542808 -14.639206 -4.304141 15.664721 1.333353 1.849143 0.005447 -0.004921 -1894010.000000 1 0 0
-3.196108 -15.057506 -10.970441 18.902227 1.361640 2.189989 0.017314 -0.008668 -269168.000000 1 0 0
-0.054608 -16.733406 6.324759 17.888892 1.567533 1.209424 0.025611 -0.011448 -1547970.000000 1 0 0
-11.106508 -11.553006 3.757859 16.460498 0.805100 1.340470 0.011364 -0.001152 -460117.000000 1 0 0
-0.064908 -14.575106 -0.162741 14.576160 1.566343 1.581961 0.012478 -0.006451 1072810.000000 1 0 0
-7.201008 -9.470606 -2.459041 12.148819 0.920702 1.774614 0.003712 0.001287 -272173.000000 1 0 0
-10.975808 -14.566106 -0.789341 18.255489 0.925048 1.614048 0.030692 -0.011380 89272.300000 1 0 0
0.190092 -14.650206 -10.636641 18.105326 -1.557822 2.198746 0.004613 0.003193 -246211.000000 1 0 0
-1.341308 -14.029306 -3.842641 14.607753 1.475478 1.836984 0.004495 0.000462 -3498870.000000 1 0 0
-11.267208 -8.071206 -7.621841 15.817295 0.621612 2.073581 0.009543 -0.005010 660890.000000 1 0 0
-0.183408 -17.095606 -0.372941 17.100657 1.560068 1.592607 0.014250 -0.014114 -1652730.000000 1 0 0
-12.838808 -9.514406 4.516159 16.605861 0.637759 1.295365 0.015611 -0.001865 366984.000000 1 0 0
4.128792 -16.833706 1.706459 17.416446 -1.330275 1.472659 0.017736 -0.008745 1907880.000000 1 0 0
-3.756508 -17.912206 -8.173441 20.044042 1.364074 1.990811 0.050263 -0.024934 144581.000000 1 0 0
-13.397208 -11.309806 2.688259 17.737634 0.701112 1.418653 0.013917 -0.002372 -547842.000000 1 0 0
-8.535808 -12.027006 4.339859 15.373460 0.953577 1.284610 0.005320 -0.005359 400365.000000 1 0 0
-8.280508 -9.537006 -5.825241 13.908801 0.855802 2.002938 0.009561 -0.005491 -525566.000000 1 0 0
4.002592 -17.485106 -5.179941 18.670337 -1.345759 1.851927 0.014106 0.000043 411140.000000 1 0 0
-2.653708 -12.892106 11.347759 17.378729 1.367792 0.859299 0.009399 -0.012325 346402.000000 1 0 0
0.152292 -16.806706 -9.501641 19.307246 -1.561735 2.085329 0.030471 -0.003819 89873.400000 1 0 0
-7.129208 -10.830206 -14.510741 19.459717 0.988629 2.412353 0.014456 -0.000505 -1166290.000000 1 0 0
-4.474508 -18.946606 -1.639341 19.536698 1.338881 1.654806 0.035421 -0.021192 -973425.000000 1 0 0
-2.361308 -17.172106 1.173459 17.373371 1.434145 1.503201 0.019272 -0.015560 740458.000000 1 0 0
4.052292 -14.722306 -7.436741 16.984478 -1.302199 2.024008 0.015966 -0.002935 -208703.000000 1 0 0
-0.894708 -15.922006 -6.006041 17.040637 1.514662 1.930988 0.016760 -0.004740 41100.500000 1 0 0
-9.348408 -15.191506 8.494559 19.756825 1.019151 1.126353 0.017334 -0.009394 -452680.000000 1 0 0
-7.019108 -12.008206 -1.762741 14.020420 1.041833 1.696857 0.007902 -0.002093 991463.000000 1 0 0
-7.148608 -15.227406 -9.446041 19.292595 1.131881 2.082450 0.028317 -0.012214 -137223.000000 1 0 0
-4.948108 -13.253606 -0.568241 14.158558 1.213481 1.610941 0.007836 -0.003436 2152210.000000 1 0 0
-6.442708 -13.803106 -7.347941 16.912317 1.134094 2.020249 0.009890 -0.011798 -95213.800000 1 0 0
5.778592 -15.275406 0.361359 16.335873 -1.209141 1.548674 0.017791 -0.004542 133069.000000 1 0 0
-14.576008 -12.862706 1.040059 19.467690 0.723038 1.517346 0.024842 -0.002073 987829.000000 1 0 0
0.926992 -15.166106 11.105459 18.820237 -1.509750 0.939638 0.017725 -0.014632 51793.400000 1 0 0
-9.184808 -10.833506 2.002859 14.343536 0.867572 1.430704 0.003854 0.002921 21908.000000 1 0 0
-9.450208 -8.904206 -3.544641 13.459414 0.755659 1.837298 0.007385 -0.001463 -885397.000000 1 0 0
-12.181108 -7.306206 -12.300741 18.790112 0.540271 2.284501 0.041850 -0.005503 -1165330.000000 1 0 0
-13.135708 -8.563106 -0.637341 15.693305 0.577706 1.611420 0.003839 -0.000383 -662526.000000 1 0 0
-11.080608 -9.772506 0.458159 14.781464 0.722751 1.539796 0.003022 0.003701 653214.000000 1 0 0
-15.867408 -12.111806 2.985259 20.183713 0.651967 1.422347 0.045029 -0.005868 122155.000000 1 0 0
-10.402108 -12.648206 -2.249041 16.529948 0.882535 1.707278 0.029410 -0.009008 544836.000000 1 0 0
-3.360608 -8.903206 -12.067641 15.368433 1.209870 2.473852 0.002690 0.000361 -1328240.000000 1 0 0
-0.158508 -15.596906 3.884859 16.074226 1.560634 1.326697 0.011017 -0.009811 -981154.000000 1 0 0
-15.746008 -7.778706 1.261959 17.607885 0.458845 1.499065 -0.000357 -0.002322 954969.000000 1 0 0
-6.234908 -13.542706 -13.261641 19.953699 1.139337 2.297782 0.019952 -0.008372 1047970.000000 1 0 0
-15.417408 -10.376206 1.161359 18.620175 0.592387 1.508385 0.009961 -0.002157 805224.000000 1 0 0
-9.888208 -8.485306 -12.371641 17.967599 0.709191 2.330288 0.012491 -0.005466 104631.000000 1 0 0
-13.253308 -11.869806 -6.170841 18.831404 0.730385 1.904653 0.045784 -0.001804 -196839.000000 1 0 0
-12.217208 -11.492306 -3.732941 17.183368 0.754833 1.789784 0.029186 0.000437 -2034240.000000 1 0 0
-11.480208 -10.934706 -8.539241 18.007821 0.761066 2.064847 0.035258 -0.023536 252741.000000 1 0 0
-13.157108 -8.568106 -5.892241 16.770225 0.577229 1.929810 0.016516 -0.003223 -2031490.000000 1 0 0
-13.347208 -8.314706 -3.216641 16.050829 0.557127 1.772566 0.009137 -0.000406 506371.000000 1 0 0
-4.236208 -16.940406 -3.262041 17.764114 1.325756 1.755475 0.017674 -0.017668 415835.000000 1 0 0
-15.349708 -9.094106 -1.772541 17.929256 0.534858 1.669821 0.004173 -0.000846 1389700.000000 1 0 0
-9.388308 -15.934006 3.898059 18.900470 1.038356 1.363064 0.015192 -0.002321 641990.000000 1 0 0
4.837592 -16.974206 7.900559 19.337653 -1.293160 1.149922 0.057400 -0.034806 236547.000000 1 0 0
-8.205308 -15.381406 6.188659 18.499034 1.080743 1.229680 0.002240 -0.006920 -17490.300000 1 0 0
0.866292 -16.057006 8.618959 18.244571 -1.516898 1.078771 0.026106 -0.012446 185873.000000 1 0 0
-10.856808 -7.908606 -10.082841 16.795238 0.629564 2.214722 0.018516 -0.007598 663958.000000 1 0 0
-4.734008 -16.042106 6.004459 17.771144 1.283842 1.226136 0.004022 -0.005356 -370496.000000 1 0 0
-1.475308 -13.344506 -12.085541 18.064127 1.460688 2.303707 0.005919 0.002240 -1603120.000000 1 0 0
-6.291808 -14.362206 -2.517841 15.880786 1.157898 1.730015 0.015302 -0.009645 321025.000000 1 0 0
-17.629008 -6.906406 -7.281341 20.285421 0.373386 1.937933 0.048870 -0.013477 -119536.000000 1 0 0
-17.352008 -4.038506 -10.278141 20.567983 0.228669 2.094067 0.063071 -0.017829 853111.000000 1 0 0
-15.277708 -5.315806 -9.206941 18.612736 0.334843 2.088238 0.025170 -0.009895 786015.000000 1 0 0
-16.175808 -5.404906 -5.663741 17.970747 0.322472 1.891426 0.013352 -0.005398 1344580.000000 1 0 0
-15.178508 -4.437506 -12.373141 20.079173 0.284428 2.234727 0.054402 -0.013188 -1489600.000000 1 0 0
-18.747908 -5.193806 -5.715141 20.276157 0.270256 1.856534 0.040928 -0.008259 -2116330.000000 1 0 0
-17.420708 -4.405906 -7.818941 19.596656 0.247718 1.981215 0.030119 -0.011120 -94131.800000 1 0 0
12.044892 -7.787106 8.813959 16.834616 -0.573916 1.019770 0.051492 -0.011259 -71525.400000 1 0 0
16.065892 -3.327906 1.794259 16.504763 -0.204252 1.461869 0.033785 -0.005932 1011410.000000 1 0 0
12.071192 -2.180906 12.587559 17.576025 -0.178742 0.772486 0.068205 -0.008380 217264.000000 1 0 0
9.667892 -9.969806 5.226359 14.838463 -0.800771 1.210857 0.016069 -0.004596 296978.000000 1 0 0
16.974592 -1.898606 7.234859 18.549519 -0.111387 1.170133 0.095038 -0.017072 397406.000000 1 0 0
5.064792 -12.777206 9.089159 16.477922 -1.193404 0.986520 0.006585 -0.000282 -266504.000000 1 0 0
15.127792 -9.004606 -2.089441 17.728474 -0.536909 1.688929 0.028386 -0.001977 155134.000000 1 0 0
11.127092 -8.564606 6.550459 15.494294 -0.655995 1.134301 0.026507 -0.011424 -1377090.000000 1 0 0
19.910592 -3.074606 3.538559 20.454981 -0.153210 1.396929 0.104737 -0.012783 -97545.500000 1 0 0
13.665292 -8.603506 6.973159 17.589356 -0.561892 1.163158 0.055571 -0.011178 -551558.000000 1 0 0
8.324492 -11.067706 8.764459 16.389235 -0.925925 1.006562 0.010256 -0.001866 -818394.000000 1 0 0
17.045392 0.107794 -0.788141 17.063943 0.006324 1.617000 0.037206 0.001682 550175.000000 1 0 0
12.575092 -12.269706 2.341259 17.724563 -0.773107 1.438318 0.037346 -0.003867 -138682.000000 1 0 0
10.445692 -11.476306 3.514859 15.911389 -0.832376 1.348057 0.032982 -0.007238 -802204.000000 1 0 0
16.368592 3.028994 2.318159 16.807125 0.182979 1.432428 0.024126 -0.001290 -19602.600000 1 0 0
18.429892 -3.199906 0.517359 18.712775 -0.171912 1.543145 0.061978 -0.010110 846625.000000 1 0 0
13.771492 -11.687306 -0.192241 18.063335 -0.703715 1.581439 0.042990 0.000266 -195325.000000 1 0 0
16.982792 -7.601906 -0.817141 18.624498 -0.420876 1.614685 0.036633 -0.002890 62899.600000 1 0 0
10.319892 -5.747606 9.721959 15.298746 -0.508159 0.882174 0.024781 -0.007776 -158690.000000 1 0 0
11.349792 -13.129806 5.896359 18.329665 -0.857985 1.243289 0.047262 -0.013019 148095.000000 1 0 0
13.144392 -1.638406 10.332559 16.799440 -0.124007 0.908342 0.058411 -0.005196 -1146.110000 1 0 0
15.627392 -1.927806 -1.549641 15.821921 -0.122741 1.668896 0.027913 -0.001061 -350538.000000 1 0 0
10.549092 -12.322406 9.190759 18.643902 -0.862777 1.055304 0.052953 -0.017648 -129083.000000 1 0 0
14.593892 1.293394 3.319959 15.022539 0.088395 1.347958 0.015237 -0.003817 1055940.000000 1 0 0
15.056192 -5.744406 5.375559 16.987753 -0.364484 1.248825 0.056392 -0.013677 -1129830.000000 1 0 0
14.486292 -3.407406 -3.027041 15.186377 -0.231017 1.771466 0.022165 -0.002243 1259630.000000 1 0 0
14.056092 0.654394 9.525259 16.992130 0.046522 0.975724 0.062999 -0.010135 97818.800000 1 0 0
15.418692 -3.306006 4.430659 16.379758 -0.211217 1.296888 0.042876 -0.005666 -1073270.000000 1 0 0
18.400792 4.868594 -4.300241 19.513698 0.258659 1.792991 0.021470 -0.007481 454489.000000 1 0 0
18.150492 -5.779506 -5.226441 19.752436 -0.308270 1.838583 0.084718 -0.005891 586962.000000 1 0 0
17.430992 0.146894 5.852559 18.387863 0.008427 1.246878 0.086175 -0.007170 744426.000000 1 0 0
17.082792 -6.661606 4.035159 18.774485 -0.371821 1.354178 0.071868 -0.017950 245091.000000 1 0 0
9.825392 -6.554806 14.230559 18.493583 -0.588323 0.692760 0.043339 -0.013543 -454072.000000 1 0 0
8.653992 -12.302906 5.136359 15.894504 -0.957785 1.241737 0.022806 -0.007107 -832922.000000 1 0 0
16.921292 -10.165006 -0.582041 19.748322 -0.540951 1.600274 0.042658 -0.001473 -237664.000000 1 0 0
15.056292 -8.716706 0.471059 17.403873 -0.524791 1.543727 0.040964 -0.007942 55744.100000 1 0 0
10.125592 -12.818306 1.402459 16.395227 -0.902225 1.485151 0.031251 -0.005634 300167.000000 1 0 0
16.854592 -8.462106 8.899859 20.854064 -0.465299 1.129880 0.109336 -0.018024 347381.000000 1 0 0
19.308492 0.026994 -2.182941 19.431516 0.001398 1.683374 0.091531 -0.000244 447819.000000 1 0 0
13.412092 -1.261606 7.751759 15.542381 -0.093789 1.048641 0.032935 -0.009522 212819.000000 1 0 0
12.862892 -9.845406 -3.053341 16.483595 -0.653292 1.757107 0.025118 -0.003692 -597933.000000 1 0 0
8.910692 -15.058106 1.426659 17.555123 -1.036462 1.489439 0.039802 -0.007271 -680496.000000 1 0 0
11.469192 -8.391106 11.174059 18.077959 -0.631635 0.904468 0.056677 -0.014934 220639.000000 1 0 0
14.048692 -3.852106 -0.458141 14.574442 -0.267619 1.602236 0.015506 -0.003615 -201895.000000 1 0 0
7.078592 -13.317206 10.630159 18.451415 -1.082238 0.956827 0.017427 -0.002268 -235338.000000 1 0 0
15.489792 -6.692206 1.965859 16.987756 -0.407818 1.454814 0.032035 -0.008071 -16538.800000 1 0 0
15.950392 -6.056306 -2.639341 17.264413 -0.362882 1.724276 0.051918 -0.003023 325037.000000 1 0 0
11.248092 -8.526606 3.884159 14.639306 -0.648633 1.302256 0.022693 -0.006173 704269.000000 1 0 0
10.723692 -14.453806 -0.502541 18.004517 -0.932481 1.598712 0.038940 -0.012129 875843.000000 1 0 0
13.612092 -12.810806 4.608359 19.252085 -0.755082 1.329080 0.045463 -0.004529 662434.000000 1 0 0
12.975092 -11.120506 6.583659 18.312925 -0.708582 1.203055 0.048737 -0.008778 -38982.800000 1 0 0
11.058492 -10.397706 1.300359 15.234614 -0.754611 1.485337 0.023082 -0.005742 756163.000000 1 0 0
13.956292 -7.601806 11.758259 19.769223 -0.498755 0.933809 0.083820 -0.028584 11379.600000 1 0 0
15.473592 -1.896606 -5.014741 16.376104 -0.121962 1.882019 0.049072 -0.000959 -549810.000000 1 0 0
12.932392 -11.402206 -6.998941 18.607586 -0.722600 1.956416 0.049545 -0.002196 689829.000000 1 0 0
17.836092 -5.284906 1.991659 18.708904 -0.288063 1.464139 0.076332 -0.009317 1136230.000000 1 0 0
10.504892 -9.739706 9.137459 16.991403 -0.747619 1.003007 0.027761 -0.009293 -1383090.000000 1 0 0
16.468992 1.681194 9.847759 19.262203 0.101730 1.034160 0.103204 -0.018775 -406274.000000 1 0 0
18.054792 3.808194 0.452859 18.457598 0.207877 1.546259 0.012177 0.004382 434862.000000 1 0 0
13.314692 -3.974106 5.775659 15.047683 -0.290057 1.176863 0.024916 -0.011971 -1221400.000000 1 0 0
12.224792 -6.210806 6.613259 15.223496 -0.470067 1.121412 0.027083 -0.013240 -148311.000000 1 0 0
16.691892 -10.050006 3.602859 19.814199 -0.541954 1.387947 0.054345 -0.011963 73471.700000 1 0 0
16.299092 -7.985606 -5.532541 18.974702 -0.455569 1.866669 0.067887 -0.004525 8374.700000 1 0 0
14.036692 -0.321306 5.342659 15.022515 -0.022886 1.207194 0.022721 -0.004915 505729.000000 1 0 0
18.249692 -4.270206 5.143659 19.435615 -0.229853 1.302954 0.099916 -0.011869 175718.000000 1 0 0
13.627592 -13.532806 7.115259 20.481089 -0.781908 1.215993 0.074297 -0.013387 225353.000000 1 0 0
15.216192 -13.657906 -1.220441 20.483173 -0.731482 1.630414 0.051320 0.001835 1163610.000000 1 0 0
17.899892 -6.073006 8.358959 20.667843 -0.327090 1.154427 0.113796 -0.011902 81588.900000 1 0 0
14.481992 3.309794 9.210959 17.479261 0.224686 1.015771 0.052390 -0.009079 -58415.200000 1 0 0
18.863292 3.641194 2.844459 19.420942 0.190685 1.423804 0.062813 -0.004092 291989.000000 1 0 0
14.960492 -10.611006 8.211659 20.095798 -0.616919 1.149849 0.079195 -0.023121 -571356.000000 1 0 0
14.804292 -4.696806 10.386959 18.684645 -0.307215 0.981340 0.097361 -0.020402 -5154.920000 1 0 0
17.879592 -7.827106 2.008559 19.620849 -0.412635 1.468248 0.075612 -0.010876 145594.000000 1 0 0
18.479192 -5.858706 -2.057241 19.494543 -0.307019 1.676522 0.060878 -0.004162 -97624.100000 1 0 0
14.327892 -13.079206 -5.575841 20.185245 -0.739869 1.850669 0.051219 -0.001633 -556033.000000 1 0 0
15.520692 -1.532006 9.330359 18.174006 -0.098389 1.031665 0.116226 -0.015758 -97809.800000 1 0 0
13.027192 -10.103106 10.022859 19.293475 -0.659647 1.024537 0.058919 -0.030033 -746300.000000 1 0 0
16.594392 2.166094 4.803459 17.410888 0.129798 1.291283 0.048595 -0.006069 -1908660.000000 1 0 0
15.016892 2.485494 -0.131941 15.221765 0.164026 1.579464 0.010689 0.003157 -1120290.000000 1 0 0
15.173292 -9.938006 -6.924741 19.415066 -0.579859 1.935496 0.063693 -0.004275 1052990.000000 1 0 0
16.153992 0.013194 -3.316941 16.491019 0.000817 1.773314 0.032489 0.002866 253917.000000 1 0 0
12.172592 2.732694 13.576959 18.438368 0.220834 0.743147 0.080969 -0.010989 -354875.000000 1 0 0
17.710392 -3.008906 9.522259 20.331869 -0.168288 1.083384 0.118720 -0.021737 442488.000000 1 0 0
7.944292 -17.890706 4.641459 20.117959 -1.152905 1.337987 0.075050 -0.020741 -34934.800000 1 0 0
6.832792 -11.141906 6.609759 14.646434 -1.020690 1.102588 0.010251 -0.004280 430401.000000 1 0 0
18.022392 2.312794 -1.668941 18.246670 0.127631 1.662390 0.036957 0.004206 445891.000000 1 0 0
17.526892 -2.151006 3.669459 18.035623 -0.122115 1.365910 0.047100 -0.005640 -1270500.000000 1 0 0
12.694492 -13.394706 -1.996841 18.562210 -0.812231 1.678581 0.034161 -0.000041 1359220.000000 1 0 0
15.092292 -8.165006 4.516159 17.743739 -0.495911 1.313444 0.050677 -0.008747 -179293.000000 1 0 0
12.032392 -2.792906 15.040659 19.462790 -0.228077 0.687570 0.073245 -0.017541 -18969.000000 1 0 0
12.013092 -13.729506 -6.487141 19.362250 -0.851976 1.912445 0.029455 -0.009504 -99051.000000 1 0 0
10.696392 -11.905106 -1.132441 16.044525 -0.838827 1.641436 0.024942 -0.007902 -728747.000000 1 0 0
13.254192 -7.955306 2.132959 15.604807 -0.540574 1.433681 0.031523 -0.003702 -75026.100000 1 0 0
8.801092 -7.840406 10.010059 15.463908 -0.727734 0.866736 0.012437 -0.001494 -1717160.000000 1 0 0
15.767092 -3.905506 8.175859 18.185126 -0.242813 1.104490 0.102316 -0.017987 -1285940.000000 1 0 0
10.525092 -17.247606 5.009359 20.817088 -1.022885 1.327774 0.080916 -0.018735 600887.000000 1 0 0
15.271092 -6.405106 8.455659 18.593811 -0.397141 1.098697 0.083913 -0.010827 -492931.000000 1 0 0
16.693892 -4.929606 -0.331141 17.409672 -0.287134 1.589818 0.038154 -0.005806 -231916.000000 1 0 0
14.148592 -10.495106 3.478459 17.956324 -0.638218 1.375846 0.047487 -0.008343 576696.000000 1 0 0
15.073792 -10.033306 -4.438741 18.643735 -0.587273 1.811187 0.049161 -0.004827 557248.000000 1 0 0
13.704192 -6.490606 -0.009341 15.163539 -0.442323 1.571412 0.022306 -0.003210 353323.000000 1 0 0
17.876892 -0.877406 -4.951541 18.570699 -0.049041 1.840693 0.086145 -0.002761 -511839.000000 1 0 0
14.480392 0.309294 -1.539541 14.565287 0.021356 1.676693 0.017885 0.000352 -1701380.000000 1 0 0
4.845592 -12.892806 11.748159 18.103134 -1.211292 0.864583 0.001552 -0.000718 -361826.000000 1 0 0
12.020792 -7.549506 13.537659 19.615369 -0.560781 0.809092 0.063532 -0.019147 55187.400000 1 0 0
12.104792 -5.826906 11.627559 17.767356 -0.448634 0.857363 0.051155 -0.011944 -47735.600000 1 0 0
13.337192 -4.586506 8.287159 16.358292 -0.331220 1.039556 0.049955 -0.013273 -736609.000000 1 0 0
15.331292 -1.132806 3.100559 15.682641 -0.073754 1.371779 0.030850 0.000144 595320.000000 1 0 0
15.294992 -10.338706 5.797459 19.350353 -0.594405 1.266518 0.071821 -0.016683 -260143.000000 1 0 0
13.673492 -8.090906 -5.761841 16.900472 -0.534311 1.918700 0.042519 -0.003201 -52223.800000 1 0 0
9.765792 -2.213206 13.810559 17.058737 -0.222864 0.627345 0.040346 -0.005312 503067.000000 1 0 0
9.858492 -9.101306 13.604559 19.107790 -0.745483 0.778468 0.053785 -0.016465 -62995.100000 1 0 0
20.104792 6.496294 -3.331741 21.389366 0.312532 1.727199 0.104653 -0.011595 437689.000000 1 0 0
11.310692 -3.567106 10.553159 15.875300 -0.305502 0.843633 0.031985 -0.004547 639953.000000 1 0 0
10.411392 -13.890406 -3.049641 17.625004 -0.927591 1.744701 0.027829 -0.003314 501670.000000 1 0 0
15.123992 -12.692806 2.480059 19.899577 -0.698220 1.445843 0.049444 -0.004639 -12900.300000 1 0 0
11.476492 -0.292706 14.437559 18.445559 -0.025499 0.671785 0.070029 -0.012363 379725.000000 1 0 0
19.055592 -1.879406 5.718859 19.983821 -0.098310 1.280564 0.128983 -0.011715 659998.000000 1 0 0
19.097392 -0.436806 7.879259 20.663588 -0.022869 1.179582 0.133101 -0.019177 319551.000000 1 0 0
19.374492 1.100294 0.197759 19.406717 0.056730 1.560606 0.088876 -0.005041 716034.000000 1 0 0
18.503592 0.667394 3.571259 18.856887 0.036053 1.380258 0.061895 -0.008954 392239.000000 1 0 0
16.762492 -3.948006 -4.172041 17.719306 -0.231311 1.808480 0.064856 -0.005873 -1624200.000000 1 0 0
10.945592 -8.180706 15.889859 20.957518 -0.641833 0.710258 0.078227 -0.023638 44416.300000 1 0 0
16.693192 -7.413206 6.483859 19.381917 -0.417925 1.229688 0.085360 -0.013911 708210.000000 1 0 0
18.911692 2.289494 5.696459 19.883247 0.120476 1.280229 0.083688 -0.007044 668161.000000 1 0 0
15.314892 1.651294 7.535759 17.148187 0.107408 1.115811 0.063347 -0.011758 67226.800000 1 0 0
8.888392 -15.611906 3.835459 18.369700 -1.053231 1.360456 0.051627 -0.016413 410176.000000 1 0 0
11.451392 -15.072906 1.839159 19.018659 -0.921095 1.473942 0.056050 -0.005599 43697.800000 1 0 0
8.541692 -16.056306 6.302159 19.247927 -1.081890 1.237224 0.061233 -0.010715 -98364.400000 1 0 0
14.600292 -11.617806 -2.525941 18.828763 -0.672128 1.705355 0.037500 -0.000569 858307.000000 1 0 0
13.686992 -4.832906 3.319559 14.889936 -0.339436 1.345967 0.022182 -0.004309 -1751550.000000 1 0 0
-1.107108 10.190794 -5.433941 11.601969 -1.462583 2.058234 0.001830 0.000714 -3079230.000000 1 0 0
8.257192 -1.729606 -8.000941 11.627029 -0.206481 2.329709 0.007225 -0.000762 -2395500.000000 1 0 0
3.015492 -10.298606 7.702359 13.209119 -1.285953 0.948246 -0.002164 -0.004288 677702.000000 1 0 0
-6.329908 1.372794 8.235159 10.477125 -0.213567 0.666463 -0.001464 -0.001419 -594493.000000 1 0 0
7.450492 -6.197506 -7.244841 12.099861 -0.693848 2.212741 0.006331 -0.004408 255978.000000 1 0 0
-11.426408 -4.555106 -4.101041 12.966509 0.379340 1.892601 0.001187 0.000329 105040.000000 1 0 0
2.080692 -3.163406 2.884859 4.760129 -0.989001 0.919716 -0.000198 0.002589 2253620.000000 1 0 0
-3.553308 -4.148706 8.873259 10.419812 0.862549 0.551813 0.000749 -0.000518 -1687990.000000 1 0 0
-4.816708 -1.005606 -2.438241 5.491534 0.205818 2.030854 0.003003 -0.003814 14675.600000 1 0 0
4.928292 -5.131106 -3.683041 8.011311 -0.805557 2.048488 0.010101 -0.003625 253931.000000 1 0 0
2.764892 14.427094 -8.909741 17.180487 1.381446 2.116005 0.019925 -0.006360 -187023.000000 1 0 0
5.576492 -5.446506 13.650059 15.718963 -0.773607 0.518867 0.021525 -0.012718 -898130.000000 1 0 0
-4.716708 -0.733206 9.839059 10.935813 0.154215 0.451692 0.004173 -0.001399 -1484380.000000 1 0 0
-1.030308 12.021894 -2.571141 12.336865 -1.485303 1.780747 0.001442 -0.001894 -124780.000000 1 0 0
3.129392 9.488294 -10.516341 14.505662 1.252215 2.381804 0.007459 -0.001225 -54723.400000 1 0 0
-10.641208 2.633994 1.157059 11.023249 -0.242650 1.465637 -0.000855 -0.000620 78681.500000 1 0 0
5.757792 -8.932506 -0.782341 10.656167 -0.998235 1.644279 0.005351 -0.003896 689885.000000 1 0 0
-7.063208 5.453394 9.427259 12.980818 -0.657486 0.757952 -0.001822 -0.000226 -319146.000000 1 0 0
-5.348008 -1.852106 5.098659 7.617599 0.333390 0.837495 0.002765 -0.003404 652686.000000 1 0 0
6.678592 -3.732006 -7.377341 10.628105 -0.509575 2.338014 0.008016 -0.004128 439620.000000 1 0 0
6.321492 4.807894 11.151359 13.690504 0.650227 0.618874 0.007490 -0.003689 172365.000000 1 0 0
3.708192 -9.940906 3.083759 11.049067 -1.213760 1.287943 -0.002878 -0.002672 979538.000000 1 0 0
-6.605008 6.538394 -5.750741 10.929215 -0.780330 2.124899 0.002244 -0.003187 -706719.000000 1 0 0
-11.100708 8.428894 5.172859 14.867093 -0.649434 1.215423 -0.002530 -0.002743 396368.000000 1 0 0
-9.137308 -5.497006 5.091659 11.816619 0.541595 1.125318 0.006207 -0.001201 -1484700.000000 1 0 0
3.214392 9.849494 -7.959441 13.065127 1.255343 2.225864 0.009843 -0.001528 880946.000000 1 0 0
-8.136108 -8.569606 6.042059 13.271808 0.811341 1.098138 0.005216 0.001329 -2556770.000000 1 0 0
-7.769908 -5.682006 -7.497341 12.201098 0.631415 2.232524 0.006444 -0.004332 311744.000000 1 0 0
9.251592 -1.629606 6.956659 11.689425 -0.174355 0.933376 0.009867 -0.005994 3400880.000000 1 0 0
-4.047408 -0.522906 -4.871141 6.354759 0.128484 2.444223 0.004735 -0.007057 -294017.000000 1 0 0
9.109492 1.158894 -4.493741 10.223482 0.126539 2.025895 0.003319 0.001769 -2220650.000000 1 0 0
-1.934508 -10.553606 10.802459 15.225441 1.389506 0.782007 0.001151 -0.007350 173697.000000 1 0 0
-12.977108 0.337494 -2.647241 13.248665 -0.026001 1.771962 0.002850 -0.001536 -843053.000000 1 0 0
-9.847408 -5.111706 -5.995441 12.611356 0.478804 2.066215 0.006227 -0.003080 -890850.000000 1 0 0
-5.727608 8.282194 -0.204641 10.071847 -0.965759 1.591116 0.002087 -0.001428 404386.000000 1 0 0
6.347892 9.505294 0.369959 11.436048 0.981991 1.538440 0.008682 -0.003972 403294.000000 1 0 0
-0.562608 -12.046406 -0.029441 12.059573 1.524127 1.573238 0.006526 -0.000896 -687874.000000 1 0 0
6.153592 4.637194 2.464259 8.089674 0.645785 1.261259 0.004243 0.000301 304192.000000 1 0 0
3.428592 -7.425806 -8.292341 11.647350 -1.138245 2.363069 0.003506 -0.003502 329225.000000 1 0 0
-6.514708 -9.845206 4.536059 12.646950 0.986231 1.203956 0.004045 0.001651 -1640650.000000 1 0 0
-0.026808 6.586994 -9.292641 11.390451 -1.566726 2.524955 0.007373 -0.002652 -2777820.000000 1 0 0
-17.381408 -2.926406 4.265559 18.134834 0.166800 1.333358 0.055295 -0.013910 563503.000000 1 0 0
-8.339708 0.829494 -9.196841 12.442696 -0.099137 2.402583 0.005689 -0.003060 961096.000000 1 0 0
-10.057908 -5.987306 -11.816541 16.632499 0.536944 2.360932 0.013065 -0.001062 -1715180.000000 1 0 0
2.155192 9.426494 6.425859 11.610137 1.346028 0.984272 -0.000074 0.000518 675841.000000 1 0 0
-11.329008 1.573094 -1.247941 11.505582 -0.137973 1.679474 0.002839 -0.001416 -1571860.000000 1 0 0
-6.018508 -5.353006 -3.158141 8.651646 0.726941 1.944465 0.009590 -0.003206 772885.000000 1 0 0
-6.907508 -8.345706 1.381359 10.921201 0.879408 1.443972 0.007122 -0.000790 -291074.000000 1 0 0
-0.079808 10.868994 -7.802341 13.379758 -1.563454 2.193391 0.009873 -0.000255 700398.000000 1 0 0
-2.915408 9.256594 -4.251641 10.595309 -1.265677 1.983706 0.001361 -0.003152 -541703.000000 1 0 0
3.410492 -4.637206 9.382959 11.007954 -0.936664 0.550277 0.003247 -0.001423 -884560.000000 1 0 0
-9.040908 1.594894 -0.437041 9.190904 -0.174612 1.618366 -0.000169 -0.003032 -2510470.000000 1 0 0
2.490492 3.573194 -10.418941 11.292679 0.962091 2.745636 0.004272 -0.002432 542105.000000 1 0 0
-13.657308 0.405794 1.105859 13.708015 -0.029704 1.490036 0.001331 -0.004607 -705980.000000 1 0 0
9.512992 -12.562506 -5.185641 16.589287 -0.922670 1.888715 0.028659 -0.005923 -2043240.000000 1 0 0
-4.823508 9.392594 -8.203941 13.371301 -1.096372 2.231343 0.003726 -0.002226 -1971340.000000 1 0 0
-2.357808 7.089994 8.391559 11.235904 -1.249747 0.727481 0.003313 -0.001629 -157865.000000 1 0 0
-10.656008 -1.240206 -4.505341 11.635580 0.115864 1.968393 0.004968 -0.001799 -2945140.000000 1 0 0
2.717692 -7.030506 9.715959 12.296899 -1.201932 0.659800 -0.002644 -0.000180 -941422.000000 1 0 0
-16.153108 -6.553706 3.486259 17.777176 0.385431 1.373408 0.028517 -0.006305 -65725.000000 1 0 0
-10.811708 0.058794 6.156059 12.441606 -0.005438 1.053196 -0.000110 -0.006153 -2465150.000000 1 0 0
-8.524008 9.974394 9.363859 16.119215 -0.863644 0.950947 0.003504 -0.010390 1295870.000000 1 0 0
0.255992 -5.981906 -3.688641 7.032411 -1.528028 2.122948 0.003538 -0.000909 316145.000000 1 0 0
4.889392 1.573994 -2.924541 5.910715 0.311444 2.088385 0.002630 0.001800 118121.000000 1 0 0
0.254992 5.347594 3.881659 6.612795 1.523149 0.943458 0.000768 0.001147 -3654000.000000 1 0 0
6.061192 -11.257806 -1.501641 12.873662 -1.076903 1.687707 0.003169 -0.005543 -1201010.000000 1 0 0
6.286592 -13.429806 5.288059 15.743078 -1.132987 1.228239 0.013813 -0.006626 83272.200000 1 0 0
8.321292 -8.132006 -6.004441 13.093003 -0.773894 2.047215 0.008429 -0.005289 806946.000000 1 0 0
-13.055908 -1.395206 -4.633541 13.923830 0.106460 1.910044 0.003898 0.001449 -3102090.000000 1 0 0
-6.730708 -1.463506 -6.972941 9.801336 0.214105 2.362324 0.010087 -0.004600 -1109900.000000 1 0 0
-5.765608 12.858694 -4.692441 14.852853 -1.149289 1.892232 0.010173 -0.000402 602279.000000 1 0 0
-4.298308 6.896094 -6.632241 10.488955 -1.013423 2.255324 0.000911 -0.000889 -3562710.000000 1 0 0
-9.406408 -3.685906 -8.077241 12.934769 0.373461 2.245236 0.006413 -0.002375 659987.000000 1 0 0
-2.195208 -6.265706 9.257759 11.392283 1.233807 0.622138 0.001551 -0.000563 -718325.000000 1 0 0
7.632092 -5.948606 10.008659 13.921494 -0.662066 0.768526 0.009702 -0.002464 594266.000000 1 0 0
9.718092 -4.875906 12.176959 16.324647 -0.465035 0.728874 0.031455 -0.007650 -157819.000000 1 0 0
-6.444008 2.771494 -9.082641 11.476097 -0.406173 2.483957 0.001513 -0.004159 -214770.000000 1 0 0
7.313892 5.507794 8.813259 12.708357 0.645456 0.804459 0.002085 -0.004687 181113.000000 1 0 0
12.758492 3.390494 11.131659 17.268132 0.259741 0.870249 0.055322 -0.003250 -249424.000000 1 0 0
-7.499908 -7.358406 -3.941441 11.221842 0.775875 1.929680 0.005650 -0.004711 80577.800000 1 0 0
2.225092 1.426894 -5.848441 6.418047 0.570217 2.717104 0.006508 0.000111 284918.000000 1 0 0
12.842092 6.784394 -7.142541 16.185277 0.486025 2.027842 0.006040 -0.004585 25535.600000 1 0 0
0.821792 -7.820706 1.099959 7.940321 -1.466102 1.431821 -0.002342 0.000796 780879.000000 1 0 0
-10.222008 -6.035506 -8.505841 14.603634 0.533362 2.192532 0.008480 -0.003396 -67832.400000 1 0 0
-6.708208 0.283994 3.196259 7.436181 -0.042310 1.126497 0.001109 -0.003647 697077.000000 1 0 0
10.820192 -7.869006 1.359259 13.447877 -0.628783 1.469547 0.015263 -0.003201 424719.000000 1 0 0
6.258192 1.164694 10.601559 12.365861 0.184002 0.540746 0.011880 -0.004077 -446496.000000 1 0 0
-12.955508 5.249994 1.913459 14.109180 -0.385009 1.434759 -0.001153 0.002596 677409.000000 1 0 0
1.959992 7.326594 3.562059 8.379069 1.309400 1.131709 -0.000942 -0.000762 88136.500000 1 0 0
10.043192 -9.318706 -0.794141 13.723507 -0.747998 1.628696 0.013117 -0.003219 854060.000000 1 0 0
6.888892 -11.513906 -9.063741 16.191920 -1.031620 2.164904 0.008000 -0.010168 -395939.000000 1 0 0
10.330092 3.588294 11.948359 16.197220 0.334324 0.741169 0.028221 -0.005053 -1487600.000000 1 0 0
-11.116408 -3.128006 -1.924841 11.707432 0.274294 1.735958 0.001259 -0.001301 -756061.000000 1 0 0
12.338192 0.977994 6.843459 14.142856 0.079100 1.065712 0.013254 -0.005954 453569.000000 1 0 0
-9.667808 9.161394 2.944959 13.640764 -0.758509 1.353189 -0.002327 -0.001020 1001540.000000 1 0 0
-6.695508 7.607194 -8.773841 13.404459 -0.849054 2.284379 0.003553 -0.005082 -2047540.000000 1 0 0
8.540992 5.476794 12.189559 15.859670 0.570190 0.694165 0.017563 -0.000296 -2024670.000000 1 0 0
1.256192 4.891994 -2.652041 5.704642 1.319442 2.054309 0.001107 -0.000684 330781.000000 1 0 0
1.205792 0.577594 9.654059 9.746199 0.446720 0.137615 0.001113 -0.004058 762392.000000 1 0 0
2.479192 12.532594 -4.021441 13.393442 1.375498 1.875756 0.012915 -0.006978 520158.000000 1 0 0
2.058392 0.725894 13.005259 13.187140 0.339034 0.166278 0.002357 -0.009263 128398.000000 1 0 0
-12.282908 -1.873406 0.827959 12.452510 0.151355 1.504258 -0.001782 -0.003662 -341632.000000 1 0 0
3.249692 8.684894 -1.324341 9.367057 1.212747 1.712654 0.005977 -0.004063 12120.900000 1 0 0
3.652892 -2.857806 -5.911441 7.513708 -0.663880 2.476329 0.005740 -0.001503 -499523.000000 1 0 0
-7.769408 -7.121906 9.302659 14.057906 0.741944 0.847661 0.008206 -0.000043 -4026.710000 1 0 0
-7.123108 10.863394 -3.504441 13.454854 -0.990426 1.834294 0.012758 0.001481 874143.000000 1 0 0
0.342992 0.570694 2.496359 2.583630 1.029636 0.260654 0.000574 0.000497 -2632940.000000 1 0 0
-7.091508 4.517994 -1.947941 8.631120 -0.567253 1.798446 0.004872 -0.003273 -802641.000000 1 0 0
-6.658808 -3.869806 -5.861841 9.678653 0.526448 2.221374 0.010309 -0.004368 383262.000000 1 0 0
2.998492 -6.122606 13.499059 15.122892 -1.115390 0.467663 0.006932 -0.010685 -910884.000000 1 0 0
-5.372708 -0.648706 -11.812441 12.993098 0.120159 2.711992 0.008999 -0.007511 -555045.000000 1 0 0
11.850992 2.480594 -0.626841 12.124037 0.206336 1.622522 0.003774 -0.000584 -2066260.000000 1 0 0
6.123692 -10.889906 10.645459 16.413880 -1.058538 0.865099 0.003676 -0.003088 76207.600000 1 0 0
-8.202408 6.351994 -10.523141 14.777139 -0.658939 2.363314 0.001712 -0.004343 -64976.700000 1 0 0
2.901292 7.765294 11.086359 13.842855 1.213234 0.642046 0.010092 -0.001702 872659.000000 1 0 0
-6.113108 -10.030406 -0.418141 11.753893 1.023452 1.606379 0.008464 0.003648 -114161.000000 1 0 0
11.308092 4.327994 6.107759 13.561312 0.365534 1.103604 0.005799 -0.003303 -499330.000000 1 0 0
-7.930708 10.560094 1.389159 13.279363 -0.926651 1.465994 -0.002876 -0.001334 366675.000000 1 0 0
4.342392 -2.561706 -3.541941 6.161498 -0.532982 2.183218 0.008046 -0.001394 -4679620.000000 1 0 0
6.315492 6.544094 6.365259 11.100771 0.803173 0.960138 0.002801 -0.001007 -5347180.000000 1 0 0
-0.324608 10.437994 -10.145141 14.559566 -1.539708 2.341726 0.006753 -0.000020 267165.000000 1 0 0
13.983092 6.456694 -2.492341 15.602163 0.432582 1.731227 0.014044 -0.001379 408935.000000 1 0 0
1.322492 9.413194 -6.170741 11.332927 1.431217 2.146585 0.008506 -0.002787 13005.100000 1 0 0
0.635592 7.328294 7.352359 10.400242 1.484282 0.785632 -0.000293 0.002099 -5319.240000 1 0 0
12.322892 6.254094 1.891559 13.947951 0.469644 1.434762 0.006600 -0.001988 -638171.000000 1 0 0
-6.898308 6.717594 -3.160541 10.134187 -0.772127 1.887956 0.001684 -0.003417 772163.000000 1 0 0
1.102492 9.748394 11.183859 14.877008 1.458180 0.720078 0.015639 -0.003611 -624980.000000 1 0 0
-3.692108 13.571994 -10.925441 17.809995 -1.305185 2.231211 0.016117 -0.006747 -31458.200000 1 0 0
-10.045908 -5.458306 -2.272641 11.656684 0.497713 1.767018 0.000545 -0.001334 -853561.000000 1 0 0
-4.020708 3.835894 -12.506841 13.685805 -0.761879 2.723475 0.002517 -0.007251 -558242.000000 1 0 0
-3.219208 8.434594 2.401459 9.341985 -1.206193 1.310817 0.001216 -0.001153 -3317700.000000 1 0 0
7.086192 8.925494 7.080759 13.416993 0.899769 1.014852 0.007778 0.002002 -1356320.000000 1 0 0
-1.403108 -2.214606 -8.206341 8.614942 1.006058 2.832371 0.005183 -0.006061 -367841.000000 1 0 0
0.804792 -1.224506 4.748759 4.969690 -0.989350 0.299296 -0.000644 -0.001041 -338576.000000 1 0 0
2.789492 -8.903506 -6.110841 11.153299 -1.267180 2.150643 0.001418 -0.003024 225001.000000 1 0 0
5.276992 3.937594 8.928859 11.093953 0.641053 0.635390 0.004394 -0.003430 481564.000000 1 0 0
5.914092 -7.547806 -3.050241 10.062298 -0.906166 1.878778 0.005106 -0.005695 610484.000000 1 0 0
1.683492 2.245494 -8.352041 8.810958 0.927474 2.817422 0.004948 -0.003053 320597.000000 1 0 0
-5.497808 10.907794 -0.683141 12.234073 -1.103933 1.626665 0.002581 0.000049 632765.000000 1 0 0
-5.399208 3.308594 -3.325341 7.152352 -0.549773 2.054352 0.000594 -0.002854 -289277.000000 1 0 0
1.967192 13.607994 -6.518141 15.216225 1.427229 2.013482 0.007101 -0.003839 548705.000000 1 0 0
-5.217708 -2.580306 2.601459 6.375739 0.459261 1.150507 0.000859 -0.001050 741273.000000 1 0 0
10.496492 -3.212206 -1.802541 11.124017 -0.296977 1.733554 0.008010 -0.000753 -73636.100000 1 0 0
2.403992 -3.356906 7.066759 8.184563 -0.949325 0.528776 -0.003526 0.000051 -1551640.000000 1 0 0
-2.924008 9.859494 -11.738141 15.605877 -1.282491 2.422133 0.007300 -0.001956 -2625860.000000 1 0 0
0.539392 -1.935206 9.304059 9.518481 -1.298970 0.212659 -0.000168 -0.003140 278011.000000 1 0 0
9.499892 2.670694 5.038459 11.080009 0.274055 1.098723 0.005381 -0.002107 -84877.800000 1 0 0
13.319692 1.949294 -4.986141 14.355331 0.145315 1.925526 0.013672 -0.000323 1018400.000000 1 0 0
-6.589508 3.783794 7.584059 10.735766 -0.521244 0.786356 0.000005 -0.002801 179066.000000 1 0 0
10.707092 0.141294 1.800659 10.858368 0.013195 1.404195 0.004093 -0.000961 1139930.000000 1 0 0
15.344192 6.578294 -4.673641 17.336698 0.405014 1.843754 0.020052 -0.007683 -819378.000000 1 0 0
8.114092 -4.942606 -9.248241 13.258876 -0.547112 2.342718 0.013873 -0.002553 2251260.000000 1 0 0
4.477392 5.467794 -2.168941 7.392436 0.884657 1.868578 0.002093 0.000882 275995.000000 1 0 0
-1.621508 -10.433306 1.448559 10.657462 1.416613 1.434455 0.006007 -0.001238 -928128.000000 1 0 0
-2.863408 12.231794 -12.838641 17.962366 -1.340842 2.367066 0.016573 -0.005210 406924.000000 1 0 0
8.300392 4.230794 -9.666341 13.425136 0.471385 2.374625 0.002071 0.002519 -513401.000000 1 0 0
4.142392 7.712994 -8.938341 12.511739 1.077937 2.366557 0.007130 0.000263 -448224.000000 1 0 0
-1.733708 -4.962106 -2.389841 5.774044 1.234665 1.997524 0.005200 -0.001228 600199.000000 1 0 0
-3.380008 -9.132806 7.008459 11.997963 1.216333 0.946979 0.002294 0.000073 273732.000000 1 0 0
0.953992 7.195394 -1.339841 7.380987 1.438981 1.753334 0.003676 -0.003057 2417890.000000 1 0 0
0.299992 -0.783606 -2.349841 2.495153 -1.205175 2.798630 0.008026 0.001345 -750265.000000 1 0 0
4.194292 -6.679906 7.758759 11.063976 -1.010117 0.793629 -0.001205 -0.000374 -944437.000000 1 0 0
-13.879008 3.909394 6.097559 15.655365 -0.274563 1.170722 -0.003217 -0.003629 -835361.000000 1 0 0
4.334992 6.360894 12.628459 14.789560 0.972590 0.547408 0.010831 -0.003177 -1227730.000000 1 0 0
8.348092 10.155894 -7.256841 15.016476 0.882787 2.075169 0.020968 -0.005178 739708.000000 1 0 0
12.415092 5.217494 9.405659 16.426295 0.397844 0.961125 0.021166 -0.005736 786741.000000 1 0 0
7.639092 4.067194 0.403759 8.663764 0.489245 1.524176 0.003269 0.000916 -1159470.000000 1 0 0
-10.783508 -7.529106 -0.978341 13.188201 0.609521 1.645048 0.004479 -0.001023 -1101490.000000 1 0 0
10.368292 6.804594 0.182159 12.403110 0.580783 1.556109 0.000629 -0.001235 -1450560.000000 1 0 0
14.626192 3.669794 4.156559 15.641926 0.245831 1.301833 0.023150 -0.005362 72810.500000 1 0 0
2.136492 5.465794 8.353259 10.208645 1.198173 0.612430 -0.001230 -0.001244 201504.000000 1 0 0
4.247692 0.094994 11.787559 12.529902 0.022360 0.345948 0.007436 -0.003783 -2386240.000000 1 0 0
-1.485008 -1.517006 -0.538941 2.190209 0.796057 1.819418 0.005373 -0.004302 -1289190.000000 1 0 0
3.141392 -5.124006 -9.546341 11.280798 -1.020820 2.579698 0.001764 -0.003894 912005.000000 1 0 0
-4.064608 -5.317606 -1.289541 6.816223 0.918163 1.761131 0.006062 -0.003379 -227111.000000 1 0 0
-1.321008 -8.570906 8.628859 12.233671 1.417873 0.787898 0.000640 -0.001350 95504.700000 1 0 0
3.883992 8.530594 -5.972541 11.114300 1.143542 2.138117 0.007525 -0.001918 806490.000000 1 0 0
-14.164608 -1.836106 -2.672041 14.530906 0.128908 1.755736 -0.003519 0.000280 -590388.000000 1 0 0
8.910292 -10.457506 -6.612041 15.247027 -0.865115 2.019348 0.008073 -0.006292 171648.000000 1 0 0
14.891592 6.116794 1.535859 16.171998 0.389743 1.475683 0.008165 -0.004699 -1635900.000000 1 0 0
-5.710908 0.397094 -8.521541 10.265906 -0.069421 2.550051 0.006934 -0.005880 134598.000000 1 0 0
-8.023708 -4.653206 -12.895041 15.884405 0.525533 2.518033 0.006917 -0.004491 477448.000000 1 0 0
0.864392 -10.539906 12.046659 16.029934 -1.488968 0.720448 0.002886 -0.006412 -395944.000000 1 0 0
0.151992 11.624994 3.304359 12.086454 1.557723 1.293877 0.003243 -0.001239 -601749.000000 1 0 0
5.250492 -13.086606 -3.737141 14.587431 -1.189246 1.829874 0.007416 -0.004918 1077180.000000 1 0 0
-7.453708 1.550194 -7.007941 10.347565 -0.205053 2.314822 0.005185 -0.002621 923087.000000 1 0 0
1.472592 2.780594 4.098659 5.167130 1.083753 0.654721 -0.000626 0.000511 -1990110.000000 1 0 0
17.325492 5.503294 2.195859 18.310672 0.307562 1.450585 0.020974 -0.005124 -624995.000000 1 0 0
2.593592 -8.015506 -3.502641 9.123791 -1.257857 1.964815 0.002701 -0.001280 296525.000000 1 0 0
-0.336608 -9.407006 -0.635341 9.434444 1.535029 1.638190 0.004899 0.000409 -1412970.000000 1 0 0
0.675492 11.852394 -5.561141 13.109608 1.513866 2.008878 0.007985 -0.003114 -1413620.000000 1 0 0
6.037992 -4.927106 7.829859 11.047190 -0.684432 0.783051 0.003510 -0.000071 -607632.000000 1 0 0
-6.075508 -1.912006 -9.423941 11.374456 0.304894 2.547252 0.008462 -0.005909 -540928.000000 1 0 0
2.075592 -1.193906 11.273559 11.525043 -0.521994 0.209287 -0.000614 -0.005703 -471766.000000 1 0 0
18.005792 2.149994 -5.775341 19.031174 0.118843 1.879126 0.064559 0.000152 -440862.000000 1 0 0
-9.017208 4.798394 7.815759 12.861598 -0.489026 0.917658 0.000647 -0.004983 391263.000000 1 0 0
11.546092 -7.086906 -4.769241 14.362525 -0.550499 1.909285 0.018576 -0.007998 595655.000000 1 0 0
10.905892 0.548594 9.026859 14.167696 0.050260 0.880010 0.011595 -0.001429 74780.400000 1 0 0
-8.386708 -7.340306 -1.573041 11.255729 0.718961 1.711010 0.005635 -0.002157 -642497.000000 1 0 0
10.326292 -10.476306 -3.244641 15.063631 -0.792609 1.787893 0.021298 -0.005716 -196020.000000 1 0 0
7.787892 -13.849606 -3.802741 16.337800 -1.058545 1.805708 0.015055 -0.007217 -1012170.000000 1 0 0
1.775692 -1.166706 -11.756641 11.947087 -0.581311 2.962800 0.007377 -0.007492 598248.000000 1 0 0
-11.805708 -2.677806 -6.380741 13.684270 0.223049 2.055881 0.008325 -0.000649 -434657.000000 1 0 0
2.765692 -12.095706 -6.420141 13.970447 -1.346010 2.048287 0.000813 0.000719 1288880.000000 1 0 0
-5.523508 1.518994 1.198959 5.852691 -0.268371 1.364480 0.000602 -0.003943 497202.000000 1 0 0
0.125192 6.836294 -3.979941 7.911417 1.552486 2.097936 0.004530 -0.004082 639760.000000 1 0 0
5.472092 -11.725106 3.728959 13.465773 -1.134143 1.290208 0.002711 -0.006747 -2748800.000000 1 0 0
-4.322708 -9.161706 1.052459 10.184809 1.129943 1.467275 0.008510 -0.000241 -250959.000000 1 0 0
7.054092 -6.085706 -4.803541 10.481891 -0.711833 2.046845 0.007096 -0.004740 412574.000000 1 0 0
-6.965508 -6.082606 2.110959 9.485386 0.717836 1.346369 0.004936 -0.000088 -511626.000000 1 0 0
-6.291308 -0.747306 6.908959 9.374046 0.118230 0.742130 -0.000717 -0.002101 -1225340.000000 1 0 0
4.171892 -4.928906 3.196359 7.205242 -0.868388 1.111167 -0.000214 -0.000095 -404512.000000 1 0 0
-2.572408 10.454994 -8.828441 13.923561 -1.329543 2.257595 0.002671 -0.000950 -1140010.000000 1 0 0
-2.294808 -4.828406 2.771659 6.021773 1.127126 1.092494 -0.000566 0.002454 817692.000000 1 0 0
15.159892 5.057994 6.334559 17.191051 0.322029 1.193423 0.036741 -0.010301 -395693.000000 1 0 0
6.811192 0.270994 0.126159 6.817748 0.039766 1.552291 0.006906 0.000024 3156430.000000 1 0 0
-9.763008 9.204994 0.260559 13.420735 -0.755988 1.551380 -0.003758 0.000548 -1758180.000000 1 0 0
7.095592 10.452994 -2.677541 12.914400 0.974434 1.779641 0.001085 -0.000899 -899602.000000 1 0 0
1.604192 -4.184406 -5.433441 7.043080 -1.204705 2.451926 0.005074 -0.002992 -703370.000000 1 0 0
0.958892 -8.144606 -7.802941 11.319893 -1.453603 2.331336 0.001470 0.001290 897938.000000 1 0 0
-10.452708 0.181394 -10.486441 14.807345 -0.017352 2.357730 0.011822 -0.003710 -3736940.000000 1 0 0
5.814092 -2.456306 0.465159 6.328781 -0.399730 1.497231 0.007529 0.000703 108526.000000 1 0 0
-3.416208 5.306794 -1.140941 6.413602 -0.998833 1.749642 0.000864 -0.004242 780357.000000 1 0 0
-0.401808 4.556194 -5.208941 6.932057 -1.482834 2.421020 0.002635 -0.002131 -1060490.000000 1 0 0
3.987992 -9.688006 10.115559 14.563175 -1.180294 0.802935 -0.001710 -0.001876 239365.000000 1 0 0
7.344492 -13.427506 -0.722841 15.321945 -1.070280 1.617991 0.016868 -0.006513 806927.000000 1 0 0
13.055892 -0.026806 0.469459 13.064357 -0.002053 1.534854 0.008581 -0.003105 119920.000000 1 0 0
9.351292 2.453994 -0.754141 9.697292 0.256636 1.648643 0.004114 -0.000524 -1326880.000000 1 0 0
-0.687708 -5.739706 4.387259 7.257080 1.451549 0.921597 -0.002346 0.002080 1183750.000000 1 0 0
11.494092 -3.674006 3.354359 12.524543 -0.309379 1.299664 0.015417 -0.004138 -1917710.000000 1 0 0
1.724792 -8.144006 11.723659 14.378593 -1.362094 0.617454 -0.001662 -0.003664 268270.000000 1 0 0
9.504292 -5.866506 -5.804341 12.587209 -0.553006 2.050065 0.009530 -0.006318 -1872010.000000 1 0 0
3.227692 6.352394 -0.115241 7.126302 1.100685 1.586968 0.000176 0.001404 313314.000000 1 0 0
6.418592 -1.267506 11.453359 13.190312 -0.194966 0.518999 0.013116 -0.002581 344565.000000 1 0 0
-4.905008 -7.514106 -3.788641 9.740365 0.992474 1.970302 0.007248 -0.002887 -249095.000000 1 0 0
-3.466708 -8.545306 -5.752541 10.868857 1.185398 2.128534 0.005012 -0.001514 -602694.000000 1 0 0
9.797892 5.359894 2.274759 11.397441 0.500572 1.369862 0.003719 -0.001256 219065.000000 1 0 0
8.934992 -1.387406 0.335559 9.048291 -0.154048 1.533702 0.007241 -0.000221 1585160.000000 1 0 0
-3.875808 9.651894 9.231859 13.907126 -1.188946 0.844878 0.003964 -0.007165 151200.000000 1 0 0
-14.355108 -3.573006 -6.083441 15.995117 0.243944 1.960951 0.008190 0.001142 -253466.000000 1 0 0
10.602692 6.214494 -6.020841 13.685303 0.530154 2.026339 -0.001688 -0.003675 -911565.000000 1 0 0
-1.873608 4.640594 2.663059 5.668986 -1.187067 1.081778 0.001664 -0.001249 276390.000000 1 0 0
6.942092 -3.657206 2.639159 8.278463 -0.484870 1.246335 0.008286 -0.002755 -1327570.000000 1 0 0
8.377292 -11.166906 -1.557541 14.046521 -0.927174 1.681909 0.015168 -0.005284 -1854760.000000 1 0 0
4.535092 0.548994 1.828059 4.920391 0.120468 1.190143 0.005375 0.001019 89044.500000 1 0 0
-10.784608 2.311794 3.830259 11.675746 -0.211165 1.236555 -0.003108 -0.004725 -93697.000000 1 0 0
-0.851708 -3.049806 4.428259 5.443914 1.298468 0.620766 -0.000975 0.001979 205785.000000 1 0 0
8.691792 -8.613206 -8.552841 14.929356 -0.780857 2.180821 0.016531 -0.003112 -233663.000000 1 0 0
12.215792 -4.667806 1.117159 13.124863 -0.364992 1.485575 0.013260 -0.001438 43018.200000 1 0 0
2.838392 4.835594 3.624759 6.676699 1.040006 0.996914 -0.000359 -0.000016 -178518.000000 1 0 0
5.946792 7.427894 1.992059 9.721431 0.895688 1.364420 0.002912 -0.001661 -544172.000000 1 0 0
-1.742608 -1.280406 -10.345141 10.568731 0.633679 2.935531 0.007365 -0.006303 1476040.000000 1 0 0
-0.955008 -8.578706 5.986059 10.504244 1.459930 0.964448 -0.003290 0.000135 -317087.000000 1 0 0
-4.273608 -0.235606 2.276859 4.848023 0.055075 1.081906 0.001119 -0.002115 337320.000000 1 0 0
-8.435908 6.278994 -7.998641 13.212440 -0.639854 2.221048 0.004125 -0.006233 -786502.000000 1 0 0
6.552592 11.204994 -9.377541 16.013326 1.041634 2.196427 0.015405 -0.007048 273131.000000 1 0 0
-11.131308 -5.832106 3.138259 12.952535 0.482613 1.326072 0.006048 -0.001431 266483.000000 1 0 0
1.623992 -6.277806 3.069759 7.174373 -1.317658 1.128652 -0.005797 0.000769 -13984.800000 1 0 0
10.116492 2.309994 7.353759 12.718382 0.224491 0.954276 0.008571 -0.001947 -2034080.000000 1 0 0
-4.077208 -2.596906 -10.621641 11.669911 0.567134 2.714499 0.008093 -0.007120 -2845160.000000 1 0 0
-8.377608 11.720394 5.844259 15.546939 -0.950214 1.185417 0.003243 -0.007841 -1454360.000000 1 0 0
6.883492 6.111194 -2.985941 9.677034 0.726036 1.884475 0.002367 0.000514 -2937950.000000 1 0 0
3.905292 -9.828306 -2.258241 10.814183 -1.192575 1.781167 -0.000678 -0.002673 -2306520.000000 1 0 0
8.491192 -12.761606 -7.459241 17.046971 -0.983692 2.023691 0.017133 -0.007990 493304.000000 1 0 0
-1.243008 9.454294 3.675059 10.219334 -1.440071 1.202938 -0.000080 -0.001094 -102164.000000 1 0 0
0.556092 -13.212406 4.706859 14.036789 -1.528733 1.228848 0.006232 -0.006984 -1350160.000000 1 0 0
-11.204808 -7.079106 -5.077541 14.193058 0.563468 1.936652 0.003631 -0.002950 -26167.000000 1 0 0
3.488692 10.218594 -3.451741 11.336011 1.241798 1.880203 0.006527 -0.006513 -543562.000000 1 0 0
11.631892 -8.171506 -7.348141 16.002175 -0.612408 2.047887 0.037641 -0.003088 161685.000000 1 0 0
11.777892 -4.728606 -5.754941 13.935487 -0.381783 1.996509 0.018228 -0.007317 -370188.000000 1 0 0
1.318492 -10.218506 -2.724541 10.657365 -1.442476 1.829315 0.000642 0.001512 -1086160.000000 1 0 0
2.457592 -11.926106 -3.890141 12.782995 -1.367573 1.880022 0.000635 -0.000370 -467713.000000 1 0 0
-7.621308 -5.723806 7.170759 11.927535 0.644158 0.925802 0.006336 0.001822 -3091090.000000 1 0 0
-7.240808 -0.836206 9.352059 11.857047 0.114976 0.662049 0.002550 -0.001516 1055160.000000 1 0 0
16.266592 2.687594 -7.613941 18.160321 0.163742 2.003429 0.057395 0.001333 -1215470.000000 1 0 0
-2.022308 6.346494 -5.510641 8.644934 -1.262319 2.261970 0.000123 -0.000948 -619367.000000 1 0 0
7.743092 1.141494 8.424859 11.499423 0.146367 0.748614 0.012680 -0.002461 -532889.000000 1 0 0
7.841092 8.298494 -3.951641 12.081522 0.813731 1.904010 0.001712 -0.000459 70799.400000 1 0 0
8.043092 0.622894 3.954859 8.984444 0.077290 1.114986 0.005162 -0.001189 580610.000000 1 0 0
-7.009408 5.913494 5.440659 10.663113 -0.700796 1.035342 0.005308 -0.007400 -281677.000000 1 0 0
-6.072608 -2.144706 -4.484241 7.847596 0.339502 2.179027 0.007314 -0.004720 -1509350.000000 1 0 0
-15.120508 -2.144706 3.151059 15.593547 0.140901 1.367321 0.013013 -0.008025 2576.060000 1 0 0
1.047592 1.238794 -10.622641 10.745816 0.868830 2.990037 0.007525 -0.009416 622833.000000 1 0 0
1.512692 -9.169106 9.346659 13.180318 -1.407292 0.782522 -0.002169 -0.002765 -668015.000000 1 0 0
-0.227208 -6.799706 -1.206541 6.909658 1.537394 1.746313 0.002328 0.000784 1181220.000000 1 0 0
-0.412608 -10.215506 -8.470241 13.276739 1.530428 2.262663 0.001147 0.000729 -586608.000000 1 0 0
-4.426008 6.663594 3.849259 8.877490 -0.984498 1.122315 -0.000144 -0.002795 -147899.000000 1 0 0
10.805392 -1.191906 -8.643541 13.888410 -0.109862 2.242546 0.014938 0.002496 787592.000000 1 0 0
2.983592 -1.020306 6.400759 7.135304 -0.329506 0.457737 -0.000919 0.001321 738820.000000 1 0 0
2.104292 -12.373106 6.632659 14.195562 -1.402338 1.084636 0.001887 -0.006926 -150784.000000 1 0 0
2.966792 -4.868106 -1.316641 5.850971 -1.023469 1.797770 0.007706 -0.001671 -1749700.000000 1 0 0
-1.137308 9.591394 -1.632541 9.795585 -1.452771 1.738239 0.003378 -0.004658 607160.000000 1 0 0
4.540992 -2.489506 2.566159 5.779569 -0.501483 1.110733 0.005314 0.000485 -1556460.000000 1 0 0
17.542392 6.787794 -2.776441 19.013634 0.369194 1.717344 0.008620 -0.002714 -167901.000000 1 0 0
-7.102808 3.492394 -5.372741 9.566245 -0.456979 2.167157 0.004056 -0.003752 -636694.000000 1 0 0
-13.760608 -6.085506 2.336959 15.226592 0.416383 1.416709 0.001307 -0.004507 -240541.000000 1 0 0
6.667292 -5.917806 3.632959 9.626609 -0.725915 1.183823 0.005105 -0.002862 678097.000000 1 0 0
-4.574108 2.044094 3.557559 6.144673 -0.420259 0.953336 0.002249 -0.003818 433665.000000 1 0 0
6.985392 -12.020406 -5.416741 14.920689 -1.044369 1.942320 0.010178 -0.008518 266384.000000 1 0 0
2.954192 -12.349006 3.421459 13.150346 -1.335984 1.307588 0.006180 -0.006541 -713717.000000 1 0 0
3.209592 11.226894 -6.124941 13.185580 1.292340 2.053887 0.008745 -0.002324 -670699.000000 1 0 0
-5.642708 -8.370706 6.544259 12.030636 0.977664 0.995640 0.004826 0.000546 -31802.800000 1 0 0
-4.101108 6.550294 6.415459 10.044080 -1.011410 0.877949 0.002994 -0.003891 202390.000000 1 0 0
4.220092 4.312994 -7.174541 9.374707 0.796285 2.442317 0.005493 0.001379 -2946780.000000 1 0 0
-0.296208 -2.670006 1.549659 3.101309 1.460309 1.047568 -0.000280 0.001042 -991064.000000 1 0 0
-13.145808 -0.964906 6.372359 14.640706 0.073269 1.120481 0.013777 -0.007846 -403061.000000 1 0 0
-0.486908 -9.253606 -5.975141 11.025816 1.518227 2.143520 0.002096 0.001500 524287.000000 1 0 0
2.099892 -1.695106 -3.976941 4.806141 -0.679137 2.545385 0.004851 -0.000063 -1919000.000000 1 0 0
11.433492 -1.870806 1.099559 11.637597 -0.162188 1.476172 0.009401 -0.003776 786879.000000 1 0 0
0.559592 -4.251306 -1.873041 4.679213 -1.439921 1.982629 0.004376 -0.001805 -1193530.000000 1 0 0
1.158192 -7.361006 -11.209841 13.460548 -1.414734 2.554929 0.000574 0.000829 -1239700.000000 1 0 0
-4.446708 4.142394 -10.051441 11.745812 -0.749983 2.597789 0.000139 -0.006113 243874.000000 1 0 0
-1.115408 5.735494 -2.133141 6.220154 -1.378719 1.920842 0.001384 -0.002144 -1723100.000000 1 0 0
-11.351308 1.637694 -3.904341 12.115202 -0.143285 1.898921 0.006928 -0.001404 -68740.300000 1 0 0
-1.720308 -11.254406 4.186859 12.130578 1.419114 1.218399 0.007830 -0.002042 -573716.000000 1 0 0
-3.544908 -5.584306 -9.716141 11.753904 1.005182 2.543891 0.004654 -0.002640 -1370800.000000 1 0 0
-13.022008 -3.714406 -8.311141 15.888505 0.277862 2.121271 0.020321 -0.003432 127169.000000 1 0 0
11.350392 4.453394 0.529359 12.204275 0.373899 1.527408 0.002898 0.000679 -19458.100000 1 0 0
-8.941608 -2.349906 -2.969741 9.710499 0.256994 1.881604 0.003440 -0.003131 -366108.000000 1 0 0
-2.550408 -6.085206 -6.394841 9.188488 1.173920 2.340555 0.004636 -0.002750 -191348.000000 1 0 0
-0.086208 2.707694 -1.895041 3.306088 -1.538969 2.181199 0.002539 -0.001771 -1060720.000000 1 0 0
8.028992 5.952594 -5.250041 11.289863 0.637966 2.054456 -0.000422 0.000844 -104004.000000 1 0 0
-9.826508 -0.944406 -0.899541 9.912686 0.095814 1.661668 0.001779 -0.003182 -801931.000000 1 0 0
6.154892 0.444694 -8.872741 10.807681 0.072125 2.533897 0.004429 0.000471 331825.000000 1 0 0
-4.175708 2.481694 7.898059 9.272253 -0.536230 0.551394 -0.001700 -0.000744 -1931250.000000 1 0 0
-10.206308 -3.389606 1.479559 10.855748 0.320648 1.434078 0.002152 -0.003672 2358700.000000 1 0 0
-1.820708 -8.126406 -7.807141 11.415118 1.350388 2.323932 0.002725 -0.000047 -333419.000000 1 0 0
-9.489208 -9.713906 4.154259 14.200807 0.797099 1.273918 0.001810 -0.000073 -72751.100000 1 0 0
-1.144508 -10.642806 7.395459 13.010459 1.463670 0.966207 0.004365 -0.002864 46555.600000 1 0 0
9.553792 3.830394 -3.763641 10.959555 0.381307 1.921344 0.000905 -0.000440 -833953.000000 1 0 0
12.825192 -0.720606 3.058059 13.204413 -0.056128 1.337081 0.009315 -0.002098 -796372.000000 1 0 0
6.499592 12.030294 -6.865441 15.300553 1.075455 2.036113 0.012381 0.000261 454978.000000 1 0 0
-11.846808 -0.153206 -6.613441 13.568638 0.012932 2.079913 0.010499 0.000033 750963.000000 1 0 0
-7.656208 -6.762706 -11.491841 15.375765 0.723510 2.414936 0.007131 -0.003270 -2302470.000000 1 0 0
4.143692 5.947894 6.668659 9.849803 0.962312 0.827070 0.000575 0.000058 -2227450.000000 1 0 0
-4.256008 -1.451206 -7.389941 8.650482 0.328615 2.594962 0.004756 -0.007542 -79150.100000 1 0 0
9.527092 9.308094 0.811559 13.344089 0.773772 1.509941 0.010495 -0.001614 -1552600.000000 1 0 0
-8.898408 3.973294 4.859759 10.889719 -0.419954 1.108203 0.000408 -0.005254 -800575.000000 1 0 0
-6.986808 7.772094 -12.140641 16.019242 -0.838556 2.430852 0.000532 -0.006668 -901667.000000 1 0 0
11.209292 -3.631406 7.259059 13.839410 -0.313295 1.018644 0.017655 -0.005547 487233.000000 1 0 0
11.844392 6.948194 6.434959 15.164950 0.530525 1.132573 0.013032 -0.003606 -47851.700000 1 0 0
-9.922208 -0.902206 -14.872041 17.900888 0.090679 2.551338 0.008140 0.002549 422175.000000 1 0 0
1.781892 -12.881606 12.054759 17.732122 -1.433340 0.823271 0.002460 -0.006645 197272.000000 1 0 0
2.862992 3.134994 13.185059 13.851739 0.830716 0.311515 0.002882 -0.005688 -865390.000000 1 0 0
-2.604808 -1.394206 11.057259 11.445165 0.491443 0.261097 0.003213 -0.002865 -260410.000000 1 0 0
2.605792 -10.086106 -8.226941 13.274120 -1.317970 2.239250 -0.001431 0.002516 -783683.000000 1 0 0
13.931992 3.575894 -7.576941 16.257227 0.251244 2.055635 0.016306 -0.000414 -3003260.000000 1 0 0
7.341192 -1.531506 4.951959 8.986685 -0.205668 0.987195 0.007001 -0.000869 489162.000000 1 0 0
-1.170208 8.699294 10.056059 13.348087 -1.437081 0.717623 0.009369 -0.004932 34536.200000 1 0 0
-12.281208 -4.770006 0.918959 13.207026 0.370466 1.501159 -0.000821 -0.003595 326776.000000 1 0 0
-4.866808 4.794294 -5.274041 8.630561 -0.777892 2.228232 0.002690 -0.002137 50205.000000 1 0 0
-11.233408 0.247594 2.066359 11.424562 -0.022037 1.388926 -0.000598 -0.002213 -2202480.000000 1 0 0
-1.485908 2.255594 -4.162341 4.961926 -0.988283 2.565974 0.002609 -0.004347 425454.000000 1 0 0
3.280192 -9.767706 13.037559 16.617632 -1.246809 0.668807 0.000770 -0.007054 903937.000000 1 0 0
8.848692 4.775794 -1.556541 10.174987 0.494915 1.724377 0.000231 -0.001047 -1412400.000000 1 0 0
3.978992 2.323794 3.885159 6.027176 0.528583 0.870287 0.000430 0.003291 -158631.000000 1 0 0
-5.364408 -3.190106 7.436259 9.708326 0.536499 0.698252 0.003531 -0.000443 -261558.000000 1 0 0
1.802192 -5.824706 7.707059 9.827200 -1.270734 0.669297 -0.003876 -0.001203 -1075610.000000 1 0 0
-5.923608 -6.344606 -9.757341 13.059436 0.819701 2.414558 0.003661 -0.004077 -495882.000000 1 0 0
-11.669608 -5.733806 5.525159 14.127409 0.456700 1.168975 0.015198 -0.003558 -1150010.000000 1 0 0
10.582092 6.260294 4.489259 13.089132 0.534215 1.220713 0.003928 -0.002740 -529430.000000 1 0 0
1.487392 -3.757306 0.519159 4.074213 -1.193858 1.443023 0.004055 0.001252 -456423.000000 1 0 0
8.866792 4.425594 6.964159 12.112200 0.462943 0.958228 0.004469 0.000592 -794096.000000 1 0 0
-7.988808 12.008094 3.482759 14.837283 -0.983751 1.333855 0.001197 -0.007462 72783.400000 1 0 0
-6.298008 13.250194 -7.063241 16.282565 -1.127091 2.019493 0.022863 -0.005730 -319139.000000 1 0 0
4.524892 -6.914706 -1.011441 8.325312 -0.991344 1.692587 0.006267 -0.003868 133813.000000 1 0 0
-1.890208 -8.100806 11.102859 13.873335 1.341562 0.642997 0.002306 -0.005178 -139490.000000 1 0 0
11.529792 8.733194 -5.804741 15.585242 0.648249 1.952445 0.019142 -0.011838 349611.000000 1 0 0
-3.336708 -2.932406 -1.919341 4.839060 0.720996 1.978645 0.006413 -0.003590 -2786390.000000 1 0 0
-2.147408 6.078594 4.844559 8.064144 -1.231208 0.926354 0.002941 -0.000082 -1118080.000000 1 0 0
0.360992 -11.481206 -5.642441 12.797873 -1.539365 2.027385 -0.001035 -0.002876 -353223.000000 1 0 0
-8.937208 6.244794 -1.544841 11.011706 -0.609880 1.711551 0.003206 -0.002261 -314147.000000 1 0 0
2.960692 -0.052106 3.958359 4.943381 -0.017598 0.642268 -0.001602 0.001028 609373.000000 1 0 0
-10.154508 3.938594 -1.041941 10.941307 -0.370003 1.666171 0.002778 -0.000967 -275487.000000 1 0 0
6.526892 5.373694 13.703559 16.101690 0.688797 0.552789 0.023588 -0.002901 -748543.000000 1 0 0
-8.820708 -1.459106 5.613059 10.556530 0.163934 1.010173 0.002306 -0.004439 -31164.000000 1 0 0
13.010192 -1.763006 -1.529841 13.217931 -0.134689 1.686796 0.016741 -0.002436 -1655980.000000 1 0 0
4.894792 -5.559006 5.540059 9.249529 -0.848851 0.928600 0.004166 -0.002304 542492.000000 1 0 0
-8.932508 -1.284506 3.102459 9.542794 0.142822 1.239668 0.000331 -0.004772 -51039.100000 1 0 0
1.950692 5.475194 5.685959 8.130994 1.228540 0.796386 0.000298 -0.000385 -807764.000000 1 0 0
9.231792 3.026694 -7.464641 12.251845 0.316812 2.225932 0.002078 0.000456 -1440120.000000 1 0 0
2.298792 -2.343406 -1.523941 3.619170 -0.795009 2.005426 0.004736 0.000660 364923.000000 1 0 0
-6.289908 0.379494 -3.924841 7.423701 -0.060261 2.127854 0.000773 -0.003132 -1302110.000000 1 0 0
-4.056008 4.246894 5.065759 7.755593 -0.808384 0.859026 0.000824 -0.002347 879087.000000 1 0 0
-6.449908 1.752494 -12.368541 14.058925 -0.265303 2.646163 0.002995 -0.004327 -1983870.000000 1 0 0
-0.183008 3.106494 6.230359 6.964278 -1.511953 0.463224 -0.000797 -0.000361 1394940.000000 1 0 0
-8.901208 9.389194 -2.240441 13.130424 -0.812072 1.742265 0.003648 0.000241 -152240.000000 1 0 0
-1.407008 -3.720706 -6.152841 7.326717 1.209261 2.567677 0.003090 -0.003420 394912.000000 1 0 0
-3.379208 7.007594 -2.970741 8.327708 -1.121473 1.935561 0.001828 -0.001527 688993.000000 1 0 0
6.976992 -0.425206 -4.283041 8.197783 -0.060869 2.120534 0.006435 0.001505 34653.700000 1 0 0
-5.141208 -10.885306 7.096359 13.974270 1.129547 1.038149 0.001644 -0.001249 -199217.000000 1 0 0
9.606392 8.322494 -1.529741 12.801827 0.713910 1.690577 0.002904 -0.000560 63436.800000 1 0 0
13.675492 4.552094 -4.444541 15.082923 0.321329 1.869910 0.004290 -0.005773 433173.000000 1 0 0
4.639292 1.100394 -6.948441 8.427024 0.232886 2.540190 0.003459 0.001277 -444823.000000 1 0 0
9.040992 -4.759806 3.427659 10.777019 -0.484598 1.247122 0.009628 -0.004430 -777305.000000 1 0 0
-8.775708 -3.268406 -0.729741 9.392979 0.356523 1.648565 0.001377 -0.002207 518110.000000 1 0 0
-8.620208 -4.346406 -10.425041 14.208474 0.467011 2.394577 0.004615 -0.005676 192640.000000 1 0 0
10.556292 -1.063006 10.809459 15.146276 -0.100361 0.776071 0.030291 -0.005916 1339520.000000 1 0 0
2.180792 -11.528206 9.926859 15.368732 -1.383836 0.868578 -0.002735 -0.006552 859359.000000 1 0 0
-6.277208 -10.700406 1.999259 12.565790 1.040264 1.411014 0.007012 0.002736 -1206260.000000 1 0 0
-3.673808 -1.120006 6.775959 7.788768 0.295912 0.515664 0.003000 0.001234 -629814.000000 1 0 0
4.655192 -7.535906 3.916659 9.685087 -1.017439 1.154473 -0.001012 -0.000501 160700.000000 1 0 0
11.607192 -9.569306 -5.307541 15.952069 -0.689460 1.909981 0.028034 -0.007563 133247.000000 1 0 0
11.453092 1.218194 11.519359 16.289657 0.105965 0.785326 0.050742 -0.005073 986991.000000 1 0 0
-10.170608 -3.459706 4.310959 11.575630 0.327888 1.189185 0.010343 -0.003909 1991750.000000 1 0 0
2.050092 8.797294 8.984159 12.740108 1.341846 0.788109 0.005247 0.000869 -628100.000000 1 0 0
6.468892 8.787094 4.168759 11.680673 0.936198 1.205856 0.006583 -0.000780 1145740.000000 1 0 0
-4.237308 3.597394 0.466659 5.577974 -0.703902 1.487037 0.002531 -0.004498 -922632.000000 1 0 0
4.815392 6.912994 4.255259 9.438469 0.962375 1.103088 0.002446 -0.001170 -1191620.000000 1 0 0
-8.246308 13.071694 1.055259 15.491428 -1.008000 1.502625 -0.000046 -0.002642 676346.000000 1 0 0
8.955792 8.160994 -9.176741 15.199362 0.738998 2.219004 0.005329 -0.004864 -1176970.000000 1 0 0
7.098492 1.954194 6.099659 9.561030 0.268642 0.878936 0.004671 0.000389 -207202.000000 1 0 0
11.585592 -6.200606 3.173159 13.518224 -0.491409 1.333854 0.018550 -0.002198 -288196.000000 1 0 0
11.387592 4.756394 -2.046841 12.509599 0.395656 1.735157 0.000037 -0.000830 239609.000000 1 0 0
-4.032908 14.261494 -6.011841 15.993648 -1.295209 1.956153 0.011110 -0.000330 -485112.000000 1 0 0
7.120792 -2.964806 6.938559 10.374938 -0.394529 0.838229 0.008299 -0.003202 -551512.000000 1 0 0
-7.971808 -0.470806 0.937159 8.040501 0.058990 1.453976 0.001961 -0.003749 621954.000000 1 0 0
-3.126308 1.093094 10.854059 11.348095 -0.336357 0.296156 0.002799 -0.001191 -113850.000000 1 0 0
7.090992 -1.222906 -1.822741 7.422941 -0.170779 1.818889 0.009653 -0.000025 -1469070.000000 1 0 0
-7.770608 5.427894 2.950259 9.927155 -0.609729 1.269047 0.003165 -0.002973 649081.000000 1 0 0
9.526792 -2.093706 2.899559 10.175992 -0.216331 1.281851 0.008930 -0.003218 -915541.000000 1 0 0
0.239292 3.540794 1.636559 3.908043 1.503318 1.138709 0.001671 -0.000465 -3332120.000000 1 0 0
-7.461108 -3.041206 4.094659 9.037882 0.387048 1.100607 0.002159 -0.002369 -890723.000000 1 0 0
-2.336608 8.428194 -6.757141 11.052291 -1.300351 2.228599 0.000088 -0.000925 -724648.000000 1 0 0
4.496392 9.765294 7.435059 13.071289 1.139289 0.965740 0.004876 0.001892 -15220.300000 1 0 0
-11.785508 -3.149606 6.876559 14.003760 0.261141 1.057501 0.016681 -0.006188 -1698940.000000 1 0 0
-4.647508 2.329694 -5.543641 7.599919 -0.464669 2.388291 0.004773 -0.004276 182299.000000 1 0 0
-2.745408 2.926694 -1.814441 4.403975 -0.817348 1.995445 0.002391 -0.003493 1561650.000000 1 0 0
2.346092 5.229494 11.562859 12.905481 1.149085 0.460197 0.006243 -0.005706 93662.400000 1 0 0
-0.738508 1.661494 4.517959 4.870103 -1.152538 0.382612 0.001961 -0.001901 -228657.000000 1 0 0
5.116492 1.568894 7.731359 9.402862 0.297532 0.605470 0.000974 -0.000724 160402.000000 1 0 0
3.422692 -8.163006 1.814059 9.035502 -1.173769 1.368652 -0.000928 -0.000747 1593890.000000 1 0 0
4.959292 6.397394 -4.605341 9.312915 0.911358 2.088069 0.008062 -0.000134 -2957280.000000 1 0 0
-4.085208 2.878994 -8.017841 9.447926 -0.613897 2.584196 0.004719 -0.006864 -45275.000000 1 0 0
-8.631608 -2.165506 -12.860341 15.639132 0.245808 2.536269 0.007573 -0.004240 -657858.000000 1 0 0
-7.908508 8.105594 1.258159 11.394214 -0.797705 1.460150 0.004620 -0.001540 -1877430.000000 1 0 0
7.314892 0.895094 -6.501141 9.827190 0.121761 2.293675 0.002534 0.002561 569674.000000 1 0 0
8.922992 8.832994 5.454559 13.689184 0.780330 1.160962 0.010339 0.001242 446981.000000 1 0 0
9.494392 -0.943506 -1.380841 9.640560 -0.099050 1.714523 0.008416 0.000035 1932430.000000 1 0 0
5.438492 0.219494 4.276559 6.922017 0.040337 0.904829 0.001350 0.002357 -2155610.000000 1 0 0
-4.234308 -7.352206 -7.981841 11.648781 1.048268 2.325686 0.004862 -0.004603 -125102.000000 1 0 0
-2.188508 7.383694 -0.548741 7.720726 -1.282648 1.641930 0.002488 -0.003837 249869.000000 1 0 0
13.431892 -3.485506 -7.441341 15.746048 -0.253895 2.063018 0.029341 -0.000316 1481820.000000 1 0 0
-4.822908 -5.114306 1.583859 7.205913 0.814714 1.349187 0.003745 -0.000777 1459520.000000 1 0 0
-8.946208 1.235894 2.448159 9.357113 -0.137278 1.306079 -0.000615 -0.003538 -2396700.000000 1 0 0
-1.033308 11.130194 10.110159 15.071969 -1.478223 0.835520 0.009503 -0.006960 568488.000000 1 0 0
-8.621108 0.383894 7.460359 11.407359 -0.044500 0.857943 -0.000292 -0.003525 -110840.000000 1 0 0
-6.287108 12.840994 -2.142041 14.457081 -1.115493 1.719509 0.008551 0.000760 1096980.000000 1 0 0
-12.983308 -0.873306 3.260459 13.414900 0.067163 1.325290 0.005448 -0.008873 147984.000000 1 0 0
-6.730608 12.763994 8.742059 16.871402 -1.085539 1.026100 0.013652 -0.012129 273490.000000 1 0 0
-8.049508 0.802494 -14.149941 16.299062 -0.099366 2.622248 0.003666 -0.002458 -858061.000000 1 0 0
7.315692 2.877894 3.829259 8.744417 0.374792 1.117525 0.003756 0.001621 -783178.000000 1 0 0
-1.624108 0.736494 -2.108441 2.761463 -0.425740 2.439548 0.002329 -0.004112 483458.000000 1 0 0
-6.244708 9.562094 -10.378341 15.431785 -0.992267 2.308419 0.006072 -0.005295 -104765.000000 1 0 0
-10.079008 13.589794 5.230759 17.709594 -0.932654 1.270961 -0.003740 -0.007989 295488.000000 1 0 0
-5.736708 8.387294 2.415459 10.444662 -0.970906 1.337421 0.001343 -0.002905 -1444130.000000 1 0 0
-2.382308 -10.686706 -1.198041 11.014372 1.351460 1.679783 0.007652 -0.000929 -375774.000000 1 0 0
-2.289108 -12.336206 8.862659 15.361274 1.387323 0.955809 0.005829 -0.005691 671968.000000 1 0 0
-14.672508 -6.514906 -1.700441 16.143668 0.417871 1.676324 0.002147 0.000497 492521.000000 1 0 0
-2.742308 -9.420806 3.307159 10.354185 1.287533 1.245697 0.003659 -0.001232 -976161.000000 1 0 0
4.692392 -2.566506 7.542459 9.246306 -0.500499 0.616812 0.001263 0.001104 -1181720.000000 1 0 0
-14.997708 -1.290106 -0.247741 15.055132 0.085809 1.587253 0.000717 -0.004884 -56248.600000 1 0 0
5.434392 8.793994 -2.901441 10.737099 1.017271 1.844424 0.005127 -0.001145 -1490050.000000 1 0 0
-5.607308 -5.667706 8.434659 11.606389 0.790755 0.757253 0.005240 0.000522 -2984220.000000 1 0 0
3.419492 3.558194 7.041059 8.598266 0.805273 0.611317 -0.000602 -0.001447 866348.000000 1 0 0
3.303992 2.252494 9.359859 10.178263 0.598372 0.403753 0.001616 -0.005181 617072.000000 1 0 0
9.914292 -3.287106 5.200759 11.668168 -0.320147 1.108816 0.013172 -0.005199 -97710.800000 1 0 0
6.476392 9.999594 -5.211941 13.003840 0.996064 1.983186 0.001269 -0.002896 407022.000000 1 0 0
-4.661408 11.955394 -8.612741 15.454432 -1.199027 2.161926 0.011147 -0.001000 -78785.400000 1 0 0
-3.473408 -7.253206 2.377259 8.385996 1.124188 1.283376 0.002846 -0.003500 803840.000000 1 0 0
-7.416808 -4.044706 1.166659 8.528176 0.499261 1.433566 0.004856 -0.002797 2302980.000000 1 0 0
-1.989108 -3.905706 -10.874041 11.724157 1.099750 2.758439 0.007853 -0.004292 -1114280.000000 1 0 0
-5.241608 8.320194 -4.421741 10.782016 -1.008619 1.993364 0.008604 -0.003759 -1047940.000000 1 0 0
-10.990208 -3.284306 -10.167241 15.327888 0.290392 2.296038 0.018052 -0.000706 85669.500000 1 0 0
4.748292 -11.221506 -7.764741 14.448518 -1.170500 2.138156 0.004400 -0.003155 -1096820.000000 1 0 0
-9.359408 -3.923206 7.250859 12.472571 0.396924 0.950416 0.006742 -0.002515 -760415.000000 1 0 0
-5.734408 -9.606606 -5.075841 12.285540 1.032642 1.996713 0.004345 -0.003146 -49988.800000 1 0 0
5.042192 4.345894 -9.680041 11.747923 0.711365 2.539194 0.000636 0.004745 256750.000000 1 0 0
-3.379208 -7.305406 -14.064041 16.204483 1.137545 2.621777 0.002909 -0.002766 432375.000000 1 0 0
0.652692 -0.771006 -8.848941 8.906414 -0.868312 3.027927 0.004823 -0.006971 304065.000000 1 0 0
-7.745108 2.208094 -2.898641 8.559469 -0.277727 1.916275 0.004291 -0.003004 -522539.000000 1 0 0
-2.385908 7.486494 -12.653641 14.894790 -1.262278 2.585899 0.008739 -0.004731 -383589.000000 1 0 0
-9.891608 8.812194 7.629059 15.287289 -0.727751 1.048299 -0.000818 -0.007677 -294536.000000 1 0 0
-10.634808 -3.182806 -14.125841 17.965767 0.290798 2.475536 0.021703 -0.002373 -316156.000000 1 0 0
-3.313108 4.822094 7.963859 9.881919 -0.968802 0.633599 0.003364 -0.002893 -33657.200000 1 0 0
8.818492 -2.220906 -3.529241 9.754679 -0.246716 1.940994 0.009429 -0.000589 -6056110.000000 1 0 0
1.958292 -8.395506 -1.086941 8.689124 -1.341639 1.696217 -0.000249 0.000623 84704.700000 1 0 0
-13.604908 -2.946006 5.051059 14.808298 0.213248 1.222713 0.022787 -0.009406 257484.000000 1 0 0
7.086692 2.877694 -1.991641 7.903730 0.385728 1.825530 0.002626 0.000543 932134.000000 1 0 0
-11.236608 4.573694 9.024359 15.120155 -0.386556 0.931236 -0.001694 -0.005286 -2128200.000000 1 0 0
-1.647608 -2.472806 7.896259 8.436841 0.983054 0.359917 0.000260 -0.001952 -1147530.000000 1 0 0
2.934792 12.065794 -10.015241 15.953101 1.332197 2.249511 0.008266 -0.003126 484444.000000 1 0 0
3.636392 -4.975506 -7.087341 9.391987 -0.939659 2.425865 0.004466 -0.004902 870468.000000 1 0 0
8.227292 -13.736006 -9.791741 18.768175 -1.031143 2.119663 0.023124 -0.002090 531570.000000 1 0 0
-6.351308 -5.673406 -0.522341 8.532262 0.729082 1.632054 0.006344 -0.002428 -1196280.000000 1 0 0
-1.152608 -3.961806 9.877859 10.704976 1.287681 0.395679 -0.002106 -0.001330 169096.000000 1 0 0
2.822692 3.370094 1.840359 4.765715 0.873563 1.174324 -0.001193 0.002512 -769134.000000 1 0 0
-9.168508 13.241494 7.698459 17.851189 -0.965184 1.124910 0.008691 -0.022758 262876.000000 1 0 0
4.091192 -11.047306 -0.087141 11.780850 -1.216123 1.578193 0.001323 -0.002614 -584998.000000 1 0 0
-12.628308 -1.443206 -9.163441 15.669259 0.113790 2.195434 0.019909 -0.000538 222655.000000 1 0 0
-4.309808 0.978894 -13.536741 14.239945 -0.223342 2.826016 0.006394 -0.007245 375650.000000 1 0 0
4.007992 -2.944806 4.888259 6.973590 -0.633659 0.794043 0.000408 0.001794 129863.000000 1 0 0
1.740092 -1.102806 1.144559 2.356717 -0.564876 1.063680 0.001034 0.001696 558136.000000 1 0 0
8.150392 -8.911106 7.405459 14.166069 -0.829955 1.020711 0.014443 -0.003397 -1083560.000000 1 0 0
-0.037508 2.284994 -6.337941 6.737366 -1.554383 2.795528 0.002995 -0.003674 -1854540.000000 1 0 0
-3.792208 -9.720706 -3.348441 10.958332 1.198839 1.881324 0.006285 -0.000317 1088760.000000 1 0 0
-9.368708 2.321494 -5.391341 11.055704 -0.242900 2.080195 0.006724 -0.000687 -1549210.000000 1 0 0
8.990492 -7.552106 5.313459 12.887827 -0.698666 1.145836 0.013134 -0.004191 2258820.000000 1 0 0
-5.481908 -4.291606 4.648859 8.371445 0.664206 0.982045 0.003060 -0.000256 -792905.000000 1 0 0
-0.228908 -12.355706 10.428559 16.170056 1.552272 0.869864 0.004042 -0.008486 -2045480.000000 1 0 0
-14.314908 -8.369906 3.157859 16.880285 0.529092 1.382614 0.012664 -0.004383 -1973810.000000 1 0 0
10.944392 -1.279006 -3.660141 11.610865 -0.116336 1.891500 0.015987 -0.001963 -92198.100000 1 0 0
-13.562108 2.920594 2.828159 14.158359 -0.212110 1.369692 -0.001797 -0.003552 -1008150.000000 1 0 0
-6.335508 6.160994 1.023059 8.896244 -0.771434 1.455542 0.003969 -0.002700 178574.000000 1 0 0
7.314492 -6.852206 -1.029141 10.075398 -0.752778 1.673119 0.012253 -0.006992 881111.000000 1 0 0
-7.005208 7.908194 10.061659 14.589361 -0.845873 0.809781 -0.001092 -0.006130 24805.800000 1 0 0
-12.636508 -5.145106 -1.865141 13.770701 0.386665 1.706657 0.003174 0.000631 -1844780.000000 1 0 0
-9.396708 -5.570406 0.193859 10.925435 0.535112 1.553052 0.003628 -0.001861 -1143730.000000 1 0 0
-1.758508 1.922694 2.196659 3.407992 -0.829970 0.870347 0.002041 -0.001823 -123080.000000 1 0 0
-7.151008 7.415894 7.596259 12.799826 -0.803580 0.935438 0.002932 -0.006547 -268614.000000 1 0 0
5.607892 7.183694 -0.532941 9.128961 0.907971 1.629209 0.004951 -0.000947 -1703790.000000 1 0 0
0.015592 -4.104506 7.587659 8.626690 -1.566998 0.495868 -0.003422 -0.000012 170399.000000 1 0 0
6.396592 0.642894 13.159559 14.645944 0.100169 0.454428 0.021746 -0.007234 749762.000000 1 0 0
5.723692 6.123694 -7.927641 11.537234 0.819148 2.328335 -0.000328 0.001503 -411205.000000 1 0 0
9.851292 5.372194 9.130059 14.466042 0.499250 0.887778 0.005602 -0.005384 -2002380.000000 1 0 0
-1.264808 -5.038106 -8.458041 9.925760 1.324831 2.590839 0.005099 -0.002548 1151190.000000 1 0 0
10.004992 -3.503006 -8.038241 13.303542 -0.336787 2.219581 0.019383 -0.005984 653452.000000 1 0 0
7.969192 -5.848906 1.342059 9.975913 -0.633143 1.435857 0.007685 -0.004482 932661.000000 1 0 0
15.718592 3.076794 -4.989541 16.776063 0.193298 1.872786 0.026542 -0.000197 -581569.000000 1 0 0
-6.957308 3.589994 1.172459 7.916240 -0.476368 1.422141 0.002443 -0.004758 652321.000000 1 0 0
-1.708508 3.821094 0.302959 4.196611 -1.150335 1.498542 0.003012 -0.003983 -834678.000000 1 0 0
-2.664308 10.021594 6.929459 12.471899 -1.310950 0.981705 0.002365 -0.001880 485683.000000 1 0 0
5.526292 -5.770306 -8.738441 11.840468 -0.806996 2.400920 0.005575 -0.004021 616124.000000 1 0 0
-1.103608 -0.850406 6.255759 6.409030 0.656536 0.219138 -0.002702 -0.002893 413697.000000 1 0 0
-5.626308 5.001594 -7.748841 10.803510 -0.726685 2.370647 -0.000783 -0.002000 -245134.000000 1 0 0
6.714892 -1.211306 2.494059 7.264803 -0.178472 1.220361 0.004909 0.000450 -1319920.000000 1 0 0
8.577992 7.504794 3.287559 11.862205 0.718767 1.289974 0.007218 -0.001520 -237416.000000 1 0 0
-5.292608 -4.877706 -7.836441 10.640185 0.744625 2.398670 0.008401 -0.007922 443417.000000 1 0 0
-2.214108 7.933094 -10.103441 13.035174 -1.298624 2.457655 0.005131 -0.004081 563395.000000 1 0 0
-2.780708 -2.191706 1.549159 3.864688 0.667494 1.158352 0.001048 0.001072 -1530680.000000 1 0 0
6.092792 -2.051006 -9.310241 11.314121 -0.324713 2.537269 0.006374 -0.002661 811886.000000 1 0 0
1.189392 -7.575406 5.185259 9.256800 -1.415061 0.976221 -0.004272 0.000932 464914.000000 1 0 0
1.881392 11.887394 1.313459 12.106813 1.413830 1.462093 0.008923 -0.003478 1242970.000000 1 0 0
-1.087908 7.034994 2.636959 7.591326 -1.417369 1.216037 0.000939 -0.001168 507324.000000 1 0 0
8.819592 7.844694 -6.710441 13.577718 0.726963 2.087739 0.001874 -0.003555 -573168.000000 1 0 0
3.672092 -10.803106 5.441559 12.641279 -1.243138 1.125795 0.006456 -0.001037 436760.000000 1 0 0
8.037592 -7.003206 12.352259 16.316436 -0.716734 0.712020 0.017502 -0.005630 397479.000000 1 0 0
-8.650708 0.000194 -3.988041 9.525714 -0.000022 2.002766 0.005692 -0.002171 -1860880.000000 1 0 0
-3.256208 -4.915706 11.216859 12.672213 0.985747 0.483972 0.003887 -0.002198 632838.000000 1 0 0
-8.223508 0.134194 -11.602641 14.222003 -0.016317 2.524948 0.004206 -0.003796 -1352790.000000 1 0 0
1.459192 -4.948506 5.332659 7.419852 -1.284048 0.768863 -0.003167 0.002077 -532379.000000 1 0 0
6.653692 3.749894 -7.626041 10.793045 0.513210 2.355436 0.000714 0.001923 -2223950.000000 1 0 0
16.227492 4.279594 -1.396241 16.840306 0.257854 1.653802 0.016031 0.002907 -149915.000000 1 0 0
7.915992 7.386494 0.267759 10.830277 0.750810 1.546071 0.004968 -0.001076 -3459470.000000 1 0 0
5.636192 -10.252606 13.979659 18.229467 -1.068158 0.696844 0.004166 -0.008107 45482.400000 1 0 0
-5.018508 -9.235906 9.132059 13.924148 1.073058 0.855497 0.001301 -0.004786 614340.000000 1 0 0
-12.699108 -3.287206 2.794059 13.411929 0.253294 1.360933 0.003821 -0.006171 -343536.000000 1 0 0
-2.054308 -1.228406 -5.889641 6.357440 0.538923 2.755579 0.004579 -0.006391 -1514180.000000 1 0 0
-2.477708 12.980494 -4.386241 13.923770 -1.382186 1.891272 0.002502 0.002882 545738.000000 1 0 0
3.872092 -0.366806 -4.990741 6.327333 -0.094449 2.479584 0.008323 0.000134 -185930.000000 1 0 0
-8.762608 3.885194 -7.365041 12.088088 -0.417338 2.225950 0.007459 -0.002564 182569.000000 1 0 0
-4.540708 7.901694 -11.372041 14.573198 -1.049225 2.466005 0.003047 -0.002210 -2162720.000000 1 0 0
-10.041308 -6.415506 7.389359 14.021028 0.568541 1.015706 0.005633 0.002375 -1749920.000000 1 0 0
8.144092 5.191294 4.282159 10.564688 0.567488 1.153459 0.002966 -0.000988 -1242860.000000 1 0 0
-6.759408 -7.539906 4.099559 10.924567 0.839927 1.186119 0.005335 0.000490 -189247.000000 1 0 0
-4.204408 11.802294 8.138959 14.940342 -1.228576 0.994689 0.005750 -0.006659 -337888.000000 1 0 0
-7.299508 9.994494 -7.984041 14.728124 -0.939988 2.143724 0.008749 -0.005657 -1339400.000000 1 0 0
13.108492 5.534994 4.600259 14.954300 0.399535 1.258104 0.010437 -0.004887 1428530.000000 1 0 0
5.479492 4.004794 -3.822741 7.789515 0.631145 2.083752 0.002391 0.002573 347717.000000 1 0 0
-2.799308 -4.138906 5.108159 7.145625 0.976127 0.774365 0.002132 0.000551 -1836090.000000 1 0 0
12.576992 -2.221006 -5.336141 13.841531 -0.174791 1.966564 0.014226 -0.006632 -2557770.000000 1 0 0
-5.310508 9.715294 7.076459 13.140194 -1.070557 1.002098 0.002470 -0.003689 -1058140.000000 1 0 0
1.684492 3.915894 -0.429641 4.284428 1.164557 1.671245 0.002452 0.000606 507040.000000 1 0 0
-0.066308 9.587894 7.700459 12.297527 -1.563881 0.894153 0.001715 -0.000373 -602099.000000 1 0 0
-5.565208 2.154494 5.880659 8.378278 -0.369368 0.792744 0.001222 -0.002609 649690.000000 1 0 0
8.888792 0.982194 10.747959 13.981915 0.110052 0.693983 0.026269 -0.004180 -1390280.000000 1 0 0
0.387192 -2.774306 -10.219141 10.596110 -1.432129 2.874052 0.006803 -0.004573 -2045650.000000 1 0 0
1.119392 10.657394 -2.787341 11.072594 1.466146 1.825267 0.008856 -0.005808 -149922.000000 1 0 0
2.233692 -4.348906 11.712459 12.691889 -1.096311 0.395432 0.001317 -0.004715 549861.000000 1 0 0
6.527392 -2.888106 9.486559 11.871933 -0.416566 0.645042 0.008752 -0.000670 437985.000000 1 0 0
-10.661608 -8.161606 5.591559 14.544664 0.653356 1.176195 0.010610 0.002466 -1366970.000000 1 0 0
-3.036208 0.805994 -6.882241 7.565278 -0.259476 2.713392 0.005382 -0.006001 435951.000000 1 0 0
10.984592 2.593394 -5.221341 12.435809 0.231848 2.004091 0.007448 -0.000662 -3299480.000000 1 0 0
-2.044308 -4.008906 0.000759 4.500059 1.099227 1.570628 0.002759 -0.000970 1170550.000000 1 0 0
-1.166008 -6.354106 -10.617141 12.428111 1.389311 2.594969 0.004536 0.000216 1061720.000000 1 0 0
0.292892 6.811894 -6.660541 9.531552 1.527826 2.344499 0.005337 -0.000838 -2525610.000000 1 0 0
1.969992 3.925494 -6.318541 7.695085 1.105673 2.534156 0.002933 -0.000638 -2473090.000000 1 0 0
1.562292 -14.760506 6.518659 16.211299 -1.465346 1.156981 0.017631 -0.010579 -460123.000000 1 0 0
-1.723408 5.413694 -10.515541 11.952189 -1.262598 2.646239 0.008222 -0.006024 -139441.000000 1 0 0
13.588392 4.296894 -0.796741 14.273839 0.306268 1.626644 0.007261 -0.001191 -1928510.000000 1 0 0
-2.345208 3.323194 -6.301541 7.500203 -0.956249 2.568417 0.004233 -0.005402 -2312240.000000 1 0 0
5.955392 7.751494 14.248659 17.279370 0.915692 0.601292 0.021214 -0.008262 72749.500000 1 0 0
15.995992 0.635894 -5.849741 17.043931 0.039732 1.921135 0.039620 -0.002347 380784.000000 1 0 0
6.220292 -8.239906 10.676659 14.851907 -0.924168 0.768614 0.000043 0.002146 1197790.000000 1 0 0
-0.042308 -5.833606 -6.279241 8.570976 1.563544 2.392955 0.003278 -0.002585 -1515800.000000 1 0 0
8.631392 5.484794 -7.629341 12.758947 0.566077 2.211750 0.000487 -0.000871 -301952.000000 1 0 0
-16.072508 -0.961506 5.410859 16.986095 0.059752 1.246601 0.034313 -0.017908 -570931.000000 1 0 0
-0.355508 4.038094 -12.385741 13.032236 -1.482984 2.825292 0.009423 -0.007677 779386.000000 1 0 0
-11.223908 3.611794 5.908259 13.188203 -0.311330 1.106274 0.000178 -0.005478 -402030.000000 1 0 0
5.273292 -9.393306 -9.644941 14.459139 -1.059252 2.301036 0.001390 -0.002461 168668.000000 1 0 0
1.543392 10.974194 -11.812341 16.197110 1.431074 2.388076 0.010980 -0.003680 -3645930.000000 1 0 0
5.960392 2.370594 1.252359 6.535624 0.378543 1.377983 0.006740 0.000645 -272617.000000 1 0 0
5.829092 4.569894 5.017859 8.946572 0.664896 0.975361 0.002231 0.000346 -666621.000000 1 0 0
0.366892 -1.584306 -6.417141 6.619995 -1.343229 2.893397 0.002893 -0.003091 -154009.000000 1 0 0
12.737792 6.753894 -4.611241 15.137039 0.487534 1.880349 0.006327 -0.008411 -1408840.000000 1 0 0
7.525192 3.154294 12.821059 15.197290 0.396918 0.566767 0.022466 -0.002691 -32707.700000 1 0 0
-2.262008 -0.221706 8.752259 9.042559 0.097701 0.254075 -0.005657 -0.000997 643502.000000 1 0 0
2.341492 -15.152406 13.210559 20.238500 -1.417480 0.859595 0.012851 -0.009637 -184554.000000 1 0 0
18.805892 4.744994 -1.817241 19.480218 0.247156 1.664219 0.010197 0.000785 467863.000000 1 0 0
-0.337308 -13.116406 7.275359 15.002824 1.545085 1.064510 0.003669 -0.005968 -529322.000000 1 0 0
4.369892 1.619794 -0.549441 4.692714 0.354970 1.688149 0.007038 -0.000825 1646150.000000 1 0 0
2.746492 -0.508106 -7.402641 7.912047 -0.182934 2.780798 0.003020 -0.002007 -1077570.000000 1 0 0
7.263892 -11.200306 0.943559 13.382873 -0.995445 1.500233 0.010660 -0.001926 560740.000000 1 0 0
-11.793908 -7.446406 1.372659 14.015329 0.563172 1.472699 0.002201 0.000638 255613.000000 1 0 0
0.120492 -6.958506 10.027259 12.205788 -1.553482 0.606730 -0.001838 -0.000982 -2045490.000000 1 0 0
-4.613108 -7.068306 10.606259 13.554868 0.992563 0.672176 0.005896 -0.000878 -903779.000000 1 0 0
11.870792 0.722394 -1.726941 12.017482 0.060780 1.714998 0.007957 0.000026 616189.000000 1 0 0
6.599692 -9.450006 -7.443041 13.720693 -0.961159 2.144169 0.002572 -0.005807 -51942.100000 1 0 0
-10.905808 4.863894 3.647859 12.486032 -0.419515 1.274317 -0.002170 -0.003197 857926.000000 1 0 0
6.015692 -9.114806 2.089159 11.119030 -0.987429 1.381782 0.002835 -0.004802 3384520.000000 1 0 0
11.620592 -1.351906 5.849459 13.079831 -0.115817 1.107150 0.016580 -0.007675 712718.000000 1 0 0
-6.503908 3.699494 4.133059 8.548055 -0.517171 1.066138 0.000603 -0.003525 -1670680.000000 1 0 0
9.517992 6.359894 -3.234641 11.895516 0.589061 1.846185 -0.001237 -0.000773 864454.000000 1 0 0
-2.267908 6.615594 11.043259 13.071459 -1.240539 0.564535 0.002723 -0.002855 -477402.000000 1 0 0
1.713992 9.735494 2.902659 10.302574 1.396526 1.285188 0.000923 -0.002278 -246013.000000 1 0 0
2.820692 6.085494 -5.659041 8.775778 1.136764 2.271620 0.004276 0.000685 -1928230.000000 1 0 0
11.681392 0.059694 -5.947741 13.108551 0.005110 2.041743 0.011744 -0.002130 164533.000000 1 0 0
-2.604908 -12.372506 6.254559 14.106168 1.363287 1.111417 0.005234 -0.001973 -59887.200000 1 0 0
11.023992 1.897494 -2.830641 11.538691 0.170454 1.818643 0.007540 -0.000567 219581.000000 1 0 0
-8.904408 5.360994 0.795759 10.424105 -0.541933 1.494384 0.001206 -0.002193 1692390.000000 1 0 0
1.141592 -10.162506 5.682159 11.699004 -1.458932 1.063637 -0.003628 -0.003216 -821137.000000 1 0 0
9.561392 -5.544506 -0.918441 11.090775 -0.525498 1.653703 0.013453 -0.002555 78155.600000 1 0 0
-7.795708 8.561094 -4.535241 12.435184 -0.832157 1.944118 0.007625 -0.004119 -669308.000000 1 0 0
-7.516208 -0.070106 -1.580541 7.680912 0.009327 1.778052 0.001228 -0.002909 -1519220.000000 1 0 0
4.034992 8.870394 2.760359 10.128407 1.143889 1.294768 0.003487 -0.002251 -341975.000000 1 0 0
-1.316108 -10.469706 -3.729341 11.191733 1.445746 1.910516 0.005816 0.000937 -110876.000000 1 0 0
3.063292 7.780594 -3.687341 9.138811 1.195725 1.986115 0.007653 -0.003963 -65465.600000 1 0 0
-4.337708 1.627194 -11.026441 11.960179 -0.358882 2.743829 0.003923 -0.007148 -443713.000000 1 0 0
1.246392 2.811694 11.058659 11.478373 1.153538 0.271259 0.002565 -0.004843 807010.000000 1 0 0
2.156992 5.636094 -8.161741 10.150477 1.205283 2.504914 0.004525 -0.000514 -144211.000000 1 0 0
15.633292 6.106494 4.033359 17.261432 0.372384 1.334953 0.026047 -0.005225 282170.000000 1 0 0
-4.508308 9.163194 4.610359 11.204658 -1.113568 1.146732 0.003812 -0.002172 -451536.000000 1 0 0
-0.888808 -8.244706 -12.263841 14.804289 1.463408 2.547038 0.000878 -0.000103 -222942.000000 1 0 0
14.328492 -4.204606 -5.268041 15.834666 -0.285431 1.909951 0.037860 -0.002038 601756.000000 1 0 0
-5.985308 -6.180306 -5.721141 10.332065 0.801425 2.157630 0.007243 -0.004020 232038.000000 1 0 0
-8.897608 2.512694 -12.345241 15.423555 -0.275234 2.498783 0.005483 -0.003260 -1313720.000000 1 0 0
10.744192 5.468894 13.750059 18.286896 0.470829 0.719845 0.046270 0.000243 752036.000000 1 0 0
-0.514008 10.834994 5.573259 12.195184 -1.523392 1.096171 0.002186 0.000117 491224.000000 1 0 0
0.453192 11.129894 -0.528341 11.151639 1.530100 1.618192 0.004010 -0.004904 -203601.000000 1 0 0
-1.542408 -0.535606 3.726859 4.068830 0.334226 0.412919 0.000912 -0.000170 150587.000000 1 0 0
-4.945608 6.751994 8.961959 12.262347 -0.938611 0.751227 0.001802 -0.003862 -1789620.000000 1 0 0
3.468092 -8.636606 -11.421941 14.733614 -1.188948 2.457876 0.002670 0.003689 679141.000000 1 0 0
6.741192 -3.790306 11.992359 14.269785 -0.512208 0.572771 0.016956 -0.003674 -522825.000000 1 0 0
-2.422408 -1.918706 -12.543441 12.918491 0.669884 2.900041 0.007481 -0.008125 1035230.000000 1 0 0
-16.129508 -5.001406 5.398859 17.729151 0.300677 1.261363 0.043429 -0.008171 1627860.000000 1 0 0
-9.010008 7.234894 5.768459 12.915071 -0.676558 1.107784 -0.005232 -0.003213 -2683860.000000 1 0 0
-12.830808 1.517194 5.980359 14.237142 -0.117700 1.137292 0.000695 -0.008475 209611.000000 1 0 0
-3.459608 3.556594 10.263359 11.399771 -0.799220 0.450309 0.000734 -0.000608 300969.000000 1 0 0
2.066692 -12.077506 -1.087041 12.301180 -1.401319 1.659281 0.003592 -0.002650 -2696170.000000 1 0 0
10.341392 -5.139506 -3.457041 12.054461 -0.461232 1.861666 0.016029 -0.003521 642236.000000 1 0 0
3.026292 -13.274506 1.065859 13.656757 -1.346649 1.492671 0.002779 -0.004274 647447.000000 1 0 0
10.095992 -1.806306 -6.109541 11.938102 -0.177040 2.108038 0.015554 0.000421 -140649.000000 1 0 0
12.012692 -5.305206 -1.439541 13.210687 -0.415875 1.679981 0.017674 -0.002740 -1606150.000000 1 0 0
1.396792 0.917594 5.916359 6.147870 0.581231 0.275303 -0.000190 -0.001910 389464.000000 1 0 0
-10.873908 11.637194 6.585759 17.234801 -0.819292 1.178707 0.004762 -0.010573 -706232.000000 1 0 0
4.845992 -13.983606 2.904359 15.081783 -1.237200 1.377012 0.012380 -0.006226 -2777160.000000 1 0 0
5.389892 -3.447206 -1.741441 6.630745 -0.569007 1.836545 0.009576 -0.000548 -1411070.000000 1 0 0
1.935392 -2.911806 -7.776841 8.526642 -0.984177 2.719086 0.004238 -0.003420 -416524.000000 1 0 0
-2.956708 14.718494 -8.784641 17.393852 -1.372551 2.100228 0.017228 -0.007199 -1238890.000000 1 0 0
-2.334508 6.168194 -8.145141 10.480452 -1.208982 2.460960 0.003512 -0.002902 -118502.000000 1 0 0
2.589292 -3.484306 -11.399641 12.198223 -0.931707 2.777741 0.005681 -0.002046 -687051.000000 1 0 0
14.528892 2.823394 -2.736341 15.051505 0.191937 1.753611 0.015665 0.000466 651952.000000 1 0 0
-3.596308 13.071694 2.280159 13.747790 -1.302317 1.404170 0.000460 -0.002072 -820793.000000 1 0 0
7.956492 -4.909906 13.924159 16.771856 -0.552894 0.591312 0.030014 -0.014995 -281323.000000 1 0 0
-11.502808 7.149394 2.852159 13.840637 -0.556103 1.363238 -0.005967 0.001749 1231530.000000 1 0 0
-2.311608 11.859394 4.113259 12.763528 -1.378292 1.242673 0.004099 -0.003206 -798678.000000 1 0 0
1.807092 1.532894 0.690459 2.468213 0.703486 1.287273 -0.000399 0.001029 -1307650.000000 1 0 0
-6.954108 8.594794 5.278059 12.251041 -0.890527 1.125389 0.003018 -0.005519 -1261350.000000 1 0 0
-1.178408 9.216294 1.064259 9.352078 -1.443625 1.456750 0.002442 -0.002529 353753.000000 1 0 0
4.793692 12.911894 -8.497841 16.183627 1.215307 2.123616 0.021990 -0.013988 -827543.000000 1 0 0
8.858892 6.936794 7.200959 13.358625 0.664308 1.001488 0.001273 -0.002473 -1407490.000000 1 0 0
7.337892 -13.643206 2.978459 15.775074 -1.077335 1.380848 0.022682 -0.003659 662603.000000 1 0 0
4.142692 -13.348106 -1.287741 14.035388 -1.269864 1.662675 0.000682 0.001346 -2590130.000000 1 0 0
12.175892 -11.859306 -4.568341 17.600148 -0.772227 1.833366 0.032442 -0.001365 -861722.000000 1 0 0
2.871492 -0.020206 -2.008741 3.504413 -0.007037 2.181206 0.007035 -0.000784 1044220.000000 1 0 0
-13.586708 -3.237506 -10.712241 17.602051 0.233923 2.225065 0.027272 -0.006523 192730.000000 1 0 0
-6.709608 13.634994 5.088359 16.025707 -1.113499 1.247691 0.007706 -0.009253 -214013.000000 1 0 0
7.363992 -4.303106 -0.600241 8.550169 -0.528828 1.641056 0.009414 -0.000718 -1708400.000000 1 0 0
11.791692 2.172994 -7.400941 14.090416 0.182237 2.123801 0.010436 0.001675 -1105700.000000 1 0 0
-7.444708 -4.472606 9.651159 12.983557 0.540990 0.732751 0.011537 0.000629 90118.800000 1 0 0
0.952892 2.760494 8.480859 8.969576 1.238414 0.331627 0.000998 -0.003397 -958481.000000 1 0 0
1.628792 8.075794 -8.794841 12.050752 1.371778 2.388850 0.007308 -0.000585 -1288220.000000 1 0 0
-8.587708 -2.287306 -5.488441 10.445262 0.260304 2.124038 0.009337 -0.003485 -1131590.000000 1 0 0
6.674692 -0.459706 7.119059 9.769536 -0.068764 0.754375 0.007302 -0.000910 57402.200000 1 0 0
-11.017908 6.550194 7.203759 14.703519 -0.536369 1.058782 -0.000612 -0.003928 574009.000000 1 0 0
-6.088508 11.066294 4.993959 13.582062 -1.067811 1.194275 -0.000125 -0.004180 -799220.000000 1 0 0
6.030692 -1.234706 -6.932641 9.271206 -0.201946 2.415479 0.006555 0.000394 -740193.000000 1 0 0
4.532892 -5.680106 11.464559 13.573755 -0.897258 0.564956 0.004682 -0.003806 -731191.000000 1 0 0
-8.977708 -7.378006 2.691459 11.928042 0.687901 1.343195 0.006931 0.000186 -2854090.000000 1 0 0
-1.409408 12.692994 -9.297741 15.797041 -1.460211 2.200091 0.017104 -0.003145 529342.000000 1 0 0
-4.648708 9.223794 -2.240841 10.569306 -1.103961 1.784432 0.001012 -0.003540 479513.000000 1 0 0
-3.304308 9.579594 -0.167541 10.134848 -1.238644 1.587328 0.001414 -0.003131 -1474450.000000 1 0 0
-3.486808 10.696694 -6.471241 12.978985 -1.255687 2.092772 0.007253 0.001039 809568.000000 1 0 0
4.923292 -4.859506 0.316759 6.924878 -0.778878 1.525038 0.005922 -0.001139 -2508720.000000 1 0 0
-2.243108 2.937994 -10.954641 11.561466 -0.918722 2.816162 0.008394 -0.007788 -2924950.000000 1 0 0
-3.726808 12.045994 -2.275641 12.813025 -1.270755 1.749347 0.001657 0.000328 -649005.000000 1 0 0
-0.168808 0.387694 -0.045041 0.425243 -1.160135 1.676914 -0.001310 -0.001108 -1766510.000000 1 0 0
-4.777208 -1.629706 0.060559 5.047904 0.328762 1.558799 0.001482 -0.002160 216816.000000 1 0 0
2.562592 2.533094 -2.384641 4.320874 0.779609 2.155424 -0.001051 -0.000829 2046870.000000 1 0 0
6.019492 -9.619106 8.477759 14.164529 -1.011633 0.929144 0.001968 0.000186 10469.300000 1 0 0
-4.129008 -5.454806 6.585259 9.495749 0.922863 0.804467 0.005783 0.000051 232102.000000 1 0 0
-6.363208 5.165994 -12.123141 14.633812 -0.681927 2.547101 -0.001201 -0.001995 662784.000000 1 0 0
-12.853408 3.048394 7.994559 15.440718 -0.232864 1.026568 0.001629 -0.011302 604475.000000 1 0 0
4.588192 -7.279506 -5.170941 10.038991 -1.008403 2.111904 0.004953 -0.003425 325128.000000 1 0 0
-5.974308 2.406694 -0.998941 6.517854 -0.382953 1.724665 0.001630 -0.002833 -514052.000000 1 0 0
-6.864808 -2.933506 -14.491541 16.301406 0.403839 2.665898 0.007488 -0.004040 87012.600000 1 0 0
2.795092 -6.119806 0.896259 6.787330 -1.142361 1.438361 0.000640 0.001427 -70986.600000 1 0 0
4.925992 -7.819406 13.051559 15.992239 -1.008631 0.616135 0.005129 -0.006694 -45537.800000 1 0 0
-10.049608 -1.641406 8.001059 12.950127 0.161901 0.904808 0.006779 -0.000988 -456827.000000 1 0 0
-4.550108 13.199294 -0.136941 13.962220 -1.238830 1.580604 0.000607 0.001478 196374.000000 1 0 0
6.850392 2.157694 -4.506641 8.478993 0.305137 2.131175 0.003101 0.003937 -1412260.000000 1 0 0
5.180692 4.610894 0.148159 6.936992 0.727271 1.549437 0.002771 0.002613 -1702790.000000 1 0 0
-5.898508 12.167494 1.854059 13.648364 -1.119402 1.434530 -0.000941 -0.002398 -868831.000000 1 0 0
6.539492 -7.216906 6.586259 11.757019 -0.834602 0.976171 0.003654 -0.001638 -509820.000000 1 0 0
-0.291608 4.930294 7.697559 9.145777 -1.511719 0.570462 -0.000824 -0.000626 -744818.000000 1 0 0
-5.852908 -3.317406 -1.594041 6.913949 0.515647 1.803444 0.002813 -0.003316 -176354.000000 1 0 0
2.247192 -6.534006 -5.252841 8.679600 -1.239546 2.220806 0.005408 -0.002296 -1295770.000000 1 0 0
-14.475008 -4.947606 -3.744841 15.748921 0.329354 1.810880 -0.001556 -0.001007 103511.000000 1 0 0
-12.396808 -5.153206 -6.383641 14.865641 0.393957 2.014650 0.009116 -0.005022 -1367460.000000 1 0 0
-14.827408 -3.829506 -1.329341 15.371542 0.252749 1.657385 0.000452 -0.001606 441488.000000 1 0 0
11.925592 2.911194 8.776459 15.090428 0.239430 0.950113 0.016975 -0.004352 -1197670.000000 1 0 0
8.833592 -6.493506 7.630259 13.357351 -0.633892 0.962780 0.012387 -0.007220 299354.000000 1 0 0
-8.893908 -1.748106 -9.773941 13.329944 0.194077 2.393859 0.007941 -0.002934 -204639.000000 1 0 0
-8.854908 5.069394 -3.861241 10.909507 -0.519950 1.932570 0.004146 -0.003411 -860068.000000 1 0 0
-4.005908 -6.269006 4.155559 8.521526 1.002191 1.061395 0.007162 -0.000042 -987014.000000 1 0 0
-0.142108 -9.245206 3.560459 9.908123 1.555426 1.203228 -0.000074 -0.001337 634548.000000 1 0 0
7.899192 -10.428506 3.381059 13.512310 -0.922537 1.317888 0.012950 -0.006782 207747.000000 1 0 0
-0.088708 6.401194 9.735559 11.651792 -1.556939 0.581678 0.005051 -0.001883 528670.000000 1 0 0
-0.039808 3.495094 -9.830441 10.433352 -1.559407 2.799972 0.007789 -0.005155 -113052.000000 1 0 0
4.473892 -3.035106 11.128059 12.371793 -0.596085 0.452241 0.005521 -0.004681 -1715430.000000 1 0 0
8.654192 -9.088306 1.371259 12.624290 -0.809861 1.461961 0.012685 -0.003208 404259.000000 1 0 0
-0.283908 -0.410606 11.451959 11.462834 0.965841 0.043563 0.004157 -0.003804 -2104840.000000 1 0 0
10.950492 5.973994 11.333259 16.853623 0.499417 0.833279 0.021809 -0.000933 368124.000000 1 0 0
-6.347308 -3.001106 -11.844141 13.768756 0.441665 2.606495 0.007423 -0.005494 -316171.000000 1 0 0
-1.717408 2.896394 8.464159 9.109367 -1.035579 0.378633 0.001151 -0.003689 -867595.000000 1 0 0
-1.651908 13.446694 -6.850741 15.181404 -1.448560 2.038972 0.014674 -0.003306 460378.000000 1 0 0
7.680192 3.159794 9.795559 12.842220 0.390313 0.703223 0.011439 -0.002145 -153903.000000 1 0 0
6.622992 8.413794 -7.956041 13.339960 0.903935 2.209813 0.001313 -0.001713 118235.000000 1 0 0
6.695792 -2.994506 -3.911041 8.312457 -0.420541 2.060658 0.009584 -0.001413 -1912410.000000 1 0 0
1.938292 8.185894 0.989659 8.470257 1.338294 1.453690 0.001920 -0.001609 1201990.000000 1 0 0
-17.857108 6.144894 6.313559 19.912234 -0.331422 1.248159 0.053041 -0.014036 1345420.000000 1 0 0
-14.870108 3.101094 -10.282041 18.342772 -0.205599 2.165846 0.042547 -0.003668 -304936.000000 1 0 0
-18.290508 0.107694 -4.424141 18.818271 -0.005888 1.808116 0.032152 -0.003151 102245.000000 1 0 0
-13.249308 7.762494 0.029059 15.355824 -0.529972 1.568904 0.002601 0.005183 -1569240.000000 1 0 0
-12.654308 -4.543506 -12.609441 18.432932 0.344713 2.324126 0.033516 -0.000268 -455122.000000 1 0 0
-17.435008 -0.613206 -8.740241 19.512749 0.035156 2.035239 0.041034 -0.015341 -138619.000000 1 0 0
-16.663508 -2.071406 -2.134341 16.926862 0.123674 1.697225 0.014241 -0.002865 -691113.000000 1 0 0
-15.400608 3.948394 1.827459 16.003380 -0.250973 1.456355 0.003941 0.000698 -1211670.000000 1 0 0
-13.341408 5.844094 4.328959 15.194950 -0.412865 1.281900 -0.004627 -0.002970 420865.000000 1 0 0
-9.967008 14.110794 2.727259 17.489817 -0.955828 1.414223 0.015281 -0.009700 -555555.000000 1 0 0
-11.777608 2.383894 -6.453241 13.639624 -0.199711 2.063630 0.005680 0.001503 472665.000000 1 0 0
-16.018408 10.736994 3.945659 19.683512 -0.590507 1.368974 0.028540 -0.008302 604928.000000 1 0 0
-12.895608 1.157994 -8.617541 15.553125 -0.089557 2.158043 0.015774 -0.002997 767331.000000 1 0 0
-12.190608 14.468794 3.925459 19.322685 -0.870646 1.366219 0.032442 -0.016271 80124.200000 1 0 0
-10.622108 11.102194 -1.131241 15.406739 -0.807494 1.644288 0.005389 -0.001151 249324.000000 1 0 0
-17.284108 5.541894 8.871259 20.202778 -0.310279 1.116188 0.053977 -0.020130 306595.000000 1 0 0
-11.789608 12.024494 -9.059241 19.122060 -0.795261 2.064350 0.020877 -0.030598 -1779580.000000 1 0 0
-17.267508 -0.636806 3.152059 17.564391 0.036862 1.390362 0.040695 -0.012162 787243.000000 1 0 0
-13.255408 14.999894 -0.591741 20.026303 -0.847060 1.600349 0.042045 -0.007103 124001.000000 1 0 0
-16.898508 4.729394 -10.104141 20.248961 -0.272889 2.093236 0.079030 -0.012034 211046.000000 1 0 0
-11.840708 7.537194 -9.095741 16.725554 -0.566861 2.145782 0.011401 -0.003161 -433259.000000 1 0 0
-14.860008 13.534294 -2.147141 20.214034 -0.738743 1.677217 0.048069 -0.015787 525789.000000 1 0 0
-11.977008 10.408194 -5.565441 16.815272 -0.715430 1.908133 0.019776 -0.008421 929003.000000 1 0 0
-17.769108 2.797894 -0.708341 18.001977 -0.156176 1.610154 0.046463 -0.002767 198082.000000 1 0 0
-9.516008 15.238594 0.556959 17.974408 -1.012580 1.539805 0.023242 -0.009541 271071.000000 1 0 0
-8.268608 13.182394 -3.963241 16.057791 -1.010583 1.820184 0.012644 -0.002974 -381897.000000 1 0 0
-18.118908 11.439394 2.392459 21.561040 -0.563153 1.459605 0.116276 -0.008517 130759.000000 1 0 0
-8.076608 15.559194 -7.372541 19.017741 -1.091994 1.968895 0.051711 -0.020708 -517300.000000 1 0 0
-6.391408 15.236294 -5.340541 17.364220 -1.173606 1.883424 0.019330 -0.004579 -1660320.000000 1 0 0
-17.292508 5.198094 -0.064841 18.056999 -0.292005 1.574387 0.040050 0.000825 580454.000000 1 0 0
-5.477108 12.134894 -12.233741 18.080895 -1.146819 2.313947 0.005001 -0.010676 -621688.000000 1 0 0
-11.067408 3.681594 -11.395841 16.306651 -0.321137 2.344579 0.007189 -0.005368 -37079.900000 1 0 0
-12.008408 10.948594 1.164259 16.291994 -0.739266 1.499273 0.007899 -0.002000 35807.800000 1 0 0
-12.968908 0.138094 -11.099741 17.070908 -0.010648 2.278662 0.019898 -0.005556 644868.000000 1 0 0
-13.979308 -2.302806 -13.204541 19.367083 0.163263 2.321021 0.031990 -0.000341 98891.300000 1 0 0
-18.765108 -2.365606 -3.781041 19.287863 0.125403 1.768106 0.023220 -0.002716 1857950.000000 1 0 0
-18.347208 4.820094 -5.031741 19.625794 -0.256910 1.830076 0.062047 -0.004542 -200444.000000 1 0 0
-8.266008 15.256094 -2.336541 17.508133 -1.074257 1.704650 0.023950 -0.008518 -9160.950000 1 0 0
-16.163208 9.120394 -5.452641 19.343272 -0.513732 1.856558 0.037462 -0.003069 192768.000000 1 0 0
-18.218208 1.626294 2.208459 18.423497 -0.089031 1.450636 0.071080 -0.017174 181513.000000 1 0 0
-15.775008 -2.721406 -8.724241 18.230999 0.170832 2.069786 0.017206 -0.006529 -287950.000000 1 0 0
-9.854808 10.444194 -7.275541 16.097575 -0.814425 2.039763 0.013296 -0.008387 145701.000000 1 0 0
-14.176808 11.955294 -7.930541 20.169393 -0.700591 1.974902 0.042325 -0.016193 210769.000000 1 0 0
-11.122608 6.394994 -3.820241 13.386658 -0.521800 1.860196 0.000593 -0.000424 -1864520.000000 1 0 0
-13.120408 4.855194 -12.539741 18.787313 -0.354423 2.301586 0.031647 -0.011177 795437.000000 1 0 0
-17.715908 8.970494 2.780859 20.051343 -0.468717 1.431661 0.043493 -0.014183 782463.000000 1 0 0
-13.416908 8.523194 -6.629841 17.222458 -0.565942 1.965953 0.012335 -0.006557 -1295200.000000 1 0 0
-15.792208 7.025994 -3.903641 17.719956 -0.418607 1.792915 0.013551 0.004881 -1187170.000000 1 0 0
-14.950708 -0.383006 -9.436141 17.683640 0.025612 2.133658 0.028622 -0.008624 -327117.000000 1 0 0
-10.029808 5.829294 -6.043041 13.080370 -0.526479 2.051038 0.006174 -0.003439 283570.000000 1 0 0
-12.874908 12.312194 -0.962941 17.840421 -0.763060 1.624798 0.022095 -0.005829 -1601300.000000 1 0 0
-10.687808 3.360094 -14.005641 17.935369 -0.304602 2.466894 0.010355 -0.003994 440095.000000 1 0 0
-10.947208 6.287294 -11.836641 17.305418 -0.521329 2.324007 0.005807 -0.008665 -371860.000000 1 0 0
-5.882908 11.483894 -14.805841 19.639281 -1.097377 2.424758 0.018888 -0.012384 -198850.000000 1 0 0
-15.681408 13.265294 3.381759 20.816121 -0.702123 1.407614 0.038851 -0.022962 149029.000000 1 0 0
-15.034408 11.177794 -3.168341 19.000392 -0.639316 1.738330 0.033068 -0.001056 362132.000000 1 0 0
-18.166008 7.874994 -4.456241 20.294765 -0.409049 1.792176 0.041479 -0.003113 -885666.000000 1 0 0
-4.131508 16.210494 -10.689141 19.852133 -1.321243 2.139379 0.035094 -0.008267 -290492.000000 1 0 0
-15.803808 4.499194 -4.453041 17.024473 -0.277353 1.835442 0.017934 0.003852 451945.000000 1 0 0
-18.811808 -1.822606 -6.301841 19.922832 0.096585 1.892636 0.032175 -0.005074 329090.000000 1 0 0
-10.834308 8.482294 -5.884741 14.965351 -0.664233 1.974932 0.006071 -0.002634 210461.000000 1 0 0
-11.405108 13.278494 -6.785741 18.773417 -0.861149 1.940624 0.028212 -0.015497 -55484.000000 1 0 0
-9.491408 10.457394 -4.645741 14.866971 -0.833784 1.888607 -0.001878 -0.001075 -220246.000000 1 0 0
-11.115708 6.276394 -0.176341 12.766487 -0.514015 1.584610 -0.000057 0.002690 -1243770.000000 1 0 0
-14.596108 9.452894 -1.342341 17.441487 -0.574708 1.647835 0.021344 0.001745 355933.000000 1 0 0
-18.628408 3.123494 4.699659 19.464342 -0.166128 1.326937 0.062882 -0.025925 546871.000000 1 0 0
-14.859808 13.219194 0.383859 19.892419 -0.727036 1.551498 0.030453 -0.011053 -6606.320000 1 0 0
-16.952508 2.352394 -8.951341 19.314446 -0.137883 2.052685 0.053571 -0.010482 59765.900000 1 0 0
-9.197008 8.444894 -9.009141 15.396942 -0.742792 2.195831 0.008837 -0.004046 -1541860.000000 1 0 0
-17.698008 4.543194 -2.593641 18.455002 -0.251281 1.711802 0.035691 0.001871 735688.000000 1 0 0
-13.580908 5.774694 -4.515441 15.432996 -0.402046 1.867724 0.012199 0.003790 -2227540.000000 1 0 0
-12.203608 9.571694 3.284259 15.853445 -0.665115 1.362121 -0.004175 -0.000241 -21319.600000 1 0 0
-17.445108 2.541594 -4.063241 18.091474 -0.144673 1.797323 0.024403 0.002371 860397.000000 1 0 0
-11.249408 1.419794 -12.624341 16.968765 -0.125547 2.409796 0.014440 -0.002091 45147.900000 1 0 0
-11.352408 12.065294 3.427959 16.917428 -0.815831 1.366755 0.005192 -0.006741 -150557.000000 1 0 0
-16.388008 13.076794 -4.251841 21.392697 -0.673489 1.770881 0.052805 -0.013535 6382.310000 1 0 0
-11.116408 4.039894 -4.584841 12.685269 -0.348577 1.940598 0.000385 0.001145 258996.000000 1 0 0
-11.889208 14.624494 -8.860841 20.826512 -0.888199 2.010266 0.061492 -0.032385 197132.000000 1 0 0
-15.662408 7.203394 -0.458941 17.245595 -0.431069 1.597412 0.018478 0.005805 -1163120.000000 1 0 0
-12.835808 8.314194 -4.085041 15.829446 -0.574781 1.831816 0.006900 0.001265 513284.000000 1 0 0
-19.183708 1.956894 -6.001941 20.195727 -0.101656 1.872543 0.068950 -0.008091 836567.000000 1 0 0
-13.107708 9.789294 -9.053841 18.697977 -0.641472 2.076262 0.028849 -0.014045 614104.000000 1 0 0
-16.726308 10.984994 -1.129941 20.042860 -0.581105 1.627202 0.038750 -0.007586 428224.000000 1 0 0
-10.848808 6.575694 -14.360441 19.161385 -0.544908 2.418023 0.019428 -0.016866 -579442.000000 1 0 0
-13.731908 13.022494 -4.469741 19.445545 -0.758889 1.802730 0.034604 -0.005858 1277190.000000 1 0 0
-18.154408 7.656094 -0.120641 19.703118 -0.399090 1.576919 0.071946 -0.004543 -4010.130000 1 0 0
-12.898208 6.562494 -2.152441 14.630896 -0.470656 1.718448 -0.000349 0.006941 858950.000000 1 0 0
-13.717708 8.114794 -10.879941 19.297630 -0.534188 2.169772 0.018131 -0.003515 -1000810.000000 1 0 0
-15.024208 1.366994 -0.903041 15.113272 -0.090736 1.630583 0.001975 0.000104 -331890.000000 1 0 0
-13.331308 2.884194 -2.376541 13.845227 -0.213064 1.743301 0.000343 0.004040 757927.000000 1 0 0
-11.436008 9.328194 -11.020241 18.418556 -0.684233 2.212203 0.017381 -0.007298 -181145.000000 1 0 0
-15.356608 4.241294 -8.009341 17.831532 -0.269469 2.036629 0.022889 -0.001390 771858.000000 1 0 0
-18.538708 10.500394 4.657159 21.808968 -0.515350 1.355596 0.099570 -0.035680 163267.000000 1 0 0
-15.405208 6.096394 -6.339841 17.739223 -0.376825 1.936269 0.025827 0.005300 458354.000000 1 0 0
-7.799908 11.243194 -13.102541 18.945304 -0.964281 2.334496 0.010078 -0.007094 -679526.000000 1 0 0
-16.716108 9.222294 -2.916241 19.312779 -0.504148 1.722377 0.033998 -0.004042 762857.000000 1 0 0
-20.700908 -0.915306 -4.880241 21.288075 0.044187 1.802101 0.073165 -0.012494 230024.000000 1 0 0
-15.437308 4.021394 4.403159 16.549015 -0.254835 1.301485 0.014387 -0.004180 -481632.000000 1 0 0
-7.017008 12.546494 -9.519441 17.241597 -1.060856 2.155702 0.015727 -0.010346 -177456.000000 1 0 0
-17.097208 1.386194 5.976959 18.164804 -0.080900 1.235509 0.043355 -0.023284 -17589.000000 1 0 0
-10.500908 14.286694 -3.232141 18.022914 -0.936956 1.751107 0.035773 -0.011208 873956.000000 1 0 0
-9.943408 8.444194 -12.857941 18.316725 -0.704044 2.348968 -0.005205 -0.010837 236075.000000 1 0 0
-13.862008 11.630494 2.740059 18.301136 -0.698085 1.420511 0.020896 -0.007882 -1412970.000000 1 0 0
-16.713808 6.745294 1.895959 18.123053 -0.383585 1.465989 0.015917 -0.001550 542898.000000 1 0 0
-9.490508 13.317694 -8.514741 18.437232 -0.951648 2.050846 0.035588 -0.013663 1260330.000000 1 0 0
-5.659108 9.716894 -12.976441 17.170660 -1.043419 2.427570 0.005800 -0.005545 -251298.000000 1 0 0
-15.796108 1.639594 3.286259 16.217423 -0.103427 1.366746 0.006832 -0.004235 -182508.000000 1 0 0
-18.697708 -5.100306 4.547159 19.907136 0.266298 1.340343 0.061315 -0.007369 223734.000000 1 0 0
-5.346608 14.407294 -9.124441 17.872094 -1.215445 2.106610 0.013673 -0.006966 -1316940.000000 1 0 0
-15.437808 -0.863006 -6.921941 16.940602 0.055844 1.991717 0.015248 -0.001642 867975.000000 1 0 0
-9.025008 10.958894 -9.616341 17.147074 -0.881870 2.166167 0.007447 -0.011917 273811.000000 1 0 0
-16.742808 1.223194 -6.160241 17.882014 -0.072928 1.922496 0.012793 0.000575 -903604.000000 1 0 0
-11.307708 8.599894 -1.585941 14.294672 -0.650209 1.681972 -0.001690 0.001354 -490746.000000 1 0 0
-10.729508 10.997394 -12.902041 20.063093 -0.797727 2.269301 0.025391 -0.006947 -538313.000000 1 0 0
-13.888908 11.859294 -10.429741 21.031503 -0.706735 2.089679 0.040860 -0.018862 32454.300000 1 0 0
-13.086508 5.648094 -7.631041 16.167574 -0.407445 2.062351 0.014696 0.002486 2058640.000000 1 0 0
-8.948208 15.513494 -4.913541 18.570994 -1.047609 1.838566 0.030971 -0.005599 220570.000000 1 0 0
-8.678308 6.138394 -13.033141 16.818314 -0.615626 2.457412 0.002923 -0.006521 -447235.000000 1 0 0
-16.407608 7.407694 4.386759 18.529090 -0.424083 1.331777 0.026579 -0.004159 -460447.000000 1 0 0
-12.576808 5.230694 -10.055541 16.930746 -0.394138 2.206721 0.016790 -0.005324 251935.000000 1 0 0
-12.507108 9.184694 -13.361541 20.477235 -0.633415 2.281685 0.041601 -0.015808 -194684.000000 1 0 0
-10.667908 5.219894 -8.503641 14.606967 -0.455058 2.192183 0.004974 -0.001733 -1791610.000000 1 0 0
-17.784408 -4.231706 -2.534341 18.455769 0.233601 1.708551 0.012829 -0.005101 498171.000000 1 0 0
-8.994408 13.141794 -11.089141 19.405545 -0.970609 2.179058 0.038126 -0.016447 339459.000000 1 0 0
-15.197608 6.016394 6.217159 17.487634 -0.376948 1.207329 0.020633 -0.011191 -846276.000000 1 0 0
-16.308408 -3.159706 -4.455941 17.198934 0.191376 1.832868 -0.001639 0.000328 18875.800000 1 0 0
-11.149808 -1.226706 -12.548241 16.830965 0.109580 2.412148 0.014250 -0.000086 878171.000000 1 0 0
-15.245508 6.769894 -8.776541 18.848996 -0.417902 2.055136 0.015783 0.001265 -389259.000000 1 0 0
-15.007908 9.171894 1.195059 17.629212 -0.548569 1.502956 0.024819 -0.005583 -420140.000000 1 0 0
-19.603108 5.099094 7.919159 21.748464 -0.254477 1.198103 0.086827 -0.032353 132605.000000 1 0 0
-16.323308 0.428594 1.037959 16.361890 -0.026251 1.507316 0.021162 -0.006864 -379381.000000 1 0 0
-17.645308 3.598094 7.112659 19.362156 -0.201154 1.194640 0.051363 -0.022504 500543.000000 1 0 0
-15.409808 3.988294 -1.360641 15.975607 -0.253258 1.656070 0.004644 0.002212 -1190260.000000 1 0 0
-10.878808 13.169694 0.435659 17.087396 -0.880373 1.545298 0.019382 -0.013212 -981966.000000 1 0 0
-13.458408 3.328894 0.111859 13.864444 -0.242480 1.562728 -0.001654 0.001631 -297343.000000 1 0 0
-15.129808 -0.013606 -4.357541 15.744823 0.000899 1.851217 0.005562 0.003291 -592815.000000 1 0 0
-18.706108 6.758594 3.483759 20.192416 -0.346710 1.397401 0.043637 -0.012821 -548335.000000 1 0 0
-14.141108 1.315694 -6.274641 15.526530 -0.092773 1.986817 0.014285 0.000631 805241.000000 1 0 0
-14.134608 12.191594 5.208159 19.379036 -0.711726 1.298699 0.017950 -0.017734 -40654.100000 1 0 0
17.682192 5.467094 6.064259 19.476248 0.299863 1.254165 0.051796 -0.012801 163139.000000 1 0 0
18.336792 7.654794 -0.347541 19.873464 0.395463 1.588285 0.027476 -0.006445 681455.000000 1 0 0
16.665592 5.163894 8.444559 19.383455 0.300472 1.120027 0.072789 -0.008578 356240.000000 1 0 0
11.527892 12.415894 10.952159 20.174154 0.822468 0.996933 0.028770 -0.007969 528065.000000 1 0 0
-2.531108 16.272094 -0.541641 16.476678 -1.416484 1.603675 0.004621 -0.003118 -161865.000000 1 0 0
15.034692 12.610794 3.411959 19.917719 0.697944 1.398645 0.053002 -0.010208 549807.000000 1 0 0
13.562392 11.837994 6.680759 19.201799 0.717614 1.215441 0.055163 -0.003806 590270.000000 1 0 0
-0.735908 15.857594 8.568159 18.039351 -1.524422 1.075866 0.011306 -0.007071 215566.000000 1 0 0
0.645992 12.882194 9.426359 15.975746 1.520692 0.939686 0.011534 -0.003170 -2163440.000000 1 0 0
0.623892 15.417594 -3.819941 15.896018 1.530352 1.813480 0.013471 -0.004020 -355730.000000 1 0 0
5.462792 10.249594 13.616659 17.897197 1.081117 0.706211 0.025891 -0.009056 621757.000000 1 0 0
-1.509908 16.373394 -2.819241 16.682804 -1.478839 1.740602 0.011464 -0.004174 -347751.000000 1 0 0
8.461492 10.011594 3.309159 13.519592 0.869113 1.323516 0.011518 -0.002059 362561.000000 1 0 0
12.553792 13.433694 -5.078341 19.074888 0.819244 1.840278 0.089204 -0.021999 110216.000000 1 0 0
2.431792 11.591594 7.756759 14.157894 1.364006 0.990974 0.011522 0.003483 471523.000000 1 0 0
-0.371208 14.929294 -8.710041 17.288332 -1.545937 2.098801 0.018800 -0.005157 -6038.550000 1 0 0
2.378692 15.663994 0.361059 15.847688 1.420090 1.548011 0.021855 -0.020491 -579955.000000 1 0 0
1.862092 13.438494 5.251159 14.547686 1.433109 1.201497 0.007740 -0.001008 3069.420000 1 0 0
17.290292 9.274294 -2.091941 19.731774 0.492332 1.677015 0.016141 -0.009273 391227.000000 1 0 0
-7.317808 14.969394 7.296159 18.189750 -1.116107 1.158064 0.015413 -0.014546 -351099.000000 1 0 0
8.439692 15.691894 -0.140541 17.818071 1.077339 1.578684 0.031486 -0.010129 -603670.000000 1 0 0
15.752592 10.515494 2.223259 19.069940 0.588607 1.453946 0.043624 -0.000177 1039250.000000 1 0 0
14.125992 7.358294 8.608559 18.105121 0.480231 1.075291 0.044871 -0.011955 -1392340.000000 1 0 0
4.232592 18.399994 -2.348641 19.026053 1.344697 1.694555 0.044585 -0.025342 128966.000000 1 0 0
-0.504508 17.516794 -4.803941 18.170593 -1.542003 1.838357 0.028210 -0.005721 502202.000000 1 0 0
1.315992 13.590694 -0.718241 13.673136 1.474267 1.623350 0.009671 -0.008803 -452657.000000 1 0 0
10.342692 14.681894 4.172859 18.437517 0.957089 1.342494 0.031996 -0.012414 827140.000000 1 0 0
-1.783608 15.307594 -5.167141 16.254323 -1.454801 1.894303 0.008498 -0.004267 208386.000000 1 0 0
14.950192 8.702394 -6.229241 18.385955 0.527148 1.916442 0.035825 -0.024239 166924.000000 1 0 0
-2.514008 18.491594 0.862859 18.681643 -1.435671 1.524592 0.010089 -0.006675 -749301.000000 1 0 0
-3.825108 19.214394 3.401259 19.884490 -1.374290 1.398900 0.017845 -0.011988 -214338.000000 1 0 0
1.731192 17.489294 -2.553441 17.759293 1.472132 1.715077 0.021467 -0.019781 259243.000000 1 0 0
2.894792 12.075694 3.381059 12.869878 1.335516 1.304965 0.006426 -0.000664 77677.500000 1 0 0
-2.643208 16.137594 1.940259 16.467334 -1.408446 1.452697 0.007727 -0.006043 -1202250.000000 1 0 0
11.809192 12.702794 -2.749941 17.560756 0.821838 1.728039 0.044896 -0.001138 345466.000000 1 0 0
7.184992 11.642394 4.750559 14.482308 1.017869 1.236584 0.013041 -0.000153 208554.000000 1 0 0
7.113092 15.814194 1.999559 17.455172 1.148116 1.455990 0.017971 -0.009824 -282655.000000 1 0 0
5.598092 12.189294 10.210659 16.857493 1.140266 0.920145 0.022250 0.001137 1444280.000000 1 0 0
-1.414608 14.054894 3.069059 14.455458 -1.470485 1.356857 0.003254 -0.006525 -1022210.000000 1 0 0
4.624292 16.119594 1.477259 16.834716 1.291425 1.482933 0.022775 -0.017693 -2640120.000000 1 0 0
7.353592 13.136794 11.928359 19.207717 1.060483 0.900754 0.036683 -0.005544 48062.500000 1 0 0
0.656092 17.244494 -9.414141 19.657799 1.532768 2.070199 0.032584 -0.005188 488826.000000 1 0 0
9.820992 9.589994 15.443159 20.661825 0.773498 0.726619 0.040616 -0.010556 -258453.000000 1 0 0
13.471592 7.415094 -0.126641 15.378018 0.503169 1.579032 0.006722 -0.000271 -221897.000000 1 0 0
12.430792 13.470894 -0.183941 18.330941 0.825532 1.580831 0.046461 -0.001415 573861.000000 1 0 0
9.408192 12.334794 3.377559 15.876684 0.919194 1.356421 0.017409 0.003049 1429600.000000 1 0 0
-0.699008 12.857994 0.694959 12.895719 -1.516486 1.516880 0.006632 -0.004940 -306070.000000 1 0 0
15.828692 7.442794 -0.956341 17.517341 0.439532 1.625417 0.015736 -0.003359 -2898450.000000 1 0 0
-4.370108 18.434494 -2.371341 19.093236 -1.338032 1.695316 0.024364 -0.004168 16195.900000 1 0 0
11.359692 9.052994 -3.312541 14.898732 0.672872 1.795007 0.011693 -0.005831 19809.000000 1 0 0
14.670792 9.715894 7.827859 19.258922 0.584946 1.152227 0.052339 -0.008917 -669212.000000 1 0 0
4.443292 13.695594 4.697359 15.145207 1.257078 1.255440 0.013492 0.001831 -535557.000000 1 0 0
2.061392 15.994494 5.680459 17.097976 1.442622 1.232130 0.014844 -0.002142 174152.000000 1 0 0
6.131892 18.275294 5.539359 20.056693 1.247071 1.290974 0.037630 -0.026496 -117557.000000 1 0 0
10.560892 17.022394 -0.803241 20.048429 1.015503 1.610872 0.067676 -0.008648 -652172.000000 1 0 0
10.007292 13.513194 -4.517741 17.411556 0.933366 1.833268 0.060260 -0.006940 -841618.000000 1 0 0
16.636792 7.905194 2.331059 18.566334 0.443582 1.444911 0.020747 -0.005753 233850.000000 1 0 0
3.934992 13.809494 -0.499141 14.367860 1.293205 1.605543 0.013866 -0.013856 -59692.100000 1 0 0
5.577992 13.033694 -2.429741 14.383838 1.166415 1.740532 0.013112 -0.009881 81561.500000 1 0 0
-6.341308 16.976194 -2.944841 18.359614 -1.213305 1.731890 0.024537 0.003480 -1037470.000000 1 0 0
18.180792 9.884894 2.856459 20.890468 0.497993 1.433632 0.048634 -0.009286 699527.000000 1 0 0
8.007692 12.873294 9.451459 17.865466 1.014329 1.013333 0.033334 -0.004951 186877.000000 1 0 0
-2.671308 15.683994 6.748659 17.282012 -1.402095 1.169620 0.007295 -0.007284 204474.000000 1 0 0
11.217192 16.055794 6.208659 20.546565 0.960985 1.263823 0.052650 -0.017952 3176.030000 1 0 0
13.597092 11.812494 1.336959 18.061101 0.715280 1.496704 0.042808 -0.006489 1694540.000000 1 0 0
17.432292 7.924194 -5.653041 19.965833 0.426648 1.857858 0.032988 -0.002339 455879.000000 1 0 0
9.469592 9.396594 7.994059 15.552302 0.781529 1.030942 0.013987 -0.000115 -181258.000000 1 0 0
-2.295308 14.098594 -1.903941 14.410544 -1.409408 1.703305 0.003636 -0.002134 242967.000000 1 0 0
10.921292 11.561094 0.730559 15.920654 0.813848 1.524893 0.020944 0.000281 463283.000000 1 0 0
11.675992 9.672794 -0.685541 15.177670 0.691840 1.615979 0.011999 -0.000476 -1730640.000000 1 0 0
-0.356508 16.040794 11.044559 19.478615 -1.548575 0.967926 0.018547 -0.009345 -75323.400000 1 0 0
2.106092 19.729294 -1.461441 19.895136 1.464450 1.644320 0.040277 -0.036354 -580331.000000 1 0 0
9.342892 14.346894 1.781959 17.213319 0.993568 1.467088 0.025719 -0.004525 -570261.000000 1 0 0
8.433892 11.673694 -5.161441 15.298566 0.945149 1.914929 0.025591 -0.002466 -1235890.000000 1 0 0
10.637992 10.095294 10.303959 17.923543 0.759229 0.958334 0.016373 -0.003129 430352.000000 1 0 0
-5.166208 15.738694 5.844359 17.565669 -1.253629 1.231615 -0.004088 -0.006934 353223.000000 1 0 0
14.162392 9.059594 -1.949441 16.924831 0.569096 1.686235 0.019356 -0.004490 -873086.000000 1 0 0
12.227292 9.645494 6.862359 17.018642 0.667905 1.155757 0.027230 -0.004971 -458508.000000 1 0 0
3.103992 12.870994 9.801659 16.473304 1.334153 0.933527 0.017149 -0.006978 -328633.000000 1 0 0
8.598692 12.540994 -2.681241 15.440307 0.969769 1.745333 0.024720 -0.002718 -494334.000000 1 0 0
9.526292 16.991594 1.915959 19.573844 1.059815 1.472756 0.032523 -0.007916 817795.000000 1 0 0
9.405192 14.125394 -7.484941 18.547472 0.983369 1.986196 0.072723 -0.024272 -363992.000000 1 0 0
6.354692 11.432694 7.266859 14.963149 1.063484 1.063689 0.009000 0.001477 -986287.000000 1 0 0
5.341092 16.888594 -5.439341 18.529390 1.264495 1.868737 0.054784 -0.011671 -689096.000000 1 0 0
-4.322608 17.242494 -4.712741 18.390173 -1.325164 1.829952 0.022127 -0.000731 90004.800000 1 0 0
-0.394608 18.592994 -0.643941 18.608326 -1.549576 1.605408 0.017329 -0.014431 -601445.000000 1 0 0
6.506992 15.523794 -2.723441 17.051283 1.173880 1.731204 0.034939 -0.008334 777200.000000 1 0 0
-1.084408 20.653194 0.719859 20.694167 -1.518339 1.536004 0.014803 -0.012375 -64989.300000 1 0 0
-1.326408 18.683594 4.194059 19.194430 -1.499922 1.350515 0.007684 -0.010196 -277866.000000 1 0 0
7.226892 13.785994 -4.361841 16.165000 1.087961 1.844015 0.030227 -0.000139 130999.000000 1 0 0
-1.036808 11.992794 7.645759 14.260424 -1.484558 1.004924 0.005216 0.000026 449311.000000 1 0 0
7.777492 10.799694 10.999159 17.265696 0.946669 0.880128 0.018673 -0.003191 271061.000000 1 0 0
1.505592 16.025694 -7.279541 17.665825 1.477123 1.995520 0.022360 -0.006797 -512436.000000 1 0 0
8.942792 7.168094 14.712759 18.649943 0.675685 0.661795 0.035074 -0.005123 217919.000000 1 0 0
11.234492 11.227994 -4.901841 16.622566 0.785109 1.870138 0.048704 -0.012539 -620876.000000 1 0 0
-3.342208 16.914494 4.485659 17.815487 -1.375715 1.316273 0.000522 -0.006249 -322365.000000 1 0 0
3.890292 15.383894 -6.780741 17.256216 1.323108 1.974628 0.037281 -0.011073 -767119.000000 1 0 0
-4.539408 14.091294 9.408259 17.540984 -1.259151 1.004680 0.021523 -0.016523 -546991.000000 1 0 0
6.101992 17.802994 0.422059 18.824426 1.240594 1.548374 0.022723 -0.017421 -112534.000000 1 0 0
9.695392 10.638894 -2.201341 14.561338 0.831764 1.722555 0.023580 -0.002165 -531233.000000 1 0 0
7.350692 17.960494 -2.273741 19.539240 1.182324 1.687429 0.060327 -0.010412 -270134.000000 1 0 0
3.574792 10.296694 10.367459 15.042780 1.236637 0.810414 0.011943 -0.001668 1331640.000000 1 0 0
-0.096608 18.554294 1.968459 18.658670 -1.565590 1.465101 0.016227 -0.016444 -117565.000000 1 0 0
-0.913108 17.062294 -7.346941 18.599279 -1.517331 1.976877 0.030360 -0.007797 313033.000000 1 0 0
10.216892 8.736294 13.028259 18.720129 0.707438 0.801055 0.031974 -0.004424 -142757.000000 1 0 0
3.647892 11.425194 5.623859 13.246507 1.261742 1.132327 0.005710 0.000069 403963.000000 1 0 0
13.232292 13.947994 8.239359 20.917148 0.811724 1.165921 0.062703 -0.020451 20295.800000 1 0 0
-0.617608 17.282094 6.532859 18.485953 -1.535075 1.209598 0.013885 -0.012345 -814135.000000 1 0 0
12.190592 13.661794 5.796959 19.205725 0.842245 1.264180 0.043462 -0.009637 -218094.000000 1 0 0
4.824092 14.420694 -4.530441 15.866731 1.247973 1.860357 0.023927 -0.006644 29734.100000 1 0 0
3.699092 17.549294 4.734659 18.549339 1.363054 1.312693 0.022842 -0.012795 -1266090.000000 1 0 0
6.970492 11.601194 2.165259 13.706341 1.029757 1.412157 0.014704 -0.001319 317754.000000 1 0 0
6.395792 8.692294 11.720859 15.932377 0.936445 0.744152 0.013000 -0.005341 599804.000000 1 0 0
-5.515508 14.833894 1.701959 15.917346 -1.214818 1.463667 0.004961 0.001797 278151.000000 1 0 0
6.732992 13.787394 6.045759 16.491713 1.116517 1.195451 0.018111 -0.001866 -906644.000000 1 0 0
5.767692 15.819194 4.764859 17.499058 1.221174 1.295022 0.013798 -0.016576 875731.000000 1 0 0
1.238092 17.952794 4.218459 18.483264 1.501942 1.340536 0.026930 -0.016378 -78178.400000 1 0 0
7.091592 18.131294 -6.816941 20.627776 1.197965 1.907602 0.046833 -0.013006 247338.000000 1 0 0
-2.493808 18.722994 -6.019841 19.824431 -1.438381 1.879326 0.030017 -0.004866 -1045570.000000 1 0 0
13.412992 10.009794 -4.550941 17.344030 0.641113 1.836297 0.030762 -0.013825 -2937840.000000 1 0 0
-1.779708 17.993594 9.914059 20.620993 -1.472209 1.069258 0.018793 -0.006791 23053.000000 1 0 0
3.338492 11.699994 -1.575941 12.268617 1.292842 1.699605 0.011654 -0.007317 245821.000000 1 0 0
4.473592 13.979194 -10.897841 18.280969 1.261077 2.209469 0.024320 -0.015041 -190231.000000 1 0 0
11.596892 13.393394 2.310659 17.866450 0.857163 1.441104 0.036041 -0.006129 -403660.000000 1 0 0
15.854392 6.441994 -7.119241 18.534956 0.385945 1.965027 0.017949 -0.002631 239167.000000 1 0 0
2.494792 16.009794 2.952959 16.469895 1.416210 1.390527 0.021383 -0.015059 15040.100000 1 0 0
13.506692 10.516794 3.566459 17.485803 0.661578 1.365392 0.037988 -0.001164 -1179850.000000 1 0 0
-4.917508 19.453294 -5.816541 20.891258 -1.323198 1.852945 0.021209 -0.010693 -360514.000000 1 0 0
5.428992 11.916294 0.042059 13.094799 1.143300 1.567584 0.012324 -0.006208 -295304.000000 1 0 0
4.666492 15.366594 9.556059 18.687606 1.275969 1.034032 0.024327 -0.005735 -280164.000000 1 0 0
7.844692 9.392794 13.842959 18.476776 0.874968 0.723930 0.026878 -0.010894 -2791120.000000 1 0 0
-5.143208 13.467194 6.925459 15.993120 -1.205984 1.122948 0.002027 -0.008084 -1759040.000000 1 0 0
-4.665908 17.082594 0.640359 17.719926 -1.304162 1.534651 0.014545 0.001077 -3650160.000000 1 0 0
-0.579308 16.429294 3.459659 16.799599 -1.535550 1.363375 0.015864 -0.013167 -2011290.000000 1 0 0
7.799092 16.817694 -4.681841 19.120154 1.136572 1.818176 0.051096 -0.015021 718036.000000 1 0 0
2.939592 16.337094 -4.518541 17.203460 1.392768 1.836567 0.019639 -0.011439 -387357.000000 1 0 0
9.593292 14.338694 7.955859 18.998028 0.981146 1.138703 0.038845 -0.014056 328312.000000 1 0 0
12.836292 10.998494 9.104659 19.199793 0.708445 1.076734 0.044466 -0.013063 625546.000000 1 0 0
3.720092 12.126494 12.105059 17.533493 1.273137 0.808760 0.029256 -0.011766 613933.000000 1 0 0
-3.247008 19.033894 5.912759 20.193882 -1.401832 1.273643 0.012550 -0.009361 -47026.700000 1 0 0
-2.773108 15.747294 10.189859 18.960501 -1.396483 1.003415 0.021200 -0.018756 -759581.000000 1 0 0
1.979592 14.229894 7.704559 16.302419 1.432568 1.078555 0.013711 -0.001525 272822.000000 1 0 0
4.508992 17.365394 7.884059 19.597099 1.316753 1.156760 0.036078 -0.010631 288442.000000 1 0 0
-1.938608 13.419394 9.337459 16.462881 -1.427326 0.967715 0.012707 -0.010237 42869.000000 1 0 0
5.737792 17.792094 3.060659 18.943296 1.258835 1.408515 0.014625 -0.018309 697176.000000 1 0 0
7.206292 15.443294 -6.752641 18.330961 1.134200 1.948055 0.035128 -0.004419 -405229.000000 1 0 0
11.034592 7.685594 9.413459 16.414742 0.608373 0.960054 0.009080 -0.004228 766096.000000 1 0 0
9.079192 15.962494 -2.694141 18.560477 1.053647 1.716466 0.065007 -0.019677 468736.000000 1 0 0
14.658392 11.299594 -6.527641 19.625477 0.656719 1.909867 0.091621 -0.026456 402359.000000 1 0 0
11.055392 6.557794 16.089159 20.593382 0.535387 0.674085 0.061325 -0.011894 25328.600000 1 0 0
8.610792 8.516094 10.301559 15.899424 0.779869 0.865945 0.011804 -0.003621 153086.000000 1 0 0
16.241192 9.207694 4.535459 19.212712 0.515752 1.332481 0.036185 -0.004961 -275291.000000 1 0 0
-3.392308 14.258494 4.694759 15.390034 -1.337224 1.260803 -0.001893 -0.002741 -846755.000000 1 0 0
4.768192 14.505794 12.619259 19.809073 1.253213 0.880139 0.032598 -0.013045 -1310900.000000 1 0 0
15.951392 10.437394 -4.473041 19.580454 0.579410 1.801276 0.057163 -0.033425 202030.000000 1 0 0
14.868992 14.030894 6.209059 21.365985 0.756406 1.275937 0.072381 -0.014700 -184695.000000 1 0 0
6.282592 9.432694 9.288959 14.653717 0.983225 0.884214 0.009593 -0.000640 1045210.000000 1 0 0
10.453292 12.083394 8.699559 18.192362 0.857603 1.072194 0.032543 -0.008049 -164960.000000 1 0 0
7.888492 11.431994 -0.368341 13.894404 0.966789 1.597309 0.005775 -0.002662 -6651.170000 1 0 0
7.247992 13.644694 -8.714241 17.738349 1.082505 2.084339 0.038047 -0.009565 -1431480.000000 1 0 0
2.764892 15.279994 -2.150041 15.676272 1.391785 1.708383 0.017693 -0.012120 730172.000000 1 0 0
11.929692 14.351994 -7.877041 20.256975 0.877305 1.970186 0.081372 -0.016272 -1220230.000000 1 0 0
-8.294208 14.582094 9.703459 19.380105 -1.053638 1.046399 0.042346 -0.030961 274407.000000 1 0 0
11.464092 9.500994 2.137859 15.042098 0.692034 1.428188 0.021875 -0.000587 -1550940.000000 1 0 0
12.118092 8.623894 4.461259 15.528120 0.618505 1.279388 0.021303 -0.001566 291675.000000 1 0 0
14.063992 8.006194 6.072759 17.285063 0.517517 1.211805 0.029397 -0.004347 -3454570.000000 1 0 0
16.210692 7.358794 7.198859 19.203175 0.426131 1.186531 0.065299 -0.010227 381.711000 1 0 0
13.661792 8.261194 2.302459 16.130505 0.543863 1.427568 0.023289 -0.003034 -1557130.000000 1 0 0
-4.322808 17.350494 -7.259541 19.298374 -1.326621 1.956460 0.030303 -0.012007 168687.000000 1 0 0
2.531992 19.519094 -4.030241 20.091014 1.441798 1.772766 0.041149 -0.019902 387969.000000 1 0 0
-0.201308 14.720994 6.263259 15.999268 -1.557122 1.168566 0.008882 -0.006164 761313.000000 1 0 0
6.753392 16.044094 8.329959 19.297913 1.172381 1.124474 0.041648 -0.010088 -1453040.000000 1 0 0
12.733192 15.106394 -2.197741 19.878817 0.870438 1.681580 0.091821 -0.010286 -85445.000000 1 0 0
12.781692 15.706394 4.247759 20.690720 0.887704 1.364028 0.059765 -0.010295 408329.000000 1 0 0
2.762492 17.941294 1.299759 18.199196 1.418022 1.499317 0.023635 -0.025459 -391329.000000 1 0 0
10.346492 14.371294 -1.263941 17.753352 0.946812 1.642051 0.046071 0.003011 -902344.000000 1 0 0
-6.432208 15.707394 -0.642341 16.985527 -1.182126 1.608622 0.007910 -0.000013 241132.000000 1 0 0
-4.135008 15.806594 -2.592341 16.542881 -1.314930 1.728149 0.014702 -0.001723 -424858.000000 1 0 0
-7.019508 16.907194 1.697959 18.385042 -1.177274 1.478309 0.015041 -0.005132 -409587.000000 1 0 0
0.011392 19.321494 -6.508441 20.388233 1.570207 1.895708 0.046840 -0.015499 -123683.000000 1 0 0
4.702892 14.985294 6.933059 17.168096 1.266697 1.155093 0.024348 -0.003671 -417623.000000 1 0 0
8.566792 12.180894 6.911159 16.417314 0.957861 1.136284 0.024534 -0.005338 -1256070.000000 1 0 0
-7.661608 17.544394 -5.679641 19.969084 -1.159059 1.859200 0.045593 -0.010562 117523.000000 1 0 0
-8.204808 17.634094 -1.291741 19.492274 -1.135308 1.637114 0.052291 -0.012595 468713.000000 1 0 0
-13.639608 -9.270406 9.329159 18.947627 0.596950 1.055991 0.056073 -0.011363 -254390.000000 1 0 0
-12.436608 -12.855806 7.665159 19.460104 0.801971 1.165935 0.031041 -0.011731 -324219.000000 1 0 0
-3.896308 -14.765606 12.629759 19.817042 1.312800 0.879783 0.015419 -0.015626 329747.000000 1 0 0
-2.115308 -13.990706 14.972459 20.600702 1.420739 0.757154 0.033938 -0.009836 -1772940.000000 1 0 0
-6.882708 -13.671606 13.051559 20.115359 1.104408 0.864743 0.023830 -0.006774 -111730.000000 1 0 0
-9.764108 -11.485706 9.035959 17.575774 0.866239 1.030821 0.011142 -0.009593 443081.000000 1 0 0
-10.598908 -10.652806 11.338959 18.825279 0.787934 0.924384 0.045599 -0.017848 68208.400000 1 0 0
-6.027708 -12.177006 10.971059 17.463587 1.111151 0.891527 0.016247 -0.006773 698548.000000 1 0 0
-12.446508 -10.252206 7.282059 17.693267 0.689027 1.146618 0.019241 -0.005852 -582281.000000 1 0 0
-7.746008 -11.278206 12.671459 18.648444 0.968976 0.823727 0.029629 -0.010528 -316115.000000 1 0 0
-14.679508 -11.534506 7.296359 20.044193 0.665995 1.198223 0.053789 -0.006190 -771859.000000 1 0 0
-11.041008 -9.178206 9.189159 17.046524 0.693527 1.001472 0.020175 -0.005872 -851081.000000 1 0 0
-5.322508 -11.674006 13.435959 18.577850 1.143023 0.762336 0.028584 -0.018078 -1426330.000000 1 0 0
4.016892 -12.242206 14.855759 19.664705 -1.253747 0.714451 -0.002870 -0.006405 -824554.000000 1 0 0
6.497892 -12.723606 14.135159 20.097648 -1.098629 0.790734 0.022628 -0.005239 -49344.900000 1 0 0
6.690292 -8.305606 16.005159 19.232998 -0.892702 0.587783 0.016626 -0.018494 -223375.000000 1 0 0
0.724592 -1.749706 14.454259 14.577795 -1.178176 0.130279 0.003367 -0.008629 -1548100.000000 1 0 0
-0.175508 -6.378606 15.692759 16.940487 1.543288 0.386202 0.009196 -0.014328 -329200.000000 1 0 0
-1.436508 -4.709206 18.451359 19.096932 1.274720 0.260758 0.023471 -0.026938 -3172290.000000 1 0 0
-5.251808 12.551694 12.766359 18.657610 -1.174517 0.817230 0.021338 -0.026530 -473583.000000 1 0 0
-4.085308 8.850694 11.596759 15.149566 -1.138354 0.699002 0.000619 -0.001434 -165050.000000 1 0 0
-0.563108 -3.996906 15.061659 15.593137 1.430831 0.261838 0.008587 -0.011099 -265153.000000 1 0 0
-4.894608 9.083294 14.143459 17.507165 -1.076547 0.630273 0.017386 -0.014112 595606.000000 1 0 0
-13.457708 -2.524406 16.779159 21.656932 0.185426 0.684444 0.049713 -0.010311 -266173.000000 1 0 0
-0.169008 0.770294 17.255159 17.273171 -1.354811 0.045671 0.015284 -0.012773 -285377.000000 1 0 0
-3.411808 -7.375206 15.405459 17.417298 1.137510 0.485393 0.015654 -0.014800 212169.000000 1 0 0
-7.429308 5.586794 12.443959 15.532514 -0.644776 0.641573 -0.007560 -0.000739 -2175270.000000 1 0 0
-9.887008 10.291094 13.254359 19.476590 -0.805421 0.822314 0.019845 -0.018618 373105.000000 1 0 0
-5.492208 2.223694 11.203559 12.673946 -0.384707 0.486481 0.002457 -0.001651 -1979970.000000 1 0 0
-7.210508 -7.380206 16.970359 19.860815 0.797028 0.546277 0.037845 -0.018741 -119605.000000 1 0 0
-4.709108 2.894394 18.689859 19.490101 -0.551113 0.287552 0.013168 -0.008291 -605790.000000 1 0 0
0.895592 -8.403206 16.680959 18.699475 -1.464620 0.468924 0.010079 -0.011391 573853.000000 1 0 0
-15.175208 -3.489206 13.834859 20.829422 0.226000 0.844376 0.068970 -0.024998 606803.000000 1 0 0
-14.280908 2.422194 13.133459 19.552471 -0.168012 0.834291 0.025621 -0.009101 -911910.000000 1 0 0
-5.443308 0.955694 16.168059 17.086518 -0.173801 0.329369 0.014623 -0.006378 405783.000000 1 0 0
4.612292 5.757094 15.123659 16.826836 0.895355 0.453813 0.017033 -0.005965 -725328.000000 1 0 0
-1.010508 -11.937106 13.935359 18.376884 1.486345 0.710081 0.000979 -0.006366 156146.000000 1 0 0
-5.900708 -4.099906 16.709359 18.188740 0.607238 0.406109 0.026505 -0.017492 168291.000000 1 0 0
-12.971808 -1.502406 9.855059 16.359927 0.115307 0.924304 0.019592 -0.006133 -719135.000000 1 0 0
-14.388008 10.221494 10.127959 20.348692 -0.617683 1.049828 0.018949 -0.009018 319383.000000 1 0 0
-3.596208 -3.461906 17.763859 18.451889 0.766372 0.273941 0.024773 -0.018346 -840919.000000 1 0 0
-7.962708 9.452994 11.797359 17.086295 -0.870762 0.808675 -0.001995 -0.010765 74999.300000 1 0 0
-4.558408 10.868994 16.053259 19.915352 -1.173682 0.633307 0.021869 -0.013426 118725.000000 1 0 0
-12.702608 12.804294 8.193459 19.810072 -0.789385 1.144391 0.026010 -0.022620 687127.000000 1 0 0
-12.657308 3.128594 10.541859 16.766823 -0.242320 0.890873 0.006719 -0.007158 397006.000000 1 0 0
-10.061508 -3.400206 13.662559 17.304938 0.325893 0.660773 0.023766 -0.006850 -1642330.000000 1 0 0
-4.134008 -6.386706 17.752759 19.314256 0.996333 0.404871 0.035437 -0.019925 -460985.000000 1 0 0
0.827092 -3.736006 17.685959 18.095164 -1.352926 0.213072 0.025295 -0.032181 -593318.000000 1 0 0
-5.952308 1.780994 13.735959 15.075758 -0.290732 0.424781 0.005772 -0.001207 -683265.000000 1 0 0
-10.576808 8.657394 10.278959 17.101939 -0.685936 0.925994 0.008634 -0.013033 -290611.000000 1 0 0
4.573792 2.458794 17.352259 18.112596 0.493260 0.290776 0.027796 -0.016325 56656.000000 1 0 0
0.558592 -5.442706 13.330259 14.409402 -1.468523 0.389475 0.005993 -0.007250 -2672860.000000 1 0 0
-4.331608 5.705594 20.514259 21.729046 -0.921442 0.335961 0.055818 -0.019653 -650924.000000 1 0 0
-11.010808 10.792994 8.942959 17.824229 -0.775409 1.045198 0.017652 -0.014907 -100197.000000 1 0 0
0.550392 4.158594 13.135159 13.788736 1.439211 0.309123 0.008458 -0.006438 -2722210.000000 1 0 0
-3.029608 7.239594 13.465259 15.585360 -1.174463 0.527698 -0.000832 0.001340 131952.000000 1 0 0
0.426892 8.814294 14.178559 16.700465 1.522402 0.556722 0.015427 -0.008940 123594.000000 1 0 0
-4.231508 -6.533206 13.107259 15.244300 0.996045 0.535892 0.012864 -0.006618 -397152.000000 1 0 0
-5.209608 8.289994 16.552859 19.231774 -1.009741 0.534146 0.014092 -0.000693 622374.000000 1 0 0
1.656892 -10.695006 15.806559 19.156611 -1.417096 0.600377 -0.002443 -0.004853 -935233.000000 1 0 0
-15.067608 -0.938406 14.170659 20.705579 0.062199 0.817032 0.041941 -0.011759 639180.000000 1 0 0
-13.850208 -5.374606 8.324059 17.029522 0.370164 1.060081 0.051117 -0.012371 -453751.000000 1 0 0
-14.217708 -1.890506 12.058959 18.738616 0.132193 0.871688 0.038793 -0.015095 630345.000000 1 0 0
9.518292 1.195494 17.093259 19.601188 0.124945 0.511416 0.071838 -0.014345 275196.000000 1 0 0
4.944492 -6.737806 17.013559 18.955401 -0.937716 0.456599 0.026123 -0.020241 357725.000000 1 0 0
-6.075508 -2.641606 11.000659 12.841510 0.410139 0.542059 0.006541 -0.001085 31727.200000 1 0 0
0.526892 -6.310006 18.156259 19.228716 -1.487489 0.335559 0.021498 -0.025342 -58598.700000 1 0 0
-8.449108 12.088794 12.017059 19.024617 -0.960795 0.887106 0.015222 -0.019247 287907.000000 1 0 0
-6.558908 -5.902906 14.839359 17.264708 0.732806 0.536467 0.025768 -0.010548 -1373050.000000 1 0 0
-4.621708 -8.885606 17.388159 20.066446 1.091171 0.522591 0.042446 -0.016657 68721.800000 1 0 0
2.420392 -6.273306 16.340459 17.669841 -1.202570 0.390377 0.021003 -0.021502 -1933390.000000 1 0 0
2.328992 5.142494 16.113359 17.073657 1.145540 0.336986 0.016754 -0.010937 748393.000000 1 0 0
1.038592 -8.830606 14.039659 16.618372 -1.453721 0.564554 0.002943 -0.007649 -681817.000000 1 0 0
-9.870608 -2.696806 11.249959 15.207342 0.266707 0.738066 0.003362 0.000332 13266.200000 1 0 0
-1.246608 10.150694 12.317559 16.009774 -1.448598 0.692930 0.009161 -0.008827 -398100.000000 1 0 0
-12.286908 -3.600706 11.342659 17.105236 0.285071 0.845830 0.030276 -0.004799 -2074440.000000 1 0 0
-1.861308 6.524694 20.103659 21.217757 -1.292906 0.325496 0.034039 -0.012625 -83156.500000 1 0 0
0.281892 -13.347506 15.713859 20.619427 -1.549680 0.704261 -0.006162 -0.005629 -725597.000000 1 0 0
4.162692 -8.689406 15.372659 18.142558 -1.124046 0.559867 0.009228 -0.012945 -937486.000000 1 0 0
4.398592 -4.501406 16.120559 17.305568 -0.796950 0.372214 0.037329 -0.022266 -927901.000000 1 0 0
8.075392 1.729294 14.992759 17.116811 0.210957 0.503481 0.037863 -0.005512 632186.000000 1 0 0
-6.373308 -0.114506 11.771959 13.386978 0.017965 0.496282 0.006039 -0.002208 185218.000000 1 0 0
-3.374908 -10.792406 18.770459 21.913379 1.267719 0.542200 0.063674 -0.019529 -42049.400000 1 0 0
3.244392 -1.441606 13.668159 14.121716 -0.418135 0.254130 0.006486 -0.007324 191954.000000 1 0 0
-2.786008 9.026894 15.828459 18.433306 -1.271437 0.538092 0.015138 -0.000941 -674510.000000 1 0 0
-3.335208 4.016094 14.897959 15.786127 -0.877756 0.337041 0.008637 -0.002705 -1374360.000000 1 0 0
-4.556508 -8.853406 20.001159 22.342581 1.095488 0.461909 0.061024 -0.022442 -96115.000000 1 0 0
-5.772408 -2.932106 19.040159 20.110833 0.469989 0.327774 0.035654 -0.024725 -1197800.000000 1 0 0
-6.678008 -8.552306 11.154059 15.561194 0.907846 0.771613 0.016110 -0.008843 -1137470.000000 1 0 0
-11.653808 2.380194 12.723059 17.417026 -0.201471 0.751749 0.009900 -0.012313 -744037.000000 1 0 0
-11.678708 -7.410606 11.630859 18.071696 0.565430 0.871610 0.040336 -0.016348 -552036.000000 1 0 0
-11.134608 -7.190706 15.576459 20.452673 0.573416 0.705040 0.068546 -0.035655 542365.000000 1 0 0
0.358192 5.609594 17.780359 18.647708 1.507030 0.306194 0.017574 -0.011763 -238868.000000 1 0 0
-2.145008 -0.197306 13.271059 13.444738 0.091726 0.160910 0.007778 -0.004140 -33789.300000 1 0 0
-6.056008 -10.516306 18.696059 22.289248 1.048310 0.575734 0.074671 -0.016473 -47013.300000 1 0 0
0.424692 2.463294 19.297359 19.458577 1.400067 0.128815 0.026553 -0.012995 -1009880.000000 1 0 0
-0.764608 11.049094 14.793759 18.480324 -1.501705 0.642644 0.026408 -0.006999 456842.000000 1 0 0
-12.794008 -2.282306 14.181659 19.235775 0.176532 0.741799 0.027251 -0.011943 -1454990.000000 1 0 0
-13.676308 8.362994 11.637159 19.809203 -0.548829 0.942877 0.023427 -0.016186 -383738.000000 1 0 0
-18.048708 -0.777706 6.975059 19.365230 0.043063 1.202331 0.083220 -0.032383 -1197290.000000 1 0 0
-2.169608 -7.979906 17.619659 19.463774 1.305329 0.438819 0.032705 -0.021247 -1727590.000000 1 0 0
5.693492 2.675394 14.578559 15.877908 0.439282 0.407369 0.028428 -0.007913 -1623160.000000 1 0 0
-14.265108 -7.012406 11.081759 19.377114 0.456887 0.961977 0.072112 -0.017106 425565.000000 1 0 0
3.191092 7.571994 16.404559 18.347417 1.171950 0.464362 0.023165 -0.017752 117685.000000 1 0 0
0.978292 2.012994 14.620359 14.790676 1.118421 0.151903 0.006806 -0.009310 -2778810.000000 1 0 0
-14.299608 0.793694 9.720659 17.308956 -0.055448 0.974482 0.027921 -0.014031 -2541510.000000 1 0 0
-9.477508 -5.124606 15.441659 18.828956 0.495685 0.609208 0.035759 -0.015633 -184411.000000 1 0 0
-2.555708 -0.072606 18.155759 18.334898 0.028402 0.139903 0.027639 -0.014760 661927.000000 1 0 0
6.932492 3.735894 17.550459 19.236292 0.494278 0.421780 0.058568 -0.015669 90519.400000 1 0 0
-4.199808 -0.757806 14.726159 15.332071 0.178517 0.282072 0.016112 -0.001449 -848841.000000 1 0 0
4.945992 -9.241806 17.746359 20.610848 -1.079406 0.533524 0.021057 -0.012820 -101637.000000 1 0 0
2.068292 7.098694 13.509259 15.400304 1.287283 0.500782 0.019844 -0.004960 -963223.000000 1 0 0
-3.741308 -0.763306 20.249659 20.606521 0.201259 0.186377 0.040982 -0.021712 -1602750.000000 1 0 0
-10.645608 1.471994 16.307059 19.529872 -0.137401 0.582699 0.015289 -0.011006 -536863.000000 1 0 0
-3.805808 7.065994 18.362859 20.040135 -1.076741 0.412044 0.018632 -0.011525 658537.000000 1 0 0
-12.602508 1.134494 14.715059 19.407299 -0.089779 0.710213 0.019295 -0.011803 -430835.000000 1 0 0
-16.259208 -4.491406 8.557259 18.914578 0.269517 1.101324 0.076254 -0.017392 -1001160.000000 1 0 0
-2.284108 0.650494 15.705959 15.884503 -0.277446 0.150075 0.016818 -0.004446 10663.400000 1 0 0
-13.612308 -8.859206 12.748559 20.647185 0.576954 0.905302 0.066372 -0.032561 563412.000000 1 0 0
6.014192 -3.190006 14.537259 16.052369 -0.487681 0.437970 0.028800 -0.017877 573227.000000 1 0 0
-15.703708 0.039194 7.710859 17.494723 -0.002496 1.114358 0.038028 -0.022175 9872.850000 1 0 0
-14.083908 5.896094 12.510459 19.739098 -0.396472 0.884352 0.034942 -0.012212 223710.000000 1 0 0
0.324592 9.436694 16.743459 19.222382 1.536413 0.513481 0.026649 -0.018266 -569892.000000 1 0 0
-10.312008 -5.353706 10.855359 15.900896 0.478867 0.819361 0.023415 -0.008953 145266.000000 1 0 0
-3.107708 -10.937606 15.119959 18.918304 1.293961 0.644794 0.023535 -0.010884 -1004780.000000 1 0 0
-3.569508 2.752894 12.721559 13.496587 -0.656947 0.340535 0.005968 -0.002753 -2056280.000000 1 0 0
-12.313108 -7.705106 7.516159 16.354631 0.559149 1.093281 0.032749 -0.003116 113598.000000 1 0 0
-8.131908 -1.754906 13.226659 15.625368 0.212545 0.561446 0.013144 -0.001818 -704511.000000 1 0 0
-9.833308 6.460194 9.557459 15.158268 -0.581260 0.888585 -0.001396 -0.006503 -1022300.000000 1 0 0
-18.182008 -3.743506 6.615259 19.706875 0.203053 1.228466 0.085969 -0.021755 534706.000000 1 0 0
-1.288008 -0.130506 20.518759 20.559559 0.100980 0.063010 0.035437 -0.015574 -751006.000000 1 0 0
-2.568408 2.742094 20.169259 20.516208 -0.818092 0.184168 0.035564 -0.016727 -783234.000000 1 0 0
-3.781508 11.270394 11.100959 16.265081 -1.247074 0.819615 0.010493 -0.013588 -844649.000000 1 0 0
-4.160008 -4.855806 14.963959 16.272818 0.862421 0.403817 0.015301 -0.011376 337611.000000 1 0 0
-0.095308 -14.296806 13.272559 19.508167 1.564130 0.822544 0.005738 -0.009808 -999753.000000 1 0 0
-12.161308 0.440394 8.354859 14.761268 -0.036197 0.969152 0.006132 -0.005755 -966134.000000 1 0 0
-7.769108 1.964094 15.555959 17.498702 -0.247620 0.475688 0.003593 0.000994 -1013260.000000 1 0 0
3.657892 -2.322306 18.511559 19.011867 -0.565669 0.229921 0.036280 -0.018788 -377391.000000 1 0 0
-2.237708 4.878494 12.710559 13.797295 -1.140741 0.399551 0.000134 -0.001685 -345316.000000 1 0 0
-10.328508 -6.121206 13.271359 17.896263 0.534999 0.735386 0.024945 -0.014883 -63581.000000 1 0 0
2.357492 -3.782906 14.307259 14.985520 -1.013495 0.302016 0.010531 -0.010374 -1001970.000000 1 0 0
6.824092 1.105694 17.172459 18.511729 0.160632 0.382718 0.050736 -0.013165 187264.000000 1 0 0
-1.965208 -5.762106 13.870659 15.147907 1.242110 0.413596 0.006219 -0.007559 -664562.000000 1 0 0
-12.747308 3.755794 14.685659 19.805768 -0.286527 0.735517 0.005668 -0.006073 134466.000000 1 0 0
-13.378008 -6.372406 13.430859 19.999166 0.444537 0.834469 0.055386 -0.029965 -72176.400000 1 0 0
-9.572308 6.836394 12.101359 16.876263 -0.620182 0.771216 0.001985 -0.003233 -409184.000000 1 0 0
-1.060708 -2.556206 12.847959 13.142653 1.177465 0.212165 0.002387 -0.003066 315745.000000 1 0 0
0.152992 6.586394 15.350159 16.704232 1.547572 0.405416 0.013921 -0.010757 240659.000000 1 0 0
-16.512308 -0.510806 10.167059 19.398101 0.030925 1.019107 0.063161 -0.016877 457214.000000 1 0 0
-1.331908 2.720094 13.862959 14.189944 -1.115459 0.215093 0.004456 -0.004445 -2334660.000000 1 0 0
-11.198508 -3.273706 16.070159 19.858846 0.284409 0.627974 0.036783 -0.017582 -142115.000000 1 0 0
-5.085908 -1.530606 17.079559 17.886323 0.292329 0.301491 0.025439 -0.009750 209965.000000 1 0 0
-11.904608 6.579894 11.246759 17.649484 -0.504928 0.879899 0.016905 -0.006573 -1944810.000000 1 0 0
-2.915008 4.756294 18.504159 19.326756 -1.020964 0.292807 0.035253 -0.016818 44060.300000 1 0 0
5.117492 -1.905206 16.457259 17.339547 -0.356395 0.320376 0.038225 -0.021093 -1742490.000000 1 0 0
-8.013108 -4.009606 12.109559 15.064138 0.463952 0.637029 0.019446 -0.004553 -2468740.000000 1 0 0
-11.752808 -0.771006 16.213659 20.040102 0.065508 0.628244 0.041771 -0.006840 127853.000000 1 0 0
2.087192 2.041094 17.441559 17.684185 0.774232 0.165840 0.011187 -0.016181 -1495310.000000 1 0 0
-8.947008 -7.460306 11.688659 16.502420 0.695033 0.783710 0.018938 -0.008553 374128.000000 1 0 0
-7.106108 6.985394 14.644459 17.713065 -0.776832 0.597472 -0.008777 -0.007522 -1003580.000000 1 0 0
-5.691308 3.478294 15.850759 17.196979 -0.548584 0.398310 0.004027 -0.002605 415540.000000 1 0 0
-9.395408 4.237494 11.550859 15.480710 -0.423700 0.728543 -0.004436 -0.004505 -443379.000000 1 0 0
-10.316208 0.045494 14.122959 17.489545 -0.004410 0.630880 0.010680 -0.003597 -394285.000000 1 0 0
8.189892 -0.708906 15.837459 17.843822 -0.086344 0.478775 0.052941 -0.017939 103047.000000 1 0 0
-8.664308 -7.471506 14.795859 18.703237 0.711610 0.658215 0.046920 -0.013894 411898.000000 1 0 0
0.034592 4.046394 15.782859 16.293346 1.562248 0.250982 0.011755 -0.013406 44564.800000 1 0 0
-8.042808 3.096494 9.679559 12.960282 -0.367510 0.727464 -0.003051 0.000948 -272742.000000 1 0 0
-2.027308 -9.577706 13.229159 16.457615 1.362206 0.637087 0.002561 -0.007743 580811.000000 1 0 0
-6.061108 10.286794 10.482159 15.888071 -1.038346 0.850310 0.012420 -0.011857 -3769710.000000 1 0 0
-8.590008 -2.744706 15.733859 18.134938 0.309270 0.520442 0.021560 -0.011200 508302.000000 1 0 0
4.377292 5.533794 17.687259 19.042654 0.901561 0.379572 0.023744 -0.020934 -225685.000000 1 0 0
-6.786408 -0.980406 15.279259 16.747307 0.143474 0.421830 0.011374 -0.000554 -813354.000000 1 0 0
-0.815408 -9.910606 15.574359 18.478248 1.488705 0.568242 0.000316 -0.006961 -1092550.000000 1 0 0
-4.436808 5.863094 16.061759 17.664689 -0.922999 0.429299 0.009777 -0.008920 280524.000000 1 0 0
3.830592 0.000194 17.467959 17.883037 0.000051 0.215875 0.029289 -0.017740 -295088.000000 1 0 0
1.398492 0.165394 19.250859 19.302298 0.117719 0.073022 0.014232 -0.014244 -753096.000000 1 0 0
-6.367208 6.486594 17.788859 19.976505 -0.794686 0.472377 0.003527 -0.005484 -548796.000000 1 0 0
-12.116108 0.551794 10.959159 16.346490 -0.045511 0.836010 0.013190 -0.007873 -956330.000000 1 0 0
-5.509008 5.021394 13.827959 15.709106 -0.739126 0.494405 -0.003140 -0.000456 -886700.000000 1 0 0
-8.674608 -9.462206 10.067959 16.313981 0.828796 0.905698 0.016083 -0.005951 -1655930.000000 1 0 0
6.718592 -3.762806 17.000859 18.663531 -0.510533 0.425304 0.043127 -0.020852 -1676790.000000 1 0 0
-16.544708 1.936694 9.275459 19.065998 -0.116528 1.062726 0.049228 -0.027546 229640.000000 1 0 0
-4.161008 -9.415406 11.543959 15.466960 1.154669 0.728217 0.008003 -0.009652 416525.000000 1 0 0
-11.054308 -3.805906 9.150659 14.846455 0.331580 0.906693 0.019090 -0.001922 -134838.000000 1 0 0
3.558092 -5.225406 18.476859 19.528420 -0.972990 0.329661 0.025117 -0.029337 -471101.000000 1 0 0
2.547492 -1.790006 16.101759 16.400014 -0.612505 0.191006 0.013736 -0.014878 -378132.000000 1 0 0
-3.265908 -4.345506 20.229559 20.947187 0.926298 0.262512 0.036134 -0.026749 -448618.000000 1 0 0
-6.336708 -3.334006 14.362959 16.048802 0.484342 0.462466 0.017132 -0.005430 541441.000000 1 0 0
-9.462908 5.096994 14.046559 17.687052 -0.494071 0.653153 0.008382 -0.001750 20860.700000 1 0 0
-5.901108 -5.144006 11.644859 14.031629 0.716959 0.591867 0.010038 -0.002110 -420809.000000 1 0 0
6.100492 2.193594 19.452959 20.504767 0.345181 0.321684 0.067372 -0.022304 205471.000000 1 0 0
-2.804508 11.873394 13.445859 18.155822 -1.338846 0.736862 0.023541 -0.022658 -2108490.000000 1 0 0
3.393792 1.368694 15.249359 15.682286 0.383342 0.235517 0.012180 -0.012599 -543799.000000 1 0 0
-5.461908 7.174494 12.569259 15.469068 -0.920105 0.622297 -0.015907 -0.012241 -1696060.000000 1 0 0
-1.847308 -1.859206 15.286459 15.509514 0.788608 0.169802 0.010712 -0.005112 134431.000000 1 0 0
-7.339208 10.820894 13.973259 19.136553 -0.974821 0.752201 0.026283 -0.021163 158490.000000 1 0 0
-10.162308 2.057994 10.577759 14.812050 -0.199810 0.775413 -0.006014 -0.001616 -825014.000000 1 0 0
-13.804808 5.126794 9.272159 17.402002 -0.355591 1.008865 0.010304 -0.008091 229493.000000 1 0 0
0.578092 -4.548406 20.108659 20.624751 -1.444377 0.224179 0.040123 -0.035207 -200913.000000 1 0 0
-14.385708 -2.957406 7.465459 16.475070 0.202755 1.100515 0.037554 -0.011861 -120881.000000 1 0 0
-2.305408 2.395094 17.630559 17.941237 -0.804476 0.186369 0.020865 -0.012240 285112.000000 1 0 0
-6.208008 -8.533406 14.832759 18.203547 0.941855 0.618364 0.020735 -0.004423 -73552.600000 1 0 0
-7.980108 1.973194 12.075459 14.607954 -0.242402 0.597693 -0.002154 -0.002647 439051.000000 1 0 0
-14.507908 -3.525506 10.091459 18.020714 0.238385 0.976420 0.036698 -0.013840 -108079.000000 1 0 0
-0.401408 6.818294 12.836659 14.540635 -1.511992 0.488979 0.009416 -0.007232 717804.000000 1 0 0
-1.801808 -2.301006 19.218159 19.439104 0.906475 0.150915 0.030002 -0.026058 -243846.000000 1 0 0
-12.895408 10.390694 7.208859 18.061720 -0.678247 1.160235 0.010981 -0.018453 -640383.000000 1 0 0
-19.482808 1.846594 6.823259 20.725506 -0.094498 1.235319 0.089145 -0.039558 -419788.000000 1 0 0
-16.289608 8.285694 6.735859 19.477573 -0.470543 1.217677 0.033514 -0.010223 289681.000000 1 0 0
-12.250808 7.464094 13.643859 19.797724 -0.547210 0.810463 0.015547 -0.005711 -31341.200000 1 0 0
-16.080608 8.332394 10.432759 20.901129 -0.478073 1.048181 0.043429 -0.005885 571686.000000 1 0 0
1.812992 10.804694 15.018059 18.589525 1.404548 0.630255 0.032703 -0.023204 -725012.000000 1 0 0
2.238692 14.334594 12.657459 19.253664 1.415874 0.853426 0.027045 -0.010833 -408581.000000 1 0 0
-3.203308 13.766894 11.699059 18.348202 -1.342182 0.879400 0.010691 -0.015285 174362.000000 1 0 0
9.191092 4.709694 15.610859 18.717807 0.473534 0.584458 0.051884 -0.010289 -266495.000000 1 0 0
-0.397408 12.583594 12.760359 17.925722 -1.539225 0.778673 0.019254 -0.013755 105895.000000 1 0 0
3.735192 13.276094 14.547859 20.046110 1.296539 0.758716 0.034252 -0.016873 70082.500000 1 0 0
-2.800608 -4.148506 -13.748141 14.630957 0.976986 2.792435 0.003194 -0.007678 -484074.000000 1 0 0
6.080592 -11.498906 16.263159 20.825196 -1.084377 0.674632 0.016559 -0.007460 564575.000000 1 0 0
7.805792 -13.554206 7.324559 17.271249 -1.048290 1.132840 0.005404 -0.002673 225395.000000 1 0 0
-0.269808 15.465794 1.189359 15.513805 -1.553353 1.494056 0.013245 -0.012653 -1660330.000000 1 0 0
-13.852008 8.072694 8.932659 18.353172 -0.527663 1.062478 0.010109 -0.011810 655530.000000 1 0 0
-15.430908 -9.759906 5.077359 18.951208 0.563968 1.299566 0.035131 -0.004040 -556997.000000 1 0 0
9.472992 -11.046006 11.138159 18.325131 -0.861910 0.917499 0.028815 -0.009055 38685.000000 1 0 0
-5.788808 -10.175106 -16.635441 20.341608 1.053544 2.528381 0.027100 -0.007624 -108616.000000 1 0 0
-1.650008 -12.872706 -14.800541 19.684642 1.443313 2.421709 0.024860 -0.003978 -143067.000000 1 0 0
5.444692 -15.568906 -12.872441 20.922124 -1.234375 2.233506 0.031563 0.000158 153791.000000 1 0 0
1.233892 -11.930906 -16.419741 20.334132 -1.467743 2.510692 0.026064 -0.006810 173309.000000 1 0 0
0.368292 -14.152506 -14.221741 20.067063 -1.544779 2.358465 0.028478 0.004954 196360.000000 1 0 0
-6.541108 -5.925406 -14.471841 16.950833 0.736050 2.593949 0.012765 -0.005282 -85427.000000 1 0 0
-6.395208 -8.028106 -17.404541 20.205624 0.898131 2.608759 0.025826 -0.005412 -12705.000000 1 0 0
-2.240508 -16.478506 -13.006441 21.112285 1.435659 2.234528 0.030171 -0.011023 269579.000000 1 0 0
16.735892 -8.064206 -8.405541 20.390552 -0.449023 1.995694 0.109515 -0.013484 -113794.000000 1 0 0
19.457392 -2.798906 -4.018641 20.064233 -0.142868 1.772449 0.122000 -0.012829 172028.000000 1 0 0
15.520192 -11.497206 -9.190041 21.389693 -0.637581 2.014899 0.049437 -0.003196 -436.341000 1 0 0
18.731292 -2.783806 -6.564041 20.042393 -0.147538 1.904461 0.203209 -0.001575 -312264.000000 1 0 0
9.194592 -9.775006 -16.061141 20.929680 -0.815986 2.445550 0.083411 -0.006185 105279.000000 1 0 0
-4.779708 9.563594 -15.995241 19.239430 -1.107323 2.552379 0.016555 -0.007333 328371.000000 1 0 0
2.677292 -9.495406 -18.479241 20.947864 -1.295974 2.651213 0.045370 -0.005000 289151.000000 1 0 0
11.411892 9.280794 -14.865741 20.913026 0.682772 2.361483 0.102268 -0.022668 348811.000000 1 0 0
18.563192 -5.287506 -8.614441 21.136660 -0.277490 1.990576 0.099378 -0.012424 241802.000000 1 0 0
12.263092 5.313794 -14.220541 19.515215 0.408893 2.387203 0.059591 -0.000044 154296.000000 1 0 0
15.587992 6.620794 -10.478541 19.915326 0.401648 2.124869 0.023132 -0.021010 138122.000000 1 0 0
3.156092 -0.265606 -19.466841 19.722813 -0.083959 2.980306 0.045523 -0.004906 175560.000000 1 0 0
10.341092 -1.594206 -14.625441 17.982858 -0.152958 2.520596 0.043020 -0.009607 14624.700000 1 0 0
12.429192 -5.951406 -13.909641 19.580147 -0.446564 2.360856 0.071741 0.000282 145380.000000 1 0 0
10.095792 6.560694 -12.987241 17.709775 0.576266 2.394014 0.038978 -0.002644 512366.000000 1 0 0
10.867892 5.100494 -16.401941 20.326086 0.438802 2.509750 0.082775 -0.020095 501284.000000 1 0 0
11.894692 -10.020606 -15.103041 21.679439 -0.700091 2.341517 0.099545 -0.022715 151806.000000 1 0 0
-1.282508 2.157894 -17.198541 17.380770 -1.034554 2.996659 0.020597 -0.011402 295828.000000 1 0 0
6.636892 -1.004406 -17.121241 18.390053 -0.150197 2.767954 0.034411 0.000014 58517.000000 1 0 0
6.301592 -5.727906 -15.779541 17.930780 -0.737744 2.646712 0.008401 -0.010124 286271.000000 1 0 0
-2.402108 -4.762506 -20.219341 20.911082 1.103652 2.883662 0.066600 -0.030155 343064.000000 1 0 0
16.085792 -0.207506 -13.579741 21.052437 -0.012899 2.271877 0.104781 -0.013196 113311.000000 1 0 0
-4.092508 -0.449606 -18.291241 18.748874 0.109422 2.920195 0.026457 -0.016850 124582.000000 1 0 0
3.566792 8.640194 -17.961741 20.248434 1.179293 2.661751 0.046992 -0.017364 129648.000000 1 0 0
9.309092 -0.172606 -17.576641 19.890382 -0.018540 2.654453 0.060285 -0.006183 -27992.700000 1 0 0
4.218492 4.595494 -18.335141 19.367283 0.828145 2.813650 0.032287 -0.004877 520448.000000 1 0 0
-2.712608 -11.193406 -17.822041 21.219702 1.333040 2.567862 0.054885 -0.021198 104647.000000 1 0 0
5.995092 -9.655206 -16.167241 19.762182 -1.015138 2.528878 0.027500 -0.005696 114314.000000 1 0 0
10.241492 -12.200506 -10.675341 19.175594 -0.872470 2.161222 0.039745 -0.009494 281936.000000 1 0 0
6.286292 7.135594 -17.062941 19.534025 0.848591 2.633139 0.054149 -0.005451 470166.000000 1 0 0
8.085292 1.121494 -20.228241 21.813102 0.137828 2.758047 0.051822 -0.017904 16563.000000 1 0 0
-1.201608 -0.547606 -20.170441 20.213620 0.427607 3.076219 0.056649 -0.014598 198988.000000 1 0 0
-0.566408 6.719794 -19.742441 20.862417 -1.486706 2.812439 0.036790 0.001373 97146.700000 1 0 0
9.089592 6.049894 -18.025241 21.074421 0.587253 2.596952 0.095787 -0.023501 207361.000000 1 0 0
12.094992 0.208794 -12.994341 17.753459 0.017261 2.391951 0.024280 -0.001047 -224626.000000 1 0 0
-4.573008 -3.055006 -19.812741 20.561862 0.588961 2.870831 0.045711 -0.009781 265441.000000 1 0 0
6.078092 -11.435706 -14.557041 19.483994 -1.082266 2.414527 0.021667 -0.005211 -3958.280000 1 0 0
11.247292 1.710294 -16.086041 19.702472 0.150907 2.526029 0.054486 -0.000357 36454.500000 1 0 0
-3.013808 -4.505506 -16.929241 17.775878 0.981238 2.831717 0.026044 -0.014223 450210.000000 1 0 0
-7.057508 -5.176206 -17.313941 19.400363 0.632813 2.673553 0.035547 -0.010464 94317.200000 1 0 0
3.079092 10.575794 -15.599641 19.096518 1.287483 2.526784 0.015593 -0.007777 231344.000000 1 0 0
16.972592 -6.444906 -10.867441 21.159087 -0.362906 2.110179 0.116815 -0.008815 -127169.000000 1 0 0
9.771592 -3.421606 -17.683141 20.491093 -0.336816 2.611910 0.062638 -0.017350 108267.000000 1 0 0
-7.418408 -1.825006 -18.912641 20.397339 0.241220 2.757693 0.023734 0.000002 635747.000000 1 0 0
1.772492 -7.381506 -19.274041 20.715140 -1.335132 2.766388 0.057817 -0.021130 238892.000000 1 0 0
5.680892 10.050994 -14.650341 18.652815 1.056353 2.474175 0.046986 -0.013335 451105.000000 1 0 0
5.780692 -3.393806 -18.296241 19.485553 -0.530875 2.790404 0.038003 -0.012776 386764.000000 1 0 0
4.560092 13.554894 -14.277541 20.208359 1.246273 2.355360 0.047422 -0.023270 -112191.000000 1 0 0
9.468192 11.188594 -15.452641 21.298249 0.868491 2.382609 0.111804 -0.028333 164113.000000 1 0 0
16.786792 0.831694 -11.304941 20.255611 0.049504 2.162908 0.112450 -0.017327 82168.300000 1 0 0
15.048892 -2.991706 -12.160141 19.577755 -0.196241 2.240968 0.115759 -0.017059 -63558.000000 1 0 0
-8.739608 0.341794 -17.453641 19.522479 -0.039089 2.677053 0.018546 -0.010325 445047.000000 1 0 0
-3.393808 4.201194 -19.111241 19.859695 -0.891305 2.866179 0.034078 0.000029 96203.200000 1 0 0
4.192992 2.122694 -16.837141 17.480742 0.468633 2.869395 0.021485 -0.008008 474273.000000 1 0 0
-5.273508 14.393994 -13.749841 20.592598 -1.219614 2.301922 0.034549 -0.015026 239663.000000 1 0 0
0.993092 9.407094 -17.712441 20.080095 1.465618 2.651076 0.022454 -0.005930 339711.000000 1 0 0
1.281992 -5.100606 -19.650241 20.341870 -1.324556 2.880079 0.057153 -0.013269 353484.000000 1 0 0
3.937292 -6.236706 -18.255941 19.689544 -1.007673 2.757636 0.050306 -0.014580 117523.000000 1 0 0
-7.153208 7.368694 -15.897341 18.925948 -0.800236 2.568035 0.014129 -0.001228 59551.300000 1 0 0
-11.858308 3.123594 -16.892641 20.874330 -0.257559 2.513678 0.045789 -0.021807 309932.000000 1 0 0
-4.350908 6.589994 -17.310741 19.026828 -0.987263 2.713615 0.013851 0.006540 438136.000000 1 0 0
-8.059908 4.870394 -18.098741 20.402139 -0.543556 2.661821 0.014162 0.002515 273102.000000 1 0 0
-8.394208 4.274394 -15.020741 17.730083 -0.470986 2.581469 -0.008312 -0.015811 530736.000000 1 0 0
9.536092 13.646694 -13.017341 21.133397 0.960887 2.234401 0.101211 -0.038697 389891.000000 1 0 0
14.707892 9.562994 -11.945141 21.224027 0.576512 2.168580 0.127383 -0.025831 126620.000000 1 0 0
8.369092 15.697894 -9.853441 20.336073 1.080994 2.076622 0.067186 -0.022540 8455.800000 1 0 0
7.789392 13.271394 -14.457841 21.114774 1.040042 2.325024 0.097788 -0.040986 138051.000000 1 0 0
3.785592 15.777894 -12.867041 20.708292 1.335317 2.241257 0.059511 -0.019386 215121.000000 1 0 0
11.305992 11.193294 -10.811841 19.235675 0.780389 2.167686 0.101383 -0.048579 320649.000000 1 0 0
15.777492 10.896894 -9.107741 21.227870 0.604430 2.014233 0.081349 -0.042372 226477.000000 1 0 0
13.006292 10.571394 -8.412741 18.753458 0.682492 2.035991 0.096711 -0.047630 229320.000000 1 0 0
10.409992 11.608994 -7.520241 17.311577 0.839798 2.020174 0.051831 -0.018019 -85159.000000 1 0 0
6.145592 16.839794 -10.212241 20.630967 1.220870 2.088626 0.086660 -0.015830 30675.600000 1 0 0
11.044692 13.647194 -10.553141 20.484138 0.890410 2.112021 0.122059 -0.052080 14006.100000 1 0 0
8.528292 -19.360306 -1.996241 21.249428 -1.155867 1.664878 0.045202 -0.011720 160331.000000 1 0 0
7.748892 -17.289706 -4.210341 19.408922 -1.149457 1.789463 0.023917 0.003478 148211.000000 1 0 0
4.070592 -18.863906 5.437159 20.049423 -1.358268 1.296169 0.064490 -0.017578 272003.000000 1 0 0
10.369192 -17.813506 -2.568641 20.771111 -1.043645 1.694778 0.044972 -0.008986 665726.000000 1 0 0
-3.023408 -14.591806 7.946959 16.888338 1.366488 1.080872 0.016069 -0.039826 55405.400000 1 0 0
-15.329008 -12.777806 -4.178641 20.389014 0.694878 1.777205 0.061040 -0.011238 280060.000000 1 0 0
-9.000508 -13.005406 -7.129541 17.348778 0.965420 1.994296 0.030843 -0.005231 151798.000000 1 0 0
-11.426808 -15.454206 6.989259 20.451264 0.934115 1.222016 0.039732 -0.008616 168698.000000 1 0 0
-14.926008 -8.583706 -8.257341 19.095796 0.521897 2.017968 0.061843 -0.010156 41446.300000 1 0 0
4.408292 -14.894806 6.374859 16.790685 -1.283049 1.181361 0.029165 -0.020993 140785.000000 1 0 0
2.607992 -13.815006 9.143759 16.770938 -1.384213 0.994151 0.011085 -0.015111 281642.000000 1 0 0
3.360392 -17.080006 9.987759 20.069235 -1.376533 1.049892 0.051686 -0.026996 197551.000000 1 0 0
-8.795708 -17.996806 -5.014941 20.649435 1.116200 1.816110 0.069948 -0.018154 -44448.400000 1 0 0
2.361792 -19.765806 -4.078641 20.319953 -1.451871 1.772890 0.047251 -0.017615 140179.000000 1 0 0
-18.573808 -10.110006 -2.139041 21.254978 0.498468 1.671604 0.057835 -0.017743 -83874.700000 1 0 0
-4.146608 -14.927306 2.955259 15.771886 1.299841 1.382307 0.003341 -0.003538 109530.000000 1 0 0
-10.790408 -9.901906 -14.433841 20.562501 0.742486 2.348928 0.048863 -0.013141 101890.000000 1 0 0
0.294292 -20.275606 2.781259 20.467590 -1.556283 1.434489 0.028142 -0.012922 302499.000000 1 0 0
7.037292 -18.082606 0.845659 19.422133 -1.199657 1.527242 0.053429 -0.016117 217233.000000 1 0 0
-6.896508 -17.819906 -3.112341 19.359689 1.201537 1.732261 0.010851 -0.056465 243438.000000 1 0 0
-9.046408 -16.152306 -7.465341 19.961609 1.060255 1.954098 0.064459 -0.012931 98254.900000 1 0 0
-11.736908 -11.413406 -12.186341 20.409012 0.771425 2.210685 0.035207 -0.000030 232204.000000 1 0 0
-13.249108 -15.215106 -3.421141 20.463200 0.854358 1.738770 0.060213 -0.015070 168262.000000 1 0 0
-0.211108 -20.790206 -2.941241 20.998289 1.560642 1.711329 0.065548 -0.016740 368301.000000 1 0 0
-11.671308 -16.862006 -0.694741 20.519000 0.965347 1.604661 0.055915 -0.019402 19457.000000 1 0 0
0.846892 -20.052506 5.363359 20.774645 -1.528588 1.309670 0.051728 -0.022254 161454.000000 1 0 0
-18.365908 -8.978306 2.516059 20.597260 0.454694 1.448335 0.055133 -0.002563 -285263.000000 1 0 0
-15.173108 -14.985506 -0.877041 21.343801 0.779178 1.611899 0.078954 -0.013551 -4050.020000 1 0 0
10.316792 -15.638006 -4.986941 19.386929 -0.987615 1.830953 0.026244 0.002917 2857.100000 1 0 0
0.407692 -18.881006 -7.195541 20.209761 -1.549207 1.934826 0.067144 -0.019792 166662.000000 1 0 0
-9.886208 -18.712106 -2.373141 21.295818 1.084741 1.682465 0.056796 0.033873 362480.000000 1 0 0
-14.756708 -6.774306 -11.384841 19.830943 0.430368 2.182295 0.066124 -0.016924 124418.000000 1 0 0
-12.641708 -15.285606 1.714559 19.909854 0.879788 1.484573 0.060796 -0.019769 149703.000000 1 0 0
-2.086008 -15.713206 9.807159 18.639653 1.438813 1.016735 0.006513 -0.031089 440265.000000 1 0 0
-12.769608 -14.254506 -6.240041 20.129381 0.840290 1.885986 0.075152 -0.022207 228481.000000 1 0 0
5.616392 -16.930006 -7.370741 19.300176 -1.250479 1.962648 0.034802 -0.009092 213501.000000 1 0 0
-16.998608 -7.288106 -2.811941 18.707651 0.405040 1.721678 -0.034244 -0.005376 -242424.000000 1 0 0
-12.261908 -13.561506 -9.042941 20.397148 0.835682 2.030122 0.078784 -0.033630 207262.000000 1 0 0
-7.878108 -13.611506 10.171159 18.729393 1.046124 0.996721 0.025228 -0.008335 398029.000000 1 0 0
-15.579908 -8.087306 -5.776141 18.479769 0.478799 1.888689 0.022815 -0.003129 160207.000000 1 0 0
-0.566508 -19.638406 -0.088241 19.646774 1.541957 1.575288 0.027904 -0.012430 118643.000000 1 0 0
-14.816208 -11.463406 -1.806441 18.820015 0.658502 1.666929 0.011654 0.002242 136374.000000 1 0 0
-6.957008 -19.028006 2.039459 20.362328 1.220275 1.470470 0.023548 -0.019337 44400.000000 1 0 0
-2.084808 -20.465606 -5.768241 21.364926 1.469278 1.844175 0.081502 -0.023229 73910.300000 1 0 0
-9.083708 -18.528806 0.433759 20.640217 1.114981 1.549780 0.061070 -0.066371 8629.410000 1 0 0
-17.695008 -7.760406 5.067859 19.975496 0.413304 1.314289 0.051686 -0.009547 -39554.200000 1 0 0
-2.655908 -15.790606 -10.699541 19.258174 1.404161 2.159862 0.017811 -0.009501 126435.000000 1 0 0
-2.947208 -18.151006 -8.609741 20.304500 1.409829 2.008688 0.033429 -0.016679 224844.000000 1 0 0
4.401992 -16.751006 -4.728241 17.953552 -1.313817 1.837299 0.014688 -0.031089 492184.000000 1 0 0
0.812892 -17.217606 -10.046841 19.951085 -1.523619 2.098527 0.046192 -0.004033 -32650.300000 1 0 0
-7.630708 -10.246406 -15.067741 19.754832 0.930683 2.438331 0.011313 0.002009 491576.000000 1 0 0
-4.944908 -19.547906 -2.204641 20.283816 1.323030 1.679701 0.044061 -0.024388 335485.000000 1 0 0
-9.600708 -16.099206 8.616359 20.630068 1.033067 1.139928 0.020093 -0.008008 139914.000000 1 0 0
-6.927008 -15.431106 -10.347041 19.828357 1.148858 2.119792 0.011580 -0.010384 240289.000000 1 0 0
-12.684708 -8.101706 -12.426941 19.518410 0.568389 2.260979 0.050881 -0.008820 231195.000000 1 0 0
-15.719008 -13.015506 3.237859 20.663358 0.691589 1.413452 0.055456 -0.007802 217576.000000 1 0 0
-6.184608 -14.477206 -13.425041 20.689868 1.167067 2.276895 0.004701 -0.003388 387294.000000 1 0 0
-13.785908 -11.270306 -6.680241 19.018325 0.685335 1.929705 0.052902 -0.021041 321929.000000 1 0 0
-11.195008 -10.274606 -9.160041 17.742663 0.742554 2.113289 0.015486 -0.004065 -6410.460000 1 0 0
-10.071608 -15.279806 3.810059 18.692949 0.988019 1.365535 0.012869 0.008404 654411.000000 1 0 0
5.238292 -17.806806 8.121059 20.260149 -1.284693 1.158364 0.073481 -0.037552 220691.000000 1 0 0
-4.816808 -16.813406 5.455959 18.321020 1.291783 1.268411 0.001177 0.003768 349349.000000 1 0 0
-18.478408 -7.330606 -7.248741 21.159717 0.377669 1.920450 0.062963 -0.009915 -61166.600000 1 0 0
-16.871008 -3.812006 -11.065341 20.533000 0.222219 2.139933 0.064684 -0.009095 -767194.000000 1 0 0
-15.481308 -4.549806 -13.266541 20.889537 0.285842 2.258909 0.049654 -0.011038 398941.000000 1 0 0
-19.459108 -5.362806 -6.321941 21.151443 0.268918 1.874325 0.060810 -0.009740 -588377.000000 1 0 0
5.306292 -13.669406 8.869759 17.137153 -1.200515 1.026782 0.022773 -0.003011 240345.000000 1 0 0
19.672692 -3.419106 2.685759 20.147416 -0.172081 1.437093 0.068784 -0.009628 -335388.000000 1 0 0
18.166492 -2.289706 0.585859 18.319591 -0.125379 1.538811 0.052442 -0.020439 201933.000000 1 0 0
14.542092 -11.394006 0.279559 18.476308 -0.664611 1.555665 0.044970 0.001233 -40876.000000 1 0 0
11.311192 -13.874206 5.307359 18.670959 -0.886815 1.282565 0.043516 -0.000467 526611.000000 1 0 0
10.622592 -12.509806 8.262359 18.373929 -0.866801 1.104391 0.062227 -0.030856 88432.000000 1 0 0
18.538092 5.368994 -5.096041 19.961377 0.281906 1.828949 0.058747 0.005203 25160.100000 1 0 0
18.508292 -6.207606 -4.457641 20.024031 -0.323606 1.795292 0.054056 -0.011153 -152977.000000 1 0 0
17.828492 -9.956206 -0.392341 20.423885 -0.509303 1.590007 0.054038 -0.005999 315917.000000 1 0 0
17.762792 -8.726706 8.988259 21.736167 -0.456656 1.144484 0.157264 -0.027973 68642.700000 1 0 0
20.090092 0.518794 -2.406141 20.240317 0.025818 1.689957 0.124037 -0.002933 -41611.200000 1 0 0
7.460092 -13.473006 11.486159 19.212150 -1.065112 0.929969 0.025673 -0.000451 343783.000000 1 0 0
16.160392 -6.331506 -3.524041 17.710593 -0.373410 1.771113 0.052664 -0.001344 42498.400000 1 0 0
14.231492 -7.162606 10.962059 19.339209 -0.466278 0.968143 0.096133 -0.058303 314731.000000 1 0 0
17.224892 1.456694 9.317959 19.637800 0.084368 1.076411 0.168885 -0.039114 494467.000000 1 0 0
16.614592 -10.170506 2.663759 19.661624 -0.549300 1.434898 0.032672 -0.006809 185576.000000 1 0 0
16.176592 -7.077906 -5.784741 18.580692 -0.412444 1.887389 0.067942 -0.002839 100516.000000 1 0 0
18.391292 -4.339706 6.080459 19.850558 -0.231727 1.259480 0.147257 -0.017627 -32208.100000 1 0 0
13.275992 -13.418406 7.990359 20.497595 -0.790733 1.170361 0.072743 -0.019748 152865.000000 1 0 0
15.214492 -14.350606 -1.870541 20.998085 -0.756187 1.659996 0.042617 0.000977 87628.700000 1 0 0
18.702192 -6.493606 8.072659 21.380054 -0.334188 1.183616 0.156045 -0.032042 256247.000000 1 0 0
19.694692 3.588594 2.387859 20.160872 0.180234 1.452077 0.080019 -0.005149 300711.000000 1 0 0
15.885992 -10.627906 7.997959 20.719181 -0.589624 1.174486 0.112276 -0.043541 55039.300000 1 0 0
13.943592 -4.478006 10.724559 18.151927 -0.310747 0.938719 0.080077 -0.018021 -332827.000000 1 0 0
18.801792 -7.622106 1.908459 20.377588 -0.385146 1.477004 0.082166 -0.014034 67983.100000 1 0 0
19.214892 -5.769706 -1.462841 20.115702 -0.291707 1.643582 0.077381 -0.008471 132824.000000 1 0 0
14.743892 -13.561006 -6.280941 20.993653 -0.743632 1.874633 0.066346 -0.006880 585103.000000 1 0 0
13.734992 -9.694406 10.507059 19.824979 -0.614620 1.012206 0.064267 -0.014125 353989.000000 1 0 0
14.283792 2.380494 0.463059 14.488198 0.165139 1.538830 -0.000318 -0.000183 -117417.000000 1 0 0
12.950692 2.187894 13.596059 18.903971 0.167360 0.768121 0.070430 -0.011487 11257.900000 1 0 0
18.434092 -3.342006 9.004559 20.786217 -0.179347 1.122758 0.142842 -0.028470 180503.000000 1 0 0
7.485092 -18.225506 5.402659 20.429988 -1.181106 1.303165 0.080865 -0.029105 428406.000000 1 0 0
12.960592 -2.607806 15.122259 20.086321 -0.198559 0.718394 0.092277 -0.007199 318633.000000 1 0 0
11.317792 -13.347506 -7.009641 18.851615 -0.867503 1.951778 0.032532 -0.013163 61951.500000 1 0 0
10.759692 -17.661406 4.186959 21.100400 -1.023625 1.371040 0.066500 -0.019530 553966.000000 1 0 0
18.427092 -0.103906 -4.989241 19.090862 -0.005639 1.835208 0.106364 -0.007642 208539.000000 1 0 0
4.384792 -13.723406 11.733159 18.580239 -1.261536 0.887328 0.008434 -0.005568 181717.000000 1 0 0
9.408892 -2.727706 14.524959 17.519762 -0.282172 0.593369 0.049639 -0.009769 429554.000000 1 0 0
9.184492 -9.435406 14.184759 19.354306 -0.798873 0.748222 0.046519 -0.008371 318695.000000 1 0 0
20.838192 6.117594 -2.861241 21.905293 0.285553 1.701789 0.136824 -0.008754 395126.000000 1 0 0
14.956092 -13.536606 2.077259 20.279038 -0.735620 1.468183 0.051995 -0.001952 230944.000000 1 0 0
11.965092 -0.039106 15.211759 19.353619 -0.003268 0.666500 0.089072 -0.013215 1462.260000 1 0 0
19.958192 -0.166806 7.581459 21.350310 -0.008358 1.207777 0.176226 -0.024673 153128.000000 1 0 0
20.093592 1.718394 0.139359 20.167417 0.085312 1.563886 0.106366 -0.001638 298742.000000 1 0 0
17.884892 0.563194 2.857859 18.120538 0.031480 1.412421 0.054531 -0.001421 10836.600000 1 0 0
10.181692 -8.322806 16.436459 21.049777 -0.685278 0.674791 0.056070 -0.016190 13141.200000 1 0 0
18.593792 3.184694 5.685059 19.702570 0.169631 1.278090 0.046410 0.000834 -98393.100000 1 0 0
15.545192 2.405294 7.005659 17.219689 0.153512 1.151804 0.067026 -0.010918 -7903.350000 1 0 0
11.329892 -16.014106 1.795559 19.698784 -0.955058 1.479519 0.034214 -0.001060 135846.000000 1 0 0
9.051792 -16.248706 7.080159 19.901860 -1.062535 1.207076 0.054041 -0.002345 210236.000000 1 0 0
6.112592 6.830994 7.247859 11.685791 0.840844 0.901763 0.005989 -0.001455 -1039120.000000 1 0 0
18.590592 2.377994 -6.488441 19.833427 0.127223 1.904079 0.095708 -0.001650 261376.000000 1 0 0
13.985392 4.510994 -7.418441 16.461273 0.312015 2.038301 0.009235 -0.000470 286491.000000 1 0 0
-10.480808 -4.006006 -13.677341 17.690820 0.365088 2.454561 0.018766 -0.006464 -471994.000000 1 0 0
7.728292 -13.806206 -10.597041 19.042981 -1.060484 2.160940 0.019683 -0.006395 -55845.200000 1 0 0
1.955392 -15.875306 13.691159 21.054613 -1.448242 0.862858 0.009616 -0.013384 390612.000000 1 0 0
-9.398308 -8.036006 2.150459 12.551099 0.707417 1.398610 0.007431 0.002173 348057.000000 1 0 0
-14.054508 3.166894 -9.799441 17.423762 -0.221628 2.168104 0.034261 -0.004120 205465.000000 1 0 0
-12.699308 -4.744306 -13.536841 19.157947 0.357532 2.355466 0.032683 -0.000451 166557.000000 1 0 0
-18.075108 -1.314706 -8.767441 20.132214 0.072608 2.021382 0.078862 -0.027863 395990.000000 1 0 0
-12.009508 15.399794 3.871059 19.908969 -0.908464 1.375112 0.032893 -0.020641 488049.000000 1 0 0
-17.492908 6.462094 8.981759 20.698611 -0.353863 1.121945 0.055513 -0.020170 201998.000000 1 0 0
-13.008908 15.250894 0.290759 20.047593 -0.864567 1.556292 0.042988 -0.034844 207826.000000 1 0 0
-16.279608 5.208394 -10.642741 20.135068 -0.309643 2.127708 0.059609 -0.007895 222672.000000 1 0 0
-18.447308 2.970294 -0.065841 18.685025 -0.159645 1.574320 0.083044 -0.006981 -105891.000000 1 0 0
-10.075608 15.380794 -0.197441 18.388194 -0.990860 1.581534 0.026309 -0.011993 78293.600000 1 0 0
-19.002708 11.731494 2.582259 22.481079 -0.553086 1.455679 0.169165 -0.036611 -144182.000000 1 0 0
-8.555508 16.239594 -7.831041 19.956110 -1.085916 1.974050 0.069356 -0.026406 135333.000000 1 0 0
-14.806708 -1.857606 -13.064141 19.833333 0.124805 2.289881 0.037811 -0.017708 270862.000000 1 0 0
-19.026808 5.211494 -4.495541 20.233363 -0.267346 1.794851 0.090472 -0.007199 -79875.900000 1 0 0
-16.704008 9.885494 -5.609741 20.204358 -0.534371 1.852143 0.044502 0.010548 62365.400000 1 0 0
-19.052408 1.195394 2.353359 19.234384 -0.062660 1.448137 0.089189 -0.024515 402318.000000 1 0 0
-14.764408 11.270294 -7.633941 20.081940 -0.651985 1.960744 0.049906 -0.016523 175467.000000 1 0 0
-12.874208 4.958694 -13.451441 19.268502 -0.367652 2.343544 0.037177 -0.018062 -4187.090000 1 0 0
-14.074708 9.187994 -6.796541 18.130351 -0.578342 1.955054 0.021982 -0.009163 268781.000000 1 0 0
-6.529908 11.097394 -15.384041 20.061420 -1.038936 2.444711 0.027299 -0.035090 127424.000000 1 0 0
-15.132708 13.974594 3.068259 20.825521 -0.745631 1.422926 0.052263 -0.027122 24276.600000 1 0 0
-18.680908 8.484094 -4.972341 21.111143 -0.426307 1.808562 0.079248 -0.012572 318198.000000 1 0 0
-4.668808 16.146894 -11.470041 20.349000 -1.289327 2.169614 0.028070 -0.003498 105632.000000 1 0 0
-19.545508 -2.169406 -6.795641 20.806585 0.110540 1.903511 0.052012 -0.010056 -267857.000000 1 0 0
-12.210508 13.697294 -6.505741 19.468873 -0.842723 1.911511 0.058085 -0.014133 176079.000000 1 0 0
-19.373708 2.674594 4.318259 20.028514 -0.137186 1.353484 0.093880 -0.028320 75079.000000 1 0 0
-15.296108 12.378294 0.454959 19.682481 -0.680353 1.547679 0.033942 -0.014423 220411.000000 1 0 0
-17.502408 2.592294 -8.214741 19.507339 -0.147042 2.005465 0.044313 -0.014343 93039.000000 1 0 0
-16.348008 14.021794 -4.340541 21.970625 -0.708951 1.769666 0.032634 0.028259 296836.000000 1 0 0
-11.388508 15.431794 -8.853741 21.124088 -0.935026 2.003283 0.069199 -0.022197 263745.000000 1 0 0
-19.141108 1.739494 -6.925741 20.429727 -0.090628 1.916653 0.067646 -0.018970 49824.300000 1 0 0
-17.236308 10.317194 -0.686741 20.099911 -0.539370 1.604969 0.049587 -0.010371 37964.800000 1 0 0
-11.722008 6.949494 -14.371641 19.805176 -0.535152 2.382776 0.025826 -0.017784 407073.000000 1 0 0
-13.368308 12.315094 -4.989341 18.848520 -0.744414 1.838697 0.039683 -0.014563 395464.000000 1 0 0
-18.995308 7.248094 0.049059 20.331232 -0.364521 1.568383 0.090456 -0.012362 128785.000000 1 0 0
-14.564608 8.400894 -10.558641 19.854162 -0.523187 2.131533 0.025590 0.001919 376513.000000 1 0 0
-18.432708 11.357894 5.052059 22.232629 -0.552233 1.341558 0.086988 -0.039388 86071.200000 1 0 0
-8.163708 11.962794 -13.604841 19.870739 -0.971963 2.324943 0.012473 -0.009279 411409.000000 1 0 0
-21.087408 -1.612506 -5.397041 21.826750 0.076319 1.820655 0.082148 -0.017324 76641.500000 1 0 0
-10.841308 13.507694 -3.656141 17.701952 -0.894471 1.778833 0.026005 0.001656 552143.000000 1 0 0
-18.619908 -4.988006 3.607059 19.611019 0.261740 1.385813 0.043577 -0.013574 -77997.300000 1 0 0
-11.429608 11.588194 -13.153541 20.926964 -0.792288 2.250478 0.039611 -0.010742 245962.000000 1 0 0
-14.614108 11.317494 -10.717841 21.366561 -0.658949 2.096264 0.048207 -0.018246 214641.000000 1 0 0
-12.675508 9.806594 -14.059641 21.319271 -0.658475 2.290924 0.054955 -0.016508 332074.000000 1 0 0
-17.894108 -4.936706 -3.161641 18.829927 0.269188 1.739501 -0.025067 -0.003748 -334503.000000 1 0 0
-9.525408 12.520994 -11.574141 19.531242 -0.920447 2.205075 0.036050 -0.018409 -14418.500000 1 0 0
-15.503308 7.584194 -8.360741 19.177449 -0.454969 2.021909 0.018690 -0.000506 63135.500000 1 0 0
-14.646508 8.772094 1.977459 17.186628 -0.539625 1.455483 0.022578 -0.001987 -22402.000000 1 0 0
-19.955308 5.962394 8.101359 22.347181 -0.290344 1.199823 0.095990 -0.025745 185840.000000 1 0 0
-18.607008 5.822694 3.613259 19.828771 -0.303277 1.387549 0.038569 -0.014581 94763.600000 1 0 0
-14.192908 13.089894 5.511659 20.078903 -0.744991 1.292727 0.022078 -0.023383 206613.000000 1 0 0
18.400192 6.050494 5.848259 20.233083 0.317690 1.277568 0.066073 -0.010735 426159.000000 1 0 0
18.141592 8.325194 0.296559 19.962819 0.430231 1.555940 0.032752 0.001356 1028.820000 1 0 0
15.908292 5.363994 8.982159 19.040098 0.325211 1.079522 0.047256 0.005344 8922.990000 1 0 0
12.128092 13.117094 10.727059 20.837911 0.824554 1.030039 0.057422 -0.015870 100463.000000 1 0 0
15.545392 12.323794 4.159759 20.269156 0.670312 1.364102 0.059066 -0.010148 229467.000000 1 0 0
5.696892 10.647194 14.447059 18.829095 1.079495 0.696218 0.033474 -0.003507 166747.000000 1 0 0
12.311092 14.333894 -5.260941 19.613796 0.861170 1.842348 0.065392 0.012528 246914.000000 1 0 0
17.652892 9.317494 -2.968941 20.180557 0.485653 1.718451 0.025986 -0.015967 -214200.000000 1 0 0
14.338392 7.677994 9.477559 18.824590 0.491631 1.043190 0.049469 -0.006684 137371.000000 1 0 0
4.509192 18.666494 -1.479741 19.260333 1.333771 1.647701 0.037491 -0.032419 538507.000000 1 0 0
-4.597308 18.708194 3.177459 19.525061 -1.329833 1.407332 0.014462 -0.028567 257960.000000 1 0 0
8.281392 13.122994 12.132159 19.697301 1.007851 0.907230 0.078636 -0.004033 97993.600000 1 0 0
0.031292 17.206694 -10.128641 19.966488 1.568978 2.102824 0.029233 0.003901 15018.100000 1 0 0
10.667192 9.310494 15.772159 21.195171 0.717592 0.731551 0.052900 -0.010427 -79797.600000 1 0 0
-1.412508 12.310594 0.388859 12.397464 -1.456557 1.539425 -0.000087 0.000521 431714.000000 1 0 0
-4.906308 19.190194 -2.580941 19.974900 -1.320491 1.700368 0.031118 0.002885 83992.600000 1 0 0
5.583992 18.680194 6.201459 20.459440 1.280325 1.262842 0.043532 -0.013767 233942.000000 1 0 0
11.384992 17.166494 -1.253241 20.636791 0.985191 1.631562 0.080400 -0.010048 459774.000000 1 0 0
18.481492 10.517294 3.498459 21.550364 0.517368 1.407736 0.050914 -0.010310 321290.000000 1 0 0
11.882892 16.708694 6.390759 21.476158 0.952606 1.268645 0.066321 -0.010313 -8106.640000 1 0 0
18.070492 7.917494 -6.356641 20.727669 0.412952 1.882493 0.045874 0.007308 529495.000000 1 0 0
-0.074408 15.134194 11.013159 18.717345 -1.565880 0.941726 0.017363 -0.011246 369246.000000 1 0 0
1.240092 19.999094 -1.743641 20.113226 1.508868 1.657597 0.033932 -0.024667 132401.000000 1 0 0
14.204492 9.667394 -1.220541 17.225440 0.597578 1.641713 0.031179 -0.013397 -38662.900000 1 0 0
10.470892 16.894894 1.944659 19.971447 1.015969 1.473270 0.065140 -0.022686 314265.000000 1 0 0
-0.146208 17.676694 -0.677441 17.690274 -1.562525 1.609100 0.017291 -0.013731 20691.700000 1 0 0
-0.196808 20.944594 0.892659 20.964531 -1.561400 1.528204 0.024278 -0.014701 225157.000000 1 0 0
6.965892 18.173594 0.284959 19.464952 1.204771 1.556156 0.033799 -0.009530 -44499.600000 1 0 0
6.738792 18.594194 -2.629241 19.951648 1.223106 1.702961 0.048969 -0.019400 98401.900000 1 0 0
10.294992 9.642494 12.753859 19.016452 0.752683 0.835678 0.032154 -0.002798 137252.000000 1 0 0
13.361592 14.886494 8.309859 21.660877 0.839328 1.177068 0.084076 -0.021849 113579.000000 1 0 0
0.134592 17.608994 7.012159 18.954291 1.563153 1.191840 0.014955 -0.004952 201771.000000 1 0 0
7.253692 18.014394 -7.745741 20.907676 1.187998 1.950315 0.059167 -0.015945 127464.000000 1 0 0
-1.523608 18.437394 9.114059 20.623407 -1.488347 1.113050 0.048110 -0.017927 203995.000000 1 0 0
16.144592 6.924694 -7.884341 19.255182 0.405184 1.992665 0.052320 -0.000690 -157828.000000 1 0 0
-5.317108 19.596494 -6.666441 21.371374 -1.305846 1.888023 0.026745 -0.015295 245098.000000 1 0 0
3.761192 15.523594 9.797659 18.738267 1.333088 1.020583 0.026988 -0.007618 241450.000000 1 0 0
8.995392 14.808294 7.386159 18.835020 1.024912 1.167828 0.031338 -0.010551 207931.000000 1 0 0
-2.492408 19.156694 6.476659 20.374938 -1.441417 1.247310 0.017388 -0.010236 40424.300000 1 0 0
4.737592 18.045194 8.507159 20.504769 1.314050 1.142978 0.033642 -0.007486 -73544.300000 1 0 0
14.587292 12.186994 -6.195841 19.992507 0.695988 1.885893 0.061962 -0.024036 155987.000000 1 0 0
11.911792 6.685294 15.698059 20.808964 0.511427 0.716073 0.078221 -0.014506 204360.000000 1 0 0
16.981392 9.245194 5.129659 20.003866 0.498557 1.311466 0.049002 -0.011327 110343.000000 1 0 0
5.390092 14.645794 13.323559 20.519980 1.218150 0.864137 0.031138 -0.000809 348531.000000 1 0 0
15.674092 10.557694 -3.572441 19.232898 0.592771 1.757628 0.052848 -0.031856 115601.000000 1 0 0
15.368892 14.354194 6.949359 22.148122 0.751273 1.251638 0.079006 0.008389 120697.000000 1 0 0
12.560392 14.640194 -8.526341 21.090216 0.861711 1.986987 0.131633 -0.038769 391124.000000 1 0 0
-8.612308 15.460894 9.533159 20.102045 -1.062566 1.076698 0.049481 -0.029332 129449.000000 1 0 0
-3.888908 17.676794 -8.039141 19.804556 -1.354245 1.988786 0.013237 0.039792 118883.000000 1 0 0
2.252992 19.004794 -4.778741 19.725479 1.452798 1.815493 0.043996 -0.036343 95716.100000 1 0 0
6.977292 16.803594 8.854859 20.234917 1.177233 1.117865 0.042106 -0.004145 409406.000000 1 0 0
13.254792 15.524094 -1.522541 20.469614 0.864088 1.645246 0.093726 -0.012470 220395.000000 1 0 0
13.049892 16.605694 4.395259 21.572367 0.904732 1.365615 0.080629 -0.024933 308467.000000 1 0 0
2.034792 18.097094 0.709159 18.224930 1.458829 1.531875 0.017416 -0.035707 -261730.000000 1 0 0
-7.845508 17.179394 1.315659 18.931839 -1.142400 1.501246 0.029203 -0.003181 375477.000000 1 0 0
-0.004608 19.951394 -5.797541 20.776660 -1.570565 1.853592 0.053260 -0.004429 299191.000000 1 0 0
-7.793708 18.042194 -6.477941 20.693631 -1.163036 1.889189 0.067589 -0.015488 198902.000000 1 0 0
-7.651708 18.406494 -1.283141 19.974837 -1.176823 1.635078 0.056028 -0.010736 302551.000000 1 0 0
-14.430008 -9.460206 8.837459 19.386112 0.580297 1.097452 0.064934 -0.010263 273213.000000 1 0 0
-12.814608 -13.714406 7.515659 20.218414 0.819303 1.189932 0.029971 -0.007679 30521.300000 1 0 0
-3.717108 -15.667306 12.869259 20.613083 1.337851 0.896529 0.032262 -0.004195 176409.000000 1 0 0
-2.231308 -14.918606 14.804559 21.135717 1.422331 0.794765 0.035681 -0.019797 501322.000000 1 0 0
-7.803308 -13.817906 13.234959 20.663744 1.056719 0.875658 0.037012 -0.009437 68045.400000 1 0 0
-10.119208 -11.338006 11.789359 19.233766 0.842139 0.911006 0.051941 -0.009174 -81111.700000 1 0 0
-7.479408 -10.401506 12.921859 18.196355 0.947386 0.781107 0.030293 -0.016312 480656.000000 1 0 0
-14.837208 -11.755606 8.206659 20.632166 0.670032 1.161722 0.045760 0.007554 381690.000000 1 0 0
-4.647208 -12.314406 13.627059 18.945656 1.209941 0.768044 0.030225 -0.015566 407175.000000 1 0 0
3.696692 -12.586706 14.030359 19.207855 -1.285131 0.751817 -0.000528 0.003814 485564.000000 1 0 0
6.529992 -13.457106 14.738059 20.998688 -1.119022 0.792796 0.025653 -0.001897 179223.000000 1 0 0
7.341592 -8.528906 16.659759 20.104447 -0.860072 0.594086 0.042476 -0.021478 544490.000000 1 0 0
-5.236608 13.297094 13.355159 19.560037 -1.195632 0.819238 0.017261 -0.024764 565468.000000 1 0 0
-13.698008 -1.792306 17.334759 22.166228 0.130105 0.672872 0.067699 -0.018939 367591.000000 1 0 0
-10.244108 10.977494 13.805659 20.397140 -0.819943 0.827331 0.014829 0.029216 396376.000000 1 0 0
-7.161308 -8.278306 17.276159 20.451904 0.857619 0.564752 0.053652 -0.020926 79719.400000 1 0 0
-4.936408 2.042094 18.337059 19.099372 -0.392244 0.283483 0.020923 -0.010511 537526.000000 1 0 0
-15.995008 -3.373106 13.369159 21.117589 0.207840 0.885268 0.087887 -0.040470 127164.000000 1 0 0
-14.633108 3.304394 13.151659 19.950263 -0.222091 0.851012 0.036727 0.007464 367305.000000 1 0 0
-13.474908 10.452194 10.252059 19.897895 -0.659734 1.029516 -0.046843 0.018659 19156.500000 1 0 0
-5.063208 11.373594 15.426359 19.823402 -1.151964 0.679019 0.043891 -0.015576 153740.000000 1 0 0
-13.526308 12.808394 7.720259 20.164780 -0.758144 1.177908 0.035157 -0.039492 136402.000000 1 0 0
-3.755408 -6.301606 18.619859 20.012808 1.033364 0.375302 0.043181 -0.021802 230319.000000 1 0 0
0.308192 -2.942006 17.633159 17.879560 -1.466421 0.166210 0.011594 -0.032255 83870.800000 1 0 0
-4.884408 6.456094 20.697759 22.224667 -0.923111 0.372840 0.045064 -0.022820 177599.000000 1 0 0
2.211492 -10.586506 16.570159 19.787243 -1.364861 0.578258 0.003433 -0.006179 434499.000000 1 0 0
-14.819008 -0.079506 13.849759 20.283618 0.005365 0.819201 0.022889 -0.010368 -63901.900000 1 0 0
-13.856508 -5.592806 7.399459 16.674361 0.383626 1.111003 0.038803 -0.010644 105593.000000 1 0 0
10.236192 1.449494 16.525259 19.492687 0.140670 0.559035 0.071695 -0.007518 511083.000000 1 0 0
-7.540108 12.256494 11.797559 18.607989 -1.019280 0.884075 0.020061 -0.023370 66275.000000 1 0 0
-1.615508 7.394694 19.811759 21.208422 -1.355707 0.364938 0.042646 -0.028023 537697.000000 1 0 0
1.171092 -13.068006 15.530259 20.330597 -1.481420 0.701483 -0.007049 -0.012141 542558.000000 1 0 0
-3.338308 -11.540206 18.185659 21.795386 1.289207 0.583787 0.055293 -0.013522 562673.000000 1 0 0
-2.421008 8.794594 16.674259 19.006237 -1.302166 0.500580 0.027969 -0.018357 533697.000000 1 0 0
-3.724408 -8.957606 20.447459 22.632024 1.176760 0.442989 0.053004 -0.040452 77360.700000 1 0 0
-6.719808 -2.892506 18.982559 20.343548 0.406473 0.367858 0.035722 -0.026914 160722.000000 1 0 0
-10.978808 -7.983606 16.076059 21.040719 0.628738 0.701236 0.099636 -0.034618 103373.000000 1 0 0
-0.220808 6.332594 17.991259 19.074483 -1.535942 0.338629 0.022940 -0.011288 202225.000000 1 0 0
-6.277708 -10.973606 19.498659 23.238489 1.051164 0.575230 0.098832 -0.016547 431566.000000 1 0 0
0.503592 3.321194 18.897059 19.193300 1.420313 0.175923 0.021449 -0.010955 129441.000000 1 0 0
-18.219708 -0.879406 7.903959 19.879731 0.048229 1.161909 0.065201 -0.031712 -38312.000000 1 0 0
-1.790508 -8.846506 17.531359 19.718396 1.371097 0.475451 0.027292 -0.019303 434457.000000 1 0 0
5.230692 3.286894 14.017859 15.318752 0.561031 0.415094 0.029349 -0.014420 -162326.000000 1 0 0
-14.769308 -7.778806 10.834759 19.900611 0.484769 0.995071 0.106662 0.014154 72605.100000 1 0 0
3.532992 8.115794 17.104459 19.259041 1.160215 0.477544 0.030190 -0.010106 162652.000000 1 0 0
6.424292 4.236694 16.923259 18.590798 0.583011 0.426781 0.060102 -0.051370 207176.000000 1 0 0
5.763092 -9.307406 18.226459 21.261346 -1.016383 0.540876 0.026854 -0.002896 397362.000000 1 0 0
-4.509608 -0.459906 19.780559 20.293314 0.101632 0.225275 0.036432 -0.020838 861137.000000 1 0 0
-11.263608 1.492694 17.028259 20.470921 -0.131756 0.588406 0.040208 -0.017334 355087.000000 1 0 0
-16.705308 -3.653806 8.513259 19.102178 0.215330 1.108874 0.066982 -0.027384 143920.000000 1 0 0
-13.395308 -8.998906 13.662759 21.144398 0.591545 0.868248 0.082321 -0.035386 11852.700000 1 0 0
-14.740308 6.181694 13.135059 20.688639 -0.397095 0.882927 0.051272 -0.011170 491652.000000 1 0 0
1.091292 9.215494 17.258959 19.595609 1.452926 0.493339 0.031066 -0.023909 118982.000000 1 0 0
-3.849308 -10.360406 14.981059 18.616856 1.215062 0.635620 0.030803 -0.017318 735973.000000 1 0 0
-18.878608 -3.097506 6.613659 20.241959 0.162626 1.237955 0.151914 -0.026768 -254590.000000 1 0 0
-0.583508 -0.716106 20.770359 20.790890 0.887075 0.044445 0.040976 -0.029441 454957.000000 1 0 0
-1.698408 2.366694 20.100759 20.310744 -0.948336 0.143920 0.034023 -0.028353 -392759.000000 1 0 0
-8.146508 2.428394 16.293859 18.378045 -0.289704 0.480868 0.003753 0.007167 607235.000000 1 0 0
2.766192 -2.578706 18.715559 19.093813 -0.750335 0.199379 0.019095 -0.019411 45880.900000 1 0 0
-12.049908 4.352294 14.439859 19.304204 -0.346608 0.725728 -0.008498 -0.005594 174345.000000 1 0 0
-13.500908 -5.486406 13.110859 19.602801 0.385988 0.838168 0.056673 -0.020509 30988.200000 1 0 0
-16.498508 -0.339406 11.101359 19.888593 0.020569 0.978609 0.032895 -0.008839 144064.000000 1 0 0
-7.421508 7.874194 14.530459 18.116731 -0.814985 0.640083 0.000188 -0.011567 78532.400000 1 0 0
-9.568208 0.630394 14.092859 17.045723 -0.065789 0.597458 0.012733 -0.004492 283841.000000 1 0 0
7.455492 -0.888006 15.261959 17.008830 -0.118549 0.457191 0.051383 -0.016956 200673.000000 1 0 0
3.892692 5.630094 18.498659 19.724385 0.965860 0.354393 0.021724 -0.030210 5501.510000 1 0 0
1.776092 0.436994 20.079159 20.162294 0.241250 0.090842 0.022879 -0.011289 271745.000000 1 0 0
-7.051008 6.387094 17.136859 19.600602 -0.736033 0.506799 0.001510 -0.020790 418158.000000 1 0 0
7.453992 -3.213806 16.755359 18.618072 -0.407070 0.451138 0.043428 -0.012202 248583.000000 1 0 0
-16.063408 2.607594 8.805659 18.503304 -0.160928 1.074813 0.035573 -0.030087 186252.000000 1 0 0
4.270792 -5.488706 19.047159 20.277076 -0.909549 0.350082 0.049610 -0.037836 45907.800000 1 0 0
-3.652608 -3.766206 20.875659 21.524846 0.800709 0.246222 0.035922 -0.019643 387679.000000 1 0 0
-9.539108 5.820894 14.656959 18.431056 -0.547896 0.651407 0.002332 -0.000904 -64743.300000 1 0 0
6.524692 2.909294 19.911459 21.154238 0.419431 0.344479 0.088263 -0.027522 48913.500000 1 0 0
-7.313008 11.599794 14.516559 19.969121 -1.008293 0.756926 0.028613 -0.022128 117878.000000 1 0 0
-14.583808 4.878494 8.788459 17.712261 -0.322813 1.051604 0.016458 -0.019679 366680.000000 1 0 0
1.039192 -5.316406 20.424859 21.130995 -1.377761 0.259248 0.046006 -0.030838 304284.000000 1 0 0
-6.063808 -8.626806 13.898359 17.445800 0.958125 0.649048 0.016728 0.000490 360103.000000 1 0 0
-12.851008 10.268794 6.267759 17.603447 -0.674171 1.206756 -0.004366 -0.017151 59282.400000 1 0 0
-19.680008 2.175094 7.692659 21.241722 -0.110076 1.200224 0.077554 -0.038524 30906.400000 1 0 0
-15.587608 8.820494 6.384159 19.013998 -0.514943 1.228383 0.016407 -0.018635 152041.000000 1 0 0
-12.304108 8.404694 13.765859 20.286173 -0.599280 0.824964 0.007192 -0.009525 230986.000000 1 0 0
-16.576308 9.078894 10.117159 21.437286 -0.501078 1.079304 0.056684 -0.025547 344800.000000 1 0 0
2.520392 10.275994 15.367959 18.658043 1.330274 0.602954 0.034098 -0.029384 417722.000000 1 0 0
1.546692 14.098294 13.263959 19.418721 1.461526 0.818866 0.031112 -0.032675 361792.000000 1 0 0
8.870492 4.768494 16.503259 19.333435 0.493249 0.547915 0.057166 -0.015461 89592.500000 1 0 0
-0.599608 13.449694 13.094059 18.780526 -1.526244 0.799292 0.022876 -0.004628 74032.700000 1 0 0
4.102992 12.414494 14.705359 19.677443 1.251598 0.726776 0.043618 -0.017542 111198.000000 1 0 0
-3.644308 -4.585206 -13.759341 14.954082 0.899236 2.739147 0.003350 -0.009491 115726.000000 1 0 0
5.373792 -11.813106 16.814659 21.240524 -1.143874 0.657322 -0.014924 0.004229 328622.000000 1 0 0
8.726192 -13.784106 7.273059 17.861842 -1.006421 1.151427 0.022734 -0.004410 203148.000000 1 0 0
-0.669908 15.133094 0.394559 15.153052 -1.526557 1.544755 0.013138 -0.009847 -266634.000000 1 0 0
-14.458308 7.473194 8.513759 18.367781 -0.477059 1.088837 0.020091 -0.008855 101793.000000 1 0 0
-15.816908 -10.274706 4.378459 19.362724 0.576096 1.342695 0.027627 -0.006562 172298.000000 1 0 0
8.646592 -10.637106 11.366759 17.807717 -0.888257 0.878502 -0.002902 0.000488 21391.700000 1 0 0
-26.469588 5.745194 30.932229 41.115072 -0.213734 0.719200 0.079631 -0.027594 -254551.000000 0 0 1
-25.234758 5.235694 30.515119 39.942183 -0.204577 0.701334 0.069927 -0.027448 -595147.000000 0 0 1
-24.249908 5.369794 31.484033 40.101585 -0.217919 0.667928 0.055115 -0.013421 -1142650.000000 0 0 1
-22.930108 4.773394 31.086209 38.922070 -0.205240 0.645701 0.061703 -0.021361 -1016990.000000 0 0 1
-22.846108 3.326194 31.086849 38.722092 -0.144575 0.638787 0.029600 -0.023472 -508312.000000 0 0 1
-21.520908 2.914294 30.970499 37.826108 -0.134598 0.611549 0.052109 -0.019943 -317506.000000 0 0 1
-21.250308 1.726594 31.969783 38.426863 -0.081072 0.588157 0.044631 -0.019547 150334.000000 0 0 1
-21.955608 0.568394 31.557964 38.448367 -0.025883 0.608007 0.047694 -0.020987 275580.000000 0 0 1
-21.706408 -0.427006 32.532553 39.111603 0.019669 0.588476 0.027785 -0.013430 -263346.000000 0 0 1
-22.450208 -1.743406 32.345283 39.411530 0.077501 0.608151 0.041458 -0.031611 -485840.000000 0 0 1
-21.782808 -2.662906 31.479115 38.373383 0.121644 0.608796 0.085080 -0.040702 297657.000000 0 0 1
-22.177208 -4.030206 31.672692 38.874549 0.179766 0.618514 0.089144 -0.043577 672172.000000 0 0 1
-23.674208 -4.509706 31.445549 39.618533 0.188235 0.653916 0.067307 -0.026100 1475320.000000 0 0 1
-24.736308 -4.104106 32.295805 40.887011 0.164417 0.660184 0.050378 -0.020329 567522.000000 0 0 1
-24.503508 -4.473206 33.691259 41.899074 0.180565 0.636628 0.044831 -0.019637 -524905.000000 0 0 1
-25.597978 -3.861506 -32.985181 41.930775 0.149723 2.476173 0.060590 -0.012908 322462.000000 0 0 1
-25.544328 -4.367906 -31.684781 40.933076 0.169355 2.456030 0.067516 -0.029952 -228155.000000 0 0 1
-26.811118 -4.042106 -31.204811 41.339024 0.149635 2.426224 0.077810 -0.024699 -480085.000000 0 0 1
-27.037488 -4.652406 -29.801391 40.506710 0.170404 2.397518 0.067014 -0.023828 -400662.000000 0 0 1
-27.240618 -6.030906 -29.784061 40.810702 0.217879 2.388840 0.066265 -0.021736 334176.000000 0 0 1
-26.798638 -6.570406 -28.614081 39.750508 0.240434 2.374371 0.057353 -0.019397 -398319.000000 0 0 1
-27.090738 -8.095106 -28.533571 40.169684 0.290369 2.360758 0.057893 -0.016214 -250992.000000 0 0 1
-28.471508 -8.355406 -28.485271 41.132108 0.285451 2.335788 0.077219 -0.018307 -391199.000000 0 0 1
-28.777288 -9.690806 -28.327071 41.526703 0.324824 2.321483 0.074941 -0.017452 -434770.000000 0 0 1
-30.169238 -9.903306 -27.772391 42.184880 0.317176 2.289420 0.127571 -0.023038 -608513.000000 0 0 1
-30.205598 -10.946706 -26.836881 41.861997 0.347684 2.266701 0.146576 -0.029442 -428795.000000 0 0 1
-31.534058 -11.221806 -26.460221 42.666955 0.341888 2.239739 0.136589 -0.031105 -66142.100000 0 0 1
-31.755648 -11.968106 -25.130121 42.227713 0.360419 2.208198 0.139195 -0.030294 165912.000000 0 0 1
-31.232918 -11.217406 -24.009841 40.960931 0.344806 2.197113 0.159736 -0.028929 361108.000000 0 0 1
-31.252098 -11.935706 -22.774741 40.470280 0.364821 2.168508 0.170852 -0.038666 -326479.000000 0 0 1
-31.094418 -11.014706 -21.485941 39.367909 0.340442 2.148108 0.183332 -0.038320 40316.000000 0 0 1
-30.892328 -11.654006 -20.256541 38.736021 0.360738 2.121091 0.195255 -0.036899 180494.000000 0 0 1
-29.798528 -12.550606 -20.154441 38.100807 0.398632 2.128191 0.170431 -0.041343 -101263.000000 0 0 1
-29.270178 -12.776306 -18.689941 37.003936 0.411567 2.100271 0.159940 -0.053866 -130899.000000 0 0 1
-28.644768 -11.668206 -18.175241 35.874910 0.386819 2.102066 0.142434 -0.056647 -185671.000000 0 0 1
-28.196718 -11.970906 -16.880441 34.975803 0.401489 2.074454 0.136574 -0.052750 -67751.500000 0 0 1
-27.745988 -10.795706 -16.002741 33.800516 0.371067 2.063996 0.129523 -0.048141 -499660.000000 0 0 1
-26.440568 -10.327106 -16.192541 32.679522 0.372358 2.089201 0.115770 -0.046399 -121410.000000 0 0 1
-26.155018 -9.183806 -15.421041 31.721220 0.337681 2.078467 0.103678 -0.044638 83756.400000 0 0 1
-24.738608 -8.548906 -15.584141 30.462239 0.332722 2.107829 0.109729 -0.037149 658265.000000 0 0 1
-23.805408 -9.278206 -14.794641 29.523956 0.371641 2.095673 0.113663 -0.043088 -311254.000000 0 0 1
-22.650508 -8.583206 -14.447241 28.203541 0.362221 2.108598 0.138098 -0.056920 -69232.400000 0 0 1
-21.779908 -9.332706 -13.377041 27.210459 0.404832 2.084739 0.131611 -0.038085 190256.000000 0 0 1
-20.927808 -10.347806 -13.862041 27.151546 0.459200 2.106613 0.123626 -0.033393 631106.000000 0 0 1
-19.802808 -10.528306 -13.008041 25.926928 0.488652 2.096382 0.143121 -0.034946 666875.000000 0 0 1
-18.724008 -11.543706 -13.547241 25.833571 0.552477 2.122812 0.133590 -0.026946 885829.000000 0 0 1
-17.881708 -11.034806 -14.599041 25.586216 0.552898 2.178011 0.148112 -0.032146 744883.000000 0 0 1
-18.480708 -11.295006 -15.849841 26.838987 0.548598 2.202540 0.128108 -0.039384 -246010.000000 0 0 1
-17.883708 -10.493406 -16.974641 26.796960 0.530626 2.256805 0.137347 -0.041633 -262739.000000 0 0 1
-18.489608 -10.978406 -18.122341 28.121349 0.535819 2.271079 0.083004 -0.023539 402317.000000 0 0 1
-17.917108 -10.434206 -19.290441 28.319897 0.527348 2.320145 0.086345 -0.034414 -381369.000000 0 0 1
-18.618508 -10.952206 -20.567141 29.826280 0.531730 2.331684 0.075954 -0.035284 -460167.000000 0 0 1
-19.800008 -10.215906 -20.709141 30.418310 0.476330 2.319667 0.065732 -0.040064 -48815.200000 0 0 1
-20.580908 -10.593306 -21.823641 31.812942 0.475350 2.326772 0.055758 -0.025170 1817040.000000 0 0 1
-21.953508 -9.772606 -22.077141 32.632201 0.418813 2.313857 0.056698 -0.028139 1732250.000000 0 0 1
-21.685508 -8.567606 -22.763541 32.585947 0.376262 2.344192 0.049250 -0.033677 -789087.000000 0 0 1
-22.741808 -8.061206 -23.457141 33.651306 0.340648 2.342092 0.061714 -0.032552 -1117120.000000 0 0 1
-22.233308 -7.343406 -24.697941 34.032836 0.319008 2.382861 0.044165 -0.035412 45787.400000 0 0 1
-21.622208 -8.374806 -25.518791 34.479936 0.369532 2.404024 0.050585 -0.033290 441836.000000 0 0 1
-20.875308 -7.688706 -26.536851 34.628012 0.352898 2.443922 0.040761 -0.033835 171473.000000 0 0 1
-19.766008 -8.455706 -27.295371 34.745235 0.404232 2.474439 0.059277 -0.033988 -83885.300000 0 0 1
-20.211908 -9.413606 -28.227131 35.970935 0.435871 2.473041 0.061826 -0.027427 -22691.400000 0 0 1
-19.103908 -9.946406 -28.910131 36.051158 0.480029 2.501298 0.041191 -0.021036 -217021.000000 0 0 1
-19.355208 -11.044906 -29.962171 37.340939 0.518553 2.502093 0.047779 -0.013347 -253595.000000 0 0 1
-19.901908 -10.582706 -31.204721 38.494341 0.488719 2.516026 0.054196 -0.007814 362002.000000 0 0 1
-19.879808 -11.596806 -32.205781 39.584151 0.528084 2.521119 0.051257 -0.013811 50743.800000 0 0 1
-20.726408 -11.415306 -33.503871 41.017101 0.503428 2.526685 0.050577 -0.017829 -62023.100000 0 0 1
-20.158508 -10.566206 33.119996 40.186370 0.482785 0.602079 0.051304 -0.023427 -393321.000000 0 0 1
-20.639808 -10.733606 31.883284 39.468415 0.479554 0.630356 0.068657 -0.026359 -720663.000000 0 0 1
-20.129208 -11.950206 31.084109 38.912907 0.535756 0.645478 0.086387 -0.031132 -115153.000000 0 0 1
-18.731508 -11.873106 30.854739 37.998092 0.564943 0.623213 0.095976 -0.034360 472961.000000 0 0 1
-18.208508 -12.726506 29.807879 37.175575 0.610009 0.640472 0.101139 -0.032920 102594.000000 0 0 1
-18.411908 -14.278606 29.997239 37.983040 0.659628 0.660389 0.097713 -0.021383 -1094400.000000 0 0 1
-19.713508 -14.776406 29.918919 38.757016 0.643218 0.688875 0.084819 -0.028764 -469746.000000 0 0 1
-19.915508 -16.032806 30.641979 39.907509 0.677807 0.695357 0.096048 -0.028626 -263762.000000 0 0 1
-20.216108 -15.958706 32.158527 41.201240 0.668247 0.675294 0.040737 -0.029104 -39393.600000 0 0 1
-19.014308 -15.594806 32.829297 41.018345 0.686914 0.642907 0.080744 -0.023261 298390.000000 0 0 1
-19.118608 -15.494306 -33.372951 41.465029 0.681069 2.506212 0.053506 -0.019483 -130508.000000 0 0 1
-17.763108 -15.164506 -32.735821 40.213484 0.706643 2.521889 0.061463 -0.017802 -16739.400000 0 0 1
-17.317408 -13.814206 -32.915601 39.675707 0.673341 2.549216 0.055181 -0.010915 -56137.100000 0 0 1
-16.090208 -13.479606 -32.289601 38.512504 0.697340 2.565172 0.063394 -0.010460 341189.000000 0 0 1
-16.184208 -13.161306 -30.776251 37.179648 0.682750 2.545920 0.068428 -0.013690 -238918.000000 0 0 1
-16.526108 -14.232406 -29.922851 37.027701 0.710965 2.511751 0.061909 -0.013730 -255796.000000 0 0 1
-16.954408 -13.720206 -28.664051 36.018382 0.680350 2.491152 0.052710 -0.013357 -69657.800000 0 0 1
-17.164508 -14.909806 -27.679881 35.820364 0.715217 2.453945 0.065903 -0.020620 215280.000000 0 0 1
-16.045108 -15.708806 -27.314661 35.359621 0.774808 2.453536 0.075344 -0.038553 46812.600000 0 0 1
-15.448608 -16.527006 -28.305761 36.235584 0.819111 2.467317 0.079305 -0.037951 129526.000000 0 0 1
-14.048108 -17.095106 -27.962481 35.657992 0.882926 2.472179 0.121886 -0.034519 -49700.800000 0 0 1
-13.032408 -16.131506 -27.811301 34.692040 0.891266 2.500867 0.095771 -0.036902 -700730.000000 0 0 1
-11.896408 -16.846306 -27.391231 34.287055 0.955939 2.496227 0.146292 -0.048798 93711.800000 0 0 1
-10.561808 -16.206506 -27.876161 33.930562 0.993226 2.534947 0.133063 -0.057262 397707.000000 0 0 1
-10.355308 -14.912106 -27.358001 32.833878 0.963823 2.555711 0.114805 -0.035706 -1157770.000000 0 0 1
-9.027808 -14.530806 -27.424481 32.322559 1.014871 2.583870 0.150923 -0.038682 -768646.000000 0 0 1
-8.891508 -12.993606 -27.586461 31.763274 0.970686 2.622968 0.116334 -0.036875 54420.300000 0 0 1
-9.227708 -12.567706 -28.902131 32.839474 0.937458 2.646876 0.149365 -0.036434 182743.000000 0 0 1
-9.148908 -11.131006 -28.978891 32.363219 0.882826 2.680185 0.116356 -0.040545 550504.000000 0 0 1
-7.890408 -10.661406 -29.804501 32.622575 0.933667 2.722887 0.111251 -0.025759 586938.000000 0 0 1
-6.576208 -10.995606 -29.346731 32.021563 1.031793 2.729957 0.116127 -0.031772 1574000.000000 0 0 1
-5.560308 -10.593206 -30.305961 32.581963 1.087433 2.765605 0.115928 -0.032027 617553.000000 0 0 1
-5.402508 -9.069006 -30.638131 32.405695 1.033536 2.809785 0.106898 -0.030880 -1146280.000000 0 0 1
-4.102708 -8.777606 -31.122001 32.595361 1.133562 2.839777 0.119788 -0.049946 213403.000000 0 0 1
-3.895008 -7.373006 -31.323861 32.414759 1.084782 2.881420 0.124374 -0.044694 -132320.000000 0 0 1
-2.498108 -7.018406 -31.860471 32.719844 1.228843 2.911896 0.127076 -0.055195 -250042.000000 0 0 1
-2.146008 -7.432706 -33.187991 34.077753 1.289715 2.912577 0.148275 -0.055046 -351506.000000 0 0 1
-1.082108 -6.635006 -33.635901 34.301139 1.409129 2.944326 0.185843 -0.055481 -207364.000000 0 0 1
-0.364108 -7.201406 32.693838 33.479544 1.520279 0.217074 0.178527 -0.050646 -464481.000000 0 0 1
-0.977308 -6.972806 31.448119 32.226687 1.431543 0.220259 0.183837 -0.044332 -531590.000000 0 0 1
-0.431508 -7.686106 30.408729 31.368029 1.514714 0.247949 0.148596 -0.037782 -394611.000000 0 0 1
-0.613008 -7.139606 28.952289 29.825908 1.485146 0.242630 0.131588 -0.023324 47646.500000 0 0 1
0.198892 -6.017806 28.677759 29.303027 -1.537758 0.206951 0.145462 -0.037815 -67969.500000 0 0 1
0.098992 -5.614706 27.328739 27.899726 -1.553167 0.202662 0.135135 -0.032975 201261.000000 0 0 1
-0.956208 -4.512406 27.035369 27.426034 1.361979 0.168987 0.109573 -0.023531 990302.000000 0 0 1
-2.300108 -4.974606 27.118749 27.667016 1.137703 0.199411 0.064265 -0.004611 471184.000000 0 0 1
-3.291008 -3.998706 26.744509 27.241313 0.882177 0.191274 0.044306 -0.012409 88815.600000 0 0 1
-4.743308 -4.324006 27.017159 27.769100 0.739188 0.233244 0.028973 -0.009322 -566449.000000 0 0 1
-5.160008 -5.431806 26.295539 27.342011 0.811054 0.277561 0.030855 -0.004987 134296.000000 0 0 1
-6.512008 -5.771806 26.626489 28.012317 0.725213 0.315865 0.015975 -0.006717 1053720.000000 0 0 1
-6.875308 -7.314306 26.456599 28.297007 0.816326 0.362647 0.027220 -0.003716 549109.000000 0 0 1
-6.177708 -8.115006 27.450269 29.283693 0.920122 0.355734 0.016681 0.000536 239579.000000 0 0 1
-6.490308 -9.492706 27.347339 29.666691 0.971084 0.398047 0.034428 -0.006062 156591.000000 0 0 1
-5.872308 -10.230806 28.585379 30.923734 1.049727 0.391381 0.028097 -0.002942 85262.100000 0 0 1
-6.087208 -11.605506 28.568649 31.431029 1.087733 0.430082 0.058151 -0.003820 60241.000000 0 0 1
-5.563008 -12.162406 29.730689 32.600384 1.141811 0.422727 0.067755 -0.004837 -244418.000000 0 0 1
-5.556408 -13.696406 29.652989 33.132537 1.185400 0.462408 0.109376 -0.023665 272469.000000 0 0 1
-6.858908 -14.260106 29.635019 33.595083 1.122475 0.490444 0.105606 -0.027025 -13493.000000 0 0 1
-6.880008 -15.688806 29.596869 34.197190 1.157522 0.524695 0.147583 -0.036253 78364.200000 0 0 1
-7.080808 -16.433806 30.942619 35.744280 1.163966 0.524316 0.149030 -0.029586 -340222.000000 0 0 1
-8.379408 -16.338206 31.440009 36.409142 1.096904 0.528589 0.147607 -0.033400 -763737.000000 0 0 1
-8.396808 -16.712606 32.830983 37.784799 1.105212 0.517833 0.178211 -0.042486 -884816.000000 0 0 1
-9.743708 -16.824606 33.575129 38.798151 1.045860 0.524889 0.191220 -0.033456 220539.000000 0 0 1
-10.594108 -17.912106 33.207952 39.189881 1.036688 0.559802 0.180931 -0.032461 563464.000000 0 0 1
-11.091308 -17.834606 31.839376 38.142315 1.014431 0.583114 0.159783 -0.040678 -749966.000000 0 0 1
-11.880508 -19.092506 31.314939 38.552506 1.014170 0.622768 0.149122 -0.040049 298840.000000 0 0 1
-13.117608 -19.370806 31.952769 39.601506 0.975548 0.631983 0.133061 -0.039792 257805.000000 0 0 1
-13.420108 -20.723306 31.759327 40.226976 0.996120 0.660797 0.117823 -0.032518 -251059.000000 0 0 1
-12.851508 -21.669106 32.849657 41.398205 1.035481 0.654250 0.124244 -0.033593 326021.000000 0 0 1
-11.446008 -21.934306 32.764211 41.056284 1.089837 0.646775 0.137013 -0.040192 546104.000000 0 0 1
-10.863808 -22.610706 -33.743081 42.045950 1.122893 2.502318 0.143603 -0.049328 252154.000000 0 0 1
-11.256308 -24.138206 -33.630451 42.899472 1.134448 2.471777 0.159473 -0.035485 -285959.000000 0 0 1
-10.943508 -24.879106 32.810268 42.605680 1.156401 0.691812 0.134373 -0.034782 -138262.000000 0 0 1
-10.917708 -26.297296 33.073804 43.641960 1.177286 0.710794 0.142802 -0.037622 -851989.000000 0 0 1
-10.188508 -27.120796 31.999790 43.166305 1.211437 0.735770 0.111610 -0.028616 432816.000000 0 0 1
-8.795408 -26.899666 31.859141 42.614037 1.254783 0.726324 0.144166 -0.041227 820851.000000 0 0 1
-7.902608 -27.446356 32.846555 43.527576 1.290450 0.715729 0.125168 -0.042257 1335530.000000 0 0 1
-6.348708 -27.166426 32.751517 43.023048 1.341220 0.705550 0.146613 -0.049245 1335020.000000 0 0 1
-5.998508 -25.821236 32.814373 42.184137 1.342536 0.679505 0.161192 -0.054059 -457413.000000 0 0 1
-4.882908 -25.453106 32.050843 41.218442 1.381260 0.679980 0.227312 -0.039009 -116395.000000 0 0 1
-4.328708 -24.087506 32.600376 40.764325 1.392987 0.643954 0.239752 -0.052978 -185962.000000 0 0 1
-3.310308 -24.325506 33.537459 41.562598 1.435543 0.631887 0.217385 -0.056175 121926.000000 0 0 1
-2.674408 -23.099006 -33.637091 40.892181 1.455529 2.536730 0.206831 -0.043966 176142.000000 0 0 1
35.515730 -16.088206 1.972859 39.039590 -0.425336 1.520240 0.216202 -0.062904 -149617.000000 0 0 1
36.094730 -15.670906 3.167059 39.477045 -0.409604 1.490485 0.166397 -0.055887 110719.000000 0 0 1
35.376660 -16.183306 4.279259 39.137188 -0.429038 1.461237 0.132079 -0.049103 125313.000000 0 0 1
36.164000 -16.115006 5.638959 39.991576 -0.419196 1.429321 0.095222 -0.030598 474279.000000 0 0 1
37.244330 -17.045606 5.556459 41.334816 -0.429214 1.435963 0.127214 -0.033448 50097.600000 0 0 1
-37.687588 -17.227406 6.743359 41.983458 0.428752 1.409478 0.112288 -0.027808 -277798.000000 0 0 1
-36.276048 -17.816906 6.646659 40.958173 0.456541 1.407796 0.134189 -0.031885 -166099.000000 0 0 1
-36.202328 -19.274506 6.476359 41.521782 0.489239 1.414182 0.104055 -0.026285 -484443.000000 0 0 1
-34.946397 -19.714406 6.879959 40.709241 0.513629 1.400979 0.082843 -0.013870 -474421.000000 0 0 1
-34.837794 -21.210506 7.101659 41.400375 0.546891 1.398408 0.092278 -0.013142 -80754.000000 0 0 1
-34.993564 -22.081106 5.969659 41.806239 0.562906 1.427513 0.116037 -0.022129 284384.000000 0 0 1
-35.413785 -23.389306 6.335159 42.910722 0.583692 1.422619 0.115123 -0.024720 -90442.500000 0 0 1
-34.909121 -24.463306 5.372459 42.964676 0.611243 1.445425 0.124574 -0.020491 300105.000000 0 0 1
-35.536938 -24.403006 4.107059 43.304141 0.601740 1.475811 0.129143 -0.015894 474139.000000 0 0 1
-34.783458 -25.282786 3.264459 43.124992 0.628528 1.495026 0.132600 -0.018975 484930.000000 0 0 1
-35.198941 -25.056616 1.753659 43.242049 0.618640 1.530231 0.122895 -0.015994 440431.000000 0 0 1
-36.483748 -25.605556 1.453959 44.596215 0.611956 1.538188 0.104723 -0.016318 306841.000000 0 0 1
-36.875388 -25.275136 0.159259 44.706288 0.600874 1.567234 0.104014 -0.017817 -85524.100000 0 0 1
-37.661588 -23.952106 -0.054741 44.632966 0.566458 1.572023 0.111095 -0.016011 -497693.000000 0 0 1
36.633480 -24.122106 0.355659 43.863588 -0.582308 1.562688 0.096297 -0.020530 -155563.000000 0 0 1
36.104450 -22.849206 0.639059 42.732025 -0.564234 1.555841 0.106574 -0.018495 -338036.000000 0 0 1
34.587570 -22.930706 0.429859 41.500627 -0.585443 1.560438 0.081473 -0.018613 -184821.000000 0 0 1
34.105800 -22.737506 -0.930941 41.000810 -0.588009 1.593504 0.089500 -0.029050 -731384.000000 0 0 1
32.722680 -22.826606 -0.921841 39.908364 -0.609098 1.593897 0.080360 -0.024741 -808121.000000 0 0 1
32.129420 -22.693706 -2.325441 39.404462 -0.614956 1.629845 0.087741 -0.021552 -194348.000000 0 0 1
32.230350 -21.387806 -2.864841 38.787124 -0.585871 1.644724 0.135305 -0.030301 21970.300000 0 0 1
31.848120 -21.249506 -4.213141 38.517461 -0.588381 1.680398 0.140209 -0.041025 -56093.500000 0 0 1
31.686900 -19.800506 -4.688641 37.657709 -0.558513 1.695627 0.149774 -0.049421 605488.000000 0 0 1
30.571640 -19.176406 -4.035941 36.313201 -0.560224 1.682169 0.167705 -0.051205 567354.000000 0 0 1
30.445340 -17.834306 -4.433041 35.561680 -0.529899 1.695779 0.162181 -0.049632 -72419.200000 0 0 1
29.655540 -17.025006 -3.364841 34.360210 -0.521152 1.668882 0.174444 -0.041125 146649.000000 0 0 1
30.351540 -16.699506 -2.134241 34.707989 -0.502999 1.632326 0.174011 -0.036607 227644.000000 0 0 1
30.819800 -17.774706 -1.299741 35.601820 -0.523134 1.607312 0.154270 -0.025460 333780.000000 0 0 1
29.861440 -19.005106 -0.962741 35.409413 -0.566786 1.597989 0.140919 -0.028411 884034.000000 0 0 1
28.778540 -18.634306 -0.084041 34.284819 -0.574621 1.573248 0.124527 -0.012956 712312.000000 0 0 1
28.040240 -19.811406 0.255259 34.333832 -0.615098 1.563362 0.099564 -0.011290 85720.400000 0 0 1
26.913740 -19.535506 1.286559 33.281235 -0.627869 1.532130 0.099552 -0.006025 -786087.000000 0 0 1
26.075040 -20.611306 1.520959 33.272315 -0.668897 1.525068 0.081577 -0.005902 -452582.000000 0 0 1
25.145040 -20.491906 2.556159 32.538058 -0.683790 1.492156 0.069839 0.007665 27739.900000 0 0 1
23.800940 -19.883506 2.067959 31.082391 -0.695962 1.504216 0.041998 0.003274 -696602.000000 0 0 1
23.688640 -18.543906 1.661359 30.129524 -0.664176 1.515628 0.101059 -0.022929 103937.000000 0 0 1
23.819240 -17.647506 2.748859 29.771579 -0.637647 1.478333 0.115685 -0.023012 -435536.000000 0 0 1
23.266240 -16.271206 2.412359 28.493676 -0.610288 1.486032 0.119302 -0.013851 -1262310.000000 0 0 1
21.923240 -16.270306 2.122359 27.383494 -0.638457 1.493213 0.093279 -0.011977 -1225550.000000 0 0 1
21.667140 -15.062506 1.471259 26.429314 -0.607482 1.515100 0.099041 -0.025341 -259561.000000 0 0 1
20.190140 -14.745906 1.235759 25.032191 -0.630807 1.521409 0.044272 -0.012966 -431722.000000 0 0 1
19.365340 -14.466406 2.349259 24.286052 -0.641595 1.473912 0.058453 -0.019939 949658.000000 0 1 0
18.438840 -13.375706 2.140759 22.879755 -0.627576 1.477094 0.072746 -0.026052 299598.000000 0 1 0
19.059340 -11.966706 2.512859 22.644535 -0.560657 1.459598 0.084928 -0.019734 -656593.000000 0 1 0
19.898340 -11.485506 1.526959 23.025907 -0.523493 1.504433 0.081541 -0.023072 122573.000000 0 1 0
20.406940 -10.222906 1.822359 22.896987 -0.464409 1.491123 0.099792 -0.024966 -375713.000000 0 1 0
21.200040 -9.530106 0.717659 23.254669 -0.422465 1.539931 0.104942 -0.024252 -246031.000000 0 1 0
20.436240 -9.084306 -0.385041 22.367673 -0.418287 1.588011 0.103683 -0.020061 851185.000000 0 1 0
21.300740 -8.602506 -1.399941 23.014875 -0.383829 1.631662 0.097519 -0.006542 95414.400000 0 1 0
20.558840 -8.377706 -2.777141 22.373296 -0.386954 1.695245 0.096273 -0.007329 123196.000000 0 1 0
21.348840 -7.672706 -3.745841 22.992927 -0.345022 1.734438 0.115106 -0.007392 831363.000000 0 1 0
22.509540 -8.279606 -4.283841 24.363550 -0.352467 1.747545 0.108651 -0.007675 -504480.000000 0 1 0
22.289640 -9.576506 -5.148141 24.800018 -0.405794 1.779903 0.099393 -0.007290 -161228.000000 0 1 0
21.626040 -9.445906 -6.404141 24.452480 -0.411809 1.835788 0.102076 -0.009245 1527560.000000 0 1 0
20.230040 -9.080906 -6.436741 23.090020 -0.421924 1.853307 0.103982 -0.001271 728797.000000 0 1 0
19.653240 -8.897106 -7.866741 22.962882 -0.425101 1.920463 0.113901 -0.001323 -367489.000000 0 1 0
19.638140 -10.061406 -8.677341 23.710434 -0.473471 1.945473 0.111757 -0.002006 1007300.000000 0 1 0
20.881140 -10.492906 -9.240541 25.129876 -0.465651 1.947343 0.111027 -0.002913 82999.600000 0 0 1
20.789740 -11.898506 -9.832141 25.893218 -0.519822 1.960289 0.091125 -0.006395 -116595.000000 0 0 1
19.797740 -12.130506 -10.806341 25.610090 -0.549721 2.006398 0.115649 -0.007134 187553.000000 0 0 1
19.711540 -13.531006 -11.106241 26.362502 -0.601575 2.005663 0.108683 -0.006751 461595.000000 0 0 1
18.561940 -13.856006 -12.140841 26.152142 -0.641241 2.053571 0.114485 -0.008272 483994.000000 0 0 1
18.353440 -15.228206 -12.355241 26.858872 -0.692602 2.048798 0.109292 -0.020128 495382.000000 0 0 1
17.479240 -15.342706 -13.484141 26.883908 -0.720395 2.096208 0.105747 -0.019514 -118307.000000 0 0 1
17.271740 -16.764706 -13.961541 27.826121 -0.770502 2.096408 0.089319 -0.023756 -86171.100000 0 0 1
16.659940 -17.652706 -13.006841 27.538147 -0.814323 2.062718 0.082290 -0.021112 501622.000000 0 0 1
16.639240 -18.942506 -13.452541 28.577154 -0.850040 2.060931 0.078353 -0.030123 -496083.000000 0 0 1
15.817840 -19.832006 -12.526841 28.291947 -0.897526 2.029483 0.063991 -0.025647 -329002.000000 0 0 1
14.436440 -19.592706 -12.699441 27.451061 -0.935779 2.051746 0.046765 -0.021502 -295483.000000 0 0 1
13.733740 -20.296106 -11.673741 27.144498 -0.975901 2.015355 0.028857 -0.005761 -105115.000000 0 0 1
12.229440 -19.995806 -11.824741 26.252923 -1.021891 2.038028 0.030824 -0.005795 -202980.000000 0 0 1
11.442040 -20.848706 -11.027441 26.214372 -1.068865 2.004973 0.025865 -0.010103 -340245.000000 0 0 1
10.126040 -20.865106 -11.523841 25.897650 -1.118970 2.031944 0.015093 -0.004642 -73992.100000 0 0 1
9.122640 -21.627006 -10.612541 25.759969 -1.171625 1.995420 0.008548 0.006027 -28712.700000 0 0 1
9.325040 -22.990806 -10.512641 26.945300 -1.185473 1.971588 0.034919 -0.008788 -40191.500000 0 0 1
8.337040 -23.555406 -9.679141 26.796440 -1.230622 1.940361 0.037143 -0.020294 59511.600000 0 0 1
8.382240 -25.097826 -9.681641 28.176178 -1.248461 1.921556 0.045488 -0.019031 -448233.000000 0 0 1
9.486640 -25.585156 -9.011441 28.736782 -1.215724 1.889763 0.021285 -0.014582 -983589.000000 0 0 1
9.771040 -26.866116 -9.418141 30.099216 -1.221975 1.889045 0.018762 -0.008058 569731.000000 0 0 1
11.303640 -27.112776 -9.246241 30.795582 -1.175796 1.875747 0.003768 0.001460 507762.000000 0 0 1
11.759540 -26.932806 -7.934641 30.440456 -1.159120 1.834503 0.011969 -0.010326 644550.000000 0 0 1
13.161640 -27.245976 -7.809441 31.249950 -1.120786 1.823376 0.022763 -0.003243 306232.000000 0 0 1
13.549440 -27.448246 -6.335041 31.259019 -1.112253 1.774873 0.028441 -0.012861 -297955.000000 0 0 1
13.039640 -28.479906 -5.507941 31.803690 -1.141430 1.744860 0.037120 -0.009552 -831644.000000 0 0 1
11.658340 -28.445456 -5.331641 31.200758 -1.181828 1.742521 0.043234 -0.012678 -707831.000000 0 0 1
11.199240 -29.635836 -4.434841 31.990211 -1.209490 1.709875 0.057972 -0.023262 -11005.100000 0 0 1
11.423140 -30.947766 -4.925841 33.354404 -1.217199 1.719020 0.065466 -0.021174 -645543.000000 0 0 1
10.497140 -31.385396 -5.851741 33.607677 -1.248033 1.745808 0.076057 -0.019588 -327622.000000 0 0 1
10.631340 -32.908846 -6.130441 35.122640 -1.258325 1.746239 0.079056 -0.017606 -130900.000000 0 0 1
10.187640 -33.760156 -5.086941 35.628825 -1.277721 1.714062 0.080430 -0.022044 -73885.000000 0 0 1
10.642940 32.621811 -5.265441 34.715696 1.255432 1.723057 0.085837 -0.023192 -247609.000000 0 0 1
10.344240 31.562154 -4.210641 33.479880 1.254086 1.696897 0.101710 -0.023236 72962.900000 0 0 1
8.975540 31.205874 -4.279141 32.751762 1.290733 1.701825 0.113939 -0.028775 -173021.000000 0 0 1
8.712540 30.074974 -3.503441 31.506928 1.288821 1.682223 0.089475 -0.026277 387830.000000 0 0 1
7.295640 29.446414 -3.687741 30.560057 1.327927 1.691763 0.086719 -0.026843 634066.000000 0 0 1
7.013940 28.821254 -4.924941 30.068506 1.332077 1.735328 0.079185 -0.025966 -35669.400000 0 0 1
6.255040 29.713404 -5.726241 30.899866 1.363313 1.757190 0.100771 -0.028682 32146.100000 0 0 1
5.884140 29.121404 -7.112141 30.549334 1.371425 1.805761 0.107224 -0.031655 139790.000000 0 0 1
4.920340 28.087054 -7.181041 29.405096 1.397374 1.817502 0.118154 -0.036096 -32031.700000 0 0 1
5.444340 26.797164 -6.930841 28.209314 1.370356 1.819031 0.112071 -0.030426 -505205.000000 0 0 1
4.580940 25.693484 -7.547241 27.168014 1.394358 1.852298 0.114425 -0.034714 405506.000000 0 0 1
3.233540 25.758084 -7.061241 26.903453 1.445915 1.836373 0.109173 -0.030521 371749.000000 0 0 1
2.287340 26.334274 -7.953241 27.603984 1.484156 1.863059 0.097744 -0.032442 304860.000000 0 0 1
1.786440 25.427614 -9.153441 27.083951 1.500656 1.915551 0.110074 -0.036433 -148463.000000 0 0 1
2.798640 25.158044 -10.134841 27.266730 1.460009 1.951628 0.107164 -0.036162 365068.000000 0 0 1
2.446640 24.340134 -11.320841 26.955326 1.470614 2.004225 0.126429 -0.034788 -373870.000000 0 0 1
2.093840 22.809174 -11.144241 25.472273 1.479255 2.023618 0.131564 -0.031567 -431857.000000 0 0 1
0.858040 22.599484 -10.552041 24.956331 1.532847 2.007351 0.137413 -0.032103 -617831.000000 0 1 0
0.820440 21.205184 -10.229241 23.557808 1.532125 2.019967 0.092469 -0.033229 187650.000000 0 1 0
-0.370160 20.679184 -9.369141 22.705648 -1.552898 1.996141 0.099121 -0.023850 423452.000000 0 1 0
-1.610660 20.702484 -10.041241 23.065420 -1.493152 2.021209 0.104572 -0.030398 144197.000000 0 1 0
-2.675460 20.265684 -9.189441 22.412092 -1.439536 1.993274 0.080412 -0.022741 995052.000000 0 1 0
-4.090360 20.349384 -9.861341 22.979872 -1.372433 2.014325 0.083334 -0.024486 262271.000000 0 1 0
-5.035560 19.607984 -9.150441 22.216221 -1.319417 1.995314 0.063277 -0.030779 -512230.000000 0 1 0
-5.953360 19.116984 -10.094441 22.423187 -1.268898 2.037762 0.061782 -0.028439 -1027820.000000 0 1 0
-6.854960 18.018984 -9.635441 21.552633 -1.207274 2.034279 0.060432 -0.025272 -250736.000000 0 1 0
-7.972460 18.364084 -8.819241 21.876442 -1.161215 1.985740 0.077702 -0.021956 224238.000000 0 1 0
-9.185960 18.556684 -9.528141 22.792934 -1.111139 2.002073 0.075906 -0.026092 -167701.000000 0 1 0
-10.296460 18.725384 -8.483041 22.991718 -1.068056 1.948687 0.093678 -0.038813 -243048.000000 0 1 0
-10.529460 17.575684 -7.641541 21.867038 -1.031044 1.927785 0.080165 -0.037623 -144502.000000 0 1 0
-11.574460 17.936784 -6.754341 22.390120 -0.997738 1.877236 0.089398 -0.030948 235530.000000 0 1 0
-12.025360 16.789384 -5.768741 21.442273 -0.949249 1.843188 0.069883 -0.034177 384571.000000 0 1 0
-12.987760 17.327884 -4.849341 22.191295 -0.927596 1.791098 0.075426 -0.023401 209107.000000 0 1 0
-13.487760 16.232484 -4.057541 21.491320 -0.877489 1.760735 0.070872 -0.021696 -399928.000000 0 1 0
-14.689160 16.732284 -3.267841 22.503767 -0.850330 1.716525 0.061040 -0.019477 -1514020.000000 0 1 0
-15.915260 16.551184 -3.875641 23.286429 -0.804983 1.738008 0.094307 -0.040950 -541226.000000 0 1 0
-16.880160 17.162384 -2.993741 24.257982 -0.793688 1.694524 0.096078 -0.032868 -289276.000000 0 1 0
-18.271660 17.209284 -3.597741 25.356592 -0.755465 1.713163 0.106294 -0.046521 -534833.000000 0 0 1
-18.191460 18.128484 -4.713441 26.111064 -0.783664 1.752306 0.087907 -0.046307 -68111.700000 0 0 1
-19.498160 18.411684 -5.134541 27.304429 -0.756747 1.759971 0.079281 -0.046757 -95035.200000 0 0 1
-19.472660 19.221684 -6.482741 28.119096 -0.778912 1.803435 0.079540 -0.029354 -31319.200000 0 0 1
-19.052960 20.538384 -6.251941 28.704133 -0.822899 1.790363 0.084870 -0.029986 19499.200000 0 0 1
-19.418260 21.404384 -7.319741 29.812667 -0.834012 1.818857 0.083492 -0.016455 -66661.500000 0 0 1
-19.213160 22.752204 -6.836741 30.554040 -0.869532 1.796466 0.098234 -0.019119 848013.000000 0 0 1
-17.834560 23.006924 -6.509641 29.828937 -0.911372 1.790799 0.083902 -0.026248 802918.000000 0 0 1
-17.772660 23.876084 -5.401441 30.250792 -0.930908 1.750314 0.101772 -0.030464 -163590.000000 0 0 1
-16.341060 24.256824 -5.004741 29.672735 -0.977962 1.740271 0.078058 -0.029597 -335204.000000 0 0 1
-16.346560 25.218684 -3.964041 30.313457 -0.995693 1.701940 0.079135 -0.033502 792151.000000 0 0 1
-15.054960 25.806314 -3.710341 30.106217 -1.042685 1.694352 0.093087 -0.041041 784552.000000 0 0 1
-14.630260 26.981634 -4.581641 31.032959 -1.073938 1.718976 0.109538 -0.039333 -350594.000000 0 0 1
-15.402560 28.095654 -4.309941 32.329247 -1.069322 1.704508 0.131465 -0.043069 -357065.000000 0 0 1
-15.088160 29.179594 -5.158241 33.252199 -1.093579 1.726550 0.116577 -0.040952 -156571.000000 0 0 1
-15.821760 30.500444 -4.840141 34.699166 -1.092270 1.710741 0.120052 -0.034988 279951.000000 0 0 1
-17.171960 30.497574 -5.289141 35.397080 -1.057982 1.720781 0.157110 -0.035194 226232.000000 0 0 1
-17.734760 31.782577 -5.151341 36.758539 -1.061830 1.711399 0.149142 -0.034010 -285276.000000 0 0 1
12.757492 -8.431906 18.475559 23.983263 -0.584026 0.691403 0.128819 -0.036337 -476807.000000 0 1 0
13.567092 -9.474406 18.926559 25.140505 -0.609609 0.718443 0.145879 -0.037575 -229120.000000 0 0 1
13.939192 -10.341206 17.855159 24.900769 -0.638284 0.771232 0.152508 -0.042117 -137440.000000 0 1 0
14.560992 -11.606206 18.496959 26.246219 -0.672955 0.788729 0.196495 -0.054324 -592806.000000 0 0 1
15.829292 -11.346806 19.058159 27.249402 -0.621928 0.796242 0.183431 -0.050183 290263.000000 0 0 1
16.303792 -12.495506 19.790159 28.523704 -0.653926 0.804024 0.172993 -0.050637 -88132.200000 0 0 1
16.926492 -13.651106 18.940259 28.837341 -0.678688 0.854234 0.163483 -0.047138 -685305.000000 0 0 1
16.035192 -14.280006 18.039259 28.043909 -0.727565 0.872060 0.181048 -0.055181 173064.000000 0 0 1
16.568292 -15.451906 17.489859 28.621056 -0.750547 0.913367 0.184163 -0.053811 -319609.000000 0 0 1
15.920292 -15.883306 16.152659 27.688328 -0.784235 0.947919 0.163591 -0.054554 445618.000000 0 0 1
14.536692 -16.240106 16.206159 27.160561 -0.840689 0.931439 0.204146 -0.055582 691538.000000 0 0 1
13.932792 -16.102806 14.921959 26.001691 -0.857521 0.959555 0.218215 -0.062491 -33132.900000 0 0 1
13.348492 -17.458006 14.422759 26.286502 -0.918013 0.990017 0.153367 -0.042909 281787.000000 0 0 1
14.344992 -18.433706 14.061559 27.263671 -0.909494 1.028900 0.152869 -0.048406 489896.000000 0 0 1
13.735492 -19.606306 13.609859 27.537234 -0.959691 1.053842 0.120520 -0.047656 -500303.000000 0 0 1
14.683792 -20.671606 13.103359 28.541672 -0.953167 1.093819 0.117685 -0.031178 -261922.000000 0 0 1
15.596992 -21.214306 14.053759 29.846626 -0.936828 1.080524 0.094826 -0.028867 840.614000 0 0 1
16.041892 -22.440706 13.625859 30.766729 -0.950169 1.111992 0.069159 -0.028392 -427294.000000 0 0 1
17.120392 -22.974306 14.555959 32.137245 -0.930376 1.100746 0.081062 -0.030897 297934.000000 0 0 1
18.440292 -22.452306 14.446559 32.447704 -0.883196 1.109370 0.066436 -0.029481 543061.000000 0 0 1
19.318392 -22.910006 15.470659 33.725509 -0.870246 1.094239 0.085898 -0.035525 822384.000000 0 0 1
20.730792 -22.240606 15.480859 34.118430 -0.820519 1.099840 0.047373 -0.036471 757463.000000 0 0 1
21.608992 -22.757106 14.494759 34.567795 -0.811271 1.138107 0.052016 -0.034590 149270.000000 0 0 1
22.866192 -22.065706 14.584859 34.963928 -0.767585 1.140500 0.051225 -0.027347 609444.000000 0 0 1
23.953592 -22.816506 13.793459 35.841694 -0.761091 1.175758 0.046026 -0.031038 -365023.000000 0 0 1
24.225592 -24.057806 14.417859 37.061193 -0.781923 1.171220 0.037805 -0.035885 489304.000000 0 0 1
25.482692 -24.536906 13.941059 38.023420 -0.766492 1.195397 0.056507 -0.041268 208675.000000 0 0 1
25.964892 -25.804346 14.629659 39.421654 -0.782297 1.190595 0.053535 -0.035185 -472593.000000 0 0 1
26.296092 -25.802506 16.038359 40.180626 -0.775924 1.160200 0.074696 -0.029265 340109.000000 0 0 1
26.689492 -27.020296 16.661359 41.473199 -0.791557 1.157382 0.109101 -0.017474 -11262.500000 0 0 1
27.298192 -26.849386 18.057459 42.333824 -0.777110 1.130122 0.094672 -0.002421 96132.100000 0 0 1
26.309292 -26.422726 18.964659 41.832973 -0.787549 1.100285 0.089531 -0.006103 727289.000000 0 0 1
26.999992 -26.193906 20.195959 42.696569 -0.770246 1.078091 0.098323 -0.006293 271684.000000 0 0 1
25.964992 -25.754116 21.224359 42.283906 -0.781321 1.044946 0.080199 -0.013495 80686.200000 0 0 1
25.037492 -26.812306 21.387659 42.464193 -0.819615 1.042962 0.090809 -0.019701 -247191.000000 0 0 1
24.023492 -26.502696 22.314559 42.159941 -0.834427 1.013041 0.092802 -0.017689 213456.000000 0 0 1
23.147092 -27.763066 22.559199 42.608604 -0.875820 1.012842 0.105624 -0.012738 266660.000000 0 0 1
23.961492 -28.773096 23.155759 44.025372 -0.876388 1.016948 0.101101 -0.017316 981962.000000 0 0 1
23.379492 -30.101816 22.969579 44.500804 -0.910437 1.028434 0.109892 -0.023740 744955.000000 0 0 1
24.446092 -31.189536 23.413559 46.028180 -0.906017 1.037147 0.096731 -0.011668 609394.000000 0 0 1
24.548492 -31.312586 24.810019 46.889696 -0.905899 1.013240 0.083891 -0.012420 422104.000000 0 0 1
25.640192 -32.142016 25.171319 48.209169 -0.897450 1.021453 0.087543 -0.016772 -483833.000000 0 0 1
25.549392 -32.608496 26.643569 49.254088 -0.906186 0.999240 0.092932 -0.025092 13416.800000 0 0 1
24.798492 -33.751136 26.928409 49.792003 -0.937130 0.999387 0.084114 -0.012516 118622.000000 0 0 1
23.412992 -33.751846 26.650669 48.965431 -0.964324 0.995271 0.070371 -0.004330 -164278.000000 0 0 1
22.724292 32.663606 27.318369 48.265908 0.962958 0.969154 0.098688 -0.020603 -285824.000000 0 0 1
22.290092 32.953289 28.589639 48.991172 0.976075 0.947682 0.066233 -0.017917 -11849.500000 0 0 1
21.861592 31.752967 29.140789 48.325621 0.967837 0.923529 0.076345 -0.030942 -418939.000000 0 0 1
21.547392 31.951623 30.616409 49.219516 0.977476 0.899453 0.052957 -0.027258 421427.000000 0 0 1
22.738992 32.192939 31.383779 50.382424 0.955831 0.898338 0.054405 -0.013075 591209.000000 0 0 1
22.490892 32.599364 32.673578 51.343173 0.966869 0.881005 0.041501 -0.007540 -63480.200000 0 0 1
23.678992 32.341594 33.634929 52.325728 0.938816 0.872650 0.027481 0.002691 210696.000000 0 0 1
23.677392 30.942964 -33.714311 51.524175 0.917641 2.284105 0.043514 0.006574 -504690.000000 0 0 1
24.888092 30.491064 -33.216751 51.502181 0.886230 2.271765 0.015449 0.028654 -620103.000000 0 0 1
24.970792 29.017434 -33.202811 50.675226 0.860212 2.285254 0.044685 0.014743 -130084.000000 0 0 1
25.178192 28.420074 33.136769 50.395311 0.845809 0.853252 0.064741 0.010397 240978.000000 0 0 1
25.007892 27.041074 33.341930 49.681975 0.824441 0.835095 0.082135 -0.007281 -269495.000000 0 0 1
25.427192 26.131114 32.189315 48.636706 0.799050 0.847537 0.142776 -0.018306 -425678.000000 0 0 1
26.822292 26.025914 32.123961 49.282171 0.770330 0.860792 0.133014 -0.022097 -54571.900000 0 0 1
27.235392 25.371544 30.936269 48.399737 0.749983 0.877361 0.171946 -0.042265 29488.000000 0 0 1
28.612492 24.670774 31.035189 48.892788 0.711556 0.883098 0.140621 -0.026208 -90683.500000 0 0 1
28.577492 23.541754 31.864242 48.848921 0.689078 0.860179 0.137019 -0.025392 93404.200000 0 0 1
29.224192 23.801324 33.063081 50.137049 0.683483 0.850704 0.119179 -0.030269 -1112480.000000 0 0 1
28.908492 22.941424 -33.306631 49.712589 0.670819 2.304983 0.119243 -0.042510 -425922.000000 0 0 1
27.804692 23.291124 -32.466491 48.679055 0.697291 2.300904 0.122286 -0.047126 440092.000000 0 0 1
26.524292 22.983494 -32.966821 48.151743 0.714000 2.324912 0.122305 -0.039183 -413764.000000 0 0 1
26.170692 21.471984 -33.032951 47.298277 0.687092 2.343951 0.113396 -0.036601 -1079690.000000 0 0 1
25.860492 20.966484 -31.745631 46.001560 0.681264 2.332422 0.093729 -0.054319 316274.000000 0 0 1
25.886892 19.612184 -31.722041 45.398863 0.648354 2.344432 0.109993 -0.053792 -406182.000000 0 0 1
25.639692 18.979684 -30.312111 44.005071 0.637229 2.330673 0.121759 -0.048920 -226624.000000 0 0 1
24.339892 19.147684 -29.799341 42.977492 0.666565 2.336953 0.104468 -0.043411 117008.000000 0 0 1
24.326692 18.729484 -28.425261 41.839897 0.656125 2.317716 0.119250 -0.034798 412804.000000 0 0 1
22.885992 18.753184 -27.819761 40.612678 0.686469 2.325403 0.112591 -0.028573 336608.000000 0 0 1
22.819092 18.220684 -26.489581 39.425907 0.673816 2.307544 0.116570 -0.020726 90868.400000 0 0 1
23.349992 19.008984 -25.421301 39.405661 0.683273 2.271974 0.107041 -0.016314 -196900.000000 0 0 1
23.712192 18.249684 -24.112041 38.427978 0.655948 2.249084 0.130521 -0.016967 172995.000000 0 0 1
24.691992 17.214184 -24.193041 38.617688 0.608815 2.247820 0.149665 -0.020236 566269.000000 0 0 1
24.655492 16.403884 -22.967741 37.476630 0.587072 2.230465 0.151492 -0.024039 -514975.000000 0 0 1
25.736692 15.362984 -23.145841 37.869889 0.538159 2.228364 0.173746 -0.022856 208275.000000 0 0 1
27.093792 15.772184 -22.915141 38.832190 0.527178 2.201987 0.181858 -0.030555 1127220.000000 0 0 1
28.114392 14.788684 -22.921441 39.172907 0.484245 2.195843 0.171536 -0.033927 189972.000000 0 0 1
28.057492 13.811284 -21.695741 38.061524 0.457428 2.177324 0.157744 -0.026401 -964215.000000 0 0 1
26.985092 12.920284 -21.736341 36.981041 0.446539 2.199096 0.171600 -0.017092 -357080.000000 0 0 1
26.629192 12.545584 -20.406441 35.817989 0.440279 2.176969 0.130040 -0.018270 -220781.000000 0 0 1
25.129692 12.197484 -20.364041 34.568399 0.451884 2.200734 0.148044 -0.018214 -325065.000000 0 0 1
24.311092 13.353584 -20.361641 34.408484 0.502290 2.204039 0.160468 -0.020388 377250.000000 0 0 1
22.987692 12.964184 -20.751941 33.573011 0.513499 2.237137 0.145510 -0.027205 283480.000000 0 0 1
21.948892 14.031284 -20.501441 33.150262 0.568796 2.237552 0.119175 -0.024950 -868856.000000 0 0 1
22.197592 15.156284 -21.329741 34.313319 0.599082 2.241602 0.122586 -0.023974 567511.000000 0 0 1
21.152892 16.125184 -21.223141 34.027755 0.651337 2.244265 0.085651 -0.018678 647234.000000 0 0 1
19.895992 15.908184 -22.128841 33.743242 0.674477 2.286039 0.075777 -0.008872 96287.300000 0 0 1
19.073992 14.870384 -21.674841 32.476826 0.662187 2.301500 0.052112 -0.009651 -129303.000000 0 0 1
17.922892 14.776784 -22.475141 32.322057 0.689481 2.339703 0.049182 -0.014208 459931.000000 0 0 1
16.827792 13.734984 -22.001941 30.917790 0.684546 2.362608 0.043499 -0.016748 834680.000000 0 0 1
15.640092 13.822884 -22.761441 30.883131 0.723799 2.399445 0.045483 -0.016126 -457863.000000 0 0 1
14.593292 13.033484 -22.308641 29.673411 0.728998 2.421593 0.060144 -0.023786 -951527.000000 0 0 1
13.314692 13.271584 -23.090241 29.775412 0.783777 2.458272 0.059207 -0.032350 -640222.000000 0 0 1
12.778692 14.607684 -22.933041 30.043365 0.852084 2.439251 0.084951 -0.036928 -22700.100000 0 0 1
12.187292 15.054584 -24.098941 30.918110 0.890265 2.464574 0.073978 -0.030969 -860392.000000 0 0 1
11.789692 16.517184 -24.024841 31.448485 0.950880 2.440198 0.074364 -0.042422 -75465.800000 0 0 1
12.772292 17.579584 -23.897541 32.299623 0.942479 2.403674 0.059794 -0.033886 808014.000000 0 0 1
13.870392 17.585984 -24.835641 33.443440 0.902972 2.407765 0.052755 -0.027164 316005.000000 0 0 1
13.568992 17.480584 -26.367531 34.422885 0.910717 2.443374 0.085692 -0.035977 -558739.000000 0 0 1
14.735192 17.611284 -27.141251 35.551803 0.874080 2.439401 0.071775 -0.038065 97242.000000 0 0 1
14.452392 17.050884 -28.387831 36.131333 0.867695 2.474598 0.094696 -0.042270 207241.000000 0 0 1
15.421992 17.432884 -29.558351 37.622326 0.846527 2.474558 0.096868 -0.037849 998472.000000 0 0 1
16.749092 16.915284 -29.429151 37.851471 0.790335 2.461462 0.067434 -0.027273 540201.000000 0 0 1
17.660192 17.305484 -30.427261 39.206892 0.775254 2.459205 0.076261 -0.022507 31183.300000 0 0 1
18.851492 16.301184 -30.365221 39.282999 0.712976 2.454331 0.089010 -0.020818 -275823.000000 0 0 1
19.969092 16.801684 -31.061761 40.569622 0.699471 2.442833 0.104981 -0.027428 226021.000000 0 0 1
21.084992 15.915384 -30.961591 40.700079 0.646579 2.435227 0.130061 -0.027443 667348.000000 0 0 1
22.393292 16.536184 -31.557781 42.080856 0.636064 2.418756 0.139926 -0.029150 310946.000000 0 0 1
22.392392 16.754284 -32.965451 43.230154 0.642357 2.438053 0.135652 -0.037260 68081.700000 0 0 1
23.534892 17.494284 -33.321041 44.387305 0.639221 2.419900 0.135608 -0.041761 -375325.000000 0 0 1
23.773292 17.668184 32.768824 44.171597 0.639131 0.734967 0.111067 -0.030350 -718726.000000 0 0 1
24.747992 18.611884 32.545400 44.922916 0.644816 0.760528 0.104707 -0.023296 -476609.000000 0 0 1
24.892892 18.884684 31.180049 44.141622 0.649006 0.786448 0.115153 -0.027232 -883547.000000 0 0 1
26.029692 19.841284 30.864969 44.987417 0.651299 0.814709 0.147022 -0.033579 287647.000000 0 0 1
27.357592 19.370184 31.109049 45.731988 0.616100 0.822697 0.118033 -0.023519 456834.000000 0 0 1
28.267692 20.425984 30.872319 46.576639 0.625727 0.846206 0.111084 -0.034106 -226061.000000 0 0 1
29.697592 20.090484 31.313669 47.603785 0.594781 0.852905 0.128146 -0.027748 -358312.000000 0 0 1
29.861592 19.779784 32.686719 48.490990 0.585030 0.831080 0.102551 -0.030885 -332990.000000 0 0 1
31.180892 19.847084 33.147658 49.647981 0.566836 0.839744 0.104774 -0.018793 -383520.000000 0 0 1
31.278592 19.448584 -32.958401 49.425236 0.556285 2.300748 0.084859 -0.007037 -283247.000000 0 0 1
30.691092 20.415784 -32.068581 48.858379 0.586988 2.286777 0.065404 -0.027432 113683.000000 0 0 1
30.413492 19.739084 -30.835841 47.596859 0.575689 2.275561 0.089466 -0.037143 -5004.050000 0 0 1
31.439992 19.947684 -29.690621 47.622643 0.565379 2.243951 0.105487 -0.047442 1025300.000000 0 0 1
32.672592 19.210184 -29.833601 48.234564 0.531520 2.237642 0.105864 -0.052734 1034830.000000 0 0 1
33.645992 19.542084 -28.848501 48.437401 0.526193 2.208788 0.127934 -0.057959 479754.000000 0 0 1
35.030492 18.849584 -28.901791 49.170679 0.493654 2.199115 0.062681 -0.039398 310899.000000 0 0 1
36.026992 19.489984 -29.652171 50.567330 0.495894 2.197391 0.069436 -0.036225 -385505.000000 0 0 1
37.040092 19.977884 -28.822791 51.008210 0.494636 2.171304 0.041087 -0.020957 -546798.000000 0 0 1
-37.540257 20.869584 -29.498011 52.105115 -0.507381 2.172594 0.054253 -0.017160 -63544.400000 0 0 1
-36.748057 20.136684 -30.392481 51.764936 -0.501280 2.198299 0.040729 -0.013199 -134098.000000 0 0 1
-35.873657 21.032384 -31.049921 51.897765 -0.530278 2.212162 0.043819 -0.009040 -261387.000000 0 0 1
-34.921657 20.464984 -32.074961 51.644369 -0.530081 2.240908 0.049716 -0.015665 -394626.000000 0 0 1
-34.119057 19.393884 -31.671651 50.431401 -0.516874 2.249796 0.055946 -0.007370 -99763.200000 0 0 1
-33.388757 18.895384 -32.770491 50.455423 -0.514984 2.277715 0.073084 -0.008151 -27572.600000 0 0 1
-32.490157 17.678084 -32.483741 49.227212 -0.498307 2.291447 0.063584 -0.001904 -154925.000000 0 0 1
-33.250557 16.535184 -32.216691 49.162252 -0.461478 2.285394 0.070074 -0.005234 259921.000000 0 0 1
-32.546057 15.290084 -32.486541 48.460374 -0.439196 2.305508 0.068752 -0.004642 154285.000000 0 0 1
-33.513857 14.097284 -32.639581 48.859536 -0.398172 2.302353 0.075503 -0.010341 -267770.000000 0 0 1
-32.939157 12.819584 -32.735331 48.176049 -0.371153 2.317869 0.082249 -0.019574 -745065.000000 0 0 1
-33.897057 11.842984 -32.903941 48.702526 -0.336123 2.312589 0.093795 -0.022017 -589430.000000 0 0 1
-33.352157 10.400984 -32.835241 47.944759 -0.302296 2.325202 0.096220 -0.015820 -335520.000000 0 0 1
-32.644757 10.060884 33.611069 47.922912 -0.298956 0.793497 0.065202 -0.015018 -252869.000000 0 0 1
-33.033357 8.796984 33.115411 47.594328 -0.260266 0.801284 0.105056 -0.027366 -555743.000000 0 0 1
-32.046457 8.227484 32.141442 46.127423 -0.251308 0.799874 0.120229 -0.027243 -737267.000000 0 0 1
-30.899157 7.713684 32.743086 45.676783 -0.244640 0.771532 0.084526 -0.016821 -254674.000000 0 0 1
-29.928157 7.420084 31.727747 44.242538 -0.243029 0.771118 0.084683 -0.017072 343969.000000 0 0 1
21.790792 -4.075706 -31.697041 38.680129 -0.184902 2.531275 0.096883 -0.065169 837545.000000 0 0 1
23.169592 -4.047906 -32.126051 39.815809 -0.172962 2.509625 0.091878 -0.063912 926862.000000 0 0 1
24.003992 -3.048806 -31.608481 39.806820 -0.126336 2.488234 0.103286 -0.057743 43832.200000 0 0 1
23.794692 -1.589306 -32.114901 40.001001 -0.066693 2.502861 0.096439 -0.048241 -854141.000000 0 0 1
24.747992 -0.713406 -31.637791 40.173646 -0.028819 2.477581 0.096652 -0.046442 -176480.000000 0 0 1
24.563892 0.566594 -32.082471 40.410280 0.023062 2.488023 0.072561 -0.041764 -849872.000000 0 0 1
25.591292 1.504494 -31.513641 40.623728 0.058722 2.458691 0.078107 -0.035728 182110.000000 0 0 1
26.950392 1.398094 -31.934691 41.810319 0.051830 2.439975 0.087432 -0.039833 656878.000000 0 0 1
27.803092 2.336794 -31.322751 41.947434 0.083851 2.413905 0.097617 -0.035401 1154110.000000 0 0 1
29.336992 2.383294 -31.730461 43.280034 0.081060 2.393729 0.099386 -0.040508 1301610.000000 0 0 1
29.561692 2.819594 -33.063331 44.441282 0.095092 2.409800 0.096724 -0.035863 160887.000000 0 0 1
29.633092 1.796594 33.546989 44.796745 0.060554 0.724439 0.092828 -0.033729 -551169.000000 0 0 1
30.186192 2.192094 32.214946 44.201970 0.072492 0.754210 0.078109 -0.038767 -296955.000000 0 0 1
29.412992 3.198094 31.614668 43.299412 0.108305 0.752268 0.060637 -0.026255 406885.000000 0 0 1
30.078892 4.448294 31.707947 43.930865 0.146823 0.764441 0.089461 -0.027985 -186475.000000 0 0 1
29.245492 5.585694 31.118549 43.068119 0.188720 0.763323 0.092809 -0.024184 -549646.000000 0 0 1
29.816892 6.847294 31.279409 43.753101 0.225731 0.774305 0.105843 -0.042516 -147256.000000 0 0 1
29.049092 7.976894 30.856849 43.123377 0.267995 0.773388 0.095918 -0.041961 -262067.000000 0 0 1
29.676592 9.329494 31.161649 44.031669 0.304590 0.784545 0.093921 -0.035008 -353415.000000 0 0 1
30.980392 9.532794 30.699629 44.644440 0.298510 0.812553 0.076019 -0.036249 -491858.000000 0 0 1
31.470692 10.773494 31.059899 45.510328 0.329829 0.819646 0.074919 -0.024878 -630079.000000 0 0 1
32.869892 11.180694 30.643699 46.308465 0.327873 0.847672 0.081782 -0.027304 -1854350.000000 0 0 1
33.921892 10.587194 31.367049 47.399105 0.302525 0.847626 0.099028 -0.042690 1777360.000000 0 0 1
35.222192 11.000994 30.782019 48.053692 0.302731 0.875549 0.106020 -0.040725 1749380.000000 0 0 1
35.580992 12.514694 30.924349 48.774377 0.338210 0.884045 0.105751 -0.035129 -1466440.000000 0 0 1
35.765892 12.913894 32.295243 49.889381 0.346500 0.866711 0.114925 -0.027997 396053.000000 0 0 1
36.146992 14.270994 32.469398 50.641169 0.376019 0.874780 0.121891 -0.013527 -94770.000000 0 0 1
34.945192 15.220594 32.308930 49.966988 0.410778 0.867670 0.118700 -0.021298 -794283.000000 0 0 1
34.572592 15.464294 30.967039 48.922040 0.420606 0.885390 0.103586 -0.031029 -300892.000000 0 0 1
33.597492 16.440394 30.816819 48.463949 0.455078 0.881660 0.085198 -0.024705 -243245.000000 0 0 1
32.161392 15.913194 31.059779 47.458347 0.459472 0.857323 0.078950 -0.021590 -756857.000000 0 0 1
31.709592 15.040394 30.060249 46.209633 0.442891 0.862529 0.081209 -0.016106 -76392.100000 0 0 1
30.502792 14.414294 30.430049 45.433248 0.441453 0.836891 0.078558 -0.024779 -92681.100000 0 0 1
29.742592 13.856094 29.210019 43.929925 0.435970 0.843406 0.096724 -0.021740 -200221.000000 0 0 1
29.987692 12.545794 28.800409 43.429508 0.396237 0.845773 0.090834 -0.023952 503886.000000 0 0 1
28.955792 12.248694 27.850089 42.001141 0.400187 0.845871 0.108149 -0.032306 357298.000000 0 0 1
28.705492 10.753594 27.457679 41.152997 0.358436 0.840340 0.103965 -0.022976 -1059410.000000 0 0 1
29.691692 10.111594 26.740849 41.217883 0.328234 0.864832 0.102244 -0.025995 -568863.000000 0 0 1
29.634592 8.742494 26.958489 41.004882 0.286872 0.853372 0.108291 -0.027549 -337704.000000 0 0 1
30.954292 8.048594 26.632149 41.619940 0.254383 0.876442 0.092370 -0.031907 -601388.000000 0 0 1
31.164692 8.093694 25.233249 40.907979 0.254094 0.906088 0.099800 -0.027799 -179019.000000 0 0 1
32.212992 7.253494 24.858219 41.330631 0.221479 0.925484 0.114812 -0.025610 -165813.000000 0 0 1
32.834692 7.412194 23.470449 41.035589 0.222021 0.961911 0.116544 -0.020340 123481.000000 0 0 1
33.669992 8.526994 23.162779 41.747961 0.248037 0.982645 0.104066 -0.030186 304325.000000 0 0 1
33.002392 9.810094 22.928039 41.365333 0.288936 0.983297 0.102474 -0.033631 -437956.000000 0 0 1
32.241392 9.969494 21.601259 40.068847 0.299889 1.001424 0.114068 -0.021126 78379.900000 0 0 1
33.092192 10.196194 20.491759 40.236398 0.298885 1.036444 0.121091 -0.031617 -120178.000000 0 0 1
32.408692 10.076294 19.279459 39.032711 0.301439 1.054192 0.140112 -0.040208 -1018490.000000 0 0 1
33.160592 10.781694 18.077459 39.276765 0.314355 1.092510 0.149198 -0.068605 1179760.000000 0 0 1
34.464492 10.322194 17.706559 40.098268 0.291000 1.113438 0.149795 -0.061680 1117870.000000 0 0 1
35.484692 10.356594 18.717759 41.434006 0.283973 1.102072 0.134204 -0.052448 -477852.000000 0 0 1
36.878392 9.962594 18.203259 42.315809 0.263849 1.126108 0.175412 -0.043455 -16807.000000 0 0 1
36.902492 8.545794 17.946459 41.915389 0.227566 1.128341 0.166640 -0.040644 762154.000000 0 0 1
-37.399657 8.105294 17.693159 42.160147 -0.213421 1.137720 0.179627 -0.044448 381084.000000 0 0 1
-37.385457 6.622494 17.353659 41.745410 -0.175322 1.142082 0.177333 -0.041782 -153954.000000 0 0 1
37.488092 6.333494 16.200059 41.326893 0.167366 1.167994 0.176420 -0.041167 161313.000000 0 0 1
37.715492 4.980794 15.728359 41.166101 0.131302 1.178760 0.185324 -0.039298 5342.750000 0 0 1
36.427792 4.134994 15.634659 39.856301 0.113028 1.167692 0.183346 -0.035975 2986.630000 0 0 1
36.352592 3.257894 16.744859 40.156134 0.089381 1.140661 0.177493 -0.025287 306405.000000 0 0 1
35.035392 2.740094 16.864959 38.979656 0.078050 1.123355 0.150611 -0.022267 255188.000000 0 0 1
34.859792 1.816594 18.118559 39.329216 0.052064 1.092024 0.153037 -0.030917 69917.700000 0 0 1
35.386892 0.497594 18.047359 39.726400 0.014061 1.099220 0.173424 -0.023534 26367.700000 0 0 1
35.307792 -0.197506 19.274659 40.226753 -0.005594 1.071110 0.154007 -0.021445 170413.000000 0 0 1
35.626092 -1.677606 19.188759 40.499892 -0.047055 1.077198 0.149309 -0.018773 129774.000000 0 0 1
35.164692 -2.366106 20.347059 40.695906 -0.067185 1.047223 0.144069 -0.016027 118305.000000 0 0 1
35.749592 -3.641306 20.480059 41.360914 -0.101506 1.052783 0.112784 -0.013346 -68718.800000 0 0 1
35.185592 -4.318306 21.726359 41.577738 -0.122119 1.020960 0.109541 -0.014452 -205508.000000 0 0 1
35.529592 -3.757506 22.941939 42.459431 -0.105365 0.999972 0.108405 -0.016228 -111150.000000 0 0 1
34.957992 -4.321706 24.078609 42.667526 -0.123002 0.971174 0.094200 -0.019611 -82787.600000 0 0 1
35.181792 -3.565506 25.425209 43.553560 -0.101000 0.947434 0.065392 -0.014112 328595.000000 0 0 1
34.451192 -4.158506 26.518949 43.674162 -0.120126 0.918265 0.067681 -0.014669 211805.000000 0 0 1
34.709392 -3.547206 27.775399 44.595934 -0.101844 0.898450 0.075474 -0.018460 -28020.100000 0 0 1
33.908092 -4.212706 28.888389 44.744213 -0.123606 0.868943 0.064803 -0.020867 794.898000 0 0 1
34.343792 -5.561706 29.073999 45.340115 -0.160548 0.874680 0.068157 -0.023109 -121022.000000 0 0 1
33.462092 -6.233206 29.925369 45.322093 -0.184166 0.849602 0.069759 -0.033817 -194732.000000 0 0 1
33.904392 -7.652206 30.277589 46.095514 -0.221980 0.854170 0.069956 -0.020420 -76271.600000 0 0 1
34.969292 -7.700306 31.188969 47.485765 -0.216743 0.854220 0.079627 -0.019719 -547242.000000 0 0 1
35.763892 -8.828406 31.029779 48.164758 -0.242014 0.870764 0.081414 -0.003458 469216.000000 0 0 1
37.141692 -8.735606 31.761140 49.644598 -0.230998 0.876597 0.115653 -0.003900 429684.000000 0 0 1
36.960692 -8.902006 33.132625 50.429250 -0.236349 0.853948 0.088058 -0.012425 314936.000000 0 0 1
-37.465457 -8.963906 -33.722671 51.197955 0.234843 2.289849 0.054086 -0.016599 -214296.000000 0 0 1
-37.735657 -9.054006 -32.188791 50.418976 0.235481 2.263248 0.072976 -0.019550 170259.000000 0 0 1
37.094092 -8.041406 -31.537501 49.348250 -0.213481 2.264098 0.058507 -0.029543 605050.000000 0 0 1
37.380892 -6.666106 -31.780941 49.515616 -0.176474 2.267687 0.050229 -0.026040 -531032.000000 0 0 1
36.758792 -5.776806 -30.719021 48.251824 -0.155879 2.260929 0.069819 -0.019159 -396540.000000 0 0 1
37.311992 -5.883706 -29.446011 47.894366 -0.156402 2.232943 0.066227 -0.006130 -27012.800000 0 0 1
36.704392 -4.971506 -28.567911 46.776637 -0.134628 2.227779 0.077095 -0.020784 -212203.000000 0 0 1
37.259292 -5.161206 -27.162731 46.397272 -0.137645 2.196217 0.081613 -0.027123 618036.000000 0 0 1
-37.048057 -4.647506 -27.077701 46.123310 0.124793 2.198233 0.090214 -0.021604 217268.000000 0 0 1
-36.600657 -4.636006 -25.734661 44.981923 0.125994 2.179874 0.096563 -0.024976 -107724.000000 0 0 1
-35.094557 -4.352406 -25.665901 43.695650 0.123389 2.198613 0.123751 -0.017641 -637697.000000 0 0 1
-34.702757 -3.810206 -24.438641 42.615093 0.109357 2.181536 0.140859 -0.027813 1527260.000000 0 0 1
-33.284357 -3.730406 -24.104241 41.264740 0.111611 2.194612 0.162171 -0.023417 1811940.000000 0 0 1
-32.395657 -2.762106 -24.928441 40.969928 0.085056 2.224911 0.156572 -0.023655 -283778.000000 0 0 1
-32.015057 -3.207406 -26.197821 41.491892 0.099851 2.254149 0.157798 -0.017357 -153927.000000 0 0 1
-30.980957 -2.572106 -26.900361 41.110398 0.082832 2.284112 0.150236 -0.021661 16990.300000 0 0 1
-30.668457 -3.326906 -28.203161 41.797618 0.108057 2.311429 0.137362 -0.019970 7596.220000 0 0 1
-31.655357 -3.196906 -29.206061 43.188839 0.100650 2.313444 0.152363 -0.021304 -148469.000000 0 0 1
-31.332857 -4.004106 -30.304391 43.773701 0.127104 2.335463 0.124660 -0.009213 -304380.000000 0 0 1
-32.557357 -4.342506 -31.197581 45.300418 0.132598 2.330466 0.119702 -0.016163 141509.000000 0 0 1
-33.612057 -5.187206 -30.690041 45.810000 0.153118 2.304927 0.115037 -0.014395 613862.000000 0 0 1
-34.428357 -4.618306 -29.708261 45.708000 0.133346 2.278325 0.125161 -0.016132 -676328.000000 0 0 1
-35.472657 -3.587606 -30.222521 46.739502 0.100795 2.273936 0.135344 -0.024532 -700918.000000 0 0 1
-34.990557 -2.300706 -30.733671 46.628219 0.065658 2.290447 0.157724 -0.023102 -4693.860000 0 0 1
-34.631357 -1.342106 -29.758321 45.680300 0.038735 2.280287 0.168044 -0.018925 -172748.000000 0 0 1
-34.365257 -0.001806 -30.406441 45.885973 0.000053 2.295151 0.152212 -0.024912 278978.000000 0 0 1
-35.518457 0.659094 -30.931871 47.103883 -0.018554 2.287196 0.166423 -0.019081 446509.000000 0 0 1
-35.246957 2.004894 -31.325751 47.198202 -0.056820 2.296559 0.162566 -0.011283 455481.000000 0 0 1
-36.591757 2.668894 -31.751051 48.520191 -0.072808 2.284170 0.153852 -0.013339 434598.000000 0 0 1
-37.000057 2.209094 -33.033951 49.650037 -0.059634 2.298740 0.167132 -0.019404 -20899.200000 0 0 1
37.335792 2.678594 -33.312351 50.108372 0.071621 2.298031 0.143994 -0.021607 -4593.640000 0 0 1
36.711192 2.170394 32.969988 49.390711 0.059052 0.839904 0.118332 -0.024134 132514.000000 0 0 1
37.370692 2.629294 31.780926 49.127477 0.070241 0.867274 0.134942 -0.026233 263022.000000 0 0 1
-37.425757 1.647394 31.225409 48.769123 -0.043989 0.875947 0.128559 -0.021699 -285469.000000 0 0 1
-37.159157 1.776694 29.722279 47.616945 -0.047777 0.896695 0.143855 -0.026085 620959.000000 0 0 1
-36.110757 2.732694 29.407429 46.650308 -0.075531 0.888753 0.146904 -0.032995 805566.000000 0 0 1
-36.047057 2.886794 27.961349 45.711715 -0.079913 0.912603 0.122803 -0.024909 148527.000000 0 0 1
-35.489857 4.263394 27.570689 45.142545 -0.119557 0.913792 0.120114 -0.021237 -231577.000000 0 0 1
-35.313857 4.439794 26.191619 44.190283 -0.125068 0.936388 0.123346 -0.021457 292676.000000 0 0 1
-34.685857 5.693094 25.934649 43.682101 -0.162682 0.935131 0.124170 -0.022762 -36516.600000 0 0 1
-33.845957 5.985894 24.674309 42.310770 -0.175047 0.948173 0.124192 -0.021427 -226997.000000 0 0 1
-32.616457 5.300094 24.686329 41.247292 -0.161089 0.929174 0.098572 -0.013695 12642.000000 0 0 1
-31.712257 5.654194 23.673429 39.975847 -0.176443 0.937018 0.089815 -0.014477 26797.800000 0 0 1
-32.083457 5.126394 22.246159 39.376639 -0.158444 0.970414 0.105235 -0.019293 -290463.000000 0 0 1
-32.090257 3.746394 22.141159 39.166963 -0.116219 0.969997 0.084684 -0.012327 -333828.000000 0 0 1
-32.572857 3.446994 20.894159 38.851495 -0.105432 1.002976 0.119502 -0.015896 -280086.000000 0 0 1
-32.461657 1.954494 20.509359 38.447536 -0.060137 1.008137 0.096867 -0.008661 391081.000000 0 0 1
-31.204057 1.498694 20.011359 37.099781 -0.047992 1.001080 0.081442 -0.010801 193989.000000 0 0 1
-30.931557 1.856394 18.649059 36.166211 -0.059944 1.029032 0.100308 -0.020164 390976.000000 0 0 1
-29.610157 1.267394 18.051159 34.701758 -0.042777 1.023735 0.120219 -0.027328 232624.000000 0 0 1
-29.700957 -0.124106 17.767459 34.609895 0.004179 1.031697 0.115539 -0.019680 69031.600000 0 0 1
-28.643757 -0.699706 17.018559 33.325452 0.024423 1.034824 0.129364 -0.020700 -176713.000000 0 0 1
-28.509257 -0.260606 15.526159 32.463938 0.009141 1.072126 0.156478 -0.021127 -154113.000000 0 0 1
-28.100357 1.110694 15.417959 32.071438 -0.039505 1.069300 0.161385 -0.027590 99822.000000 0 0 1
-28.101657 1.497594 14.068459 31.462159 -0.053242 1.107214 0.191797 -0.033142 -309118.000000 0 0 1
-27.312357 2.777294 13.757959 30.707648 -0.101338 1.106235 0.177940 -0.031668 -588878.000000 0 0 1
-25.941757 2.498094 13.738359 29.461122 -0.096000 1.085668 0.167967 -0.039953 -399171.000000 0 0 1
-25.256557 3.512294 12.975459 28.611054 -0.138178 1.100094 0.162525 -0.044906 -351285.000000 0 0 1
-23.739057 3.381394 13.006959 27.279252 -0.141488 1.073777 0.137921 -0.041720 -694369.000000 0 0 1
-23.171757 3.694894 14.261259 27.458442 -0.158126 1.024676 0.119393 -0.025601 370850.000000 0 0 1
-21.822057 4.092994 14.024659 26.261108 -0.185408 1.007417 0.108808 -0.025690 367314.000000 0 0 1
-21.218757 4.941494 15.163559 26.544067 -0.228805 0.962756 0.103147 -0.026651 -282328.000000 0 0 1
-21.692957 6.256494 15.167059 27.198672 -0.280791 0.979257 0.096069 -0.011884 365907.000000 0 0 1
-21.378857 6.849094 16.381459 27.790606 -0.310036 0.940406 0.085441 -0.002455 -143786.000000 0 0 1
-21.740857 8.343294 16.346759 28.451572 -0.366429 0.958746 0.104092 -0.004919 -831964.000000 0 0 1
-20.821157 9.016694 15.531159 27.496149 -0.408673 0.970547 0.082860 -0.008721 562112.000000 0 0 1
-20.725257 10.390994 15.881359 28.102074 -0.464742 0.970204 0.071061 -0.001736 -383669.000000 0 0 1
-20.013057 10.776194 17.177959 28.490894 -0.493939 0.923630 0.069245 -0.003002 -566169.000000 0 0 1
-20.733957 10.519294 18.378859 29.636716 -0.469507 0.901878 0.088913 -0.014069 516839.000000 0 0 1
-19.957157 10.900294 19.497159 29.954027 -0.499909 0.862023 0.089455 -0.014547 -36853.500000 0 0 1
-12.668808 -32.867897 -20.088541 40.550547 1.202899 2.089086 0.147364 -0.053329 248822.000000 0 0 1
-13.703508 -33.332397 -19.240041 40.853568 1.180743 2.061165 0.164454 -0.048267 77524.700000 0 0 1
-14.813608 -32.440797 -19.157741 40.482927 1.142438 2.063750 0.149928 -0.069198 377458.000000 0 0 1
-15.970608 -33.097097 -18.367841 41.083522 1.121216 2.034301 0.149330 -0.053865 -733348.000000 0 0 1
-16.552008 33.522994 -19.093941 41.980218 -1.112160 2.042980 0.127013 -0.057836 120400.000000 0 0 1
-17.486508 32.702494 -18.408241 41.401623 -1.079764 2.031553 0.145955 -0.054633 393614.000000 0 0 1
-18.875908 33.288294 -18.062341 42.316174 -1.054962 2.011795 0.138687 -0.050713 -598436.000000 0 0 1
-18.858108 -33.356697 -17.085441 41.954854 1.056247 1.990220 0.161714 -0.051027 -126372.000000 0 0 1
-20.136208 -33.116297 -16.545041 42.141362 1.024482 1.974262 0.124194 -0.043179 -6476.220000 0 0 1
-20.451908 33.743094 -15.254241 42.303295 -1.025899 1.939699 0.137723 -0.041506 -303771.000000 0 0 1
-20.606608 32.345294 -15.391541 41.324930 -1.003556 1.952446 0.145309 -0.046455 189240.000000 0 0 1
-20.719208 31.735494 -14.139841 40.451975 -0.992405 1.927883 0.156323 -0.043105 4468.590000 0 0 1
-20.907008 30.231794 -14.186241 39.399413 -0.965759 1.939131 0.152280 -0.045466 -673710.000000 0 0 1
-19.725708 29.524794 -14.225641 38.251613 -0.981798 1.951848 0.186272 -0.054935 -717495.000000 0 0 1
-19.914508 28.143194 -14.218841 37.293464 -0.954979 1.961965 0.187625 -0.056664 702363.000000 0 0 1
-18.699508 27.418094 -13.492141 35.825429 -0.972244 1.956928 0.178824 -0.054482 1664920.000000 0 0 1
-17.446108 27.689594 -14.157841 35.658446 -1.008567 1.979086 0.198177 -0.061108 65050.000000 0 0 1
-16.418508 26.947194 -13.595441 34.359201 -1.023578 1.977611 0.197490 -0.065516 -1348280.000000 0 0 1
-15.043708 27.380994 -13.965941 34.221039 -1.068397 1.991179 0.170411 -0.066174 -1086220.000000 0 0 1
-14.843708 27.283594 -15.416241 34.675505 -1.072531 2.031508 0.139625 -0.057925 64106.500000 0 0 1
-13.499708 27.575694 -15.778941 34.520081 -1.115543 2.045522 0.160445 -0.055338 344540.000000 0 0 1
-13.381308 27.995794 -17.283541 35.518230 -1.124923 2.079002 0.177666 -0.067322 27453.400000 0 0 1
-13.324808 26.888794 -18.203841 35.098968 -1.110713 2.116060 0.141968 -0.057754 43426.200000 0 0 1
-13.932508 27.195294 -19.429441 36.210523 -1.097347 2.137162 0.113190 -0.052955 -54808.200000 0 0 1
-13.497608 26.165794 -20.508341 35.880722 -1.094550 2.179214 0.084655 -0.024134 -450643.000000 0 0 1
-12.163808 26.421994 -20.814141 35.767422 -1.139355 2.191896 0.063519 -0.020048 -1061580.000000 0 0 1
-11.479408 25.306894 -21.288441 35.005905 -1.144946 2.224510 0.067473 -0.022627 616163.000000 0 0 1
-10.112208 25.765894 -21.889841 35.288853 -1.196803 2.239927 0.085146 -0.022350 541594.000000 0 0 1
-10.457208 26.410194 -23.081641 36.600733 -1.193783 2.253165 0.076872 -0.017449 866146.000000 0 0 1
-9.233108 26.551294 -23.802341 36.834399 -1.236131 2.273389 0.069579 -0.025185 607395.000000 0 0 1
-9.526808 27.195894 -25.158151 38.253226 -1.233851 2.288523 0.064764 -0.025606 -139309.000000 0 0 1
-10.403108 26.464894 -25.975081 38.513895 -1.196260 2.310994 0.056960 -0.019258 -333078.000000 0 0 1
-10.715808 27.100194 -27.168101 39.841621 -1.194249 2.321157 0.066050 -0.019192 640737.000000 0 0 1
-11.968308 26.365894 -27.784001 40.129185 -1.144678 2.335556 0.060472 -0.011457 1019860.000000 0 0 1
-12.647508 26.986994 -28.935091 41.539100 -1.132540 2.341409 0.075629 -0.011829 979122.000000 0 0 1
-13.771108 26.185494 -29.348181 41.673004 -1.086639 2.352161 0.067402 -0.008526 407301.000000 0 0 1
-14.134108 26.501294 -30.803401 43.022565 -1.080836 2.368827 0.071687 -0.015613 -249409.000000 0 0 1
-13.358408 25.904294 -31.805731 43.140283 -1.094681 2.399806 0.073750 -0.011526 -127083.000000 0 0 1
-13.303208 24.471094 -31.911281 42.357286 -1.072857 2.423989 0.060859 -0.012017 -375907.000000 0 0 1
-12.541408 23.996894 -33.109491 42.771208 -1.089212 2.456100 0.057421 -0.007165 -138850.000000 0 0 1
-13.068408 24.351794 33.176619 43.179639 -1.078260 0.694554 0.069706 -0.007569 -29345.600000 0 0 1
-12.257808 23.749994 32.225619 41.866533 -1.094337 0.692390 0.065480 -0.010876 -656487.000000 0 0 1
-12.814208 23.916094 30.811409 41.055163 -1.078922 0.721996 0.084956 -0.004768 220221.000000 0 0 1
-14.059708 23.221294 30.663379 40.952981 -1.026367 0.724628 0.085302 -0.011344 378592.000000 0 0 1
-14.428708 23.037094 29.362679 40.013276 -1.011245 0.746863 0.096866 -0.005466 -261539.000000 0 0 1
-15.641308 22.158094 29.102849 39.781999 -0.956124 0.750192 0.081621 -0.012033 -104159.000000 0 0 1
-15.335408 20.852094 29.498649 39.244807 -0.936681 0.720225 0.058218 -0.012784 -168679.000000 0 0 1
-16.523008 20.112594 29.683569 39.479621 -0.883067 0.719902 0.059072 -0.016693 239829.000000 0 0 1
-16.217908 18.646694 29.853569 38.755068 -0.854949 0.691463 0.053677 -0.025752 98777.000000 0 0 1
-15.771908 17.981094 28.684149 37.347734 -0.850756 0.695038 0.067622 -0.024396 159002.000000 0 0 1
-15.349508 16.624894 28.892009 36.697993 -0.825265 0.664393 0.053921 -0.034866 114630.000000 0 0 1
-14.948808 15.979794 27.511149 35.152297 -0.818720 0.671921 0.060523 -0.029662 72916.200000 0 0 1
-13.838608 16.652994 26.951299 34.571691 -0.877438 0.676806 0.037107 -0.022628 -305330.000000 0 0 1
-13.291308 15.959694 25.873429 33.178382 -0.876370 0.676405 0.027419 -0.019367 663201.000000 0 0 1
-12.136708 16.716494 25.108399 32.514190 -0.942812 0.688454 0.035931 -0.016741 677865.000000 0 0 1
-12.591908 17.541194 24.032229 32.307858 -0.948192 0.731982 0.033642 -0.020429 -248915.000000 0 0 1
-12.900908 18.876594 24.337989 33.393067 -0.971275 0.754179 0.039055 -0.020157 257083.000000 0 0 1
-11.883008 19.811694 25.089689 34.105741 -1.030526 0.744179 0.037812 -0.019770 339359.000000 0 0 1
-11.544708 19.476894 26.472069 34.833893 -1.035733 0.707558 0.048908 -0.016957 31514.700000 0 0 1
-12.573308 19.850894 27.371809 36.074395 -1.006188 0.709389 0.064549 -0.011344 -22259.700000 0 0 1
-12.438208 19.429394 28.853379 36.942223 -1.001359 0.674466 0.054914 -0.016295 -237683.000000 0 0 1
-11.330708 20.074594 29.428309 37.381809 -1.056942 0.664482 0.062696 -0.018281 -231966.000000 0 0 1
-11.337008 19.914594 30.848659 38.428616 -1.053270 0.638900 0.061312 -0.023099 365187.000000 0 0 1
-10.190308 20.741894 31.523238 39.086866 -1.114140 0.632602 0.040757 -0.015025 899205.000000 0 0 1
-8.907808 20.126794 31.482260 38.413143 -1.154126 0.610136 0.041313 -0.019158 295275.000000 0 0 1
-7.904408 20.997794 31.952133 39.042615 -1.210764 0.612190 0.054241 -0.022192 141578.000000 0 0 1
-6.568908 20.424794 32.437685 38.891209 -1.259630 0.584366 0.052234 -0.018878 -462347.000000 0 0 1
-6.655608 19.753094 33.681739 39.609865 -1.245803 0.554171 0.050803 -0.022834 6130.790000 0 0 1
-5.368308 19.459994 -33.394821 39.022098 -1.301627 2.597877 0.055433 -0.017982 538842.000000 0 0 1
-4.614208 18.290594 33.469364 38.419202 -1.323680 0.513232 0.044754 -0.019288 80329.800000 0 0 1
-5.303608 17.042494 33.691689 38.127480 -1.269097 0.487175 0.043844 -0.020068 382971.000000 0 0 1
-4.943308 16.155794 32.635242 36.749218 -1.273865 0.477704 0.049914 -0.011797 45203.400000 0 0 1
-5.525008 14.713294 32.633709 36.221067 -1.211577 0.448821 0.072510 -0.016700 -70379.300000 0 0 1
-4.736108 13.758594 33.345962 36.382452 -1.239272 0.411455 0.077205 -0.011185 -410293.000000 0 0 1
-5.203208 12.467894 33.283097 35.920555 -1.175441 0.385594 0.086954 -0.012892 -601776.000000 0 0 1
-4.296208 11.295294 33.634189 35.739330 -1.207340 0.344935 0.084213 -0.024587 -491285.000000 0 0 1
-4.170908 11.108594 -32.550181 34.645514 -1.211616 2.792025 0.127654 -0.040507 -454785.000000 0 0 1
-3.320508 10.033994 -32.363471 34.045573 -1.251214 2.825936 0.140404 -0.042124 -309865.000000 0 0 1
-3.494808 9.442994 -30.998371 32.592681 -1.216332 2.827522 0.157623 -0.046579 557110.000000 0 0 1
-4.642708 8.629794 -30.751301 32.274922 -1.077224 2.833100 0.161593 -0.044767 529774.000000 0 0 1
-5.378108 8.928294 -29.573541 31.356543 -1.028638 2.802743 0.183988 -0.047671 76883.000000 0 0 1
-6.571408 8.048794 -29.237881 31.029344 -0.886107 2.800129 0.163375 -0.043281 -194706.000000 0 0 1
-6.122708 6.851094 -28.577791 30.018581 -0.841482 2.830512 0.155611 -0.030188 286072.000000 0 0 1
-7.222608 6.072694 -28.126611 29.667321 -0.699123 2.817899 0.165523 -0.050375 -147349.000000 0 0 1
-7.218508 5.496794 -26.714721 28.213435 -0.650812 2.814186 0.148348 -0.048683 -146171.000000 0 0 1
-7.240008 6.418694 -25.614691 27.381193 -0.725339 2.780425 0.095653 -0.025309 -59947.400000 0 0 1
-6.008108 7.065194 -25.384681 27.025846 -0.866081 2.791306 0.113754 -0.027602 -206105.000000 0 0 1
-6.045608 8.073194 -24.173341 26.193057 -0.928032 2.746319 0.063142 -0.007592 -139763.000000 0 0 1
-6.165308 7.444194 -22.917341 24.872305 -0.879093 2.742464 0.046487 -0.002110 858142.000000 0 1 0
-7.538408 7.487494 -22.470241 24.855621 -0.782010 2.699903 0.051349 -0.005224 942848.000000 0 1 0
-7.675308 7.732594 -20.984041 23.643886 -0.789116 2.662696 0.047708 -0.003369 141105.000000 0 1 0
-7.115608 9.005094 -20.569341 23.554647 -0.902074 2.632650 0.038967 0.001370 97248.200000 0 1 0
-6.981908 9.272194 -19.167841 22.408185 -0.925382 2.597109 0.035120 0.003245 -517556.000000 0 1 0
-8.230608 9.553994 -18.329841 22.248703 -0.859673 2.538986 0.033474 0.005798 -794865.000000 0 1 0
-8.081308 9.397494 -16.922341 20.975845 -0.860558 2.509434 0.028139 0.000255 354856.000000 0 1 0
-9.246208 9.729194 -16.164241 21.010290 -0.810846 2.448617 0.029152 -0.003943 888336.000000 0 1 0
-9.897008 11.187794 -16.294241 22.104746 -0.846541 2.399621 0.053493 -0.010531 1199360.000000 0 1 0
-8.789108 12.075594 -15.925741 21.833406 -0.941629 2.388271 0.036809 -0.011823 1342400.000000 0 1 0
-9.134508 13.426094 -16.178741 22.922716 -0.973377 2.354341 0.063850 -0.022567 271160.000000 0 1 0
-8.018908 14.478394 -15.906141 22.955002 -1.064999 2.336337 0.071234 -0.021225 37340.900000 0 1 0
-7.496908 14.699494 -14.618041 22.044634 -1.099172 2.295764 0.059578 -0.015052 124623.000000 0 1 0
-8.421208 15.252094 -13.700141 22.163866 -1.066316 2.237157 0.058408 -0.027705 -593690.000000 0 1 0
-7.740308 16.029794 -12.535941 21.771919 -1.120946 2.184360 0.047086 -0.025868 210180.000000 0 1 0
-7.293708 17.362094 -12.845341 22.795685 -1.173089 2.169411 0.051358 -0.024344 14770.200000 0 1 0
-6.429208 17.587094 -13.925041 23.335538 -1.220324 2.210218 0.074675 -0.016226 -379173.000000 0 1 0
-6.304208 19.064994 -14.352641 24.682288 -1.251445 2.191362 0.089646 -0.008403 -24383.600000 0 1 0
-5.605108 19.900494 -13.442641 24.660728 -1.296252 2.147309 0.085957 -0.023616 -54469.100000 0 1 0
-5.769308 21.261594 -13.751741 25.970188 -1.305828 2.128831 0.083813 -0.021543 -232815.000000 0 0 1
-5.217908 22.232394 -12.708441 26.134467 -1.340270 2.078614 0.094953 -0.023365 -292521.000000 0 0 1
-5.501508 23.635494 -12.858241 27.463385 -1.342104 2.058044 0.077968 -0.026241 384154.000000 0 0 1
-6.845608 24.111994 -12.810741 28.148991 -1.294167 2.043286 0.076640 -0.023178 427648.000000 0 0 1
-7.665108 24.054094 -11.509141 27.745516 -1.262308 1.998531 0.043347 -0.024047 -92966.900000 0 0 1
-8.032308 22.716794 -11.086041 26.523028 -1.230932 2.002015 0.053800 -0.018377 233924.000000 0 0 1
-8.832908 22.684094 -9.892841 26.276542 -1.199472 1.956800 0.065568 -0.022039 198046.000000 0 0 1
-8.075908 22.905794 -8.589241 25.761808 -1.231833 1.910714 0.070198 -0.020967 -94001.600000 0 0 1
-7.737208 24.271194 -8.488541 26.851640 -1.262199 1.892441 0.049704 -0.013720 -704080.000000 0 0 1
-6.934608 24.570294 -7.422441 26.587229 -1.295716 1.853729 0.057497 -0.017798 -219689.000000 0 0 1
-7.028508 26.112594 -7.258941 27.999280 -1.307866 1.833047 0.050729 -0.018982 261972.000000 0 0 1
-6.013608 26.865794 -7.900641 28.641831 -1.350587 1.850263 0.043881 -0.016280 -281155.000000 0 0 1
-6.061108 26.951794 -9.308941 29.151202 -1.349589 1.895822 0.039573 -0.017027 50759.400000 0 0 1
-5.112208 27.944494 -10.053341 30.134682 -1.389856 1.910931 0.034285 -0.010960 52475.800000 0 0 1
-5.560408 29.270294 -10.127241 31.467908 -1.383066 1.898455 0.021200 -0.005748 -338944.000000 0 0 1
-6.436708 29.414894 -11.213641 32.131183 -1.355367 1.927295 0.032691 -0.005759 558995.000000 0 0 1
-7.604908 30.469494 -11.002141 33.275694 -1.326203 1.907774 0.056515 -0.011868 627435.000000 0 0 1
-8.678508 29.950494 -10.242641 32.821643 -1.288759 1.888167 0.082466 -0.007617 -64231.300000 0 0 1
-9.698408 30.925894 -10.170941 33.969369 -1.266908 1.874876 0.100367 -0.022256 152471.000000 0 0 1
-10.915808 30.602794 -9.292441 33.794013 -1.228171 1.849358 0.122248 -0.023479 152544.000000 0 0 1
-11.752708 29.543394 -9.715941 33.246620 -1.192178 1.867363 0.130348 -0.035767 53634.500000 0 0 1
-12.934708 29.528594 -8.935541 33.452779 -1.157933 1.841188 0.174189 -0.033742 355578.000000 0 0 1
-14.020608 28.526394 -9.395241 33.145183 -1.113975 1.858194 0.185986 -0.042212 186694.000000 0 0 1
-13.905708 27.233194 -8.892941 31.844936 -1.098692 1.853817 0.134139 -0.036077 -846950.000000 0 0 1
-14.936808 26.433094 -9.326641 31.761658 -1.056449 1.868834 0.155121 -0.032196 -646667.000000 0 0 1
-15.116108 25.059994 -8.736641 30.542248 -1.028030 1.860899 0.123021 -0.029718 215870.000000 0 0 1
-14.144108 24.055294 -9.015241 29.325544 -1.039260 1.883276 0.114471 -0.023577 -49842.000000 0 0 1
-14.676408 22.826094 -8.761941 28.516646 -0.999382 1.883106 0.110255 -0.026896 72922.800000 0 0 1
-13.781208 21.649694 -9.259841 27.283248 -1.003931 1.917072 0.105873 -0.023012 114220.000000 0 0 1
-13.864508 21.353794 -10.619141 27.585780 -0.994930 1.965950 0.099269 -0.022800 65662.200000 0 0 1
-13.183508 20.156594 -10.893641 26.434155 -0.991576 1.995559 0.093135 -0.025995 -145672.000000 0 0 1
-13.355508 19.710994 -12.366441 26.829494 -0.975286 2.049836 0.101438 -0.018235 1035410.000000 0 0 1
-14.647808 19.081894 -12.520141 27.118829 -0.916108 2.050681 0.112625 -0.021692 718649.000000 0 0 1
-14.860208 18.621294 -13.838041 27.551221 -0.897262 2.097014 0.113156 -0.023125 -1068010.000000 0 0 1
-16.312008 18.393294 -14.133841 28.357721 -0.845297 2.092563 0.113067 -0.016030 -927989.000000 0 0 1
-16.974708 19.636094 -14.369741 29.668272 -0.857965 2.076413 0.112739 -0.023371 154977.000000 0 0 1
-18.310708 19.366794 -14.794941 30.483520 -0.813420 2.077551 0.099396 -0.024588 62310.400000 0 0 1
-18.866208 20.629294 -15.484741 31.957453 -0.830009 2.076636 0.112956 -0.026867 -221178.000000 0 0 1
-19.309608 21.677694 -14.660441 32.522483 -0.843110 2.038434 0.112939 -0.039790 404693.000000 0 0 1
-19.983708 22.700194 -15.394641 33.935857 -0.848954 2.041641 0.127821 -0.034023 270118.000000 0 0 1
-20.514408 23.956694 -14.604141 34.756943 -0.862649 2.004439 0.133413 -0.026674 663442.000000 0 0 1
-21.600408 23.626794 -13.721041 34.829154 -0.830173 1.975725 0.140551 -0.032348 903779.000000 0 0 1
-22.409108 24.755794 -13.343941 35.959397 -0.835112 1.950972 0.155169 -0.042756 505355.000000 0 0 1
-26.535998 -0.695806 3.517859 26.777205 0.026215 1.439040 0.203760 -0.048785 -277585.000000 0 0 1
-27.030168 -0.179906 4.742359 27.443621 0.006656 1.397121 0.217154 -0.047194 -414526.000000 0 0 1
-28.416428 -0.299506 4.805059 28.821376 0.010540 1.403296 0.221848 -0.048595 -823527.000000 0 0 1
-28.996058 0.367894 6.045659 29.621896 -0.012687 1.365258 0.227634 -0.039040 -478945.000000 0 0 1
-28.941338 1.749894 5.850359 29.578538 -0.060390 1.371693 0.243154 -0.045860 -31007.200000 0 0 1
-29.396278 2.491194 6.938559 30.306614 -0.084543 1.339802 0.270121 -0.035387 -119770.000000 0 0 1
-28.360858 3.099494 7.943559 29.614950 -0.108856 1.299243 0.274840 -0.043340 -68361.800000 0 0 1
-27.656608 2.138994 8.640559 29.053787 -0.077187 1.268829 0.249564 -0.052184 287580.000000 0 0 1
-26.500938 2.578694 9.324759 28.211709 -0.097000 1.233933 0.241961 -0.063121 375826.000000 0 0 1
-25.677868 1.417594 10.014659 27.598114 -0.055151 1.199445 0.224652 -0.061375 -286268.000000 0 0 1
-24.734608 0.748894 9.235259 26.413097 -0.030268 1.213602 0.222422 -0.060892 85010.500000 0 0 1
-25.232688 -0.447706 8.591459 26.658998 0.017741 1.242667 0.190856 -0.052715 -131796.000000 0 0 1
-24.051108 -1.148606 7.883559 25.336251 0.047721 1.254386 0.168029 -0.056210 -428473.000000 0 0 1
-23.046708 -1.446306 8.781759 24.705503 0.062673 1.207393 0.178064 -0.072009 -695731.000000 0 1 0
-21.970008 -2.086506 8.149159 23.525381 0.094687 1.217067 0.196170 -0.059677 -557051.000000 0 1 0
-20.722308 -2.216606 9.005559 22.703028 0.106562 1.162912 0.152702 -0.047567 -109262.000000 0 1 0
-19.965108 -1.052506 9.383959 22.085561 0.052669 1.131955 0.127467 -0.050528 846404.000000 0 1 0
-20.606608 -0.419606 10.456159 23.111461 0.020360 1.101316 0.143171 -0.050775 -588261.000000 0 1 0
-20.190308 1.062994 10.656659 22.854822 -0.052600 1.085720 0.102178 -0.039321 -311732.000000 0 1 0
-20.685508 2.063694 9.799959 22.982347 -0.099436 1.130273 0.117808 -0.039209 -374570.000000 0 1 0
-22.047808 2.318394 9.860159 24.263214 -0.104768 1.152304 0.145536 -0.043259 -1249370.000000 0 1 0
-22.413108 3.701994 9.344659 24.563689 -0.163693 1.180540 0.140814 -0.049145 -344194.000000 0 1 0
-22.103208 4.663394 10.324259 24.837258 -0.207933 1.142110 0.114507 -0.043703 515436.000000 0 1 0
-22.526108 5.903394 9.840959 25.280824 -0.256305 1.170962 0.102321 -0.032523 -331756.000000 0 0 1
-22.728008 6.923294 11.009259 26.185839 -0.295685 1.136879 0.099917 -0.032137 794540.000000 0 0 1
-23.774408 6.483094 11.924659 27.376093 -0.266219 1.120107 0.109593 -0.029631 827324.000000 0 0 1
-23.922208 7.407494 12.968659 28.201580 -0.300286 1.092964 0.111836 -0.019097 170656.000000 0 0 1
-24.852908 6.816194 14.096959 29.374339 -0.267679 1.070247 0.137016 -0.025747 1535970.000000 0 0 1
-26.250288 6.766994 13.700859 30.374058 -0.252294 1.102831 0.141870 -0.032615 596217.000000 0 0 1
-27.073128 6.458194 14.756259 31.502535 -0.234170 1.083300 0.138423 -0.038426 -354269.000000 0 0 1
-28.551428 6.578094 14.325259 32.613930 -0.226443 1.116047 0.158563 -0.035090 -85166.000000 0 0 1
-29.043078 5.535394 13.502559 32.503232 -0.188334 1.142390 0.197373 -0.034824 467944.000000 0 0 1
-30.206968 5.958194 12.780259 33.336107 -0.194746 1.177348 0.226545 -0.030273 181436.000000 0 0 1
-30.722028 5.068094 11.636759 33.240679 -0.163494 1.213144 0.259545 -0.034210 -40520.200000 0 0 1
-31.501458 3.974994 12.080559 33.971788 -0.125521 1.207234 0.222190 -0.034358 105104.000000 0 0 1
-31.921688 3.090494 11.085659 33.932833 -0.096514 1.237993 0.226329 -0.023570 -444265.000000 0 0 1
-33.007268 2.144694 11.536759 35.031076 -0.064885 1.235203 0.172972 -0.012981 -460834.000000 0 0 1
-32.506828 1.009994 12.170059 34.724981 -0.031060 1.212724 0.162809 -0.012013 52401.400000 0 0 1
-33.573978 0.443094 12.913159 35.974408 -0.013197 1.203649 0.133109 -0.014255 204826.000000 0 0 1
-33.269988 -0.679706 13.853159 36.045307 0.020427 1.176318 0.112742 -0.021264 -270973.000000 0 0 1
-33.117718 -1.932606 13.275659 35.731798 0.058290 1.190133 0.124916 -0.014122 163559.000000 0 0 1
-33.225768 -2.876906 14.340659 36.302655 0.086371 1.164695 0.105940 -0.014248 -183817.000000 0 0 1
-33.192028 -4.331006 13.919959 36.252360 0.129750 1.176700 0.112183 -0.015748 290308.000000 0 0 1
-34.366246 -4.733306 13.222059 37.125004 0.136870 1.206652 0.100713 -0.028389 438262.000000 0 0 1
-34.332395 -6.143306 13.036159 37.234326 0.177062 1.213106 0.116855 -0.027551 -186094.000000 0 0 1
-35.594701 -6.654306 12.257359 38.229640 0.184813 1.244408 0.113119 -0.030066 412211.000000 0 0 1
-36.785588 -6.810206 12.970759 39.595442 0.183060 1.237053 0.110744 -0.039905 79490.900000 0 0 1
-37.422338 -5.620406 13.470359 40.168034 0.149074 1.228819 0.124029 -0.039657 -98539.400000 0 0 1
36.835040 -5.298906 12.811259 39.357679 -0.142875 1.239247 0.143719 -0.036955 48328.900000 0 0 1
35.815770 -6.163506 13.162159 38.652304 -0.170420 1.223319 0.138809 -0.039497 -644368.000000 0 0 1
34.557030 -5.576306 12.889859 37.301903 -0.159986 1.217966 0.151900 -0.038594 259696.000000 0 0 1
33.371640 -6.494106 13.281859 36.499966 -0.192197 1.198359 0.146415 -0.033408 -39636.300000 0 0 1
32.940210 -6.567606 14.610359 36.628588 -0.196799 1.160503 0.144195 -0.031356 -177098.000000 0 0 1
31.811260 -7.386406 14.691159 35.809851 -0.228152 1.148063 0.123634 -0.036338 -516684.000000 0 0 1
31.135720 -7.429506 16.037859 35.802842 -0.234237 1.106326 0.102490 -0.021015 -363075.000000 0 0 1
31.969190 -7.934806 17.039959 37.085718 -0.243285 1.093392 0.099503 -0.012759 28489.200000 0 0 1
31.293390 -8.063906 18.281959 37.128599 -0.252201 1.055956 0.069700 -0.013732 147104.000000 0 0 1
32.270130 -8.694406 19.323459 38.605052 -0.263177 1.046571 0.070634 -0.012928 982113.000000 0 0 1
33.435570 -7.979106 19.691959 39.615359 -0.234260 1.050567 0.074754 -0.009616 370984.000000 0 0 1
34.610900 -8.157606 18.910759 40.275026 -0.231470 1.082026 0.066517 -0.007148 213530.000000 0 0 1
35.822120 -7.443806 19.551359 41.483613 -0.204883 1.080029 0.060903 -0.010027 48503.300000 0 0 1
36.193100 -8.070206 20.781359 42.508041 -0.219388 1.059990 0.061505 -0.011145 -560671.000000 0 0 1
37.433020 -7.593706 21.198659 43.683847 -0.200145 1.064119 0.061407 -0.011165 -390998.000000 0 0 1
-37.658158 -8.156106 22.552859 44.646281 0.213288 1.041246 0.063440 -0.007082 31259.800000 0 0 1
37.253250 -7.733906 23.672159 44.810591 -0.204696 1.014233 0.060850 -0.005182 -48476.500000 0 0 1
37.485400 -8.719706 24.673859 45.716384 -0.228552 1.000697 0.052328 -0.010529 136852.000000 0 0 1
36.879660 -8.393906 26.086359 45.946328 -0.223790 0.967018 0.075257 -0.007562 273377.000000 0 0 1
37.732020 -7.528706 26.808159 46.894180 -0.196945 0.962252 0.058941 -0.019781 147865.000000 0 0 1
37.028560 -6.807706 27.801059 46.801260 -0.181820 0.934745 0.064185 -0.020693 520125.000000 0 0 1
-37.599718 -5.981106 28.689459 47.671768 0.157751 0.925028 0.068034 -0.021639 952951.000000 0 0 1
-36.825958 -6.681806 29.636759 47.740289 0.179490 0.901045 0.063205 -0.023888 -329892.000000 0 0 1
-35.432339 -6.512106 29.521259 46.576420 0.181761 0.884309 0.062751 -0.033323 -52245.100000 0 0 1
-34.767977 -7.183606 30.709759 46.941514 0.203749 0.857654 0.058580 -0.023866 -395360.000000 0 0 1
-34.875625 -8.564606 30.853659 47.345644 0.240810 0.861014 0.052878 -0.019569 54227.900000 0 0 1
-34.104594 -9.038806 31.935559 47.588899 0.259076 0.835143 0.048970 -0.013029 -531237.000000 0 0 1
-34.264343 -10.544006 32.153159 48.156484 0.298529 0.839707 0.062930 -0.018825 -81718.500000 0 0 1
-35.576585 -10.901306 32.531359 49.424905 0.297334 0.852374 0.058708 -0.016635 -154779.000000 0 0 1
-35.754305 -12.341506 32.597059 49.932468 0.332370 0.859491 0.064298 -0.007388 -258516.000000 0 0 1
-37.176428 -12.734406 32.985859 51.306129 0.330013 0.872489 0.076209 -0.012324 -253424.000000 0 0 1
-37.521388 -14.135706 32.967759 51.909016 0.360293 0.882650 0.082059 -0.023201 -349272.000000 0 0 1
36.737810 -14.322706 33.074259 51.465650 -0.371737 0.872848 0.083324 -0.026193 -682071.000000 0 0 1
36.359770 -15.775006 33.170059 51.683039 -0.409350 0.873956 0.074686 -0.017581 -223559.000000 0 0 1
36.739150 -16.412906 -33.213041 52.175231 -0.420141 2.260835 0.084850 -0.032750 217715.000000 0 0 1
36.603010 -17.782406 -33.332441 52.602718 -0.452238 2.257076 0.085930 -0.043935 -307647.000000 0 0 1
37.057150 -18.436306 -32.057341 52.352678 -0.461654 2.229806 0.086637 -0.025910 -544169.000000 0 0 1
36.262480 -18.240606 -30.949441 51.044638 -0.466057 2.222222 0.090114 -0.023415 -480582.000000 0 0 1
36.613570 -19.079806 -29.848741 50.946441 -0.480395 2.196768 0.086844 -0.024967 -534104.000000 0 0 1
35.502870 -19.268506 -28.758841 49.586289 -0.497245 2.189495 0.081747 -0.023131 331759.000000 0 0 1
34.433730 -20.093106 -29.158341 49.392545 -0.528221 2.202275 0.069137 -0.015301 977191.000000 0 0 1
33.395140 -19.311206 -29.853641 48.779073 -0.524284 2.229405 0.052027 -0.007631 407302.000000 0 0 1
31.986800 -19.961506 -29.932641 48.141252 -0.557919 2.241793 0.039676 -0.003577 293042.000000 0 0 1
31.065470 -19.097306 -30.604341 47.606683 -0.551190 2.269020 0.029292 0.006890 165301.000000 0 0 1
29.815040 -19.715206 -30.784341 47.173103 -0.584243 2.281784 0.033496 0.001844 -26379.500000 0 0 1
28.926740 -19.043706 -31.845441 47.048392 -0.582218 2.314293 0.031721 0.014896 -18386.000000 0 0 1
29.377040 -19.302606 -33.138241 48.308841 -0.581325 2.326727 0.025533 0.010125 13601.000000 0 0 1
28.290840 -19.283906 33.554259 47.938804 -0.598291 0.795484 0.058656 -0.001565 -4836.530000 0 0 1
28.695140 -19.489106 32.070359 47.241340 -0.596614 0.824584 0.056027 -0.003885 -265841.000000 0 0 1
29.586240 -18.514806 31.604359 47.084808 -0.559168 0.834940 0.034793 -0.013875 -127424.000000 0 0 1
29.778340 -18.521306 30.190959 46.273992 -0.556419 0.859998 0.037635 -0.024744 -47609.200000 0 0 1
28.652440 -17.912406 29.292959 44.720175 -0.558716 0.856577 0.029683 -0.012553 157952.000000 0 0 1
28.453140 -16.501306 29.637459 44.274747 -0.525544 0.837397 0.036743 -0.024425 522823.000000 0 0 1
27.565840 -15.830306 28.744959 42.857284 -0.521287 0.835626 0.031456 -0.012666 -127578.000000 0 0 1
27.082140 -14.449206 29.258859 42.406399 -0.490113 0.809358 0.043142 -0.017287 -40047.900000 0 0 1
28.174440 -13.549706 29.358459 42.887209 -0.448269 0.816809 0.047254 -0.016896 223791.000000 0 0 1
27.934340 -12.277506 29.936359 42.746346 -0.414099 0.794943 0.080189 -0.014361 -569889.000000 0 0 1
29.214940 -11.484906 30.201559 43.560876 -0.374559 0.804713 0.090364 -0.019606 -95537.800000 0 0 1
29.696740 -10.835806 29.029759 42.918970 -0.349871 0.827952 0.082601 -0.024389 942410.000000 0 0 1
31.132580 -10.675406 29.074959 43.915317 -0.330337 0.847221 0.091656 -0.014115 1159640.000000 0 0 1
31.700830 -10.013506 27.798059 43.335263 -0.305957 0.874390 0.085126 -0.016923 -120821.000000 0 0 1
31.597100 -8.596906 27.782459 42.943551 -0.265649 0.867215 0.081352 -0.011528 -84376.800000 0 0 1
32.170260 -7.960706 26.642659 42.522109 -0.242582 0.893665 0.074872 -0.008693 125472.000000 0 0 1
32.055280 -6.418206 26.582159 42.134849 -0.197610 0.888106 0.069041 -0.017144 -580241.000000 0 0 1
30.759960 -6.097606 26.197159 40.861315 -0.195695 0.874835 0.074279 -0.014389 -916987.000000 0 0 1
30.620840 -4.751806 25.863659 40.362660 -0.153954 0.875280 0.083316 -0.013382 97273.500000 0 0 1
29.138840 -4.338006 25.771659 39.141649 -0.147788 0.852078 0.072840 -0.011997 -120479.000000 0 0 1
28.504840 -4.875806 24.627959 37.984678 -0.169412 0.865361 0.085225 -0.018844 508996.000000 0 0 1
27.124940 -4.489006 24.678459 36.945093 -0.164007 0.839310 0.101151 -0.022963 391288.000000 0 0 1
26.377540 -4.881606 23.401359 35.598150 -0.182996 0.853465 0.107903 -0.028493 -308479.000000 0 0 1
26.963740 -4.227106 22.293759 35.240933 -0.155504 0.885878 0.114613 -0.023062 361278.000000 0 0 1
26.444740 -4.670306 21.035359 34.111909 -0.174804 0.906307 0.127309 -0.021808 213157.000000 0 0 1
26.846740 -3.729506 19.930959 33.643718 -0.138035 0.936746 0.148062 -0.025981 164832.000000 0 0 1
25.888440 -2.709906 19.918459 32.776515 -0.104296 0.917629 0.144690 -0.018444 276283.000000 0 0 1
26.322940 -1.712306 18.994159 32.505495 -0.064958 0.946734 0.153986 -0.024116 443173.000000 0 0 1
25.157240 -0.701406 18.768759 31.394984 -0.027874 0.930009 0.122253 -0.029708 421528.000000 0 0 1
24.115040 -1.302306 18.017659 30.130834 -0.053952 0.929817 0.126644 -0.030629 -566182.000000 0 0 1
23.069840 -0.409106 17.785859 29.132828 -0.017732 0.914093 0.125617 -0.028057 -192453.000000 0 0 1
21.843040 -1.169306 17.249159 27.857120 -0.053481 0.903071 0.134803 -0.037818 -186841.000000 0 0 1
22.070240 -1.548606 15.924459 27.259531 -0.070052 0.946928 0.149843 -0.031898 -250602.000000 0 0 1
21.051840 -2.362106 15.441659 26.214582 -0.111737 0.940916 0.168642 -0.034748 -531699.000000 0 0 1
21.274940 -2.875206 14.029959 25.646240 -0.134331 0.991952 0.189939 -0.044229 -628008.000000 0 0 1
20.405840 -3.893806 13.670759 24.868648 -0.188552 0.988769 0.205533 -0.044418 -15516.400000 0 1 0
20.624840 -4.419306 12.437859 24.487030 -0.211079 1.038009 0.205339 -0.042771 -770771.000000 0 1 0
19.515140 -5.370006 12.032259 23.546824 -0.268525 1.034457 0.200754 -0.041222 -551906.000000 0 1 0
19.586240 -6.656206 12.646259 24.245695 -0.327596 1.022085 0.206076 -0.048801 525456.000000 0 1 0
18.401840 -7.399906 12.458859 23.422414 -0.382340 1.009930 0.198391 -0.034883 -173365.000000 0 1 0
18.503440 -8.920406 12.781459 24.193318 -0.449221 1.014193 0.212613 -0.048520 -572769.000000 0 1 0
19.288140 -9.553806 11.818859 24.555915 -0.459897 1.068655 0.201916 -0.056911 354963.000000 0 1 0
18.907740 -10.913106 11.661559 24.750565 -0.523469 1.080187 0.222691 -0.059740 108013.000000 0 1 0
19.482640 -11.588406 10.346959 24.918346 -0.536592 1.142596 0.212570 -0.058721 173309.000000 0 1 0
18.957540 -10.942106 9.207959 23.746674 -0.523479 1.172598 0.195532 -0.055345 415759.000000 0 1 0
19.518440 -11.384506 7.986059 23.965676 -0.528027 1.231070 0.196253 -0.066410 -36336.800000 0 1 0
18.901940 -10.655806 6.766159 22.729066 -0.513332 1.268527 0.154648 -0.047310 -122066.000000 0 1 0
19.451040 -9.384906 6.542259 22.565916 -0.449541 1.276655 0.156967 -0.043259 488594.000000 0 1 0
19.913240 -9.255706 5.217659 22.570538 -0.435095 1.337515 0.121972 -0.033870 -90423.900000 0 1 0
20.528840 -7.847406 4.973859 22.533405 -0.365123 1.348231 0.167344 -0.033937 -73799.600000 0 1 0
20.755940 -7.476006 3.607759 22.354320 -0.345721 1.408698 0.116105 -0.029996 789847.000000 0 1 0
21.462640 -6.237306 3.561259 22.632531 -0.282822 1.412788 0.160749 -0.024851 123818.000000 0 1 0
22.014340 -5.832606 2.154659 22.875599 -0.258995 1.476466 0.172774 -0.023384 -750949.000000 0 1 0
20.991640 -5.619306 1.278859 21.768349 -0.261560 1.512014 0.112582 -0.034184 -25837.300000 0 1 0
21.440240 -4.930606 0.115759 22.000185 -0.226040 1.565535 0.116130 -0.020855 -128178.000000 0 1 0
-25.358138 -14.586306 -0.231141 29.254896 0.521994 1.578697 0.157693 -0.033780 -848911.000000 0 0 1
-24.123808 -14.217806 -0.777141 28.012642 0.532565 1.598542 0.114075 -0.019541 490385.000000 0 0 1
-22.981308 -14.880606 -0.201341 27.379071 0.574622 1.578150 0.104618 -0.009625 797259.000000 0 0 1
-22.569408 -14.491206 1.218859 26.848815 0.570782 1.525384 0.129664 -0.030666 -1067710.000000 0 0 1
-23.349308 -15.115206 2.173959 27.899566 0.574511 1.492796 0.136535 -0.012946 -302171.000000 0 0 1
-22.942208 -14.725206 3.449659 27.478660 0.570617 1.444925 0.140218 -0.008540 -72865.800000 0 0 1
-23.758608 -15.381406 4.552659 28.666807 0.574548 1.411308 0.176545 -0.005788 -170643.000000 0 0 1
-23.746708 -16.751506 4.396159 29.391246 0.614357 1.420659 0.220758 -0.029195 71906.900000 0 0 1
-24.333908 -17.388906 5.497359 30.409441 0.620455 1.389019 0.220180 -0.029325 -80593.000000 0 0 1
-24.337108 -18.935406 5.373659 31.300490 0.661211 1.398262 0.168294 -0.022068 -76694.100000 0 0 1
-24.905808 -19.555506 6.496359 32.325219 0.665638 1.368450 0.168305 -0.031518 63314.400000 0 0 1
-25.140848 -20.926206 6.163059 33.285908 0.694163 1.384567 0.160164 -0.039067 -403278.000000 0 0 1
-25.909678 -21.636306 7.240959 34.523509 0.695760 1.359487 0.146445 -0.031357 -666482.000000 0 0 1
-25.198398 -22.112006 8.335159 34.545260 0.720253 1.327109 0.150140 -0.026124 -352012.000000 0 0 1
-25.983598 -22.215306 9.511359 35.484267 0.707375 1.299434 0.147386 -0.027919 84721.200000 0 0 1
-25.169068 -22.843906 10.656159 35.621339 0.737008 1.266994 0.120712 -0.036728 745648.000000 0 0 1
-23.982308 -22.096406 10.986759 34.410916 0.744493 1.245825 0.134585 -0.036452 609990.000000 0 0 1
-23.323208 -22.516306 12.133059 34.614552 0.767797 1.212671 0.154017 -0.041125 -93070.400000 0 0 1
-23.976508 -21.894406 13.406759 35.128040 0.740039 1.179211 0.113475 -0.026879 727600.000000 0 0 1
-25.267558 -22.265706 13.909659 36.437478 0.722329 1.179118 0.102013 -0.024442 595246.000000 0 0 1
-25.548868 -21.498606 15.111459 36.650934 0.699521 1.145811 0.086698 -0.008561 20668.600000 0 0 1
-26.928228 -21.911106 15.709359 38.105249 0.683030 1.145860 0.048652 -0.006145 88103.600000 0 0 1
-28.053188 -21.403206 15.023059 38.350631 0.651738 1.168286 0.048309 -0.005711 158632.000000 0 0 1
-28.470908 -22.209106 13.912759 38.696278 0.662466 1.203024 0.051391 -0.007449 -112890.000000 0 0 1
-29.500108 -23.349006 14.258059 40.233378 0.669530 1.208541 0.036997 -0.004074 404847.000000 0 0 1
-28.959818 -24.312906 15.266959 40.778285 0.698390 1.187058 0.027157 0.000765 517423.000000 0 0 1
-29.968298 -25.153666 15.834459 42.208245 0.698274 1.186237 0.009059 0.008216 162314.000000 0 0 1
-29.917768 -26.590626 15.249859 42.833310 0.726587 1.206782 0.022162 0.003236 -82991.300000 0 0 1
-30.425468 -26.757556 13.934259 42.846698 0.721343 1.239560 0.029868 -0.005162 -515319.000000 0 0 1
-31.777408 -27.126116 13.960859 44.051509 0.706597 1.248315 0.050804 -0.018229 -510857.000000 0 0 1
-32.404658 -27.382836 12.586259 44.252633 0.701600 1.282397 0.089247 -0.031169 -203810.000000 0 0 1
-31.895648 -28.540986 11.959159 44.440317 0.729948 1.298332 0.073839 -0.036980 124269.000000 0 0 1
-32.521348 -28.860296 10.691659 44.775734 0.725825 1.329685 0.099856 -0.031874 299919.000000 0 0 1
-31.888628 -30.089246 9.995059 44.968306 0.756374 1.346655 0.087993 -0.040311 184850.000000 0 0 1
-32.291058 -31.270696 10.643459 46.193637 0.769346 1.338298 0.083207 -0.029877 33741.900000 0 0 1
-31.701758 -32.362796 9.981559 46.389477 0.795716 1.353932 0.093827 -0.035791 -27288.100000 0 0 1
-31.972038 -33.706956 10.771459 47.690612 0.811807 1.342969 0.082551 -0.034973 51681.100000 0 0 1
-33.323848 33.586039 10.795259 48.528739 -0.789317 1.346469 0.062186 -0.029202 -294122.000000 0 0 1
-33.410938 32.362517 11.531259 47.922784 -0.769460 1.327790 0.093471 -0.035731 -288237.000000 0 0 1
-34.823114 31.983907 12.083359 48.801918 -0.742925 1.320594 0.102991 -0.030077 728532.000000 0 0 1
-35.837842 31.753370 11.103459 49.151951 -0.725043 1.342929 0.052696 -0.027243 77129.000000 0 0 1
-36.331888 32.935355 10.581859 50.166916 -0.736402 1.358267 0.081607 -0.026692 -877435.000000 0 0 1
-37.774268 32.691902 10.052459 50.957902 -0.713398 1.372224 0.080152 -0.021563 313075.000000 0 0 1
-37.765008 31.865466 8.891859 50.206264 -0.700874 1.392751 0.055618 -0.013924 613672.000000 0 0 1
36.503330 31.685464 8.524559 49.082887 0.714861 1.396234 0.049640 -0.009878 571961.000000 0 0 1
36.312280 30.978404 7.132259 48.260877 0.706297 1.422467 0.051946 -0.008702 -20703.800000 0 0 1
36.656190 29.592634 7.164059 47.652114 0.679178 1.419883 0.077118 -0.018336 129835.000000 0 0 1
36.797000 29.142514 5.842559 47.301594 0.669832 1.446963 0.100031 -0.024290 -264962.000000 0 0 1
36.958110 27.588254 5.831459 46.486767 0.641240 1.445022 0.113177 -0.027914 460926.000000 0 0 1
35.744040 26.910614 6.174259 45.165684 0.645335 1.433665 0.123026 -0.030421 416835.000000 0 0 1
35.779610 26.540514 7.573559 45.187810 0.638218 1.402400 0.111582 -0.028170 132700.000000 0 0 1
34.623070 25.614914 7.999359 43.804914 0.636955 1.387153 0.109699 -0.024207 -119947.000000 0 0 1
34.737090 24.340454 7.390159 43.055052 0.611199 1.398298 0.125894 -0.031261 -236167.000000 0 0 1
33.600420 23.542104 7.510659 41.708858 0.611161 1.389735 0.123539 -0.030906 -840953.000000 0 0 1
33.779500 22.241684 6.700759 40.995698 0.582284 1.406609 0.121713 -0.031528 337614.000000 0 0 1
34.718960 21.260284 7.171359 41.338048 0.549454 1.396433 0.132419 -0.028237 970398.000000 0 0 1
36.097150 21.583884 6.929359 42.624925 0.538902 1.407506 0.141482 -0.030473 579053.000000 0 0 1
37.087590 20.403184 6.965659 42.898714 0.502947 1.407700 0.111418 -0.026256 91188.800000 0 0 1
37.053600 19.668484 5.745059 42.341755 0.487992 1.434693 0.134773 -0.040021 143691.000000 0 0 1
-37.722738 18.555684 5.843859 42.443717 -0.457144 1.432673 0.144662 -0.037772 57146.300000 0 0 1
37.481030 17.395684 4.873459 41.607547 0.434534 1.453398 0.141324 -0.045785 77835.400000 0 0 1
37.777150 17.734684 3.533559 41.882193 0.438915 1.486327 0.155239 -0.047875 545414.000000 0 0 1
37.103560 16.731284 2.763059 40.795153 0.423631 1.503014 0.142602 -0.043333 -465933.000000 0 0 1
-37.705378 16.355884 1.579659 41.130352 -0.409285 1.532381 0.173019 -0.037011 -5676.380000 0 0 1
-36.638898 15.427784 1.729859 39.792183 -0.398543 1.527310 0.166259 -0.056329 725817.000000 0 0 1
-35.367444 16.014684 1.942959 38.872887 -0.425187 1.520793 0.182418 -0.050988 135109.000000 0 0 1
-34.146558 15.060584 1.928659 37.370153 -0.415392 1.519164 0.175860 -0.048431 199215.000000 0 0 1
-34.030496 14.419284 3.168659 37.094890 -0.400783 1.485272 0.183638 -0.046495 85918.800000 0 0 1
-32.658468 14.101784 3.215859 35.718029 -0.407612 1.480640 0.190929 -0.052865 -101550.000000 0 0 1
-32.216168 13.506184 4.587459 35.232702 -0.396979 1.440221 0.210154 -0.037205 6411.660000 0 0 1
-32.571808 12.100384 4.628959 35.053805 -0.355697 1.438357 0.237940 -0.045783 418289.000000 0 0 1
-32.001548 11.521684 5.773959 34.499086 -0.345587 1.402639 0.212288 -0.032476 30350.300000 0 0 1
-32.352208 10.000484 5.754659 34.348088 -0.299796 1.402463 0.242282 -0.044810 510971.000000 0 0 1
-33.729658 9.751384 6.016959 35.622790 -0.281431 1.401075 0.251649 -0.029604 252327.000000 0 0 1
-33.867298 8.385384 6.190259 35.434840 -0.242714 1.395201 0.284269 -0.032796 447278.000000 0 0 1
-35.340192 7.860984 6.192459 36.729699 -0.218874 1.401392 0.257441 -0.020227 454929.000000 0 0 1
-36.042988 7.820884 7.429459 37.622601 -0.213675 1.372017 0.240857 -0.025741 -368290.000000 0 0 1
-37.290028 7.248784 7.152759 38.655569 -0.191995 1.384686 0.187121 -0.024456 -48157.600000 0 0 1
37.666310 6.609684 8.423459 39.158568 0.173711 1.353990 0.162883 -0.027140 -38189.100000 0 0 1
37.200050 7.459984 9.445659 39.098792 0.197912 1.326798 0.185170 -0.041384 699344.000000 0 0 1
-37.421468 8.038784 10.296159 39.635833 -0.211602 1.308013 0.200667 -0.043723 307720.000000 0 0 1
37.640410 8.971084 11.375859 40.332257 0.233971 1.284862 0.178168 -0.047587 -193109.000000 0 0 1
36.818190 8.347584 12.333259 39.716124 0.222955 1.255040 0.165737 -0.047657 407875.000000 0 0 1
36.428470 9.165884 13.397259 39.881492 0.246496 1.228207 0.173851 -0.054001 -361087.000000 0 0 1
35.620240 8.415484 14.495159 39.366629 0.232002 1.193714 0.182959 -0.056306 444987.000000 0 0 1
34.220750 8.206484 14.333159 37.997967 0.235365 1.184016 0.178814 -0.056901 672645.000000 0 0 1
33.812670 7.406584 15.474059 37.915704 0.215642 1.150405 0.182942 -0.047470 586462.000000 0 0 1
32.293180 7.140284 15.696759 36.609034 0.217607 1.127668 0.169173 -0.038420 345246.000000 0 0 1
31.503550 8.266484 16.048859 36.309424 0.256613 1.112966 0.139817 -0.037048 152937.000000 0 0 1
30.133240 7.998784 16.230859 35.148733 0.259464 1.090799 0.139477 -0.029142 251242.000000 0 0 1
29.693240 7.339884 17.607859 35.293046 0.242333 1.048462 0.139129 -0.046633 -349361.000000 0 0 1
29.910740 8.287784 18.655359 36.212734 0.270303 1.029602 0.153203 -0.047932 -5169.290000 0 0 1
29.240040 8.029084 19.869459 36.252469 0.267987 0.990723 0.158352 -0.033692 -290655.000000 0 0 1
29.454940 6.729784 20.674859 36.610562 0.224622 0.970698 0.158023 -0.027036 312964.000000 0 0 1
28.501740 6.803884 21.736459 36.484458 0.234333 0.932568 0.122307 -0.022242 298129.000000 0 0 1
28.448540 5.663084 22.611759 36.778820 0.196496 0.908659 0.115009 -0.020317 145603.000000 0 0 1
27.078040 5.552584 23.298659 36.150780 0.202255 0.870446 0.137049 -0.019118 1109610.000000 0 0 1
25.884040 5.133884 22.595659 34.740525 0.195801 0.862669 0.073925 -0.020253 1540160.000000 0 0 1
24.788440 6.029984 22.877359 34.266616 0.238623 0.839778 0.119548 -0.009916 857758.000000 0 0 1
23.385740 5.528784 22.447859 32.884140 0.232154 0.819434 0.114810 -0.017712 -403254.000000 0 0 1
23.188040 5.601984 21.050159 31.814723 0.237047 0.847781 0.096661 -0.014866 -326964.000000 0 0 1
21.922440 5.275684 20.592359 30.536395 0.236162 0.830706 0.055667 -0.016063 -1134790.000000 0 0 1
21.270640 3.837284 20.928459 30.085964 0.178483 0.801511 0.094665 -0.022985 134232.000000 0 0 1
19.893840 3.622384 20.670759 28.916549 0.180112 0.774398 0.065679 -0.024587 -14178.200000 0 0 1
19.054440 4.339784 21.511459 29.062833 0.223937 0.737472 0.090110 -0.026629 -374517.000000 0 0 1
17.603840 4.328584 20.907759 27.672481 0.241105 0.714313 0.137014 -0.031401 543306.000000 0 0 1
17.002240 3.027884 21.004759 27.192722 0.176240 0.688121 0.126176 -0.032444 -503883.000000 0 0 1
15.801940 3.025384 20.288759 25.893783 0.189167 0.670457 0.148534 -0.040064 -543003.000000 0 0 1
14.814540 1.951284 20.808759 25.618012 0.130960 0.622762 0.151272 -0.039785 -337784.000000 0 0 1
15.219540 0.585584 20.625459 25.639556 0.038457 0.636066 0.106392 -0.038076 -169110.000000 0 0 1
14.531240 -0.307116 21.428459 25.892665 -0.021132 0.595999 0.122598 -0.043230 -269064.000000 0 0 1
15.072540 -1.800716 21.414159 26.248623 -0.118906 0.616650 0.094900 -0.028364 -172150.000000 0 0 1
14.632740 -2.501816 20.274259 25.128106 -0.169337 0.632020 0.110576 -0.024897 139668.000000 0 0 1
14.878240 -3.887316 20.334559 25.494461 -0.255562 0.647479 0.103946 -0.020577 -342054.000000 0 0 1
14.454540 -4.519916 19.031959 24.322393 -0.303066 0.672146 0.108037 -0.030092 25357.000000 0 1 0
13.077940 -4.378516 18.765159 23.288089 -0.323071 0.633799 0.114588 -0.031188 -178337.000000 0 1 0
12.672340 -4.975116 17.545259 22.207568 -0.374108 0.659893 0.112437 -0.028480 -189598.000000 0 1 0
11.170640 -4.992216 17.276359 21.170215 -0.420277 0.616220 0.105580 -0.028924 -294362.000000 0 1 0
10.404540 -5.855016 18.104659 21.686732 -0.512569 0.582979 0.098227 -0.025195 -480625.000000 0 1 0
9.057840 -5.773216 17.692759 20.698024 -0.567447 0.545623 0.086154 -0.042671 -118185.000000 0 1 0
8.164040 -6.444016 18.797959 21.483485 -0.668193 0.505369 0.077315 -0.043881 -43825.800000 0 1 0
8.092040 -7.849416 18.751859 21.879823 -0.770180 0.541301 0.068654 -0.041303 132665.000000 0 1 0
9.179940 -8.497716 19.380759 23.067212 -0.746825 0.573169 0.109739 -0.042304 -25851.500000 0 1 0
9.203240 -10.000416 18.989459 23.351820 -0.826886 0.621184 0.126666 -0.046998 104977.000000 0 1 0
9.557340 -10.171116 17.625259 22.482084 -0.816499 0.669763 0.108657 -0.029147 -20579.000000 0 1 0
9.741840 -11.521516 17.397359 23.028610 -0.868900 0.714429 0.113426 -0.034456 168918.000000 0 1 0
9.661040 -11.828616 15.894759 22.043031 -0.885924 0.765438 0.099254 -0.030543 217423.000000 0 1 0
10.196740 -13.093316 15.539559 22.735134 -0.909132 0.818244 0.078536 -0.023531 -95895.200000 0 1 0
9.769240 -13.401916 14.237459 21.857599 -0.940908 0.861403 0.053072 -0.010425 -207183.000000 0 1 0
10.659640 -14.499116 13.536759 22.518795 -0.936840 0.925880 0.086787 -0.026457 739227.000000 0 1 0
11.976240 -14.118816 13.171659 22.721441 -0.867321 0.952434 0.077231 -0.029005 302410.000000 0 1 0
11.937640 -13.274616 11.990159 21.505501 -0.838377 0.979378 0.032741 -0.026540 -1120090.000000 0 1 0
13.334640 -12.817016 11.599059 21.831782 -0.765608 1.010671 0.094884 -0.039959 -349641.000000 0 1 0
14.102840 -13.888716 11.047059 22.667687 -0.777749 1.061746 0.096648 -0.033449 155907.000000 0 1 0
15.263540 -13.385816 10.405159 22.812783 -0.719950 1.097176 0.115576 -0.050986 416737.000000 0 1 0
16.184840 -14.390816 9.669359 23.717949 -0.726790 1.150883 0.093547 -0.052844 385426.000000 0 1 0
16.928740 -15.358416 10.425559 25.122807 -0.736800 1.142871 0.099757 -0.042956 111153.000000 0 0 1
16.143940 -16.390516 10.918859 25.465610 -0.792977 1.127667 0.127908 -0.040052 -538672.000000 0 0 1
16.660740 -17.147216 12.116159 26.803145 -0.799787 1.101743 0.120021 -0.035966 -297678.000000 0 0 1
17.760440 -17.963816 11.779459 27.872703 -0.791091 1.134466 0.140069 -0.047447 -48861.400000 0 0 1
18.201340 -18.643116 12.914359 29.079808 -0.797388 1.110626 0.104319 -0.037024 -652419.000000 0 0 1
19.465040 -19.483016 12.723359 30.337428 -0.785860 1.138018 0.086928 -0.039631 100842.000000 0 0 1
20.558640 -18.564716 12.492259 30.386887 -0.734477 1.147128 0.107549 -0.041337 -732073.000000 0 0 1
21.736040 -19.270016 12.407359 31.586888 -0.725332 1.167121 0.093624 -0.041699 -714688.000000 0 0 1
22.845840 -18.520416 11.649059 31.632875 -0.681213 1.193662 0.143271 -0.043377 -311835.000000 0 0 1
22.830240 -18.657616 10.233059 31.209646 -0.685161 1.236736 0.124586 -0.034404 -325959.000000 0 0 1
21.693240 -18.282616 9.493259 29.916094 -0.700287 1.247884 0.137532 -0.038654 -23256.300000 0 0 1
21.226740 -16.795016 9.366759 28.642333 -0.669364 1.237643 0.201788 -0.054957 242794.000000 0 0 1
22.164540 -16.022516 8.632759 28.679476 -0.625924 1.265047 0.193951 -0.038423 123922.000000 0 0 1
21.888740 -14.630216 8.707959 27.730645 -0.589195 1.251373 0.210263 -0.053512 -84003.100000 0 0 1
-36.125288 24.703994 8.193359 44.524767 -0.599799 1.385724 0.136060 -0.026685 13689.100000 0 0 1
-35.318069 24.074094 9.172559 43.715716 -0.598295 1.359402 0.136337 -0.032673 3568.560000 0 0 1
-34.243624 24.966694 9.435359 43.416444 -0.629984 1.351726 0.135684 -0.032853 -218468.000000 0 0 1
-33.010828 24.182994 9.931259 42.108929 -0.632257 1.332706 0.163357 -0.038919 -354897.000000 0 0 1
-32.290328 23.461294 8.985059 40.912454 -0.628339 1.349375 0.159529 -0.033108 -211797.000000 0 0 1
-31.566788 22.445194 9.627559 39.911637 -0.618096 1.327172 0.159251 -0.030573 142427.000000 0 0 1
-30.746688 21.504494 8.708459 38.518039 -0.610329 1.342737 0.126617 -0.031971 219232.000000 0 0 1
-31.579778 20.675694 7.915959 38.567203 -0.579681 1.364076 0.134419 -0.032608 433929.000000 0 0 1
-30.824248 19.734394 7.121559 37.286689 -0.569471 1.378621 0.131420 -0.034230 668292.000000 0 0 1
-31.683748 18.931594 6.027459 37.397800 -0.538592 1.408919 0.142915 -0.034954 401684.000000 0 0 1
-32.645528 18.049494 6.570359 37.877227 -0.505062 1.396450 0.167589 -0.039227 -87284.800000 0 0 1
-33.442958 17.527494 5.569059 38.166201 -0.482742 1.424358 0.143454 -0.041688 -410916.000000 0 0 1
-34.323923 16.377594 6.067059 38.511901 -0.445200 1.412600 0.140402 -0.031291 20107.700000 0 0 1
-35.269070 16.676494 7.098559 39.653528 -0.441681 1.390812 0.114157 -0.028667 310304.000000 0 0 1
-35.927584 15.524194 7.501559 39.850537 -0.407866 1.381424 0.122524 -0.036093 -105747.000000 0 0 1
-36.926878 15.822394 8.652659 41.095146 -0.404814 1.358657 0.107852 -0.028302 1044700.000000 0 0 1
37.385020 16.297694 8.367759 41.632606 0.411102 1.368427 0.131386 -0.029259 649182.000000 0 0 1
36.643420 16.421594 9.512359 41.266135 0.421311 1.338192 0.120763 -0.028123 -200871.000000 0 0 1
35.642630 17.584494 9.600459 40.887410 0.458318 1.333781 0.089167 -0.018372 53395.800000 0 0 1
34.451760 17.445194 8.863159 39.620880 0.468727 1.345188 0.094658 -0.028987 -104619.000000 0 0 1
33.799700 18.712494 8.824659 39.628925 0.505625 1.346231 0.086466 -0.024566 57350.500000 0 0 1
32.420610 18.706694 8.133959 38.304016 0.523336 1.356814 0.080947 -0.033399 70533.900000 0 0 1
31.635450 19.848594 8.520759 38.306288 0.560335 1.346482 0.085455 -0.030254 890947.000000 0 0 1
30.253540 19.834194 8.152559 37.082828 0.580301 1.349138 0.052674 -0.023897 498285.000000 0 0 1
29.882040 19.960994 6.618659 36.540172 0.588920 1.388657 0.051374 -0.015216 -821889.000000 0 0 1
30.077440 18.729194 5.935159 35.925773 0.556943 1.404829 0.067753 -0.024305 116615.000000 0 0 1
29.700640 18.629994 4.575059 35.357260 0.560222 1.441037 0.066084 -0.030416 657559.000000 0 0 1
28.167740 18.827794 4.260259 34.147579 0.589213 1.445710 0.080266 -0.032048 -542166.000000 0 0 1
27.380540 17.877194 4.941959 33.071301 0.578422 1.420801 0.097321 -0.036094 699081.000000 0 0 1
25.995940 18.057894 4.605359 31.985711 0.607122 1.426312 0.107742 -0.031962 937721.000000 0 0 1
25.183840 19.297194 5.094159 32.133439 0.653822 1.411593 0.102872 -0.024711 -875793.000000 0 0 1
25.548640 20.414394 4.352459 32.991277 0.674156 1.438483 0.074180 -0.029761 73461.000000 0 0 1
25.309340 21.588094 5.017459 33.641988 0.706215 1.421095 0.076181 -0.023736 -444459.000000 0 0 1
26.181740 22.724094 4.497759 34.958515 0.714816 1.441779 0.035474 -0.011282 -21055.600000 0 0 1
27.514240 22.645594 4.972059 35.980240 0.688639 1.432164 0.043508 -0.023161 168512.000000 0 0 1
28.276240 23.794794 4.681559 37.251241 0.699546 1.444788 0.055665 -0.023089 -1289270.000000 0 0 1
29.663740 23.812694 5.345559 38.412977 0.676418 1.431183 0.069858 -0.030370 -580813.000000 0 0 1
30.487240 22.701994 4.973359 38.335187 0.640061 1.440696 0.060920 -0.029382 249825.000000 0 0 1
30.888760 22.739494 3.624559 38.527100 0.634593 1.476579 0.062915 -0.034378 -1248670.000000 0 0 1
31.972150 23.777094 3.251859 39.976782 0.639445 1.489363 0.112820 -0.045942 -397269.000000 0 0 1
31.404140 25.074094 3.277959 40.319662 0.673785 1.489407 0.081381 -0.042353 32599.000000 0 0 1
32.277660 25.932894 2.599559 41.486383 0.676830 1.508095 0.136451 -0.036365 -553148.000000 0 0 1
31.817180 27.391994 2.906259 42.084446 0.710799 1.501684 0.110674 -0.027263 1180420.000000 0 0 1
30.610940 27.814694 2.238459 41.420979 0.737575 1.516728 0.120293 -0.032624 989069.000000 0 0 1
29.392440 27.302994 2.762259 40.211927 0.748561 1.502050 0.089908 -0.023442 1026220.000000 0 0 1
28.043240 27.910494 2.157159 39.624138 0.783026 1.516329 0.056592 -0.014017 1238880.000000 0 0 1
27.751940 29.171394 2.598059 40.347122 0.810329 1.506359 0.035078 -0.011414 278824.000000 0 0 1
26.431840 29.558394 2.226959 39.715238 0.841181 1.514694 0.033770 -0.011095 351173.000000 0 0 1
26.242240 31.059494 2.708459 40.751479 0.869269 1.504284 0.040436 -0.021340 -126608.000000 0 0 1
26.105840 31.169094 4.090259 40.862666 0.873572 1.470531 0.026432 -0.030750 537367.000000 0 0 1
27.340240 31.035294 4.793259 41.637165 0.848612 1.455421 0.034273 -0.034249 44934.800000 0 0 1
27.184440 30.865994 6.310059 41.611539 0.848733 1.418567 0.036594 -0.034185 -240854.000000 0 0 1
26.627140 29.656294 6.778359 40.428288 0.839166 1.402337 0.047169 -0.039462 46277.700000 0 0 1
27.483540 28.528694 6.816759 40.195765 0.804055 1.400384 0.058595 -0.042995 -425873.000000 0 0 1
26.809440 27.222494 7.209959 38.881792 0.793043 1.384284 0.068429 -0.046545 -1178590.000000 0 0 1
25.627440 27.020294 6.550559 37.812323 0.811848 1.396679 0.041364 -0.044266 -814090.000000 0 0 1
25.125040 25.727794 6.895359 36.616020 0.797251 1.381350 0.057240 -0.040440 340172.000000 0 0 1
23.788940 25.314094 6.167059 35.281009 0.816448 1.395095 0.067763 -0.022036 385650.000000 0 0 1
23.807940 25.256394 4.726459 35.029171 0.814911 1.435454 0.048909 -0.027178 153155.000000 0 0 1
23.932940 26.525594 4.045859 35.954995 0.836735 1.458032 0.042412 -0.018500 -409913.000000 0 0 1
24.087240 26.433494 2.525459 35.851118 0.831806 1.500295 0.043682 -0.008358 -284489.000000 0 0 1
25.254040 25.807494 2.069159 36.167315 0.796237 1.513554 0.028102 0.004968 -71551.200000 0 0 1
25.144540 25.572094 0.696759 35.870117 0.793828 1.551371 0.045788 -0.003211 -230368.000000 0 0 1
26.277540 24.707094 0.072959 36.068752 0.754606 1.568774 0.061778 -0.009630 -401990.000000 0 0 1
27.417240 25.599494 -0.006041 37.510520 0.751125 1.570957 0.060659 -0.006341 1387210.000000 0 0 1
28.597040 25.041294 -0.642141 38.016699 0.719204 1.587688 0.069873 -0.005861 1490850.000000 0 0 1
29.361040 23.878694 0.096359 37.845369 0.682785 1.568250 0.070076 -0.013068 -458969.000000 0 0 1
28.520640 22.745794 0.015359 36.480108 0.673227 1.570375 0.058389 -0.017222 279704.000000 0 0 1
28.835940 21.754994 0.968159 36.134865 0.646337 1.544000 0.058944 -0.022148 -350710.000000 0 0 1
27.577340 20.942394 1.302859 34.652431 0.649494 1.533190 0.053954 -0.025996 -44705.700000 0 0 1
27.170340 19.882394 0.464059 33.671238 0.631730 1.557014 0.078618 -0.036612 466679.000000 0 0 1
25.943740 19.282794 0.815259 32.335250 0.639170 1.545581 0.070427 -0.031895 -443387.000000 0 0 1
25.506240 18.095194 -0.025641 31.273071 0.617035 1.571616 0.087997 -0.028320 937229.000000 0 0 1
24.150440 17.683094 0.316959 29.933860 0.632015 1.560207 0.086500 -0.024170 1381960.000000 0 0 1
23.765040 16.612894 -0.550241 29.001174 0.610086 1.589771 0.110055 -0.048610 282552.000000 0 0 1
22.239640 16.364894 -0.373741 27.614326 0.634379 1.584331 0.107395 -0.024799 -97769.400000 0 0 1
21.645240 15.429694 -1.303941 26.613758 0.619295 1.619811 0.119383 -0.032039 417489.000000 0 0 1
20.262440 15.209294 -1.117541 25.360165 0.643895 1.614877 0.132850 -0.030437 216391.000000 0 0 1
19.330240 16.348294 -1.653641 25.370443 0.702014 1.636022 0.154653 -0.024836 -573462.000000 0 0 1
19.232040 17.497794 -0.862441 26.015148 0.738217 1.603954 0.129111 -0.026381 485633.000000 0 0 1
18.156640 18.356794 -1.235541 25.848830 0.790880 1.618613 0.109845 -0.027553 274180.000000 0 0 1
18.203640 19.789294 -0.705241 26.897695 0.827109 1.597019 0.100265 -0.017390 -184141.000000 0 0 1
17.990640 19.974094 0.722859 26.891449 0.837595 1.543912 0.104490 -0.013659 194651.000000 0 0 1
18.017240 21.321194 1.288159 27.944115 0.869189 1.524682 0.111858 -0.016219 142578.000000 0 0 1
16.823140 22.225694 0.878659 27.888555 0.922879 1.539285 0.103389 -0.020261 206003.000000 0 0 1
15.621940 21.963794 1.572459 26.998627 0.952554 1.512521 0.081662 -0.015002 399297.000000 0 0 1
14.546240 22.709494 0.982659 26.986660 1.001103 1.534376 0.072738 -0.022584 374462.000000 0 0 1
13.155840 22.468694 1.579559 26.084733 1.041093 1.510204 0.075076 -0.026001 -101844.000000 0 0 1
13.039840 23.029694 2.896159 26.623147 1.055587 1.461797 0.074463 -0.013660 -68388.200000 0 0 1
11.731740 23.053494 3.433059 26.093738 1.100060 1.438847 0.072412 -0.018129 199026.000000 0 0 1
11.620040 23.638394 4.826759 26.778659 1.113912 1.389559 0.090653 -0.023523 8880.990000 0 0 1
12.326940 22.811194 5.755759 26.559984 1.075361 1.352355 0.091490 -0.035617 313751.000000 0 0 1
11.633040 22.528094 6.982059 26.298132 1.094131 1.302078 0.075888 -0.032746 -661846.000000 0 0 1
12.149540 21.164394 7.559959 25.547913 1.049672 1.270385 0.091620 -0.043593 961121.000000 0 0 1
13.384940 21.247094 8.293059 26.445612 1.008634 1.251826 0.122104 -0.047387 918476.000000 0 0 1
14.530540 21.444194 7.468059 26.958522 0.975264 1.290105 0.118746 -0.038638 455994.000000 0 0 1
15.899340 21.590194 8.252759 28.054117 0.936047 1.272206 0.139314 -0.042224 499394.000000 0 0 1
16.471740 20.367994 8.713959 27.606276 0.890769 1.249653 0.153682 -0.048585 777337.000000 0 0 1
17.756940 20.550794 9.330159 28.717519 0.858201 1.239896 0.133627 -0.051703 656052.000000 0 0 1
17.800840 21.384294 10.615359 29.779922 0.876594 1.206320 0.106452 -0.038207 -842806.000000 0 0 1
17.269140 20.718694 11.722159 29.409122 0.875957 1.160818 0.118391 -0.050427 74695.900000 0 0 1
17.267640 21.435194 12.940959 30.415577 0.892666 1.131314 0.114624 -0.047992 39381.300000 0 0 1
18.255240 20.852094 14.024659 31.060500 0.851704 1.102320 0.122878 -0.038583 1238060.000000 0 0 1
19.587240 21.332694 13.753259 32.060816 0.828028 1.127440 0.122105 -0.041711 543134.000000 0 0 1
20.531440 20.738394 14.627359 32.643232 0.790413 1.106160 0.109328 -0.045112 1296520.000000 0 0 1
22.002440 21.324494 14.504859 33.900329 0.769752 1.128664 0.116142 -0.044953 1021300.000000 0 0 1
22.718840 20.854794 13.377459 33.615837 0.742645 1.161514 0.125870 -0.050282 -97994.600000 0 0 1
24.024240 21.386294 13.432859 34.856554 0.727372 1.175182 0.128305 -0.052143 94151.500000 0 0 1
24.973440 20.852594 12.309859 34.785571 0.695716 1.209082 0.132525 -0.049015 108361.000000 0 0 1
24.654140 21.362894 11.061759 34.446514 0.713997 1.243875 0.134239 -0.042703 515414.000000 0 0 1
25.472640 20.669194 10.119559 34.328944 0.681670 1.271569 0.150534 -0.060625 -117988.000000 0 0 1
25.290440 21.413794 8.759459 34.276596 0.702584 1.312378 0.119581 -0.051406 180677.000000 0 0 1
25.806540 22.765994 8.642559 35.481851 0.722882 1.324744 0.096993 -0.042469 1566290.000000 0 0 1
27.254840 22.827494 8.728859 36.607564 0.697226 1.330033 0.075416 -0.045004 847968.000000 0 0 1
27.629540 24.264694 9.123359 37.886706 0.720648 1.327600 0.104953 -0.046828 21129.900000 0 0 1
28.981940 24.654094 8.922059 39.081713 0.704883 1.340473 0.096605 -0.038736 575144.000000 0 0 1
29.324140 25.717594 9.821259 40.221349 0.719968 1.324122 0.103947 -0.034270 161684.000000 0 0 1
30.608140 26.477394 9.434659 41.556268 0.713163 1.341766 0.100813 -0.035869 176546.000000 0 0 1
30.366940 27.435394 8.443859 41.786967 0.734725 1.367326 0.101554 -0.040984 131426.000000 0 0 1
31.510100 27.553794 7.619859 42.545977 0.718515 1.390728 0.108491 -0.034493 -72048.900000 0 0 1
31.343830 28.504694 6.341859 42.838912 0.737995 1.422211 0.138349 -0.029296 -52183.000000 0 0 1
31.302990 29.826094 6.691559 43.752143 0.761243 1.417251 0.125699 -0.030727 68190.600000 0 0 1
31.105580 30.664294 5.554259 44.030737 0.778254 1.444314 0.136343 -0.023461 -114256.000000 0 0 1
31.155610 32.174694 5.786159 45.159302 0.801488 1.442315 0.081159 -0.017708 30862.400000 0 0 1
30.195840 32.577794 6.743659 44.928591 0.823325 1.420130 0.073309 -0.029156 -80133.700000 0 0 1
30.094040 -33.734797 6.951859 45.738562 -0.842376 1.418214 0.053159 -0.008653 -733118.000000 0 0 1
28.740340 -33.303997 7.503659 44.625869 -0.858821 1.401848 0.051464 -0.024217 -338533.000000 0 0 1
27.824740 -33.490897 6.422459 44.012547 -0.877546 1.424350 0.045509 -0.020119 -133818.000000 0 0 1
26.604840 -32.800297 6.647959 42.753623 -0.889314 1.414668 0.043550 -0.030387 580138.000000 0 0 1
25.589440 -32.861597 5.446159 42.004340 -0.909177 1.440773 0.044098 -0.019326 211137.000000 0 0 1
25.974840 -32.106397 4.304459 41.521577 -0.890577 1.466942 0.024142 0.000353 144053.000000 0 0 1
25.027340 -32.188797 3.228959 40.901254 -0.909916 1.491769 0.043336 -0.015681 330109.000000 0 0 1
25.432940 -31.459197 1.897859 40.498362 -0.890929 1.523917 0.050668 -0.007344 58314.300000 0 0 1
25.563740 -30.088897 2.027059 39.534232 -0.866530 1.519500 0.056271 -0.000573 82485.100000 0 0 1
26.246740 -29.512897 0.921259 39.506343 -0.843907 1.547475 0.046793 -0.000327 -657757.000000 0 0 1
26.563840 -28.005597 1.120059 38.616131 -0.811813 1.541787 0.048152 -0.000333 324939.000000 0 0 1
25.445740 -27.087497 1.190059 37.183792 -0.816640 1.538786 0.051219 0.002950 621288.000000 0 0 1
24.654840 -27.131197 -0.001741 36.660100 -0.833181 1.570844 0.057979 -0.003720 128945.000000 0 0 1
23.464140 -26.134397 -0.100341 35.122395 -0.839184 1.573653 0.041343 -0.001978 343107.000000 0 0 1
23.907540 -24.767497 -0.255241 34.424766 -0.803064 1.578211 0.051998 -0.005269 -13135.400000 0 0 1
24.019940 -24.027997 0.967959 33.988808 -0.785566 1.542314 0.035525 0.002637 -155292.000000 0 0 1
22.750640 -23.874797 1.837659 33.029903 -0.809504 1.515131 0.028856 0.001125 -30833.500000 0 0 1
22.871440 -23.213497 3.076459 32.732763 -0.792820 1.476670 0.032902 0.001441 -770595.000000 0 0 1
21.664040 -23.245797 3.764459 31.997950 -0.820604 1.452876 0.050201 0.000124 -447101.000000 0 0 1
21.712540 -22.467297 5.084359 31.655403 -0.802480 1.409482 0.057890 -0.003812 -5444.900000 0 0 1
21.721040 -21.022497 5.153459 30.664427 -0.769057 1.401935 0.090867 0.002836 564607.000000 0 0 1
20.531340 -20.336397 4.730259 29.282764 -0.780628 1.408548 0.063089 0.006354 -41502.700000 0 0 1
20.423440 -18.879197 5.231759 28.300393 -0.746127 1.384862 0.079574 -0.005304 138183.000000 0 0 1
19.927540 -18.722097 6.554259 28.117291 -0.754219 1.335528 0.128386 -0.015668 266351.000000 0 0 1
18.508040 -18.786297 6.620859 27.190223 -0.792859 1.324822 0.090498 -0.012730 93346.200000 0 0 1
20.543192 -25.810266 -12.460741 35.262766 -0.898541 1.931966 0.117972 -0.032750 109595.000000 0 0 1
20.087392 -24.480006 -12.461241 34.030230 -0.883642 1.945699 0.142059 -0.033449 -1205710.000000 0 0 1
18.812992 -24.362006 -12.953741 33.395141 -0.913221 1.969141 0.125477 -0.032045 -759247.000000 0 0 1
18.520592 -22.875406 -13.344841 32.316889 -0.890212 1.996473 0.119433 -0.037795 -194082.000000 0 0 1
18.383192 -21.851906 -12.387141 31.126979 -0.871397 1.980083 0.131777 -0.042587 -202121.000000 0 0 1
19.474292 -21.492906 -11.553841 31.219934 -0.834632 1.949890 0.116579 -0.045394 -404733.000000 0 0 1
19.522992 -22.224806 -10.197441 31.290207 -0.850026 1.902759 0.135438 -0.035887 166841.000000 0 0 1
18.683492 -21.706306 -9.166441 30.070920 -0.860100 1.880554 0.117570 -0.044179 281017.000000 0 0 1
17.350692 -22.196706 -9.232141 29.647474 -0.907327 1.887459 0.106082 -0.021737 -118781.000000 0 0 1
16.499092 -21.514606 -8.152141 28.311759 -0.916580 1.862873 0.077359 -0.025878 -1365860.000000 0 0 1
16.472092 -20.089106 -8.274641 27.264843 -0.884008 1.879151 0.062303 -0.027174 350542.000000 0 0 1
15.458992 -19.458506 -7.531641 25.968048 -0.899443 1.865060 0.057316 -0.030641 1690190.000000 0 0 1
13.936192 -19.771306 -7.907941 25.449116 -0.956810 1.886763 0.036375 -0.013766 1100460.000000 0 0 1
13.340692 -20.963106 -7.448741 25.940502 -1.004049 1.862044 0.038306 -0.018579 12638.800000 0 0 1
11.993092 -21.076306 -7.853041 25.489511 -1.053459 1.883980 0.030696 -0.019014 -76471.700000 0 0 1
11.436192 -22.502106 -7.693241 26.387824 -1.100588 1.866638 0.022215 -0.015317 -284304.000000 0 0 1
11.297092 -22.765206 -6.316541 26.187356 -1.110158 1.814404 0.031750 -0.021834 205162.000000 0 0 1
10.755392 -24.006706 -5.948241 26.970020 -1.149593 1.793175 0.024540 -0.018199 -41582.700000 0 0 1
11.014092 -24.305406 -4.496241 27.060657 -1.145323 1.737725 0.041040 -0.026373 -72.064700 0 0 1
10.398992 -25.452756 -3.951741 27.777655 -1.182932 1.713544 0.038562 -0.024048 -300560.000000 0 0 1
11.224492 -25.895916 -2.894741 28.371944 -1.161793 1.673002 0.054265 -0.022594 107183.000000 0 0 1
10.460992 -26.709836 -1.830541 28.743670 -1.197506 1.634524 0.067134 -0.018278 232795.000000 0 0 1
9.631092 -25.880006 -1.039441 27.633550 -1.214532 1.608420 0.064352 -0.012700 453935.000000 0 0 1
8.702692 -26.624346 -0.189141 28.011220 -1.254874 1.577549 0.068585 -0.020124 871230.000000 0 0 1
7.883592 -25.726916 0.777159 26.918938 -1.273448 1.541922 0.072803 -0.021450 1509390.000000 0 0 1
6.510592 -25.562526 0.341759 26.380814 -1.321406 1.557841 0.073888 -0.020920 1131040.000000 0 0 1
5.631192 -25.058696 1.330159 25.718046 -1.349748 1.519052 0.093749 -0.020143 331597.000000 0 0 1
4.240392 -24.535406 0.958759 24.917590 -1.399659 1.532310 0.072701 -0.026332 341083.000000 0 1 0
3.328492 -25.553686 0.534059 25.775084 -1.441271 1.550075 0.057756 -0.028633 -825999.000000 0 0 1
2.060892 -25.000836 0.405359 25.088910 -1.488549 1.554639 0.053533 -0.028091 -1120970.000000 0 0 1
1.138292 -26.038476 -0.190341 26.064040 -1.527108 1.578099 0.073132 -0.027967 -425319.000000 0 0 1
0.761892 -27.130886 0.685859 27.150246 -1.542722 1.545532 0.068391 -0.022776 41584.000000 0 0 1
1.696292 -28.216256 0.695259 28.275748 -1.510751 1.546205 0.058063 -0.026881 -8779.270000 0 0 1
1.246292 -29.469446 1.460759 29.531938 -1.528531 1.521312 0.095203 -0.028600 45682.500000 0 0 1
1.449692 -29.330216 2.783559 29.497651 -1.521410 1.476290 0.076931 -0.025584 212229.000000 0 0 1
0.749692 -30.386356 3.493459 30.595702 -1.546129 1.456365 0.109925 -0.039314 288187.000000 0 0 1
0.902592 -30.298576 5.022559 30.725307 -1.541015 1.406593 0.110219 -0.033641 -731216.000000 0 0 1
2.221392 -30.348446 5.492059 30.921279 -1.497730 1.392235 0.047930 -0.012374 -453196.000000 0 0 1
2.335292 -30.358456 6.862859 31.211990 -1.494024 1.349106 0.057385 -0.013951 -74220.500000 0 0 1
3.714692 -30.716036 7.459159 31.826292 -1.450444 1.334225 0.070002 -0.013448 216494.000000 0 0 1
4.071892 -32.039036 6.978059 33.041995 -1.444382 1.358007 0.065933 -0.018095 545482.000000 0 0 1
5.387292 -32.465016 7.385459 33.727514 -1.406353 1.350033 0.045576 -0.018501 873340.000000 0 0 1
5.604692 33.729624 7.268059 34.956041 1.406136 1.361348 0.033709 -0.011075 -183725.000000 0 0 1
5.711992 33.317429 5.910859 34.316412 1.401005 1.397687 0.029340 -0.015672 -1795.590000 0 0 1
5.322992 31.985571 5.868159 32.952182 1.405889 1.391760 0.037876 -0.016248 -633971.000000 0 0 1
5.602592 31.447084 4.380259 32.241197 1.394487 1.434516 0.040165 -0.018458 1024100.000000 0 0 1
6.981592 31.401034 3.993659 32.414763 1.352019 1.447278 0.063095 -0.015188 970019.000000 0 0 1
7.817292 30.452694 4.694759 31.788636 1.319519 1.422567 0.059572 -0.020311 -708877.000000 0 0 1
9.212692 30.260714 4.149359 31.903004 1.275268 1.440365 0.064024 -0.013741 -667146.000000 0 0 1
10.143392 31.175694 4.733759 33.124323 1.256237 1.427397 0.070639 -0.024575 -418302.000000 0 0 1
11.193292 31.365274 3.837659 33.523094 1.228015 1.456067 0.060003 -0.022878 -237430.000000 0 0 1
12.555892 31.699714 4.483059 34.389244 1.193666 1.440062 0.067598 -0.031863 85646.700000 0 0 1
13.033092 30.710204 5.388459 33.793691 1.169443 1.410661 0.081273 -0.027768 1066340.000000 0 0 1
14.306892 31.137604 5.948359 34.779599 1.140093 1.398921 0.108125 -0.028920 1242640.000000 0 0 1
15.011392 30.183814 6.960859 34.421767 1.109285 1.367169 0.095434 -0.032561 139337.000000 0 0 1
14.561792 30.196814 8.305659 34.538056 1.121466 1.327938 0.090929 -0.028144 235037.000000 0 0 1
15.090692 28.987314 8.884559 33.866336 1.090808 1.305348 0.075461 -0.039133 374576.000000 0 0 1
14.876492 29.039434 10.416959 34.250719 1.097368 1.261762 0.054599 -0.023552 3022.880000 0 0 1
15.702292 29.998444 11.047459 35.616217 1.088575 1.255413 0.057423 -0.035082 -232034.000000 0 0 1
15.336292 30.318544 12.361659 36.155588 1.102489 1.221856 0.040027 -0.026497 -429211.000000 0 0 1
16.314292 31.123504 13.208159 37.540432 1.087993 1.211262 0.044080 -0.021608 591066.000000 0 0 1
17.524492 30.382154 13.493159 37.579894 1.047609 1.203544 0.032587 -0.024682 933009.000000 0 0 1
18.245492 30.957644 14.639859 38.802051 1.038230 1.183922 0.039705 -0.019353 335623.000000 0 0 1
19.253392 29.927444 15.221759 38.704611 0.999120 1.166600 0.060202 -0.031283 -181268.000000 0 0 1
20.421892 29.840204 14.459859 38.943278 0.970634 1.190382 0.051071 -0.036366 -423974.000000 0 0 1
20.894092 28.519964 14.294459 38.135062 0.938516 1.186575 0.048905 -0.026012 270230.000000 0 0 1
22.361092 28.374604 13.776059 38.664148 0.903374 1.206491 0.086302 -0.026873 894819.000000 0 0 1
23.309192 28.899464 14.708459 39.935400 0.892067 1.193610 0.100158 -0.034868 873797.000000 0 0 1
24.648892 28.899004 14.177159 40.542720 0.864602 1.213562 0.114809 -0.031296 1115140.000000 0 0 1
25.758692 29.115644 15.250359 41.758883 0.846497 1.196948 0.125573 -0.035551 189234.000000 0 0 1
25.950592 27.991594 16.105559 41.428873 0.823217 1.171520 0.118529 -0.027122 125181.000000 0 0 1
26.985592 28.108764 17.077359 42.543636 0.805782 1.157743 0.113471 -0.027536 -47256.100000 0 0 1
27.770892 26.816954 17.320559 42.312802 0.767925 1.149060 0.075907 -0.012995 -283006.000000 0 0 1
27.042392 25.722104 17.825859 41.360353 0.760381 1.125208 0.080008 -0.019654 -180761.000000 0 0 1
26.737992 25.812904 19.198759 41.830832 0.767796 1.093970 0.095768 -0.012910 -63645.800000 0 0 1
26.191092 24.518384 19.800159 40.977686 0.752424 1.066497 0.105431 -0.022581 -418827.000000 0 0 1
27.090592 23.463354 19.751359 40.921208 0.713771 1.067098 0.078800 -0.019664 -508294.000000 0 0 1
26.508092 22.273284 20.167159 40.068596 0.698803 1.043365 0.088346 -0.018093 204814.000000 0 0 1
27.410092 20.991884 20.070159 39.934742 0.653565 1.044223 0.065855 -0.015607 29672.800000 0 0 1
26.693392 19.926984 20.594159 39.163008 0.641266 1.017073 0.069009 -0.001125 123381.000000 0 0 1
27.347392 18.660784 20.361959 38.867905 0.598789 1.019401 0.072021 -0.016060 595343.000000 0 0 1
28.174492 18.179484 21.602959 39.887134 0.573026 0.998454 0.108906 -0.011097 765513.000000 0 0 1
27.256092 17.783484 22.643959 39.647140 0.578102 0.962906 0.085227 -0.003359 384107.000000 0 0 1
27.896992 17.286284 23.789259 40.533771 0.554741 0.943572 0.125428 -0.003921 -92020.300000 0 0 1
26.946692 16.591484 24.791759 40.199911 0.551895 0.906238 0.111073 -0.001430 147928.000000 0 0 1
26.461592 15.393484 24.172059 39.005943 0.526877 0.902433 0.105981 -0.007897 -883965.000000 0 0 1
25.407592 14.893384 24.851859 38.535354 0.530195 0.869890 0.099260 -0.012790 -1019050.000000 0 0 1
24.838192 13.596384 24.210559 37.255182 0.500844 0.863399 0.098628 -0.015232 426104.000000 0 0 1
23.568692 13.140184 24.665059 36.558348 0.508604 0.830270 0.069249 -0.024290 440363.000000 0 0 1
23.194492 12.001084 23.886859 35.391983 0.477479 0.829936 0.083631 -0.022180 -73694.500000 0 0 1
21.736992 11.526784 24.070859 34.420485 0.487580 0.796354 0.080693 -0.031826 -1060590.000000 0 0 1
20.801992 12.447984 23.757959 33.942831 0.539245 0.795482 0.099046 -0.039433 -1444910.000000 0 0 1
19.567292 11.806084 23.926259 33.086680 0.542885 0.762461 0.109061 -0.039609 -956624.000000 0 0 1
18.364892 12.716784 23.931359 32.736765 0.605641 0.750975 0.110981 -0.049374 -744322.000000 0 0 1
18.276992 13.417884 25.164859 33.872675 0.633274 0.733367 0.137038 -0.032349 349147.000000 0 0 1
17.135292 14.289584 25.253559 33.697962 0.695089 0.723627 0.157725 -0.039380 232037.000000 0 0 1
16.717492 14.316684 26.729859 34.625530 0.708192 0.688862 0.141541 -0.030183 -240958.000000 0 0 1
16.050792 13.191884 27.256859 34.272293 0.687943 0.651289 0.147555 -0.024023 -172458.000000 0 0 1
16.031792 13.052684 28.655859 35.334815 0.683325 0.624970 0.123696 -0.032445 230527.000000 0 0 1
17.344092 12.733584 29.434359 36.460158 0.633295 0.631230 0.133624 -0.017336 1185370.000000 0 0 1
18.335092 13.802284 29.457559 37.342019 0.645278 0.661847 0.159083 -0.039704 918181.000000 0 0 1
19.702592 13.443284 29.426559 37.879234 0.598755 0.681145 0.129057 -0.020234 -124748.000000 0 0 1
20.489492 14.694084 29.034559 38.454401 0.622145 0.715083 0.145847 -0.031367 -662958.000000 0 0 1
20.315692 15.216084 27.727059 37.590508 0.642849 0.741275 0.152678 -0.044286 283879.000000 0 0 1
20.862192 14.445684 26.678759 36.819356 0.605630 0.760364 0.128539 -0.039765 -383683.000000 0 0 1
20.825492 15.252984 25.348459 36.178709 0.632154 0.794494 0.094886 -0.038281 -1077500.000000 0 0 1
21.790992 16.223884 25.287059 37.114648 0.639986 0.821228 0.089731 -0.029154 -549943.000000 0 0 1
21.843192 16.812584 24.051759 36.582442 0.655987 0.853344 0.081155 -0.023128 -400294.000000 0 0 1
23.019992 17.727784 23.753959 37.529254 0.656244 0.885445 0.084576 -0.022440 -455379.000000 0 0 1
22.863292 18.360284 22.521259 36.973466 0.676596 0.915846 0.087362 -0.030295 203091.000000 0 0 1
23.977492 19.172384 22.150559 37.856937 0.674497 0.945778 0.097892 -0.019648 157932.000000 0 0 1
23.938692 20.576784 22.782659 38.929610 0.710019 0.945636 0.104729 -0.027907 120403.000000 0 0 1
22.875192 21.416284 22.371759 38.502301 0.752471 0.950778 0.097226 -0.023032 -100791.000000 0 0 1
22.972892 22.650884 23.040159 39.644233 0.778340 0.950627 0.112682 -0.026252 154416.000000 0 0 1
22.132692 23.726264 22.279059 39.359219 0.820134 0.969097 0.117090 -0.044732 -242785.000000 0 0 1
22.776392 24.336034 21.197359 39.501071 0.818491 1.004361 0.121843 -0.043696 -25967.600000 0 0 1
22.166892 25.564854 20.798559 39.717916 0.856467 1.019659 0.129504 -0.043534 -126383.000000 0 0 1
22.765392 26.204474 19.545959 39.836943 0.855512 1.057962 0.126736 -0.043443 -412659.000000 0 0 1
22.420492 25.468004 18.457559 38.626146 0.848950 1.072589 0.112989 -0.045097 -89594.100000 0 0 1
22.930992 25.980574 17.256859 38.712011 0.847666 1.108756 0.107445 -0.058791 -132229.000000 0 0 1
22.686392 25.161244 15.966459 37.452481 0.837076 1.130384 0.084355 -0.032304 636864.000000 0 0 1
21.290792 25.238114 15.620659 36.527595 0.870031 1.128916 0.081076 -0.035674 615667.000000 0 0 1
20.987892 24.648524 14.342459 35.408296 0.865440 1.153753 0.093944 -0.027809 -168447.000000 0 0 1
19.475592 24.564934 14.038559 34.348446 0.900448 1.149756 0.080385 -0.031990 -338288.000000 0 0 1
18.934992 25.828764 13.781959 34.865475 0.938201 1.164413 0.068160 -0.030039 -743281.000000 0 0 1
18.189092 26.236244 14.875059 35.220036 0.964594 1.134764 0.078159 -0.024194 -1393380.000000 0 0 1
16.706592 26.249724 14.484559 34.321431 1.004007 1.135117 0.075754 -0.024430 -909251.000000 0 0 1
16.040992 25.039224 14.216059 32.960165 1.001033 1.124852 0.085340 -0.029353 -55204.100000 0 0 1
15.815792 24.157534 15.342759 32.697491 0.991128 1.082374 0.105657 -0.034424 108189.000000 0 0 1
14.704192 24.574654 16.370259 32.986546 1.031593 1.051498 0.116956 -0.040154 -29236.800000 0 0 1
15.141192 25.697204 17.098259 34.379535 1.038344 1.050268 0.113539 -0.038703 9557.590000 0 0 1
14.189592 26.302084 17.934859 34.854028 1.076062 1.030290 0.099875 -0.043517 -287617.000000 0 0 1
14.800592 27.581544 18.483059 36.351376 1.078290 1.037406 0.099454 -0.045259 -55214.800000 0 0 1
15.097292 28.475764 17.451159 36.651607 1.083297 1.074541 0.087751 -0.035577 116420.000000 0 0 1
15.807792 29.553014 17.996259 38.041191 1.079623 1.078021 0.066664 -0.030172 -49653.400000 0 0 1
15.541892 30.831734 17.076759 38.519630 1.103884 1.111490 0.056451 -0.022442 -544505.000000 0 0 1
14.300592 31.449134 17.252959 38.616312 1.144023 1.107635 0.068893 -0.025319 -266780.000000 0 0 1
14.151292 32.586246 16.452259 39.150981 1.161099 1.137102 0.056145 -0.016419 1347070.000000 0 0 1
12.812992 33.392410 16.863959 39.542621 1.204412 1.130204 0.056631 -0.017195 1263970.000000 0 0 1
12.740992 -32.928866 16.464259 38.957861 -1.201612 1.134465 0.076244 -0.017759 -414539.000000 0 0 1
13.525792 -31.943366 17.050459 38.652863 -1.170256 1.113953 0.067993 -0.013122 -432945.000000 0 0 1
13.399892 -31.805026 18.603059 39.207022 -1.172052 1.076420 0.064494 -0.018363 -134163.000000 0 0 1
14.088192 -32.833996 19.330759 40.622982 -1.165481 1.074857 0.067567 -0.018866 367388.000000 0 0 1
13.983492 -32.654726 20.704959 41.116475 -1.166199 1.043072 0.065641 -0.019963 41967.000000 0 0 1
15.211492 -33.235566 21.464959 42.387932 -1.141568 1.039800 0.065627 -0.018289 1321000.000000 0 0 1
16.410692 -32.445866 21.247759 42.113089 -1.102530 1.041947 0.072684 -0.015239 1368010.000000 0 0 1
17.509792 -32.708576 22.141059 43.204980 -1.079288 1.032743 0.086307 -0.009420 900574.000000 0 0 1
18.724692 -31.771876 21.904459 42.893724 -1.038246 1.034835 0.097905 -0.015621 170729.000000 0 0 1
18.563292 -30.405076 22.187159 41.968256 -1.022668 1.013769 0.098814 -0.022558 332491.000000 0 0 1
19.491792 -29.674896 21.381259 41.444995 -0.989625 1.028744 0.102209 -0.020066 70765.900000 0 0 1
-5.074808 13.125494 18.272559 23.063362 -1.201862 0.656265 0.029850 -0.012173 -126044.000000 0 1 0
-4.764608 14.358094 17.672659 23.263259 -1.250389 0.707974 0.037975 -0.020960 530990.000000 0 1 0
-5.983008 15.075794 17.462759 23.833252 -1.192998 0.748507 0.048096 -0.021507 481984.000000 0 1 0
-5.792908 16.540894 17.037259 24.442323 -1.233928 0.799536 0.061987 -0.028970 -294985.000000 0 1 0
-5.380508 17.191594 18.198059 25.606056 -1.267480 0.780313 0.062032 -0.017144 134648.000000 0 0 1
-5.107008 18.564094 17.980759 26.344161 -1.302336 0.819573 0.068688 -0.018631 -283009.000000 0 0 1
-4.370008 19.247694 19.149859 27.500687 -1.347540 0.800510 0.056790 -0.016820 -68477.900000 0 0 1
-5.168408 19.376794 20.329259 28.556109 -1.310133 0.778588 0.047657 -0.016775 659654.000000 0 0 1
-4.541708 20.245094 21.355959 29.775290 -1.350114 0.770966 0.043505 -0.001656 244351.000000 0 0 1
-5.530608 20.534494 22.489039 30.951736 -1.307707 0.757459 0.034712 -0.000333 -61066.400000 0 0 1
-5.842708 19.409194 23.282819 30.869786 -1.278397 0.716321 0.032023 -0.007300 -148635.000000 0 0 1
-6.601008 19.812894 24.428739 32.138565 -1.249195 0.707319 0.026744 -0.010113 222173.000000 0 0 1
-5.872508 20.619994 25.528159 33.337027 -1.293345 0.698574 0.027010 -0.014300 -568147.000000 0 0 1
-5.289208 21.839094 25.071579 33.667578 -1.333182 0.730741 0.039409 -0.012820 -424342.000000 0 0 1
-4.409908 22.380994 25.998039 34.586908 -1.376250 0.720202 0.046963 -0.005258 -241279.000000 0 0 1
-2.954008 21.942994 25.728369 33.943631 -1.436979 0.710596 0.058736 0.002458 -482165.000000 0 0 1
-2.682508 20.581594 26.055039 33.311603 -1.441192 0.672670 0.071656 0.010821 416188.000000 0 0 1
-1.362108 20.187794 25.665949 32.682461 -1.503427 0.667595 0.071274 0.011441 776645.000000 0 0 1
-0.786908 18.856394 26.245209 32.326364 -1.529089 0.623427 0.070535 0.021873 -192933.000000 0 0 1
-1.243208 17.670894 25.649509 31.172157 -1.500559 0.604416 0.072362 0.014404 -171747.000000 0 0 1
-0.611308 16.474794 26.161659 30.922887 -1.533708 0.562304 0.055785 0.018679 683273.000000 0 0 1
0.913292 16.241994 25.887509 30.574492 1.514625 0.561039 0.060209 0.019791 414856.000000 0 0 1
1.282692 16.016194 24.521279 29.316495 1.490880 0.580054 0.066867 0.008942 34641.300000 0 0 1
0.806792 14.759994 23.920939 28.119738 1.516190 0.553516 0.064041 0.009367 -19531.400000 0 0 1
0.975692 14.666894 22.371559 26.768571 1.504371 0.581318 0.069613 -0.013503 372861.000000 0 0 1
2.316692 14.634894 21.898359 26.440221 1.413800 0.594870 0.070790 -0.022805 29759.200000 0 0 1
2.613392 13.509294 21.073959 25.168285 1.379705 0.578430 0.062196 -0.029202 407250.000000 0 0 1
4.147692 13.498394 20.833059 25.167962 1.272681 0.595691 0.063207 -0.035578 448984.000000 0 0 1
4.634792 14.488594 19.937759 25.078175 1.261191 0.651749 0.063576 -0.040018 -1065790.000000 0 0 1
6.012892 14.589794 19.930259 25.421097 1.179877 0.669705 0.074041 -0.034985 -862450.000000 0 0 1
6.492792 15.699294 18.974359 25.468617 1.178645 0.730247 0.079978 -0.041416 -149920.000000 0 0 1
6.501892 15.271994 17.601259 24.193237 1.168299 0.756084 0.086128 -0.054145 277594.000000 0 1 0
7.003792 16.260194 16.686959 24.329028 1.164080 0.814975 0.079344 -0.039896 -63202.800000 0 1 0
7.166392 15.744494 15.192359 23.022902 1.143653 0.850137 0.074431 -0.036109 462211.000000 0 1 0
8.243892 14.862794 14.803259 22.538874 1.064378 0.854245 0.074368 -0.034708 682688.000000 0 1 0
8.453892 13.629194 15.500959 22.304774 1.015600 0.802430 0.076364 -0.035307 -291499.000000 0 1 0
9.592092 12.854694 14.824359 21.840627 0.929736 0.824735 0.082280 -0.036002 298515.000000 0 1 0
10.868892 13.440194 14.969459 22.866051 0.890782 0.857065 0.074252 -0.034981 313977.000000 0 1 0
11.898292 12.941094 14.116959 22.546170 0.827355 0.894209 0.096512 -0.024741 760225.000000 0 1 0
13.232192 13.723094 14.310959 23.837318 0.803608 0.926846 0.088627 -0.011585 -184755.000000 0 1 0
14.131492 13.145294 15.227359 24.583943 0.749259 0.902815 0.078439 -0.025129 -585658.000000 0 1 0
15.332392 13.849294 15.226559 25.665799 0.734619 0.935691 0.086263 -0.017999 -762561.000000 0 0 1
16.442592 13.211694 14.396259 25.537422 0.676874 0.971899 0.107787 -0.020213 -795660.000000 0 0 1
17.672492 13.904094 14.593859 26.807117 0.666618 0.995120 0.107208 -0.028662 277524.000000 0 0 1
18.642692 13.315694 13.749059 26.718800 0.620231 1.030274 0.115201 -0.023540 -531667.000000 0 0 1
20.008292 13.974094 13.948659 28.110000 0.609662 1.051560 0.109977 -0.033594 -271472.000000 0 0 1
20.712992 13.577894 15.147359 29.031529 0.580250 1.021889 0.086796 -0.030484 -1497.610000 0 0 1
22.080992 13.762094 14.894859 29.980364 0.557344 1.050865 0.112037 -0.038746 -249248.000000 0 0 1
23.040492 13.349094 16.026659 31.079195 0.525116 1.029005 0.120705 -0.026289 -80561.100000 0 0 1
23.300592 11.967794 16.059659 30.725532 0.474489 1.020803 0.122802 -0.020823 138452.000000 0 0 1
24.210792 11.632594 17.066759 31.823795 0.447903 1.004762 0.111210 -0.026259 -203610.000000 0 0 1
24.568392 10.141394 16.976659 31.538242 0.391477 1.002392 0.122352 -0.021721 758479.000000 0 0 1
23.464392 9.365894 17.538259 30.755295 0.379776 0.963984 0.102456 -0.019107 1310450.000000 0 0 1
23.240492 8.109594 16.965459 29.895029 0.335732 0.967329 0.081207 -0.012636 212691.000000 0 0 1
21.828492 7.515794 17.251059 28.819598 0.331598 0.929059 0.130638 -0.007429 258283.000000 0 0 1
21.779392 6.177394 16.861359 28.227779 0.276376 0.930626 0.124396 -0.027443 373764.000000 0 0 1
20.466492 5.667394 17.032359 27.223113 0.270142 0.894822 0.138469 -0.025911 118835.000000 0 0 1
20.453492 4.159394 16.767759 26.773188 0.200623 0.894012 0.145976 -0.017704 -365626.000000 0 0 1
20.091592 3.692494 15.487259 25.635166 0.181755 0.922109 0.161307 -0.022984 181751.000000 0 0 1
20.137892 2.280794 15.183259 25.323271 0.112778 0.927823 0.139342 -0.042323 307088.000000 0 0 1
19.120692 1.422494 16.026859 24.989689 0.074259 0.874554 0.155200 -0.036300 132340.000000 0 1 0
19.375792 1.428194 17.405359 26.084623 0.073577 0.840265 0.145657 -0.032920 427692.000000 0 0 1
18.277092 1.002094 18.229659 25.833636 0.054773 0.787448 0.133538 -0.031509 176509.000000 0 0 1
18.764292 0.409094 19.594959 27.133529 0.021798 0.763865 0.134525 -0.034823 139877.000000 0 0 1
19.229492 -0.932706 19.524159 27.419629 -0.048466 0.778382 0.138978 -0.033657 757511.000000 0 0 1
18.151292 -1.899906 19.545559 26.741502 -0.104291 0.751146 0.107734 -0.028839 352755.000000 0 0 1
18.528992 -3.267406 18.913759 26.678264 -0.174546 0.782777 0.100691 -0.032641 -21115.800000 0 0 1
18.248892 -3.220406 17.496559 25.485734 -0.174673 0.814099 0.124551 -0.043043 282770.000000 0 0 1
18.114392 -4.536206 16.938459 25.211500 -0.245374 0.834087 0.145411 -0.039492 -272072.000000 0 0 1
17.584392 -4.716506 15.532359 23.931369 -0.262053 0.864478 0.137188 -0.044000 814885.000000 0 1 0
16.155092 -4.498506 15.459859 22.808568 -0.271578 0.826017 0.125467 -0.034008 1272490.000000 0 1 0
15.633892 -4.505506 14.092159 21.524570 -0.280586 0.857009 0.121347 -0.035396 454764.000000 0 1 0
16.078492 -3.360406 13.119159 21.021954 -0.206034 0.896856 0.124821 -0.031544 -173290.000000 0 1 0
15.444692 -2.142106 13.495059 20.621439 -0.137816 0.857382 0.127316 -0.023137 330133.000000 0 1 0
15.706792 -0.990906 12.727959 20.240705 -0.063004 0.890749 0.118150 -0.029809 110609.000000 0 1 0
14.703892 0.109394 13.176859 19.744518 0.007440 0.840127 0.122134 -0.017163 -276284.000000 0 1 0
15.041292 1.372194 12.689759 19.726970 0.090977 0.872035 0.115546 -0.016914 96479.000000 0 1 0
16.202992 1.977494 13.233059 21.013359 0.121444 0.889571 0.141908 -0.031737 59197.100000 0 1 0
16.450492 3.439494 12.831859 21.144867 0.206112 0.918699 0.126665 -0.029462 66623.500000 0 1 0
15.433492 4.310594 13.291559 20.819208 0.272361 0.878343 0.114206 -0.016974 135600.000000 0 1 0
15.572292 5.550694 12.660559 20.822973 0.342406 0.917246 0.125656 -0.022392 -350321.000000 0 1 0
14.449292 6.545094 12.889759 20.439329 0.425321 0.888425 0.097277 -0.014546 -395247.000000 0 1 0
14.525492 7.686794 12.096759 20.406084 0.486729 0.936263 0.064745 -0.018025 333859.000000 0 1 0
13.359092 8.476794 12.274359 20.024516 0.565426 0.910987 0.041746 -0.013547 -169256.000000 0 1 0
13.484192 9.483794 13.457059 21.280465 0.612955 0.886192 0.036220 -0.013090 -221885.000000 0 1 0
13.154292 8.972894 14.765359 21.715525 0.598629 0.823109 0.052300 -0.015855 345924.000000 0 1 0
13.622092 9.735594 15.845159 23.052380 0.620518 0.812956 0.081390 -0.021978 -318644.000000 0 1 0
13.234792 9.270594 17.270759 23.651273 0.611042 0.752145 0.077311 -0.016375 246792.000000 0 1 0
11.879392 9.588694 17.580459 23.283804 0.679098 0.715064 0.049326 -0.023801 71999.800000 0 1 0
11.422692 9.137994 18.845659 23.856648 0.674732 0.660062 0.084285 -0.012815 90079.500000 0 1 0
12.213592 9.534294 20.146059 25.415316 0.662818 0.655614 0.127246 -0.019380 -450533.000000 0 0 1
13.493792 8.975794 20.198159 25.896195 0.586972 0.676184 0.164290 -0.032454 -684837.000000 0 0 1
14.181992 9.279094 21.408759 27.305044 0.579383 0.669618 0.153096 -0.018840 -49383.000000 0 0 1
15.634892 8.839994 21.108159 27.715514 0.514591 0.705016 0.146267 -0.026067 -344194.000000 0 0 1
16.295492 9.752994 20.257659 27.767547 0.539322 0.753141 0.142064 -0.023453 -439312.000000 0 0 1
17.511192 9.134594 19.946359 28.070267 0.480812 0.780465 0.122245 -0.021694 -430824.000000 0 0 1
18.553492 9.867394 19.090759 28.391100 0.488790 0.833322 0.121746 -0.021184 290542.000000 0 0 1
19.221892 10.973194 19.773459 29.679653 0.518725 0.841655 0.116798 -0.030118 332735.000000 0 0 1
19.928992 11.843194 18.944859 29.938831 0.536195 0.885651 0.125683 -0.032922 -273062.000000 0 0 1
21.090592 12.581394 19.565859 31.399480 0.537872 0.898062 0.114906 -0.031988 -692892.000000 0 0 1
20.549392 13.722394 20.222959 31.930388 0.588770 0.884928 0.096169 -0.029180 410865.000000 0 0 1
21.351092 14.376994 21.183059 33.336002 0.592623 0.882217 0.095650 -0.027021 323862.000000 0 0 1
22.721092 15.051394 20.804859 34.287528 0.585072 0.918798 0.077411 -0.023001 1334890.000000 0 0 1
23.790592 14.101694 20.631559 34.503786 0.535066 0.929855 0.057761 -0.013299 284578.000000 0 0 1
25.053892 14.677794 20.424059 35.500384 0.529949 0.957802 0.064174 -0.016141 42357.500000 0 0 1
26.294092 13.773994 20.518059 36.084524 0.482540 0.965980 0.061969 -0.023354 139268.000000 0 0 1
26.622692 13.049994 19.314659 35.385394 0.455763 0.993409 0.086390 -0.033389 713728.000000 0 0 1
27.874692 12.366694 19.431059 36.159364 0.417563 1.003478 0.108930 -0.040303 589750.000000 0 0 1
28.455592 11.683694 18.162759 35.722755 0.389606 1.037428 0.136214 -0.040107 -22710.300000 0 0 1
28.789292 12.558594 17.098859 35.761887 0.411339 1.072271 0.145555 -0.055410 219411.000000 0 0 1
28.957492 11.907094 15.820559 35.079984 0.390117 1.102927 0.181373 -0.063066 -1192900.000000 0 0 1
27.759592 11.674094 14.972459 33.631145 0.398089 1.109403 0.162756 -0.054051 -979675.000000 0 0 1
27.313492 12.783394 14.166959 33.318834 0.437742 1.131620 0.179561 -0.049210 127272.000000 0 0 1
26.319992 12.477994 13.217559 31.986656 0.442704 1.144808 0.176766 -0.041811 -123445.000000 0 0 1
25.862392 13.685394 12.378659 31.770812 0.486704 1.170573 0.164870 -0.042219 233793.000000 0 0 1
25.093292 14.631494 13.151459 31.885965 0.527888 1.145651 0.152764 -0.042719 459825.000000 0 0 1
24.922792 15.866294 12.455059 32.062647 0.566910 1.171836 0.145717 -0.040217 -303809.000000 0 0 1
23.945992 16.886794 13.026959 32.066742 0.614210 1.152455 0.141559 -0.045870 -232034.000000 0 0 1
22.594792 16.648194 12.672959 30.794331 0.635010 1.146658 0.151850 -0.057249 187242.000000 0 0 1
21.828292 17.781294 13.051259 31.031985 0.683579 1.136718 0.126275 -0.052405 -1413420.000000 0 0 1
21.095592 18.374194 11.820159 30.370234 0.716558 1.171031 0.145498 -0.047496 740682.000000 0 0 1
19.958292 17.636194 11.281659 28.924809 0.723710 1.170128 0.131601 -0.049613 1250580.000000 0 0 1
18.889392 17.601294 12.228559 28.568379 0.750113 1.128468 0.124285 -0.041917 -556492.000000 0 0 1
17.525592 17.085994 11.676659 27.118663 0.772698 1.125665 0.121503 -0.030167 245106.000000 0 0 1
17.445892 15.700694 11.449059 26.114208 0.732796 1.116953 0.115912 -0.023220 573983.000000 0 0 1
16.130892 15.429394 10.988559 24.880118 0.763175 1.113348 0.112721 -0.023299 345616.000000 0 1 0
16.066292 14.020794 10.321859 23.690698 0.717517 1.119989 0.112307 -0.024539 40818.600000 0 1 0
16.390192 12.925094 11.203059 23.689765 0.667743 1.078209 0.114613 -0.011961 457361.000000 0 1 0
16.592292 11.759294 10.361159 22.824082 0.616555 1.099595 0.099630 -0.003742 -45185.500000 0 1 0
17.025892 10.506494 11.078159 22.869040 0.552890 1.065099 0.100861 -0.011477 -732728.000000 0 1 0
17.261692 9.388294 10.274959 22.173877 0.498133 1.088989 0.074504 -0.012828 237473.000000 0 1 0
17.647892 8.200494 10.884759 22.297402 0.434989 1.060813 0.065468 -0.012071 268256.000000 0 1 0
19.029092 8.197194 11.597659 23.744599 0.406749 1.060503 0.091117 -0.020813 -269516.000000 0 1 0
18.930392 8.963894 12.803059 24.548512 0.442239 1.022140 0.097123 -0.023038 204612.000000 0 1 0
20.102892 9.056694 13.613859 25.913068 0.423284 1.017650 0.107704 -0.026122 -1014250.000000 0 0 1
19.865292 9.638994 15.049659 26.721382 0.451752 0.972535 0.094070 -0.008641 278441.000000 0 0 1
19.022892 8.817594 15.891759 26.309093 0.434045 0.922235 0.096476 -0.010931 1371590.000000 0 0 1
17.644492 8.744794 15.467659 25.040926 0.460130 0.904988 0.096083 -0.017125 332127.000000 0 0 1
17.035592 7.366794 15.955659 24.475786 0.408152 0.860715 0.121819 -0.021008 -143735.000000 0 1 0
16.691592 7.206094 17.346459 25.128403 0.407549 0.808875 0.148976 -0.020478 378106.000000 0 0 1
16.154092 5.982294 17.832859 24.794221 0.354667 0.768096 0.137005 -0.002572 407193.000000 0 1 0
14.616392 5.778894 17.668559 23.647674 0.376509 0.727020 0.117982 -0.018072 311528.000000 0 1 0
14.241192 4.393694 17.628659 23.084317 0.299255 0.701827 0.132259 -0.020690 191919.000000 0 1 0
14.321192 3.795194 16.337559 22.054838 0.259051 0.736581 0.163961 -0.021227 -291809.000000 0 1 0
14.181892 2.224094 16.354759 21.761222 0.155559 0.720380 0.163820 -0.025530 513291.000000 0 1 0
15.358992 1.519994 16.790959 22.806694 0.098643 0.743315 0.140702 -0.023545 538113.000000 0 1 0
15.260292 0.154094 16.595259 22.545573 0.010097 0.743541 0.149623 -0.024668 -222209.000000 0 1 0
14.329992 -0.635506 17.557359 22.671863 -0.044319 0.685011 0.142624 -0.029654 972106.000000 0 1 0
12.938292 -0.310506 17.491759 21.759077 -0.023994 0.637001 0.133447 -0.021831 873712.000000 0 1 0
12.144592 -0.944406 18.537759 22.181783 -0.077607 0.581354 0.099815 -0.029119 635261.000000 0 1 0
-26.177668 13.893994 28.480079 41.102655 -0.487950 0.805291 0.105908 -0.013304 -307695.000000 0 0 1
-25.175188 14.142494 29.440709 41.237793 -0.511830 0.775708 0.088099 -0.016653 183341.000000 0 0 1
-24.518608 12.927694 29.751049 40.662173 -0.485217 0.750036 0.064617 -0.012191 -22714.900000 0 0 1
-23.348308 13.090194 30.743879 40.763743 -0.510982 0.716366 0.072901 -0.020967 -203128.000000 0 0 1
-23.844108 13.230394 32.074789 42.099607 -0.506575 0.704588 0.064530 -0.020182 -269887.000000 0 0 1
-22.833608 13.133694 33.033934 42.250543 -0.521978 0.673156 0.047957 -0.020005 -713593.000000 0 0 1
-23.298908 13.388394 -33.079361 42.618451 -0.521561 2.459372 0.051239 -0.022379 109049.000000 0 0 1
-24.042108 12.271594 -32.574851 42.305271 -0.471949 2.449630 0.039705 -0.017083 239398.000000 0 0 1
-24.742308 12.535994 -31.403751 41.899028 -0.468963 2.418118 0.036856 -0.021732 -424165.000000 0 0 1
-25.595868 11.382694 -30.891331 41.701181 -0.418445 2.405025 0.031008 -0.025067 -412634.000000 0 0 1
-24.968708 10.287094 -30.223361 40.530387 -0.390808 2.412376 0.044572 -0.031750 -5059.850000 0 0 1
-24.416608 9.357994 -31.106481 40.636880 -0.365996 2.442574 0.036386 -0.027286 -127600.000000 0 0 1
-23.398908 8.391394 -30.471151 39.324489 -0.344336 2.457297 0.049407 -0.012765 -508322.000000 0 0 1
-24.022708 7.685494 -29.458681 38.781068 -0.309636 2.433517 0.054206 -0.013053 237727.000000 0 0 1
-23.149408 6.747694 -28.844851 37.595903 -0.283626 2.445313 0.047170 -0.006456 -122579.000000 0 0 1
-23.818908 5.809394 -27.757991 37.035058 -0.239228 2.418112 0.047376 -0.007742 -16107.100000 0 0 1
-24.876408 4.980794 -28.162311 37.904614 -0.197609 2.408306 0.070297 -0.021273 178038.000000 0 0 1
-25.112698 3.985394 -27.198511 37.232915 -0.157388 2.389845 0.110670 -0.017961 -983617.000000 0 0 1
-25.988238 2.828594 -27.724111 38.105325 -0.108415 2.385563 0.107031 -0.014301 573749.000000 0 0 1
-27.397168 3.016794 -27.792861 39.142675 -0.109672 2.360351 0.125219 -0.025114 648547.000000 0 0 1
-27.773768 4.038894 -28.716701 40.154001 -0.144409 2.367655 0.119405 -0.028236 -904661.000000 0 0 1
-29.112948 3.818494 -29.450311 41.586843 -0.130417 2.357691 0.135613 -0.035666 1775960.000000 0 0 1
-30.422798 3.918894 -28.763561 42.050527 -0.128109 2.324061 0.120734 -0.034782 2791660.000000 0 0 1
-31.601278 3.828494 -29.580671 43.454738 -0.120562 2.319546 0.133495 -0.035251 884606.000000 0 0 1
-31.938668 5.126294 -30.300291 44.322286 -0.159147 2.323529 0.131151 -0.048394 -1247300.000000 0 0 1
-31.071678 5.418594 -31.333201 44.458743 -0.172654 2.352896 0.129954 -0.047284 -309132.000000 0 0 1
-31.147958 6.719894 -31.913601 45.098007 -0.212484 2.356963 0.122457 -0.042691 -695987.000000 0 0 1
-30.732128 7.936994 -31.062531 44.411039 -0.252741 2.345400 0.091986 -0.038484 -487420.000000 0 0 1
-29.334958 7.945494 -30.893551 43.336845 -0.264508 2.364379 0.044124 -0.038645 58320.500000 0 0 1
-28.760578 7.577194 -29.632831 41.984395 -0.257604 2.354356 0.035024 -0.043067 -371449.000000 0 0 1
-28.972008 8.507594 -28.384241 41.441785 -0.285620 2.325288 0.028598 -0.033659 107402.000000 0 0 1
-30.340958 8.671894 -28.043701 42.216403 -0.278393 2.297332 0.042981 -0.034247 359083.000000 0 0 1
-30.870338 7.637394 -27.243931 41.875283 -0.242532 2.279167 0.046485 -0.022751 -627246.000000 0 0 1
-32.306568 7.910994 -26.779011 42.701448 -0.240147 2.248649 0.050829 -0.012869 -301735.000000 0 0 1
-32.387628 8.745994 -25.633131 42.219762 -0.263750 2.223247 0.007985 -0.007337 -2543.470000 0 0 1
-32.350998 7.909794 -24.458541 41.320360 -0.239795 2.204241 0.023205 -0.010596 -410386.000000 0 0 1
-31.787068 8.647894 -23.248141 40.319720 -0.265628 2.185351 0.029956 -0.005489 -283425.000000 0 0 1
-32.579168 9.726194 -22.778941 40.925313 -0.290117 2.161081 0.045611 -0.010309 -114945.000000 0 0 1
-31.840368 10.530994 -21.938641 40.075115 -0.319418 2.150096 0.048064 -0.017300 -466205.000000 0 0 1
-32.700768 11.461494 -21.089941 40.564661 -0.337117 2.117541 0.043793 -0.011741 -151819.000000 0 0 1
-33.377408 10.934394 -19.966741 40.401524 -0.316580 2.087719 0.056324 -0.020401 452117.000000 0 0 1
-34.043936 11.939794 -19.137841 40.838771 -0.337314 2.058524 0.054461 -0.016185 59398.500000 0 0 1
-33.163548 12.624294 -18.094041 39.831998 -0.363730 2.042337 0.064842 -0.017293 -639520.000000 0 0 1
-32.681228 11.720494 -17.086641 38.696072 -0.344343 2.028133 0.105315 -0.010702 812542.000000 0 0 1
-33.668718 11.253794 -16.114141 38.985844 -0.322576 1.996908 0.100508 -0.001514 658758.000000 0 0 1
-34.166279 12.362894 -15.148641 39.365685 -0.347188 1.965807 0.086438 0.005408 -297678.000000 0 0 1
-34.900314 13.369894 -15.810341 40.580202 -0.365843 1.971001 0.051958 -0.004661 23804.500000 0 0 1
-35.302752 14.313194 -14.821141 40.875641 -0.385188 1.941843 0.023929 -0.004462 225369.000000 0 0 1
-36.172248 15.545794 -15.274541 42.230497 -0.405905 1.940881 0.017300 -0.008275 245230.000000 0 0 1
-37.506798 15.248594 -15.617441 43.395668 -0.386145 1.938941 0.030418 -0.008753 137451.000000 0 0 1
37.417840 16.401494 -15.995941 43.874524 0.413110 1.943982 0.031806 -0.013184 -564112.000000 0 0 1
37.103480 16.396594 -17.513241 44.184048 0.416110 1.978356 0.032855 -0.011521 -569499.000000 0 0 1
36.176700 15.519094 -18.051141 43.306346 0.405237 2.000745 0.069961 -0.021591 638734.000000 0 0 1
34.808200 15.984594 -17.939441 42.295881 0.430494 2.008810 0.111336 -0.024500 827863.000000 0 0 1
33.893070 14.741494 -18.199941 41.198176 0.410261 2.028362 0.118699 -0.028900 -253598.000000 0 0 1
33.934650 14.294894 -19.552641 41.691848 0.398688 2.058932 0.115456 -0.020437 569031.000000 0 0 1
33.093690 13.201094 -20.001641 40.859844 0.379558 2.082334 0.058903 -0.009053 417268.000000 0 0 1
33.486030 11.832194 -19.410641 40.473300 0.339654 2.070985 0.076635 -0.006456 -229213.000000 0 0 1
33.246670 11.795194 -18.007841 39.607449 0.340925 2.042784 0.106653 -0.013937 208476.000000 0 0 1
34.014400 10.795794 -17.345541 39.678664 0.307333 2.023224 0.105597 -0.025952 -68376.600000 0 0 1
33.863560 10.699094 -15.798241 38.868956 0.306022 1.989360 0.084562 -0.019620 107715.000000 0 0 1
32.567870 10.151994 -15.548241 37.489691 0.302172 1.998447 0.097929 -0.017054 496649.000000 0 0 1
32.193860 9.970594 -14.199941 36.571788 0.300336 1.969556 0.087474 -0.004352 11112.300000 0 0 1
31.561870 11.211194 -13.504241 36.113806 0.341312 1.954045 0.109848 -0.018711 846816.000000 0 0 1
30.146340 11.381794 -13.727841 35.025714 0.361006 1.973531 0.100570 -0.019842 930681.000000 0 0 1
29.553240 12.237594 -12.791141 34.449470 0.392591 1.951207 0.137781 -0.020867 238265.000000 0 0 1
28.006140 12.124794 -12.847841 33.112256 0.408571 1.969266 0.127887 -0.010925 -479186.000000 0 0 1
27.520440 10.915294 -12.353141 32.079874 0.377593 1.966085 0.131573 -0.015557 -304868.000000 0 0 1
26.155040 10.725094 -12.606241 30.952077 0.389147 1.990273 0.135374 0.001596 -309723.000000 0 0 1
25.744640 10.314794 -14.071941 31.099855 0.381073 2.040336 0.111309 -0.017994 -642725.000000 0 0 1
26.200340 9.068194 -14.515841 31.295360 0.333205 2.053114 0.118601 -0.016755 -150477.000000 0 0 1
27.518040 9.014894 -14.990241 32.607026 0.316581 2.048481 0.116698 -0.014872 397859.000000 0 0 1
28.548040 8.179794 -14.088941 32.869406 0.279051 2.013776 0.112809 -0.013674 336015.000000 0 0 1
28.418840 6.749294 -14.063841 32.418745 0.233174 2.019523 0.119090 -0.028002 195139.000000 0 0 1
27.371340 6.405894 -13.189341 31.051319 0.229899 2.009492 0.134372 -0.025671 -191435.000000 0 0 1
27.178340 4.842794 -13.090041 30.552643 0.176335 2.013564 0.152781 -0.034541 -342653.000000 0 0 1
26.281140 4.373394 -12.131941 29.274714 0.164897 1.998099 0.182834 -0.034312 256440.000000 0 0 1
26.032840 3.000394 -12.175241 28.895460 0.114748 2.005735 0.191716 -0.038753 -297715.000000 0 0 1
25.241640 2.422794 -10.998341 27.640076 0.095691 1.980037 0.217654 -0.028167 -385037.000000 0 0 1
25.926840 2.503894 -9.760841 27.816264 0.096277 1.929333 0.229153 -0.026378 322870.000000 0 0 1
25.484640 1.515794 -8.848041 27.019480 0.059409 1.904420 0.256762 -0.018686 -386910.000000 0 0 1
26.537640 1.171694 -7.774241 27.677753 0.044123 1.855512 0.293782 -0.009099 -245641.000000 0 0 1
26.233440 -0.003406 -6.976641 27.145292 -0.000130 1.830724 0.247453 -0.011387 523177.000000 0 0 1
26.739340 -1.148506 -7.674941 27.842702 -0.042926 1.850066 0.202020 -0.012660 -193830.000000 0 0 1
26.797840 -2.447406 -6.939241 27.789694 -0.091076 1.823173 0.179029 -0.019002 -509418.000000 0 0 1
27.989040 -2.612706 -6.207941 28.788038 -0.093078 1.788147 0.176379 -0.025088 338699.000000 0 0 1
28.107140 -3.878706 -5.636541 28.927950 -0.137131 1.766898 0.185351 -0.031463 -757022.000000 0 0 1
29.516640 -4.065206 -5.089341 30.226798 -0.136865 1.739974 0.134198 -0.021900 -1044880.000000 0 0 1
30.425640 -4.333006 -6.093841 31.330965 -0.141462 1.766543 0.124329 -0.017757 564835.000000 0 0 1
31.646070 -4.922306 -5.570741 32.507476 -0.154306 1.743014 0.191710 -0.023479 1177870.000000 0 0 1
32.744440 -5.239606 -6.621041 33.815529 -0.158670 1.767868 0.208563 -0.037427 154657.000000 0 0 1
32.309790 -6.284906 -7.472841 33.753013 -0.192121 1.794044 0.187376 -0.030444 344112.000000 0 0 1
33.059500 -6.341406 -8.703841 34.769251 -0.189516 1.823819 0.192719 -0.031673 -665331.000000 0 0 1
32.386610 -7.115706 -9.845441 34.589861 -0.216275 1.859421 0.169046 -0.028623 697825.000000 0 0 1
31.129930 -6.508306 -10.193241 33.396598 -0.206100 1.880964 0.127726 -0.033342 886338.000000 0 0 1
30.031840 -7.041206 -9.452441 32.262031 -0.230298 1.868149 0.122117 -0.028058 196603.000000 0 0 1
28.811740 -6.019606 -9.455541 30.915357 -0.205966 1.881630 0.114473 -0.027285 389680.000000 0 0 1
28.079040 -6.116806 -10.663241 30.652121 -0.214491 1.926105 0.098999 -0.026862 -571347.000000 0 0 1
26.922340 -5.371306 -10.531741 29.403756 -0.196925 1.937111 0.137209 -0.017478 -66147.800000 0 0 1
25.603240 -6.212606 -10.585241 28.393128 -0.238048 1.952832 0.175084 -0.007673 -341131.000000 0 0 1
25.513540 -7.072806 -9.489241 28.124918 -0.270427 1.914946 0.157187 -0.014822 1607080.000000 0 0 1
24.219840 -7.602906 -9.070141 26.956860 -0.304171 1.913961 0.144505 -0.006259 1162520.000000 0 0 1
23.340340 -6.591406 -8.253841 25.619211 -0.275237 1.898821 0.176878 -0.008430 -209257.000000 0 0 1
23.019640 -5.453006 -8.983941 25.305144 -0.232598 1.933736 0.192256 -0.007287 323135.000000 0 0 1
22.971740 -4.247806 -8.262441 24.779278 -0.182849 1.910748 0.233037 -0.019024 -173238.000000 0 1 0
22.903640 -3.045206 -9.185641 24.864151 -0.132182 1.949195 0.256042 -0.023680 156432.000000 0 1 0
24.127340 -2.827306 -9.879641 26.224597 -0.116651 1.957062 0.213202 -0.027114 797447.000000 0 0 1
24.048840 -1.835706 -10.892141 26.464226 -0.076185 1.994983 0.235294 -0.033197 -374963.000000 0 0 1
25.327740 -1.767806 -11.748941 27.976010 -0.069684 2.004203 0.170780 -0.032322 -177412.000000 0 0 1
26.360740 -1.080306 -11.080341 28.615199 -0.040959 1.968409 0.172374 -0.039178 503226.000000 0 0 1
27.564440 -1.185406 -11.841441 30.023712 -0.042978 1.976214 0.137445 -0.031626 698858.000000 0 0 1
28.802640 -0.389106 -11.308341 30.945469 -0.013509 1.944889 0.104349 -0.014537 1361150.000000 0 0 1
29.982740 -0.623506 -12.131541 32.350081 -0.020793 1.955202 0.092502 -0.021266 819089.000000 0 0 1
31.067440 0.231494 -11.951441 33.287781 0.007451 1.938029 0.111378 -0.019798 -320919.000000 0 0 1
31.098890 1.561594 -12.725341 33.637982 0.050172 1.958758 0.112055 -0.020808 -328388.000000 0 0 1
31.236090 1.256494 -14.103941 34.295674 0.040204 1.994616 0.098428 -0.023486 307929.000000 0 0 1
31.528150 2.332594 -14.921641 34.958841 0.073850 2.011786 0.099266 -0.020707 -287390.000000 0 0 1
31.527930 2.125694 -16.401541 35.602521 0.067321 2.049563 0.095851 -0.023613 -436405.000000 0 0 1
30.362040 1.597494 -16.962341 34.815607 0.052566 2.079683 0.090752 -0.020329 -472140.000000 0 0 1
30.436340 1.724694 -18.353041 35.583416 0.056605 2.112709 0.068025 -0.015869 285529.000000 0 0 1
29.334240 0.946394 -19.140641 35.039370 0.032251 2.148690 0.049703 -0.014186 189310.000000 0 0 1
29.404640 -0.462906 -19.017341 35.021513 -0.015741 2.144824 0.063413 -0.012209 -9370.470000 0 0 1
28.676440 -1.051206 -20.058841 35.011432 -0.036641 2.180864 0.038154 -0.013137 -326601.000000 0 0 1
28.590240 -2.572906 -20.084941 35.034647 -0.089751 2.181309 0.055606 -0.023594 -468118.000000 0 0 1
27.371140 -3.165406 -19.717741 33.881978 -0.115136 2.191925 0.056091 -0.010736 -232012.000000 0 0 1
27.347540 -4.545406 -19.565641 33.931740 -0.164703 2.185379 0.057657 -0.012431 -339880.000000 0 0 1
28.109340 -5.136506 -18.379141 33.975160 -0.180739 2.142372 0.045309 -0.011810 -1263290.000000 0 0 1
29.458940 -5.194106 -18.601041 35.225085 -0.174523 2.127114 0.053998 -0.014190 -1469480.000000 0 0 1
30.166940 -5.389606 -17.436941 35.258177 -0.176794 2.088114 0.072117 -0.023864 918770.000000 0 0 1
31.732880 -5.150206 -17.499041 36.602141 -0.160896 2.069273 0.107070 -0.027324 943882.000000 0 0 1
32.382960 -6.094506 -18.262941 37.674051 -0.186025 2.076887 0.084458 -0.021846 407524.000000 0 0 1
33.719810 -5.668506 -18.544641 38.898088 -0.166549 2.067749 0.118861 -0.024466 838889.000000 0 0 1
34.636600 -6.732706 -19.275141 40.206398 -0.191987 2.070773 0.101068 -0.012676 130085.000000 0 0 1
35.051540 -7.736906 -18.382041 40.328273 -0.217246 2.044079 0.127028 -0.018431 72147.500000 0 0 1
35.516030 -8.846406 -19.077541 41.274688 -0.244115 2.051281 0.103480 -0.011989 -550279.000000 0 0 1
36.347870 -9.818506 -18.267541 41.848223 -0.263829 2.022522 0.122337 -0.016050 -597020.000000 0 0 1
35.696040 -10.362106 -17.102641 40.915533 -0.282522 2.002038 0.125146 -0.017737 494934.000000 0 0 1
36.579960 -10.991306 -16.207141 41.491851 -0.291891 1.972091 0.135004 -0.018518 -68987.300000 0 0 1
37.805720 -10.353006 -15.501141 42.151424 -0.267295 1.947383 0.154362 -0.020850 -231484.000000 0 0 1
-37.434548 -10.938106 -14.235641 41.516757 0.284279 1.920787 0.156203 -0.027527 433240.000000 0 0 1
-36.892178 -12.280106 -14.202541 41.395000 0.321329 1.921009 0.136731 -0.021973 -496093.000000 0 0 1
-35.446036 -12.328606 -14.710641 40.309044 0.334726 1.944372 0.138238 -0.033906 -595884.000000 0 0 1
-35.282009 -12.085906 -16.114941 40.627339 0.330024 1.978664 0.146718 -0.017777 68310.400000 0 0 1
-33.907028 -12.209106 -16.445041 39.612981 0.345623 1.998896 0.164884 -0.034247 153413.000000 0 0 1
-33.516138 -11.638206 -17.838041 39.711146 0.334216 2.036660 0.188915 -0.037123 -41045.000000 0 0 1
-33.733928 -10.254606 -17.980341 39.578120 0.295109 2.042383 0.186352 -0.037067 -183177.000000 0 0 1
-34.977095 -9.968206 -18.559441 40.831546 0.277632 2.042648 0.168230 -0.030183 -320259.000000 0 0 1
-35.289914 -8.448306 -18.357041 40.666115 0.234975 2.039140 0.182438 -0.030376 -447075.000000 0 0 1
-36.516988 -8.112406 -18.929641 41.924133 0.218604 2.039266 0.182050 -0.027299 -345554.000000 0 0 1
-36.847118 -6.769706 -18.672641 41.859367 0.181698 2.033177 0.171055 -0.035159 -129788.000000 0 0 1
25.837892 27.074594 -26.945391 46.115988 0.808767 2.194809 0.056537 0.006774 -63295.500000 0 0 1
26.386192 26.311094 -25.911171 45.386050 0.783973 2.178405 0.075180 -0.012758 -110776.000000 0 0 1
27.363192 25.422494 -26.398151 45.737401 0.748649 2.186052 0.071658 -0.018664 -315305.000000 0 0 1
27.882592 24.427194 -25.347141 44.906617 0.719438 2.170552 0.095432 -0.036418 -564413.000000 0 0 1
28.759192 25.036194 -24.436641 45.288536 0.716302 2.140731 0.090980 -0.033418 51457.700000 0 0 1
28.893492 24.218294 -23.299441 44.319562 0.697599 2.124351 0.112449 -0.034640 147692.000000 0 0 1
29.634392 24.929194 -22.162341 44.618732 0.699378 2.090594 0.093015 -0.026987 596505.000000 0 0 1
28.773092 25.908294 -21.561441 44.317335 0.733055 2.078903 0.096433 -0.022146 710176.000000 0 0 1
29.459592 26.442694 -20.447241 44.555283 0.731483 2.047574 0.068880 -0.015078 473277.000000 0 0 1
28.602292 27.562594 -19.770041 44.369383 0.766889 2.032617 0.075961 -0.006345 668888.000000 0 0 1
27.515992 27.042194 -18.989941 43.000324 0.776714 2.028203 0.098416 -0.011877 258809.000000 0 0 1
26.708192 28.104794 -18.593741 42.999234 0.810872 2.017972 0.096986 -0.008828 -94601.800000 0 0 1
25.648092 27.790694 -17.519341 41.678226 0.825471 2.004625 0.103182 -0.008219 -129042.000000 0 0 1
24.598092 26.942294 -17.898141 40.636151 0.830850 2.026895 0.115740 -0.013160 -26079.500000 0 0 1
23.561492 27.066594 -16.931741 39.679065 0.854520 2.011656 0.105252 -0.009108 446858.000000 0 0 1
22.352492 26.143994 -17.282141 38.494346 0.863420 2.036389 0.108693 -0.010995 96639.000000 0 0 1
21.642592 26.383494 -18.469841 38.802391 0.883795 2.066894 0.097357 -0.012213 -130943.000000 0 0 1
20.837692 25.227694 -18.692541 37.683644 0.880411 2.089827 0.093884 -0.006998 320120.000000 0 0 1
19.953192 25.316194 -19.963941 37.915676 0.903317 2.125316 0.071518 -0.006125 636315.000000 0 0 1
18.898592 26.266594 -19.901241 37.988815 0.947108 2.122186 0.058492 -0.009296 101394.000000 0 0 1
18.101492 26.377894 -21.079041 38.311659 0.969367 2.153399 0.059023 -0.002284 418185.000000 0 0 1
17.067492 27.523394 -20.954441 38.573632 1.015722 2.145079 0.060324 -0.006360 152197.000000 0 0 1
16.204992 27.342394 -19.853741 37.475049 1.035785 2.129144 0.064688 -0.002668 436238.000000 0 0 1
15.207292 28.362094 -19.661741 37.712785 1.078623 2.119234 0.067934 -0.011598 696067.000000 0 0 1
14.496192 28.283294 -18.274341 36.661094 1.097171 2.092626 0.067754 -0.005903 131596.000000 0 0 1
13.737992 27.091894 -18.064541 35.341629 1.101494 2.107308 0.067486 -0.005696 -119269.000000 0 0 1
13.243892 27.091894 -16.745841 34.493399 1.116108 2.077708 0.075887 -0.005308 -107916.000000 0 0 1
12.375292 25.852694 -16.506141 33.075101 1.124346 2.093299 0.086780 -0.008210 428925.000000 0 0 1
13.137592 24.643394 -16.485541 32.429404 1.081014 2.104066 0.074319 -0.010152 672085.000000 0 0 1
12.169192 23.584094 -16.322241 31.156287 1.094438 2.122199 0.105277 -0.010329 963540.000000 0 0 1
12.819792 22.190894 -16.530841 30.496746 1.046931 2.143674 0.103959 -0.018594 223242.000000 0 0 1
13.185092 21.986194 -17.888541 31.260826 1.030598 2.180025 0.091192 -0.013010 -357586.000000 0 0 1
14.245392 21.090594 -18.048541 31.200868 0.976746 2.187639 0.093065 -0.018710 -450508.000000 0 0 1
13.770692 19.571294 -18.108141 30.009536 0.957647 2.218570 0.095576 -0.019378 55312.100000 0 0 1
13.440492 19.108394 -16.816541 28.784954 0.957804 2.194706 0.113301 -0.033879 -254592.000000 0 0 1
13.179292 17.730694 -16.852041 27.786013 0.931595 2.222439 0.091695 -0.034052 -496663.000000 0 0 1
14.322892 16.704294 -16.878841 27.732182 0.862000 2.225138 0.122363 -0.035140 -432025.000000 0 0 1
14.787692 16.474594 -15.577541 27.069316 0.839306 2.183973 0.123097 -0.036859 5782.120000 0 0 1
15.798892 15.492394 -15.583641 27.064166 0.775603 2.184383 0.130030 -0.034397 -799170.000000 0 0 1
16.180992 14.850294 -14.214741 26.161318 0.742542 2.145218 0.181954 -0.042305 -785259.000000 0 0 1
16.907992 15.737594 -13.303741 26.655985 0.749562 2.093345 0.158649 -0.040769 1128540.000000 0 0 1
18.256392 16.054894 -13.618541 27.866110 0.721323 2.081411 0.121371 -0.026844 218830.000000 0 0 1
19.230092 14.959894 -14.194541 28.197160 0.661145 2.098329 0.110522 -0.025103 -1181650.000000 0 0 1
19.764592 14.042194 -13.283541 27.645519 0.617720 2.072016 0.135836 -0.035504 -9655.770000 0 0 1
20.992192 14.377694 -12.707441 28.440627 0.600524 2.033988 0.129934 -0.020340 -798404.000000 0 0 1
21.726292 13.143694 -12.184241 28.164590 0.544064 2.018180 0.144530 -0.041475 -331112.000000 0 0 1
21.172292 12.575394 -10.979941 26.962299 0.535963 1.990219 0.236277 -0.051350 379503.000000 0 0 1
21.706592 11.316994 -10.545941 26.654593 0.480591 1.977574 0.240544 -0.032014 -160929.000000 0 0 1
21.502192 10.078394 -11.515141 26.391603 0.438308 2.022299 0.180905 -0.018144 -217600.000000 0 0 1
22.464592 9.995194 -12.563841 27.611807 0.418631 2.043188 0.158465 -0.003655 446527.000000 0 0 1
22.194092 8.913894 -13.451841 27.440613 0.381914 2.083134 0.137650 -0.010272 -49215.900000 0 0 1
22.405092 7.428394 -12.884141 26.891825 0.320144 2.070437 0.156138 0.009852 -713935.000000 0 0 1
21.436392 7.055094 -11.976041 25.548362 0.317952 2.058682 0.154808 -0.011903 -379726.000000 0 0 1
21.752392 6.020694 -11.090941 25.148047 0.270023 2.027538 0.164783 -0.002786 -742188.000000 0 0 1
21.902892 4.615994 -11.696541 25.255754 0.207709 2.052313 0.179116 -0.011806 527053.000000 0 0 1
20.790892 3.885594 -12.287941 24.461245 0.184758 2.097103 0.134774 -0.024190 980190.000000 0 1 0
20.448492 4.285094 -13.624041 24.942280 0.206566 2.148645 0.108027 -0.030298 -263283.000000 0 1 0
19.608292 3.170194 -14.281141 24.463978 0.160289 2.194151 0.110854 -0.033542 -384794.000000 0 1 0
20.265192 1.924094 -14.450841 24.964113 0.094662 2.188132 0.143583 -0.064247 169436.000000 0 1 0
20.076392 0.937794 -13.405041 24.158561 0.046677 2.159012 0.178578 -0.074742 -699057.000000 0 1 0
21.127592 -0.216706 -13.432141 25.036863 -0.010257 2.137074 0.209551 -0.075679 233582.000000 0 0 1
22.460992 0.168494 -13.081141 25.993091 0.007501 2.098157 0.250798 -0.056839 1070880.000000 0 0 1
23.250192 0.899294 -14.020941 27.165547 0.038660 2.113122 0.169406 -0.046425 -330688.000000 0 0 1
23.880692 -0.038906 -15.095941 28.252016 -0.001629 2.134513 0.134331 -0.031053 -859072.000000 0 0 1
22.906292 -0.615406 -15.946141 27.916954 -0.026860 2.178762 0.153320 -0.038434 -207530.000000 0 0 1
23.447992 -1.613906 -16.777241 28.877133 -0.068721 2.190737 0.096498 -0.022825 97942.100000 0 0 1
22.466492 -2.324006 -17.770741 28.739233 -0.103077 2.237431 0.114390 -0.032261 661625.000000 0 0 1
21.531892 -3.284906 -17.254541 27.787266 -0.151393 2.240752 0.141415 -0.026654 533076.000000 0 0 1
20.707692 -3.864206 -18.221741 27.852692 -0.184485 2.283945 0.128368 -0.012099 -144168.000000 0 0 1
19.758392 -4.928306 -17.626041 26.932500 -0.244441 2.284255 0.123654 -0.015146 -331613.000000 0 0 1
20.484692 -5.957006 -17.030141 27.297147 -0.282998 2.244494 0.127974 -0.015212 423095.000000 0 0 1
19.629192 -6.950506 -16.459741 26.543131 -0.340314 2.239683 0.129565 -0.004893 166917.000000 0 0 1
20.491692 -8.081606 -15.879441 27.154713 -0.375656 2.195401 0.157587 -0.006866 61232.600000 0 0 1
21.005992 -8.905506 -16.926841 28.409113 -0.400982 2.209088 0.134879 -0.008796 353088.000000 0 0 1
21.626992 -10.025706 -16.317441 28.887721 -0.434084 2.171057 0.123168 -0.010215 -408078.000000 0 0 1
22.222192 -11.038806 -17.272441 30.232735 -0.461042 2.178905 0.100255 -0.011737 -891896.000000 0 0 1
23.375892 -10.635506 -17.924741 31.318408 -0.426986 2.180152 0.087833 -0.008186 -119470.000000 0 0 1
23.924292 -11.565806 -18.878941 32.596841 -0.450307 2.188500 0.081775 -0.014167 -87167.400000 0 0 1
23.178392 -11.620706 -20.257941 32.903842 -0.464735 2.234034 0.094567 -0.018827 -149236.000000 0 0 1
21.839392 -12.021206 -20.207841 32.090891 -0.503179 2.251972 0.091987 -0.024301 -205234.000000 0 0 1
21.670892 -13.448406 -20.221841 32.548580 -0.555411 2.241174 0.084859 -0.014315 34537.500000 0 0 1
20.167992 -13.843506 -20.143041 31.688052 -0.601547 2.259668 0.086588 -0.024020 501967.000000 0 0 1
19.413092 -13.291606 -21.224141 31.685945 -0.600365 2.304774 0.085767 -0.014980 257293.000000 0 0 1
18.015392 -13.500206 -21.017741 30.798626 -0.643098 2.321871 0.091704 -0.015971 327793.000000 0 0 1
17.265392 -12.847106 -22.185341 30.908433 -0.639712 2.371400 0.082635 -0.019951 -723792.000000 0 0 1
17.498692 -13.544306 -23.413841 32.215841 -0.658696 2.384419 0.076315 -0.011943 257035.000000 0 0 1
16.904692 -12.891906 -24.478141 32.421432 -0.651531 2.426449 0.095739 -0.021506 -406133.000000 0 0 1
17.040992 -13.673506 -25.772611 33.787389 -0.676196 2.438410 0.092554 -0.030101 -156893.000000 0 0 1
16.042392 -14.690306 -25.884671 33.810940 -0.741432 2.442725 0.096610 -0.026769 484446.000000 0 0 1
16.060692 -15.481406 -27.073561 35.079873 -0.767035 2.452415 0.085637 -0.028472 -553098.000000 0 0 1
17.060792 -16.641106 -27.163551 36.136623 -0.772946 2.421418 0.077418 -0.028620 332525.000000 0 0 1
18.426592 -16.191106 -27.127151 36.572852 -0.720911 2.406441 0.082837 -0.023288 754755.000000 0 0 1
19.243992 -17.367806 -27.260591 37.617971 -0.734198 2.381351 0.101302 -0.022092 486563.000000 0 0 1
20.742892 -17.120606 -26.934221 38.063565 -0.690021 2.356909 0.076127 -0.011860 225706.000000 0 0 1
20.962892 -16.658306 -25.631741 37.066537 -0.671474 2.334368 0.086146 -0.016184 524229.000000 0 0 1
22.382492 -16.535106 -25.505361 37.747968 -0.636263 2.312676 0.074138 -0.009005 401671.000000 0 0 1
22.812392 -15.795406 -24.181941 36.805792 -0.605610 2.287648 0.091437 -0.008881 -97457.600000 0 0 1
22.502892 -14.443606 -23.967741 35.908920 -0.570628 2.301588 0.086663 -0.009070 -448822.000000 0 0 1
21.172192 -14.052706 -24.123841 35.038550 -0.585970 2.330207 0.115281 -0.015831 -535067.000000 0 0 1
21.019292 -12.578306 -23.629341 34.034838 -0.539255 2.338200 0.118575 -0.006311 -349556.000000 0 0 1
21.772292 -11.704606 -24.399341 34.732670 -0.493267 2.349686 0.130015 -0.025856 247407.000000 0 0 1
21.558092 -10.458206 -23.719441 33.715535 -0.451671 2.351130 0.125317 -0.030474 -77264.300000 0 0 1
22.329692 -9.318606 -24.394641 34.359134 -0.395347 2.360280 0.148243 -0.039352 -304811.000000 0 0 1
22.038992 -8.099906 -23.816941 33.445064 -0.352202 2.363311 0.140591 -0.036617 108041.000000 0 0 1
21.846992 -7.073406 -24.774441 33.780128 -0.313119 2.394111 0.114903 -0.032450 -276393.000000 0 0 1
21.175692 -5.855406 -24.062141 32.583467 -0.269775 2.401605 0.122353 -0.036533 551970.000000 0 0 1
19.790592 -6.154106 -23.819841 31.574125 -0.301482 2.425551 0.131276 -0.039613 642672.000000 0 0 1
19.097692 -5.303506 -22.910641 30.294331 -0.270878 2.428387 0.132830 -0.031762 271387.000000 0 0 1
19.575392 -5.426006 -21.418841 29.519557 -0.270397 2.382675 0.122536 -0.028288 -617284.000000 0 0 1
19.176492 -6.541306 -20.625341 28.912475 -0.328734 2.365094 0.122886 -0.034587 -143611.000000 0 0 1
19.649392 -7.757606 -21.000141 29.787329 -0.376017 2.353223 0.106014 -0.030170 -371857.000000 0 0 1
19.078792 -8.845606 -20.083041 29.078748 -0.434135 2.333174 0.103559 -0.031931 -302251.000000 0 0 1
17.732092 -9.178006 -20.246541 28.435634 -0.477623 2.363157 0.115088 -0.031928 -429969.000000 0 0 1
17.482792 -10.305106 -19.437341 28.100773 -0.532621 2.334638 0.121411 -0.021874 -733068.000000 0 0 1
16.015892 -10.499306 -19.138941 27.074772 -0.580271 2.355891 0.136452 -0.027729 -854806.000000 0 0 1
15.436992 -9.544006 -18.232541 25.725752 -0.553735 2.358489 0.147114 -0.018946 231593.000000 0 0 1
14.030892 -9.641706 -18.169441 24.898936 -0.602068 2.388720 0.114566 -0.028986 -180233.000000 0 1 0
13.375792 -8.399506 -17.549641 23.610451 -0.560727 2.408786 0.133954 -0.015041 -992317.000000 0 1 0
12.137392 -8.191506 -18.126941 23.302426 -0.593680 2.462112 0.127842 -0.023773 -676835.000000 0 1 0
11.589792 -6.980506 -17.520641 22.136477 -0.542107 2.484028 0.127475 -0.025107 511557.000000 0 1 0
10.076192 -6.768006 -17.816741 21.558567 -0.591467 2.543541 0.110328 -0.023587 387346.000000 0 1 0
9.852092 -6.241506 -19.099541 22.378842 -0.564703 2.593393 0.103626 -0.036019 490816.000000 0 1 0
8.435992 -6.068406 -19.177041 21.811704 -0.623593 2.644995 0.100992 -0.041499 601921.000000 0 1 0
7.918192 -5.747906 -20.581241 22.788674 -0.627905 2.697811 0.107629 -0.049808 -120774.000000 0 1 0
8.019292 -6.838506 -21.515541 23.958145 -0.706092 2.686106 0.111793 -0.044105 224018.000000 0 1 0
7.296792 -6.578206 -22.711641 24.745396 -0.733654 2.733332 0.121077 -0.046490 -48299.400000 0 1 0
7.199192 -7.773106 -23.689441 25.950706 -0.823711 2.721039 0.101406 -0.048195 61667.400000 0 0 1
6.191492 -8.736906 -23.406741 25.739923 -0.954282 2.712529 0.099920 -0.038615 327412.000000 0 0 1
5.837092 -9.546706 -24.530141 26.961808 -1.022019 2.713624 0.075139 -0.026207 303726.000000 0 0 1
5.087592 -10.888306 -24.215341 27.033711 -1.133688 2.680903 0.085711 -0.034907 353176.000000 0 0 1
5.933192 -11.863506 -23.664241 27.128248 -1.107052 2.630703 0.073564 -0.031864 262253.000000 0 0 1
5.212992 -13.078306 -23.704841 27.570580 -1.191499 2.605650 0.086694 -0.034559 -509683.000000 0 0 1
5.900892 -14.235706 -22.962341 27.654023 -1.177841 2.550520 0.090224 -0.031378 55628.100000 0 0 1
7.041092 -14.933906 -23.530441 28.745090 -1.130221 2.529748 0.079297 -0.027301 1172410.000000 0 0 1
8.216792 -14.179306 -23.824541 28.916728 -1.045593 2.539058 0.090759 -0.027910 139095.000000 0 0 1
8.933192 -13.700106 -22.552841 27.859029 -0.992979 2.514155 0.092886 -0.020060 -969454.000000 0 0 1
9.521492 -14.617406 -21.622641 27.782476 -0.993451 2.462724 0.082482 -0.009941 907538.000000 0 0 1
8.545792 -15.249206 -20.766141 27.144087 -1.059997 2.441890 0.086506 -0.011177 287009.000000 0 0 1
9.100192 -15.531906 -19.360141 26.436124 -1.040807 2.392543 0.081907 -0.009168 595476.000000 0 0 1
10.215192 -16.438406 -19.329641 27.353361 -1.014774 2.355569 0.077496 -0.012913 414870.000000 0 0 1
10.726292 -16.642006 -18.038141 26.784030 -0.998275 2.309684 0.069053 -0.005419 -84583.700000 0 0 1
9.936392 -17.654306 -17.129841 26.529943 -1.058155 2.272709 0.049880 -0.004434 -478193.000000 0 0 1
9.881692 -19.043706 -17.465341 27.664937 -1.092147 2.254046 0.040314 -0.003827 537447.000000 0 0 1
8.871592 -19.314306 -18.435441 28.135619 -1.140213 2.285290 0.065774 0.002466 1410970.000000 0 0 1
7.329492 -19.267006 -18.090841 27.426584 -1.207285 2.291096 0.068206 -0.005240 686531.000000 0 0 1
6.781192 -17.968906 -17.972141 26.303308 -1.209937 2.323022 0.082403 -0.009096 241095.000000 0 0 1
5.361392 -18.072106 -17.887641 25.986790 -1.282400 2.329989 0.077722 -0.005990 448937.000000 0 0 1
4.818992 -16.612906 -17.681941 24.735852 -1.288470 2.367178 0.057970 0.005153 -26702.000000 0 1 0
5.100992 -16.071506 -16.391141 23.515589 -1.263460 2.342048 0.032276 0.005867 217168.000000 0 1 0
4.741892 -14.682006 -16.295741 22.440990 -1.258399 2.383516 0.019609 0.013894 -88386.700000 0 1 0
11.182492 29.727994 -17.976541 36.495996 1.211009 2.085828 0.097100 -0.026978 143617.000000 0 0 1
10.149692 29.567394 -18.989841 36.576783 1.240127 2.116685 0.122478 -0.035000 573630.000000 0 0 1
9.197292 28.773894 -18.292641 35.314980 1.261420 2.115290 0.119951 -0.027520 -401006.000000 0 0 1
8.040292 28.164694 -19.038541 34.933684 1.292719 2.147175 0.131806 -0.033240 -224225.000000 0 0 1
7.108492 29.043394 -19.626841 35.766776 1.330761 2.151659 0.148423 -0.046547 779986.000000 0 0 1
6.084892 28.348694 -20.397641 35.450502 1.359360 2.183870 0.138146 -0.053308 1179510.000000 0 0 1
5.093192 29.240194 -21.207141 36.478382 1.398342 2.191198 0.123200 -0.053186 -4740.560000 0 0 1
3.944692 29.649494 -20.534741 36.281244 1.438529 2.172427 0.118600 -0.044225 -530842.000000 0 0 1
3.136692 30.494494 -21.348841 37.356740 1.468296 2.179111 0.120163 -0.056192 -410808.000000 0 0 1
1.677192 30.329894 -20.871641 36.855676 1.515554 2.172815 0.118919 -0.045084 -30198.000000 0 0 1
1.001592 29.081294 -21.065741 35.923394 1.536369 2.197413 0.123821 -0.057196 254985.000000 0 0 1
0.393192 28.863894 -22.317941 36.487936 1.557175 2.228944 0.154934 -0.074472 -248173.000000 0 0 1
-0.293908 27.487894 -22.407141 35.464780 -1.560104 2.254687 0.157054 -0.067530 702615.000000 0 0 1
-1.592608 27.358794 -21.828741 35.036180 -1.512650 2.243412 0.155124 -0.062995 476502.000000 0 0 1
-2.174808 26.076894 -21.914941 34.132079 -1.487589 2.267982 0.159063 -0.075140 -27710.100000 0 0 1
-3.248208 25.805794 -20.855941 33.338568 -1.445584 2.246671 0.121379 -0.069184 -422398.000000 0 0 1
-4.454608 26.477994 -21.089641 34.142358 -1.404119 2.236608 0.110957 -0.062709 -533936.000000 0 0 1
-5.394108 26.149894 -20.102841 33.422112 -1.367373 2.216153 0.089072 -0.055939 487991.000000 0 0 1
-6.849408 26.635094 -20.402541 34.243339 -1.319093 2.209071 0.077928 -0.060179 1403150.000000 0 0 1
-7.902108 26.140494 -19.519841 33.567736 -1.277236 2.191375 0.081587 -0.047720 571044.000000 0 0 1
-8.331608 27.079294 -18.542841 33.860608 -1.272314 2.150317 0.084946 -0.060401 236375.000000 0 0 1
-9.554208 26.511494 -17.764441 33.312423 -1.224905 2.133255 0.109341 -0.057054 108039.000000 0 0 1
-9.338208 25.447794 -16.848241 31.916384 -1.219097 2.126907 0.106716 -0.058350 -683653.000000 0 0 1
-10.540308 25.001494 -16.278841 31.641325 -1.171820 2.111198 0.082147 -0.043536 -97953.900000 0 0 1
-10.343808 24.192294 -14.957841 30.265466 -1.166754 2.087735 0.077218 -0.028501 99299.000000 0 0 1
-9.621208 22.975694 -15.010341 29.081962 -1.174226 2.113134 0.075642 -0.025333 -197050.000000 0 0 1
-9.928808 22.193094 -13.884241 27.997978 -1.150121 2.089669 0.086015 -0.023256 -246972.000000 0 0 1
-9.464608 20.732494 -13.840141 26.663920 -1.142541 2.116546 0.092594 -0.015114 -307012.000000 0 0 1
-10.311308 19.755794 -14.433141 26.550518 -1.089752 2.145529 0.090422 -0.014864 -283739.000000 0 0 1
-10.484408 19.938894 -15.870141 27.556191 -1.086701 2.184524 0.099814 -0.009030 113806.000000 0 0 1
-9.220008 19.836694 -16.762841 27.558952 -1.135707 2.224655 0.109334 -0.011629 139939.000000 0 0 1
-8.541108 18.599994 -16.796741 26.477175 -1.140318 2.258010 0.109581 -0.012880 -174431.000000 0 0 1
-7.941708 18.485394 -18.077641 27.047765 -1.165018 2.302798 0.109187 -0.018528 36690.100000 0 0 1
-7.213908 17.190994 -18.444741 26.225545 -1.173480 2.350842 0.093898 -0.018590 204200.000000 0 0 1
-8.068808 16.181194 -19.004841 26.232054 -1.108227 2.381089 0.110117 -0.027616 77423.600000 0 0 1
-7.471008 15.415494 -20.053241 26.373962 -1.119510 2.434636 0.096970 -0.027470 834718.000000 0 0 1
-6.215208 14.551994 -19.589241 25.181892 -1.167145 2.462129 0.076807 -0.023442 426473.000000 0 0 1
-6.456908 13.463094 -18.660541 23.899003 -1.123601 2.466755 0.064447 -0.018264 333892.000000 0 1 0
-5.310008 12.768194 -18.148841 22.816735 -1.176678 2.490493 0.059991 -0.010196 704157.000000 0 1 0
-4.473908 13.454394 -17.009441 22.144021 -1.249774 2.446709 0.047090 -0.000038 23258.100000 0 1 0
-3.771508 14.550694 -17.517541 23.082704 -1.317180 2.432424 0.051974 -0.008309 -465384.000000 0 1 0
-3.063808 15.095394 -16.413841 22.509376 -1.370553 2.387949 0.039544 -0.001456 117970.000000 0 1 0
-2.408908 16.484394 -16.574141 23.499792 -1.425691 2.353627 0.071748 -0.006882 434736.000000 0 1 0
-3.325008 17.570894 -16.629941 24.420215 -1.383774 2.319911 0.070136 -0.015002 205872.000000 0 1 0
-2.578508 18.800594 -16.757141 25.316256 -1.434496 2.294163 0.085652 -0.019647 392848.000000 0 0 1
-3.349908 19.998294 -17.328341 26.672552 -1.404827 2.277946 0.095495 -0.020578 94252.800000 0 0 1
-3.651908 19.971794 -18.707441 27.607559 -1.389941 2.315318 0.094930 -0.024276 -23794.400000 0 0 1
-4.303108 21.185094 -19.125141 28.863402 -1.370403 2.295093 0.117360 -0.029590 254945.000000 0 0 1
-3.333508 22.426994 -19.387841 29.832377 -1.423238 2.278239 0.111395 -0.042247 -108182.000000 0 0 1
-2.465908 22.186794 -20.495541 30.305143 -1.460108 2.313532 0.136367 -0.035867 160242.000000 0 0 1
-1.195008 22.789194 -20.366341 30.586978 -1.518407 2.299429 0.127685 -0.045872 204516.000000 0 0 1
-0.183508 22.254494 -19.356241 29.495088 -1.562551 2.286638 0.139568 -0.040654 -658241.000000 0 0 1
-0.527708 22.464094 -18.014841 28.800147 -1.547309 2.246584 0.133897 -0.031331 -1023720.000000 0 0 1
0.502392 21.954994 -17.268041 27.936703 1.547918 2.237136 0.138081 -0.031129 -440054.000000 0 0 1
0.255492 22.047494 -15.740741 27.091109 1.559209 2.190790 0.139594 -0.033857 -37318.400000 0 0 1
-0.822208 21.291994 -15.245541 26.200220 -1.532200 2.191842 0.119351 -0.019784 -209208.000000 0 0 1
-0.745208 21.180194 -13.809741 25.295551 -1.535627 2.148302 0.136707 -0.024135 243396.000000 0 0 1
-1.705508 20.075494 -13.286541 24.134340 -1.486045 2.153788 0.100125 -0.016648 218749.000000 0 1 0
-1.311208 18.758194 -13.510641 23.154406 -1.501009 2.193831 0.085231 -0.014524 -271566.000000 0 1 0
-2.097708 17.937994 -12.713741 22.086448 -1.454383 2.184177 0.069164 -0.009116 -186539.000000 0 1 0
-1.688508 16.444094 -12.848341 20.936550 -1.468473 2.231509 0.047458 -0.004139 -1401240.000000 0 1 0
-0.586408 16.210294 -12.077741 20.223484 -1.534637 2.210819 0.034426 -0.002172 -851430.000000 0 1 0
-0.147208 14.865694 -11.969441 19.086069 -1.560894 2.248659 0.027116 -0.003261 288919.000000 0 1 0
0.605192 14.180494 -13.156441 19.353155 1.528144 2.318298 0.027485 -0.002174 -151471.000000 0 1 0
-0.174508 13.970194 -14.286041 19.982185 -1.558305 2.367333 0.034412 -0.011565 -346104.000000 0 1 0
0.547692 13.102294 -15.117741 20.012900 1.529019 2.427060 0.030277 -0.012851 -435814.000000 0 1 0
0.045992 12.778094 -16.498141 20.867929 1.567197 2.482581 0.033665 -0.005845 -283631.000000 0 1 0
-0.082008 13.901894 -17.326541 22.214374 -1.564897 2.465414 0.043851 -0.012097 -48936.900000 0 1 0
-0.210208 13.537794 -18.686841 23.076266 -1.555270 2.514584 0.053586 -0.015925 -219055.000000 0 1 0
-0.759508 14.629194 -19.540641 24.421851 -1.518926 2.498307 0.066407 -0.008857 149542.000000 0 1 0
0.130492 15.731294 -19.498041 25.053228 1.562501 2.462694 0.068257 -0.020961 192921.000000 0 0 1
-0.566308 16.875994 -19.898041 26.096971 -1.537252 2.437911 0.110469 -0.032197 510999.000000 0 0 1
0.420292 18.091894 -20.129441 27.068204 1.547570 2.409319 0.130949 -0.036246 271937.000000 0 0 1
1.179292 17.872394 -21.273741 27.809805 1.504908 2.441795 0.147275 -0.048290 -137799.000000 0 0 1
2.052492 18.970994 -21.507941 28.752441 1.463024 2.415898 0.158345 -0.049336 127154.000000 0 0 1
2.641992 18.986694 -22.935841 29.891930 1.432534 2.445404 0.174395 -0.056045 158744.000000 0 0 1
3.694392 18.046494 -23.032741 29.492908 1.368871 2.466996 0.150346 -0.054739 54878.100000 0 0 1
4.264492 18.082894 -24.368241 30.642913 1.339198 2.490187 0.155056 -0.067137 1142300.000000 0 0 1
5.399792 16.996994 -24.665541 30.437550 1.263189 2.515572 0.109379 -0.053872 72001.000000 0 0 1
6.656992 17.323394 -24.124141 30.436650 1.203917 2.485860 0.102569 -0.044106 -181869.000000 0 0 1
7.638992 16.325394 -24.231341 30.199844 1.133140 2.502046 0.099764 -0.036992 212584.000000 0 0 1
8.193092 16.069094 -25.708211 31.404691 1.099287 2.529784 0.085828 -0.038501 -1083140.000000 0 0 1
9.268692 16.921394 -26.068271 32.431419 1.069682 2.504447 0.057242 -0.030991 345635.000000 0 0 1
9.757692 16.861794 -27.415411 33.632386 1.046196 2.523783 0.080034 -0.035311 193009.000000 0 0 1
10.164792 15.469294 -27.964011 33.535175 0.989450 2.556881 0.080035 -0.039755 -1008010.000000 0 0 1
11.247392 14.918894 -27.284971 33.068820 0.924802 2.541169 0.083235 -0.029175 -383810.000000 0 0 1
11.472492 13.530394 -27.476321 32.705318 0.867520 2.568297 0.079382 -0.016342 -430859.000000 0 0 1
10.507192 12.537394 -26.869021 31.456821 0.873270 2.594721 0.076103 -0.018172 404982.000000 0 0 1
9.128692 12.694794 -27.215181 31.387209 0.947373 2.620104 0.079834 -0.023348 247088.000000 0 0 1
8.292392 11.761794 -26.592221 30.236563 0.956704 2.645549 0.110863 -0.027554 254389.000000 0 0 1
6.805192 12.187194 -26.608981 30.047898 1.061535 2.658478 0.100248 -0.038315 -870338.000000 0 0 1
6.413892 13.102494 -25.613561 29.476565 1.115570 2.623866 0.119204 -0.031588 794692.000000 0 0 1
4.982992 13.243894 -25.585611 29.237894 1.210932 2.636406 0.144196 -0.045703 872404.000000 0 0 1
4.280892 13.972494 -26.718551 30.453860 1.273497 2.641098 0.154718 -0.035963 -1026160.000000 0 0 1
4.412892 13.274394 -27.973531 31.276214 1.249853 2.677890 0.158657 -0.050659 -21104.500000 0 0 1
3.699192 13.817294 -29.068951 32.397616 1.309209 2.684311 0.136884 -0.059303 -175117.000000 0 0 1
4.048692 13.168694 -30.439221 33.411863 1.272520 2.716572 0.176384 -0.046343 -246265.000000 0 0 1
5.371892 13.273594 -30.908411 34.064283 1.186240 2.707746 0.156050 -0.047714 104650.000000 0 0 1
5.411992 12.900094 -32.230571 35.135620 1.173567 2.732090 0.155170 -0.052784 670880.000000 0 0 1
6.511092 11.758694 -32.563781 35.228696 1.065097 2.750135 0.157232 -0.043487 1809750.000000 0 0 1
7.895492 12.149094 -32.574721 35.651812 0.994503 2.723070 0.155109 -0.033816 1159460.000000 0 0 1
8.618792 12.416694 -31.379641 34.830155 0.964021 2.692711 0.147515 -0.033250 -335170.000000 0 0 1
8.788392 11.271594 -30.383431 33.577337 0.908560 2.701892 0.154019 -0.035264 -534582.000000 0 0 1
9.787892 10.331094 -30.681861 33.821752 0.812391 2.707290 0.126631 -0.036704 -57038.700000 0 0 1
9.664192 9.208694 -29.896451 32.741326 0.761268 2.721646 0.116133 -0.038011 653028.000000 0 0 1
10.841992 8.205694 -30.194141 33.114473 0.647867 2.718470 0.086883 -0.025613 1206050.000000 0 0 1
12.132692 8.525194 -29.658831 33.159122 0.612511 2.677973 0.079692 -0.022395 327626.000000 0 0 1
12.864592 7.365994 -29.572471 33.080003 0.520013 2.676920 0.052317 -0.012692 287935.000000 0 0 1
14.234292 7.455594 -28.771451 32.954474 0.482488 2.632253 0.054267 0.000394 1350580.000000 0 0 1
14.963792 6.260694 -28.482301 32.777322 0.396258 2.623901 0.050874 0.004154 360209.000000 0 0 1
15.642192 5.713094 -29.622391 33.982402 0.350183 2.629453 0.047353 -0.000507 -779404.000000 0 0 1
16.504892 4.567994 -29.139081 33.798877 0.270007 2.610258 0.061884 -0.010597 -665891.000000 0 0 1
17.434092 4.964594 -28.178921 33.505915 0.277420 2.569950 0.053386 -0.013291 -332518.000000 0 0 1
18.217792 3.883994 -27.766321 33.435639 0.210053 2.550695 0.058159 -0.011532 -283972.000000 0 0 1
18.865792 4.252894 -26.438421 32.756607 0.221723 2.510049 0.078963 -0.013564 320376.000000 0 0 1
19.942292 5.204094 -26.509181 33.578479 0.255265 2.480740 0.113297 -0.022323 831278.000000 0 0 1
20.539892 5.452494 -25.245611 32.999359 0.259474 2.441889 0.127327 -0.030907 284248.000000 0 0 1
21.603492 6.563194 -25.106341 33.765585 0.294942 2.409157 0.126449 -0.024940 174924.000000 0 0 1
21.029092 7.841694 -25.329171 33.842012 0.356926 2.416523 0.124417 -0.009694 430169.000000 0 0 1
21.944392 8.701294 -25.981731 35.104404 0.377499 2.404056 0.133109 -0.024205 -493680.000000 0 0 1
22.059692 8.622694 -27.541061 36.324797 0.372620 2.431327 0.155571 -0.030640 218786.000000 0 0 1
20.974492 8.816394 -28.448161 36.427407 0.397916 2.466990 0.123752 -0.013764 762176.000000 0 0 1
19.865692 7.914594 -28.471321 35.607620 0.379131 2.497400 0.112750 -0.009020 691449.000000 0 0 1
18.544792 8.450494 -29.085621 35.514694 0.427567 2.530418 0.096333 0.005251 139744.000000 0 0 1
18.622292 8.735894 -30.472811 36.765443 0.438631 2.547834 0.066329 0.005080 -165473.000000 0 0 1
17.424892 9.316494 -30.896551 36.674525 0.490994 2.572616 0.050176 0.009834 -393088.000000 0 0 1
16.984292 8.936994 -32.338681 37.604871 0.484381 2.605987 0.028083 0.013513 -427733.000000 0 0 1
16.408792 7.690194 -32.418171 37.139270 0.438265 2.631873 0.041943 0.011088 230922.000000 0 0 1
15.166492 7.931894 -33.073921 37.240055 0.481868 2.664051 0.043896 0.002519 226229.000000 0 0 1
14.372392 6.712594 -33.543891 37.105487 0.436940 2.699865 0.057932 -0.009526 -39757.900000 0 0 1
14.211792 5.782294 -32.510361 35.949041 0.386411 2.700641 0.057130 -0.002497 260212.000000 0 0 1
13.469592 4.686594 -33.057691 36.002847 0.334837 2.734300 0.070798 -0.021570 123857.000000 0 0 1
13.155992 3.616194 -31.993201 34.781057 0.268246 2.738483 0.080407 -0.022301 187600.000000 0 0 1
14.320892 2.922294 -31.545261 34.766812 0.201294 2.707705 0.065411 -0.027214 404522.000000 0 0 1
14.111392 1.917494 -30.534421 33.692121 0.135055 2.705189 0.085883 -0.027220 -244966.000000 0 0 1
13.346092 0.584594 -30.719071 33.498078 0.043775 2.731389 0.089236 -0.024670 196980.000000 0 0 1
14.007792 -0.498306 -31.389781 34.377098 -0.035559 2.721624 0.083831 -0.033284 -493448.000000 0 0 1
14.807792 -1.221306 -30.537401 33.960200 -0.082291 2.688760 0.081089 -0.038888 -374771.000000 0 0 1
15.269592 -2.513906 -31.221901 34.846625 -0.163171 2.681431 0.080347 -0.043035 -361417.000000 0 0 1
14.261092 -3.466406 -31.270781 34.543544 -0.238443 2.702780 0.090758 -0.040868 -266762.000000 0 0 1
14.654692 -4.584306 -32.108911 35.591544 -0.303178 2.695524 0.091534 -0.043175 -515154.000000 0 0 1
13.710192 -5.748806 -32.142251 35.413874 -0.397040 2.708370 0.110412 -0.043612 -529282.000000 0 0 1
13.873992 -6.437606 -30.948301 34.521410 -0.434440 2.682592 0.121205 -0.038645 20222.100000 0 0 1
13.549692 -7.750906 -30.949211 34.663011 -0.519604 2.674453 0.141208 -0.044584 -135801.000000 0 0 1
13.850592 -8.491306 -29.581911 33.749528 -0.549970 2.639367 0.118610 -0.041925 -1142630.000000 0 0 1
15.206792 -8.532906 -29.333451 34.124894 -0.511344 2.605265 0.138626 -0.042607 -783158.000000 0 0 1
15.540092 -9.342106 -28.136571 33.472915 -0.541273 2.569144 0.147055 -0.044909 87390.600000 0 0 1
15.488192 -10.865706 -28.329991 34.066641 -0.611764 2.552788 0.116638 -0.035149 -365598.000000 0 0 1
14.185492 -11.410606 -28.398641 33.732965 -0.677409 2.571528 0.089700 -0.035360 170716.000000 0 0 1
14.250192 -12.774006 -28.767721 34.551773 -0.730828 2.554577 0.091582 -0.035534 125017.000000 0 0 1
-10.859008 -2.932906 -17.385241 20.706680 0.263795 2.567335 0.046516 -0.004493 199258.000000 0 1 0
-11.146008 -2.673906 -18.759241 21.983913 0.235449 2.593110 0.034460 -0.004439 71063.400000 0 1 0
-12.225508 -3.506206 -19.148741 22.987623 0.279298 2.555308 0.048144 -0.009075 -51377.200000 0 1 0
-13.183808 -2.942006 -20.230041 24.325352 0.219556 2.552859 0.055697 -0.028504 -240658.000000 0 1 0
-13.947408 -1.920206 -19.689941 24.205602 0.136815 2.520848 0.044682 -0.027775 -576211.000000 0 1 0
-14.934508 -1.509006 -20.602141 25.490486 0.100700 2.511934 0.040684 -0.026170 163884.000000 0 0 1
-15.543608 -0.126606 -20.286441 25.556985 0.008145 2.487784 0.043659 -0.023029 64592.600000 0 0 1
-14.755008 0.913794 -20.814841 25.530431 -0.061852 2.524035 0.047094 -0.024095 -278351.000000 0 0 1
-15.452108 2.095094 -20.730241 25.940316 -0.134764 2.496679 0.051190 -0.014660 -376782.000000 0 0 1
-14.815608 3.166294 -21.566641 26.356170 -0.210546 2.529203 0.079361 -0.034100 -347471.000000 0 0 1
-13.588508 3.668894 -21.114141 25.375486 -0.263712 2.553623 0.077899 -0.036642 -74274.200000 0 0 1
-13.359808 4.988394 -21.652241 25.926591 -0.357357 2.559177 0.102559 -0.043596 682293.000000 0 0 1
-12.103808 5.678794 -20.983841 24.881167 -0.438684 2.574307 0.068898 -0.034618 684596.000000 0 1 0
-12.352408 5.939894 -19.567741 23.890601 -0.448226 2.530560 0.078130 -0.037062 556522.000000 0 1 0
-11.166008 6.381394 -18.918741 22.876204 -0.519201 2.544556 0.049941 -0.026785 348034.000000 0 1 0
-11.470508 7.111394 -17.607041 22.184508 -0.554975 2.487604 0.065724 -0.025634 90384.100000 0 1 0
-12.092108 8.342894 -17.813041 23.089552 -0.603946 2.451954 0.075863 -0.026364 21657.700000 0 1 0
-13.083908 8.669694 -16.876941 23.047416 -0.585198 2.392446 0.091617 -0.022688 -273279.000000 0 1 0
-13.790808 10.017994 -16.929241 24.023859 -0.628242 2.352775 0.112146 -0.027353 -566644.000000 0 1 0
-13.258308 10.981194 -16.061641 23.544547 -0.691731 2.321538 0.081779 -0.013354 -36489.300000 0 1 0
-13.776608 12.276794 -16.210941 24.562354 -0.727895 2.291604 0.090633 -0.024747 -474147.000000 0 1 0
-13.040208 13.407794 -15.490541 24.285239 -0.799296 2.262511 0.095293 -0.016269 -269990.000000 0 1 0
-13.233608 13.372194 -14.099541 23.510445 -0.790607 2.213940 0.095710 -0.020121 258652.000000 0 1 0
-12.650608 14.552494 -13.465141 23.518567 -0.855199 2.180388 0.088690 -0.018093 -735468.000000 0 1 0
-13.134208 14.866494 -12.057441 23.214262 -0.847185 2.116943 0.073699 -0.027012 887226.000000 0 1 0
-14.503008 15.216494 -11.811241 24.111913 -0.809401 2.082715 0.063746 -0.023395 922976.000000 0 1 0
-15.488608 14.267194 -12.171641 24.322801 -0.744373 2.094881 0.063756 -0.020333 -718790.000000 0 1 0
-16.919408 14.714994 -11.828141 25.351575 -0.715827 2.056199 0.037457 -0.013998 552659.000000 0 0 1
-17.972308 13.749194 -12.110941 25.665523 -0.653045 2.062214 0.047719 -0.017541 817435.000000 0 0 1
-19.007208 13.965994 -11.167241 26.096556 -0.633685 2.012987 0.131897 -0.025812 138806.000000 0 0 1
-20.410608 13.523094 -11.668441 27.122307 -0.585149 2.015528 0.132025 -0.030186 39360.000000 0 0 1
-20.497208 12.056494 -11.659641 26.484747 -0.531699 2.026662 0.145020 -0.030658 154415.000000 0 0 1
-21.698608 11.597194 -12.233641 27.477017 -0.490840 2.032229 0.192539 -0.027433 -130218.000000 0 0 1
-22.247308 10.267894 -11.624241 27.120018 -0.432404 2.013764 0.183973 -0.026268 -266501.000000 0 0 1
-21.535108 9.151794 -12.041741 26.315770 -0.401846 2.046075 0.162651 -0.029558 199333.000000 0 0 1
-21.965608 7.998394 -11.309941 25.968770 -0.349209 2.021413 0.150507 -0.025049 -568436.000000 0 0 1
-20.981008 6.868094 -11.279241 24.791021 -0.316354 2.043138 0.166364 -0.027922 -726107.000000 0 1 0
-20.716008 6.308594 -12.573041 25.040621 -0.295605 2.096828 0.159005 -0.026890 464881.000000 0 0 1
-19.513208 5.565994 -12.553541 23.860783 -0.277863 2.124823 0.148285 -0.032218 4632.000000 0 1 0
-19.634308 4.350094 -13.467841 24.203556 -0.218034 2.160892 0.163589 -0.045381 34862.100000 0 1 0
-20.484908 3.374294 -12.849541 24.415733 -0.163255 2.125017 0.155429 -0.047496 483489.000000 0 1 0
-21.046808 2.580494 -13.817341 25.309010 -0.121998 2.148314 0.143038 -0.048738 329309.000000 0 0 1
-22.066608 1.463594 -13.323241 25.818328 -0.066229 2.113015 0.171278 -0.048690 293956.000000 0 0 1
-23.094508 1.120994 -14.180041 27.123542 -0.048501 2.120922 0.137979 -0.046309 -315567.000000 0 0 1
-23.493908 -0.183006 -13.991241 27.345055 0.007789 2.107907 0.128312 -0.045332 -329263.000000 0 0 1
-24.714408 -0.719706 -14.801241 28.816605 0.029113 2.110213 0.134698 -0.032584 -335925.000000 0 0 1
-25.838258 -0.103906 -14.233541 29.499493 0.004021 2.074304 0.169898 -0.047325 -889703.000000 0 0 1
-26.985538 -0.465406 -14.980041 30.868066 0.017245 2.077494 0.170342 -0.031212 -942657.000000 0 0 1
-28.198288 -0.010406 -14.230841 31.585763 0.000369 2.038173 0.158238 -0.035907 -1081620.000000 0 0 1
-28.463988 -0.672106 -13.033541 31.313313 0.023608 2.000091 0.170964 -0.035918 -856108.000000 0 0 1
-29.675678 -0.290706 -12.502941 32.203322 0.009796 1.969528 0.200187 -0.041913 -591031.000000 0 0 1
-30.149688 -1.036106 -11.227941 32.189189 0.034352 1.927098 0.189954 -0.043318 -199512.000000 0 0 1
-30.510938 -2.389006 -11.296741 32.622708 0.078141 1.924404 0.206589 -0.029921 1052060.000000 0 0 1
-29.485188 -3.347506 -11.719141 31.904865 0.113048 1.946917 0.204001 -0.040037 615461.000000 0 0 1
-29.795948 -4.718606 -11.106141 32.146698 0.157060 1.923550 0.205659 -0.047188 -365045.000000 0 0 1
-31.032128 -5.258306 -11.483241 33.503845 0.167853 1.920633 0.189836 -0.037046 -19146.300000 0 0 1
-31.346468 -6.544206 -10.928241 33.835694 0.205814 1.899673 0.199816 -0.042693 149912.000000 0 0 1
-30.592148 -7.781306 -11.556541 33.615204 0.249075 1.921745 0.191361 -0.048373 1783870.000000 0 0 1
-29.163838 -7.848106 -11.272341 32.236438 0.262877 1.928023 0.138421 -0.035961 1415420.000000 0 0 1
-28.472618 -8.882906 -11.897641 32.111523 0.302412 1.950354 0.130059 -0.037298 -361836.000000 0 0 1
-27.050188 -9.069306 -11.362641 30.709520 0.323499 1.949810 0.137545 -0.044256 -240749.000000 0 0 1
-26.154398 -8.031706 -11.783941 29.789631 0.297947 1.977487 0.120868 -0.041017 1225010.000000 0 0 1
-24.802608 -8.055006 -11.296341 28.419357 0.314019 1.979574 0.141472 -0.039981 801772.000000 0 0 1
-24.671108 -7.670006 -9.790341 27.628669 0.301418 1.933020 0.164471 -0.038546 -637536.000000 0 0 1
-24.793108 -6.293406 -9.479041 27.279249 0.248587 1.925680 0.156753 -0.028526 695414.000000 0 0 1
-26.139048 -5.957506 -9.176441 28.336351 0.224088 1.900582 0.169507 -0.038968 28778.300000 0 0 1
-26.220208 -4.564706 -8.568841 27.959988 0.172364 1.882277 0.173223 -0.039509 -227599.000000 0 0 1
-25.689918 -4.445306 -7.272641 27.067027 0.171340 1.842829 0.165188 -0.032555 434994.000000 0 0 1
-25.687578 -3.102706 -6.874441 26.771933 0.120204 1.830483 0.216248 -0.043648 -60046.400000 0 0 1
-25.582168 -2.979406 -5.331941 26.301213 0.115942 1.774937 0.207278 -0.037319 1212970.000000 0 0 1
-24.219308 -3.144506 -4.865041 24.902439 0.129112 1.767425 0.130282 -0.026174 1170940.000000 0 1 0
-24.013708 -2.893406 -3.498441 24.439089 0.119912 1.714439 0.106527 -0.016131 -964045.000000 0 1 0
-22.646308 -3.254506 -2.992841 23.073886 0.142733 1.700870 0.091212 -0.009273 -947863.000000 0 1 0
-22.462908 -4.639906 -2.851941 23.113731 0.203694 1.694499 0.100459 -0.006754 290355.000000 0 1 0
-21.116008 -4.822506 -2.464041 21.799401 0.224531 1.684071 0.061578 -0.004802 -291415.000000 0 1 0
-20.702208 -6.287006 -2.570341 21.787945 0.294837 1.689042 0.062341 -0.004133 -432102.000000 0 1 0
-21.341508 -6.994706 -1.559841 22.512641 0.316718 1.640139 0.067152 -0.002671 302154.000000 0 1 0
-22.116608 -8.070706 -2.020141 23.629677 0.349901 1.656393 0.095874 -0.011709 61496.600000 0 1 0
-22.664508 -8.957906 -0.837441 24.384941 0.376396 1.605146 0.118107 -0.019557 -322398.000000 0 1 0
-21.599308 -9.516306 -0.126141 23.603096 0.414996 1.576141 0.073233 -0.010998 204961.000000 0 1 0
-21.948108 -10.463606 0.857059 24.329839 0.444869 1.535562 0.047539 -0.007758 -159917.000000 0 1 0
-20.623908 -10.958106 1.446659 23.399114 0.488397 1.508932 0.061318 -0.011838 164374.000000 0 1 0
-20.025008 -12.065506 0.719259 23.390057 0.542272 1.540041 0.054864 -0.002608 -184570.000000 0 1 0
-18.822408 -12.418306 1.311959 22.588020 0.583207 1.512682 0.032639 -0.015147 -975517.000000 0 1 0
-18.318308 -13.714806 0.745159 22.895668 0.642665 1.538245 0.047123 -0.010048 -526661.000000 0 1 0
-19.145708 -14.814006 1.062959 24.231030 0.658529 1.526915 0.076338 -0.011175 176786.000000 0 1 0
-18.676308 -16.052206 0.605859 24.634222 0.709981 1.546200 0.069820 -0.019935 -409223.000000 0 1 0
-17.546708 -16.766806 1.367659 24.308091 0.762673 1.514503 0.084952 -0.017979 -400882.000000 0 1 0
-16.362408 -16.014106 1.174259 22.925071 0.774641 1.519552 0.088180 -0.019949 -568452.000000 0 1 0
-15.215408 -16.634006 1.674759 22.605390 0.829910 1.496642 0.092027 -0.026540 -246482.000000 0 1 0
-14.980308 -16.499806 3.234559 22.519228 0.833629 1.426662 0.093249 -0.028858 -500915.000000 0 1 0
-14.666408 -15.163206 3.601559 21.400878 0.802051 1.401701 0.060809 -0.024843 123864.000000 0 1 0
-13.943808 -15.161406 4.860559 21.164193 0.827208 1.339068 0.033757 -0.015262 60235.600000 0 1 0
-14.660608 -15.503306 6.185359 22.215864 0.813328 1.288647 0.102070 -0.020152 -985521.000000 0 1 0
-15.494708 -14.504006 6.749759 22.271314 0.752385 1.262884 0.086322 -0.016717 302554.000000 0 1 0
-15.782908 -14.756806 8.097459 23.074496 0.751812 1.212236 0.100956 -0.015421 31677.100000 0 1 0
-16.794308 -15.917206 8.432759 24.627580 0.758591 1.221314 0.101433 -0.014115 -32403.600000 0 1 0
-16.350008 -17.241606 8.019459 25.078028 0.811934 1.245299 0.107749 -0.010443 563936.000000 0 0 1
-17.159808 -18.311806 8.588359 26.524351 0.817863 1.241062 0.124090 -0.024785 446576.000000 0 0 1
-16.850308 -18.671906 10.121159 27.111083 0.836634 1.188209 0.136944 -0.028497 -40798.900000 0 0 1
-15.563708 -19.222506 10.205559 26.756069 0.890192 1.179454 0.095246 -0.021090 -237659.000000 0 0 1
-15.288108 -19.592006 11.577659 27.415601 0.908169 1.134813 0.100123 -0.025464 617354.000000 0 0 1
-13.936808 -20.379106 11.691559 27.317305 0.970973 1.128528 0.087825 -0.017021 277851.000000 0 0 1
-12.785408 -19.602606 11.641159 26.138964 0.992855 1.109224 0.078289 -0.018392 -1394020.000000 0 0 1
-11.646008 -20.352406 11.812359 26.256081 1.051055 1.104154 0.075109 -0.017368 -858298.000000 0 0 1
-10.452908 -19.566006 12.345059 25.386855 1.080135 1.062972 0.075934 -0.016232 -62809.400000 0 0 1
-9.912408 -18.682906 11.319559 23.988315 1.083000 1.079377 0.068345 -0.020576 780492.000000 0 1 0
-8.766708 -17.939106 11.804859 23.195289 1.116235 1.036851 0.062422 -0.018534 1029170.000000 0 1 0
-7.865908 -17.226306 10.771759 21.786439 1.142449 1.053623 0.035150 -0.015895 -374706.000000 0 1 0
-6.949508 -18.042606 10.152159 21.837986 1.203138 1.087291 0.033540 -0.014833 -814208.000000 0 1 0
-6.115508 -17.251606 9.330459 20.544460 1.230128 1.099368 0.024143 -0.013878 106677.000000 0 1 0
-4.990408 -18.145406 8.734359 20.747264 1.302409 1.136262 0.022856 -0.012711 -325523.000000 0 1 0
-3.840108 -18.346606 9.477859 21.004147 1.364466 1.102645 0.032058 -0.010297 -676048.000000 0 1 0
-2.800208 -18.778706 8.617259 20.850375 1.422771 1.144732 0.035149 -0.015967 -67867.200000 0 1 0
-1.494208 -19.015706 9.376559 21.254402 1.492380 1.113907 0.036998 -0.020806 -25935.400000 0 1 0
-0.414408 -19.344206 8.498859 21.132928 1.549377 1.156919 0.042379 -0.021203 -110501.000000 0 1 0
0.727292 -19.564206 9.300159 21.674411 -1.533639 1.127317 0.064102 -0.023922 327453.000000 0 1 0
2.011592 -19.946106 8.475659 21.765350 -1.470285 1.170805 0.078834 -0.044575 551794.000000 0 1 0
2.074892 -21.237906 7.878759 22.747059 -1.473408 1.217104 0.080526 -0.034530 -143253.000000 0 1 0
2.161092 -22.275006 8.869459 24.073087 -1.474080 1.193467 0.099581 -0.045242 -109536.000000 0 1 0
2.026192 -23.694006 8.218259 25.160508 -1.485489 1.238057 0.095838 -0.033166 149830.000000 0 0 1
2.026992 -24.714906 9.202659 26.450411 -1.488965 1.215443 0.119836 -0.034222 -64480.600000 0 0 1
1.664392 -25.958106 8.688559 27.424160 -1.506766 1.248420 0.131357 -0.035589 -631952.000000 0 0 1
1.676392 -27.142426 9.721759 28.879650 -1.509112 1.227461 0.151862 -0.033634 1012380.000000 0 0 1
0.628192 -27.151016 10.724759 29.199191 -1.547664 1.194696 0.132798 -0.035598 96181.500000 0 0 1
-0.675808 -27.405216 10.291459 29.281679 1.546141 1.211662 0.106082 -0.029715 -538574.000000 0 0 1
-1.655508 -27.506066 11.452059 29.840812 1.510682 1.176919 0.101119 -0.035984 -102833.000000 0 0 1
-1.450008 -28.688586 12.219159 31.216107 1.520296 1.168603 0.111229 -0.040719 -225618.000000 0 0 1
-1.644308 -28.395786 13.592059 31.524094 1.512954 1.125014 0.100713 -0.047295 -42860.800000 0 0 1
-1.447508 -29.557106 14.578459 32.988624 1.521862 1.113054 0.093273 -0.042555 172795.000000 0 0 1
-1.578808 -29.158356 15.922759 33.260136 1.516703 1.071584 0.110192 -0.049184 -113011.000000 0 0 1
-1.293008 -30.224186 16.778459 34.593207 1.528042 1.064408 0.123435 -0.048038 75333.600000 0 0 1
-1.585108 -29.860316 18.298359 35.056825 1.517762 1.021646 0.137855 -0.051244 230484.000000 0 0 1
-2.966908 -29.875966 18.612659 35.324312 1.471813 1.015838 0.134997 -0.048052 5073.040000 0 0 1
-3.233608 -29.673386 19.980459 35.919143 1.462251 0.980915 0.130556 -0.049855 32995.800000 0 0 1
-4.742608 -29.507516 20.249459 36.100228 1.411434 0.975296 0.145061 -0.049448 -170370.000000 0 0 1
-5.268108 -28.321056 19.685759 34.890748 1.386884 0.971319 0.112540 -0.041310 429.737000 0 0 1
-6.588808 -28.093856 20.145359 35.192508 1.340431 0.961326 0.106788 -0.038632 281801.000000 0 0 1
-6.568208 -26.941726 21.192459 34.901552 1.331668 0.918256 0.146785 -0.039951 -515687.000000 0 0 1
-5.906608 -27.362916 22.334559 35.811307 1.358197 0.897363 0.162253 -0.039593 -293822.000000 0 0 1
-5.828708 -26.339546 23.342259 35.673612 1.353015 0.857502 0.180752 -0.039976 -357950.000000 0 0 1
-4.711808 -26.685446 24.374359 36.447545 1.396029 0.838268 0.200418 -0.038225 191748.000000 0 0 1
-4.933308 -27.922166 25.026459 37.819420 1.395920 0.847665 0.202857 -0.043824 237587.000000 0 0 1
-4.252708 -29.038236 24.444659 38.194843 1.425378 0.876299 0.213390 -0.035770 -42748.100000 0 0 1
-4.482308 -30.389256 25.209659 39.738204 1.424356 0.883573 0.220847 -0.038284 -56725.200000 0 0 1
-4.023708 -30.382406 26.555559 40.552171 1.439127 0.856813 0.211992 -0.041389 125496.000000 0 0 1
-4.473408 -31.549326 27.190959 41.889374 1.429944 0.864378 0.174748 -0.031279 -146496.000000 0 0 1
-4.110608 -31.671416 28.682559 42.926273 1.441729 0.839034 0.188726 -0.034626 162858.000000 0 0 1
-2.724408 -31.810566 28.963759 43.107237 1.485360 0.834025 0.196351 -0.041314 290207.000000 0 0 1
-2.383508 -31.719236 30.311659 43.938454 1.495793 0.809492 0.194146 -0.050526 148894.000000 0 0 1
-29.387118 2.962594 -10.367141 31.302673 -0.100473 1.908361 0.219558 -0.044078 120243.000000 0 0 1
-30.295168 2.685294 -11.419941 32.487276 -0.088407 1.929991 0.211946 -0.065646 323061.000000 0 0 1
-31.012878 3.880794 -11.812741 33.412573 -0.124488 1.932151 0.187188 -0.054075 85794.700000 0 0 1
-31.921088 3.522594 -13.002441 34.647194 -0.109908 1.955496 0.193356 -0.044384 -155606.000000 0 0 1
-33.026758 2.710994 -12.668441 35.476833 -0.081901 1.935948 0.179575 -0.044180 -263265.000000 0 0 1
-33.878968 2.530894 -13.750641 36.650649 -0.074565 1.955389 0.202700 -0.044832 -539978.000000 0 0 1
-35.158503 1.830594 -13.310441 37.638269 -0.052020 1.932257 0.188576 -0.048067 -298795.000000 0 0 1
-34.847757 0.463794 -13.091141 37.228474 -0.013308 1.930122 0.200816 -0.045957 -200480.000000 0 0 1
-35.982398 -0.319706 -12.881541 38.220012 0.008885 1.914564 0.178546 -0.048510 -422001.000000 0 0 1
-35.561772 -1.681806 -12.370441 37.689467 0.047257 1.905215 0.195396 -0.044483 90916.900000 0 0 1
-34.927870 -2.560906 -13.263841 37.449217 0.073189 1.932836 0.194843 -0.034029 62945.000000 0 0 1
-34.873385 -3.843106 -12.687241 37.308022 0.109759 1.917785 0.196270 -0.037913 77370.500000 0 0 1
-34.358028 -4.796306 -13.760741 37.320727 0.138701 1.948423 0.210595 -0.034382 -36649.200000 0 0 1
-34.231309 -6.120306 -13.308841 37.233935 0.176923 1.936320 0.193412 -0.041413 117126.000000 0 0 1
-34.696252 -7.056006 -14.229241 38.158727 0.200629 1.952925 0.193050 -0.039357 -839052.000000 0 0 1
-34.646823 -8.510606 -13.645741 38.197370 0.240870 1.936111 0.162909 -0.041774 -138916.000000 0 0 1
-33.384138 -9.051806 -13.319441 37.065394 0.264775 1.938367 0.160404 -0.042639 148168.000000 0 0 1
-32.644608 -9.312506 -14.499641 36.913857 0.277888 1.974467 0.166672 -0.044948 -644923.000000 0 0 1
-31.467038 -10.301306 -14.291541 36.062995 0.316372 1.978273 0.144830 -0.047751 -488497.000000 0 0 1
-31.816558 -11.589706 -13.826141 36.575632 0.349327 1.958448 0.133182 -0.045871 776597.000000 0 0 1
-30.763088 -12.555406 -13.524341 35.873579 0.387497 1.957352 0.142024 -0.047544 304278.000000 0 0 1
-31.120478 -13.978906 -14.006941 36.879376 0.422177 1.960381 0.155121 -0.038760 -256168.000000 0 0 1
-31.182438 -13.981506 -15.426741 37.494151 0.421504 1.994834 0.154833 -0.043805 77107.000000 0 0 1
-31.065988 -15.329006 -15.971441 38.146573 0.458381 2.002794 0.174721 -0.049653 433200.000000 0 0 1
-29.843388 -16.262706 -15.629041 37.408159 0.498946 2.001816 0.134279 -0.039406 563353.000000 0 0 1
-28.613978 -15.646106 -16.002741 36.326962 0.500383 2.026974 0.136495 -0.048277 -383457.000000 0 0 1
-27.570868 -16.568406 -15.815641 35.844098 0.541110 2.027770 0.141264 -0.044666 -857976.000000 0 0 1
-26.238528 -16.005106 -16.222641 34.753387 0.547729 2.056457 0.133017 -0.050465 -962358.000000 0 0 1
-26.159538 -15.825706 -17.645141 35.300502 0.544065 2.094228 0.131329 -0.046674 1079060.000000 0 0 1
-24.854608 -15.463106 -18.173341 34.454746 0.556542 2.126399 0.100041 -0.030383 505170.000000 0 0 1
-25.001238 -15.116506 -19.736241 35.257480 0.543817 2.164910 0.114172 -0.030931 -85399.400000 0 0 1
-25.545858 -16.064306 -20.597041 36.536159 0.561357 2.169708 0.114320 -0.030569 -437683.000000 0 0 1
-26.930558 -15.928006 -20.696841 37.514205 0.534107 2.155206 0.121772 -0.038230 -963044.000000 0 0 1
-27.429788 -17.111206 -21.511441 38.832059 0.557749 2.157911 0.125446 -0.043355 -481347.000000 0 0 1
-27.231668 -17.172206 -22.910641 39.513870 0.562614 2.189295 0.119539 -0.027670 354681.000000 0 0 1
-27.930648 -18.274106 -23.468941 40.802638 0.579369 2.183623 0.115488 -0.026204 98983.200000 0 0 1
-27.395208 -18.437306 -24.946141 41.385283 0.592383 2.217775 0.096453 -0.027966 410417.000000 0 0 1
-26.068318 -18.895006 -25.078541 40.810682 0.627194 2.232560 0.092382 -0.022191 780.996000 0 0 1
-25.985028 -20.333206 -24.851741 41.307022 0.663977 2.216342 0.084076 -0.017004 194393.000000 0 0 1
-24.492008 -20.779006 -24.770341 40.561008 0.703564 2.227732 0.068241 0.003160 1112070.000000 0 0 1
-23.726408 -20.699606 -26.027791 40.851708 0.717372 2.261563 0.057936 -0.007156 415971.000000 0 0 1
-22.363708 -20.959706 -25.722261 40.013491 0.753002 2.268996 0.058792 -0.001681 201259.000000 0 0 1
-21.642808 -20.876506 -27.092891 40.475479 0.767378 2.304151 0.050754 -0.003923 -430055.000000 0 0 1
-21.789808 -22.057506 -27.864141 41.686205 0.791503 2.302887 0.077990 -0.004514 16920.100000 0 0 1
-22.319908 -21.605206 -29.133691 42.587970 0.769129 2.324142 0.083475 -0.012590 210394.000000 0 0 1
-21.329208 -21.780806 -30.314891 42.992224 0.795873 2.353396 0.086297 -0.026376 251749.000000 0 0 1
-21.120108 -23.098406 -30.769391 43.890213 0.830107 2.347670 0.095362 -0.031609 -9033.720000 0 0 1
-20.288108 -23.037106 -31.899731 44.270854 0.848764 2.375403 0.098271 -0.033100 -56700.900000 0 0 1
-20.109908 -24.427306 -32.551421 45.394898 0.882035 2.370389 0.099160 -0.026073 -372719.000000 0 0 1
-19.253908 -24.390006 -33.647661 45.801206 0.902541 2.395941 0.095392 -0.027966 -496090.000000 0 0 1
-19.844108 -24.133306 32.677208 45.210674 0.882622 0.762985 0.098962 -0.025971 -939967.000000 0 0 1
-18.862508 -23.993006 31.514766 43.870709 0.904547 0.769361 0.101309 -0.016561 -475357.000000 0 0 1
-18.182008 -22.767906 31.440539 42.865726 0.896921 0.747390 0.066596 -0.019703 -395259.000000 0 0 1
-17.501208 -22.667306 30.232049 41.642237 0.913307 0.758316 0.072830 -0.021680 -387421.000000 0 0 1
-16.736308 -21.410106 29.923569 40.421735 0.907313 0.737303 0.062038 -0.016824 -126480.000000 0 0 1
-17.545808 -20.245806 29.664819 39.971860 0.856721 0.734535 0.076531 -0.022492 600459.000000 0 0 1
-16.809508 -18.993906 29.523759 38.922749 0.846334 0.709754 0.078076 -0.020741 389320.000000 0 0 1
-16.349508 -18.222006 30.769369 39.320504 0.839508 0.672082 0.079001 -0.024278 266188.000000 0 0 1
-15.853208 -16.936806 30.466509 38.293443 0.818433 0.650788 0.082041 -0.017090 -440567.000000 0 0 1
-15.263108 -16.367106 31.565659 38.694127 0.820287 0.616730 0.081526 -0.021429 -109701.000000 0 0 1
-14.646308 -15.017106 31.195579 37.592446 0.797898 0.591982 0.093931 -0.030158 -632567.000000 0 0 1
-13.506508 -15.077006 30.406649 36.528156 0.840287 0.587342 0.110874 -0.036056 -627478.000000 0 0 1
-13.174008 -13.827906 29.860729 35.446137 0.809610 0.569027 0.094898 -0.034721 -413984.000000 0 0 1
-11.681508 -13.778006 29.533659 34.619765 0.867559 0.548924 0.109572 -0.032449 -397197.000000 0 0 1
-11.212408 -12.462806 29.533469 33.959762 0.838164 0.516282 0.102526 -0.033050 627113.000000 0 0 1
-9.807008 -12.423706 29.870849 33.805229 0.902565 0.487266 0.084339 -0.023937 993177.000000 0 0 1
-9.343208 -10.989506 29.972609 33.262924 0.866190 0.448539 0.061916 -0.012195 -545733.000000 0 0 1
-10.010508 -10.245906 30.945509 34.100050 0.797019 0.433523 0.061170 -0.013067 79085.400000 0 0 1
-9.605108 -8.869206 30.968499 33.615010 0.745585 0.399463 0.039649 -0.008510 83478.300000 0 0 1
-10.460208 -8.041606 31.984090 34.598633 0.655413 0.391252 0.026353 -0.011587 469463.000000 0 0 1
-11.760308 -7.754506 31.489806 34.497030 0.582941 0.420643 0.059500 -0.024472 316212.000000 0 0 1
-12.721108 -7.231706 32.380334 35.533227 0.516921 0.424441 0.058475 -0.025458 171842.000000 0 0 1
-12.525708 -5.742006 32.818534 35.593822 0.429832 0.397507 0.039900 -0.024373 -414871.000000 0 0 1
-12.658208 -4.796306 31.783509 34.546002 0.362193 0.402628 0.052160 -0.028766 185809.000000 0 0 1
-12.737608 -3.500506 32.347457 34.940781 0.268196 0.387704 0.049439 -0.029695 -334798.000000 0 0 1
-12.147608 -2.345306 31.418349 33.766515 0.190721 0.375133 0.059306 -0.030359 608927.000000 0 0 1
-10.726208 -2.270506 31.424829 33.282527 0.208599 0.335688 0.061706 -0.032655 321872.000000 0 0 1
-10.221708 -1.171506 30.667369 32.347230 0.114112 0.323691 0.065746 -0.025591 -852228.000000 0 0 1
-8.723008 -1.027006 30.790789 32.019030 0.117196 0.277876 0.054046 -0.032255 -874103.000000 0 0 1
-8.416808 -0.465906 32.059766 33.149485 0.055298 0.257117 0.081819 -0.051402 68930.600000 0 0 1
-7.072808 -0.033206 32.121626 32.891102 0.004695 0.216732 0.105748 -0.052218 -240362.000000 0 0 1
-6.634308 0.385194 33.477359 34.130573 -0.057996 0.195959 0.147371 -0.073779 -434554.000000 0 0 1
-7.229408 1.604494 -33.666721 34.471537 -0.218400 2.925081 0.170208 -0.062081 101155.000000 0 0 1
-6.682208 2.760994 33.331946 34.107091 -0.391821 0.213604 0.169543 -0.059863 69583.300000 0 0 1
-7.678408 3.938894 33.376676 34.474271 -0.473980 0.253016 0.159391 -0.055087 787964.000000 0 0 1
-8.838308 3.891894 32.540483 33.943270 -0.414795 0.288497 0.116095 -0.042091 663703.000000 0 0 1
-9.778608 4.873194 32.943818 34.708275 -0.462329 0.320229 0.104392 -0.024155 322205.000000 0 0 1
-10.943308 5.057994 31.937543 34.137164 -0.432953 0.360940 0.080292 -0.021463 668247.000000 0 0 1
-12.040908 5.841994 32.407606 35.062306 -0.451721 0.391635 0.081821 -0.022332 460356.000000 0 0 1
-13.095308 5.865594 31.465609 34.582898 -0.421119 0.427849 0.040972 -0.013775 59743.900000 0 0 1
-13.905408 7.149294 31.424649 35.099592 -0.474894 0.461693 0.053977 -0.019678 -430464.000000 0 0 1
-14.909208 7.349794 32.363286 36.382499 -0.458008 0.474483 0.052084 -0.011562 -137820.000000 0 0 1
-15.282908 8.726894 32.483144 36.944291 -0.518840 0.496518 0.047174 -0.007467 194580.000000 0 0 1
-16.324308 9.081194 33.587419 38.432614 -0.507666 0.507566 0.033374 -0.001426 441680.000000 0 0 1
-15.784908 9.091094 -32.646351 37.384429 -0.522537 2.632651 0.037353 -0.007785 -334057.000000 0 0 1
-16.612008 9.785494 -31.780061 37.171051 -0.532338 2.596286 0.048768 -0.006881 -1328470.000000 0 0 1
-16.017208 10.054194 -30.384181 35.788773 -0.560547 2.584860 0.080024 -0.016220 877485.000000 0 0 1
-14.979008 11.052094 -30.284941 35.548518 -0.635672 2.590461 0.070938 -0.018021 1224930.000000 0 0 1
-13.745708 10.803394 -30.995091 35.585861 -0.666113 2.628019 0.086669 -0.025968 523972.000000 0 0 1
-12.703608 11.951394 -30.870011 35.456665 -0.754898 2.627299 0.100825 -0.029062 116412.000000 0 0 1
-13.057808 13.016494 -31.791351 36.750857 -0.783814 2.616048 0.087145 -0.030776 -273595.000000 0 0 1
-12.162208 14.065894 -31.918711 36.940125 -0.857853 2.614089 0.096367 -0.033435 -482944.000000 0 0 1
-12.338008 15.135394 -30.825871 36.490285 -0.886870 2.576930 0.094990 -0.034899 -331887.000000 0 0 1
-13.574608 15.759194 -30.951841 37.291268 -0.859734 2.549908 0.075926 -0.031198 -630322.000000 0 0 1
-13.932208 16.580394 -29.889461 36.910646 -0.871971 2.514571 0.068798 -0.024302 1395810.000000 0 0 1
-15.394208 17.221494 -30.023391 37.880939 -0.841364 2.485813 0.060277 -0.032602 1204120.000000 0 0 1
-15.452408 18.038794 -31.150611 39.173149 -0.862471 2.490139 0.055384 -0.029152 105507.000000 0 0 1
-16.752108 18.487694 -31.485221 40.171471 -0.834609 2.471511 0.045971 -0.028708 364729.000000 0 0 1
-17.425308 19.622094 -30.685991 40.376949 -0.844625 2.434091 0.031546 -0.022751 -268298.000000 0 0 1
-16.803708 20.896594 -30.895431 40.909167 -0.893538 2.426786 0.035814 -0.020268 279263.000000 0 0 1
-17.498608 22.069394 -30.471941 41.494561 -0.900406 2.395519 0.019102 -0.013436 513213.000000 0 0 1
-18.901308 22.478094 -31.020951 42.717954 -0.871623 2.383546 0.036964 -0.013933 522496.000000 0 0 1
-20.033608 21.828794 -30.493971 42.517337 -0.828255 2.370590 0.037883 -0.017224 -324328.000000 0 0 1
-21.040208 21.737994 -31.463281 43.648239 -0.801708 2.375806 0.068985 -0.026639 -913985.000000 0 0 1
-22.403208 21.455594 -30.824831 43.731184 -0.763795 2.353037 0.087917 -0.030549 -1866330.000000 0 0 1
-22.956808 22.504694 -30.071781 44.020317 -0.775453 2.322842 0.121732 -0.030318 134631.000000 0 0 1
-23.715108 23.444394 -30.822251 45.409879 -0.779658 2.316864 0.121330 -0.025273 -333687.000000 0 0 1
-25.083648 22.934694 -31.311961 46.212861 -0.740675 2.315236 0.127991 -0.029772 -968470.000000 0 0 1
-24.901908 21.817594 -32.168471 46.161921 -0.719476 2.341809 0.122485 -0.027877 -418990.000000 0 0 1
-26.094428 21.465594 -32.841401 47.119513 -0.688378 2.341975 0.134201 -0.025735 -26065.800000 0 0 1
-25.968428 20.378594 33.641459 47.131668 -0.665370 0.775921 0.128692 -0.023443 52760.800000 0 0 1
-25.556608 19.046194 -33.483501 46.228158 -0.640457 2.380829 0.123188 -0.033921 384896.000000 0 0 1
-25.306888 18.268694 32.945380 45.382616 -0.625264 0.758386 0.110171 -0.041767 -223972.000000 0 0 1
-24.917508 16.804294 33.097315 44.706809 -0.593335 0.737251 0.089830 -0.028782 -80904.500000 0 0 1
-25.958178 15.912494 33.469954 45.246793 -0.549927 0.738142 0.088828 -0.021301 402140.000000 0 0 1
-26.288368 14.990594 32.454911 44.374739 -0.518247 0.750449 0.094840 -0.027533 -788582.000000 0 0 1
-27.188348 13.875494 32.956654 44.920782 -0.471891 0.747101 0.068595 -0.019290 -1148750.000000 0 0 1
-28.504068 14.290094 33.145993 45.992886 -0.464715 0.766019 0.080634 -0.015546 -443880.000000 0 0 1
-29.468868 13.257194 32.951267 46.151418 -0.422747 0.775628 0.080787 -0.012357 353298.000000 0 0 1
-29.628168 12.063494 -33.600731 46.393592 -0.386666 2.380748 0.068387 -0.017070 -1017630.000000 0 0 1
-28.496708 11.272194 -33.709111 45.556876 -0.376674 2.403770 0.064168 -0.024721 -788661.000000 0 0 1
-28.709158 9.915094 -33.400161 45.145272 -0.332538 2.403625 0.076201 -0.018904 -1084020.000000 0 0 1
-27.458258 9.036994 -33.316131 44.108818 -0.317952 2.426934 0.062202 -0.026530 -242814.000000 0 0 1
-26.696338 8.803094 33.082896 43.412751 -0.318521 0.704316 0.052942 -0.019650 514479.000000 0 0 1
-25.863308 9.920994 32.793680 42.927407 -0.366283 0.701410 0.037045 -0.020421 -1136230.000000 0 0 1
-24.451608 9.706394 32.278516 41.641300 -0.377886 0.683834 0.043823 -0.012946 -660166.000000 0 0 1
-24.412208 9.254394 30.970209 40.506216 -0.362350 0.700408 0.053105 -0.022598 71855.000000 0 0 1
-23.124408 9.265494 30.395459 39.299766 -0.381093 0.686568 0.059842 -0.019089 68181.700000 0 0 1
-23.188808 9.055494 28.871229 38.121787 -0.372300 0.711563 0.074461 -0.027023 266863.000000 0 0 1
-23.755108 10.169194 28.145489 38.208458 -0.404480 0.742723 0.083470 -0.027784 377374.000000 0 0 1
-23.756808 10.021494 26.723259 37.134201 -0.399188 0.767513 0.080960 -0.026713 -527880.000000 0 0 1
-24.095508 11.332194 25.963719 37.190413 -0.439609 0.798015 0.082563 -0.024314 1108550.000000 0 0 1
-25.399188 11.925694 26.148429 38.354677 -0.438976 0.820640 0.104522 -0.022054 894603.000000 0 0 1
-26.421948 11.319094 25.352309 38.327285 -0.404745 0.848021 0.117171 -0.015701 300585.000000 0 0 1
-27.797498 12.012394 25.522729 39.603134 -0.407902 0.870476 0.131396 -0.014469 163415.000000 0 0 1
-27.695348 13.337894 25.053039 39.655851 -0.448814 0.886973 0.136258 -0.015815 -330424.000000 0 0 1
-28.829598 14.097194 25.348049 40.894990 -0.454796 0.902267 0.135931 -0.019145 -224176.000000 0 0 1
-28.900868 15.482394 24.618649 41.000519 -0.491803 0.926736 0.148085 -0.021678 548744.000000 0 0 1
-28.055598 16.525394 25.183219 41.163087 -0.532309 0.912473 0.159548 -0.020866 655806.000000 0 0 1
-27.916238 17.689894 24.403719 41.082724 -0.564815 0.934757 0.134451 -0.022394 -110043.000000 0 0 1
-23.536908 -8.636106 31.429169 40.203993 0.351666 0.673341 0.069230 -0.021207 -687661.000000 0 0 1
-22.613308 -8.209406 30.505119 38.849947 0.348239 0.667771 0.083731 -0.032158 -702799.000000 0 0 1
-23.005608 -8.476106 29.211009 38.136406 0.353004 0.698261 0.086086 -0.033036 347043.000000 0 0 1
-21.889208 -8.301306 28.089199 36.565725 0.362484 0.694797 0.119254 -0.036660 334490.000000 0 0 1
-21.395308 -6.963006 27.966419 35.893778 0.314635 0.677497 0.119152 -0.034737 63845.400000 0 0 1
-20.268608 -6.607406 28.750329 35.791839 0.315129 0.638040 0.116273 -0.034149 1685850.000000 0 0 1
-18.839808 -7.045406 28.095209 34.553103 0.357862 0.621334 0.123797 -0.035596 765300.000000 0 0 1
-18.584208 -8.449206 28.034259 34.679700 0.426710 0.629407 0.129247 -0.037245 93909.400000 0 0 1
-18.123308 -9.106906 29.210269 35.561635 0.465643 0.606938 0.115801 -0.037911 98974.600000 0 0 1
-16.707508 -8.631406 29.654449 35.114504 0.476854 0.565152 0.104093 -0.040094 291538.000000 0 0 1
-15.604708 -9.103506 28.866199 34.053461 0.528111 0.559213 0.100049 -0.033506 114180.000000 0 0 1
-14.391708 -8.690106 29.456359 33.916313 0.543229 0.518626 0.090630 -0.036401 -16229.100000 0 0 1
-13.141708 -9.406906 28.950699 33.156257 0.621255 0.509149 0.083235 -0.033240 -256501.000000 0 0 1
-12.870608 -9.223206 27.611739 31.829675 0.621787 0.520674 0.092638 -0.036765 -516205.000000 0 0 1
-11.707908 -9.909306 27.259229 31.278348 0.702387 0.512534 0.091955 -0.031110 -266652.000000 0 0 1
-11.123708 -9.738506 25.821059 29.754033 0.719098 0.520004 0.074294 -0.028415 548059.000000 0 0 1
-12.054008 -10.206706 24.828659 29.426829 0.702603 0.566579 0.080565 -0.031449 397852.000000 0 0 1
-11.544408 -10.060406 23.493629 28.043462 0.716817 0.577632 0.089584 -0.035548 466956.000000 0 0 1
-12.606308 -10.458106 22.415159 27.762031 0.692527 0.631059 0.113129 -0.040980 -4334.280000 0 0 1
-12.849708 -11.839606 22.236859 28.280191 0.744508 0.665991 0.101104 -0.035847 338193.000000 0 0 1
-14.143308 -12.118206 21.725959 28.616453 0.708438 0.708695 0.093744 -0.029191 347336.000000 0 0 1
-15.313508 -12.108706 22.715759 29.952129 0.669057 0.709938 0.103255 -0.032576 -233646.000000 0 0 1
-16.576908 -12.516306 22.207459 30.407615 0.646722 0.751998 0.064043 -0.010496 483560.000000 0 0 1
-17.572408 -12.426306 23.225639 31.664380 0.615508 0.747348 0.073400 -0.009340 552315.000000 0 0 1
-18.910208 -13.079806 22.748509 32.344582 0.605120 0.790743 0.098285 -0.013499 -510926.000000 0 0 1
-18.861308 -14.476406 22.653569 32.840516 0.654619 0.809576 0.083079 -0.013823 -301038.000000 0 0 1
-20.037408 -15.191406 22.404459 33.678426 0.648698 0.842972 0.095483 -0.008459 -605122.000000 0 0 1
-21.021008 -15.272206 23.557399 35.072413 0.628305 0.834324 0.093071 -0.014042 -749540.000000 0 0 1
-20.453008 -15.964606 24.633249 35.776964 0.662768 0.811346 0.077579 -0.012659 271549.000000 0 0 1
-21.312508 -15.951806 25.781789 37.059193 0.642522 0.801413 0.082588 -0.017209 102442.000000 0 0 1
-20.973708 -16.879006 26.977169 38.112530 0.677643 0.784376 0.086476 -0.022738 -144322.000000 0 0 1
-21.081908 -18.277706 26.695619 38.615767 0.714273 0.807490 0.089468 -0.016849 264310.000000 0 0 1
-20.688608 -19.120106 27.761799 39.551416 0.746018 0.792711 0.083639 -0.021919 -236396.000000 0 0 1
-20.599908 -20.605906 27.380799 39.983344 0.785544 0.816460 0.088327 -0.016912 -374763.000000 0 0 1
-21.813208 -21.303506 27.202879 40.861376 0.773577 0.842317 0.087953 -0.018311 -70316.100000 0 0 1
-21.660608 -22.702806 27.070319 41.441544 0.808886 0.858971 0.094236 -0.007913 124747.000000 0 0 1
-22.938408 -23.488006 26.675239 42.301601 0.797236 0.888475 0.094808 -0.004408 558563.000000 0 0 1
-23.856708 -23.723206 27.757359 43.616557 0.782592 0.880981 0.084442 -0.007265 437382.000000 0 0 1
-25.158588 -23.900506 27.235789 44.113229 0.759760 0.905355 0.067469 -0.001712 324538.000000 0 0 1
-26.111418 -24.797306 28.075979 45.661507 0.759591 0.908573 0.050296 -0.004143 -187563.000000 0 0 1
-26.293738 -24.426206 29.440129 46.418977 0.748594 0.883789 0.053226 0.001166 276508.000000 0 0 1
-27.013238 -25.456556 30.131559 47.808599 0.755739 0.888916 0.041783 0.004558 493098.000000 0 0 1
-28.161438 -24.845906 31.002409 48.698409 0.722931 0.880688 0.042856 -0.005594 421312.000000 0 0 1
-29.230698 -24.309206 30.238399 48.577073 0.693734 0.898885 0.032403 -0.000739 86978.400000 0 0 1
-30.250358 -23.895506 31.123979 49.545751 0.668567 0.891576 0.048246 -0.015217 -552710.000000 0 0 1
-31.514368 -23.359506 30.454159 49.661633 0.637867 0.910649 0.060596 -0.017936 -813500.000000 0 0 1
-32.356338 -24.425606 30.090889 50.487667 0.646626 0.932280 0.057559 -0.018117 103416.000000 0 0 1
-33.423138 -23.843406 29.320009 50.450740 0.619650 0.950642 0.050830 -0.019863 498400.000000 0 0 1
-34.826902 -24.323806 29.760649 51.867687 0.609665 0.959682 0.061109 -0.022030 20236.600000 0 0 1
-34.897463 -25.741946 29.598149 52.502678 0.635547 0.971883 0.064859 -0.021719 -175436.000000 0 0 1
-36.024758 -26.251986 30.273739 53.883664 0.629743 0.974194 0.068815 -0.018576 160262.000000 0 0 1
-36.072608 -27.779696 30.412549 54.752788 0.656245 0.981890 0.076687 -0.027534 201419.000000 0 0 1
-35.113140 -28.165796 31.391779 54.878853 0.676047 0.961830 0.068941 -0.023117 52623.800000 0 0 1
-34.967440 -29.555246 31.311989 55.467784 0.701714 0.970960 0.075153 -0.029572 43804.700000 0 0 1
-33.965741 -29.967346 32.420477 55.702789 0.722939 0.949578 0.079003 -0.022052 -66709.700000 0 0 1
-34.309598 -29.597206 33.752599 56.501160 0.711793 0.930568 0.073574 -0.024281 100372.000000 0 0 1
-33.346748 -29.988396 -32.835591 55.583141 0.732423 2.202781 0.074558 -0.022560 458162.000000 0 0 1
-33.730468 -29.643806 -31.363131 54.773586 0.721003 2.180465 0.077539 -0.025470 153522.000000 0 0 1
-33.908798 -28.268156 -31.030861 53.961186 0.694927 2.183472 0.063331 -0.022189 577839.000000 0 0 1
-32.654998 -27.593826 -30.801321 52.692405 0.701590 2.195121 0.068975 -0.018877 555647.000000 0 0 1
-32.740488 -26.022336 -30.720461 51.892661 0.671566 2.204335 0.063114 -0.017706 -262812.000000 0 0 1
-33.505478 -25.497466 -29.659081 51.501446 0.650500 2.184487 0.053173 -0.024638 -200398.000000 0 0 1
-33.356568 -24.116106 -29.451351 50.612541 0.625982 2.191857 0.060343 -0.029980 244274.000000 0 0 1
-32.014108 -23.669306 -28.803161 49.140221 0.636644 2.197086 0.070362 -0.030643 -119641.000000 0 0 1
-31.907438 -22.283506 -28.573331 48.281203 0.609638 2.204100 0.071119 -0.027196 1018760.000000 0 0 1
-30.693638 -21.875306 -27.875901 46.879573 0.619198 2.207599 0.084856 -0.024446 952052.000000 0 0 1
-30.371348 -20.399706 -28.064201 46.110370 0.591463 2.225130 0.095376 -0.028411 -242533.000000 0 0 1
-29.754628 -20.081806 -29.276811 46.322225 0.593690 2.254960 0.088616 -0.020992 177842.000000 0 0 1
-29.619808 -18.666206 -29.338051 45.678021 0.562325 2.268265 0.089893 -0.027622 -152114.000000 0 0 1
-29.042508 -18.205606 -30.668511 45.994228 0.559936 2.300690 0.087871 -0.023063 496678.000000 0 0 1
-30.045498 -18.106706 -31.685761 47.271263 0.542361 2.305405 0.077817 -0.023473 593185.000000 0 0 1
-30.905448 -16.991106 -31.596691 47.351825 0.502672 2.301341 0.092720 -0.021462 -586073.000000 0 0 1
-31.364908 -16.332806 -32.918131 48.312746 0.480098 2.320409 0.094749 -0.026210 107626.000000 0 0 1
-32.350248 -17.051706 -33.623831 49.677573 0.485089 2.314259 0.088920 -0.028949 122893.000000 0 0 1
-33.679298 -16.796306 -33.241481 50.213615 0.462618 2.294282 0.092563 -0.029575 -184299.000000 0 0 1
-34.768801 -17.360906 33.392143 51.237739 0.463107 0.860960 0.095009 -0.031929 123180.000000 0 0 1
-35.082989 -18.756106 33.539139 52.033465 0.490959 0.870337 0.095948 -0.036480 199660.000000 0 0 1
-35.990478 -19.169906 32.525172 52.160202 0.489416 0.897504 0.097917 -0.039789 142690.000000 0 0 1
-36.684068 -20.537706 32.829190 53.341110 0.510377 0.907830 0.095579 -0.040788 363042.000000 0 0 1
-35.726766 -21.560306 32.623630 52.967442 0.542973 0.907245 0.097183 -0.033563 329154.000000 0 0 1
-36.111768 -22.742806 33.360890 54.168663 0.562036 0.907306 0.096521 -0.029328 -630655.000000 0 0 1
-34.974868 -23.782106 33.357079 53.865803 0.597161 0.902993 0.086483 -0.027948 668847.000000 0 0 1
-33.858288 -23.575006 -33.372431 53.064902 0.608228 2.250932 0.071368 -0.034104 465573.000000 0 0 1
-33.035078 -22.448606 -33.591401 52.188491 0.596861 2.270061 0.071812 -0.030469 -818907.000000 0 0 1
-31.749688 -22.336306 -32.754601 50.791901 0.613080 2.271661 0.063668 -0.021733 -552654.000000 0 0 1
-30.724238 -23.243906 -33.120841 50.805985 0.647669 2.280895 0.054867 -0.014591 404484.000000 0 0 1
-29.509318 -22.846206 -32.476121 49.471684 0.658812 2.286911 0.063467 -0.015225 438697.000000 0 0 1
-29.345108 -23.516906 -31.102051 48.800798 0.675589 2.261820 0.074737 -0.006114 -927249.000000 0 0 1
-29.211508 -24.948406 -31.042061 49.389723 0.706847 2.250436 0.078128 -0.014492 48180.100000 0 0 1
-28.742338 -25.368296 -29.777421 48.542428 0.723124 2.231194 0.067329 -0.017162 -311565.000000 0 0 1
-28.344238 -26.794456 -29.619801 48.976233 0.757299 2.220285 0.068786 -0.013859 -272009.000000 0 0 1
-29.384118 -27.722066 -29.764581 50.178379 0.756302 2.205794 0.061192 -0.008864 -64531.300000 0 0 1
-29.100938 -28.897176 -29.018321 50.239172 0.781885 2.186586 0.065919 -0.008957 196169.000000 0 0 1
-29.917628 -30.151606 -29.446131 51.684219 0.789293 2.176976 0.070663 0.002582 26556.100000 0 0 1
-29.514768 -30.603236 -30.733351 52.461591 0.803502 2.196695 0.074140 -0.015080 260266.000000 0 0 1
-29.783968 -31.960646 -30.961361 53.545995 0.820636 2.187342 0.091711 -0.011294 -270237.000000 0 0 1
-29.255588 -32.510806 -32.296351 54.368155 0.838052 2.206856 0.077802 -0.023132 358088.000000 0 0 1
-27.844688 -32.526966 -32.481051 53.743362 0.862801 2.219775 0.080488 -0.025330 171025.000000 0 0 1
-27.563918 -32.750516 33.734249 54.501060 0.871180 0.903372 0.089552 -0.030159 124380.000000 0 0 1
-26.065978 -33.012926 33.440386 53.735909 0.902448 0.899106 0.088072 -0.032629 167219.000000 0 0 1
-25.735158 -33.486676 32.179266 53.095772 0.915548 0.919698 0.079342 -0.028268 -178230.000000 0 0 1
-24.547008 33.431379 32.240837 52.532697 -0.937451 0.910021 0.069056 -0.018016 -181523.000000 0 0 1
-24.309508 32.548752 31.024919 51.116720 -0.929305 0.918588 0.062023 -0.021741 -113343.000000 0 0 1
-25.297798 31.528134 30.914239 50.889017 -0.894601 0.917908 0.078975 -0.041186 181087.000000 0 0 1
-25.253928 30.793234 29.697659 49.678316 -0.883911 0.930043 0.073117 -0.034791 18542.000000 0 0 1
-26.663208 30.292694 29.274529 49.855512 -0.849037 0.943217 0.077785 -0.035131 318954.000000 0 0 1
-27.181948 29.268324 30.149239 50.044677 -0.822341 0.924234 0.079114 -0.037227 96629.300000 0 0 1
-28.556468 29.093214 29.881329 50.544840 -0.794708 0.938270 0.079701 -0.045599 188585.000000 0 0 1
-29.203798 28.015854 30.774699 50.841243 -0.764640 0.920641 0.082796 -0.048564 187165.000000 0 0 1
-28.504188 26.778974 30.559959 49.633792 -0.754201 0.907511 0.079703 -0.041585 151953.000000 0 0 1
-29.153628 25.657354 31.068239 49.733986 -0.721697 0.896064 0.085825 -0.035805 624417.000000 0 0 1
-30.264678 25.011414 30.160259 49.509219 -0.690646 0.915764 0.090364 -0.031229 622781.000000 0 0 1
-29.662758 24.518524 28.972269 48.170838 -0.690737 0.925484 0.087187 -0.028953 110754.000000 0 0 1
-30.556788 23.763894 28.123839 47.847574 -0.660992 0.942484 0.086990 -0.027585 393373.000000 0 0 1
-29.860988 23.303224 26.815389 46.408878 -0.662669 0.954757 0.090336 -0.036483 108911.000000 0 0 1
-28.789968 22.420784 27.108239 45.457788 -0.661662 0.931864 0.079024 -0.028759 -690369.000000 0 0 1
-28.138488 22.280684 25.925979 44.275951 -0.669735 0.945232 0.075591 -0.028424 -955710.000000 0 0 1
-26.670708 21.847784 26.041849 43.206831 -0.686320 0.923884 0.089793 -0.023935 -383437.000000 0 0 1
-26.483888 20.663584 26.826179 42.988649 -0.662571 0.896908 0.113964 -0.027963 612861.000000 0 0 1
-25.148128 20.163284 26.905199 41.986618 -0.675826 0.875251 0.094539 -0.021469 402823.000000 0 0 1
-25.251348 18.815684 27.646419 41.904475 -0.640381 0.850312 0.117810 -0.023599 24464.200000 0 0 1
-24.000108 18.186684 27.812529 40.991431 -0.648459 0.825083 0.106290 -0.014919 247035.000000 0 0 1
-24.147208 17.014784 28.679569 41.171692 -0.613825 0.800170 0.102877 -0.018407 -573875.000000 0 0 1
-22.888508 16.162284 28.736079 40.135589 -0.614829 0.772777 0.088189 -0.022499 -1096390.000000 0 0 1
-22.010808 16.617484 29.711389 40.538662 -0.646674 0.748200 0.105366 -0.020970 -112055.000000 0 0 1
-20.817208 15.820184 29.573189 39.474142 -0.649843 0.723975 0.083595 -0.024423 414906.000000 0 0 1
-19.633208 16.360784 30.380759 39.700487 -0.694732 0.699368 0.071337 -0.030050 -356652.000000 0 0 1
-19.738508 16.052784 31.777630 40.707719 -0.682782 0.675125 0.063636 -0.028832 918286.000000 0 0 1
-18.557608 16.435284 32.519540 40.890389 -0.724822 0.651318 0.058720 -0.033447 287642.000000 0 0 1
-18.684008 16.033784 -33.536681 41.603887 -0.709210 2.508320 0.051409 -0.037346 640495.000000 0 0 1
-19.589808 16.845984 -32.745061 41.710752 -0.710234 2.473575 0.068656 -0.034191 2325290.000000 0 0 1
-21.019708 16.673484 -32.999961 42.530350 -0.670600 2.458962 0.074140 -0.031844 1781760.000000 0 0 1
-22.024208 17.555084 -32.172691 42.758961 -0.672959 2.422524 0.082378 -0.034802 373698.000000 0 0 1
-22.089308 17.148384 -30.829081 41.622552 -0.660135 2.404881 0.085369 -0.031618 257230.000000 0 0 1
-23.112008 17.797784 -30.085701 41.905554 -0.656220 2.371636 0.098450 -0.031481 -293490.000000 0 0 1
-23.307908 17.258084 -28.595471 40.728381 -0.637354 2.349141 0.096924 -0.028292 229141.000000 0 0 1
-24.018608 16.037684 -28.460641 40.547613 -0.588731 2.348867 0.098049 -0.029973 -376369.000000 0 0 1
-25.371608 16.067584 -28.812431 41.617808 -0.564538 2.335482 0.104659 -0.027904 -811887.000000 0 0 1
-26.354128 15.233084 -27.989841 41.352366 -0.524097 2.314287 0.097244 -0.022300 -30992.400000 0 0 1
-26.137708 13.832284 -28.072401 40.774644 -0.486740 2.330183 0.078225 -0.019876 -358131.000000 0 0 1
-27.138398 13.162884 -27.371521 40.730263 -0.451598 2.307729 0.054661 -0.016539 -288352.000000 0 0 1
-27.059028 11.599484 -27.307891 40.155448 -0.404978 2.318633 0.066800 -0.019027 889144.000000 0 0 1
-26.050618 11.042684 -26.393061 38.693272 -0.400933 2.321440 0.061009 -0.015206 990480.000000 0 0 1
-25.097368 10.236184 -27.074641 38.310489 -0.387263 2.355642 0.053243 -0.008860 787825.000000 0 0 1
-23.936208 9.670984 -26.162071 36.754918 -0.383977 2.362851 0.103179 -0.012245 600775.000000 0 0 1
-24.299808 8.495484 -25.445781 36.195880 -0.336328 2.350406 0.086897 -0.018031 395536.000000 0 0 1
-23.235508 8.012784 -24.628541 34.794520 -0.332080 2.357215 0.132001 -0.014090 259176.000000 0 0 1
-23.672508 7.055284 -23.534041 34.117675 -0.289655 2.331996 0.123796 -0.006821 8083.460000 0 0 1
-24.316008 5.868184 -23.925141 34.613816 -0.236802 2.333947 0.117506 -0.020105 309785.000000 0 0 1
-24.629608 5.022584 -22.811741 33.944359 -0.201166 2.307748 0.112940 -0.018546 -76290.000000 0 0 1
36.160380 24.353594 -9.658841 44.653822 0.592710 1.788825 0.045276 0.007518 272246.000000 0 0 1
36.777690 23.854094 -8.457241 44.644610 0.575392 1.761383 0.065062 0.001865 -81146.800000 0 0 1
-37.509308 23.536694 -8.648941 45.119046 -0.560387 1.763682 0.083509 0.001375 -107306.000000 0 0 1
-36.746408 23.000994 -7.426241 43.982875 -0.559274 1.740453 0.122387 0.001450 -442724.000000 0 0 1
-37.272168 21.816494 -6.954541 43.744023 -0.529562 1.730456 0.084899 -0.005015 -598050.000000 0 0 1
-36.378858 21.009694 -6.273441 42.475695 -0.523730 1.719033 0.152825 -0.013792 -599472.000000 0 0 1
-36.959918 19.928794 -5.287541 42.321986 -0.494514 1.696060 0.115783 0.000582 75302.100000 0 0 1
-37.547558 18.761594 -5.914041 42.388588 -0.463388 1.710773 0.071686 0.007794 587996.000000 0 0 1
37.543900 17.891994 -4.948941 41.882692 0.444722 1.689235 0.086648 -0.011879 -399580.000000 0 0 1
36.897020 16.689594 -5.592941 40.880479 0.424789 1.708039 0.070097 -0.000923 -367943.000000 0 0 1
35.822990 17.125594 -6.376741 40.214865 0.445943 1.730035 0.071232 -0.006470 -305162.000000 0 0 1
35.176690 16.100594 -7.076841 39.328238 0.429244 1.751725 0.080060 -0.008430 484344.000000 0 0 1
34.102510 16.542494 -8.122941 38.763610 0.451642 1.781912 0.053352 -0.015527 348427.000000 0 0 1
33.432520 15.516094 -8.800841 37.893764 0.434519 1.805187 0.070534 -0.020020 -204278.000000 0 0 1
32.783460 15.979494 -9.927441 37.797533 0.453537 1.836562 0.058662 -0.019041 -627275.000000 0 0 1
32.219800 14.855594 -10.811841 37.090431 0.432022 1.866590 0.066304 -0.024513 -88787.400000 0 0 1
31.111930 14.066794 -10.418641 35.698388 0.424628 1.866959 0.070759 -0.018663 249048.000000 0 0 1
31.103470 13.496394 -9.112341 35.108592 0.409401 1.833350 0.087026 -0.016851 -1179320.000000 0 0 1
30.198440 12.324894 -8.976141 33.829275 0.387495 1.839349 0.095921 -0.007413 -560432.000000 0 0 1
30.728140 11.146994 -9.594541 34.066542 0.347998 1.856300 0.101526 -0.007440 129977.000000 0 0 1
29.833340 10.083394 -9.454441 32.879925 0.325936 1.862458 0.146383 -0.010163 -242276.000000 0 0 1
30.401140 8.680894 -9.955341 33.146584 0.278143 1.875848 0.152420 -0.004399 305978.000000 0 0 1
31.609170 8.292794 -9.303241 33.977350 0.256572 1.848146 0.136074 -0.016085 567300.000000 0 0 1
31.614290 6.896094 -9.036041 33.595676 0.214768 1.843114 0.166009 -0.022664 -373189.000000 0 0 1
32.723850 6.510494 -8.053941 34.323503 0.196388 1.807653 0.175022 -0.018838 -534435.000000 0 0 1
34.004590 6.835694 -8.526441 35.717489 0.198379 1.811843 0.140034 -0.016793 -392815.000000 0 0 1
34.955130 6.276794 -7.635541 36.325758 0.177674 1.782572 0.143167 -0.023528 606236.000000 0 0 1
36.413850 6.441494 -8.200341 37.877525 0.175086 1.789020 0.136829 -0.019654 638932.000000 0 0 1
36.618660 5.718294 -9.385141 38.232264 0.154907 1.818808 0.129251 -0.021900 -497817.000000 0 0 1
-37.658508 5.780494 -9.659241 39.304940 -0.152309 1.819091 0.117543 -0.019888 -1136580.000000 0 0 1
-37.194898 4.969494 -10.883941 39.071940 -0.132820 1.853092 0.119895 -0.025041 -1099080.000000 0 0 1
-35.854426 4.651294 -11.009941 37.794090 -0.129007 1.866396 0.150288 -0.035290 -141372.000000 0 0 1
-35.063282 5.596894 -11.772741 37.407973 -0.158287 1.890950 0.153380 -0.035487 256066.000000 0 0 1
-34.292175 6.674194 -10.864341 36.585954 -0.192224 1.872297 0.141629 -0.019607 -767887.000000 0 0 1
-35.032514 7.619094 -10.163941 37.264371 -0.214151 1.847049 0.126432 -0.013585 -53283.100000 0 0 1
-35.457804 8.728894 -10.976041 38.130342 -0.241377 1.862783 0.125078 -0.023400 255861.000000 0 0 1
-36.536998 9.543994 -10.165841 39.107345 -0.255505 1.833764 0.110471 -0.021545 561981.000000 0 0 1
-35.974898 10.219094 -9.055841 38.478974 -0.276771 1.808370 0.114872 -0.014058 -211817.000000 0 0 1
-36.924838 11.039494 -8.443541 39.453865 -0.290513 1.786475 0.105424 -0.021751 -384544.000000 0 0 1
-36.355418 11.901394 -7.287941 38.941927 -0.316367 1.759055 0.110307 -0.026698 211281.000000 0 0 1
-35.415973 12.920894 -7.585041 38.454824 -0.349827 1.769344 0.111012 -0.022439 89793.500000 0 0 1
-35.415578 13.905294 -6.595041 38.614958 -0.374139 1.742428 0.130970 -0.021751 -155317.000000 0 0 1
-34.518473 15.109694 -6.853241 38.298757 -0.412602 1.750707 0.109230 -0.007684 -160276.000000 0 0 1
-34.920452 15.922594 -7.952241 39.194453 -0.427805 1.775107 0.075538 -0.004396 -75671.300000 0 0 1
-34.446862 17.260294 -7.874141 39.325643 -0.464503 1.772388 0.069338 -0.001326 -147308.000000 0 0 1
-34.999897 18.173594 -8.968941 40.443964 -0.478926 1.794418 0.067940 -0.004147 274334.000000 0 0 1
-34.329846 18.085894 -10.236241 40.130020 -0.484878 1.828724 0.052334 0.000503 457237.000000 0 0 1
-35.247425 18.586994 -11.209941 41.394687 -0.485271 1.845027 0.038661 -0.009019 -70365.600000 0 0 1
-34.724479 18.561194 -12.659341 41.358993 -0.490887 1.881874 0.012023 0.010460 299019.000000 0 0 1
-33.797818 19.589794 -13.044741 41.185165 -0.525297 1.893081 0.031022 0.004541 477497.000000 0 0 1
-33.416048 19.514294 -14.437641 41.302366 -0.528557 1.927897 0.002658 0.006546 118994.000000 0 0 1
-32.462208 20.701194 -14.890441 41.280257 -0.567681 1.939832 0.027363 0.010000 785950.000000 0 0 1
-31.160748 20.519194 -14.291441 39.953408 -0.582324 1.936603 0.047580 0.009899 1059360.000000 0 0 1
-30.456638 21.765394 -14.056041 39.986391 -0.620481 1.929991 0.051151 -0.004367 330881.000000 0 0 1
-29.753408 22.402894 -15.315941 40.270746 -0.645388 1.960943 0.064733 -0.011741 -854858.000000 0 0 1
-30.548298 22.971194 -16.332141 41.564566 -0.644756 1.974617 0.054182 0.003555 73651.100000 0 0 1
-29.818808 23.518294 -17.446841 41.793106 -0.667817 2.001442 0.068377 0.007321 227450.000000 0 0 1
-29.151548 24.913994 -17.217941 42.035430 -0.707180 1.992818 0.083345 0.003222 -424177.000000 0 0 1
-30.087818 25.923794 -17.016741 43.207515 -0.711192 1.975599 0.101728 -0.010427 -179170.000000 0 0 1
-29.515038 27.190894 -17.287441 43.695970 -0.744435 1.977550 0.103589 -0.020421 -446676.000000 0 0 1
-30.329048 28.368794 -16.889441 44.831829 -0.752015 1.957059 0.108033 -0.028261 -559699.000000 0 0 1
-30.450158 28.638094 -15.479541 44.575428 -0.754741 1.925451 0.100590 -0.031946 -492706.000000 0 0 1
-29.409128 29.425494 -15.059641 44.244201 -0.785676 1.918113 0.088939 -0.023443 -822741.000000 0 0 1
-29.445148 29.954494 -13.616141 44.155269 -0.793973 1.884275 0.098503 -0.019768 1291100.000000 0 0 1
-30.613668 30.832494 -13.369641 45.459726 -0.788959 1.869309 0.074055 -0.015474 1400680.000000 0 0 1
-30.479388 31.780794 -12.336641 45.729691 -0.806298 1.843954 0.068762 -0.013379 142517.000000 0 0 1
-29.322198 32.835994 -12.343741 45.720474 -0.841868 1.844171 0.074459 -0.020631 297844.000000 0 0 1
-29.528438 33.792194 -13.341041 46.816924 -0.852633 1.859763 0.067118 -0.032402 281918.000000 0 0 1
-28.518138 -32.869797 -13.375041 45.525811 0.856168 1.868986 0.105990 -0.032618 461147.000000 0 0 1
-28.547588 -32.074597 -14.728241 45.394555 0.843513 1.901226 0.085420 -0.033906 177559.000000 0 0 1
-27.849758 -32.644997 -15.846441 45.742918 0.864500 1.924553 0.084301 -0.029487 164441.000000 0 0 1
-28.078968 -31.772997 -16.957041 45.667199 0.847039 1.951224 0.081282 -0.016630 364670.000000 0 0 1
-27.267288 -32.202397 -18.246941 45.972277 0.868194 1.978946 0.082390 -0.016621 228664.000000 0 0 1
-27.667228 -33.439797 -18.793841 47.295920 0.879585 1.979442 0.086350 -0.012270 70619.500000 0 0 1
-27.068768 33.134894 -18.144941 46.474491 -0.885819 1.971893 0.085221 -0.025754 -529381.000000 0 0 1
-27.309808 31.794994 -18.846341 45.955759 -0.861138 1.993357 0.102882 -0.033494 356814.000000 0 0 1
-28.602928 31.223794 -18.971541 46.400131 -0.829178 1.992010 0.120092 -0.033488 352200.000000 0 0 1
-29.456748 31.882594 -19.900241 47.751643 -0.824926 2.000658 0.119374 -0.029532 942427.000000 0 0 1
-31.007458 31.614894 -19.764641 48.493350 -0.795098 1.990592 0.118243 -0.037540 1075270.000000 0 0 1
-31.392188 30.280894 -20.106241 48.027731 -0.767381 2.002742 0.118832 -0.036952 633479.000000 0 0 1
-32.810328 30.205894 -20.253941 48.980974 -0.744092 1.997098 0.131418 -0.033993 633722.000000 0 0 1
-33.297548 28.851094 -20.970441 48.794177 -0.713974 2.015038 0.128601 -0.034263 315356.000000 0 0 1
-34.689790 28.627894 -21.191641 49.719448 -0.689951 2.011111 0.128600 -0.028691 684852.000000 0 0 1
-34.857308 27.338994 -21.706741 49.331887 -0.665101 2.026411 0.114333 -0.018316 162273.000000 0 0 1
-36.356998 26.989194 -21.864841 50.282394 -0.638580 2.020658 0.098038 -0.021679 582125.000000 0 0 1
-37.164008 27.691694 -22.843641 51.670353 -0.640371 2.028739 0.105204 -0.019330 -236373.000000 0 0 1
37.348810 26.921594 -23.072841 51.498173 0.624560 2.035359 0.094821 -0.011211 -492450.000000 0 0 1
36.478880 27.458094 -24.245541 51.696246 0.645235 2.058955 0.103909 -0.014084 11257.500000 0 0 1
37.176310 27.298094 -25.436651 52.671502 0.633369 2.074794 0.133996 -0.027065 -207153.000000 0 0 1
36.399480 27.647994 -26.575881 52.873539 0.649599 2.097436 0.131496 -0.027444 59759.800000 0 0 1
37.169240 27.796494 -27.918611 54.163145 0.642115 2.112334 0.135385 -0.023878 215252.000000 0 0 1
37.674180 26.576994 -28.402441 54.151446 0.614370 2.122924 0.099547 -0.006126 2222.090000 0 0 1
-37.016278 26.801594 -29.443791 54.364208 -0.626684 2.143139 0.081339 -0.006464 -181944.000000 0 0 1
-36.415618 25.545794 -30.110811 53.715415 -0.611736 2.165860 0.074239 -0.003779 776631.000000 0 0 1
-35.442554 24.810594 -29.363191 52.287065 -0.610741 2.167086 0.067062 0.000445 20235.000000 0 0 1
-34.190174 25.426194 -29.123371 51.610368 -0.639437 2.170373 0.050005 0.006196 59678.900000 0 0 1
-33.332298 24.344594 -28.333521 50.064856 -0.630813 2.172365 0.035275 0.002564 119025.000000 0 0 1
-33.230668 23.159994 -29.082261 49.864221 -0.608674 2.193495 0.030165 -0.001902 -80796.700000 0 0 1
-33.364738 22.057194 -28.142551 48.905304 -0.584134 2.183950 0.024463 0.000775 32943.000000 0 0 1
-32.891528 20.690094 -28.739511 48.331068 -0.561499 2.207612 0.036363 -0.005445 -72772.600000 0 0 1
-31.504198 20.457694 -28.695891 47.270349 -0.575928 2.223151 0.083265 -0.015883 -228181.000000 0 0 1
-31.216788 19.104194 -29.104041 46.760061 -0.549185 2.242617 0.077631 -0.016211 -324495.000000 0 0 1
-29.771808 18.663494 -29.358681 45.788849 -0.559954 2.266825 0.095435 -0.021150 -597876.000000 0 0 1
-29.223738 19.415294 -30.471141 46.470108 -0.586409 2.285925 0.102485 -0.020128 1013750.000000 0 0 1
-27.880438 18.923794 -30.733671 45.606878 -0.596320 2.310247 0.114790 -0.025829 1147890.000000 0 0 1
-27.673898 17.533394 -31.434521 45.402573 -0.564739 2.335539 0.109022 -0.026651 -495191.000000 0 0 1
-27.976218 16.426194 -30.556021 44.566345 -0.530916 2.326265 0.079501 -0.019185 -75075.600000 0 0 1
-28.375578 15.304794 -31.299941 44.934357 -0.494641 2.341403 0.055429 -0.018395 -215027.000000 0 0 1
-28.869288 14.081994 -30.552271 44.330347 -0.453828 2.331174 0.055692 -0.020541 -512276.000000 0 0 1
-30.220048 14.087594 -30.185801 44.976596 -0.436217 2.306548 0.048722 -0.018628 76405.000000 0 0 1
-30.911898 12.814594 -30.193971 45.071445 -0.392988 2.304889 0.039050 -0.012111 160994.000000 0 0 1
-30.650598 11.912994 -28.976561 43.829439 -0.370702 2.293108 0.027258 -0.022217 -391672.000000 0 0 1
-30.832588 12.524194 -27.728961 43.317424 -0.385840 2.265469 0.007835 -0.016541 253051.000000 0 0 1
-31.148208 11.638394 -26.680741 42.632441 -0.357583 2.246994 0.016813 -0.008817 12590.900000 0 0 1
-31.161948 12.378394 -25.376131 42.050442 -0.378114 2.218641 0.016217 -0.010923 84016.000000 0 0 1
-29.834248 12.455794 -24.908141 40.812310 -0.395501 2.227248 0.031145 -0.015598 -123943.000000 0 0 1
-29.702278 13.064294 -23.640441 40.146875 -0.414374 2.200430 0.031444 -0.004150 -948629.000000 0 0 1
-28.247328 13.355894 -23.398541 39.035666 -0.441668 2.213566 0.059692 -0.005852 -1403460.000000 0 0 1
-27.629598 14.369594 -24.221941 39.453547 -0.479582 2.231833 0.074898 -0.009406 702002.000000 0 0 1
-26.239628 14.554094 -23.954841 38.394976 -0.506415 2.244527 0.082345 -0.012289 604425.000000 0 0 1
-25.900288 15.144994 -22.548241 37.531573 -0.529125 2.215274 0.090359 -0.011761 -907797.000000 0 0 1
-26.344618 16.433394 -22.303941 38.230369 -0.557726 2.193716 0.115169 -0.013106 -68980.900000 0 0 1
-26.426898 16.678194 -20.882841 37.585052 -0.562979 2.159900 0.113025 -0.005234 136105.000000 0 0 1
-27.887588 16.889594 -20.418441 38.469322 -0.544550 2.130308 0.099808 -0.006597 -71449.400000 0 0 1
-28.636218 15.714594 -20.477841 38.552865 -0.501896 2.130769 0.091733 -0.005007 881987.000000 0 0 1
-29.846568 15.878894 -19.673141 39.115079 -0.488932 2.097811 0.084163 -0.005135 746603.000000 0 0 1
-30.956778 14.794894 -19.895841 39.661764 -0.445829 2.096287 0.044404 -0.012271 368088.000000 0 0 1
-31.495898 14.628694 -21.220841 40.697843 -0.434816 2.119316 0.037778 -0.008303 379928.000000 0 0 1
-32.169848 15.804094 -21.670541 41.884136 -0.456640 2.114598 0.023899 -0.000667 -518459.000000 0 0 1
-32.647638 15.713594 -23.147841 42.995440 -0.448583 2.139309 0.015278 -0.001561 1126960.000000 0 0 1
-33.850608 14.904694 -23.360741 43.746289 -0.414765 2.134127 0.020155 -0.002987 1097420.000000 0 0 1
-34.462771 15.160194 -24.593341 44.970507 -0.414424 2.149426 0.019342 -0.006374 -403265.000000 0 0 1
-35.813805 14.463894 -24.711741 45.853059 -0.383833 2.139967 0.030282 -0.008998 -494265.000000 0 0 1
-35.783045 13.053294 -24.980141 45.550217 -0.349789 2.151257 0.029106 -0.005999 70288.600000 0 0 1
-35.242264 12.233794 -23.952241 44.332750 -0.334119 2.141570 0.022902 -0.004036 -127295.000000 0 0 1
-35.202353 10.811194 -24.507541 44.234683 -0.297972 2.157999 0.034153 -0.014893 565028.000000 0 0 1
-36.536888 10.367194 -24.776941 45.346662 -0.276479 2.148844 0.045336 -0.008293 427315.000000 0 0 1
-36.535878 9.153094 -25.453641 45.459184 -0.245471 2.165089 0.043851 -0.001945 -626769.000000 0 0 1
37.795980 8.585794 -25.978681 46.659874 0.223371 2.161285 0.070627 -0.002035 -672266.000000 0 0 1
37.050610 7.943494 -24.955741 45.372192 0.211199 2.153188 0.052000 0.002060 -520016.000000 0 0 1
36.016000 7.296094 -25.632871 44.804345 0.199874 2.179869 0.067472 0.002210 -492331.000000 0 0 1
35.046540 6.463694 -24.796041 43.415239 0.182382 2.178686 0.080913 -0.003921 -58346.200000 0 0 1
35.702650 5.359594 -24.244241 43.487788 0.149005 2.162162 0.067109 -0.005166 -369208.000000 0 0 1
34.833490 4.490294 -23.628341 42.330051 0.128200 2.163003 0.080431 -0.010009 -368175.000000 0 0 1
35.606880 3.486594 -22.778241 42.412905 0.097608 2.137743 0.078271 -0.013332 7279.050000 0 0 1
36.148730 2.419994 -23.521541 43.195485 0.066846 2.146633 0.079690 -0.010667 146460.000000 0 0 1
37.282960 1.863294 -22.876941 43.781793 0.049936 2.120602 0.118329 -0.014156 186122.000000 0 0 1
-37.749668 0.642694 -23.576041 44.511574 -0.017023 2.128997 0.134735 -0.021121 15884.800000 0 0 1
36.948830 -0.373406 -23.850541 43.979584 -0.010106 2.143980 0.096930 -0.031367 51918.200000 0 0 1
37.599390 -1.619706 -24.075041 44.676002 -0.043051 2.139904 0.113238 -0.031542 292511.000000 0 0 1
-23.740308 28.701694 26.760679 45.864184 -0.879724 0.947793 0.045541 -0.022558 -49718.000000 0 0 1
-24.956008 29.101194 26.120189 46.389073 -0.861930 0.972703 0.040572 -0.026805 951870.000000 0 0 1
-25.335848 28.324294 24.965329 45.469094 -0.841033 0.989555 0.035454 -0.008454 -142014.000000 0 0 1
-25.810888 26.857094 25.173129 44.957667 -0.805260 0.976495 0.043699 -0.023096 -53855.600000 0 0 1
-27.120728 26.701994 25.709759 45.929534 -0.777618 0.976694 0.050234 -0.021439 452866.000000 0 0 1
-27.200628 26.841394 27.138689 46.870492 -0.778751 0.953277 0.053664 -0.023501 -724151.000000 0 0 1
-26.729418 25.620494 28.000169 46.420695 -0.764218 0.923311 0.066818 -0.015601 -355691.000000 0 0 1
-25.353948 25.655194 28.252029 45.816905 -0.791304 0.906343 0.076409 -0.014532 -701336.000000 0 0 1
-25.013078 26.236394 29.473259 46.719112 -0.809263 0.888134 0.070559 -0.019132 225509.000000 0 0 1
-23.530308 26.002894 29.855449 46.056202 -0.835274 0.865526 0.089491 -0.012985 473126.000000 0 0 1
-22.525708 26.717894 29.108959 45.481698 -0.870325 0.876279 0.092011 -0.017681 1251260.000000 0 0 1
-21.163608 26.548994 29.528719 44.996585 -0.897794 0.854967 0.118474 -0.026688 1185460.000000 0 0 1
-20.447308 25.161694 29.445649 43.797825 -0.888398 0.833474 0.122425 -0.015436 -210995.000000 0 0 1
-19.957808 24.912194 28.141799 42.554581 -0.895369 0.848232 0.111401 -0.018509 56378.200000 0 0 1
-20.924308 24.140994 27.460049 42.126815 -0.856656 0.860785 0.120551 -0.027317 154236.000000 0 0 1
-20.800308 22.574894 27.476639 41.197625 -0.826288 0.840692 0.121956 -0.004668 35199.900000 0 0 1
-21.124708 21.843194 28.639899 41.756703 -0.802118 0.814990 0.092544 -0.008122 -82834.600000 0 0 1
-21.065008 20.428594 28.441079 40.865107 -0.770062 0.801020 0.100062 -0.004590 175499.000000 0 0 1
-21.292108 19.718494 29.770509 41.574705 -0.747046 0.772637 0.099179 -0.012222 603715.000000 0 0 1
-20.201008 20.005194 30.661219 41.813860 -0.780528 0.747664 0.087242 -0.021699 597600.000000 0 0 1
-20.586108 19.701894 31.979402 42.832635 -0.763454 0.727840 0.082111 -0.025039 -410091.000000 0 0 1
-19.595808 20.154094 33.022635 43.366780 -0.799442 0.705214 0.096580 -0.024050 -868691.000000 0 0 1
-19.722608 21.556794 33.151116 44.189061 -0.829802 0.722415 0.065251 -0.021483 818677.000000 0 0 1
-18.699008 22.336794 32.473755 43.624879 -0.873816 0.731181 0.079915 -0.020732 473807.000000 0 0 1
-17.302608 22.365694 33.102125 43.535677 -0.912347 0.706953 0.083336 -0.005465 -293933.000000 0 0 1
-16.587208 21.141894 33.061342 42.604782 -0.905538 0.682496 0.092483 -0.020520 -478178.000000 0 0 1
-15.275808 21.363594 33.512839 42.577739 -0.950048 0.664707 0.067841 -0.014895 -742372.000000 0 0 1
-14.424108 20.071594 33.279381 41.454083 -0.947674 0.638818 0.059809 -0.021143 925051.000000 0 0 1
-13.036208 20.137194 33.664119 41.336693 -0.996272 0.619122 0.045895 -0.022095 922639.000000 0 0 1
-12.858808 20.140394 -32.513421 40.349807 -1.002577 2.507802 0.056310 -0.020676 -79188.300000 0 0 1
-11.348608 20.172294 -32.164211 39.626365 -1.058343 2.517831 0.053379 -0.021603 325229.000000 0 0 1
-10.601508 21.282894 -32.552621 40.311620 -1.108651 2.510739 0.060179 -0.019476 -234271.000000 0 0 1
-9.303308 21.249394 -31.998491 39.522041 -1.158121 2.514329 0.059090 -0.021054 329435.000000 0 0 1
-8.480008 22.604394 -32.072051 40.143313 -1.211895 2.496325 0.059481 -0.025924 300778.000000 0 0 1
-8.698508 23.618194 -31.089771 40.000712 -1.217915 2.461048 0.061857 -0.025849 150315.000000 0 0 1
-8.098808 23.273594 -29.833601 38.694891 -1.235920 2.451200 0.060898 -0.033931 59070.600000 0 0 1
-7.749508 24.428694 -28.921101 38.642542 -1.263608 2.416483 0.069201 -0.030345 -872302.000000 0 0 1
-6.714608 25.158994 -29.404911 39.277344 -1.309988 2.416817 0.078989 -0.023106 -1055070.000000 0 0 1
-6.291608 26.237394 -28.603801 39.321274 -1.335445 2.385378 0.088486 -0.019025 697810.000000 0 0 1
-4.793408 26.567194 -28.907381 39.552866 -1.392291 2.390369 0.098006 -0.027987 -137348.000000 0 0 1
-3.816108 25.684694 -28.463121 38.528112 -1.423300 2.402029 0.115486 -0.022989 800329.000000 0 0 1
-2.556008 25.739094 -29.176501 38.991055 -1.471816 2.416272 0.126145 -0.023177 1499550.000000 0 0 1
-1.602408 26.976394 -28.968041 39.616170 -1.511466 2.390902 0.140359 -0.039309 67027.600000 0 0 1
-0.874508 27.007394 -27.724311 38.714358 -1.538427 2.369031 0.158307 -0.059389 242234.000000 0 0 1
-0.343208 28.225594 -27.405801 39.343104 -1.558637 2.341422 0.165946 -0.053524 -1275130.000000 0 0 1
0.114692 28.356894 -25.935821 38.429070 1.566752 2.311627 0.169007 -0.062728 610731.000000 0 0 1
1.355692 27.766094 -25.540571 37.750690 1.522010 2.313876 0.210752 -0.075025 1216540.000000 0 0 1
2.532892 28.164294 -26.278561 38.603183 1.481105 2.319563 0.207132 -0.077420 -67314.900000 0 0 1
3.756792 28.176194 -25.342441 38.082157 1.438246 2.298916 0.193044 -0.076335 -291297.000000 0 0 1
4.352992 26.956994 -25.079441 37.075685 1.410699 2.313713 0.197782 -0.066990 40457.900000 0 0 1
5.531292 27.127694 -24.313141 36.846109 1.369655 2.291424 0.165139 -0.054586 352020.000000 0 0 1
6.155692 25.842894 -23.670941 35.581753 1.336957 2.298632 0.148023 -0.046146 585435.000000 0 0 1
7.389792 26.136794 -23.008641 35.596890 1.295253 2.273609 0.136360 -0.044079 334516.000000 0 0 1
8.064892 24.945294 -22.614041 34.622319 1.258100 2.282551 0.119062 -0.029062 61906.400000 0 0 1
9.538492 25.149494 -22.248241 34.906505 1.208286 2.261872 0.107823 -0.008876 -882419.000000 0 0 1
9.735892 25.881294 -21.003741 34.724431 1.210996 2.220398 0.108657 -0.011752 810339.000000 0 0 1
11.059292 26.455594 -20.988941 35.535081 1.174842 2.202666 0.116300 -0.016805 668087.000000 0 0 1
12.199292 25.575794 -20.520041 34.985940 1.125729 2.197555 0.086297 0.004205 -782534.000000 0 0 1
12.471292 24.509794 -21.380541 34.833757 1.100111 2.231646 0.075619 -0.005424 -223206.000000 0 0 1
12.378592 23.327694 -20.679341 33.541705 1.082939 2.235119 0.058991 0.001245 -357899.000000 0 0 1
12.630292 22.066494 -21.428741 33.251246 1.050938 2.271099 0.064002 -0.016584 -592901.000000 0 0 1
11.850192 21.975594 -22.557641 33.648194 1.076249 2.305540 0.064698 -0.032292 -258185.000000 0 0 1
11.991792 20.723494 -23.250641 33.374520 1.046218 2.341525 0.058212 -0.025332 -69280.200000 0 0 1
11.272692 20.702094 -24.614641 34.081238 1.072171 2.377824 0.068679 -0.027621 -982730.000000 0 0 1
9.908892 20.523594 -24.524741 33.479351 1.120999 2.392832 0.064711 -0.029872 -1219750.000000 0 0 1
9.411992 20.375794 -25.851861 34.235614 1.138074 2.426627 0.057477 -0.029358 1065610.000000 0 0 1
7.846192 20.075294 -25.842731 33.651551 1.198213 2.446432 0.088396 -0.041769 1681870.000000 0 0 1
6.963892 21.154794 -25.497131 33.854465 1.252782 2.423618 0.111228 -0.046256 283755.000000 0 0 1
6.988892 21.621694 -24.162041 33.168456 1.258161 2.386874 0.120495 -0.047514 -8145.390000 0 0 1
5.553792 21.901094 -23.600541 32.672436 1.322446 2.377974 0.158691 -0.051681 648200.000000 0 0 1
4.886992 23.047394 -24.115141 33.713574 1.361850 2.367842 0.154444 -0.049360 -318028.000000 0 0 1
3.511992 22.889594 -23.838841 33.234890 1.418552 2.370692 0.189493 -0.052405 -351248.000000 0 0 1
2.716892 23.950094 -24.565541 34.415902 1.457840 2.365684 0.168026 -0.043497 -755015.000000 0 0 1
1.337092 23.728194 -24.570341 34.183573 1.514506 2.372837 0.198208 -0.065825 -271570.000000 0 0 1
0.649192 24.594794 -25.511681 35.442505 1.544407 2.374317 0.197679 -0.058076 1490460.000000 0 0 1
-0.922408 24.488594 -25.411691 35.302919 -1.533147 2.374337 0.201369 -0.055757 1154060.000000 0 0 1
-1.437208 23.324294 -26.051621 34.996788 -1.509256 2.410433 0.213275 -0.058496 -109055.000000 0 0 1
-2.813308 23.487994 -26.353201 35.413158 -1.451588 2.410079 0.194222 -0.042492 163190.000000 0 0 1
-3.518608 22.267494 -26.945151 35.132080 -1.414077 2.444898 0.174610 -0.046073 -143523.000000 0 0 1
-2.896608 21.831694 -28.157951 35.747495 -1.438888 2.477847 0.206643 -0.064552 -119496.000000 0 0 1
-3.286208 20.593494 -28.615491 35.408156 -1.412555 2.511819 0.159754 -0.058202 -745124.000000 0 0 1
-4.561108 20.401094 -29.419311 36.090223 -1.350842 2.523802 0.120726 -0.039778 -549440.000000 0 0 1
-4.538108 20.910294 -30.741471 37.454944 -1.357083 2.533534 0.120837 -0.041561 -141976.000000 0 0 1
-4.430008 22.287294 -30.961901 38.405569 -1.374585 2.508468 0.146811 -0.045034 -427920.000000 0 0 1
-3.909908 22.729094 -32.302001 39.690280 -1.400441 2.521547 0.125970 -0.037571 -538986.000000 0 0 1
-2.635608 22.218094 -32.552061 39.499706 -1.452724 2.539424 0.121869 -0.038044 -306548.000000 0 0 1
-2.248508 22.467394 33.698439 40.563831 -1.471050 0.590341 0.112860 -0.020590 -301609.000000 0 0 1
-1.055008 21.598494 33.279669 39.688088 -1.521989 0.576216 0.128910 -0.011010 -126803.000000 0 0 1
-1.350408 20.264494 33.013761 38.760569 -1.504256 0.551507 0.112660 -0.008700 845782.000000 0 0 1
-0.213408 19.704294 32.312786 37.847336 -1.559966 0.547619 0.115937 -0.004360 903983.000000 0 0 1
-0.545908 18.313194 31.807926 36.707155 -1.540996 0.522585 0.085515 0.004394 -101564.000000 0 0 1
-1.480908 18.382894 30.781789 35.883735 -1.490411 0.539783 0.071835 0.008356 -314708.000000 0 0 1
-1.783708 17.047194 30.431379 34.926455 -1.466542 0.512954 0.054976 0.010042 161195.000000 0 0 1
-2.831508 16.822794 29.290539 33.896305 -1.404045 0.527393 0.063272 0.021053 776820.000000 0 0 1
-4.173308 17.209194 29.555279 34.454134 -1.332885 0.539793 0.052731 0.009571 226062.000000 0 0 1
-4.508208 18.450694 28.951519 34.625749 -1.331154 0.580612 0.058187 0.006547 466817.000000 0 0 1
-6.024708 18.795694 29.037029 35.110173 -1.260607 0.597000 0.035345 -0.002493 735671.000000 0 0 1
-6.866808 18.002294 28.246099 34.191779 -1.206391 0.598631 0.033285 -0.000634 -9519.240000 0 0 1
-8.265308 18.223394 28.386169 34.730131 -1.144990 0.614025 0.043676 -0.006419 315129.000000 0 0 1
-8.991008 17.151394 27.528539 33.657525 -1.087965 0.613042 0.046478 -0.009567 -92115.700000 0 0 1
-9.233608 15.896894 28.086909 33.568515 -1.044582 0.579560 0.054612 -0.020415 -266326.000000 0 0 1
-10.009708 15.819394 29.240229 34.719425 -1.006644 0.569471 0.061887 -0.018387 -576081.000000 0 0 1
-10.501408 14.374894 29.457329 34.418765 -0.939868 0.543603 0.058126 -0.020635 209090.000000 0 0 1
-9.432908 13.471994 29.736249 33.981155 -0.959945 0.505194 0.071895 -0.016438 258908.000000 0 0 1
-8.949608 13.487694 31.081629 35.043987 -0.984962 0.480137 0.078950 -0.015744 334647.000000 0 0 1
-9.946608 13.103794 32.258431 36.211197 -0.921520 0.471603 0.124571 -0.023464 293652.000000 0 0 1
-10.155208 11.711894 32.358961 35.880344 -0.856467 0.446746 0.131124 -0.027498 138965.000000 0 0 1
-10.844508 11.392494 33.558079 37.061259 -0.810036 0.438296 0.139039 -0.024553 -268515.000000 0 0 1
-11.355908 9.909194 33.479639 36.715596 -0.717470 0.422993 0.133637 -0.026405 -130270.000000 0 0 1
-10.357208 8.887394 33.532399 36.203305 -0.709171 0.386525 0.152668 -0.029083 174812.000000 0 0 1
-10.263008 8.209994 -32.799911 35.335075 -0.674716 2.760486 0.173859 -0.041055 180150.000000 0 0 1
-9.339408 8.819494 -31.702561 34.206146 -0.756775 2.756621 0.143150 -0.044509 326.332000 0 0 1
-9.830808 10.112694 -31.392381 34.415011 -0.799531 2.719348 0.127189 -0.045035 274110.000000 0 0 1
-9.100308 10.750994 -30.345711 33.455368 -0.868360 2.707021 0.120832 -0.045679 -531516.000000 0 0 1
-8.156208 11.832094 -30.826091 34.011323 -0.967268 2.705355 0.109895 -0.037517 -386040.000000 0 0 1
-8.676108 13.110094 -31.164091 34.904871 -0.986179 2.674385 0.096413 -0.032173 23989.700000 0 0 1
-7.653008 13.909594 -31.737621 35.486926 -1.067802 2.677765 0.070986 -0.028870 141862.000000 0 0 1
-8.044208 15.364594 -32.204141 36.577134 -1.088483 2.647595 0.077170 -0.024148 47139.100000 0 0 1
-8.858008 15.407394 -33.365951 37.803952 -1.049023 2.652171 0.089328 -0.025101 63578.200000 0 0 1
-9.198708 16.775794 -33.536901 38.610455 -1.069234 2.623159 0.081909 -0.021901 -757596.000000 0 0 1
-9.690008 17.116094 32.655938 38.121742 -1.055650 0.542109 0.087816 -0.026898 1522130.000000 0 0 1
-10.928808 16.563394 32.119880 37.755418 -0.987551 0.553413 0.074526 -0.027075 1518200.000000 0 0 1
-12.137208 16.705294 32.861506 38.810530 -0.942474 0.561014 0.059027 -0.032788 -365613.000000 0 0 1
-13.312908 16.043794 32.138286 38.308045 -0.878155 0.575457 0.067869 -0.043987 -377647.000000 0 0 1
-13.351408 14.634294 32.246190 37.844939 -0.831207 0.550887 0.068349 -0.044438 -49694.200000 0 0 1
-14.611808 14.222594 32.707967 38.543459 -0.771901 0.557464 0.050127 -0.033716 -263536.000000 0 0 1
-14.714008 12.701594 32.713720 38.052858 -0.712126 0.536131 0.053216 -0.032961 -119877.000000 0 0 1
-14.752008 12.108594 31.424719 36.766190 -0.687302 0.545789 0.035044 -0.031819 438694.000000 0 0 1
-13.503508 11.633294 30.925939 35.694425 -0.711134 0.522833 0.057842 -0.028094 68992.100000 0 0 1
-13.633108 10.990094 29.525749 34.328030 -0.678469 0.535319 0.051742 -0.025187 176086.000000 0 0 1
-14.625508 9.972294 29.388179 34.307684 -0.598436 0.542140 0.043643 -0.020529 373863.000000 0 0 1
-14.578908 9.461794 28.085089 33.027902 -0.575676 0.554157 0.037520 -0.019449 -370933.000000 0 0 1
-15.496408 8.333894 27.776919 32.880841 -0.493425 0.564651 0.042948 -0.018468 -452783.000000 0 0 1
-14.975808 7.153194 28.307339 32.813846 -0.445608 0.530282 0.044389 -0.017596 261332.000000 0 0 1
-15.668308 6.024294 27.812479 32.485720 -0.367064 0.543034 0.055851 -0.014021 670239.000000 0 0 1
-14.666008 4.805194 27.880209 31.866718 -0.316619 0.505566 0.067748 -0.012349 1373630.000000 0 0 1
-13.558408 4.690794 26.966789 30.545731 -0.333080 0.488936 0.062168 -0.025162 367660.000000 0 0 1
-13.938208 4.308694 25.655109 29.513101 -0.299810 0.517055 0.066347 -0.019423 -290406.000000 0 0 1
-12.813808 4.265894 24.592849 28.057080 -0.321373 0.502193 0.051833 -0.014211 -210640.000000 0 0 1
-11.874708 3.229694 24.777809 27.665492 -0.265557 0.460970 0.053358 -0.020650 -196089.000000 0 0 1
-11.504108 2.795094 23.487679 26.302626 -0.238346 0.466877 0.052705 -0.020283 -127909.000000 0 0 1
-10.431008 1.684794 23.555279 25.816577 -0.160135 0.421664 0.049171 -0.021424 56869.400000 0 0 1
-9.111408 2.119394 23.837489 25.607333 -0.228545 0.373968 0.034587 -0.031377 -53013.500000 0 0 1
-8.319808 0.965694 24.000429 25.419921 -0.115555 0.335766 0.038818 -0.025909 -456902.000000 0 0 1
-6.824808 1.279194 24.154549 25.132779 -0.185283 0.279920 0.052222 -0.032612 -744734.000000 0 0 1
-6.382808 1.691994 22.911489 23.844065 -0.259126 0.280603 0.048576 -0.026816 821756.000000 0 1 0
-4.982408 2.049394 22.817649 23.445032 -0.390232 0.231862 0.050090 -0.021282 1231950.000000 0 1 0
-4.460208 3.315594 23.515379 24.163188 -0.639246 0.232079 0.070127 -0.020994 -555759.000000 0 1 0
-4.256408 3.130494 24.891079 25.445684 -0.634142 0.209166 0.076944 -0.022023 29438.100000 0 0 1
-3.872508 4.378794 25.475939 26.137973 -0.846680 0.225549 0.082941 -0.021839 163601.000000 0 0 1
4.216892 -24.039006 12.875659 27.594177 -1.397144 1.085345 0.163774 -0.030887 198729.000000 0 0 1
3.864192 -25.344336 13.194859 28.833516 -1.419494 1.095477 0.182081 -0.046892 -52543.200000 0 0 1
2.442192 -25.389896 13.208759 28.724249 -1.474904 1.092973 0.138457 -0.036897 402502.000000 0 0 1
1.911492 -26.552926 14.123459 30.136088 -1.498932 1.083028 0.123999 -0.019623 11717.600000 0 0 1
1.729692 -26.257596 15.513959 30.547277 -1.505017 1.038089 0.163639 -0.039543 -34008.900000 0 0 1
1.495292 -27.457596 16.232659 31.932033 -1.516392 1.037528 0.164622 -0.043207 180678.000000 0 0 1
1.128792 -27.179386 17.740059 32.476190 -1.529289 0.992918 0.152128 -0.049914 -919256.000000 0 0 1
2.232792 -26.671106 18.355359 32.453851 -1.487275 0.969656 0.178536 -0.052283 -981476.000000 0 0 1
2.194092 -26.702316 19.765359 33.294101 -1.488812 0.935198 0.167684 -0.054584 168339.000000 0 0 1
3.291392 -25.894606 20.498559 33.189679 -1.444367 0.905085 0.140151 -0.046134 155934.000000 0 0 1
2.876492 -24.624406 20.950159 32.458354 -1.454509 0.869187 0.133589 -0.038189 130246.000000 0 0 1
3.956592 -23.899606 21.513159 32.398485 -1.406734 0.844617 0.110935 -0.044430 247339.000000 0 0 1
3.424592 -22.620306 22.177559 31.862991 -1.420543 0.800945 0.128434 -0.036405 -151628.000000 0 0 1
2.795792 -21.657406 21.367959 30.552404 -1.442415 0.796257 0.135943 -0.039772 121897.000000 0 0 1
3.610792 -21.035906 20.387359 29.515955 -1.400804 0.808307 0.114352 -0.025690 29955.700000 0 0 1
2.792292 -19.966606 19.640259 28.146084 -1.431849 0.798479 0.081905 -0.028526 168874.000000 0 0 1
2.611892 -18.877506 20.513259 27.999572 -1.433309 0.748622 0.070255 -0.029735 -352646.000000 0 0 1
1.675692 -18.083906 19.868959 26.918602 -1.478398 0.740528 0.073708 -0.033694 -397209.000000 0 0 1
1.507892 -16.848506 20.683959 26.720256 -1.481537 0.685515 0.084890 -0.037230 1024390.000000 0 0 1
2.641492 -15.936106 20.575859 26.159184 -1.406535 0.665572 0.040427 -0.014739 864756.000000 0 0 1
2.247192 -14.647706 21.066059 25.756242 -1.418567 0.613043 0.056073 -0.015295 659705.000000 0 0 1
3.220092 -13.438906 20.778859 24.954642 -1.335620 0.586893 0.003682 0.002769 -572878.000000 0 1 0
3.443992 -13.112206 19.414459 23.679363 -1.313943 0.609579 -0.015146 -0.003706 186739.000000 0 1 0
2.327692 -12.626706 18.651959 22.643927 -1.388496 0.602878 -0.007924 -0.002760 807443.000000 0 1 0
1.464292 -11.434706 19.213259 22.406382 -1.443433 0.540424 -0.002338 -0.010759 -279220.000000 0 1 0
2.008992 -10.119006 19.151859 21.753713 -1.374808 0.494102 0.003090 -0.002788 -713366.000000 0 1 0
1.564892 -9.212006 20.069859 22.138410 -1.402527 0.435728 0.022637 -0.021799 -390764.000000 0 1 0
0.093092 -8.791506 20.055459 21.897961 -1.560208 0.413152 0.040171 -0.029333 -394521.000000 0 1 0
-0.112508 -7.880606 21.123859 22.546264 1.556521 0.357108 0.052031 -0.039902 363209.000000 0 1 0
-1.463308 -7.399106 21.139759 22.444987 1.375548 0.342709 0.054392 -0.035760 687840.000000 0 1 0
-1.957308 -6.825306 22.520059 23.612897 1.291519 0.305427 0.052809 -0.025915 97610.600000 0 1 0
-2.332708 -7.752906 23.522959 24.877272 1.278531 0.331485 0.056539 -0.016547 3564.080000 0 1 0
-2.529808 -7.206406 24.836259 25.984072 1.233186 0.298338 0.058258 -0.008462 42999.500000 0 0 1
-2.861308 -8.319306 25.878859 27.333373 1.239534 0.327697 0.066090 0.000315 -370160.000000 0 0 1
-1.737908 -9.029006 26.289159 27.850730 1.380641 0.336456 0.073125 -0.002014 -458715.000000 0 0 1
-2.016108 -10.110906 27.162059 29.052927 1.373978 0.362773 0.087320 -0.004063 62069.300000 0 0 1
-0.705308 -10.904506 27.333159 29.436496 1.506206 0.380318 0.118508 -0.013714 724222.000000 0 0 1
0.380192 -10.197806 27.958659 29.762836 -1.533532 0.349974 0.123940 -0.017394 338997.000000 0 0 1
1.384492 -11.135006 28.303259 30.446340 -1.447094 0.377440 0.150346 -0.028257 153811.000000 0 0 1
2.413192 -10.533306 29.309459 31.238092 -1.345582 0.353230 0.180662 -0.040981 52405.500000 0 0 1
1.873592 -10.204606 30.552059 32.265657 -1.389216 0.327371 0.178184 -0.045091 63367.000000 0 0 1
2.886592 -9.788306 31.449359 33.063659 -1.284023 0.313772 0.236811 -0.068077 250551.000000 0 0 1
2.311892 -9.488406 32.874459 34.294384 -1.331799 0.288766 0.227113 -0.077242 -220968.000000 0 0 1
1.665592 -10.598106 33.554459 35.227770 -1.414912 0.309453 0.217066 -0.077432 291707.000000 0 0 1
2.081492 -10.785706 -32.699741 34.495466 -1.380154 2.817510 0.185183 -0.071992 305806.000000 0 0 1
3.587692 -11.157406 -32.469341 34.519811 -1.259686 2.795190 0.169106 -0.055286 1291670.000000 0 0 1
4.599592 -10.145906 -32.783541 34.624504 -1.145165 2.814034 0.157425 -0.065773 827381.000000 0 0 1
4.927792 -9.236906 -31.735741 33.417972 -1.080718 2.822948 0.171403 -0.065798 -43559.300000 0 0 1
3.886692 -8.105506 -31.417141 32.677858 -1.123673 2.862914 0.162387 -0.055447 76689.400000 0 0 1
3.869492 -7.002606 -32.273441 33.250331 -1.065975 2.898591 0.202011 -0.066200 44915.000000 0 0 1
2.886892 -6.072206 -31.869441 32.570955 -1.127000 2.933671 0.170950 -0.037610 78690.700000 0 0 1
2.893092 -4.733706 -32.678641 33.146215 -1.022205 2.973428 0.180804 -0.036463 172804.000000 0 0 1
2.189792 -4.767606 33.670659 34.076950 -1.140230 0.154574 0.188604 -0.049548 -134519.000000 0 0 1
2.420192 -3.628206 32.893159 33.181035 -0.982529 0.131822 0.204457 -0.030643 168907.000000 0 0 1
1.583892 -3.631206 31.597459 31.844839 -1.159487 0.124727 0.215838 -0.035623 -213363.000000 0 0 1
0.254192 -3.287006 31.846059 32.016253 -1.493618 0.103156 0.186849 -0.036808 -599895.000000 0 0 1
-0.573208 -3.667306 30.743659 30.966922 1.415749 0.120153 0.185052 -0.031041 1132380.000000 0 0 1
-2.103608 -3.425106 30.972259 31.231992 1.020021 0.129057 0.140140 -0.032674 925794.000000 0 0 1
-2.710308 -2.226306 30.479259 30.680408 0.687667 0.114573 0.125712 -0.035040 586998.000000 0 0 1
-4.123608 -2.360206 30.331259 30.701140 0.519851 0.155384 0.085310 -0.029343 813395.000000 0 0 1
-4.900708 -1.210906 29.661159 30.087665 0.242236 0.168577 0.039397 -0.020271 -245834.000000 0 0 1
-4.636808 -1.251606 28.265459 28.670589 0.263645 0.168309 0.047272 -0.022010 258373.000000 0 0 1
-5.514408 -0.466406 27.416259 27.969224 0.084379 0.199178 0.032813 -0.021578 554104.000000 0 0 1
-5.702408 1.006294 27.802959 28.399553 -0.174670 0.205335 0.064978 -0.026385 593169.000000 0 0 1
-6.889408 1.181594 28.589459 29.431569 -0.169856 0.239792 0.052877 -0.026959 175979.000000 0 0 1
-7.164908 2.572094 28.789259 29.778734 -0.344657 0.258508 0.064826 -0.032179 -129947.000000 0 0 1
-8.543308 2.688094 29.482259 30.812620 -0.304836 0.294924 0.057763 -0.035296 -424047.000000 0 0 1
-9.558408 2.325594 28.619359 30.262836 -0.238666 0.331076 0.053605 -0.029331 -1395270.000000 0 0 1
-10.802008 2.761694 29.044059 31.110572 -0.250303 0.366534 0.061576 -0.024717 -1151720.000000 0 0 1
-11.906908 2.193394 28.189659 30.679673 -0.182170 0.405670 0.063410 -0.014042 -725913.000000 0 0 1
-12.132708 0.762894 28.454059 30.942173 -0.062796 0.403765 0.074485 -0.014492 -88756.700000 0 0 1
-12.414008 0.160894 27.225059 29.922188 -0.012960 0.427845 0.072162 -0.010924 -483446.000000 0 0 1
-12.313308 -1.395506 27.330259 30.008466 0.112852 0.425696 0.081143 -0.012957 1540670.000000 0 0 1
-10.987208 -1.824106 27.765459 29.915996 0.164520 0.381481 0.075345 -0.025111 1741770.000000 0 0 1
-9.816008 -1.716006 26.962559 28.745057 0.173068 0.354012 0.081827 -0.021016 200145.000000 0 0 1
-9.758508 -2.442706 25.597659 27.503371 0.245276 0.374447 0.060271 -0.017010 -387791.000000 0 0 1
-10.648008 -1.881806 24.620259 26.890118 0.174922 0.413830 0.047610 -0.017845 443895.000000 0 0 1
-10.593108 -2.628706 23.414659 25.833511 0.243239 0.436191 0.052097 -0.014508 409663.000000 0 0 1
-9.479308 -2.130106 22.412859 24.428076 0.221040 0.409037 0.039483 -0.017480 654541.000000 0 1 0
-8.206108 -2.238306 22.999259 24.521748 0.266283 0.354233 0.043885 -0.021536 -247185.000000 0 1 0
-7.142708 -2.003406 22.071159 23.284501 0.273456 0.324248 0.032054 -0.021502 1234560.000000 0 1 0
-5.707808 -2.179906 22.702359 23.510172 0.364821 0.262902 0.034204 -0.017336 908744.000000 0 1 0
-5.153708 -3.509806 22.778459 23.616470 0.597878 0.267193 0.033925 -0.014677 -201995.000000 0 1 0
-5.869208 -4.423806 23.546159 24.666562 0.645885 0.302556 0.044191 -0.015231 -501683.000000 0 1 0
-5.757008 -5.956706 23.221459 24.654850 0.802445 0.342668 0.063209 -0.018270 -267154.000000 0 1 0
-6.462708 -6.463006 22.083259 23.899945 0.785421 0.392416 0.054940 -0.026817 35471.700000 0 1 0
-6.041008 -5.949706 20.847159 22.505484 0.777784 0.386286 0.046528 -0.027316 -53030.900000 0 1 0
-7.165408 -5.916806 19.746159 21.823438 0.690244 0.439853 0.044528 -0.028238 400725.000000 0 1 0
-8.029608 -4.816506 19.977359 22.062824 0.540304 0.438296 0.041487 -0.030415 -191121.000000 0 1 0
-9.152008 -4.909906 19.089859 21.732215 0.492407 0.498265 0.056402 -0.021527 330944.000000 0 1 0
-9.854708 -3.560906 19.157159 21.835569 0.346742 0.500511 0.046234 -0.019850 209828.000000 0 1 0
-8.946808 -2.472806 18.885059 21.042947 0.269658 0.456835 0.036343 -0.014324 -16164.100000 0 1 0
-9.599408 -1.290806 18.658459 21.022676 0.133666 0.478819 0.035315 -0.018456 -121600.000000 0 1 0
-8.570308 -0.191106 18.263959 20.175701 0.022295 0.438840 0.015136 -0.013854 296222.000000 0 1 0
-7.618308 0.147494 19.265059 20.717212 -0.019358 0.376639 0.022221 -0.005440 310842.000000 0 1 0
-8.096908 0.978594 20.319859 21.895530 -0.120277 0.381689 0.046277 -0.005466 -176385.000000 0 1 0
-7.940708 2.506694 20.152859 21.805414 -0.305776 0.391825 0.032916 -0.012786 421048.000000 0 1 0
-8.900308 2.947794 19.195459 21.362833 -0.319830 0.454354 0.018500 -0.017722 371196.000000 0 1 0
-8.569608 4.270994 18.826759 21.121705 -0.462358 0.470489 0.013120 -0.016414 -33484.400000 0 1 0
-9.394908 4.811094 17.647159 20.562907 -0.473277 0.539037 0.011171 -0.011149 -270589.000000 0 1 0
-10.756608 4.995194 17.995959 21.552520 -0.434751 0.582697 0.019207 -0.007268 -93789.800000 0 1 0
-11.442208 5.727894 17.015359 21.289794 -0.464122 0.644790 0.017236 0.012271 -179761.000000 0 1 0
-11.218108 7.279694 16.979259 21.613309 -0.575618 0.667143 0.014473 0.012767 -426343.000000 0 1 0
-9.872808 7.547094 16.652759 20.778483 -0.652674 0.641093 -0.004314 0.000522 -32784.500000 0 1 0
-9.723308 8.864294 16.253859 20.911871 -0.739217 0.680505 -0.020052 -0.008636 -226032.000000 0 1 0
-8.510208 9.629294 16.771859 21.129179 -0.847013 0.653802 -0.008843 -0.001980 -441030.000000 0 1 0
-8.674808 10.082294 18.102359 22.463311 -0.860295 0.633664 0.013629 0.014985 -222118.000000 0 1 0
-8.311808 11.425794 18.399959 23.198996 -0.941878 0.654855 0.044081 0.010841 -251142.000000 0 1 0
-9.111508 12.552094 17.734359 23.560181 -0.942901 0.718603 0.059942 -0.001797 -579.866000 0 1 0
-8.813008 12.761994 16.355659 22.539857 -0.966429 0.758843 0.051583 -0.020428 -72251.000000 0 1 0
-9.624508 13.815494 15.845159 23.120728 -0.962325 0.815750 0.068065 -0.035558 -57113.600000 0 1 0
-9.156508 14.289294 14.473459 22.304855 -1.000919 0.864668 0.069929 -0.031602 -252194.000000 0 1 0
-8.117108 15.202894 14.550259 22.554943 -1.080383 0.869638 0.068181 -0.017649 -549163.000000 0 1 0
-7.633108 15.590494 13.251959 21.839007 -1.115503 0.918765 0.054125 -0.030196 -221845.000000 0 1 0
-6.553008 16.662994 13.341459 22.329169 -1.196108 0.930429 0.029303 -0.023272 -819748.000000 0 1 0
-5.294008 16.094894 13.575359 21.710884 -1.253019 0.895307 0.025752 -0.030676 -1096320.000000 0 1 0
-4.481908 17.243494 13.628859 22.431482 -1.316504 0.917790 0.021376 -0.029826 -42755.700000 0 1 0
-2.945908 17.039394 13.571659 21.982021 -1.399601 0.905365 0.029909 -0.031856 337635.000000 0 1 0
-2.194108 16.542994 14.652159 22.207443 -1.438935 0.850262 0.037181 -0.030422 -20032.800000 0 1 0
-2.492908 15.154994 15.002359 21.469960 -1.407762 0.797133 0.038908 -0.028063 -268989.000000 0 1 0
-1.433808 14.561994 15.968459 21.658697 -1.472650 0.741765 0.039435 -0.025252 1403060.000000 0 1 0
-0.160908 14.253494 15.306059 20.915626 -1.559508 0.749837 0.033268 -0.035884 1477900.000000 0 1 0
0.849092 13.733194 16.177459 21.237508 1.509047 0.704802 0.047073 -0.027060 335526.000000 0 1 0
1.703592 14.774694 16.906659 22.517302 1.455999 0.721479 0.050931 -0.031347 -587069.000000 0 1 0
0.998692 15.467394 17.924959 23.696873 1.506318 0.712963 0.046355 -0.031801 -446663.000000 0 1 0
1.768392 16.443794 18.566659 24.864561 1.463666 0.727692 0.052173 -0.028739 -518870.000000 0 1 0
0.906692 17.605394 19.139659 26.021117 1.519341 0.744328 0.065901 -0.022384 394144.000000 0 0 1
0.280292 18.498794 18.196159 25.949646 1.555646 0.793703 0.041025 -0.022353 -28725.700000 0 0 1
-0.877408 17.971994 17.593059 25.165018 -1.522014 0.796647 0.044692 -0.019831 -692608.000000 0 0 1
-1.422208 18.947094 16.569359 25.210289 -1.495875 0.853638 0.040139 -0.023690 -492403.000000 0 0 1
-2.036008 20.069894 17.071059 26.426634 -1.469696 0.868491 0.033495 -0.018893 -165516.000000 0 0 1
-2.566208 20.960094 16.117459 26.564703 -1.448970 0.918863 0.031734 -0.017677 66368.200000 0 0 1
-3.374608 22.202894 16.671359 27.969460 -1.419961 0.932216 0.032170 -0.011933 -105287.000000 0 0 1
-4.488108 21.834294 17.430859 28.296896 -1.368067 0.907143 0.044276 -0.015598 -400586.000000 0 0 1
-4.995208 23.017194 18.058459 29.679138 -1.357090 0.916682 0.050202 -0.017199 -41528.600000 0 0 1
-6.018408 22.645294 19.132559 30.250378 -1.311033 0.886054 0.045122 -0.015064 -190303.000000 0 0 1
-7.323708 22.330894 18.700659 30.033650 -1.253887 0.898663 0.034288 -0.019459 -425825.000000 0 0 1
-8.080908 21.981894 19.838359 30.693081 -1.218514 0.868010 0.023368 -0.019667 367120.000000 0 0 1
-9.609708 22.035094 19.524259 30.969154 -1.159554 0.888674 0.032629 -0.022742 324565.000000 0 0 1
-10.056608 23.341394 19.567259 32.075437 -1.163982 0.914687 0.037973 -0.022759 -587657.000000 0 0 1
-11.323108 23.490894 19.002159 32.266343 -1.121635 0.941080 0.041455 -0.018810 -280844.000000 0 0 1
-11.942308 24.906694 19.091759 33.577632 -1.123698 0.966011 0.053540 -0.015289 143308.000000 0 0 1
-12.529308 25.257194 20.354759 34.773921 -1.110299 0.945490 0.053096 -0.021333 126893.000000 0 0 1
-13.239908 26.452394 20.233959 35.839048 -1.106734 0.970874 0.056986 -0.015007 -525910.000000 0 0 1
-14.190908 26.776794 21.403859 37.101263 -1.083461 0.955863 0.084297 -0.026168 541061.000000 0 0 1
-15.443008 26.057694 21.373159 37.071577 -1.035801 0.956312 0.088529 -0.030462 705297.000000 0 0 1
-16.298908 26.564994 22.379959 38.369465 -1.020474 0.948041 0.073693 -0.021317 287719.000000 0 0 1
-17.728008 25.985794 22.208759 38.506788 -0.972104 0.956053 0.094600 -0.017056 133505.000000 0 0 1
-18.063108 24.701494 22.622559 38.055484 -0.939400 0.934199 0.103070 -0.021903 312691.000000 0 0 1
-19.460508 24.435894 22.705959 38.618452 -0.898260 0.942266 0.110661 -0.017306 458903.000000 0 0 1
28.983392 23.550794 23.385589 44.063166 0.682354 1.011336 0.124456 -0.024310 -17918.500000 0 0 1
28.491892 22.953494 24.537889 44.054043 0.678155 0.980033 0.135763 -0.038107 84615.600000 0 0 1
28.228892 21.587494 24.294389 43.047736 0.652862 0.971139 0.128249 -0.022698 -261738.000000 0 0 1
27.586792 20.919694 25.505139 43.002055 0.648806 0.935875 0.147851 -0.031993 234755.000000 0 0 1
26.260792 21.371394 25.753069 42.539231 0.683107 0.920533 0.146951 -0.027886 287545.000000 0 0 1
25.798092 20.885194 26.978369 42.773417 0.680545 0.888306 0.143925 -0.034506 -172335.000000 0 0 1
24.336592 21.305694 27.212229 42.269465 0.719090 0.871369 0.164425 -0.037004 -365518.000000 0 0 1
24.151192 22.609694 27.696809 43.146165 0.752445 0.873784 0.181503 -0.051706 868697.000000 0 0 1
22.941592 22.669094 28.495109 43.036910 0.779424 0.847167 0.213642 -0.040463 579263.000000 0 0 1
22.620492 23.988594 29.243389 44.071704 0.814742 0.845254 0.201635 -0.034493 -490374.000000 0 0 1
22.053892 24.944594 28.408159 43.767915 0.846827 0.864443 0.177921 -0.044276 105383.000000 0 0 1
21.455592 26.098194 29.007189 44.529486 0.882718 0.861348 0.144759 -0.043589 875786.000000 0 0 1
20.147292 25.910794 29.873569 44.381446 0.909887 0.832391 0.138727 -0.040616 660615.000000 0 0 1
18.947792 25.865594 29.074439 43.282453 0.938558 0.834245 0.147101 -0.039645 836587.000000 0 0 1
17.725492 26.070394 29.746339 43.344009 0.973682 0.814428 0.117799 -0.032079 139712.000000 0 0 1
17.196292 25.014794 30.754609 43.212247 0.968546 0.778866 0.078193 -0.030343 -743014.000000 0 0 1
17.838092 24.831794 32.015522 44.269732 0.947856 0.762383 0.097109 -0.030331 151993.000000 0 0 1
17.117292 23.921794 32.825023 44.076479 0.949709 0.730668 0.085272 -0.030816 279930.000000 0 0 1
17.781092 23.795194 -33.362431 44.670239 0.929054 2.414124 0.104984 -0.034178 176494.000000 0 0 1
17.892292 25.018094 -32.762371 44.937869 0.949959 2.387743 0.096544 -0.034819 26617.200000 0 0 1
18.574492 24.972994 -31.533571 44.306075 0.931286 2.362742 0.077631 -0.019115 -134662.000000 0 0 1
18.845492 26.476994 -31.108731 44.988186 0.952216 2.334341 0.083422 -0.016534 178181.000000 0 0 1
17.670292 27.139394 -30.678851 44.609167 0.993653 2.329147 0.102664 -0.015377 354715.000000 0 0 1
18.016192 28.358894 -30.037341 45.067193 1.004830 2.300302 0.105359 -0.016530 -69144.200000 0 0 1
17.582892 28.459394 -28.599571 44.011710 1.017374 2.278140 0.120594 -0.020737 -353875.000000 0 0 1
18.272192 27.682194 -27.679991 43.201374 0.987374 2.266232 0.098582 -0.018000 30785.700000 0 0 1
17.802292 27.918994 -26.370671 42.329707 1.003159 2.243346 0.079354 -0.006085 -287886.000000 0 0 1
18.489192 26.975394 -25.451121 41.440097 0.969930 2.232126 0.069450 -0.009375 -700056.000000 0 0 1
19.855092 27.222694 -25.386641 42.187454 0.940637 2.216497 0.070627 -0.002245 -770516.000000 0 0 1
20.572492 26.601494 -24.338041 41.511530 0.912513 2.197275 0.069758 -0.005810 775050.000000 0 0 1
22.090992 26.952894 -24.234441 42.447362 0.884209 2.178434 0.068005 -0.005073 507493.000000 0 0 1
22.653392 26.150094 -23.231841 41.673997 0.856925 2.162127 0.071828 -0.005285 -1369340.000000 0 0 1
24.018892 26.090394 -23.399841 42.487273 0.826714 2.154058 0.077817 -0.004294 -969051.000000 0 0 1
24.794392 25.970394 -22.080141 42.151582 0.808560 2.122134 0.105298 -0.011292 -14015.400000 0 0 1
24.534892 24.701894 -21.482841 40.910352 0.788790 2.123652 0.117206 -0.014219 169355.000000 0 0 1
25.089292 24.689594 -20.201041 40.584857 0.777369 2.091797 0.121206 -0.021975 -182487.000000 0 0 1
24.478992 23.585994 -19.347241 39.113116 0.766821 2.088227 0.122673 -0.027858 -167786.000000 0 0 1
25.069492 22.293794 -19.519841 38.813874 0.726861 2.097757 0.121683 -0.027817 483438.000000 0 0 1
24.726592 21.433294 -18.457041 37.569306 0.714173 2.084355 0.131000 -0.027939 -586891.000000 0 0 1
24.544692 19.950394 -18.848241 36.820053 0.682509 2.108193 0.126242 -0.032967 1598080.000000 0 0 1
23.423592 19.580494 -19.742741 36.357065 0.696269 2.144830 0.120981 -0.030361 2227990.000000 0 0 1
22.080792 19.868294 -19.327241 35.438012 0.732705 2.147641 0.114468 -0.037183 621468.000000 0 0 1
20.999392 19.594894 -20.432541 35.248022 0.750814 2.189131 0.084186 -0.022012 349631.000000 0 0 1
20.987792 20.464694 -21.562041 36.389733 0.772780 2.204993 0.093846 -0.014537 -248967.000000 0 0 1
21.090292 21.830694 -21.305841 37.085286 0.802647 2.182801 0.096422 -0.018891 -197004.000000 0 0 1
20.799692 22.647494 -22.614641 38.170121 0.827902 2.204917 0.081018 -0.004577 208381.000000 0 0 1
19.494192 22.421194 -23.095641 37.631663 0.855116 2.231571 0.075036 -0.005010 -300549.000000 0 0 1
19.409192 23.018994 -24.354141 38.726154 0.870274 2.250909 0.074148 -0.006146 553459.000000 0 0 1
17.905992 23.130394 -24.757141 38.321739 0.912028 2.273173 0.060992 -0.006007 532005.000000 0 0 1
17.196592 24.071894 -23.963841 38.071571 0.950481 2.251631 0.065346 -0.015802 528701.000000 0 0 1
15.789592 23.970394 -24.213841 37.552644 0.988321 2.271554 0.062986 -0.013886 976283.000000 0 0 1
14.975292 25.072294 -23.452841 37.455507 1.032376 2.247404 0.065236 -0.014485 203549.000000 0 0 1
15.149192 26.314294 -24.057941 38.739187 1.048435 2.240844 0.066785 -0.011186 356108.000000 0 0 1
14.230992 27.224194 -23.449741 38.646710 1.089128 2.222790 0.087805 -0.016802 351415.000000 0 0 1
14.354392 28.641894 -24.024541 40.044790 1.106215 2.214225 0.091179 -0.025161 67364.500000 0 0 1
13.943692 28.684394 -25.383541 40.762055 1.118325 2.243017 0.099834 -0.039468 -88215.400000 0 0 1
13.564092 29.996894 -25.865591 41.866777 1.146128 2.236747 0.128759 -0.050433 198083.000000 0 0 1
14.585592 31.185894 -25.801241 43.023290 1.133322 2.213928 0.134361 -0.045705 491773.000000 0 0 1
15.750092 31.077494 -26.609931 43.840215 1.101723 2.223045 0.111828 -0.029925 154115.000000 0 0 1
16.542692 32.235094 -26.668941 44.988824 1.096653 2.205316 0.109534 -0.035787 933245.000000 0 0 1
18.007792 31.965394 -27.174001 45.656251 1.057759 2.208294 0.094167 -0.010342 861540.000000 0 0 1
18.927092 31.361494 -26.277601 45.080932 1.027797 2.193087 0.053538 -0.004860 1023830.000000 0 0 1
20.191392 31.207294 -26.973131 45.925344 0.996527 2.198547 0.057455 0.007711 402848.000000 0 0 1
21.276092 30.573194 -26.109891 45.487566 0.962823 2.182179 0.035668 0.011391 -853996.000000 0 0 1
21.699192 31.188694 -24.914441 45.434776 0.962936 2.151194 0.041039 0.006456 60083.300000 0 0 1
22.758392 32.105294 -25.042241 46.645558 0.954144 2.137510 0.032290 0.001782 -357925.000000 0 0 1
24.187992 31.552794 -25.176051 47.058169 0.916763 2.135302 0.021819 0.013917 -580024.000000 0 0 1
24.494092 30.961894 -26.398731 47.492024 0.901503 2.160189 0.022593 0.016706 236000.000000 0 0 1
25.367592 31.795194 -27.167211 48.913254 0.897372 2.159660 0.009323 0.036547 -615835.000000 0 0 1
25.609892 31.280294 -28.585901 49.512393 0.884743 2.186274 0.012525 0.030342 636841.000000 0 0 1
24.604592 31.637194 -29.590521 49.818640 0.909795 2.206775 0.030094 0.017007 1692840.000000 0 0 1
23.341692 30.945194 -29.380941 48.638249 0.924554 2.219396 0.025183 0.009299 584763.000000 0 0 1
22.225292 31.526694 -30.280971 49.039099 0.956744 2.236339 0.029706 0.007092 -854133.000000 0 0 1
21.638092 32.702794 -29.817451 49.262157 0.986269 2.220915 0.051283 0.008252 10236.800000 0 0 1
20.945092 33.394694 -30.847071 50.054413 1.010618 2.234795 0.062877 -0.007205 698587.000000 0 0 1
19.452992 32.950294 -31.084691 49.299075 1.037485 2.253036 0.067160 -0.016208 162767.000000 0 0 1
19.161892 31.594094 -31.393111 48.486001 1.025609 2.275053 0.101148 -0.024192 -22631.800000 0 0 1
19.487092 31.208594 -32.741611 49.251763 1.012618 2.297996 0.112793 -0.034328 -465852.000000 0 0 1
18.799692 31.942594 33.706999 50.099096 1.038841 0.832801 0.133106 -0.038900 -988410.000000 0 0 1
19.248392 33.281494 33.466273 50.972049 1.046447 0.854546 0.109666 -0.024131 392563.000000 0 0 1
18.516592 -33.837597 32.364815 50.352044 -1.070090 0.872687 0.104009 -0.023730 1445640.000000 0 0 1
16.992192 -33.459797 32.612370 49.717796 -1.100897 0.855356 0.119104 -0.028487 177977.000000 0 0 1
16.201392 33.032894 32.731277 49.244224 1.114808 0.843741 0.136808 -0.033419 1513530.000000 0 0 1
14.758092 33.302494 32.784609 49.007019 1.153651 0.837964 0.129273 -0.041444 2041510.000000 0 0 1
14.099792 33.781894 31.472115 48.275402 1.175400 0.860671 0.109839 -0.040626 -995644.000000 0 0 1
14.421392 -32.550197 31.222389 47.353241 -1.153736 0.850842 0.121495 -0.021541 493438.000000 0 0 1
13.807492 -32.180697 29.959689 46.084998 -1.165491 0.863085 0.111554 -0.023029 96351.100000 0 0 1
14.344692 -30.833197 29.415779 44.963811 -1.135345 0.857659 0.105734 -0.017048 -29116.900000 0 0 1
13.988492 -29.698997 30.223219 44.622318 -1.130609 0.826694 0.101765 -0.021374 648935.000000 0 0 1
14.346392 -28.456197 29.518929 43.438937 -1.103829 0.823647 0.109025 -0.032287 -336107.000000 0 0 1
14.311292 -27.223097 30.484729 43.303912 -1.086798 0.789822 0.114214 -0.026307 988947.000000 0 0 1
12.988992 -26.817297 30.907999 42.932339 -1.119746 0.767104 0.107581 -0.024344 1126390.000000 0 0 1
12.176892 -26.114397 29.982889 41.583795 -1.134478 0.765518 0.087845 -0.024595 -231551.000000 0 0 1
12.344292 -24.606897 30.068259 40.767402 -1.105822 0.741352 0.084357 -0.020398 -293000.000000 0 0 1
11.604092 -24.079597 31.131249 41.032141 -1.121729 0.709475 0.106857 -0.024228 68701.100000 0 0 1
12.246892 -22.915697 31.613732 40.921187 -1.079984 0.687946 0.098242 -0.023707 41137.400000 0 0 1
11.659592 -22.181097 32.859452 41.324215 -1.086836 0.651521 0.085126 -0.021214 -636394.000000 0 0 1
11.685592 -22.886997 -33.494481 42.216678 -1.098722 2.487162 0.082817 -0.021888 693875.000000 0 0 1
12.971792 -23.069097 -32.893141 42.218590 -1.058558 2.464049 0.081287 -0.021945 575354.000000 0 0 1
13.710492 -21.841197 -32.343291 41.365492 -1.010232 2.468489 0.075350 -0.026037 -366691.000000 0 0 1
14.159892 -20.965597 -33.343421 41.855018 -0.976781 2.492514 0.069316 -0.022226 147323.000000 0 0 1
14.980092 -19.915897 -32.846771 41.230528 -0.925909 2.492548 0.057572 -0.025761 118564.000000 0 0 1
15.032892 -18.688597 -33.725111 41.383990 -0.893385 2.523407 0.049608 -0.024411 -565102.000000 0 0 1
15.766192 -18.976097 32.677994 40.945285 -0.877528 0.646679 0.072086 -0.008327 381997.000000 0 0 1
15.576692 -18.098497 31.539181 39.558929 -0.860145 0.648036 0.059294 -0.006717 110334.000000 0 0 1
16.501992 -16.837697 31.603997 39.428878 -0.795467 0.640923 0.064097 -0.005634 -453623.000000 0 0 1
16.123492 -15.888197 32.576648 39.669129 -0.778048 0.607270 0.059279 -0.009174 506658.000000 0 0 1
16.906892 -14.689697 32.547684 39.509264 -0.715341 0.602716 0.075814 -0.023420 722890.000000 0 0 1
18.385392 -14.824397 33.054721 40.625115 -0.678579 0.620389 0.079596 -0.012061 303801.000000 0 0 1
19.303992 -15.332697 32.118355 40.488571 -0.671241 0.654636 0.086308 -0.013544 -251622.000000 0 0 1
20.626592 -15.143097 32.576093 41.424286 -0.633282 0.665836 0.092123 -0.011636 -16628.600000 0 0 1
21.619892 -15.867397 31.624105 41.464177 -0.633134 0.703342 0.107107 -0.014425 -442292.000000 0 0 1
21.825592 -15.186197 30.404579 40.390784 -0.607900 0.718551 0.082139 -0.002372 368873.000000 0 0 1
22.516092 -16.045997 29.502879 40.433504 -0.619163 0.752966 0.074450 -0.006880 -159746.000000 0 0 1
22.770492 -15.251597 28.223739 39.340640 -0.590166 0.770705 0.052861 0.002385 -353721.000000 0 0 1
23.647892 -14.173997 28.397739 39.579749 -0.539961 0.770616 0.037637 -0.001044 110984.000000 0 0 1
23.831892 -13.507297 27.175309 38.586313 -0.515630 0.789397 0.029974 -0.002463 -107112.000000 0 0 1
24.566092 -12.173097 27.382299 38.748773 -0.460061 0.786026 0.018872 -0.004515 48451.800000 0 0 1
23.777592 -11.131797 27.952349 38.348723 -0.437855 0.754084 0.035483 -0.010904 359765.000000 0 0 1
24.588392 -10.114597 28.495189 38.972681 -0.390258 0.750778 0.030211 -0.012646 523892.000000 0 0 1
23.730992 -8.815797 28.613649 38.204962 -0.355689 0.724319 0.057451 -0.019318 587725.000000 0 0 1
22.729292 -8.729897 29.580799 38.312602 -0.366709 0.688672 0.071709 -0.027849 -415874.000000 0 0 1
21.830992 -7.679297 29.449469 37.454439 -0.338243 0.666040 0.094268 -0.036104 -450471.000000 0 0 1
20.610492 -7.586597 30.341469 37.456022 -0.352702 0.626549 0.081990 -0.027733 -664189.000000 0 0 1
20.794092 -7.194697 31.694590 38.583739 -0.333104 0.606848 0.087268 -0.030537 -43271.700000 0 0 1
21.354192 -8.216097 32.456090 39.710245 -0.367294 0.614047 0.092381 -0.033462 -467846.000000 0 0 1
21.274192 -7.817297 -33.676231 40.592978 -0.352139 2.549200 0.109587 -0.057904 -451151.000000 0 0 1
19.950392 -7.812897 -33.244061 39.550311 -0.373258 2.569096 0.098260 -0.069183 -487122.000000 0 0 1
19.829492 -7.009297 -32.095851 38.372942 -0.339770 2.561513 0.107665 -0.070546 -211684.000000 0 0 1
18.458792 -6.981597 -31.397371 37.084560 -0.361596 2.580441 0.105011 -0.066602 41323.700000 0 0 1
18.519092 -5.943797 -30.449961 36.131504 -0.310569 2.573175 0.104806 -0.058592 111346.000000 0 0 1
17.276592 -5.893197 -29.798241 34.944893 -0.328732 2.591968 0.097406 -0.050978 -239831.000000 0 0 1
16.992492 -4.701397 -28.805841 33.773131 -0.269923 2.592353 0.095367 -0.043970 154783.000000 0 0 1
17.805092 -4.645097 -27.603371 33.174453 -0.255198 2.553620 0.098164 -0.041072 337797.000000 0 0 1
17.607692 -5.712997 -26.619321 32.423100 -0.313744 2.533954 0.112486 -0.044329 -221896.000000 0 0 1
16.253792 -5.765097 -25.890621 31.108622 -0.340849 2.553977 0.130908 -0.043041 7393.810000 0 0 1
16.164992 -4.686997 -25.004441 30.141283 -0.282209 2.549142 0.119894 -0.034894 316988.000000 0 0 1
14.852192 -4.723397 -24.450641 28.995378 -0.307912 2.574116 0.102150 -0.036025 338783.000000 0 0 1
14.599392 -3.415897 -23.643041 27.996499 -0.229841 2.576427 0.109098 -0.036350 -85959.100000 0 0 1
14.381492 -2.226897 -24.416641 28.424615 -0.153625 2.604102 0.083812 -0.038119 126504.000000 0 0 1
13.839292 -1.186897 -23.656541 27.432948 -0.085553 2.610670 0.088991 -0.034639 -162844.000000 0 0 1
14.245092 0.180103 -24.216141 28.095846 0.012643 2.609824 0.088449 -0.034938 -174065.000000 0 0 1
13.615192 0.657103 -25.385531 28.813719 0.048225 2.648815 0.077621 -0.033286 276968.000000 0 0 1
14.213392 1.875103 -25.797471 29.513489 0.131168 2.634357 0.079012 -0.015292 -141515.000000 0 0 1
13.340492 2.471103 -26.885671 30.115019 0.183157 2.674245 0.073737 -0.012201 -194078.000000 0 0 1
12.175892 3.138103 -26.465621 29.300668 0.252241 2.698064 0.079095 -0.026375 434949.000000 0 0 1
11.494992 3.834103 -27.530031 30.078860 0.321942 2.726954 0.085560 -0.023708 325174.000000 0 0 1
10.385992 4.827103 -27.075321 29.398006 0.435069 2.741415 0.083219 -0.023924 -165434.000000 0 0 1
10.793692 6.082103 -26.653141 29.391932 0.513139 2.706470 0.077593 -0.035339 182856.000000 0 0 1
9.727092 7.032103 -26.646141 29.224709 0.625957 2.718364 0.085394 -0.037927 211890.000000 0 0 1
8.804892 5.328994 -30.873881 32.544137 0.544257 2.819823 0.101828 -0.037072 -227607.000000 0 0 1
8.811092 4.343694 -29.850901 31.425775 0.458016 2.823667 0.084210 -0.019294 382261.000000 0 0 1
8.391692 3.140294 -30.438351 31.729720 0.358082 2.855313 0.074964 -0.013817 -308630.000000 0 0 1
8.385492 1.979094 -29.350601 30.589068 0.231773 2.856064 0.080929 -0.015990 -768764.000000 0 0 1
9.586692 1.536694 -28.813591 30.405413 0.158942 2.816580 0.094511 -0.024445 -537660.000000 0 0 1
9.432192 0.665094 -27.725211 29.293274 0.070397 2.812916 0.103507 -0.022699 -494430.000000 0 0 1
10.713392 0.015694 -27.222301 29.254584 0.001465 2.766657 0.103141 -0.032550 -354615.000000 0 0 1
11.302992 -0.949106 -28.109031 30.311319 -0.083773 2.758049 0.091244 -0.027668 -330442.000000 0 0 1
12.451892 -1.525706 -27.590411 30.308550 -0.121920 2.714847 0.090666 -0.033291 -561770.000000 0 0 1
12.807992 -2.953106 -28.058801 30.984864 -0.226607 2.703505 0.078761 -0.032880 -217415.000000 0 0 1
12.027992 -3.976406 -27.481641 30.260948 -0.319285 2.709653 0.090914 -0.022143 46598.500000 0 0 1
12.650592 -5.209406 -27.673011 30.870227 -0.390630 2.682445 0.097414 -0.032939 -29992.800000 0 0 1
11.933492 -6.294006 -26.808551 30.012017 -0.485345 2.675343 0.100176 -0.050647 155400.000000 0 0 1
12.106892 -6.110106 -25.425381 28.815972 -0.467385 2.651600 0.123817 -0.039066 -46742.700000 0 0 1
11.535092 -7.080606 -24.614841 28.090634 -0.550528 2.638851 0.138471 -0.041021 -258700.000000 0 0 1
11.667792 -6.715406 -23.142741 26.773504 -0.522248 2.614732 0.151179 -0.045031 -205611.000000 0 0 1
12.945092 -6.930106 -22.604441 26.954824 -0.491523 2.565513 0.128366 -0.045539 -218117.000000 0 0 1
12.899292 -6.917706 -21.210841 25.771034 -0.492253 2.537556 0.157619 -0.054419 -574338.000000 0 0 1
14.292392 -6.762606 -20.647941 26.006591 -0.441947 2.488075 0.163901 -0.045375 -546921.000000 0 0 1
14.796692 -5.447906 -20.719041 26.036521 -0.352782 2.491072 0.143916 -0.039636 646880.000000 0 0 1
16.105792 -5.433506 -20.110741 26.331757 -0.325373 2.439891 0.154220 -0.032994 615411.000000 0 0 1
16.505292 -3.976106 -19.731841 26.030360 -0.236395 2.431086 0.150792 -0.029010 -267724.000000 0 0 1
17.141592 -3.202306 -20.711441 27.074946 -0.184686 2.441786 0.133042 -0.027155 -22113.800000 0 0 1
17.487992 -1.976006 -20.183941 26.779207 -0.112515 2.424496 0.145990 -0.014687 72678.800000 0 0 1
18.586892 -1.204206 -20.968641 28.046507 -0.064698 2.415295 0.096615 -0.017369 -125101.000000 0 0 1
19.882492 -1.692306 -20.785941 28.813759 -0.084911 2.376603 0.138234 -0.029192 -474544.000000 0 0 1
20.764392 -0.997606 -21.645941 30.011697 -0.048007 2.376402 0.131931 -0.020651 -231443.000000 0 0 1
22.114092 -1.698706 -21.847341 31.132378 -0.076665 2.348656 0.084528 -0.024912 -375655.000000 0 0 1
23.102992 -1.457406 -20.840241 31.147839 -0.063000 2.303760 0.067014 -0.021979 33513.200000 0 0 1
24.281292 -2.165906 -21.033041 32.197222 -0.088965 2.282674 0.060542 -0.023000 70566.400000 0 0 1
25.367392 -1.559506 -21.989241 33.607489 -0.061400 2.284047 0.067421 -0.029100 -1073710.000000 0 0 1
24.935192 -1.357606 -23.291741 34.148383 -0.054392 2.321392 0.083136 -0.028963 707556.000000 0 0 1
25.927792 -0.912906 -24.269041 35.525626 -0.035195 2.322853 0.083112 -0.024535 962288.000000 0 0 1
27.156692 -1.824106 -24.557541 36.659052 -0.067069 2.304857 0.101049 -0.038224 -597410.000000 0 0 1
28.123992 -1.842606 -23.520641 36.709327 -0.065424 2.266241 0.080870 -0.026452 -122537.000000 0 0 1
29.262592 -2.600406 -23.816141 37.818910 -0.088632 2.252017 0.069794 -0.024869 -64134.500000 0 0 1
30.351992 -1.843906 -24.597341 39.111029 -0.060676 2.250948 0.072451 -0.029383 -1220490.000000 0 0 1
29.949792 -1.552106 -25.900041 39.625890 -0.051777 2.283146 0.098080 -0.039769 25726.100000 0 0 1
30.725992 -0.584306 -26.547461 40.610290 -0.019014 2.283277 0.090726 -0.037807 -958080.000000 0 0 1
30.152792 -0.215306 -27.918241 41.093374 -0.007140 2.317721 0.101925 -0.048794 883575.000000 0 0 1
28.776492 0.221894 -27.880131 40.067910 0.007711 2.340360 0.103604 -0.041727 1135060.000000 0 0 1
28.556992 1.505294 -27.373651 39.586418 0.052663 2.334347 0.091622 -0.036477 317.968000 0 0 1
27.063492 1.937194 -27.607331 38.708527 0.071458 2.364864 0.101674 -0.034225 508948.000000 0 0 1
26.131892 1.289994 -26.750361 37.418200 0.049325 2.367281 0.110088 -0.036754 -344693.000000 0 0 1
24.894992 1.587594 -27.333491 37.005416 0.063685 2.401839 0.091548 -0.033645 -895427.000000 0 0 1
23.660092 1.280894 -26.482721 35.535548 0.054085 2.411700 0.089108 -0.029544 -262418.000000 0 0 1
23.563892 2.175594 -25.376621 34.698171 0.092066 2.391100 0.105758 -0.033362 -52266.100000 0 0 1
22.486292 1.795094 -24.579641 33.361871 0.079662 2.399060 0.105867 -0.025434 -488869.000000 0 0 1
22.442992 2.292094 -23.148641 32.323384 0.101777 2.369078 0.098069 -0.027715 -282567.000000 0 0 1
22.320092 3.715694 -23.030841 32.286414 0.164960 2.365033 0.110977 -0.037659 406362.000000 0 0 1
22.301292 4.097794 -21.675241 31.368067 0.181720 2.333664 0.098581 -0.039418 -289799.000000 0 0 1
21.850092 5.550294 -21.404441 31.086691 0.248756 2.330271 0.106754 -0.025372 502027.000000 0 0 1
22.858192 6.540694 -21.733141 32.211908 0.278695 2.311345 0.115013 -0.021882 682018.000000 0 0 1
22.565992 7.842494 -21.290341 32.000114 0.334478 2.298720 0.118256 -0.025578 -501155.000000 0 0 1
23.000092 8.108994 -19.838241 31.437490 0.338957 2.253686 0.105750 -0.030526 1488160.000000 0 0 1
24.451992 8.269194 -19.708741 32.476360 0.326107 2.222906 0.102890 -0.035446 1916840.000000 0 0 1
24.880692 8.612294 -18.379541 32.109624 0.333235 2.180226 0.112511 -0.036098 -14977.800000 0 0 1
24.480792 9.989094 -17.745341 31.843183 0.387416 2.161894 0.104317 -0.028039 1069490.000000 0 0 1
23.086392 10.081694 -17.348341 30.587366 0.411734 2.173866 0.106484 -0.031090 1088200.000000 0 0 1
22.693092 11.351694 -16.887641 30.479990 0.463829 2.158026 0.071138 -0.025124 -959894.000000 0 0 1
21.250892 11.338194 -16.413041 29.146920 0.490118 2.168946 0.071062 -0.019873 -423769.000000 0 0 1
20.255692 11.222494 -17.405241 28.968601 0.505941 2.215337 0.067296 -0.026903 217080.000000 0 0 1
19.978592 9.926894 -17.804941 28.543007 0.461146 2.244383 0.073903 -0.017569 -736420.000000 0 0 1
19.137892 9.757794 -19.080941 28.732486 0.471511 2.297072 0.079737 -0.004487 -131367.000000 0 0 1
19.845292 9.911494 -20.291541 30.063598 0.463198 2.311698 0.093337 -0.014573 626659.000000 0 0 1
19.001892 9.601694 -21.420441 30.200988 0.467880 2.359248 0.079775 -0.019095 460099.000000 0 0 1
19.792092 9.903394 -22.728041 31.723303 0.463945 2.369491 0.103149 -0.013071 121804.000000 0 0 1
20.074792 11.300494 -22.903941 32.485211 0.512708 2.353301 0.103135 -0.018738 300325.000000 0 0 1
20.569792 11.563794 -24.216541 33.812402 0.512141 2.369143 0.124878 -0.016314 16945.600000 0 0 1
21.065192 13.030794 -24.350541 34.734604 0.553979 2.347659 0.159158 -0.011858 404528.000000 0 0 1
21.845592 13.317194 -25.538241 36.149402 0.547452 2.355285 0.172062 -0.014005 462378.000000 0 0 1
21.978892 14.764094 -25.741021 36.927636 0.591506 2.342094 0.173693 -0.009110 135807.000000 0 0 1
20.789092 15.400694 -26.503421 37.037805 0.637591 2.368247 0.143110 -0.014528 728341.000000 0 0 1
19.541192 15.334194 -25.810651 35.821577 0.665349 2.375368 0.102299 -0.016746 818036.000000 0 0 1
18.455692 15.801294 -26.646751 36.060266 0.708068 2.402308 0.095590 -0.019590 188757.000000 0 0 1
17.081792 15.346094 -26.202541 34.840542 0.731924 2.421994 0.075723 -0.020719 -748756.000000 0 0 1
16.868392 13.981194 -26.410501 34.315171 0.692080 2.449081 0.099272 -0.015495 -188527.000000 0 0 1
15.561492 13.643494 -26.037651 33.260550 0.719819 2.470012 0.057133 -0.020126 -412434.000000 0 0 1
15.377192 12.114794 -26.051061 32.586562 0.667283 2.497162 0.049178 -0.016955 227441.000000 0 0 1
14.061092 11.666194 -25.755781 31.578072 0.692578 2.524600 0.047681 -0.023908 312902.000000 0 0 1
14.045792 10.220994 -25.695751 31.016521 0.629070 2.547137 0.062022 -0.029018 -97945.100000 0 0 1
12.668092 9.561494 -25.462751 30.004240 0.646547 2.584202 0.087583 -0.039045 79302.600000 0 0 1
12.087792 9.889994 -24.214341 28.814250 0.685729 2.568743 0.109938 -0.047079 -272063.000000 0 0 1
10.810792 9.325194 -24.071741 27.987161 0.711753 2.606261 0.117433 -0.048601 -235829.000000 0 0 1
9.940292 10.058094 -23.036441 27.030580 0.791289 2.591041 0.119538 -0.048822 -254284.000000 0 0 1
9.265092 11.227894 -23.405041 27.562719 0.880886 2.585181 0.118311 -0.049883 217723.000000 0 0 1
8.564192 11.875194 -22.337141 26.707929 0.945994 2.561385 0.118033 -0.048243 738985.000000 0 0 1
9.515292 12.841094 -21.511941 26.799218 0.933078 2.502618 0.115070 -0.051289 605241.000000 0 0 1
10.364292 12.035994 -20.683341 26.078426 0.859889 2.486712 0.139356 -0.050860 551246.000000 0 0 1
11.374792 12.887394 -20.068041 26.423419 0.847662 2.433309 0.167436 -0.052457 184712.000000 0 0 1
12.330092 11.994194 -19.262641 25.825204 0.771590 2.412659 0.171434 -0.048384 -668688.000000 0 0 1
13.339692 11.286594 -19.891941 26.476856 0.702220 2.420819 0.137304 -0.045625 -43214.700000 0 0 1
12.862592 10.206594 -20.770641 26.477167 0.670771 2.472643 0.136404 -0.052239 -8212.990000 0 0 1
14.042992 9.422494 -21.437241 27.304657 0.590979 2.473675 0.127027 -0.043856 679303.000000 0 0 1
14.755692 8.559194 -20.529741 26.691956 0.525629 2.448284 0.140732 -0.052601 417548.000000 0 0 1
15.624792 7.710294 -21.263941 27.490688 0.458406 2.455135 0.104485 -0.043674 -103414.000000 0 0 1
16.270992 6.592294 -20.449441 26.951496 0.384943 2.432188 0.163369 -0.050622 478193.000000 0 0 1
17.497192 6.805494 -19.747441 27.247530 0.370942 2.381457 0.121776 -0.031743 567464.000000 0 0 1
17.400292 6.014694 -18.543941 26.130910 0.332809 2.359805 0.125968 -0.048441 -300600.000000 0 0 1
18.554392 6.204894 -17.569841 26.295731 0.322725 2.302534 0.158652 -0.032549 32584.000000 0 0 1
19.819092 5.748694 -18.042641 27.411326 0.282311 2.289246 0.120749 -0.039064 776089.000000 0 0 1
20.798692 6.027594 -17.034441 27.551581 0.282079 2.237342 0.113706 -0.052027 600236.000000 0 0 1
22.223892 5.428694 -17.206141 28.625572 0.239581 2.215643 0.119765 -0.045965 -611148.000000 0 0 1
23.046192 5.567594 -16.099641 28.658742 0.237042 2.167321 0.105243 -0.058738 120847.000000 0 0 1
23.669792 4.394994 -15.634441 28.705587 0.183589 2.146766 0.164633 -0.065684 -349618.000000 0 0 1
24.858692 3.936294 -16.494741 30.091950 0.157043 2.150941 0.069974 -0.020525 -971681.000000 0 0 1
25.451892 2.802694 -15.881141 30.130790 0.109675 2.125950 0.085649 -0.029635 305045.000000 0 0 1
26.700992 2.498794 -16.488841 31.481245 0.093313 2.122064 0.068475 -0.030427 282628.000000 0 0 1
27.392192 1.256194 -15.824441 31.659487 0.045827 2.094202 0.088219 -0.039159 -174105.000000 0 0 1
26.820692 0.003894 -16.064541 31.263701 0.000145 2.110451 0.089453 -0.033150 -365056.000000 0 0 1
27.805492 -0.976006 -15.875841 32.033424 -0.035087 2.089325 0.096999 -0.025104 -89328.800000 0 0 1
27.222092 -2.387706 -15.959541 31.645701 -0.087488 2.099390 0.080062 -0.024957 34044.500000 0 0 1
26.613692 -2.997706 -14.824041 30.610897 -0.112165 2.076329 0.086451 -0.024115 383431.000000 0 0 1
26.144992 -4.269706 -15.191541 30.538073 -0.161880 2.091467 0.080678 -0.024783 -795029.000000 0 0 1
25.494992 -5.105006 -14.005441 29.533169 -0.197622 2.064883 0.099960 -0.028717 1075710.000000 0 0 1
24.199092 -4.762406 -13.501241 28.116900 -0.194318 2.071659 0.138392 -0.017427 865059.000000 0 0 1
23.149792 -4.735506 -14.438641 27.691375 -0.201776 2.119302 0.149743 -0.030032 -543605.000000 0 0 1
21.772592 -4.273406 -13.874141 26.168675 -0.193811 2.129611 0.169686 -0.033209 -203063.000000 0 0 1
20.982292 -5.280806 -13.308541 25.401983 -0.246558 2.122240 0.175496 -0.029867 137983.000000 0 0 1
21.275292 -5.604206 -12.025041 25.072829 -0.257563 2.071000 0.193920 -0.021747 -507744.000000 0 0 1
21.029292 -7.150106 -11.793041 25.148180 -0.327745 2.058889 0.172515 -0.006791 -142011.000000 0 0 1
19.670692 -7.367706 -11.511741 23.952858 -0.358378 2.072135 0.166884 0.000001 334561.000000 0 1 0
19.238492 -8.673306 -11.885741 24.220170 -0.423545 2.083732 0.150629 -0.013897 -159721.000000 0 1 0
17.763792 -9.047406 -11.593241 23.061030 -0.471074 2.097539 0.144692 -0.021912 -4878.920000 0 1 0
16.869792 -8.158706 -12.242041 22.383519 -0.450465 2.149480 0.139340 -0.008868 466799.000000 0 1 0
15.539792 -8.677806 -12.086841 21.514674 -0.509288 2.167351 0.128549 -0.016113 401086.000000 0 1 0
14.495692 -7.623206 -12.492241 20.598409 -0.484148 2.222405 0.101029 -0.011989 -463010.000000 0 1 0
14.379692 -7.138706 -13.875041 21.219176 -0.460798 2.283513 0.094249 -0.007200 27798.600000 0 1 0
15.475292 -6.339806 -14.262541 21.979488 -0.388817 2.276937 0.098952 0.002968 -187896.000000 0 1 0
15.068392 -5.289806 -15.296341 22.113718 -0.337613 2.334654 0.089977 -0.002690 -311083.000000 0 1 0
14.148492 -4.421306 -14.693341 20.871561 -0.302879 2.351794 0.104343 -0.006895 -127660.000000 0 1 0
13.832092 -3.277006 -15.491841 21.025286 -0.232624 2.399150 0.094858 -0.016759 -23092.600000 0 1 0
14.973692 -2.233206 -15.633241 21.762281 -0.148051 2.372244 0.131057 -0.020793 -271235.000000 0 1 0
16.059492 -2.660106 -16.419541 23.121089 -0.164150 2.360514 0.127295 -0.020462 144757.000000 0 1 0
17.195492 -1.829706 -16.249241 23.729109 -0.106007 2.325099 0.143035 -0.032596 473582.000000 0 1 0
18.262592 -2.276006 -15.198441 23.868286 -0.123987 2.261089 0.163364 -0.037443 -29555.300000 0 1 0
17.827992 -2.116106 -13.828641 22.661565 -0.118143 2.227140 0.153553 -0.028175 334817.000000 0 1 0
18.703692 -2.818206 -12.969941 22.934466 -0.149551 2.171862 0.152918 -0.025551 -325865.000000 0 1 0
18.160792 -2.889206 -11.471441 21.673851 -0.157768 2.128543 0.151716 -0.023520 -27107.900000 0 1 0
18.108692 -1.612406 -10.844041 21.168793 -0.088806 2.108617 0.151453 -0.019346 631718.000000 0 1 0
17.630892 -1.779106 -9.542741 20.126536 -0.100568 2.064780 0.133979 -0.015085 -1022280.000000 0 1 0
17.716192 -0.548706 -8.629241 19.713658 -0.030962 2.023868 0.131049 -0.013951 -714288.000000 0 1 0
18.939492 -0.186006 -8.050541 20.580334 -0.009821 1.972706 0.144010 -0.011215 746618.000000 0 1 0
19.872292 0.505494 -8.934241 21.794131 0.025432 1.993182 0.162298 -0.010629 172838.000000 0 1 0
19.467192 1.798694 -9.757041 21.849638 0.092135 2.033707 0.160550 -0.011980 -620374.000000 0 1 0
19.173792 2.936094 -8.920341 21.350115 0.151950 2.001832 0.127904 -0.007175 535801.000000 0 1 0
18.538192 3.981194 -9.600841 21.253014 0.211543 2.039511 0.118242 -0.017826 -831252.000000 0 1 0
18.759992 5.351694 -8.928041 21.454320 0.277890 1.999995 0.114211 -0.008320 -387093.000000 0 1 0
18.212692 6.423994 -9.618941 21.575307 0.339097 2.032899 0.100314 -0.010626 873924.000000 0 1 0
18.947092 7.597494 -9.220741 22.399470 0.381355 1.995060 0.145417 -0.001445 211366.000000 0 1 0
-27.069028 -29.050446 5.345059 40.065327 0.820691 1.436989 0.120590 -0.027207 68017.500000 0 0 1
-27.497408 -28.182906 6.411859 39.893554 0.797709 1.409372 0.122036 -0.020010 -149779.000000 0 0 1
-26.654698 -27.048766 6.360459 38.504080 0.792736 1.404846 0.130585 -0.021717 -431629.000000 0 0 1
-27.007088 -25.772096 7.242859 38.026869 0.762003 1.379159 0.111787 -0.016515 -2174740.000000 0 0 1
-28.076088 -25.062416 6.879859 38.258645 0.728745 1.389988 0.100794 -0.017090 -1098110.000000 0 0 1
-29.377498 -25.567916 7.169959 39.600051 0.716175 1.388733 0.100488 -0.014346 493453.000000 0 0 1
-29.752818 -25.545896 8.705759 40.169805 0.709468 1.352339 0.093453 -0.009247 -292158.000000 0 0 1
-28.757368 -26.224796 9.479459 40.057288 0.739369 1.331882 0.083471 -0.014755 -130392.000000 0 0 1
-29.128858 -26.430126 10.840859 40.799096 0.736862 1.301853 0.064153 -0.015988 -248221.000000 0 0 1
-28.088608 -27.260886 11.624559 40.832049 0.770445 1.282111 0.050345 -0.018004 -2748.030000 0 0 1
-26.894838 -26.595526 11.913359 39.655800 0.779803 1.265664 0.063269 -0.009534 -512167.000000 0 0 1
-26.957118 -25.945416 13.176259 39.666922 0.766277 1.232190 0.061344 -0.009878 -1317800.000000 0 0 1
-25.598308 -25.558196 13.681559 38.674020 0.784614 1.209202 0.089017 -0.018388 -1150740.000000 0 0 1
-24.825308 -26.588416 14.142159 39.028714 0.819677 1.200005 0.084787 -0.026270 -451695.000000 0 0 1
-23.655908 -26.136956 14.814959 38.239057 0.835184 1.172954 0.101513 -0.031867 176444.000000 0 0 1
-22.800108 -27.291796 15.289759 38.709996 0.874828 1.164748 0.100524 -0.033177 -264658.000000 0 0 1
-23.478508 -27.969406 16.327259 40.001343 0.872468 1.150350 0.097998 -0.021872 284485.000000 0 0 1
-22.712208 -29.089606 16.722359 40.517736 0.907893 1.145361 0.095229 -0.022095 200972.000000 0 0 1
-23.479508 -30.083916 17.674459 42.056104 0.908080 1.137066 0.092307 -0.025155 -212821.000000 0 0 1
-24.547508 -30.685476 17.016059 42.822014 0.896073 1.162150 0.070942 -0.026394 -235417.000000 0 0 1
-25.158298 -31.665236 17.868559 44.214393 0.899413 1.154764 0.071193 -0.023607 -347454.000000 0 0 1
-26.227318 -32.480916 17.185359 45.146636 0.891518 1.180290 0.062406 -0.026294 -537772.000000 0 0 1
-25.646728 -33.247716 16.197359 45.005775 0.913750 1.202641 0.066520 -0.028700 398435.000000 0 0 1
-26.540548 33.422580 15.728759 45.484760 -0.899669 1.217702 0.077291 -0.032566 -318558.000000 0 0 1
-25.910038 32.729382 14.522459 44.197787 -0.901171 1.235998 0.087309 -0.037519 723782.000000 0 0 1
-24.682608 32.006944 14.696159 43.007589 -0.913887 1.222060 0.066114 -0.033945 914563.000000 0 0 1
-23.549708 32.874159 14.642559 43.008181 -0.949175 1.223390 0.058115 -0.033387 -511241.000000 0 0 1
-22.230108 32.094621 14.494959 41.645483 -0.965025 1.215300 0.062815 -0.035042 -168196.000000 0 0 1
-22.092708 31.390834 13.260859 40.611853 -0.957528 1.238170 0.053972 -0.023774 -484084.000000 0 0 1
-21.111308 30.417804 13.373959 39.367409 -0.964079 1.224175 0.059951 -0.020461 -393654.000000 0 0 1
-20.855308 29.730024 12.019559 38.252948 -0.959071 1.251169 0.062105 -0.018949 179455.000000 0 0 1
-20.277208 30.621834 11.057159 38.355217 -0.985905 1.278363 0.047955 -0.009683 -62598.400000 0 0 1
-20.557708 30.096224 9.773659 37.734950 -0.971526 1.308801 0.064560 -0.012251 304695.000000 0 0 1
-19.834808 30.844934 8.619259 37.671225 -0.999323 1.339949 0.064663 -0.009120 1101680.000000 0 0 1
-18.472808 30.471924 8.336359 36.596143 -1.025813 1.340985 0.070827 -0.017411 534570.000000 0 0 1
-17.945108 30.922264 7.095559 36.449421 -1.044966 1.374877 0.090325 -0.022211 128399.000000 0 0 1
-17.629208 29.717674 6.096759 35.087029 -1.035375 1.396149 0.105664 -0.023277 328205.000000 0 0 1
-18.754108 28.971294 5.622159 34.966571 -0.996297 1.409309 0.092063 -0.016707 168600.000000 0 0 1
-19.159508 27.933754 6.510759 34.493062 -0.969602 1.380902 0.068331 -0.013217 140181.000000 0 0 1
-20.277008 27.069464 5.901359 34.332768 -0.927889 1.398051 0.066186 -0.008936 10197.100000 0 0 1
-19.776608 26.159484 4.937559 33.163418 -0.923465 1.421355 0.083463 -0.021157 321425.000000 0 0 1
-20.834908 25.454084 4.300659 33.173777 -0.884859 1.440790 0.097010 -0.024945 -130305.000000 0 0 1
-20.303008 24.579604 3.134159 32.034232 -0.880395 1.472802 0.109620 -0.030770 -925134.000000 0 0 1
-20.128008 25.245924 1.895059 32.343232 -0.897718 1.512171 0.100311 -0.032693 939057.000000 0 0 1
-18.999508 26.165834 1.766159 32.384433 -0.942755 1.516232 0.107995 -0.028171 734871.000000 0 0 1
-17.567008 25.609644 2.000359 31.120011 -0.969560 1.506473 0.114626 -0.034931 -431603.000000 0 0 1
-17.131308 24.558494 1.114859 29.964049 -0.961702 1.533581 0.144877 -0.042800 261594.000000 0 0 1
-16.925008 24.876324 -0.260741 30.089124 -0.973369 1.579462 0.123835 -0.041181 -544530.000000 0 0 1
-16.466408 23.622024 -0.990141 28.811855 -0.962034 1.605169 0.113887 -0.045030 -196577.000000 0 0 1
-17.456608 22.629184 -1.181141 28.604339 -0.913727 1.612100 0.121201 -0.056350 -62684.900000 0 0 1
-17.097208 21.494684 -1.919141 27.532146 -0.898857 1.640558 0.113004 -0.049690 169390.000000 0 0 1
-16.082108 20.467284 -1.287841 26.061513 -0.904807 1.620232 0.110453 -0.056818 362063.000000 0 0 1
-16.696708 19.613884 -0.393641 25.761201 -0.865565 1.586077 0.131519 -0.059868 270058.000000 0 0 1
-15.752908 18.634684 0.059259 24.401006 -0.869006 1.568368 0.151755 -0.058790 152201.000000 0 1 0
-16.328108 17.623084 0.992959 24.045086 -0.823522 1.529489 0.137828 -0.048948 -267799.000000 0 1 0
-16.834908 16.500984 0.371959 23.576152 -0.775382 1.555019 0.117484 -0.050336 -9958.620000 0 1 0
-17.444508 15.645484 1.323859 23.470080 -0.731084 1.514360 0.141486 -0.064888 -143100.000000 0 1 0
-17.990508 14.447684 0.510659 23.079314 -0.676612 1.548668 0.130178 -0.057820 -201960.000000 0 1 0
-19.285408 14.637884 -0.012041 24.211459 -0.649245 1.571294 0.180275 -0.065293 55743.000000 0 1 0
-19.878708 13.452584 -0.525241 24.008560 -0.594939 1.592675 0.192765 -0.058860 137672.000000 0 1 0
-21.196308 13.727384 -1.308341 25.287078 -0.574708 1.622559 0.202357 -0.051945 -365731.000000 0 0 1
-22.031508 12.607184 -1.549441 25.430871 -0.519753 1.631762 0.198374 -0.057966 387833.000000 0 0 1
-22.882208 12.179584 -0.521141 25.927000 -0.489132 1.590898 0.196879 -0.059827 -1561730.000000 0 0 1
-24.173908 12.938284 -0.480741 27.422767 -0.491423 1.588328 0.203583 -0.064882 -1642010.000000 0 0 1
-24.031808 14.306884 -0.139441 27.968450 -0.536979 1.575782 0.209412 -0.067444 175560.000000 0 0 1
-25.329588 14.867884 -0.112541 29.370984 -0.530789 1.574628 0.195093 -0.058475 175749.000000 0 0 1
-25.299308 16.298084 0.465559 30.098161 -0.572295 1.555328 0.187235 -0.058174 -75428.600000 0 0 1
-25.185198 16.323384 1.859859 30.070021 -0.575062 1.508906 0.178078 -0.052900 -66262.700000 0 0 1
-25.197478 17.691384 2.305659 30.874165 -0.612140 1.496048 0.148175 -0.046937 -390767.000000 0 0 1
-26.558758 18.322484 2.572859 32.368205 -0.603905 1.491225 0.158169 -0.043086 -1600850.000000 0 0 1
-27.244468 17.729284 3.672959 32.712065 -0.576901 1.458278 0.160195 -0.049442 12433.300000 0 0 1
-28.500308 18.328584 3.901159 34.108996 -0.571510 1.456172 0.140326 -0.049251 722051.000000 0 0 1
-29.608498 18.186984 2.764259 34.857864 -0.550831 1.491412 0.123400 -0.044613 -273392.000000 0 0 1
-30.696888 19.108984 2.973959 36.280803 -0.556804 1.488734 0.119304 -0.038955 490060.000000 0 0 1
-31.468078 19.060184 1.756559 36.832269 -0.544599 1.523087 0.108310 -0.039349 447684.000000 0 0 1
-32.814258 19.846284 1.884159 38.395320 -0.543946 1.521704 0.123448 -0.046899 390956.000000 0 0 1
-33.874758 19.043784 2.435159 38.937064 -0.512148 1.508215 0.154361 -0.039683 1118730.000000 0 0 1
-35.119764 19.765384 2.488559 40.376493 -0.512617 1.509123 0.159804 -0.043257 672932.000000 0 0 1
-35.273850 20.442984 3.885559 40.954337 -0.525248 1.475778 0.145844 -0.047620 -677507.000000 0 0 1
-34.255563 21.359184 4.202159 40.587147 -0.557538 1.467076 0.136934 -0.046366 107779.000000 0 0 1
-34.405105 21.818184 5.535359 41.114287 -0.565156 1.435753 0.144906 -0.041360 -584534.000000 0 0 1
-33.309948 22.786814 5.887559 40.785474 -0.599964 1.425936 0.133051 -0.037990 -680427.000000 0 0 1
-33.382068 24.086844 5.257359 41.499137 -0.625043 1.443769 0.117772 -0.034656 -191472.000000 0 0 1
-32.438218 24.903694 5.858659 41.312902 -0.654750 1.428505 0.101156 -0.035270 -462990.000000 0 0 1
-32.732838 26.402844 5.666759 42.434196 -0.678762 1.436854 0.097577 -0.032169 -615220.000000 0 0 1
-33.816258 26.747344 6.464959 43.597654 -0.669205 1.421961 0.105727 -0.028352 -479707.000000 0 0 1
-34.248893 28.044884 6.239959 44.703907 -0.686133 1.430755 0.092959 -0.024264 -353025.000000 0 0 1
-35.355506 28.424484 7.214559 45.934878 -0.677152 1.413083 0.093825 -0.021394 -817172.000000 0 0 1
-34.850747 28.465414 8.531959 45.800095 -0.684890 1.383415 0.092154 -0.029492 693939.000000 0 0 1
-35.693579 29.281404 9.395559 47.113785 -0.687030 1.370028 0.106054 -0.027771 363943.000000 0 0 1
-36.888138 28.529484 10.018359 47.697314 -0.658313 1.359180 0.098682 -0.024677 -311598.000000 0 0 1
-36.525958 27.509074 10.881759 47.003271 -0.645506 1.337166 0.117274 -0.030348 5400.350000 0 0 1
-37.619828 26.794774 11.432359 47.580566 -0.618901 1.328149 0.112123 -0.035109 -119859.000000 0 0 1
-37.207908 25.437914 12.103559 46.669177 -0.599682 1.308449 0.139085 -0.033333 332439.000000 0 0 1
-36.236938 25.648214 13.133559 46.297267 -0.615936 1.283168 0.166393 -0.046710 211944.000000 0 0 1
-35.731901 24.434604 13.699159 45.403586 -0.599792 1.264300 0.175607 -0.044793 398766.000000 0 0 1
-34.402826 24.578744 14.492059 44.695513 -0.620351 1.240588 0.188249 -0.047825 347398.000000 0 0 1
-34.589376 25.648964 15.421259 45.739584 -0.638056 1.226905 0.183396 -0.046808 489812.000000 0 0 1
-33.399648 25.831364 16.199359 45.224054 -0.658311 1.204455 0.202625 -0.042166 419017.000000 0 0 1
-33.394018 27.141424 16.984959 46.263443 -0.682475 1.194869 0.202069 -0.046590 69817.300000 0 0 1
-33.434558 28.275714 16.142859 46.668807 -0.701994 1.217596 0.212695 -0.042311 141499.000000 0 0 1
-33.862458 29.467614 16.865059 47.952441 -0.716113 1.211406 0.183602 -0.041599 161596.000000 0 0 1
-33.539478 30.798494 16.131359 48.308018 -0.742821 1.230330 0.145099 -0.039095 105747.000000 0 0 1
-32.185898 30.994644 15.783359 47.388969 -0.766546 1.231250 0.139595 -0.035005 -154684.000000 0 0 1
-31.917498 32.238616 15.151159 47.828994 -0.790403 1.248466 0.106048 -0.020420 -38805.600000 0 0 1
-30.488068 32.451319 14.586859 46.854956 -0.816581 1.254215 0.129931 -0.027859 290448.000000 0 0 1
-30.119578 31.661454 13.469159 45.728054 -0.810350 1.271813 0.124640 -0.030130 -202008.000000 0 0 1
-29.628088 30.369814 13.653459 44.570912 -0.797760 1.259460 0.146889 -0.029641 -882905.000000 0 0 1
-30.612268 29.228544 13.682359 44.481746 -0.762279 1.258132 0.184273 -0.036217 -477600.000000 0 0 1
-31.171008 29.165884 12.364759 44.442860 -0.752178 1.288859 0.187635 -0.045133 -429374.000000 0 0 1
-32.036488 28.095904 12.185359 44.319289 -0.719960 1.292264 0.193012 -0.047080 -57334.400000 0 0 1
-32.247598 27.914874 10.642659 43.959231 -0.713505 1.326264 0.164198 -0.034526 165498.000000 0 0 1
-31.056618 27.462464 10.023559 42.651755 -0.724057 1.333568 0.140328 -0.022631 -64103.500000 0 0 1
-31.096678 27.603674 8.638659 42.468725 -0.725963 1.365955 0.130599 -0.022502 275888.000000 0 0 1
-29.786918 27.168094 7.921059 41.086604 -0.739450 1.376792 0.137446 -0.027752 71069.800000 0 0 1
-29.746468 27.482224 6.534459 41.022240 -0.745854 1.410824 0.126384 -0.037364 129717.000000 0 0 1
-28.624908 26.777424 5.980759 39.650792 -0.752064 1.419383 0.105837 -0.024353 545043.000000 0 0 1
-28.152658 27.087964 4.540559 39.331242 -0.766127 1.455094 0.092954 -0.024895 21376.000000 0 0 1
-27.337418 28.244394 4.397659 39.552745 -0.801715 1.459381 0.085429 -0.036455 120331.000000 0 0 1
-27.207988 28.542754 3.027859 39.549101 -0.809335 1.494162 0.088110 -0.036655 -119902.000000 0 0 1
-26.093708 29.560214 2.673259 39.520048 -0.847605 1.503102 0.086703 -0.034525 193787.000000 0 0 1
-24.824008 29.080674 3.076559 38.358600 -0.864201 1.490505 0.087451 -0.029481 59246.900000 0 0 1
-23.804308 30.027294 2.763859 38.417735 -0.900488 1.498792 0.091609 -0.027822 -342817.000000 0 0 1
-22.418508 29.423604 2.771359 37.094722 -0.919708 1.496016 0.071451 -0.028377 -413452.000000 0 0 1
-21.385508 30.366104 2.577359 37.230136 -0.957220 1.501513 0.080061 -0.030028 -20436.000000 0 0 1
-20.079408 29.807144 2.713359 36.041792 -0.977979 1.495441 0.093502 -0.030250 523118.000000 0 0 1
-19.037608 30.763454 2.121959 36.239803 -1.016640 1.512210 0.081224 -0.031332 -195079.000000 0 0 1
-18.829308 31.931238 2.867359 37.180217 -1.037997 1.493599 0.093842 -0.030056 -125274.000000 0 0 1
-17.631708 32.592458 2.534459 37.142549 -1.074908 1.502507 0.100575 -0.025820 122378.000000 0 0 1
-17.080908 33.732204 3.420059 37.964665 -1.102067 1.480589 0.112024 -0.033713 198621.000000 0 0 1
-17.914008 -32.801566 3.391759 37.528103 1.070927 1.480294 0.118707 -0.037617 183556.000000 0 0 1
-17.478708 -31.897386 4.369659 36.633897 1.069515 1.451233 0.113493 -0.047999 -218302.000000 0 0 1
-18.568508 -30.897906 4.712459 36.354881 1.029669 1.440807 0.136509 -0.042653 -320394.000000 0 0 1
-18.797308 -29.875016 3.758859 35.496259 1.009184 1.464703 0.143277 -0.040051 -91946.700000 0 0 1
-19.815708 -29.034736 4.235859 35.406507 0.971924 1.450874 0.160932 -0.045306 -145146.000000 0 0 1
-20.226508 -27.960516 3.162959 34.654097 0.944541 1.479397 0.133967 -0.055625 264796.000000 0 0 1
-19.348608 -26.830626 3.083459 33.222867 0.946024 1.477851 0.140694 -0.052173 194929.000000 0 0 1
-19.665908 -26.017086 1.959059 32.672231 0.923540 1.510799 0.118870 -0.042499 265489.000000 0 0 1
-18.661708 -24.833906 1.898559 31.122127 0.926361 1.509755 0.124864 -0.034423 507101.000000 0 0 1
-17.489508 -25.170756 1.185359 30.673359 0.963546 1.532142 0.144375 -0.039554 -548428.000000 0 0 1
-16.591308 -24.060206 1.134659 29.248120 0.967102 1.531992 0.127916 -0.032742 869067.000000 0 0 1
-15.252008 -24.437106 0.390759 28.808829 1.012821 1.557232 0.122662 -0.035800 300588.000000 0 0 1
-15.361308 -24.600606 -1.024841 29.020853 1.012608 1.606118 0.104128 -0.033532 86206.400000 0 0 1
-15.433708 -23.364106 -1.673741 28.051421 0.987024 1.630499 0.106503 -0.038029 -148586.000000 0 0 1
-15.622808 -23.516706 -3.219241 28.416037 0.984414 1.684330 0.059410 -0.020105 221795.000000 0 0 1
-14.437208 -23.957106 -3.861641 28.236292 1.028447 1.707988 0.091005 -0.025027 -129708.000000 0 0 1
-14.646308 -24.220306 -5.216441 28.781050 1.026919 1.753049 0.071920 -0.026789 -183995.000000 0 0 1
-13.500808 -24.654906 -6.146441 28.773512 1.069804 1.786070 0.086773 -0.028279 -111519.000000 0 0 1
-13.009308 -25.959456 -5.983141 29.646812 1.106238 1.774006 0.073617 -0.031912 38308.900000 0 0 1
-11.984808 -26.255346 -6.926241 29.680830 1.142574 1.806325 0.085443 -0.032118 307945.000000 0 0 1
24.967392 12.163194 27.586649 39.145078 0.453326 0.788756 0.107929 -0.029085 -350026.000000 0 0 1
25.820692 11.251594 28.208009 39.862241 0.410948 0.784648 0.104232 -0.038975 -289415.000000 0 0 1
25.238092 10.547694 29.283169 40.071425 0.395865 0.751341 0.098557 -0.030880 -240749.000000 0 0 1
24.963992 11.324094 30.602909 41.084961 0.425858 0.730458 0.116249 -0.044920 341367.000000 0 0 1
23.904892 12.271794 30.587899 40.714375 0.474278 0.720797 0.110916 -0.033066 302213.000000 0 0 1
24.029892 13.012394 31.788285 41.919603 0.496301 0.710071 0.115253 -0.033160 -267694.000000 0 0 1
22.894892 14.056094 31.941713 41.737547 0.550607 0.699290 0.106352 -0.031190 161867.000000 0 0 1
21.705692 13.381894 32.323865 41.170917 0.552475 0.667916 0.111215 -0.013545 -98498.600000 0 0 1
20.942092 14.105694 33.241751 41.743931 0.592758 0.649601 0.114685 -0.012448 94811.300000 0 0 1
19.891492 13.221494 -33.586871 41.213557 0.586627 2.523434 0.103045 -0.004011 876419.000000 0 0 1
18.851392 12.696494 33.156679 40.198772 0.592721 0.600916 0.090144 -0.000494 1356630.000000 0 0 1
17.678792 12.306194 -33.684351 39.982716 0.608103 2.572653 0.068309 0.002779 1162120.000000 0 0 1
16.362592 12.004894 33.141461 38.861399 0.632974 0.549450 0.057197 0.004257 511952.000000 0 0 1
16.401092 10.809194 32.341563 37.839281 0.582713 0.545807 0.045471 0.015590 -507132.000000 0 0 1
15.156492 10.641294 31.737535 36.745442 0.612130 0.528204 0.084435 -0.004903 -170064.000000 0 0 1
15.195492 9.522794 30.691569 35.546575 0.559810 0.528789 0.099956 -0.001667 126626.000000 0 0 1
15.458692 8.252094 31.238219 35.817517 0.490333 0.511218 0.070835 -0.004366 -124702.000000 0 0 1
16.249892 7.480994 30.384089 35.259284 0.431446 0.532121 0.074416 -0.018677 26015.500000 0 0 1
16.487392 6.051794 30.894979 35.538121 0.351788 0.516916 0.089335 -0.032519 218038.000000 0 0 1
15.291292 5.293394 30.901069 34.881509 0.333259 0.482394 0.089573 -0.027895 157681.000000 0 0 1
15.633792 4.017494 31.448929 35.349552 0.251533 0.474206 0.085036 -0.031241 512807.000000 0 0 1
14.463992 2.984394 31.521597 34.809837 0.203477 0.438152 0.067529 -0.033413 40703.400000 0 0 1
15.004492 1.733294 31.953901 35.343894 0.115009 0.441561 0.064142 -0.039001 158483.000000 0 0 1
14.048092 0.777394 32.417903 35.339407 0.055282 0.409475 0.064884 -0.038544 -694865.000000 0 0 1
14.619092 -0.508906 32.967948 36.067470 -0.034797 0.417604 0.049256 -0.040819 -519985.000000 0 0 1
15.027892 -1.428206 32.000059 35.381932 -0.094752 0.440782 0.046546 -0.038105 167700.000000 0 0 1
15.680392 -2.524806 32.646867 36.305196 -0.159647 0.452781 0.081422 -0.049232 -200842.000000 0 0 1
15.695392 -3.707406 31.727156 35.590766 -0.231958 0.470276 0.085029 -0.052578 -976956.000000 0 0 1
16.107592 -4.996206 32.224675 36.370954 -0.300767 0.482150 0.098728 -0.053176 1564050.000000 0 0 1
17.453392 -5.277306 32.743990 37.478524 -0.293626 0.508094 0.082052 -0.051257 1495090.000000 0 0 1
18.625192 -4.880406 31.836484 37.205885 -0.256271 0.543925 0.097156 -0.054093 -1031650.000000 0 0 1
18.684492 -3.487006 31.839611 37.081401 -0.184503 0.538184 0.099532 -0.061111 -278743.000000 0 0 1
19.721292 -3.071406 30.967389 36.842124 -0.154499 0.572512 0.119962 -0.061240 79143.800000 0 0 1
19.727392 -1.585206 30.656539 36.489810 -0.080183 0.573256 0.117794 -0.057260 -71981.900000 0 0 1
20.382292 -0.797806 31.642653 37.647467 -0.039122 0.572593 0.102034 -0.056801 98031.800000 0 0 1
20.126292 0.585494 31.615757 37.482883 0.029083 0.567082 0.083997 -0.044750 485359.000000 0 0 1
21.259092 1.503594 30.964629 37.590132 0.070610 0.602814 0.093263 -0.041070 506233.000000 0 0 1
21.403892 1.450994 29.562129 36.526038 0.067688 0.627762 0.100471 -0.043151 -395202.000000 0 0 1
22.434592 2.255394 29.103609 36.815999 0.100195 0.659146 0.083575 -0.035363 -552483.000000 0 0 1
22.125792 3.760894 29.008089 36.676480 0.168369 0.658489 0.059942 -0.015624 -384581.000000 0 0 1
21.956392 4.376294 30.229799 37.617494 0.196739 0.637460 0.052523 -0.021784 320998.000000 0 0 1
21.248392 5.599694 30.098319 37.266064 0.257676 0.630623 0.054863 -0.018467 -171794.000000 0 0 1
20.834892 6.175894 31.469139 38.243183 0.288170 0.604354 0.064287 -0.017599 -18802.200000 0 0 1
19.740092 5.424094 31.976865 37.968565 0.268157 0.569458 0.061310 -0.010351 334627.000000 0 0 1
19.532992 5.846794 33.313634 39.057918 0.290841 0.549226 0.052929 -0.011149 -732645.000000 0 0 1
18.424592 5.072994 -33.604361 38.658168 0.268681 2.624519 0.055599 -0.015085 -630810.000000 0 0 1
18.618292 3.659394 -33.513751 38.512381 0.194074 2.626419 0.049981 -0.016326 539858.000000 0 0 1
17.387492 3.011494 -33.194221 37.593221 0.171498 2.652978 0.054837 -0.022729 384390.000000 0 0 1
17.500592 1.468994 -33.532551 37.853146 0.083743 2.659139 0.062646 -0.039280 -284273.000000 0 0 1
18.573692 0.886794 -32.818821 37.720597 0.047708 2.626101 0.053608 -0.032040 137225.000000 0 0 1
18.657792 -0.545406 -32.897471 37.823991 -0.029224 2.625495 0.066252 -0.039711 -573460.000000 0 0 1
19.681292 -1.106006 -31.930011 37.524687 -0.056137 2.588505 0.084803 -0.040340 -626432.000000 0 0 1
19.401592 -1.086106 -30.543501 36.200923 -0.055922 2.574975 0.091822 -0.042502 254617.000000 0 0 1
19.269892 0.212794 -29.953231 35.616991 0.011042 2.569891 0.077211 -0.033404 -410002.000000 0 0 1
18.763992 0.236294 -28.511701 34.132980 0.012592 2.559497 0.094431 -0.029108 142011.000000 0 0 1
17.411192 -0.206606 -28.454961 33.359813 -0.011866 2.592448 0.109150 -0.036629 504843.000000 0 0 1
16.983692 -0.412106 -27.082141 31.969642 -0.024260 2.581339 0.101568 -0.025247 48606.000000 0 0 1
17.661092 -1.547806 -26.236771 31.665092 -0.087416 2.547347 0.121537 -0.025355 1018660.000000 0 0 1
19.031292 -1.287206 -25.802211 32.087397 -0.067533 2.504995 0.123509 -0.024765 1229750.000000 0 0 1
19.645492 -2.544806 -25.537071 32.319706 -0.128819 2.481833 0.110200 -0.023333 351026.000000 0 0 1
20.514992 -3.095006 -26.735611 33.841348 -0.149736 2.481651 0.134750 -0.044405 138380.000000 0 0 1
21.744592 -2.396806 -26.841961 34.627487 -0.109782 2.457770 0.126311 -0.037333 -100805.000000 0 0 1
22.298692 -2.467606 -28.142171 35.990312 -0.110213 2.468564 0.132917 -0.047486 -252930.000000 0 0 1
23.633392 -1.762206 -28.354981 36.954669 -0.074427 2.445402 0.110388 -0.051157 -142354.000000 0 0 1
24.746492 -2.602206 -28.100111 37.533673 -0.104770 2.416841 0.103524 -0.051395 338383.000000 0 0 1
25.952692 -1.924306 -28.461011 38.565196 -0.074011 2.400894 0.076720 -0.050114 810805.000000 0 0 1
27.294692 -2.607106 -28.065441 39.236032 -0.095228 2.367846 0.093241 -0.046000 106397.000000 0 0 1
27.623492 -3.696606 -28.920361 40.163534 -0.133031 2.374693 0.111916 -0.056148 663563.000000 0 0 1
28.938492 -4.211706 -28.705951 40.978121 -0.144525 2.346921 0.103110 -0.052862 413566.000000 0 0 1
29.037492 -5.418706 -27.748781 40.528177 -0.184489 2.324959 0.085288 -0.038486 -242269.000000 0 0 1
29.024092 -5.154006 -26.386401 39.562657 -0.175745 2.300907 0.065843 -0.025363 424319.000000 0 0 1
29.076792 -6.382706 -25.642541 39.290440 -0.216085 2.281861 0.041699 -0.019670 -210140.000000 0 0 1
29.055292 -6.306106 -24.120241 38.285284 -0.213723 2.252367 0.025573 -0.014311 -204268.000000 0 0 1
30.326792 -6.146506 -23.538841 38.878926 -0.199967 2.221114 0.022909 -0.011051 -5787.990000 0 0 1
30.300092 -5.811006 -22.134741 37.971175 -0.189481 2.193133 0.036843 -0.013621 83822.800000 0 0 1
31.702792 -5.376406 -21.631241 38.754140 -0.167990 2.162970 0.042798 -0.016758 76550.700000 0 0 1
32.233792 -4.209806 -22.207241 39.368786 -0.129867 2.170118 0.060149 -0.027653 217436.000000 0 0 1
33.461492 -3.761906 -21.657941 40.036106 -0.111955 2.142375 0.082047 -0.027577 216996.000000 0 0 1
33.938292 -2.484606 -22.326841 40.699739 -0.073079 2.151455 0.095484 -0.037621 -49759.100000 0 0 1
33.234992 -1.348006 -21.845541 39.794591 -0.040538 2.151913 0.073483 -0.032232 -74338.100000 0 0 1
33.493392 -0.205406 -22.584241 40.396750 -0.006133 2.164049 0.081176 -0.030380 -562776.000000 0 0 1
32.583592 0.996994 -22.388041 39.546287 0.030588 2.172591 0.074015 -0.022556 -852618.000000 0 0 1
31.391492 0.803294 -23.087841 38.975883 0.025584 2.204784 0.058899 -0.027380 -646630.000000 0 0 1
30.454792 1.778994 -22.732441 38.045013 0.058348 2.211194 0.058100 -0.015922 -654032.000000 0 0 1
29.161292 1.701094 -23.536941 37.513494 0.058268 2.249039 0.064954 -0.021912 -75813.100000 0 0 1
28.258292 2.782394 -23.252241 36.700674 0.098147 2.256948 0.072787 -0.017410 739333.000000 0 0 1
27.138392 2.830894 -24.128041 36.423463 0.103937 2.294856 0.096918 -0.025379 629294.000000 0 0 1
26.050992 3.887894 -23.747041 35.463951 0.148148 2.304481 0.096015 -0.019516 184832.000000 0 0 1
26.567992 5.177794 -23.754841 36.013334 0.192476 2.291099 0.083293 -0.011569 689805.000000 0 0 1
25.502892 6.132694 -23.594141 35.280177 0.235990 2.303343 0.112085 -0.021553 489367.000000 0 0 1
25.941292 7.438094 -22.853541 35.363260 0.279237 2.273458 0.128472 -0.019924 -173721.000000 0 0 1
26.952792 8.140094 -23.538441 36.698397 0.293303 2.267121 0.127747 -0.016199 39281.400000 0 0 1
27.058492 9.457094 -23.054941 36.784900 0.336234 2.248172 0.147898 -0.018879 688530.000000 0 0 1
28.335792 10.176894 -23.639341 38.279299 0.344806 2.236419 0.179221 -0.019368 463040.000000 0 0 1
28.226192 10.548694 -25.027941 39.171299 0.357648 2.263910 0.198805 -0.024207 -2438.390000 0 0 1
27.407892 11.646094 -25.283941 39.065352 0.401801 2.274730 0.213578 -0.021051 -212657.000000 0 0 1
27.188592 11.882994 -26.757951 39.955137 0.412039 2.304601 0.201820 -0.021191 -579787.000000 0 0 1
26.509692 10.915294 -27.515921 39.737052 0.390592 2.335676 0.165772 -0.017937 -44880.200000 0 0 1
27.229892 9.841894 -28.071461 40.327866 0.346827 2.340721 0.150127 -0.031383 -289909.000000 0 0 1
28.172192 10.210894 -29.258041 41.880398 0.347719 2.344249 0.142535 -0.031670 -1066300.000000 0 0 1
29.402592 10.784494 -28.854881 42.584291 0.351551 2.315283 0.134691 -0.033770 -135776.000000 0 0 1
30.214492 11.057594 -29.946731 43.954438 0.350830 2.320351 0.139951 -0.039053 -139801.000000 0 0 1
30.817192 9.855294 -30.729541 44.622089 0.309520 2.330439 0.102452 -0.036858 -832123.000000 0 0 1
29.853892 9.098094 -31.476071 44.325762 0.295813 2.360448 0.102581 -0.030955 640579.000000 0 0 1
30.467992 7.919094 -32.000921 44.889526 0.254289 2.364395 0.091920 -0.021367 215480.000000 0 0 1
29.377092 7.028394 -32.633351 44.467375 0.234833 2.394801 0.096334 -0.026982 371331.000000 0 0 1
28.377892 6.627694 -31.706381 43.064204 0.229439 2.398321 0.099983 -0.029179 283336.000000 0 0 1
27.289292 6.020494 -32.384921 42.775401 0.217139 2.429647 0.059389 -0.026255 -150279.000000 0 0 1
25.974192 6.063494 -31.601091 41.352794 0.229336 2.440570 0.094741 -0.019508 -509983.000000 0 0 1
25.460292 7.410494 -31.490051 41.167526 0.283236 2.441721 0.092552 -0.012681 39707.400000 0 0 1
24.435592 7.631494 -30.559531 39.865057 0.302712 2.444286 0.102513 -0.015422 -1294990.000000 0 0 1
23.060092 7.522994 -31.119931 39.456474 0.315348 2.479513 0.119357 -0.014292 -1503530.000000 0 0 1
22.688792 8.644094 -31.926621 40.109983 0.364008 2.491416 0.116375 -0.018479 433387.000000 0 0 1
21.428492 8.368094 -32.544721 39.854286 0.372301 2.526280 0.096107 -0.010050 377135.000000 0 0 1
20.969892 9.417994 -33.528941 40.652489 0.422122 2.540591 0.098751 -0.004341 -123590.000000 0 0 1
21.620592 9.273894 32.804437 40.368133 0.405201 0.622142 0.081495 -0.010470 169097.000000 0 0 1
21.244492 10.288894 31.885171 39.671827 0.451016 0.637270 0.072309 -0.015164 718497.000000 0 0 1
20.014392 9.900994 30.966099 38.177282 0.459394 0.624743 0.073919 -0.012963 724046.000000 0 0 1
20.301992 8.884294 29.962639 37.267429 0.412500 0.636821 0.062249 -0.016445 601814.000000 0 0 1
21.325392 9.134494 28.957749 37.104751 0.404695 0.675439 0.071597 -0.019382 43213.400000 0 0 1
21.132792 10.225894 27.885629 36.452326 0.450675 0.699772 0.090612 -0.021597 -21150.300000 0 0 1
20.149692 9.916894 26.910529 35.050413 0.457357 0.695449 0.081191 -0.014409 1205800.000000 0 0 1
18.801392 10.288894 27.283959 34.695361 0.500723 0.665859 0.106135 -0.039320 280083.000000 0 0 1
17.742092 9.360594 26.728019 33.418401 0.485477 0.643835 0.118017 -0.033745 -625834.000000 0 0 1
17.456192 9.528594 25.324689 32.200196 0.499657 0.665714 0.113599 -0.031801 84757.000000 0 0 1
16.154192 9.113294 24.973839 31.107920 0.513638 0.638798 0.141738 -0.032433 210453.000000 0 0 1
15.893192 7.630294 24.725389 30.367084 0.447600 0.619417 0.132918 -0.026515 -143044.000000 0 0 1
16.100692 6.910294 25.862069 31.238294 0.405416 0.595450 0.104761 -0.030565 -8086.950000 0 0 1
15.955992 5.540994 25.604209 30.673634 0.334238 0.583154 0.120406 -0.027931 -180890.000000 0 0 1
16.373892 4.753494 26.830229 31.789326 0.282543 0.566096 0.081727 -0.028820 -1183280.000000 0 0 1
17.727992 4.821894 27.087499 32.730184 0.265569 0.595978 0.090487 -0.022118 -823815.000000 0 0 1
18.207092 4.039794 28.188899 33.799884 0.218343 0.584489 0.090541 -0.031202 -518057.000000 0 0 1
18.360592 2.460394 27.975859 33.553145 0.133210 0.584881 0.081067 -0.032426 -3900.570000 0 0 1
17.257292 1.561494 27.772339 32.734618 0.090237 0.557824 0.082226 -0.040914 765084.000000 0 0 1
16.364592 1.432894 28.903949 33.245922 0.087338 0.516813 0.067972 -0.038691 206494.000000 0 0 1
16.205892 -0.032206 29.392989 33.564561 -0.001987 0.503882 0.074912 -0.038903 -393705.000000 0 0 1
15.406392 -0.786606 28.467249 32.378387 -0.051013 0.496605 0.076775 -0.029704 241187.000000 0 0 1
15.923192 -1.182906 27.226459 31.563070 -0.074152 0.530400 0.094523 -0.031717 -359171.000000 0 0 1
17.036692 -2.282306 27.164689 32.146199 -0.133171 0.564164 0.091612 -0.027654 2527800.000000 0 0 1
18.418292 -1.981706 27.566079 33.212187 -0.107182 0.591691 0.101970 -0.044674 1854840.000000 0 0 1
19.159992 -1.093806 26.754979 32.926138 -0.057026 0.622239 0.097477 -0.038931 -494278.000000 0 0 1
20.535692 -0.697806 27.297679 34.166721 -0.033967 0.645240 0.121690 -0.029216 -74546.700000 0 0 1
21.595492 -1.597406 27.016289 34.623646 -0.073835 0.675676 0.105792 -0.030111 -641998.000000 0 0 1
22.795192 -0.970406 27.353529 35.619910 -0.042545 0.695196 0.106477 -0.035498 -552069.000000 0 0 1
24.013292 -1.642206 26.703069 35.949811 -0.068281 0.733572 0.111309 -0.038775 -382125.000000 0 0 1
24.235292 -1.382606 25.377729 35.118230 -0.056988 0.763187 0.116605 -0.017380 -170109.000000 0 0 1
23.411592 -2.132606 24.526219 33.973314 -0.090841 0.764215 0.139953 -0.010893 -246448.000000 0 0 1
23.363292 -1.808206 23.060019 32.876701 -0.077241 0.793424 0.132083 -0.039722 -88555.800000 0 0 1
22.563292 -0.664406 22.913089 32.164471 -0.029438 0.777923 0.110084 -0.021327 112952.000000 0 0 1
22.323792 -0.374206 21.482659 30.983808 -0.016761 0.804667 0.096190 -0.003013 41623.300000 0 0 1
-31.959488 -26.604997 -10.444641 42.875696 0.694223 1.816875 0.039585 0.022606 -223136.000000 0 0 1
-31.763048 -25.464997 -9.641841 41.836855 0.675787 1.803350 0.049744 0.026408 -105538.000000 0 0 1
-32.188268 -25.628697 -8.274541 41.968831 0.672427 1.769256 0.068191 0.016023 -479140.000000 0 0 1
-32.157978 -24.362897 -7.379841 41.014002 0.648348 1.751716 0.109700 0.008267 178597.000000 0 0 1
-30.919208 -23.879897 -6.914941 39.674467 0.657641 1.745983 0.105700 0.002957 -406882.000000 0 0 1
-30.271298 -24.721797 -5.957841 39.534980 0.684826 1.722071 0.114362 -0.004705 -137433.000000 0 0 1
-28.992838 -24.143297 -5.338341 38.104873 0.694384 1.711355 0.103563 -0.005880 -453615.000000 0 0 1
-29.145248 -23.131397 -4.292641 37.455758 0.670863 1.685654 0.124834 -0.007634 46088.800000 0 0 1
-29.696548 -21.902497 -4.765541 37.206380 0.635481 1.699233 0.143435 -0.010819 -183301.000000 0 0 1
-29.690408 -20.723797 -3.735041 36.399816 0.609380 1.673589 0.142095 -0.016029 650648.000000 0 0 1
-28.407888 -20.094997 -3.567841 34.979230 0.615658 1.672973 0.152032 -0.029527 726648.000000 0 0 1
-28.461808 -19.000597 -2.637441 34.322781 0.588636 1.647714 0.187140 -0.024949 -634436.000000 0 0 1
-27.507838 -17.940297 -3.079441 32.985124 0.577912 1.664291 0.170259 -0.024516 -194619.000000 0 0 1
-28.000278 -17.220897 -4.199341 33.139242 0.551395 1.697856 0.170772 -0.039996 859391.000000 0 0 1
-27.017618 -16.220697 -4.536641 31.837774 0.540695 1.713775 0.133577 -0.039868 544027.000000 0 0 1
-27.525498 -15.353197 -5.674841 32.024640 0.508797 1.748939 0.161909 -0.052692 50414.700000 0 0 1
-28.733428 -14.689297 -5.380241 32.715934 0.472589 1.736000 0.152970 -0.030693 -10278.900000 0 0 1
-28.982938 -13.643297 -6.301641 32.647526 0.439963 1.765036 0.187370 -0.049490 -475317.000000 0 0 1
-30.225978 -12.801997 -6.004941 33.370050 0.400636 1.751732 0.175870 -0.040977 418186.000000 0 0 1
-31.405598 -13.420097 -6.543541 34.773964 0.403830 1.760098 0.175880 -0.040456 -298014.000000 0 0 1
-32.565278 -12.759697 -6.230741 35.526460 0.373434 1.747091 0.166984 -0.042366 -892989.000000 0 0 1
-33.792718 -13.300297 -6.996241 36.983687 0.374964 1.761114 0.124093 -0.038719 -686383.000000 0 0 1
-34.471059 -14.286097 -6.327741 37.846886 0.392890 1.738778 0.119141 -0.024307 43861.800000 0 0 1
-34.980844 -15.234097 -7.240641 38.835088 0.410729 1.758340 0.122576 -0.034523 -657257.000000 0 0 1
-35.920032 -16.340897 -6.695041 40.026207 0.426941 1.738853 0.125241 -0.027382 714604.000000 0 0 1
-37.324258 -16.067397 -6.697941 41.184025 0.406504 1.734156 0.092919 -0.031125 763025.000000 0 0 1
-37.717958 -15.218497 -5.602941 41.056546 0.383504 1.707692 0.116127 -0.033123 -1229150.000000 0 0 1
36.430010 -15.045897 -5.398241 39.782730 -0.391670 1.706909 0.153340 -0.037428 -1290170.000000 0 0 1
35.880540 -14.067397 -6.281541 39.048208 -0.373645 1.732365 0.174610 -0.047898 1988980.000000 0 0 1
34.425960 -14.047797 -6.408441 37.730033 -0.387434 1.741474 0.172449 -0.034755 1680790.000000 0 0 1
33.603720 -13.526997 -5.234041 36.600339 -0.382698 1.714294 0.195577 -0.046248 -759627.000000 0 0 1
33.730920 -14.326597 -4.081741 36.873933 -0.401644 1.681718 0.180101 -0.046101 452382.000000 0 0 1
32.992660 -13.718197 -3.010341 35.857589 -0.394049 1.654848 0.224449 -0.048362 -348973.000000 0 0 1
32.959240 -14.587497 -1.739341 36.085064 -0.416676 1.619016 0.221744 -0.053782 -230560.000000 0 0 1
34.202620 -14.877997 -1.162241 37.316548 -0.410307 1.601947 0.250557 -0.043894 214231.000000 0 0 1
35.195840 -15.730397 -1.721641 38.589591 -0.420306 1.615425 0.208590 -0.043056 -197837.000000 0 0 1
34.717980 -17.140497 -2.167641 38.779291 -0.458600 1.626722 0.177945 -0.036009 -684161.000000 0 0 1
34.484850 -18.106697 -1.102741 38.965027 -0.483496 1.599101 0.162174 -0.037948 199344.000000 0 0 1
34.420300 -19.478197 -1.431641 39.575330 -0.514963 1.606979 0.136185 -0.027154 65260.400000 0 0 1
35.621920 -20.148997 -2.183641 40.983796 -0.514768 1.624102 0.119426 -0.025207 280655.000000 0 0 1
35.827490 -19.597097 -3.470141 40.984108 -0.500525 1.655568 0.099848 -0.031204 -678948.000000 0 0 1
36.916930 -20.095197 -4.142541 42.235498 -0.498484 1.669036 0.096834 -0.018871 -762208.000000 0 0 1
37.228770 -19.345397 -5.472941 42.310504 -0.479232 1.700512 0.110411 -0.031496 -209121.000000 0 0 1
36.262640 -19.575097 -6.464741 41.712784 -0.494990 1.726406 0.093450 -0.037608 155520.000000 0 0 1
36.211280 -18.417797 -7.271141 41.271558 -0.470520 1.747899 0.110695 -0.042469 -427363.000000 0 0 1
35.154420 -18.382897 -8.372441 40.544567 -0.481814 1.778793 0.107080 -0.041562 -452402.000000 0 0 1
35.243030 -19.459797 -9.284941 41.315433 -0.504500 1.797465 0.109602 -0.035522 1364410.000000 0 0 1
34.056830 -19.432497 -10.126041 40.497238 -0.518514 1.823521 0.108906 -0.054231 518492.000000 0 0 1
33.926190 -20.737397 -10.992941 41.253736 -0.548651 1.840527 0.112014 -0.041560 -97208.000000 0 0 1
33.644200 -21.891097 -10.162441 41.405646 -0.576842 1.818766 0.101827 -0.046543 432410.000000 0 0 1
33.359250 -23.074497 -10.942341 42.011984 -0.605132 1.834292 0.091442 -0.038532 -239712.000000 0 0 1
32.909530 -24.386697 -10.194641 42.209938 -0.637731 1.814731 0.113918 -0.029590 496783.000000 0 0 1
31.664300 -24.124097 -9.542641 40.934850 -0.651055 1.806079 0.122708 -0.035096 495504.000000 0 0 1
30.914810 -25.294997 -9.224341 40.995741 -0.685750 1.797747 0.081078 -0.022132 1497240.000000 0 0 1
29.451840 -24.842297 -8.781341 39.517876 -0.700702 1.794879 0.068927 -0.023487 1335520.000000 0 0 1
28.543840 -24.410897 -9.773141 38.809238 -0.707509 1.825362 0.067253 -0.020392 392892.000000 0 0 1
27.259540 -24.128997 -9.198941 37.548788 -0.724554 1.818302 0.095905 -0.029449 326352.000000 0 0 1
26.314640 -23.675797 -10.308741 36.868330 -0.732660 1.854184 0.181607 -0.051106 -878918.000000 0 0 1
25.795640 -24.752597 -11.090841 37.431442 -0.764766 1.871610 0.143768 -0.043646 285385.000000 0 0 1
25.215940 -24.307697 -12.305141 37.123096 -0.767061 1.908656 0.148478 -0.033617 -184877.000000 0 0 1
24.473540 -25.402097 -13.071141 37.617488 -0.804013 1.925673 0.137524 -0.037434 -60033.500000 0 0 1
25.294740 -26.422497 -13.615041 39.030008 -0.807201 1.927124 0.116631 -0.032289 375147.000000 0 0 1
24.477640 -27.559097 -13.788141 39.354434 -0.844546 1.928750 0.131724 -0.013213 -13206.400000 0 0 1
25.200140 -28.777597 -14.383041 40.866478 -0.851578 1.930452 0.109231 -0.011783 -310328.000000 0 0 1
25.453540 -28.744997 -15.734641 41.493812 -0.846053 1.959733 0.103531 -0.015914 300478.000000 0 0 1
25.550740 -30.062897 -16.253441 42.670744 -0.866355 1.961570 0.104459 -0.015380 -301793.000000 0 0 1
25.313640 -30.095097 -17.770441 43.154186 -0.871479 1.995213 0.095136 -0.004713 -231673.000000 0 0 1
24.037840 -29.662397 -18.158741 42.277836 -0.889758 2.014746 0.105772 -0.012708 -200878.000000 0 0 1
23.798740 -29.924597 -19.481141 42.911262 -0.898934 2.042031 0.089442 -0.005721 -164363.000000 0 0 1
22.408240 -29.478497 -19.959841 42.065499 -0.920827 2.065186 0.068549 0.000361 -173252.000000 0 0 1
22.281940 -29.675797 -21.366141 42.821137 -0.926754 2.093198 0.033718 0.009835 -377615.000000 0 0 1
21.049840 -29.262697 -21.855141 42.155052 -0.947208 2.115830 0.041852 0.002195 -883381.000000 0 0 1
20.869540 -29.335397 -23.379541 42.926753 -0.952453 2.146754 0.035076 -0.000847 -439948.000000 0 0 1
21.524940 -28.353897 -24.194641 43.042388 -0.921463 2.167733 0.049886 -0.002844 433386.000000 0 0 1
21.360040 -28.701697 -25.547971 43.962911 -0.931012 2.190907 0.038924 -0.002991 -309955.000000 0 0 1
21.934640 -27.654697 -26.493351 44.133982 -0.900239 2.214665 0.042260 -0.006816 125681.000000 0 0 1
21.189940 -26.428597 -26.502781 43.010251 -0.894971 2.234701 0.068302 -0.025147 493515.000000 0 0 1
20.080840 -26.497897 -27.402721 43.084658 -0.922304 2.260126 0.083503 -0.035805 -214916.000000 0 0 1
19.309440 -25.198897 -27.546101 42.031257 -0.916956 2.285471 0.079997 -0.032458 -710593.000000 0 0 1
18.452740 -24.971297 -26.473111 40.803123 -0.934400 2.276804 0.064821 -0.015868 -57188.600000 0 0 1
17.754140 -23.730097 -26.709891 39.896682 -0.928468 2.304300 0.053186 -0.014921 219131.000000 0 0 1
16.448540 -23.498997 -25.926481 38.664451 -0.960092 2.305747 0.062620 -0.013485 25834.000000 0 0 1
15.366840 -24.356597 -26.286491 38.991835 -1.007958 2.310615 0.118033 -0.024583 517866.000000 0 0 1
14.150440 -24.090897 -25.576751 37.878443 -1.039710 2.312076 0.100817 -0.020640 688708.000000 0 0 1
14.016040 -24.233397 -24.027041 36.891809 -1.046428 2.280071 0.085224 -0.021069 -372807.000000 0 0 1
14.844040 -23.337897 -23.266641 36.143319 -1.004291 2.270163 0.051271 -0.015611 7058.430000 0 0 1
14.906340 -23.735897 -21.898941 35.569023 -1.010037 2.234038 0.065296 -0.018700 -125680.000000 0 0 1
15.953940 -22.962597 -21.097541 35.027351 -0.963583 2.217196 0.035589 -0.017929 -177314.000000 0 0 1
15.722340 -21.554297 -20.908841 33.896302 -0.940591 2.235527 0.029680 -0.016131 189744.000000 0 0 1
16.924740 -20.837197 -20.653541 33.870405 -0.888638 2.226581 0.020245 -0.016309 -96570.500000 0 0 1
16.640740 -19.430997 -20.072841 32.517638 -0.862597 2.236091 0.045282 -0.012446 62297.300000 0 0 1
16.082640 -19.593397 -18.780541 31.547761 -0.883489 2.208442 0.048460 -0.014977 115899.000000 0 0 1
14.671040 -19.510597 -18.837841 30.834511 -0.926047 2.228036 0.037840 -0.014010 -440344.000000 0 0 1
13.959940 -19.452897 -17.478041 29.644174 -0.948337 2.201353 0.046974 -0.007061 -140411.000000 0 0 1
13.859440 -18.239097 -16.792841 28.403314 -0.921005 2.203377 0.074696 -0.018255 62042.300000 0 0 1
13.316940 -18.528397 -15.553441 27.614342 -0.947609 2.169095 0.063017 -0.017129 -350365.000000 0 0 1
13.226840 -17.296297 -14.653941 26.245936 -0.917940 2.163170 0.069099 -0.012755 -95680.900000 0 0 1
12.208340 -16.414297 -15.085241 25.417262 -0.931299 2.206202 0.061600 -0.027446 98729.200000 0 0 1
12.279940 -15.138197 -14.465141 24.273488 -0.889270 2.209211 0.056529 -0.033919 181.354000 0 1 0
10.916440 -14.531797 -14.019141 22.953825 -0.926521 2.227809 0.069732 -0.028488 323586.000000 0 1 0
10.026540 -14.421097 -15.119641 23.175484 -0.963253 2.281541 0.098838 -0.019721 435368.000000 0 1 0
8.786040 -13.767297 -14.888941 22.100080 -1.002774 2.310008 0.089501 -0.021673 346736.000000 0 1 0
8.039240 -13.207097 -16.111641 22.330288 -1.024000 2.376784 0.070959 -0.012964 -211977.000000 0 1 0
8.700140 -12.133297 -16.767141 22.450976 -0.948721 2.414084 0.074046 -0.007878 878705.000000 0 1 0
9.936440 -12.511597 -17.415641 23.634243 -0.899615 2.399242 0.102440 -0.013977 504511.000000 0 1 0
10.494640 -11.417297 -18.370241 24.040755 -0.827481 2.440487 0.118815 -0.017246 -477354.000000 0 1 0
9.842740 -11.186797 -19.581141 24.605793 -0.849224 2.491114 0.119527 -0.026726 -4856.220000 0 1 0
9.946440 -9.896897 -20.161041 24.563139 -0.782901 2.533579 0.122278 -0.034102 -117068.000000 0 1 0
9.496940 -9.964297 -21.619841 25.629994 -0.809408 2.574631 0.113497 -0.038785 -524015.000000 0 0 1
10.426040 -10.569497 -22.440441 26.907062 -0.792231 2.557111 0.133159 -0.043135 -516462.000000 0 0 1
10.152540 -10.429297 -23.846541 27.937463 -0.798844 2.593593 0.127481 -0.034643 -352397.000000 0 0 1
11.287340 -10.907797 -24.750241 29.307994 -0.768300 2.576404 0.143995 -0.034761 -493681.000000 0 0 1
11.495840 -12.268397 -24.577541 29.777902 -0.817896 2.541639 0.128866 -0.032170 404597.000000 0 0 1
12.552640 -12.778697 -25.397181 31.078621 -0.794322 2.527317 0.111749 -0.037973 131492.000000 0 0 1
12.713040 -14.303597 -25.198481 31.641392 -0.844204 2.492077 0.095901 -0.028803 634389.000000 0 0 1
11.567340 -15.087997 -25.607271 31.893312 -0.916719 2.502947 0.086823 -0.027065 605424.000000 0 0 1
11.630040 -16.421497 -25.144301 32.204957 -0.954575 2.466676 0.071061 -0.024808 -161712.000000 0 0 1
10.534340 -17.376197 -25.634531 32.711370 -1.025793 2.471329 0.074147 -0.020007 -96288.600000 0 0 1
10.643140 -17.966497 -26.931381 34.078890 -1.035993 2.482039 0.078509 -0.035899 689899.000000 0 0 1
9.541740 -18.881997 -27.088441 34.370892 -1.102890 2.478548 0.089605 -0.034216 468593.000000 0 0 1
9.779640 -19.719097 -28.371331 35.908447 -1.110396 2.481771 0.089727 -0.035368 38692.000000 0 0 1
10.796640 -20.675997 -28.091141 36.512689 -1.089561 2.448624 0.077432 -0.034602 329996.000000 0 0 1
11.154740 -21.476897 -29.196461 37.922535 -1.091763 2.449477 0.096277 -0.036269 -304492.000000 0 0 1
11.864340 -22.771497 -28.847951 38.620045 -1.090477 2.414287 0.083312 -0.025954 -98368.700000 0 0 1
11.842240 -23.836497 -29.759041 39.925152 -1.109703 2.411887 0.085330 -0.025316 143805.000000 0 0 1
12.505140 -25.027797 -29.267171 40.488720 -1.107429 2.378711 0.121037 -0.030577 -26807.800000 0 0 1
11.606240 -26.024297 -28.479521 40.287119 -1.151293 2.355922 0.129157 -0.027928 125575.000000 0 0 1
11.087140 -25.299097 -27.378501 38.891532 -1.157763 2.351769 0.137457 -0.035273 -477532.000000 0 0 1
10.632640 -26.157797 -26.382641 38.643591 -1.184716 2.322271 0.136641 -0.030457 172673.000000 0 0 1
9.739940 -25.472997 -25.337191 37.225170 -1.205586 2.319441 0.119137 -0.026080 -85868.000000 0 0 1
10.484640 -24.532297 -24.681441 36.344667 -1.166911 2.317324 0.113944 -0.025530 65570.200000 0 0 1
9.672140 -23.374597 -24.566341 35.262263 -1.178460 2.341549 0.090950 -0.019451 452450.000000 0 0 1
10.593740 -22.124397 -24.750341 34.846745 -1.124231 2.360668 0.078027 -0.010654 606901.000000 0 0 1
11.299140 -21.821597 -23.549641 34.035838 -1.093013 2.334924 0.069279 -0.010274 296429.000000 0 0 1
12.295640 -20.811897 -23.654641 33.820997 -1.037170 2.345364 0.061321 -0.014512 133998.000000 0 0 1
12.926640 -20.437197 -22.273441 32.876788 -1.006818 2.315131 0.044852 -0.002393 -247596.000000 0 0 1
12.113940 -19.797197 -21.318241 31.514186 -1.021671 2.313748 0.033567 0.001690 -135985.000000 0 0 1
11.776840 -18.411597 -21.526141 30.676630 -1.001737 2.348593 0.037454 -0.001227 237131.000000 0 0 1
12.968640 -17.431997 -21.286741 30.416862 -0.931175 2.345961 0.059069 -0.004680 330443.000000 0 0 1
13.972840 -17.506397 -22.269641 31.585615 -0.897181 2.353299 0.055701 -0.007722 -453964.000000 0 0 1
14.850340 -16.447497 -22.133541 31.320064 -0.836385 2.355604 0.069138 -0.007824 124137.000000 0 0 1
16.200140 -16.455597 -22.917941 32.534032 -0.793221 2.352416 0.045972 -0.007152 711909.000000 0 0 1
17.270040 -17.172497 -22.290841 33.015610 -0.782566 2.311979 0.047657 0.002611 1028740.000000 0 0 1
18.481740 -16.848497 -22.987841 33.968918 -0.739203 2.314111 0.066218 -0.003355 1442540.000000 0 0 1
19.822940 -17.203297 -22.212241 34.384386 -0.714765 2.273126 0.066391 -0.008444 1045870.000000 0 0 1
20.241240 -18.630297 -22.142841 35.314319 -0.743979 2.248520 0.066372 -0.017616 675503.000000 0 0 1
21.605140 -18.728797 -21.762141 35.932446 -0.714205 2.221367 0.076696 -0.026852 246891.000000 0 0 1
21.958840 -20.133197 -21.212241 36.571785 -0.742053 2.189545 0.087774 -0.033786 -253110.000000 0 0 1
21.256340 -20.554197 -20.043041 35.721569 -0.768606 2.166499 0.087912 -0.035297 365013.000000 0 0 1
21.316640 -21.965797 -19.913441 36.516305 -0.800395 2.147579 0.097321 -0.034596 -104779.000000 0 0 1
-16.735708 12.947994 28.485709 35.484787 -0.658482 0.638890 0.064785 -0.031047 -357963.000000 0 0 1
-17.815208 13.803194 28.211749 36.108345 -0.659184 0.674037 0.067741 -0.031017 -204093.000000 0 0 1
-18.211308 13.521894 26.878929 35.170587 -0.638684 0.700927 0.057661 -0.026515 -431898.000000 0 0 1
-19.448608 14.113094 26.238479 35.579286 -0.627741 0.741487 0.075681 -0.024630 -483865.000000 0 0 1
-19.306908 15.551694 26.086139 35.987478 -0.678085 0.759955 0.079483 -0.023900 -340965.000000 0 0 1
-20.366908 16.156694 25.409259 36.352168 -0.670631 0.796833 0.085151 -0.018307 -611093.000000 0 0 1
-20.458908 17.620094 25.960199 37.456195 -0.710985 0.805041 0.089097 -0.007689 -36375.100000 0 0 1
-19.463008 18.532694 25.586459 37.107093 -0.760918 0.809956 0.079841 -0.017987 -40189.100000 0 0 1
-18.263808 18.496494 26.347619 37.011944 -0.791728 0.778642 0.075454 -0.009603 82208.900000 0 0 1
-17.187108 19.398794 25.710239 36.506524 -0.845777 0.789410 0.077885 -0.011313 -134882.000000 0 0 1
-17.250008 20.755594 26.022509 37.490378 -0.877377 0.803611 0.089397 -0.009830 -190330.000000 0 0 1
-16.282008 21.476594 25.315459 36.975943 -0.922114 0.816677 0.102801 -0.021202 107637.000000 0 0 1
-16.682708 23.004094 25.250799 38.014523 -0.943353 0.844319 0.106353 -0.019121 305187.000000 0 0 1
-16.120608 23.699394 26.364859 38.944076 -0.973475 0.827127 0.102548 -0.011686 20002.200000 0 0 1
-16.277108 25.036194 26.143939 39.689555 -0.994321 0.851692 0.103357 -0.010552 -138074.000000 0 0 1
-15.674708 25.998294 27.180339 40.747743 -1.028238 0.840569 0.080401 -0.004180 -686009.000000 0 0 1
-14.281908 25.914394 27.215529 40.202161 -1.067095 0.827163 0.079150 -0.008146 -780323.000000 0 0 1
-13.886008 26.923594 28.113809 41.329014 -1.094623 0.822701 0.088480 0.000018 547993.000000 0 0 1
-12.326208 26.955394 28.173369 40.893366 -1.141903 0.810761 0.097418 -0.008147 902680.000000 0 0 1
-11.635708 27.512694 27.054329 40.302292 -1.170688 0.834855 0.073135 -0.000018 487980.000000 0 0 1
-10.217808 27.435094 27.171149 39.941949 -1.214276 0.822671 0.075104 0.002817 393860.000000 0 0 1
-9.456708 28.302594 26.131379 39.665036 -1.248330 0.851572 0.068524 -0.000607 718351.000000 0 0 1
-8.067308 27.914594 26.220189 39.138272 -1.289462 0.836672 0.078730 -0.009482 916638.000000 0 0 1
-7.395808 28.565794 25.125669 38.755668 -1.317455 0.865434 0.092476 -0.011450 -58326.400000 0 0 1
-5.873008 28.373794 25.169589 38.380628 -1.366692 0.855569 0.106837 -0.024860 -664685.000000 0 0 1
-5.117208 29.128294 26.104169 39.447065 -1.396893 0.847643 0.121489 -0.027206 -340936.000000 0 0 1
-3.756608 28.872094 25.946729 38.999265 -1.441411 0.842883 0.113768 -0.027835 -252539.000000 0 0 1
-2.941908 29.705694 24.922579 38.887247 -1.472083 0.875135 0.117218 -0.021923 -313146.000000 0 0 1
-3.408908 29.528594 23.610819 37.960891 -1.455861 0.899531 0.121122 -0.017763 62798.600000 0 0 1
-2.756308 30.431394 22.678369 38.052272 -1.480468 0.932312 0.119021 -0.017942 64723.400000 0 0 1
-3.006608 30.055394 21.224659 36.916833 -1.471092 0.958276 0.133385 -0.021083 1159460.000000 0 0 1
-4.406308 30.065294 20.873959 36.865425 -1.425274 0.968883 0.118819 -0.020749 933214.000000 0 0 1
-5.011008 28.781894 21.113859 36.045841 -1.398421 0.944991 0.116415 -0.013916 -113212.000000 0 0 1
-6.494408 28.655594 20.688359 35.935061 -1.347925 0.957318 0.090202 -0.014890 -41781.500000 0 0 1
-6.624808 28.628094 19.296459 35.154077 -1.343390 0.989735 0.065036 -0.019572 -98788.100000 0 0 1
-7.556808 27.721394 18.765259 34.317866 -1.304664 0.992250 0.038326 -0.013883 -1222550.000000 0 0 1
-7.028008 26.273094 18.629159 32.965344 -1.309418 0.970226 0.026835 -0.014675 619557.000000 0 0 1
-5.977508 26.197894 17.656059 32.152708 -1.346469 0.989472 0.034226 -0.017077 1600190.000000 0 0 1
-4.668408 26.714194 18.024159 32.562440 -1.397789 0.984204 0.063282 -0.015096 430966.000000 0 0 1
-3.677908 26.878494 16.857459 31.939855 -1.434806 1.014803 0.058736 -0.016800 -46125.900000 0 0 1
-3.283208 25.663794 16.302259 30.580605 -1.443556 1.008546 0.050987 -0.012374 -427703.000000 0 0 1
-2.521308 25.969594 15.189759 30.191150 -1.474013 1.043592 0.059176 -0.018968 -284442.000000 0 0 1
-1.951008 24.791094 14.370359 28.721281 -1.492260 1.046807 0.042813 -0.015590 431048.000000 0 0 1
-0.799508 24.193994 14.970659 28.462417 -1.537763 1.016929 0.046230 -0.012845 371004.000000 0 0 1
-0.259208 23.158494 14.131659 27.130920 -1.559604 1.022928 0.042031 -0.027476 -280530.000000 0 0 1
1.012592 22.560794 14.740359 26.968369 1.525944 0.992522 0.036578 -0.022938 -760958.000000 0 0 1
2.055792 23.440094 14.888359 27.844703 1.483316 1.006652 0.043933 -0.021368 -272921.000000 0 0 1
3.266592 22.738494 15.196559 27.543513 1.428113 0.986360 0.044629 -0.022044 328369.000000 0 0 1
4.486192 23.661694 15.302659 28.533717 1.383423 1.004748 0.077371 -0.033128 -458030.000000 0 0 1
5.682392 22.972094 15.538059 28.309679 1.328303 0.989796 0.085792 -0.031707 -778713.000000 0 0 1
6.733792 23.890394 15.541059 29.285139 1.296062 1.011393 0.101038 -0.035567 -794766.000000 0 0 1
8.136492 23.274994 15.607059 29.180612 1.234495 1.006474 0.121192 -0.039464 -166140.000000 0 0 1
8.558792 22.609694 14.408359 28.143418 1.208921 1.033329 0.105539 -0.043624 -65453.000000 0 0 1
9.016992 23.466194 13.353959 28.465709 1.203937 1.082497 0.114993 -0.041181 -403614.000000 0 0 1
9.499292 22.669494 12.103559 27.397785 1.173990 1.113224 0.100102 -0.037856 -296936.000000 0 0 1
10.623692 21.882694 12.384359 27.296290 1.118829 1.099882 0.099902 -0.035045 -335610.000000 0 0 1
10.998192 21.013394 11.360659 26.298051 1.088613 1.124091 0.089015 -0.046800 72705.100000 0 0 1
12.478492 20.622594 11.590159 26.745764 1.026644 1.122595 0.139390 -0.046320 146438.000000 0 0 1
12.659892 19.708094 12.629359 26.611699 0.999803 1.076310 0.128006 -0.039471 241883.000000 0 0 1
14.028692 19.357894 12.792259 27.114094 0.943684 1.079472 0.115820 -0.037881 302032.000000 0 0 1
14.291792 18.538994 14.143859 27.349558 0.914050 1.027277 0.117171 -0.033831 -231698.000000 0 0 1
15.630092 18.062094 14.140559 27.757781 0.857456 1.036278 0.125522 -0.035674 317361.000000 0 0 1
15.981792 17.709094 15.423759 28.406372 0.836622 0.996829 0.120819 -0.040132 -1245180.000000 0 0 1
17.363092 17.149994 15.514659 28.918919 0.779224 1.004526 0.095640 -0.036624 -1344060.000000 0 0 1
17.778792 16.706494 16.780559 29.610463 0.754314 0.968289 0.096442 -0.041452 145193.000000 0 0 1
19.070292 16.152094 16.634559 30.021237 0.702736 0.983523 0.091186 -0.037196 79041.700000 0 0 1
19.810592 15.790694 17.955559 31.051693 0.672960 0.954218 0.094456 -0.037265 -97356.000000 0 0 1
20.436192 16.873794 18.609959 32.383536 0.690206 0.958591 0.102524 -0.028811 505211.000000 0 0 1
19.524792 17.680594 19.359759 32.689771 0.735871 0.936977 0.087665 -0.029356 -62821.200000 0 0 1
20.146892 18.924794 19.993259 34.114153 0.754130 0.944597 0.070055 -0.024729 320384.000000 0 0 1
19.163092 19.705694 20.734659 34.430575 0.799357 0.924522 0.106972 -0.040825 830904.000000 0 0 1
19.788292 20.684394 21.539359 35.824079 0.807535 0.925727 0.092449 -0.030534 75907.400000 0 0 1
18.779692 21.762694 22.065459 36.237772 0.858843 0.916113 0.117202 -0.036033 31356.600000 0 0 1
18.029392 21.215194 23.118229 36.188339 0.866399 0.877819 0.119817 -0.034676 -101655.000000 0 0 1
17.237692 22.274394 23.619889 36.758479 0.912187 0.872949 0.102297 -0.040376 -239659.000000 0 0 1
16.572892 21.956994 24.937329 37.130051 0.924237 0.834402 0.115220 -0.036373 343683.000000 0 0 1
15.539492 20.956494 24.870519 36.044322 0.932750 0.809310 0.131448 -0.039187 333645.000000 0 0 1
14.823592 20.799294 26.082969 36.505763 0.951600 0.774903 0.133517 -0.032329 281031.000000 0 0 1
13.595492 19.855394 26.044619 35.459783 0.970396 0.745891 0.157311 -0.034840 152525.000000 0 0 1
13.863792 18.442294 26.025939 34.780345 0.926183 0.725309 0.143182 -0.045433 -219570.000000 0 0 1
14.325792 17.843394 24.854979 33.784390 0.894312 0.744105 0.155937 -0.051190 -722054.000000 0 0 1
13.389092 17.713294 23.694359 32.472314 0.923544 0.752944 0.160746 -0.048484 -1060650.000000 0 0 1
13.106092 18.847194 22.896519 32.422784 0.963173 0.786699 0.148943 -0.044244 11611.800000 0 0 1
14.105392 19.563794 22.145659 32.743462 0.946118 0.828016 0.144297 -0.041517 215667.000000 0 0 1
14.864992 18.753094 21.064859 31.880633 0.900542 0.848990 0.151347 -0.048147 -229693.000000 0 0 1
14.008792 18.357594 19.998859 30.548353 0.918960 0.857060 0.139334 -0.038589 45136.600000 0 0 1
14.512092 17.379094 19.108859 29.627389 0.875057 0.869809 0.113269 -0.035608 -379830.000000 0 0 1
13.423192 16.667694 18.300459 28.158496 0.892807 0.863332 0.117792 -0.028197 -479122.000000 0 0 1
12.871992 17.468494 17.324459 27.766406 0.935752 0.897027 0.138527 -0.041111 113531.000000 0 0 1
11.916792 16.703594 16.589559 26.386236 0.951116 0.890890 0.113637 -0.036244 -82847.600000 0 0 1
11.271192 17.252694 15.348159 25.695548 0.992104 0.930656 0.109085 -0.032265 -864028.000000 0 0 1
10.222692 18.123194 15.635459 26.027315 1.057217 0.926379 0.109462 -0.041148 -361179.000000 0 0 1
9.711092 18.564494 14.398059 25.421444 1.088840 0.968696 0.102633 -0.024215 39857.100000 0 0 1
8.498792 19.507394 14.658459 25.838697 1.159923 0.967565 0.101864 -0.028353 576222.000000 0 0 1
7.261492 18.865794 14.936759 25.134721 1.203372 0.934441 0.053277 -0.025976 689007.000000 0 0 1
6.259492 19.834994 15.313459 25.828477 1.265110 0.936153 0.066877 -0.030233 24717.500000 0 0 1
4.982792 19.345594 15.965959 25.573268 1.318708 0.896533 0.047942 -0.033517 -572706.000000 0 0 1
4.045492 19.010694 14.979959 24.539186 1.361123 0.914167 0.035944 -0.028505 -297761.000000 0 1 0
2.870792 18.419894 15.523859 24.259516 1.416187 0.876418 0.023332 -0.033069 1046330.000000 0 1 0
1.779992 18.079594 14.427459 23.198958 1.472660 0.899628 0.030821 -0.032174 519352.000000 0 1 0
1.215392 19.216094 13.860459 23.724413 1.507632 0.946868 0.030024 -0.026177 -149557.000000 0 1 0
0.332692 18.877494 12.795659 22.807879 1.553174 0.975180 0.024084 -0.028742 -75463.400000 0 1 0
-0.459208 20.005594 12.131459 23.401003 -1.547846 1.025799 0.019645 -0.022066 -14764.400000 0 1 0
-1.494808 20.694294 12.825059 24.392015 -1.498689 1.017154 0.026289 -0.018710 3693.620000 0 1 0
-2.614908 20.615594 11.965159 23.979272 -1.444629 1.048376 0.024136 -0.029718 -80158.400000 0 1 0
-3.913408 21.261094 12.489859 24.966887 -1.388769 1.046901 0.029687 -0.026059 258497.000000 0 1 0
-4.534808 20.530994 13.540759 25.008765 -1.353410 0.998647 0.034442 -0.028662 -160289.000000 0 0 1
-5.760208 21.124794 13.896159 25.933379 -1.304593 1.005293 0.037741 -0.025731 42997.900000 0 0 1
-6.505008 20.464994 15.116359 26.260910 -1.263036 0.957432 0.045161 -0.029992 -28083.800000 0 0 1
-7.497608 19.525894 14.728259 25.581170 -1.204174 0.957280 0.060311 -0.030697 119075.000000 0 0 1
-8.151008 18.887394 15.806059 25.942322 -1.163384 0.915648 0.061976 -0.022618 70106.600000 0 0 1
-9.335408 19.595294 16.530559 27.283416 -1.126198 0.919921 0.050512 -0.015776 -156960.000000 0 0 1
-10.476508 19.744794 15.732359 27.333518 -1.082973 0.957495 0.046720 -0.030087 192498.000000 0 0 1
-11.634708 19.410894 16.535459 28.028033 -1.030825 0.939785 0.042109 -0.020456 1439680.000000 0 0 1
-12.970408 19.350994 15.699159 28.091921 -0.980303 0.977798 0.050052 -0.031795 471359.000000 0 0 1
-13.506008 20.548894 15.171059 28.893430 -0.989333 1.018000 0.046321 -0.022803 -183883.000000 0 0 1
-14.355208 20.092994 14.143359 28.457600 -0.950446 1.050661 0.042540 -0.028518 27298.100000 0 0 1
-15.452608 21.125594 13.728259 29.555692 -0.939264 1.087740 0.033134 -0.027630 190893.000000 0 0 1
-16.508108 21.207694 14.656259 30.611923 -0.909364 1.071536 0.020321 -0.028675 -407035.000000 0 0 1
-17.412708 22.238694 14.302759 31.659609 -0.906513 1.102052 0.051916 -0.032063 1103840.000000 0 0 1
-18.696908 22.202094 15.239659 32.783449 -0.870893 1.087322 0.117889 -0.044561 104146.000000 0 0 1
-19.603908 21.116994 15.041859 32.503818 -0.822539 1.089677 0.112168 -0.040024 848836.000000 0 0 1
-20.714208 21.048994 15.967159 33.572142 -0.793414 1.075142 0.111838 -0.034510 1220040.000000 0 0 1
-21.714808 22.270094 15.794159 34.884745 -0.798022 1.100946 0.109970 -0.038860 -971159.000000 0 0 1
-22.517208 22.147894 14.631959 34.808736 -0.777130 1.136962 0.118717 -0.033407 19780.500000 0 0 1
-23.343908 23.293694 14.490759 36.021054 -0.784321 1.156784 0.140694 -0.039167 72878.800000 0 0 1
-22.818808 24.501194 13.600559 36.138369 -0.820937 1.184946 0.124796 -0.029065 89580.900000 0 0 1
-21.666008 25.049994 14.218959 36.042987 -0.857709 1.165273 0.105985 -0.042183 -148308.000000 0 0 1
-21.156608 26.062494 13.417159 36.150737 -0.888923 1.190555 0.077799 -0.023570 -1065590.000000 0 0 1
-19.736108 26.423094 13.747459 35.730750 -0.929265 1.175858 0.054653 -0.016559 -640828.000000 0 0 1
-18.740308 25.580894 13.165959 34.335459 -0.938531 1.177267 0.063558 -0.011394 -259536.000000 0 0 1
-17.466808 26.115694 13.387259 34.151684 -0.981302 1.167998 0.020466 -0.006048 -157462.000000 0 0 1
-16.355408 25.321694 12.632459 32.684347 -0.997305 1.173964 0.039639 -0.011342 657615.000000 0 0 1
-15.094708 25.990794 12.603759 32.591814 -1.044636 1.173729 0.035608 -0.009398 481425.000000 0 0 1
-14.174108 25.429094 11.680559 31.368449 -1.062292 1.189239 0.044136 -0.009053 471625.000000 0 0 1
-12.765208 26.066594 11.799159 31.331103 -1.115410 1.184678 0.048438 -0.005519 -306999.000000 0 0 1
-11.700408 25.353194 11.211959 30.089733 -1.138423 1.188968 0.033910 -0.006855 628682.000000 0 0 1
-10.419508 25.892494 11.578459 30.216686 -1.188210 1.177559 0.053008 -0.008048 774030.000000 0 0 1
-9.957108 27.204294 10.917459 30.958174 -1.219928 1.210393 0.066848 -0.013721 -158987.000000 0 0 1
-8.758608 27.759294 11.482959 31.291372 -1.265163 1.195048 0.088012 -0.020161 668597.000000 0 0 1
-8.439608 28.971594 10.834459 32.061905 -1.287334 1.226087 0.097264 -0.024110 779115.000000 0 0 1
-7.121908 29.664394 11.379459 32.560558 -1.335173 1.213774 0.106598 -0.025639 2260150.000000 0 0 1
-5.850908 29.051994 11.012159 31.615172 -1.372060 1.215019 0.101276 -0.025951 1280410.000000 0 0 1
-4.745608 29.689794 11.629259 32.237312 -1.412297 1.201736 0.125988 -0.033767 -414950.000000 0 0 1
-3.393408 29.337394 11.064059 31.537458 -1.455640 1.212347 0.115202 -0.027381 -687021.000000 0 0 1
-3.165108 30.015994 9.855959 31.750869 -1.465737 1.255166 0.135966 -0.041921 229591.000000 0 0 1
-1.885808 29.749894 9.300659 31.226827 -1.507492 1.268365 0.122763 -0.043117 457012.000000 0 0 1
-1.409508 30.599794 8.124059 31.691236 -1.524766 1.311552 0.125416 -0.049712 63625.400000 0 0 1
-2.087608 30.276994 6.939459 31.132146 -1.501955 1.346005 0.136562 -0.042851 -74200.800000 0 0 1
-1.633708 31.055194 5.853259 31.644189 -1.518238 1.384754 0.140079 -0.043841 -132054.000000 0 0 1
12.134792 -33.657197 -26.174501 44.330177 -1.224762 2.202406 0.206927 -0.064197 151694.000000 0 0 1
13.016592 -33.577797 -25.043941 43.864554 -1.200978 2.178444 0.193196 -0.057245 644459.000000 0 0 1
13.866192 -32.457097 -25.198191 43.366845 -1.167050 2.190811 0.178722 -0.047784 58938.700000 0 0 1
14.808592 -32.178797 -23.989241 42.781457 -1.139495 2.166075 0.155675 -0.046848 -230738.000000 0 0 1
14.091692 -31.575397 -22.891441 41.468054 -1.151034 2.155588 0.161706 -0.049212 581262.000000 0 0 1
14.662092 -31.836797 -21.631241 41.188216 -1.139213 2.123723 0.107636 -0.038198 694655.000000 0 0 1
16.188592 -31.510797 -21.445041 41.411238 -1.096211 2.115139 0.068438 -0.024877 319089.000000 0 0 1
17.072692 -32.525597 -21.832741 42.732421 -1.087428 2.107048 0.076994 -0.026318 130705.000000 0 0 1
18.404692 -32.182497 -21.467641 42.840464 -1.051306 2.095673 0.051680 -0.027399 454806.000000 0 0 1
19.453292 -33.238097 -21.883541 44.295496 -1.041277 2.087521 0.032156 -0.014201 -61955.500000 0 0 1
20.801292 -33.011897 -21.559141 44.578870 -1.008527 2.075580 0.034799 0.003484 420807.000000 0 0 1
21.592392 33.489494 -21.705141 45.375001 0.998120 2.069571 0.039350 0.005291 -516954.000000 0 0 1
23.031492 33.565394 -21.233341 45.912308 0.969414 2.051582 0.060173 0.002281 -703621.000000 0 0 1
23.820292 -33.486197 -22.216341 46.715067 -0.952496 2.066410 0.045222 0.008046 -213923.000000 0 0 1
25.183792 -33.438597 -21.880741 47.234838 -0.925292 2.052436 0.043012 0.006806 -186496.000000 0 0 1
26.053892 -32.727697 -22.914841 47.696932 -0.898450 2.071937 0.061448 0.006773 -217931.000000 0 0 1
26.085692 -31.323197 -22.934741 46.771875 -0.876378 2.083291 0.064903 0.009754 -77877.100000 0 0 1
24.891692 -30.707097 -23.383841 45.927401 -0.889615 2.104991 0.042342 0.013320 48089.600000 0 0 1
24.894692 -29.190097 -23.370441 44.921987 -0.864652 2.117934 0.044412 0.005875 -306478.000000 0 0 1
25.527492 -28.647897 -24.495641 45.523524 -0.842933 2.138963 0.044235 0.005552 -133649.000000 0 0 1
25.387792 -27.217297 -24.354941 44.480157 -0.820162 2.150225 0.059582 0.008060 69175.700000 0 0 1
26.086992 -26.468497 -25.461941 45.049117 -0.792657 2.171477 0.060073 0.007607 244044.000000 0 0 1
25.380592 -26.531197 -26.695601 45.395308 -0.807559 2.199466 0.052624 0.004759 39480.600000 0 0 1
26.116792 -25.747697 -27.624831 45.914725 -0.778282 2.216368 0.049813 0.005074 -82839.600000 0 0 1
25.243092 -25.308997 -28.873461 45.950362 -0.786702 2.250242 0.052847 -0.004277 847509.000000 0 0 1
24.397192 -24.182697 -28.689291 44.756019 -0.780983 2.266617 0.067008 -0.010940 558855.000000 0 0 1
23.334392 -24.330497 -27.739661 43.657253 -0.806293 2.259318 0.056708 -0.006758 -175408.000000 0 0 1
22.506092 -23.048297 -27.409451 42.296881 -0.797300 2.275785 0.056086 -0.010494 432741.000000 0 0 1
21.943592 -22.339597 -28.540791 42.369276 -0.794340 2.309892 0.071673 -0.018135 198728.000000 0 0 1
21.301792 -21.179997 -28.136721 41.158640 -0.782531 2.323503 0.061867 -0.009580 -192490.000000 0 0 1
20.360692 -20.600897 -29.255251 41.168245 -0.791262 2.361185 0.085311 -0.021037 862059.000000 0 0 1
19.156692 -21.381697 -29.292741 41.014881 -0.840230 2.366274 0.063818 -0.026340 52827.300000 0 0 1
18.047392 -20.747697 -29.862961 40.595218 -0.854890 2.397389 0.057683 -0.028252 -492915.000000 0 0 1
16.908592 -21.757297 -29.661131 40.485345 -0.910147 2.392987 0.066158 -0.034788 -647920.000000 0 0 1
17.002292 -22.904397 -30.552961 41.799196 -0.932231 2.390504 0.058026 -0.024015 -123949.000000 0 0 1
16.135692 -23.858497 -30.031281 41.610891 -0.976149 2.377076 0.077015 -0.030466 -331285.000000 0 0 1
16.261892 -25.283097 -30.623921 42.912803 -0.999222 2.365465 0.097966 -0.034044 382597.000000 0 0 1
15.427092 -26.148797 -29.821991 42.557090 -1.037782 2.347248 0.114116 -0.041809 345995.000000 0 0 1
15.439692 -27.549197 -30.343951 43.796092 -1.059973 2.336225 0.156273 -0.037201 133329.000000 0 0 1
14.669392 -28.446097 -29.319801 43.405325 -1.094675 2.312423 0.156557 -0.048254 15883.800000 0 0 1
15.266992 -28.765597 -28.061481 42.988223 -1.082862 2.282033 0.179186 -0.060807 -61605.400000 0 0 1
15.466592 -27.674197 -27.159921 41.746113 -1.061160 2.279167 0.138692 -0.051057 280356.000000 0 0 1
16.695892 -27.816397 -26.212461 41.708486 -1.030217 2.250379 0.090473 -0.025194 82923.900000 0 0 1
16.478392 -28.825797 -25.279521 41.731501 -1.051480 2.221524 0.114670 -0.032919 698837.000000 0 0 1
17.340292 -28.655797 -24.115241 41.272088 -1.026618 2.194812 0.136896 -0.032652 -568403.000000 0 0 1
16.833592 -27.558097 -23.158441 39.738293 -1.022444 2.192934 0.129210 -0.031963 929091.000000 0 0 1
15.677892 -27.795797 -22.323241 38.945214 -1.057239 2.181197 0.117169 -0.034567 1415640.000000 0 0 1
14.460392 -27.884697 -23.105141 38.993676 -1.092397 2.204999 0.143259 -0.036987 -296586.000000 0 0 1
13.198892 -27.928397 -22.241041 38.064025 -1.129310 2.194821 0.115632 -0.027586 -272031.000000 0 0 1
12.715292 -26.631897 -21.940941 36.774196 -1.125354 2.210104 0.082071 -0.023105 228963.000000 0 0 1
11.539092 -26.557897 -21.151741 35.859011 -1.160917 2.201680 0.073852 -0.023463 39288.000000 0 0 1
10.951192 -25.131997 -20.961941 34.510127 -1.159858 2.223598 0.064869 -0.019473 -213837.000000 0 0 1
11.592792 -24.343297 -19.981641 33.559721 -1.126352 2.208567 0.032321 -0.017877 219239.000000 0 0 1
11.166892 -22.985997 -20.030241 32.469464 -1.118563 2.235587 0.034224 -0.015753 -340886.000000 0 0 1
11.503892 -22.302797 -18.681941 31.285287 -1.094585 2.210737 0.021571 -0.016045 -224127.000000 0 0 1
10.771992 -22.759697 -17.578341 30.708919 -1.128742 2.180248 0.029512 -0.016455 202427.000000 0 0 1
10.962492 -21.972297 -16.410141 29.533892 -1.108010 2.159926 0.024455 -0.012077 -320948.000000 0 0 1
10.034992 -22.414897 -15.281241 28.924816 -1.149863 2.127404 0.019981 -0.004433 -182994.000000 0 0 1
10.450592 -23.618997 -14.658341 29.697455 -1.154226 2.087008 0.028655 -0.008080 594506.000000 0 0 1
9.568492 -24.083297 -13.602841 29.267704 -1.192613 2.054175 0.017312 -0.010028 329785.000000 0 0 1
9.771392 -25.587697 -13.377241 30.482141 -1.206009 2.025120 0.034474 -0.012882 -92987.300000 0 0 1
10.980592 -26.034697 -12.820041 31.027927 -1.171667 1.996737 0.037332 -0.016700 -208399.000000 0 0 1
11.291992 -27.348697 -13.267841 32.426777 -1.179228 1.992333 0.042673 -0.022566 -657724.000000 0 0 1
12.539292 -28.038497 -12.635441 33.212129 -1.150259 1.961075 0.053831 -0.023816 539398.000000 0 0 1
13.790492 -27.519497 -13.042541 33.430648 -1.106255 1.971577 0.062389 -0.019354 236605.000000 0 0 1
14.138992 -27.835697 -14.396641 34.380232 -1.100813 2.002862 0.064530 -0.024534 -928099.000000 0 0 1
15.470292 -27.273197 -14.929041 34.727992 -1.054818 2.015162 0.057249 -0.020774 88583.500000 0 0 1
16.616692 -28.054797 -14.678741 35.758237 -1.036062 1.993798 0.119908 -0.021032 127953.000000 0 0 1
17.820192 -27.379297 -14.987641 35.941821 -0.993814 2.000935 0.143870 -0.024779 -216194.000000 0 0 1
19.025492 -28.296297 -14.909441 37.214798 -0.978858 1.983003 0.124700 -0.023390 -581472.000000 0 0 1
19.267692 -29.325197 -15.853041 38.503636 -0.989491 1.995146 0.102008 -0.009414 843984.000000 0 0 1
20.581392 -29.912097 -15.717241 39.564617 -0.968127 1.979320 0.108032 -0.005340 1126230.000000 0 0 1
20.898292 -30.960597 -16.809341 40.961581 -0.977049 1.993654 0.098718 -0.011776 47944.400000 0 0 1
20.632592 -32.332697 -16.480841 41.745961 -1.002808 1.976634 0.085855 -0.004225 -2041.960000 0 0 1
20.911092 -33.080497 -17.596541 42.909571 -1.007088 1.993343 0.079557 -0.009739 3852.470000 0 0 1
20.736392 33.090294 -17.315241 42.717479 1.011004 1.988151 0.060986 -0.005192 157250.000000 0 0 1
21.625492 32.612094 -16.283441 42.383499 0.985258 1.965130 0.090345 -0.008457 387456.000000 0 0 1
21.464692 31.268594 -15.965141 41.150257 0.969214 1.969226 0.085270 -0.014592 -405664.000000 0 0 1
22.378892 30.731594 -14.854841 40.815584 0.941391 1.943302 0.093289 -0.014383 -370434.000000 0 0 1
23.701492 30.523594 -15.332841 41.575792 0.910551 1.948506 0.099161 -0.010756 487941.000000 0 0 1
24.684792 30.218794 -14.346741 41.573350 0.885854 1.923136 0.099312 -0.019009 399665.000000 0 0 1
24.403392 29.022294 -13.399041 40.216332 0.871638 1.910464 0.093052 -0.008086 -1156000.000000 0 0 1
24.392992 27.784394 -14.064241 39.557470 0.850304 1.934287 0.107138 -0.000503 127280.000000 0 0 1
24.083092 26.744794 -13.145341 38.315523 0.837717 1.920992 0.047550 0.000020 707203.000000 0 0 1
22.596392 26.544094 -12.669941 37.090608 0.865561 1.919409 0.058735 -0.005183 264800.000000 0 0 1
21.781092 26.121194 -13.789141 36.699770 0.875755 1.955979 0.081242 -0.011716 1190650.000000 0 0 1
20.358292 26.173494 -13.570441 35.828322 0.909726 1.959256 0.093981 -0.015426 777341.000000 0 0 1
19.756692 27.596294 -13.577641 36.554543 0.949467 1.951351 0.095093 -0.021955 -737357.000000 0 0 1
19.668292 28.316094 -14.879041 37.550349 0.963705 1.978217 0.091077 -0.017541 374671.000000 0 0 1
18.824192 27.615394 -15.811041 36.972276 0.972488 2.012683 0.070576 -0.013163 -56239.700000 0 0 1
18.796992 28.289594 -17.145341 38.047217 0.984331 2.038271 0.068083 -0.005099 461200.000000 0 0 1
18.026792 29.492494 -17.375941 38.687152 1.022158 2.036599 0.062878 -0.004870 516502.000000 0 0 1
18.520492 30.058494 -18.589541 39.901036 1.018588 2.055438 0.050946 -0.003266 221004.000000 0 0 1
17.604892 31.247894 -18.968641 40.573050 1.057728 2.057278 0.041295 -0.006047 173877.000000 0 0 1
17.749792 32.431994 -18.130941 41.177911 1.070034 2.026737 0.061179 -0.020337 -519549.000000 0 0 1
16.838592 33.366494 -18.553941 41.726608 1.103431 2.031585 0.060419 -0.019245 -858565.000000 0 0 1
16.747392 -33.059797 -17.647041 41.046843 -1.101900 2.015205 0.056851 -0.016905 88354.800000 0 0 1
15.757592 -32.135997 -18.107541 40.111183 -1.114906 2.039168 0.046348 -0.017801 454895.000000 0 0 1
15.495792 -31.079997 -17.106741 38.713387 -1.108287 2.028492 0.056311 -0.019696 659443.000000 0 0 1
14.371092 -30.062897 -17.581941 37.675333 -1.124875 2.056318 0.070673 -0.029150 594991.000000 0 0 1
13.171092 -30.685897 -17.953441 37.913427 -1.165354 2.064099 0.063720 -0.018988 -109727.000000 0 0 1
12.050092 -29.830997 -17.997641 36.864728 -1.186893 2.080831 0.058298 -0.022193 174999.000000 0 0 1
10.702792 -30.535997 -18.182941 37.116252 -1.233678 2.082762 0.082479 -0.024044 -1062590.000000 0 0 1
10.055592 -31.076197 -17.039741 36.840164 -1.257851 2.051645 0.081891 -0.021171 163505.000000 0 0 1
8.991492 -31.972397 -17.270741 37.434738 -1.296650 2.050319 0.113664 -0.019299 -191480.000000 0 0 1
7.680092 -31.290897 -17.708441 36.765377 -1.330112 2.073345 0.114950 -0.011018 -807041.000000 0 0 1
7.734292 -30.711997 -18.995841 36.930854 -1.324093 2.111060 0.103183 -0.012606 -193631.000000 0 0 1
7.285992 -31.658697 -19.936841 38.116091 -1.344593 2.121229 0.127942 -0.027157 -1206140.000000 0 0 1
7.235492 -31.178097 -21.412741 38.508850 -1.342763 2.160419 0.128680 -0.021795 247137.000000 0 0 1
8.482692 -30.783197 -21.985541 38.767580 -1.301907 2.173791 0.140608 -0.024501 1311510.000000 0 0 1
9.579992 -31.742297 -22.050241 39.819126 -1.277684 2.157669 0.149382 -0.032855 575019.000000 0 0 1
9.573692 -32.912997 -23.083941 41.325407 -1.287729 2.163481 0.168724 -0.049428 -151536.000000 0 0 1
8.520892 -33.806197 -22.774341 41.642948 -1.323888 2.149448 0.176463 -0.059212 43540.300000 0 0 1
8.423692 32.907494 -23.765841 41.456928 1.320197 2.181282 0.185392 -0.070913 233711.000000 0 0 1
7.188692 31.956394 -23.607641 40.375848 1.349526 2.195303 0.174171 -0.077605 448830.000000 0 0 1
5.912192 32.538294 -23.588141 40.621361 1.391058 2.190364 0.176610 -0.074640 -55395.500000 0 0 1
5.383192 32.948694 -22.340741 40.170933 1.408846 2.160533 0.139549 -0.063813 -3799.340000 0 0 1
4.141492 -33.795997 -22.496741 40.809615 -1.448860 2.154671 0.122304 -0.045922 125622.000000 0 0 1
2.918592 33.227694 -22.572441 40.275463 1.483185 2.165727 0.116159 -0.051800 -420242.000000 0 0 1
1.829292 -33.599097 -22.758841 40.622783 -1.516405 2.165482 0.106350 -0.043526 79443.800000 0 0 1
0.461992 33.459394 -22.384641 40.259367 1.556990 2.160375 0.089035 -0.047017 23386.300000 0 0 1
0.190292 33.612094 -21.006241 39.636741 1.565135 2.129360 0.078561 -0.037058 -860461.000000 0 0 1
-1.005208 33.036594 -20.629641 38.961636 -1.540379 2.128791 0.076873 -0.040307 -663787.000000 0 0 1
-1.365808 33.179894 -19.134841 38.326400 -1.529656 2.093541 0.084476 -0.034059 121888.000000 0 0 1
-0.499508 32.527794 -18.258141 37.305048 -1.555441 2.082230 0.086952 -0.042518 -296868.000000 0 0 1
-1.176808 32.441194 -17.036441 36.661373 -1.534537 2.054089 0.056041 -0.029882 321081.000000 0 0 1
-0.514708 31.503394 -16.011141 35.342402 -1.554460 2.040957 0.044312 -0.025514 -399752.000000 0 0 1
0.601392 31.949394 -15.329441 35.441744 1.551975 2.018088 0.046469 -0.019312 -661231.000000 0 0 1
1.200492 30.854194 -14.604841 34.157339 1.531907 2.012605 0.046710 -0.010492 559054.000000 0 0 1
2.423792 31.301394 -13.775341 34.284282 1.493517 1.984275 0.059421 -0.013700 776968.000000 0 0 1
3.574192 31.822894 -14.468641 35.139906 1.458950 1.995163 0.076987 -0.019605 309617.000000 0 0 1
4.475292 32.361094 -13.568541 35.374764 1.433376 1.964450 0.092241 -0.023871 -408719.000000 0 0 1
5.837092 32.707894 -14.185341 36.126193 1.394194 1.974319 0.107702 -0.035250 188513.000000 0 0 1
6.633692 31.639094 -14.686941 35.506962 1.364123 1.997240 0.111164 -0.026842 -268845.000000 0 0 1
7.873692 32.059294 -15.209241 36.347137 1.329965 2.002528 0.101642 -0.016046 492167.000000 0 0 1
8.906592 30.872894 -15.084941 35.496738 1.289930 2.009722 0.093998 -0.018593 257760.000000 0 0 1
9.436492 30.596594 -13.784341 34.859819 1.271636 1.977324 0.075276 -0.019555 -333726.000000 0 0 1
10.378492 29.558194 -13.855441 34.254535 1.233124 1.987212 0.068297 -0.015096 199675.000000 0 0 1
9.779392 28.085194 -13.806741 32.787813 1.235722 2.005447 0.086070 -0.017249 177337.000000 0 0 1
9.177092 27.578494 -15.013941 32.714076 1.249560 2.047603 0.097254 -0.022404 123205.000000 0 0 1
8.814592 26.243594 -14.724241 31.356443 1.246759 2.059607 0.085269 -0.016060 189973.000000 0 0 1
7.918592 25.463794 -15.760041 30.975600 1.269302 2.104574 0.086758 -0.020158 555279.000000 0 0 1
8.642592 25.150894 -16.953041 31.538349 1.239808 2.138310 0.096677 -0.019078 127784.000000 0 0 1
7.987792 24.175294 -17.706541 31.012437 1.251678 2.178458 0.093394 -0.014480 -145757.000000 0 0 1
9.016392 23.351094 -18.451641 31.097137 1.202310 2.206017 0.098004 -0.009587 -513716.000000 0 0 1
8.403792 22.406994 -19.286241 30.735259 1.211980 2.249129 0.122707 -0.017010 -78731.800000 0 0 1
9.270192 21.532294 -19.978441 30.801205 1.164255 2.276573 0.096745 -0.014288 -528448.000000 0 0 1
8.517492 20.678194 -21.019041 30.690967 1.180068 2.325209 0.090587 -0.028256 569288.000000 0 0 1
7.359192 20.034194 -20.454541 29.562051 1.218766 2.334940 0.105190 -0.028738 775771.000000 0 0 1
6.786392 19.037094 -21.307641 29.368037 1.228358 2.382613 0.104136 -0.031220 215601.000000 0 0 1
25.974092 -12.677306 -9.728841 30.496195 -0.454062 1.895490 0.125374 -0.011292 -169765.000000 0 0 1
26.441692 -12.030806 -8.581641 30.291053 -0.426999 1.858036 0.128107 -0.021476 151405.000000 0 0 1
25.534492 -12.198406 -7.524841 29.281984 -0.445667 1.830691 0.107381 -0.005891 -596484.000000 0 0 1
25.940092 -11.581206 -6.151041 29.066269 -0.419906 1.784030 0.103940 -0.011337 -415013.000000 0 0 1
25.918992 -10.180006 -5.981941 28.481753 -0.374252 1.782399 0.119085 -0.021697 694324.000000 0 0 1
26.827492 -9.436506 -6.783941 29.236686 -0.338231 1.804966 0.085761 -0.017967 -1004580.000000 0 0 1
26.891692 -7.907906 -6.411841 28.754300 -0.286003 1.795674 0.115390 -0.017246 -14324.400000 0 0 1
27.549092 -7.496306 -5.203341 29.021058 -0.265675 1.751066 0.134804 -0.024485 -508245.000000 0 0 1
28.750292 -8.052206 -4.898741 30.255825 -0.273077 1.733423 0.137035 -0.035286 -2020030.000000 0 0 1
29.121492 -7.886906 -3.436941 30.365723 -0.264483 1.684224 0.160443 -0.053296 -549301.000000 0 0 1
29.640192 -6.621106 -3.080641 30.526552 -0.219775 1.671885 0.188948 -0.040882 820624.000000 0 0 1
30.448792 -6.767106 -1.884041 31.248556 -0.218691 1.631125 0.233900 -0.043775 247250.000000 0 0 1
31.091092 -5.413806 -1.552541 31.597083 -0.172399 1.619952 0.234379 -0.053819 -823436.000000 0 0 1
30.180292 -4.525406 -1.021441 30.534778 -0.148837 1.604254 0.243614 -0.045705 -324629.000000 0 0 1
30.733392 -3.279206 -0.686141 30.915455 -0.106296 1.592992 0.223669 -0.032920 -22356.400000 0 0 1
31.691092 -3.225006 0.532859 31.859220 -0.101415 1.554070 0.199324 -0.036626 70452.600000 0 0 1
31.105692 -3.583306 1.779959 31.361958 -0.114692 1.514010 0.253017 -0.052273 235013.000000 0 0 1
32.029892 -3.452706 2.847759 32.341071 -0.107382 1.482628 0.182622 -0.038112 -77457.700000 0 0 1
31.448992 -3.970506 4.213259 31.977422 -0.125588 1.438655 0.206990 -0.040941 97252.700000 0 0 1
31.532192 -5.355806 4.230259 32.262344 -0.168246 1.439297 0.177373 -0.039780 -71378.600000 0 0 1
31.525992 -5.837906 5.585159 32.544789 -0.183103 1.398328 0.171616 -0.032650 -109710.000000 0 0 1
32.191992 -7.220906 5.732159 33.486168 -0.220655 1.398769 0.132305 -0.033779 477594.000000 0 0 1
33.575492 -7.148106 5.398659 34.749886 -0.209765 1.414807 0.148184 -0.047771 184413.000000 0 0 1
34.190092 -8.408506 5.245459 35.597474 -0.241148 1.422903 0.144543 -0.046647 1190080.000000 0 0 1
35.732392 -8.283106 5.580659 37.101987 -0.227786 1.419809 0.197375 -0.060057 1030460.000000 0 0 1
36.598992 -7.743506 4.590059 37.689743 -0.208502 1.448708 0.216339 -0.057594 -107840.000000 0 0 1
-37.751657 -7.784906 5.170859 38.891260 0.203363 1.437445 0.245433 -0.060921 -347660.000000 0 0 1
-36.625057 -7.705306 4.135659 37.654617 0.207359 1.460743 0.273373 -0.063200 -260100.000000 0 0 1
-36.304857 -8.913006 3.458459 37.542579 0.240743 1.478545 0.331863 -0.074034 241723.000000 0 0 1
-35.534657 -8.637906 2.289459 36.641054 0.238459 1.508272 0.344340 -0.079098 -102441.000000 0 0 1
-35.246257 -9.842806 1.398459 36.621512 0.272321 1.532600 0.353663 -0.069140 -76677.000000 0 0 1
-34.358457 -10.747106 2.010259 36.056137 0.303152 1.515014 0.346303 -0.069826 -5419.270000 0 0 1
-33.795757 -11.541506 0.995559 35.726050 0.329089 1.542926 0.361192 -0.070047 -141852.000000 0 0 1
-32.998157 -12.772306 1.479359 35.414667 0.369303 1.529012 0.226884 -0.050877 966581.000000 0 0 1
-31.726857 -12.523406 2.105859 34.174022 0.375951 1.509136 0.253216 -0.043000 770348.000000 0 0 1
-30.626957 -12.888706 1.307159 33.254141 0.398332 1.531478 0.275802 -0.036272 -980266.000000 0 0 1
-29.377757 -13.283306 2.052059 32.306497 0.424645 1.507235 0.269189 -0.045242 -814512.000000 0 0 1
-28.663357 -12.142606 2.453959 31.225836 0.400708 1.492128 0.242369 -0.058885 641054.000000 0 0 1
-27.423457 -12.560406 3.068659 30.318748 0.429501 1.469409 0.209967 -0.035947 699554.000000 0 0 1
-26.603857 -11.367306 3.621059 29.156353 0.403801 1.446280 0.184516 -0.034092 -640420.000000 0 0 1
-25.390157 -11.808106 4.121259 28.303290 0.435312 1.424666 0.146025 -0.018627 -451832.000000 0 0 1
-24.733857 -10.755406 4.910559 27.414522 0.410180 1.390702 0.143912 -0.018732 322558.000000 0 0 1
-23.338357 -11.205506 5.396759 26.445553 0.447628 1.365282 0.126904 -0.001582 -120155.000000 0 0 1
-23.376357 -12.286306 6.307559 27.151292 0.483907 1.336343 0.131110 -0.009914 285912.000000 0 0 1
-22.123457 -12.580706 6.934459 26.378177 0.517056 1.304784 0.107507 -0.002242 476463.000000 0 0 1
-21.767457 -11.846006 8.243259 26.117070 0.498385 1.249679 0.135283 -0.010822 -484291.000000 0 0 1
-21.763257 -10.421606 8.245459 25.499741 0.446595 1.241524 0.136733 -0.009904 649272.000000 0 0 1
-22.942157 -9.748306 8.702259 26.402677 0.401793 1.234919 0.164927 -0.023746 -531021.000000 0 0 1
-23.209857 -9.823606 10.211459 27.193282 0.400389 1.185845 0.123215 -0.012168 -591694.000000 0 0 1
-23.877457 -11.022306 10.607959 28.357591 0.432475 1.187394 0.116721 -0.026124 250707.000000 0 0 1
-25.172957 -11.274806 10.119459 29.380307 0.421101 1.219165 0.100573 -0.023214 -283357.000000 0 0 1
-26.336157 -10.561006 10.882759 30.390170 0.381375 1.204563 0.100182 -0.023699 -170082.000000 0 0 1
-26.434357 -11.216306 12.145759 31.178521 0.401284 1.170648 0.090036 -0.020540 -278149.000000 0 0 1
-27.746057 -11.127906 12.627659 32.451991 0.381422 1.171122 0.068868 -0.018605 -225805.000000 0 0 1
-28.051357 -11.842406 13.953659 33.493668 0.399470 1.141088 0.068666 -0.011956 -174157.000000 0 0 1
-28.094657 -13.263406 13.757559 33.977906 0.441077 1.153930 0.066928 -0.021745 161691.000000 0 0 1
-28.451957 -13.961406 14.895459 35.018701 0.456181 1.131440 0.073562 -0.011424 -634867.000000 0 0 1
-28.082457 -15.456306 14.927859 35.360469 0.503143 1.134967 0.071986 -0.007231 275146.000000 0 0 1
-29.163857 -16.269206 15.347459 36.752716 0.508854 1.140008 0.063859 -0.001889 195117.000000 0 0 1
-28.637057 -17.547006 15.494559 36.987292 0.549733 1.138545 0.055517 -0.002425 -53562.700000 0 0 1
-29.706857 -18.564006 15.949559 38.490364 0.558532 1.143537 0.036441 0.008689 75692.000000 0 0 1
-29.793757 -18.512306 17.373359 39.143416 0.555969 1.110919 0.044169 0.012138 -77765.600000 0 0 1
-30.410357 -19.636406 18.003859 40.429163 0.573357 1.109266 0.049478 0.012510 -249025.000000 0 0 1
-29.531757 -20.831606 18.309759 40.513303 0.614339 1.101853 0.024586 0.012885 460501.000000 0 0 1
-28.257257 -20.630506 18.942359 39.785717 0.630640 1.074571 0.036349 0.015295 824851.000000 0 0 1
-27.592557 -21.810006 19.277059 40.107737 0.668879 1.069421 0.029537 0.014691 747015.000000 0 0 1
-26.137057 -21.568006 19.817759 39.256441 0.689912 1.041613 0.036607 0.019970 1248440.000000 0 0 1
-25.148857 -21.115306 18.889059 37.882947 0.698433 1.048794 0.043733 0.012028 977785.000000 0 0 1
-23.825057 -21.146206 19.430159 37.313891 0.725900 1.023100 0.075075 0.013745 1817520.000000 0 0 1
-22.663757 -20.899506 18.336759 35.870210 0.744922 1.034219 0.092701 -0.001077 1073120.000000 0 0 1
-22.397357 -21.906406 17.315859 35.796246 0.774317 1.065880 0.090715 -0.012999 -192486.000000 0 0 1
-21.102757 -21.726306 16.827559 34.648600 0.799956 1.063674 0.109143 -0.013405 -196438.000000 0 0 1
-20.670257 -22.603606 15.597259 34.372329 0.830046 1.099801 0.114251 -0.010041 -324765.000000 0 0 1
-20.769557 -23.998606 15.642059 35.383352 0.857402 1.112887 0.116440 -0.016460 134177.000000 0 0 1
-19.852557 -24.701106 16.456059 35.708130 0.893797 1.091845 0.122577 -0.020788 728987.000000 0 0 1
-18.372957 -24.863706 15.974559 34.798793 0.934407 1.093865 0.117149 -0.025320 736432.000000 0 0 1
-17.611157 -23.674606 15.974159 33.553146 0.931221 1.074599 0.121087 -0.027295 111061.000000 0 0 1
-16.277357 -23.896506 15.521759 32.816465 0.972827 1.078119 0.127127 -0.029320 593866.000000 0 0 1
-15.419857 -22.580506 15.533559 31.447459 0.971651 1.054166 0.112140 -0.028240 -86261.000000 0 0 1
-15.564157 -21.548606 14.568759 30.312277 0.945272 1.069432 0.111994 -0.023426 276153.000000 0 0 1
-16.765057 -20.789406 14.709259 30.489815 0.892151 1.067367 0.103253 -0.019156 425642.000000 0 0 1
-16.483657 -19.613106 15.680359 30.037619 0.871878 1.021574 0.102187 -0.016431 276462.000000 0 0 1
-15.754757 -18.491806 15.155159 28.632815 0.865151 1.013029 0.102048 -0.019946 268479.000000 0 0 1
-15.832757 -17.446306 16.052859 28.508667 0.833846 0.972680 0.094593 -0.019538 -276015.000000 0 0 1
-15.180657 -16.155606 15.472059 27.034063 0.816501 0.961468 0.087455 -0.016182 269243.000000 0 0 1
-15.977757 -15.402706 14.562059 26.544032 0.767075 0.990107 0.090261 -0.018823 153386.000000 0 0 1
-16.059457 -15.920106 13.269359 26.218921 0.781041 1.040141 0.108988 -0.022201 -224085.000000 0 0 1
-16.938857 -15.165706 12.276959 25.838871 0.730224 1.075679 0.105487 -0.017478 672241.000000 0 0 1
-18.342557 -15.391506 12.431159 26.979280 0.698140 1.091937 0.107462 -0.014660 1354890.000000 0 0 1
-19.229857 -14.478006 11.722559 26.773465 0.645349 1.117599 0.142881 -0.021847 422138.000000 0 0 1
-20.757457 -14.657706 11.877859 28.050025 0.614836 1.133543 0.124349 -0.022040 316234.000000 0 0 1
-21.353257 -15.787106 11.234159 28.834019 0.636637 1.170583 0.131864 -0.029173 204011.000000 0 0 1
-21.135657 -15.840906 9.800559 28.172704 0.643173 1.215494 0.153762 -0.030973 -823617.000000 0 0 1
-21.881657 -16.998406 9.153959 29.181290 0.660455 1.251717 0.139024 -0.017732 107115.000000 0 0 1
-21.386057 -18.346206 9.360359 29.691127 0.709039 1.250068 0.150032 -0.004366 -5344.710000 0 0 1
-22.235757 -19.198306 8.632959 30.619141 0.712221 1.284974 0.139037 -0.016545 57000.000000 0 0 1
-21.756857 -20.652306 8.555359 31.194114 0.759359 1.292974 0.154794 -0.021465 605415.000000 0 0 1
-20.561557 -20.841606 7.781859 30.293687 0.792162 1.311003 0.178792 -0.017628 217313.000000 0 0 1
-20.191357 -22.165706 8.013159 31.035788 0.831977 1.309647 0.169597 -0.026234 -179806.000000 0 0 1
-18.786757 -22.494806 7.465359 30.243844 0.874981 1.321379 0.163724 -0.036060 -86897.000000 0 0 1
-17.716057 -21.836706 8.093159 29.260889 0.889205 1.290556 0.135029 -0.036293 -313345.000000 0 0 1
-16.516657 -22.111406 7.403659 28.574961 0.929234 1.308710 0.139444 -0.035276 109663.000000 0 0 1
-15.220557 -21.813806 8.180859 27.828653 0.961583 1.272416 0.094657 -0.017811 831190.000000 0 0 1
-13.964757 -22.094706 7.561259 27.209614 1.007150 1.289200 0.099178 -0.015340 142048.000000 0 0 1
-12.840857 -21.661706 8.251159 26.499033 1.035695 1.254156 0.088860 -0.014923 -662330.000000 0 0 1
-11.561457 -21.952606 7.490759 25.917092 1.086053 1.277585 0.081756 -0.018247 -473326.000000 0 0 1
-11.172557 -23.286506 7.625559 26.930216 1.123450 1.283709 0.077049 -0.014189 -505027.000000 0 0 1
-10.168957 -23.674806 6.723759 26.629177 1.165098 1.315537 0.084790 -0.025386 148725.000000 0 0 1
-9.855957 -25.167786 6.775159 27.865034 1.197544 1.325193 0.107603 -0.023527 558319.000000 0 0 1
-10.882857 -25.967946 6.161059 28.822378 1.173944 1.355374 0.120302 -0.031523 113686.000000 0 0 1
-10.704157 -27.372196 6.341059 30.067011 1.198021 1.358303 0.133752 -0.030618 257502.000000 0 0 1
-9.760957 -28.178246 5.367459 30.300156 1.237332 1.392714 0.159393 -0.034737 766960.000000 0 0 1
-8.378957 -27.850686 5.598759 29.617795 1.278557 1.380618 0.152807 -0.036616 723527.000000 0 0 1
-7.458957 -28.879626 5.206859 30.278379 1.318042 1.397971 0.165966 -0.033015 458707.000000 0 0 1
-7.525957 -30.261966 5.952059 31.746711 1.327048 1.382194 0.195308 -0.049721 -670659.000000 0 0 1
-7.181957 -30.032416 7.310459 31.732780 1.336065 1.338333 0.183354 -0.049568 90368.000000 0 0 1
-7.193957 -31.277266 8.006959 33.077663 1.344722 1.326302 0.219569 -0.055368 -169864.000000 0 0 1
-7.417957 -31.182286 9.515759 33.435172 1.337247 1.282204 0.184900 -0.061481 -462043.000000 0 0 1
-6.337957 -30.622436 10.217059 32.898201 1.366707 1.255008 0.165832 -0.053891 -21413.100000 0 0 1
-6.472957 -30.822296 11.591559 33.560056 1.363796 1.218134 0.143503 -0.041270 -313258.000000 0 0 1
-5.626957 -29.991026 12.533259 32.987981 1.385331 1.181071 0.117357 -0.031994 95712.200000 0 0 1
-6.215957 -28.689236 12.764959 32.010226 1.357429 1.160613 0.105020 -0.025138 160922.000000 0 0 1
-5.387957 -27.940816 13.618859 31.546674 1.380300 1.124414 0.080162 -0.026478 -78947.800000 0 0 1
-6.145957 -27.397636 14.867059 31.771571 1.350125 1.083843 0.090571 -0.024334 15354.500000 0 0 1
-6.661957 -28.372436 15.817559 33.159795 1.340170 1.073547 0.083223 -0.022575 -50779.700000 0 0 1
-5.805957 -29.353416 16.365559 34.105186 1.375522 1.070306 0.072140 -0.031390 -181392.000000 0 0 1
-6.631957 -30.585416 16.760359 35.501552 1.357268 1.079122 0.078191 -0.032306 14998.300000 0 0 1
-7.297957 -31.122276 15.662259 35.597228 1.340465 1.115214 0.090131 -0.032515 -263761.000000 0 0 1
-7.617957 -32.482106 15.750059 36.894239 1.340432 1.129737 0.094461 -0.038092 64034.200000 0 0 1
-6.484957 -33.523986 15.463559 37.483783 1.379714 1.145556 0.097560 -0.038754 166248.000000 0 0 1
-5.960957 -33.358116 14.179659 36.733631 1.393967 1.174491 0.109949 -0.040973 -63550.300000 0 0 1
-4.918957 33.401541 13.942859 36.527556 -1.424580 1.179153 0.141006 -0.046347 -192615.000000 0 0 1
-4.035957 33.742514 12.728459 36.288564 -1.451751 1.212417 0.154751 -0.051483 -312786.000000 0 0 1
-4.574957 33.819454 11.421659 35.988053 -1.436337 1.247838 0.162814 -0.050852 -314071.000000 0 0 1
-3.601957 -33.406646 10.540659 35.214821 1.463390 1.266812 0.166590 -0.050556 -490554.000000 0 0 1
-4.210957 -33.144976 9.128059 34.635864 1.444427 1.304103 0.173815 -0.058196 -940596.000000 0 0 1
-4.484957 33.497063 8.183959 34.772766 -1.437697 1.333212 0.180295 -0.068252 442871.000000 0 0 1
-5.292957 32.411460 8.663459 33.964299 -1.408920 1.312871 0.200902 -0.066587 615248.000000 0 0 1
-6.713957 32.749389 9.221659 34.679081 -1.368588 1.301644 0.211889 -0.061570 -646144.000000 0 0 1
-7.698957 32.975802 8.273659 34.858727 -1.341432 1.331161 0.198627 -0.048875 -1032960.000000 0 0 1
-8.928957 33.196579 8.926259 35.516436 -1.308043 1.316745 0.160959 -0.046963 -399340.000000 0 0 1
-10.060957 33.430067 7.945259 35.803901 -1.278463 1.347023 0.160784 -0.055044 -541342.000000 0 0 1
-10.039957 -32.963646 7.381259 35.240399 1.275146 1.359779 0.167064 -0.047972 -48099.900000 0 0 1
-10.752857 -32.983926 6.157759 35.234661 1.255658 1.395130 0.151533 -0.036510 34914.600000 0 0 1
-11.176957 -31.630086 5.536059 34.000510 1.231127 1.407245 0.133834 -0.047243 589430.000000 0 0 1
-12.210157 -30.935496 6.255359 33.841134 1.194870 1.384882 0.132722 -0.046482 400356.000000 0 0 1
-13.019957 -30.125256 5.406359 33.260774 1.162848 1.407527 0.120311 -0.042614 -292432.000000 0 0 1
-14.163357 -29.538616 6.222959 33.344501 1.123694 1.383069 0.092637 -0.036971 98729.200000 0 0 1
-15.198357 -30.462346 6.615859 34.680170 1.108011 1.378852 0.107197 -0.040086 1118370.000000 0 0 1
-16.301957 -29.828256 7.282259 34.763630 1.070623 1.359754 0.103883 -0.044256 473878.000000 0 0 1
35.034450 -12.363206 -12.890641 39.324676 -0.339245 1.904771 0.157376 -0.031068 62492.400000 0 0 1
33.880830 -12.470606 -12.060941 38.064327 -0.352684 1.893210 0.172028 -0.033813 467866.000000 0 0 1
33.603110 -13.777406 -11.535441 38.105804 -0.389101 1.878343 0.168222 -0.039797 -110161.000000 0 0 1
34.528610 -14.412606 -10.474141 38.854289 -0.395425 1.843748 0.146749 -0.039630 360723.000000 0 0 1
35.844030 -14.775006 -10.879641 40.267380 -0.390981 1.844381 0.154325 -0.043534 390642.000000 0 0 1
36.640080 -15.065506 -9.739041 40.796003 -0.390103 1.811849 0.130597 -0.035174 -515315.000000 0 0 1
-37.538138 -15.253806 -10.113441 41.762090 0.385973 1.815396 0.102905 -0.039544 -793019.000000 0 0 1
-36.769188 -14.099306 -10.321341 40.709873 0.366162 1.827128 0.113554 -0.042822 836454.000000 0 0 1
-35.456525 -14.493706 -10.779641 39.792379 0.388047 1.845121 0.103974 -0.052174 911132.000000 0 0 1
-34.582017 -13.327006 -11.281541 38.740137 0.367834 1.866288 0.110635 -0.058633 892.782000 0 0 1
-34.162075 -12.401306 -10.243641 37.759396 0.348221 1.845526 0.122994 -0.049644 494174.000000 0 0 1
-33.364638 -11.361106 -10.780941 36.857869 0.328199 1.867637 0.136531 -0.042381 -64604.600000 0 0 1
-33.734188 -9.971506 -10.186841 36.622372 0.287407 1.852673 0.147930 -0.034576 50638.600000 0 0 1
-33.321828 -9.893406 -8.820141 35.861102 0.288615 1.819299 0.152658 -0.034928 672045.000000 0 0 1
-34.048618 -8.843106 -8.129641 36.105401 0.254106 1.797908 0.202979 -0.049668 143476.000000 0 0 1
-33.757838 -8.611806 -6.630341 35.464296 0.249778 1.758861 0.197787 -0.048829 -147187.000000 0 0 1
-32.489918 -8.027606 -6.366941 34.067216 0.242228 1.758795 0.189916 -0.051467 510471.000000 0 0 1
-32.136138 -7.820706 -5.001341 33.450086 0.238721 1.720876 0.215253 -0.043385 -19382.400000 0 0 1
-31.710798 -9.057706 -4.078441 33.230264 0.278226 1.693839 0.192715 -0.044619 -109353.000000 0 0 1
-32.709818 -10.038006 -3.834841 34.429636 0.297757 1.682410 0.192220 -0.042830 368660.000000 0 0 1
-32.519468 -10.704106 -2.582741 34.333137 0.317990 1.646093 0.209975 -0.044856 -167805.000000 0 0 1
-33.295068 -12.021606 -2.542141 35.490042 0.346496 1.642487 0.218254 -0.042262 -125796.000000 0 0 1
-34.668412 -11.818206 -2.298041 36.699453 0.328538 1.633455 0.241205 -0.052524 434329.000000 0 0 1
-35.402657 -13.043806 -2.418041 37.806560 0.353008 1.634798 0.261426 -0.057549 -848900.000000 0 0 1
-36.904578 -12.907906 -2.533441 39.178824 0.336465 1.635505 0.272241 -0.049570 -926881.000000 0 0 1
-37.433648 -12.510206 -1.304941 39.490330 0.322527 1.603847 0.305791 -0.062123 550685.000000 0 0 1
36.797430 -12.290406 -1.322341 38.818211 -0.322352 1.604868 0.290285 -0.065414 445282.000000 0 0 1
36.234860 -11.640406 -0.059441 38.058740 -0.310835 1.572358 0.298745 -0.083743 -61303.700000 0 0 1
36.252610 -12.523306 1.039459 38.368808 -0.332612 1.543702 0.313738 -0.070290 299586.000000 0 0 1
35.443610 -12.035806 2.090959 37.489762 -0.327359 1.514993 0.323488 -0.062482 153308.000000 0 0 1
36.090000 -12.359306 3.447059 38.303038 -0.329940 1.480680 0.258778 -0.065298 243319.000000 0 0 1
35.310330 -11.869906 4.528759 37.526307 -0.324292 1.449819 0.215593 -0.065279 -11836.400000 0 0 1
35.960340 -12.193306 5.710359 38.398320 -0.326910 1.421529 0.200197 -0.058100 27253.200000 0 0 1
35.087010 -12.147106 7.022959 37.788522 -0.333285 1.383860 0.156309 -0.054282 555295.000000 0 0 1
34.354380 -10.939406 7.223459 36.770537 -0.308277 1.373063 0.157357 -0.045444 94994.200000 0 0 1
33.772050 -10.913606 8.485059 36.491840 -0.312562 1.336129 0.124613 -0.038335 -759543.000000 0 0 1
33.148850 -9.593906 8.850759 35.626187 -0.281721 1.319733 0.133842 -0.056797 -184583.000000 0 0 1
31.826940 -9.547706 8.322659 34.254627 -0.291446 1.325376 0.134376 -0.051114 372713.000000 0 0 1
31.007090 -8.598906 8.991359 33.409959 -0.270522 1.298315 0.156352 -0.040990 -1491870.000000 0 0 1
29.559840 -8.825106 8.754659 32.067284 -0.290126 1.294277 0.140342 -0.031729 -1581150.000000 0 0 1
29.161940 -8.316006 7.487559 31.235208 -0.277793 1.328724 0.152182 -0.034990 -393500.000000 0 0 1
28.242740 -9.131106 6.862259 30.465063 -0.312701 1.343597 0.166629 -0.043547 -435709.000000 0 0 1
27.368740 -8.403806 5.785459 29.208619 -0.297920 1.371404 0.176209 -0.042085 460053.000000 0 0 1
26.242240 -7.694106 6.327659 28.069444 -0.285202 1.343413 0.192938 -0.039187 447227.000000 0 0 1
25.388740 -7.162806 5.375159 26.921854 -0.274978 1.369788 0.218011 -0.046309 -474229.000000 0 0 1
25.842540 -5.852906 4.648459 26.901702 -0.222726 1.397130 0.222001 -0.042520 -483387.000000 0 0 1
26.748540 -6.158906 3.616859 27.685703 -0.226308 1.439782 0.209784 -0.043049 158320.000000 0 0 1
27.069240 -4.973406 2.923459 27.677159 -0.181703 1.464972 0.220872 -0.044181 278684.000000 0 0 1
27.584140 -5.131206 1.464559 28.095533 -0.183918 1.518645 0.225991 -0.053154 -245285.000000 0 0 1
26.509640 -5.407106 0.631359 27.062823 -0.201208 1.547465 0.204710 -0.047027 -492055.000000 0 0 1
26.792740 -5.356706 -0.763541 27.333646 -0.197329 1.598734 0.210626 -0.053666 -495039.000000 0 0 1
25.710340 -5.747806 -1.766541 26.404157 -0.219944 1.637750 0.166678 -0.034042 -255013.000000 0 0 1
24.705640 -4.784706 -2.009141 25.244776 -0.191300 1.650467 0.190046 -0.030113 -451290.000000 0 0 1
23.968240 -5.121706 -3.118641 24.706969 -0.210521 1.697359 0.172457 -0.026717 -111914.000000 0 1 0
22.824840 -4.048206 -3.275141 23.411276 -0.175534 1.711153 0.151523 -0.022646 51258.100000 0 1 0
23.247840 -2.718906 -3.232241 23.628413 -0.116424 1.708021 0.180177 -0.026198 48332.300000 0 1 0
23.963640 -2.242206 -4.352341 24.458667 -0.093295 1.749696 0.202601 -0.023885 43517.400000 0 1 0
23.104440 -1.379906 -5.339341 23.753481 -0.059654 1.797515 0.207974 -0.010991 181866.000000 0 1 0
22.681540 -0.141506 -4.768141 23.177736 -0.006239 1.777996 0.201043 -0.005223 244586.000000 0 1 0
21.868940 0.518294 -5.712741 22.608728 0.023696 1.826244 0.203793 0.003399 -400353.000000 0 1 0
21.442140 1.950494 -5.244841 22.160283 0.090716 1.809741 0.179157 0.004559 339926.000000 0 1 0
22.506440 2.922594 -5.228141 23.289801 0.129133 1.797208 0.221458 -0.009106 845880.000000 0 1 0
23.339540 2.740594 -4.082041 23.851793 0.116888 1.742785 0.247913 -0.005260 250931.000000 0 1 0
24.415840 3.856994 -3.978641 25.036757 0.156676 1.730385 0.272996 -0.023168 -38803.300000 0 0 1
23.756340 5.049194 -3.724941 24.570983 0.209425 1.722982 0.222866 -0.013429 274002.000000 0 1 0
24.608140 6.129194 -3.440541 25.592282 0.244105 1.705641 0.221001 -0.018391 -15406.800000 0 0 1
23.842140 7.485394 -3.448941 25.226453 0.304211 1.707945 0.195840 -0.016839 -359154.000000 0 0 1
22.817340 7.649794 -2.526041 24.197752 0.323486 1.675378 0.217096 -0.026927 446649.000000 0 1 0
22.078940 8.881294 -2.800941 23.962517 0.382446 1.687953 0.173798 -0.020605 -15999.300000 0 1 0
21.122540 9.351694 -1.696841 23.162364 0.416796 1.644121 0.122500 -0.021181 -695450.000000 0 1 0
21.791440 9.565694 -0.510941 23.804000 0.413640 1.592262 0.098541 -0.028291 897765.000000 0 1 0
20.891740 10.046494 0.515059 23.187542 0.448238 1.548582 0.052971 -0.028750 467465.000000 0 1 0
21.625440 10.111794 1.935359 23.951067 0.437383 1.489903 0.088074 -0.031200 471332.000000 0 1 0
22.609340 11.156394 2.087159 25.298292 0.458387 1.488200 0.115390 -0.043841 674001.000000 0 0 1
22.287540 12.507494 1.814859 25.621583 0.511392 1.499904 0.126259 -0.033976 -798022.000000 0 0 1
21.240940 13.228594 2.692359 25.167876 0.557007 1.463615 0.107632 -0.022698 122851.000000 0 0 1
19.907540 12.750294 2.430959 23.765304 0.569651 1.468327 0.132442 -0.020267 1290720.000000 0 1 0
18.882140 13.572494 2.994359 23.445980 0.623233 1.442733 0.119687 -0.019497 93550.700000 0 1 0
18.745040 13.606094 4.509859 23.597481 0.627865 1.378497 0.104182 -0.017210 -740396.000000 0 1 0
18.328040 12.378994 5.053759 22.686935 0.594033 1.346151 0.082413 -0.010394 360326.000000 0 1 0
18.476640 12.339394 6.454959 23.136839 0.588813 1.288054 0.094084 -0.022342 -59442.500000 0 1 0
18.633640 10.949894 7.128759 22.758117 0.531283 1.252193 0.062063 -0.011926 1008540.000000 0 1 0
19.847740 10.277894 6.695259 23.332260 0.477815 1.279752 0.061615 -0.015226 1399150.000000 0 1 0
19.975840 9.013894 7.310759 23.102633 0.423884 1.248815 0.075943 -0.018331 88519.900000 0 1 0
20.876440 8.046294 6.515359 23.302757 0.367879 1.287423 0.084180 -0.020605 30317.100000 0 1 0
20.293140 7.779094 5.233159 22.354234 0.366059 1.334502 0.059384 -0.017873 541879.000000 0 1 0
21.138140 7.059494 4.399159 22.715853 0.322323 1.375905 0.074542 -0.022391 -576827.000000 0 1 0
20.598140 6.888294 2.958859 21.920009 0.322722 1.435399 0.070040 -0.015269 -418807.000000 0 1 0
21.491740 6.188794 2.139259 22.467142 0.280376 1.475435 0.076253 -0.015312 53768.600000 0 1 0
21.166040 6.107894 0.798159 22.044152 0.280938 1.534581 0.077438 -0.001790 -630188.000000 0 1 0
22.136340 5.291194 -0.027241 22.759943 0.234625 1.571993 0.161104 -0.015447 -186676.000000 0 1 0
21.984340 3.888894 0.191659 22.326474 0.175083 1.562212 0.134623 -0.012624 344928.000000 0 1 0
23.222940 3.321394 -0.130441 23.459616 0.142059 1.576357 0.190943 -0.017064 -133282.000000 0 1 0
23.286940 1.748194 -0.111041 23.352732 0.074931 1.575551 0.225490 -0.020105 241275.000000 0 1 0
22.266940 1.190194 -0.944241 22.318709 0.053400 1.613116 0.156750 -0.017966 990164.000000 0 1 0
22.699440 -0.075806 -1.464141 22.746736 -0.003340 1.635208 0.204385 -0.028052 -1177590.000000 0 1 0
22.586740 -1.297606 -0.535241 22.630313 -0.057387 1.594450 0.224355 -0.020590 211429.000000 0 1 0
23.538140 -1.518606 0.506959 23.592524 -0.064428 1.549307 0.235475 -0.020076 145214.000000 0 1 0
24.870940 -1.550406 0.086959 24.919369 -0.062258 1.567307 0.248735 -0.041210 -666405.000000 0 1 0
25.948940 -1.313806 1.195659 26.009674 -0.050587 1.524810 0.263391 -0.036515 209911.000000 0 0 1
26.062040 0.112994 1.409859 26.100391 0.004336 1.516753 0.260090 -0.028267 11355.800000 0 0 1
26.640540 0.351994 2.612259 26.770621 0.013212 1.473061 0.252891 -0.026468 -755013.000000 0 0 1
26.653140 1.847694 2.986959 26.883559 0.069213 1.459459 0.228010 -0.022870 216832.000000 0 0 1
27.264540 2.807794 2.140859 27.492219 0.102622 1.492846 0.267737 -0.022333 -224317.000000 0 0 1
28.611040 2.626894 1.813259 28.788541 0.091557 1.507769 0.248899 -0.018183 -504324.000000 0 0 1
29.240640 3.692894 0.927459 29.487500 0.125628 1.539339 0.297913 -0.031901 -171955.000000 0 0 1
28.681640 3.510594 -0.386541 28.898272 0.121793 1.584173 0.348713 -0.029250 676893.000000 0 0 1
29.416740 4.310594 -1.317641 29.760073 0.145500 1.615086 0.360407 -0.026465 49427.000000 0 0 1
30.779840 3.779194 -1.815441 31.064074 0.122170 1.629271 0.312860 -0.023591 -593834.000000 0 0 1
31.724600 4.077394 -0.809841 31.995800 0.127824 1.596110 0.253239 -0.019532 -1205260.000000 0 0 1
32.974630 3.640194 -1.252641 33.198589 0.109949 1.608537 0.219910 -0.017806 25006.100000 0 0 1
34.158310 4.189294 -0.373741 34.416275 0.122034 1.581656 0.140268 -0.006737 418976.000000 0 0 1
34.216330 3.598894 0.921359 34.417411 0.104795 1.544023 0.165192 -0.010102 -411704.000000 0 0 1
33.250560 4.032494 1.813159 33.543230 0.120687 1.516716 0.155545 0.001957 -550476.000000 0 0 1
33.223910 3.174494 3.096959 33.518603 0.095259 1.478269 0.171533 0.000864 277993.000000 0 0 1
32.371430 2.008494 3.049959 32.576767 0.061966 1.477035 0.199182 -0.012713 549963.000000 0 0 1
32.600860 1.155794 4.192359 32.889630 0.035438 1.442981 0.178775 -0.016296 19792.700000 0 0 1
33.726540 0.103094 4.107959 33.975954 0.003057 1.449592 0.169501 -0.013847 -1162410.000000 0 0 1
34.995900 0.606294 4.111759 35.241838 0.017323 1.453857 0.154792 -0.008944 -987568.000000 0 0 1
35.878760 -0.393106 3.624159 36.063478 -0.010956 1.470133 0.131805 -0.012697 484960.000000 0 0 1
37.402550 -0.232406 3.914059 37.607507 -0.006214 1.466531 0.181111 -0.023793 587902.000000 0 0 1
-37.534778 0.546794 2.979659 37.656831 -0.014567 1.491587 0.153791 -0.012201 -193284.000000 0 0 1
-36.147488 0.346394 3.016659 36.274800 -0.009582 1.487539 0.162672 -0.016920 -71436.900000 0 0 1
-35.354429 1.023294 1.880559 35.419194 -0.028936 1.517677 0.180395 -0.023133 -122211.000000 0 0 1
-35.131230 2.370794 1.966959 35.266031 -0.067382 1.514992 0.171519 -0.040817 -25019.300000 0 0 1
-34.092663 2.648894 1.066859 34.212052 -0.077541 1.539608 0.198951 -0.028103 -492650.000000 0 0 1
-33.243768 3.877794 1.374959 33.497402 -0.116122 1.529738 0.225740 -0.028055 -614952.000000 0 0 1
-32.332038 3.535394 2.371459 32.611095 -0.108914 1.498013 0.236207 -0.038333 -395334.000000 0 0 1
-31.765658 4.678194 2.977759 32.246079 -0.146221 1.478320 0.248402 -0.032967 -445565.000000 0 0 1
-32.208558 4.946394 4.421659 32.884785 -0.152383 1.435929 0.266266 -0.025339 -669568.000000 0 0 1
-33.552848 5.287294 4.529759 34.267591 -0.156296 1.438220 0.272269 -0.007093 -380778.000000 0 0 1
-34.566242 4.342894 4.733159 35.158052 -0.124985 1.435761 0.255984 -0.008868 -244330.000000 0 0 1
-34.479248 3.518594 6.047359 35.181950 -0.101698 1.398050 0.219827 -0.002635 -961713.000000 0 0 1
-34.763582 4.202894 7.241659 35.757693 -0.120315 1.366865 0.221844 -0.017149 260573.000000 0 0 1
-34.960661 3.471294 8.389959 36.120480 -0.098967 1.336378 0.188796 -0.013892 539305.000000 0 0 1
-36.164788 2.458494 8.560459 37.245370 -0.067876 1.338884 0.168199 -0.013200 226739.000000 0 0 1
-35.899396 1.278694 7.855059 36.770962 -0.035604 1.355516 0.163657 -0.021233 95413.500000 0 0 1
-36.757668 0.165394 8.047359 37.628626 -0.004500 1.355269 0.155567 -0.014523 -157017.000000 0 0 1
-36.446568 -0.797406 9.222859 37.603847 0.021875 1.323005 0.159309 -0.013057 476122.000000 0 0 1
-35.252791 -1.596506 9.162259 36.458951 0.045256 1.316770 0.139864 -0.029341 638120.000000 0 0 1
-35.132801 -2.305606 10.324059 36.690813 0.065531 1.285564 0.115514 -0.021012 -639315.000000 0 0 1
-33.923918 -3.206706 10.357759 35.614581 0.094246 1.275703 0.116901 -0.016509 -727444.000000 0 0 1
-33.933648 -4.277406 9.380259 35.465165 0.125391 1.303119 0.140259 -0.029735 239347.000000 0 0 1
-32.720988 -5.017906 9.402359 34.412887 0.152169 1.294055 0.158460 -0.033061 321000.000000 0 0 1
-32.805098 -6.261706 8.508159 34.464071 0.188607 1.321347 0.168880 -0.031226 546890.000000 0 0 1
-33.745738 -7.254406 8.951859 35.658618 0.211750 1.317038 0.176486 -0.041807 -128965.000000 0 0 1
-34.563583 -7.624206 7.915559 36.268801 0.217108 1.350778 0.188759 -0.050357 -323250.000000 0 0 1
-35.528013 -8.787706 8.190559 37.503984 0.242479 1.350630 0.195581 -0.060560 570517.000000 0 0 1
-36.671808 -8.580906 9.037059 38.731407 0.229856 1.335299 0.202706 -0.051385 647823.000000 0 0 1
-37.517668 -9.699906 8.889659 39.757888 0.253002 1.345295 0.206646 -0.061298 -67495.900000 0 0 1
8.382992 -23.621706 10.570759 27.202950 -1.229776 1.171697 0.165257 -0.044929 -11959.900000 0 0 1
7.682992 -24.267006 9.543359 27.184401 -1.264178 1.212093 0.158324 -0.044719 -510606.000000 0 0 1
6.351992 -24.549006 9.895559 27.219912 -1.317602 1.198730 0.169637 -0.044202 260526.000000 0 0 1
5.719592 -25.584416 8.886259 27.681071 -1.350855 1.243987 0.139561 -0.028281 165032.000000 0 0 1
5.364592 -25.003786 7.639459 26.689502 -1.359449 1.280502 0.144638 -0.025377 -253923.000000 0 0 1
5.133592 -26.000306 6.713259 27.339304 -1.375860 1.322706 0.119960 -0.019497 -193038.000000 0 0 1
4.424892 -25.744316 5.364759 26.667023 -1.400581 1.368238 0.107765 -0.017553 700559.000000 0 0 1
3.004792 -25.703016 5.488659 26.453718 -1.454420 1.361797 0.082135 -0.023973 245102.000000 0 0 1
2.333392 -26.849306 4.950459 27.401405 -1.484107 1.389134 0.071004 -0.018589 415592.000000 0 0 1
0.796092 -26.653096 4.831159 27.099103 -1.540937 1.391561 0.093183 -0.028251 -455121.000000 0 0 1
0.219792 -26.358556 6.053159 27.045564 -1.562458 1.345071 0.086432 -0.023588 309317.000000 0 0 1
-1.203708 -26.589286 6.030859 27.291213 1.525557 1.347975 0.085673 -0.022132 1355330.000000 0 0 1
-1.665408 -28.074376 6.068059 28.770915 1.511544 1.358291 0.115139 -0.031627 -707502.000000 0 0 1
-1.308308 -28.590146 7.330459 29.543930 1.525067 1.320057 0.103115 -0.035699 11372.300000 0 0 1
-1.710808 -29.974936 7.418959 30.926762 1.513784 1.328546 0.148347 -0.041808 -81394.600000 0 0 1
-1.426408 -30.696606 8.754059 31.952306 1.524362 1.293275 0.137054 -0.043944 526334.000000 0 0 1
-0.064908 -30.853016 9.165959 32.185830 1.568693 1.282017 0.124496 -0.028536 440575.000000 0 0 1
0.095692 -31.108876 10.558459 32.851977 -1.567720 1.243594 0.125751 -0.020054 -464846.000000 0 0 1
1.566692 -31.216406 10.939559 33.114838 -1.520650 1.234120 0.098028 -0.019354 -625901.000000 0 0 1
2.123392 -32.444116 10.518059 34.172490 -1.505442 1.257924 0.109713 -0.014876 682338.000000 0 0 1
3.482492 -32.619396 10.963959 34.588454 -1.464438 1.248249 0.101808 -0.015395 719458.000000 0 0 1
3.587892 -33.240116 12.372859 35.649207 -1.463274 1.216349 0.117984 -0.016028 -495025.000000 0 0 1
3.179792 -32.417226 13.443559 35.238004 -1.473020 1.179370 0.131776 -0.023425 258966.000000 0 0 1
3.883292 -32.702356 14.667959 36.050979 -1.452603 1.151774 0.136431 -0.025293 183064.000000 0 0 1
3.450892 -31.775386 15.915259 35.705452 -1.462618 1.108798 0.154020 -0.044016 126882.000000 0 0 1
3.785892 -30.370236 15.807859 34.446664 -1.446778 1.094030 0.159914 -0.044617 -350753.000000 0 0 1
5.141592 -30.194086 16.092059 34.598745 -1.402129 1.087043 0.143172 -0.034887 -414868.000000 0 0 1
5.718592 -28.887616 15.482159 33.270015 -1.375363 1.086768 0.161243 -0.029222 -14971.600000 0 0 1
6.107392 -28.989526 14.110159 32.814470 -1.363157 1.126306 0.140236 -0.018596 377489.000000 0 0 1
5.029792 -29.065156 13.142759 32.292634 -1.399441 1.151641 0.128138 -0.017024 -186170.000000 0 0 1
5.401392 -28.912616 11.631959 31.629368 -1.386107 1.194199 0.109928 -0.014142 254796.000000 0 0 1
5.977292 -30.056866 10.949959 32.542969 -1.374491 1.227623 0.093576 -0.019805 -328136.000000 0 0 1
7.184392 -30.503716 11.466759 33.370328 -1.339487 1.220026 0.097228 -0.012544 -1111530.000000 0 0 1
7.551592 -31.930546 10.909059 34.577361 -1.338563 1.249816 0.068939 -0.007355 -123211.000000 0 0 1
6.703192 -32.946986 11.319559 35.476318 -1.370082 1.246044 0.041583 -0.013467 -359304.000000 0 0 1
7.228392 33.598552 10.762759 36.013182 1.358886 1.267303 0.054212 -0.016906 45374.800000 0 0 1
7.274992 32.472198 11.795159 35.305735 1.350398 1.230161 0.060786 -0.017330 -391070.000000 0 0 1
5.993292 32.073599 12.160359 34.821109 1.386066 1.214054 0.073513 -0.016343 -658040.000000 0 0 1
6.008092 31.002094 13.067559 34.175841 1.379373 1.178445 0.085162 -0.011038 -104957.000000 0 0 1
5.029792 31.014974 14.235959 34.494781 1.410023 1.145381 0.091973 -0.026439 17037.200000 0 0 1
5.510792 31.629004 15.466159 35.636565 1.398296 1.121872 0.074090 -0.027558 -712539.000000 0 0 1
4.508792 31.590464 16.405959 35.880943 1.429027 1.095915 0.131023 -0.034947 -360022.000000 0 0 1
5.049392 32.250180 17.707959 37.136805 1.415488 1.073751 0.163429 -0.032884 -83889.900000 0 0 1
5.265392 33.674082 17.667159 38.390059 1.415689 1.092574 0.187117 -0.034994 -101504.000000 0 0 1
5.756892 -33.671166 18.925059 39.051851 -1.401460 1.064875 0.154240 -0.030911 -162025.000000 0 0 1
5.334492 -32.235666 19.359359 37.978675 -1.406798 1.035910 0.148229 -0.043807 374443.000000 0 0 1
3.940392 -32.041436 19.527659 37.729429 -1.448433 1.026787 0.160727 -0.043854 -43229.400000 0 0 1
3.593292 -30.703836 19.836559 36.730456 -1.454296 1.000291 0.141553 -0.034903 -320120.000000 0 0 1
2.130592 -30.489506 19.378559 36.189473 -1.501030 1.005726 0.168911 -0.037417 388131.000000 0 0 1
1.139792 -31.366666 19.903259 37.165933 -1.534475 1.005668 0.200293 -0.048254 240966.000000 0 0 1
0.792992 -31.202006 21.293859 37.783892 -1.545387 0.972095 0.184235 -0.049202 -633380.000000 0 0 1
-0.157908 -32.270036 21.831259 38.961315 1.565903 0.976010 0.216525 -0.045017 -275683.000000 0 0 1
-1.446908 -32.210466 21.254859 38.618347 1.525906 0.987974 0.210942 -0.044027 -244140.000000 0 0 1
-2.215208 -33.345316 21.572859 39.776947 1.504461 0.997570 0.199242 -0.028923 713081.000000 0 0 1
-3.495708 -33.105706 22.436859 40.144992 1.465594 0.977743 0.195678 -0.030120 1116450.000000 0 0 1
-4.581108 -32.421556 21.765859 39.317890 1.430427 0.984131 0.167960 -0.033469 811969.000000 0 0 1
-5.771108 -32.614876 22.550459 40.069428 1.395662 0.973046 0.145892 -0.037905 580369.000000 0 0 1
-7.044908 -32.037366 21.883659 39.432450 1.354345 0.982475 0.094834 -0.030096 69795.300000 0 0 1
-7.670008 -32.940296 20.988059 39.804406 1.342027 1.015400 0.085201 -0.029916 525781.000000 0 0 1
-8.834208 -32.372806 20.384659 39.262911 1.304393 1.024901 0.073733 -0.032237 -218701.000000 0 0 1
-9.862608 -33.277526 19.801259 39.959413 1.282669 1.052346 0.076067 -0.031159 -397993.000000 0 0 1
-10.626508 33.737854 20.780759 41.024449 -1.265660 1.039623 0.084836 -0.027663 -172444.000000 0 0 1
-12.014808 33.729324 20.539359 41.278180 -1.228598 1.049985 0.083608 -0.027878 75759.400000 0 0 1
-12.925808 33.575529 21.746459 42.039281 -1.203307 1.027116 0.084085 -0.020038 -349902.000000 0 0 1
-12.968108 -32.984926 22.655559 42.064849 1.196207 1.002038 0.096120 -0.021042 221563.000000 0 0 1
-11.793908 -32.775766 23.430859 41.980380 1.225386 0.978656 0.081329 -0.015315 220652.000000 0 0 1
-11.864308 -31.511736 24.319959 41.535668 1.210707 0.945275 0.077214 -0.012131 -81372.900000 0 0 1
-12.770008 -31.696926 25.390459 42.572804 1.187811 0.931787 0.092624 -0.011973 163212.000000 0 0 1
-13.145308 -30.401286 25.804859 41.987237 1.162680 0.908933 0.115143 -0.011892 15825.500000 0 0 1
-14.062208 -30.320626 27.047859 42.996195 1.136539 0.890433 0.084629 -0.006247 -140601.000000 0 0 1
-13.423108 -30.235466 28.291159 43.528760 1.152983 0.863289 0.070567 -0.004255 173651.000000 0 0 1
-14.347908 -29.844316 29.285259 44.206019 1.122660 0.846682 0.073454 -0.006728 -233868.000000 0 0 1
-13.669208 -29.472326 30.565159 44.605989 1.136527 0.815883 0.052043 -0.003802 -1053730.000000 0 0 1
-14.535308 -29.115856 31.569959 45.339504 1.107770 0.800565 0.062143 -0.008203 -316241.000000 0 0 1
-14.022708 -28.564936 32.777259 45.683045 1.114450 0.770600 0.055402 -0.009590 -501629.000000 0 0 1
-13.244908 -29.389666 -33.762641 46.680789 1.147389 2.379317 0.058946 -0.011132 70772.400000 0 0 1
-11.924108 -29.692486 33.406359 46.258112 1.188923 0.763858 0.054767 -0.011209 87832.600000 0 0 1
-11.431108 -30.724056 -33.312541 46.737173 1.214608 2.364226 0.062876 -0.011381 660910.000000 0 0 1
-9.897808 -31.010846 -33.489541 46.703197 1.261844 2.370388 0.066535 -0.019705 762047.000000 0 0 1
-9.129708 -30.116856 -32.686541 45.373854 1.276459 2.375150 0.108018 -0.032230 -339895.000000 0 0 1
-7.795708 -30.526286 -32.638041 45.363741 1.320763 2.373841 0.122927 -0.039875 -316672.000000 0 0 1
-6.821508 -29.652896 -31.821141 44.027404 1.344685 2.378581 0.150027 -0.040334 79144.200000 0 0 1
-6.991008 -29.876646 -30.454241 43.231343 1.340936 2.352442 0.167507 -0.047656 -234149.000000 0 0 1
-6.101008 -29.105116 -29.721141 42.043743 1.364168 2.355916 0.170846 -0.047548 -52129.800000 0 0 1
-6.599608 -29.081866 -28.232541 41.065633 1.347644 2.328834 0.163257 -0.041191 278388.000000 0 0 1
-6.156708 -30.209636 -27.479041 41.299212 1.369750 2.298779 0.137303 -0.044667 536778.000000 0 0 1
-7.205208 -30.638166 -26.596941 41.206912 1.339822 2.272407 0.145165 -0.045881 629791.000000 0 0 1
-6.750208 -31.860466 -25.753241 41.519683 1.362016 2.239878 0.118132 -0.045219 439207.000000 0 0 1
-5.788708 -31.504576 -24.769641 40.491760 1.389081 2.229030 0.076407 -0.034365 75444.900000 0 0 1
-5.374708 -32.712956 -24.160941 41.021654 1.407952 2.200593 0.083514 -0.042704 407863.000000 0 0 1
-4.490508 -32.552636 -22.862341 40.031556 1.433715 2.178651 0.109652 -0.054135 538498.000000 0 0 1
-5.222208 -32.113866 -21.727941 39.123846 1.409592 2.159596 0.119650 -0.045138 178843.000000 0 0 1
-5.188308 -30.672026 -21.624241 37.885348 1.403228 2.178253 0.102758 -0.025512 -322624.000000 0 0 1
-5.787108 -30.133956 -20.282341 36.782052 1.381060 2.154861 0.135233 -0.045413 1865330.000000 0 0 1
-7.255708 -30.071606 -20.213841 36.953298 1.334040 2.149585 0.149887 -0.057735 1995230.000000 0 0 1
-7.808308 -28.835506 -20.541541 36.254807 1.306350 2.173156 0.152774 -0.049914 -127340.000000 0 0 1
-7.914108 -28.347376 -22.016241 36.754887 1.298545 2.213050 0.202087 -0.074310 -568458.000000 0 0 1
-6.657908 -27.961176 -22.520241 36.514605 1.337037 2.235399 0.210126 -0.045311 -220497.000000 0 0 1
-6.698208 -27.568566 -23.881541 37.083957 1.332449 2.270493 0.280939 -0.057585 128269.000000 0 0 1
-5.275708 -27.167776 -24.385441 36.885918 1.378994 2.293086 0.247914 -0.054866 79121.500000 0 0 1
-4.718508 -25.951666 -23.931741 35.615749 1.390942 2.307625 0.222474 -0.060736 -67375.600000 0 0 1
-4.083508 -26.142416 -22.689241 34.855454 1.415846 2.279635 0.153951 -0.040492 614881.000000 0 0 1
-2.525908 -26.587356 -22.737841 35.075307 1.476076 2.276090 0.127253 -0.035241 1841660.000000 0 0 1
-1.603208 -25.558076 -23.033941 34.443403 1.508150 2.303319 0.123223 -0.040349 147766.000000 0 0 1
-1.493008 -24.594406 -22.087141 33.090115 1.510166 2.301622 0.145053 -0.046487 -1504810.000000 0 0 1
-1.021008 -23.278806 -22.706341 32.534954 1.526964 2.343266 0.146740 -0.049076 185449.000000 0 0 1
-1.877908 -22.734106 -23.719841 32.908920 1.488380 2.375712 0.247429 -0.060245 498014.000000 0 0 1
-3.166908 -22.341306 -23.233841 32.387878 1.429983 2.370805 0.248940 -0.061521 423941.000000 0 0 1
-4.169008 -21.954506 -24.386541 33.076947 1.383138 2.399812 0.246930 -0.067997 397752.000000 0 0 1
-3.789208 -20.723106 -25.036741 32.720692 1.389945 2.442095 0.247976 -0.060632 658231.000000 0 0 1
-4.557208 -20.453806 -26.254241 33.591837 1.351572 2.467969 0.319755 -0.065827 498918.000000 0 0 1
-4.155308 -21.374606 -27.448441 35.036514 1.378787 2.470952 0.270915 -0.050353 561638.000000 0 0 1
-5.045108 -21.246706 -28.594041 35.979089 1.337660 2.489376 0.275167 -0.047920 321828.000000 0 0 1
-4.559208 -21.851106 -29.772141 37.210719 1.365099 2.498251 0.287224 -0.042442 -85119.600000 0 0 1
-5.584208 -22.100106 -30.918041 38.412542 1.323299 2.506294 0.305298 -0.052481 15102.300000 0 0 1
-6.112008 -20.873506 -31.336741 38.145134 1.285947 2.534857 0.306229 -0.061069 -207057.000000 0 0 1
-6.992408 -21.109406 -32.424941 39.317651 1.250925 2.540453 0.277749 -0.057358 220596.000000 0 0 1
-6.550908 -20.297706 -33.699841 39.882209 1.258609 2.577332 0.245183 -0.049851 510061.000000 0 0 1
-5.259008 -20.685906 33.436859 39.668469 1.321839 0.568132 0.245547 -0.049543 115670.000000 0 0 1
-4.977908 -20.062606 32.184659 38.251013 1.327589 0.570915 0.234378 -0.042404 -112922.000000 0 0 1
-3.541008 -20.311206 31.712259 37.825272 1.398193 0.576477 0.179336 -0.055354 -1256980.000000 0 0 1
-3.183308 -21.554906 31.113759 37.984384 1.424172 0.610922 0.234876 -0.052378 174678.000000 0 0 1
-1.946108 -21.646806 30.455659 37.415488 1.481135 0.619816 0.199452 -0.036075 213440.000000 0 0 1
-0.633508 -20.997506 30.931759 37.390778 1.540635 0.596590 0.143344 -0.043634 -913166.000000 0 0 1
-0.493308 -19.695006 30.414459 36.237770 1.545754 0.574797 0.113253 -0.041884 -255232.000000 0 0 1
0.419392 -18.814606 30.998859 36.264232 -1.548509 0.545621 0.118830 -0.042202 -455086.000000 0 0 1
0.177492 -18.461206 32.516859 37.392429 -1.561182 0.516383 0.116386 -0.045777 480123.000000 0 0 1
-1.120108 -17.894406 32.729559 37.318741 1.508282 0.501157 0.124159 -0.038208 454308.000000 0 0 1
-1.372508 -17.628506 -33.471641 37.854971 1.493096 2.655591 0.131078 -0.046790 882355.000000 0 0 1
-2.743008 -16.920406 -33.168841 37.336260 1.410082 2.664604 0.139242 -0.050377 708191.000000 0 0 1
-2.626808 -15.552606 -33.425041 36.959668 1.403477 2.700686 0.140779 -0.040266 581706.000000 0 0 1
-3.768408 -14.777606 -33.000641 36.354104 1.321110 2.708699 0.169547 -0.051541 569032.000000 0 0 1
-3.547008 -13.293106 -33.172841 35.912746 1.310041 2.748442 0.142030 -0.057852 709464.000000 0 0 1
-2.562008 -12.664606 -32.288641 34.778046 1.371193 2.760934 0.148989 -0.055608 628928.000000 0 0 1
-2.469908 -11.233906 -32.433941 34.413103 1.354378 2.800794 0.140556 -0.052887 -120739.000000 0 0 1
-2.143508 -10.584006 33.777159 35.461420 1.370976 0.309439 0.130875 -0.048489 580549.000000 0 0 1
-3.051008 -10.979906 32.685559 34.615210 1.299762 0.335474 0.107790 -0.040249 641644.000000 0 0 1
-2.497608 -10.666106 31.411859 33.267232 1.340778 0.335553 0.104858 -0.026518 295312.000000 0 0 1
-1.540308 -11.770706 30.851359 33.056443 1.440676 0.367319 0.116814 -0.033750 655448.000000 0 0 1
-2.236808 -12.960906 30.502059 33.216923 1.399899 0.407111 0.106916 -0.033649 -103391.000000 0 0 1
-1.314708 -13.965306 30.691359 33.744892 1.476932 0.428690 0.120156 -0.034498 -558284.000000 0 0 1
-1.859808 -15.392106 30.625959 34.326742 1.450551 0.468626 0.095427 -0.018501 -78675.100000 0 0 1
-2.250908 -15.875506 29.311359 33.410388 1.429950 0.500563 0.128600 -0.021972 228805.000000 0 0 1
-2.709608 -17.199806 29.516559 34.269557 1.414543 0.532963 0.142224 -0.020401 -210439.000000 0 0 1
-2.465208 -18.185106 28.384259 33.800022 1.436056 0.573936 0.151437 -0.025044 8664.450000 0 0 1
-3.420708 -18.106106 27.332659 32.963716 1.384071 0.593168 0.162602 -0.032032 12141.100000 0 0 1
-3.615608 -19.435006 26.801759 33.303549 1.386863 0.635505 0.186773 -0.029975 -244457.000000 0 0 1
-4.761408 -19.389106 25.803059 32.625240 1.329990 0.658530 0.166833 -0.042751 -599508.000000 0 0 1
-5.290808 -20.583506 25.331159 33.065707 1.319202 0.698068 0.188234 -0.039904 -360168.000000 0 0 1
-4.389608 -21.426706 24.648059 32.952985 1.368726 0.725788 0.201622 -0.050891 -231582.000000 0 0 1
-30.848438 -33.720197 -0.290841 45.702980 0.829845 1.577160 0.128710 -0.034630 78773.800000 0 0 1
-30.141018 -32.486397 -0.221941 44.315869 0.822830 1.575805 0.128978 -0.032217 235574.000000 0 0 1
-30.507848 -31.922497 1.025659 44.168163 0.808054 1.547573 0.108149 -0.029799 -43479.900000 0 0 1
-29.773418 -30.639797 1.319959 42.743372 0.799738 1.539910 0.125927 -0.034928 1968910.000000 0 0 1
-28.303688 -30.665797 1.298659 41.751364 0.825433 1.539687 0.150168 -0.037657 1545530.000000 0 0 1
-27.787158 -29.383497 1.578659 40.472314 0.813313 1.531781 0.156282 -0.035638 226059.000000 0 0 1
-26.242538 -29.362397 1.590759 39.412583 0.841447 1.530424 0.152270 -0.038149 196644.000000 0 0 1
-25.665218 -30.167697 2.640959 39.695945 0.865866 1.504217 0.130918 -0.033069 -17096.900000 0 0 1
-24.320008 -29.766397 2.805659 38.540536 0.885758 1.497934 0.137146 -0.030181 -19539.700000 0 0 1
-23.582208 -30.311797 4.033159 38.615955 0.909622 1.466163 0.135770 -0.041290 -178482.000000 0 0 1
-23.958508 -29.745097 5.281059 38.557366 0.892735 1.433398 0.134302 -0.034902 -302248.000000 0 0 1
-23.362808 -30.413997 6.345159 38.872780 0.915774 1.406834 0.116810 -0.034287 -250618.000000 0 0 1
-24.032308 -30.183197 7.694359 39.341840 0.898368 1.373951 0.113350 -0.020644 -98140.100000 0 0 1
-23.688108 -28.864397 8.157759 38.220792 0.883579 1.355704 0.134256 -0.036442 31916.200000 0 0 1
-24.287308 -28.638997 9.404659 38.710633 0.867435 1.325393 0.094548 -0.030690 -163405.000000 0 0 1
-23.710208 -27.455997 10.154759 37.671274 0.858476 1.297858 0.111798 -0.037336 1136750.000000 0 0 1
-22.313608 -27.585797 10.495859 37.000491 0.890664 1.283179 0.105131 -0.049238 561244.000000 0 0 1
-21.882908 -26.521097 11.287759 36.189000 0.880929 1.253592 0.131381 -0.047432 72148.900000 0 0 1
-20.526908 -26.702997 11.986759 35.750334 0.915427 1.228882 0.125645 -0.052228 -180692.000000 0 0 1
-20.382308 -27.800197 12.861359 36.792717 0.938153 1.213692 0.122435 -0.040295 -251402.000000 0 0 1
-19.066908 -27.864297 13.388859 36.321173 0.970701 1.193268 0.124072 -0.046588 380010.000000 0 0 1
-18.882308 -28.730297 14.593159 37.348786 0.989358 1.169376 0.115287 -0.047161 97497.700000 0 0 1
-18.783508 -30.054197 14.096859 38.141793 1.012206 1.192228 0.109828 -0.040798 -227371.000000 0 0 1
-18.448208 -30.971697 15.124359 39.093844 1.033583 1.173558 0.116519 -0.034186 215793.000000 0 0 1
-18.547108 -32.423097 14.545259 40.085122 1.051194 1.199462 0.095741 -0.038070 214721.000000 0 0 1
-18.366208 -33.442597 15.493959 41.179942 1.068578 1.185051 0.098960 -0.030344 -50724.700000 0 0 1
-18.372308 32.986994 14.809959 40.558826 -1.062628 1.197005 0.081140 -0.031414 -28048.800000 0 0 1
-18.153408 31.751294 15.760659 39.825736 -1.051417 1.163922 0.079599 -0.026578 -493237.000000 0 0 1
-19.289708 31.340894 16.445959 40.308982 -1.019072 1.150537 0.081461 -0.031960 -224955.000000 0 0 1
-18.958108 30.236894 17.276559 39.650461 -1.010770 1.119957 0.054084 -0.020529 646706.000000 0 0 1
-19.763908 30.185694 18.658559 40.619330 -0.991093 1.093531 0.061332 -0.021661 759664.000000 0 0 1
-19.308008 31.282094 19.471759 41.599495 -1.017809 1.083683 0.072173 -0.026565 260911.000000 0 0 1
-20.242608 31.423294 20.505159 42.633885 -0.998515 1.069048 0.074688 -0.020311 -208511.000000 0 0 1
-19.886908 32.473994 21.518159 43.738776 -1.021313 1.056445 0.068202 -0.013026 20551.400000 0 0 1
-18.678708 32.159294 22.175159 43.299561 -1.044600 1.033129 0.060220 -0.015887 -99387.200000 0 0 1
-18.457008 32.886394 23.418659 44.391549 -1.059368 1.015085 0.064939 -0.017660 -15620.000000 0 0 1
-19.240508 32.331994 24.655159 44.982572 -1.033994 0.990700 0.064539 -0.013016 393034.000000 0 0 1
-20.627608 32.587094 24.465459 45.672482 -1.006465 1.005493 0.050730 -0.011186 144913.000000 0 0 1
-21.433008 31.776794 25.324959 45.940091 -0.977400 0.986922 0.036977 -0.010511 -219444.000000 0 0 1
-22.923508 32.086294 25.200059 46.798082 -0.950449 1.002158 0.058926 -0.015773 -563340.000000 0 0 1
-23.344008 31.716594 23.903559 46.068049 -0.936303 1.025262 0.053804 -0.007315 94448.800000 0 0 1
-24.708608 32.039494 23.713759 46.897621 -0.913870 1.040662 0.049967 -0.012087 69491.500000 0 0 1
-25.145818 31.612694 22.309859 46.145470 -0.898846 1.066184 0.043773 -0.020089 -171834.000000 0 0 1
-24.406408 32.311694 21.330459 45.767967 -0.923885 1.085968 0.032762 -0.019075 109793.000000 0 0 1
-24.404508 31.736294 19.983759 44.745089 -0.915260 1.107820 0.024257 -0.010225 51609.600000 0 0 1
-23.806708 32.720894 18.931659 44.674645 -0.941806 1.133196 0.032652 -0.011140 -227000.000000 0 0 1
-22.504208 33.172594 19.188259 44.441531 -0.974716 1.124349 0.049125 -0.014334 -555649.000000 0 0 1
-22.092408 33.826994 18.027559 44.241755 -0.992245 1.151105 0.063590 -0.014739 533039.000000 0 0 1
-20.703208 -33.156197 18.205559 43.120744 1.012618 1.134926 0.076598 -0.013049 523979.000000 0 0 1
-20.843608 -32.074597 19.188159 42.795107 0.994528 1.105852 0.094596 -0.020208 112660.000000 0 0 1
-19.712008 -31.276897 19.450859 41.774914 1.008436 1.086471 0.096335 -0.029441 -395802.000000 0 0 1
-20.032908 -30.128197 20.450859 41.560357 0.984002 1.056323 0.080127 -0.012847 -1165.670000 0 0 1
-21.027108 -29.286797 19.923559 41.192280 0.948110 1.065951 0.102538 -0.018170 89759.300000 0 0 1
-21.522408 -28.447797 20.936659 41.362240 0.923111 1.040049 0.105609 -0.009316 -153994.000000 0 0 1
-22.373008 -27.279397 20.368259 40.737979 0.883893 1.047218 0.099803 -0.016582 -438406.000000 0 0 1
-21.609608 -26.196597 19.843559 39.331968 0.881055 1.041976 0.105094 -0.009230 -28225.100000 0 0 1
-22.275808 -25.007797 19.584759 38.796447 0.843113 1.041637 0.091535 0.004225 -680698.000000 0 0 1
-23.436508 -24.969897 18.589059 38.965610 0.817065 1.073486 0.078179 -0.009223 25961.900000 0 0 1
-24.646108 -25.529297 19.113959 40.305323 0.802998 1.076708 0.068750 -0.007560 114150.000000 0 0 1
-25.612168 -25.493297 18.086859 40.410714 0.783072 1.106744 0.048102 0.000702 461072.000000 0 0 1
-27.101018 -25.603597 18.610659 41.669725 0.756994 1.107809 0.028939 0.002310 730421.000000 0 0 1
-27.454688 -26.906097 19.007859 42.883524 0.775307 1.111582 0.029479 -0.003915 -46417.700000 0 0 1
-27.678648 -27.841897 17.945059 43.166004 0.788338 1.142060 0.043276 -0.011225 -405937.000000 0 0 1
-28.411968 -29.117497 18.564959 44.718299 0.797661 1.142685 0.051540 -0.012158 203335.000000 0 0 1
-29.778988 -28.976397 18.832059 45.618704 0.771739 1.145254 0.024028 -0.003868 -91661.700000 0 0 1
-30.619468 -29.343197 17.727459 45.965616 0.764117 1.174865 0.023953 -0.001559 -349217.000000 0 0 1
-32.044448 -28.814697 17.822459 46.634466 0.732379 1.178649 0.023457 -0.005276 -411655.000000 0 0 1
-32.207018 -27.463597 17.488059 45.797089 0.706072 1.178989 0.023024 0.001660 1136890.000000 0 0 1
-33.548578 -26.953897 17.744859 46.549970 0.676828 1.179702 0.039052 0.009626 1296480.000000 0 0 1
-33.993908 -25.691397 16.989259 45.872307 0.647180 1.191400 0.048333 -0.002616 -164008.000000 0 0 1
-34.192226 -25.846897 15.559559 45.599016 0.647285 1.222576 0.064480 -0.019355 201149.000000 0 0 1
-34.800869 -24.737697 14.862959 45.210195 0.617961 1.235814 0.080884 -0.021454 -120230.000000 0 0 1
-33.977015 -23.471497 14.525859 43.776127 0.604528 1.232563 0.065532 -0.010389 -294925.000000 0 0 1
-33.422258 -22.936697 15.688359 43.465665 0.601452 1.201524 0.043245 0.002175 -170913.000000 0 0 1
-32.946938 -21.638197 15.571559 42.381432 0.581112 1.194569 0.047865 0.006265 -71343.300000 0 0 1
-33.978267 -20.481697 15.791459 42.701203 0.542467 1.191989 0.074498 -0.005230 138981.000000 0 0 1
-34.304517 -20.322097 17.149759 43.403937 0.534815 1.164598 0.068074 0.001172 457.305000 0 0 1
-35.105752 -19.233997 17.417959 43.654848 0.501220 1.160378 0.071141 0.001247 -555111.000000 0 0 1
-35.672857 -19.054297 18.773559 44.587728 0.490585 1.136196 0.076827 -0.003216 -840982.000000 0 0 1
-36.658258 -19.885197 19.247359 45.931577 0.497027 1.138404 0.086762 0.003560 -159824.000000 0 0 1
-37.023848 -19.646097 20.608359 46.705877 0.487853 1.113820 0.087381 0.006519 -176576.000000 0 0 1
37.197520 -20.130197 21.003059 47.222969 -0.496039 1.109886 0.093191 0.005603 -39163.400000 0 0 1
36.956140 -21.487197 21.320459 47.770471 -0.526649 1.108158 0.109407 -0.012293 -402026.000000 0 0 1
37.646660 -21.986197 22.406059 49.017296 -0.528583 1.096059 0.079876 0.002738 -535601.000000 0 0 1
37.027680 -23.205797 23.128459 49.441720 -0.559832 1.084005 0.076561 0.009836 -337086.000000 0 0 1
35.989130 -22.909897 24.005059 48.952259 -0.566882 1.058274 0.106656 -0.019510 -303993.000000 0 0 1
35.579900 -24.034497 24.714659 49.541908 -0.594098 1.048509 0.105639 -0.036229 -282553.000000 0 0 1
34.560950 -23.846697 25.858259 49.313018 -0.603976 1.018821 0.115661 -0.040257 272015.000000 0 0 1
33.238370 -23.652197 25.399059 48.055466 -0.618464 1.013921 0.130529 -0.039895 -158574.000000 0 0 1
32.289480 -23.664297 26.431459 47.971152 -0.632454 0.987250 0.090687 -0.043315 -607827.000000 0 0 1
31.073520 -24.498397 26.081759 47.391911 -0.667628 0.988023 0.090615 -0.038528 -937049.000000 0 0 1
30.149840 -23.805497 25.297659 45.996587 -0.668351 0.988444 0.082217 -0.025884 -264767.000000 0 0 1
29.022140 -24.597397 24.994859 45.519880 -0.703064 0.989512 0.084791 -0.022175 1249670.000000 0 0 1
27.724440 -23.782097 24.527559 43.998112 -0.709006 0.979463 0.074876 -0.012784 1050250.000000 0 0 1
27.787340 -23.346097 23.196459 43.072638 -0.698760 1.002090 0.077221 -0.019230 -184615.000000 0 0 1
28.741540 -22.363297 22.885659 43.011005 -0.661233 1.009731 0.087679 -0.013988 -195246.000000 0 0 1
28.537440 -21.731197 21.484359 41.811578 -0.650819 1.031144 0.087641 -0.017233 165987.000000 0 0 1
27.763140 -20.545997 21.500359 40.684092 -0.637100 1.013998 0.069780 -0.005955 -56318.400000 0 0 1
27.490140 -20.096097 20.135759 39.560203 -0.631249 1.036785 0.046240 -0.001748 458456.000000 0 0 1
26.479640 -18.888697 19.903659 38.132792 -0.619616 1.021653 0.044716 -0.002377 237575.000000 0 0 1
26.763340 -17.662697 20.593859 38.109766 -0.583344 0.999904 0.049834 -0.006556 -41323.200000 0 0 1
26.680840 -17.617697 22.022759 38.823348 -0.583591 0.967627 0.049893 -0.010484 -261031.000000 0 0 1
26.791640 -16.224497 22.681759 38.671546 -0.544513 0.944037 0.047862 -0.009363 -549036.000000 0 0 1
25.620040 -15.436097 22.638559 37.512183 -0.542256 0.922914 0.006993 -0.008406 -386677.000000 0 0 1
25.832640 -14.181097 23.182259 37.494612 -0.502045 0.904241 0.005058 -0.007777 -74255.800000 0 0 1
24.590940 -13.298097 23.064659 36.242685 -0.495731 0.880981 0.008261 -0.005702 205704.000000 0 0 1
23.425940 -13.818897 23.678559 36.061208 -0.532958 0.854466 0.036357 -0.005318 2638.010000 0 0 1
22.303840 -12.983497 23.527559 34.922464 -0.527168 0.831581 0.060945 -0.008192 92984.900000 0 0 1
20.934840 -13.650197 23.748159 34.475650 -0.577803 0.810911 0.075668 -0.007981 -199152.000000 0 0 1
20.474040 -14.561197 22.788459 33.919443 -0.618205 0.834105 0.093714 -0.018047 -397350.000000 0 0 1
19.246040 -15.141897 23.099659 33.664244 -0.666612 0.814575 0.107753 -0.019305 -260816.000000 0 0 1
18.804740 -16.232397 22.084959 33.239349 -0.712112 0.844076 0.120374 -0.031319 -111041.000000 0 0 1
19.642240 -17.368197 22.076459 34.275966 -0.724032 0.870977 0.104195 -0.021086 -5691.800000 0 0 1
19.186540 -18.379497 21.242259 34.017095 -0.763918 0.896358 0.128807 -0.024997 -52662.000000 0 0 1
19.645240 -19.707597 21.816159 35.359152 -0.786983 0.905887 0.110396 -0.015721 123321.000000 0 0 1
18.891140 -20.023097 23.011259 35.879208 -0.814478 0.874535 0.118102 -0.018304 435134.000000 0 0 1
19.189840 -21.219497 23.675159 37.135295 -0.835583 0.879498 0.117314 -0.018729 -329578.000000 0 0 1
18.709040 -22.580697 23.069159 37.310885 -0.878893 0.904224 0.114734 -0.022117 182397.000000 0 0 1
19.356440 -22.929597 21.828759 37.107046 -0.869698 0.941885 0.114151 -0.006983 401880.000000 0 0 1
20.447940 -23.825097 22.009159 38.342621 -0.861531 0.959398 0.109805 -0.016335 -111851.000000 0 0 1
21.299040 -24.106297 20.786859 38.299558 -0.847146 0.997095 0.097345 -0.008400 -439527.000000 0 0 1
20.637140 -24.804997 19.731659 37.822186 -0.876860 1.021959 0.090358 -0.016386 -360373.000000 0 0 1
21.412340 -25.170197 18.646759 37.943757 -0.865895 1.057064 0.088060 -0.018763 -281602.000000 0 0 1
20.568240 -25.943297 17.586459 37.488540 -0.900452 1.082507 0.083358 -0.024716 235103.000000 0 0 1
20.213940 -27.254497 18.089759 38.453223 -0.932645 1.081012 0.096871 -0.034271 -49468.400000 0 0 1
19.521540 -28.001897 17.113059 38.184467 -0.961985 1.106081 0.104984 -0.039762 -186069.000000 0 0 1
18.577140 -29.049397 17.737059 38.776034 -1.001837 1.095701 0.084019 -0.014714 677490.000000 0 0 1
17.501940 -28.459297 18.518559 38.199300 -1.019434 1.064676 0.093141 -0.023432 267416.000000 0 0 1
16.688140 -29.484397 18.977159 38.832412 -1.055753 1.060204 0.097272 -0.026992 -18502.000000 0 0 1
15.455540 -28.904797 19.774159 38.280260 -1.079772 1.027965 0.082218 -0.016149 261479.000000 0 0 1
14.467840 -28.468397 18.887959 37.101523 -1.100605 1.036671 0.093240 -0.022123 -795626.000000 0 0 1
13.252940 -28.139097 19.511159 36.716951 -1.130633 1.010551 0.070611 -0.021322 236524.000000 0 0 1
12.244840 -27.701997 18.382359 35.429477 -1.154598 1.025299 0.096552 -0.035875 18482.100000 0 0 1
11.804940 -28.799497 17.561159 35.737402 -1.181784 1.057106 0.091652 -0.030102 230012.000000 0 0 1
11.205040 -28.365197 16.359559 34.608850 -1.194584 1.078446 0.131798 -0.027385 -1256.060000 0 0 1
10.843340 -29.562097 15.402759 35.053396 -1.219235 1.115856 0.101797 -0.026540 -75536.000000 0 0 1
9.682740 -30.316397 15.647059 35.463641 -1.261647 1.113845 0.111117 -0.029405 -110695.000000 0 0 1
9.370440 -31.141397 14.489959 35.602677 -1.278514 1.151639 0.078386 -0.020582 601632.000000 0 0 1
8.294340 -32.243397 14.709059 36.397653 -1.319014 1.154779 0.073454 -0.021201 333808.000000 0 0 1
8.857440 -33.296897 15.465959 37.766830 -1.310803 1.148878 0.089100 -0.023407 -362759.000000 0 0 1
8.077340 33.225594 15.529759 37.554719 1.332317 1.144476 0.082631 -0.015132 -769104.000000 0 0 1
8.526740 32.042294 16.391959 36.987973 1.310715 1.111665 0.087695 -0.018149 -157236.000000 0 0 1
9.657940 31.340994 15.874159 36.435183 1.271873 1.120000 0.077876 -0.021763 88281.100000 0 0 1
10.110840 30.421794 16.835459 36.209768 1.249926 1.087227 0.105215 -0.019784 572834.000000 0 0 1
11.516440 29.828794 16.448259 35.957343 1.202343 1.095684 0.045708 -0.035734 556917.000000 0 0 1
11.487740 28.951594 15.339959 34.719984 1.193059 1.113171 0.097629 -0.028984 -172202.000000 0 0 1
12.733740 28.333994 15.069059 34.525930 1.148428 1.119140 0.086773 -0.042534 314.243000 0 0 1
12.723540 27.229294 14.047859 33.176275 1.133671 1.133567 0.081284 -0.038142 -56628.000000 0 0 1
12.131040 25.963294 14.361659 32.054828 1.133700 1.106231 0.093753 -0.036794 139378.000000 0 0 1
12.468040 24.912094 13.447159 30.933647 1.106764 1.121080 0.091727 -0.033267 -273398.000000 0 0 1
-9.848008 -9.083506 19.133659 23.357874 0.745038 0.610865 0.115141 -0.046252 187963.000000 0 1 0
-10.025608 -9.261806 17.750059 22.391036 0.745818 0.655521 0.106311 -0.044453 70643.200000 0 1 0
-9.512208 -10.528406 17.296559 22.371866 0.836062 0.687021 0.098562 -0.048745 185568.000000 0 1 0
-9.837308 -10.743206 15.846559 21.524464 0.829387 0.743341 0.095728 -0.043960 -254948.000000 0 1 0
-11.221408 -10.691406 15.587059 21.981415 0.761216 0.782573 0.099248 -0.042154 -97287.900000 0 1 0
-11.600108 -11.200006 14.333659 21.574440 0.767852 0.844130 0.096843 -0.041763 -88438.000000 0 1 0
-11.624508 -12.751806 14.258259 22.383827 0.831611 0.880210 0.073394 -0.035963 -258047.000000 0 1 0
-10.313108 -13.254706 14.069459 21.908837 0.909570 0.873455 0.077577 -0.030124 249651.000000 0 1 0
-10.302308 -14.668806 14.290059 22.924163 0.958510 0.897761 0.088376 -0.026779 126375.000000 0 1 0
-10.122508 -15.163206 15.793159 24.120777 0.982168 0.856940 0.113174 -0.032740 -10097.600000 0 1 0
-11.293208 -14.877506 16.512259 24.930533 0.921510 0.846871 0.128082 -0.032049 -381655.000000 0 1 0
-11.134908 -14.829006 17.902759 25.775849 0.926728 0.802994 0.160187 -0.035247 245111.000000 0 0 1
-12.462908 -14.511106 18.660159 26.722609 0.861185 0.797789 0.107615 -0.033610 583062.000000 0 0 1
-13.136808 -13.263406 18.371259 26.191542 0.790193 0.793409 0.106938 -0.033292 425976.000000 0 0 1
-14.229108 -13.333206 17.458159 26.173063 0.752905 0.840584 0.134317 -0.045461 384261.000000 0 0 1
-15.607508 -13.513906 18.127459 27.474074 0.713629 0.850241 0.083733 -0.029501 -286134.000000 0 0 1
-15.715808 -14.811406 18.669259 28.546552 0.755781 0.857945 0.091088 -0.017203 -520356.000000 0 0 1
-16.572108 -14.797206 19.765159 29.736402 0.728878 0.843732 0.087482 -0.016252 -361825.000000 0 0 1
-17.215708 -16.208706 19.897759 30.903456 0.755280 0.871253 0.088199 -0.019963 -151611.000000 0 0 1
-18.201508 -16.477206 18.921259 30.996892 0.735717 0.914200 0.086260 -0.003640 -53512.300000 0 0 1
-18.730508 -17.764506 19.155259 32.145506 0.758935 0.932420 0.090377 -0.011598 419497.000000 0 0 1
-20.052808 -18.034406 18.356559 32.623890 0.732453 0.973182 0.095522 -0.005326 380670.000000 0 0 1
-19.897008 -18.341606 16.979559 31.947001 0.744744 1.010436 0.103003 -0.004052 107784.000000 0 0 1
-20.232508 -17.218106 16.174759 31.103704 0.705081 1.023914 0.092011 -0.002762 -151022.000000 0 0 1
-19.907908 -17.445206 14.719459 30.287333 0.719563 1.063296 0.105875 -0.018774 89389.600000 0 0 1
-20.563208 -18.541106 14.071559 31.058444 0.733734 1.100594 0.121334 -0.020706 117167.000000 0 0 1
-20.143408 -18.625806 12.746459 30.251443 0.746274 1.135862 0.158541 -0.035476 51414.200000 0 0 1
-20.376908 -20.020406 12.154859 31.044737 0.776573 1.168506 0.168845 -0.043955 -444029.000000 0 0 1
-19.534008 -20.995906 12.639459 31.339456 0.821452 1.155667 0.152402 -0.038175 -397120.000000 0 0 1
-19.570608 -22.196506 11.916459 31.901342 0.848186 1.187973 0.136099 -0.032244 366771.000000 0 0 1
-18.512208 -23.269906 12.483159 32.249336 0.898779 1.173331 0.125974 -0.028346 795209.000000 0 0 1
-18.212708 -24.411006 11.769059 32.651351 0.929805 1.202050 0.147201 -0.056421 -164908.000000 0 0 1
-17.492808 -24.188406 10.580959 31.670713 0.944676 1.230154 0.129384 -0.045716 -430845.000000 0 0 1
-17.698408 -25.359936 9.620159 32.386841 0.961489 1.269206 0.119380 -0.048977 599449.000000 0 0 1
-19.056208 -25.334126 9.179959 33.003465 0.925892 1.288927 0.119158 -0.044878 63341.400000 0 0 1
-19.267108 -26.441176 8.341459 33.762956 0.941081 1.321152 0.137376 -0.044618 400249.000000 0 0 1
-20.606308 -26.320646 7.573359 34.274658 0.906572 1.347997 0.129880 -0.042482 294170.000000 0 0 1
-20.601808 -25.254616 6.640059 33.261397 0.886517 1.369813 0.143704 -0.047861 -218172.000000 0 0 1
-21.736808 -25.230706 5.804559 33.804886 0.859651 1.398233 0.160526 -0.039395 -11114.200000 0 0 1
-21.664508 -24.028106 4.855159 32.715033 0.837080 1.421838 0.163716 -0.044604 479609.000000 0 0 1
-22.718008 -23.956506 3.886559 33.243457 0.811927 1.453616 0.166534 -0.043669 480021.000000 0 0 1
-22.544408 -22.773006 3.179059 32.201966 0.790442 1.471913 0.155110 -0.035013 172385.000000 0 0 1
-23.200208 -22.613806 1.789459 32.447436 0.772599 1.515619 0.128019 -0.030072 21678.000000 0 0 1
-22.561008 -23.504306 0.892759 32.592155 0.805873 1.543401 0.147684 -0.040495 184823.000000 0 0 1
-22.824608 -23.282506 -0.470941 32.607662 0.795329 1.585239 0.119504 -0.042692 -3939.980000 0 0 1
-21.904308 -24.163006 -1.389041 32.643208 0.834389 1.613361 0.132662 -0.040829 210234.000000 0 0 1
-20.555308 -23.728106 -1.432341 31.426030 0.856923 1.616390 0.139369 -0.039868 463660.000000 0 0 1
-19.733608 -24.173706 -2.520441 31.307124 0.886180 1.651390 0.128477 -0.032028 554932.000000 0 0 1
-19.369508 -25.658026 -2.621141 32.254962 0.924160 1.652149 0.146578 -0.032776 -837290.000000 0 0 1
-20.439608 -26.452276 -3.028441 33.565935 0.912926 1.661143 0.170647 -0.041190 -603118.000000 0 0 1
-20.043908 -27.762316 -3.362941 34.406596 0.945469 1.668694 0.159725 -0.033648 -210180.000000 0 0 1
-21.151308 -28.718006 -3.841141 35.872777 0.935980 1.678079 0.167814 -0.040776 -207572.000000 0 0 1
-21.680708 -28.369856 -5.088041 36.066467 0.918259 1.712343 0.147910 -0.035281 61026.300000 0 0 1
-22.805708 -29.147926 -5.438241 37.406903 0.906872 1.716694 0.156395 -0.054452 54639.700000 0 0 1
-23.528408 -28.774306 -6.752041 37.777464 0.885363 1.750494 0.146355 -0.013452 -480871.000000 0 0 1
-22.793608 -28.915146 -7.918041 37.660718 0.903235 1.782624 0.177482 -0.011910 408602.000000 0 0 1
-23.594708 -28.799586 -9.155641 38.339956 0.884414 1.811928 0.178698 -0.015340 696191.000000 0 0 1
-24.210608 -27.392156 -9.558141 37.786795 0.846975 1.826524 0.131192 -0.014441 302524.000000 0 0 1
-23.329208 -26.415326 -10.155741 36.676430 0.847358 1.851364 0.123635 -0.012519 521945.000000 0 0 1
-22.789308 -25.572816 -9.127641 35.449053 0.842890 1.831216 0.107306 -0.017109 -16577.300000 0 0 1
-22.519608 -24.111006 -9.590641 34.357733 0.819513 1.853695 0.084219 -0.013688 593410.000000 0 0 1
-23.682908 -23.306606 -9.898441 34.670696 0.777390 1.860323 0.090460 -0.015320 665184.000000 0 0 1
-23.322108 -22.010506 -10.401141 33.713007 0.756473 1.884433 0.093140 -0.016531 -257955.000000 0 0 1
-24.331708 -20.853806 -10.309441 33.663004 0.708580 1.882052 0.106207 -0.009590 -555007.000000 0 0 1
-25.171278 -20.837906 -11.434341 34.620164 0.691490 1.907396 0.098945 -0.004068 1052120.000000 0 0 1
-26.325788 -19.948406 -11.397441 34.941204 0.648444 1.903066 0.101580 -0.000991 865865.000000 0 0 1
-26.075208 -18.423906 -11.242741 33.849018 0.615120 1.909372 0.105774 -0.016980 -1430020.000000 0 0 1
-25.591718 -17.899006 -12.525141 33.648026 0.610327 1.952218 0.127737 -0.016700 876132.000000 0 0 1
-25.041618 -16.579706 -12.532241 32.542686 0.584825 1.966114 0.105721 -0.033630 -233403.000000 0 0 1
-23.847308 -16.257606 -11.647941 31.123599 0.598364 1.954382 0.085989 -0.030122 -797317.000000 0 0 1
-24.328108 -16.098606 -10.298541 30.936741 0.584576 1.910163 0.128956 -0.039288 913035.000000 0 0 1
-23.371408 -16.569506 -9.329041 30.129757 0.616717 1.885599 0.125032 -0.041249 483851.000000 0 0 1
-24.079008 -17.131906 -8.009541 30.617864 0.618394 1.835473 0.112374 -0.041970 180119.000000 0 0 1
-24.706308 -18.379706 -8.078041 31.835044 0.639603 1.827348 0.126183 -0.033632 61512.800000 0 0 1
-25.288998 -18.679306 -6.803441 32.167324 0.636187 1.783907 0.134752 -0.026044 -105464.000000 0 0 1
-26.057068 -20.012306 -6.807641 33.553051 0.654933 1.775107 0.144359 -0.021531 -277280.000000 0 0 1
-27.069948 -19.998506 -7.781141 34.543719 0.636276 1.798001 0.127355 -0.021643 102546.000000 0 0 1
-27.862628 -21.203206 -7.670541 35.843259 0.650498 1.786467 0.122488 -0.005452 201257.000000 0 0 1
-27.280948 -22.362506 -8.525941 36.290819 0.686645 1.807947 0.100841 0.000887 -129557.000000 0 0 1
-27.827948 -23.602306 -8.234141 37.406746 0.703420 1.792738 0.110232 0.007477 -465731.000000 0 0 1
-27.199508 -24.582306 -9.012441 37.753505 0.734898 1.811842 0.095921 0.012908 139295.000000 0 0 1
-27.515598 -26.011376 -8.521541 38.811294 0.757303 1.792163 0.098901 -0.011167 -56828.600000 0 0 1
-27.104868 -26.361866 -7.211341 38.491887 0.771503 1.759257 0.130086 -0.034168 220471.000000 0 0 1
-27.454368 -27.725056 -6.857141 39.616177 0.790304 1.744762 0.131065 -0.032591 -39119.800000 0 0 1
-27.219598 -28.099566 -5.397641 39.492109 0.801304 1.707902 0.168122 -0.046645 14897.800000 0 0 1
-28.274478 -27.709346 -4.535541 39.847524 0.775304 1.684866 0.134121 -0.043610 204751.000000 0 0 1
-28.054468 -28.217566 -3.227541 39.921188 0.788297 1.651732 0.141072 -0.043688 -218914.000000 0 0 1
-28.183018 -29.695756 -2.830141 41.038155 0.811529 1.639815 0.134997 -0.024199 -280021.000000 0 0 1
-27.405198 -30.691506 -3.491141 41.294086 0.841904 1.655441 0.175129 -0.044499 45295.900000 0 0 1
-27.145678 -31.872216 -2.743741 41.955383 0.865314 1.636240 0.170413 -0.051450 -34051.900000 0 0 1
-26.047568 -31.754136 -1.673541 41.104765 0.883806 1.611522 0.194175 -0.056148 -81348.200000 0 0 1
-24.692608 -31.734236 -2.110141 40.264617 0.909549 1.623227 0.193761 -0.061095 4805.940000 0 0 1
-23.855708 -31.669676 -0.993541 39.661699 0.925208 1.595849 0.157964 -0.043958 -391646.000000 0 0 1
-22.988808 -30.389476 -0.906041 38.115961 0.923166 1.594569 0.184235 -0.040186 -181606.000000 0 0 1
-23.573608 -29.106686 -0.647341 37.461090 0.890046 1.588078 0.176613 -0.047988 -483753.000000 0 0 1
-24.256708 -28.548746 -1.700641 37.500813 0.866500 1.616161 0.206788 -0.058677 -428409.000000 0 0 1
-24.870208 -27.127746 -1.511341 36.833762 0.828787 1.611839 0.140087 -0.045770 480722.000000 0 0 1
-26.082998 -27.249946 -0.752341 37.728615 0.807275 1.590739 0.163217 -0.046877 501580.000000 0 0 1
-26.729858 -25.970506 -0.573341 37.273063 0.770990 1.586179 0.157883 -0.051738 576069.000000 0 0 1
-26.092038 -25.233376 0.641159 36.303290 0.768670 1.553134 0.161370 -0.035116 -126581.000000 0 0 1
-26.653298 -25.702596 1.815959 37.071815 0.767242 1.521792 0.137046 -0.039933 -97081.800000 0 0 1
-25.975728 -25.205946 2.972959 36.316893 0.770359 1.488843 0.145275 -0.030798 395777.000000 0 0 1
-26.662048 -23.926706 3.542359 35.998617 0.731381 1.472234 0.159455 -0.032509 222226.000000 0 0 1
-26.540258 -22.731906 2.763759 35.053720 0.708259 1.491871 0.144835 -0.034668 -749088.000000 0 0 1
-27.547938 -21.848806 3.046759 35.292237 0.670531 1.484359 0.128738 -0.030622 -597676.000000 0 0 1
-27.562818 -20.591806 2.146859 34.472314 0.641634 1.508478 0.139392 -0.024531 487002.000000 0 0 1
-26.498748 -19.648906 2.345859 33.072137 0.638041 1.499805 0.114151 -0.027148 167760.000000 0 0 1
-26.221718 -18.757706 1.297959 32.266310 0.620954 1.530559 0.090097 -0.023441 -923692.000000 0 0 1
-25.000248 -17.942306 1.646959 30.816412 0.622497 1.517327 0.102441 -0.028688 -1221190.000000 0 0 1
-23.918308 -18.802406 1.387159 30.455544 0.666213 1.525234 0.116881 -0.038470 -466466.000000 0 0 1
-22.746708 -18.129806 1.849759 29.146599 0.672927 1.507290 0.136618 -0.027968 210243.000000 0 0 1
-21.466808 -18.991506 1.766059 28.716200 0.724293 1.509257 0.121350 -0.039228 29099.600000 0 0 1
-21.067708 -19.345106 0.464759 28.605899 0.742799 1.554549 0.071475 -0.025962 -640987.000000 0 0 1
-20.028508 -20.248206 0.447459 28.483877 0.790853 1.555086 0.109360 -0.026288 -686460.000000 0 0 1
-19.630208 -20.714406 -0.981341 28.555118 0.812265 1.605170 0.119062 -0.031178 -74332.100000 0 0 1
-18.927808 -19.780306 -1.737141 27.432465 0.807418 1.634163 0.127163 -0.039369 -166162.000000 0 0 1
-18.605008 -20.151306 -3.020841 27.592517 0.825275 1.680497 0.109241 -0.033153 328.555000 0 0 1
-17.989108 -19.079506 -3.907541 26.512346 0.814805 1.718721 0.124772 -0.022842 -141537.000000 0 0 1
-16.631508 -18.802706 -3.666641 25.369137 0.846596 1.715836 0.158066 -0.045519 -249187.000000 0 0 1
-16.126108 -18.324306 -4.906741 24.897945 0.849119 1.769169 0.161314 -0.029697 -76506.100000 0 1 0
-14.609108 -18.027306 -4.977141 23.731451 0.889753 1.782093 0.178955 -0.041513 -56409.100000 0 1 0
-13.782508 -19.174206 -5.060741 24.149924 0.947561 1.781916 0.146623 -0.042361 -296300.000000 0 1 0
-12.629008 -18.747706 -5.753041 23.325219 0.977989 1.820013 0.142336 -0.052770 -454024.000000 0 1 0
-11.483708 -19.770406 -5.724841 23.569436 1.044574 1.816143 0.134870 -0.058182 -176685.000000 0 1 0
-11.644008 -20.990706 -6.448041 24.854978 1.064335 1.833225 0.109589 -0.046676 -842369.000000 0 1 0
-10.424908 -21.560806 -6.812041 24.898815 1.120426 1.847919 0.125641 -0.043953 -381239.000000 0 1 0
-10.505208 -22.806606 -7.721141 26.270073 1.139145 1.869115 0.100862 -0.023161 -91512.700000 0 0 1
-11.009908 -22.481306 -9.025141 26.609780 1.115393 1.916827 0.097366 -0.032504 209174.000000 0 0 1
-10.793108 -23.582506 -9.888741 27.756315 1.141579 1.935069 0.114938 -0.022439 -82996.500000 0 0 1
-11.475108 -23.358406 -11.270141 28.360348 1.114163 1.979468 0.146689 -0.029212 -239705.000000 0 0 1
-10.841308 -22.466306 -12.155441 27.749300 1.121199 2.024219 0.127760 -0.026714 -71894.700000 0 0 1
-11.462608 -22.402806 -13.436041 28.527256 1.097865 2.061209 0.135858 -0.029193 -757502.000000 0 0 1
-11.051508 -21.153406 -14.197741 27.770097 1.089354 2.107447 0.117801 -0.025351 -338910.000000 0 0 1
-11.337808 -19.955406 -13.430241 26.592020 1.054120 2.100234 0.119247 -0.028194 72841.500000 0 0 1
-11.145508 -18.813206 -14.168841 26.056000 1.035962 2.145736 0.108872 -0.019038 -61368.700000 0 0 1
-10.542708 -17.653406 -13.326241 24.502656 1.032434 2.145837 0.117553 -0.015997 9874.870000 0 1 0
-11.366608 -17.279806 -12.218041 24.022323 0.988959 2.104368 0.124373 -0.027967 236937.000000 0 1 0
-10.814408 -16.273406 -11.390341 22.616699 0.984264 2.098586 0.106333 -0.030404 64081.400000 0 1 0
-10.436308 -14.910406 -12.048641 21.826738 0.960114 2.155573 0.097532 -0.016363 134459.000000 0 1 0
-11.559408 -14.189706 -12.507341 22.167573 0.887196 2.170282 0.096436 -0.014256 148561.000000 0 1 0
-11.496108 -14.035406 -13.898541 22.854378 0.884530 2.224505 0.101312 -0.018944 94861.800000 0 1 0
-12.845108 -13.453306 -14.393441 23.519341 0.808521 2.229362 0.105588 -0.020629 82897.700000 0 1 0
-12.966208 -12.107606 -13.881341 22.525726 0.751169 2.234761 0.084683 -0.009915 -474548.000000 0 1 0
-13.952608 -11.386306 -14.544341 23.148674 0.684463 2.250164 0.104003 -0.025248 -417593.000000 0 1 0
-14.124108 -9.918506 -14.135541 22.308759 0.612227 2.257035 0.087732 -0.025812 357558.000000 0 1 0
-13.015908 -9.039106 -14.371741 21.393136 0.607002 2.307422 0.061196 -0.014680 442763.000000 0 1 0
-13.057408 -8.490606 -15.659941 22.086649 0.576552 2.358908 0.066176 -0.016457 -443617.000000 0 1 0
-12.032508 -7.393806 -15.861841 21.237882 0.551003 2.414132 0.041674 -0.000988 -431270.000000 0 1 0
-10.696308 -7.815206 -15.882741 20.682116 0.630999 2.446424 0.031513 -0.006608 -554188.000000 0 1 0
-9.835908 -6.773206 -15.628041 19.668683 0.603048 2.489087 0.019792 0.001363 -296754.000000 0 1 0
11.665992 21.716694 15.684759 29.218518 1.077841 1.004146 0.144764 -0.035096 -276636.000000 0 0 1
12.810592 22.060894 16.421459 30.339061 1.044695 0.998856 0.146439 -0.035999 -202520.000000 0 0 1
13.212492 20.885294 17.113459 30.060537 1.006735 0.965142 0.143228 -0.038076 -461761.000000 0 0 1
14.317492 21.149994 18.109159 31.309015 0.975708 0.954029 0.159853 -0.048053 599231.000000 0 0 1
15.599992 21.529494 17.554459 31.859659 0.943759 0.987242 0.144672 -0.043317 1280900.000000 0 0 1
16.664292 21.005594 18.356359 32.494453 0.900138 0.970475 0.134342 -0.052155 2071710.000000 0 0 1
18.159592 21.392594 17.937359 33.304094 0.866957 1.002030 0.107992 -0.042172 1245220.000000 0 0 1
18.577492 22.701894 18.163359 34.502272 0.884982 1.016389 0.108895 -0.046110 1352320.000000 0 0 1
19.920492 23.059994 17.730359 35.255566 0.858313 1.043835 0.102924 -0.039337 1773440.000000 0 0 1
21.179892 22.600794 18.526059 36.091530 0.817842 1.031762 0.100869 -0.040569 -38543.300000 0 0 1
21.559892 21.308094 18.234959 35.374815 0.779524 1.029230 0.104556 -0.030448 888042.000000 0 0 1
22.930892 21.167194 18.660459 36.360536 0.745425 1.031880 0.112123 -0.038487 782205.000000 0 0 1
23.471192 19.738094 18.382259 35.754673 0.699216 1.030813 0.097500 -0.034721 -203110.000000 0 0 1
23.631192 19.390294 16.992559 34.973758 0.687139 1.063443 0.096187 -0.038408 242644.000000 0 0 1
23.275292 18.015094 16.724759 33.852627 0.658685 1.054059 0.083779 -0.023573 514579.000000 0 0 1
24.355892 16.935094 17.122959 34.252045 0.607577 1.047301 0.094120 -0.028466 315859.000000 0 0 1
25.480992 16.795294 16.304259 34.600458 0.582767 1.080128 0.118213 -0.039163 58190.600000 0 0 1
26.262792 15.643894 16.629759 34.799634 0.537228 1.072566 0.112248 -0.026336 -66054.500000 0 0 1
27.684092 15.674494 16.049359 35.632578 0.515189 1.103569 0.202289 -0.055152 -469472.000000 0 0 1
28.665692 16.513994 16.655459 37.038334 0.522652 1.104387 0.177360 -0.052460 709593.000000 0 0 1
29.654692 15.925294 17.489859 37.932979 0.492827 1.091593 0.185185 -0.057348 266357.000000 0 0 1
30.734592 15.174194 16.649259 38.106024 0.458609 1.118625 0.165542 -0.061883 -980925.000000 0 0 1
31.645892 16.103994 16.080559 38.979295 0.470727 1.145555 0.204417 -0.052282 -47494.000000 0 0 1
32.774292 15.529494 15.495959 39.439119 0.442495 1.167004 0.175867 -0.052981 -26745.100000 0 0 1
32.432492 15.040994 14.034559 38.406599 0.434240 1.196712 0.140239 -0.053806 -325421.000000 0 0 1
32.089092 16.045594 13.105959 38.196034 0.463674 1.220556 0.157935 -0.032549 390273.000000 0 0 1
31.392892 15.670094 11.886059 37.045160 0.462976 1.244166 0.143190 -0.034566 277519.000000 0 0 1
29.971292 16.248094 11.774559 36.068256 0.496775 1.238249 0.134221 -0.044281 -219994.000000 0 0 1
29.857292 17.659194 11.471859 36.536400 0.534111 1.251410 0.145583 -0.042869 209213.000000 0 0 1
30.327492 18.584894 12.473659 37.692800 0.549783 1.233508 0.175312 -0.043893 236688.000000 0 0 1
29.416592 18.642194 13.767759 37.448878 0.564853 1.194325 0.170734 -0.048790 446208.000000 0 0 1
28.134192 19.206394 13.566459 36.666976 0.599001 1.191797 0.178745 -0.045186 349241.000000 0 0 1
27.219192 19.163994 14.638559 36.365237 0.613447 1.156504 0.157034 -0.049154 -199427.000000 0 0 1
27.575392 19.823594 16.018159 37.549414 0.623290 1.130079 0.150113 -0.046694 -436736.000000 0 0 1
27.553992 21.201994 15.910559 38.234708 0.655846 1.141613 0.131630 -0.044663 -557475.000000 0 0 1
26.341892 21.734894 16.312759 37.847153 0.689864 1.125177 0.107385 -0.035355 -824994.000000 0 0 1
26.192492 23.306094 16.112859 38.585552 0.727151 1.140007 0.104263 -0.030078 -201604.000000 0 0 1
26.018692 23.614594 14.774259 38.116926 0.736999 1.172766 0.121995 -0.046982 2519.820000 0 0 1
26.077192 25.013994 14.520259 38.943006 0.764591 1.188708 0.122542 -0.047414 -413656.000000 0 0 1
25.588792 25.376394 13.115359 38.350492 0.781231 1.221766 0.125567 -0.050583 392575.000000 0 0 1
24.188092 25.262594 12.879159 37.271103 0.807124 1.217968 0.111186 -0.050482 338746.000000 0 0 1
23.901492 25.575694 11.531959 36.856254 0.819223 1.252562 0.095691 -0.055279 50633.700000 0 0 1
23.277892 24.442494 10.688859 35.405472 0.809798 1.264113 0.104112 -0.053285 -583951.000000 0 0 1
21.920992 24.168194 10.925159 34.409164 0.834117 1.247697 0.106319 -0.050347 -257238.000000 0 0 1
21.499392 22.848094 10.620259 33.121732 0.815801 1.244388 0.120178 -0.047765 82743.500000 0 0 1
21.432492 22.478294 9.149859 32.378161 0.809210 1.284300 0.132833 -0.043523 -294964.000000 0 0 1
20.369292 23.150994 8.488959 31.983417 0.849229 1.302159 0.136413 -0.039399 186629.000000 0 0 1
20.647992 23.433594 7.151759 32.040919 0.848506 1.345693 0.118968 -0.041035 -620251.000000 0 0 1
19.394892 23.771094 6.345559 31.328786 0.886434 1.366838 0.114843 -0.032751 -1282100.000000 0 0 1
18.581392 22.641394 6.232159 29.945628 0.883571 1.361148 0.118488 -0.028452 53506.800000 0 0 1
17.832392 22.572294 5.023259 29.201640 0.902175 1.397917 0.130345 -0.035911 -870743.000000 0 0 1
16.547092 23.341094 5.018359 29.048181 0.954105 1.397165 0.115373 -0.025597 -1526490.000000 0 0 1
16.712392 24.740294 4.938259 30.261734 0.976694 1.406878 0.112502 -0.030349 857646.000000 0 0 1
15.491392 25.414094 5.319959 30.235101 1.023378 1.393922 0.113395 -0.032304 869477.000000 0 0 1
15.549092 26.885394 4.845159 31.433648 1.046450 1.416040 0.100693 -0.032436 -60659.200000 0 0 1
15.175992 26.906394 3.439959 31.082118 1.057246 1.459896 0.089360 -0.019978 389787.000000 0 0 1
15.063192 28.220994 2.937159 32.123996 1.080508 1.479237 0.093721 -0.022922 -244462.000000 0 0 1
14.494192 28.278094 1.480659 31.810761 1.097152 1.524234 0.086101 -0.024937 -257064.000000 0 0 1
15.302492 27.988194 0.341059 31.900181 1.070453 1.560105 0.093620 -0.024516 -135040.000000 0 0 1
15.702192 26.614794 0.201159 30.902209 1.037777 1.564287 0.086667 -0.018398 227250.000000 0 0 1
16.610592 26.225394 -0.980341 31.058720 1.006195 1.602366 0.087429 -0.021691 356068.000000 0 0 1
15.999292 26.665094 -2.165241 31.171988 1.030370 1.640313 0.083796 -0.022245 -105564.000000 0 0 1
16.994792 26.708294 -3.163941 31.814563 1.004104 1.670410 0.080823 -0.021452 49136.900000 0 0 1
16.532092 27.231594 -4.581841 32.184826 1.025178 1.713642 0.090578 -0.019830 -1015270.000000 0 0 1
15.651392 26.402594 -5.236741 31.136577 1.035690 1.739786 0.112969 -0.026224 -712276.000000 0 0 1
15.538692 26.827494 -6.554541 31.687969 1.045806 1.779147 0.108642 -0.029431 -738448.000000 0 0 1
14.244292 26.335894 -7.125341 30.777420 1.074990 1.804428 0.120118 -0.033861 -991847.000000 0 0 1
14.139292 24.990194 -7.538541 29.686006 1.055908 1.827551 0.150883 -0.040584 -53981.400000 0 0 1
12.844892 24.676294 -8.029541 28.954865 1.090855 1.851792 0.116365 -0.035114 213389.000000 0 0 1
12.620792 23.204394 -8.398841 27.717662 1.072651 1.878650 0.144345 -0.042550 -194703.000000 0 0 1
13.209092 22.671194 -9.604441 27.941160 1.043241 1.921691 0.136518 -0.043218 -360529.000000 0 0 1
12.452692 21.674394 -10.122941 26.968923 1.049312 1.955577 0.147083 -0.041411 -599737.000000 0 0 1
13.017192 21.136494 -11.450841 27.337161 1.018794 2.003002 0.133347 -0.033097 -208647.000000 0 0 1
12.309692 20.043494 -12.067741 26.436727 1.020038 2.044827 0.137992 -0.036555 -51447.100000 0 0 1
12.759492 19.679094 -13.380641 27.002091 0.995562 2.089254 0.140230 -0.037004 -198520.000000 0 0 1
14.156492 19.068894 -13.625241 27.380214 0.932186 2.091662 0.126918 -0.044533 -18941.700000 0 0 1
15.087992 20.073794 -13.287941 28.410809 0.926255 2.057491 0.119908 -0.029766 -1669920.000000 0 0 1
16.392092 19.668294 -13.408641 28.902147 0.876003 2.053225 0.113182 -0.024757 -430889.000000 0 0 1
17.440492 20.803594 -13.075641 30.131921 0.873110 2.019665 0.122374 -0.016334 236194.000000 0 0 1
17.703492 21.874294 -13.970041 31.417517 0.890393 2.031588 0.115815 -0.019845 163351.000000 0 0 1
16.678292 22.847394 -14.118641 31.614946 0.940227 2.033737 0.110540 -0.020139 109089.000000 0 0 1
17.117992 24.133794 -14.891041 33.124141 0.953859 2.037061 0.117443 -0.017096 84123.200000 0 0 1
17.370292 24.144194 -16.318141 33.925666 0.947142 2.072588 0.108233 -0.025053 181915.000000 0 0 1
16.156292 24.128694 -17.053041 33.675300 0.980774 2.101797 0.080340 -0.013696 -2381.790000 0 0 1
16.376392 23.995694 -18.543941 34.465305 0.971931 2.138914 0.077098 -0.005403 -5541.930000 0 0 1
16.667492 22.699294 -18.978241 33.959341 0.937436 2.163797 0.079796 -0.001995 -118830.000000 0 0 1
16.968492 22.679194 -20.389141 34.899751 0.928451 2.194715 0.071621 0.002670 25075.700000 0 0 1
17.285892 21.301094 -20.971541 34.530337 0.889081 2.223500 0.073561 0.002238 222760.000000 0 0 1
16.142592 20.453294 -20.931441 33.422234 0.902650 2.247560 0.069066 -0.000083 439076.000000 0 0 1
16.469692 19.258694 -21.597741 33.295802 0.863301 2.276622 0.062780 -0.000850 327786.000000 0 0 1
15.334392 18.192194 -21.647641 32.167061 0.870432 2.309020 0.064826 -0.002192 -635247.000000 0 0 1
15.252092 17.568394 -20.392541 30.937525 0.855856 2.290487 0.069176 -0.008836 407097.000000 0 0 1
14.420792 16.408594 -20.386041 29.879622 0.849787 2.321663 0.068069 -0.023521 927261.000000 0 0 1
12.884692 16.616294 -20.624641 29.453222 0.911221 2.346545 0.082428 -0.039253 13289.300000 0 0 1
12.068992 17.030394 -19.543141 28.594217 0.954273 2.323295 0.086885 -0.039835 210942.000000 0 0 1
10.783592 17.363194 -20.049141 28.631004 1.015035 2.346558 0.091212 -0.037342 672405.000000 0 0 1
9.602092 16.962594 -19.109841 27.296809 1.055696 2.346300 0.104786 -0.043862 -211348.000000 0 0 1
9.577592 15.543994 -19.058941 26.392977 1.018579 2.377661 0.130613 -0.054540 83763.700000 0 0 1
8.292392 14.973094 -18.918541 25.512124 1.065025 2.406176 0.135041 -0.045005 229551.000000 0 0 1
7.651592 15.105794 -17.493641 24.346649 1.101936 2.372473 0.132874 -0.044345 -91579.700000 0 1 0
7.296492 16.471994 -17.260141 24.949505 1.153809 2.334779 0.135895 -0.041641 -597133.000000 0 1 0
6.730892 16.591794 -16.004841 24.015567 1.185406 2.300215 0.122325 -0.044407 -454236.000000 0 1 0
6.379292 18.103994 -15.649741 24.766193 1.232012 2.254798 0.118840 -0.033909 -341997.000000 0 1 0
7.421792 18.955694 -15.227541 25.422024 1.197610 2.213036 0.107075 -0.038059 -52670.700000 0 0 1
8.043792 19.575194 -16.395641 26.771399 1.180914 2.229929 0.125791 -0.030509 711759.000000 0 0 1
9.364892 20.321294 -15.971141 27.490608 1.138963 2.190713 0.107649 -0.018213 528290.000000 0 0 1
9.252592 21.505494 -15.228441 27.928518 1.164493 2.147501 0.103852 -0.021160 -142053.000000 0 0 1
9.251692 21.397794 -13.836841 27.109362 1.162703 2.106456 0.111407 -0.031643 -197792.000000 0 0 1
8.805592 22.653294 -13.134641 27.626598 1.200059 2.066254 0.097488 -0.025887 -76686.600000 0 0 1
7.431992 22.938394 -13.351141 27.561882 1.257471 2.076480 0.094422 -0.020329 138370.000000 0 0 1
6.870892 23.873694 -12.444741 27.785499 1.290568 2.035196 0.075632 -0.024225 -122425.000000 0 0 1
6.281492 23.367994 -11.131741 26.635238 1.308196 2.001965 0.066101 -0.022516 -108103.000000 0 0 1
7.222392 22.921494 -10.159941 26.091803 1.265551 1.970768 0.061151 -0.018603 129913.000000 0 0 1
6.529292 22.633394 -8.957241 25.201871 1.289941 1.934159 0.078609 -0.032482 77004.400000 0 0 1
7.460892 22.539194 -7.745441 24.973426 1.251131 1.886144 0.075230 -0.035694 -70166.400000 0 1 0
7.874192 23.817594 -7.347941 26.139489 1.251504 1.855742 0.067956 -0.025508 39290.700000 0 0 1
8.852192 23.645394 -6.344741 26.033088 1.212576 1.816994 0.083259 -0.027756 -88405.500000 0 0 1
9.165092 24.922294 -5.491641 27.116005 1.218400 1.774731 0.058725 -0.023528 110195.000000 0 0 1
9.868292 25.829594 -6.296441 28.358354 1.205856 1.794694 0.069802 -0.021829 -56171.200000 0 0 1
10.257792 27.015594 -5.654141 29.445439 1.207912 1.764017 0.075438 -0.025761 247382.000000 0 0 1
10.523892 28.274494 -6.512541 30.864421 1.214479 1.783399 0.076157 -0.021831 -291543.000000 0 0 1
11.674292 28.257394 -7.285441 31.430034 1.179013 1.804723 0.081075 -0.024650 -944560.000000 0 0 1
11.984392 29.555394 -7.561541 32.776879 1.185567 1.803591 0.081234 -0.020357 -245943.000000 0 0 1
13.263392 29.801194 -8.371141 33.676471 1.152056 1.822006 0.087165 -0.022996 -437019.000000 0 0 1
14.449492 29.692694 -7.644741 33.895220 1.117898 1.798294 0.073400 -0.019944 -203366.000000 0 0 1
15.508892 30.286794 -8.428241 35.054969 1.097541 1.813604 0.078142 -0.016839 -6155.370000 0 0 1
16.716392 30.690494 -7.622041 35.769256 1.072049 1.785532 0.067171 -0.022096 -241439.000000 0 0 1
17.535392 29.571994 -7.234541 35.133052 1.035560 1.778198 0.071475 -0.022612 698384.000000 0 0 1
18.732092 29.992994 -6.560741 35.965459 1.012521 1.754241 0.059563 -0.012647 772661.000000 0 0 1
19.757592 28.890794 -6.256741 35.555410 0.970977 1.747689 0.062702 -0.014509 -393594.000000 0 0 1
19.369092 28.135394 -5.128341 34.540729 0.967882 1.719820 0.077286 -0.026769 -126511.000000 0 0 1
20.342492 27.224994 -4.648241 34.301944 0.929090 1.706724 0.071478 -0.022188 -537986.000000 0 0 1
20.712992 26.014994 -5.502741 33.705905 0.898380 1.734788 0.076278 -0.009147 231337.000000 0 0 1
21.332592 26.468394 -6.766741 34.661854 0.892429 1.767280 0.067004 -0.009734 588100.000000 0 0 1
21.435192 25.402894 -7.664141 34.110314 0.869907 1.797418 0.066790 -0.018513 -765612.000000 0 0 1
21.922192 25.762394 -9.138141 35.039821 0.865758 1.834640 0.078409 -0.019961 -70318.300000 0 0 1
23.276992 25.981394 -9.422641 36.133604 0.840245 1.834618 0.055368 -0.010263 118843.000000 0 0 1
24.130892 24.870094 -9.186241 35.849805 0.800482 1.829929 0.061296 -0.009348 -1642010.000000 0 0 1
25.606592 25.133794 -9.157241 37.030530 0.776080 1.820678 0.001486 0.003243 -1046990.000000 0 0 1
26.111992 25.129394 -10.490841 37.727712 0.766225 1.852578 0.015908 0.005991 -223658.000000 0 0 1
27.489392 25.408994 -10.440041 38.862296 0.746090 1.842779 0.001772 0.016401 -151682.000000 0 0 1
28.197592 25.354894 -11.793741 39.712304 0.732365 1.872324 0.025034 0.004644 42103.400000 0 0 1
27.962592 26.567594 -12.434641 40.526088 0.759822 1.882657 0.027131 0.010151 657890.000000 0 0 1
28.925992 26.672694 -13.516541 41.603395 0.744892 1.901692 0.045947 0.003098 597968.000000 0 0 1
28.707592 27.742894 -14.572941 42.498995 0.768311 1.920800 0.051585 -0.001127 -41812.600000 0 0 1
29.004592 29.048694 -14.085141 43.399126 0.786158 1.901331 0.050849 -0.007204 150672.000000 0 0 1
29.237492 29.938694 -15.205441 44.523721 0.797247 1.919323 0.072025 -0.006123 -279998.000000 0 0 1
29.550192 31.415294 -14.876341 45.622801 0.815981 1.902942 0.064415 -0.014236 760076.000000 0 0 1
30.845292 31.462694 -14.240841 46.304802 0.795307 1.883409 0.063125 -0.018763 936279.000000 0 0 1
31.361092 32.780594 -14.141341 47.519079 0.807525 1.872967 0.067341 -0.027219 -84034.300000 0 0 1
16.926192 -31.540197 -27.543751 45.165675 -1.078257 2.226653 0.121924 -0.047874 -380462.000000 0 0 1
18.053792 -32.316797 -27.216011 45.945903 -1.061336 2.204768 0.098340 -0.030638 -72242.000000 0 0 1
18.491292 -32.077097 -25.896231 45.182771 -1.047863 2.181134 0.095308 -0.032202 -471591.000000 0 0 1
19.903792 -32.615997 -25.580101 45.981580 -1.022877 2.160737 0.021897 -0.026699 -30805.800000 0 0 1
20.982692 -31.991797 -26.232791 46.388660 -0.990301 2.171836 0.030418 -0.023615 193832.000000 0 0 1
21.164092 -32.554597 -27.542301 47.605660 -0.994343 2.187747 0.042943 -0.015197 -710256.000000 0 0 1
22.595792 -32.240197 -28.038841 48.334012 -0.959495 2.189655 0.037184 -0.002073 35107.800000 0 0 1
22.879692 -30.866497 -28.268941 47.700670 -0.932921 2.205119 0.044475 -0.020036 412500.000000 0 0 1
24.262992 -30.639997 -28.033941 48.097859 -0.901030 2.193031 0.030308 -0.005856 252348.000000 0 0 1
24.802992 -29.362897 -28.764621 48.008036 -0.869384 2.213251 0.023714 0.002155 691.290000 0 0 1
25.292092 -29.591097 -30.052091 49.177750 -0.863569 2.228235 0.021900 -0.003180 44497.300000 0 0 1
25.791692 -28.424397 -30.739611 49.173991 -0.833920 2.246081 0.034817 -0.019792 238086.000000 0 0 1
26.109092 -28.776297 -32.184581 50.454011 -0.833956 2.262564 0.051777 -0.000326 -74601.600000 0 0 1
27.307692 -29.481197 -32.379211 51.606824 -0.823653 2.249033 0.071166 -0.013797 -347475.000000 0 0 1
27.396092 -30.022097 -33.699691 52.797171 -0.831101 2.263066 0.067301 -0.016310 -74247.000000 0 0 1
28.736692 -30.735797 33.653899 53.880159 -0.818999 0.896169 0.058400 -0.015014 -38291.500000 0 0 1
29.830992 -29.870397 33.535739 53.914511 -0.786058 0.899480 0.069318 -0.027309 -287288.000000 0 0 1
31.058092 -30.561897 33.427170 54.918215 -0.777346 0.916411 0.070683 -0.013631 369030.000000 0 0 1
32.331792 -29.705497 33.296952 55.103977 -0.743089 0.921964 0.073625 -0.025592 79819.600000 0 0 1
32.567192 -29.127997 32.005390 54.160938 -0.729711 0.938584 0.072290 -0.014917 -54862.400000 0 0 1
33.746392 -28.357397 32.076897 54.515027 -0.698841 0.941712 0.078839 -0.026270 -214219.000000 0 0 1
33.882992 -27.456197 30.819669 53.401796 -0.681004 0.955589 0.082716 -0.036995 253808.000000 0 0 1
35.164292 -26.847897 30.551779 53.765678 -0.652085 0.966432 0.069114 -0.044005 1069130.000000 0 0 1
35.159792 -25.965197 29.432189 52.693986 -0.636095 0.978160 0.091945 -0.038381 -449222.000000 0 0 1
35.774392 -26.602797 28.171629 52.736672 -0.639410 1.007242 0.083862 -0.027262 -126320.000000 0 0 1
35.080692 -27.687797 27.516579 52.482675 -0.668158 1.018905 0.073939 -0.045221 691806.000000 0 0 1
33.807492 -27.315997 27.012919 51.174290 -0.679592 1.014716 0.085580 -0.047663 -203798.000000 0 0 1
33.090892 -28.324797 26.112639 50.785541 -0.707950 1.030751 0.087283 -0.038937 -873657.000000 0 0 1
31.824592 -27.845397 25.814159 49.543330 -0.718810 1.022725 0.097559 -0.030243 -1006000.000000 0 0 1
31.160592 -28.830297 25.064589 49.299109 -0.746574 1.037449 0.091908 -0.017073 -333649.000000 0 0 1
29.832192 -28.278197 24.538939 47.872493 -0.758662 1.032598 0.097518 -0.009615 -914713.000000 0 0 1
28.802392 -28.192797 25.456219 47.670018 -0.774703 1.007461 0.095023 -0.021678 -415775.000000 0 0 1
27.633192 -27.846097 24.707039 46.362012 -0.789236 1.008754 0.093379 -0.010455 378977.000000 0 0 1
26.346692 -27.856497 25.564839 46.083550 -0.813246 0.982734 0.093599 -0.010413 27413.700000 0 0 1
26.278892 -26.661297 26.260109 45.727434 -0.792621 0.959078 0.077649 -0.017437 205183.000000 0 0 1
25.034092 -26.495497 26.916699 45.312534 -0.813751 0.934745 0.081942 -0.018584 -62290.800000 0 0 1
24.983692 -25.360697 27.949239 45.260466 -0.792887 0.905211 0.063616 -0.005502 -793166.000000 0 0 1
23.787192 -25.330497 28.672439 45.050786 -0.816808 0.880913 0.073566 -0.003613 -296120.000000 0 0 1
23.737492 -24.211597 29.591899 45.003893 -0.795286 0.853246 0.070754 -0.005383 -251064.000000 0 0 1
23.307992 -22.819397 29.110329 43.719545 -0.774806 0.842174 0.073155 -0.003082 -750621.000000 0 0 1
24.220992 -22.135697 28.301029 43.331210 -0.740445 0.859082 0.073659 -0.002970 -42366.300000 0 0 1
23.870492 -20.813697 27.946899 42.237892 -0.717096 0.847773 0.083614 0.005850 -468658.000000 0 0 1
24.520392 -19.831597 28.866769 42.753154 -0.680072 0.829566 0.076841 0.002677 -315701.000000 0 0 1
24.000192 -19.699397 30.170339 43.293473 -0.687297 0.799759 0.074435 0.005450 75345.000000 0 0 1
24.790692 -18.782497 30.890149 43.835623 -0.648375 0.788822 0.076996 -0.005463 -173711.000000 0 0 1
24.281492 -18.436197 32.290895 44.409302 -0.649407 0.756679 0.094440 -0.006259 -330940.000000 0 0 1
24.502592 -19.413097 33.277780 45.658033 -0.670020 0.754158 0.082776 -0.002845 251671.000000 0 0 1
23.979492 -19.080997 -33.023811 45.051887 -0.672127 2.393544 0.099227 -0.007137 71860.100000 0 0 1
23.923792 -20.308597 -32.078531 44.875595 -0.703848 2.367181 0.069149 -0.000318 971629.000000 0 0 1
25.226692 -20.558197 -31.503371 45.293353 -0.683784 2.339969 0.052241 -0.000732 846862.000000 0 0 1
25.222792 -21.648197 -30.625111 45.196583 -0.709281 2.315288 0.052488 -0.003419 187671.000000 0 0 1
26.504792 -21.782997 -29.781211 45.430424 -0.687924 2.285687 0.053537 0.003344 833168.000000 0 0 1
27.696492 -22.290597 -30.407091 46.782022 -0.677671 2.278346 0.045458 0.001993 601949.000000 0 0 1
28.441392 -23.020597 -29.416741 46.948965 -0.680449 2.247939 0.049774 0.000847 406237.000000 0 0 1
29.560692 -23.956797 -29.970481 48.435445 -0.681067 2.237974 0.046766 -0.000536 333181.000000 0 0 1
30.481992 -23.310897 -30.879651 49.255483 -0.652870 2.248400 0.044704 -0.000869 508003.000000 0 0 1
30.038092 -23.080497 -32.257521 49.754838 -0.655157 2.276184 0.046184 -0.002298 -175013.000000 0 0 1
30.079192 -24.377697 -33.131111 50.957830 -0.681081 2.278601 0.054239 -0.013796 -136098.000000 0 0 1
28.993392 -25.228097 -32.835221 50.549237 -0.716067 2.277814 0.064747 -0.019348 23194.400000 0 0 1
29.057992 -26.505297 -33.490761 51.657804 -0.739488 2.276171 0.077852 -0.025440 -209412.000000 0 0 1
28.826292 -26.580897 32.560939 50.967774 -0.744895 0.877789 0.082145 -0.030339 -680263.000000 0 0 1
29.887392 -26.140797 31.799250 50.870323 -0.718628 0.895531 0.066429 -0.032450 -525795.000000 0 0 1
29.713692 -26.534497 30.435869 50.133074 -0.728937 0.918388 0.066769 -0.028669 -344514.000000 0 0 1
30.867492 -26.008797 29.556349 50.028365 -0.700179 0.938756 0.077381 -0.038621 -382273.000000 0 0 1
31.010192 -24.610897 29.192899 49.188958 -0.670850 0.935415 0.066895 -0.038884 190440.000000 0 0 1
31.120992 -23.763997 30.358029 49.546479 -0.652149 0.911301 0.049001 -0.025003 -1379130.000000 0 0 1
31.671192 -22.343297 30.084669 49.065004 -0.614392 0.910742 0.048472 -0.018838 860356.000000 0 0 1
33.029592 -22.190397 29.658009 49.628269 -0.591571 0.930288 0.086994 -0.037528 907832.000000 0 0 1
34.034792 -22.669697 30.529539 51.032685 -0.587592 0.929500 0.079584 -0.034907 -374760.000000 0 0 1
35.424292 -21.978597 30.415049 51.604403 -0.555312 0.940494 0.082775 -0.042266 447970.000000 0 0 1
35.944492 -22.259297 29.090169 51.319789 -0.554467 0.968130 0.101124 -0.050910 -573872.000000 0 0 1
37.201092 -21.709597 28.910689 51.875387 -0.528254 0.979653 0.092851 -0.045326 -638789.000000 0 0 1
-37.738757 -22.149397 27.623459 51.748092 0.530742 1.007701 0.093240 -0.041893 -104594.000000 0 0 1
-37.339357 -23.524997 27.527119 52.013415 0.562210 1.013102 0.085991 -0.029458 269076.000000 0 0 1
-36.644557 -23.670397 26.303009 50.940745 0.573520 1.028219 0.058801 -0.011197 -20205.600000 0 0 1
-36.322157 -25.145297 26.046459 51.283555 0.605530 1.038062 0.052251 -0.013564 -226350.000000 0 0 1
-37.512957 -25.811297 25.744679 52.309019 0.602670 1.056221 0.062523 -0.018854 -146163.000000 0 0 1
-37.283957 -27.176997 25.323899 52.630623 0.629872 1.068816 0.046924 -0.007070 57028.200000 0 0 1
-36.866257 -28.250397 26.335559 53.392579 0.653848 1.054982 0.052234 -0.013179 -929365.000000 0 0 1
-36.708057 -29.441597 25.692549 53.613395 0.675988 1.071032 0.051276 -0.010953 271946.000000 0 0 1
-35.732457 -30.220097 26.377539 53.719990 0.702011 1.057537 0.059867 -0.022289 601134.000000 0 0 1
-34.248757 -29.818997 26.161199 52.407616 0.716366 1.048136 0.066801 -0.014174 -853405.000000 0 0 1
-33.738757 -29.952997 24.893559 51.528390 0.726029 1.066600 0.058674 -0.014394 -319007.000000 0 0 1
-32.460557 -29.364097 24.839619 50.328368 0.735355 1.054628 0.045259 -0.007206 19746.900000 0 0 1
-31.943657 -29.242097 23.339829 49.195986 0.741273 1.076485 0.040935 -0.007901 168981.000000 0 0 1
-31.597957 -30.534497 22.716849 49.465560 0.768284 1.093650 0.054307 -0.013990 388879.000000 0 0 1
-31.358157 -30.422597 21.351759 48.628860 0.770256 1.116226 0.047561 -0.009027 -592143.000000 0 0 1
-31.307157 -31.843297 20.640759 49.195270 0.793888 1.137827 0.059374 -0.010538 439877.000000 0 0 1
-30.259557 -32.782897 20.908759 49.270024 0.825403 1.132529 0.084775 -0.024838 707387.000000 0 0 1
-28.915957 -32.356997 20.649059 48.057168 0.841498 1.126661 0.094067 -0.021725 636523.000000 0 0 1
-27.983457 -33.603297 20.736159 48.396732 0.876397 1.128006 0.090713 -0.021045 -167879.000000 0 0 1
-28.085557 33.210094 19.624859 47.716285 -0.868808 1.146936 0.079566 -0.021791 225125.000000 0 0 1
-29.148157 32.248594 19.559259 47.667090 -0.835854 1.147980 0.094029 -0.024691 282249.000000 0 0 1
-29.218457 31.136094 20.635759 47.423719 -0.817160 1.120607 0.098842 -0.022600 -389594.000000 0 0 1
-28.175957 30.223294 20.540859 46.143893 -0.820441 1.109457 0.086266 -0.017992 -508326.000000 0 0 1
-28.072657 29.318994 21.649559 46.004139 -0.807111 1.080825 0.087634 -0.018691 417102.000000 0 0 1
-27.027457 28.161794 21.357259 44.493848 -0.805949 1.070136 0.074609 -0.021747 70899.000000 0 0 1
-25.705757 28.609994 21.365059 43.997539 -0.838817 1.063751 0.055987 -0.016191 -797721.000000 0 0 1
-24.923957 27.661894 20.688659 42.595828 -0.837417 1.063636 0.052896 -0.018661 205737.000000 0 0 1
-23.392757 27.923094 20.797059 41.945654 -0.873453 1.052029 0.038252 -0.011970 167282.000000 0 0 1
-22.969357 27.913294 22.122159 42.380812 -0.882258 1.021620 0.049022 -0.012470 630978.000000 0 0 1
-21.581457 28.243394 22.165759 41.889968 -0.918317 1.013207 0.079500 -0.017288 396305.000000 0 0 1
-21.049557 28.480194 23.599239 42.557365 -0.934311 0.983001 0.073713 -0.011330 -136610.000000 0 0 1
-20.424057 27.303994 24.121319 41.767071 -0.928561 0.955109 0.072047 -0.025718 216958.000000 0 0 1
-20.269357 27.328094 25.538759 42.542916 -0.932626 0.926913 0.079982 -0.024663 -158122.000000 0 0 1
-18.884557 27.798894 26.008729 42.495399 -0.974080 0.912163 0.102711 -0.020264 -568145.000000 0 0 1
-18.746857 29.233094 25.911209 43.329080 -1.000569 0.929781 0.085801 -0.012493 1113230.000000 0 0 1
-17.432957 29.648894 26.358379 43.332771 -1.039262 0.916907 0.085443 -0.011393 868969.000000 0 0 1
-17.374157 29.932494 27.914959 44.464148 -1.044880 0.892062 0.072737 -0.006683 -295853.000000 0 0 1
-17.311657 28.663594 28.522849 43.986907 -1.027470 0.865264 0.083947 -0.010508 163369.000000 0 0 1
-17.664457 28.704394 29.904089 45.058071 -1.019136 0.845070 0.066714 -0.004349 -125560.000000 0 0 1
-17.415357 27.471894 30.769219 44.774372 -1.005799 0.813160 0.072312 -0.000853 446384.000000 0 0 1
-16.022757 27.279294 31.040919 44.321860 -1.039723 0.794905 0.071707 0.007532 680775.000000 0 0 1
-15.724657 26.096394 31.765955 44.015480 -1.028496 0.764542 0.084603 0.003498 -171405.000000 0 0 1
-16.091757 26.038494 33.281855 45.217581 -1.017247 0.743598 0.084317 0.003549 -227577.000000 0 0 1
-17.462357 25.799594 33.454576 45.713910 -0.975779 0.749800 0.088903 -0.004805 -413562.000000 0 0 1
-18.035857 26.639294 -33.125751 46.176395 -0.975647 2.370822 0.088171 -0.002398 828033.000000 0 0 1
-19.395357 26.164094 -32.508151 46.016514 -0.932889 2.355259 0.060544 -0.005898 745721.000000 0 0 1
-20.487957 26.200194 -33.416091 47.147022 -0.907142 2.358540 0.061600 -0.005877 -730446.000000 0 0 1
-21.662957 25.892794 -32.749791 47.034767 -0.874110 2.341011 0.082775 -0.011314 -791695.000000 0 0 1
-22.853757 25.828194 -33.732091 48.241515 -0.846422 2.345121 0.092451 -0.025281 -318672.000000 0 0 1
-22.720157 25.001094 32.775188 47.068813 -0.833159 0.800532 0.082745 -0.021983 -155590.000000 0 0 1
-22.672357 23.599994 33.024652 46.493259 -0.805443 0.780857 0.078796 -0.023785 -146469.000000 0 0 1
-23.084757 22.790094 31.775929 45.409294 -0.778975 0.795725 0.089156 -0.023930 621802.000000 0 0 1
-24.480057 22.869694 31.502617 45.985986 -0.751401 0.816126 0.086635 -0.026122 164132.000000 0 0 1
-24.878157 22.425594 30.200199 45.098580 -0.733597 0.837061 0.102504 -0.023430 -509952.000000 0 0 1
-26.336757 22.131894 29.946679 45.609747 -0.698861 0.854514 0.091062 -0.018029 -604426.000000 0 0 1
-26.800157 20.904194 30.501749 45.668265 -0.662428 0.839415 0.103246 -0.020638 1058620.000000 0 0 1
-28.050257 20.553094 29.829049 45.815049 -0.632352 0.861796 0.112656 -0.027069 1071340.000000 0 0 1
-28.564657 19.166394 30.306499 45.845110 -0.590985 0.848562 0.138138 -0.027248 -61901.600000 0 0 1
-29.143557 19.168494 31.635474 47.091201 -0.581788 0.834172 0.140304 -0.020732 188619.000000 0 0 1
-29.373557 17.900994 32.235542 47.142142 -0.547321 0.817846 0.126015 -0.015651 111429.000000 0 0 1
-30.308357 16.821094 31.588645 46.897635 -0.506673 0.831774 0.106719 -0.018708 -345669.000000 0 0 1
-31.647657 17.121194 31.846133 48.050865 -0.495903 0.846299 0.099918 -0.021106 -522481.000000 0 0 1
-32.507257 16.174394 31.206299 47.876569 -0.461696 0.860831 0.114386 -0.012080 1274240.000000 0 0 1
-34.030557 16.587694 31.170139 49.038841 -0.453545 0.881983 0.090503 -0.010590 1214100.000000 0 0 1
-34.646457 16.755994 32.473024 50.355115 -0.450464 0.869930 0.090399 -0.010960 275580.000000 0 0 1
-36.046157 16.840494 32.438065 51.333767 -0.437059 0.886788 0.106834 -0.015032 -172080.000000 0 0 1
-36.670357 17.166094 -33.770731 52.724303 -0.437819 2.265966 0.101927 -0.007293 -160610.000000 0 0 1
37.569092 17.300194 -33.766241 53.393749 0.431543 2.255445 0.098663 -0.016050 -155173.000000 0 0 1
37.118992 17.573094 -32.425541 52.326369 0.442163 2.239130 0.081949 -0.023814 -697286.000000 0 0 1
35.629792 17.777894 -32.299251 51.271602 0.462816 2.252303 0.082961 -0.026047 -915035.000000 0 0 1
34.861192 16.602494 -32.337031 50.364959 0.444464 2.267971 0.090696 -0.026499 -70220.900000 0 0 1
33.608492 16.780694 -31.708521 49.158445 0.463087 2.271855 0.079577 -0.034072 43073.500000 0 0 1
32.783492 15.460794 -31.710851 48.159854 0.440673 2.289554 0.083161 -0.038081 -118175.000000 0 0 1
32.280692 15.161394 -32.981781 48.576834 0.439094 2.317143 0.090786 -0.042199 588604.000000 0 0 1
31.246692 14.164694 -33.046421 47.634654 0.425610 2.337476 0.089021 -0.045147 702269.000000 0 0 1
31.846892 12.756094 -33.333741 47.833887 0.380976 2.341813 0.081014 -0.039322 324364.000000 0 0 1
32.652292 12.282494 -32.275981 47.526527 0.359787 2.317353 0.076088 -0.033117 644054.000000 0 0 1
33.758792 11.499294 -32.764201 48.429151 0.328304 2.313849 0.100622 -0.032902 532307.000000 0 0 1
17.543092 -20.894006 10.091459 29.088780 -0.872357 1.216512 0.057883 -0.020950 -383249.000000 0 0 1
17.726292 -22.146306 10.732159 30.329186 -0.895801 1.209106 0.063881 -0.025123 521927.000000 0 0 1
18.976492 -22.770106 10.422159 31.419840 -0.876022 1.232685 0.048262 -0.030820 -35112.400000 0 0 1
19.130592 -24.158706 11.163159 32.775582 -0.901031 1.223248 0.055939 -0.024379 -131525.000000 0 0 1
18.374492 -25.242946 10.659859 32.991830 -0.941586 1.241787 0.054831 -0.020996 796301.000000 0 0 1
16.954892 -25.071676 10.858659 32.155369 -0.976184 1.226331 0.045932 -0.018885 467445.000000 0 0 1
16.147692 -26.033086 9.978559 32.218646 -1.015601 1.255904 0.067704 -0.024802 -170800.000000 0 0 1
16.125392 -25.680386 8.610959 31.522359 -1.010095 1.294110 0.074842 -0.029864 -97997.300000 0 0 1
14.999392 -26.279756 8.040759 31.309122 -1.052156 1.311068 0.085468 -0.022414 -332039.000000 0 0 1
14.717592 -25.831496 6.551359 30.443292 -1.052914 1.353901 0.086945 -0.018908 -459491.000000 0 0 1
14.204292 -24.540506 6.510859 29.092776 -1.046103 1.345088 0.096194 -0.022916 -39441.600000 0 0 1
13.825192 -24.053006 5.264459 28.238229 -1.049127 1.383269 0.114073 -0.019504 90130.000000 0 0 1
13.221692 -22.630906 5.506459 26.782310 -1.042052 1.363719 0.149065 -0.024045 -169003.000000 0 0 1
12.316792 -22.203106 4.537259 25.792790 -1.064327 1.393964 0.138004 -0.024467 67324.700000 0 0 1
11.494992 -21.120106 4.991959 24.558367 -1.072365 1.366101 0.146289 -0.022680 693317.000000 0 1 0
10.454792 -20.662006 3.946259 23.490299 -1.102367 1.402001 0.123086 -0.019190 301600.000000 0 1 0
11.179692 -19.993806 2.937059 23.094677 -1.060949 1.443276 0.106692 -0.018777 126149.000000 0 1 0
10.353992 -19.608006 1.863459 22.252001 -1.084962 1.486955 0.067795 -0.000424 114104.000000 0 1 0
11.130792 -19.124206 0.620359 22.136274 -1.043698 1.542768 0.066402 -0.004002 51680.900000 0 1 0
11.823192 -17.943706 0.856659 21.505774 -0.988187 1.530952 0.054109 -0.001270 32517.700000 0 1 0
12.734092 -17.649506 -0.189441 21.764606 -0.945787 1.579501 0.059723 -0.012264 -175090.000000 0 1 0
13.911592 -16.737306 0.141859 21.764419 -0.877335 1.564278 0.046924 0.000911 -525049.000000 0 1 0
14.880192 -17.280206 0.987359 22.825436 -0.859886 1.527526 0.057354 -0.013771 510121.000000 0 1 0
16.084192 -16.481906 0.878659 23.046182 -0.797610 1.532661 0.064351 -0.024555 1081540.000000 0 1 0
17.350292 -17.152306 1.489459 24.442846 -0.779660 1.509822 0.053980 -0.012713 -183089.000000 0 1 0
17.932692 -18.157506 0.721259 25.530309 -0.791627 1.542541 0.068298 -0.015522 1045580.000000 0 0 1
19.095792 -18.608206 1.490659 26.704619 -0.772467 1.514947 0.068612 -0.008175 1452270.000000 0 0 1
19.839692 -19.864806 0.921559 28.090446 -0.786031 1.537984 0.048929 -0.005958 351240.000000 0 0 1
18.982992 -20.987306 1.072359 28.319092 -0.835501 1.532920 0.057096 -0.002513 282924.000000 0 0 1
19.351492 -22.139606 0.307659 29.406412 -0.852495 1.560334 0.063748 -0.008936 -552466.000000 0 0 1
18.398792 -23.306606 0.423559 29.696681 -0.902538 1.556533 0.081667 -0.012339 -298458.000000 0 0 1
18.501992 -23.994706 1.645359 30.344305 -0.913936 1.516547 0.059717 -0.001200 -319795.000000 0 0 1
17.544992 -24.992066 1.606459 30.577947 -0.958714 1.518236 0.080322 -0.006865 -763282.000000 0 0 1
17.518692 -25.958536 2.806659 31.442447 -0.977135 1.481414 0.074175 -0.008974 463420.000000 0 0 1
18.617092 -26.868196 2.847959 32.811689 -0.964848 1.483890 0.065995 -0.016411 364844.000000 0 0 1
19.780792 -26.327576 3.465459 33.112390 -0.926442 1.465947 0.064173 -0.003126 35477.900000 0 0 1
20.936092 -27.366266 3.495759 34.633117 -0.917743 1.469687 0.072660 -0.004731 233451.000000 0 0 1
21.429392 -27.805256 2.219459 35.174950 -0.914181 1.507657 0.061352 -0.001696 346277.000000 0 0 1
22.277192 -28.994326 2.252959 36.633592 -0.915667 1.509258 0.058601 0.000025 616225.000000 0 0 1
21.619192 -30.355946 2.753659 37.369179 -0.951936 1.497042 0.074392 -0.009136 157916.000000 0 0 1
21.539892 -30.473566 4.155759 37.548309 -0.955495 1.459891 0.093127 -0.011369 -36047.100000 0 0 1
20.655992 -31.483366 4.634959 37.938835 -0.990150 1.448321 0.095295 -0.024033 -174805.000000 0 0 1
20.803492 -31.925746 6.100259 38.590824 -0.993282 1.412055 0.105103 -0.032775 -325216.000000 0 0 1
21.910992 -32.751636 6.353859 39.914067 -0.981177 1.410928 0.081807 -0.034786 -212012.000000 0 0 1
21.725392 -33.411966 7.629259 40.577799 -0.994261 1.381655 0.068630 -0.035105 -508356.000000 0 0 1
22.884892 33.570000 8.322759 41.472056 0.972454 1.368741 0.085367 -0.041623 -411974.000000 0 0 1
23.822292 -33.220006 8.929259 41.842587 -0.948681 1.355741 0.086403 -0.037390 413910.000000 0 0 1
24.770692 33.603968 9.574659 42.830922 0.935579 1.345346 0.112458 -0.038028 -118507.000000 0 0 1
25.809192 -33.355446 10.434859 43.446363 -0.912260 1.328247 0.109987 -0.036252 -303608.000000 0 0 1
26.422092 -32.312216 9.701559 42.852380 -0.885348 1.342421 0.084687 -0.029284 -168440.000000 0 0 1
27.318192 -31.579166 10.500559 43.055651 -0.857618 1.324428 0.076529 -0.028093 212412.000000 0 0 1
27.967492 -30.486696 9.533259 42.455886 -0.828469 1.344320 0.065058 -0.024252 379510.000000 0 0 1
26.999292 -29.507216 9.116259 41.021260 -0.829752 1.346693 0.051987 -0.030134 365684.000000 0 0 1
27.401992 -28.805936 8.007259 40.555731 -0.810371 1.372052 0.044100 -0.024542 -284100.000000 0 0 1
26.815892 -27.404996 7.965459 39.160879 -0.796263 1.365964 0.034620 -0.024997 -106000.000000 0 0 1
27.370392 -26.637936 9.019359 39.243685 -0.771837 1.338894 0.051808 -0.038942 92578.900000 0 0 1
26.857392 -25.330136 8.998759 37.998855 -0.756142 1.331708 0.052879 -0.040591 -260445.000000 0 0 1
27.590192 -24.387406 9.973259 38.150100 -0.723857 1.306302 0.068125 -0.053283 800264.000000 0 0 1
28.966592 -24.289406 9.583459 38.998479 -0.697798 1.322514 0.091927 -0.047070 147211.000000 0 0 1
29.789092 -23.634706 10.497459 39.448523 -0.670704 1.301446 0.073429 -0.047878 624460.000000 0 0 1
31.259892 -23.421606 10.006959 40.322347 -0.643024 1.320001 0.089191 -0.042550 736931.000000 0 0 1
31.413192 -22.515206 8.944559 39.670244 -0.621875 1.343368 0.087557 -0.032557 -559753.000000 0 0 1
32.740992 -22.422206 8.506159 40.584266 -0.600476 1.359638 0.081459 -0.037859 -235960.000000 0 0 1
32.844892 -21.557206 7.228059 39.946776 -0.580815 1.388852 0.066958 -0.013206 -9006.240000 0 0 1
32.486992 -20.160406 7.360059 38.936064 -0.555406 1.380623 0.060591 0.000984 -229292.000000 0 0 1
32.474192 -19.464806 6.122359 38.352772 -0.539973 1.410478 0.047885 -0.003616 137555.000000 0 0 1
32.049992 -17.987806 6.365159 37.299844 -0.511433 1.399309 0.062656 -0.001946 272552.000000 0 0 1
33.089492 -17.283106 7.056859 37.992361 -0.481339 1.383967 0.066063 0.001984 275847.000000 0 0 1
32.715992 -16.017406 7.562259 37.203241 -0.455285 1.366101 0.077622 -0.008006 -354772.000000 0 0 1
33.456392 -15.568906 8.814359 37.939609 -0.435545 1.336328 0.075532 -0.037247 188065.000000 0 0 1
34.815492 -15.224306 8.584459 38.956269 -0.412230 1.348611 0.083976 -0.035059 -82787.200000 0 0 1
35.429392 -14.767306 9.754959 39.603969 -0.394913 1.321922 0.083428 -0.048488 1068520.000000 0 0 1
36.996392 -14.795006 9.545359 40.972419 -0.380424 1.335665 0.097690 -0.058223 885541.000000 0 0 1
37.653592 -13.805406 8.824759 41.064079 -0.351423 1.354205 0.131494 -0.052381 -842425.000000 0 0 1
-36.672857 -14.134406 8.516659 40.214591 0.367873 1.357400 0.142035 -0.054912 -88016.100000 0 0 1
-35.911357 -12.950106 7.812959 38.966307 0.346098 1.368922 0.170831 -0.061686 468793.000000 0 0 1
-36.636257 -12.620006 6.575059 39.302815 0.331738 1.402714 0.192587 -0.073019 983852.000000 0 0 1
-35.785757 -11.934106 5.648159 38.143741 0.321889 1.422174 0.216306 -0.059681 227864.000000 0 0 1
-34.671557 -12.683406 4.911159 37.243860 0.350695 1.438546 0.235850 -0.060485 -325120.000000 0 0 1
-33.736657 -13.185006 5.801159 36.683237 0.372569 1.411988 0.210694 -0.060296 -918069.000000 0 0 1
-33.000657 -14.238806 5.280259 36.327236 0.407338 1.424927 0.212126 -0.038414 -32607.600000 0 0 1
-32.246257 -15.086206 6.404959 36.172340 0.437593 1.392790 0.164501 -0.030930 543149.000000 0 0 1
-33.115257 -15.914206 7.130559 37.426288 0.447983 1.379102 0.124276 -0.042896 -54193.600000 0 0 1
-32.536957 -16.154306 8.397659 37.284525 0.460836 1.343615 0.118884 -0.035624 -208313.000000 0 0 1
-33.395857 -17.019006 9.305759 38.620292 0.471309 1.327446 0.063568 -0.026895 -1035930.000000 0 0 1
-34.569657 -16.278606 9.564259 39.389456 0.440092 1.325532 0.071181 -0.031314 547755.000000 0 0 1
-35.456957 -16.835906 10.580359 40.652030 0.443307 1.307498 0.081463 -0.023853 827874.000000 0 0 1
-36.201857 -18.177206 10.180159 41.768659 0.465332 1.324589 0.085168 -0.023156 -1121200.000000 0 0 1
-35.392457 -19.274006 10.135659 41.555323 0.498672 1.324403 0.099957 -0.023786 -704246.000000 0 0 1
-35.227757 -19.973706 11.392459 42.068182 0.515792 1.296563 0.093302 -0.035085 74816.900000 0 0 1
-36.494357 -20.620006 12.002259 43.601341 0.514301 1.291923 0.073099 -0.034254 218337.000000 0 0 1
-36.517357 -21.972906 11.770159 44.213828 0.541677 1.301337 0.101939 -0.034763 -758743.000000 0 0 1
37.808392 -22.403306 11.731059 45.486266 -0.534922 1.309945 0.117763 -0.037277 -692081.000000 0 0 1
37.597992 -23.913406 11.412959 45.996909 -0.566491 1.320053 0.123113 -0.037574 -293583.000000 0 0 1
-37.444057 -24.734506 12.414659 46.561539 0.583772 1.300903 0.117647 -0.030411 335251.000000 0 0 1
37.534592 -25.975866 12.555859 47.341745 -0.605371 1.302367 0.126780 -0.033293 536060.000000 0 0 1
36.198092 -25.941156 13.397859 46.505355 -0.621810 1.278562 0.137589 -0.047793 286055.000000 0 0 1
35.109692 -25.572256 12.579759 45.220361 -0.629503 1.288889 0.130049 -0.045381 -333116.000000 0 0 1
34.032392 -25.042326 13.321359 44.303277 -0.634376 1.265385 0.130368 -0.020412 3684.800000 0 0 1
34.054892 -23.501006 13.615459 43.559312 -0.604045 1.252896 0.131131 -0.022891 -505809.000000 0 0 1
35.148592 -23.169206 14.428159 44.501768 -0.582801 1.240614 0.132378 -0.025202 -259553.000000 0 0 1
35.241592 -21.844506 14.734259 44.002848 -0.554887 1.229353 0.131693 -0.032024 288272.000000 0 0 1
36.541192 -21.459206 15.500259 45.122215 -0.531000 1.220137 0.106036 -0.017959 247674.000000 0 0 1
36.546992 -20.099706 16.020159 44.680267 -0.502819 1.204081 0.115074 -0.000201 364693.000000 0 0 1
35.765192 -19.972906 17.226959 44.439105 -0.509304 1.172712 0.127739 -0.005388 315159.000000 0 0 1
35.774892 -18.550006 17.842959 44.071723 -0.478354 1.153969 0.124565 0.008585 60511.400000 0 0 1
35.112292 -17.585006 17.008459 42.794779 -0.464305 1.162068 0.114618 0.000642 94451.900000 0 0 1
35.046392 -16.254006 17.544259 42.429274 -0.434259 1.144508 0.111394 0.001415 -893194.000000 0 0 1
36.278892 -15.457006 17.876459 43.297169 -0.402769 1.145184 0.085512 -0.006909 -817964.000000 0 0 1
37.001692 -15.969406 18.965159 44.540143 -0.407436 1.130951 0.099548 0.003028 -234528.000000 0 0 1
-37.495557 -15.194506 19.226259 44.793290 0.385011 1.127165 0.074439 -0.006531 -139031.000000 0 0 1
-36.956157 -15.346506 20.666059 45.037304 0.393594 1.094079 0.079824 0.002730 209402.000000 0 0 1
-36.084357 -16.450606 20.950559 44.851189 0.427744 1.084774 0.070991 0.005752 381158.000000 0 0 1
-35.717457 -16.370406 22.326859 45.190879 0.429760 1.054047 0.071047 -0.004255 -290453.000000 0 0 1
-34.631357 -17.355106 22.709359 44.902623 0.464558 1.040549 0.066502 0.002536 -1242810.000000 0 0 1
-35.130757 -18.640306 22.930259 45.906730 0.487825 1.047779 0.071097 -0.007916 242940.000000 0 0 1
-34.238757 -19.549306 23.548959 45.924082 0.518800 1.032376 0.049257 -0.002386 -407650.000000 0 0 1
-33.051657 -20.054406 22.737759 44.850829 0.545375 1.039137 0.028995 0.006279 -338589.000000 0 0 1
-32.016457 -19.112306 22.562359 43.582035 0.538176 1.026637 0.040983 0.014211 -260213.000000 0 0 1
-30.849357 -19.701806 22.053559 42.734102 0.568352 1.028546 0.028408 0.011973 195963.000000 0 0 1
-29.656557 -18.724906 21.802159 41.297307 0.563182 1.014633 0.050214 0.009342 198727.000000 0 0 1
-29.210057 -18.435606 23.087259 41.546607 0.563002 0.981597 0.035580 0.009397 30116.200000 0 0 1
-28.118157 -17.527806 23.091859 40.386739 0.557421 0.962137 0.076320 0.001905 27389.000000 0 0 1
-27.595257 -17.188206 24.480659 40.696871 0.557065 0.925373 0.067634 -0.012840 -854772.000000 0 0 1
-26.438757 -16.392006 24.503359 39.599499 0.554995 0.903608 0.090320 -0.015420 -105486.000000 0 0 1
-26.163257 -16.050606 25.836259 40.120447 0.550272 0.871124 0.078084 -0.020956 -195024.000000 0 0 1
-25.077357 -16.812506 26.582959 40.226706 0.590601 0.848874 0.062868 -0.016427 -530792.000000 0 0 1
-25.459457 -18.160406 26.816659 41.196086 0.619601 0.861959 0.052970 -0.008198 35939.800000 0 0 1
-24.516257 -18.753406 27.685459 41.463499 0.652993 0.839672 0.063522 -0.012263 -83233.100000 0 0 1
-25.001457 -20.076106 28.388559 42.825613 0.676566 0.846128 0.055852 -0.010476 475082.000000 0 0 1
-26.106457 -19.850206 29.270059 43.958095 0.650096 0.842147 0.038144 -0.010664 683341.000000 0 0 1
-26.727657 -21.022306 29.795359 45.211375 0.666478 0.851277 0.038712 -0.008010 382515.000000 0 0 1
-27.979957 -20.778206 30.706659 46.449012 0.638755 0.848535 0.046709 -0.007642 -122371.000000 0 0 1
-27.675657 -20.109706 31.893459 46.771091 0.628370 0.820432 0.051260 -0.014216 459384.000000 0 0 1
-28.628857 -20.285606 32.957759 48.138666 0.616456 0.816684 0.065850 -0.017162 -763168.000000 0 0 1
-29.872757 -19.462006 32.859659 48.486168 0.577427 0.826150 0.056520 -0.025350 -1186420.000000 0 0 1
-30.781657 -20.051406 31.931159 48.674102 0.577364 0.855264 0.063671 -0.022881 -279707.000000 0 0 1
-31.853557 -19.192706 31.702659 48.867859 0.542277 0.864865 0.083983 -0.022706 -393472.000000 0 0 1
-32.834857 -19.703806 30.606359 49.021597 0.540484 0.896504 0.077611 -0.010023 27112.600000 0 0 1
-32.307957 -19.669406 29.239759 47.808505 0.546872 0.912713 0.064395 -0.018815 934427.000000 0 0 1
-33.327357 -20.092506 28.332759 48.136958 0.542537 0.941487 0.071557 -0.024433 514383.000000 0 0 1
-34.399157 -19.047006 27.957359 48.246288 0.505684 0.952716 0.074482 -0.017683 167324.000000 0 0 1
-35.367857 -19.477206 26.996959 48.570389 0.503383 0.981433 0.049769 -0.021566 952987.000000 0 0 1
-36.240757 -18.359106 26.667259 48.596213 0.468904 0.989926 0.103672 -0.021600 482732.000000 0 0 1
-37.482457 -18.720306 25.828559 49.218887 0.463201 1.018352 0.087160 -0.028813 585153.000000 0 0 1
37.010192 -19.347406 26.437459 49.426872 -0.481689 1.006430 0.088387 -0.031331 466277.000000 0 0 1
36.104592 -19.599106 25.407559 48.303318 -0.497331 1.016906 0.116148 -0.032397 -554052.000000 0 0 1
34.731992 -20.160006 25.809859 47.737678 -0.525917 0.999575 0.102989 -0.043234 94351.700000 0 0 1
33.856092 -19.113906 26.257159 46.914974 -0.513955 0.976802 0.096626 -0.055123 275654.000000 0 0 1
32.727792 -19.654106 26.901959 46.702330 -0.540811 0.956932 0.083021 -0.045554 -63369.800000 0 0 1
-30.554488 -5.334606 33.481529 45.640416 0.172851 0.747201 0.097629 -0.021667 -77917.300000 0 0 1
-31.720458 -5.231806 32.700642 45.857293 0.163463 0.776892 0.097836 -0.015214 93699.000000 0 0 1
-31.618328 -4.126006 31.819090 45.046610 0.129761 0.786455 0.110672 -0.010977 -37389.300000 0 0 1
-32.479818 -4.347606 30.568979 44.814091 0.133065 0.820126 0.099447 -0.020080 -156433.000000 0 0 1
-32.145048 -5.392306 29.688489 44.088405 0.166202 0.832018 0.082685 -0.015187 -261172.000000 0 0 1
-30.828898 -5.293806 29.183409 42.779864 0.170057 0.820061 0.083627 -0.015197 78058.700000 0 0 1
-30.521388 -6.199006 27.990709 41.874367 0.200378 0.838680 0.082121 -0.015241 366518.000000 0 0 1
-31.210968 -5.775706 26.752949 41.511488 0.182984 0.870465 0.071978 -0.018031 616254.000000 0 0 1
-30.737068 -6.656606 25.729129 40.633310 0.213273 0.885112 0.086405 -0.018650 169081.000000 0 0 1
-31.286518 -6.181706 24.374699 40.139578 0.195071 0.918203 0.072770 -0.013156 349227.000000 0 0 1
-30.722328 -5.004606 23.709929 39.128868 0.161480 0.919843 0.080434 -0.019463 -203523.000000 0 0 1
-31.526718 -4.609506 22.634829 39.083462 0.145181 0.953122 0.094986 -0.018450 121724.000000 0 0 1
-31.035978 -3.316506 21.870759 38.112482 0.106456 0.959600 0.095764 -0.014776 291782.000000 0 0 1
-29.785288 -3.560206 21.260359 36.767395 0.118965 0.954227 0.106676 -0.018606 -23825.400000 0 0 1
-29.167018 -2.366406 20.781659 35.891394 0.080956 0.953276 0.114688 -0.018649 693706.000000 0 0 1
-27.655128 -2.431006 20.410159 34.457082 0.087679 0.936842 0.113362 -0.017388 418664.000000 0 0 1
-27.479208 -3.213506 19.275659 33.719202 0.116414 0.962278 0.134842 -0.017101 -637904.000000 0 0 1
-26.205828 -3.017506 18.746559 32.361772 0.114642 0.952950 0.135877 -0.017214 -598899.000000 0 0 1
-26.020698 -3.738906 17.406059 31.528195 0.142713 0.985941 0.146805 -0.023398 -274637.000000 0 0 1
-26.746448 -3.143506 16.368359 31.514716 0.116993 1.024662 0.142966 -0.017058 -88619.700000 0 0 1
-26.536208 -3.700806 15.053659 30.732377 0.138569 1.058901 0.155825 -0.026797 -92549.200000 0 0 1
-27.794668 -3.813106 14.164859 31.428118 0.136337 1.103240 0.173111 -0.028719 -95248.300000 0 0 1
-28.261908 -2.658906 13.607459 31.479647 0.093805 1.123796 0.168567 -0.025329 -78259.000000 0 0 1
-29.497168 -2.836706 12.938559 32.334752 0.095874 1.159122 0.164829 -0.030127 160472.000000 0 0 1
-29.907138 -1.606306 12.114759 32.307654 0.053658 1.186420 0.165878 -0.021454 113194.000000 0 0 1
-29.052408 -1.416506 10.954359 31.081295 0.048718 1.210617 0.197243 -0.030378 419012.000000 0 0 1
-29.423988 -0.380706 10.075659 31.103616 0.012938 1.240907 0.191736 -0.023540 -366456.000000 0 0 1
-30.781308 -0.444106 9.368459 32.178474 0.014427 1.275377 0.185200 -0.015869 -189711.000000 0 0 1
-30.889188 -1.399606 8.347759 32.027893 0.045280 1.307111 0.190121 -0.028846 -525764.000000 0 0 1
-32.191118 -1.233806 7.878659 33.164192 0.038309 1.330938 0.190774 -0.029267 -579108.000000 0 0 1
-32.480548 -2.115606 6.642559 33.220256 0.065043 1.369484 0.219904 -0.039628 54132.400000 0 0 1
-31.886178 -1.799806 5.377159 32.386440 0.056385 1.403993 0.227312 -0.050195 804344.000000 0 0 1
-32.523368 -0.608506 4.874959 32.892324 0.018708 1.422039 0.223341 -0.036175 240457.000000 0 0 1
-31.920578 -0.294706 3.498259 32.113050 0.009232 1.461644 0.218109 -0.030426 -238077.000000 0 0 1
-32.400158 -1.216106 2.533959 32.521841 0.037516 1.492802 0.197196 -0.047956 416843.000000 0 0 1
-31.792648 -1.104806 1.241759 31.836065 0.034736 1.531782 0.183548 -0.051085 -320165.000000 0 0 1
-32.598038 -1.837806 0.220259 32.650546 0.056318 1.564050 0.158606 -0.052621 -323786.000000 0 0 1
-33.912588 -1.363806 0.086959 33.940112 0.040194 1.568234 0.196080 -0.052942 111491.000000 0 0 1
-34.640149 -1.973406 -1.003441 34.710822 0.056907 1.599709 0.208968 -0.066761 -666732.000000 0 0 1
-36.110788 -1.657506 -1.030741 36.163501 0.045868 1.599302 0.209203 -0.054892 -897329.000000 0 0 1
-36.909798 -2.434906 -0.137941 36.990283 0.065874 1.574525 0.223420 -0.059992 -50254.900000 0 0 1
37.384690 -2.077706 -0.182541 37.442826 -0.055519 1.575672 0.185175 -0.049359 -326823.000000 0 0 1
36.328090 -2.989906 0.474659 36.454011 -0.082118 1.557775 0.209128 -0.057208 10717.000000 0 0 1
36.427900 -2.974406 1.867059 36.596788 -0.081471 1.519757 0.207773 -0.056213 75148.800000 0 0 1
35.633700 -4.009006 2.391959 35.938199 -0.112035 1.504190 0.209400 -0.047952 -283458.000000 0 0 1
35.716230 -4.290106 3.908659 36.184689 -0.119544 1.462565 0.195832 -0.039341 -43264.800000 0 0 1
35.055540 -3.241506 4.578359 35.501544 -0.092206 1.441474 0.183385 -0.036247 202967.000000 0 0 1
35.005840 -3.601806 5.955759 35.691076 -0.102531 1.403142 0.160260 -0.043539 -274772.000000 0 0 1
34.362120 -2.593506 6.887459 35.141409 -0.075333 1.373527 0.152710 -0.034096 1159870.000000 0 0 1
32.912840 -2.537306 6.847259 33.713171 -0.076940 1.366270 0.183747 -0.031440 1173150.000000 0 0 1
32.374240 -1.526606 7.642459 33.299086 -0.047120 1.339223 0.178529 -0.022650 -69292.600000 0 0 1
30.852820 -1.650206 7.818659 31.870850 -0.053435 1.322943 0.170252 -0.021531 -445764.000000 0 0 1
30.019840 -0.852506 6.978059 30.831978 -0.028390 1.342493 0.211580 -0.022530 227357.000000 0 0 1
28.630040 -0.955006 7.118159 29.517104 -0.033344 1.327242 0.198825 -0.011271 30167.800000 0 0 1
27.902940 -2.314406 6.940059 28.846056 -0.082755 1.327823 0.246096 -0.026292 -837207.000000 0 0 1
28.045740 -3.181906 8.025259 29.344383 -0.112971 1.293782 0.199351 -0.031806 518097.000000 0 0 1
27.396440 -4.375206 7.650359 28.779078 -0.158363 1.301731 0.205627 -0.046909 -232075.000000 0 0 1
27.672740 -5.421006 8.749259 29.524860 -0.193447 1.269943 0.179243 -0.039270 -188757.000000 0 0 1
26.929740 -5.065006 9.870859 29.125574 -0.185910 1.225041 0.177892 -0.038574 318206.000000 0 0 1
27.276740 -5.926406 10.919659 29.973018 -0.213944 1.197898 0.161006 -0.036173 -343461.000000 0 0 1
26.291940 -6.044606 12.107359 29.570112 -0.225977 1.148950 0.134204 -0.031033 -590815.000000 0 0 1
25.210840 -6.830906 11.736659 28.635588 -0.264598 1.148493 0.159113 -0.040927 -744010.000000 0 0 1
24.079540 -6.491606 12.500959 27.896938 -0.263330 1.106144 0.176566 -0.047490 -423187.000000 0 0 1
23.039840 -7.596706 12.471459 27.277857 -0.318495 1.095951 0.166158 -0.045523 -395281.000000 0 0 1
23.464240 -8.788306 13.075159 28.262425 -0.358368 1.089832 0.144984 -0.037224 -374599.000000 0 0 1
22.396640 -9.674506 13.132759 27.706947 -0.407753 1.076982 0.211180 -0.061788 -491871.000000 0 0 1
22.533940 -10.821006 14.122959 28.711158 -0.447690 1.056528 0.144247 -0.050408 -219589.000000 0 0 1
22.669740 -10.373806 15.495259 29.353637 -0.429161 1.014691 0.112569 -0.042641 354114.000000 0 0 1
22.980740 -11.474806 16.339359 30.442737 -0.463106 1.004246 0.092102 -0.038145 -266787.000000 0 0 1
22.962940 -11.027306 17.811759 31.083064 -0.447700 0.960589 0.101390 -0.030746 478859.000000 0 0 1
21.633040 -10.856006 18.303659 30.345761 -0.465107 0.923327 0.115961 -0.043816 411681.000000 0 0 1
21.440440 -11.209106 19.674259 31.183537 -0.481722 0.888060 0.139525 -0.038253 9278.560000 0 0 1
21.924440 -10.275006 20.782959 31.909061 -0.438259 0.861476 0.127978 -0.034184 -202073.000000 0 0 1
21.135640 -9.111806 21.027359 31.175152 -0.407035 0.830521 0.130808 -0.031099 87867.100000 0 0 1
21.501640 -7.951206 20.315559 30.631098 -0.354200 0.845666 0.138673 -0.032919 -187887.000000 0 0 1
22.743440 -7.137406 20.792259 31.631071 -0.304089 0.853517 0.114566 -0.026480 726301.000000 0 0 1
24.042840 -7.687106 20.732159 32.664540 -0.309454 0.883177 0.120005 -0.027480 336766.000000 0 0 1
24.603540 -7.867306 19.444059 32.331101 -0.309488 0.925539 0.127239 -0.036532 -200814.000000 0 0 1
25.950440 -8.654606 19.449059 33.564765 -0.321905 0.952744 0.101359 -0.025763 35962.000000 0 0 1
25.849040 -10.035606 19.689059 34.008018 -0.370327 0.953352 0.074031 -0.030058 570756.000000 0 0 1
27.118040 -10.671006 19.526859 35.079291 -0.374892 0.980449 0.068266 -0.028353 574772.000000 0 0 1
26.956240 -12.199306 19.749059 35.573688 -0.424980 0.982242 0.030111 -0.012639 263214.000000 0 0 1
26.044640 -12.782606 18.826559 34.585512 -0.456257 0.995184 0.067723 -0.024134 329386.000000 0 0 1
25.898140 -14.180306 18.995459 35.108720 -0.500954 0.999115 0.039792 -0.015743 -512974.000000 0 0 1
24.848540 -14.782906 18.095959 34.109353 -0.536676 1.011573 0.072412 -0.017531 -910275.000000 0 0 1
25.206840 -14.774106 16.697759 33.652253 -0.530147 1.051597 0.094004 -0.022400 264636.000000 0 0 1
24.194040 -15.173906 15.797959 32.637011 -0.560162 1.065519 0.094513 -0.022526 -10485.700000 0 0 1
23.687340 -16.646206 15.841759 33.002236 -0.612567 1.070118 0.063980 -0.021589 -349985.000000 0 0 1
24.753040 -17.505106 15.542159 34.069054 -0.615535 1.097081 0.110320 -0.026517 -105762.000000 0 0 1
24.622640 -18.794006 16.094859 34.907500 -0.651947 1.091594 0.073207 -0.017387 63225.200000 0 0 1
26.006340 -19.494306 16.089859 36.266255 -0.643244 1.111119 0.067510 -0.011600 164136.000000 0 0 1
26.447340 -19.718806 14.775059 36.146860 -0.640671 1.149711 0.090861 -0.031118 318701.000000 0 0 1
27.319340 -20.868106 14.738459 37.403828 -0.652312 1.165777 0.104766 -0.030900 127208.000000 0 0 1
27.846140 -21.169506 13.329159 37.432900 -0.650017 1.206725 0.096883 -0.052160 -270160.000000 0 0 1
26.853340 -21.619906 12.423359 36.645082 -0.677849 1.224923 0.104857 -0.038620 136792.000000 0 0 1
26.961040 -21.002906 11.150659 35.949366 -0.661810 1.255417 0.119528 -0.041323 -296888.000000 0 0 1
25.630240 -20.970906 10.394459 34.709262 -0.685746 1.266657 0.082724 -0.032183 -210131.000000 0 0 1
25.225540 -22.232406 9.890459 35.048951 -0.722412 1.284720 0.061436 -0.035178 246559.000000 0 0 1
23.802740 -22.260506 9.798659 34.031078 -0.751930 1.278729 0.053599 -0.023909 474192.000000 0 0 1
23.231040 -23.172606 8.735559 33.955278 -0.784139 1.310604 0.042067 -0.020353 -179763.000000 0 0 1
23.462940 -24.542306 9.050659 35.138992 -0.807879 1.310293 0.037445 -0.020119 6162.470000 0 0 1
23.180940 -25.233556 7.858859 35.154658 -0.827770 1.345340 0.042239 -0.006946 -301588.000000 0 0 1
21.818140 -25.899396 7.593859 34.705571 -0.870720 1.350204 0.053889 -0.002106 -53051.500000 0 0 1
20.882440 -24.895706 7.265159 33.296472 -0.872842 1.350831 0.059027 -0.004441 206331.000000 0 0 1
19.530640 -25.374006 7.185559 32.816434 -0.914799 1.350046 0.071594 -0.026053 987082.000000 0 0 1
18.508740 -24.213306 7.207459 31.317808 -0.918140 1.338575 0.070545 -0.025460 -182061.000000 0 0 1
18.388740 -23.394006 6.014559 30.357869 -0.904623 1.371355 0.080244 -0.015747 -52477.500000 0 0 1
17.405540 -22.407106 6.194059 29.041309 -0.910371 1.355861 0.082727 -0.012129 -57517.600000 0 0 1
16.943340 -21.715406 4.848859 27.966892 -0.908218 1.396537 0.101324 -0.005983 -49288.200000 0 0 1
16.263940 -20.479706 5.120259 26.648662 -0.899633 1.377455 0.130375 -0.013144 43800.500000 0 0 1
15.767440 -19.896306 3.966959 25.694590 -0.900657 1.415787 0.134386 -0.013585 56213.200000 0 0 1
15.002040 -18.574506 4.177359 24.238891 -0.891397 1.397590 0.138047 -0.006706 -40444.000000 0 1 0
15.895940 -17.581606 4.562959 24.137406 -0.835708 1.380611 0.104268 -0.008181 -81330.200000 0 1 0
15.276840 -16.323506 4.593759 22.824139 -0.818508 1.368145 0.089556 -0.003279 -282332.000000 0 1 0
16.259840 -15.192206 4.845259 22.774153 -0.751466 1.356405 0.086180 -0.007546 -475746.000000 0 1 0
16.911840 -15.354806 6.113259 23.646402 -0.737180 1.309298 0.122925 -0.016159 681376.000000 0 1 0
18.016540 -14.501906 6.391559 23.994854 -0.677735 1.301169 0.130547 -0.010877 640750.000000 0 1 0
19.383640 -14.809906 5.729759 25.057713 -0.652427 1.340093 0.169637 -0.040262 48198.800000 0 0 1
20.293440 -13.717806 5.786159 25.169059 -0.594417 1.338830 0.165555 -0.040494 -40561.700000 0 0 1
21.496640 -13.922806 5.113759 26.117056 -0.574738 1.373722 0.164451 -0.038173 -204903.000000 0 0 1
22.382340 -12.654206 5.103059 26.213342 -0.514564 1.374871 0.159895 -0.035736 -126249.000000 0 0 1
22.821340 -12.183906 6.354559 26.639098 -0.490385 1.329932 0.202268 -0.050468 986119.000000 0 0 1
23.731740 -11.063006 6.134559 26.892720 -0.436219 1.340658 0.190519 -0.055027 495765.000000 0 0 1
24.090840 -10.313806 7.457959 27.246363 -0.404512 1.293534 0.208301 -0.054036 147177.000000 0 0 1
24.817940 -11.199006 8.330559 28.473603 -0.423890 1.273882 0.209497 -0.038539 576279.000000 0 0 1
24.749440 -10.716606 9.662959 28.648791 -0.408631 1.226759 0.224161 -0.055890 184600.000000 0 0 1
25.255740 -11.828406 10.616759 29.840897 -0.438005 1.207049 0.185416 -0.049847 694182.000000 0 0 1
24.148040 -12.698206 10.883659 29.373905 -0.484112 1.191226 0.201113 -0.054991 1049330.000000 0 0 1
24.554140 -13.680006 11.811559 30.488707 -0.508306 1.172978 0.201337 -0.051450 -376251.000000 0 0 1
23.459740 -14.691806 12.048159 30.188851 -0.559502 1.160269 0.176652 -0.056647 -147608.000000 0 0 1
22.365240 -14.214106 12.836159 29.445063 -0.566146 1.119718 0.155413 -0.049586 581712.000000 0 0 1
21.401140 -15.278706 12.967359 29.318937 -0.620007 1.112650 0.125734 -0.048381 1211390.000000 0 0 1
20.134540 -14.769306 13.796059 28.528290 -0.632877 1.066042 0.121405 -0.047994 275379.000000 0 0 1
20.476440 -14.346906 15.070059 29.192893 -0.611165 1.028361 0.117313 -0.046494 195385.000000 0 0 1
19.904140 -13.134706 15.515159 28.450228 -0.583302 0.993997 0.134518 -0.058170 416437.000000 0 0 1
18.354040 -12.874406 15.553559 27.286156 -0.611697 0.964270 0.174266 -0.057685 1152850.000000 0 0 1
17.678540 -12.745006 14.234059 26.030259 -0.624636 0.992226 0.182615 -0.070453 1289940.000000 0 0 1
16.253240 -12.677106 14.302059 25.088358 -0.662410 0.964208 0.223102 -0.069339 903920.000000 0 0 1
15.534840 -11.274506 14.142459 23.842292 -0.627804 0.935809 0.179444 -0.067580 -35890.300000 0 1 0
15.737540 -10.357106 15.188459 24.199775 -0.582059 0.892294 0.167230 -0.053642 147944.000000 0 1 0
15.394840 -9.063506 14.836359 23.222097 -0.532096 0.877742 0.152393 -0.048948 -703196.000000 0 1 0
15.883440 -8.109606 15.902459 23.894300 -0.472068 0.842588 0.165682 -0.043517 454870.000000 0 1 0
17.305640 -7.985006 15.840859 24.782621 -0.432302 0.877349 0.166242 -0.051808 613661.000000 0 1 0
18.001040 -8.680306 16.857459 26.144963 -0.449316 0.870075 0.170772 -0.047466 506905.000000 0 0 1
19.557540 -8.605506 16.759759 27.155876 -0.414515 0.905657 0.142759 -0.037594 400374.000000 0 0 1
20.127440 -7.358206 16.986859 27.346122 -0.350487 0.900549 0.123098 -0.045908 37279.800000 0 0 1
21.395440 -7.311006 16.366659 27.912062 -0.329269 0.944232 0.113353 -0.037904 -124419.000000 0 0 1
22.182540 -6.017606 16.570459 28.334727 -0.264901 0.946149 0.109562 -0.037083 -172141.000000 0 0 1
22.754840 -5.834206 17.834659 29.493995 -0.250988 0.921423 0.133453 -0.036607 -102962.000000 0 0 1
23.378140 -4.648706 18.089359 29.922781 -0.196288 0.921615 0.148162 -0.039071 -246567.000000 0 0 1
-5.623408 -32.537897 -6.108941 33.580599 1.399660 1.753734 0.066137 -0.024929 32202.200000 0 0 1
-6.370708 -31.352997 -6.318641 32.611678 1.370332 1.765783 0.070470 -0.027368 23879.400000 0 0 1
-5.881808 -30.308597 -5.525641 31.364621 1.379115 1.747895 0.096014 -0.037430 -283253.000000 0 0 1
-6.706008 -28.958597 -5.645141 30.256214 1.343235 1.758474 0.101092 -0.040272 1209000.000000 0 0 1
-8.084308 -28.914097 -5.280841 30.483903 1.298161 1.744908 0.093565 -0.041535 559939.000000 0 0 1
-8.989108 -29.660297 -6.063841 31.580175 1.276527 1.764010 0.089024 -0.034168 -1519500.000000 0 0 1
-10.411008 -29.451097 -5.645941 31.743233 1.231005 1.749611 0.099167 -0.028107 -763679.000000 0 0 1
-11.389208 -30.015597 -6.505141 32.756175 1.208136 1.770718 0.089687 -0.029229 131420.000000 0 0 1
-12.712108 -29.845997 -6.024941 32.995168 1.168144 1.754427 0.095952 -0.030848 397751.000000 0 0 1
-13.769708 -30.520097 -6.921541 34.190480 1.146971 1.774646 0.103461 -0.033944 16963.000000 0 0 1
-14.014608 -29.902297 -8.163241 34.017571 1.132517 1.813133 0.132432 -0.039832 -419521.000000 0 0 1
-15.098408 -30.442997 -8.846041 35.113964 1.110389 1.825464 0.162502 -0.044241 -156118.000000 0 0 1
-15.165608 -29.709197 -10.222041 34.887278 1.098809 1.868161 0.173054 -0.038759 -56133.500000 0 0 1
-15.678708 -28.397197 -10.199341 34.003665 1.066326 1.875435 0.176594 -0.042635 456434.000000 0 0 1
-14.675408 -27.414897 -9.901341 32.634043 1.079303 1.879061 0.150679 -0.039830 188838.000000 0 0 1
-15.200908 -25.986497 -9.559441 31.587158 1.041513 1.878254 0.137852 -0.028558 -78107.100000 0 0 1
-15.748008 -25.222597 -10.593641 31.565874 1.012657 1.913043 0.159980 -0.037415 218134.000000 0 0 1
-15.993108 -23.891097 -10.164541 30.493965 0.980892 1.910629 0.128401 -0.015069 90256.600000 0 0 1
-16.738708 -23.095897 -11.326841 30.690424 0.943653 1.948802 0.137985 -0.015898 -237004.000000 0 0 1
-18.086608 -23.467997 -11.432641 31.758110 0.914183 1.939055 0.153094 -0.028111 -292809.000000 0 0 1
-18.609608 -22.940897 -12.629141 32.126274 0.889265 1.974807 0.161194 -0.031303 934084.000000 0 0 1
-20.156008 -23.186497 -12.908541 33.324297 0.855204 1.968564 0.141792 -0.018155 1177790.000000 0 0 1
-20.547008 -24.481697 -13.206141 34.582296 0.872559 1.962621 0.176583 -0.024440 35955.500000 0 0 1
-20.439908 -25.425597 -12.143141 34.809578 0.893675 1.927135 0.194988 -0.032371 -1605920.000000 0 0 1
-20.407908 -26.906397 -12.581341 36.037856 0.921891 1.927422 0.186189 -0.042414 1967150.000000 0 0 1
-19.212308 -27.437097 -13.296941 36.037699 0.959915 1.948700 0.189707 -0.047108 1573990.000000 0 0 1
-17.937508 -27.031597 -12.865441 34.899585 0.984937 1.948344 0.201803 -0.050070 -898443.000000 0 0 1
-16.845408 -28.021097 -13.256441 35.280064 1.029518 1.956001 0.174568 -0.046720 -402775.000000 0 0 1
-16.773008 -28.115197 -14.656841 35.869501 1.032894 1.991733 0.180350 -0.054977 -208564.000000 0 0 1
-15.809208 -29.021897 -15.089041 36.330163 1.072005 1.999103 0.183561 -0.052437 -56285.300000 0 0 1
-16.366708 -30.503597 -15.105441 37.769206 1.078338 1.982248 0.178867 -0.060721 214547.000000 0 0 1
-16.634208 -31.205797 -13.905141 37.998047 1.081061 1.945443 0.171693 -0.055569 176909.000000 0 0 1
-16.999208 -32.562097 -14.028441 39.319975 1.089661 1.935611 0.160659 -0.051659 -784674.000000 0 0 1
-17.558108 -33.212697 -12.658041 39.643365 1.084487 1.895785 0.214010 -0.051163 29008.900000 0 0 1
-18.866108 -32.961997 -12.209341 39.893499 1.050949 1.881836 0.224800 -0.053051 76076.300000 0 0 1
-19.376208 -31.619597 -12.311141 39.074295 1.021025 1.891327 0.218314 -0.056154 -584080.000000 0 0 1
-18.876708 -30.529397 -11.292741 37.628449 1.017020 1.875606 0.220956 -0.052698 -233867.000000 0 0 1
-19.471408 -30.727497 -10.038941 37.737185 1.005979 1.840061 0.221443 -0.058958 127915.000000 0 0 1
-19.275308 -29.616397 -9.191141 36.512266 0.993836 1.825261 0.218842 -0.051725 76031.800000 0 0 1
-19.501008 -29.975097 -7.727741 36.585704 0.994018 1.783622 0.203112 -0.049671 57932.000000 0 0 1
-18.465908 -30.739097 -7.164141 36.567838 1.029840 1.767985 0.208967 -0.048985 -81231.400000 0 0 1
-18.677508 -30.901697 -5.763541 36.564773 1.027135 1.729082 0.197690 -0.059478 -130985.000000 0 0 1
-17.899808 -32.041397 -5.038441 37.046459 1.061339 1.707222 0.185591 -0.044864 -23193.200000 0 0 1
-16.543508 -31.759897 -4.814841 36.132553 1.090574 1.704449 0.159387 -0.039428 -60149.300000 0 0 1
-16.433808 -31.665897 -3.414741 35.839357 1.092084 1.666220 0.136724 -0.038654 449618.000000 0 0 1
-15.121208 -31.025897 -2.836541 34.630957 1.117301 1.652796 0.121763 -0.029973 1266190.000000 0 0 1
-13.895608 -31.732097 -3.107541 34.780321 1.158047 1.660263 0.100412 -0.034007 848859.000000 0 0 1
-12.786208 -30.897497 -2.736541 33.550426 1.178428 1.652452 0.098940 -0.027153 -407991.000000 0 0 1
-11.521008 -31.693597 -2.662341 33.827589 1.222135 1.649581 0.088303 -0.031875 -1213510.000000 0 0 1
-11.404708 -32.498897 -1.497641 34.474463 1.233297 1.614252 0.096729 -0.022068 -113577.000000 0 0 1
-10.223408 -33.261797 -1.380041 34.824843 1.272599 1.610435 0.130247 -0.029081 -188128.000000 0 0 1
-9.026308 -32.650397 -0.678441 33.881897 1.301080 1.590821 0.156656 -0.036285 -419124.000000 0 0 1
-9.286208 -32.384497 0.680559 33.696475 1.291541 1.550598 0.157891 -0.033256 977672.000000 0 0 1
-8.092308 -31.909097 1.381359 32.948203 1.322428 1.528859 0.170345 -0.035893 1662290.000000 0 0 1
-7.146908 -32.895697 2.115459 33.729517 1.356861 1.508037 0.181111 -0.047889 -198962.000000 0 0 1
-7.805708 -33.572997 3.166359 34.613596 1.342355 1.479191 0.188393 -0.051575 -160934.000000 0 0 1
-7.075008 33.154494 3.905259 34.125170 -1.360555 1.456106 0.184944 -0.048296 -95985.700000 0 0 1
-6.064208 33.559694 4.979559 34.464818 -1.392026 1.425806 0.199596 -0.051905 -186426.000000 0 0 1
-5.000508 -33.419597 4.439559 34.082022 1.422270 1.440164 0.211823 -0.058980 -730534.000000 0 0 1
-3.907108 -33.284897 5.308959 33.931326 1.453947 1.413689 0.201336 -0.065899 67524.400000 0 0 1
-2.673708 -32.655397 4.617359 33.088422 1.489102 1.430793 0.213117 -0.061952 -14383.100000 0 0 1
-2.727508 -31.265797 4.333859 31.682356 1.483780 1.433575 0.198214 -0.048497 -17486.000000 0 0 1
-3.451808 -30.928797 3.158459 31.280686 1.459651 1.469652 0.195064 -0.059285 60936.400000 0 0 1
-3.443808 -29.438897 2.784659 29.770166 1.454344 1.477121 0.169779 -0.058621 650901.000000 0 0 1
-2.216908 -28.968997 2.205759 29.137310 1.494418 1.495022 0.124697 -0.043128 334621.000000 0 0 1
-2.400108 -27.733297 1.583359 27.881953 1.484469 1.513978 0.117948 -0.035858 200985.000000 0 0 1
-2.613908 -26.456097 2.437159 26.696391 1.472314 1.479377 0.102863 -0.038273 -300309.000000 0 0 1
-3.119808 -25.462297 1.636659 25.704871 1.448877 1.507082 0.113377 -0.043167 -409553.000000 0 0 1
-3.372708 -24.177597 2.147459 24.505977 1.432193 1.483054 0.089899 -0.037413 283819.000000 0 1 0
-4.488608 -24.057897 3.232659 24.685625 1.386342 1.439466 0.078440 -0.026034 -2240.470000 0 1 0
-4.109208 -24.566197 4.491359 25.309206 1.405060 1.392392 0.078809 -0.023098 -392123.000000 0 0 1
-5.115608 -24.264997 5.410459 25.381737 1.363016 1.355985 0.067884 -0.017938 -166876.000000 0 0 1
-5.694308 -25.499097 6.149359 26.841082 1.351087 1.339641 0.094535 -0.029993 159356.000000 0 0 1
-4.809808 -26.270197 6.934959 27.592592 1.389712 1.316738 0.070838 -0.025619 29875.700000 0 0 1
-5.627808 -26.920797 7.884559 28.610624 1.364714 1.291602 0.091574 -0.032318 337790.000000 0 0 1
-4.819408 -27.114997 9.138959 29.016725 1.394894 1.250387 0.092174 -0.031823 -54907.400000 0 0 1
-4.618208 -26.022997 10.006559 28.260492 1.395159 1.208863 0.078756 -0.034111 7783.720000 0 0 1
-5.777808 -25.554497 10.678659 28.292210 1.348437 1.183764 0.087046 -0.034128 244738.000000 0 0 1
-5.356808 -24.489397 11.765859 27.692262 1.355448 1.131968 0.068879 -0.030326 369130.000000 0 0 1
-4.764508 -24.946897 12.966259 28.516172 1.382083 1.098763 0.073995 -0.029943 -237924.000000 0 0 1
-3.916108 -23.939797 13.521159 27.771775 1.408651 1.062297 0.053613 -0.033894 -370217.000000 0 0 1
-2.942908 -24.594697 14.466959 28.685409 1.451706 1.042189 0.044372 -0.037568 -710340.000000 0 0 1
-3.423208 -25.049797 15.720159 29.771363 1.434981 1.014518 0.055774 -0.045062 -284788.000000 0 0 1
-2.429208 -25.841697 16.308859 30.654090 1.477068 1.009802 0.086473 -0.039615 138590.000000 0 0 1
-2.799708 -26.215097 17.747659 31.781269 1.464402 0.978303 0.111445 -0.038095 134030.000000 0 0 1
-2.670708 -25.130297 18.655459 31.411632 1.464919 0.934895 0.114343 -0.031985 -356578.000000 0 0 1
-3.222508 -25.457197 19.903259 32.474500 1.444881 0.911085 0.149656 -0.041129 -105793.000000 0 0 1
-2.784508 -24.589197 21.077959 32.506345 1.458036 0.865281 0.140302 -0.047212 -432574.000000 0 0 1
-1.511208 -24.879997 21.588259 32.975004 1.510131 0.857030 0.096094 -0.056700 -322452.000000 0 0 1
-0.940808 -23.956997 22.524759 32.896619 1.531546 0.816586 0.108736 -0.050835 515148.000000 0 0 1
-0.490008 -22.555197 22.026759 31.530225 1.549075 0.797369 0.119384 -0.060244 -352485.000000 0 0 1
-1.557508 -21.677797 21.779659 30.768592 1.499071 0.784341 0.155802 -0.056534 -486372.000000 0 0 1
-1.142808 -20.459997 21.117259 29.425433 1.514999 0.770370 0.157310 -0.050561 323469.000000 0 0 1
-2.283208 -19.482497 20.716659 28.529996 1.454136 0.758111 0.145967 -0.035373 -279885.000000 0 0 1
-2.959308 -18.747297 21.756759 28.871702 1.414236 0.717325 0.166354 -0.059971 1219880.000000 0 0 1
-4.337608 -19.079597 22.027559 29.462845 1.347253 0.726297 0.171897 -0.066487 1844440.000000 0 0 1
-5.419108 -18.859897 20.873259 28.648829 1.290999 0.754535 0.145759 -0.063111 185111.000000 0 0 1
-5.238008 -19.734997 19.731159 28.394110 1.311361 0.802511 0.154815 -0.059925 -326142.000000 0 0 1
-5.801208 -21.002797 19.971159 29.557041 1.301304 0.828907 0.158918 -0.056458 -46741.100000 0 0 1
-5.749608 -21.849397 18.658159 29.301553 1.313483 0.880503 0.115626 -0.056225 89760.900000 0 0 1
-6.409408 -23.077097 18.740859 30.411391 1.299886 0.906831 0.106444 -0.057571 -336432.000000 0 0 1
-6.436308 -23.777097 17.530359 30.233919 1.306438 0.952283 0.087422 -0.046676 221515.000000 0 0 1
-6.953308 -25.244597 17.579259 31.538366 1.302023 0.979554 0.081535 -0.042184 1480600.000000 0 0 1
-8.382608 -25.249097 17.808659 32.014580 1.250250 0.980909 0.096458 -0.043363 567675.000000 0 0 1
-8.938708 -26.541797 17.571159 33.062261 1.245948 1.010477 0.087596 -0.039385 287731.000000 0 0 1
-10.453608 -26.588097 17.865459 33.695392 1.196193 1.011954 0.085763 -0.037786 -66654.700000 0 0 1
-11.226108 -25.848697 16.918259 32.869562 1.161074 1.030128 0.098848 -0.040132 748617.000000 0 0 1
-12.643508 -25.845097 17.174759 33.508203 1.115823 1.032640 0.107217 -0.035854 1247990.000000 0 0 1
-13.053908 -24.787597 18.256559 33.438472 1.086072 0.993244 0.101804 -0.044462 -617732.000000 0 0 1
-12.973308 -23.445697 17.821259 32.180813 1.065397 0.983893 0.097964 -0.032120 -54393.000000 0 0 1
-13.122708 -22.569497 18.893959 32.226842 1.044139 0.944337 0.098473 -0.037212 234172.000000 0 0 1
-11.768608 -22.057897 19.474959 31.691087 1.080684 0.909013 0.102869 -0.037008 189001.000000 0 0 1
-11.175308 -22.939697 20.360759 32.644719 1.117473 0.897319 0.108873 -0.042152 -997895.000000 0 0 1
-9.799108 -22.815597 20.266959 32.051889 1.165127 0.886256 0.129612 -0.054749 -468861.000000 0 0 1
-8.945008 -23.705297 21.220259 33.049261 1.209974 0.873588 0.128480 -0.061402 179452.000000 0 0 1
-8.986908 -23.175997 22.556159 33.565930 1.200879 0.833896 0.134756 -0.058650 -7600.780000 0 0 1
-8.385708 -24.002197 23.515259 34.632253 1.234681 0.824398 0.130597 -0.060197 -363588.000000 0 0 1
-7.941808 -23.337397 24.788059 34.959323 1.242785 0.782640 0.143595 -0.049022 123501.000000 0 0 1
-7.011008 -24.108297 25.523359 35.802319 1.287789 0.777176 0.175924 -0.046003 -152640.000000 0 0 1
-6.591308 -23.443097 26.692059 36.131567 1.296710 0.739588 0.188170 -0.056061 -291766.000000 0 0 1
-5.341008 -24.076997 27.291059 36.783557 1.352501 0.734842 0.208289 -0.053767 300835.000000 0 0 1
-4.103308 -23.903597 26.597359 35.994980 1.400793 0.739332 0.198675 -0.049083 85464.100000 0 0 1
-3.019008 -24.020797 27.493159 36.633139 1.445769 0.721978 0.182909 -0.041258 962323.000000 0 0 1
-1.665608 -23.551697 26.809159 35.723769 1.500193 0.722043 0.162171 -0.033665 291008.000000 0 0 1
-1.620308 -22.195897 26.478659 34.589053 1.497925 0.698945 0.156379 -0.039464 -263276.000000 0 0 1
-0.435908 -21.783897 25.838359 33.798653 1.550788 0.700564 0.143055 -0.039599 12086.600000 0 0 1
0.727892 -21.407697 26.759559 34.276717 -1.536808 0.675024 0.106926 -0.019348 -394485.000000 0 0 1
1.104592 -22.463797 27.615659 35.615543 -1.521664 0.683476 0.109023 -0.023369 -47045.600000 0 0 1
2.108692 -22.123997 28.563059 36.190691 -1.475771 0.661230 0.083833 -0.029201 110253.000000 0 0 1
2.625392 -23.357397 29.375659 37.621669 -1.458865 0.674823 0.102792 -0.036491 -648967.000000 0 0 1
3.468192 -24.227097 28.684559 37.706558 -1.428609 0.706357 0.086431 -0.033857 -50958.300000 0 0 1
4.147392 -25.158397 29.481159 38.978000 -1.407415 0.713075 0.082162 -0.021978 -363379.000000 0 0 1
5.384692 -24.665097 30.246959 39.398482 -1.355856 0.695523 0.070823 -0.028827 211660.000000 0 0 1
6.583192 -24.334897 29.512959 38.814177 -1.306595 0.706921 0.084342 -0.027315 991762.000000 0 0 1
7.423292 -25.426797 29.195359 39.420759 -1.286743 0.736820 0.069682 -0.023098 -520278.000000 0 0 1
8.701592 -24.991797 28.460459 38.862647 -1.235746 0.749052 0.066540 -0.018635 -333313.000000 0 0 1
8.502192 -24.259297 27.246359 37.458842 -1.233702 0.756318 0.069354 -0.026267 -627351.000000 0 0 1
9.690692 -23.920297 26.604059 37.065699 -1.185880 0.770225 0.075588 -0.016154 -483708.000000 0 0 1
9.578592 -22.874997 25.476259 35.553546 -1.174243 0.771938 0.093850 -0.013381 300428.000000 0 0 1
8.760992 -23.310197 24.373459 34.845168 -1.211286 0.796128 0.081186 -0.013430 380336.000000 0 0 1
8.418892 -22.197397 23.482059 33.391754 -1.208284 0.790867 0.088718 -0.019717 -60226.800000 0 0 1
7.614092 -22.550397 22.243959 32.577423 -1.245168 0.819204 0.089386 -0.016969 -329396.000000 0 0 1
8.292992 -23.359097 21.310659 32.688917 -1.229655 0.860679 0.074245 -0.016573 -316670.000000 0 0 1
7.769692 -23.268297 20.044059 31.678795 -1.248520 0.885725 0.091494 -0.010413 -52669.600000 0 0 1
8.564892 -24.102597 18.998559 31.862796 -1.229362 0.931960 0.129314 -0.027584 938382.000000 0 0 1
9.780692 -23.486697 18.539359 31.480068 -1.176202 0.941070 0.125094 -0.028486 541840.000000 0 0 1
10.607992 -24.437097 17.845959 32.065237 -1.161248 0.980567 0.142800 -0.037353 -54973.800000 0 0 1
11.945892 -23.799297 17.469259 31.847855 -1.105595 0.990200 0.117669 -0.039074 -388738.000000 0 0 1
11.856392 -22.872797 16.444359 30.563962 -1.092567 1.002697 0.118154 -0.028694 -242310.000000 0 0 1
13.109392 -22.360397 16.049159 30.486374 -1.040528 1.016392 0.112810 -0.035992 -1259.250000 0 0 1
-12.707008 22.228594 10.815659 27.794908 -1.051482 1.171116 0.064608 -0.022299 -222985.000000 0 0 1
-13.785308 21.324494 10.857059 27.616019 -0.996918 1.166748 0.046557 -0.037554 -14021.200000 0 0 1
-13.331208 20.085694 10.340759 26.231422 -0.984839 1.165585 0.080626 -0.046736 255779.000000 0 0 1
-14.356308 19.510594 9.324359 25.955934 -0.936432 1.203345 0.097431 -0.045241 -287569.000000 0 0 1
-14.359308 20.290494 8.151659 26.159958 -0.954930 1.253911 0.104766 -0.049493 101614.000000 0 0 1
-15.017208 19.877794 6.934259 25.859760 -0.923799 1.299326 0.105625 -0.041621 633972.000000 0 0 1
-16.569208 19.708594 6.923759 26.662816 -0.871720 1.308107 0.100824 -0.043940 264666.000000 0 0 1
-16.965708 18.683194 7.835459 26.425204 -0.833539 1.269755 0.094699 -0.051323 -397366.000000 0 0 1
-18.264908 18.968494 8.281859 27.604344 -0.804293 1.266083 0.092769 -0.041319 -331102.000000 0 0 1
-18.934308 17.926994 9.199559 27.649901 -0.758078 1.231614 0.080550 -0.038162 -127102.000000 0 0 1
-19.275408 16.747194 8.493259 26.909948 -0.715329 1.249689 0.101087 -0.037247 -18109.300000 0 0 1
-19.685308 15.728094 9.386159 26.888367 -0.674116 1.214208 0.097871 -0.041263 50426.200000 0 0 1
-18.617608 15.088794 10.371659 26.112417 -0.681085 1.162341 0.086319 -0.032294 331270.000000 0 0 1
-17.823308 14.124294 9.702559 24.724596 -0.670128 1.167529 0.070085 -0.017005 -462385.000000 0 1 0
-16.875708 13.532494 10.510759 24.049823 -0.675893 1.118490 0.069234 -0.022391 -341647.000000 0 1 0
-17.406108 12.335494 11.429759 24.202818 -0.616533 1.078956 0.058553 -0.015833 -12181.800000 0 1 0
-17.980508 11.361094 10.552459 23.742947 -0.563514 1.110241 0.036612 -0.017232 -5780.970000 0 1 0
-18.957008 10.680994 11.302059 24.519142 -0.513097 1.091733 0.061461 -0.014787 38288.900000 0 1 0
-20.024008 9.847594 10.548559 24.682141 -0.457058 1.129208 0.060771 -0.010315 67590.400000 0 1 0
-19.492808 8.764094 9.788759 23.507418 -0.422527 1.141302 0.054147 -0.015208 217533.000000 0 1 0
-19.070508 9.135494 8.511459 22.794439 -0.446738 1.188124 0.066449 -0.017424 -28842.400000 0 1 0
-20.199208 9.214194 7.413059 23.406470 -0.427970 1.248538 0.086587 -0.023626 320977.000000 0 1 0
-20.737408 7.963794 7.150259 23.336416 -0.366664 1.259388 0.079598 -0.026649 257373.000000 0 1 0
-21.482908 7.940694 5.962659 23.666924 -0.354053 1.316111 0.105758 -0.030845 -187882.000000 0 1 0
-21.721508 6.505994 5.404659 23.310131 -0.291015 1.336808 0.120662 -0.030380 207291.000000 0 1 0
-22.709908 5.741694 6.118859 24.210482 -0.247638 1.315289 0.147122 -0.028771 672939.000000 0 1 0
-22.639408 4.388794 5.806259 23.780601 -0.191481 1.324143 0.169490 -0.045395 249985.000000 0 1 0
-24.047808 3.734894 5.890559 25.038874 -0.154080 1.333314 0.228982 -0.039716 258026.000000 0 0 1
-24.953808 4.007394 4.838559 25.732536 -0.159233 1.381638 0.236318 -0.042794 71528.000000 0 0 1
-25.906608 2.973194 4.808759 26.516342 -0.114266 1.388437 0.240060 -0.048332 -377232.000000 0 0 1
-27.052368 3.209494 3.791559 27.504680 -0.118088 1.432505 0.249082 -0.046973 -321393.000000 0 0 1
-26.682038 3.216394 2.447259 26.986394 -0.119966 1.479987 0.241686 -0.042087 689284.000000 0 0 1
-27.839368 3.084694 1.601859 28.055511 -0.110353 1.513669 0.229287 -0.038325 566106.000000 0 0 1
-27.531668 3.086094 0.062259 27.704162 -0.111627 1.568549 0.245971 -0.038045 -542998.000000 0 0 1
-27.336188 4.386394 -0.421141 27.689077 -0.159105 1.586007 0.257280 -0.040378 118597.000000 0 0 1
-27.582578 4.607694 -1.789541 28.021990 -0.165522 1.634702 0.308870 -0.033748 -247722.000000 0 0 1
-29.067458 4.718594 -2.160141 29.527080 -0.160929 1.644020 0.278759 -0.046882 -345297.000000 0 0 1
-29.767308 3.503794 -2.138741 30.049017 -0.117167 1.642032 0.216705 -0.045353 -713553.000000 0 0 1
-31.141718 3.673594 -2.039041 31.423870 -0.117421 1.635730 0.178386 -0.015399 -1087280.000000 0 0 1
-31.851208 2.342794 -2.212441 32.013795 -0.073422 1.639960 0.137577 -0.008828 -588743.000000 0 0 1
-31.841058 2.038794 -3.599541 32.108665 -0.063943 1.683137 0.131061 -0.028200 37953.900000 0 0 1
-32.643078 0.954394 -3.888841 32.887756 -0.029229 1.689319 0.143442 -0.035390 -512313.000000 0 0 1
-32.747408 0.568494 -5.350741 33.186539 -0.017358 1.732735 0.148099 -0.027311 150278.000000 0 0 1
-31.468038 0.265894 -5.911241 32.019540 -0.008449 1.756475 0.170159 -0.044869 565185.000000 0 0 1
-31.496978 -0.351606 -7.172341 32.305197 0.011163 1.794680 0.187223 -0.046324 -237385.000000 0 0 1
-31.915358 0.591194 -8.323141 32.988093 -0.018522 1.825860 0.181623 -0.044530 603053.000000 0 0 1
-33.350698 0.660094 -8.334841 34.382763 -0.019790 1.815649 0.176562 -0.038600 998934.000000 0 0 1
-33.822508 1.609994 -9.324641 35.121263 -0.047565 1.839517 0.183121 -0.029824 223574.000000 0 0 1
-35.358994 1.797394 -9.318341 36.610389 -0.050789 1.828155 0.180924 -0.024231 201803.000000 0 0 1
-35.743856 2.456194 -8.114941 36.735656 -0.068609 1.793534 0.147763 -0.019999 93487.200000 0 0 1
-37.136848 2.475594 -7.898541 38.048141 -0.066563 1.779910 0.146521 -0.013177 -181820.000000 0 0 1
-37.501788 3.087894 -6.529441 38.191005 -0.082155 1.742608 0.166070 -0.016679 109654.000000 0 0 1
36.725610 3.027694 -6.409341 37.403436 0.082255 1.743003 0.171908 -0.020737 329149.000000 0 0 1
36.332320 3.747994 -5.261541 36.902151 0.102795 1.713865 0.171336 -0.020609 982838.000000 0 0 1
34.814040 3.500294 -4.906341 35.331878 0.100206 1.710111 0.202804 -0.026451 996856.000000 0 0 1
34.703740 2.258494 -4.224141 35.032752 0.064988 1.691667 0.195536 -0.025944 822400.000000 0 0 1
33.432320 1.589794 -4.396741 33.757648 0.047517 1.701412 0.237605 -0.035055 935100.000000 0 0 1
33.262090 0.452594 -3.366241 33.435057 0.013606 1.671647 0.274627 -0.038411 56522.600000 0 0 1
34.048110 -0.712606 -3.619041 34.247322 -0.020926 1.676668 0.186583 -0.028617 237048.000000 0 0 1
33.794800 -1.740506 -2.727041 33.949295 -0.051457 1.651210 0.201716 -0.033958 71931.600000 0 0 1
34.621410 -3.029706 -3.048241 34.887145 -0.087287 1.658282 0.166062 -0.022746 167214.000000 0 0 1
34.440440 -4.054606 -2.098641 34.741733 -0.117189 1.631240 0.176754 -0.031379 -78900.200000 0 0 1
35.112430 -5.197306 -2.490841 35.582285 -0.146952 1.640856 0.206235 -0.040298 -190211.000000 0 0 1
34.802340 -6.445806 -1.604741 35.430587 -0.183137 1.616104 0.265980 -0.058643 -86235.400000 0 0 1
35.412110 -6.316306 -0.325641 35.972480 -0.176509 1.579849 0.255446 -0.078778 134012.000000 0 0 1
35.127840 -7.408606 0.474059 35.903723 -0.207858 1.557592 0.264047 -0.075818 587801.000000 0 0 1
33.976920 -7.298806 1.555859 34.786842 -0.211601 1.526056 0.274852 -0.067174 980343.000000 0 0 1
32.668470 -7.265806 0.973459 33.480867 -0.218848 1.541717 0.242716 -0.055907 982242.000000 0 0 1
31.572860 -7.303806 1.893159 32.461902 -0.227333 1.512444 0.282645 -0.063018 29334.800000 0 0 1
31.264310 -8.738406 2.463759 32.555905 -0.272546 1.495046 0.233523 -0.052970 -1039380.000000 0 0 1
30.229940 -9.457006 1.843459 31.728261 -0.303191 1.512662 0.217707 -0.049872 -911321.000000 0 0 1
29.029140 -9.127906 2.438059 30.527918 -0.304651 1.490848 0.225412 -0.049350 -1419120.000000 0 0 1
27.874540 -10.053906 1.881159 29.691914 -0.346161 1.507398 0.167757 -0.044167 -44536.200000 0 0 1
26.589840 -9.728706 2.402759 28.415499 -0.350752 1.486137 0.137910 -0.049574 984489.000000 0 0 1
25.858140 -8.740806 1.674359 27.346820 -0.325971 1.509531 0.156710 -0.046799 -408448.000000 0 0 1
25.265140 -9.115606 0.308859 26.861068 -0.346262 1.559298 0.126636 -0.037840 -513037.000000 0 0 1
26.234440 -9.235006 -0.761041 27.822839 -0.338472 1.598153 0.130873 -0.047648 789178.000000 0 0 1
25.784740 -9.672606 -2.036841 27.614504 -0.358884 1.644623 0.109221 -0.042214 -267891.000000 0 0 1
25.139140 -11.080506 -2.263941 27.565910 -0.415149 1.653017 0.104033 -0.029940 390941.000000 0 0 1
23.783440 -11.192606 -1.848841 26.350420 -0.439856 1.641018 0.076548 -0.010422 393157.000000 0 0 1
23.306840 -12.492506 -1.952541 26.515730 -0.492032 1.644500 0.072092 -0.006128 811633.000000 0 0 1
21.795440 -12.712106 -1.529141 25.277997 -0.528009 1.631326 0.067331 -0.009561 897435.000000 0 0 1
20.949240 -12.104506 -2.480141 24.321612 -0.523937 1.672947 0.075417 -0.003762 173400.000000 0 1 0
19.597040 -12.360906 -2.119341 23.266448 -0.562726 1.662013 0.080539 -0.006180 -75307.600000 0 1 0
18.608840 -11.905506 -3.193141 22.320980 -0.569155 1.714344 0.073557 0.000453 -274085.000000 0 1 0
18.734440 -12.655506 -4.398841 23.032388 -0.594107 1.762962 0.083739 -0.003637 270856.000000 0 1 0
17.917940 -12.095106 -5.395741 22.281342 -0.593769 1.815392 0.082904 0.002122 -151520.000000 0 1 0
17.993540 -12.743406 -6.786541 23.069873 -0.616222 1.869387 0.096803 -0.005990 -133406.000000 0 1 0
17.414740 -14.047506 -6.909441 23.416788 -0.678779 1.870318 0.083546 -0.008440 424104.000000 0 1 0
17.846240 -14.700106 -8.066341 24.487696 -0.689031 1.906468 0.094289 -0.012638 -536227.000000 0 1 0
16.850040 -15.704806 -8.613341 24.591755 -0.750234 1.928638 0.083535 -0.018436 -375098.000000 0 1 0
15.748240 -15.178806 -9.309741 23.771296 -0.766988 1.973207 0.102740 -0.007551 240434.000000 0 1 0
15.030540 -16.130106 -10.053441 24.231573 -0.820671 1.998618 0.085354 -0.006298 -84824.900000 0 1 0
14.450840 -15.599306 -11.363941 24.110253 -0.823598 2.061597 0.082039 -0.021456 311998.000000 0 1 0
13.317240 -14.706806 -11.274841 22.820190 -0.834942 2.087565 0.075768 -0.023827 749761.000000 0 1 0
13.640340 -13.358806 -11.059941 22.064426 -0.774971 2.095847 0.081875 -0.015318 -279374.000000 0 1 0
13.705840 -12.448506 -12.325241 22.242458 -0.737362 2.158115 0.098832 -0.018449 270743.000000 0 1 0
14.872240 -12.710706 -13.100041 23.544780 -0.707193 2.160829 0.111589 -0.016282 570800.000000 0 1 0
14.644340 -12.250806 -14.421041 23.927085 -0.696637 2.217687 0.128225 -0.014301 -18722.500000 0 1 0
15.888940 -11.497706 -14.980241 24.679208 -0.626409 2.223075 0.141674 -0.027314 -277216.000000 0 1 0
16.864940 -12.469806 -15.211741 25.909831 -0.636678 2.198272 0.138554 -0.027704 116493.000000 0 0 1
17.996740 -11.842106 -15.848041 26.744692 -0.581988 2.205039 0.136436 -0.020594 497795.000000 0 0 1
19.094440 -12.884706 -16.238041 28.183103 -0.593604 2.184822 0.114896 -0.018507 -418230.000000 0 0 1
19.852340 -13.202206 -15.117541 28.230368 -0.586862 2.135904 0.102806 -0.026739 -606071.000000 0 0 1
20.718340 -14.257006 -15.411641 29.496280 -0.602718 2.120570 0.083144 -0.019114 -896090.000000 0 0 1
21.769840 -14.338906 -14.303441 29.734132 -0.582439 2.072642 0.084060 -0.020088 -824450.000000 0 0 1
22.678340 -13.300406 -14.465641 30.007710 -0.530419 2.073805 0.079174 -0.012887 -635493.000000 0 0 1
23.661340 -13.271506 -13.463341 30.286192 -0.511169 2.031454 0.099282 -0.016647 47899.400000 0 0 1
24.607740 -12.086906 -13.731541 30.662508 -0.456569 2.035131 0.113740 -0.016089 -386510.000000 0 0 1
23.989240 -10.865906 -13.338141 29.520460 -0.425304 2.039609 0.107139 -0.009105 348212.000000 0 0 1
24.736740 -9.672906 -13.492341 29.791185 -0.372753 2.040808 0.119192 -0.012291 -1350.410000 0 0 1
25.779240 -9.302106 -12.395741 30.079109 -0.346296 1.995559 0.126355 -0.015981 -251973.000000 0 0 1
26.844140 -10.196306 -12.390041 31.274361 -0.363002 1.978141 0.128797 -0.026672 -832101.000000 0 0 1
27.777640 -9.888906 -11.429241 31.623018 -0.342012 1.940588 0.135233 -0.020524 -889850.000000 0 0 1
29.144840 -10.545406 -11.660641 33.114919 -0.347173 1.930639 0.163939 -0.030792 -311054.000000 0 0 1
29.710840 -10.102906 -12.857641 33.913444 -0.327775 1.959653 0.153454 -0.028240 343527.000000 0 0 1
31.091870 -10.452906 -12.929241 35.258090 -0.324323 1.946259 0.143172 -0.026927 350560.000000 0 0 1
31.887470 -9.956406 -14.116041 36.265733 -0.302644 1.970602 0.126345 -0.020748 -254467.000000 0 0 1
31.460860 -10.536406 -15.326541 36.547290 -0.323165 2.003539 0.110398 -0.017111 291751.000000 0 0 1
32.183040 -9.993106 -16.428541 37.490095 -0.301069 2.024403 0.086399 -0.018421 -95285.200000 0 0 1
31.858740 -10.685506 -17.767241 38.010975 -0.323612 2.057171 0.054010 -0.009345 62542.500000 0 0 1
30.648240 -10.303406 -18.386941 37.196161 -0.324313 2.087853 0.063944 -0.005809 243271.000000 0 0 1
30.580140 -9.004306 -18.915541 37.067778 -0.286357 2.106325 0.041734 -0.004798 135215.000000 0 0 1
29.192740 -8.528306 -19.479541 36.116486 -0.284228 2.140465 0.019622 -0.009381 386347.000000 0 0 1
28.756740 -9.050206 -20.706941 36.573675 -0.304902 2.172649 0.023182 -0.004488 1273460.000000 0 0 1
27.358840 -8.736906 -20.883641 35.510085 -0.309109 2.199510 0.053367 -0.006594 1065680.000000 0 0 1
26.765240 -9.324106 -22.201341 36.003008 -0.335219 2.235280 0.070608 -0.010609 -85870.000000 0 0 1
26.793740 -10.718206 -22.336841 36.492724 -0.380529 2.229497 0.075851 -0.006032 1045090.000000 0 0 1
25.858140 -11.198706 -23.376641 36.613137 -0.408697 2.263314 0.094293 -0.012191 50538.600000 0 0 1
26.119240 -12.668906 -23.834441 37.560571 -0.451609 2.258236 0.087756 -0.001121 1031460.000000 0 0 1
27.357640 -12.912506 -24.542141 38.954974 -0.440989 2.252366 0.082336 -0.001236 1063870.000000 0 0 1
28.498940 -12.817006 -23.695941 39.216869 -0.422635 2.219593 0.051420 0.007499 -261551.000000 0 0 1
29.777340 -13.476006 -24.314941 40.737073 -0.424980 2.210397 0.044525 0.009082 443335.000000 0 0 1
30.236940 -12.751706 -25.470931 41.540906 -0.399094 2.230842 0.051672 -0.005062 -880024.000000 0 0 1
31.598410 -12.909706 -25.594861 42.664001 -0.387860 2.214194 0.015556 -0.008705 -1004570.000000 0 0 1
32.266970 -12.372406 -26.880091 43.780967 -0.366148 2.231874 0.039693 -0.010611 73773.700000 0 0 1
32.238910 -13.288706 -27.947921 44.688067 -0.390975 2.246440 0.058918 -0.019347 768578.000000 0 0 1
33.229040 -12.945606 -28.951931 45.934433 -0.371498 2.252721 0.059125 -0.027913 651246.000000 0 0 1
33.049600 -13.762606 -30.269431 46.882020 -0.394583 2.272672 0.073930 -0.035267 28652.800000 0 0 1
33.369440 -15.129006 -30.175021 47.465127 -0.425660 2.259751 0.079694 -0.024479 -108327.000000 0 0 1
33.626880 -15.731706 -31.455181 48.658833 -0.437583 2.273710 0.079970 -0.030808 434196.000000 0 0 1
32.372950 -16.401306 -32.104091 48.452899 -0.468942 2.295059 0.058780 -0.018108 333431.000000 0 0 1
31.713690 -15.646506 -33.075671 48.420774 -0.458328 2.322779 0.055723 -0.017444 -566008.000000 0 0 1
30.586440 -16.336006 -33.501691 48.215752 -0.490549 2.338978 0.035323 -0.018327 -426758.000000 0 0 1
29.620440 -15.605306 33.099036 47.079106 -0.484890 0.791117 0.052404 -0.022005 258453.000000 0 0 1
28.893640 -14.506906 33.650409 46.665220 -0.465310 0.765404 0.053742 -0.021273 593425.000000 0 0 1
29.645040 -13.283106 33.637009 46.762353 -0.421249 0.767976 0.076217 -0.018346 63316.600000 0 0 1
28.864440 -12.199806 -33.195731 45.650276 -0.399886 2.384994 0.086515 -0.014368 -315053.000000 0 0 1
27.759940 -11.700206 33.718509 45.215561 -0.398884 0.729169 0.093592 -0.024191 -666609.000000 0 0 1
27.360340 -10.512906 -33.210961 44.295342 -0.366846 2.418499 0.065875 -0.027457 -92033.700000 0 0 1
22.108692 -29.304597 8.763459 37.740586 -0.924457 1.336455 0.057543 -0.024670 104372.000000 0 0 1
22.422292 -28.981097 7.463859 37.394817 -0.912307 1.369851 0.065627 -0.026981 130828.000000 0 0 1
23.693492 -29.466897 7.084559 38.469085 -0.893578 1.385577 0.064209 -0.025531 158082.000000 0 0 1
24.269992 -28.999597 5.674559 38.238851 -0.873952 1.421848 0.057309 -0.021055 77235.100000 0 0 1
24.508192 -27.601797 5.558559 37.328383 -0.844695 1.421331 0.046526 -0.004378 142951.000000 0 0 1
25.214092 -27.401697 4.347759 37.490084 -0.826951 1.454564 0.025326 0.005708 12193.000000 0 0 1
25.386992 -25.872397 4.011559 36.468793 -0.794867 1.460574 0.025475 0.004289 30171.000000 0 0 1
26.040892 -25.146897 5.027759 36.548226 -0.767935 1.432794 0.029566 0.000290 -86340.300000 0 0 1
25.768292 -23.790897 4.928659 35.416145 -0.745520 1.431179 0.034482 0.000518 -180871.000000 0 0 1
26.569692 -22.862697 5.839159 35.535154 -0.710547 1.405727 0.033259 -0.005503 791822.000000 0 0 1
27.999192 -22.904497 5.599959 36.605058 -0.685645 1.417210 0.038104 -0.001266 1286250.000000 0 0 1
28.785492 -22.124197 6.503059 36.883253 -0.655292 1.393555 0.052311 -0.004630 394205.000000 0 0 1
28.596392 -20.595097 6.365659 35.811077 -0.624154 1.392090 0.061026 -0.002327 -543865.000000 0 0 1
28.883592 -20.000197 5.161159 35.509256 -0.605635 1.424933 0.064748 0.007054 239804.000000 0 0 1
28.342692 -18.666897 5.206159 34.334608 -0.582407 1.418579 0.087586 0.006092 -79705.000000 0 0 1
28.625192 -17.814897 3.966159 33.948528 -0.556692 1.453700 0.110316 0.004376 -763336.000000 0 0 1
29.943992 -17.426997 3.815959 34.855479 -0.527069 1.461097 0.104471 0.000208 -799908.000000 0 0 1
30.063892 -16.520097 2.740759 34.413121 -0.502459 1.491069 0.121242 0.007210 519758.000000 0 0 1
31.266192 -15.535097 2.886059 35.032033 -0.461137 1.488319 0.131516 -0.015203 513368.000000 0 0 1
31.007592 -14.692597 3.968859 34.541207 -0.442500 1.455640 0.144320 -0.017767 562497.000000 0 0 1
32.067392 -13.749397 4.099259 35.130719 -0.405056 1.453844 0.136500 -0.026147 438590.000000 0 0 1
31.618992 -12.771497 5.186659 34.493089 -0.383880 1.419856 0.140162 -0.033378 305075.000000 0 0 1
31.457992 -13.352397 6.447559 34.777331 -0.401406 1.384322 0.117366 -0.035567 429556.000000 0 0 1
30.618492 -12.449397 7.227559 33.833668 -0.386181 1.355517 0.111210 -0.025504 438809.000000 0 0 1
30.392492 -12.781497 8.755859 34.113564 -0.398094 1.311223 0.135912 -0.026875 -732091.000000 0 0 1
29.383392 -13.653197 9.060459 33.643504 -0.434976 1.298122 0.118447 -0.017769 -957781.000000 0 0 1
29.156792 -13.780097 10.473259 33.907207 -0.441505 1.256781 0.155709 -0.022057 156943.000000 0 0 1
30.163992 -14.636597 11.305559 35.382369 -0.451765 1.245568 0.151659 -0.017698 435154.000000 0 0 1
31.384092 -13.997197 11.689159 36.297647 -0.419520 1.242917 0.106491 -0.005512 507069.000000 0 0 1
32.118792 -14.965797 12.424059 37.549289 -0.436040 1.233567 0.128268 -0.012191 175166.000000 0 0 1
33.160092 -14.529297 13.472559 38.629030 -0.412961 1.214540 0.115853 -0.014234 -29391.200000 0 0 1
34.415592 -14.129997 12.990259 39.406047 -0.389585 1.234862 0.092155 -0.013647 -124254.000000 0 0 1
35.272292 -13.864097 14.089259 40.433340 -0.374509 1.214872 0.073912 -0.011436 449216.000000 0 0 1
36.780592 -13.828197 13.674559 41.605583 -0.359616 1.235900 0.108617 -0.011085 260336.000000 0 0 1
37.102992 -12.717097 12.922959 41.295997 -0.330203 1.252515 0.134122 -0.028889 510146.000000 0 0 1
-37.242957 -12.861297 12.341759 41.288858 0.332513 1.267243 0.138929 -0.025975 -48792.000000 0 0 1
-36.572557 -11.546897 12.130259 40.224693 0.305821 1.264465 0.150381 -0.043274 309325.000000 0 0 1
-35.297057 -11.626997 11.443559 38.884757 0.318210 1.272079 0.131489 -0.041780 71899.900000 0 0 1
-34.486257 -10.651097 11.947559 38.019625 0.299557 1.251133 0.122074 -0.048864 -1443860.000000 0 0 1
-33.085057 -10.691197 11.363559 36.579409 0.312551 1.254915 0.129640 -0.049662 -480031.000000 0 0 1
-32.198857 -11.689697 11.845159 36.245319 0.348250 1.237875 0.109262 -0.042993 67502.600000 0 0 1
-32.421557 -12.883097 11.128259 36.619253 0.378230 1.262022 0.121226 -0.037987 -767426.000000 0 0 1
-31.395957 -14.009997 11.296159 36.188248 0.419719 1.253341 0.078066 -0.034582 -307550.000000 0 0 1
-30.186957 -13.607297 10.704559 34.799403 0.423492 1.258119 0.093032 -0.034658 -175362.000000 0 0 1
-29.146057 -14.527497 11.047259 34.388700 0.462397 1.243751 0.092801 -0.017408 -134434.000000 0 0 1
-27.910457 -14.466197 10.173559 33.041879 0.478186 1.257812 0.097811 -0.014977 -673849.000000 0 0 1
-28.254157 -14.675197 8.808959 33.034172 0.479047 1.300868 0.121207 -0.025751 -356177.000000 0 0 1
-27.175557 -14.687997 7.934359 31.893607 0.495509 1.319380 0.102324 -0.019545 -559411.000000 0 0 1
-27.545857 -14.698397 6.387559 31.868762 0.490163 1.368996 0.146092 -0.022074 40734.500000 0 0 1
-27.987757 -15.960997 5.900359 32.754880 0.518284 1.389671 0.155799 -0.005975 130987.000000 0 0 1
-27.990557 -16.022997 4.479059 32.561782 0.519910 1.432803 0.165213 -0.002491 63253.200000 0 0 1
-28.887657 -17.166697 3.919959 33.831321 0.536186 1.454668 0.143882 -0.008973 -92627.400000 0 0 1
-30.252957 -16.944797 4.102159 34.916976 0.510567 1.453041 0.108657 -0.025493 -342713.000000 0 0 1
-31.075257 -18.025897 3.669259 36.111882 0.525638 1.469013 0.118381 -0.014338 227752.000000 0 0 1
-32.583257 -17.910597 3.929859 37.388526 0.502603 1.465493 0.165859 -0.029865 35665.900000 0 0 1
-33.238457 -16.960197 3.129759 37.446477 0.471820 1.487119 0.221526 -0.037469 318731.000000 0 0 1
-34.601157 -16.824297 3.520659 38.635373 0.452575 1.479544 0.225870 -0.031878 1106610.000000 0 0 1
-35.594957 -15.795697 2.831059 39.045100 0.417654 1.498225 0.227029 -0.048549 741059.000000 0 0 1
-35.830657 -16.282297 1.546559 39.387066 0.426527 1.531521 0.221360 -0.037077 -426743.000000 0 0 1
-36.567757 -15.388897 0.813059 39.682238 0.398335 1.550306 0.240994 -0.040490 -410762.000000 0 0 1
-37.048857 -16.020397 -0.533841 40.367758 0.408132 1.584021 0.198910 -0.037477 635611.000000 0 0 1
-35.916957 -16.385597 -1.406141 39.503073 0.428004 1.606400 0.212911 -0.029967 1390080.000000 0 0 1
-36.218057 -17.242397 -2.486441 40.189927 0.444322 1.632703 0.178652 -0.016192 -615685.000000 0 0 1
-34.957457 -17.722797 -3.185841 39.322651 0.469217 1.651903 0.153042 -0.013296 -424963.000000 0 0 1
-35.224657 -18.729297 -4.069741 40.101444 0.488693 1.672457 0.138123 -0.012307 -5851.930000 0 0 1
-34.038357 -19.284797 -4.557541 39.386347 0.515469 1.686770 0.140169 -0.011662 -266869.000000 0 0 1
-34.337657 -20.419397 -5.574741 40.337379 0.536487 1.709443 0.141439 -0.012272 14046.500000 0 0 1
-34.959257 -21.525797 -4.974541 41.355237 0.551912 1.691376 0.134041 -0.013582 -33148.800000 0 0 1
-35.394857 -22.410097 -5.946341 42.312732 0.564435 1.711796 0.120051 -0.003052 226531.000000 0 0 1
-36.116357 -23.694697 -5.403741 43.531946 0.580627 1.695250 0.119691 -0.010821 -83764.100000 0 0 1
-35.254557 -24.689897 -4.962541 43.325530 0.610949 1.685589 0.139153 -0.011402 -430805.000000 0 0 1
-35.914457 -25.882397 -4.567041 44.503983 0.624463 1.673598 0.116699 -0.012863 -85023.400000 0 0 1
-34.934557 -26.938997 -4.031941 44.298864 0.656886 1.661939 0.103211 -0.011989 -1058510.000000 0 0 1
-34.059957 -27.435197 -5.018841 44.022261 0.678084 1.685052 0.088445 -0.009217 31934.500000 0 0 1
-33.278857 -28.530597 -4.635541 44.079082 0.708728 1.676155 0.090800 -0.014629 -24027.000000 0 0 1
-32.267857 -28.374097 -3.480441 43.109366 0.721277 1.651619 0.110245 -0.026100 -713748.000000 0 0 1
-32.932857 -28.325997 -2.233541 43.496251 0.710336 1.622169 0.104804 -0.025838 -322351.000000 0 0 1
-32.009357 -28.198297 -1.203141 42.675407 0.722184 1.598993 0.121290 -0.029534 -313056.000000 0 0 1
-32.597757 -28.109597 0.213459 43.044265 0.711601 1.565837 0.108698 -0.017633 -107329.000000 0 0 1
-32.985957 -29.339897 0.750259 44.152755 0.726965 1.553803 0.112096 -0.016540 -77463.200000 0 0 1
-33.752657 -29.118097 1.919859 44.618284 0.711816 1.527755 0.113659 -0.007460 -202325.000000 0 0 1
-34.414957 -30.437497 2.336359 46.003141 0.724144 1.519988 0.095672 -0.013803 -86511.800000 0 0 1
-35.299157 -30.198397 3.463959 46.582965 0.707678 1.496367 0.085357 -0.006898 467126.000000 0 0 1
-35.932157 -31.301197 4.041759 47.824895 0.716628 1.486184 0.071133 -0.007423 641946.000000 0 0 1
-37.137857 -31.951497 3.238859 49.097951 0.710471 1.504781 0.055755 0.005389 431744.000000 0 0 1
-37.642857 -33.085197 3.930659 50.269921 0.721048 1.492525 0.073088 -0.001153 -75647.500000 0 0 1
36.883292 -33.591297 3.228159 49.991734 -0.738720 1.506178 0.068503 0.002096 -71283.900000 0 0 1
35.830792 33.260694 4.080059 49.058804 0.748217 1.487533 0.070104 0.000633 816938.000000 0 0 1
34.929392 -33.659697 4.900659 48.755041 -0.766889 1.470110 0.059344 0.003400 1051640.000000 0 0 1
34.134892 -32.564297 4.393159 47.380630 -0.761855 1.477942 0.063593 -0.000842 469847.000000 0 0 1
33.067692 -32.845997 3.264059 46.722434 -0.782035 1.500879 0.058865 0.006529 21554.600000 0 0 1
33.615992 -33.154597 1.980459 47.256580 -0.778488 1.528875 0.063994 0.009936 300318.000000 0 0 1
32.697692 -32.744497 0.948159 46.284340 -0.786113 1.550309 0.053956 0.010537 -524578.000000 0 0 1
33.084292 -33.241997 -0.474341 46.902299 -0.787776 1.580910 0.066400 0.003397 378663.000000 0 0 1
34.141292 -32.658997 -1.215541 47.262198 -0.763212 1.596518 0.053265 0.008673 -499623.000000 0 0 1
35.378592 -32.654897 -0.563141 48.148771 -0.745385 1.582492 0.048112 0.010856 -780615.000000 0 0 1
36.565092 -32.472397 -1.556041 48.927331 -0.726185 1.602605 0.047208 0.010210 96638.700000 0 0 1
37.068192 -33.664597 -2.138441 50.119146 -0.737316 1.613476 0.038233 0.002297 461989.000000 0 0 1
-37.560157 -33.223297 -3.046341 50.237765 0.724205 1.631472 0.041457 -0.005969 -521618.000000 0 0 1
-36.881957 33.390194 -3.880441 49.902320 -0.735750 1.648636 0.042009 -0.010628 91468.300000 0 0 1
-35.705357 32.791894 -3.331141 48.592976 -0.742890 1.639402 0.058544 -0.008775 318709.000000 0 0 1
-35.198357 32.015594 -4.391441 47.782918 -0.738081 1.662830 0.092482 -0.016251 56632.100000 0 0 1
-33.922557 31.226594 -3.982641 46.278520 -0.744040 1.656961 0.117961 -0.025485 114884.000000 0 0 1
-32.708957 31.967694 -3.985041 45.909583 -0.773938 1.657708 0.133730 -0.030269 -18230.100000 0 0 1
-31.595957 31.180094 -3.668141 44.541643 -0.778774 1.653243 0.171993 -0.041976 41355.000000 0 0 1
-31.188257 31.038394 -2.223141 44.057140 -0.782990 1.621278 0.157215 -0.036992 671614.000000 0 0 1
-32.232057 30.301294 -1.499141 44.264221 -0.754532 1.604671 0.115243 -0.027597 936635.000000 0 0 1
-31.933657 30.223194 -0.125441 43.968348 -0.757887 1.573649 0.103082 -0.025705 -263907.000000 0 0 1
-32.981557 29.412594 0.633459 44.195984 -0.728260 1.556463 0.099851 -0.029611 -280523.000000 0 0 1
-33.075957 28.061094 0.242659 43.376293 -0.703555 1.565202 0.106284 -0.045755 610420.000000 0 0 1
-34.217657 27.901294 -0.621141 44.155589 -0.684065 1.584864 0.105750 -0.032498 426860.000000 0 0 1
-34.444957 26.496794 -1.099341 43.471182 -0.655708 1.596088 0.112869 -0.022972 56359.800000 0 0 1
-34.705657 25.568494 -0.045841 43.107222 -0.634950 1.571860 0.103468 -0.027137 8218.880000 0 0 1
-34.876157 24.283394 -0.602441 42.501676 -0.608222 1.584971 0.123231 -0.024933 -224769.000000 0 0 1
-34.746757 23.213594 0.505459 41.790711 -0.588980 1.558701 0.144857 -0.037307 -215705.000000 0 0 1
-33.421857 23.035194 0.919759 40.601559 -0.603458 1.548141 0.141889 -0.043633 -255941.000000 0 0 1
-33.003257 23.771794 2.058459 40.725304 -0.624212 1.520230 0.129798 -0.040005 -1146920.000000 0 0 1
-31.502757 23.604794 2.321659 39.433489 -0.643048 1.511887 0.111603 -0.045647 18558.000000 0 0 1
-30.584957 24.371894 1.524959 39.137632 -0.672823 1.531822 0.123869 -0.043176 157492.000000 0 0 1
-30.561657 25.708294 1.819359 39.978010 -0.699360 1.525272 0.088576 -0.037787 -429527.000000 0 0 1
-29.877357 26.613194 0.704059 40.017674 -0.727680 1.553202 0.088264 -0.043356 495225.000000 0 0 1
-28.524657 26.277694 0.488259 38.786745 -0.744420 1.558208 0.096200 -0.040432 -227233.000000 0 0 1
-27.961757 27.114094 -0.516541 38.952544 -0.770009 1.584057 0.110066 -0.037963 724600.000000 0 0 1
-26.733757 26.569894 -1.316841 37.714547 -0.782324 1.605719 0.116274 -0.033826 285846.000000 0 0 1
-27.137957 25.554594 -2.233041 37.342903 -0.755358 1.630630 0.140685 -0.043521 206634.000000 0 0 1
-26.061357 24.896594 -2.871441 36.156325 -0.762545 1.650297 0.129290 -0.024929 -120355.000000 0 0 1
-25.213857 23.938594 -2.088841 34.830419 -0.759459 1.630804 0.091307 -0.023039 -371000.000000 0 0 1
-25.780657 22.719794 -1.811941 34.410963 -0.722372 1.623477 0.090508 -0.024993 171585.000000 0 0 1
-24.780257 21.878094 -1.182041 33.077323 -0.723278 1.606540 0.088607 -0.032949 -221368.000000 0 0 1
-25.281357 20.432494 -0.818141 32.516198 -0.679723 1.595960 0.110182 -0.036244 -773386.000000 0 0 1
-26.191157 20.455994 0.234159 33.233706 -0.663064 1.563750 0.104660 -0.034369 275257.000000 0 0 1
-27.467957 21.086294 0.104259 34.628475 -0.654714 1.567786 0.098765 -0.041483 -299651.000000 0 0 1
-28.384157 20.486694 -0.967241 35.018574 -0.625185 1.598421 0.115550 -0.049849 -1499800.000000 0 0 1
-28.830057 19.237394 -0.607241 34.664365 -0.588419 1.588315 0.125596 -0.056496 117472.000000 0 0 1
-29.550157 18.722294 -1.739941 35.025183 -0.564743 1.620494 0.149443 -0.051467 42523.800000 0 0 1
-29.924357 17.263994 -1.624241 34.585412 -0.523277 1.617777 0.141444 -0.048530 74445.000000 0 0 1
-31.038957 16.973294 -0.800141 35.385728 -0.500413 1.593410 0.132630 -0.041185 121794.000000 0 0 1
-31.205557 15.562894 -0.523341 34.874981 -0.462625 1.585803 0.146622 -0.056800 -452893.000000 0 0 1
-30.106857 14.752894 0.170259 33.527596 -0.455630 1.565718 0.190625 -0.056916 -558646.000000 0 0 1
-29.989557 14.946594 1.584059 33.545244 -0.462361 1.523557 0.208982 -0.050586 477785.000000 0 0 1
-28.753357 14.464494 2.125459 32.256700 -0.466088 1.504857 0.248208 -0.054501 516870.000000 0 0 1
-28.769057 12.946094 2.342959 31.634624 -0.422854 1.496665 0.273047 -0.056828 -208041.000000 0 0 1
-28.667057 12.303094 1.088659 31.214603 -0.405399 1.535913 0.257594 -0.062420 6177.570000 0 0 1
-28.108657 11.039794 1.276959 30.225887 -0.374244 1.528537 0.310718 -0.060733 -221762.000000 0 0 1
-27.751057 10.334294 -0.064941 29.612885 -0.356483 1.572989 0.283884 -0.055703 -313141.000000 0 0 1
-28.841157 10.007094 -0.886741 30.540801 -0.333975 1.599835 0.257589 -0.051401 -206001.000000 0 0 1
-28.501257 9.111894 -1.875741 29.981105 -0.309432 1.633401 0.274198 -0.050217 -693282.000000 0 0 1
-29.616957 8.856894 -2.853941 31.044382 -0.290583 1.662857 0.236605 -0.051579 -396306.000000 0 0 1
-29.215357 8.035894 -3.967241 30.558986 -0.268419 1.700986 0.220856 -0.040322 770782.000000 0 0 1
-30.374857 7.838094 -4.778841 31.731766 -0.252536 1.721973 0.203776 -0.044981 582827.000000 0 0 1
-11.348308 18.671394 -20.696641 30.095780 -1.024668 2.329102 0.159235 -0.014232 292183.000000 0 0 1
-11.890808 17.494394 -21.215841 29.959256 -0.973830 2.357680 0.165895 -0.028449 -180366.000000 0 0 1
-10.831108 16.615494 -21.601741 29.326145 -0.993109 2.398831 0.156923 -0.039815 227293.000000 0 0 1
-11.165808 15.279594 -22.250341 29.209912 -0.939719 2.436790 0.147674 -0.025654 -628514.000000 0 0 1
-10.000708 14.571594 -22.574641 28.669844 -0.969314 2.477376 0.166489 -0.041752 -168505.000000 0 0 1
-10.240808 13.254694 -23.073541 28.512267 -0.912976 2.513670 0.139251 -0.042095 413806.000000 0 0 1
-9.142308 12.246994 -22.587141 27.271773 -0.929543 2.546728 0.123371 -0.036925 1093140.000000 0 0 1
-7.815208 12.428894 -23.106341 27.376228 -1.009474 2.575549 0.097677 -0.031296 776706.000000 0 0 1
-6.981408 11.387994 -22.592141 26.245596 -1.020837 2.607631 0.079923 -0.020694 -1168760.000000 0 0 1
-5.514308 11.620794 -22.642641 26.041114 -1.127739 2.624977 0.068238 -0.015973 -1364660.000000 0 0 1
-4.942108 11.281394 -23.886841 26.875183 -1.157902 2.665531 0.058061 -0.021053 -464816.000000 0 0 1
-3.548308 11.453794 -23.772341 26.625253 -1.270379 2.674429 0.050643 -0.017642 -290449.000000 0 0 1
-2.821908 11.226594 -25.084241 27.626414 -1.324539 2.709235 0.081833 -0.033842 -494285.000000 0 0 1
-2.879308 9.897894 -25.545191 27.546606 -1.287708 2.758049 0.086730 -0.028194 16170.300000 0 0 1
-2.316708 9.788094 -26.838201 28.661175 -1.338387 2.783011 0.094558 -0.030941 -307236.000000 0 0 1
-2.113208 8.314594 -27.279111 28.596294 -1.321909 2.836898 0.109819 -0.011896 213268.000000 0 0 1
-1.097408 7.637994 -26.522381 27.622092 -1.428095 2.858468 0.104222 -0.018491 269563.000000 0 0 1
-1.309908 7.295494 -25.141901 26.211739 -1.393139 2.854901 0.114711 -0.033675 -201564.000000 0 0 1
-0.313308 6.267094 -24.565741 25.354492 -1.520845 2.891506 0.040557 -0.020221 520308.000000 0 0 1
1.073992 6.627094 -24.503541 25.406601 1.410132 2.874172 0.068419 0.006118 1151590.000000 0 0 1
1.783392 5.790494 -23.524241 24.291979 1.272029 2.889511 0.052793 0.016246 541662.000000 0 1 0
1.709492 6.353994 -22.140441 23.097505 1.307978 2.852715 0.049177 0.007280 -441057.000000 0 1 0
2.520492 7.483794 -22.057641 23.428606 1.245935 2.797801 0.053169 -0.006531 -48289.000000 0 1 0
2.484492 8.109094 -20.780841 22.444898 1.273494 2.754102 0.069794 -0.011147 136449.000000 0 1 0
3.169292 9.498694 -20.712641 23.006153 1.248756 2.691275 0.064152 -0.022813 -176685.000000 0 1 0
2.838892 10.245794 -19.574941 22.275859 1.300499 2.644036 0.069071 -0.026397 -171557.000000 0 1 0
3.401492 11.504294 -19.572641 22.956637 1.283315 2.591721 0.073363 -0.028523 -117433.000000 0 1 0
4.714792 11.630694 -18.758641 22.569646 1.185665 2.551959 0.077810 -0.032502 -107087.000000 0 1 0
5.778792 10.915594 -19.312241 22.923945 1.083901 2.572608 0.084770 -0.029085 -650671.000000 0 1 0
6.856592 10.863994 -18.404241 22.444494 1.007801 2.532188 0.088849 -0.017036 -501384.000000 0 1 0
7.960592 9.928294 -18.848641 22.742324 0.894954 2.547741 0.130162 -0.030285 -594529.000000 0 1 0
7.719192 8.509694 -19.012241 22.214097 0.834069 2.598015 0.111922 -0.021411 19424.200000 0 1 0
6.958492 8.143094 -20.158841 22.827822 0.863680 2.653187 0.085762 -0.019719 81278.000000 0 1 0
6.847492 6.654394 -20.339641 22.469315 0.771098 2.702690 0.096956 -0.018628 528200.000000 0 1 0
8.096392 6.027894 -20.648641 22.983765 0.639982 2.686912 0.097698 -0.008339 677637.000000 0 1 0
7.855892 4.676294 -20.909841 22.821135 0.536926 2.729411 0.082639 -0.000901 -27551.700000 0 1 0
7.964092 4.313594 -22.379041 24.142397 0.496395 2.757024 0.089971 -0.014343 -392857.000000 0 1 0
6.938492 4.937894 -23.114041 24.632993 0.618513 2.788584 0.101223 -0.015548 -64074.400000 0 1 0
7.136892 4.826794 -24.478141 25.950194 0.594653 2.803153 0.093287 -0.015272 -286596.000000 0 0 1
6.235892 5.701094 -25.359061 26.729587 0.740626 2.819978 0.082545 -0.017720 -321610.000000 0 0 1
6.398992 7.133394 -25.325891 27.078278 0.839615 2.779858 0.073324 -0.029875 209185.000000 0 0 1
5.974992 7.823694 -24.139841 26.069957 0.918582 2.754377 0.100237 -0.036438 -564476.000000 0 0 1
5.579492 9.326294 -24.331141 26.647981 1.031662 2.721516 0.114682 -0.048633 263012.000000 0 0 1
4.464492 9.602594 -25.167521 27.304681 1.135600 2.743312 0.111856 -0.050844 -211095.000000 0 0 1
3.270492 9.501394 -24.442341 26.427271 1.239287 2.751545 0.109256 -0.036246 -1142280.000000 0 0 1
2.041792 9.867794 -25.257661 27.193597 1.366761 2.761982 0.115077 -0.025899 -436131.000000 0 0 1
1.975792 11.273794 -25.565241 28.010422 1.397303 2.720651 0.136469 -0.046107 420221.000000 0 0 1
0.764792 11.480294 -26.299631 28.706317 1.504277 2.729193 0.145012 -0.052096 184710.000000 0 0 1
0.573292 12.959594 -26.688611 29.674260 1.526588 2.689159 0.137507 -0.055594 66460.400000 0 0 1
0.028192 13.723794 -25.584581 29.032983 1.568742 2.649243 0.122731 -0.051283 265298.000000 0 0 1
-0.337108 15.049994 -25.947501 29.998146 -1.548401 2.615887 0.125463 -0.055756 -390015.000000 0 0 1
-0.947608 15.875394 -24.844841 29.499021 -1.511177 2.572195 0.133781 -0.048533 -269880.000000 0 0 1
-2.155108 15.315194 -24.388741 28.879237 -1.430997 2.576442 0.110716 -0.039422 -318724.000000 0 0 1
-2.433908 15.848194 -23.104441 28.123022 -1.418411 2.534919 0.104354 -0.043438 -392396.000000 0 0 1
-3.614908 15.282894 -22.232341 27.219688 -1.338532 2.526594 0.089879 -0.039319 529146.000000 0 0 1
-4.907508 15.649294 -22.654941 27.968382 -1.266916 2.514982 0.090705 -0.043269 -194703.000000 0 0 1
-5.322508 15.019494 -23.874741 28.703964 -1.230231 2.553063 0.097258 -0.048589 -1215470.000000 0 0 1
-6.812608 15.143394 -24.178041 29.331070 -1.148048 2.539787 0.080501 -0.046465 -190949.000000 0 0 1
-7.292908 16.505294 -24.422841 30.365876 -1.154738 2.505269 0.088793 -0.045716 308558.000000 0 0 1
-8.670608 16.421894 -24.769441 30.957766 -1.085008 2.498265 0.105531 -0.040650 -6689.280000 0 0 1
-9.372108 17.578294 -25.396491 32.277153 -1.080971 2.476445 0.115526 -0.037578 -220506.000000 0 0 1
-9.659908 18.635094 -24.446441 32.221251 -1.092559 2.432120 0.124931 -0.037406 185057.000000 0 0 1
-10.772908 19.427594 -24.844341 33.327590 -1.064493 2.412019 0.115843 -0.023637 405108.000000 0 0 1
-11.153608 20.480994 -23.816141 33.332907 -1.072121 2.366696 0.098841 -0.024809 -29874.100000 0 0 1
-10.318208 21.623494 -23.804941 33.774489 -1.125574 2.352966 0.125874 -0.018588 140140.000000 0 0 1
-11.059608 22.783894 -24.145941 34.992102 -1.118886 2.332340 0.103071 -0.026409 112805.000000 0 0 1
-11.049008 23.200094 -25.671011 36.322524 -1.126330 2.355693 0.089061 -0.017053 65986.300000 0 0 1
-11.868308 22.392194 -26.494741 36.663857 -1.083422 2.378409 0.087207 -0.012935 12220.800000 0 0 1
-11.874508 22.750594 -27.827201 37.854281 -1.089749 2.396631 0.091572 -0.016274 44078.300000 0 0 1
-12.511308 21.695294 -28.750831 38.129108 -1.047698 2.424986 0.089907 -0.017188 219597.000000 0 0 1
-11.599108 20.698694 -29.196521 37.621963 -1.060020 2.459174 0.086523 -0.021233 17199.700000 0 0 1
-11.357608 19.628694 -28.276301 36.246794 -1.046244 2.465630 0.088089 -0.020425 -70827.600000 0 0 1
-10.373708 18.630494 -28.889721 35.907173 -1.062737 2.505742 0.073619 -0.021172 288991.000000 0 0 1
-9.027808 19.135394 -28.876071 35.797934 -1.129974 2.509243 0.066438 -0.026715 114547.000000 0 0 1
-8.039308 18.420994 -29.554891 35.741504 -1.159292 2.544381 0.064961 -0.025874 312811.000000 0 0 1
-7.513508 17.156494 -28.876821 34.419019 -1.158017 2.566200 0.089991 -0.039563 -590022.000000 0 0 1
-8.495108 16.141394 -28.955091 34.221466 -1.086336 2.579439 0.076429 -0.031163 58208.700000 0 0 1
-8.247608 14.955594 -28.182551 32.953741 -1.066823 2.596763 0.082768 -0.041644 -73549.000000 0 0 1
-9.552208 14.129194 -28.151421 32.914758 -0.976318 2.596892 0.080090 -0.025791 -178566.000000 0 0 1
-10.445908 14.596694 -27.196331 32.585593 -0.949654 2.558225 0.088063 -0.029468 -1168920.000000 0 0 1
-11.614908 13.849694 -27.241681 32.692955 -0.872934 2.555772 0.125295 -0.026208 -164010.000000 0 0 1
-12.650708 14.321394 -26.168641 32.402786 -0.847260 2.510875 0.119398 -0.025970 338283.000000 0 0 1
-13.338308 15.516894 -26.501881 33.481848 -0.860756 2.484105 0.111929 -0.026275 -236747.000000 0 0 1
-14.127808 15.949294 -25.392811 33.147697 -0.845885 2.443470 0.106678 -0.024625 785390.000000 0 0 1
-15.257108 16.962594 -25.748611 34.402034 -0.838282 2.416536 0.088221 -0.020314 313514.000000 0 0 1
-14.748408 18.218394 -26.030821 35.028975 -0.890269 2.408521 0.089430 -0.018157 547355.000000 0 0 1
-15.826508 19.167894 -26.163051 36.088665 -0.880593 2.381781 0.066586 -0.012472 407854.000000 0 0 1
-15.269508 20.595494 -26.282631 36.716603 -0.932822 2.368600 0.075889 -0.011796 512232.000000 0 0 1
-16.272308 21.582194 -26.586111 37.913064 -0.924760 2.347930 0.039431 -0.007605 423684.000000 0 0 1
-15.787408 22.897494 -26.592521 38.479860 -0.967164 2.333773 0.048467 -0.008383 -67469.700000 0 0 1
-15.368708 23.620594 -25.334851 37.894384 -0.993965 2.303074 0.018768 -0.004044 -176818.000000 0 0 1
-14.717108 24.744294 -25.756371 38.629833 -1.034233 2.300633 0.044941 -0.014502 -322210.000000 0 0 1
-14.361608 25.533794 -24.610241 38.260873 -1.058441 2.269495 0.054719 -0.020904 1448.910000 0 0 1
-13.851008 26.886994 -24.966341 39.218351 -1.095097 2.260876 0.066618 -0.029477 -495504.000000 0 0 1
-14.840908 27.796894 -25.348851 40.441119 -1.080394 2.248247 0.084258 -0.034796 -435694.000000 0 0 1
-14.997508 28.847094 -24.420941 40.662789 -1.091358 2.215013 0.087886 -0.036349 409943.000000 0 0 1
-16.362808 29.554994 -24.659441 41.824959 -1.065163 2.201343 0.074264 -0.039415 629602.000000 0 0 1
-17.509108 28.737894 -24.599741 41.684322 -1.023589 2.202033 0.059729 -0.032543 30524.900000 0 0 1
-18.693908 29.402294 -25.042541 42.907877 -1.004470 2.193994 0.057787 -0.034392 518864.000000 0 0 1
-19.846408 28.414294 -25.310541 42.917077 -0.961101 2.201551 0.080194 -0.014515 -168896.000000 0 0 1
-20.445108 27.912494 -24.169141 42.204942 -0.938608 2.180545 0.081206 -0.019632 -367809.000000 0 0 1
-21.451308 26.974794 -24.504041 42.287660 -0.898967 2.188863 0.076114 -0.033130 -23424.800000 0 0 1
-22.374808 26.558494 -23.353741 41.849526 -0.870688 2.162819 0.086513 -0.032109 -109643.000000 0 0 1
-23.252208 27.566594 -22.884141 42.711429 -0.870092 2.136233 0.089206 -0.028525 -71968.300000 0 0 1
-23.454208 27.361294 -21.475741 41.951731 -0.862135 2.108209 0.080920 -0.025603 -781726.000000 0 0 1
-24.551108 28.190594 -20.883041 42.820181 -0.854295 2.080240 0.062915 -0.019716 -947358.000000 0 0 1
-25.826048 27.620294 -20.947841 43.228202 -0.818957 2.076688 0.083216 -0.021904 -692962.000000 0 0 1
-26.765338 28.521094 -20.405141 44.115824 -0.817145 2.051649 0.084599 -0.023650 -174505.000000 0 0 1
-28.180478 27.916694 -20.502541 44.652383 -0.780696 2.047845 0.084829 -0.021770 -176712.000000 0 0 1
-28.619048 27.698994 -21.833941 45.420317 -0.769063 2.072259 0.082278 -0.028078 360156.000000 0 0 1
-30.013518 27.422194 -21.917641 46.186264 -0.740312 2.065248 0.080322 -0.014872 488037.000000 0 0 1
-30.501378 27.053194 -23.372241 46.994372 -0.725558 2.091328 0.076916 -0.020099 88063.900000 0 0 1
-30.027048 25.791194 -23.757141 46.165042 -0.709657 2.111353 0.086577 -0.007013 -30317.200000 0 0 1
-30.357308 25.607694 -25.141911 47.004636 -0.700733 2.135164 0.088703 -0.005517 111484.000000 0 0 1
-30.679578 24.170494 -25.731681 46.771452 -0.667280 2.153350 0.075003 -0.008732 52071.300000 0 0 1
-29.623408 23.216994 -25.666411 45.555897 -0.664746 2.169297 0.101030 -0.022117 97089.400000 0 0 1
-30.044028 21.905794 -26.108621 45.433111 -0.630005 2.182986 0.090804 -0.010704 99134.400000 0 0 1
-28.909458 20.837394 -26.095921 44.169569 -0.624537 2.202861 0.109380 -0.009802 173918.000000 0 0 1
-28.683588 20.294894 -24.837141 43.029229 -0.615771 2.186111 0.100614 -0.003111 509314.000000 0 0 1
-27.936098 19.019094 -24.854541 41.951159 -0.597728 2.204910 0.109976 -0.008090 283590.000000 0 0 1
-28.788308 17.738694 -24.839341 41.957369 -0.552230 2.204352 0.096579 -0.005702 -110386.000000 0 0 1
-29.493528 17.571194 -26.063891 43.103845 -0.537299 2.220156 0.089867 -0.005980 113812.000000 0 0 1
-30.184118 16.354494 -25.974451 43.049072 -0.496545 2.218515 0.057848 -0.005999 -13212.400000 0 0 1
-31.034588 15.778494 -27.135941 44.141430 -0.470358 2.232865 0.028772 -0.012580 191758.000000 0 0 1
-32.215548 16.508494 -27.399501 45.399390 -0.473549 2.218706 0.026572 -0.007969 -143553.000000 0 0 1
-32.854698 15.843994 -28.485901 46.280773 -0.449342 2.233819 0.037282 -0.011260 92005.400000 0 0 1
-34.147578 16.566894 -28.970271 47.747206 -0.451702 2.222753 0.042868 -0.018606 -199053.000000 0 0 1
-35.109052 16.563894 -27.974231 47.849407 -0.440821 2.195221 0.022257 -0.012254 -679611.000000 0 0 1
-36.356318 16.928494 -28.514451 49.208025 -0.435773 2.188871 0.034478 -0.014959 819285.000000 0 0 1
-37.639918 16.470494 -27.709811 49.556778 -0.412478 2.164160 0.042218 -0.017020 759699.000000 0 0 1
37.751280 17.251394 -26.573871 49.284281 0.428639 2.140278 0.040609 -0.023320 -283706.000000 0 0 1
36.647970 16.776294 -25.857561 47.886649 0.429296 2.141203 0.038072 -0.013603 -160031.000000 0 0 1
36.067560 17.787794 -24.814841 47.255167 0.458177 2.123658 0.042051 -0.007109 112405.000000 0 0 1
35.447530 18.915194 -25.416381 47.542658 0.490174 2.134833 0.048741 -0.033604 58240.100000 0 0 1
34.796260 19.694994 -24.467741 46.875823 0.515051 2.119954 0.070329 -0.023814 -605818.000000 0 0 1
34.400750 21.108994 -25.017741 47.485667 0.550374 2.125685 0.096789 -0.046871 391602.000000 0 0 1
33.175020 21.094794 -25.749791 46.996000 0.566373 2.150666 0.104079 -0.051582 508156.000000 0 0 1
32.041850 21.373194 -24.920541 45.875123 0.588261 2.145071 0.136653 -0.049419 327965.000000 0 0 1
30.700290 21.280794 -25.695651 45.339237 0.606133 2.173342 0.099836 -0.047458 368233.000000 0 0 1
30.287340 19.930794 -25.972011 44.599382 0.582018 2.192401 0.120071 -0.054771 604263.000000 0 0 1
28.972040 19.824794 -26.548261 44.013767 0.600093 2.218279 0.146808 -0.055309 644837.000000 0 0 1
28.573240 18.343894 -26.624221 43.148321 0.570728 2.235771 0.150580 -0.037282 -318640.000000 0 0 1
29.333740 17.559394 -27.516991 43.886050 0.539395 2.248505 0.127589 -0.046318 -396040.000000 0 0 1
30.364940 16.965694 -26.779311 43.897561 0.509518 2.226909 0.121331 -0.035629 -785781.000000 0 0 1
31.382820 16.182394 -27.612741 44.824265 0.476085 2.234479 0.084896 -0.026442 -488551.000000 0 0 1
30.963950 15.107394 -28.450391 44.681364 0.453923 2.261059 0.102016 -0.037130 40722.700000 0 0 1
30.288640 13.987394 -27.897991 43.489617 0.432626 2.267230 0.111944 -0.029709 -133779.000000 0 0 1
31.079360 13.210894 -26.824071 43.127545 0.401930 2.242053 0.093568 -0.015936 -170638.000000 0 0 1
31.014300 13.816494 -25.565691 42.501610 0.419095 2.216202 0.097941 -0.015340 -35459.200000 0 0 1
31.939610 13.344494 -24.625641 42.481012 0.395760 2.189139 0.066175 -0.009179 -139623.000000 0 0 1
-15.632308 -30.894997 -23.065941 41.604177 1.102375 2.158455 0.133815 -0.028787 -156939.000000 0 0 1
-14.859208 -30.100797 -23.904441 41.210149 1.112243 2.189601 0.135381 -0.042480 -34789.100000 0 0 1
-15.440908 -29.867797 -25.180761 42.006876 1.093661 2.213602 0.103891 -0.036407 118293.000000 0 0 1
-14.688608 -28.768097 -25.983001 41.454493 1.098715 2.248215 0.126285 -0.039405 177963.000000 0 0 1
-15.073508 -27.466097 -25.590511 40.453324 1.068872 2.255694 0.118633 -0.026774 404441.000000 0 0 1
-14.330508 -26.476197 -26.336501 39.999547 1.074688 2.289514 0.114807 -0.030326 19332.700000 0 0 1
-14.822208 -25.090697 -25.952901 39.022993 1.037210 2.298380 0.048605 -0.012168 -272874.000000 0 0 1
-14.684408 -24.736597 -24.618141 37.862699 1.035073 2.278638 0.103095 -0.037584 -61384.700000 0 0 1
-14.932408 -23.329697 -24.446041 36.944019 1.001440 2.293887 0.057079 -0.029232 -232584.000000 0 0 1
-14.552108 -22.745597 -23.029241 35.489040 1.001641 2.276949 0.092787 -0.025284 -177836.000000 0 0 1
-13.186508 -22.696697 -22.708341 34.708685 1.044474 2.283994 0.139790 -0.046988 -407177.000000 0 0 1
-12.882408 -21.717197 -21.713241 33.302521 1.035400 2.281015 0.102260 -0.032841 371822.000000 0 0 1
-11.385008 -21.360297 -21.534141 32.397530 1.081100 2.297868 0.144595 -0.042657 312935.000000 0 0 1
-10.804408 -20.624597 -22.616541 32.459470 1.088243 2.341670 0.171588 -0.050932 -492224.000000 0 0 1
-9.414308 -20.603597 -22.494241 31.923789 1.142198 2.352688 0.224690 -0.057184 -281855.000000 0 0 1
-8.723608 -19.535597 -23.420641 31.721717 1.150816 2.401366 0.271058 -0.053583 59354.900000 0 0 1
-9.189208 -18.255297 -23.062041 30.814853 1.104455 2.416453 0.180615 -0.050497 92837.300000 0 0 1
-9.381308 -17.270797 -24.117341 31.111662 1.073197 2.457807 0.186328 -0.044973 -164587.000000 0 0 1
-8.071608 -16.710397 -24.739541 30.926253 1.120817 2.498013 0.228818 -0.046237 89619.000000 0 0 1
-7.647908 -17.462197 -25.859451 32.126781 1.157992 2.506335 0.207121 -0.056179 415730.000000 0 0 1
-6.467608 -16.830297 -26.382241 31.954835 1.203911 2.542079 0.211846 -0.051518 396908.000000 0 0 1
-5.972708 -17.495597 -27.676161 33.282714 1.241818 2.552684 0.214521 -0.049669 48430.300000 0 0 1
-6.736408 -17.036497 -28.783201 34.118823 1.194253 2.574780 0.232880 -0.050790 126780.000000 0 0 1
-6.652608 -17.933997 -29.864511 35.465116 1.215581 2.571927 0.243248 -0.051781 -313726.000000 0 0 1
-7.540708 -17.541497 -31.036021 36.439004 1.164801 2.590065 0.240471 -0.048261 -249129.000000 0 0 1
-7.243108 -16.349697 -31.779181 36.464936 1.153769 2.629049 0.189657 -0.043936 -207474.000000 0 0 1
-7.170708 -15.088197 -31.067751 35.274324 1.127142 2.648233 0.159316 -0.041608 -195609.000000 0 0 1
-7.819908 -14.001197 -31.913911 35.716694 1.061438 2.675941 0.117289 -0.035685 -70159.500000 0 0 1
-7.203308 -13.762397 -33.179891 36.635999 1.088600 2.703739 0.122717 -0.047116 227248.000000 0 0 1
-7.936608 -12.886197 33.510379 36.769407 1.018768 0.424206 0.101156 -0.030237 108270.000000 0 0 1
-8.235208 -11.376297 -33.631401 36.445987 0.944215 2.746014 0.070802 -0.027986 -217631.000000 0 0 1
-7.183108 -10.474697 -33.525961 35.851170 0.969693 2.779458 0.060620 -0.031523 -526988.000000 0 0 1
-6.586308 -10.000497 32.838389 34.953529 0.988400 0.349666 0.043901 -0.028765 716903.000000 0 0 1
-5.507608 -8.865497 33.074586 34.682258 1.014905 0.305669 0.069247 -0.035634 433094.000000 0 0 1
-5.164008 -8.281697 31.827385 33.290178 1.013244 0.297544 0.044767 -0.027754 -391300.000000 0 0 1
-4.202508 -7.292497 31.981025 33.070040 1.048002 0.257344 0.047495 -0.035774 -1200590.000000 0 0 1
-4.281508 -6.333197 30.746479 31.682593 0.976331 0.243694 0.036040 -0.023549 -495724.000000 0 0 1
-5.331308 -5.422497 30.711449 31.638891 0.793878 0.242725 0.013497 -0.018310 360251.000000 0 0 1
-6.559908 -6.055097 30.240989 31.531159 0.745403 0.287052 0.011525 -0.012101 -12910.800000 0 0 1
-7.740208 -5.101397 30.307119 31.693162 0.582730 0.296836 0.007152 -0.012485 -512870.000000 0 0 1
-8.773308 -5.664897 29.514359 31.307497 0.573344 0.340089 0.029006 -0.014409 -281930.000000 0 0 1
-9.959708 -4.879097 29.632389 31.639846 0.455522 0.358133 0.039052 -0.020877 156201.000000 0 0 1
-11.046608 -5.453797 28.699719 31.232120 0.458601 0.405471 0.064553 -0.021199 -215903.000000 0 0 1
-10.703908 -5.432697 27.341259 29.860213 0.469664 0.413695 0.057499 -0.016497 -418768.000000 0 0 1
-11.533408 -6.275497 26.668499 29.725582 0.498313 0.457507 0.074278 -0.026131 -513558.000000 0 0 1
-11.260008 -6.221297 25.178119 28.274193 0.504770 0.472357 0.059038 -0.020557 -43152.200000 0 0 1
-10.013508 -6.802997 24.878349 27.667370 0.596754 0.452871 0.055867 -0.018566 -448872.000000 0 0 1
-9.501308 -6.507097 23.633009 26.289471 0.600495 0.453422 0.058545 -0.024634 -501194.000000 0 0 1
-10.203108 -6.878297 22.276059 25.448717 0.593157 0.504676 0.080818 -0.033165 -541160.000000 0 0 1
-11.359908 -6.125097 22.128959 25.617478 0.494502 0.527987 0.057383 -0.023725 -212957.000000 0 0 1
-12.136208 -6.374797 20.916059 25.008141 0.483659 0.580169 0.064705 -0.026027 493886.000000 0 0 1
-13.305808 -5.376597 20.797959 25.268705 0.384018 0.603998 0.072269 -0.021393 -182387.000000 0 0 1
-12.886708 -4.052497 20.557859 24.599097 0.304680 0.581361 0.054501 -0.016891 -179289.000000 0 1 0
-13.982108 -3.157097 20.570159 25.071858 0.222071 0.608602 0.068032 -0.014956 153761.000000 0 0 1
-13.749508 -1.654897 20.179359 24.474358 0.119784 0.601460 0.054900 -0.008372 -146528.000000 0 1 0
-12.842208 -0.960897 20.989959 24.625678 0.074684 0.550313 0.059530 -0.015588 -221381.000000 0 1 0
-13.021508 0.474103 20.855659 24.591522 -0.036393 0.558439 0.064202 -0.019585 -210038.000000 0 1 0
-12.544008 1.178103 19.581659 23.284790 -0.093643 0.571735 0.057830 -0.024034 -119634.000000 0 1 0
-13.202608 0.946103 18.343659 22.620650 -0.071538 0.625065 0.062223 -0.021686 -599983.000000 0 1 0
-14.403708 1.634103 18.188759 23.258720 -0.112967 0.672898 0.059763 -0.018006 -707018.000000 0 1 0
-15.420908 1.003103 17.264059 23.170204 -0.064957 0.730115 0.073548 -0.015827 -259658.000000 0 1 0
-15.712408 -0.294897 17.715559 23.681380 0.018766 0.725633 0.065961 -0.012917 142761.000000 0 1 0
-16.891008 -0.747897 17.086659 24.037875 0.044249 0.780130 0.082396 -0.017423 18807.800000 0 1 0
-17.144608 -2.280897 17.116659 24.333518 0.132262 0.790600 0.086068 -0.023254 -68716.900000 0 1 0
-17.503908 -2.663797 18.402459 25.536897 0.151024 0.766097 0.087919 -0.015650 -66151.400000 0 0 1
-17.418608 -4.033997 18.456259 25.696586 0.227579 0.769530 0.109413 -0.024675 -323884.000000 0 0 1
-18.333608 -4.522597 19.554959 27.184030 0.241855 0.767923 0.108623 -0.020138 -415370.000000 0 0 1
-17.944308 -3.956297 20.823359 27.771618 0.217005 0.723026 0.113484 -0.014143 72267.200000 0 0 1
-18.794408 -4.260597 21.925659 29.191043 0.222927 0.721056 0.106617 -0.021394 -238814.000000 0 0 1
-18.762908 -5.672597 22.495689 29.837579 0.293593 0.716760 0.124161 -0.025249 120964.000000 0 0 1
-17.599908 -6.194397 23.121059 29.710448 0.338416 0.678981 0.079894 -0.024055 445922.000000 0 0 1
-16.669608 -6.784197 22.209059 28.585722 0.386509 0.681024 0.093034 -0.017126 -151542.000000 0 0 1
-15.463908 -7.458997 22.865969 28.594084 0.449427 0.644043 0.103550 -0.015450 -457369.000000 0 0 1
-15.768808 -8.637297 23.556079 29.633546 0.501111 0.651933 0.109857 -0.027348 -33224.500000 0 0 1
-15.477308 -8.612997 24.911449 30.566503 0.507814 0.618081 0.107946 -0.027126 -74784.100000 0 0 1
-16.421908 -9.475497 25.749579 31.976631 0.523339 0.634678 0.101566 -0.029865 -276493.000000 0 0 1
-16.309908 -10.864697 25.556259 32.205234 0.587639 0.654186 0.108570 -0.037454 297147.000000 0 0 1
-15.329808 -11.425797 26.445469 32.633031 0.640507 0.625980 0.111024 -0.032111 403336.000000 0 0 1
-15.179808 -12.928797 26.305019 33.008096 0.705486 0.648607 0.111672 -0.035817 -563425.000000 0 0 1
-16.311208 -13.461697 26.891949 34.211836 0.689981 0.666416 0.097987 -0.041293 -398799.000000 0 0 1
-16.502608 -14.863397 26.695269 34.725985 0.733185 0.693927 0.108291 -0.030185 -120073.000000 0 0 1
-15.501808 -15.785397 27.409319 35.224361 0.794462 0.679105 0.110495 -0.025728 576301.000000 0 0 1
-14.232608 -15.937497 26.749579 34.236106 0.841847 0.674008 0.082869 -0.032471 540712.000000 0 0 1
-13.319308 -16.574697 27.594569 34.836544 0.893868 0.656529 0.095995 -0.026536 -637353.000000 0 0 1
-11.996908 -16.927897 26.931449 33.996801 0.954251 0.656430 0.106954 -0.030138 136198.000000 0 0 1
-11.032008 -17.521297 27.840469 34.695717 1.008871 0.639460 0.139808 -0.034195 251035.000000 0 0 1
-9.939708 -18.059497 27.153079 34.091538 1.067656 0.649352 0.133332 -0.038470 -50852.100000 0 0 1
-8.889008 -18.654597 28.118789 34.895197 1.126121 0.633760 0.175661 -0.049116 118903.000000 0 0 1
-9.471408 -19.735397 28.797449 36.173008 1.123342 0.649968 0.171922 -0.043038 -26956.500000 0 0 1
-8.538308 -20.328797 29.653809 36.952822 1.173159 0.639360 0.205691 -0.048485 -231514.000000 0 0 1
-8.854908 -21.685297 30.332489 38.323901 1.183124 0.657574 0.176327 -0.045673 -195945.000000 0 0 1
-8.771708 -22.781797 29.402929 38.216297 1.203260 0.692923 0.195835 -0.047548 92745.900000 0 0 1
-9.022408 -24.049297 30.002409 39.495786 1.211883 0.708044 0.160047 -0.041878 -44872.900000 0 0 1
-8.968008 -25.191997 28.920019 39.388188 1.228798 0.746263 0.146049 -0.028053 187435.000000 0 0 1
-10.081908 -25.180297 28.015829 38.994601 1.189955 0.769219 0.121042 -0.030730 555517.000000 0 0 1
-10.012508 -26.307797 27.149879 39.108393 1.207133 0.803459 0.094061 -0.026317 748396.000000 0 0 1
-11.457708 -26.646497 26.593469 39.351334 1.164707 0.828752 0.084498 -0.023412 1053570.000000 0 0 1
-11.719208 -26.051397 25.340959 38.186114 1.148068 0.845153 0.092198 -0.026683 17296.500000 0 0 1
-12.404508 -24.850297 25.555529 37.742471 1.107813 0.826978 0.078685 -0.019514 -541011.000000 0 0 1
-12.648808 -24.119597 24.226519 36.450947 1.087804 0.843793 0.098702 -0.040722 -89808.400000 0 0 1
-13.719508 -24.604397 23.452019 36.655129 1.062134 0.876556 0.091792 -0.029158 -65853.000000 0 0 1
-13.876008 -23.867097 22.248259 35.456550 1.044176 0.892484 0.101760 -0.038850 134667.000000 0 0 1
-15.241008 -23.937997 21.511159 35.609633 1.003837 0.922182 0.103777 -0.032789 -52810.500000 0 0 1
-15.386808 -25.206897 20.921259 36.191720 1.022750 0.954438 0.109788 -0.029711 147290.000000 0 0 1
-16.578908 -25.196497 20.161859 36.279805 0.988828 0.981553 0.108980 -0.031882 21210.200000 0 0 1
-17.099808 -26.583797 19.718959 37.255054 0.999187 1.013025 0.110107 -0.027360 -69904.200000 0 0 1
-16.238908 -27.212597 18.816059 36.854737 1.032776 1.034976 0.108972 -0.034209 -76492.400000 0 0 1
-16.660208 -28.533397 18.556159 37.895228 1.042311 1.059085 0.113798 -0.032872 163057.000000 0 0 1
-15.731308 -29.274297 17.570259 37.592187 1.077697 1.084459 0.117548 -0.040937 -44453.700000 0 0 1
-15.837708 -28.876297 16.234359 36.718224 1.069131 1.112820 0.115065 -0.045615 -371269.000000 0 0 1
-14.624108 -28.925197 15.530359 35.940557 1.102692 1.123963 0.103423 -0.044974 -248735.000000 0 0 1
-14.794808 -28.371497 14.167259 34.993420 1.090123 1.153976 0.102146 -0.041504 -96219.400000 0 0 1
-14.895608 -26.955797 14.144059 33.890243 1.065964 1.140270 0.098812 -0.045051 -145805.000000 0 0 1
-15.130908 -26.426097 12.839759 33.047578 1.050787 1.171768 0.104616 -0.047536 179827.000000 0 0 1
-14.102308 -26.773597 11.731659 32.455083 1.085998 1.200948 0.093456 -0.041759 338509.000000 0 0 1
-14.461708 -26.126697 10.470859 31.644655 1.065253 1.233551 0.087757 -0.036180 411308.000000 0 0 1
-13.464908 -26.371397 9.458859 31.084149 1.098715 1.261594 0.093687 -0.034283 566116.000000 0 0 1
-13.743408 -25.631197 8.110459 30.193030 1.078611 1.298836 0.101293 -0.032442 -301267.000000 0 0 1
-14.762808 -26.297497 7.432959 31.060388 1.059260 1.329145 0.096160 -0.046665 -412611.000000 0 0 1
-15.227908 -25.495297 6.363859 30.371007 1.032377 1.359695 0.086804 -0.042662 162944.000000 0 0 1
-16.133408 -26.208997 5.364759 31.240663 1.019009 1.398217 0.075724 -0.045416 -188954.000000 0 0 1
-15.380208 -27.051897 4.567659 31.451859 1.053827 1.425054 0.066635 -0.037000 -370152.000000 0 0 1
-16.113208 -27.600497 3.484059 32.149052 1.042373 1.462211 0.105496 -0.034360 -545998.000000 0 0 1
-15.521908 -28.732197 2.724959 32.770325 1.075487 1.487547 0.113886 -0.034012 -379670.000000 0 0 1
-14.418908 -28.415197 1.905559 31.921145 1.101217 1.511065 0.074476 -0.018932 -49251.000000 0 0 1
-13.843808 -29.564697 1.279359 32.670462 1.132866 1.531627 0.077208 -0.026127 193472.000000 0 0 1
-12.524808 -29.357497 0.497559 31.921482 1.167545 1.555209 0.076260 -0.024851 100138.000000 0 0 1
-12.565608 -28.562797 -0.669941 31.211804 1.156349 1.592262 0.087181 -0.023927 -121265.000000 0 0 1
-12.650908 -27.161397 -0.426941 29.966135 1.134907 1.585044 0.078999 -0.027187 -225674.000000 0 0 1
-12.391208 -26.394997 -1.750341 29.211326 1.131884 1.630752 0.085030 -0.035753 608471.000000 0 0 1
-11.061808 -26.544597 -2.247141 28.844911 1.175955 1.648780 0.107040 -0.037991 -111836.000000 0 0 1
-10.710008 -25.627597 -3.208141 27.960153 1.174947 1.685789 0.118200 -0.037115 -183707.000000 0 0 1
-9.366908 -26.088997 -3.757041 27.973024 1.226094 1.705513 0.117679 -0.039720 171507.000000 0 0 1
-8.692708 -25.129497 -4.621641 26.989153 1.237764 1.742885 0.121545 -0.039383 853951.000000 0 0 1
-7.402408 -25.568897 -5.101341 27.103280 1.288992 1.760144 0.129569 -0.035809 1232140.000000 0 0 1
-6.715908 -24.410697 -5.948641 26.007150 1.302317 1.801570 0.117297 -0.039456 -714285.000000 0 0 1
-7.133208 -24.242197 -7.227541 26.283153 1.284625 1.849373 0.122412 -0.041472 -406996.000000 0 0 1
-6.590108 -23.144397 -7.898741 25.327510 1.293399 1.887951 0.132068 -0.039347 -376039.000000 0 0 1
-6.859308 -23.237797 -9.385441 25.983299 1.283768 1.940362 0.110254 -0.039171 -60729.400000 0 0 1
-6.015308 -24.160997 -10.051941 26.851056 1.326789 1.954502 0.100078 -0.041860 16171.900000 0 0 1
-6.193808 -24.274097 -11.473441 27.554217 1.320966 2.000273 0.078813 -0.017714 -518369.000000 0 0 1
-7.480208 -24.901997 -11.987441 28.631481 1.278986 2.002788 0.075932 -0.016751 -400705.000000 0 0 1
-7.581608 -24.889597 -13.395541 29.264541 1.275116 2.046248 0.092083 -0.012344 564942.000000 0 0 1
-8.709108 -25.648497 -13.857441 30.425690 1.243456 2.043676 0.109195 -0.015387 -98165.900000 0 0 1
-8.825108 -25.523897 -15.450741 31.113940 1.237905 2.090457 0.119008 -0.020734 -89242.200000 0 0 1
-7.791808 -26.014797 -16.264341 31.654553 1.279785 2.110413 0.107402 -0.031507 447668.000000 0 0 1
-6.548408 -25.307397 -16.240541 30.775009 1.317595 2.126709 0.109179 -0.022823 300492.000000 0 0 1
-5.356308 -26.145997 -16.745441 31.507348 1.368731 2.131140 0.108002 -0.017967 -354208.000000 0 0 1
-5.472008 -26.497097 -18.077941 32.539990 1.367146 2.159834 0.173707 -0.029954 -656108.000000 0 0 1
-4.375008 -27.170597 -18.554441 33.191103 1.411147 2.163998 0.153393 -0.032758 -556494.000000 0 0 1
-26.251878 14.806094 -4.413941 30.460867 -0.513529 1.716214 0.186245 -0.054231 51926.900000 0 0 1
-25.754928 13.548794 -3.941841 29.367061 -0.484282 1.705429 0.195880 -0.055179 185169.000000 0 0 1
-24.463408 13.312194 -4.463141 28.206249 -0.498354 1.729697 0.199026 -0.049869 -126265.000000 0 0 1
-23.932208 11.863994 -4.189141 27.038007 -0.460228 1.726358 0.194403 -0.048582 78096.600000 0 0 1
-24.584208 10.781694 -4.866641 27.282090 -0.413301 1.750138 0.193431 -0.029501 246596.000000 0 0 1
-25.931208 10.523794 -4.513041 28.346875 -0.385526 1.730684 0.224432 -0.035389 -170669.000000 0 0 1
-26.601308 9.709094 -5.604141 28.866980 -0.349962 1.766174 0.231956 -0.024213 -212715.000000 0 0 1
-27.081428 10.470994 -6.729441 29.804880 -0.368944 1.798543 0.281122 -0.035632 157711.000000 0 0 1
-27.230138 9.627394 -7.884541 29.938823 -0.339840 1.837295 0.257920 -0.026939 36419.400000 0 0 1
-27.635058 10.428994 -9.166941 30.927224 -0.360858 1.871721 0.247272 -0.023498 119259.000000 0 0 1
-26.624948 11.268494 -9.712641 30.499217 -0.400371 1.894896 0.241281 -0.015004 145079.000000 0 0 1
-26.984198 11.808794 -10.958741 31.427513 -0.412510 1.926979 0.236586 -0.020709 -551289.000000 0 0 1
-25.909048 12.618794 -11.658041 31.087339 -0.453228 1.955203 0.215048 -0.017002 -522088.000000 0 0 1
-25.633848 13.844994 -11.108141 31.179622 -0.495215 1.935062 0.198448 -0.027793 174926.000000 0 0 1
-24.757708 14.631194 -11.878141 31.114405 -0.533757 1.962493 0.168986 -0.025365 -148419.000000 0 0 1
-24.707008 16.097094 -11.361141 31.601079 -0.577443 1.938547 0.175984 -0.036290 -233687.000000 0 0 1
-23.792008 16.366794 -10.319941 30.666477 -0.602567 1.914017 0.152293 -0.029892 105848.000000 0 0 1
-23.825708 17.734194 -10.014041 31.344011 -0.639863 1.895986 0.110854 -0.024573 -295935.000000 0 0 1
-22.638808 18.165794 -9.149541 30.433958 -0.676214 1.876156 0.103401 -0.030840 -593124.000000 0 0 1
-22.631008 17.821094 -7.746241 29.828814 -0.667050 1.833497 0.125351 -0.042520 690563.000000 0 0 1
-23.633208 18.490494 -6.931541 30.797291 -0.663913 1.797811 0.135903 -0.036012 476608.000000 0 0 1
-23.966008 17.779894 -5.626741 30.366995 -0.638284 1.757165 0.141841 -0.029728 -43157.200000 0 0 1
-22.989108 17.857494 -4.617241 29.473854 -0.660422 1.728100 0.124589 -0.041329 186454.000000 0 0 1
-23.581908 17.415794 -3.408141 29.513246 -0.636116 1.686533 0.132468 -0.041067 32188.900000 0 0 1
-22.602808 16.999094 -2.293941 28.374607 -0.644830 1.651730 0.134635 -0.050978 507793.000000 0 0 1
-21.665008 18.038894 -1.863641 28.253273 -0.694322 1.636806 0.115624 -0.044398 1304860.000000 0 0 1
-20.804508 17.576694 -0.797041 27.247073 -0.701497 1.600053 0.177217 -0.069404 372368.000000 0 0 1
-20.081408 18.837394 -0.271041 27.535138 -0.753445 1.580640 0.131260 -0.048121 -2232.380000 0 0 1
-20.892508 19.527994 0.677159 28.605908 -0.751653 1.547122 0.123403 -0.043708 320618.000000 0 0 1
-20.614808 20.930894 0.712059 29.386726 -0.793006 1.546563 0.127639 -0.043619 238468.000000 0 0 1
-21.732308 21.787594 1.392759 30.804744 -0.786669 1.525568 0.105975 -0.032432 291999.000000 0 0 1
-21.941108 21.446394 2.762959 30.805746 -0.773996 1.480986 0.135234 -0.034103 444647.000000 0 0 1
-23.151808 21.987394 3.276059 32.096484 -0.759608 1.468549 0.113714 -0.034024 224668.000000 0 0 1
-23.304808 21.808394 4.850159 32.283807 -0.752240 1.419990 0.137115 -0.034257 -201293.000000 0 0 1
-22.355808 22.564594 5.598859 32.253531 -0.790046 1.396323 0.116859 -0.022869 291395.000000 0 0 1
-21.579608 21.746494 6.451159 31.308257 -0.789250 1.363257 0.116008 -0.022827 44357.600000 0 0 1
-22.237008 21.373994 7.826359 31.821126 -0.765612 1.322298 0.092298 -0.025610 -485000.000000 0 0 1
-23.418808 20.603494 7.799359 32.152364 -0.721533 1.325777 0.109967 -0.018660 492241.000000 0 0 1
-23.873808 20.177294 9.107559 32.558095 -0.701680 1.287281 0.130417 -0.022775 -58149.200000 0 0 1
-24.207908 21.240594 10.182759 33.776830 -0.720201 1.264561 0.129574 -0.021496 -175046.000000 0 0 1
-25.376808 21.979494 9.789559 34.970216 -0.713781 1.287065 0.148758 -0.019252 767633.000000 0 0 1
-25.962508 22.666094 10.902959 36.148003 -0.717714 1.264405 0.151446 -0.020052 752461.000000 0 0 1
-27.408638 23.208994 10.616459 37.451302 -0.702620 1.283382 0.159689 -0.025613 475197.000000 0 0 1
-27.922738 23.811094 11.726159 38.524671 -0.706088 1.261508 0.166485 -0.029379 -385186.000000 0 0 1
-28.003008 25.246794 11.614559 39.452085 -0.733684 1.271972 0.154385 -0.029044 -52292.700000 0 0 1
-28.121168 25.885794 12.996059 40.370434 -0.744031 1.243039 0.186813 -0.039942 -244775.000000 0 0 1
-27.002438 25.760094 13.815659 39.794303 -0.761857 1.216237 0.143479 -0.031552 -556301.000000 0 0 1
-27.304828 26.209794 15.128459 40.759995 -0.764939 1.190539 0.175741 -0.037289 -463123.000000 0 0 1
-26.206618 26.263494 16.172159 40.473407 -0.786482 1.159743 0.139437 -0.040045 -658165.000000 0 0 1
-25.859888 24.952694 16.603859 39.586094 -0.767546 1.137972 0.149081 -0.042901 -42352.600000 0 0 1
-25.022938 25.118994 17.730959 39.642126 -0.787314 1.107079 0.111126 -0.037675 -69833.500000 0 0 1
-24.514008 23.812294 18.380159 38.804538 -0.770879 1.077354 0.115967 -0.031410 22524.800000 0 0 1
-23.600408 23.959494 19.467659 38.859057 -0.792948 1.046064 0.104710 -0.039916 552984.000000 0 0 1
-23.050708 22.718994 19.833959 37.958843 -0.778151 1.021002 0.117890 -0.037895 -344786.000000 0 0 1
-21.518908 22.726794 19.958159 37.120057 -0.812691 1.003131 0.100737 -0.041770 -566657.000000 0 0 1
-20.761708 22.835994 18.748159 36.111281 -0.832940 1.024908 0.104685 -0.048736 1618860.000000 0 0 1
-19.373808 22.435894 18.933059 35.173491 -0.858506 1.002406 0.095332 -0.048768 1229410.000000 0 0 1
-18.943908 20.969994 19.174459 34.150727 -0.836116 0.974640 0.080838 -0.037890 -645740.000000 0 0 1
-19.510508 20.295594 20.266959 34.688913 -0.805118 0.946842 0.098165 -0.038579 500665.000000 0 0 1
-18.676508 20.493694 21.428459 35.042578 -0.831757 0.912844 0.095878 -0.027737 803333.000000 0 0 1
-19.553408 20.232394 22.727859 36.169616 -0.802463 0.891342 0.086360 -0.024528 975831.000000 0 0 1
-20.646808 21.173594 22.848859 37.372210 -0.797994 0.912985 0.097613 -0.027556 283578.000000 0 0 1
-21.145608 20.979794 24.089859 38.309396 -0.781462 0.890757 0.106602 -0.015650 416747.000000 0 0 1
-22.480408 21.808094 24.261859 39.618171 -0.770219 0.911713 0.099299 -0.020074 116103.000000 0 0 1
-22.222108 23.164494 24.502759 40.383178 -0.806159 0.918822 0.112235 -0.028524 510115.000000 0 0 1
-23.366808 24.026194 24.505359 41.518409 -0.799310 0.939454 0.106279 -0.033191 109342.000000 0 0 1
-24.271108 24.136094 23.297259 41.405313 -0.782609 0.973192 0.091601 -0.033969 -289168.000000 0 0 1
-25.228038 23.087494 23.176559 41.311489 -0.741124 0.975179 0.073097 -0.034873 284079.000000 0 0 1
-25.989558 23.188794 21.990559 41.191771 -0.728508 1.007640 0.074598 -0.028542 -48453.900000 0 0 1
-27.184768 22.205794 21.877959 41.361262 -0.684929 1.013436 0.097104 -0.021760 684676.000000 0 0 1
-28.400268 22.780994 22.372159 42.732451 -0.676045 1.019795 0.078944 -0.034750 551586.000000 0 0 1
-29.519358 21.933694 22.177859 42.945743 -0.639024 1.028136 0.098235 -0.029391 -77910.700000 0 0 1
-30.854858 22.590394 22.506359 44.372112 -0.631979 1.038842 0.118212 -0.021194 -1137640.000000 0 0 1
-31.308248 23.477394 21.497959 44.649263 -0.643424 1.068448 0.129160 -0.030246 -157723.000000 0 0 1
-32.668068 23.814294 21.564459 45.818655 -0.629911 1.080771 0.141106 -0.030816 -161088.000000 0 0 1
-33.622088 22.770594 20.955559 45.695516 -0.595294 1.094387 0.145580 -0.040490 -1094720.000000 0 0 1
-33.587188 21.466494 21.560459 45.318462 -0.568694 1.074975 0.128027 -0.036981 281901.000000 0 0 1
-34.215977 20.485094 20.718259 44.940165 -0.539463 1.091653 0.131901 -0.031466 215089.000000 0 0 1
-35.752780 20.467194 20.578759 46.050544 -0.519927 1.107529 0.146999 -0.035272 -39398.300000 0 0 1
-36.295728 19.562194 19.587359 45.647825 -0.494333 1.127303 0.130903 -0.019006 161718.000000 0 0 1
-37.705038 19.657194 19.548459 46.799759 -0.480575 1.139879 0.151429 -0.031627 397806.000000 0 0 1
37.261560 18.815294 18.395759 45.616259 0.467601 1.155707 0.135395 -0.032872 194462.000000 0 0 1
37.470690 17.425194 18.508059 45.279556 0.435287 1.149711 0.131738 -0.029254 226672.000000 0 0 1
36.941910 16.736094 17.361559 44.116043 0.425378 1.166314 0.147708 -0.045628 100862.000000 0 0 1
37.172830 15.201894 17.222159 43.698050 0.388199 1.165689 0.158800 -0.053894 -550142.000000 0 0 1
36.183320 14.590594 16.481259 42.352685 0.383297 1.171095 0.189760 -0.062601 -377723.000000 0 0 1
36.525470 13.263994 16.117159 42.069065 0.348336 1.177633 0.187561 -0.063761 659298.000000 0 0 1
35.323510 12.612794 15.335959 40.521902 0.342955 1.182663 0.169008 -0.068141 473977.000000 0 0 1
35.237860 13.086194 13.998459 40.111246 0.355582 1.214302 0.170658 -0.068929 232185.000000 0 0 1
34.570530 12.097694 13.238559 38.945284 0.336623 1.223957 0.175766 -0.057780 -346138.000000 0 0 1
34.559720 12.337394 11.719159 38.521737 0.342886 1.261675 0.186734 -0.056852 -160178.000000 0 0 1
35.774460 12.000294 11.088259 39.328978 0.323648 1.284985 0.186008 -0.054303 215534.000000 0 0 1
35.653960 12.048294 9.709959 38.867075 0.325876 1.318297 0.184175 -0.046697 -758110.000000 0 0 1
36.981300 12.335894 9.010659 40.012283 0.321965 1.343651 0.131898 -0.023808 -6932.740000 0 0 1
-37.730458 11.254394 9.388259 40.477009 -0.289882 1.336724 0.200834 -0.049084 986055.000000 0 0 1
-36.410998 11.243694 8.862859 39.124567 -0.299510 1.342284 0.223248 -0.044432 506436.000000 0 0 1
-36.199018 11.271594 7.314559 38.612440 -0.301863 1.380209 0.180076 -0.050836 -704873.000000 0 0 1
-36.621258 12.418094 6.609159 39.230175 -0.326927 1.401518 0.168651 -0.054730 87495.900000 0 0 1
-36.124118 12.310494 5.304559 38.531007 -0.328440 1.432688 0.193307 -0.060067 42314.000000 0 0 1
-37.084428 12.981694 4.280959 39.523484 -0.336726 1.462269 0.185571 -0.065522 -712579.000000 0 0 1
37.343550 12.272794 4.098259 39.521613 0.317526 1.466913 0.174968 -0.059409 746125.000000 0 0 1
36.209160 13.166894 3.926159 38.728350 0.348769 1.469245 0.136081 -0.057560 811709.000000 0 0 1
35.747470 13.713594 5.271759 38.648877 0.366310 1.433968 0.134868 -0.040435 -1259250.000000 0 0 1
34.833070 14.811294 5.049359 38.186558 0.402047 1.438179 0.119308 -0.030690 495234.000000 0 0 1
34.483030 15.457994 6.267459 38.305482 0.421421 1.406440 0.093107 -0.022676 510156.000000 0 0 1
33.260150 14.842894 7.043259 37.096584 0.419745 1.379774 0.157375 -0.033784 333975.000000 0 0 1
33.499280 13.514794 7.546159 36.902519 0.383464 1.364855 0.204516 -0.033724 111903.000000 0 0 1
32.297450 13.029894 8.106059 35.757679 0.383463 1.342114 0.205481 -0.034934 -55150.500000 0 0 1
31.857920 11.694394 7.574459 34.771516 0.351809 1.351201 0.212554 -0.036601 -233798.000000 0 0 1
31.364540 11.782894 6.257159 34.084057 0.359363 1.386169 0.197154 -0.047484 278549.000000 0 0 1
31.535170 10.577694 5.528759 33.718270 0.323632 1.406083 0.206991 -0.046617 -179041.000000 0 0 1
31.127790 10.744194 4.002659 33.172251 0.332360 1.449839 0.175690 -0.044559 -52140.600000 0 0 1
29.755840 10.841694 3.725259 31.887770 0.349406 1.453705 0.163254 -0.041489 -15405.900000 0 0 1
29.430440 11.151194 2.329059 31.558270 0.362185 1.496927 0.188147 -0.047517 238605.000000 0 0 1
27.945940 11.012594 1.894259 30.097192 0.375382 1.507817 0.209218 -0.035419 181205.000000 0 0 1
27.563840 9.680994 1.853659 29.273246 0.337762 1.507431 0.188295 -0.030404 64824.900000 0 0 1
26.151140 9.592794 1.857859 27.916938 0.351581 1.504198 0.184311 -0.032677 312878.000000 0 0 1
25.581840 8.119594 1.737059 26.895645 0.307340 1.506166 0.198983 -0.035710 343396.000000 0 0 1
26.051840 7.229594 2.746559 27.175521 0.270696 1.469556 0.205480 -0.029701 975700.000000 0 0 1
27.402340 6.744894 2.677559 28.346977 0.241345 1.476199 0.246307 -0.033307 453137.000000 0 0 1
27.910740 6.171194 4.002459 28.863692 0.217604 1.431680 0.237024 -0.037308 -396980.000000 0 0 1
29.315540 6.097294 3.962259 30.203929 0.205065 1.439234 0.245841 -0.035802 82188.800000 0 0 1
29.739540 5.466994 5.172759 30.677120 0.181799 1.401367 0.228533 -0.025649 121345.000000 0 0 1
31.222500 5.557094 5.602559 32.204261 0.176139 1.395937 0.215610 -0.029530 357110.000000 0 0 1
31.710510 6.864394 6.050559 33.004327 0.213181 1.386427 0.230500 -0.038605 937568.000000 0 0 1
33.125940 6.790494 6.303959 34.397363 0.202189 1.386486 0.234572 -0.037507 1117320.000000 0 0 1
33.673340 7.946694 7.175059 35.334476 0.231753 1.366313 0.196102 -0.048025 27955.700000 0 0 1
33.094530 7.997494 8.464259 35.083493 0.237110 1.327132 0.217705 -0.051278 -171800.000000 0 0 1
33.847640 8.735294 9.325359 36.179143 0.252566 1.310098 0.233074 -0.054650 -214820.000000 0 0 1
33.261680 8.614894 10.788459 36.013144 0.253434 1.266554 0.227168 -0.054916 -2437.920000 0 0 1
32.012950 9.234194 10.953859 35.072586 0.280829 1.253162 0.220652 -0.055318 -149181.000000 0 0 1
31.425020 8.793894 12.175459 34.829674 0.272858 1.213683 0.210245 -0.058512 -671204.000000 0 0 1
30.038640 9.413794 12.236959 33.773992 0.303695 1.200042 0.182951 -0.048213 -972656.000000 0 0 1
30.088840 10.817894 12.597659 34.366642 0.345141 1.195480 0.212637 -0.058737 269765.000000 0 0 1
30.131240 11.752994 11.490459 34.322807 0.371908 1.229429 0.215520 -0.059455 -105937.000000 0 0 1
28.885940 11.768994 10.564359 32.931936 0.386895 1.244229 0.175147 -0.037837 -209428.000000 0 0 1
28.970340 12.822194 9.605859 33.105313 0.416681 1.276402 0.148994 -0.023079 717886.000000 0 0 1
27.822840 12.923294 8.756459 31.902939 0.434834 1.292756 0.143304 -0.021888 392712.000000 0 0 1
27.888040 14.195594 7.867159 32.266853 0.470838 1.324498 0.139083 -0.030155 -1585.870000 0 0 1
27.641540 15.398194 8.595959 32.787949 0.508253 1.305528 0.137818 -0.021121 95498.600000 0 0 1
27.933840 16.522594 7.844759 33.389156 0.534139 1.333630 0.133609 -0.016261 -1036890.000000 0 0 1
27.362040 17.803694 8.555259 33.746780 0.576847 1.314486 0.149975 -0.032778 1208460.000000 0 0 1
25.941340 18.108494 8.499259 32.758328 0.609420 1.308340 0.160507 -0.039778 1673050.000000 0 0 1
25.137340 17.025894 9.052559 31.681473 0.595338 1.281021 0.175750 -0.034728 -1226590.000000 0 0 1
23.668940 17.418394 9.192159 30.791475 0.634427 1.267645 0.162236 -0.047704 -678827.000000 0 0 1
23.122540 17.761194 7.943459 30.219371 0.655006 1.304811 0.154699 -0.048297 -647634.000000 0 0 1
21.974640 18.506094 8.167959 29.867639 0.699923 1.293796 0.191299 -0.057448 -466003.000000 0 0 1
21.284740 19.065394 6.872959 29.389912 0.730451 1.334756 0.167544 -0.052614 184251.000000 0 0 1
21.981440 20.151594 6.309659 30.480850 0.741995 1.362285 0.105884 -0.026504 283732.000000 0 0 1
21.358540 20.429594 5.050459 29.984373 0.763172 1.401553 0.132580 -0.036978 276417.000000 0 0 1
18.504392 17.038894 32.508383 41.103909 0.744190 0.658546 0.154928 -0.036719 -197807.000000 0 0 1
17.857092 17.629394 31.452119 40.235644 0.778982 0.673413 0.138244 -0.036915 -110645.000000 0 0 1
17.301192 16.749194 30.536039 38.888512 0.769188 0.667745 0.159877 -0.043840 -152513.000000 0 0 1
16.893992 17.434394 29.290159 38.043113 0.801139 0.692080 0.160378 -0.049352 -189094.000000 0 0 1
17.962892 17.886294 28.536789 38.169796 0.783261 0.726314 0.163170 -0.045619 -304332.000000 0 0 1
17.406192 18.289594 27.294709 37.181795 0.810141 0.746474 0.150975 -0.044332 151748.000000 0 0 1
18.436192 18.706094 26.245939 37.130317 0.792665 0.785747 0.123303 -0.037148 -216649.000000 0 0 1
19.225792 19.818494 26.511109 38.278488 0.800577 0.805730 0.118069 -0.032694 -37884.900000 0 0 1
20.260292 20.033394 25.594709 38.300201 0.779767 0.838921 0.107419 -0.036335 -304200.000000 0 0 1
20.931992 21.414694 25.738239 39.486635 0.796796 0.860812 0.138245 -0.033522 -692626.000000 0 0 1
20.110792 22.539194 25.572519 39.577935 0.842275 0.868292 0.123218 -0.040870 -258568.000000 0 0 1
20.733892 23.716394 25.975889 40.830239 0.852395 0.881243 0.131266 -0.035584 -311977.000000 0 0 1
19.856092 25.013094 25.862979 41.095169 0.899830 0.890088 0.137778 -0.034398 90984.000000 0 0 1
19.860992 25.561794 24.564779 40.636100 0.910251 0.921650 0.137100 -0.039972 166470.000000 0 0 1
18.914992 26.578294 24.346899 40.705701 0.952281 0.929643 0.129800 -0.050585 -365929.000000 0 0 1
19.212592 27.246394 23.026209 40.517847 0.956627 0.966361 0.110465 -0.048044 -58578.300000 0 0 1
20.469192 27.869694 22.961389 41.508228 0.937315 0.984623 0.127034 -0.046893 -229667.000000 0 0 1
20.615492 28.590694 21.693659 41.388901 0.946078 1.019089 0.112949 -0.046243 349261.000000 0 0 1
21.835692 29.590494 21.608059 42.653288 0.935065 1.039562 0.119800 -0.034257 560237.000000 0 0 1
23.030592 28.870794 21.352059 42.659598 0.897452 1.046595 0.138976 -0.036735 244315.000000 0 0 1
24.190792 29.662594 21.100259 43.706805 0.886656 1.066983 0.138604 -0.038698 447972.000000 0 0 1
24.459592 29.994094 19.651759 43.406323 0.886687 1.100961 0.131249 -0.033716 -303371.000000 0 0 1
23.502792 30.859394 19.081759 43.229584 0.919907 1.113632 0.097978 -0.028285 262451.000000 0 0 1
23.735592 30.845194 17.698059 42.755416 0.914927 1.144021 0.107965 -0.012439 215610.000000 0 0 1
22.999092 31.979794 16.894359 42.861227 0.947316 1.165638 0.112840 -0.021872 14762.100000 0 0 1
23.688092 33.210394 17.076459 44.222860 0.951217 1.174347 0.117435 -0.024608 203861.000000 0 0 1
23.612992 -33.588197 15.952759 44.048052 -0.958050 1.200204 0.112931 -0.028435 -27135.600000 0 0 1
24.537392 -33.842597 14.710359 44.314779 -0.943459 1.232425 0.099025 -0.029494 28171.300000 0 0 1
24.217792 32.649294 14.032159 43.004410 0.932593 1.238414 0.122058 -0.032896 -51701.900000 0 0 1
23.210492 32.764994 13.061259 42.224024 0.954460 1.256305 0.087974 -0.030673 -296750.000000 0 0 1
22.932892 31.436894 12.291959 40.807941 0.940552 1.264830 0.094983 -0.043837 27933.300000 0 0 1
24.006192 31.008894 11.448159 40.852283 0.912004 1.286759 0.117543 -0.056715 215547.000000 0 0 1
23.625692 29.899594 10.574559 39.547191 0.902080 1.300112 0.101572 -0.056922 -584427.000000 0 0 1
24.737292 29.359494 9.673759 39.591603 0.870634 1.323959 0.098349 -0.057798 830841.000000 0 0 1
25.883292 28.688094 10.257459 39.977080 0.836750 1.311311 0.112521 -0.050060 1163310.000000 0 0 1
26.820092 29.523294 10.921159 41.354732 0.833339 1.303541 0.114639 -0.052059 -888247.000000 0 0 1
28.162592 28.919994 11.308459 41.921102 0.798666 1.297657 0.118158 -0.052063 -199541.000000 0 0 1
28.122892 27.940994 12.334059 41.517769 0.782154 1.269164 0.120468 -0.045914 -448970.000000 0 0 1
29.368892 27.990094 12.967459 42.592630 0.761365 1.261432 0.096960 -0.037360 -230426.000000 0 0 1
29.707092 26.889594 14.019759 42.451327 0.735657 1.234223 0.088009 -0.042561 374704.000000 0 0 1
31.016292 27.011194 14.558659 43.629915 0.716487 1.230586 0.074655 -0.042177 349355.000000 0 0 1
31.408792 25.912394 15.357859 43.518136 0.689803 1.210120 0.081068 -0.037776 -72020.900000 0 0 1
32.592492 26.195294 16.288459 44.875136 0.677006 1.199340 0.093674 -0.043856 -250494.000000 0 0 1
33.862392 26.047094 15.705159 45.516642 0.655679 1.218513 0.110026 -0.037165 -887956.000000 0 0 1
34.829292 26.153294 16.692959 46.644712 0.644076 1.204806 0.101220 -0.034998 -299708.000000 0 0 1
36.266592 26.181794 16.127859 47.548500 0.625290 1.224743 0.122659 -0.044157 125642.000000 0 0 1
36.590092 27.411594 15.521459 48.281942 0.642959 1.243509 0.108195 -0.036065 1472620.000000 0 0 1
-37.591957 27.566994 15.435259 49.105413 -0.632741 1.251047 0.142230 -0.041368 2170300.000000 0 0 1
-37.133657 28.843094 14.653059 49.249819 -0.660394 1.268697 0.097499 -0.038740 163381.000000 0 0 1
-37.713957 30.052494 15.128259 50.540668 -0.672819 1.266808 0.089329 -0.034741 41100.200000 0 0 1
-37.793557 30.983794 14.070959 50.856074 -0.686708 1.290457 0.074292 -0.013793 229501.000000 0 0 1
36.752892 32.047394 14.437259 50.855137 0.717111 1.282948 0.054190 -0.016941 -363372.000000 0 0 1
36.751192 33.120094 13.508559 51.284226 0.733476 1.304245 0.023521 -0.019356 54221.800000 0 0 1
35.704592 -33.643297 13.708359 50.937299 -0.755683 1.298315 0.025296 -0.010919 -351386.000000 0 0 1
34.330792 33.622594 13.202959 49.833725 0.774977 1.302654 0.076757 -0.015210 -626547.000000 0 0 1
33.688192 32.640294 14.038759 48.962943 0.769601 1.279993 0.069977 -0.024796 -354380.000000 0 0 1
32.697892 31.971494 13.318759 47.631060 0.774166 1.287394 0.086717 -0.027496 -648881.000000 0 0 1
32.247692 30.722694 14.094459 46.716713 0.761185 1.264320 0.119371 -0.032498 -191028.000000 0 0 1
31.360692 31.146694 15.100259 46.707894 0.781975 1.241591 0.115837 -0.024750 106428.000000 0 0 1
30.866892 30.116394 15.926059 45.971747 0.773092 1.217032 0.109006 -0.028591 -184880.000000 0 0 1
30.054992 30.579594 17.121559 46.168841 0.794050 1.190876 0.106318 -0.022223 -160237.000000 0 0 1
29.680492 29.451994 17.941659 45.500051 0.781534 1.165467 0.090219 -0.018225 -78839.000000 0 0 1
30.015392 29.740894 19.276559 46.443839 0.780805 1.142798 0.073876 -0.017451 -166325.000000 0 0 1
29.886492 28.677994 20.328059 46.139567 0.764766 1.114554 0.075386 -0.016238 -443262.000000 0 0 1
28.678992 28.530294 21.004159 45.581102 0.782799 1.091890 0.095453 -0.029939 -558474.000000 0 0 1
28.840992 27.810294 22.220159 45.814307 0.767206 1.064428 0.093827 -0.028310 654138.000000 0 0 1
27.521092 27.749394 23.070159 45.383605 0.789529 1.037544 0.118866 -0.032103 609024.000000 0 0 1
26.511292 26.955094 22.456159 43.973910 0.793699 1.034832 0.146210 -0.040956 409397.000000 0 0 1
25.348392 26.789994 23.276109 43.612177 0.813041 1.007819 0.169808 -0.049525 422700.000000 0 0 1
25.461892 25.678094 24.359329 43.601024 0.789626 0.977994 0.147321 -0.047513 -700267.000000 0 0 1
26.294692 26.046294 25.406099 44.891982 0.780652 0.969225 0.151821 -0.042370 -421077.000000 0 0 1
26.254892 25.099094 26.453529 44.934096 0.762895 0.941324 0.171587 -0.037464 519834.000000 0 0 1
27.660492 24.937294 27.176119 46.103285 0.733670 0.940404 0.171617 -0.037356 927283.000000 0 0 1
28.186992 26.071494 27.821299 47.415756 0.746429 0.943754 0.211426 -0.052841 199345.000000 0 0 1
28.562292 27.178694 27.029169 47.802321 0.760581 0.969834 0.166129 -0.037300 -921907.000000 0 0 1
29.008692 28.314194 27.976809 49.253422 0.773283 0.966701 0.119315 -0.027186 -669718.000000 0 0 1
30.110092 27.978594 28.735559 50.151288 0.748721 0.960662 0.101695 -0.020341 -841593.000000 0 0 1
30.566792 29.077794 29.479749 51.467489 0.760439 0.960898 0.097555 -0.019508 -828228.000000 0 0 1
32.078992 29.087394 29.598209 52.451808 0.736528 0.971219 0.076037 -0.012364 -843406.000000 0 0 1
32.547092 29.467194 28.315649 52.243704 0.735775 0.997991 0.062945 -0.014848 -2364470.000000 0 0 1
33.891392 29.514694 28.355159 53.139050 0.716481 1.007941 0.064544 -0.015241 -1883840.000000 0 0 1
34.486092 30.192794 27.049469 53.221885 0.719117 1.037657 0.062827 -0.019422 -309910.000000 0 0 1
34.258692 31.561394 27.021989 53.851345 0.744441 1.045131 0.058537 -0.014970 196543.000000 0 0 1
34.632292 32.128594 25.783469 53.818486 0.747913 1.071188 0.059404 -0.022366 -197595.000000 0 0 1
34.485892 33.693994 25.777419 54.672088 0.773784 1.079815 0.051377 -0.026434 -104863.000000 0 0 1
35.335192 -33.261397 26.643689 55.360477 -0.755176 1.068686 0.058974 -0.032166 330538.000000 0 0 1
34.908692 -31.922197 26.592959 54.266277 -0.740741 1.058654 0.057190 -0.024285 -11654.900000 0 0 1
36.025892 -31.060297 27.184889 54.787089 -0.711515 1.051590 0.054164 -0.025896 -97131.100000 0 0 1
35.950892 -31.203697 28.552029 55.509960 -0.714825 1.030537 0.066944 -0.034103 208498.000000 0 0 1
37.104492 -30.721997 29.175639 56.318756 -0.691574 1.026233 0.061610 -0.037728 -815484.000000 0 0 1
36.739092 -30.113497 30.543419 56.475517 -0.686613 0.999378 0.074134 -0.037135 -164198.000000 0 0 1
36.352592 -30.922497 31.664380 57.274293 -0.704858 0.985010 0.082303 -0.031304 645381.000000 0 0 1
35.424592 -31.973797 31.366399 57.105835 -0.734243 0.989308 0.076721 -0.030227 -324139.000000 0 0 1
35.203992 -32.881397 32.633319 58.184541 -0.751298 0.975373 0.082770 -0.024866 -258900.000000 0 0 1
34.475392 -32.236097 33.668639 57.976683 -0.751844 0.951175 0.092517 -0.025864 234400.000000 0 0 1
34.618892 -32.919397 -32.640021 57.857803 -0.760240 2.170190 0.101835 -0.025251 -80531.400000 0 0 1
33.842492 33.471294 -32.384191 57.570631 0.779884 2.168218 0.104889 -0.024659 -395561.000000 0 0 1
34.291692 32.472394 -33.267521 57.767676 0.758155 2.184482 0.115253 -0.022575 154139.000000 0 0 1
33.572392 31.234794 -33.164781 56.591700 0.749344 2.196955 0.116679 -0.013792 25239.500000 0 0 1
33.814192 30.210294 33.294511 56.254652 0.729168 0.937440 0.101288 -0.007620 -252101.000000 0 0 1
35.125192 29.749894 33.130687 56.713999 0.702731 0.946938 0.094449 -0.011753 -370216.000000 0 0 1
35.175692 28.879294 32.023498 55.649324 0.687416 0.957640 0.084819 -0.005355 -423010.000000 0 0 1
36.561092 28.349294 31.649131 56.054111 0.659557 0.970827 0.085678 -0.006958 -400442.000000 0 0 1
37.118392 27.435194 32.583735 56.499244 0.636506 0.956099 0.089978 0.000911 -364952.000000 0 0 1
-37.320557 26.864694 32.167103 56.118252 -0.623915 0.960388 0.088227 -0.007854 -442184.000000 0 0 1
-37.006657 25.592294 33.008434 55.803359 -0.605038 0.937862 0.084493 -0.004809 -283738.000000 0 0 1
-37.683857 24.455594 32.550781 55.477044 -0.575649 0.943765 0.079699 0.000267 71215.600000 0 0 1
-37.407757 23.386694 33.414789 55.342803 -0.558731 0.922564 0.075984 0.002227 144943.000000 0 0 1
37.683592 22.090294 32.830582 54.643218 0.530214 0.926273 0.081217 -0.009639 211566.000000 0 0 1
-37.083857 21.587694 31.796119 53.406312 -0.527178 0.933079 0.081903 -0.000236 662686.000000 0 0 1
-37.732257 20.719894 30.862129 52.967048 -0.502175 0.948790 0.075138 0.001780 2099.220000 0 0 1
-36.701957 19.882194 30.089099 51.455701 -0.496464 0.946215 0.078476 -0.019760 170770.000000 0 0 1
-36.087057 20.591694 28.992259 50.664036 -0.518530 0.961555 0.071644 -0.011296 138888.000000 0 0 1
-35.159057 19.785494 28.256429 49.254957 -0.512574 0.959808 0.076453 -0.017417 53502.600000 0 0 1
-35.651057 18.647694 27.334839 48.640803 -0.481926 0.974027 0.101852 -0.016580 -542025.000000 0 0 1
-36.329157 17.675794 28.029959 49.172349 -0.452826 0.964248 0.098178 -0.022365 -175304.000000 0 0 1
-36.863157 16.664294 27.207339 48.752747 -0.424564 0.978741 0.113699 -0.032588 -136856.000000 0 0 1
-37.267357 15.466894 28.052839 49.143081 -0.393392 0.963268 0.075785 -0.033836 416117.000000 0 0 1
-36.170557 14.776794 28.668929 48.462050 -0.387839 0.937786 0.093728 -0.028415 689550.000000 0 0 1
-36.665657 13.812594 29.593679 49.101364 -0.360276 0.923909 0.091755 -0.042104 -143478.000000 0 0 1
-35.707557 12.613994 29.810849 48.195738 -0.339575 0.903917 0.106070 -0.037139 -174497.000000 0 0 1
-34.540357 13.075194 30.448749 47.865679 -0.361878 0.881325 0.112129 -0.029720 172885.000000 0 0 1
-33.749857 11.984494 30.922129 47.316582 -0.341209 0.858576 0.101704 -0.028825 11882.500000 0 0 1
-32.230957 12.146494 30.729389 46.159151 -0.360399 0.842329 0.119364 -0.024002 -972542.000000 0 0 1
-31.817657 12.099194 29.352629 44.948088 -0.363380 0.859213 0.113558 -0.023785 -764759.000000 0 0 1
-30.585257 12.644394 29.091079 44.063925 -0.392017 0.849709 0.112691 -0.018779 -996578.000000 0 0 1
-29.384357 11.746094 29.438989 43.221120 -0.380282 0.821498 0.100738 -0.021818 -645077.000000 0 0 1
-28.879857 10.885794 28.415879 41.952459 -0.360465 0.826662 0.111142 -0.031920 244773.000000 0 0 1
-27.918257 9.991894 28.983669 41.464685 -0.343694 0.796803 0.089130 -0.023180 -199112.000000 0 0 1
-27.577757 8.793994 28.113679 40.351530 -0.308687 0.799983 0.088507 -0.024259 -188413.000000 0 0 1
-28.431657 7.680294 28.085059 40.695412 -0.263835 0.809130 0.091916 -0.028268 13550.900000 0 0 1
-29.681457 7.972694 27.475129 41.224209 -0.262414 0.841318 0.101970 -0.029048 -312588.000000 0 0 1
-30.649457 6.799394 27.336699 41.628308 -0.218308 0.854381 0.089837 -0.018462 -367095.000000 0 0 1
-31.396157 6.551094 28.479839 42.892152 -0.205708 0.844658 0.097224 -0.016980 -24900.000000 0 0 1
-31.915957 5.223894 28.590579 43.166405 -0.162238 0.846867 0.104752 -0.023816 -9678.120000 0 0 1
-32.603357 4.943494 29.951809 44.548040 -0.150479 0.833419 0.107422 -0.023504 488415.000000 0 0 1
-33.907957 5.489894 30.122089 45.686198 -0.160513 0.850875 0.124298 -0.031164 468400.000000 0 0 1
-34.552757 4.975594 31.284159 46.875880 -0.143017 0.840107 0.131594 -0.031084 672470.000000 0 0 1
-36.062357 5.247094 31.538647 48.194521 -0.144487 0.857403 0.139101 -0.029010 508351.000000 0 0 1
-36.296857 6.583094 32.044755 48.863742 -0.179418 0.855557 0.131546 -0.027982 133518.000000 0 0 1
-37.675757 6.880694 31.913912 49.852827 -0.180638 0.876087 0.139310 -0.028373 247094.000000 0 0 1
37.711992 8.273794 32.292531 50.333463 0.215972 0.874251 0.123846 -0.031373 -92472.600000 0 0 1
-37.776557 8.456694 33.718439 51.337287 -0.220230 0.854226 0.127145 -0.033194 127005.000000 0 0 1
37.576592 9.798394 -33.574421 51.334691 0.255078 2.283696 0.125580 -0.033711 -48333.800000 0 0 1
37.678792 10.017194 -32.002661 50.440121 0.259847 2.258117 0.115426 -0.024185 -639295.000000 0 0 1
36.407492 9.849894 -31.475491 49.124662 0.264220 2.266241 0.111261 -0.024469 -602334.000000 0 0 1
36.414892 9.876094 -30.076501 48.251191 0.264840 2.243793 0.088172 -0.017154 322804.000000 0 0 1
35.083192 9.373594 -29.458671 46.760110 0.261083 2.252344 0.079624 -0.009391 201410.000000 0 0 1
34.996492 7.938594 -29.385921 46.382195 0.223065 2.256943 0.089061 -0.012115 -1304600.000000 0 0 1
33.872592 7.441294 -28.826271 45.096333 0.216250 2.264274 0.097870 -0.019160 -1330400.000000 0 0 1
36.659400 6.097994 -19.696341 42.059993 0.164833 2.058153 0.074900 -0.014126 -307685.000000 0 0 1
35.988310 6.841294 -18.685341 41.123031 0.187856 2.042469 0.055302 -0.015236 369731.000000 0 0 1
36.565130 8.121594 -18.469941 41.762516 0.218565 2.028915 0.043524 -0.012130 -28806.500000 0 0 1
-37.702678 8.122594 -17.742141 42.452939 -0.212195 2.001956 0.066554 -0.021501 557750.000000 0 0 1
-36.550968 7.553994 -18.371141 41.599699 -0.203801 2.028197 0.084716 -0.025074 585517.000000 0 0 1
-35.879868 8.443494 -19.279641 41.597621 -0.231122 2.052714 0.078257 -0.020229 -319280.000000 0 0 1
-34.820183 7.641094 -20.052941 40.901735 -0.216020 2.083197 0.065183 -0.013908 -221602.000000 0 0 1
-35.315800 6.737294 -21.061441 41.667508 -0.188508 2.100716 0.063132 -0.005548 274735.000000 0 0 1
-35.698178 7.292194 -22.322241 42.729597 -0.201501 2.120468 0.037376 0.003506 133570.000000 0 0 1
-35.981548 6.253794 -23.379841 43.363565 -0.172086 2.140234 0.070515 -0.001907 159819.000000 0 0 1
-34.806461 5.953294 -24.102841 42.753695 -0.169401 2.169728 0.080374 -0.010626 69820.000000 0 0 1
-34.891382 4.709094 -24.753341 43.038494 -0.134154 2.183577 0.097086 -0.017110 -225410.000000 0 0 1
-33.612068 4.508494 -25.575351 42.475831 -0.133337 2.216944 0.117255 -0.021598 -570844.000000 0 0 1
-32.501968 4.232694 -24.791241 41.096220 -0.129500 2.218365 0.106870 -0.021917 -510364.000000 0 0 1
-31.429188 3.804394 -25.632351 40.734319 -0.120460 2.251393 0.106917 -0.028314 1081170.000000 0 0 1
-29.985098 3.929494 -25.020641 39.250217 -0.130306 2.262000 0.091640 -0.029807 694548.000000 0 0 1
-29.618438 5.289594 -24.918141 39.065912 -0.176728 2.262498 0.062297 -0.014076 484057.000000 0 0 1
-28.268498 5.529794 -24.517241 37.825676 -0.193177 2.275967 0.082031 -0.017859 647068.000000 0 0 1
-27.750058 6.954494 -24.650941 37.763734 -0.245554 2.282028 0.073379 -0.019035 204568.000000 0 0 1
-28.393118 7.845294 -23.706141 37.811360 -0.269583 2.248439 0.058326 -0.020497 65861.400000 0 0 1
-28.252938 9.230394 -23.990041 38.196214 -0.315774 2.249872 0.037789 -0.015493 278951.000000 0 0 1
-26.912328 9.962494 -23.652441 37.188206 -0.354541 2.260126 0.090648 -0.011820 230398.000000 0 0 1
-26.726068 10.324394 -22.290841 36.300929 -0.368644 2.231987 0.054931 -0.010999 523273.000000 0 0 1
-25.370108 10.659494 -22.008941 35.237206 -0.397764 2.245408 0.113972 -0.020181 48866.600000 0 0 1
-25.010758 11.026894 -20.552641 34.198560 -0.415249 2.215523 0.137576 -0.041364 -895964.000000 0 0 1
-25.547218 12.214894 -19.984141 34.658764 -0.445999 2.185354 0.133297 -0.039514 1379490.000000 0 0 1
-26.969798 12.466694 -19.918441 35.770557 -0.432991 2.161372 0.105343 -0.020515 476497.000000 0 0 1
-27.771868 11.536194 -19.076941 35.613061 -0.393704 2.136100 0.094048 -0.018399 -1198880.000000 0 0 1
-27.411058 11.520494 -17.709541 34.608030 -0.397871 2.107979 0.112812 -0.027716 118319.000000 0 0 1
-28.244558 10.689594 -16.952341 34.632418 -0.361806 2.082305 0.120204 -0.030197 -611611.000000 0 0 1
-27.689978 10.529394 -15.515741 33.441610 -0.363374 2.053262 0.166428 -0.030369 1259220.000000 0 0 1
-26.569358 9.638194 -15.253441 32.116866 -0.347993 2.065687 0.193014 -0.032941 875706.000000 0 0 1
-25.335078 9.913694 -15.837841 31.479910 -0.372987 2.097989 0.188451 -0.022294 -1233190.000000 0 0 1
-24.349908 8.777594 -15.601741 30.222153 -0.345978 2.113246 0.143030 -0.020900 -264954.000000 0 0 1
-23.010208 9.067094 -15.912741 29.409135 -0.375364 2.142519 0.123946 -0.014973 -289539.000000 0 0 1
-22.084208 8.119194 -15.550841 28.203940 -0.352309 2.154803 0.134639 -0.021722 -688458.000000 0 0 1
-20.668308 8.645594 -15.323141 27.142659 -0.396184 2.170673 0.149448 -0.030285 -319234.000000 0 0 1
-20.030808 8.979894 -16.555141 27.494444 -0.421443 2.216959 0.150183 -0.044626 -240872.000000 0 0 1
-18.655608 9.115594 -16.383041 26.448626 -0.454506 2.238811 0.140797 -0.043462 -982669.000000 0 0 1
-17.861208 9.670794 -17.589041 26.868595 -0.496248 2.284492 0.113007 -0.029214 -116315.000000 0 0 1
-17.641808 8.725794 -18.631941 27.102068 -0.459325 2.328800 0.163701 -0.049894 662526.000000 0 0 1
-16.651208 7.720394 -18.333841 25.942185 -0.434150 2.355647 0.160679 -0.047028 -406304.000000 0 0 1
-16.299908 6.796994 -19.583641 26.370535 -0.395072 2.407790 0.146321 -0.046206 676619.000000 0 0 1
-17.269008 5.863694 -20.153341 27.180116 -0.327335 2.406060 0.144156 -0.039970 -120930.000000 0 0 1
-18.376908 6.500894 -20.689241 28.425641 -0.340015 2.385959 0.156024 -0.041008 -562111.000000 0 0 1
-19.292308 5.523194 -21.480541 29.395790 -0.278832 2.390195 0.156023 -0.027332 -152874.000000 0 0 1
-20.075108 4.710394 -20.675341 29.200471 -0.230469 2.357527 0.176878 -0.033628 -23783.700000 0 0 1
-20.872308 3.768694 -21.383241 30.118089 -0.178635 2.360266 0.127052 -0.016671 177434.000000 0 0 1
-21.830408 3.059294 -20.361941 30.008910 -0.139232 2.316556 0.134156 -0.014540 -166192.000000 0 0 1
-22.533308 2.011094 -20.961641 30.841285 -0.089014 2.318098 0.142480 -0.013459 337172.000000 0 0 1
-23.376808 1.406294 -19.981941 30.785237 -0.060085 2.277165 0.133574 -0.013458 123332.000000 0 0 1
-24.006708 0.067394 -20.485641 31.559279 -0.002807 2.277218 0.122613 -0.003488 111133.000000 0 0 1
-23.025608 -0.955206 -20.393541 30.773163 0.041461 2.295222 0.112835 -0.014967 251291.000000 0 0 1
-23.457008 -2.285706 -20.477541 31.221553 0.097136 2.286142 0.115713 -0.020502 -345942.000000 0 0 1
-24.166408 -2.646006 -21.822941 32.668906 0.109057 2.302319 0.115359 -0.019206 956957.000000 0 0 1
-23.240208 -2.590306 -22.928441 32.749510 0.111000 2.346356 0.077622 -0.020839 742254.000000 0 0 1
-22.130708 -3.481506 -22.952241 32.073268 0.156037 2.368306 0.061539 -0.033359 85978.600000 0 0 1
-21.391208 -3.337006 -24.295241 32.541945 0.154752 2.413706 0.060969 -0.029907 -337840.000000 0 0 1
-22.102908 -3.696506 -25.438091 33.901316 0.165707 2.419398 0.055649 -0.032199 -201906.000000 0 0 1
-21.256508 -3.774606 -26.556361 34.224657 0.175742 2.459004 0.051407 -0.031249 -68620.200000 0 0 1
-22.082208 -3.762606 -27.874671 35.760012 0.168770 2.464652 0.045807 -0.035376 106066.000000 0 0 1
-22.739108 -5.014206 -27.979061 36.401060 0.217037 2.447498 0.054295 -0.031163 -31489.500000 0 0 1
-23.342208 -5.097106 -29.237231 37.757845 0.214990 2.456460 0.036291 -0.028076 -556930.000000 0 0 1
-22.837208 -6.265306 -30.124991 38.318497 0.267758 2.475389 0.041164 -0.021854 -723627.000000 0 0 1
-21.554008 -6.096006 -30.618141 37.936884 0.275626 2.509988 0.033642 -0.024681 -854158.000000 0 0 1
-21.012808 -7.307706 -30.997921 38.155102 0.334690 2.519085 0.038470 -0.019124 281393.000000 0 0 1
-19.564308 -7.104006 -31.576401 37.819283 0.348307 2.558799 0.057880 -0.027799 343144.000000 0 0 1
-19.536808 -6.487406 -32.867631 38.782142 0.320605 2.582042 0.058681 -0.037493 379486.000000 0 0 1
-19.931108 -7.437606 33.720319 39.870127 0.357162 0.562820 0.065502 -0.035562 -568679.000000 0 0 1
-19.917108 -6.918306 32.249157 38.530018 0.334316 0.579041 0.072421 -0.041847 -176801.000000 0 0 1
-18.631908 -6.671306 31.717957 37.385601 0.343835 0.557840 0.090846 -0.043379 151365.000000 0 0 1
-18.080808 -5.385906 32.121158 37.251744 0.289510 0.531056 0.078004 -0.042537 -408755.000000 0 0 1
-16.661108 -5.345206 31.545453 36.073250 0.310446 0.506427 0.075289 -0.042227 -370218.000000 0 0 1
-16.729808 -5.357806 30.146919 34.891680 0.309934 0.527607 0.093228 -0.041326 -183631.000000 0 0 1
-15.529908 -4.901606 29.589379 33.774771 0.305728 0.503127 0.085104 -0.032071 -169596.000000 0 0 1
-15.447008 -5.061406 28.118409 32.478806 0.316638 0.524157 0.098252 -0.023029 276620.000000 0 0 1
-16.353708 -4.160906 27.487089 32.253635 0.249146 0.550588 0.089315 -0.032021 250297.000000 0 0 1
-16.820608 -4.403706 26.159099 31.410571 0.256057 0.586628 0.106500 -0.026868 38956.100000 0 0 1
-15.935908 -3.819206 25.060939 29.943116 0.235224 0.579107 0.119226 -0.019262 -5871.730000 0 0 1
-15.901308 -2.376406 25.142229 29.843435 0.148349 0.568943 0.116126 -0.008744 -142159.000000 0 0 1
-15.010208 -1.833806 24.200169 28.536247 0.121568 0.558501 0.104435 -0.010503 58095.400000 0 0 1
-14.863308 -0.330406 24.150999 28.360146 0.022226 0.551800 0.094092 -0.008273 -327593.000000 0 0 1
-15.940908 0.315894 23.554639 28.443512 -0.019814 0.595051 0.094321 -0.013293 -403830.000000 0 0 1
-15.885708 1.683494 23.926729 28.769398 -0.105581 0.588683 0.071569 -0.013659 242442.000000 0 0 1
-16.490808 2.685094 22.848229 28.305442 -0.161407 0.631399 0.079981 -0.022388 -284276.000000 0 0 1
-15.534208 2.982094 21.905659 27.019667 -0.189662 0.625398 0.067526 -0.020949 -33151.100000 0 0 1
-16.002308 4.006394 21.049859 26.743628 -0.245321 0.664706 0.083933 -0.020020 -63053.700000 0 0 1
-14.811708 4.692094 20.396059 25.639845 -0.306782 0.650992 0.088533 -0.011981 -479862.000000 0 0 1
-13.934108 5.420594 21.187459 25.931653 -0.371002 0.614520 0.049945 -0.017602 17926.300000 0 0 1
-12.850408 5.721994 20.308859 24.704736 -0.418919 0.605771 0.033559 -0.014521 422820.000000 0 1 0
-11.976608 6.990794 20.663959 24.885931 -0.528351 0.591066 0.025652 -0.009323 370776.000000 0 1 0
-12.503008 8.257494 20.282559 25.216931 -0.583680 0.636261 0.040498 -0.010356 96593.600000 0 0 1
-11.524108 9.232294 20.492559 25.258371 -0.675429 0.624394 0.024537 -0.009152 -90029.100000 0 0 1
-12.126308 10.609894 20.348559 25.955367 -0.718801 0.669741 0.024460 -0.004806 -85565.000000 0 0 1
-12.471808 11.021094 19.016859 25.271554 -0.723725 0.718946 0.031783 -0.007400 514495.000000 0 0 1
-13.083508 12.338994 19.078759 26.218848 -0.756121 0.755872 0.018414 -0.003021 79090.400000 0 0 1
-13.607608 12.925494 17.743759 25.827822 -0.759696 0.813441 0.038274 -0.010324 117516.000000 0 0 1
-12.688008 13.729594 16.988959 25.260879 -0.824805 0.833160 0.033616 -0.011501 190173.000000 0 0 1
-12.672108 15.096894 17.384259 26.281381 -0.872497 0.848024 0.056706 -0.025823 65493.700000 0 0 1
-13.972108 15.970394 17.130159 27.271150 -0.852037 0.891633 0.061318 -0.017699 348115.000000 0 0 1
-14.166808 16.381794 15.826959 26.824508 -0.857778 0.939714 0.063767 -0.032415 -72342.600000 0 0 1
-14.505708 15.368494 14.864459 25.837150 -0.814271 0.957809 0.086774 -0.037052 -572037.000000 0 0 1
-15.028508 15.973694 13.539959 25.774899 -0.815876 1.017710 0.069431 -0.038341 321808.000000 0 0 1
-16.277108 16.636394 13.643259 26.978739 -0.796314 1.040598 0.051151 -0.033913 40108.700000 0 0 1
-16.641008 17.378494 12.474259 27.102442 -0.807073 1.092505 0.066897 -0.037255 -299832.000000 0 0 1
-17.829408 18.304094 12.585459 28.483705 -0.798534 1.113139 0.064029 -0.036599 -309602.000000 0 0 1
-19.088908 17.750594 12.891559 29.080273 -0.749086 1.111509 0.071102 -0.033671 -11059.700000 0 0 1
-20.071708 18.757894 13.068159 30.422177 -0.751576 1.126791 0.076363 -0.038465 -45070.100000 0 0 1
-21.472308 18.160794 13.264059 31.093564 -0.702038 1.130082 0.089976 -0.027126 135522.000000 0 0 1
-21.968608 17.582094 11.990659 30.586364 -0.674941 1.167963 0.103563 -0.028001 -516313.000000 0 0 1
-23.219508 17.009594 12.133459 31.236080 -0.632243 1.171854 0.106863 -0.023205 -902459.000000 0 0 1
-23.696108 16.348594 10.856859 30.767734 -0.603934 1.210165 0.112228 -0.022313 244303.000000 0 0 1
-22.905008 15.185894 10.505959 29.421522 -0.585456 1.205652 0.082562 -0.005570 617722.000000 0 0 1
-23.372108 14.570094 9.291759 29.066817 -0.557445 1.245416 0.095701 -0.006058 14519.200000 0 0 1
-22.658008 13.227894 8.906359 27.707143 -0.528427 1.243540 0.122915 -0.003015 -259106.000000 0 0 1
-22.962608 12.053094 9.710459 27.692083 -0.483369 1.212522 0.119294 -0.005972 266111.000000 0 0 1
-24.285508 11.575794 9.855059 28.651476 -0.444797 1.219662 0.148446 -0.002254 140033.000000 0 0 1
-25.017688 11.022394 8.606159 28.660842 -0.414996 1.265814 0.179435 -0.011169 -244750.000000 0 0 1
-25.309908 12.020494 7.585959 29.028099 -0.443393 1.306395 0.182573 -0.009539 894171.000000 0 0 1
-26.501738 11.526794 6.932659 29.719873 -0.410264 1.335361 0.239925 -0.024628 432558.000000 0 0 1
-27.085628 12.614494 5.969959 30.469610 -0.435855 1.373589 0.227669 -0.027674 -114566.000000 0 0 1
-26.447908 12.889494 4.701259 29.794844 -0.453480 1.412346 0.226624 -0.032279 -333383.000000 0 0 1
-25.157568 13.391794 4.687759 28.882840 -0.489165 1.407773 0.205298 -0.031510 -1042440.000000 0 0 1
-24.957068 14.894094 5.090359 29.505949 -0.538055 1.397409 0.184678 -0.028764 -329452.000000 0 0 1
-23.629208 15.245494 5.422259 28.638531 -0.572991 1.380312 0.164620 -0.045289 399064.000000 0 0 1
-23.734008 16.564894 5.983459 29.555044 -0.609341 1.366936 0.150314 -0.040966 -72054.700000 0 0 1
-22.397708 17.270594 6.319159 28.980382 -0.656861 1.350981 0.139173 -0.041064 111191.000000 0 0 1
-21.789308 17.669694 5.109359 28.514866 -0.681373 1.390641 0.156525 -0.052274 402467.000000 0 0 1
-20.421508 18.018794 5.228759 27.731838 -0.722974 1.381114 0.166244 -0.051943 291930.000000 0 0 1
-19.793408 18.768194 4.004559 27.569197 -0.758818 1.425026 0.151375 -0.040128 682432.000000 0 0 1
-18.371608 18.933594 4.116159 26.700931 -0.800462 1.416021 0.135327 -0.041232 900274.000000 0 0 1
-17.884008 19.967194 3.248359 27.001452 -0.840379 1.450201 0.142100 -0.039016 50940.200000 0 0 1
-18.164508 21.435394 3.767259 28.348152 -0.867809 1.437509 0.129279 -0.043564 -45798.300000 0 0 1
-17.464608 21.792094 4.978959 28.367198 -0.895190 1.394364 0.135795 -0.048607 345213.000000 0 0 1
-17.899208 23.048694 5.484559 29.693506 -0.910498 1.385024 0.121612 -0.040268 -139689.000000 0 0 1
-17.009208 23.478994 6.666159 29.749185 -0.943853 1.344799 0.099606 -0.023073 -19468.500000 0 0 1
-17.227908 22.755094 7.880459 29.609065 -0.922766 1.301399 0.097763 -0.026817 -145578.000000 0 0 1
-16.407708 23.124394 8.960959 29.736329 -0.953696 1.264691 0.090883 -0.025085 -367958.000000 0 0 1
-16.722608 22.355494 10.293459 29.755151 -0.928556 1.217557 0.062962 -0.026129 10222.600000 0 0 1
-17.964808 22.797994 10.806359 30.971927 -0.903416 1.214390 0.069965 -0.014201 -211161.000000 0 0 1
-18.993508 21.847194 10.676059 30.855007 -0.855158 1.217484 0.078464 -0.034867 154647.000000 0 0 1
-20.395908 22.401694 11.047259 32.247029 -0.832231 1.221132 0.081865 -0.033496 135756.000000 0 0 1
-21.112608 23.317394 10.222659 33.074852 -0.834981 1.256575 0.093045 -0.016714 147613.000000 0 0 1
-20.561208 24.592594 9.897959 33.548898 -0.874443 1.271309 0.069263 -0.015212 90396.900000 0 0 1
-21.753508 25.413694 9.340559 34.732074 -0.862843 1.298513 0.090109 -0.008900 520880.000000 0 0 1
-22.609708 25.923294 10.331859 35.916060 -0.853567 1.279007 0.100977 -0.012084 -366447.000000 0 0 1
-23.505908 26.852294 9.813959 37.011987 -0.851752 1.302430 0.111204 -0.009519 -249684.000000 0 0 1
-24.438608 27.462794 10.881659 38.338768 -0.843600 1.283011 0.115248 -0.023284 -28838.800000 0 0 1
-23.742908 28.273594 11.793359 38.758291 -0.872280 1.261614 0.125997 -0.025940 549217.000000 0 0 1
-24.704608 28.857394 12.652059 40.039249 -0.862776 1.249295 0.122743 -0.030154 175075.000000 0 0 1
10.243292 -32.069097 27.532199 43.489930 -1.261626 0.885283 0.068151 -0.035636 13950.900000 0 0 1
11.600792 -32.462597 27.407719 44.040681 -1.227581 0.899084 0.059112 -0.033823 502629.000000 0 0 1
12.136092 -32.069397 26.189469 43.146486 -1.209020 0.918529 0.071454 -0.030920 -900013.000000 0 0 1
13.577792 -32.485397 25.992729 43.763905 -1.174899 0.934860 0.014039 -0.011419 -758334.000000 0 0 1
13.779992 -33.837697 25.605669 44.615336 -1.184066 0.959511 0.040799 -0.029356 1127710.000000 0 0 1
15.207792 33.620994 25.620299 44.922688 1.146006 0.963901 0.046418 -0.017209 824924.000000 0 0 1
15.675692 32.252494 25.119449 43.782843 1.118387 0.959746 0.075811 -0.011228 -124515.000000 0 0 1
15.747892 32.220494 23.691689 42.982001 1.116186 0.986994 0.061203 -0.026432 -36182.900000 0 0 1
16.653092 31.223494 23.358159 42.400892 1.080825 0.987368 0.066493 -0.022902 -838860.000000 0 0 1
16.551592 30.590894 21.929659 41.117732 1.074841 1.008254 0.078916 -0.036509 -224130.000000 0 0 1
15.443992 29.784794 21.587859 39.895945 1.092443 0.999047 0.074896 -0.027673 -177669.000000 0 0 1
15.372492 28.375594 22.039959 39.080015 1.074309 0.971611 0.088853 -0.029637 -30369.100000 0 0 1
14.898092 28.030194 23.525139 39.510468 1.082266 0.933014 0.101722 -0.042694 -522756.000000 0 0 1
15.845392 28.370494 24.470129 40.678601 1.061438 0.925359 0.095772 -0.037051 -247860.000000 0 0 1
15.531192 27.894194 25.776499 41.033302 1.062755 0.891578 0.074706 -0.036929 -128786.000000 0 0 1
16.695792 28.100994 26.789529 42.262207 1.034700 0.884226 0.086996 -0.037182 221386.000000 0 0 1
16.766992 29.395594 27.236669 43.440408 1.052432 0.893114 0.081013 -0.039037 425942.000000 0 0 1
17.752992 29.566994 28.265449 44.590486 1.030059 0.884224 0.093333 -0.040216 333659.000000 0 0 1
17.693592 30.934294 28.948269 45.912917 1.051240 0.888594 0.092587 -0.047687 132662.000000 0 0 1
18.304592 31.935694 28.128029 46.326371 1.050338 0.918301 0.084510 -0.032616 195026.000000 0 0 1
18.011992 33.193494 28.687849 47.426074 1.073624 0.921161 0.096699 -0.012915 173118.000000 0 0 1
18.636892 -33.284397 27.968129 47.301174 -1.060362 0.938154 0.069357 -0.014122 -486214.000000 0 0 1
17.962292 -33.097197 26.777269 46.207039 -1.073565 0.952674 0.084211 -0.012501 -462096.000000 0 0 1
18.126192 -31.851397 26.073209 44.976466 -1.053418 0.952426 0.066784 -0.012870 -132842.000000 0 0 1
19.478892 -31.358697 25.450529 44.838873 -1.014960 0.967209 0.080658 -0.009902 514503.000000 0 0 1
20.407792 -30.988197 26.467129 45.576915 -0.988422 0.951192 0.074817 -0.006074 -163078.000000 0 0 1
21.406992 -30.186197 25.918799 45.180194 -0.953946 0.959809 0.080843 -0.009924 -371143.000000 0 0 1
22.066692 -29.232797 26.961999 45.480157 -0.924192 0.936228 0.099492 -0.010911 -611236.000000 0 0 1
21.214492 -28.226097 27.369289 44.674883 -0.926278 0.911409 0.096606 -0.009278 -262397.000000 0 0 1
21.636992 -27.588197 28.507619 45.187967 -0.905712 0.888126 0.108833 -0.004012 -208685.000000 0 0 1
20.448192 -27.164197 29.432519 44.969938 -0.925529 0.857284 0.080496 -0.010826 424205.000000 0 0 1
19.725392 -26.079697 28.847159 43.605048 -0.923243 0.847905 0.103702 -0.007271 -38427.800000 0 0 1
18.585992 -25.846797 29.628419 43.489530 -0.947377 0.821291 0.079128 -0.010566 293192.000000 0 0 1
17.344392 -25.209997 28.915139 42.100560 -0.968172 0.813704 0.110518 -0.001114 373507.000000 0 0 1
16.675992 -25.913997 27.870109 41.549572 -0.998995 0.835553 0.109496 -0.007445 453672.000000 0 0 1
16.045892 -25.172797 26.866719 40.161685 -1.003309 0.837982 0.102842 -0.029904 -87394.900000 0 0 1
14.631792 -24.525697 27.019689 39.314917 -1.032888 0.813082 0.107798 -0.022997 10872.900000 0 0 1
13.552992 -25.392497 27.045109 39.495574 -1.080522 0.816518 0.088944 -0.013396 -221717.000000 0 0 1
13.154092 -26.072597 25.899419 39.033195 -1.103541 0.845279 0.072836 -0.021131 -732095.000000 0 0 1
12.210192 -27.242697 26.116869 39.665402 -1.149440 0.852066 0.058842 -0.021447 -636213.000000 0 0 1
10.858092 -27.028897 26.332559 39.266564 -1.188807 0.835765 0.060654 -0.031959 -235150.000000 0 0 1
10.061992 -28.213097 26.365839 39.904636 -1.228216 0.849017 0.047339 -0.023262 1066270.000000 0 0 1
8.525692 -28.144197 26.692249 39.714725 -1.276655 0.833756 0.041820 -0.037603 1688320.000000 0 0 1
7.556092 -28.074997 25.610919 38.745569 -1.307887 0.848642 0.075176 -0.030337 582584.000000 0 0 1
7.560092 -26.800197 24.912699 37.363727 -1.295850 0.840941 0.092926 -0.028075 -401577.000000 0 0 1
6.382492 -26.538097 23.927369 36.297738 -1.334776 0.851046 0.108070 -0.026102 -197339.000000 0 0 1
6.320992 -27.434997 22.816389 36.238399 -1.344349 0.889733 0.101606 -0.030579 -244323.000000 0 0 1
5.900892 -28.776697 22.884269 37.237193 -1.368542 0.908976 0.102969 -0.030081 -20408.600000 0 0 1
4.552992 -28.969297 23.643089 37.668894 -1.414905 0.892258 0.159691 -0.030578 856828.000000 0 0 1
3.333992 -28.722497 22.848309 36.852986 -1.455238 0.902072 0.164981 -0.030835 805057.000000 0 0 1
2.205792 -28.781097 23.651969 37.317994 -1.494306 0.884346 0.194949 -0.028561 -581025.000000 0 0 1
1.757592 -27.333097 23.934089 36.373451 -1.506582 0.852624 0.160816 -0.034208 -353954.000000 0 0 1
2.682692 -26.578097 24.707459 36.387506 -1.470201 0.824384 0.130068 -0.033837 7969.840000 0 0 1
2.194992 -25.279797 24.957839 35.591851 -1.484186 0.793684 0.115095 -0.022482 -358614.000000 0 0 1
3.142092 -24.314797 25.644789 35.478688 -1.442283 0.762918 0.109528 -0.020038 -346003.000000 0 0 1
4.300192 -23.926297 24.920379 34.813569 -1.392968 0.772993 0.107506 -0.025049 716410.000000 0 0 1
5.282492 -23.246997 25.738039 35.082392 -1.347357 0.747125 0.091211 -0.019608 770282.000000 0 0 1
4.862592 -21.791997 26.122669 34.364659 -1.351256 0.707236 0.074640 -0.006034 -544503.000000 0 0 1
5.043992 -20.909697 25.020039 32.994842 -1.334091 0.710093 0.077700 -0.009456 -92279.300000 0 0 1
4.181892 -19.809097 24.936909 32.120678 -1.362742 0.681941 0.099811 -0.026186 -202795.000000 0 0 1
4.312492 -19.008997 23.595649 30.605460 -1.347707 0.690446 0.112989 -0.030875 403118.000000 0 0 1
5.555192 -18.370397 23.338229 30.215965 -1.277140 0.688215 0.077579 -0.015905 -83726.200000 0 0 1
5.632092 -18.070197 21.983559 29.009125 -1.268660 0.710838 0.076685 -0.018919 321976.000000 0 0 1
6.853392 -17.190097 21.574359 28.423958 -1.191426 0.708989 0.072868 -0.007940 463713.000000 0 0 1
8.044692 -17.930897 21.708859 29.283249 -1.149066 0.735731 0.084532 -0.013984 -783793.000000 0 0 1
9.151092 -17.376497 21.048559 28.787618 -1.086068 0.750765 0.083184 -0.011870 11111.000000 0 0 1
10.410292 -17.582997 21.927559 29.972551 -1.036231 0.750148 0.090698 -0.000481 -152512.000000 0 0 1
10.496392 -16.763697 23.100529 30.411021 -1.011379 0.708082 0.095693 0.003540 447023.000000 0 0 1
11.675792 -16.905197 23.918179 31.530764 -0.966364 0.709686 0.114349 0.001680 774315.000000 0 0 1
11.610792 -16.047897 25.241549 32.085531 -0.944466 0.665358 0.128470 -0.012676 88601.500000 0 0 1
11.825492 -14.661297 24.875219 31.202122 -0.892057 0.648106 0.147430 -0.022501 120545.000000 0 0 1
11.648892 -13.891697 26.038949 31.728580 -0.872987 0.608200 0.140378 -0.030124 -138920.000000 0 0 1
11.745592 -12.345097 25.899149 31.002036 -0.810278 0.581933 0.151684 -0.031499 337045.000000 0 0 1
10.603992 -11.637297 25.407819 29.890276 -0.831824 0.554742 0.159664 -0.026506 257751.000000 0 0 1
10.822292 -10.252397 25.283279 29.350943 -0.758363 0.532751 0.156527 -0.029310 53082.500000 0 0 1
9.687992 -9.465997 24.568049 28.054435 -0.773809 0.503855 0.139665 -0.022206 -283198.000000 0 0 1
8.533792 -9.309797 25.320989 28.295767 -0.828860 0.462660 0.135408 -0.032720 -817867.000000 0 0 1
7.455292 -8.977597 24.470099 27.110226 -0.877772 0.444990 0.118183 -0.030698 886087.000000 0 0 1
6.079192 -9.106397 25.239709 27.512287 -0.982166 0.409305 0.111042 -0.027916 -429436.000000 0 0 1
5.744592 -8.122997 26.198849 28.024331 -0.955254 0.362929 0.129568 -0.026358 1452570.000000 0 0 1
4.358592 -8.214597 26.639759 28.216195 -1.082976 0.335851 0.144143 -0.029746 2627300.000000 0 0 1
3.162992 -8.244697 25.598729 27.079041 -1.204473 0.332180 0.111729 -0.023606 -83116.100000 0 0 1
3.130292 -7.137097 24.754189 25.952009 -1.157468 0.305007 0.113249 -0.029587 149443.000000 0 0 1
1.915392 -7.031697 24.014359 25.095875 -1.304855 0.294647 0.094474 -0.031532 617084.000000 0 0 1
1.802892 -5.671597 23.304249 24.052140 -1.263017 0.250028 0.069741 -0.035528 95001.000000 0 1 0
1.709092 -4.589697 24.216539 24.706822 -1.214328 0.199550 0.083697 -0.025925 -258099.000000 0 1 0
2.258492 -3.421797 23.662059 24.014631 -0.987402 0.171567 0.083211 -0.028378 -1558210.000000 0 1 0
1.578492 -2.627897 22.569569 22.776807 -1.029886 0.135000 0.073676 -0.028514 -8200.150000 0 1 0
0.537092 -1.781897 23.029519 23.104596 -1.278041 0.080638 0.069013 -0.029881 142261.000000 0 1 0
-0.675308 -2.400897 23.434729 23.567072 1.296607 0.106027 0.060951 -0.029216 -573537.000000 0 1 0
-1.709808 -1.333897 23.799139 23.897735 0.662516 0.090869 0.060040 -0.035430 -218415.000000 0 1 0
-1.274308 -0.570897 24.918219 24.957312 0.421194 0.055979 0.087299 -0.031705 -327471.000000 0 1 0
-2.113408 0.481103 25.267209 25.360004 -0.223829 0.085573 0.083026 -0.031412 -363450.000000 0 0 1
-1.693708 1.267103 26.573559 26.657611 -0.642299 0.079432 0.116963 -0.035188 -5436.950000 0 0 1
-1.912708 0.590103 27.856729 27.928552 -0.299252 0.071733 0.143812 -0.037746 172301.000000 0 0 1
-1.116908 -0.578897 28.033869 28.062082 0.478182 0.044845 0.149836 -0.038321 195796.000000 0 0 1
0.314892 -0.446897 28.617499 28.622720 -0.956978 0.019101 0.174231 -0.029203 674702.000000 0 0 1
1.377192 0.099103 27.851899 27.886103 0.071837 0.049534 0.142878 -0.032757 108747.000000 0 0 1
1.836492 -0.590897 26.663849 26.733550 -0.311292 0.072227 0.124207 -0.029995 849232.000000 0 0 1
3.055292 -1.592897 26.963809 27.183067 -0.480587 0.127097 0.124617 -0.027449 454155.000000 0 0 1
2.737692 -2.570897 27.923259 28.174685 -0.753989 0.133695 0.165492 -0.034786 -25287.900000 0 0 1
3.757392 -3.511197 28.255769 28.719940 -0.751540 0.180032 0.176569 -0.034155 477667.000000 0 0 1
4.411592 -4.374797 27.111449 27.814235 -0.781210 0.225274 0.164666 -0.033961 187682.000000 0 0 1
5.240192 -3.584597 26.279949 27.035988 -0.599947 0.237046 0.148100 -0.027543 -402503.000000 0 0 1
5.601492 -4.280597 25.144379 26.113981 -0.652520 0.273356 0.140254 -0.024139 33817.000000 0 0 1
6.930192 -3.674997 24.579979 25.801328 -0.487583 0.308917 0.120428 -0.028464 190782.000000 0 0 1
8.111392 -3.883997 25.322409 26.872002 -0.446571 0.341258 0.103325 -0.026063 224497.000000 0 0 1
8.821092 -5.109297 25.268949 27.247685 -0.524995 0.383449 0.116118 -0.032847 -241102.000000 0 0 1
9.681492 -5.229297 23.999819 26.402048 -0.495237 0.429885 0.097278 -0.036829 -604053.000000 0 0 1
9.058992 -5.520097 22.761989 25.112645 -0.547266 0.436125 0.100128 -0.040176 -655004.000000 0 0 1
9.885292 -5.227897 21.709159 24.420022 -0.486465 0.475661 0.114494 -0.034086 -290570.000000 0 1 0
10.025192 -3.764797 21.231159 23.778988 -0.359238 0.467154 0.126487 -0.042355 181055.000000 0 1 0
8.781692 -3.406097 20.675259 22.719726 -0.370000 0.427480 0.105644 -0.048867 -237745.000000 0 1 0
8.714792 -2.167897 19.900259 21.832720 -0.243812 0.423909 0.101985 -0.050336 -661847.000000 0 1 0
7.302092 -1.666897 19.685659 21.062390 -0.224431 0.363563 0.082364 -0.045178 -278288.000000 0 1 0
6.720092 -1.101897 20.886359 21.968473 -0.162524 0.315174 0.086492 -0.039633 -189411.000000 0 1 0
5.399892 -0.661897 20.753859 21.455060 -0.121968 0.256367 0.055636 -0.034980 -520565.000000 0 1 0
4.861492 -0.129897 22.067459 22.596985 -0.026713 0.216913 0.051603 -0.034943 -154323.000000 0 1 0
3.651192 0.582103 22.065959 22.373569 0.158098 0.166015 0.049352 -0.031285 -235214.000000 0 1 0
3.000592 0.658103 23.310639 23.512179 0.215906 0.131027 0.062904 -0.032079 1126030.000000 0 1 0
1.527692 1.238103 23.232079 23.315150 0.681075 0.084440 0.059775 -0.038632 981914.000000 0 1 0
1.280492 2.553103 22.775489 22.953886 1.105915 0.124756 0.055561 -0.035410 -974459.000000 0 1 0
-0.077208 2.808103 22.796089 22.968524 -1.543308 0.122612 0.038352 -0.028922 -572594.000000 0 1 0
-0.713808 4.192103 22.462759 22.861732 -1.402139 0.187097 0.048841 -0.020931 -108494.000000 0 1 0
-0.435108 5.266103 23.367019 23.957019 -1.488359 0.222392 0.061655 -0.020242 -293361.000000 0 1 0
-1.411108 6.278103 23.281999 24.154861 -1.349704 0.269651 0.055101 -0.014213 -42327.200000 0 1 0
-1.152208 7.563103 24.065619 25.252369 -1.419613 0.307793 0.069167 -0.013230 838236.000000 0 0 1
-0.224508 8.457103 23.355399 24.840444 -1.544256 0.347530 0.057785 -0.015210 632489.000000 0 1 0
-0.113708 9.673103 24.147099 26.012771 -1.559042 0.381039 0.067242 -0.007345 -508857.000000 0 0 1
0.639792 10.733103 23.292869 25.654758 1.511258 0.432464 0.068164 -0.015684 1408540.000000 0 0 1
2.081992 10.785103 23.282729 25.743710 1.380099 0.440814 0.065440 -0.017623 981417.000000 0 0 1
2.729892 10.963103 24.533659 27.010042 1.326752 0.431555 0.079584 -0.013319 247060.000000 0 0 1
4.181992 11.538103 24.414609 27.325629 1.223073 0.465785 0.072519 -0.015815 604361.000000 0 0 1
5.265192 10.855103 23.825219 26.705740 1.119186 0.468739 0.074207 -0.019391 186930.000000 0 0 1
5.194292 10.455103 22.444259 25.298905 1.109697 0.479635 0.074203 -0.026505 -783651.000000 0 0 1
6.594492 10.240103 21.857559 25.021989 0.998660 0.508380 0.072330 -0.025360 -400763.000000 0 0 1
7.337092 11.403103 21.704659 25.592106 0.999054 0.558408 0.075239 -0.028124 128292.000000 0 0 1
8.622692 11.080103 21.199159 25.426833 0.909481 0.584964 0.089358 -0.027488 -151248.000000 0 0 1
9.437292 12.263103 20.742359 25.878401 0.914889 0.640944 0.087938 -0.040305 -944858.000000 0 0 1
9.013692 12.819103 19.532959 25.042215 0.957963 0.676129 0.072984 -0.035139 -243471.000000 0 0 1
9.804592 13.801103 18.957959 25.416622 0.953111 0.728929 0.090617 -0.035973 75055.100000 0 0 1
11.245092 13.450103 18.447959 25.449647 0.874451 0.759935 0.085094 -0.033682 454889.000000 0 0 1
12.171892 13.477103 19.521159 26.662012 0.836242 0.749292 0.099965 -0.035032 221451.000000 0 0 1
13.423492 12.971103 19.062359 26.679827 0.768260 0.774907 0.099357 -0.036078 104793.000000 0 0 1
14.618592 12.928103 19.981159 27.930016 0.724107 0.773599 0.126693 -0.038027 -7030.840000 0 0 1
15.323292 14.142103 20.198359 29.030606 0.745332 0.801318 0.134136 -0.041277 -460385.000000 0 0 1
16.621692 13.990103 20.658759 29.979792 0.699643 0.810564 0.144496 -0.044377 -387339.000000 0 0 1
17.365692 15.270103 21.022559 31.252061 0.721275 0.832975 0.143975 -0.039460 -138802.000000 0 0 1
16.879992 15.847103 22.238659 32.103314 0.753848 0.805540 0.146242 -0.041577 370703.000000 0 0 1
17.603692 17.026103 22.575319 33.308005 0.768721 0.826065 0.131038 -0.032484 -123496.000000 0 0 1
-21.927608 12.948294 -24.323041 35.214892 -0.533406 2.333257 0.090299 -0.003523 112069.000000 0 0 1
-21.847508 12.642194 -25.694841 36.018933 -0.524578 2.365092 0.083853 -0.017047 -241089.000000 0 0 1
-22.636108 13.492794 -26.429131 37.322217 -0.537528 2.357648 0.087571 -0.019634 -187575.000000 0 0 1
-22.255208 13.307994 -27.948681 38.125133 -0.538927 2.393632 0.072166 -0.019564 698486.000000 0 0 1
-20.970108 13.849894 -28.269331 37.824861 -0.583693 2.414898 0.085093 -0.015714 229544.000000 0 0 1
-20.856108 14.371894 -29.569211 38.934135 -0.603371 2.433291 0.075077 -0.026080 980580.000000 0 0 1
-19.387408 14.823494 -29.954961 38.638158 -0.652776 2.457937 0.070415 -0.025894 1169040.000000 0 0 1
-18.531208 13.744294 -30.281821 38.069673 -0.638157 2.490516 0.065565 -0.019131 94231.800000 0 0 1
-17.153308 14.066194 -30.403861 37.636267 -0.686834 2.511265 0.046772 -0.012808 1468220.000000 0 0 1
-16.233408 13.634994 -29.163081 36.054430 -0.698621 2.513012 0.085788 -0.010476 619890.000000 0 0 1
-16.833308 14.203094 -28.005061 35.628241 -0.700854 2.475166 0.101441 -0.009180 -87122.000000 0 0 1
-17.303108 13.217294 -27.155981 34.807208 -0.652318 2.465754 0.123966 -0.009882 -158466.000000 0 0 1
-17.997508 13.757694 -25.880071 34.394222 -0.652668 2.422576 0.115381 -0.018825 -217580.000000 0 0 1
-17.214208 14.287494 -24.822441 33.415790 -0.692758 2.408092 0.162049 -0.030445 -320915.000000 0 0 1
-17.965208 14.506294 -23.676141 33.071754 -0.679277 2.368712 0.150280 -0.031628 -432713.000000 0 0 1
-17.132908 15.118294 -22.570141 32.117139 -0.723013 2.350044 0.161083 -0.029880 -217715.000000 0 0 1
-16.799108 16.445094 -22.815641 32.759802 -0.774750 2.341238 0.137345 -0.027895 -317780.000000 0 0 1
-16.061308 16.997794 -21.742341 31.931489 -0.813718 2.319795 0.134791 -0.027760 -280316.000000 0 0 1
-15.816808 18.493894 -22.130241 32.892904 -0.863265 2.308779 0.115639 -0.025300 1032360.000000 0 0 1
-16.959908 19.393694 -22.241841 34.036059 -0.852246 2.282967 0.083410 -0.020500 924035.000000 0 0 1
-17.846008 19.188194 -23.341641 35.092720 -0.821624 2.298480 0.072814 -0.017002 -120005.000000 0 0 1
-19.149708 19.988294 -23.178441 36.103786 -0.806821 2.267893 0.055330 -0.015386 -431149.000000 0 0 1
-18.986508 21.424394 -23.381241 36.961799 -0.845653 2.255674 0.048909 -0.011109 -313140.000000 0 0 1
-20.138208 22.235294 -23.431541 38.065639 -0.834848 2.233888 0.072238 -0.025557 -94135.700000 0 0 1
-19.755908 23.703994 -23.681441 38.897119 -0.875994 2.225372 0.059353 -0.025987 219092.000000 0 0 1
-19.089908 24.242794 -22.546441 38.216222 -0.903757 2.201819 0.059290 -0.023713 -138047.000000 0 0 1
-18.361708 25.427494 -22.761241 38.752856 -0.945378 2.198569 0.053982 -0.007871 134762.000000 0 0 1
-17.224708 25.618394 -21.700641 37.734739 -0.978865 2.183503 0.052655 -0.014014 493437.000000 0 0 1
-16.113608 24.725994 -21.651041 36.603152 -0.993236 2.203724 0.065509 -0.026455 253500.000000 0 0 1
-16.450708 23.379894 -21.355141 35.683151 -0.957641 2.212381 0.075511 -0.013566 -793876.000000 0 0 1
-15.217308 22.461294 -21.226641 34.447735 -0.975338 2.234703 0.105954 -0.015972 238827.000000 0 0 1
-14.516208 22.616694 -20.032941 33.519455 -1.000182 2.211365 0.129886 -0.026342 809797.000000 0 0 1
-13.357008 21.756994 -19.800441 32.308419 -1.020206 2.230467 0.127257 -0.025758 1284350.000000 0 0 1
-12.492008 22.185394 -18.543141 31.497461 -1.057971 2.200269 0.108393 -0.023126 206665.000000 0 0 1
-12.988008 21.942094 -17.268741 30.795345 -1.036338 2.166098 0.124657 -0.023236 727580.000000 0 0 1
-14.201708 22.663694 -16.906841 31.641315 -1.011027 2.134509 0.123936 -0.037381 994681.000000 0 0 1
-14.646608 22.690694 -15.412041 31.095365 -0.997598 2.089365 0.142699 -0.039309 404650.000000 0 0 1
-13.696008 23.298094 -14.531341 30.684551 -1.039351 2.064138 0.135355 -0.049805 298265.000000 0 0 1
-14.165808 23.381694 -13.210541 30.362676 -1.026086 2.020936 0.144735 -0.044875 398763.000000 0 0 1
-13.042408 24.010894 -12.321041 29.973913 -1.073199 1.994412 0.174445 -0.041273 292857.000000 0 0 1
-12.835708 25.359894 -12.588241 31.086065 -1.102247 1.987718 0.158471 -0.051487 -402079.000000 0 0 1
-11.782208 25.757394 -11.784641 30.678030 -1.141781 1.965072 0.111368 -0.036730 -491946.000000 0 0 1
-11.233108 27.197394 -12.001141 31.779055 -1.179115 1.958046 0.148600 -0.039779 -134362.000000 0 0 1
-10.547108 27.223994 -13.205841 32.043432 -1.201182 1.995579 0.138521 -0.042574 -200083.000000 0 0 1
-10.146808 28.539694 -13.468941 33.149422 -1.229201 1.989208 0.102902 -0.019975 -622864.000000 0 0 1
-9.564908 28.845494 -14.871641 33.833647 -1.250615 2.025896 0.132522 -0.044226 604613.000000 0 0 1
-8.163408 28.700594 -15.049441 33.419321 -1.293681 2.037922 0.083874 -0.044770 -15241.200000 0 0 1
-7.622608 27.419194 -14.933941 32.139367 -1.299641 2.054049 0.092868 -0.042356 -733860.000000 0 0 1
-6.135208 27.343794 -15.327841 31.941611 -1.350079 2.071304 0.090584 -0.045234 453962.000000 0 0 1
-5.304708 28.133394 -14.460641 32.073944 -1.384429 2.038517 0.062242 -0.036905 -1222860.000000 0 0 1
-3.983008 28.050994 -14.814341 31.971664 -1.429748 2.052578 0.076663 -0.039389 -508745.000000 0 0 1
-2.993708 29.074094 -14.113641 32.457050 -1.468190 2.020658 0.048994 -0.029094 433465.000000 0 0 1
-3.161708 30.466594 -14.463741 33.873434 -1.467390 2.011962 0.034210 -0.019065 -353502.000000 0 0 1
-4.243108 31.050594 -13.795241 34.241087 -1.434986 1.985464 0.019266 -0.013632 -378650.000000 0 0 1
-4.382708 32.574894 -13.856941 35.669968 -1.437057 1.969774 0.026546 -0.018676 -762460.000000 0 0 1
-3.426608 33.314794 -13.190941 35.994695 -1.468301 1.946008 0.004733 -0.014213 -519981.000000 0 0 1
-3.427108 -32.961197 -13.534741 35.796296 1.467195 1.958544 0.023273 -0.012728 -116554.000000 0 0 1
-2.643108 -32.090597 -12.563941 34.563638 1.488618 1.942820 0.041166 -0.018822 -454549.000000 0 0 1
-3.200408 -31.871097 -11.294441 33.964302 1.470715 1.909790 0.039145 -0.014496 -310766.000000 0 0 1
-2.305208 -31.308497 -10.387341 33.067096 1.497300 1.890336 0.048745 -0.022281 -12687.700000 0 0 1
-2.899608 -31.267597 -8.901341 32.638998 1.478326 1.847016 0.049877 -0.013394 168601.000000 0 0 1
-1.921808 -30.641297 -8.087641 31.748895 1.508159 1.828373 0.085926 -0.028926 125795.000000 0 0 1
-2.039208 -30.788297 -6.705941 31.576055 1.504660 1.784800 0.066175 -0.027462 -159472.000000 0 0 1
-0.854708 -30.171697 -5.936541 30.762060 1.542476 1.764997 0.097419 -0.034788 255556.000000 0 0 1
-0.834008 -30.586897 -4.557341 30.935791 1.543536 1.718651 0.100280 -0.042217 937451.000000 0 0 1
0.397592 -30.034397 -4.016941 30.304437 -1.557559 1.703741 0.091242 -0.038058 1003210.000000 0 0 1
0.644492 -30.138797 -2.460241 30.245913 -1.549415 1.652228 0.083564 -0.030047 -233039.000000 0 0 1
0.805192 -31.460897 -1.898441 31.528407 -1.545209 1.631046 0.094371 -0.039114 705746.000000 0 0 1
1.964392 -32.220997 -2.312841 32.363571 -1.509905 1.642322 0.092955 -0.038915 1331200.000000 0 0 1
3.388692 -31.798097 -1.821941 32.030012 -1.464628 1.627709 0.088180 -0.035031 22661.100000 0 0 1
3.766692 -32.238597 -0.511541 32.461928 -1.454486 1.586555 0.074506 -0.030635 -363352.000000 0 0 1
4.972592 -31.780197 0.024459 32.166880 -1.415587 1.570036 0.067808 -0.026147 -187144.000000 0 0 1
5.201492 -30.228197 0.272159 30.673661 -1.400391 1.561923 0.043046 -0.022722 -481742.000000 0 0 1
5.387692 -29.538697 -0.947341 30.040960 -1.390385 1.602337 0.058222 -0.031069 40574.600000 0 0 1
5.099892 -28.169797 -0.773941 28.638180 -1.391695 1.597824 0.069297 -0.023458 -252237.000000 0 0 1
4.653692 -27.499597 -2.085841 27.968472 -1.403157 1.645444 0.056490 -0.016556 -99863.700000 0 0 1
3.377392 -27.806897 -2.588241 28.130575 -1.449930 1.662935 0.075209 -0.023946 17734.400000 0 0 1
2.689992 -26.937997 -3.485241 27.295396 -1.471268 1.698832 0.075141 -0.031362 184792.000000 0 0 1
3.135992 -26.894397 -4.960641 27.527277 -1.454717 1.751994 0.073074 -0.027889 -108768.000000 0 0 1
2.657592 -27.963297 -5.747041 28.671192 -1.476042 1.772610 0.076297 -0.026135 -144051.000000 0 0 1
3.322392 -27.976797 -6.979341 29.025000 -1.452595 1.813636 0.088387 -0.036482 -445835.000000 0 0 1
2.591792 -28.554497 -8.180341 29.816013 -1.480278 1.848721 0.083791 -0.036024 471222.000000 0 0 1
1.360792 -27.831797 -8.451241 29.118450 -1.521942 1.865270 0.092268 -0.038204 626400.000000 0 0 1
0.898092 -28.108397 -9.766441 29.770319 -1.538856 1.905045 0.080904 -0.032449 -20763.200000 0 0 1
-0.540308 -27.614297 -9.979241 29.367100 1.551233 1.917511 0.094997 -0.031572 -680050.000000 0 0 1
-0.733208 -26.234897 -9.774741 28.006302 1.542856 1.927321 0.105302 -0.030380 43753.600000 0 0 1
-2.062308 -25.808897 -9.524641 27.587516 1.491059 1.923303 0.125973 -0.038575 771824.000000 0 0 1
-2.893508 -26.396297 -8.291441 27.818786 1.461614 1.873447 0.127581 -0.034884 5245.150000 0 0 1
-2.503108 -26.017297 -6.987541 27.055332 1.474882 1.832026 0.135256 -0.041155 115290.000000 0 0 1
-1.228908 -26.534197 -6.606141 27.371791 1.524515 1.814552 0.116078 -0.040861 453330.000000 0 0 1
-0.922708 -26.354397 -5.143841 26.867540 1.535799 1.763438 0.135880 -0.040498 81718.200000 0 0 1
-1.864908 -27.061597 -4.343441 27.471319 1.501992 1.729571 0.138643 -0.040826 176530.000000 0 0 1
-1.708908 -26.765597 -3.021741 26.989784 1.507036 1.682990 0.132012 -0.032204 -275027.000000 0 0 1
-2.940908 -27.158297 -2.201441 27.405627 1.462929 1.651211 0.118656 -0.032590 -140388.000000 0 0 1
-4.020408 -26.257397 -2.285941 26.661585 1.418861 1.656641 0.114275 -0.028143 -415044.000000 0 0 1
-4.792408 -26.301897 -1.113141 26.758102 1.390566 1.612408 0.116686 -0.034123 -200909.000000 0 0 1
-5.959708 -25.295097 -1.120641 26.011841 1.339409 1.613892 0.117523 -0.017822 -334739.000000 0 0 1
-5.581108 -23.944197 -1.019941 24.607186 1.341797 1.612257 0.086474 -0.025456 69493.700000 0 1 0
-6.585708 -23.036797 -0.503341 23.964952 1.292346 1.591801 0.103859 -0.033650 421759.000000 0 1 0
-6.045908 -21.706297 -0.000441 22.532562 1.299149 1.570816 0.063530 -0.033276 -94926.400000 0 1 0
-5.320108 -21.676197 1.203559 22.351949 1.330118 1.516924 0.051992 -0.030360 34262.300000 0 1 0
-4.578608 -20.454797 1.309559 21.001841 1.350586 1.508401 0.025729 -0.018848 726998.000000 0 1 0
-3.505808 -20.277597 2.454559 20.724297 1.399598 1.452079 0.019084 -0.010840 356866.000000 0 1 0
-4.084008 -20.139297 3.776559 20.893367 1.370721 1.389043 0.016282 -0.007353 -485950.000000 0 1 0
-3.212408 -19.682297 4.770659 20.505403 1.409010 1.335991 0.030041 -0.018410 -778149.000000 0 1 0
-2.420108 -20.798797 5.421459 21.629588 1.454959 1.317445 0.032467 -0.024524 -288432.000000 0 1 0
-1.580908 -21.384297 4.462459 21.902077 1.497002 1.365614 0.024103 -0.018985 -655818.000000 0 1 0
-1.116508 -22.620297 4.938259 23.179966 1.521478 1.356111 0.032181 -0.021601 -375614.000000 0 1 0
-0.057208 -23.152897 3.969959 23.490859 1.568325 1.400981 0.047911 -0.022422 23975.200000 0 1 0
1.046392 -22.286397 3.753559 22.624492 -1.523879 1.404119 0.068526 -0.032057 341383.000000 0 1 0
2.221992 -22.963897 4.233259 23.456306 -1.474336 1.389328 0.080354 -0.026284 -175896.000000 0 1 0
3.420992 -22.077397 4.523759 22.794276 -1.417064 1.371010 0.094723 -0.024877 -433031.000000 0 1 0
4.185492 -21.874697 3.357459 22.523171 -1.381742 1.421172 0.088511 -0.018422 -460583.000000 0 1 0
5.341592 -21.137597 3.689359 22.112032 -1.323273 1.403164 0.081347 -0.018119 147602.000000 0 1 0
6.069392 -20.584597 2.445259 21.599593 -1.284070 1.457345 0.072012 -0.017249 198756.000000 0 1 0
6.743892 -21.583597 1.698059 22.676312 -1.267953 1.495844 0.094822 -0.017234 -140941.000000 0 1 0
6.854192 -21.159297 0.352259 22.244547 -1.257530 1.554960 0.071838 -0.032608 18093.600000 0 1 0
7.731392 -22.040697 -0.600041 23.365076 -1.233429 1.596480 0.085500 -0.024956 550472.000000 0 1 0
9.128892 -21.796597 -0.515541 23.636710 -1.174170 1.592609 0.070780 -0.016681 -422909.000000 0 1 0
9.799492 -22.631797 -1.394541 24.701680 -1.162172 1.627282 0.074053 -0.018209 -616573.000000 0 1 0
11.268392 -22.244697 -1.477741 24.979730 -1.101910 1.629988 0.080972 -0.018095 -470158.000000 0 1 0
11.470992 -21.231797 -2.415041 24.252943 -1.075451 1.670539 0.065634 -0.015672 -282626.000000 0 1 0
12.815892 -20.970797 -2.739041 24.729006 -1.022233 1.681786 0.067831 -0.029734 -446319.000000 0 1 0
13.066192 -19.884897 -3.762241 24.089187 -0.989452 1.727618 0.051976 -0.023942 -376371.000000 0 1 0
13.045992 -18.557397 -3.244241 22.915060 -0.958055 1.712850 0.072534 -0.027385 257106.000000 0 1 0
13.101792 -17.695197 -4.351841 22.443606 -0.933458 1.765934 0.071980 -0.023123 -730439.000000 0 1 0
13.388192 -16.255797 -3.905841 21.418455 -0.881833 1.754181 0.068523 -0.011869 -75293.100000 0 1 0
14.673092 -16.092397 -3.374141 22.037461 -0.831499 1.724510 0.065877 -0.010083 151292.000000 0 1 0
15.684392 -15.812597 -4.338441 22.690536 -0.789469 1.763181 0.070038 -0.017591 570630.000000 0 1 0
17.070692 -15.338497 -3.771041 23.257230 -0.732001 1.733660 0.072739 -0.013142 679811.000000 0 1 0
17.804592 -16.395197 -3.135741 24.405713 -0.744211 1.699636 0.084932 -0.021483 -603746.000000 0 1 0
19.044392 -15.929597 -2.806941 24.986393 -0.696572 1.683373 0.060359 -0.010308 -1042240.000000 0 1 0
19.995892 -16.790697 -1.964041 26.184359 -0.698488 1.645875 0.057803 -0.020134 1534590.000000 0 0 1
21.414092 -16.667997 -2.255741 27.230017 -0.661409 1.653732 0.065842 -0.015693 1139350.000000 0 0 1
22.187492 -17.390797 -1.359841 28.223638 -0.664791 1.618996 0.069151 -0.014266 -1352160.000000 0 0 1
23.623492 -17.449497 -1.817241 29.425442 -0.636198 1.632593 0.097460 -0.016360 -1008680.000000 0 0 1
24.283992 -16.254797 -1.397841 29.255506 -0.589867 1.618595 0.099220 -0.022626 414914.000000 0 0 1
25.460592 -16.560197 -0.646241 30.379260 -0.576674 1.592070 0.149224 -0.025668 727518.000000 0 0 1
26.274092 -15.258497 -0.215541 30.384142 -0.526140 1.577890 0.135703 -0.026024 340153.000000 0 0 1
25.480492 -14.548197 0.687859 29.349253 -0.518789 1.547357 0.109802 -0.029118 290755.000000 0 0 1
26.122892 -13.367797 1.127959 29.366235 -0.472985 1.532377 0.077382 -0.021906 167154.000000 0 0 1
25.263892 -12.771097 2.283959 28.400380 -0.468044 1.490289 0.094235 -0.032752 -14066.200000 0 0 1
25.338592 -13.499097 3.500059 28.922660 -0.489502 1.449485 0.128824 -0.021915 368248.000000 0 0 1
26.578092 -13.570497 4.180059 30.133473 -0.472083 1.431629 0.148644 -0.008389 92630.400000 0 0 1
26.367392 -14.198397 5.559159 30.458793 -0.493958 1.387253 0.142730 -0.002660 230959.000000 0 0 1
25.984392 -15.589597 5.554259 30.807043 -0.540390 1.389513 0.145858 -0.016021 -292155.000000 0 0 1
25.044692 -15.841497 6.545359 30.348498 -0.563995 1.353415 0.136933 -0.015911 -438953.000000 0 0 1
24.470792 -17.241597 6.360159 30.603005 -0.613792 1.361442 0.111034 -0.020198 -242486.000000 0 0 1
25.391092 -18.280197 6.572459 31.969835 -0.623987 1.363737 0.099337 -0.013692 -195706.000000 0 0 1
24.730892 -19.524097 6.740959 32.221854 -0.668282 1.360035 0.074348 -0.000798 242694.000000 0 0 1
2.169392 22.997494 -2.952141 23.287467 1.476743 1.697908 0.054066 -0.030608 -4619.480000 0 1 0
3.086892 23.965094 -2.541041 24.296327 1.442694 1.675573 0.067301 -0.032533 -373391.000000 0 1 0
3.853992 24.505994 -3.580541 25.064262 1.414807 1.714141 0.092274 -0.027209 38316.300000 0 0 1
4.891392 25.557994 -3.151541 26.212000 1.381699 1.691321 0.075834 -0.025104 1025100.000000 0 0 1
6.120492 25.010494 -2.614141 25.880860 1.330796 1.671976 0.056867 -0.025014 507939.000000 0 0 1
6.834292 25.955994 -1.861141 26.905111 1.313337 1.640026 0.050092 -0.023741 415656.000000 0 0 1
8.007392 25.321894 -1.037941 26.578072 1.264522 1.609859 0.036996 -0.033241 747188.000000 0 0 1
9.129392 24.981294 -1.829041 26.660011 1.220425 1.639456 0.042696 -0.029762 -531405.000000 0 0 1
10.093192 24.205194 -1.203041 26.252833 1.175734 1.616638 0.031209 -0.029383 -107300.000000 0 0 1
11.261092 23.915194 -2.180941 26.523672 1.130718 1.653115 0.052896 -0.024895 -1019890.000000 0 0 1
12.116892 25.027894 -2.333541 27.904479 1.119921 1.654520 0.054280 -0.021442 -41345.700000 0 0 1
13.072692 24.869194 -3.367541 28.296862 1.086834 1.690087 0.078692 -0.026584 792248.000000 0 0 1
14.099192 23.682694 -3.416141 27.772778 1.033812 1.694112 0.086601 -0.025079 -394264.000000 0 0 1
13.547092 22.370494 -3.696741 26.412659 1.026285 1.711218 0.109145 -0.025230 -44411.700000 0 0 1
13.241892 22.142894 -5.071141 26.293952 1.031834 1.764876 0.141622 -0.039346 133361.000000 0 0 1
12.250792 20.950994 -5.335741 24.849470 1.041676 1.787204 0.143059 -0.039659 685156.000000 0 1 0
10.945592 21.279594 -4.862441 24.418649 1.095719 1.771265 0.118343 -0.034602 -237318.000000 0 1 0
10.153992 20.153694 -4.938341 23.101128 1.104091 1.786229 0.101523 -0.027788 -919970.000000 0 1 0
8.671992 20.383494 -4.702441 22.645158 1.168551 1.779976 0.088992 -0.026363 -612267.000000 0 1 0
8.233092 20.846494 -3.441441 22.676058 1.194661 1.723150 0.099903 -0.029500 210502.000000 0 1 0
6.905092 21.352994 -3.483741 22.710506 1.258032 1.724802 0.088666 -0.020803 737401.000000 0 1 0
6.313792 21.900994 -2.130241 22.892257 1.290119 1.663986 0.062618 -0.025652 263300.000000 0 1 0
5.638392 21.036694 -1.269641 21.816185 1.308925 1.629026 0.048995 -0.035221 21731.700000 0 1 0
5.035092 21.638394 -0.144941 22.216958 1.342172 1.577320 0.062767 -0.035202 121439.000000 0 1 0
4.444292 20.651994 0.908759 21.144323 1.358830 1.527804 0.035080 -0.038650 -7136.430000 0 1 0
3.870192 21.384594 2.016559 21.825346 1.391754 1.478269 0.039526 -0.035399 348929.000000 0 1 0
3.525392 20.593194 3.138559 21.127199 1.401248 1.421689 0.046503 -0.028317 -226183.000000 0 1 0
2.405092 21.232194 3.969359 21.733530 1.458001 1.387128 0.023504 -0.023742 -355574.000000 0 1 0
1.099592 21.179594 3.467159 21.489660 1.518925 1.408747 0.023327 -0.030891 -618222.000000 0 1 0
0.217292 21.835094 4.296759 22.254902 1.560845 1.376506 0.024595 -0.027577 217324.000000 0 1 0
-1.213208 22.071194 3.729459 22.416920 -1.515884 1.403651 0.023825 -0.021976 758050.000000 0 1 0
-2.134108 22.552994 4.727659 23.141795 -1.476451 1.365057 0.041642 -0.025091 111480.000000 0 1 0
-3.384408 22.690394 4.095059 23.304027 -1.422732 1.394156 0.064129 -0.022606 -977770.000000 0 1 0
-4.636208 22.782594 4.880359 23.756239 -1.370040 1.363888 0.075751 -0.035987 -903587.000000 0 1 0
-4.821908 24.088594 5.420859 25.157441 -1.373234 1.353616 0.113037 -0.026264 524199.000000 0 0 1
-6.096408 24.158094 6.079359 25.646409 -1.323603 1.331473 0.125192 -0.026482 960478.000000 0 0 1
-6.605808 25.622594 6.421059 27.228368 -1.318479 1.332732 0.136695 -0.033287 -449392.000000 0 0 1
-5.820908 26.223794 7.372659 27.855456 -1.352367 1.302929 0.095312 -0.043251 -485836.000000 0 0 1
-6.376508 27.343494 8.093759 29.220463 -1.341691 1.290137 0.128136 -0.032071 -152451.000000 0 0 1
-6.769908 28.644194 7.323759 30.330825 -1.338710 1.326924 0.142463 -0.039470 1353640.000000 0 0 1
-8.081408 28.627294 6.689759 30.489080 -1.295659 1.349582 0.131520 -0.047597 749536.000000 0 0 1
-8.251008 29.840094 5.954059 31.527149 -1.301029 1.380800 0.166233 -0.049078 -417680.000000 0 0 1
-9.652708 30.327694 5.528759 32.303420 -1.262654 1.398799 0.179121 -0.052000 424643.000000 0 0 1
-10.516108 30.725294 6.590759 33.137144 -1.241031 1.370568 0.146971 -0.042325 169779.000000 0 0 1
-11.152108 29.652094 7.322159 32.515076 -1.211063 1.343655 0.128851 -0.032568 -64543.800000 0 0 1
-11.990608 30.045394 8.570459 33.465701 -1.191081 1.311814 0.087621 -0.025274 169311.000000 0 0 1
-11.215408 30.446994 9.654559 33.852848 -1.217861 1.281590 0.098609 -0.025606 -352623.000000 0 0 1
-12.053008 30.646494 10.742959 34.639482 -1.196086 1.255460 0.091847 -0.017149 299571.000000 0 0 1
-11.229708 31.196494 11.992859 35.258421 -1.225270 1.223729 0.087575 -0.029930 482650.000000 0 0 1
-10.750508 32.515794 11.712159 36.194266 -1.251486 1.241274 0.100744 -0.034675 120363.000000 0 0 1
-9.718808 32.923394 12.572959 36.557959 -1.283754 1.219710 0.092974 -0.041933 -94052.600000 0 0 1
-9.591208 -33.262597 12.447959 36.787815 1.290063 1.225610 0.104540 -0.047573 371113.000000 0 0 1
-10.731908 -32.471597 12.787759 36.511714 1.251597 1.212972 0.101972 -0.038524 151834.000000 0 0 1
-10.386708 -31.106597 12.898259 35.240164 1.248530 1.196078 0.100517 -0.039602 180861.000000 0 0 1
-11.473908 -30.158997 13.461059 34.963063 1.207259 1.175580 0.088282 -0.029969 68924.100000 0 0 1
-11.771908 -30.380397 14.869459 35.814063 1.201126 1.142650 0.079337 -0.035744 525659.000000 0 0 1
-10.648308 -30.058697 15.705059 35.546598 1.230340 1.113174 0.092224 -0.035528 499981.000000 0 0 1
-10.923608 -30.415697 17.140159 36.581756 1.225999 1.083154 0.090618 -0.048017 307723.000000 0 0 1
-11.971308 -29.640097 17.719259 36.548867 1.186942 1.064650 0.088448 -0.044164 420167.000000 0 0 1
-12.269908 -30.208997 18.992059 37.733704 1.184985 1.043362 0.083624 -0.047113 -5546.200000 0 0 1
-12.520208 -29.169497 20.133359 37.589457 1.165355 1.005564 0.115005 -0.050791 -311640.000000 0 0 1
-11.298508 -28.698797 20.614959 37.097894 1.195739 0.981603 0.085238 -0.051467 -283920.000000 0 0 1
-11.446908 -27.943997 21.773659 37.228899 1.182009 0.946090 0.090499 -0.048234 173401.000000 0 0 1
-10.124808 -27.783997 22.558759 37.193545 1.221341 0.919116 0.109884 -0.043223 153143.000000 0 0 1
-9.681208 -28.884697 23.274659 38.337465 1.247396 0.918391 0.085698 -0.023614 -29999.500000 0 0 1
-8.448608 -28.768097 23.959059 38.379928 1.285148 0.896612 0.117060 -0.020864 91264.800000 0 0 1
-8.320808 -29.662497 25.186159 39.792489 1.297309 0.885455 0.111324 -0.019947 -110792.000000 0 0 1
-8.400908 -31.009797 24.796759 40.584012 1.306235 0.913475 0.114271 -0.007561 320864.000000 0 0 1
-8.322708 -31.759297 25.988359 41.872607 1.314504 0.901221 0.125451 -0.003172 -420984.000000 0 0 1
-8.400508 -33.259097 25.703659 42.865069 1.323393 0.927744 0.123874 -0.008801 560749.000000 0 0 1
-7.271508 33.794294 25.027759 42.676900 -1.358858 0.944130 0.131527 -0.015050 1069840.000000 0 0 1
-7.485508 32.454694 24.624559 41.421116 -1.344116 0.934161 0.112829 -0.014027 -63606.700000 0 0 1
-8.414208 32.220794 23.415459 40.709485 -1.315359 0.957967 0.119758 -0.014417 -33108.700000 0 0 1
-9.000408 30.953094 23.339159 39.797207 -1.287823 0.944125 0.107270 -0.010579 55850.300000 0 0 1
-9.813908 30.920094 22.173659 39.294225 -1.263457 0.971213 0.090520 -0.015453 -236391.000000 0 0 1
-10.389408 29.519894 22.036659 38.275034 -1.232389 0.957281 0.076513 -0.016792 36313.100000 0 0 1
-9.476308 28.445394 21.820359 37.081921 -1.249219 0.941672 0.056880 -0.012274 178566.000000 0 0 1
-10.129008 27.237594 22.213359 36.577543 -1.214767 0.918145 0.042860 -0.005085 -257529.000000 0 0 1
-9.362108 25.918194 22.035959 35.284349 -1.224163 0.896273 0.057054 -0.019224 319347.000000 0 0 1
-8.159608 25.851194 22.808459 35.427238 -1.265056 0.871327 0.043528 -0.021153 579751.000000 0 0 1
-7.502608 24.584694 22.714059 34.301964 -1.274600 0.847073 0.043109 -0.018437 192685.000000 0 0 1
-6.043608 24.600794 23.217359 34.362334 -1.329900 0.828933 0.049335 -0.020707 168076.000000 0 0 1
-5.145308 25.164694 22.274159 33.998149 -1.369111 0.856405 0.054107 -0.019853 311058.000000 0 0 1
-3.839108 25.260194 22.834359 34.266953 -1.419968 0.841471 0.083615 -0.019291 851958.000000 0 0 1
-2.736208 25.862794 21.895659 33.996923 -1.465391 0.871018 0.090222 -0.014986 441695.000000 0 0 1
-2.381008 24.977294 20.844659 32.619537 -1.475757 0.877568 0.064785 -0.008646 -461230.000000 0 0 1
-1.405108 25.488894 20.002059 32.430547 -1.515726 0.906169 0.069804 -0.007258 -273895.000000 0 0 1
-0.965508 24.435694 18.931159 30.926107 -1.531305 0.912030 0.050287 -0.010312 -346918.000000 0 0 1
-0.222208 23.363894 19.442959 30.396538 -1.561286 0.876761 0.056369 -0.009606 -221947.000000 0 0 1
0.032992 22.343894 18.533559 29.030044 1.569320 0.878344 0.045060 -0.015240 412792.000000 0 0 1
1.210892 21.379094 18.920059 28.574473 1.514218 0.847137 0.050954 -0.009300 1664460.000000 0 0 1
2.551992 21.923294 18.854959 29.028485 1.454912 0.863826 0.043194 -0.012379 704063.000000 0 0 1
3.499492 20.886694 18.973559 28.434070 1.404792 0.840242 0.050016 -0.004811 420994.000000 0 0 1
4.938192 21.482994 19.019559 29.114401 1.344856 0.858901 0.044031 -0.013536 -122943.000000 0 0 1
5.954292 20.577794 18.918359 28.579774 1.289134 0.847380 0.066584 -0.023462 -370056.000000 0 0 1
7.247692 21.120594 18.740259 29.151429 1.240230 0.872571 0.098375 -0.027663 605406.000000 0 0 1
8.451092 20.179594 18.475359 28.635220 1.174194 0.869515 0.098341 -0.023702 135145.000000 0 0 1
8.928192 19.412694 19.556559 28.965916 1.139728 0.829618 0.108798 -0.029509 -34005.000000 0 0 1
9.836592 18.440694 19.092659 28.308079 1.080773 0.830564 0.118141 -0.037936 39091.200000 0 0 1
10.381892 17.477994 20.221059 28.673248 1.034802 0.788057 0.134989 -0.036416 -468792.000000 0 0 1
9.445892 16.621994 20.738859 28.206662 1.054029 0.744766 0.114565 -0.032311 -404317.000000 0 0 1
9.938192 16.183194 21.976159 29.045051 1.020069 0.712663 0.109666 -0.033407 192853.000000 0 0 1
8.935092 15.187594 22.620159 28.673515 1.039013 0.661801 0.099407 -0.033463 -591313.000000 0 0 1
7.915892 15.887094 23.252759 29.253237 1.108542 0.651990 0.084809 -0.025028 466607.000000 0 0 1
6.760292 15.081394 23.642659 28.846582 1.149396 0.610084 0.083049 -0.024162 1092940.000000 0 0 1
7.010592 13.812694 24.538759 29.018780 1.101129 0.563077 0.087475 -0.020566 -977862.000000 0 0 1
7.206192 14.183394 25.924559 30.416782 1.100712 0.550408 0.101035 -0.027189 57010.300000 0 0 1
7.570992 13.007294 26.601959 30.564257 1.043674 0.514860 0.110684 -0.035849 -685437.000000 0 0 1
8.457792 13.308994 27.843259 31.998603 1.004686 0.515310 0.091658 -0.032866 298359.000000 0 0 1
9.818492 13.644894 27.629459 32.341504 0.947055 0.546587 0.148002 -0.035440 338739.000000 0 0 1
10.050392 14.909794 26.920459 32.373190 0.977679 0.588874 0.124848 -0.035378 -1166980.000000 0 0 1
11.486992 15.131894 26.446659 32.563030 0.921481 0.622937 0.154317 -0.047240 -240678.000000 0 0 1
11.782292 14.238394 25.409159 31.419414 0.879510 0.628843 0.144777 -0.052343 -530465.000000 0 0 1
13.131392 14.124194 25.072859 31.631859 0.821808 0.655660 0.182859 -0.069065 -682196.000000 0 0 1
13.371992 13.067294 23.969359 30.398922 0.773874 0.662440 0.152807 -0.054684 183306.000000 0 0 1
12.901192 11.719194 24.236059 29.852417 0.737426 0.623461 0.155386 -0.045797 723246.000000 0 0 1
11.491792 11.609394 24.004359 29.035298 0.790489 0.597526 0.155214 -0.037923 292231.000000 0 0 1
10.891592 10.306994 24.510059 28.733323 0.757828 0.549054 0.160580 -0.034251 -245094.000000 0 0 1
10.982092 9.191294 23.623659 27.625413 0.696860 0.544971 0.158703 -0.032740 40698.700000 0 0 1
10.752392 7.960794 24.285659 27.726907 0.637312 0.503524 0.162005 -0.038387 -93778.900000 0 0 1
11.196592 6.805894 23.447359 26.860054 0.546175 0.509588 0.146730 -0.031256 -210507.000000 0 0 1
12.582392 6.796394 23.166459 27.224848 0.495250 0.553042 0.162540 -0.031059 284708.000000 0 0 1
12.953192 5.719394 22.301359 26.416798 0.415799 0.565704 0.172155 -0.041678 -27163.900000 0 0 1
12.829392 4.261294 22.823559 26.526718 0.320686 0.534744 0.156664 -0.040276 -454923.000000 0 0 1
13.873792 3.906394 23.694759 27.734159 0.274461 0.546492 0.146144 -0.031223 192341.000000 0 0 1
13.572092 2.593794 24.204759 27.871128 0.188835 0.518723 0.130021 -0.026533 -531695.000000 0 0 1
14.722492 1.970994 24.951759 29.038368 0.133085 0.536958 0.081915 -0.019048 -33521.400000 0 0 1
15.629492 1.128494 24.209159 28.838132 0.072078 0.574463 0.094596 -0.023693 276210.000000 0 0 1
16.956192 1.581394 24.269959 29.648679 0.092994 0.611853 0.087925 -0.025797 -441080.000000 0 0 1
17.875492 0.760694 23.326859 29.398201 0.042529 0.654292 0.078336 -0.026350 -109470.000000 0 0 1
18.117792 -0.566106 23.766859 29.890440 -0.031236 0.651570 0.080480 -0.029723 -131996.000000 0 0 1
19.040192 -1.175506 22.925659 29.824429 -0.061660 0.694010 0.098564 -0.023792 -425915.000000 0 0 1
19.187092 -2.708506 23.191959 30.221639 -0.140236 0.696027 0.103287 -0.024358 316339.000000 0 0 1
18.066892 -3.451106 22.716859 29.229752 -0.188745 0.680620 0.098071 -0.022665 303442.000000 0 0 1
18.332092 -4.797506 22.858159 29.691364 -0.255960 0.692176 0.115539 -0.023342 3817.930000 0 0 1
17.284392 -5.891306 22.487859 28.968284 -0.328496 0.682034 0.117560 -0.028870 -373955.000000 0 0 1
17.281592 -6.132006 21.050659 27.917470 -0.340970 0.716618 0.108367 -0.028563 -50396.500000 0 0 1
16.675292 -7.305806 20.556259 27.459059 -0.412932 0.724826 0.131467 -0.040552 359644.000000 0 0 1
17.469092 -8.680306 20.832759 28.539809 -0.461161 0.752541 0.146600 -0.042344 524280.000000 0 0 1
17.399492 -9.081906 22.141359 29.588226 -0.481064 0.725276 0.132882 -0.033532 273354.000000 0 0 1
18.199992 -10.238206 22.471659 30.676310 -0.512419 0.748749 0.120354 -0.032444 97526.900000 0 0 1
17.622292 -11.022606 23.672559 31.502905 -0.558953 0.720554 0.139633 -0.042538 -390004.000000 0 0 1
16.449892 -11.655006 23.243659 30.768584 -0.616418 0.714479 0.153463 -0.039561 -414177.000000 0 0 1
16.082292 -12.668606 24.117959 31.635575 -0.667218 0.703831 0.165023 -0.029144 593562.000000 0 0 1
14.882192 -13.534806 23.576059 30.991953 -0.738019 0.706382 0.171206 -0.036524 684661.000000 0 0 1
15.320192 -14.348606 22.517659 30.783693 -0.752662 0.750306 0.188357 -0.044236 -6951.040000 0 0 1
14.217692 -14.894606 21.856459 30.028267 -0.808646 0.755596 0.182036 -0.037969 -414160.000000 0 0 1
14.508892 -15.963406 20.807959 29.971811 -0.833094 0.803418 0.169379 -0.047979 -245521.000000 0 0 1
15.004192 -17.126306 21.430559 31.268274 -0.851349 0.815675 0.192106 -0.053428 175337.000000 0 0 1
15.216292 -18.174806 20.495159 31.335454 -0.873769 0.857862 0.169578 -0.042441 6827.280000 0 0 1
-24.771008 -31.643397 25.815009 47.763188 0.906621 0.999790 0.062266 -0.013217 -250699.000000 0 0 1
-25.256878 -32.939497 25.638459 48.787815 0.916651 1.017483 0.065207 -0.008585 262225.000000 0 0 1
-26.534178 -33.227397 26.185389 49.937933 0.896932 1.018835 0.068959 -0.021988 113276.000000 0 0 1
-26.608528 -33.607497 27.673619 51.022611 0.901110 0.997529 0.055701 -0.023194 -66265.500000 0 0 1
-27.861858 -33.556897 28.330649 52.009366 0.877859 0.994739 0.088108 -0.029420 589391.000000 0 0 1
-27.562968 -33.301597 29.716999 52.457732 0.879405 0.968551 0.065603 -0.030155 630962.000000 0 0 1
-28.714818 -32.500297 30.450299 52.990856 0.847158 0.958641 0.070217 -0.030215 444627.000000 0 0 1
-28.784118 -31.150597 30.022099 51.963560 0.824862 0.954823 0.053351 -0.020474 -132433.000000 0 0 1
-29.820128 -30.566997 30.742419 52.618226 0.797766 0.946836 0.056513 -0.010224 -452790.000000 0 0 1
-30.098768 -29.064697 30.608419 51.841757 0.767922 0.939217 0.046054 -0.009049 -402838.000000 0 0 1
-30.877128 -28.830497 29.491329 51.520220 0.751134 0.961339 0.049266 0.004749 -40061.900000 0 0 1
-31.419428 -27.522897 29.512699 51.143814 0.719387 0.955680 0.040436 0.003679 -129981.000000 0 0 1
-31.789158 -27.089497 28.065309 50.319509 0.705748 0.979133 0.032319 0.000457 -13104.000000 0 0 1
-30.744188 -26.918297 27.121219 49.044473 0.719146 0.984845 0.041384 0.001477 155301.000000 0 0 1
-30.137688 -25.647597 27.199559 48.019741 0.705082 0.968636 0.029428 0.000344 -528523.000000 0 0 1
-29.071418 -25.387597 26.156749 46.624596 0.717857 0.975194 0.034540 0.016248 -886903.000000 0 0 1
-29.550198 -25.347897 24.843389 46.183591 0.709000 1.002821 0.026164 0.020179 -393359.000000 0 0 1
-28.552488 -25.177697 23.887979 44.942147 0.722671 1.010394 0.028951 0.019286 -570100.000000 0 0 1
-28.961098 -25.599697 22.477009 44.713596 0.723868 1.044090 0.026273 0.017215 40816.300000 0 0 1
-29.749318 -24.727697 21.679359 44.344961 0.693479 1.059991 0.015040 0.019198 328008.000000 0 0 1
-30.254178 -25.359497 20.493959 44.479453 0.697612 1.091955 0.008713 0.017364 -170058.000000 0 0 1
-30.978248 -24.356497 19.561459 43.994789 0.666297 1.110034 0.010246 0.009944 -428341.000000 0 0 1
-32.185138 -23.928297 20.115059 44.867161 0.639301 1.105906 0.034431 0.010528 -537336.000000 0 0 1
-32.767158 -22.919097 19.295659 44.399258 0.610359 1.121209 0.042815 0.011413 -855928.000000 0 0 1
-34.177439 -22.563097 19.709259 45.449374 0.583495 1.122253 0.076031 0.014762 -409247.000000 0 0 1
-35.143629 -23.573297 19.360959 46.536241 0.590838 1.141710 0.052487 0.012233 146578.000000 0 0 1
-36.427398 -23.020597 19.251059 47.196467 0.563587 1.150652 0.072519 0.002540 -130468.000000 0 0 1
-37.216338 -23.703597 18.090159 47.688261 0.567121 1.181711 0.103695 -0.005057 -112916.000000 0 0 1
-37.680268 -24.983697 18.232659 48.748514 0.585491 1.187462 0.089474 -0.004694 54307.200000 0 0 1
36.941390 -25.257497 17.271959 47.967989 -0.599715 1.202451 0.106421 -0.000511 572907.000000 0 0 1
36.280990 -26.702797 17.406859 48.294392 -0.634481 1.202065 0.108458 0.017156 350159.000000 0 0 1
35.481150 -27.111497 18.508959 48.337633 -0.652470 1.177852 0.114299 0.002424 -1095.610000 0 0 1
35.930120 -26.716297 19.800859 48.957206 -0.639368 1.154416 0.116725 0.000681 -376914.000000 0 0 1
34.907650 -26.884297 20.947959 48.786539 -0.656276 1.126990 0.100820 -0.007382 178070.000000 0 0 1
33.683650 -26.217597 20.696859 47.437439 -0.661398 1.119316 0.102528 -0.005863 -451432.000000 0 0 1
32.890420 -26.257897 21.848959 47.419762 -0.673731 1.091949 0.121266 -0.004657 -92688.300000 0 0 1
31.667620 -25.311097 21.616859 45.943208 -0.674298 1.080925 0.124486 0.006019 -20693.800000 0 0 1
31.862970 -23.941897 21.232659 45.158488 -0.644398 1.081301 0.114612 0.006697 7320.420000 0 0 1
32.495350 -23.100697 22.255759 45.660801 -0.617999 1.061670 0.123958 -0.008541 134375.000000 0 0 1
33.185440 -21.825797 21.814959 45.315905 -0.581764 1.068548 0.120941 -0.006783 118836.000000 0 0 1
32.295710 -20.769997 21.480459 43.997906 -0.571523 1.060753 0.118910 -0.019471 302223.000000 0 0 1
33.030140 -19.686597 20.941359 43.784618 -0.537487 1.072100 0.116433 -0.006226 -168889.000000 0 0 1
32.128420 -18.427797 20.709459 42.434664 -0.520757 1.060963 0.086864 -0.004134 295126.000000 0 0 1
31.687520 -17.739497 21.854959 42.384288 -0.510356 1.029044 0.096739 -0.012064 672934.000000 0 0 1
30.671240 -18.441297 22.600459 42.327144 -0.541343 1.007534 0.090756 -0.015833 -125784.000000 0 0 1
30.428140 -17.955797 24.060869 42.745851 -0.533112 0.972928 0.074578 -0.024089 -24660.300000 0 0 1
29.863740 -16.658897 24.220169 41.904396 -0.508835 0.954537 0.073157 -0.031393 316191.000000 0 0 1
29.754740 -16.270897 25.587239 42.482860 -0.500409 0.924423 0.081638 -0.035172 -166201.000000 0 0 1
29.823740 -14.727097 25.868039 42.136662 -0.458679 0.909794 0.049037 -0.027361 266060.000000 0 0 1
28.578140 -14.041097 25.702849 40.920642 -0.456682 0.891669 0.058351 -0.022889 581752.000000 0 0 1
28.546940 -12.686897 26.107679 40.712357 -0.418206 0.874642 0.044911 -0.017747 -199161.000000 0 0 1
29.220840 -11.630497 25.210189 40.307314 -0.378799 0.895089 0.066802 -0.024915 -411029.000000 0 0 1
28.686840 -11.518197 23.911259 39.081350 -0.381812 0.912420 0.050701 -0.020558 173034.000000 0 0 1
29.616440 -10.853097 23.080919 39.085189 -0.351258 0.939083 0.064463 -0.013433 697592.000000 0 0 1
30.732710 -11.768497 22.448159 39.836124 -0.365705 0.972165 0.074471 -0.010080 60769.100000 0 0 1
30.151840 -12.743797 21.657159 39.250100 -0.399882 0.986307 0.064030 -0.008135 47392.500000 0 0 1
30.340740 -14.053597 22.130659 40.097757 -0.433770 0.986134 0.069046 -0.015734 -307140.000000 0 0 1
29.656040 -15.082797 21.175259 39.438091 -0.470497 1.004010 0.066584 -0.001973 -283924.000000 0 0 1
30.199940 -15.101197 19.840259 39.162717 -0.463680 1.039547 0.082368 -0.003887 65295.500000 0 0 1
29.502740 -15.978097 19.002759 38.559254 -0.496356 1.055469 0.087145 -0.014495 -442267.000000 0 0 1
30.008440 -15.954197 17.561659 38.255127 -0.488651 1.093852 0.110302 -0.014982 -164991.000000 0 0 1
29.347840 -16.706697 16.564159 37.613572 -0.517514 1.114778 0.107104 -0.017751 -281179.000000 0 0 1
28.116740 -16.177297 16.146259 36.234758 -0.522106 1.108950 0.098655 -0.022688 -514773.000000 0 0 1
28.218040 -15.271897 14.887659 35.371330 -0.496070 1.136363 0.124707 -0.022726 -273497.000000 0 0 1
28.382140 -15.963797 13.674459 35.318260 -0.512358 1.173227 0.147574 -0.025513 -576193.000000 0 0 1
27.278040 -16.657597 13.205059 34.582374 -0.548221 1.179006 0.167070 -0.045496 -765186.000000 0 0 1
27.377240 -17.323997 11.793159 34.477713 -0.564180 1.221697 0.144134 -0.033498 -371447.000000 0 0 1
27.186040 -16.383497 10.785959 33.523673 -0.542361 1.243228 0.143395 -0.030559 -51910.000000 0 0 1
27.326140 -16.861097 9.443759 33.469375 -0.552849 1.284750 0.131823 -0.033267 -199718.000000 0 0 1
28.723240 -17.237397 8.921859 34.666294 -0.540508 1.310503 0.136968 -0.020389 -132699.000000 0 0 1
29.189040 -18.417497 9.525059 35.804064 -0.562883 1.301521 0.137717 -0.018487 -193465.000000 0 0 1
30.577140 -18.644797 9.393259 37.024630 -0.547567 1.314290 0.116189 0.001911 -41687.300000 0 0 1
31.119240 -19.682397 10.390959 38.259324 -0.563962 1.295749 0.104118 -0.018317 -81346.000000 0 0 1
31.115090 -19.188797 11.701159 38.383276 -0.552611 1.261015 0.118667 -0.034272 77409.400000 0 0 1
31.553580 -20.167197 12.610359 39.514116 -0.568704 1.245979 0.097364 -0.024997 -19246.000000 0 0 1
31.426410 -19.589497 14.054859 39.609427 -0.557408 1.208057 0.110355 -0.012958 55340.800000 0 0 1
31.450510 -20.609197 15.043859 40.499275 -0.580085 1.190215 0.116093 -0.010882 126041.000000 0 0 1
31.305350 -20.114197 16.316559 40.630480 -0.571096 1.157550 0.123769 -0.020128 987.443000 0 0 1
30.858850 -21.167897 17.366859 41.254773 -0.601240 1.136286 0.123067 -0.014717 209235.000000 0 0 1
29.522440 -21.584897 17.162559 40.398461 -0.631318 1.132020 0.066514 -0.008424 51371.800000 0 0 1
29.166740 -22.724797 17.925259 41.090510 -0.661888 1.119382 0.096967 -0.013287 -301120.000000 0 0 1
27.792040 -23.232797 17.485559 40.223191 -0.696281 1.121076 0.082246 -0.006299 -864587.000000 0 0 1
26.748040 -22.509997 18.035859 39.337638 -0.699572 1.094503 0.083091 0.005796 -83070.800000 0 0 1
25.504840 -23.172997 17.732559 38.754719 -0.737531 1.095549 0.078893 -0.008101 708837.000000 0 0 1
24.379040 -22.588397 18.642159 38.106474 -0.747291 1.059610 0.062892 -0.003157 -166807.000000 0 0 1
23.806640 -21.378797 18.132459 36.777644 -0.731719 1.055228 0.066281 -0.009308 777193.000000 0 0 1
22.674040 -20.928597 18.901359 36.185351 -0.745389 1.021194 0.065565 -0.014197 631864.000000 0 0 1
23.060140 -20.307397 20.240159 36.794353 -0.722008 0.988326 0.046339 -0.011402 -503523.000000 0 0 1
23.485740 -21.336397 21.135459 38.125181 -0.737482 0.983190 0.070400 -0.006754 135491.000000 0 0 1
24.080640 -20.767197 22.326759 38.854058 -0.711650 0.958643 0.038507 -0.004107 181355.000000 0 0 1
24.343340 -21.849597 23.375409 40.204637 -0.731465 0.950335 0.059277 -0.006324 10121.300000 0 0 1
23.185240 -22.477897 23.863049 40.152911 -0.769909 0.934396 0.069473 -0.005634 251766.000000 0 0 1
23.607340 -23.548897 24.726149 41.511920 -0.784159 0.932734 0.075119 0.000034 -78285.600000 0 0 1
22.471740 -24.027197 25.630979 41.704105 -0.818837 0.908929 0.078857 -0.008764 -150688.000000 0 0 1
21.600940 -24.932297 24.954199 41.363415 -0.856867 0.923174 0.096560 -0.008531 680665.000000 0 0 1
20.506240 -25.343097 25.768329 41.554605 -0.890504 0.901916 0.097090 -0.008732 781368.000000 0 0 1
19.515640 -26.414397 25.149779 41.365347 -0.934485 0.917268 0.102891 -0.010384 502097.000000 0 0 1
18.749340 -25.916597 24.073669 40.034351 -0.944505 0.925638 0.121307 -0.020026 393263.000000 0 0 1
17.900340 -26.910097 23.487339 39.952854 -0.983816 0.942365 0.106866 -0.024269 -368474.000000 0 0 1
16.943240 -26.326797 22.473979 38.538985 -0.998952 0.948196 0.117761 -0.023648 -679808.000000 0 0 1
15.783040 -25.846297 23.109099 38.094171 -1.022583 0.918981 0.100045 -0.021228 -289266.000000 0 0 1
15.209540 -24.814297 22.268459 36.646469 -1.020920 0.917690 0.072080 -0.018841 -394600.000000 0 0 1
13.768640 -24.517597 22.654799 36.109942 -1.059105 0.892607 0.058313 -0.016191 -873896.000000 0 0 1
12.905840 -25.568097 22.445759 36.388190 -1.103345 0.906072 0.055857 -0.012995 109046.000000 0 0 1
11.547540 -25.119397 22.412159 35.589811 -1.139900 0.889584 0.070881 -0.010982 1275970.000000 0 0 1
10.396340 -26.177097 22.420559 36.000080 -1.192746 0.898490 0.075582 -0.015523 514837.000000 0 0 1
10.322040 -27.031697 21.300859 35.930262 -1.206034 0.936217 0.088903 -0.028161 -180044.000000 0 0 1
9.027640 -27.572297 21.250659 35.962763 -1.254380 0.938613 0.103583 -0.036924 -420887.000000 0 0 1
8.791540 -28.463997 19.996459 35.879641 -1.271226 0.979641 0.120844 -0.037810 -115837.000000 0 0 1
9.210040 -29.806597 20.153759 37.140706 -1.271109 0.997228 0.121387 -0.034151 269948.000000 0 0 1
8.960040 -30.522897 18.944059 37.024410 -1.285266 1.033676 0.119208 -0.035553 79135.900000 0 0 1
9.612440 -31.953097 19.002859 38.399323 -1.278579 1.053106 0.103833 -0.026957 -211238.000000 0 0 1
8.957640 -32.896497 19.763059 39.408087 -1.304944 1.045467 0.096586 -0.031881 -182701.000000 0 0 1
9.850040 33.769694 20.113959 40.521437 1.286987 1.051375 0.076379 -0.030704 -166038.000000 0 0 1
9.231240 32.731094 21.089259 40.016211 1.295904 1.015709 0.094621 -0.040621 -144382.000000 0 0 1
8.146240 31.971094 20.525259 38.856123 1.321305 1.014273 0.087549 -0.034635 402692.000000 0 0 1
8.004240 30.698294 21.152759 38.129940 1.315736 0.982728 0.098021 -0.043322 -341618.000000 0 0 1
6.985340 29.716094 20.594759 36.823705 1.339919 0.977279 0.086586 -0.031732 -902480.000000 0 0 1
5.675040 29.920594 20.985859 36.984514 1.383353 0.967424 0.129367 -0.042454 -702960.000000 0 0 1
4.838040 28.818494 20.675659 35.796579 1.404468 0.955026 0.140444 -0.036924 751887.000000 0 0 1
3.341540 28.814794 21.099759 35.870016 1.455346 0.941930 0.137775 -0.033223 451407.000000 0 0 1
3.115840 28.738894 22.486219 36.623251 1.462799 0.909694 0.098831 -0.032543 -407080.000000 0 0 1
1.762040 28.406994 22.616699 36.353502 1.508847 0.899333 0.105548 -0.025044 -369852.000000 0 0 1
1.501940 28.002894 24.084989 36.966263 1.517213 0.861184 0.102631 -0.032901 -301389.000000 0 0 1
1.466540 29.097994 24.960199 38.364769 1.520439 0.862419 0.110194 -0.038879 -61879.500000 0 0 1
1.304640 28.744994 26.307239 38.987787 1.525441 0.830162 0.114529 -0.039637 -364849.000000 0 0 1
2.434540 28.071994 27.106529 39.098948 1.484288 0.804765 0.077760 -0.035946 -448624.000000 0 0 1
2.903940 26.899694 26.514059 37.881680 1.463258 0.795514 0.084768 -0.039535 226757.000000 0 0 1
3.820240 26.205294 27.378059 38.090284 1.426035 0.768768 0.061022 -0.031922 359338.000000 0 0 1
4.370840 24.884394 26.702989 36.761215 1.396924 0.757741 0.057836 -0.016615 378478.000000 0 0 1
3.339440 23.998694 26.234629 35.711972 1.432533 0.745694 0.070294 -0.008228 -61195.200000 0 0 1
3.777840 22.692894 26.264659 34.915209 1.405832 0.719339 0.066691 -0.001216 154304.000000 0 0 1
2.736040 21.561594 25.984129 33.875702 1.444577 0.696576 0.076625 0.005947 130306.000000 0 0 1
3.148940 20.309894 26.515419 33.548100 1.416976 0.659383 0.084440 0.005872 22593.000000 0 0 1
3.590240 19.570994 25.425109 32.285442 1.389367 0.664038 0.075352 0.006223 -532127.000000 0 0 1
4.087740 18.117794 25.789309 31.781323 1.348892 0.624148 0.063040 0.005367 894466.000000 0 0 1
5.324640 18.078994 26.533229 32.545569 1.284374 0.617611 0.062429 0.001314 1039800.000000 0 0 1
6.479440 18.173494 25.698339 32.135084 1.228314 0.644005 0.087015 -0.008052 -944658.000000 0 0 1
7.784640 17.899294 26.423739 32.851169 1.160559 0.636221 0.069110 -0.015339 -443929.000000 0 0 1
8.340940 18.914894 27.248639 34.202819 1.155475 0.649017 0.070444 -0.015089 223467.000000 0 0 1
9.080040 19.930694 26.587989 34.447073 1.143311 0.689050 0.062250 -0.018629 -175118.000000 0 0 1
9.654540 20.980294 27.557989 35.955884 1.139516 0.697518 0.056795 -0.020736 217652.000000 0 0 1
10.770440 20.565394 28.331089 36.627700 1.088356 0.686470 0.086101 -0.036744 76376.800000 0 0 1
11.159740 21.515194 29.309799 38.032981 1.092308 0.690949 0.088044 -0.049159 -148293.000000 0 0 1
12.296840 20.979294 30.180039 38.757938 1.040629 0.678237 0.117086 -0.054891 -693735.000000 0 0 1
13.524540 20.994494 29.524969 38.670476 0.998513 0.702078 0.119085 -0.051629 -606681.000000 0 0 1
14.566540 20.890294 30.504899 39.738361 0.961893 0.695640 0.116224 -0.027685 1275160.000000 0 0 1
16.005240 20.956494 29.853019 39.831458 0.918562 0.723515 0.095817 -0.032214 971516.000000 0 0 1
16.298340 22.221894 29.230409 40.172942 0.937981 0.755959 0.082449 -0.040939 46584.600000 0 0 1
17.607440 22.182394 28.697719 40.319221 0.899873 0.778792 0.133152 -0.032233 201344.000000 0 0 1
-8.693608 16.750494 4.352959 19.367656 -1.092060 1.344106 0.037645 -0.023177 -165040.000000 0 1 0
-8.595708 18.059794 4.844459 20.579386 -1.126566 1.333163 0.050975 -0.027924 613359.000000 0 1 0
-7.245608 18.438294 5.142159 20.467323 -1.196369 1.316838 0.047061 -0.014187 495650.000000 0 1 0
-7.116208 19.862794 5.820859 21.887288 -1.226775 1.301610 0.057529 -0.012248 -217837.000000 0 1 0
-7.361508 20.966694 4.919459 22.759506 -1.233138 1.352927 0.074638 -0.019737 -241762.000000 0 1 0
-8.673208 21.244494 4.483559 23.380662 -1.183192 1.377838 0.084687 -0.025403 -71565.900000 0 1 0
-8.721908 22.404494 3.451459 24.288795 -1.199554 1.428213 0.134258 -0.035542 273941.000000 0 1 0
-7.968408 22.294994 2.251759 23.783034 -1.227537 1.475975 0.101128 -0.033244 1450.640000 0 1 0
-8.437208 21.256794 1.402859 22.913004 -1.192949 1.509533 0.105051 -0.037577 -713331.000000 0 1 0
-7.937908 21.242594 -0.069441 22.677367 -1.213184 1.573858 0.085852 -0.020518 130711.000000 0 1 0
-6.671508 20.839694 -0.538741 21.888172 -1.260971 1.595412 0.063612 -0.015314 -228875.000000 0 1 0
-5.603808 21.590894 0.011659 22.306266 -1.316855 1.570274 0.070215 -0.019686 171147.000000 0 1 0
-4.225608 21.182094 -0.596341 21.607695 -1.373892 1.598398 0.050500 -0.019697 341053.000000 0 1 0
-4.258408 21.527494 -1.973741 22.033218 -1.375505 1.660497 0.047886 -0.024076 12605.600000 0 1 0
-2.947408 21.451394 -2.492241 21.795889 -1.434252 1.685392 0.036763 -0.015111 174740.000000 0 1 0
-2.894408 22.026794 -3.921641 22.559621 -1.440141 1.745518 0.037793 -0.006076 513037.000000 0 1 0
-1.537608 22.315494 -4.236141 22.765992 -1.502002 1.757960 0.062322 -0.012863 289456.000000 0 1 0
-1.479608 22.622294 -5.580441 23.347350 -1.505484 1.812151 0.070361 -0.019527 211212.000000 0 1 0
-0.074008 23.047294 -6.053041 23.829027 -1.567585 1.827630 0.069955 -0.027317 116450.000000 0 1 0
0.969492 22.075094 -5.932341 22.878862 1.526907 1.833087 0.074610 -0.021910 5048.780000 0 1 0
2.104492 22.742694 -6.477541 23.740630 1.478524 1.847147 0.079789 -0.011228 -187416.000000 0 1 0
3.249892 21.723994 -6.611341 22.939126 1.422298 1.863156 0.079763 -0.009657 -339750.000000 0 1 0
3.033092 20.800994 -7.677141 22.378996 1.426002 1.920960 0.075475 -0.019258 -485195.000000 0 1 0
4.004092 19.826994 -7.811141 21.683089 1.371525 1.939323 0.068456 -0.017097 -375711.000000 0 1 0
3.804692 18.893594 -8.998541 21.270103 1.372079 2.007617 0.055387 -0.015207 83415.200000 0 1 0
4.336892 19.373194 -10.231341 22.334046 1.350567 2.046659 0.064087 -0.015224 283178.000000 0 1 0
3.606592 18.842994 -11.322441 22.276974 1.381681 2.103957 0.053927 -0.022754 200511.000000 0 1 0
4.181792 19.380394 -12.688741 23.539142 1.358280 2.140103 0.067041 -0.018010 269899.000000 0 1 0
3.873492 20.735494 -12.961641 24.758206 1.386120 2.121784 0.106853 -0.023662 -156461.000000 0 1 0
4.053492 21.028594 -14.351041 25.779545 1.380371 2.161184 0.121116 -0.028540 52151.700000 0 0 1
4.308692 22.499194 -14.645441 27.189474 1.381583 2.139623 0.114332 -0.029156 -392120.000000 0 0 1
3.224492 23.366594 -14.581341 27.731039 1.433667 2.124467 0.141744 -0.036134 -298733.000000 0 0 1
3.586292 24.594594 -15.228141 29.148787 1.426001 2.120492 0.122376 -0.029871 299397.000000 0 0 1
2.279492 25.362394 -15.555941 29.840147 1.481160 2.119181 0.123889 -0.027784 277282.000000 0 0 1
1.547892 25.683994 -14.391041 29.481614 1.510602 2.080749 0.130122 -0.034920 -131737.000000 0 0 1
1.698892 27.053094 -14.050841 30.531660 1.508080 2.049023 0.089990 -0.026591 -843016.000000 0 0 1
1.010692 27.339794 -12.693441 30.159729 1.533845 2.005205 0.085868 -0.036667 -225478.000000 0 0 1
-0.392808 27.372994 -12.713141 30.183754 -1.556447 2.005555 0.074337 -0.035990 150792.000000 0 0 1
-1.147708 26.192394 -13.015041 29.270292 -1.527006 2.031580 0.074636 -0.035956 -643784.000000 0 0 1
-1.134208 25.037094 -12.017941 27.795204 -1.525526 2.017921 0.110277 -0.039853 -558042.000000 0 0 1
-1.886808 25.204094 -10.843841 27.502641 -1.496075 1.976085 0.081687 -0.028229 16417.900000 0 0 1
-2.543408 24.009394 -10.411641 26.293006 -1.465256 1.977937 0.125580 -0.031038 104557.000000 0 0 1
-3.452308 24.059894 -9.185941 25.984196 -1.428281 1.932128 0.089264 -0.028498 -88441.400000 0 0 1
-2.880008 24.413894 -7.925241 25.829094 -1.453373 1.882661 0.102825 -0.036095 -228865.000000 0 0 1
-2.703108 25.850394 -7.801041 27.136799 -1.466608 1.862382 0.104394 -0.035479 -64429.700000 0 0 1
-2.493908 26.314194 -6.378241 27.190776 -1.476304 1.807576 0.097523 -0.042427 -180238.000000 0 0 1
-1.316308 25.778194 -5.854041 26.467295 -1.519778 1.793821 0.090872 -0.039378 -613570.000000 0 0 1
-0.951008 26.265394 -4.595941 26.681417 -1.534604 1.743912 0.098405 -0.042513 -112123.000000 0 0 1
-1.824208 25.783294 -3.425341 26.073721 -1.500162 1.702549 0.082787 -0.034165 505012.000000 0 0 1
-3.133208 26.357594 -3.381141 26.757650 -1.452478 1.697497 0.088862 -0.037342 259418.000000 0 0 1
-3.966108 25.954794 -2.323841 26.358709 -1.419161 1.659073 0.093402 -0.028599 -2802.790000 0 0 1
-4.979908 24.822894 -2.569641 25.447565 -1.372807 1.671947 0.104894 -0.034470 -276686.000000 0 0 1
-6.092508 25.292794 -3.311641 26.226152 -1.334420 1.697407 0.105028 -0.036880 -295971.000000 0 0 1
-7.015908 24.256794 -3.593941 25.505517 -1.289245 1.712175 0.070450 -0.039231 837914.000000 0 0 1
-8.404808 24.894794 -3.963541 26.572565 -1.245199 1.720514 0.066811 -0.028855 731577.000000 0 0 1
-9.227308 25.117994 -2.829241 26.908389 -1.218742 1.676134 0.100208 -0.042808 289040.000000 0 0 1
-10.547208 25.570794 -3.164441 27.841027 -1.179586 1.684704 0.107104 -0.040719 1216760.000000 0 0 1
-11.607708 25.584394 -2.017241 28.166813 -1.144868 1.642475 0.130835 -0.051563 304813.000000 0 0 1
-12.075008 24.354694 -1.503341 27.225300 -1.110516 1.626043 0.135548 -0.042463 563487.000000 0 0 1
-11.078308 23.614194 -0.768041 26.094998 -1.132142 1.600233 0.158977 -0.045636 449065.000000 0 0 1
-11.697908 22.345994 -0.173241 25.223293 -1.088534 1.577665 0.146106 -0.044273 -179945.000000 0 0 1
-12.663408 22.667994 0.801959 25.977740 -1.061339 1.539920 0.161211 -0.048576 -42766.000000 0 0 1
-13.468708 21.527794 1.057059 25.415928 -1.011735 1.529194 0.148972 -0.048045 -500782.000000 0 0 1
-14.421408 21.689594 2.219459 26.140801 -0.984018 1.485790 0.162786 -0.054168 -315579.000000 0 0 1
-13.845208 21.616194 3.523559 25.910714 -1.001127 1.434385 0.155081 -0.048251 -135743.000000 0 0 1
-13.446308 22.876494 3.982459 26.832763 -1.039412 1.421828 0.162975 -0.049441 72812.000000 0 0 1
-13.169008 22.931694 5.510859 27.012125 -1.049510 1.365340 0.162316 -0.043744 592030.000000 0 0 1
-11.876908 22.405794 5.842059 26.023262 -1.083374 1.344373 0.135675 -0.040790 532513.000000 0 0 1
-11.771708 22.240594 7.229359 26.181687 -1.083993 1.291039 0.098606 -0.038963 -384538.000000 0 0 1
-10.420508 21.728294 7.764659 25.317892 -1.123616 1.259086 0.085400 -0.038065 110001.000000 0 0 1
-9.436908 22.801894 7.859759 25.898984 -1.178395 1.262456 0.098244 -0.033632 343762.000000 0 0 1
-8.318108 22.351694 8.588159 25.348483 -1.214530 1.225151 0.086425 -0.033941 -330295.000000 0 0 1
-8.436908 22.249694 10.167859 25.876933 -1.208355 1.166979 0.066441 -0.033236 -954424.000000 0 0 1
-9.443708 21.444294 10.630859 25.730459 -1.155968 1.144872 0.076362 -0.034832 -699308.000000 0 0 1
-9.097808 20.994994 11.929459 25.804493 -1.161889 1.090207 0.067480 -0.033078 -88747.000000 0 0 1
-10.034308 19.934794 12.516259 25.587889 -1.104467 1.059684 0.077178 -0.034606 -202217.000000 0 0 1
-10.196508 18.788194 11.701459 24.369841 -1.073569 1.069958 0.088651 -0.039984 -148982.000000 0 1 0
-11.156808 17.927694 12.241459 24.407578 -1.014125 1.045415 0.086031 -0.038943 -304481.000000 0 1 0
-11.101508 16.565694 11.515159 23.027474 -0.980386 1.047126 0.077834 -0.044422 176726.000000 0 1 0
-11.721208 15.457494 12.228659 22.931658 -0.922013 1.008340 0.069394 -0.038346 368083.000000 0 1 0
-11.783908 14.373494 11.341159 21.773371 -0.884077 1.022923 0.054941 -0.027915 42954.900000 0 1 0
-11.981108 12.969294 12.043059 21.372524 -0.824983 0.972200 0.043890 -0.026725 798298.000000 0 1 0
-13.212408 12.866894 12.773659 22.434149 -0.772150 0.965039 0.061420 -0.025742 735170.000000 0 1 0
-13.634608 11.570094 13.218959 22.237592 -0.703671 0.934225 0.051458 -0.013684 589878.000000 0 1 0
-14.603808 11.690594 14.455759 23.641281 -0.675056 0.912889 0.066917 -0.017240 350473.000000 0 1 0
-15.820208 12.337394 14.204059 24.581407 -0.662333 0.954720 0.088244 -0.022248 -542140.000000 0 1 0
-16.593308 12.418394 15.339959 25.785048 -0.642475 0.933634 0.070588 -0.017013 90717.500000 0 0 1
-17.777108 13.444194 15.348359 27.061856 -0.647498 0.967745 0.063213 -0.013510 312090.000000 0 0 1
-18.837608 13.126194 14.469159 27.138699 -0.608580 1.008470 0.070432 -0.012892 -214190.000000 0 0 1
-19.626008 14.304094 14.388559 28.227964 -0.629816 1.035929 0.084025 -0.017048 -1073850.000000 0 0 1
-20.785708 14.091994 13.461359 28.492773 -0.595784 1.078730 0.085954 -0.011570 -1363640.000000 0 0 1
-21.690108 13.259394 14.097159 29.068922 -0.548695 1.064483 0.082139 0.000516 114120.000000 0 0 1
-22.904908 13.163094 13.316259 29.584195 -0.521597 1.103903 0.071528 0.003029 459826.000000 0 0 1
-23.790608 12.069794 13.901359 30.081901 -0.469498 1.090415 0.085965 -0.000269 -65908.100000 0 0 1
-24.488108 12.524194 15.076059 31.365752 -0.472758 1.069397 0.100765 -0.009883 391676.000000 0 0 1
-25.339168 11.588094 15.710259 31.987022 -0.428924 1.057393 0.100617 -0.009090 570511.000000 0 0 1
-26.309838 12.207394 16.801059 33.518706 -0.434424 1.045760 0.099570 -0.014414 211566.000000 0 0 1
-27.354738 12.974894 16.254559 34.363356 -0.442893 1.078081 0.109024 -0.005560 -201712.000000 0 0 1
-28.042468 13.540394 17.359659 35.652210 -0.449836 1.062240 0.104548 0.010664 528984.000000 0 0 1
-29.334348 14.366794 16.972859 36.810144 -0.455422 1.091571 0.106022 0.003989 507188.000000 0 0 1
-29.133878 15.751594 16.694259 37.088999 -0.495646 1.103904 0.108004 -0.000306 -394017.000000 0 0 1
-30.284668 16.535394 16.598359 38.289501 -0.499766 1.122427 0.099370 -0.001332 -303988.000000 0 0 1
-29.930748 17.995194 16.522559 38.635109 -0.541322 1.128898 0.133832 -0.010530 368190.000000 0 0 1
-29.192438 18.597194 17.588159 38.825216 -0.567221 1.100659 0.127731 -0.013502 606080.000000 0 0 1
-29.984168 18.721894 18.763659 40.020427 -0.558162 1.082806 0.111639 -0.019729 -426733.000000 0 0 1
-29.041088 19.146294 19.950759 40.099852 -0.582873 1.050051 0.113551 -0.025025 615199.000000 0 0 1
-28.415618 18.055594 20.648759 39.494595 -0.566051 1.020635 0.122665 -0.015844 289895.000000 0 0 1
-27.411038 17.438594 19.846359 38.070297 -0.566605 1.022413 0.133638 -0.010192 -817401.000000 0 0 1
-26.957258 16.108494 20.474859 37.488627 -0.538621 0.993021 0.127038 -0.002892 -257071.000000 0 0 1
-28.048438 15.257294 20.634859 38.017066 -0.498196 0.997054 0.119985 0.000808 34584.600000 0 0 1
-27.566298 14.006894 20.973459 37.362814 -0.470120 0.974785 0.113472 -0.001069 601733.000000 0 0 1
-28.785248 13.092494 21.359659 38.160699 -0.426866 0.976737 0.120931 -0.019031 892955.000000 0 0 1
-29.558458 12.674694 20.227459 37.993426 -0.405086 1.009371 0.124112 -0.018088 164370.000000 0 0 1
-30.648128 11.837094 20.544759 38.749344 -0.368576 1.011964 0.155785 -0.018645 207699.000000 0 0 1
-31.560438 11.657394 19.275259 38.774885 -0.353823 1.050535 0.158933 -0.021210 -228875.000000 0 0 1
-30.901218 11.061694 18.174459 37.517427 -0.343757 1.065088 0.176189 -0.030339 340087.000000 0 0 1
-30.390218 9.735494 18.331659 36.802105 -0.310020 1.049373 0.183428 -0.031974 388900.000000 0 0 1
-29.391348 9.318594 17.200759 35.306567 -0.307027 1.061935 0.181549 -0.040173 520525.000000 0 0 1
-30.083048 8.894494 15.984659 35.208112 -0.287475 1.099541 0.188131 -0.036645 690578.000000 0 0 1
-30.769878 9.920794 15.291259 35.763531 -0.311896 1.128998 0.184203 -0.035524 -123115.000000 0 0 1
-29.875558 10.909494 14.513959 34.960278 -0.350120 1.142682 0.173736 -0.015370 -245155.000000 0 0 1
-29.211098 10.373594 13.424559 33.780445 -0.341233 1.162108 0.178549 -0.022718 -13827.400000 0 0 1
-28.250108 11.325694 13.000559 33.096140 -0.381289 1.167109 0.125400 -0.008501 18105.500000 0 0 1
-27.788578 11.049594 11.528659 32.050095 -0.378462 1.202842 0.170348 0.003476 536987.000000 0 0 1
-26.951038 9.892394 11.210059 30.820178 -0.351783 1.198533 0.169683 0.001469 869883.000000 0 0 1
-27.701608 8.729394 11.195159 31.127367 -0.305272 1.202897 0.208064 -0.007831 -24860.100000 0 0 1
-26.845588 7.565894 10.588159 29.833496 -0.274705 1.207980 0.214664 -0.014038 139071.000000 0 0 1
-26.446508 7.880194 9.247159 29.103697 -0.289591 1.247460 0.203274 -0.011328 226108.000000 0 0 1
-25.947128 6.770994 8.589859 28.158223 -0.255261 1.260798 0.252171 -0.037520 -335959.000000 0 0 1
-25.392198 7.090894 7.151759 27.316518 -0.272318 1.305898 0.231428 -0.026931 751565.000000 0 0 1
-26.443358 7.456194 6.202659 28.165919 -0.274833 1.348758 0.244520 -0.036194 938143.000000 0 0 1
-25.848018 7.838394 4.958359 27.461715 -0.294435 1.389245 0.246429 -0.035347 -425834.000000 0 0 1
-26.618628 8.521694 3.841559 28.212200 -0.309830 1.434205 0.232645 -0.041600 -658004.000000 0 0 1
-27.518228 7.779994 3.017259 28.755609 -0.275531 1.465675 0.267163 -0.038863 177403.000000 0 0 1
-27.057468 6.681194 2.300059 27.964893 -0.242083 1.488455 0.274158 -0.038606 -993879.000000 0 0 1
-25.970398 6.940494 1.287059 26.912610 -0.261143 1.522954 0.267676 -0.037576 -198745.000000 0 0 1
-24.720008 7.371194 1.836159 25.860874 -0.289793 1.499735 0.229703 -0.036602 405543.000000 0 0 1
-23.856608 7.579594 0.736059 25.042560 -0.307628 1.541400 0.242596 -0.027700 -744986.000000 0 0 1
-22.497608 8.112894 1.175159 23.944570 -0.346097 1.521698 0.180248 -0.030339 -705852.000000 0 1 0
-22.586008 9.452594 1.684359 24.542135 -0.396365 1.502111 0.170858 -0.038730 -96452.500000 0 1 0
-21.545208 9.756794 2.545359 23.788020 -0.425223 1.463589 0.159617 -0.041360 -682388.000000 0 1 0
-21.690508 11.076894 3.311259 24.579263 -0.472154 1.435668 0.143757 -0.059922 -502973.000000 0 1 0
-21.369208 12.160494 2.486959 24.712459 -0.517363 1.469990 0.204274 -0.055694 336646.000000 0 1 0
-21.711608 13.345494 3.132559 25.677014 -0.551137 1.448493 0.194332 -0.063813 179505.000000 0 0 1
-20.455408 14.086094 3.694959 25.109649 -0.603050 1.423107 0.155393 -0.049190 876474.000000 0 0 1
-19.764708 13.446194 4.805059 24.383035 -0.597391 1.372432 0.137795 -0.051967 483537.000000 0 1 0
-19.032808 14.243794 5.708059 24.448218 -0.642464 1.335146 0.129156 -0.044175 -87216.700000 0 1 0
-18.406108 13.345594 6.812459 23.733927 -0.627350 1.279667 0.091873 -0.038613 436105.000000 0 1 0
-17.258108 12.606494 6.378659 22.303661 -0.630883 1.280755 0.079228 -0.032848 445700.000000 0 1 0
-16.572108 12.006794 7.454359 21.779930 -0.626992 1.221477 0.054509 -0.022087 -103803.000000 0 1 0
10.979792 -33.447197 -14.541041 38.088222 -1.253608 1.962510 0.065740 -0.011531 229050.000000 0 0 1
12.168492 -33.137097 -13.788641 37.898100 -1.218867 1.943178 0.050418 -0.015091 713044.000000 0 0 1
12.563892 -31.849197 -14.221741 37.073989 -1.195057 1.964492 0.055794 -0.017955 195032.000000 0 0 1
13.903892 -31.367297 -13.598841 36.907370 -1.153561 1.948147 0.067312 -0.024096 641248.000000 0 0 1
15.095092 -32.005697 -14.064141 38.079213 -1.130095 1.949094 0.079158 -0.018009 172099.000000 0 0 1
16.201492 -31.591697 -13.308641 37.916270 -1.096929 1.929436 0.081009 -0.015680 114443.000000 0 0 1
17.477092 -32.400097 -13.715141 39.285113 -1.076116 1.927426 0.103543 -0.020151 347256.000000 0 0 1
17.530392 -33.787697 -13.343841 40.335855 -1.092191 1.907967 0.098660 -0.019815 -372417.000000 0 0 1
18.732392 33.349294 -13.820641 40.670481 1.059013 1.917522 0.095521 -0.007015 -24520.000000 0 0 1
19.048192 32.050594 -13.112541 39.522309 1.034566 1.908982 0.078436 -0.015950 -75831.900000 0 0 1
19.513892 32.086794 -11.755441 39.351552 1.024399 1.874157 0.072937 -0.011518 37992.900000 0 0 1
19.354192 30.829494 -11.095241 38.054524 1.010199 1.866655 0.066527 -0.014626 261202.000000 0 0 1
20.397292 30.600394 -9.967641 38.102329 0.982861 1.835478 0.049834 -0.014342 622660.000000 0 0 1
21.695792 30.180694 -10.355341 38.585162 0.947522 1.842503 0.056176 -0.018064 725182.000000 0 0 1
22.602292 30.132594 -9.237541 38.783617 0.927235 1.811289 0.044728 -0.016911 288627.000000 0 0 1
23.782492 29.153194 -9.377141 38.774300 0.886509 1.815057 0.025761 -0.000108 510161.000000 0 0 1
24.849592 29.733494 -10.164641 40.061238 0.874637 1.827328 0.043118 -0.009822 504893.000000 0 0 1
26.043992 29.010994 -9.979041 40.243117 0.839238 1.821379 0.042225 0.000414 -846765.000000 0 0 1
27.180892 29.491594 -10.818241 41.540213 0.826148 1.834262 0.037319 -0.005591 -941649.000000 0 0 1
27.660192 30.761594 -10.468241 42.672543 0.838435 1.818642 0.042125 -0.020940 498461.000000 0 0 1
28.794692 31.062394 -11.291241 43.834903 0.823265 1.831319 0.039610 -0.010282 343279.000000 0 0 1
29.351292 32.478994 -11.090241 45.159460 0.835940 1.818914 0.042769 -0.017620 -269296.000000 0 0 1
28.634092 33.497294 -11.818241 45.625110 0.863512 1.832813 0.057412 -0.015795 292354.000000 0 0 1
28.991592 -32.894597 -11.284341 45.275857 -0.848382 1.822687 0.054192 -0.009765 -116001.000000 0 0 1
27.971692 -31.790997 -11.592341 43.902909 -0.849219 1.838010 0.053922 -0.007318 210911.000000 0 0 1
26.691792 -32.074297 -11.016641 43.157602 -0.876735 1.828918 0.066005 -0.016160 391720.000000 0 0 1
25.712092 -31.043297 -11.090141 41.806568 -0.879056 1.839283 0.084113 -0.010435 234061.000000 0 0 1
26.032492 -29.660997 -10.445241 40.823626 -0.850458 1.829536 0.068463 -0.014046 -895642.000000 0 0 1
26.986192 -29.018497 -11.242541 41.191291 -0.821670 1.847239 0.052127 -0.000981 -367271.000000 0 0 1
27.391492 -27.764297 -10.785941 40.465868 -0.792157 1.840602 0.043154 -0.006135 -117940.000000 0 0 1
28.153292 -27.007797 -11.913741 40.791741 -0.764635 1.867179 0.066816 -0.011293 -546606.000000 0 0 1
29.267492 -27.717097 -12.373941 42.165601 -0.758198 1.868641 0.047654 -0.002189 -519280.000000 0 0 1
29.097292 -28.663497 -13.395141 42.984628 -0.777888 1.887700 0.062317 -0.013697 -686332.000000 0 0 1
30.424592 -29.106597 -14.025841 44.379882 -0.763262 1.892350 0.046512 -0.010970 229717.000000 0 0 1
31.086192 -30.063497 -13.194041 45.213359 -0.768675 1.866923 0.061459 -0.021988 5810.690000 0 0 1
32.378892 -30.478597 -13.544941 46.484437 -0.755176 1.866472 0.079675 -0.022309 -154079.000000 0 0 1
33.053092 -31.465997 -12.569841 47.335153 -0.760804 1.839570 0.100213 -0.026484 449362.000000 0 0 1
34.198692 -32.090397 -13.183441 48.714959 -0.753604 1.844838 0.086128 -0.024108 404263.000000 0 0 1
34.955892 -32.963497 -12.385241 49.617544 -0.756072 1.823078 0.091682 -0.024008 -403634.000000 0 0 1
34.303792 33.550194 -11.711941 49.391651 0.774292 1.810201 0.073750 -0.022211 -623014.000000 0 0 1
33.647492 -33.804997 -10.496241 48.837512 -0.787733 1.787408 0.062982 -0.019638 -379818.000000 0 0 1
32.925192 32.785694 -10.104741 47.550770 0.783275 1.784933 0.049860 -0.019576 -766710.000000 0 0 1
32.331992 32.910294 -8.679741 46.944467 0.794262 1.756760 0.033352 -0.014585 130506.000000 0 0 1
31.255392 33.825994 -8.622441 46.855563 0.824876 1.755873 0.039083 -0.017794 -96180.400000 0 0 1
30.655692 -33.697997 -7.355441 46.145736 -0.832638 1.730875 0.034971 -0.016728 304066.000000 0 0 1
29.577192 -32.615297 -7.265741 44.624644 -0.834209 1.734343 0.045286 -0.018178 -210260.000000 0 0 1
30.129592 -31.281697 -7.383341 44.055086 -0.804156 1.739184 0.035309 -0.023831 6345.250000 0 0 1
29.247692 -30.247197 -7.743341 42.781768 -0.802196 1.752796 0.026664 -0.009970 -184607.000000 0 0 1
28.130992 -29.847797 -6.765741 41.569447 -0.815000 1.734281 0.040728 -0.015693 -249884.000000 0 0 1
27.266892 -28.927497 -7.338641 40.424486 -0.814941 1.753348 0.047095 -0.029789 -713162.000000 0 0 1
26.236792 -28.551897 -6.491041 39.315565 -0.827628 1.736657 0.068322 -0.039595 -483903.000000 0 0 1
25.193892 -27.620197 -7.122141 38.056962 -0.831306 1.759051 0.122510 -0.044947 -443186.000000 0 0 1
24.372792 -28.248597 -8.083541 38.175382 -0.858920 1.784159 0.147192 -0.044577 81427.100000 0 0 1
23.699292 -27.388797 -8.945641 37.307199 -0.857492 1.812939 0.174720 -0.045304 774532.000000 0 0 1
22.359692 -28.021097 -9.542341 37.097088 -0.897301 1.830947 0.164525 -0.034432 963815.000000 0 0 1
22.562892 -28.865697 -10.662341 38.157542 -0.907345 1.853996 0.165331 -0.028253 289265.000000 0 0 1
21.377492 -29.545397 -11.077141 38.113392 -0.944441 1.865688 0.148832 -0.026515 232799.000000 0 0 1
21.192492 -30.967597 -10.563541 38.983357 -0.970655 1.845203 0.146849 -0.031225 135793.000000 0 0 1
22.203592 -31.927097 -10.858941 40.376424 -0.963133 1.843091 0.121678 -0.021136 76986.000000 0 0 1
21.877992 -33.212797 -10.374641 41.101941 -0.988314 1.825969 0.096730 -0.021335 -332923.000000 0 0 1
23.077392 33.558894 -10.394441 42.033436 0.968395 1.820679 0.073300 -0.013524 155057.000000 0 0 1
24.051092 33.723094 -9.346441 42.462430 0.951270 1.792724 0.080393 -0.014495 -11426.900000 0 0 1
25.249092 33.082094 -9.611841 42.712165 0.918885 1.797778 0.080122 -0.017303 -473033.000000 0 0 1
26.455292 33.491994 -8.721841 43.562215 0.902245 1.772374 0.071867 -0.018967 -231941.000000 0 0 1
26.479892 33.209494 -7.336341 43.103098 0.897668 1.741834 0.061797 -0.033732 134601.000000 0 0 1
26.604292 31.815794 -6.963441 42.053806 0.874370 1.737147 0.044235 -0.018816 -368471.000000 0 0 1
26.569092 31.550194 -5.447741 41.605399 0.870894 1.702112 0.040448 -0.010447 -480367.000000 0 0 1
27.622092 32.135794 -4.704641 42.635933 0.860788 1.681366 0.050826 -0.014444 377254.000000 0 0 1
28.757692 31.304994 -4.466441 42.742912 0.827783 1.675483 0.053600 -0.018249 159534.000000 0 0 1
28.529692 30.093294 -3.531541 41.617561 0.812064 1.655755 0.066285 -0.007517 -812904.000000 0 0 1
28.220692 30.528794 -2.212141 41.633019 0.824665 1.623956 0.073094 -0.017955 25598.900000 0 0 1
28.008692 29.471594 -1.242441 40.676840 0.810843 1.601345 0.067084 -0.015997 630149.000000 0 0 1
26.708792 28.609594 -1.512441 39.168302 0.819746 1.609420 0.061580 -0.007969 -49230.200000 0 0 1
25.568692 29.271794 -1.069841 38.881107 0.852821 1.598316 0.055265 -0.009840 -975641.000000 0 0 1
24.423292 28.641494 -1.580741 37.674010 0.864723 1.612767 0.051810 -0.001009 854758.000000 0 0 1
23.057792 29.318394 -1.137341 37.316531 0.904365 1.601279 0.063473 -0.006453 1062160.000000 0 0 1
22.890092 29.168994 0.228959 37.078820 0.905429 1.564621 0.067271 -0.017045 -45833.800000 0 0 1
21.622092 29.641394 0.632659 36.695058 0.940574 1.553554 0.060693 -0.019039 -58336.900000 0 0 1
20.995092 28.900194 1.818359 35.767604 0.942526 1.519936 0.072248 -0.034670 -290903.000000 0 0 1
20.614292 27.568194 1.505459 34.456069 0.928733 1.527090 0.085231 -0.024927 161811.000000 0 0 1
20.132892 26.966794 2.662659 33.758422 0.929487 1.491840 0.107488 -0.020359 -231412.000000 0 0 1
19.361192 25.630194 2.395759 32.210281 0.923845 1.496349 0.114073 -0.017163 256522.000000 0 0 1
20.104592 24.491594 1.942459 31.745959 0.883454 1.509570 0.114373 -0.021962 88935.600000 0 0 1
20.937892 23.856294 2.886759 31.872424 0.850458 1.480100 0.096511 -0.013548 -25812.000000 0 0 1
22.110192 23.098394 2.238059 32.053163 0.807253 1.500916 0.078590 -0.014577 -54983.000000 0 0 1
21.607892 22.028994 1.406659 30.889419 0.795048 1.525242 0.097208 -0.009125 621393.000000 0 0 1
22.613592 21.099594 1.030059 30.945571 0.750777 1.537504 0.076761 -0.014547 -35275.700000 0 0 1
22.080292 20.177594 -0.124541 29.911370 0.740403 1.574960 0.096603 -0.016849 -15941.000000 0 0 1
22.137692 20.811494 -1.398041 30.416281 0.754530 1.616776 0.064264 -0.002739 288605.000000 0 0 1
22.612492 19.901794 -2.393741 30.218143 0.721725 1.650095 0.087485 -0.010176 -57107.500000 0 0 1
22.653492 20.687194 -3.762841 30.907922 0.740061 1.692843 0.067921 -0.014457 -24836.400000 0 0 1
23.544692 21.776194 -3.684241 32.282019 0.746396 1.685172 0.072267 -0.013003 217279.000000 0 0 1
23.642392 22.402794 -4.955241 32.945444 0.758483 1.721777 0.047804 -0.009350 -233734.000000 0 0 1
24.401992 23.765294 -5.026941 34.431330 0.772180 1.717319 0.044799 -0.001034 -521590.000000 0 0 1
23.866892 24.892694 -4.399841 34.765404 0.806433 1.697695 0.047638 -0.003770 -91869.100000 0 0 1
23.957192 24.935294 -2.958641 34.705467 0.805401 1.656150 0.048892 -0.001602 9298.880000 0 0 1
22.754792 24.240894 -2.246541 33.323391 0.817010 1.638264 0.056517 -0.010729 -1200500.000000 0 0 1
21.709092 25.151994 -2.052541 33.288442 0.858737 1.632495 0.068307 -0.007542 48390.700000 0 0 1
20.610092 24.731794 -1.288441 32.219521 0.876052 1.610796 0.064560 -0.000066 -26195.800000 0 0 1
19.770192 23.566994 -1.863341 30.817782 0.872786 1.631296 0.101425 -0.016246 -1219230.000000 0 0 1
19.088992 23.940694 -3.026841 30.768623 0.897676 1.669330 0.092488 -0.018367 40760.800000 0 0 1
18.428892 22.858394 -3.681441 29.591945 0.892274 1.695526 0.105196 -0.025548 210114.000000 0 0 1
17.874792 23.347294 -5.014141 29.828609 0.917383 1.739697 0.112214 -0.030049 -558275.000000 0 0 1
17.163192 22.448394 -5.732841 28.833505 0.918040 1.770956 0.122414 -0.038535 -328836.000000 0 0 1
16.689392 23.087694 -6.910941 29.314476 0.944886 1.808788 0.113290 -0.037160 17293.900000 0 0 1
15.950792 22.043694 -7.795041 28.303972 0.944407 1.849807 0.150520 -0.041573 -382743.000000 0 0 1
16.810792 20.955494 -8.011941 28.034383 0.894707 1.860627 0.145793 -0.043477 327470.000000 0 0 1
16.186892 20.117694 -8.933941 27.323110 0.893251 1.903896 0.184817 -0.054998 -139325.000000 0 0 1
16.960392 18.808794 -9.219141 26.952146 0.837028 1.919900 0.174359 -0.053694 106540.000000 0 0 1
18.268192 18.903394 -9.747441 28.037078 0.802485 1.925873 0.149791 -0.048161 242209.000000 0 0 1
18.829992 17.644494 -9.851041 27.621364 0.752907 1.935471 0.146435 -0.047600 -71894.800000 0 0 1
20.267192 17.613594 -10.416441 28.801041 0.715461 1.940854 0.123667 -0.037531 40333.200000 0 0 1
20.230092 17.868594 -11.775741 29.448452 0.723494 1.982178 0.122201 -0.036474 -732022.000000 0 0 1
21.474692 18.352694 -12.096741 30.729707 0.707170 1.975395 0.108266 -0.019795 -876223.000000 0 0 1
21.611692 18.760594 -13.597541 31.684668 0.714895 2.014350 0.112469 -0.020575 42471.300000 0 0 1
21.933792 17.745394 -14.537541 31.738467 0.680231 2.046587 0.097484 -0.018351 48588.300000 0 0 1
22.059092 18.362094 -15.811941 32.768697 0.694190 2.074339 0.103437 -0.028427 35931.400000 0 0 1
22.267292 17.273194 -16.838241 32.828674 0.659760 2.109371 0.091078 -0.019558 -268073.000000 0 0 1
23.490892 16.600594 -16.696641 33.259277 0.615197 2.096723 0.103471 -0.024110 -294997.000000 0 0 1
23.781992 15.707994 -17.763141 33.583528 0.583721 2.128129 0.104167 -0.027271 -494064.000000 0 0 1
24.656192 16.252794 -18.914841 35.069250 0.582799 2.140470 0.127583 -0.023731 -844167.000000 0 0 1
25.976992 16.501794 -18.533541 35.924997 0.565934 2.112849 0.148100 -0.031557 -362032.000000 0 0 1
26.704492 16.927794 -19.661041 37.232198 0.564969 2.127117 0.164002 -0.035944 -577567.000000 0 0 1
28.163592 17.246794 -19.341041 38.271604 0.549472 2.100599 0.138621 -0.039381 -453035.000000 0 0 1
28.362392 18.365594 -18.500741 38.522691 0.574639 2.071743 0.129475 -0.042539 344797.000000 0 0 1
29.711192 18.434594 -18.049541 39.349397 0.555328 2.047327 0.116272 -0.043984 250694.000000 0 0 1
29.762592 19.522294 -16.910141 39.406658 0.580535 2.014313 0.114364 -0.042213 151432.000000 0 0 1
29.052392 19.145694 -15.738741 38.187786 0.582680 1.995599 0.091207 -0.039318 158781.000000 0 0 1
27.715792 19.610294 -15.770441 37.435752 0.615775 2.005638 0.104210 -0.033917 -149968.000000 0 0 1
26.855692 18.988494 -14.645541 36.003929 0.615446 1.989719 0.082497 -0.022289 -15808.400000 0 0 1
27.291092 19.354894 -13.317941 36.010875 0.616875 1.949624 0.065226 -0.024352 357494.000000 0 0 1
26.338092 19.007894 -12.347041 34.748302 0.625134 1.934061 0.064866 -0.023460 -42301.400000 0 0 1
26.800592 19.547194 -10.973341 34.939644 0.630158 1.890269 0.050894 -0.019195 -97451.500000 0 0 1
26.555392 20.932094 -10.800541 35.496381 0.667531 1.879970 0.050021 -0.015170 154131.000000 0 0 1
27.173092 21.572094 -9.698241 36.024825 0.670996 1.843369 0.031274 -0.005591 137304.000000 0 0 1
26.446892 21.388094 -8.336041 35.019683 0.680035 1.811142 0.039101 -0.008429 -595265.000000 0 0 1
26.661592 20.088094 -7.818541 34.285588 0.645703 1.800862 0.053510 -0.022162 741650.000000 0 0 1
25.808592 19.717294 -6.675041 33.157371 0.652390 1.773495 0.071881 -0.023027 850049.000000 0 0 1
24.343492 19.397994 -7.098241 31.926051 0.672814 1.795004 0.111412 -0.033263 -65673.200000 0 0 1
23.604292 20.564894 -7.408541 32.170855 0.716694 1.803169 0.084568 -0.026672 377271.000000 0 0 1
22.321992 20.251894 -7.962341 31.173857 0.736813 1.829076 0.068013 -0.028441 347870.000000 0 0 1
21.395992 21.470994 -8.122841 31.381086 0.787148 1.832623 0.104272 -0.035964 -195434.000000 0 0 1
21.962992 22.368994 -9.074641 32.635778 0.794556 1.852568 0.105507 -0.028089 269586.000000 0 0 1
21.722992 22.094994 -10.486641 32.711569 0.793888 1.897137 0.126174 -0.022030 65584.100000 0 0 1
20.271392 22.380294 -10.932141 32.114149 0.834803 1.918155 0.118252 -0.032930 74709.200000 0 0 1
19.777092 23.703394 -10.708241 32.674924 0.875454 1.904686 0.116732 -0.038591 1199610.000000 0 0 1
18.329492 23.723494 -10.702441 31.832635 0.912968 1.913686 0.122181 -0.032468 1178410.000000 0 0 1
17.741292 24.983994 -10.056141 32.250261 0.953320 1.887900 0.110162 -0.033884 -61851.400000 0 0 1
18.009492 26.081894 -10.877841 33.510213 0.966476 1.901399 0.147077 -0.032069 97464.100000 0 0 1
18.077392 27.227394 -10.093841 34.205390 0.984683 1.870351 0.135145 -0.036878 137083.000000 0 0 1
21.251692 28.660694 32.514701 48.272928 0.932762 0.831782 0.063585 0.008504 550800.000000 0 0 1
19.862592 28.962994 32.525705 47.867515 0.969670 0.823723 0.085058 -0.017607 -341452.000000 0 0 1
19.120492 27.859094 32.923609 47.177180 0.969305 0.798375 0.079757 -0.023424 -515320.000000 0 0 1
17.641792 28.239094 32.994910 46.875829 1.012392 0.789953 0.129248 -0.041251 -419985.000000 0 0 1
17.014992 28.552794 31.762885 45.974480 1.033387 0.808090 0.111121 -0.040293 29980.600000 0 0 1
15.780492 29.220294 32.012694 46.126587 1.075622 0.803741 0.165711 -0.051734 1031310.000000 0 0 1
14.717592 29.027794 30.849319 44.843068 1.101551 0.812150 0.149674 -0.050851 547347.000000 0 0 1
14.114292 27.764894 30.923349 43.890273 1.100491 0.788993 0.132796 -0.056663 -179486.000000 0 0 1
12.833792 27.785994 30.342119 43.097701 1.138107 0.789739 0.139745 -0.033903 88500.800000 0 0 1
11.996992 26.471494 30.324719 42.003052 1.145281 0.764159 0.098589 -0.034499 152044.000000 0 0 1
12.251992 25.525194 29.274909 40.726737 1.123280 0.768703 0.095259 -0.027474 471639.000000 0 0 1
13.579692 25.012194 29.120129 40.718543 1.073403 0.773948 0.073708 -0.023816 440987.000000 0 0 1
13.765192 24.391694 27.743469 39.422523 1.057011 0.790139 0.093846 -0.025606 -286045.000000 0 0 1
13.601092 25.345294 26.697589 39.244552 1.078274 0.822641 0.076455 -0.024483 114187.000000 0 0 1
13.539892 24.718794 25.461449 37.982006 1.069677 0.836108 0.097823 -0.030085 926512.000000 0 0 1
12.197692 23.924894 25.093599 36.754223 1.099314 0.819289 0.105339 -0.030114 738724.000000 0 0 1
12.021292 23.403294 23.791599 35.472042 1.096282 0.835625 0.126171 -0.030223 -256056.000000 0 0 1
11.168192 22.325194 23.583709 34.341434 1.106948 0.813799 0.127002 -0.029584 -287799.000000 0 0 1
11.288592 21.925694 22.134359 33.137565 1.095334 0.839341 0.140872 -0.035738 -224480.000000 0 0 1
10.708092 22.911194 21.367159 33.108028 1.133589 0.869280 0.143471 -0.044055 -74973.700000 0 0 1
10.869992 22.506094 20.051859 32.043065 1.120857 0.894667 0.155850 -0.036700 -494749.000000 0 0 1
10.492092 23.633294 18.970859 32.070392 1.152982 0.937831 0.126137 -0.040186 387113.000000 0 0 1
9.123492 23.928294 18.729959 31.727160 1.206527 0.939311 0.114845 -0.039865 240611.000000 0 0 1
8.590292 24.717394 19.774959 32.799263 1.236314 0.923654 0.111321 -0.038664 -394766.000000 0 0 1
7.258992 25.426094 19.448159 32.823925 1.292701 0.936638 0.113670 -0.036958 43716.100000 0 0 1
7.287492 26.501794 18.461159 33.109923 1.302448 0.979339 0.099075 -0.033809 1189080.000000 0 0 1
5.964092 26.719394 17.887759 32.702726 1.351184 0.992043 0.089810 -0.037617 814957.000000 0 0 1
6.014892 27.849994 16.850059 33.101745 1.358089 1.036729 0.106478 -0.038342 278040.000000 0 0 1
6.695692 27.475294 15.661359 32.326494 1.331757 1.065034 0.096403 -0.027359 1161040.000000 0 0 1
8.130992 27.723094 15.660959 32.862571 1.285504 1.074060 0.094093 -0.028679 1190140.000000 0 0 1
8.790892 27.230594 14.352759 32.012290 1.258527 1.105876 0.081573 -0.022777 -154764.000000 0 0 1
8.349392 27.885794 13.186359 31.956375 1.279877 1.145450 0.110117 -0.027984 203106.000000 0 0 1
7.311492 27.121694 12.538059 30.761130 1.307475 1.150978 0.088200 -0.034099 679045.000000 0 0 1
6.671092 27.937494 11.389459 30.898653 1.336399 1.193286 0.090090 -0.042166 -187697.000000 0 0 1
7.505192 28.025594 10.259859 30.773796 1.309138 1.230893 0.071036 -0.034400 -63916.300000 0 0 1
7.712792 29.339494 9.811559 31.883534 1.313732 1.257989 0.083828 -0.037624 -364455.000000 0 0 1
7.488792 29.467894 8.295059 31.515817 1.321931 1.304456 0.073536 -0.023076 415108.000000 0 0 1
6.123192 29.403394 7.907459 31.057703 1.365483 1.313357 0.058492 -0.026842 -4916.630000 0 0 1
5.754692 28.171994 7.267659 29.657993 1.369298 1.323226 0.046058 -0.023011 -313998.000000 0 0 1
4.251792 28.182594 6.982959 29.344472 1.421060 1.330526 0.062766 -0.031578 -325869.000000 0 0 1
3.720192 29.057794 6.042159 29.911584 1.443462 1.367396 0.082421 -0.026313 -482686.000000 0 0 1
2.322892 28.979194 5.967359 29.678256 1.490810 1.368348 0.067788 -0.025194 -210122.000000 0 0 1
1.723492 29.991494 4.981759 30.451240 1.513393 1.406460 0.081323 -0.038664 -558576.000000 0 0 1
2.150192 29.765394 3.675559 30.068450 1.498684 1.448250 0.073859 -0.038547 -236642.000000 0 0 1
1.352492 30.365294 2.714759 30.516392 1.526285 1.481718 0.072019 -0.044788 -78389.800000 0 0 1
0.358992 29.360294 2.083959 29.436348 1.558570 1.499942 0.093681 -0.050387 -138535.000000 0 0 1
1.096092 28.408394 1.364059 28.462236 1.532232 1.522853 0.095614 -0.045875 8200.470000 0 0 1
0.319692 27.445294 0.650759 27.454869 1.559149 1.547091 0.101936 -0.047215 -154398.000000 0 0 1
-0.166808 28.039194 -0.669541 28.047682 -1.564847 1.594670 0.088081 -0.049510 -206233.000000 0 0 1
-1.092208 29.104094 -0.633941 29.131479 -1.533286 1.592559 0.093588 -0.054844 -200089.000000 0 0 1
-0.994308 29.926794 -1.767941 29.995454 -1.537584 1.629771 0.105494 -0.050084 -34079.700000 0 0 1
-2.309008 30.756594 -1.972541 30.906156 -1.495863 1.634663 0.134809 -0.047013 521358.000000 0 0 1
-3.527608 30.175394 -2.358641 30.472308 -1.454421 1.648277 0.107412 -0.048256 135058.000000 0 0 1
-3.377508 29.482994 -3.597841 29.893125 -1.456736 1.691446 0.075337 -0.040080 -824706.000000 0 0 1
-4.706908 28.939994 -4.188141 29.617879 -1.409564 1.712678 0.079630 -0.028614 112500.000000 0 0 1
-5.392008 29.984594 -4.866641 30.851804 -1.392872 1.729200 0.058643 -0.026382 141577.000000 0 0 1
-6.436708 29.405194 -5.649341 30.626976 -1.355298 1.756315 0.051473 -0.029968 249288.000000 0 0 1
-7.104608 30.368294 -6.666941 31.892896 -1.340981 1.781391 0.049345 -0.008651 -433701.000000 0 0 1
-7.916608 31.236094 -5.974841 32.772930 -1.322579 1.754132 0.059966 -0.007847 -571704.000000 0 0 1
-8.265008 32.299494 -6.828441 34.032268 -1.320285 1.772814 0.064669 -0.016280 443704.000000 0 0 1
-9.481008 33.225794 -6.482541 35.154889 -1.292833 1.756257 0.082791 -0.020440 37635.900000 0 0 1
-10.740408 32.677094 -6.633141 35.030663 -1.253237 1.761299 0.088736 -0.016237 -628739.000000 0 0 1
-11.767008 33.549094 -6.185141 36.086842 -1.233462 1.743043 0.085392 -0.030500 1576990.000000 0 0 1
-13.273608 33.077694 -6.316541 36.196977 -1.189182 1.746199 0.120408 -0.027069 1306680.000000 0 0 1
-13.795008 33.191694 -7.620941 36.743292 -1.176901 1.779723 0.120253 -0.030835 -193223.000000 0 0 1
-15.195408 33.105394 -7.633741 37.217489 -1.140482 1.777374 0.166274 -0.037597 -468095.000000 0 0 1
-15.860408 33.092394 -9.069441 37.800976 -1.123864 1.813086 0.213373 -0.044028 61369.500000 0 0 1
-17.219308 32.747794 -9.124441 38.107453 -1.086710 1.812585 0.252259 -0.055457 -165134.000000 0 0 1
-18.057908 -33.810497 -8.971741 39.366609 1.080249 1.800719 0.247034 -0.058255 -671349.000000 0 0 1
-19.567008 33.570594 -9.200041 39.931107 -1.043074 1.803283 0.232024 -0.063053 296082.000000 0 0 1
-20.102108 32.781094 -8.149541 39.307886 -1.020711 1.779637 0.206792 -0.060187 24458.200000 0 0 1
-20.435308 33.429794 -6.977641 39.797492 -1.022116 1.747036 0.163625 -0.055210 -1006270.000000 0 0 1
-21.244308 32.542794 -6.061241 39.333099 -0.992447 1.725513 0.165243 -0.049678 -932875.000000 0 0 1
-21.301608 32.988094 -4.729941 39.551804 -0.997424 1.690672 0.145267 -0.045498 -566397.000000 0 0 1
-22.512908 32.877694 -4.081441 40.055361 -0.970381 1.672868 0.160575 -0.048850 -514064.000000 0 0 1
-23.556008 -33.697097 -4.395641 41.348537 0.960707 1.677305 0.171437 -0.060892 -86826.300000 0 0 1
-24.284508 -33.768097 -5.608441 41.969945 0.947330 1.704827 0.179890 -0.055857 -6457.620000 0 0 1
-25.273408 -32.782897 -5.642641 41.776822 0.914032 1.706277 0.181103 -0.061775 -392330.000000 0 0 1
-25.846738 -32.548197 -7.022041 42.151489 0.899659 1.738167 0.219099 -0.058959 -1030190.000000 0 0 1
-25.071968 -31.838497 -7.855841 41.279628 0.903740 1.762272 0.239667 -0.061111 -982231.000000 0 0 1
-25.207948 -32.098497 -9.232441 41.844858 0.905064 1.793262 0.189466 -0.050783 -54219.200000 0 0 1
-26.406368 -31.438497 -9.968541 42.249819 0.872173 1.808985 0.155404 -0.039194 560650.000000 0 0 1
-27.668778 -31.895297 -9.396241 43.256914 0.856237 1.789761 0.162414 -0.031826 1469380.000000 0 0 1
-28.801138 -31.274697 -10.059141 43.689799 0.826549 1.803121 0.076252 -0.023155 802552.000000 0 0 1
-29.151608 -29.803897 -9.829141 42.833405 0.796462 1.802333 0.046125 -0.002761 -432710.000000 0 0 1
-28.158678 -28.920197 -10.344241 41.668841 0.798739 1.821668 0.065742 0.002994 11137.700000 0 0 1
-28.132318 -28.751197 -11.742741 41.904065 0.796277 1.854829 0.070143 -0.001299 -594671.000000 0 0 1
-26.880858 -28.044997 -12.245141 40.731387 0.806590 1.876151 0.092013 -0.006625 -353364.000000 0 0 1
-25.759908 -28.909197 -12.400341 40.658123 0.842941 1.880725 0.115258 -0.015037 107883.000000 0 0 1
-24.774908 -28.215497 -13.182341 39.795533 0.850236 1.908426 0.126462 -0.025932 121463.000000 0 0 1
-23.470108 -29.038497 -13.238541 39.614887 0.891050 1.911532 0.143187 -0.040759 -282937.000000 0 0 1
-23.541108 -30.231597 -14.006541 40.796034 0.909184 1.921257 0.149914 -0.040634 82541.000000 0 0 1
-24.202408 -31.377397 -13.453841 41.848578 0.913782 1.898097 0.148246 -0.039254 92405.400000 0 0 1
-24.219408 -32.616397 -14.428041 43.111222 0.932078 1.912052 0.155440 -0.037086 17142.700000 0 0 1
-24.860408 -33.697297 -13.789241 44.087310 0.935177 1.888906 0.148055 -0.047021 39212.600000 0 0 1
-24.596308 32.739694 -14.416641 43.413194 -0.926484 1.909304 0.157435 -0.044759 -3110.750000 0 0 1
-25.229348 31.564094 -13.656441 42.653375 -0.896479 1.896708 0.142819 -0.041112 49274.600000 0 0 1
-24.629908 31.264994 -12.389141 41.684806 -0.903552 1.872566 0.160011 -0.041586 151115.000000 0 0 1
-24.868508 32.219994 -11.368141 42.258790 -0.913467 1.843164 0.204764 -0.043558 -162836.000000 0 0 1
-24.164508 32.085194 -10.023241 41.398653 -0.925291 1.815342 0.211075 -0.047512 51850.600000 0 0 1
-24.935108 31.344694 -9.132541 41.081051 -0.898797 1.794975 0.197302 -0.036318 -146996.000000 0 0 1
-24.026208 30.970894 -8.139141 40.033743 -0.911007 1.775531 0.167324 -0.034742 -9785.590000 0 0 1
-24.531708 29.816894 -7.301641 39.295875 -0.882339 1.757694 0.157147 -0.022136 -174360.000000 0 0 1
-24.614808 28.735494 -8.137441 38.701878 -0.862483 1.782637 0.151441 -0.007018 -78239.800000 0 0 1
-24.893608 27.477394 -7.620541 37.851969 -0.834694 1.773507 0.147392 -0.015592 -56690.700000 0 0 1
-23.834808 26.783694 -6.719141 36.477544 -0.843589 1.756054 0.137991 -0.010804 -181777.000000 0 0 1
-23.677508 27.485294 -5.489841 36.690654 -0.859686 1.720985 0.143988 -0.009790 -517325.000000 0 0 1
-22.684708 26.954894 -4.667541 35.537983 -0.871211 1.702516 0.110540 -0.012210 558897.000000 0 0 1
-21.298708 27.703194 -4.836541 35.277387 -0.915360 1.708330 0.097351 -0.019109 196128.000000 0 0 1
-20.569708 27.417494 -5.999441 34.796913 -0.927141 1.744075 0.107643 -0.031369 -676098.000000 0 0 1
-19.348808 28.077094 -5.813841 34.590466 -0.967402 1.739674 0.116890 -0.031781 -102047.000000 0 0 1
-18.285208 27.665994 -6.916741 33.876206 -0.986778 1.776419 0.134053 -0.030311 162731.000000 0 0 1
-18.438508 28.051794 -8.248241 34.567545 -0.989305 1.811733 0.168376 -0.042818 73028.600000 0 0 1
-18.382908 29.466094 -8.450441 35.743418 -1.013013 1.809476 0.188947 -0.048825 -274483.000000 0 0 1
-18.419808 29.864694 -9.939141 36.468833 -1.018133 1.846826 0.215321 -0.045050 -41532.700000 0 0 1
-17.168508 29.832594 -10.603941 36.016453 -1.048590 1.869644 0.199982 -0.050568 233239.000000 0 0 1
-17.167908 30.648494 -11.693641 37.024431 -1.060190 1.892134 0.219805 -0.061965 -558127.000000 0 0 1
-15.735908 31.033894 -12.084241 36.834091 -1.101520 1.905058 0.210279 -0.057767 -160633.000000 0 0 1
-15.566708 31.782294 -13.255041 37.790643 -1.115349 1.929167 0.202743 -0.055431 -281942.000000 0 0 1
-15.879208 30.992794 -14.375541 37.674377 -1.097316 1.962294 0.197232 -0.061946 -434777.000000 0 0 1
-15.320308 31.473294 -15.696541 38.362240 -1.117787 1.992337 0.203210 -0.053973 -997256.000000 0 0 1
-13.943408 31.378494 -15.768541 37.784592 -1.152641 2.001299 0.175699 -0.068037 -1180770.000000 0 0 1
-13.558008 31.946994 -16.974141 38.633553 -1.169442 2.025685 0.149219 -0.064994 -664878.000000 0 0 1
-12.074608 32.315894 -17.022941 38.469386 -1.213216 2.029188 0.153759 -0.059872 -439314.000000 0 0 1
-11.295208 31.124194 -17.023241 37.230201 -1.222669 2.045689 0.158911 -0.075581 149534.000000 0 0 1
-10.073608 31.253294 -17.748941 37.326543 -1.258989 2.066334 0.142090 -0.062904 158898.000000 0 0 1
-10.109108 31.026994 -19.280341 37.902506 -1.255826 2.104450 0.132891 -0.066692 -525629.000000 0 0 1
-10.385208 29.718594 -19.725141 37.150081 -1.234610 2.130527 0.125241 -0.067456 156630.000000 0 0 1
-10.418008 29.761694 -21.132341 37.958782 -1.234079 2.161226 0.096926 -0.067223 -80456.600000 0 0 1
-11.838308 29.656194 -21.712041 38.614092 -1.190993 2.167940 0.100371 -0.053155 72300.400000 0 0 1
-12.642008 30.830094 -21.760741 39.797549 -1.181653 2.149317 0.111036 -0.056517 602281.000000 0 0 1
-13.867608 30.672694 -21.026141 39.689083 -1.146184 2.129127 0.112437 -0.051927 983455.000000 0 0 1
-14.839308 31.896094 -21.220641 41.083835 -1.135342 2.113579 0.150924 -0.059637 386088.000000 0 0 1
-15.434308 31.888394 -22.521841 41.980005 -1.120022 2.137068 0.120629 -0.051745 -78218.700000 0 0 1
-16.305508 32.992594 -22.714641 43.247378 -1.111786 2.123777 0.120042 -0.051765 316609.000000 0 0 1
-16.763208 33.111094 -24.188241 44.299217 -1.102144 2.148402 0.104219 -0.043982 79531.000000 0 0 1
-15.719508 33.455994 -25.074841 44.667148 -1.131553 2.166838 0.116828 -0.041403 -193136.000000 0 0 1
-15.981408 33.154294 -26.439041 45.317055 -1.121627 2.193734 0.125296 -0.037994 305822.000000 0 0 1
-16.737608 -33.420497 -27.272541 46.269522 1.106494 2.201147 0.107300 -0.032720 96505.400000 0 0 1
-18.013408 -33.065897 -26.825941 46.232754 1.071975 2.189816 0.102907 -0.028674 -631857.000000 0 0 1
-18.529308 -31.980797 -27.606341 46.132599 1.045670 2.212315 0.072705 -0.013069 123221.000000 0 0 1
-19.970608 -31.615197 -27.211041 46.247017 1.007410 2.199856 0.068830 -0.018046 168216.000000 0 0 1
-20.946708 -32.616597 -27.433141 47.488780 0.999917 2.186675 0.070970 -0.019167 -1113080.000000 0 0 1
-22.218308 -32.052797 -27.420441 47.675105 0.964663 2.183587 0.059591 -0.013884 -350826.000000 0 0 1
-23.323408 -33.134797 -27.377041 48.901927 0.957461 2.164984 0.040850 -0.005246 -109196.000000 0 0 1
-23.405808 33.711394 -26.220741 48.701306 -0.963906 2.139333 0.069734 -0.015302 47757.000000 0 0 1
-24.472208 32.747294 -26.176541 48.543645 -0.929022 2.140327 0.053138 -0.017985 677304.000000 0 0 1
-24.213708 31.464194 -27.038141 48.034989 -0.914891 2.168668 0.062077 -0.021871 99283.300000 0 0 1
-23.422808 30.543994 -26.299341 46.617795 -0.916595 2.170197 0.064513 -0.042900 -173859.000000 0 0 1
-24.169108 29.687294 -25.424741 45.955398 -0.887503 2.157055 0.059339 -0.039069 -169889.000000 0 0 1
33.272840 9.912594 -25.948211 43.343408 0.289546 2.212631 0.046882 -0.007480 -278542.000000 0 0 1
32.649140 8.656494 -25.949831 42.594541 0.259174 2.225884 0.038823 -0.001801 49246.700000 0 0 1
31.249830 8.909194 -25.914961 41.563335 0.277728 2.244015 0.059854 -0.009769 239452.000000 0 0 1
30.492040 7.627994 -25.451591 40.444212 0.245132 2.251450 0.051056 -0.002230 -107732.000000 0 0 1
30.718700 7.250994 -24.076641 39.697608 0.231802 2.222449 0.035479 -0.002423 36319.500000 0 0 1
30.206840 5.958894 -23.867241 38.956473 0.194769 2.230224 0.048378 -0.004519 17478.700000 0 0 1
30.451340 5.423994 -22.431741 38.208465 0.176271 2.198254 0.074913 -0.013653 -49484.300000 0 0 1
31.755870 5.072994 -22.034241 38.983052 0.158411 2.171504 0.071552 -0.011213 50452.400000 0 0 1
31.706780 5.040294 -20.606341 38.148994 0.157647 2.141417 0.066271 -0.012535 -132575.000000 0 0 1
33.035410 4.781694 -19.874741 38.848529 0.143746 2.107837 0.062303 -0.008590 -243194.000000 0 0 1
33.406920 3.435594 -19.993341 39.084003 0.102481 2.107782 0.078309 -0.012185 1002800.000000 0 0 1
34.602450 3.093994 -19.247841 39.716265 0.089178 2.076741 0.098927 -0.019025 682700.000000 0 0 1
34.833580 1.523394 -19.123941 39.767124 0.043706 2.072475 0.117956 -0.025819 -202024.000000 0 0 1
33.916390 0.810994 -18.342941 38.567379 0.023907 2.066451 0.109525 -0.026361 -240464.000000 0 0 1
34.021430 -0.540706 -18.766241 38.857713 -0.015892 2.074814 0.099719 -0.026862 -53751.900000 0 0 1
32.845100 -1.425106 -18.330641 37.640987 -0.043362 2.079432 0.103420 -0.027270 -116613.000000 0 0 1
32.856560 -1.803606 -16.943041 37.011798 -0.054838 2.046286 0.125424 -0.030055 68796.300000 0 0 1
31.575210 -1.688506 -16.356741 35.600392 -0.053425 2.048177 0.115063 -0.030364 -123122.000000 0 0 1
31.476140 -2.069706 -14.859741 34.868940 -0.065660 2.011040 0.120485 -0.039871 -162030.000000 0 0 1
31.381180 -3.479306 -14.580041 34.777315 -0.110421 2.003404 0.122664 -0.038338 816869.000000 0 0 1
30.353940 -3.845706 -13.627241 33.494071 -0.126024 1.989805 0.102430 -0.029337 544784.000000 0 0 1
29.970640 -5.329306 -13.396241 33.258082 -0.175978 1.985367 0.106890 -0.024031 39932.000000 0 0 1
29.368640 -6.020606 -14.479841 33.293100 -0.202200 2.020746 0.091438 -0.026857 439844.000000 0 0 1
28.959740 -7.318706 -14.081041 33.022806 -0.247537 2.011309 0.100160 -0.028525 -168362.000000 0 0 1
28.220540 -8.178306 -15.154941 33.059882 -0.282073 2.047000 0.084745 -0.025152 73227.200000 0 0 1
27.001940 -7.606006 -15.595741 32.096468 -0.274569 2.078191 0.059074 -0.019993 108412.000000 0 0 1
26.558940 -8.217306 -16.806441 32.486272 -0.300057 2.114536 0.075131 -0.025671 149034.000000 0 0 1
25.077940 -7.958506 -17.177141 31.421252 -0.307298 2.149182 0.063637 -0.019153 -134611.000000 0 0 1
24.850840 -6.590206 -17.441641 31.067763 -0.259224 2.166881 0.055980 -0.011908 228789.000000 0 0 1
23.640640 -6.255906 -18.115441 30.433295 -0.258695 2.208374 0.074832 -0.015683 134087.000000 0 0 1
23.536740 -6.768406 -19.601541 31.368931 -0.280012 2.245763 0.051321 -0.012473 -202834.000000 0 0 1
24.342640 -6.026906 -20.525541 32.406566 -0.242706 2.256704 0.054916 -0.018351 381305.000000 0 0 1
24.244940 -6.377506 -21.882741 33.276779 -0.257218 2.288422 0.075834 -0.029005 -667215.000000 0 0 1
25.075840 -5.551206 -22.824641 34.359538 -0.217863 2.297338 0.085358 -0.030531 -469560.000000 0 0 1
25.087240 -6.038606 -24.112041 35.316071 -0.236211 2.322316 0.106177 -0.039009 183281.000000 0 0 1
25.064540 -4.929906 -25.011241 35.750487 -0.194209 2.345642 0.102595 -0.043563 -237719.000000 0 0 1
25.113740 -5.318106 -26.523221 36.911562 -0.208678 2.372528 0.136765 -0.050892 638115.000000 0 0 1
23.906340 -5.927806 -27.018171 36.559999 -0.243057 2.402395 0.155658 -0.045554 766687.000000 0 0 1
24.040940 -6.095406 -28.404171 37.708324 -0.248310 2.423801 0.155526 -0.051206 -463894.000000 0 0 1
22.738540 -6.631806 -28.959261 37.412042 -0.283783 2.456029 0.125891 -0.053126 -562798.000000 0 0 1
22.415740 -7.926406 -28.422411 37.055725 -0.339886 2.444977 0.104468 -0.046804 267918.000000 0 0 1
21.209740 -8.419606 -28.966511 36.875488 -0.377891 2.474336 0.108109 -0.054825 -131130.000000 0 0 1
20.852540 -9.765706 -28.315051 36.495747 -0.437986 2.458850 0.131445 -0.039578 141261.000000 0 0 1
19.503440 -10.182906 -28.482521 35.990690 -0.481177 2.483869 0.141520 -0.038400 561972.000000 0 0 1
19.154140 -11.276606 -27.680431 35.499989 -0.532091 2.465032 0.139970 -0.048303 -339740.000000 0 0 1
19.443340 -12.636706 -28.252361 36.550318 -0.576322 2.454308 0.117816 -0.033629 311564.000000 0 0 1
18.429440 -13.004406 -29.226511 36.918123 -0.614496 2.484314 0.124732 -0.032355 1107490.000000 0 0 1
18.727840 -14.252906 -29.811301 37.981456 -0.650539 2.473316 0.090425 -0.032539 204092.000000 0 0 1
17.668140 -14.691606 -30.904141 38.510679 -0.693674 2.502240 0.080906 -0.036017 932793.000000 0 0 1
16.531640 -15.423606 -30.417321 37.899818 -0.750738 2.502390 0.071285 -0.033054 147500.000000 0 0 1
15.576140 -15.607106 -31.380401 38.352672 -0.786391 2.529081 0.063046 -0.033123 242117.000000 0 0 1
14.223340 -16.169906 -30.766621 37.554683 -0.849357 2.530896 0.074301 -0.039708 881085.000000 0 0 1
14.384540 -17.544406 -30.324211 37.871876 -0.884043 2.499268 0.054742 -0.035438 103574.000000 0 0 1
13.432140 -17.846606 -29.334211 36.870309 -0.925605 2.490802 0.062164 -0.030041 43054.700000 0 0 1
13.801740 -19.173906 -28.585101 37.084157 -0.946893 2.450919 0.059611 -0.022339 85660.400000 0 0 1
14.909540 -19.027106 -27.711251 36.772797 -0.906139 2.424288 0.048697 -0.016218 119630.000000 0 0 1
14.780940 -19.892206 -26.628351 36.376437 -0.931757 2.392081 0.049187 -0.011251 -84935.000000 0 0 1
15.796740 -19.749606 -25.483931 35.902851 -0.896146 2.360014 0.040830 -0.002334 72404.900000 0 0 1
17.136640 -20.127106 -25.776611 36.921518 -0.865478 2.343601 0.061597 -0.019000 305686.000000 0 0 1
17.871140 -19.879306 -24.608441 36.333729 -0.838544 2.314868 0.079335 -0.022157 -910001.000000 0 0 1
19.349540 -20.241406 -24.659441 37.312294 -0.807921 2.292805 0.057324 -0.009142 -672838.000000 0 0 1
19.704440 -21.609206 -24.622141 38.229211 -0.831471 2.270598 0.068165 -0.008904 388298.000000 0 0 1
19.641240 -22.211206 -23.306541 37.713537 -0.846727 2.236978 0.049817 -0.007173 -476849.000000 0 0 1
20.287040 -23.604906 -23.257041 38.854158 -0.860846 2.212515 0.037496 -0.012558 -64251.500000 0 0 1
21.703340 -23.736006 -23.255441 39.689400 -0.830102 2.196831 0.064998 -0.012040 502875.000000 0 0 1
22.062740 -25.087826 -23.036341 40.581234 -0.849468 2.174457 0.070203 -0.015986 -110087.000000 0 0 1
22.032440 -25.522966 -21.554841 40.018263 -0.858666 2.139601 0.084075 -0.015523 -1422280.000000 0 0 1
20.767040 -25.702106 -21.044841 39.175931 -0.891203 2.137896 0.065473 -0.011777 -897096.000000 0 0 1
20.815340 -26.048876 -19.643041 38.699760 -0.896612 2.103165 0.069513 -0.022777 418118.000000 0 0 1
19.435940 -26.542036 -19.091941 38.036005 -0.938739 2.096641 0.062410 -0.020899 -298237.000000 0 0 1
19.206840 -27.873656 -19.447641 39.039136 -0.967445 2.092269 0.062256 -0.016789 -321065.000000 0 0 1
18.103640 -28.556946 -18.944541 38.757407 -1.005788 2.081508 0.056645 -0.013052 -486236.000000 0 0 1
16.720840 -28.044286 -19.359241 37.958513 -1.033154 2.105993 0.065439 -0.022988 -926806.000000 0 0 1
16.126140 -26.984826 -18.573041 36.512890 -1.032143 2.104437 0.070831 -0.026137 -11781.500000 0 0 1
14.954840 -26.597366 -19.259241 36.083036 -1.058583 2.133823 0.062094 -0.012562 -136725.000000 0 0 1
13.898440 -25.881806 -18.398041 34.662984 -1.077991 2.130304 0.034550 -0.013376 -822529.000000 0 0 1
12.988240 -26.713926 -17.762441 34.609718 -1.118252 2.109730 0.037284 -0.012580 -584332.000000 0 0 1
12.179940 -25.974656 -16.902941 33.297795 -1.132323 2.103227 0.035124 -0.014416 -747400.000000 0 0 1
10.709440 -25.909876 -17.315441 32.952061 -1.178848 2.124068 0.045005 -0.022587 -811387.000000 0 0 1
10.020940 -27.037376 -16.732141 33.337719 -1.215860 2.096588 0.058307 -0.018374 645465.000000 0 0 1
8.609240 -26.976146 -16.939241 32.996506 -1.261871 2.109897 0.060140 -0.001931 976786.000000 0 0 1
8.025040 -27.526346 -18.324841 34.027942 -1.287119 2.139480 0.088295 -0.006931 4341.490000 0 0 1
8.247340 -26.695326 -19.493141 34.068191 -1.271155 2.179958 0.103085 -0.015935 147626.000000 0 0 1
7.719240 -27.343566 -20.642941 35.119629 -1.295651 2.199120 0.103084 -0.012711 -172938.000000 0 0 1
7.447540 -26.496376 -21.962841 35.212075 -1.296789 2.244303 0.110464 -0.011706 -70839.300000 0 0 1
6.316840 -25.653816 -21.865241 34.294453 -1.329365 2.262141 0.104606 -0.013599 -7877.940000 0 0 1
6.131240 -24.814206 -22.990141 34.378533 -1.328562 2.303303 0.092006 -0.016183 -657416.000000 0 0 1
4.695840 -24.312706 -23.139941 33.891230 -1.380002 2.322345 0.062283 -0.013739 -329643.000000 0 0 1
3.844640 -25.360506 -23.557641 34.826700 -1.420342 2.313694 0.056620 -0.007933 136356.000000 0 0 1
2.504740 -24.941306 -23.808241 34.571301 -1.470707 2.330450 0.056358 -0.020833 730970.000000 0 0 1
1.611240 -26.133756 -24.193841 35.649843 -1.509221 2.316722 0.019472 -0.006903 -24762.100000 0 0 1
2.068540 -26.694686 -25.386871 36.896861 -1.493462 2.329594 0.027068 -0.009559 646337.000000 0 0 1
1.040440 -27.401816 -26.117461 37.869035 -1.532845 2.331841 0.044528 -0.014891 689622.000000 0 0 1
1.744940 -28.143216 -27.272091 39.228209 -1.508873 2.339517 0.046211 -0.013194 -205884.000000 0 0 1
2.307340 -27.420946 -28.338101 39.500381 -1.486849 2.370879 0.048602 -0.014423 -318246.000000 0 0 1
2.762340 -28.422166 -29.240411 40.871160 -1.473911 2.368034 0.078299 -0.026911 385184.000000 0 0 1
4.237140 -28.901246 -29.113321 41.241010 -1.425226 2.354534 0.104087 -0.029979 -193605.000000 0 0 1
4.437440 -29.823306 -28.018701 41.160273 -1.423089 2.319544 0.090763 -0.035759 -29574.900000 0 0 1
5.339740 -30.836106 -28.429601 42.280261 -1.399332 2.308254 0.112783 -0.042481 -98367.600000 0 0 1
5.656440 -31.923606 -27.350681 42.416644 -1.395430 2.271571 0.141198 -0.060839 -589941.000000 0 0 1
4.693640 -32.887996 -27.169041 42.916283 -1.429038 2.256310 0.117004 -0.065986 -16302.500000 0 0 1
5.296840 33.710619 -26.470861 43.187600 1.414944 2.230556 0.138500 -0.070202 784784.000000 0 0 1
4.157340 32.708588 -26.004111 41.992250 1.444372 2.238596 0.162959 -0.067612 364536.000000 0 0 1
3.419240 32.352998 -27.141081 42.367983 1.465502 2.266080 0.145669 -0.067008 -460876.000000 0 0 1
2.102240 32.016581 -26.808911 41.811465 1.505229 2.266839 0.118443 -0.060691 -332133.000000 0 0 1
1.080040 32.204088 -27.939151 42.648164 1.537272 2.285122 0.120163 -0.034960 -465505.000000 0 0 1
1.018340 31.221944 -28.942801 42.585591 1.538192 2.318066 0.139535 -0.034411 67059.700000 0 0 1
0.432440 31.781008 -30.116241 43.785927 1.557190 2.329259 0.127631 -0.031790 138243.000000 0 0 1
0.253340 30.681654 -31.231431 43.781621 1.562539 2.365057 0.108586 -0.032613 191809.000000 0 0 1
1.438540 30.384714 -31.943921 44.110252 1.523487 2.380646 0.132255 -0.030945 212442.000000 0 0 1
1.184340 29.322774 -32.852621 44.051361 1.530429 2.412501 0.128008 -0.030596 -500283.000000 0 0 1
2.450440 29.063804 -33.649061 44.530536 1.486683 2.427427 0.132618 -0.027478 -405990.000000 0 0 1
2.820140 30.168794 33.129534 44.896273 1.477588 0.740824 0.135796 -0.034067 -154088.000000 0 0 1
3.726340 29.872984 32.086255 43.997824 1.446698 0.753543 0.100046 -0.037943 -256856.000000 0 0 1
3.184240 29.043844 30.864229 42.500410 1.461597 0.758003 0.090644 -0.031164 -93543.900000 0 0 1
2.827440 27.701254 31.108549 41.750398 1.469080 0.730100 0.098264 -0.036029 -2458.400000 0 0 1
3.999340 26.907524 31.196389 41.391113 1.423244 0.717126 0.092843 -0.028913 -91346.400000 0 0 1
3.723940 25.470474 31.495642 40.676630 1.425619 0.685199 0.091842 -0.033346 -270643.000000 0 0 1
3.142740 24.777864 30.427539 39.365651 1.444633 0.687324 0.103867 -0.029535 -7848.810000 0 0 1
3.145340 23.381624 30.700329 38.718261 1.437077 0.655217 0.087074 -0.015538 -506980.000000 0 0 1
2.370540 22.629084 29.632789 37.360368 1.466421 0.654814 0.086366 -0.009014 -25004.700000 0 0 1
1.003540 22.513484 29.959189 37.488892 1.526251 0.644919 0.095919 -0.016935 -391775.000000 0 0 1
0.248840 21.889084 28.952379 36.296476 1.559429 0.647385 0.088654 -0.007794 -841832.000000 0 0 1
-1.125660 21.468684 29.358679 36.388233 -1.518412 0.632050 0.087636 -0.006442 -1289890.000000 0 0 1
-2.023360 22.489484 29.668379 37.283825 -1.481069 0.650561 0.093455 -0.018036 -36430.100000 0 0 1
-3.258160 21.911384 30.064209 37.344089 -1.423181 0.635021 0.072116 -0.018447 548076.000000 0 0 1
-4.440760 22.916984 30.243629 38.204523 -1.379393 0.657333 0.047008 -0.030897 428259.000000 0 0 1
-4.254360 23.828764 31.284989 39.555785 -1.394119 0.658505 0.070344 -0.029609 20627.500000 0 0 1
-5.469960 24.492954 31.568099 40.328280 -1.351074 0.671679 0.053400 -0.035600 287569.000000 0 0 1
-5.257760 25.148904 32.953604 41.785780 -1.364700 0.662215 0.079398 -0.032787 -101188.000000 0 0 1
-6.370060 25.869364 33.396121 42.721219 -1.329360 0.673374 0.070991 -0.026219 -313244.000000 0 0 1
-6.177760 26.377024 -32.865971 42.592067 -1.340733 2.452220 0.086632 -0.020850 -399025.000000 0 0 1
-7.531760 26.685534 -32.250411 42.531566 -1.295710 2.431452 0.066874 -0.012336 -1129800.000000 0 0 1
-8.317860 27.641244 -32.902521 43.769865 -1.278494 2.421457 0.081394 -0.010998 1230350.000000 0 0 1
-9.672960 27.756224 -32.367201 43.721961 -1.235461 2.404307 0.077045 -0.006124 1554750.000000 0 0 1
-9.773360 28.168284 -30.851931 42.904690 -1.236829 2.373275 0.077292 -0.014910 -803895.000000 0 0 1
-9.315560 29.488954 -30.570471 43.484845 -1.264817 2.350424 0.074142 -0.016825 133880.000000 0 0 1
-9.324360 29.801264 -29.199051 42.750949 -1.267561 2.322663 0.082140 -0.021411 66906.400000 0 0 1
-8.710860 31.199014 -28.814081 43.353302 -1.298527 2.297800 0.066042 -0.019319 640271.000000 0 0 1
-7.307160 31.378974 -28.952601 43.316137 -1.342006 2.302855 0.060128 -0.018336 111141.000000 0 0 1
-6.845160 32.645020 -28.562541 43.913236 -1.364106 2.278948 0.068777 -0.015275 92661.900000 0 0 1
-5.309760 32.682556 -28.368501 43.601776 -1.409739 2.279206 0.075004 -0.016860 280898.000000 0 0 1
-4.661660 -33.766776 -28.040601 44.138437 1.433609 2.259177 0.090192 -0.017272 -74930.200000 0 0 1
-4.588660 -32.809506 -29.069591 44.074490 1.431840 2.291024 0.097073 -0.027203 -32802.900000 0 0 1
-3.620160 -32.958106 -30.300901 44.916444 1.461394 2.311227 0.095718 -0.027126 301457.000000 0 0 1
-4.036060 33.690441 -31.240871 46.122962 -1.451566 2.314936 0.095809 -0.015177 -12613.100000 0 0 1
-4.914060 -33.650186 -32.284321 46.890942 1.425788 2.330212 0.119761 -0.020424 -79886.600000 0 0 1
-4.322760 -32.695606 -33.347941 46.901750 1.439346 2.361740 0.093589 -0.025553 -131657.000000 0 0 1
-4.010860 -31.387576 -32.807861 45.580947 1.443700 2.374269 0.100825 -0.028644 289901.000000 0 0 1
-3.226860 -30.778306 33.767209 45.803288 1.466336 0.741846 0.109153 -0.043284 60010.600000 0 0 1
34.824540 18.152594 13.047759 41.382475 0.480510 1.250027 0.086540 -0.028877 107406.000000 0 0 1
36.163340 17.713594 13.024359 42.322482 0.455472 1.257979 0.098620 -0.035739 -234505.000000 0 0 1
36.297800 16.366394 13.306759 41.981650 0.423596 1.248267 0.111196 -0.015547 247631.000000 0 0 1
37.780150 15.991494 13.632259 43.230846 0.400411 1.249985 0.076116 -0.030472 806252.000000 0 0 1
-37.027728 15.506394 12.588459 42.071014 -0.396589 1.266922 0.088149 -0.019206 163978.000000 0 0 1
-37.424748 14.240994 12.154259 41.846669 -0.363604 1.276102 0.135610 -0.037949 81157.300000 0 0 1
-36.163818 13.329494 11.925059 40.344816 -0.353136 1.270735 0.166687 -0.030621 673807.000000 0 0 1
-35.672432 12.655794 13.128659 40.063116 -0.340925 1.236929 0.144080 -0.028607 129561.000000 0 0 1
-36.339928 11.506494 13.649759 40.488340 -0.306648 1.226932 0.154632 -0.034662 -322186.000000 0 0 1
-35.609214 10.992894 14.886059 40.130470 -0.299428 1.190774 0.188653 -0.049509 29571.800000 0 0 1
-35.716272 11.850094 15.993259 40.888399 -0.320356 1.168922 0.170326 -0.034156 -9348.990000 0 0 1
-34.891451 11.360594 16.995859 40.439284 -0.314773 1.137041 0.162040 -0.038816 -261442.000000 0 0 1
-35.025167 12.194994 18.303859 41.358330 -0.335051 1.112336 0.144917 -0.032433 -769942.000000 0 0 1
-36.174958 12.072294 19.070059 42.638422 -0.322098 1.107107 0.154131 -0.044556 -538963.000000 0 0 1
-36.327218 13.109894 20.028159 43.504750 -0.346337 1.092388 0.158535 -0.038964 288918.000000 0 0 1
-37.769278 13.090594 20.612659 44.975146 -0.333637 1.094701 0.145061 -0.052624 384723.000000 0 0 1
37.652980 11.860594 21.399759 44.904012 0.305159 1.074051 0.121732 -0.038996 1451000.000000 0 0 1
36.433630 11.872994 22.232659 44.302014 0.315028 1.045068 0.133842 -0.045087 1524780.000000 0 0 1
36.299390 10.539394 23.089929 44.292994 0.282577 1.022423 0.123137 -0.045404 -1261910.000000 0 0 1
37.241360 10.327194 24.075649 45.532479 0.270507 1.013660 0.113166 -0.031412 -651678.000000 0 0 1
36.969280 11.042894 25.303619 46.140506 0.290268 0.990342 0.102238 -0.023954 -145097.000000 0 0 1
-37.360288 11.309294 26.147909 46.983023 -0.293940 0.980581 0.096728 -0.028801 1205660.000000 0 0 1
-36.486458 12.298194 25.584339 46.228407 -0.325102 0.984316 0.119601 -0.030636 6871.390000 0 0 1
-35.623195 11.737394 24.600139 44.854713 -0.318285 0.990298 0.120762 -0.034092 -230489.000000 0 0 1
-34.517019 12.825194 24.248739 44.089813 -0.355753 0.988450 0.129348 -0.038681 739804.000000 0 0 1
-33.503158 13.105594 25.195339 43.920648 -0.372875 0.959834 0.134521 -0.043373 95977.000000 0 0 1
-34.006262 13.771094 26.372129 45.183604 -0.384773 0.947560 0.117556 -0.035958 -768466.000000 0 0 1
-32.971818 14.444194 27.285439 45.169356 -0.412895 0.922198 0.128231 -0.025021 -396522.000000 0 0 1
-32.442868 15.662194 26.746969 44.869192 -0.449763 0.932149 0.143232 -0.024602 -150798.000000 0 0 1
-31.911708 16.392094 27.821549 45.399300 -0.474524 0.911173 0.143113 -0.028306 133185.000000 0 0 1
-31.099858 17.601994 27.276309 44.955850 -0.515031 0.918849 0.129909 -0.022847 707445.000000 0 0 1
-32.005438 18.419194 26.503909 45.454064 -0.522211 0.948267 0.111684 -0.035164 591037.000000 0 0 1
-31.327468 19.478294 25.915019 45.082174 -0.556269 0.958388 0.111251 -0.034129 -384471.000000 0 0 1
-32.205968 20.332794 24.989549 45.553534 -0.563143 0.990137 0.106787 -0.023739 -751185.000000 0 0 1
-33.156358 21.001594 25.751429 46.941955 -0.564625 0.990131 0.103368 -0.036841 -445681.000000 0 0 1
-33.910208 21.763894 24.876499 47.354086 -0.570596 1.017694 0.113453 -0.033739 -546137.000000 0 0 1
-34.245424 23.155694 25.471529 48.556503 -0.594552 1.018580 0.108560 -0.030189 -352876.000000 0 0 1
-35.061212 23.875694 24.608699 49.040039 -0.597841 1.045108 0.124878 -0.034486 -191370.000000 0 0 1
-34.607312 25.222194 24.515139 49.343867 -0.629802 1.050863 0.124094 -0.036412 248315.000000 0 0 1
-35.548452 26.137994 23.705689 50.088391 -0.634012 1.077789 0.138240 -0.030111 151737.000000 0 0 1
-35.566038 25.761894 22.351959 49.277057 -0.626875 1.099998 0.152496 -0.035113 221707.000000 0 0 1
-36.714138 26.256594 21.663459 50.066377 -0.620830 1.123317 0.156490 -0.037904 559464.000000 0 0 1
-36.555318 26.146794 20.101159 49.234162 -0.620899 1.150231 0.191163 -0.050830 182253.000000 0 0 1
-36.780948 24.802094 19.589759 48.494749 -0.593282 1.154959 0.179884 -0.047777 143397.000000 0 0 1
-36.320128 24.655794 18.228559 47.532518 -0.596387 1.177217 0.186226 -0.045994 -60511.100000 0 0 1
-36.572388 23.291094 17.524559 46.766706 -0.567075 1.186698 0.184201 -0.039734 101370.000000 0 0 1
37.719410 23.165094 17.130259 47.463894 0.550754 1.201551 0.164129 -0.045979 -285740.000000 0 0 1
37.555700 22.358894 15.984559 46.538767 0.536995 1.220190 0.147554 -0.042605 -543317.000000 0 0 1
36.194860 22.463594 15.320159 45.270169 0.555450 1.225563 0.139348 -0.030074 -544600.000000 0 0 1
35.164750 21.693594 15.884559 44.266136 0.552763 1.203769 0.128144 -0.036804 -295980.000000 0 0 1
34.083540 21.731394 14.957959 43.100832 0.567603 1.216377 0.123798 -0.028062 525628.000000 0 0 1
32.833080 20.878594 15.409859 41.849618 0.566400 1.193703 0.107327 -0.039199 1044860.000000 0 0 1
32.064920 21.400194 16.509159 41.936615 0.588512 1.166176 0.116235 -0.038791 450283.000000 0 0 1
30.930510 22.173694 16.131459 41.335131 0.621970 1.169882 0.112017 -0.028445 381717.000000 0 0 1
30.210440 22.757994 17.408359 41.637098 0.645620 1.139447 0.095966 -0.022761 135264.000000 0 0 1
31.179120 23.370794 18.214259 43.012681 0.643223 1.133532 0.051554 -0.013614 -164135.000000 0 0 1
30.588740 23.839894 19.429159 43.376304 0.662033 1.106358 0.051363 -0.002937 510775.000000 0 0 1
31.553630 24.544594 20.443859 44.900111 0.661100 1.098066 0.048500 -0.002235 334570.000000 0 0 1
32.145380 25.762594 20.001859 45.794225 0.675618 1.118784 0.070981 -0.012613 107716.000000 0 0 1
33.178760 26.082294 20.914159 47.101148 0.666216 1.110709 0.084155 -0.020332 -732332.000000 0 0 1
34.168020 27.058494 20.344259 48.098904 0.669797 1.134079 0.103490 -0.026068 11305.300000 0 0 1
35.251660 27.423994 21.222559 49.448478 0.661150 1.127206 0.097942 -0.018494 640236.000000 0 0 1
34.960910 28.439994 22.161359 50.221751 0.682906 1.113783 0.065055 -0.010241 -563658.000000 0 0 1
35.868380 28.437494 23.398209 51.407275 0.670353 1.098252 0.062186 -0.016063 -32443.200000 0 0 1
37.080110 29.123494 23.142989 52.523427 0.665788 1.114505 0.099802 -0.016207 -69195.800000 0 0 1
37.781510 29.423694 24.326519 53.711970 0.661671 1.100773 0.107866 -0.018169 204117.000000 0 0 1
-36.614748 30.319994 24.254199 53.368605 -0.691631 1.099024 0.119225 -0.033004 396580.000000 0 0 1
-35.401916 29.813394 23.727519 52.010857 -0.699914 1.097072 0.124179 -0.032316 176038.000000 0 0 1
-34.364944 30.778794 23.838289 51.928293 -0.730404 1.093858 0.115673 -0.031890 -407770.000000 0 0 1
-32.975958 30.189894 23.724469 50.613179 -0.741320 1.082931 0.137010 -0.033034 -849103.000000 0 0 1
-32.388768 30.085294 22.484899 49.595644 -0.748544 1.100260 0.123370 -0.030333 115836.000000 0 0 1
-32.824578 28.925994 21.688259 48.831820 -0.722347 1.110580 0.151055 -0.030934 -155923.000000 0 0 1
-32.259698 27.595094 22.127359 47.872720 -0.707623 1.090308 0.139692 -0.022540 -932316.000000 0 0 1
-30.880738 27.484894 21.887559 46.777181 -0.727281 1.083871 0.099832 -0.027186 -130233.000000 0 0 1
-30.252058 26.522994 22.710679 46.199904 -0.719811 1.056900 0.087517 -0.032899 -283341.000000 0 0 1
-30.137788 26.805194 24.211019 47.042302 -0.726940 1.030180 0.084552 -0.023801 -282057.000000 0 0 1
-31.332918 26.861394 24.978309 48.241084 -0.708711 1.026541 0.088019 -0.026320 404732.000000 0 0 1
-30.885078 27.100494 26.314509 48.793219 -0.720223 1.001183 0.097423 -0.032672 -308402.000000 0 0 1
-32.000928 27.351794 27.309449 50.179538 -0.707227 0.995320 0.100239 -0.039109 -399044.000000 0 0 1
-32.797028 26.198694 27.557239 50.213724 -0.674017 0.989870 0.083671 -0.034454 -568571.000000 0 0 1
-33.830858 26.589394 28.400709 51.556989 -0.666116 0.987401 0.088791 -0.025540 -434769.000000 0 0 1
-34.520005 25.317694 28.956169 51.682455 -0.632806 0.976084 0.078675 -0.023571 364210.000000 0 0 1
-33.703498 24.520094 29.855059 51.268756 -0.628960 0.949211 0.077580 -0.022557 288362.000000 0 0 1
-34.269989 23.245994 30.150489 51.223631 -0.596026 0.941464 0.062227 -0.024979 122801.000000 0 0 1
-33.479908 22.568594 31.284209 51.077856 -0.593127 0.911601 0.072909 -0.028740 698443.000000 0 0 1
-32.119548 22.287994 30.939829 49.856725 -0.606625 0.901321 0.084129 -0.019838 715953.000000 0 0 1
-31.356928 21.460894 31.850052 49.580770 -0.600184 0.873187 0.094022 -0.018935 561164.000000 0 0 1
-30.486408 22.322594 32.817652 50.047153 -0.632021 0.855641 0.096304 -0.016889 -8590.540000 0 0 1
-31.260688 23.056194 33.777299 51.475476 -0.635483 0.855048 0.104211 -0.022446 331912.000000 0 0 1
-31.316818 22.354294 -32.583041 50.419363 -0.619935 2.273444 0.092905 -0.017679 119165.000000 0 0 1
-30.171778 22.621894 -31.553731 49.170359 -0.643354 2.267539 0.105723 -0.024610 377386.000000 0 0 1
-30.252448 23.924894 -30.952681 49.453813 -0.669132 2.247069 0.089816 -0.023196 238927.000000 0 0 1
-29.082338 24.177394 -30.193101 48.393720 -0.693562 2.244526 0.113746 -0.024725 157901.000000 0 0 1
-29.345448 25.392194 -29.266511 48.605015 -0.713301 2.216962 0.092912 -0.019112 58261.200000 0 0 1
-29.473828 26.633694 -30.002061 49.781361 -0.734822 2.217647 0.101657 -0.021695 -522144.000000 0 0 1
-30.616188 26.916194 -30.740191 51.056751 -0.721175 2.216899 0.072719 -0.015040 -876381.000000 0 0 1
-30.405278 28.130794 -31.686871 52.152472 -0.746562 2.223808 0.088871 -0.017265 11800.700000 0 0 1
-30.505148 29.367194 -31.083291 52.527775 -0.766394 2.204024 0.074421 -0.029008 91008.500000 0 0 1
-29.317758 30.118694 -31.277581 52.392306 -0.798873 2.210538 0.073604 -0.033492 95200.800000 0 0 1
-29.398138 31.602994 -30.757951 53.000484 -0.821527 2.189934 0.061256 -0.022486 -36480.600000 0 0 1
-29.226178 31.632494 -29.353601 52.119268 -0.824917 2.169050 0.060229 -0.022196 53546.800000 0 0 1
-29.597438 32.897094 -28.832321 52.816000 -0.838148 2.148261 0.046718 -0.020131 -141433.000000 0 0 1
-28.996658 33.167494 -27.405741 51.884135 -0.852392 2.127288 0.035343 -0.022120 456766.000000 0 0 1
-27.651348 33.599094 -27.250751 51.342961 -0.882200 2.130292 0.041327 -0.016330 210652.000000 0 0 1
-27.461728 -32.717197 -27.503411 50.803535 0.872508 2.142860 0.044324 -0.003754 -301369.000000 0 0 1
-27.874958 -31.729897 -26.379941 49.796596 0.849983 2.129107 0.050877 -0.002857 320518.000000 0 0 1
-29.275548 -31.519997 -26.284511 50.412731 0.822299 2.119271 0.050954 -0.016723 -95879.300000 0 0 1
-29.651068 -30.542297 -25.394961 49.567346 0.800203 2.108695 0.051497 -0.009058 -166969.000000 0 0 1
-31.173548 -30.358397 -25.305351 50.336698 0.772151 2.097541 0.042659 -0.009076 -155806.000000 0 0 1
-31.676518 -29.607297 -26.363731 50.744854 0.751646 2.117103 0.043755 -0.012394 283099.000000 0 0 1
-33.055108 -29.303397 -26.190711 51.354480 0.725307 2.105979 0.044078 -0.015861 214139.000000 0 0 1
-33.710238 -28.475897 -27.290691 51.884860 0.701424 2.124670 0.060005 -0.023154 -356107.000000 0 0 1
-35.094130 -28.305897 -27.116011 52.612735 0.678735 2.112258 0.063702 -0.028353 -39645.000000 0 0 1
-35.618908 -27.558397 -28.233311 53.153473 0.658498 2.130772 0.070990 -0.034667 -367715.000000 0 0 1
-37.128778 -27.645697 -28.427671 54.322769 0.640029 2.121527 0.062424 -0.033734 -520084.000000 0 0 1
37.743260 -27.130097 -27.378781 53.946209 -0.623237 2.103100 0.057623 -0.029226 -670605.000000 0 0 1
36.395850 -27.212897 -27.767111 53.256099 -0.642023 2.119274 0.056616 -0.025406 216315.000000 0 0 1
35.357780 -26.655797 -26.723241 51.718814 -0.645985 2.113791 0.053212 -0.027265 274135.000000 0 0 1
35.208950 -27.426597 -25.551581 51.427343 -0.661783 2.090759 0.055108 -0.021700 490902.000000 0 0 1
34.028070 -26.949497 -24.915741 50.049766 -0.669831 2.091879 0.068532 -0.011010 331787.000000 0 0 1
33.894770 -27.638897 -23.509141 49.653235 -0.684080 2.064018 0.066324 0.000151 173283.000000 0 0 1
33.291470 -28.944697 -23.571941 50.017535 -0.715668 2.061530 0.082824 -0.011271 256346.000000 0 0 1
32.801910 -29.456797 -22.310741 49.410903 -0.731721 2.039281 0.091283 -0.010626 311567.000000 0 0 1
33.815370 -29.635397 -21.104041 49.670077 -0.719616 2.009631 0.074247 -0.006137 -507047.000000 0 0 1
34.835220 -30.602497 -21.335941 51.041431 -0.720805 2.002052 0.063556 -0.009009 160520.000000 0 0 1
35.929850 -30.458897 -20.477041 51.361539 -0.703176 1.980878 0.042119 -0.005089 1161870.000000 0 0 1
36.907160 -29.184797 -20.734641 51.418053 -0.669083 1.985869 0.032683 -0.001180 451817.000000 0 0 1
36.167960 -28.019297 -20.321941 50.061798 -0.659122 1.988800 0.036042 0.011610 101544.000000 0 0 1
36.795010 -26.778897 -20.638741 49.969388 -0.629132 1.996572 0.023691 0.010348 -4291.290000 0 0 1
35.870890 -25.592597 -20.403741 48.559390 -0.619705 2.004441 0.031837 0.016187 770263.000000 0 0 1
34.641210 -25.562797 -21.148441 47.965890 -0.635732 2.027404 0.047956 0.011449 1269330.000000 0 0 1
33.644620 -24.743297 -20.489841 46.519080 -0.634112 2.026908 0.069643 -0.001509 209611.000000 0 0 1
32.256210 -24.731997 -21.117541 45.804861 -0.654126 2.049955 0.085554 -0.006069 -163371.000000 0 0 1
31.601020 -26.040197 -21.194041 46.107523 -0.689223 2.048415 0.104558 -0.002463 813630.000000 0 0 1
30.413540 -25.809197 -21.981241 45.544187 -0.703686 2.074458 0.106406 -0.012130 807712.000000 0 0 1
29.732240 -27.150697 -22.488741 46.118433 -0.740046 2.080170 0.104453 -0.007993 194462.000000 0 0 1
29.253140 -27.928197 -21.414241 45.763524 -0.762231 2.057746 0.107303 -0.008947 -140883.000000 0 0 1
28.889840 -29.171297 -21.857441 46.511667 -0.790246 2.060013 0.096150 -0.007415 -414554.000000 0 0 1
28.107040 -29.964397 -20.834741 46.064707 -0.817371 2.040131 0.099774 -0.005861 -252156.000000 0 0 1
28.851840 -30.529197 -19.768041 46.424519 -0.813638 2.010654 0.108720 -0.011626 193051.000000 0 0 1
29.688340 -31.646797 -20.067941 47.808363 -0.817318 2.003975 0.112570 -0.005106 218961.000000 0 0 1
30.498540 -32.210197 -18.891641 48.213606 -0.812687 1.973418 0.083389 -0.017710 -486042.000000 0 0 1
29.804940 -32.822597 -17.839041 47.790048 -0.833545 1.953338 0.092225 -0.021049 -293402.000000 0 0 1
29.295540 -31.869997 -16.925941 46.480241 -0.827463 1.943520 0.080924 -0.021775 -25729.800000 0 0 1
28.551740 -32.568797 -15.769441 46.093423 -0.851027 1.919968 0.079714 -0.019606 -776031.000000 0 0 1
27.316340 -33.132297 -16.022941 45.833025 -0.881316 1.927934 0.088656 -0.019600 -495186.000000 0 0 1
26.771540 33.823294 -14.904541 45.638535 0.901253 1.903477 0.083543 -0.006632 -615259.000000 0 0 1
25.251540 -33.835897 -14.921241 44.778919 -0.929671 1.910513 0.091983 -0.011820 -583281.000000 0 0 1
24.761840 -32.602697 -14.413841 43.403264 -0.921241 1.909316 0.088320 -0.003797 -228746.000000 0 0 1
23.374040 -32.709897 -14.228741 42.646690 -0.950348 1.910961 0.101041 -0.007705 -187851.000000 0 0 1
-0.624708 -7.423306 -28.830741 29.777632 1.486839 2.888734 0.145997 -0.044618 79300.300000 0 0 1
0.082892 -8.621106 -28.556731 29.829805 -1.561182 2.848386 0.150116 -0.039426 -45794.000000 0 0 1
-0.275408 -9.505206 -29.578521 31.069498 1.541830 2.830539 0.151011 -0.052839 -7554.440000 0 0 1
0.180192 -10.974106 -29.409611 31.390902 -1.554378 2.784403 0.175051 -0.044535 1011190.000000 0 0 1
1.607592 -11.153806 -29.488541 31.568431 -1.427653 2.776568 0.098548 -0.046656 918174.000000 0 0 1
2.060892 -12.305706 -28.771791 31.360702 -1.404862 2.732412 0.118357 -0.047228 -887721.000000 0 0 1
3.532492 -12.355706 -28.447031 31.214989 -1.292325 2.717290 0.084619 -0.036282 -1106900.000000 0 0 1
4.283592 -12.456606 -29.667591 32.460471 -1.239583 2.723735 0.100549 -0.040229 485249.000000 0 0 1
5.657192 -12.753906 -29.420511 32.561210 -1.153306 2.698768 0.100065 -0.043211 544272.000000 0 0 1
6.049192 -14.286106 -29.106821 32.983217 -1.170255 2.651892 0.105015 -0.041935 -882430.000000 0 0 1
5.419092 -14.793906 -27.951111 32.085680 -1.219670 2.628315 0.086293 -0.038442 -89731.500000 0 0 1
6.121392 -15.830306 -27.337761 32.177993 -1.201818 2.585984 0.094248 -0.026977 -364882.000000 0 0 1
5.999892 -17.291906 -27.879001 33.350374 -1.236817 2.560645 0.063910 -0.033491 -71917.400000 0 0 1
6.500592 -17.499906 -29.193341 34.651920 -1.215129 2.572655 0.092001 -0.047762 186525.000000 0 0 1
6.341892 -18.847306 -29.590121 35.651309 -1.246209 2.549881 0.085266 -0.043424 -377266.000000 0 0 1
6.753192 -19.260306 -31.013001 37.126422 -1.233563 2.559538 0.101112 -0.054476 173074.000000 0 0 1
8.121992 -19.090306 -31.345891 37.589512 -1.168544 2.556933 0.107374 -0.047210 282137.000000 0 0 1
8.455692 -19.695706 -32.601501 39.016374 -1.165275 2.559993 0.109468 -0.040335 602289.000000 0 0 1
9.978092 -19.536806 -32.918071 39.558166 -1.098599 2.553758 0.091266 -0.037094 500944.000000 0 0 1
10.281392 -18.224706 -33.371821 39.389407 -1.057158 2.581542 0.107024 -0.047519 -306221.000000 0 0 1
11.497892 -18.139806 33.536739 39.824201 -1.005859 0.569595 0.094214 -0.037918 -665119.000000 0 0 1
11.602192 -16.670306 33.044764 38.787452 -0.962774 0.551108 0.102647 -0.036794 -297280.000000 0 0 1
10.616392 -16.401206 32.094749 37.573664 -0.996326 0.546821 0.123732 -0.035540 -152126.000000 0 0 1
10.584792 -15.009606 31.885801 36.797152 -0.956588 0.522591 0.118561 -0.028571 16432.700000 0 0 1
9.358792 -14.553806 31.073869 35.566636 -0.999324 0.508080 0.164389 -0.037411 23130.800000 0 0 1
9.560392 -15.038506 29.750829 34.679527 -1.004520 0.539669 0.161015 -0.037838 181169.000000 0 0 1
8.333892 -15.013106 29.056079 33.750598 -1.064040 0.533749 0.169238 -0.031803 -84374.900000 0 0 1
8.368092 -15.849606 27.744939 33.030541 -1.085025 0.573553 0.121162 -0.020545 -277886.000000 0 0 1
8.202292 -17.253506 27.910249 33.822228 -1.127023 0.600232 0.110718 -0.023629 211103.000000 0 0 1
8.247992 -17.946006 26.632859 33.157167 -1.139987 0.638097 0.093412 -0.016395 -31018.000000 0 0 1
7.993592 -19.442006 26.875209 34.119877 -1.180715 0.663778 0.097807 -0.021095 -43343.100000 0 0 1
8.858292 -20.005906 27.845079 35.412626 -1.153960 0.665993 0.108854 -0.015679 178962.000000 0 0 1
8.273392 -21.087506 28.533569 36.432081 -1.196914 0.671002 0.093142 -0.018726 -175833.000000 0 0 1
8.663592 -21.220706 30.029879 37.777901 -1.183189 0.651944 0.115725 -0.028854 -67375.400000 0 0 1
8.115492 -20.253706 30.945959 37.864577 -1.189694 0.614122 0.122099 -0.030721 274348.000000 0 0 1
8.214292 -18.866306 30.727739 36.981158 -1.160154 0.590069 0.122221 -0.031288 -65791.900000 0 0 1
7.587292 -18.023406 31.884326 37.403481 -1.172345 0.550156 0.120146 -0.030628 270497.000000 0 0 1
6.178292 -18.084206 31.999733 37.271876 -1.241588 0.538363 0.148833 -0.041213 -105487.000000 0 0 1
5.787592 -17.270406 33.077726 37.761079 -1.247442 0.503345 0.155463 -0.042104 -705277.000000 0 0 1
4.366192 -17.337806 33.588459 38.050595 -1.324095 0.489152 0.156836 -0.047675 -727028.000000 0 0 1
4.007992 -18.560106 -33.386851 38.408637 -1.358116 2.624487 0.133732 -0.048677 25496.600000 0 0 1
2.965492 -18.339506 -32.462771 37.402716 -1.410484 2.621807 0.130455 -0.062175 -251919.000000 0 0 1
2.481692 -19.541606 -31.671121 37.297360 -1.444477 2.585174 0.093362 -0.036583 -887905.000000 0 0 1
1.419592 -20.246206 -32.242871 38.098909 -1.500794 2.579786 0.091903 -0.033497 -195136.000000 0 0 1
0.761592 -21.118106 -31.329631 37.790213 -1.534749 2.548187 0.103412 -0.037307 -48904.600000 0 0 1
-0.143708 -20.536506 -30.274551 36.583018 1.563799 2.545539 0.116336 -0.043418 -884195.000000 0 0 1
-1.408108 -20.112906 -30.756391 36.775908 1.500900 2.561331 0.138747 -0.055752 141577.000000 0 0 1
-2.057708 -19.168406 -29.853751 35.537423 1.463857 2.568200 0.184597 -0.042726 229987.000000 0 0 1
-1.540608 -17.694206 -29.776401 34.671205 1.483947 2.603762 0.171382 -0.043084 -22810.800000 0 0 1
-2.497608 -16.751606 -29.348031 33.884529 1.422790 2.618181 0.200863 -0.048895 54113.000000 0 0 1
-1.918308 -15.460706 -29.516031 33.375282 1.447351 2.655935 0.195201 -0.048880 792063.000000 0 0 1
-2.912708 -14.303406 -29.114881 32.569121 1.369906 2.676860 0.187753 -0.029874 657665.000000 0 0 1
-3.176908 -14.089506 -27.694321 31.234314 1.349025 2.660875 0.181171 -0.034762 71744.300000 0 0 1
-4.230008 -13.156106 -27.566131 30.836143 1.259711 2.676891 0.164774 -0.034398 133320.000000 0 0 1
-4.565808 -12.903306 -26.035331 29.413949 1.230698 2.657582 0.173144 -0.031316 -147393.000000 0 0 1
-5.174608 -14.009806 -25.377411 29.445955 1.216983 2.609663 0.183164 -0.027488 235240.000000 0 0 1
-5.094708 -13.985006 -23.989041 28.231375 1.221441 2.586269 0.160385 -0.021823 7749.440000 0 0 1
-6.147408 -13.068406 -23.314841 27.425457 1.131106 2.587003 0.131177 -0.021155 607406.000000 0 0 1
-7.524308 -13.383706 -23.594241 28.150081 1.058635 2.564695 0.111606 -0.024581 412599.000000 0 0 1
-8.227208 -12.194806 -23.258941 27.520513 0.977288 2.577641 0.077111 -0.026586 -14434.400000 0 0 1
-9.730608 -12.438106 -23.546341 28.351745 0.906928 2.550815 0.090094 -0.036911 -232978.000000 0 0 1
-10.450508 -13.135406 -22.600441 28.151944 0.898745 2.502776 0.083043 -0.035571 -1287450.000000 0 0 1
-11.475908 -13.781706 -23.235541 29.351700 0.876437 2.484260 0.070888 -0.035079 -834283.000000 0 0 1
-12.207008 -14.707706 -22.251641 29.333653 0.878044 2.431913 0.066522 -0.033181 547918.000000 0 0 1
-11.350908 -15.811906 -21.872941 29.279431 0.948177 2.414396 0.085543 -0.038892 500801.000000 0 0 1
-12.149708 -16.962906 -21.626741 30.051149 0.949246 2.374115 0.089341 -0.038960 322416.000000 0 0 1
-12.742808 -17.722906 -22.816641 31.576569 0.947431 2.378326 0.090954 -0.034124 57449.700000 0 0 1
-13.955208 -17.189506 -23.306841 32.147097 0.888875 2.381840 0.055412 -0.023886 -153381.000000 0 0 1
-14.736908 -18.080006 -24.067041 33.515453 0.886919 2.371847 0.023032 -0.021908 812811.000000 0 0 1
-16.021108 -17.493106 -24.757841 34.287540 0.829292 2.377579 0.030708 -0.021598 95999.700000 0 0 1
-17.057208 -17.199406 -23.889041 34.021379 0.789549 2.349247 0.042208 -0.015594 -672543.000000 0 0 1
-18.230408 -16.973706 -24.632641 35.031722 0.749716 2.350618 0.048906 -0.017375 180714.000000 0 0 1
-18.981708 -15.607806 -24.373241 34.611613 0.688165 2.352082 0.057911 -0.018323 352934.000000 0 0 1
-19.670208 -15.605906 -23.124041 34.134773 0.670690 2.315064 0.054777 -0.006690 288645.000000 0 0 1
-20.516708 -14.480206 -22.934941 34.009164 0.614592 2.310915 0.057678 -0.018054 573910.000000 0 0 1
-21.160208 -14.582406 -21.489941 33.499531 0.603402 2.267248 0.058653 -0.021876 602192.000000 0 0 1
-20.146308 -14.224306 -20.531841 32.089892 0.614775 2.265064 0.065349 -0.015205 758457.000000 0 0 1
-20.518708 -14.293606 -19.165841 31.506413 0.608449 2.224733 0.070892 -0.020256 -151847.000000 0 0 1
-21.211708 -13.009206 -18.582741 31.056309 0.550144 2.212245 0.070873 -0.025286 1210260.000000 0 0 1
-22.596708 -12.881606 -18.995941 32.208583 0.518118 2.201581 0.076537 -0.031451 1237300.000000 0 0 1
-23.148708 -11.699206 -18.423741 31.814594 0.467953 2.188417 0.088235 -0.033284 309178.000000 0 0 1
-24.635508 -11.331106 -18.661141 32.917175 0.431098 2.173549 0.104963 -0.038386 257267.000000 0 0 1
-24.786208 -10.671206 -19.886541 33.521714 0.406545 2.205878 0.094151 -0.040886 -696.993000 0 0 1
-26.166078 -10.563206 -20.148241 34.672707 0.383691 2.190874 0.105996 -0.046990 26276.800000 0 0 1
-26.650368 -9.549006 -21.240741 35.392015 0.344056 2.214493 0.108555 -0.034345 82030.100000 0 0 1
-26.349518 -10.021906 -22.554841 36.103415 0.363448 2.245580 0.096351 -0.034144 370565.000000 0 0 1
-27.362298 -9.542606 -23.414041 37.255524 0.335561 2.250383 0.095704 -0.027555 -165701.000000 0 0 1
-27.250828 -10.025906 -24.918141 38.262778 0.352542 2.280010 0.083591 -0.025058 974960.000000 0 0 1
-26.062998 -9.609406 -25.623801 37.791530 0.353235 2.315876 0.061163 -0.024033 731988.000000 0 0 1
-24.888408 -10.390606 -25.523861 37.133072 0.395491 2.328647 0.049568 -0.010503 -14541.000000 0 0 1
-23.989308 -10.085306 -26.738001 37.311138 0.397975 2.369744 0.048896 -0.013914 -349742.000000 0 0 1
-24.521208 -10.341106 -28.011551 38.637743 0.399090 2.381800 0.056126 -0.004797 535611.000000 0 0 1
-23.475208 -10.245506 -29.008831 38.698425 0.411520 2.418273 0.052003 -0.000367 681950.000000 0 0 1
-23.977908 -10.593306 -30.416661 40.153848 0.416009 2.430276 0.048582 -0.005052 104390.000000 0 0 1
-24.973138 -9.714406 -30.910951 40.908608 0.370983 2.427381 0.047442 -0.011960 -43446.200000 0 0 1
-24.603408 -8.895706 -31.976091 41.315030 0.346939 2.455864 0.046768 -0.015358 -736838.000000 0 0 1
-25.699428 -7.862506 -32.475291 42.153578 0.296898 2.450271 0.052481 -0.019341 160760.000000 0 0 1
-26.642548 -8.541106 -33.317441 43.506641 0.310230 2.443083 0.079259 -0.022452 1279140.000000 0 0 1
-27.661458 -9.379306 -32.714451 43.856163 0.326909 2.412755 0.075561 -0.024446 -50901.600000 0 0 1
-28.728228 -8.613406 -31.878481 43.769161 0.291295 2.386681 0.086665 -0.019030 -268832.000000 0 0 1
-30.041358 -8.777406 -32.413111 45.057029 0.284265 2.373705 0.088406 -0.017462 250678.000000 0 0 1
-30.982788 -8.093306 -31.629051 45.009240 0.255510 2.350015 0.093392 -0.010701 -262467.000000 0 0 1
-32.429618 -8.519506 -31.885311 46.270241 0.256903 2.331057 0.081433 -0.007967 -272226.000000 0 0 1
-32.689778 -9.832306 -31.327621 46.332664 0.292169 2.313315 0.074071 -0.015499 -7674.380000 0 0 1
-34.031921 -10.214306 -31.470541 47.464710 0.291584 2.295656 0.058768 -0.015690 -380516.000000 0 0 1
-34.145677 -11.706006 -31.231371 47.732132 0.330269 2.284060 0.054830 -0.022285 314463.000000 0 0 1
-35.453440 -12.287906 -31.254691 48.834361 0.333636 2.265313 0.064696 -0.019596 362282.000000 0 0 1
-35.355663 -13.685306 -31.172141 49.081697 0.369315 2.258944 0.064171 -0.022660 -215081.000000 0 0 1
-36.695388 -14.413306 -31.044031 50.179944 0.374269 2.237825 0.062822 -0.035860 59632.000000 0 0 1
-37.309048 -14.187606 -29.743651 49.778892 0.363385 2.211195 0.086065 -0.040987 23488.200000 0 0 1
37.701470 -15.358806 -29.314701 50.166178 -0.386852 2.194877 0.082835 -0.038172 -112508.000000 0 0 1
37.566730 -15.310306 -27.767391 49.159869 -0.386998 2.171034 0.092031 -0.026675 -532117.000000 0 0 1
-36.822418 -15.179406 -27.173311 48.215078 0.391007 2.169516 0.106587 -0.041565 -500726.000000 0 0 1
-36.832538 -15.462506 -25.817221 47.563157 0.397463 2.144562 0.106110 -0.041113 558868.000000 0 0 1
-35.464493 -15.215306 -25.067341 46.017469 0.405279 2.146870 0.147149 -0.044970 608463.000000 0 0 1
-34.447160 -16.121406 -25.399081 45.734232 0.437725 2.159595 0.139966 -0.046833 -602002.000000 0 0 1
-33.312218 -15.835806 -24.637541 44.356342 0.443755 2.159695 0.144947 -0.028681 -88444.400000 0 0 1
-32.030068 -16.596006 -25.066741 43.928285 0.478053 2.178068 0.135462 -0.040532 243311.000000 0 0 1
-31.689428 -17.812606 -24.437141 43.802770 0.512085 2.162638 0.150775 -0.047527 114915.000000 0 0 1
-32.458098 -18.908906 -24.898041 45.066477 0.527500 2.156125 0.134712 -0.050135 -29139.700000 0 0 1
-32.292488 -20.170806 -24.047741 45.032878 0.558332 2.134126 0.134683 -0.048831 -525133.000000 0 0 1
-31.040758 -20.729106 -24.267141 44.520991 0.588789 2.147271 0.118405 -0.038532 -536846.000000 0 0 1
-30.922488 -21.880806 -23.529541 44.593826 0.615810 2.126618 0.111312 -0.030381 96384.100000 0 0 1
-29.559978 -22.607806 -23.809741 44.179283 0.652913 2.139968 0.098474 -0.033928 1919220.000000 0 0 1
-28.293278 -22.013506 -23.386541 42.802271 0.661211 2.148839 0.098461 -0.029641 1248200.000000 0 0 1
-28.096898 -21.650206 -22.013641 41.746467 0.656527 2.126237 0.120135 -0.025599 -576641.000000 0 0 1
-27.939108 -22.823206 -21.050141 41.768421 0.684956 2.098988 0.091978 -0.026695 -127972.000000 0 0 1
-27.711838 -22.418706 -19.686841 40.719972 0.680201 2.075410 0.099685 -0.027107 63072.900000 0 0 1
-27.736248 -23.492306 -18.785241 40.915440 0.702744 2.047805 0.091801 0.008382 -22746.300000 0 0 1
-27.843448 -23.041106 -17.263241 40.052087 0.691300 2.016419 0.092475 0.008651 -128351.000000 0 0 1
-29.091958 -22.494306 -16.924441 40.481756 0.658193 2.002122 0.102481 -0.002735 -243384.000000 0 0 1
-28.943488 -21.282006 -16.193741 39.406682 0.634023 1.994280 0.097998 -0.018810 1359090.000000 0 0 1
-30.305368 -20.582706 -15.688441 39.852106 0.596614 1.975413 0.112401 -0.001289 1373390.000000 0 0 1
-31.217578 -20.272406 -16.716141 40.803640 0.575947 1.992892 0.124038 -0.006576 165552.000000 0 0 1
-32.276118 -19.472306 -16.222141 41.037500 0.542845 1.977191 0.137536 -0.009156 -340158.000000 0 0 1
-33.169058 -18.838306 -17.251541 41.865068 0.516519 1.995526 0.163600 -0.046861 -79930.800000 0 0 1
-34.265336 -19.679206 -17.648541 43.276500 0.521322 1.990849 0.109468 -0.032611 632665.000000 0 0 1
-35.061338 -19.001806 -18.643441 44.022085 0.496649 2.008104 0.109119 -0.031953 89484.200000 0 0 1
-36.402638 -19.693206 -18.926941 45.510478 0.495894 1.999708 0.073599 -0.016386 319330.000000 0 0 1
-37.367208 -19.627706 -17.847341 45.826659 0.483655 1.970834 0.065876 -0.005544 508662.000000 0 0 1
-37.220658 -20.525606 -16.732341 45.679855 0.503961 1.945821 0.095392 -0.019488 -703653.000000 0 0 1
-37.681978 -21.974306 -16.982841 46.810453 0.527939 1.942067 0.076500 0.017677 -785575.000000 0 0 1
36.597060 -22.148406 -16.782941 45.951755 -0.544232 1.944676 0.067116 -0.005400 -615020.000000 0 0 1
36.312860 -23.556906 -16.886141 46.461741 -0.575475 1.942756 0.074617 -0.003583 146331.000000 0 0 1
34.931300 -23.913206 -16.276241 45.353646 -0.600301 1.937858 0.056847 -0.010707 63137.300000 0 0 1
33.848270 -23.797606 -17.171441 44.798324 -0.612781 1.964169 0.061124 -0.008925 -108272.000000 0 0 1
32.656470 -23.683506 -16.429241 43.557703 -0.627460 1.957549 0.079511 -0.016337 -98184.500000 0 0 1
31.360150 -23.875306 -17.241641 43.020500 -0.650711 1.983161 0.084955 -0.031677 -30015.100000 0 0 1
31.054390 -22.733306 -18.023041 42.497157 -0.631913 2.008764 0.061589 -0.039371 -11077.100000 0 0 1
29.851840 -22.942906 -18.708341 42.041781 -0.655274 2.031964 0.096125 -0.043325 -434669.000000 0 0 1
35.814460 29.837394 -17.989441 49.965644 0.694607 1.939103 0.065490 -0.012277 -216406.000000 0 0 1
34.815170 29.786094 -18.947241 49.581300 0.707707 1.962913 0.049368 -0.012644 -590003.000000 0 0 1
35.373800 29.400094 -20.163841 50.222024 0.693434 1.983944 0.056617 -0.001858 -71253.000000 0 0 1
34.429310 29.451094 -21.400041 50.106946 0.707625 2.012065 0.081838 -0.006285 -1464380.000000 0 0 1
33.318020 28.627494 -21.308841 48.823053 0.709822 2.022446 0.066759 -0.014995 -283688.000000 0 0 1
32.498330 28.644994 -22.467241 48.800144 0.722460 2.049234 0.094308 -0.007338 904800.000000 0 0 1
31.484300 29.868794 -22.518441 48.892598 0.759073 2.049433 0.086310 -0.008984 -218167.000000 0 0 1
32.238730 31.069594 -22.459241 50.090646 0.766933 2.035739 0.091536 -0.019469 -122300.000000 0 0 1
31.449470 32.177194 -22.749741 50.418168 0.796835 2.038930 0.078031 -0.016735 -510555.000000 0 0 1
32.152730 33.478294 -22.297341 51.495297 0.805593 2.018612 0.071390 -0.010935 168086.000000 0 0 1
32.229250 33.562994 -20.886841 51.004502 0.805667 1.992713 0.080620 -0.015102 -43034.700000 0 0 1
33.398600 32.947894 -20.402541 51.159494 0.778605 1.981007 0.079487 -0.013199 -756994.000000 0 0 1
33.552100 33.170794 -18.856341 50.809512 0.779683 1.951009 0.067617 -0.015710 -199769.000000 0 0 1
33.859350 -33.153697 -18.604141 50.909108 -0.774868 1.944900 0.070619 -0.017698 232081.000000 0 0 1
33.900200 -32.908597 -17.212741 50.283971 -0.770557 1.920171 0.061144 -0.037044 -684763.000000 0 0 1
34.083710 -31.365097 -16.857041 49.291261 -0.743884 1.919828 0.065950 -0.004211 14123.800000 0 0 1
35.358990 -30.781397 -17.004341 49.868830 -0.716298 1.918757 0.076712 -0.014593 450638.000000 0 0 1
36.322730 -31.276597 -16.033941 50.543580 -0.710889 1.893604 0.083830 -0.019620 386111.000000 0 0 1
37.753030 -30.707897 -16.198941 51.290076 -0.682852 1.892128 0.073206 -0.008625 -11730.500000 0 0 1
-37.242638 -31.209397 -17.326341 51.587234 0.697487 1.913320 0.072690 -0.012192 -439523.000000 0 0 1
-35.937178 -30.670797 -17.447241 50.364519 0.706497 1.924548 0.064754 0.000768 445163.000000 0 0 1
-35.162184 -31.377997 -18.601341 50.665252 0.728589 1.946731 0.073186 -0.007730 -796617.000000 0 0 1
-34.785094 -32.703697 -18.305141 51.133284 0.754567 1.936909 0.070246 -0.015322 867384.000000 0 0 1
-33.800818 -33.297497 -19.220041 51.192076 0.777897 1.955678 0.085028 -0.009754 1305840.000000 0 0 1
-32.436048 -32.606397 -19.456841 49.938392 0.788017 1.971012 0.075530 -0.014475 -1368330.000000 0 0 1
-32.572018 -31.514697 -20.341341 49.677788 0.768901 1.992664 0.074947 -0.011231 792664.000000 0 0 1
-31.363628 -30.803597 -20.742741 48.608642 0.776390 2.011670 0.093741 -0.014492 990637.000000 0 0 1
-30.244188 -31.673097 -21.397341 48.741586 0.808472 2.025277 0.089556 -0.011308 -435025.000000 0 0 1
-30.600478 -32.296997 -22.593641 49.899478 0.812364 2.040681 0.082877 -0.002171 -328241.000000 0 0 1
-29.695918 -33.286297 -23.035441 50.204150 0.842343 2.047480 0.078946 -0.011147 97464.500000 0 0 1
-30.327498 33.449194 -24.119141 51.189244 -0.834306 2.061420 0.075790 -0.020934 15349.200000 0 0 1
-31.466648 32.760894 -23.606741 51.192815 -0.805546 2.050069 0.086398 -0.033664 126332.000000 0 0 1
-31.985008 31.914594 -24.651641 51.471210 -0.784296 2.070244 0.069576 -0.026994 1012470.000000 0 0 1
-33.029018 32.605494 -25.658091 53.031801 -0.778945 2.075816 0.076320 -0.036270 365656.000000 0 0 1
-32.444968 33.361794 -26.668861 53.636866 -0.799329 2.091178 0.064633 -0.029378 -102450.000000 0 0 1
-33.374818 -33.376897 -27.142591 54.448287 0.785429 2.092666 0.064618 -0.033265 461083.000000 0 0 1
-32.731448 -32.583597 -28.314651 54.173406 0.783134 2.120773 0.062933 -0.033132 273951.000000 0 0 1
-32.381578 -33.314497 -29.517491 55.042753 0.799598 2.136802 0.067388 -0.033584 -354833.000000 0 0 1
-33.479478 -33.563397 -30.321781 56.274217 0.786650 2.139834 0.086419 -0.032627 -436802.000000 0 0 1
-33.055838 33.314894 -31.602161 56.579742 -0.789301 2.163423 0.105441 -0.029138 175201.000000 0 0 1
-32.562258 -33.533697 -32.655071 57.018972 0.800094 2.180599 0.088417 -0.038617 -35879.200000 0 0 1
-32.678798 33.440194 33.737009 57.657057 -0.796913 0.945753 0.089850 -0.048019 -835467.000000 0 0 1
-31.856508 -33.790597 32.551733 56.712052 0.814852 0.959435 0.091910 -0.045299 531766.000000 0 0 1
-30.493528 33.430094 32.591686 55.764186 -0.831305 0.946587 0.096136 -0.043433 684767.000000 0 0 1
-30.253448 32.077894 32.307800 54.663117 -0.814660 0.938455 0.099990 -0.051228 -11441.500000 0 0 1
-28.740528 31.690694 32.279648 53.593784 -0.834178 0.924414 0.093100 -0.043790 694960.000000 0 0 1
-28.153388 31.467394 33.574049 53.944665 -0.840926 0.899017 0.095750 -0.048513 -360408.000000 0 0 1
-26.785188 31.250694 33.721299 53.208817 -0.862191 0.884400 0.086656 -0.047219 -665608.000000 0 0 1
-26.334328 29.761294 33.560909 52.015056 -0.846414 0.869491 0.100815 -0.049969 -233870.000000 0 0 1
-26.543658 28.987994 -32.829161 51.211555 -0.829387 2.266662 0.101127 -0.046072 150467.000000 0 0 1
-26.247118 27.628694 -32.981831 50.398979 -0.811036 2.284205 0.097631 -0.041088 -210722.000000 0 0 1
-26.426818 26.724894 -31.708431 49.173380 -0.791006 2.271596 0.118814 -0.033446 113403.000000 0 0 1
-25.334188 26.650494 -30.794451 47.962153 -0.810714 2.267975 0.111773 -0.034646 87857.800000 0 0 1
-25.151028 27.688394 -29.919571 47.899918 -0.833382 2.245450 0.100755 -0.040008 -107559.000000 0 0 1
-23.736308 27.658794 -29.308921 46.770012 -0.861571 2.248057 0.111733 -0.039515 -863496.000000 0 0 1
-22.723808 27.818894 -30.260801 46.967844 -0.885866 2.270888 0.105172 -0.026991 -135804.000000 0 0 1
-21.400008 27.858994 -29.755391 46.037671 -0.915777 2.273557 0.076973 -0.031087 501231.000000 0 0 1
-20.985008 28.995394 -28.801071 45.941323 -0.944317 2.248377 0.067749 -0.023406 -870820.000000 0 0 1
-20.760108 30.233994 -29.465531 47.045659 -0.969088 2.247617 0.068669 -0.015371 9328.090000 0 0 1
-20.497108 31.297194 -28.540451 47.055320 -0.990971 2.222485 0.082947 -0.020602 85651.100000 0 0 1
-19.979208 32.529294 -29.319721 48.134912 -1.020007 2.225741 0.087551 -0.014119 484234.000000 0 0 1
-18.716508 32.449794 -29.976081 47.977726 -1.047623 2.245661 0.081131 -0.015038 149602.000000 0 0 1
-18.386608 33.543794 -30.787571 49.103238 -1.069384 2.248488 0.084146 -0.005899 253285.000000 0 0 1
-16.865608 33.472194 -31.084481 48.693752 -1.104058 2.263171 0.071252 -0.000850 -433005.000000 0 0 1
-16.096608 -33.650797 -30.092261 47.927248 1.124624 2.249615 0.079267 -0.010734 900952.000000 0 0 1
-14.676108 -33.493197 -30.382161 47.542172 1.157814 2.264068 0.099597 -0.011772 1665590.000000 0 0 1
-13.807808 32.946294 -30.243461 46.805777 -1.173933 2.273323 0.106235 -0.017671 -766078.000000 0 0 1
-13.698308 32.499794 -28.924581 45.612626 -1.171903 2.257686 0.105357 -0.025318 -320826.000000 0 0 1
-13.150308 31.253794 -28.988631 44.610211 -1.172523 2.278145 0.099198 -0.022046 -466747.000000 0 0 1
-13.027608 30.604394 -27.604911 43.224745 -1.168352 2.263522 0.074084 -0.030445 506371.000000 0 0 1
-11.959108 31.311294 -26.945371 43.005469 -1.205953 2.247924 0.076937 -0.027406 371007.000000 0 0 1
-11.772208 30.853594 -25.605461 41.787184 -1.206295 2.230343 0.050992 -0.028092 -279987.000000 0 0 1
-10.422208 31.248094 -24.994741 41.349763 -1.248868 2.219898 0.063885 -0.030773 -276677.000000 0 0 1
-9.396708 30.398294 -25.482311 40.763986 -1.270994 2.246079 0.081521 -0.022934 46796.300000 0 0 1
-8.155708 30.956694 -25.020641 40.630837 -1.313194 2.234203 0.097180 -0.027514 398270.000000 0 0 1
-6.943808 30.082394 -25.386571 39.970550 -1.343943 2.258976 0.084040 -0.030932 -337878.000000 0 0 1
-6.845908 28.776594 -24.786041 38.591536 -1.337239 2.268248 0.093363 -0.043365 110522.000000 0 0 1
-5.594508 28.209894 -25.170331 38.218349 -1.375019 2.289744 0.097877 -0.049654 284650.000000 0 0 1
-5.248908 26.867994 -24.409341 36.677732 -1.377867 2.298971 0.107432 -0.044914 -20736.800000 0 0 1
-6.009108 25.730394 -24.797841 36.236659 -1.341367 2.324481 0.113193 -0.040174 43328.300000 0 0 1
-5.537108 24.601094 -24.149341 34.915098 -1.349410 2.334580 0.116841 -0.050411 34242.800000 0 0 1
-6.501108 23.354994 -24.102641 34.185632 -1.299309 2.353293 0.110865 -0.045857 334460.000000 0 0 1
-6.414608 22.633494 -25.281441 34.533657 -1.294626 2.392168 0.122421 -0.052373 284947.000000 0 0 1
-7.384608 21.591894 -25.263781 34.044103 -1.241259 2.406979 0.109337 -0.049109 -176853.000000 0 0 1
-7.246008 20.769494 -26.581481 34.502922 -1.235122 2.450284 0.090916 -0.039510 662501.000000 0 0 1
-6.127708 19.877894 -26.798081 33.923688 -1.271772 2.481527 0.119593 -0.052315 66420.500000 0 0 1
-5.903608 18.917594 -25.770251 32.508980 -1.268303 2.486041 0.112665 -0.044869 337661.000000 0 0 1
-4.560308 18.141194 -26.059041 32.077608 -1.324521 2.519009 0.121062 -0.056526 759625.000000 0 0 1
-4.579708 17.663094 -27.369771 32.894726 -1.317102 2.553574 0.123441 -0.059824 199429.000000 0 0 1
-3.571308 16.642394 -27.457251 32.305172 -1.359411 2.586656 0.123496 -0.060345 241588.000000 0 0 1
-3.165808 16.440394 -28.915441 33.412746 -1.380562 2.616747 0.118245 -0.050678 -203040.000000 0 0 1
-2.432108 17.501294 -29.445881 34.340506 -1.432713 2.601124 0.133929 -0.058919 -110485.000000 0 0 1
-2.226908 17.354694 -30.883731 35.495765 -1.443176 2.626137 0.122595 -0.058580 -68392.700000 0 0 1
-1.458608 18.552594 -31.466291 36.557540 -1.492338 2.607505 0.142238 -0.042696 -229024.000000 0 0 1
-0.066008 18.454994 -31.243611 36.287110 -1.567220 2.608051 0.167249 -0.051280 -372155.000000 0 0 1
0.542992 19.656394 -31.694621 37.299030 1.543179 2.586296 0.170106 -0.033993 155453.000000 0 0 1
0.607392 20.885594 -30.760911 37.186161 1.541723 2.544927 0.157991 -0.038526 -105356.000000 0 0 1
1.609792 20.942494 -29.766591 36.431160 1.494080 2.527097 0.193559 -0.059861 -342054.000000 0 0 1
1.481292 22.051294 -28.892891 36.376544 1.503722 2.488606 0.193438 -0.068546 -574742.000000 0 0 1
2.639692 22.159694 -27.951961 35.767753 1.452234 2.467839 0.200876 -0.067051 -1443040.000000 0 0 1
3.857692 22.369594 -28.545611 36.470980 1.400024 2.469779 0.178228 -0.064572 -1028520.000000 0 0 1
4.938992 22.649994 -27.680821 36.106007 1.356100 2.444410 0.146846 -0.066145 105647.000000 0 0 1
5.279592 24.089594 -27.460361 36.908726 1.355043 2.409844 0.147696 -0.061939 -612608.000000 0 0 1
6.052192 24.734994 -28.461171 38.190145 1.330830 2.411705 0.133562 -0.063957 222530.000000 0 0 1
6.402592 26.063494 -28.050371 38.821672 1.329913 2.378272 0.125995 -0.066796 -317417.000000 0 0 1
7.300392 26.791494 -29.059621 40.193798 1.304766 2.378913 0.132774 -0.058520 -610615.000000 0 0 1
8.619692 26.328494 -29.019711 40.120223 1.254404 2.379393 0.116232 -0.051743 -836872.000000 0 0 1
9.367092 27.075194 -29.921641 41.425996 1.237720 2.377906 0.125952 -0.049154 -974810.000000 0 0 1
10.803792 27.177094 -29.451481 41.505494 1.192418 2.359699 0.124841 -0.048017 -557909.000000 0 0 1
11.650592 28.006794 -30.239431 42.831530 1.176581 2.354643 0.131906 -0.042392 244766.000000 0 0 1
12.984292 28.070494 -29.770851 42.928406 1.137547 2.337132 0.131234 -0.046407 142869.000000 0 0 1
13.890792 28.918194 -30.675111 44.386692 1.122994 2.333790 0.141240 -0.044212 -142912.000000 0 0 1
13.600792 30.300594 -30.610161 45.167350 1.148889 2.315434 0.150270 -0.044156 633013.000000 0 0 1
14.548292 30.980994 -31.426381 46.466033 1.131773 2.313565 0.182781 -0.051461 282059.000000 0 0 1
14.164092 32.465494 -31.415801 47.345352 1.159409 2.296344 0.182794 -0.054508 404941.000000 0 0 1
12.941592 32.532294 -32.142151 47.528442 1.192181 2.313486 0.174100 -0.058194 909648.000000 0 0 1
12.084792 33.637594 -31.720991 47.788609 1.225892 2.296654 0.172261 -0.053119 -25940.100000 0 0 1
10.754992 33.682094 -32.444761 47.987663 1.261720 2.313261 0.136879 -0.048266 -584155.000000 0 0 1
10.848892 -33.176097 -33.594411 48.445189 -1.254748 2.337065 0.115302 -0.035258 691787.000000 0 0 1
9.558292 -33.156197 33.379568 48.009269 -1.290126 0.801996 0.118826 -0.040258 518164.000000 0 0 1
9.645592 -32.341497 32.081619 46.564365 -1.280953 0.810724 0.115156 -0.028006 33981.500000 0 0 1
9.700692 -30.950897 32.273446 45.756276 -1.267072 0.787902 0.093017 -0.035800 -21215.500000 0 0 1
10.051392 -30.361297 31.076979 44.593917 -1.251094 0.799747 0.120735 -0.031821 -479603.000000 0 0 1
9.940292 -28.796497 30.971939 43.443166 -1.238412 0.777129 0.105302 -0.042405 794898.000000 0 0 1
8.609392 -28.258297 31.083959 42.881995 -1.275063 0.759948 0.070702 -0.036504 564892.000000 0 0 1
7.957892 -28.309797 32.323496 43.698753 -1.296768 0.738188 0.077295 -0.042015 525524.000000 0 0 1
6.379192 -28.273097 32.194638 43.319243 -1.348885 0.732964 0.079117 -0.038727 1299320.000000 0 0 1
5.719892 -29.488697 31.779735 43.729303 -1.379207 0.757236 0.121027 -0.042531 273810.000000 0 0 1
6.126692 -30.031097 30.545219 43.271394 -1.369546 0.787105 0.109538 -0.037538 -972191.000000 0 0 1
5.674292 -29.303297 29.268869 41.803678 -1.379524 0.795188 0.106748 -0.043456 339496.000000 0 0 1
4.279492 -29.453897 29.028759 41.575413 -1.426511 0.797889 0.156495 -0.046136 766289.000000 0 0 1
3.681592 -28.578697 28.054769 40.216490 -1.442679 0.798763 0.182720 -0.037217 239971.000000 0 0 1
2.221092 -28.889797 27.642529 40.045762 -1.494066 0.808929 0.160646 -0.036424 234534.000000 0 0 1
2.187392 -30.129297 26.956019 40.486864 -1.498323 0.842235 0.173376 -0.044958 167447.000000 0 0 1
2.013492 -31.227097 27.825339 41.874040 -1.506406 0.843971 0.216694 -0.051158 -769711.000000 0 0 1
2.318392 -32.549197 27.104489 42.420260 -1.499689 0.877662 0.233543 -0.055811 85416.800000 0 0 1
3.695792 -32.836497 26.864509 42.586339 -1.458717 0.888181 0.181882 -0.048006 411718.000000 0 0 1
4.158492 -32.260697 25.661399 41.431305 -1.442601 0.902853 0.181276 -0.057483 -732660.000000 0 0 1
5.680792 -32.158297 25.823429 41.632643 -1.395949 0.901711 0.170311 -0.046374 -749282.000000 0 0 1
6.268192 -31.767397 24.644899 40.691876 -1.375984 0.920218 0.120610 -0.045696 -1035080.000000 0 0 1
7.610692 -31.558497 24.903899 40.915346 -1.334153 0.916414 0.095056 -0.041878 -1024250.000000 0 0 1
8.559992 -31.546397 23.669909 40.357319 -1.305830 0.944055 0.086030 -0.030186 -478682.000000 0 0 1
9.846392 -31.124797 24.008799 40.523164 -1.264406 0.936674 0.075204 -0.008020 -502711.000000 0 0 1
10.535192 -30.964797 22.791829 39.865729 -1.242851 0.962202 0.078977 -0.014786 572155.000000 0 0 1
11.766592 -29.988897 22.764979 39.446557 -1.196889 0.955612 0.032604 -0.012023 1243550.000000 0 0 1
12.986792 -30.353297 23.408809 40.471616 -1.166510 0.954030 0.030506 -0.011866 514927.000000 0 0 1
13.976192 -29.370197 23.280919 39.999295 -1.126644 0.949569 0.037568 -0.005777 179660.000000 0 0 1
15.190892 -29.513997 24.225289 41.093842 -1.095457 0.940342 0.077959 -0.012489 85694.700000 0 0 1
14.831092 -29.312497 25.582329 41.636994 -1.102388 0.909154 0.075136 -0.011567 -5219.740000 0 0 1
15.975392 -29.031197 26.326439 42.321447 -1.067735 0.899427 0.082081 -0.011093 -454729.000000 0 0 1
-11.231308 -13.550706 24.943309 30.527571 0.878718 0.614477 0.087888 -0.041581 -664017.000000 0 0 1
-9.850608 -13.671406 24.938909 30.098024 0.946427 0.594213 0.102311 -0.037245 -1610840.000000 0 0 1
-9.459708 -13.939406 26.217989 31.163698 0.974557 0.571115 0.092888 -0.028640 287300.000000 0 0 1
-7.910308 -14.167106 26.354849 30.949280 1.061559 0.551862 0.112162 -0.024695 898290.000000 0 0 1
-7.407708 -15.306506 25.607189 30.739086 1.120064 0.586198 0.125732 -0.032155 -18294.700000 0 0 1
-7.418008 -15.090506 24.205319 29.472830 1.113917 0.607153 0.151591 -0.043774 -852485.000000 0 0 1
-6.692808 -16.149306 23.256589 29.094032 1.177910 0.644568 0.157293 -0.046611 491294.000000 0 0 1
-7.386608 -17.379906 22.926909 29.702968 1.168918 0.689015 0.164928 -0.058098 59189.800000 0 0 1
-7.714108 -18.176806 24.116509 31.169052 1.169440 0.686084 0.171574 -0.055692 -199013.000000 0 0 1
-8.585908 -19.429006 23.925119 31.993991 1.154689 0.726053 0.169848 -0.053614 1197780.000000 0 0 1
-9.975008 -19.215506 23.583049 32.014008 1.091976 0.742696 0.131696 -0.050292 806258.000000 0 0 1
-10.593208 -20.477006 23.292109 32.772644 1.093387 0.780278 0.112002 -0.044228 -101783.000000 0 0 1
-12.121308 -20.298906 23.321889 33.209671 1.032482 0.792226 0.095329 -0.044251 -149123.000000 0 0 1
-12.565008 -20.064806 24.676749 34.196752 1.011319 0.764670 0.104291 -0.042029 -363870.000000 0 0 1
-13.953208 -20.035106 24.862259 34.845795 0.962465 0.776324 0.087663 -0.033583 -466210.000000 0 0 1
-14.402008 -19.941806 26.323669 36.028170 0.945325 0.751536 0.094321 -0.029847 -566871.000000 0 0 1
-14.197608 -21.150706 26.976359 37.103213 0.979621 0.756762 0.074308 -0.026117 986081.000000 0 0 1
-13.093008 -21.052506 27.933889 37.348856 1.014414 0.725876 0.092744 -0.025835 1013820.000000 0 0 1
-12.516708 -22.408006 28.402129 38.281427 1.061388 0.734852 0.098170 -0.017714 -55192.300000 0 0 1
-13.438008 -23.223306 29.102049 39.583220 1.046228 0.744817 0.068995 -0.012377 -172210.000000 0 0 1
-12.888508 -24.419506 29.633669 40.504077 1.085160 0.750098 0.077693 -0.012760 -138259.000000 0 0 1
-13.860508 -25.078156 30.625459 41.939795 1.065888 0.752146 0.063575 -0.015063 231093.000000 0 0 1
-13.993508 -24.477906 31.915689 42.586352 1.051461 0.723589 0.071466 -0.017255 -606129.000000 0 0 1
-15.054808 -25.078826 32.596431 43.796371 1.030157 0.731352 0.067037 -0.018052 -499619.000000 0 0 1
-15.067708 -24.678606 -33.493731 44.248158 1.022650 2.429432 0.065137 -0.022049 -29268.200000 0 0 1
-15.269308 -23.281106 -33.304351 43.409003 0.990308 2.445295 0.069922 -0.028321 -1202280.000000 0 0 1
-16.513308 -22.812006 -33.636321 43.868885 0.944218 2.444554 0.072484 -0.030036 -1880970.000000 0 0 1
-16.601008 -21.310106 -33.604021 43.115477 0.908979 2.464497 0.059605 -0.023384 -111488.000000 0 0 1
-16.750408 -20.944706 -32.263091 41.954308 0.896211 2.448080 0.064656 -0.028328 106647.000000 0 0 1
-16.822608 -19.572406 -32.069961 41.165054 0.860809 2.463958 0.059025 -0.039241 -296259.000000 0 0 1
-17.031908 -19.102506 -30.613361 39.901999 0.842638 2.445282 0.067966 -0.027103 -28295.900000 0 0 1
-18.309208 -19.366806 -30.062761 40.175489 0.813462 2.416271 0.060905 -0.024108 180158.000000 0 0 1
-18.436308 -19.115306 -28.632471 39.052667 0.803478 2.393777 0.051972 -0.019163 -10976.000000 0 0 1
-17.619208 -20.085206 -27.719451 38.499610 0.850709 2.374589 0.042994 -0.014245 23207.000000 0 0 1
-16.220908 -19.957206 -27.835661 37.897652 0.888308 2.395720 0.036065 -0.017266 -223251.000000 0 0 1
-15.643108 -21.089006 -27.188961 37.798051 0.932586 2.373622 0.026037 -0.019138 -606259.000000 0 0 1
-14.136908 -21.219606 -27.328811 37.376300 0.983104 2.390847 0.126541 -0.027434 -565526.000000 0 0 1
-13.403308 -20.161706 -26.627761 35.988620 0.984094 2.403709 0.121403 -0.032800 1337970.000000 0 0 1
-11.967308 -20.274706 -26.644261 35.555546 1.037571 2.417907 0.112802 -0.042454 1046880.000000 0 0 1
-11.418308 -21.297006 -25.668131 35.253272 1.078652 2.386352 0.175537 -0.061502 -843341.000000 0 0 1
-11.415808 -22.596306 -26.261231 36.476924 1.102992 2.374514 0.197852 -0.061164 136607.000000 0 0 1
-10.956308 -23.533806 -25.288851 36.240954 1.135081 2.343115 0.269866 -0.064376 72757.700000 0 0 1
-11.019208 -24.971436 -25.771621 37.538941 1.155224 2.327503 0.265309 -0.062610 -721679.000000 0 0 1
-9.849908 -25.391436 -26.412031 37.938650 1.200745 2.340855 0.269455 -0.068335 -343987.000000 0 0 1
-10.022008 -26.502326 -27.292641 39.340847 1.209262 2.337477 0.247715 -0.049271 -167593.000000 0 0 1
-9.830008 -27.832536 -26.542481 39.696127 1.231288 2.303177 0.251484 -0.041956 -122255.000000 0 0 1
-10.811808 -28.016406 -25.532611 39.417363 1.202495 2.275424 0.208355 -0.047784 120633.000000 0 0 1
-10.679808 -29.210266 -24.788241 39.771282 1.220276 2.243713 0.188013 -0.048709 -360748.000000 0 0 1
-11.435308 -29.114466 -23.477641 39.110332 1.196538 2.214663 0.191919 -0.051977 -72162.800000 0 0 1
-11.170208 -27.984056 -22.631941 37.684025 1.191011 2.215012 0.179552 -0.055339 -364979.000000 0 0 1
-12.141308 -27.000876 -22.845041 37.394580 1.148222 2.228017 0.174934 -0.059659 -166612.000000 0 0 1
-12.056008 -25.787016 -21.894741 35.912355 1.133467 2.226442 0.183717 -0.059764 10258.600000 0 0 1
-12.478308 -26.056076 -20.576941 35.468829 1.124169 2.189699 0.121241 -0.043230 57151.100000 0 0 1
-12.647408 -24.850206 -19.844441 34.224137 1.100018 2.189326 0.108487 -0.032265 228594.000000 0 0 1
-13.312608 -24.951106 -18.414641 33.747330 1.080672 2.147975 0.134987 -0.034422 947548.000000 0 0 1
-14.732708 -25.109396 -18.327841 34.401225 1.040183 2.132663 0.161033 -0.043871 723429.000000 0 0 1
-15.193908 -25.761536 -17.161241 34.482167 1.037918 2.091723 0.145096 -0.044528 -296857.000000 0 0 1
-16.697208 -26.077246 -17.170241 35.406733 1.001272 2.077094 0.154384 -0.045048 -1364880.000000 0 0 1
-17.460108 -24.870606 -16.837341 34.740445 0.958704 2.076772 0.136324 -0.031724 1654240.000000 0 0 1
-18.759508 -25.302396 -16.293141 35.462612 0.932814 2.048167 0.138930 -0.026570 1768550.000000 0 0 1
-19.762708 -26.015106 -17.259641 36.949230 0.921140 2.056825 0.123665 -0.019959 -1422160.000000 0 0 1
-19.491808 -27.368526 -17.637741 37.948080 0.951931 2.054189 0.121004 -0.039047 -234030.000000 0 0 1
-19.680708 -28.431716 -16.680841 38.391969 0.965318 2.020266 0.121291 -0.042391 -175962.000000 0 0 1
-21.188108 -28.779006 -16.518141 39.370244 0.936163 2.003756 0.119981 -0.034110 305268.000000 0 0 1
-21.709408 -29.609756 -17.524641 40.683524 0.938144 2.016126 0.094165 -0.029601 -744677.000000 0 0 1
-23.011708 -29.979586 -17.206941 41.525813 0.916139 1.998044 0.103741 -0.021662 -506440.000000 0 0 1
-23.652608 -30.863446 -18.259241 42.958097 0.916905 2.009811 0.085215 -0.024100 -334004.000000 0 0 1
-23.012808 -32.103056 -18.288041 43.527555 0.948856 2.004405 0.089607 -0.033185 -35644.200000 0 0 1
-23.309508 -32.930686 -19.412641 44.772915 0.954831 2.019258 0.076669 -0.016515 69892.100000 0 0 1
-22.654108 33.365397 -19.292741 44.706467 -0.974324 2.016998 0.063437 -0.019675 414465.000000 0 0 1
-23.455808 32.461538 -18.511541 44.120330 -0.945081 2.003767 0.075694 -0.019075 -28444.400000 0 0 1
-22.687608 31.396964 -18.081141 42.748387 -0.945060 2.007513 0.070344 -0.024198 -302526.000000 0 0 1
-23.458408 30.106824 -17.800841 42.113985 -0.908885 2.007199 0.097754 -0.039888 77757.300000 0 0 1
-24.232408 30.013744 -16.607041 41.997955 -0.891573 1.977327 0.090688 -0.043796 136284.000000 0 0 1
-24.944408 28.817584 -16.339241 41.468632 -0.857317 1.975792 0.097218 -0.026726 -31858.800000 0 0 1
-24.142608 27.520474 -16.131941 40.006019 -0.850688 1.985849 0.104151 -0.023471 -39034.700000 0 0 1
-23.479308 27.037684 -17.298941 39.768928 -0.855721 2.020819 0.079298 -0.017203 228988.000000 0 0 1
-22.613508 25.958204 -16.989341 38.390582 -0.854151 2.029225 0.098760 -0.023258 81975.300000 0 0 1
-22.103508 25.206094 -18.221441 38.156692 -0.850885 2.068652 0.093661 -0.023457 -731102.000000 0 0 1
-21.431908 24.023604 -17.934541 36.852517 -0.842353 2.079055 0.107057 -0.029146 272430.000000 0 0 1
-20.522608 23.640864 -18.967741 36.603867 -0.855888 2.115529 0.102624 -0.017249 500980.000000 0 0 1
-19.135408 24.308744 -19.045141 36.329001 -0.903920 2.122620 0.088012 -0.024250 -389383.000000 0 0 1
-18.263508 24.041654 -17.919441 35.109304 -0.921141 2.106435 0.108091 -0.028729 452817.000000 0 0 1
-17.062208 24.769984 -17.912841 35.007727 -0.967609 2.107938 0.128202 -0.037356 -62464.300000 0 0 1
-17.203808 26.160684 -17.197541 35.722651 -0.989082 2.073069 0.133097 -0.053272 257864.000000 0 0 1
-18.016308 27.145784 -17.920641 37.183737 -0.984859 2.073673 0.103623 -0.037491 456828.000000 0 0 1
-17.833808 28.427414 -17.352341 37.779178 -1.010512 2.048014 0.121837 -0.050275 -154128.000000 0 0 1
-19.006808 29.418124 -17.568641 39.183439 -0.997173 2.035736 0.107099 -0.044152 63653.700000 0 0 1
-19.286508 29.892844 -18.884841 40.276404 -0.997811 2.058820 0.086807 -0.042071 279327.000000 0 0 1
-19.788808 28.934064 -19.849841 40.283907 -0.970939 2.086042 0.068686 -0.035031 -156854.000000 0 0 1
-20.069508 29.509384 -21.253441 41.536703 -0.973547 2.107934 0.067855 -0.032891 -191898.000000 0 0 1
-21.046308 30.523074 -21.295741 42.756447 -0.967138 2.092169 0.072499 -0.027714 11923.800000 0 0 1
-21.236208 30.813074 -22.718141 43.778260 -0.967359 2.116403 0.069368 -0.028424 325309.000000 0 0 1
-22.111708 32.088030 -22.882641 45.190536 -0.967427 2.101754 0.064902 -0.032913 -259457.000000 0 0 1
-21.331608 33.201344 -22.604741 45.479018 -0.999717 2.090977 0.041536 -0.029559 31301.400000 0 0 1
-21.585108 -33.524936 -23.611041 46.339179 0.998755 2.105431 0.052509 -0.020691 685567.000000 0 0 1
-20.435108 -32.415016 -23.632841 45.020419 1.008308 2.123436 0.063445 -0.020747 798174.000000 0 0 1
-20.290808 -31.508156 -22.529641 43.727172 0.998661 2.112075 0.067105 -0.025658 60014.800000 0 0 1
-19.833608 -32.035366 -21.316641 43.290137 1.016439 2.085657 0.076309 -0.035577 -364519.000000 0 0 1
-19.512808 -31.033346 -20.229441 41.869423 1.009491 2.075052 0.106159 -0.044710 10270.400000 0 0 1
-18.347308 -30.261526 -20.454541 40.875078 1.025764 2.094875 0.113442 -0.042536 211410.000000 0 0 1
-18.133408 -29.338196 -19.385741 39.564596 1.017187 2.082860 0.124322 -0.046016 -530317.000000 0 0 1
-16.916008 -28.428856 -19.559641 38.430857 1.034040 2.104769 0.135926 -0.049707 240241.000000 0 0 1
-15.656408 -29.055756 -19.468841 38.319654 1.076561 2.103732 0.150087 -0.053901 -127916.000000 0 0 1
-14.523108 -28.273396 -19.725741 37.408695 1.096275 2.126220 0.136416 -0.055979 -1309920.000000 0 0 1
-13.282008 -29.118036 -19.881841 37.677041 1.142845 2.126676 0.181043 -0.063374 -616844.000000 0 0 1
-12.653908 -29.671066 -18.717741 37.294067 1.167679 2.096586 0.164235 -0.054986 -252527.000000 0 0 1
-11.860008 -28.705336 -18.114441 35.955377 1.178994 2.098792 0.126450 -0.041815 -916110.000000 0 0 1
-10.711308 -29.348156 -17.283541 35.703882 1.220845 2.076108 0.126510 -0.020525 -217391.000000 0 0 1
-10.918208 -30.070336 -16.077341 35.803817 1.222509 2.036487 0.154477 -0.038787 -392028.000000 0 0 1
-11.314908 -31.376016 -16.426741 37.179556 1.224689 2.028425 0.161340 -0.039782 748893.000000 0 0 1
-12.523608 -32.000956 -15.577741 37.730200 1.197768 1.996401 0.174595 -0.048034 1118700.000000 0 0 1
-12.097408 -32.555166 -14.307041 37.561650 1.215012 1.961560 0.159036 -0.043500 -30311.300000 0 0 1
-13.189608 -32.783106 -13.469841 37.817119 1.188283 1.934977 0.165754 -0.040978 -260262.000000 0 0 1
-12.682208 -33.359496 -12.156441 37.702433 1.207503 1.899093 0.146985 -0.035986 92951.100000 0 0 1
-11.798508 -32.539596 -11.438041 36.453517 1.222950 1.889958 0.135529 -0.020768 -15683.900000 0 0 1
-11.564908 -33.020136 -10.121541 36.421451 1.233909 1.852404 0.131380 -0.023273 -477314.000000 0 0 1
-10.459308 -32.283366 -9.386641 35.209685 1.257483 1.840652 0.109939 -0.025929 -317746.000000 0 0 1
-9.192308 -32.724256 -9.815841 35.379743 1.296951 1.851927 0.061393 -0.013274 -594057.000000 0 0 1
-8.124308 -32.015566 -9.185341 34.283690 1.322281 1.842031 0.056739 -0.019495 432217.000000 0 0 1
-6.841208 -32.512446 -9.922241 34.674374 1.363404 1.861008 0.038826 -0.019999 -31497.000000 0 0 1
-6.335508 -33.693186 -9.371541 35.541458 1.384931 1.837631 0.028093 -0.004155 -353524.000000 0 0 1
-5.197208 33.506122 -10.038141 35.361497 -1.416910 1.858626 0.012965 0.003161 30610.900000 0 0 1
-4.574108 32.319999 -9.225741 33.920777 -1.430204 1.846245 0.018685 -0.002071 88703.800000 0 0 1
-4.025908 32.767150 -7.984241 33.965308 -1.448545 1.808087 0.037476 -0.015416 138152.000000 0 0 1
-3.342908 31.701124 -7.310041 32.704327 -1.465734 1.796220 0.058352 -0.030440 55013.300000 0 0 1
-2.887208 32.299426 -5.946841 32.968982 -1.481644 1.752166 0.078213 -0.036977 -1120980.000000 0 0 1
-1.801308 33.134846 -6.022941 33.725933 -1.516487 1.750344 0.078891 -0.034317 -813557.000000 0 0 1
-1.458108 33.817144 -4.807141 34.188213 -1.527706 1.711872 0.091441 -0.041151 -172917.000000 0 0 1
-0.386908 33.119465 -3.997941 33.362137 -1.559115 1.690920 0.106443 -0.048018 -315447.000000 0 0 1
0.873292 32.914960 -4.632141 33.250774 1.544271 1.710560 0.110619 -0.046329 187727.000000 0 0 1
1.735992 32.196641 -3.789441 32.465323 1.516930 1.687786 0.103917 -0.050595 234436.000000 0 0 1
3.239592 32.241036 -4.130141 32.665539 1.470652 1.697573 0.116156 -0.043896 591577.000000 0 0 1
4.045892 33.407625 -3.861341 33.872534 1.450276 1.685041 0.113353 -0.037289 1251360.000000 0 0 1
5.423692 33.160993 -4.222441 33.865866 1.408675 1.695803 0.110502 -0.028404 762064.000000 0 0 1
6.353092 -33.385396 -3.878141 34.205065 -1.382749 1.684420 0.101039 -0.022605 -460466.000000 0 0 1
6.067092 -32.137206 -4.432841 33.003935 -1.384205 1.705516 0.102247 -0.019420 -487950.000000 0 0 1
6.650992 -31.024836 -3.829541 31.959999 -1.359616 1.690908 0.089756 -0.026128 -296683.000000 0 0 1
6.552692 -29.733446 -4.625641 30.796301 -1.353882 1.721568 0.078735 -0.022035 -39105.900000 0 0 1
7.435592 -29.621466 -5.723041 31.072053 -1.324858 1.756040 0.073253 -0.019665 -114696.000000 0 0 1
7.233492 -28.472226 -6.563341 30.100972 -1.322006 1.790606 0.059481 -0.014731 5436.090000 0 0 1
7.642892 -27.065716 -6.042641 28.765958 -1.295579 1.782435 0.052104 -0.012990 383521.000000 0 0 1
6.864792 -26.560906 -4.936241 27.874246 -1.317876 1.748825 0.054338 -0.022866 -106975.000000 0 0 1
7.345592 -25.329516 -4.437441 26.743841 -1.288538 1.737491 0.046476 -0.026543 -421873.000000 0 0 1
6.495692 -24.717706 -3.305441 25.769846 -1.313812 1.699418 0.050481 -0.025552 706186.000000 0 0 1
5.196692 -24.315306 -3.764841 25.147838 -1.360243 1.721070 0.037987 -0.028423 418962.000000 0 0 1
4.474892 -23.736706 -2.692341 24.304415 -1.384461 1.681800 0.050180 -0.021737 981300.000000 0 1 0
3.120992 -23.007606 -3.073741 23.420897 -1.435969 1.702415 0.057830 -0.028148 1008650.000000 0 1 0
2.285692 -23.847006 -3.824941 24.259725 -1.475240 1.729123 0.078461 -0.028456 -506312.000000 0 1 0
1.119692 -23.186006 -4.257241 23.600185 -1.522542 1.752179 0.099175 -0.036846 361944.000000 0 1 0
-15.489908 22.893694 17.866959 32.913321 -0.975947 0.996971 0.039785 -0.027279 -446.572000 0 0 1
-15.791208 22.323794 19.141759 33.378451 -0.955140 0.960053 0.056886 -0.031017 280710.000000 0 0 1
-15.426908 23.188594 20.192959 34.401395 -0.983754 0.943472 0.059213 -0.026181 -765643.000000 0 0 1
-15.331408 22.575094 21.608959 34.808534 -0.974215 0.901040 0.081343 -0.028390 -325840.000000 0 0 1
-14.231308 21.713394 21.836159 33.923730 -0.990623 0.871494 0.075032 -0.027147 -518622.000000 0 0 1
-12.926008 22.148994 21.859459 33.697115 -1.042528 0.864916 0.053010 -0.029900 -1131550.000000 0 0 1
-12.550508 23.275594 22.809769 34.922114 -1.076272 0.859045 0.079522 -0.014244 -1002590.000000 0 0 1
-12.352208 22.899094 24.143259 35.494260 -1.076113 0.822758 0.067356 -0.010887 76817.300000 0 0 1
-12.048708 24.031794 24.985159 36.700908 -1.106057 0.821973 0.094629 -0.012558 111775.000000 0 0 1
-11.576108 23.658894 26.399229 37.291672 -1.115752 0.784259 0.086741 -0.014328 597185.000000 0 0 1
-10.248008 23.133694 26.385139 36.556327 -1.153787 0.764445 0.044772 -0.011999 107573.000000 0 0 1
-9.976008 22.454194 27.572159 36.931497 -1.152707 0.727896 0.033090 -0.010794 1348300.000000 0 0 1
-8.409108 22.124394 27.693699 36.429972 -1.207577 0.707191 0.039452 -0.017325 2384390.000000 0 0 1
-7.473308 23.182994 27.981009 37.097687 -1.258953 0.716282 0.040660 -0.019552 383540.000000 0 0 1
-7.382108 24.288794 27.098339 37.131671 -1.275737 0.752781 0.039558 -0.015683 -815583.000000 0 0 1
-6.457408 25.390194 27.657469 38.095874 -1.321749 0.758314 0.059352 -0.027677 -1711880.000000 0 0 1
-5.172208 25.011494 27.591759 37.598294 -1.366877 0.746814 0.067588 -0.031077 -2379310.000000 0 0 1
-4.295808 25.927594 28.205859 38.552102 -1.406603 0.750087 0.087778 -0.025292 -174091.000000 0 0 1
-2.839608 25.477294 28.171349 38.089116 -1.459798 0.738296 0.080169 -0.032967 -627258.000000 0 0 1
-2.144308 25.557294 26.956999 37.208240 -1.487090 0.760502 0.077540 -0.034954 -188036.000000 0 0 1
-0.834008 25.036494 27.083809 36.892469 -1.537497 0.746414 0.089884 -0.025181 473341.000000 0 0 1
-0.043808 25.071794 25.746099 35.936866 -1.569049 0.772131 0.088624 -0.027633 209787.000000 0 0 1
-0.202608 23.889894 24.933799 34.532049 -1.562316 0.764038 0.079809 -0.008053 -407677.000000 0 0 1
0.508092 24.019894 23.749449 33.782389 1.549647 0.791171 0.087694 -0.004201 -218408.000000 0 0 1
0.293092 22.864894 22.721429 32.235890 1.557979 0.788586 0.044147 -0.003896 -2229.120000 0 0 1
0.868892 21.635294 23.039729 31.617559 1.530657 0.754374 0.079012 0.001232 -113036.000000 0 0 1
0.380592 20.567194 22.181259 30.251654 1.552294 0.747744 0.076007 -0.002987 40454.900000 0 0 1
0.984992 19.157194 22.338059 29.444136 1.519425 0.709544 0.078736 0.004576 404976.000000 0 0 1
2.338692 19.154494 21.905959 29.193067 1.449301 0.722156 0.072238 -0.006050 -117357.000000 0 0 1
2.980992 17.931794 22.015159 28.550005 1.406062 0.690216 0.067598 -0.007137 1400830.000000 0 0 1
4.490292 18.000494 21.473159 28.377404 1.326332 0.712547 0.070236 -0.021699 2407370.000000 0 0 1
5.436592 18.532994 22.448359 29.613463 1.285455 0.710485 0.063639 -0.007919 250458.000000 0 0 1
6.693392 18.761894 21.884559 29.592973 1.228117 0.738441 0.074457 -0.021273 179073.000000 0 0 1
7.932892 19.222394 22.709289 30.791931 1.179398 0.741424 0.092837 -0.022161 156714.000000 0 0 1
7.910792 20.469694 23.412799 32.089689 1.202013 0.753052 0.069009 -0.013780 284173.000000 0 0 1
7.416492 21.693794 22.763549 32.307959 1.241381 0.788965 0.082916 -0.024965 -112392.000000 0 0 1
5.977792 22.148394 23.048689 32.519646 1.307180 0.783055 0.059222 -0.016662 -80258.600000 0 0 1
5.741792 23.566094 22.739099 33.247490 1.331806 0.817654 0.056385 -0.023336 -381160.000000 0 0 1
4.431092 23.978394 22.975499 33.503306 1.388063 0.815138 0.045406 -0.022089 -568055.000000 0 0 1
4.081892 25.318294 22.312959 33.993322 1.410949 0.854770 0.053480 -0.015727 -224377.000000 0 0 1
4.128992 25.449494 20.892859 33.184889 1.409955 0.889772 0.053334 -0.023188 344114.000000 0 0 1
3.074792 24.801094 20.178159 32.120191 1.447448 0.891549 0.063253 -0.022307 107433.000000 0 0 1
2.783092 25.279794 18.733859 31.587514 1.461146 0.935920 0.067458 -0.027853 -293482.000000 0 0 1
2.069992 26.511294 18.875459 32.610068 1.492875 0.953512 0.105321 -0.031566 337063.000000 0 0 1
1.381592 26.878194 17.703859 32.214480 1.519440 0.988956 0.111783 -0.025413 81252.900000 0 0 1
0.413292 28.060494 17.948659 33.312407 1.556069 1.001787 0.123200 -0.023613 109288.000000 0 0 1
1.172992 29.246894 18.021559 34.373439 1.530711 1.018918 0.152493 -0.030518 183181.000000 0 0 1
0.371992 30.395294 18.192459 35.425666 1.558558 1.031492 0.132349 -0.031405 -345447.000000 0 0 1
1.121792 31.654294 18.560759 36.711776 1.535372 1.040742 0.142927 -0.029439 -536401.000000 0 0 1
1.487492 31.557694 19.912359 37.344380 1.523696 1.008407 0.164023 -0.034505 226490.000000 0 0 1
2.197892 32.730894 20.341959 38.599707 1.503747 1.015732 0.179572 -0.034456 481337.000000 0 0 1
2.743192 32.695094 21.786159 39.384400 1.487090 0.984635 0.170621 -0.047633 980450.000000 0 0 1
1.529592 32.711994 22.555969 39.764128 1.524071 0.967641 0.180820 -0.039029 905110.000000 0 0 1
1.822192 32.338894 23.894809 40.250296 1.514509 0.935202 0.197456 -0.052666 379929.000000 0 0 1
0.613492 32.279394 24.899169 40.771365 1.551793 0.913849 0.202997 -0.039212 312583.000000 0 0 1
0.082892 33.607994 25.049879 41.916590 1.568330 0.930276 0.209248 -0.028187 1900980.000000 0 0 1
-1.167508 33.706294 25.842599 42.489025 -1.536172 0.916982 0.197708 -0.024352 1680720.000000 0 0 1
-1.024508 33.660594 27.406469 43.418887 -1.540369 0.887683 0.204485 -0.039537 -1022580.000000 0 0 1
-0.267008 32.603894 27.802539 42.849345 -1.562607 0.864732 0.200984 -0.053901 -541757.000000 0 0 1
-0.263308 32.549494 29.206009 43.732480 -1.562707 0.839502 0.198165 -0.058777 -488159.000000 0 0 1
0.845692 31.560094 29.701259 43.346505 1.544007 0.815911 0.156411 -0.056075 -74036.800000 0 0 1
2.179492 31.836094 29.382729 43.377780 1.502443 0.826617 0.138134 -0.049426 -272192.000000 0 0 1
2.511892 31.522794 28.068219 42.282633 1.491279 0.844876 0.134433 -0.052995 -1360540.000000 0 0 1
4.036392 31.555894 27.907929 42.319255 1.443575 0.850694 0.098830 -0.048089 -213052.000000 0 0 1
4.715092 30.464694 28.493669 41.978790 1.417242 0.824719 0.076252 -0.039536 58056.100000 0 0 1
6.103492 30.462294 28.242739 41.986382 1.373053 0.832993 0.078902 -0.045075 -79659.600000 0 0 1
6.882592 29.363194 28.962819 41.814018 1.340558 0.805628 0.093284 -0.030550 -104669.000000 0 0 1
6.936092 29.589194 30.365489 42.961525 1.340541 0.785823 0.108854 -0.040531 -34460.500000 0 0 1
7.781192 28.711494 31.052829 43.002035 1.306140 0.763928 0.083127 -0.028086 -143030.000000 0 0 1
7.574792 28.679394 32.577232 44.058610 1.312573 0.738608 0.118271 -0.047043 -837273.000000 0 0 1
6.317292 28.157494 32.832134 43.711573 1.350095 0.721057 0.111242 -0.048456 -913137.000000 0 0 1
6.165292 28.021894 -33.323991 43.974148 1.354230 2.430744 0.128106 -0.048594 -209480.000000 0 0 1
6.283492 26.549894 -32.756371 42.630493 1.338405 2.447101 0.104103 -0.041508 439839.000000 0 0 1
7.599792 26.083494 -33.077591 42.804585 1.287281 2.453972 0.093712 -0.040706 479524.000000 0 0 1
7.792792 24.747794 -32.624411 41.683727 1.265737 2.469733 0.091548 -0.047563 -317098.000000 0 0 1
9.210992 24.169294 -32.696411 41.689956 1.206686 2.472324 0.111145 -0.050524 -544406.000000 0 0 1
9.561892 24.013894 33.502679 42.314612 1.191858 0.657124 0.086807 -0.034137 1269810.000000 0 0 1
10.833692 23.327494 33.293011 42.070957 1.136018 0.657776 0.099949 -0.050008 939679.000000 0 0 1
10.957492 21.848294 33.594679 41.545361 1.105929 0.628983 0.088259 -0.049234 -893031.000000 0 0 1
10.218292 20.986294 32.717183 40.190199 1.117681 0.619690 0.074634 -0.044079 407179.000000 0 0 1
9.871392 19.701994 33.284619 39.918402 1.106321 0.584811 0.064599 -0.033415 422020.000000 0 0 1
8.473492 19.822494 -33.625421 39.942462 1.166837 2.571492 0.083315 -0.041401 -2584.500000 0 0 1
8.628792 20.286194 -32.303841 39.109127 1.168627 2.542757 0.089063 -0.047093 534091.000000 0 0 1
7.374692 20.805894 -31.886691 38.781856 1.230161 2.536073 0.104076 -0.044377 253975.000000 0 0 1
7.458492 21.297194 -30.437201 37.889613 1.233934 2.503633 0.121364 -0.055188 427411.000000 0 0 1
8.489992 22.291394 -30.356911 38.607360 1.206894 2.475591 0.127974 -0.055315 397792.000000 0 0 1
8.611692 22.839494 -29.070751 37.959350 1.210227 2.443141 0.096460 -0.049707 -827952.000000 0 0 1
10.036492 23.284894 -28.781961 38.357773 1.163829 2.419396 0.094375 -0.055174 -437552.000000 0 0 1
10.869192 22.196194 -28.552131 37.762872 1.115433 2.428114 0.092247 -0.050315 -777403.000000 0 0 1
12.257592 22.365694 -28.469911 38.223143 1.069449 2.411083 0.094768 -0.049850 -12142.300000 0 0 1
12.975292 21.022294 -28.336561 37.593293 1.017814 2.424571 0.099163 -0.058084 -309428.000000 0 0 1
12.836492 20.135094 -29.442461 37.908522 1.003246 2.460160 0.092598 -0.056671 -177552.000000 0 0 1
11.599692 19.557394 -29.818341 37.499039 1.035458 2.490094 0.103282 -0.046838 -100781.000000 0 0 1
11.649892 18.590194 -30.979971 37.961479 1.010998 2.525409 0.100370 -0.038197 -355544.000000 0 0 1
12.178492 17.335694 -30.643261 37.253877 0.958388 2.536681 0.111545 -0.033174 137777.000000 0 0 1
12.025492 16.451094 -31.752011 37.728519 0.939577 2.571020 0.098795 -0.020855 51163.400000 0 0 1
13.165592 16.453994 -32.813311 38.997181 0.895967 2.570716 0.086027 -0.008195 -52236.600000 0 0 1
13.171192 17.662094 -33.513491 40.107156 0.930032 2.560018 0.091228 -0.021075 902.212000 0 0 1
13.674192 17.671394 32.725293 39.625831 0.912234 0.599075 0.107030 -0.030434 -6184.580000 0 0 1
12.759992 17.115494 31.614429 38.147472 0.930167 0.593940 0.127525 -0.042579 -562002.000000 0 0 1
13.266792 17.504294 30.327519 37.445513 0.922248 0.626797 0.118653 -0.032357 272993.000000 0 0 1
12.476792 17.067294 29.226869 36.071772 0.939544 0.626231 0.103419 -0.030246 857487.000000 0 0 1
10.975092 17.516894 29.154069 35.738690 1.011088 0.616760 0.074744 -0.030801 187310.000000 0 0 1
10.100892 16.778994 29.966479 35.798778 1.028910 0.578871 0.087761 -0.028456 -334031.000000 0 0 1
9.025292 17.609094 30.379339 36.255211 1.097170 0.577316 0.086588 -0.027599 -53738.500000 0 0 1
8.029792 16.814494 31.228899 36.365490 1.125268 0.537969 0.087757 -0.029159 -502230.000000 0 0 1
8.447492 16.616494 32.579814 37.535480 1.100467 0.519689 0.101923 -0.023973 -80645.200000 0 0 1
7.850392 15.528094 33.204657 37.487326 1.102710 0.482674 0.122632 -0.027885 -191924.000000 0 0 1
8.143892 15.584194 -32.897011 37.301520 1.089253 2.650719 0.130040 -0.027916 -23043.300000 0 0 1
7.455492 16.655994 -32.255981 37.060151 1.149927 2.626746 0.125087 -0.024656 353684.000000 0 0 1
7.472092 16.629094 -30.801311 35.792173 1.148493 2.607164 0.127835 -0.043365 18804.500000 0 0 1
6.351092 17.603094 -30.364661 35.668164 1.224538 2.589273 0.140201 -0.050959 -238871.000000 0 0 1
6.078892 17.660194 -28.964511 34.464159 1.239285 2.568862 0.132523 -0.058877 44081.200000 0 0 1
5.276192 18.736194 -28.569231 34.569989 1.296301 2.543511 0.154723 -0.059762 -234779.000000 0 0 1
3.760992 18.510694 -28.584711 34.261882 1.370346 2.557659 0.189494 -0.070400 -925683.000000 0 0 1
3.221492 17.536694 -27.646571 32.897515 1.389122 2.568789 0.199102 -0.070653 777184.000000 0 0 1
1.833192 17.241494 -27.807181 32.769941 1.464870 2.584049 0.194814 -0.069704 1157680.000000 0 0 1
0.748692 18.363194 -27.670841 33.218111 1.530048 2.555313 0.187887 -0.072198 -198639.000000 0 0 1
0.411492 18.611194 -26.320841 32.238681 1.548690 2.526009 0.198086 -0.071445 -899206.000000 0 0 1
-0.556408 19.573494 -26.299591 32.788714 -1.542377 2.501588 0.207124 -0.070568 -598395.000000 0 0 1
-0.917908 20.093994 -24.838341 31.961763 -1.525147 2.460884 0.178336 -0.071939 591714.000000 0 0 1
-1.860308 19.274094 -24.103441 30.918074 -1.474576 2.464808 0.162521 -0.062830 345878.000000 0 0 1
-2.199308 19.999594 -22.931641 30.507063 -1.461269 2.421407 0.147187 -0.058276 932926.000000 0 0 1
-3.396308 19.324994 -22.135641 29.580008 -1.396826 2.416339 0.114225 -0.051344 1679020.000000 0 0 1
-4.737208 19.447494 -22.653641 30.229681 -1.331860 2.417928 0.104683 -0.038908 1044060.000000 0 0 1
-5.555608 18.471394 -21.977941 29.241872 -1.278635 2.421268 0.088800 -0.037862 -302584.000000 0 0 1
-7.065508 18.692894 -22.060241 29.765751 -1.209417 2.405546 0.139674 -0.032710 61947.700000 0 0 1
-7.626608 19.651994 -21.090441 29.818999 -1.200605 2.356442 0.085600 -0.021384 310155.000000 0 0 1
-7.421708 20.986194 -21.578641 31.002255 -1.230876 2.340656 0.081380 -0.029920 -243900.000000 0 0 1
-7.875208 22.107894 -20.615541 31.237452 -1.228594 2.291565 0.079601 -0.035916 -56022.300000 0 0 1
-7.227408 22.085894 -19.376641 30.256840 -1.254539 2.265822 0.087393 -0.039613 -128401.000000 0 0 1
-7.794808 23.068794 -18.510241 30.586881 -1.244947 2.220775 0.093256 -0.038321 -160977.000000 0 0 1
-6.925808 23.264394 -17.298041 29.806393 -1.281451 2.189951 0.109272 -0.045368 194697.000000 0 0 1
-5.591208 23.725694 -17.488641 30.000379 -1.339359 2.193148 0.106043 -0.046852 93928.800000 0 0 1
-4.986808 23.926994 -16.190441 29.317225 -1.365320 2.155857 0.102483 -0.036373 511563.000000 0 0 1
-3.455308 24.150294 -16.188141 29.278520 -1.428686 2.156639 0.102926 -0.035114 416976.000000 0 0 1
-3.004808 25.455994 -16.603541 30.540368 -1.453301 2.145587 0.075925 -0.038981 893775.000000 0 0 1
-1.589808 25.438894 -16.889141 30.576263 -1.508382 2.155990 0.088332 -0.045095 1138900.000000 0 0 1
-1.030008 26.818694 -17.312441 31.937812 -1.532409 2.143691 0.066695 -0.053810 -116435.000000 0 0 1
-1.764508 27.404194 -18.364541 33.035733 -1.506497 2.160241 0.067603 -0.052646 -53898.400000 0 0 1
-1.308308 28.671594 -18.772841 34.295649 -1.525197 2.150030 0.088468 -0.059143 -275894.000000 0 0 1
-2.375008 29.393794 -19.644641 35.433708 -1.490172 2.158445 0.125779 -0.053983 631270.000000 0 0 1
-3.305008 30.133994 -18.852641 35.698778 -1.461556 2.127162 0.100657 -0.047481 55445.600000 0 0 1
-4.576508 29.548694 -18.679941 35.256346 -1.417137 2.129199 0.055888 -0.049180 -490343.000000 0 0 1
-5.499308 30.307694 -17.794941 35.573285 -1.391300 2.094664 0.079046 -0.035878 -483847.000000 0 0 1
-6.028008 31.515194 -18.227541 36.902406 -1.381806 2.087411 0.130507 -0.041410 -112671.000000 0 0 1
-6.518008 32.206794 -17.107241 37.046183 -1.371113 2.050799 0.133800 -0.065375 -495416.000000 0 0 1
-6.850608 33.683594 -17.437441 38.543218 -1.370152 2.040265 0.138672 -0.039821 46939.500000 0 0 1
-8.115908 33.796394 -18.059541 39.169008 -1.335118 2.049994 0.132874 -0.061518 114510.000000 0 0 1
-8.456408 -32.517597 -18.154941 38.190402 1.316375 2.066192 0.174959 -0.058066 -284794.000000 0 0 1
30.047692 -20.128006 -26.044331 44.568011 -0.590216 2.194903 0.072148 -0.002992 211453.000000 0 0 1
29.673492 -21.201906 -25.217741 44.339276 -0.620396 2.175776 0.077008 -0.004010 -461559.000000 0 0 1
28.339192 -21.592606 -25.377941 43.742317 -0.651096 2.189733 0.054545 -0.008830 -429099.000000 0 0 1
28.122192 -23.138206 -25.085741 44.221360 -0.688474 2.173991 0.066775 -0.002058 86569.200000 0 0 1
28.693092 -24.015706 -26.057721 45.596628 -0.696890 2.179109 0.066544 0.012801 -65373.700000 0 0 1
30.062592 -24.244606 -25.806911 46.449510 -0.678674 2.159869 0.073734 0.004091 -378981.000000 0 0 1
30.512592 -25.520516 -26.442011 47.764997 -0.696541 2.157460 0.077212 0.005624 -252189.000000 0 0 1
29.896992 -26.648716 -25.855441 47.670620 -0.728016 2.144060 0.089380 0.001183 -245858.000000 0 0 1
30.202892 -27.921456 -26.385681 48.867439 -0.746167 2.141167 0.078496 0.003133 101409.000000 0 0 1
29.201992 -28.414586 -27.453971 49.131106 -0.771733 2.163722 0.076521 -0.004577 -205018.000000 0 0 1
29.208892 -27.644236 -28.661721 49.384789 -0.757884 2.189986 0.052909 -0.007747 119443.000000 0 0 1
30.224092 -27.919016 -29.633591 50.706182 -0.745774 2.194959 0.041724 -0.007466 -46781.900000 0 0 1
30.376792 -29.418556 -30.190701 51.958439 -0.769374 2.190820 0.057229 -0.004261 -417332.000000 0 0 1
30.949192 -30.468446 -29.367911 52.427597 -0.777571 2.165377 0.074350 -0.007299 912864.000000 0 0 1
32.231792 -30.298706 -28.737301 52.751611 -0.754494 2.146907 0.076498 -0.008613 1261230.000000 0 0 1
33.504592 -30.133576 -29.624451 53.927713 -0.732476 2.152366 0.072654 -0.014732 58466.300000 0 0 1
33.369392 -28.951826 -30.325681 53.585180 -0.714633 2.172362 0.076326 -0.020828 -85909.500000 0 0 1
34.557892 -28.551136 -31.002791 54.503104 -0.690503 2.175874 0.066167 -0.020214 132758.000000 0 0 1
34.475692 -27.125406 -31.546031 54.032519 -0.666639 2.194240 0.053895 -0.013026 91877.800000 0 0 1
34.478592 -25.937636 -30.764041 52.990192 -0.644960 2.190214 0.050846 -0.004822 -4263.870000 0 0 1
33.187292 -25.703996 -30.240271 51.735537 -0.659006 2.195080 0.062121 -0.002968 -128232.000000 0 0 1
33.107192 -24.370706 -29.482001 50.588594 -0.634555 2.192941 0.059790 -0.007099 -259350.000000 0 0 1
33.814592 -24.297506 -28.213511 50.297094 -0.623068 2.166314 0.062355 -0.015976 549711.000000 0 0 1
33.682692 -22.972806 -27.718011 49.300727 -0.598568 2.167868 0.054228 -0.009243 134363.000000 0 0 1
34.620992 -22.733506 -26.496881 49.168182 -0.581028 2.139931 0.059402 -0.013522 -134978.000000 0 0 1
34.194392 -23.391006 -25.332941 48.560823 -0.599947 2.119609 0.062492 -0.014342 881794.000000 0 0 1
33.186592 -22.634406 -24.582341 47.095198 -0.598567 2.119957 0.069810 -0.006736 528582.000000 0 0 1
33.549592 -21.273706 -23.901241 46.361784 -0.565114 2.112431 0.073171 -0.002654 -547121.000000 0 0 1
33.651692 -20.230606 -24.814041 46.448363 -0.541284 2.134391 0.070926 -0.009532 -104819.000000 0 0 1
34.113392 -19.103006 -24.194641 45.978571 -0.510477 2.124940 0.054227 -0.020161 -22049.500000 0 0 1
34.355992 -17.981706 -25.205551 46.249278 -0.482187 2.147178 0.052889 -0.034885 -166247.000000 0 0 1
33.120492 -17.769506 -25.822661 45.601888 -0.492428 2.172761 0.062465 -0.015943 -68188.300000 0 0 1
33.001992 -16.566606 -26.546321 45.478468 -0.465237 2.194089 0.076148 -0.010989 -1042620.000000 0 0 1
31.792092 -16.426906 -27.394181 45.066856 -0.476917 2.224155 0.046228 -0.000056 312654.000000 0 0 1
30.504792 -16.385906 -26.712871 43.733485 -0.492931 2.227880 0.046786 -0.001681 1610880.000000 0 0 1
29.416692 -16.310606 -27.625741 43.526534 -0.506267 2.258400 0.023446 -0.005062 1211820.000000 0 0 1
27.995492 -16.017206 -27.006301 42.067074 -0.519679 2.267877 0.013377 -0.003978 867884.000000 0 0 1
27.393092 -17.097406 -26.306991 41.650457 -0.557988 2.254429 0.052803 0.003372 156256.000000 0 0 1
27.537492 -16.935306 -24.923741 40.820472 -0.551369 2.227576 0.058857 0.003173 56961.900000 0 0 1
26.902692 -18.087606 -24.091841 40.389765 -0.591916 2.209909 0.064606 0.004317 11667.900000 0 0 1
27.161992 -17.670406 -22.727641 39.579827 -0.576766 2.182451 0.074545 -0.002067 36412.400000 0 0 1
26.468292 -18.478806 -21.842341 38.975949 -0.609482 2.165672 0.079156 -0.017132 -162767.000000 0 0 1
26.179992 -17.778006 -20.451241 37.678943 -0.596539 2.144536 0.090010 -0.025823 369772.000000 0 0 1
25.271992 -16.629506 -20.467841 36.525971 -0.581993 2.165622 0.101762 -0.033992 698681.000000 0 0 1
25.615792 -15.412406 -21.160041 36.625925 -0.541651 2.186746 0.096896 -0.019826 528217.000000 0 0 1
26.911592 -14.638906 -20.688641 36.966894 -0.498196 2.164764 0.088879 -0.019687 758317.000000 0 0 1
26.673092 -13.842506 -19.531841 35.840782 -0.478707 2.147139 0.097170 -0.026196 -62517.200000 0 0 1
27.759692 -13.017106 -19.255241 36.205108 -0.438477 2.131565 0.084963 -0.017356 -467951.000000 0 0 1
27.658192 -12.242906 -17.902541 35.147764 -0.416725 2.105227 0.092026 -0.018407 -96269.100000 0 0 1
27.908792 -13.149106 -16.784041 35.121271 -0.440299 2.069045 0.096971 -0.016436 279522.000000 0 0 1
28.048992 -12.450406 -15.550341 34.403076 -0.417753 2.039807 0.085669 -0.008975 89406.400000 0 0 1
28.831792 -13.202406 -14.438941 34.843346 -0.429414 1.998075 0.109114 -0.024036 -439439.000000 0 0 1
28.052992 -14.219606 -13.898041 34.384925 -0.469139 1.986889 0.145403 -0.031627 135229.000000 0 0 1
28.286892 -14.487206 -12.531241 34.162251 -0.473322 1.946380 0.150397 -0.031165 -101426.000000 0 0 1
27.424592 -15.661306 -12.052641 33.803120 -0.518874 1.935373 0.146917 -0.058275 445450.000000 0 0 1
26.017692 -15.461506 -11.942341 32.536103 -0.536195 1.946631 0.128217 -0.045535 789748.000000 0 0 1
25.434892 -16.626906 -11.365041 32.443056 -0.578975 1.928696 0.107455 -0.044944 266636.000000 0 0 1
23.952192 -16.506006 -10.923241 31.072060 -0.603389 1.930018 0.120416 -0.048803 -45774.900000 0 0 1
23.795092 -15.844906 -9.680941 30.182579 -0.587465 1.897313 0.100614 -0.029947 1022480.000000 0 0 1
22.425892 -15.639006 -9.295241 28.877338 -0.608955 1.898518 0.108469 -0.028065 429972.000000 0 0 1
22.283292 -15.288906 -7.811841 28.130421 -0.601346 1.852196 0.088638 -0.018162 -376646.000000 0 0 1
22.615792 -13.951306 -7.477241 27.604748 -0.552741 1.845091 0.102078 -0.015984 562075.000000 0 0 1
22.245692 -13.450706 -6.155441 26.714823 -0.543827 1.803298 0.096470 -0.013241 -235519.000000 0 0 1
22.923892 -14.229006 -4.981941 27.437004 -0.555506 1.753387 0.086790 -0.013880 427227.000000 0 0 1
24.327392 -13.985206 -4.957141 28.495284 -0.521740 1.745650 0.117250 -0.020697 447757.000000 0 0 1
25.008892 -14.866906 -4.121641 29.384647 -0.536340 1.711526 0.124577 -0.033725 380897.000000 0 0 1
26.563592 -14.692306 -4.051841 30.625246 -0.505220 1.703489 0.130024 -0.028875 537347.000000 0 0 1
27.010492 -13.448606 -3.635341 30.391568 -0.461969 1.690700 0.143713 -0.035603 420614.000000 0 0 1
28.434292 -13.393806 -3.630541 31.639909 -0.440216 1.685795 0.142830 -0.052683 539363.000000 0 0 1
29.019692 -12.107606 -2.973141 31.584430 -0.395263 1.665069 0.186292 -0.050357 -723660.000000 0 0 1
29.206792 -12.168506 -1.562641 31.678874 -0.394762 1.620144 0.206282 -0.057980 582702.000000 0 0 1
29.855292 -11.042606 -0.965841 31.846671 -0.354266 1.601129 0.205819 -0.044642 1258100.000000 0 0 1
31.327092 -10.613506 -1.387641 33.105267 -0.326659 1.612725 0.244477 -0.053407 653569.000000 0 0 1
31.377792 -10.138406 -2.699641 33.085362 -0.312519 1.652483 0.228970 -0.055565 -93896.300000 0 0 1
32.656792 -10.037406 -3.264841 34.320180 -0.298196 1.666069 0.257082 -0.056382 -395076.000000 0 0 1
32.556692 -9.605906 -4.711941 34.269724 -0.286911 1.708729 0.224972 -0.051247 -426234.000000 0 0 1
31.972792 -10.692106 -5.366541 34.137667 -0.322722 1.728654 0.220512 -0.046663 176542.000000 0 0 1
31.792292 -10.489306 -6.720241 34.145820 -0.318687 1.768900 0.203623 -0.042414 -855002.000000 0 0 1
30.665892 -11.274906 -7.321541 33.483211 -0.352328 1.791240 0.188713 -0.032230 -846245.000000 0 0 1
30.970892 -12.639006 -7.461841 34.272725 -0.387464 1.790274 0.188221 -0.035145 -79621.700000 0 0 1
29.901492 -13.452006 -7.869841 33.719283 -0.422752 1.806362 0.175508 -0.031944 -293852.000000 0 0 1
30.066892 -14.990906 -7.748441 34.478741 -0.462515 1.797463 0.171332 -0.029000 -216386.000000 0 0 1
30.440792 -15.476706 -9.017841 35.319848 -0.470361 1.828974 0.192584 -0.047543 323325.000000 0 0 1
30.735292 -16.854406 -8.990141 36.187730 -0.501593 1.821856 0.168714 -0.037906 -62482.500000 0 0 1
30.952392 -17.413606 -10.440941 37.017529 -0.512460 1.856731 0.143702 -0.048993 -58921.800000 0 0 1
32.098392 -16.906506 -11.108541 37.941223 -0.484786 1.867932 0.156045 -0.042948 463255.000000 0 0 1
32.251992 -17.491706 -12.387241 38.724598 -0.496947 1.896400 0.138784 -0.038690 -250817.000000 0 0 1
31.710892 -16.695206 -13.602141 38.331825 -0.484608 1.933553 0.133584 -0.044610 -423550.000000 0 0 1
32.492992 -15.643506 -14.015441 38.690391 -0.448692 1.941473 0.133827 -0.039890 -312453.000000 0 0 1
31.907492 -15.025406 -15.080741 38.357263 -0.440102 1.974868 0.115677 -0.035343 -628754.000000 0 0 1
32.827092 -14.009606 -15.805441 39.034587 -0.403369 1.987675 0.107379 -0.014617 1440260.000000 0 0 1
33.999092 -14.500506 -16.522941 40.487165 -0.403138 1.991172 0.062998 -0.026576 1642520.000000 0 0 1
35.226892 -14.692106 -15.828241 41.319791 -0.395135 1.963910 0.083938 -0.029579 -320352.000000 0 0 1
36.242392 -15.155706 -16.854241 42.746600 -0.396077 1.976083 0.089880 -0.034373 18400.000000 0 0 1
37.595192 -15.217106 -16.376641 43.739606 -0.384605 1.954559 0.111365 -0.040589 823487.000000 0 0 1
-37.198457 -15.762506 -17.363541 43.973564 0.400804 1.976715 0.120033 -0.042287 -120503.000000 0 0 1
-35.677457 -15.646706 -17.140541 42.561702 0.413300 1.985285 0.143479 -0.044305 -167084.000000 0 0 1
-35.025257 -16.370706 -16.142341 41.896823 0.437227 1.966316 0.145030 -0.053019 87912.000000 0 0 1
-35.445557 -16.239706 -14.771141 41.692951 0.429618 1.932945 0.131635 -0.048169 -853496.000000 0 0 1
-34.740457 -17.255106 -13.867141 41.193879 0.460993 1.914133 0.128440 -0.046278 -876782.000000 0 0 1
-33.396557 -16.896106 -13.749941 39.873165 0.468375 1.922867 0.146071 -0.048153 -612596.000000 0 0 1
-32.923157 -17.667806 -12.696841 39.462582 0.492526 1.898367 0.145004 -0.025814 -485657.000000 0 0 1
-31.402157 -17.885906 -12.682041 38.299285 0.517748 1.908297 0.178643 -0.027640 -394486.000000 0 0 1
-30.641957 -16.727206 -12.437341 37.059633 0.499684 1.913042 0.169785 -0.051378 -39802.500000 0 0 1
-29.431857 -16.989206 -11.767241 35.962971 0.523515 1.904140 0.166260 -0.043466 -194724.000000 0 0 1
-29.517457 -16.538906 -10.306541 35.370050 0.510724 1.866478 0.183193 -0.049032 -119507.000000 0 0 1
-30.338157 -17.343406 -9.480941 36.208918 0.519328 1.835724 0.173938 -0.042701 -307904.000000 0 0 1
-30.592057 -16.608106 -8.277341 35.780127 0.497368 1.804250 0.183799 -0.043923 -304277.000000 0 0 1
-31.584457 -17.457306 -7.441641 36.847164 0.504928 1.774155 0.169099 -0.024796 342392.000000 0 0 1
-32.881457 -17.620206 -7.988441 38.150715 0.491931 1.781749 0.131589 -0.017821 168916.000000 0 0 1
-32.927957 -18.657406 -8.935741 38.886972 0.515508 1.802656 0.129609 -0.017263 -532305.000000 0 0 1
-34.302257 -19.318506 -9.282141 40.447591 0.512909 1.802346 0.094785 -0.003550 127782.000000 0 0 1
-35.171957 -18.529506 -10.063141 41.008243 0.484877 1.818722 0.109692 -0.000201 -70850.700000 0 0 1
-36.315357 -19.357106 -10.219941 42.402239 0.489720 1.814217 0.105482 -0.019527 -642934.000000 0 0 1
-37.466557 -18.644206 -10.889741 43.242754 0.461744 1.825365 0.101131 -0.042588 -745578.000000 0 0 1
-37.414457 -18.522406 -12.254741 43.509767 0.459688 1.856315 0.092377 -0.048023 210062.000000 0 0 1
37.168592 -17.678206 -12.684541 43.068791 -0.443956 1.869748 0.100190 -0.047501 -93461.300000 0 0 1
36.730192 -17.857106 -14.137641 43.218701 -0.452522 1.904049 0.095196 -0.053240 313364.000000 0 0 1
35.721592 -18.893406 -14.189941 42.829281 -0.486505 1.908492 0.073422 -0.044682 657104.000000 0 0 1
35.230692 -19.002206 -15.496441 42.923480 -0.494642 1.940163 0.062634 -0.036196 -506423.000000 0 0 1
34.068392 -19.971206 -15.640341 42.474989 -0.530218 1.947895 0.077690 -0.047526 388819.000000 0 0 1
32.837892 -19.541706 -14.999241 41.050976 -0.536806 1.944838 0.092970 -0.045887 1098340.000000 0 0 1
31.688592 -20.336106 -15.168641 40.593247 -0.570553 1.953763 0.121970 -0.050867 -63389.800000 0 0 1
30.946492 -19.965606 -16.492241 40.352259 -0.572969 1.991833 0.129514 -0.053943 -720293.000000 0 0 1
30.279792 -18.722006 -16.352141 39.176164 -0.553767 2.001379 0.121670 -0.052201 260524.000000 0 0 1
29.595592 -18.400806 -17.537441 39.013466 -0.556253 2.037027 0.107259 -0.048894 150617.000000 0 0 1
28.589192 -17.177806 -17.496341 37.663522 -0.541044 2.053915 0.109830 -0.031858 522660.000000 0 0 1
27.495792 -17.550006 -16.655441 36.625469 -0.568092 2.042888 0.141009 -0.048346 200187.000000 0 0 1
26.931792 -16.412606 -16.082441 35.402542 -0.547313 2.042353 0.110067 -0.033763 14307.300000 0 0 1
25.559692 -16.619206 -15.324341 34.122299 -0.576524 2.036555 0.103542 -0.033238 1514140.000000 0 0 1
24.354892 -16.927506 -16.023441 33.711302 -0.607386 2.066117 0.099304 -0.038648 926678.000000 0 0 1
23.892992 -15.925906 -16.952941 33.345341 -0.587923 2.104128 0.100505 -0.026529 -930711.000000 0 0 1
22.887692 -16.455306 -17.961941 33.425363 -0.623337 2.138117 0.095811 -0.032784 -370282.000000 0 0 1
21.613792 -16.695506 -17.425541 32.396688 -0.657713 2.138717 0.084423 -0.021742 -798476.000000 0 0 1
20.775592 -17.222506 -18.384141 32.652972 -0.692162 2.168827 0.076118 -0.026802 64364.600000 0 0 1
19.360392 -17.544806 -17.814341 31.622709 -0.736242 2.169219 0.070137 -0.016368 380978.000000 0 0 1
18.511492 -16.430506 -17.664941 30.408667 -0.725913 2.190652 0.070751 -0.015170 -937415.000000 0 0 1
17.184492 -16.818806 -17.645741 29.825345 -0.774644 2.203883 0.073621 -0.017411 -820912.000000 0 0 1
16.348792 -15.521306 -17.420341 28.489686 -0.759440 2.228702 0.088148 -0.021908 -316369.000000 0 0 1
15.800292 -14.929606 -18.552541 28.578648 -0.757072 2.277296 0.096396 -0.022275 188392.000000 0 0 1
14.612992 -14.251706 -18.180241 27.334444 -0.772882 2.298429 0.110906 -0.021556 10495.500000 0 0 1
13.664692 -14.032506 -19.339441 27.525425 -0.798677 2.349845 0.097822 -0.023007 -436178.000000 0 0 1
14.101392 -12.859206 -20.009541 27.651224 -0.739357 2.379859 0.115748 -0.035039 82507.100000 0 0 1
13.621492 -12.644306 -21.331841 28.292596 -0.748212 2.424885 0.137839 -0.029838 -138368.000000 0 0 1
13.657492 -11.227406 -22.030841 28.247826 -0.688054 2.465323 0.139274 -0.037020 -442641.000000 0 0 1
14.917092 -10.811706 -22.485941 29.069403 -0.627168 2.455182 0.122200 -0.032510 -499479.000000 0 0 1
14.855892 -9.572106 -23.141741 29.118086 -0.572379 2.489400 0.112097 -0.044535 -530328.000000 0 0 1
16.233692 -9.023906 -23.486641 29.943045 -0.507343 2.472488 0.101730 -0.037733 -338834.000000 0 0 1
16.852592 -9.711906 -24.574641 31.340772 -0.522800 2.472059 0.149169 -0.037421 -337375.000000 0 0 1
18.095692 -9.137106 -24.813741 32.041575 -0.467586 2.456599 0.123137 -0.043227 -732200.000000 0 0 1
22.069592 5.718994 -7.183541 23.903494 0.253557 1.876037 0.193568 0.016319 -206800.000000 0 1 0
21.767192 7.064094 -7.498041 24.081791 0.313806 1.887417 0.199381 0.004232 586256.000000 0 1 0
21.910792 7.911294 -6.353541 24.146197 0.346501 1.837059 0.211693 0.008378 -413525.000000 0 1 0
21.373792 9.359694 -6.558141 24.237410 0.412750 1.844791 0.167101 0.024019 139698.000000 0 1 0
19.961592 9.417694 -6.810041 23.098371 0.440827 1.870072 0.061516 -0.012175 1195330.000000 0 1 0
19.385592 10.678994 -6.454141 23.054240 0.503513 1.854543 0.052836 -0.013643 -59539.200000 0 1 0
19.350392 11.057794 -4.882141 22.815516 0.519163 1.786447 0.106329 -0.021162 106108.000000 0 1 0
20.654892 11.335994 -4.344741 23.958424 0.501943 1.753150 0.139498 -0.011322 1032050.000000 0 1 0
21.069592 12.743294 -4.453041 25.022965 0.543955 1.749707 0.189191 -0.020361 368025.000000 0 0 1
22.088792 13.130894 -3.340541 25.913207 0.536336 1.700069 0.167464 -0.031053 -106781.000000 0 0 1
23.342892 12.501594 -3.437141 26.701954 0.491692 1.699877 0.158167 -0.050218 22705.600000 0 0 1
23.926692 12.587094 -2.172441 27.122703 0.484285 1.650979 0.146029 -0.056868 48819.600000 0 0 1
24.868192 11.407794 -1.794441 27.418693 0.430090 1.636289 0.151925 -0.055607 -87674.200000 0 0 1
26.118092 11.295594 -2.417241 28.558505 0.408191 1.655539 0.139636 -0.034264 -72005.600000 0 0 1
26.810092 10.174894 -1.880041 28.737502 0.362725 1.636264 0.186527 -0.040463 652646.000000 0 0 1
28.320492 10.188194 -2.298941 30.185007 0.345331 1.647032 0.188964 -0.040774 491845.000000 0 0 1
29.052692 11.236294 -1.699841 31.196196 0.369037 1.625312 0.158616 -0.051035 580851.000000 0 0 1
30.422492 11.166994 -2.114941 32.476187 0.351795 1.635965 0.153781 -0.048320 860906.000000 0 0 1
31.287592 12.328494 -1.507141 33.662689 0.375356 1.615583 0.116754 -0.040469 -305731.000000 0 0 1
31.416992 12.254894 -0.096441 33.722679 0.371919 1.573656 0.159870 -0.050471 491227.000000 0 0 1
32.374792 13.135494 0.488559 34.941480 0.385438 1.556814 0.134864 -0.045910 73625.200000 0 0 1
33.851392 12.725394 0.367059 36.166104 0.359576 1.560647 0.135473 -0.050769 -480006.000000 0 0 1
34.814992 13.656494 0.809059 37.406390 0.373815 1.549166 0.130725 -0.058006 526452.000000 0 0 1
35.782492 14.021794 -0.184341 38.432166 0.373471 1.575593 0.138587 -0.041480 103923.000000 0 0 1
35.335592 15.108594 -1.163741 38.447730 0.404049 1.601069 0.097586 -0.018194 -406147.000000 0 0 1
34.263892 14.726294 -1.983641 37.347193 0.405921 1.623935 0.095531 -0.011017 -121929.000000 0 0 1
33.837792 15.774294 -2.835841 37.441507 0.436222 1.646610 0.061310 0.008694 141536.000000 0 0 1
32.505192 15.602094 -3.604741 36.235438 0.447510 1.670442 0.078584 -0.009879 -633645.000000 0 0 1
32.488892 14.864094 -4.813341 36.050487 0.429084 1.704713 0.053809 -0.009616 1241770.000000 0 0 1
31.229392 14.952394 -5.540641 35.064907 0.446538 1.729472 0.048118 -0.021820 1001190.000000 0 0 1
30.055492 14.150894 -4.943441 33.585979 0.440037 1.718521 0.069463 -0.026323 -371451.000000 0 0 1
28.941892 14.123194 -5.821341 32.725918 0.453989 1.749630 0.100948 -0.040678 23693.300000 0 0 1
27.815492 13.528194 -5.255441 31.374086 0.452672 1.739099 0.111992 -0.024663 -139653.000000 0 0 1
26.647592 13.261894 -6.240841 30.412498 0.461787 1.777471 0.098132 -0.025796 -160583.000000 0 0 1
27.043592 12.308394 -7.199441 30.572608 0.427113 1.808516 0.097801 -0.010200 629822.000000 0 0 1
26.210192 12.158394 -8.373141 30.081725 0.434337 1.852868 0.111251 -0.001931 159207.000000 0 0 1
25.811992 13.377794 -9.252941 30.509690 0.478163 1.878928 0.121544 -0.002429 -231536.000000 0 0 1
24.920692 14.220594 -8.567941 29.944545 0.518547 1.860979 0.128572 -0.024532 -368617.000000 0 0 1
24.713892 15.424894 -9.264241 30.570082 0.557980 1.878687 0.115291 -0.027864 -973798.000000 0 0 1
23.629892 16.268994 -8.585141 29.945894 0.602961 1.861565 0.108612 -0.020132 481379.000000 0 0 1
22.274892 15.834894 -8.691241 28.678430 0.617994 1.878697 0.149057 -0.041030 664024.000000 0 0 1
21.936392 14.528994 -8.162841 27.548664 0.584990 1.871619 0.176194 -0.050907 -287771.000000 0 0 1
20.423892 14.120394 -8.247741 26.163832 0.604908 1.891500 0.196436 -0.046520 805401.000000 0 0 1
19.509692 14.745294 -7.375841 25.543194 0.647199 1.863727 0.247241 -0.073234 -106083.000000 0 0 1
18.200092 14.330594 -7.660141 24.398504 0.667005 1.890157 0.252708 -0.074657 -377167.000000 0 1 0
17.165292 14.736494 -6.595141 23.564960 0.709411 1.854456 0.233662 -0.049604 -200691.000000 0 1 0
17.166192 13.870794 -5.470941 22.737815 0.679618 1.813790 0.208483 -0.048994 105112.000000 0 1 0
16.388692 14.347394 -4.448341 22.231164 0.719082 1.772251 0.173251 -0.039080 -620363.000000 0 1 0
16.314092 13.505994 -3.222041 21.422955 0.691507 1.721771 0.125964 -0.019887 1027160.000000 0 1 0
17.558392 13.268794 -2.500841 22.149768 0.647136 1.683944 0.124390 -0.016361 1506490.000000 0 1 0
17.279392 12.338994 -1.465441 21.283225 0.620118 1.639705 0.110183 -0.018324 42453.400000 0 1 0
17.105792 12.980494 -0.078641 21.473414 0.649132 1.574459 0.114875 -0.019765 433654.000000 0 1 0
15.998792 13.904494 0.037459 21.196643 0.715477 1.569029 0.105914 -0.020704 881168.000000 0 1 0
16.093792 14.762794 1.134259 21.868625 0.742290 1.518906 0.096706 -0.013804 -657473.000000 0 1 0
14.805792 15.538894 1.402559 21.508971 0.809553 1.505542 0.095506 -0.007719 -524204.000000 0 1 0
14.626992 16.672794 0.606359 22.187803 0.850667 1.543464 0.107719 -0.008673 -77393.100000 0 1 0
13.573292 17.516894 0.942159 22.180249 0.911568 1.528306 0.077381 -0.012452 -564167.000000 0 1 0
13.599492 18.898094 0.301959 23.284658 0.947022 1.557828 0.077803 -0.014825 -417360.000000 0 1 0
13.263892 18.888094 -1.059741 23.104414 0.958572 1.616680 0.084100 -0.019160 27330.500000 0 1 0
12.761292 20.079294 -1.649641 23.848478 1.004650 1.640023 0.090011 -0.021103 819273.000000 0 1 0
11.208092 20.114494 -1.439341 23.071321 1.062431 1.633223 0.077799 -0.026843 354852.000000 0 1 0
10.784292 20.557794 -0.183341 23.215457 1.087675 1.578694 0.065170 -0.016232 770866.000000 0 1 0
9.351492 20.447294 -0.077541 22.484399 1.141850 1.574245 0.059511 -0.020245 1036450.000000 0 1 0
8.811592 20.464594 1.366059 22.322855 1.164211 1.509563 0.029383 -0.023749 -34976.300000 0 1 0
8.680092 21.705094 1.934259 23.456266 1.190367 1.488240 0.028364 -0.020184 298852.000000 0 1 0
7.764592 21.608494 3.023459 23.159386 1.225834 1.439873 0.026511 -0.026927 296406.000000 0 1 0
7.337692 23.026394 3.464759 24.414362 1.262305 1.428401 0.030699 -0.020704 -399.373000 0 1 0
8.201992 23.553394 4.431459 25.331262 1.235699 1.394951 0.045175 -0.026548 -56838.200000 0 0 1
7.759792 24.796894 4.836059 26.428919 1.267516 1.386776 0.044393 -0.021718 -56327.400000 0 0 1
8.090892 25.152494 6.322559 27.167724 1.259576 1.335920 0.053758 -0.025409 -584.721000 0 0 1
7.423092 24.417294 7.315159 26.548410 1.275665 1.291645 0.048014 -0.028590 -113495.000000 0 0 1
7.699492 24.995094 8.571559 27.522872 1.271980 1.254095 0.052305 -0.018046 -23783.000000 0 0 1
7.129092 24.247294 9.833459 27.119220 1.284838 1.199739 0.053296 -0.023001 -899710.000000 0 0 1
5.763992 24.163894 10.004659 26.780787 1.336635 1.187935 0.062711 -0.023134 -1050120.000000 0 0 1
5.420592 23.040994 10.740359 25.992797 1.339739 1.144825 0.063683 -0.033315 -125264.000000 0 0 1
4.021492 23.220694 11.367559 26.164755 1.399312 1.121357 0.042784 -0.024595 -545809.000000 0 0 1
3.007192 23.344494 10.446459 25.751448 1.442684 1.153090 0.039261 -0.017479 -852090.000000 0 0 1
1.755692 23.480494 11.081459 26.023350 1.496163 1.130920 0.046712 -0.015766 -698679.000000 0 0 1
0.731592 23.916494 10.090759 25.968390 1.540216 1.171708 0.054911 -0.013330 -933051.000000 0 0 1
0.949392 25.286194 9.675359 27.090690 1.533268 1.205585 0.058284 -0.017717 883001.000000 0 0 1
0.054192 25.595994 8.554559 26.987743 1.568679 1.248253 0.049903 -0.012004 1187900.000000 0 0 1
-1.377208 26.106194 8.838559 27.596198 -1.518091 1.244769 0.063165 -0.017716 1191730.000000 0 0 1
-2.309008 25.145494 9.458959 26.964778 -1.479227 1.212382 0.062671 -0.012824 318077.000000 0 0 1
-3.583408 25.709794 9.603459 27.677802 -1.432309 1.216454 0.077628 -0.017966 -483629.000000 0 0 1
-4.586708 24.656394 10.196759 27.073041 -1.386874 1.184631 0.076946 -0.026135 197516.000000 0 0 1
-4.710908 24.598494 11.624459 27.611711 -1.381575 1.136252 0.053765 -0.017854 -172341.000000 0 0 1
-5.509508 25.628394 12.132459 28.885391 -1.359042 1.137328 0.071756 -0.015637 -275825.000000 0 0 1
-5.939608 25.456494 13.613559 29.472716 -1.341573 1.090656 0.041300 -0.012215 429586.000000 0 0 1
-7.055308 24.590894 13.868959 29.100471 -1.291394 1.074026 0.044693 -0.012372 417060.000000 0 0 1
-7.337908 24.561394 15.265059 29.835029 -1.280480 1.033694 0.038241 -0.006911 655444.000000 0 0 1
-8.589008 23.669094 15.622459 29.632048 -1.222695 1.015477 0.039912 -0.010984 1392660.000000 0 0 1
-9.831808 24.214094 15.122259 30.193865 -1.185097 1.046229 0.046184 -0.006751 345406.000000 0 0 1
-10.849008 23.263494 15.353159 29.910042 -1.134426 1.031758 0.047341 -0.015391 -321719.000000 0 0 1
-12.250708 23.737494 14.978159 30.625050 -1.094359 1.059759 0.050003 -0.014411 -224950.000000 0 0 1
-12.713808 24.705194 15.910959 32.017903 -1.095521 1.050728 0.058638 -0.020934 240126.000000 0 0 1
-13.877208 25.393994 15.441159 32.800323 -1.070663 1.080642 0.044666 -0.013534 309629.000000 0 0 1
-14.459608 26.487794 16.383659 34.338139 -1.071109 1.073413 0.046387 -0.014092 448427.000000 0 0 1
-15.688608 26.067194 16.981259 34.842419 -1.029016 1.061717 0.052785 -0.021938 349195.000000 0 0 1
-16.221308 26.931894 17.915459 36.185928 -1.028681 1.052853 0.068366 -0.024927 282801.000000 0 0 1
-17.565408 26.464494 18.557159 36.786970 -0.984826 1.042052 0.059119 -0.034557 157976.000000 0 0 1
-18.698508 26.685294 17.786759 37.122876 -0.959598 1.071131 0.047101 -0.031416 -496575.000000 0 0 1
-19.858508 26.129894 18.354259 37.603331 -0.920931 1.060883 0.059669 -0.027406 -226618.000000 0 0 1
-21.177608 26.298494 17.616659 38.084755 -0.892845 1.089911 0.069857 -0.032958 -538573.000000 0 0 1
-21.791108 27.556194 17.706359 39.340963 -0.901698 1.103948 0.047921 -0.028959 109733.000000 0 0 1
-22.369808 27.905994 16.480059 39.379502 -0.895073 1.139011 0.069688 -0.026439 -571969.000000 0 0 1
-23.326308 29.090294 16.598359 40.815038 -0.894923 1.151987 0.065188 -0.031330 -409903.000000 0 0 1
-24.611108 28.740094 17.067359 41.508967 -0.862637 1.147056 0.061924 -0.033171 181079.000000 0 0 1
-25.422408 29.917694 16.909859 42.747053 -0.866450 1.164098 0.077165 -0.029068 261696.000000 0 0 1
-26.828478 29.854494 17.578359 43.818452 -0.838732 1.158010 0.081247 -0.023291 475188.000000 0 0 1
-27.761208 29.143494 16.747859 43.594939 -0.809685 1.176488 0.120882 -0.024463 288236.000000 0 0 1
-29.107098 29.052394 17.157559 44.560594 -0.784458 1.175546 0.163323 -0.031196 399677.000000 0 0 1
-29.423508 28.004794 18.257959 44.534979 -0.760699 1.148376 0.137569 -0.029611 -411361.000000 0 0 1
-29.567878 26.678694 17.783159 43.614824 -0.734077 1.150828 0.165207 -0.036885 259386.000000 0 0 1
-29.946088 25.816094 18.906559 43.825756 -0.711469 1.124749 0.155501 -0.035722 88211.900000 0 0 1
-30.074888 24.327894 18.484959 42.872357 -0.680151 1.125015 0.141811 -0.039250 679208.000000 0 0 1
-31.330698 24.064494 17.838359 43.346506 -0.654972 1.146665 0.163152 -0.039122 793731.000000 0 0 1
-31.100038 22.939094 16.965959 42.204954 -0.635512 1.157107 0.163012 -0.034713 31929.600000 0 0 1
-31.957448 21.661894 17.259659 42.289620 -0.595695 1.150392 0.151465 -0.020610 598459.000000 0 0 1
-33.210488 21.567694 16.583859 42.931647 -0.575970 1.174196 0.155469 -0.023801 306698.000000 0 0 1
-33.725778 20.266494 16.571859 42.694091 -0.541096 1.172169 0.118254 -0.018419 -327039.000000 0 0 1
-35.092916 20.030894 15.937159 43.436649 -0.518669 1.195116 0.114031 -0.019263 -412347.000000 0 0 1
-35.093878 20.158594 14.543459 43.005365 -0.521398 1.225816 0.104059 -0.023926 255006.000000 0 0 1
-36.251778 19.520094 14.018659 43.494233 -0.493939 1.242627 0.110488 -0.027931 364263.000000 0 0 1
-36.563578 19.799694 12.554959 43.434435 -0.496305 1.277556 0.121362 -0.027451 63560.000000 0 0 1
-36.950868 21.145294 12.301959 44.315102 -0.519768 1.289499 0.133894 -0.035502 -101079.000000 0 0 1
-37.197498 21.469294 10.906959 44.311919 -0.523464 1.322100 0.102200 -0.032111 -26295.900000 0 0 1
-36.056938 21.205694 9.896959 42.985277 -0.531636 1.338471 0.119681 -0.030269 -128138.000000 0 0 1
-35.936274 19.837194 9.687459 42.175549 -0.504385 1.339033 0.148717 -0.027201 -210529.000000 0 0 1
-34.739002 19.603494 8.987759 40.888569 -0.513762 1.349176 0.165207 -0.027416 -336875.000000 0 0 1
-33.824188 18.666794 9.746659 39.843723 -0.504283 1.323666 0.124903 -0.025285 -546243.000000 0 0 1
-33.445388 19.115494 11.010259 40.065221 -0.519233 1.292406 0.123764 -0.027884 367578.000000 0 0 1
-32.453148 18.230894 11.547659 38.973334 -0.511827 1.269984 0.122836 -0.029215 432203.000000 0 0 1
-31.731208 18.661194 12.826659 38.982469 -0.531625 1.235513 0.100077 -0.006700 135896.000000 0 0 1
-30.770208 19.675294 12.623559 38.642944 -0.568906 1.238016 0.128292 -0.012667 -209680.000000 0 0 1
-31.180148 20.929794 13.221059 39.812741 -0.591172 1.232287 0.160517 -0.022104 515895.000000 0 0 1
-30.036598 21.985594 13.388759 39.557837 -0.631855 1.225516 0.156324 -0.023630 147136.000000 0 0 1
-29.216728 21.606294 14.432959 39.099353 -0.636759 1.192718 0.150397 -0.017074 37752.300000 0 0 1
-28.086828 22.489294 14.603759 38.831791 -0.675171 1.185237 0.159114 -0.025690 772536.000000 0 0 1
-27.433518 22.333394 16.014859 38.831097 -0.683274 1.145684 0.133964 -0.032283 -298202.000000 0 0 1
-26.895728 21.033094 16.224959 37.802388 -0.663683 1.127184 0.139875 -0.029860 42353.500000 0 0 1
-26.447518 20.920894 17.569059 38.024030 -0.669250 1.090489 0.124621 -0.029214 -96433.900000 0 0 1
-25.456348 19.745794 17.653359 36.736400 -0.659730 1.069524 0.127820 -0.031943 293261.000000 0 0 1
-24.775208 19.520494 18.897659 36.769310 -0.667322 1.031011 0.125368 -0.036389 941001.000000 0 0 1
-23.720308 18.534294 18.882159 35.534617 -0.663276 1.010575 0.110012 -0.034544 569491.000000 0 0 1
-23.135808 18.402194 20.299359 35.860428 -0.671929 0.969071 0.104498 -0.034287 -25549.000000 0 0 1
-24.018008 17.830794 21.236859 36.685230 -0.638615 0.953425 0.121133 -0.018477 227545.000000 0 0 1
-23.457908 17.996894 22.533059 37.173921 -0.654418 0.919582 0.115870 -0.020147 59695.300000 0 0 1
-24.152308 17.168794 23.607759 37.887039 -0.617974 0.898085 0.136545 -0.016256 -38482.400000 0 0 1
-23.650108 15.843794 23.721259 37.054710 -0.590255 0.876079 0.128257 -0.021221 499332.000000 0 0 1
-24.543408 15.149294 24.592559 37.903482 -0.553003 0.864763 0.137007 -0.024845 561990.000000 0 0 1
22.058692 24.020194 33.396706 46.678641 0.827941 0.773514 0.110746 -0.025046 620982.000000 0 0 1
23.060892 23.255694 32.695343 46.277613 0.789604 0.786250 0.139915 -0.037450 183987.000000 0 0 1
23.004292 21.829494 32.823955 45.641387 0.759201 0.768188 0.141999 -0.038151 208995.000000 0 0 1
21.834392 20.984594 32.167389 44.179574 0.765554 0.755242 0.114642 -0.043151 518813.000000 0 0 1
22.055392 20.561494 30.833019 43.126446 0.750358 0.774251 0.130484 -0.039759 99339.000000 0 0 1
21.063392 19.639394 30.439159 41.903635 0.750427 0.757715 0.149367 -0.047092 131874.000000 0 0 1
21.542392 19.012794 29.074759 40.876675 0.723105 0.779479 0.153295 -0.037123 -133615.000000 0 0 1
22.639792 18.183694 29.295199 41.248219 0.676673 0.780989 0.139630 -0.035859 -708594.000000 0 0 1
22.927392 17.532594 28.054859 40.250866 0.652843 0.799591 0.122922 -0.041311 -640260.000000 0 0 1
24.082892 16.556494 28.136659 40.568149 0.602273 0.804370 0.141930 -0.041902 -806473.000000 0 0 1
25.298292 17.249294 28.132649 41.581097 0.598431 0.827698 0.155219 -0.034713 98687.800000 0 0 1
26.355992 16.389294 28.625889 42.221899 0.556326 0.825776 0.138423 -0.020913 -18940.600000 0 0 1
27.711892 17.027994 28.816769 43.454662 0.550988 0.845783 0.108279 -0.028002 -673392.000000 0 0 1
28.496992 17.176594 27.614599 43.239796 0.542440 0.878069 0.123440 -0.017045 -603465.000000 0 0 1
29.731592 17.621594 28.039219 44.504897 0.535027 0.889210 0.107469 -0.005216 -425909.000000 0 0 1
30.895892 17.497194 27.003139 44.608042 0.515292 0.920600 0.098843 0.004249 339359.000000 0 0 1
30.775092 18.450894 25.952959 44.284284 0.540081 0.944617 0.123096 -0.005747 -619065.000000 0 0 1
31.947192 18.395994 25.235819 44.675297 0.522454 0.970518 0.115127 -0.010236 -745358.000000 0 0 1
32.094892 19.540694 24.266989 44.730387 0.546895 0.997366 0.128157 -0.017146 -458613.000000 0 0 1
31.244692 19.530094 23.169319 43.525540 0.558649 1.009463 0.135268 -0.019011 -163166.000000 0 0 1
31.280592 20.679594 22.256259 43.605757 0.584139 1.035150 0.111624 -0.024414 -435504.000000 0 0 1
31.905292 20.264894 20.936659 43.208300 0.565870 1.064946 0.123301 -0.021441 -572567.000000 0 0 1
31.129192 19.465794 20.087059 41.850133 0.558831 1.070169 0.130944 -0.033081 55492.200000 0 0 1
31.759592 19.116194 18.880659 41.600238 0.541818 1.099705 0.136122 -0.033261 -417183.000000 0 0 1
32.908492 18.114494 18.866759 42.036392 0.503189 1.105352 0.152621 -0.050311 -297487.000000 0 0 1
32.560292 16.796694 19.256059 41.389580 0.476258 1.086891 0.168005 -0.048204 601043.000000 0 0 1
33.754492 16.047594 19.493159 42.152986 0.443792 1.090053 0.151597 -0.036406 -111800.000000 0 0 1
33.557992 14.490194 19.637059 41.493597 0.407612 1.077814 0.158820 -0.034412 -64633.200000 0 0 1
32.870592 13.909094 20.736459 41.278801 0.400300 1.044480 0.141704 -0.046716 575507.000000 0 0 1
31.472192 14.119694 20.624559 40.190011 0.421723 1.031915 0.136221 -0.033471 -88848.400000 0 0 1
30.645192 13.936894 21.919559 40.172526 0.426824 0.993649 0.109707 -0.029780 55803.700000 0 0 1
30.147492 12.664994 22.293359 39.576093 0.397714 0.972418 0.113628 -0.024541 -18805.600000 0 0 1
29.367092 12.768194 23.460559 39.696986 0.410124 0.938510 0.113589 -0.017118 -190872.000000 0 0 1
28.669792 11.411794 23.702219 38.909911 0.378818 0.915800 0.120578 -0.020714 68035.500000 0 0 1
27.734492 11.224794 22.640489 37.520524 0.384571 0.923018 0.137202 -0.015146 53891.700000 0 0 1
27.371092 9.847894 22.572579 36.819546 0.345371 0.910869 0.121697 -0.015301 -405786.000000 0 0 1
26.276992 9.493994 21.583959 35.305573 0.346710 0.913035 0.115820 -0.028075 -476231.000000 0 0 1
24.956392 9.813694 21.964359 34.663571 0.374660 0.884542 0.110046 -0.023071 258169.000000 0 0 1
24.090692 9.365094 20.922759 33.253996 0.370765 0.890298 0.113985 -0.017797 630601.000000 0 0 1
22.549392 9.424994 21.165959 32.331152 0.395902 0.857062 0.081261 -0.016941 351705.000000 0 0 1
22.115492 8.743694 22.280759 32.588025 0.376504 0.817962 0.058602 -0.012343 189820.000000 0 0 1
20.692192 8.775894 22.223359 31.607923 0.401122 0.791056 0.086481 -0.015575 195850.000000 0 0 1
20.177892 8.029594 23.513939 32.008233 0.378729 0.745688 0.080363 -0.015187 -202775.000000 0 0 1
20.459192 6.660594 23.541559 31.892743 0.314734 0.740476 0.058048 -0.013168 176736.000000 0 0 1
20.121192 6.200894 24.838389 32.561619 0.298942 0.703146 0.086017 -0.021652 -397843.000000 0 0 1
20.056992 4.686294 25.010779 32.400360 0.229531 0.688926 0.070899 -0.019444 1173130.000000 0 0 1
21.345592 4.074794 24.659029 32.868008 0.188627 0.722365 0.066120 -0.018775 1605730.000000 0 0 1
21.330092 2.668594 24.777919 32.803041 0.124463 0.714602 0.066081 -0.026183 -415231.000000 0 0 1
22.766892 2.146094 24.748989 33.696432 0.093986 0.745912 0.068063 -0.021376 -673744.000000 0 0 1
23.501892 2.540394 25.866049 35.040619 0.107675 0.740438 0.064683 -0.032793 158171.000000 0 0 1
24.865892 2.434894 25.461339 35.672413 0.097610 0.775952 0.073621 -0.028810 500447.000000 0 0 1
25.902192 2.981194 26.492179 37.170507 0.114590 0.777427 0.071017 -0.029790 -438306.000000 0 0 1
26.094292 2.162994 27.567509 38.020496 0.082702 0.759661 0.080419 -0.034232 568777.000000 0 0 1
26.998792 2.551094 28.606489 39.417941 0.094209 0.758712 0.087222 -0.021487 1209270.000000 0 0 1
28.515892 2.827994 28.304099 40.277483 0.098849 0.791572 0.081368 -0.028576 -270401.000000 0 0 1
28.730892 4.029094 27.534969 39.998403 0.139327 0.811513 0.102932 -0.026244 652095.000000 0 0 1
30.109992 4.323194 27.302879 40.874794 0.142605 0.839327 0.108701 -0.019699 974295.000000 0 0 1
30.906492 3.291894 26.397079 40.778102 0.106111 0.866714 0.120825 -0.017942 -377264.000000 0 0 1
30.345892 3.302594 25.119599 39.531943 0.108405 0.882237 0.117742 -0.011082 181863.000000 0 0 1
31.009792 2.353894 24.319589 39.478987 0.075763 0.907124 0.118376 0.004874 -144642.000000 0 0 1
30.656692 2.390494 22.748459 38.249700 0.077819 0.933860 0.128085 -0.007609 122946.000000 0 0 1
31.202892 3.373494 21.890559 38.264833 0.107696 0.961756 0.144942 -0.017855 -319808.000000 0 0 1
32.546192 3.166794 21.526059 39.149130 0.096996 0.988614 0.122068 -0.016599 -115077.000000 0 0 1
33.296292 4.429894 21.069559 39.650893 0.132268 1.010572 0.133471 -0.020962 -741146.000000 0 0 1
32.923992 4.922394 19.813459 38.740061 0.148409 1.033929 0.133842 -0.023812 -128814.000000 0 0 1
33.602092 6.070194 19.314059 39.229844 0.178722 1.056031 0.147400 -0.015711 -208509.000000 0 0 1
35.137492 6.010694 19.192059 40.485885 0.169422 1.076919 0.134434 -0.026886 -532680.000000 0 0 1
35.928692 5.999994 20.352959 41.726655 0.165470 1.061264 0.121540 -0.025873 35289.500000 0 0 1
36.056292 7.185594 21.034759 42.357408 0.196711 1.051117 0.119984 -0.028779 -378473.000000 0 0 1
36.871292 7.026594 22.349859 43.685024 0.188313 1.033734 0.134924 -0.031768 163551.000000 0 0 1
36.236792 6.092894 23.242859 43.479408 0.166583 1.006796 0.140536 -0.020165 65287.600000 0 0 1
36.842492 5.866794 24.451829 44.605834 0.157914 0.990615 0.150172 -0.020935 -371623.000000 0 0 1
35.876792 4.996894 25.257759 44.159569 0.138389 0.961896 0.152560 -0.014190 128560.000000 0 0 1
35.804192 3.670094 24.775399 43.694738 0.102148 0.967924 0.156097 -0.013456 66469.700000 0 0 1
34.920092 2.932294 25.588949 43.391306 0.083775 0.940078 0.135130 -0.016933 -44520.100000 0 0 1
34.963792 1.415594 25.260979 43.157707 0.040465 0.945524 0.127463 -0.008638 -54476.700000 0 0 1
33.988992 0.983794 24.335319 41.814198 0.028936 0.949626 0.149472 -0.008801 79367.400000 0 0 1
34.368892 -0.313106 23.920239 41.874773 -0.009110 0.962789 0.126934 -0.012176 -433369.000000 0 0 1
33.494292 -0.813106 22.794229 40.522902 -0.024271 0.973387 0.130276 -0.002645 -582788.000000 0 0 1
32.161892 -0.898206 23.226409 39.681987 -0.027920 0.945529 0.120649 0.002728 -521728.000000 0 0 1
31.403692 -1.697306 22.288059 38.546469 -0.053995 0.954260 0.112790 -0.011756 9048.160000 0 0 1
29.981892 -1.832506 22.839699 37.734914 -0.061045 0.920695 0.101668 -0.003784 -360366.000000 0 0 1
29.183492 -0.661206 22.795739 37.037266 -0.022653 0.907800 0.111769 -0.006477 -74506.900000 0 0 1
27.821592 -1.056206 22.775899 35.970795 -0.037945 0.885145 0.109715 -0.003580 -28874.900000 0 0 1
26.970692 0.223894 22.772239 35.299337 0.008301 0.869619 0.111294 -0.014574 -304030.000000 0 0 1
27.013792 0.993794 21.564959 34.580052 0.036772 0.897426 0.121010 -0.017111 129194.000000 0 0 1
26.096392 2.059394 21.599359 33.938106 0.078752 0.880930 0.106712 -0.016476 -66759.700000 0 0 1
26.204492 2.975994 20.324359 33.295818 0.113084 0.914208 0.106521 -0.021541 -152280.000000 0 0 1
25.755992 2.446494 19.126359 32.174121 0.094703 0.934197 0.106251 -0.023089 -381660.000000 0 0 1
24.607092 3.099194 18.702059 31.062533 0.125287 0.924696 0.105974 -0.019426 -597217.000000 0 0 1
24.417592 3.018594 17.167559 30.000929 0.123000 0.961569 0.123089 -0.025740 -384218.000000 0 0 1
25.408392 3.753694 16.514259 30.535182 0.146673 0.999376 0.129172 -0.023851 -50935.000000 0 0 1
25.066892 4.208594 15.184459 29.607923 0.166343 1.032294 0.099383 -0.016543 -386719.000000 0 0 1
25.093792 3.182294 14.048159 28.933996 0.126143 1.063833 0.097492 -0.019434 -464295.000000 0 0 1
23.982592 2.346194 14.137259 27.937992 0.097519 1.040229 0.124176 -0.016158 -281281.000000 0 0 1
24.045892 1.248494 13.281659 27.498475 0.051875 1.066723 0.123118 -0.017434 -300289.000000 0 0 1
22.814792 0.330694 13.289759 26.405336 0.014494 1.043385 0.217293 -0.031176 540983.000000 0 0 1
21.553792 0.750794 12.707459 25.032162 0.034819 1.038347 0.233070 -0.028914 1544560.000000 0 0 1
21.396192 0.621194 11.296059 24.202972 0.029025 1.085216 0.226651 -0.024528 -609192.000000 0 1 0
21.123892 -0.887006 10.791859 23.737519 -0.041966 1.098836 0.241466 -0.018434 51436.500000 0 1 0
22.098292 -1.886906 11.070659 24.788191 -0.085180 1.107823 0.235656 -0.041199 22713.500000 0 1 0
23.226492 -1.963306 10.241759 25.460128 -0.084328 1.156805 0.242666 -0.033069 278768.000000 0 0 1
24.398592 -2.682406 11.014259 26.903540 -0.109501 1.149002 0.224011 -0.040160 293202.000000 0 0 1
24.719592 -1.957306 12.150259 27.613729 -0.079016 1.115189 0.185007 -0.043904 186867.000000 0 0 1
25.602992 -2.690406 13.011459 28.845269 -0.104697 1.102824 0.106997 -0.016881 300299.000000 0 0 1
25.870992 -1.971906 14.314859 29.632951 -0.076074 1.066636 0.132739 -0.038121 621417.000000 0 0 1
26.987492 -1.060506 14.252359 30.538158 -0.039276 1.085233 0.082505 -0.028091 639353.000000 0 0 1
27.399892 -0.561406 15.502659 31.486532 -0.020487 1.055999 0.091248 -0.031737 312045.000000 0 0 1
28.627192 0.372294 15.430359 32.523079 0.013004 1.076465 0.128524 -0.030337 834607.000000 0 0 1
29.957092 -0.138606 15.374359 33.672206 -0.004627 1.096639 0.163122 -0.038944 400971.000000 0 0 1
30.882892 0.823894 14.980359 34.334282 0.026672 1.119304 0.172710 -0.038893 -563602.000000 0 0 1
32.344292 0.494094 15.288459 35.778965 0.015275 1.129289 0.186139 -0.039809 -477567.000000 0 0 1
32.795992 -0.537206 14.470559 35.850561 -0.016379 1.155309 0.197680 -0.040907 722188.000000 0 0 1
34.093092 -0.994606 14.925259 37.230250 -0.029165 1.158307 0.157144 -0.037351 764582.000000 0 0 1
34.718192 -1.892606 13.902859 37.446285 -0.054459 1.190415 0.141225 -0.044814 -269574.000000 0 0 1
34.946492 -1.226206 12.686559 37.198248 -0.035074 1.222760 0.153951 -0.044566 329963.000000 0 0 1
35.678392 -2.060406 11.769059 37.625838 -0.057685 1.252665 0.152134 -0.040118 169644.000000 0 0 1
35.485592 -1.770906 10.278259 36.986564 -0.049864 1.289198 0.188587 -0.031262 -201257.000000 0 0 1
35.927092 -0.496006 9.779259 37.237560 -0.013805 1.305062 0.151807 -0.025529 899011.000000 0 0 1
34.908692 0.538494 9.874459 36.282388 0.015425 1.295164 0.166918 -0.031374 251695.000000 0 0 1
35.237592 1.945994 9.366459 36.513084 0.055169 1.311373 0.181198 -0.035000 -355878.000000 0 0 1
35.424792 1.908994 7.965859 36.359525 0.053837 1.349919 0.178814 -0.029679 414324.000000 0 0 1
35.574592 3.232794 7.538359 36.507936 0.090625 1.362815 0.176220 -0.024928 -50498.800000 0 0 1
35.976792 3.438094 6.036559 36.641371 0.095275 1.405295 0.145774 -0.019209 13204.100000 0 0 1
36.281392 4.788594 5.627859 37.026245 0.131226 1.418208 0.129590 -0.009406 371994.000000 0 0 1
36.608792 4.846594 4.265159 37.173709 0.131623 1.455807 0.165072 0.001369 -127655.000000 0 0 1
37.106992 6.195394 3.708859 37.803007 0.165434 1.472528 0.193269 -0.026895 -143289.000000 0 0 1
36.126992 7.201194 3.820159 37.035258 0.196751 1.467463 0.181886 -0.030306 190813.000000 0 0 1
36.594692 8.470094 3.336559 37.710033 0.227452 1.482201 0.174200 -0.039628 -41222.900000 0 0 1
35.386692 9.448294 3.114859 36.758544 0.260915 1.485956 0.191857 -0.046212 871930.000000 0 0 1
34.401792 9.264994 2.115559 35.690320 0.263075 1.511486 0.206710 -0.048155 324535.000000 0 0 1
33.741392 8.005894 2.108759 34.742232 0.232964 1.510062 0.236482 -0.028416 -1761290.000000 0 0 1
32.520892 8.079194 1.257159 33.533002 0.243501 1.533297 0.264405 -0.037501 -969611.000000 0 0 1
32.851292 8.021394 -0.119341 33.816628 0.239487 1.574325 0.285367 -0.033600 217926.000000 0 0 1
31.718492 7.882594 -0.939741 32.696806 0.243583 1.599541 0.286249 -0.031255 -91309.200000 0 0 1
32.177192 7.427394 -2.388141 33.109531 0.226855 1.642988 0.254245 -0.027334 -580768.000000 0 0 1
31.159892 6.847694 -3.135641 32.057168 0.216321 1.668767 0.296035 -0.037674 124185.000000 0 0 1
31.517392 6.564094 -4.502541 32.507017 0.205334 1.709753 0.241338 -0.031961 271452.000000 0 0 1
30.335592 5.881094 -5.298341 31.351360 0.191492 1.740610 0.282941 -0.024284 152229.000000 0 0 1
30.287492 4.478394 -4.992641 31.021196 0.146799 1.732442 0.288481 -0.026061 675426.000000 0 0 1
29.062592 3.908794 -5.398441 29.817043 0.133693 1.752853 0.280466 -0.028087 -155811.000000 0 0 1
29.076192 2.360994 -5.227641 29.636589 0.081022 1.748116 0.309989 -0.022710 -227884.000000 0 0 1
29.134692 1.980494 -3.891141 29.460034 0.067873 1.703265 0.338806 -0.037520 348350.000000 0 0 1
28.842292 0.632794 -3.759541 29.093167 0.021936 1.700383 0.283861 -0.038700 -121125.000000 0 0 1
29.031092 0.312094 -2.246941 29.119588 0.010750 1.648036 0.285222 -0.041790 440655.000000 0 0 1
30.377592 0.415094 -1.792941 30.433288 0.013664 1.629744 0.273722 -0.037739 473866.000000 0 0 1
30.348992 0.292194 -0.362541 30.352563 0.009627 1.582741 0.281259 -0.027931 551047.000000 0 0 1
31.756692 0.621094 0.228859 31.763589 0.019555 1.563591 0.309410 -0.028465 603716.000000 0 0 1
32.788792 -0.302006 -0.026241 32.790193 -0.009210 1.571597 0.258208 -0.028060 1133290.000000 0 0 1
34.078292 0.126094 0.480159 34.081907 0.003700 1.556707 0.172690 -0.028257 1053570.000000 0 0 1
-2.849708 -21.188206 -8.349241 22.951487 1.437104 1.943117 0.099028 -0.021657 338673.000000 0 1 0
-3.474008 -21.693206 -7.182441 23.113879 1.412002 1.886769 0.107168 -0.025294 -36034.600000 0 1 0
-2.985408 -22.990806 -6.874341 24.181530 1.441667 1.859052 0.099066 -0.023200 419.379000 0 1 0
-3.490908 -23.444906 -5.467541 24.325791 1.422984 1.797496 0.110858 -0.026889 -834681.000000 0 1 0
-2.970808 -22.681206 -4.472941 23.308154 1.440557 1.763899 0.111728 -0.032050 -302886.000000 0 1 0
-3.190008 -23.312206 -3.259541 23.754152 1.434802 1.708450 0.105380 -0.031568 -151075.000000 0 1 0
-2.701408 -22.600206 -1.979141 22.846968 1.451831 1.657531 0.083570 -0.031829 -650601.000000 0 1 0
-1.314308 -22.556206 -1.861941 22.671054 1.512594 1.653018 0.087360 -0.034567 -961318.000000 0 1 0
-0.958008 -22.290506 -0.542541 22.317679 1.527844 1.595109 0.057467 -0.032646 767068.000000 0 1 0
0.594992 -22.166706 -0.421941 22.178704 -1.543961 1.589822 0.057096 -0.035052 757648.000000 0 1 0
1.338992 -21.047206 -0.930441 21.110270 -1.507263 1.614886 0.049835 -0.032873 1367200.000000 0 1 0
2.583892 -20.780006 -0.207241 20.941063 -1.447086 1.580693 0.046551 -0.030793 1031380.000000 0 1 0
3.510692 -19.767006 -0.805441 20.092492 -1.395026 1.610894 0.051024 -0.028686 193283.000000 0 1 0
4.267692 -20.328806 -1.921841 20.860658 -1.363868 1.663055 0.034941 -0.018929 -145052.000000 0 1 0
5.114392 -19.398406 -2.501641 20.216661 -1.313012 1.694856 0.043547 -0.010222 -716035.000000 0 1 0
5.967392 -19.983006 -3.684241 21.177912 -1.280603 1.745652 0.032770 -0.008083 127522.000000 0 1 0
7.019592 -20.873706 -3.266241 22.263302 -1.246388 1.718037 0.052534 -0.016374 416978.000000 0 1 0
7.815592 -21.396506 -4.316641 23.184636 -1.220580 1.758075 0.031654 -0.012327 511491.000000 0 1 0
9.025592 -20.514006 -4.758641 22.911360 -1.156313 1.780017 0.044222 -0.014573 46953.100000 0 1 0
8.682692 -19.334406 -5.508041 21.898560 -1.148708 1.825052 0.030224 -0.014039 -991008.000000 0 1 0
9.838792 -18.783406 -5.979441 22.031157 -1.088289 1.845652 0.050178 -0.018555 -1109640.000000 0 1 0
9.607392 -17.687706 -7.006641 21.313140 -1.073214 1.905773 0.039140 -0.003758 1066100.000000 0 1 0
10.890792 -17.248006 -7.513041 21.738189 -1.007591 1.923690 0.058045 -0.008378 1388880.000000 0 1 0
10.615692 -16.157506 -8.407841 21.081976 -0.989507 1.981022 0.056718 -0.006413 202404.000000 0 1 0
10.960792 -16.500806 -9.913841 22.151745 -0.984463 2.034811 0.049992 0.002849 94988.900000 0 1 0
9.967692 -17.203606 -10.660341 22.560182 -1.045665 2.062955 0.041120 0.001028 238294.000000 0 1 0
9.116792 -16.333006 -11.385241 21.897642 -1.061693 2.117565 0.024076 -0.013644 29567.200000 0 1 0
8.655492 -16.991506 -12.731541 22.928606 -1.099656 2.159483 0.033515 -0.013700 -460809.000000 0 1 0
7.618692 -17.903706 -12.546541 23.151736 -1.168471 2.143524 0.036374 -0.002757 -172052.000000 0 1 0
7.353592 -18.543706 -13.834441 24.276246 -1.193264 2.177151 0.044122 0.003283 108444.000000 0 1 0
6.157892 -19.515506 -13.723541 24.639606 -1.265146 2.161530 0.050245 0.013173 -162060.000000 0 1 0
6.442292 -20.735906 -13.087941 25.353011 -1.269568 2.113238 0.056786 0.006236 623564.000000 0 0 1
5.315592 -21.500806 -12.609441 25.486039 -1.328429 2.088354 0.099639 -0.005323 566504.000000 0 0 1
5.721792 -22.940806 -12.361141 26.679905 -1.326368 2.052526 0.060607 -0.003447 -375529.000000 0 0 1
6.055092 -23.627706 -13.601241 27.927163 -1.319924 2.079477 0.067569 -0.009967 95321.800000 0 0 1
5.635192 -24.979426 -13.735341 29.058333 -1.348917 2.063128 0.061287 -0.014343 -333223.000000 0 0 1
4.156992 -25.261106 -14.033041 29.194697 -1.407697 2.072216 0.084051 -0.024375 -745389.000000 0 0 1
3.333792 -24.771606 -13.018141 28.181885 -1.437019 2.050970 0.094047 -0.027279 630500.000000 0 0 1
1.922492 -24.660006 -13.312741 28.089873 -1.492994 2.064549 0.107208 -0.037121 1564200.000000 0 0 1
1.098692 -25.978056 -13.060941 29.097332 -1.528528 2.036298 0.103656 -0.027751 -678321.000000 0 0 1
1.550792 -27.049336 -13.840241 30.424067 -1.513527 2.043069 0.095499 -0.024417 92979.100000 0 0 1
0.926892 -28.301666 -13.556041 31.394422 -1.538058 2.017281 0.077915 -0.016808 1100490.000000 0 0 1
-0.595108 -28.506306 -13.900441 31.720434 1.549923 2.024411 0.068661 -0.021393 949023.000000 0 0 1
-1.587908 -27.820536 -13.168541 30.820678 1.513781 2.012260 0.078772 -0.025228 -99906.900000 0 0 1
-2.859708 -28.351856 -13.439341 31.505898 1.470271 2.011489 0.078806 -0.022210 20541.200000 0 0 1
-4.048908 -27.521116 -12.858341 30.645431 1.424724 2.003784 0.061810 -0.021605 300148.000000 0 0 1
-4.303508 -27.746746 -11.494441 30.340143 1.416923 1.959352 0.075679 -0.034286 39535.000000 0 0 1
-5.277908 -28.745046 -11.290241 31.330553 1.389208 1.939449 0.063311 -0.029852 -692314.000000 0 0 1
-5.579708 -28.944826 -9.786641 31.059853 1.380362 1.891348 0.064530 -0.028433 -222195.000000 0 0 1
-6.904408 -28.622066 -9.435741 30.918065 1.334092 1.880929 0.072841 -0.026750 -382102.000000 0 0 1
-7.032808 -27.213316 -9.222641 29.581787 1.317897 1.887849 0.082767 -0.029918 -573473.000000 0 0 1
-8.399408 -26.775256 -8.614741 29.354356 1.266818 1.868655 0.082000 -0.025377 941314.000000 0 0 1
-9.589308 -27.025746 -9.374141 30.169858 1.229833 1.886738 0.094365 -0.023430 591159.000000 0 0 1
-9.900808 -28.383836 -9.651541 31.572463 1.235174 1.881465 0.094633 -0.036325 -904613.000000 0 0 1
-11.144108 -28.573686 -10.563841 32.438271 1.198929 1.902506 0.108993 -0.038131 50623.800000 0 0 1
-11.016708 -28.015986 -11.856141 32.354775 1.196140 1.945978 0.131572 -0.045201 158591.000000 0 0 1
-11.897408 -28.584686 -12.822941 33.512094 1.176389 1.963444 0.145374 -0.049365 11646.300000 0 0 1
-12.008008 -27.751976 -14.181041 33.398599 1.162430 2.009316 0.155063 -0.042614 180989.000000 0 0 1
-13.110108 -26.858936 -14.315141 33.139111 1.116706 2.017474 0.140364 -0.053749 263609.000000 0 0 1
-12.958008 -25.730836 -13.472541 31.804014 1.104274 2.008225 0.144490 -0.043375 702542.000000 0 0 1
-14.055008 -24.577306 -13.685941 31.446657 1.051318 2.021069 0.171495 -0.036268 203673.000000 0 0 1
-14.015608 -23.871306 -14.909941 31.441738 1.039892 2.064861 0.163971 -0.036831 87388.100000 0 0 1
-14.901208 -22.768206 -14.957441 31.050963 0.991282 2.073397 0.174460 -0.038708 -237616.000000 0 0 1
-14.710508 -21.940406 -16.223641 30.999791 0.980161 2.121570 0.157332 -0.030772 -33392.000000 0 0 1
-13.522008 -21.177106 -16.264541 29.930751 1.002534 2.145285 0.140179 -0.030480 252875.000000 0 0 1
-13.506208 -20.555806 -17.527141 30.201979 0.989480 2.189931 0.111513 -0.027340 19651.700000 0 0 1
-13.718508 -19.049706 -17.448941 29.249861 0.946679 2.209989 0.107949 -0.027005 687205.000000 0 0 1
-12.450708 -18.383906 -17.325841 28.163326 0.975495 2.233425 0.098401 -0.020555 1002790.000000 0 0 1
-12.623008 -16.962006 -17.529341 27.465029 0.931022 2.263009 0.100463 -0.017617 195282.000000 0 0 1
-11.230708 -16.324806 -17.654641 26.538924 0.968201 2.298606 0.092645 -0.020263 289977.000000 0 0 1
-10.511008 -16.105306 -16.445941 25.304766 0.992566 2.278269 0.109839 -0.019203 171816.000000 0 0 1
-9.187108 -15.692206 -16.670941 24.669183 1.041139 2.312819 0.084880 -0.016093 -318882.000000 0 1 0
-8.322908 -15.120706 -15.519341 23.211129 1.067622 2.303143 0.070225 -0.013774 -24392.900000 0 1 0
-7.989808 -16.049606 -14.450241 23.026862 1.108895 2.249184 0.062147 -0.012982 562021.000000 0 1 0
-6.806208 -16.772206 -14.808241 23.386222 1.185298 2.256482 0.054289 -0.007304 -9141.800000 0 1 0
-6.254808 -17.586206 -13.612141 23.101681 1.229083 2.200898 0.050042 -0.008886 -442956.000000 0 1 0
-5.469608 -16.837206 -12.717241 21.797623 1.256698 2.193734 0.034458 -0.009491 176749.000000 0 1 0
-5.257008 -17.488706 -11.466041 21.562956 1.278794 2.131459 0.036270 -0.021124 -711741.000000 0 1 0
-4.245808 -18.648206 -11.361341 22.245507 1.346933 2.106824 0.054258 -0.022166 -149001.000000 0 1 0
-2.932908 -18.200306 -11.658041 21.811993 1.411024 2.134687 0.056416 -0.011934 -209783.000000 0 1 0
-2.057908 -19.333206 -11.724041 22.703766 1.464751 2.113429 0.063035 -0.003228 546.787000 0 1 0
-0.673908 -18.922506 -12.218841 22.534762 1.535197 2.143876 0.051711 0.007728 -1086220.000000 0 1 0
-0.604208 -18.439606 -13.568041 22.901439 1.538041 2.204898 0.056214 0.002933 -321081.000000 0 1 0
0.633492 -17.848906 -13.882141 22.620756 -1.535319 2.231523 0.058647 -0.006032 1252120.000000 0 1 0
1.967192 -18.725206 -13.973741 23.447146 -1.466124 2.209267 0.076321 -0.013179 716346.000000 0 1 0
2.034692 -19.748306 -14.932741 24.841947 -1.468127 2.215686 0.102843 -0.005563 -8481.360000 0 1 0
1.439792 -20.983206 -14.593441 25.599541 -1.502287 2.177383 0.111824 -0.008426 -1064040.000000 0 0 1
1.486592 -21.839606 -15.866041 27.035340 -1.502833 2.197975 0.126268 -0.014963 536368.000000 0 0 1
2.683192 -22.456306 -16.324741 27.892336 -1.451875 2.196018 0.117224 -0.014782 586919.000000 0 0 1
3.885592 -21.700806 -16.308541 27.422460 -1.393621 2.207707 0.108720 -0.023154 -15545.400000 0 0 1
5.171592 -22.510006 -16.648241 28.471208 -1.344969 2.195355 0.110332 -0.014607 316622.000000 0 0 1
5.518592 -22.562606 -18.056841 29.420666 -1.330916 2.231594 0.098407 -0.020134 310875.000000 0 0 1
6.749492 -23.261306 -18.152541 30.268115 -1.288392 2.213954 0.094015 -0.023544 140156.000000 0 0 1
7.276692 -23.277306 -19.595041 31.284962 -1.267812 2.247646 0.099227 -0.015196 -132860.000000 0 0 1
7.553592 -22.001106 -20.094741 30.739292 -1.240078 2.283280 0.102792 -0.025756 47295.300000 0 0 1
7.979392 -22.019606 -21.434041 31.748258 -1.223138 2.311930 0.078789 -0.019133 -187512.000000 0 0 1
8.119392 -20.589606 -22.015541 31.217631 -1.195175 2.353541 0.071329 -0.025200 621636.000000 0 0 1
6.838992 -20.021006 -22.285841 30.728996 -1.241633 2.382177 0.103297 -0.031740 485141.000000 0 0 1
6.970692 -18.605406 -22.412641 29.951263 -1.212324 2.416298 0.105248 -0.029705 -62705.200000 0 0 1
5.645992 -17.922106 -22.768341 29.520781 -1.265609 2.451622 0.108788 -0.036965 -955237.000000 0 0 1
5.075392 -18.243406 -24.022741 30.588782 -1.299454 2.474049 0.093394 -0.037187 58415.700000 0 0 1
4.134492 -17.287906 -24.469541 30.244407 -1.336050 2.513347 0.104682 -0.035924 1523130.000000 0 0 1
2.737092 -17.121206 -23.722141 29.383114 -1.412272 2.510425 0.117477 -0.030997 439752.000000 0 0 1
2.926092 -16.470306 -22.494341 28.032631 -1.394972 2.502160 0.124024 -0.031062 -106290.000000 0 0 1
1.689792 -16.011706 -21.978941 27.245256 -1.465651 2.509355 0.105642 -0.029205 211281.000000 0 0 1
1.913592 -15.462406 -20.563541 25.799362 -1.447665 2.493201 0.099766 -0.022928 -23963.100000 0 0 1
2.581892 -14.217806 -20.562741 25.132420 -1.391158 2.529028 0.088100 -0.022069 -227178.000000 0 0 1
2.565392 -13.504606 -19.295441 23.691131 -1.383069 2.522592 0.082723 -0.021186 -147321.000000 0 1 0
3.700892 -12.470406 -19.210541 23.200270 -1.282302 2.546383 0.079669 -0.023861 -273962.000000 0 1 0
4.992492 -13.076706 -19.384241 23.909706 -1.206090 2.516189 0.078250 -0.020290 680845.000000 0 1 0
6.011492 -12.157706 -19.761641 23.968110 -1.111591 2.540109 0.074664 -0.011040 389472.000000 0 1 0
6.478192 -11.105106 -18.763541 22.745567 -1.042708 2.540878 0.079311 -0.008065 -1562290.000000 0 1 0
5.541792 -10.120406 -18.469341 21.777297 -1.069808 2.583187 0.049563 -0.000309 -397938.000000 0 1 0
5.719892 -8.903606 -19.183541 21.908894 -0.999765 2.637484 0.070172 -0.013338 -219175.000000 0 1 0
5.093592 -8.761806 -20.596741 22.955167 -1.044210 2.684319 0.092885 -0.026356 160603.000000 0 1 0
3.675492 -8.659806 -20.508541 22.563283 -1.169408 2.711517 0.073982 -0.022922 253411.000000 0 1 0
3.092092 -9.248806 -21.688941 23.780488 -1.248155 2.719047 0.079494 -0.025064 -951751.000000 0 1 0
1.600592 -9.046006 -21.642941 23.511891 -1.395670 2.740181 0.081301 -0.025715 -989734.000000 0 1 0
1.258492 -7.716206 -21.955441 23.305901 -1.409123 2.799501 0.076510 -0.022820 -527064.000000 0 1 0
-0.142008 -7.624306 -21.911241 23.200274 1.552173 2.806680 0.069255 -0.021015 24142.900000 0 1 0
-0.683108 -6.547506 -22.932041 23.858227 1.466841 2.862042 0.077475 -0.020458 144676.000000 0 1 0
-0.510608 -6.986306 -24.272641 25.263220 1.497839 2.860633 0.085864 -0.018169 -416413.000000 0 0 1
-1.202608 -6.266106 -25.291011 26.083435 1.381179 2.894467 0.110126 -0.032165 98657.800000 0 0 1
-0.781708 -4.807806 -25.611361 26.070441 1.409615 2.953650 0.110384 -0.028140 -216413.000000 0 0 1
-1.497808 -4.333306 -26.724541 27.114979 1.238002 2.971687 0.116140 -0.028008 -122682.000000 0 0 1
-1.093608 -3.047306 -27.086291 27.279099 1.226235 3.022628 0.092165 -0.027178 -758158.000000 0 0 1
-1.327608 -1.795706 -26.243071 26.337917 0.934163 3.056701 0.087969 -0.025081 948047.000000 0 0 1
-2.680308 -1.363206 -25.990121 26.163501 0.470504 3.026405 0.092277 -0.030109 938143.000000 0 0 1
-3.484708 -0.994206 -27.120221 27.361251 0.277922 3.008761 0.102876 -0.027326 55576.400000 0 0 1
-4.983408 -1.285706 -26.885511 27.373676 0.252491 2.952455 0.109523 -0.037469 119650.000000 0 0 1
-5.629008 -0.292806 -26.134821 26.735750 0.051971 2.929172 0.110835 -0.025333 1080150.000000 0 0 1
-7.079108 -0.373606 -26.134501 27.078876 0.052727 2.876717 0.123852 -0.043361 1353410.000000 0 0 1
-7.685208 0.837794 -25.363131 26.515142 -0.108585 2.845736 0.102823 -0.037346 -473992.000000 0 0 1
-7.902108 2.063894 -26.082581 27.331374 -0.255475 2.838136 0.117494 -0.039887 622352.000000 0 0 1
-8.920708 2.143294 -27.096761 28.607817 -0.235791 2.815123 0.135971 -0.051931 1705050.000000 0 0 1
-10.425108 1.771294 -26.760921 28.774420 -0.168299 2.765276 0.122036 -0.052957 507551.000000 0 0 1
-11.448208 2.503994 -27.394601 29.795900 -0.215333 2.737370 0.128479 -0.066395 387356.000000 0 0 1
-12.622908 1.679894 -27.232771 30.062995 -0.132305 2.704195 0.073506 -0.043697 877604.000000 0 0 1
-13.881008 2.410994 -27.847511 31.208639 -0.171974 2.673214 0.050382 -0.034036 -335738.000000 0 0 1
-15.027408 1.611694 -27.776181 31.621777 -0.106842 2.643275 0.033460 -0.031461 -104428.000000 0 0 1
-16.218008 2.143094 -28.309821 32.696523 -0.131382 2.617615 0.037588 -0.026612 225772.000000 0 0 1
-16.941108 3.325194 -27.593661 32.549473 -0.193816 2.582516 0.035530 -0.012162 -888878.000000 0 0 1
-16.408308 4.641394 -27.601001 32.443649 -0.275667 2.588182 0.055840 -0.012197 -29810.400000 0 0 1
-16.145108 5.228794 -28.860781 33.480584 -0.313203 2.610029 0.048278 -0.006338 -265175.000000 0 0 1
-17.374808 5.709394 -29.669681 34.853567 -0.317486 2.589191 0.035081 -0.001014 392860.000000 0 0 1
-18.175308 6.737994 -29.060191 34.931892 -0.355015 2.553337 0.044630 0.006344 346613.000000 0 0 1
-19.175008 7.242894 -29.896211 36.248088 -0.361158 2.540586 0.032186 0.009843 -305018.000000 0 0 1
-19.952108 8.393694 -29.242691 36.382354 -0.398216 2.504385 0.042338 0.003093 -751132.000000 0 0 1
-19.141508 9.503494 -28.984441 36.011270 -0.460833 2.506255 0.039032 0.005620 273836.000000 0 0 1
-19.873808 10.513194 -28.294021 36.139274 -0.486576 2.470136 0.075601 -0.000240 68963.300000 0 0 1
-9.178708 24.726394 30.691329 40.467282 -1.215352 0.709906 0.050872 -0.014820 -333814.000000 0 0 1
-10.052708 25.883694 30.752659 41.433665 -1.200347 0.734428 0.055459 -0.012226 312885.000000 0 0 1
-9.618308 26.978694 31.569878 42.626505 -1.228329 0.736809 0.072531 -0.017742 361328.000000 0 0 1
-8.232008 27.678894 31.410989 42.667755 -1.281716 0.743393 0.075896 -0.024864 429315.000000 0 0 1
-8.179008 28.390094 30.188329 42.240133 -1.290298 0.774625 0.086153 -0.005703 311896.000000 0 0 1
-6.823008 28.705594 29.918519 42.020023 -1.337437 0.778445 0.095420 -0.006125 257944.000000 0 0 1
-6.544108 29.872294 28.889339 42.068672 -1.355134 0.813831 0.117107 -0.015841 -143422.000000 0 0 1
-6.921108 31.103794 29.445549 43.386496 -1.351847 0.824832 0.110886 -0.020353 334598.000000 0 0 1
-6.514408 32.145194 28.590199 43.510349 -1.370848 0.853845 0.120056 -0.011911 2160.190000 0 0 1
-6.917208 33.491194 29.220629 44.981696 -1.367122 0.863723 0.132872 -0.018648 -232418.000000 0 0 1
-6.243108 33.715594 30.413969 45.833690 -1.387700 0.845212 0.146199 -0.029051 76488.100000 0 0 1
-6.985308 -33.068797 31.252819 46.033450 1.362621 0.824512 0.134753 -0.031355 848099.000000 0 0 1
-8.039908 -33.791797 32.183929 47.353257 1.337214 0.823503 0.065877 -0.023877 681347.000000 0 0 1
-7.412008 33.085094 33.196764 47.450884 -1.350407 0.795955 0.073823 -0.020580 205948.000000 0 0 1
-7.018308 31.809294 32.769071 46.204976 -1.353638 0.782418 0.082572 -0.016411 -115694.000000 0 0 1
-6.897208 30.851694 -33.632751 46.157994 -1.350853 2.387136 0.082439 -0.016020 539692.000000 0 0 1
-5.717308 30.996294 -32.829801 45.511028 -1.388395 2.376559 0.095387 -0.015682 334656.000000 0 0 1
-5.850708 30.191594 -31.649151 44.129717 -1.379383 2.370550 0.088197 -0.017560 328212.000000 0 0 1
-4.479508 29.805494 -30.977981 43.221161 -1.421621 2.369901 0.096432 -0.023253 1360260.000000 0 0 1
-3.687008 28.701194 -31.460701 42.744921 -1.443034 2.397954 0.112587 -0.019597 501124.000000 0 0 1
-3.257708 28.830794 -32.821361 43.807181 -1.458280 2.417685 0.107224 -0.027857 -702910.000000 0 0 1
-2.454508 27.607994 -33.296971 43.323368 -1.482124 2.447397 0.110800 -0.034320 252111.000000 0 0 1
-1.232908 27.382894 -32.537011 42.544095 -1.525802 2.441501 0.128329 -0.020511 924668.000000 0 0 1
-0.773108 26.064494 -32.614121 41.756873 -1.541144 2.467139 0.141617 -0.026838 -114995.000000 0 0 1
-0.034108 25.668094 33.705869 42.366706 -1.569468 0.650841 0.118416 -0.028141 -691418.000000 0 0 1
-0.931008 25.345694 32.670422 41.359732 -1.534080 0.660136 0.122998 -0.030162 -134264.000000 0 0 1
-0.368408 25.292394 31.389039 40.312686 -1.556231 0.678302 0.110908 -0.029276 6583.210000 0 0 1
-0.075708 26.579594 30.629409 40.554176 -1.567948 0.714728 0.100229 -0.031646 708975.000000 0 0 1
-1.303608 27.240194 30.253179 40.730607 -1.522977 0.733609 0.109703 -0.031858 617938.000000 0 0 1
-1.117208 28.441094 29.545299 41.025220 -1.531535 0.766743 0.103814 -0.031705 -164989.000000 0 0 1
-2.372608 29.338294 29.554099 41.711024 -1.490101 0.783363 0.120889 -0.032039 -57701.200000 0 0 1
-2.597908 29.868494 30.852949 43.020699 -1.484036 0.771070 0.126923 -0.042325 72807.700000 0 0 1
-3.334508 31.086594 30.806699 43.892459 -1.463940 0.792780 0.134230 -0.039832 -167661.000000 0 0 1
-3.057308 32.010994 31.978295 45.350438 -1.475577 0.788179 0.129642 -0.017499 692747.000000 0 0 1
-1.702808 32.479094 31.907689 45.561954 -1.518416 0.794959 0.184389 -0.042813 381726.000000 0 0 1
-1.283408 32.913694 33.186251 46.757733 -1.531823 0.781655 0.148598 -0.029909 -356825.000000 0 0 1
0.192492 33.317294 33.251603 47.071735 1.565019 0.786393 0.158951 -0.049180 -329127.000000 0 0 1
0.488192 -33.303297 32.431176 46.487946 -1.556138 0.798718 0.185064 -0.057686 -6547.460000 0 0 1
1.877392 -33.081897 32.542101 46.442705 -1.514107 0.794427 0.163812 -0.053823 -50115.500000 0 0 1
2.313692 -31.743897 31.898970 45.061873 -1.498039 0.784286 0.172830 -0.058028 -33839.800000 0 0 1
2.003392 -30.674197 32.774860 44.934523 -1.505577 0.753364 0.162024 -0.044889 76306.400000 0 0 1
2.237292 -29.419197 32.228799 43.694280 -1.494894 0.741291 0.159464 -0.051685 21832.000000 0 0 1
1.729592 -28.177997 33.074818 43.484878 -1.509492 0.706552 0.158686 -0.049810 813306.000000 0 0 1
0.309392 -28.035297 33.204138 43.457892 -1.559761 0.701224 0.152726 -0.044384 740684.000000 0 0 1
-0.001008 -27.421297 -33.139151 43.013148 1.570760 2.450331 0.127598 -0.029054 -590596.000000 0 0 1
-1.491508 -27.176497 -32.971531 42.754046 1.515969 2.451506 0.167456 -0.029805 -549555.000000 0 0 1
-1.861508 -26.794997 -31.637981 41.501794 1.501436 2.437699 0.162268 -0.028163 878308.000000 0 0 1
-3.165108 -26.201897 -31.506291 41.099923 1.450582 2.444291 0.201906 -0.044022 697268.000000 0 0 1
-3.331408 -25.449197 -30.180851 39.618729 1.440632 2.436856 0.212586 -0.051416 -66512.500000 0 0 1
-3.439708 -26.334897 -29.046581 39.358128 1.440917 2.400909 0.192390 -0.047884 109816.000000 0 0 1
-3.857108 -25.751397 -27.839831 38.119128 1.422119 2.389612 0.207575 -0.044070 424635.000000 0 0 1
-2.654208 -25.343297 -26.920871 37.068326 1.466447 2.383647 0.196652 -0.050265 707380.000000 0 0 1
-1.915808 -24.242697 -27.459891 36.680026 1.491934 2.416795 0.202085 -0.051338 727909.000000 0 0 1
-0.758108 -23.873497 -26.704151 35.827786 1.539052 2.411852 0.152074 -0.051698 -186173.000000 0 0 1
0.139392 -22.769697 -27.362631 35.597642 -1.564675 2.447546 0.091559 -0.033596 504151.000000 0 0 1
0.894392 -23.098697 -28.525021 36.715481 -1.532095 2.460557 0.053221 -0.035192 -49681.200000 0 0 1
1.826192 -24.140197 -28.304671 37.245651 -1.495291 2.434026 0.032605 -0.019923 -1457390.000000 0 0 1
2.690892 -24.360897 -29.493821 38.348138 -1.460783 2.448239 0.033096 -0.027968 -658683.000000 0 0 1
3.753192 -23.464497 -29.647091 37.994987 -1.412188 2.465925 0.071956 -0.032845 -408320.000000 0 0 1
4.515192 -23.787297 -30.770171 39.153874 -1.383213 2.474911 0.088632 -0.031384 -1470980.000000 0 0 1
5.624992 -22.801097 -31.046761 38.928549 -1.328928 2.493989 0.110367 -0.035098 -855635.000000 0 0 1
6.768992 -22.955897 -30.197471 38.531542 -1.284053 2.471409 0.081731 -0.037337 892464.000000 0 0 1
7.690992 -24.026097 -30.424241 39.522641 -1.260994 2.449313 0.086246 -0.031070 166413.000000 0 0 1
8.337892 -24.029497 -31.873921 40.778475 -1.236809 2.468081 0.091893 -0.025864 -1123260.000000 0 0 1
7.504892 -24.638397 -32.796421 41.701070 -1.275123 2.475860 0.078941 -0.029698 -386913.000000 0 0 1
7.714192 -24.369397 33.402772 42.060925 -1.264224 0.653185 0.100227 -0.026824 -135465.000000 0 0 1
7.111992 -23.037497 32.904933 40.792662 -1.271365 0.632354 0.097353 -0.017940 290335.000000 0 0 1
5.712692 -22.912897 33.145758 40.697383 -1.326456 0.619025 0.105266 -0.025503 609444.000000 0 0 1
5.197892 -21.710297 32.529878 39.453112 -1.335799 0.601443 0.116367 -0.032859 13023.100000 0 0 1
3.721092 -21.370797 32.809377 39.332082 -1.398404 0.584182 0.098066 -0.041140 462909.000000 0 0 1
2.746392 -22.318997 32.369923 39.414365 -1.448360 0.607159 0.103581 -0.037634 370620.000000 0 0 1
2.447592 -23.414897 33.273624 40.760056 -1.466643 0.615770 0.091957 -0.026169 48595.300000 0 0 1
0.994592 -23.916897 33.054368 40.811744 -1.529235 0.626776 0.111395 -0.030940 243376.000000 0 0 1
0.843192 -24.841597 31.949091 40.479134 -1.536867 0.661172 0.125230 -0.029879 -526183.000000 0 0 1
-0.478008 -24.980897 31.531878 40.230996 1.551664 0.670082 0.148757 -0.044861 -607131.000000 0 0 1
-0.748808 -26.141997 30.472499 40.156418 1.542160 0.709258 0.159424 -0.051366 1577810.000000 0 0 1
-2.108408 -26.205297 29.923689 39.832024 1.490512 0.720847 0.181090 -0.052742 1618840.000000 0 0 1
-2.243708 -27.437997 29.229319 40.152596 1.489204 0.755460 0.194732 -0.059897 1037500.000000 0 0 1
-3.661008 -27.498897 28.513729 39.782220 1.438442 0.771672 0.208792 -0.049956 994988.000000 0 0 1
-4.737308 -27.818297 29.402149 40.752743 1.402120 0.764864 0.204308 -0.047223 286050.000000 0 0 1
-5.717608 -28.389697 28.537049 40.657461 1.372058 0.792749 0.170709 -0.034339 -239303.000000 0 0 1
-7.043108 -28.694797 29.256119 41.580251 1.330106 0.790337 0.109935 -0.020905 92469.600000 0 0 1
-8.031308 -29.341797 28.451499 41.652500 1.303625 0.818841 0.103094 -0.016690 1265450.000000 0 0 1
-9.376308 -29.416497 28.944859 42.320802 1.262234 0.817648 0.076718 -0.011729 803674.000000 0 0 1
-9.609208 -30.541697 30.017449 43.888260 1.265976 0.817631 0.050553 -0.002877 -448698.000000 0 0 1
-9.608908 -31.843297 29.543429 44.487536 1.277729 0.844529 0.067666 -0.004370 -553625.000000 0 0 1
-10.894108 -32.219897 29.182959 44.815717 1.244746 0.861662 0.061901 -0.002532 -917907.000000 0 0 1
-11.057708 -33.647297 28.605969 45.527079 1.253279 0.891393 0.076091 -0.000971 -220826.000000 0 0 1
-11.007708 33.104894 29.678019 45.802712 -1.249787 0.865902 0.069772 -0.003205 260692.000000 0 0 1
-10.652708 31.814394 29.188309 44.470139 -1.247691 0.854816 0.077052 -0.010533 -65720.100000 0 0 1
-11.022308 30.624694 30.099449 44.332155 -1.225315 0.824461 0.076012 -0.000788 696153.000000 0 0 1
-12.445708 30.605394 30.272479 44.810811 -1.184570 0.829070 0.064722 0.012125 423851.000000 0 0 1
-12.966408 29.442194 30.859779 44.579104 -1.155952 0.806197 0.073520 0.000145 -21439.900000 0 0 1
-12.708108 29.224394 32.380578 45.431960 -1.160616 0.777418 0.077009 -0.008733 -373672.000000 0 0 1
-13.616208 29.945894 33.181424 46.724347 -1.144046 0.781081 0.075283 0.001284 113494.000000 0 0 1
-13.764808 29.382694 -33.152371 46.388494 -1.132692 2.366946 0.089198 -0.003847 -52683.700000 0 0 1
-15.035608 29.910294 -32.449841 46.622820 -1.104999 2.340619 0.084138 -0.004373 -63382.300000 0 0 1
-15.188408 29.625294 -31.081341 45.545533 -1.097053 2.321869 0.069259 -0.013745 -711441.000000 0 0 1
-16.367408 30.064194 -30.489121 45.840313 -1.072251 2.298445 0.069171 -0.012275 -494548.000000 0 0 1
-16.678208 29.423694 -29.095951 44.614916 -1.055124 2.281223 0.096408 -0.017543 35088.500000 0 0 1
-17.030408 28.064894 -29.137561 43.893855 -1.025375 2.296710 0.077328 -0.019546 25269.300000 0 0 1
-16.973708 27.571394 -27.786881 42.666137 -1.018965 2.280044 0.073816 -0.020413 -52316.900000 0 0 1
-17.618108 26.134894 -27.647021 41.925985 -0.977650 2.290849 0.056500 -0.025522 388112.000000 0 0 1
-19.019608 26.172594 -27.835001 42.679473 -0.942375 2.281262 0.061256 -0.025540 -896.778000 0 0 1
-19.636208 24.909594 -27.558161 42.018101 -0.903231 2.286123 0.041665 -0.021932 -163898.000000 0 0 1
-21.113208 24.851094 -27.937981 42.940368 -0.866541 2.279201 0.062465 -0.025036 -444542.000000 0 0 1
-22.011008 25.137294 -26.880801 42.882928 -0.851609 2.248289 0.072954 -0.028226 1054760.000000 0 0 1
-23.322208 24.697794 -27.312791 43.587785 -0.814036 2.247999 0.100180 -0.035159 594923.000000 0 0 1
-24.512208 24.725094 -26.379401 43.681248 -0.789722 2.219190 0.107438 -0.032829 -385244.000000 0 0 1
-25.059288 26.042694 -26.211991 44.645921 -0.804640 2.198278 0.085636 -0.032664 542315.000000 0 0 1
-26.212008 26.054494 -25.341881 44.812018 -0.782384 2.171854 0.096848 -0.039095 622185.000000 0 0 1
-26.093168 25.704094 -23.846141 43.705747 -0.777887 2.147909 0.089542 -0.024552 -768097.000000 0 0 1
-26.021478 24.314194 -23.661341 42.756946 -0.751493 2.157227 0.093156 -0.014199 205747.000000 0 0 1
-27.209938 23.498394 -23.631541 43.023307 -0.712334 2.152290 0.099975 -0.004549 603099.000000 0 0 1
-28.127038 23.600794 -22.360841 42.989940 -0.698119 2.117813 0.086246 -0.006883 22882.500000 0 0 1
-27.514478 23.237294 -21.127941 41.754140 -0.701320 2.101347 0.091307 -0.005029 203633.000000 0 0 1
-26.740348 24.321694 -20.591941 41.600710 -0.738067 2.088620 0.098486 -0.002118 364460.000000 0 0 1
-25.791678 23.901894 -19.423941 40.172138 -0.747388 2.075465 0.093500 -0.003181 78697.500000 0 0 1
-26.440528 23.702094 -18.180841 39.892778 -0.730839 2.044003 0.088860 0.004116 16496.000000 0 0 1
-25.495908 23.473094 -17.131541 38.658986 -0.744114 2.029900 0.116692 -0.013850 -110245.000000 0 0 1
-26.004698 23.447794 -15.673641 38.362826 -0.733740 1.991676 0.114932 -0.020491 -329331.000000 0 0 1
-26.187098 24.695294 -15.076341 39.024578 -0.756088 1.967445 0.110592 -0.019399 -117180.000000 0 0 1
-26.696118 24.654194 -13.799141 38.870661 -0.745654 1.933712 0.083756 -0.026915 -87976.600000 0 0 1
-26.781178 26.045094 -13.156341 39.606410 -0.771465 1.909407 0.084383 -0.025913 1164750.000000 0 0 1
-25.487978 26.700894 -13.032541 39.146161 -0.808635 1.910195 0.098649 -0.028981 989975.000000 0 0 1
-25.588158 27.705394 -12.054741 39.593680 -0.825105 1.880169 0.117197 -0.026321 937913.000000 0 0 1
-24.184608 28.365094 -11.767341 39.088926 -0.864784 1.876580 0.129825 -0.027220 1180430.000000 0 0 1
-23.250908 27.456494 -11.191541 37.679097 -0.868147 1.872369 0.130094 -0.026870 225656.000000 0 0 1
-22.134808 28.039494 -10.553641 37.249729 -0.902543 1.858052 0.126603 -0.032615 75393.600000 0 0 1
-21.184808 27.046594 -9.892841 35.751680 -0.906340 1.851165 0.175739 -0.027803 -113970.000000 0 0 1
-20.543608 26.205694 -10.852441 35.022189 -0.905927 1.885856 0.167761 -0.032105 53644.100000 0 0 1
-19.921608 25.085794 -10.223941 33.625831 -0.899639 1.879738 0.160346 -0.019666 -24045.800000 0 0 1
-19.023208 24.283994 -11.194941 32.816482 -0.906282 1.918923 0.137831 -0.034260 -223849.000000 0 0 1
-18.570908 23.127594 -10.593341 31.495763 -0.894243 1.913826 0.089945 -0.028934 176230.000000 0 0 1
-18.099108 22.176294 -11.582141 30.878985 -0.886287 1.955281 0.125654 -0.025813 505282.000000 0 0 1
-17.512608 20.809494 -11.088241 29.371339 -0.871218 1.957912 0.081954 -0.013164 603834.000000 0 0 1
-18.594308 19.955294 -10.765141 29.323204 -0.820688 1.946707 0.078738 -0.012340 538216.000000 0 0 1
-18.055708 18.696894 -10.400541 27.995601 -0.802842 1.951427 0.097067 -0.033444 -888202.000000 0 0 1
-19.134208 17.634394 -10.250241 27.967074 -0.744630 1.946053 0.090875 -0.024251 -450794.000000 0 0 1
-19.607108 17.073494 -11.441341 28.405055 -0.716435 1.985362 0.096121 -0.020900 -167214.000000 0 0 1
-20.557208 17.841894 -12.101941 29.789075 -0.714803 1.989147 0.116052 -0.019347 -1112020.000000 0 0 1
-21.245708 17.182794 -13.318241 30.397435 -0.680063 2.024321 0.130270 -0.021518 308337.000000 0 0 1
-20.406708 17.116494 -14.498141 30.324976 -0.697937 2.069278 0.113902 -0.028988 97051.900000 0 0 1
-21.038308 16.565594 -15.593941 30.987099 -0.667012 2.098140 0.136708 -0.021951 -568132.000000 0 0 1
-20.186708 16.411694 -16.849341 30.995922 -0.682615 2.145515 0.129567 -0.032717 -547964.000000 0 0 1
-19.963108 17.595894 -17.546441 31.875049 -0.722455 2.153730 0.119488 -0.031195 86086.600000 0 0 1
-19.221408 17.374194 -18.717141 31.963362 -0.734965 2.196393 0.112957 -0.021875 -518340.000000 0 0 1
-18.416808 18.641594 -19.130441 32.444747 -0.791464 2.201399 0.082839 -0.017539 -228711.000000 0 0 1
-17.446308 19.020394 -18.183841 31.572157 -0.828536 2.184557 0.093402 -0.017255 415269.000000 0 0 1
-16.667108 20.150894 -18.617041 32.100549 -0.879739 2.189476 0.112192 -0.019681 258791.000000 0 0 1
34.746290 30.014494 2.150359 45.965188 0.712462 1.523997 0.089178 -0.016590 -156046.000000 0 0 1
35.721980 30.000194 1.153759 46.662647 0.698557 1.546068 0.106289 -0.019444 -214351.000000 0 0 1
35.641080 31.166794 0.325559 47.347245 0.718526 1.563920 0.086645 -0.007364 -728636.000000 0 0 1
36.822750 31.176494 -0.625141 48.252248 0.702554 1.583752 0.057848 -0.001604 -749368.000000 0 0 1
-37.701458 31.454094 0.175159 49.099803 -0.695305 1.567229 0.046856 0.002066 490104.000000 0 0 1
-36.457198 31.395594 -0.577541 48.115945 -0.710939 1.582800 0.047087 0.006238 1183310.000000 0 0 1
-35.445610 32.468694 -0.090641 48.068863 -0.741593 1.572682 0.048655 -0.004044 -115596.000000 0 0 1
-34.794796 32.201894 1.122359 47.422563 -0.746716 1.547127 0.038922 -0.007801 -44245.600000 0 0 1
-34.249567 33.364494 1.675159 47.843792 -0.772309 1.535776 0.042646 -0.006385 -533732.000000 0 0 1
-33.480318 33.198494 2.945959 47.241405 -0.781172 1.508396 0.062765 -0.010106 -384345.000000 0 0 1
-33.000008 -33.244597 3.485259 46.971809 0.789090 1.496529 0.085828 -0.010296 258733.000000 0 0 1
-32.436958 -33.362597 4.791359 46.777946 0.799465 1.468189 0.092163 -0.027357 -470086.000000 0 0 1
-32.263738 -31.996397 5.531359 45.774602 0.781238 1.449661 0.114529 -0.026641 656402.000000 0 0 1
-33.412568 -31.396497 6.173059 46.262797 0.754300 1.436963 0.100867 -0.023535 430671.000000 0 0 1
-33.987008 -32.195397 7.183559 47.363106 0.758334 1.418539 0.088739 -0.034174 -1087670.000000 0 0 1
-35.081550 -31.500797 8.046859 47.830611 0.731671 1.401756 0.100797 -0.029970 1445440.000000 0 0 1
-36.415838 -31.309797 7.528059 48.611607 0.710147 1.415309 0.071774 -0.024464 983182.000000 0 0 1
-37.085978 -32.485397 7.146959 49.817164 0.719367 1.426836 0.064846 -0.016101 -818398.000000 0 0 1
37.016230 -32.438997 7.026559 49.717827 -0.719591 1.428993 0.068863 -0.012287 300951.000000 0 0 1
36.266440 -32.317697 8.255959 49.273208 -0.727886 1.402448 0.063176 -0.012778 580144.000000 0 0 1
34.879320 -32.278597 7.945559 48.183054 -0.746692 1.405136 0.052777 0.002454 -53948.300000 0 0 1
34.049350 -31.981597 9.156859 47.602824 -0.754093 1.377230 0.045297 -0.014074 -3484.730000 0 0 1
32.622170 -32.049497 9.074759 46.623250 -0.776543 1.374906 0.049085 -0.017807 889898.000000 0 0 1
31.932700 -31.926297 10.294659 46.313775 -0.785298 1.346643 0.055604 -0.015143 24646.300000 0 0 1
31.926370 -30.573597 10.988759 45.549871 -0.763757 1.327146 0.074973 -0.020747 -952650.000000 0 0 1
31.199660 -29.570397 10.341459 44.212814 -0.758594 1.334707 0.062758 -0.032416 -292895.000000 0 0 1
31.575500 -29.011697 9.124759 43.840072 -0.743107 1.361126 0.055506 -0.029309 -353162.000000 0 0 1
30.983380 -27.605897 8.915659 42.444603 -0.727815 1.359166 0.054416 -0.030569 2299.440000 0 0 1
31.399220 -27.064797 7.690459 42.161088 -0.711395 1.387363 0.067430 -0.034659 162434.000000 0 0 1
30.685080 -25.863197 7.285359 40.786708 -0.700334 1.391212 0.051838 -0.033919 420622.000000 0 0 1
30.921170 -25.550297 5.780659 40.525947 -0.690576 1.427667 0.052102 -0.024054 144663.000000 0 0 1
32.180040 -24.983097 5.498659 41.108945 -0.660155 1.436636 0.069338 -0.028254 -488882.000000 0 0 1
32.375790 -24.564797 4.136259 40.850087 -0.649071 1.469368 0.060643 -0.021171 252363.000000 0 0 1
33.819210 -24.057897 3.854659 41.681887 -0.618315 1.478186 0.074971 -0.022647 751906.000000 0 0 1
34.717170 -25.175197 3.796159 43.052099 -0.627407 1.482506 0.074927 -0.013902 -515618.000000 0 0 1
36.060810 -24.781197 3.791959 43.918887 -0.602088 1.484349 0.094329 -0.021564 -741899.000000 0 0 1
36.973430 -25.929597 3.944659 45.331433 -0.611600 1.483668 0.092593 -0.022565 -786755.000000 0 0 1
36.744460 -26.460697 5.245459 45.583315 -0.624107 1.455467 0.070497 -0.010278 -397502.000000 0 0 1
37.342430 -27.710897 5.374059 46.810590 -0.638410 1.455738 0.064458 -0.012768 -1211210.000000 0 0 1
36.540350 -28.777797 6.182059 46.920961 -0.667111 1.438657 0.078407 -0.015529 733104.000000 0 0 1
35.337270 -29.267597 5.568459 46.220370 -0.691722 1.450027 0.068766 -0.011933 1006950.000000 0 0 1
34.300050 -28.263497 5.623859 44.798956 -0.689209 1.444929 0.066550 -0.020525 -762759.000000 0 0 1
32.845800 -28.727997 5.459059 43.976649 -0.718622 1.446340 0.051749 -0.007622 -588433.000000 0 0 1
32.505840 -29.185297 4.189559 43.885801 -0.731625 1.475186 0.034672 -0.005721 -507891.000000 0 0 1
31.224430 -28.814797 3.769059 42.655168 -0.745285 1.482320 0.039745 -0.006371 -150948.000000 0 0 1
30.144840 -29.886097 4.046859 42.641145 -0.781088 1.475748 0.038142 -0.007830 -161146.000000 0 0 1
30.297940 -31.131997 3.403459 43.574648 -0.798975 1.492610 0.043991 0.002853 -380778.000000 0 0 1
29.174440 -31.928997 3.700359 43.408541 -0.830448 1.485448 0.049532 0.002980 -6702.410000 0 0 1
29.142140 -33.249897 3.012759 44.315874 -0.851141 1.502760 0.053387 -0.001018 -100898.000000 0 0 1
28.990340 -33.156897 1.607059 44.072693 -0.852341 1.534324 0.053254 -0.008979 159366.000000 0 0 1
29.246740 33.360494 0.959759 44.375843 0.851011 1.549167 0.048387 -0.003861 -234945.000000 0 0 1
28.846240 33.542794 -0.514141 44.243518 0.860535 1.582417 0.051914 -0.006568 -131489.000000 0 0 1
29.824140 -33.492297 -1.292841 44.865184 -0.843267 1.599616 0.047789 -0.007223 36341.000000 0 0 1
29.383640 -33.355097 -2.588241 44.527068 -0.848615 1.628956 0.055417 -0.013690 -53443.300000 0 0 1
30.478540 -32.696697 -3.459241 44.832820 -0.820495 1.648032 0.044905 -0.008764 195783.000000 0 0 1
30.687920 -31.311997 -3.257041 43.963597 -0.795464 1.644949 0.032271 -0.004916 -130465.000000 0 0 1
31.581210 -30.758997 -4.186941 44.283396 -0.772210 1.665487 0.032049 -0.003472 -244734.000000 0 0 1
31.834150 -29.258697 -3.978241 43.420166 -0.743267 1.662547 0.037121 0.002408 -22075.500000 0 0 1
30.695370 -28.453097 -4.342341 42.078978 -0.747507 1.674175 0.035914 -0.023579 580904.000000 0 0 1
30.930740 -27.069597 -4.447441 41.343119 -0.718925 1.678579 0.047309 -0.017830 -158027.000000 0 0 1
31.906760 -26.583397 -5.529741 41.896257 -0.694635 1.703169 0.081066 -0.018439 713187.000000 0 0 1
33.287870 -26.877197 -5.283941 43.109002 -0.679247 1.693677 0.077868 -0.014205 590489.000000 0 0 1
34.234290 -26.548797 -6.276841 43.774695 -0.659624 1.714682 0.087713 -0.017792 136034.000000 0 0 1
34.420180 -27.539897 -7.402641 44.698924 -0.674807 1.737174 0.100315 -0.001778 -757439.000000 0 0 1
33.317230 -27.545197 -8.288641 44.016784 -0.690844 1.760234 0.102596 -0.008600 36301.000000 0 0 1
33.241010 -28.516997 -9.327241 44.779250 -0.709055 1.780627 0.093747 -0.005084 -47672.900000 0 0 1
33.215120 -29.957397 -8.887341 45.603450 -0.733875 1.766935 0.089498 -0.000998 -151323.000000 0 0 1
34.447940 -30.410597 -8.386841 46.709785 -0.723230 1.751327 0.089576 0.003438 -393329.000000 0 0 1
34.245020 -31.634897 -7.756741 47.261561 -0.745799 1.735666 0.086436 -0.005616 416795.000000 0 0 1
35.535990 -32.221297 -7.125141 48.495218 -0.736517 1.718255 0.068867 -0.006294 324438.000000 0 0 1
35.353560 -33.462597 -6.501241 49.110953 -0.757927 1.703565 0.056692 -0.011308 -126979.000000 0 0 1
34.864180 -33.311197 -5.172141 48.496370 -0.762623 1.677650 0.048448 -0.005270 -104038.000000 0 0 1
34.693920 32.992794 -4.561841 48.093689 0.760271 1.665792 0.023378 -0.001925 290100.000000 0 0 1
33.615620 32.259994 -5.149141 46.874628 0.764822 1.680868 0.045433 -0.016719 500591.000000 0 0 1
33.622970 30.944594 -4.587741 45.925149 0.743940 1.670859 0.044294 -0.009963 -73867.500000 0 0 1
32.397790 30.132094 -5.015541 44.527694 0.749180 1.683675 0.058797 -0.023556 -201403.000000 0 0 1
32.384830 29.749594 -6.372641 44.434514 0.743012 1.714709 0.037870 -0.008143 -618871.000000 0 0 1
31.063600 29.493294 -6.733841 43.360653 0.759473 1.726726 0.021804 -0.003316 -636623.000000 0 0 1
30.808090 29.341294 -8.241441 43.335566 0.761017 1.762139 0.024592 -0.004319 -294568.000000 0 0 1
31.194010 28.084094 -8.813841 42.889000 0.732983 1.777775 0.043676 -0.010820 147629.000000 0 0 1
31.485890 27.986194 -10.207541 43.344921 0.726620 1.808525 0.027889 -0.009335 -119249.000000 0 0 1
32.643790 28.866294 -10.735641 44.879103 0.724063 1.812351 0.059964 -0.008662 -1009830.000000 0 0 1
33.845730 28.347094 -10.241741 45.320905 0.697215 1.798748 0.050098 -0.018165 805130.000000 0 0 1
35.089560 28.805994 -10.849441 46.677327 0.687372 1.805377 0.077838 -0.014246 1299410.000000 0 0 1
35.496530 30.196994 -10.339141 47.736358 0.704902 1.789115 0.085746 -0.027355 -1061120.000000 0 0 1
36.114890 30.189294 -9.076041 47.938014 0.696265 1.761275 0.062049 -0.018108 118617.000000 0 0 1
36.286620 31.538594 -8.672241 48.852937 0.715508 1.749259 0.056847 -0.017726 -559829.000000 0 0 1
37.265630 31.723394 -7.470341 49.506634 0.705235 1.722271 0.062643 -0.015821 1848220.000000 0 0 1
-36.946348 31.763094 -7.746341 49.334902 -0.710103 1.728464 0.075094 -0.017873 1477330.000000 0 0 1
-36.315618 30.568594 -8.208141 48.172987 -0.699684 1.742021 0.085220 -0.021256 -285944.000000 0 0 1
-34.826290 30.769994 -8.564741 47.254818 -0.723640 1.753049 0.129482 -0.024256 -542592.000000 0 0 1
-33.964866 31.025494 -7.471441 46.604891 -0.740201 1.731806 0.115211 -0.020942 762996.000000 0 0 1
-32.572868 31.193894 -7.742541 45.760220 -0.763776 1.740812 0.135797 -0.030356 761483.000000 0 0 1
-32.151898 32.349494 -8.690741 46.430198 -0.788462 1.759086 0.097199 -0.026221 -897079.000000 0 0 1
-32.234178 33.675294 -8.187341 47.329697 -0.807260 1.744656 0.083179 -0.014112 54288.800000 0 0 1
-31.409338 -33.611097 -7.098141 46.547137 0.819248 1.723887 0.116376 -0.027012 42065.700000 0 0 1
-31.667818 -32.125797 -6.565841 45.585390 0.792577 1.715333 0.091194 -0.020663 -241560.000000 0 0 1
-32.665378 -31.922197 -5.607241 46.016244 0.773892 1.692953 0.088162 -0.017752 -525057.000000 0 0 1
-32.325118 -32.367097 -4.314641 45.947343 0.786047 1.664839 0.112448 -0.024427 -276865.000000 0 0 1
-33.445488 -32.398297 -3.258441 46.678344 0.769495 1.640659 0.101370 -0.022013 -244615.000000 0 0 1
-34.118525 -31.178697 -3.010641 46.316831 0.740406 1.635843 0.077247 -0.022838 -334869.000000 0 0 1
-34.961560 -31.268597 -1.932241 46.944322 0.729696 1.611968 0.087717 -0.022191 -826497.000000 0 0 1
-35.702587 -29.992997 -1.547041 46.654560 0.698706 1.603962 0.107167 -0.013610 -206746.000000 0 0 1
-36.467188 -30.096297 -0.386641 47.284167 0.689977 1.578973 0.080121 -0.005059 -319463.000000 0 0 1
-37.124208 -28.851297 -0.162441 47.017343 0.660656 1.574251 0.086594 -0.010241 -170718.000000 0 0 1
37.601150 -28.821297 1.080159 47.388610 -0.653978 1.548001 0.076770 -0.005661 -191699.000000 0 0 1
36.416050 -29.537897 0.749359 46.895390 -0.681487 1.554816 0.045927 0.001901 596347.000000 0 0 1
35.345830 -29.232297 1.673659 45.898322 -0.691011 1.534324 0.046400 0.002595 1077480.000000 0 0 1
34.447010 -27.963097 1.514259 44.393966 -0.681878 1.536680 0.041486 0.004581 -280653.000000 0 0 1
33.472500 -27.972897 0.491859 43.624914 -0.696132 1.559521 0.038913 0.001516 -119042.000000 0 0 1
32.839240 -26.740097 0.523159 42.352357 -0.683383 1.558443 0.039302 -0.003968 -556206.000000 0 0 1
31.551810 -26.698297 -0.308341 41.332927 -0.702268 1.578256 0.030841 -0.010830 124066.000000 0 0 1
30.360840 -27.203397 0.294959 40.766314 -0.730602 1.563561 0.033325 -0.001404 576078.000000 0 0 1
30.128140 -28.626197 0.150759 41.559435 -0.759841 1.567169 0.034658 -0.000055 -361449.000000 0 0 1
29.579240 -29.132097 -1.205541 41.533888 -0.777782 1.599826 0.029971 -0.008213 -112313.000000 0 0 1
28.197040 -28.917597 -1.465141 40.415926 -0.798013 1.607056 0.040908 -0.008731 181562.000000 0 0 1
27.936740 -29.414497 -2.738841 40.659258 -0.811159 1.638208 0.044847 -0.007231 -497708.000000 0 0 1
26.458640 -29.786297 -2.896241 39.945855 -0.844493 1.643364 0.060695 -0.021907 -467594.000000 0 0 1
25.662540 -28.666097 -3.127441 38.601709 -0.840627 1.651903 0.082639 -0.019201 -576766.000000 0 0 1
24.309340 -29.076697 -3.112841 38.027465 -0.874462 1.652746 0.071722 -0.022527 -129831.000000 0 0 1
23.334040 -27.914297 -3.285241 36.530510 -0.874535 1.660849 0.065795 -0.023397 -230820.000000 0 0 1
23.275940 -27.359397 -4.606141 36.214949 -0.865868 1.698331 0.083954 -0.024240 -42991.900000 0 0 1
22.915140 -25.986797 -4.664441 34.959609 -0.848128 1.704619 0.108133 -0.027047 174997.000000 0 0 1
22.145040 -25.538597 -5.994841 34.330174 -0.856447 1.746319 0.111454 -0.045058 1033490.000000 0 0 1
20.829840 -26.133397 -6.039441 33.960440 -0.897852 1.749585 0.108375 -0.038889 703627.000000 0 0 1
20.140940 -25.636597 -7.186941 33.384797 -0.904878 1.787771 0.140067 -0.044690 432481.000000 0 0 1
18.608940 -25.879097 -7.247241 32.688573 -0.947385 1.794360 0.119427 -0.038829 -48276.200000 0 0 1
17.905540 -24.887997 -6.576841 31.357225 -0.947139 1.782105 0.094921 -0.036273 -141305.000000 0 0 1
16.521340 -25.134897 -6.815641 30.841055 -0.989302 1.793628 0.081761 -0.031634 416677.000000 0 0 1
15.685740 -24.118597 -5.932741 29.375952 -0.994169 1.774154 0.061768 -0.022748 67248.900000 0 0 1
15.828340 -24.462797 -4.582741 29.495191 -0.996507 1.726801 0.046458 -0.017601 232617.000000 0 0 1
15.088440 -23.621397 -3.701641 28.272487 -1.002362 1.702101 0.055159 -0.026568 97403.500000 0 0 1
15.027940 -24.108897 -2.212241 28.495120 -1.013395 1.648510 0.073428 -0.027945 -100486.000000 0 0 1
14.366140 -25.364897 -2.046541 29.222462 -1.055465 1.640887 0.055413 -0.019318 241555.000000 0 0 1
15.202340 -26.520997 -2.023041 30.636042 -1.050302 1.636879 0.068926 -0.019892 -161732.000000 0 0 1
14.456140 -27.863197 -1.940641 31.450021 -1.092202 1.632541 0.063325 -0.012689 -179254.000000 0 0 1
13.571340 -27.995597 -0.849041 31.123232 -1.119409 1.598080 0.082700 -0.024141 -514534.000000 0 0 1
12.966740 -29.241597 -0.909141 32.000529 -1.153415 1.599210 0.064116 -0.018993 -481962.000000 0 0 1
13.727540 -30.492597 -0.417741 33.442762 -1.147782 1.583288 0.058200 -0.019126 347150.000000 0 0 1
14.764440 -30.891897 -1.334141 34.264820 -1.124953 1.609742 0.045311 -0.016215 61862.200000 0 0 1
15.140840 -32.289997 -1.248641 35.685404 -1.132335 1.605794 0.044781 -0.020791 -667769.000000 0 0 1
16.584540 -32.385997 -1.744941 36.427250 -1.097524 1.618717 0.041362 -0.014427 -292407.000000 0 0 1
17.462340 -31.571297 -0.976241 36.092009 -1.065570 1.597848 0.050717 -0.012006 59946.500000 0 0 1
18.751340 -31.572797 -1.582441 36.755385 -1.034868 1.613863 0.057090 -0.018900 -34196.300000 0 0 1
19.650840 -30.502297 -1.001641 36.298056 -0.998480 1.598395 0.069331 -0.018117 -344874.000000 0 0 1
19.099440 -29.212097 -1.170441 34.921414 -0.991741 1.604319 0.075647 -0.011833 97681.200000 0 0 1
19.815140 -28.259697 -0.403541 34.516852 -0.959279 1.582488 0.066998 -0.012909 -130334.000000 0 0 1
19.601540 -26.811897 -0.897941 33.225058 -0.939517 1.597826 0.059475 -0.004531 -283822.000000 0 0 1
20.040540 -26.571497 -2.196341 33.354034 -0.924605 1.636693 0.048528 -0.009112 -63725.000000 0 0 1
19.099240 -25.946497 -3.031441 32.360335 -0.936250 1.664612 0.065037 -0.013526 -106833.000000 0 0 1
33.523290 -28.948297 13.884059 46.417474 -0.712295 1.267034 0.071598 -0.044724 125159.000000 0 0 1
34.534480 -29.555797 14.648559 47.757258 -0.707872 1.259041 0.092103 -0.033562 177358.000000 0 0 1
33.943630 -30.006497 15.877259 48.006741 -0.723910 1.233720 0.086549 -0.026159 -690135.000000 0 0 1
34.947990 -30.313097 16.894259 49.251008 -0.714496 1.220662 0.088390 -0.017461 -1091890.000000 0 0 1
34.370500 -30.836997 18.117359 49.603330 -0.731263 1.196901 0.087047 -0.014308 769156.000000 0 0 1
35.281270 -31.178297 19.201859 50.848457 -0.723740 1.183562 0.067185 -0.011140 202098.000000 0 0 1
35.996920 -32.542597 19.098559 52.149341 -0.735042 1.195844 0.047590 -0.006853 -92763.000000 0 0 1
36.874680 -32.649797 17.981759 52.431812 -0.724705 1.220735 0.048268 0.000273 164902.000000 0 0 1
37.490280 33.745394 17.982459 53.550364 0.732876 1.228337 0.048577 -0.006624 43503.300000 0 0 1
-36.931798 33.699994 17.016659 52.813010 -0.739674 1.242738 0.046385 -0.006747 95476.400000 0 0 1
-35.862667 -33.217497 17.534259 51.932487 0.747126 1.226392 0.059986 -0.012144 662104.000000 0 0 1
-34.796213 -33.036997 16.578559 50.764833 0.759470 1.238118 0.071791 -0.008496 30974.700000 0 0 1
-33.515258 -32.355997 17.063059 49.611804 0.767801 1.219696 0.066783 -0.016258 -188127.000000 0 0 1
-32.447968 -32.240597 16.170459 48.516085 0.782192 1.230994 0.082236 -0.020710 -261624.000000 0 0 1
-32.733788 -31.377697 15.048859 47.775819 0.764249 1.250351 0.080994 -0.022481 -921550.000000 0 0 1
-31.548668 -31.257997 14.072359 46.587682 0.780770 1.263942 0.075537 -0.028012 310872.000000 0 0 1
-30.363528 -30.879197 14.764359 45.754289 0.793818 1.242228 0.062327 -0.028621 -792221.000000 0 0 1
-29.303928 -30.910597 13.874359 44.796016 0.812074 1.255895 0.053732 -0.022757 -585985.000000 0 0 1
-28.080858 -30.176997 14.443159 43.678262 0.821363 1.233781 0.071017 -0.029085 -221593.000000 0 0 1
-26.976428 -30.300497 13.589559 42.784622 0.843368 1.247570 0.077713 -0.025604 -429733.000000 0 0 1
-25.789338 -29.831697 14.224459 41.920822 0.857947 1.224605 0.068299 -0.030155 494289.000000 0 0 1
-24.601808 -29.720197 13.223959 40.784950 0.879344 1.240592 0.085729 -0.030671 320568.000000 0 0 1
-24.014608 -31.012997 12.968459 41.312084 0.911899 1.251483 0.099883 -0.031697 -323132.000000 0 0 1
-22.751208 -30.920597 12.375959 40.334416 0.936449 1.258932 0.089483 -0.041384 -15676.800000 0 0 1
-22.223808 -32.317697 11.988459 41.012856 0.968396 1.274155 0.077604 -0.039403 97071.300000 0 0 1
-23.081608 -32.841597 11.004659 41.622514 0.958183 1.303223 0.076675 -0.036628 89624.100000 0 0 1
-22.806008 33.440294 10.836459 41.902221 -0.972259 1.309210 0.090752 -0.021909 303554.000000 0 0 1
-23.825108 32.893494 9.809859 41.783382 -0.943940 1.333805 0.091399 -0.015397 96484.400000 0 0 1
-23.545208 33.246694 8.498259 41.616582 -0.954590 1.365146 0.090652 -0.020795 -520522.000000 0 0 1
-24.619008 32.899394 7.697959 41.805792 -0.928376 1.385603 0.094183 -0.025250 -814651.000000 0 0 1
-24.380008 33.134094 6.162559 41.596035 -0.936446 1.422096 0.097035 -0.027726 230706.000000 0 0 1
-23.470808 32.231694 5.503159 40.249791 -0.941400 1.433642 0.090557 -0.028214 1264860.000000 0 0 1
-22.058308 32.245494 5.749759 39.489246 -0.970839 1.424674 0.094257 -0.025266 1001020.000000 0 0 1
-21.191108 33.507494 5.415559 40.014291 -1.006873 1.435039 0.103524 -0.029074 -194384.000000 0 0 1
-21.324108 -33.073797 6.282359 39.850491 0.998125 1.412488 0.100570 -0.039774 146791.000000 0 0 1
-20.557208 -33.183297 7.487959 39.746692 1.016158 1.381272 0.095322 -0.037878 62543.000000 0 0 1
-20.621108 -31.936897 8.349559 38.921853 0.997462 1.354595 0.092669 -0.043677 -329928.000000 0 0 1
-19.739008 -30.936497 7.903759 37.538842 1.002868 1.358660 0.101697 -0.056022 -256330.000000 0 0 1
-19.788208 -29.842097 8.796159 36.871349 0.985269 1.329910 0.102160 -0.052255 248785.000000 0 0 1
-19.069108 -30.006797 10.173159 36.980156 1.004687 1.292105 0.092890 -0.046480 220488.000000 0 0 1
-17.671308 -30.174197 10.079159 36.391575 1.041000 1.290163 0.084914 -0.052388 -415465.000000 0 0 1
-17.028608 -30.391997 11.311659 36.627866 1.060080 1.256837 0.106386 -0.052307 920744.000000 0 0 1
-15.617808 -31.055997 11.101859 36.491672 1.104838 1.261666 0.105455 -0.049455 629078.000000 0 0 1
-14.574508 -30.214997 10.657359 35.198603 1.121360 1.263190 0.107799 -0.052296 -175768.000000 0 0 1
-13.513008 -31.064897 10.235859 35.389292 1.160492 1.277368 0.094846 -0.044762 -234193.000000 0 0 1
-12.468508 -30.270297 9.484259 34.083805 1.180069 1.288811 0.106666 -0.038369 -720921.000000 0 0 1
-11.617508 -29.500397 10.268859 33.327007 1.195639 1.257576 0.111858 -0.039292 -609319.000000 0 0 1
-10.572108 -29.023497 9.450759 32.302472 1.221474 1.273882 0.127792 -0.039174 201800.000000 0 0 1
-9.406608 -28.375397 10.244959 31.600737 1.250691 1.240630 0.136510 -0.034151 184078.000000 0 0 1
-9.727808 -27.171497 10.892759 30.847572 1.226999 1.209897 0.103530 -0.032675 -97019.700000 0 0 1
-8.820208 -27.023997 11.994159 30.853725 1.255313 1.171530 0.093700 -0.022520 205036.000000 0 0 1
-9.184108 -25.790297 12.824059 30.231502 1.228691 1.132723 0.081129 -0.027073 42520.600000 0 0 1
-8.853308 -24.561297 12.249859 28.839165 1.224836 1.132094 0.066861 -0.026078 -419307.000000 0 0 1
-9.606208 -24.097897 11.149259 28.236392 1.191469 1.164887 0.065691 -0.022419 -151815.000000 0 0 1
-9.092208 -22.736197 10.746159 26.741033 1.190376 1.157249 0.064481 -0.018521 -291492.000000 0 0 1
-7.939908 -22.869697 9.970159 26.181468 1.236636 1.180124 0.050350 -0.025424 -506056.000000 0 0 1
-7.423208 -21.612197 9.475359 24.738098 1.239948 1.177725 0.054585 -0.018129 -264687.000000 0 1 0
-6.226308 -21.693997 8.534559 24.129548 1.291303 1.209275 0.045818 -0.027947 -81840.900000 0 1 0
-5.155508 -22.248797 9.300159 24.659302 1.343094 1.184083 0.046260 -0.027105 -331382.000000 0 1 0
-4.034008 -22.410697 8.467659 24.294316 1.392700 1.214778 0.042259 -0.029170 416530.000000 0 1 0
-2.795308 -23.211597 8.958059 25.036749 1.450946 1.204889 0.049571 -0.027209 701898.000000 0 0 1
-2.171608 -22.709997 10.142759 24.966686 1.475463 1.152448 0.049666 -0.020030 -680885.000000 0 1 0
-1.231708 -23.644197 10.562159 25.925361 1.518750 1.151184 0.071902 -0.032406 691011.000000 0 0 1
-0.191108 -23.109797 11.651359 25.881526 1.562527 1.103829 0.078109 -0.025279 686072.000000 0 0 1
-0.816708 -22.914397 12.899659 26.308512 1.535170 1.058336 0.069606 -0.024528 -327590.000000 0 0 1
0.114692 -22.645197 13.915159 26.579122 -1.565732 1.019799 0.104859 -0.031676 -207586.000000 0 0 1
0.806092 -21.244997 13.943259 25.424676 -1.532872 0.990329 0.087988 -0.028829 10126.800000 0 0 1
1.887392 -21.123597 13.039859 24.895913 -1.481683 1.019520 0.097591 -0.034959 -167128.000000 0 1 0
2.364992 -19.788097 13.029859 23.810485 -1.451845 0.991743 0.077746 -0.028140 102233.000000 0 1 0
3.850092 -19.669897 12.623259 23.687016 -1.377505 1.008750 0.087097 -0.027997 140326.000000 0 1 0
4.206692 -19.929897 11.289059 23.288192 -1.362775 1.064714 0.091895 -0.031800 -1171370.000000 0 1 0
5.584092 -19.886597 11.186059 23.490141 -1.297049 1.074466 0.126973 -0.038041 -593692.000000 0 1 0
6.181692 -20.604697 9.937659 23.696496 -1.279327 1.138042 0.135045 -0.040395 -310517.000000 0 1 0
5.956392 -19.859697 8.748959 22.504009 -1.279410 1.171497 0.118570 -0.040229 -264282.000000 0 1 0
6.237792 -20.619497 7.588559 22.839876 -1.277030 1.232108 0.122798 -0.043158 1077300.000000 0 1 0
7.705492 -21.164197 7.315659 23.681569 -1.221632 1.256741 0.117838 -0.023119 952051.000000 0 1 0
8.702092 -20.236597 6.926259 23.091542 -1.164683 1.266158 0.126471 -0.036022 430963.000000 0 1 0
9.365392 -19.409897 7.919359 22.960202 -1.121242 1.218646 0.130152 -0.022115 573412.000000 0 1 0
10.275292 -20.069897 8.980459 24.269961 -1.097614 1.191762 0.099915 -0.012465 -93435.100000 0 1 0
9.518792 -20.397297 10.137459 24.686538 -1.134167 1.147633 0.119278 -0.019783 236491.000000 0 1 0
10.187892 -19.931697 11.316459 25.082422 -1.098276 1.102719 0.096303 -0.011255 525896.000000 0 0 1
9.286292 -20.281197 12.527059 25.582990 -1.141411 1.059092 0.122887 -0.026520 254661.000000 0 0 1
9.470892 -21.533297 13.103359 26.927285 -1.156436 1.062580 0.117269 -0.035496 -313390.000000 0 0 1
8.467092 -21.714997 14.074459 27.227249 -1.199010 1.027541 0.155617 -0.038716 219636.000000 0 0 1
8.690792 -22.998497 14.921959 28.759791 -1.209499 1.025294 0.160847 -0.043845 179626.000000 0 0 1
8.511792 -24.121997 14.132759 29.224240 -1.231572 1.066037 0.171250 -0.041511 -154927.000000 0 0 1
8.551092 -25.363597 14.820659 30.595508 -1.245623 1.065112 0.181160 -0.044204 139075.000000 0 0 1
8.608292 -26.583897 13.869859 31.195821 -1.257636 1.110062 0.194681 -0.044486 694140.000000 0 0 1
9.920792 -26.798397 13.349959 31.540412 -1.216240 1.133750 0.160644 -0.031853 371489.000000 0 0 1
9.815092 -27.803697 12.375459 31.977079 -1.231439 1.173409 0.146962 -0.035100 1070660.000000 0 0 1
11.174192 -28.050597 11.579559 32.338595 -1.191706 1.204594 0.113605 -0.034415 1646310.000000 0 0 1
12.177992 -28.646997 12.430059 33.518059 -1.168836 1.190876 0.081222 -0.030740 946394.000000 0 0 1
13.411692 -28.898397 11.764959 33.961818 -1.136280 1.217047 0.118396 -0.028560 88896.900000 0 0 1
14.443992 -29.694697 12.527259 35.317646 -1.118074 1.208200 0.097798 -0.030695 -920523.000000 0 0 1
15.098892 -28.937797 13.557959 35.343894 -1.089884 1.177104 0.077842 -0.026880 -554131.000000 0 0 1
16.025692 -29.628597 14.296559 36.593280 -1.074977 1.169417 0.064571 -0.023295 -410275.000000 0 0 1
17.406292 -29.628297 13.608459 36.959506 -1.039627 1.193725 0.086884 -0.025050 -969454.000000 0 0 1
17.998692 -28.342897 13.486359 36.182241 -1.005014 1.188843 0.076833 -0.026356 204258.000000 0 0 1
19.095192 -28.518697 12.597359 36.560031 -0.980788 1.219019 0.078684 -0.026488 637156.000000 0 0 1
20.020492 -27.214297 12.506059 36.025540 -0.936536 1.216272 0.049336 -0.027074 1348760.000000 0 0 1
21.307892 -27.435197 11.903559 36.720716 -0.910448 1.240668 0.045008 -0.032516 910829.000000 0 0 1
22.184992 -26.303197 11.977559 36.434790 -0.870127 1.235828 0.041287 -0.030492 2181290.000000 0 0 1
23.661392 -26.621797 11.403359 37.398103 -0.844205 1.260944 0.049488 -0.026235 1404210.000000 0 0 1
24.493292 -27.324097 12.276559 38.694205 -0.839974 1.247946 0.061319 -0.040368 294747.000000 0 0 1
25.580692 -27.902197 11.524459 39.569149 -0.828777 1.275265 0.046383 -0.045991 -110257.000000 0 0 1
26.603992 -28.698797 12.376659 41.043574 -0.823259 1.264479 0.066489 -0.044707 119360.000000 0 0 1
27.659692 -27.921097 12.926059 41.373049 -0.790101 1.253049 0.066996 -0.050573 904917.000000 0 0 1
28.784192 -27.896197 11.999659 41.841598 -0.769733 1.279924 0.060110 -0.049356 187264.000000 0 0 1
30.096392 -27.237597 12.472259 42.464535 -0.735577 1.272691 0.093045 -0.062719 -71896.000000 0 0 1
30.096592 -25.854397 12.686159 41.655651 -0.709723 1.261332 0.098127 -0.061050 -366091.000000 0 0 1
29.412192 -25.306097 13.759059 41.167794 -0.710498 1.230020 0.106187 -0.052522 -702740.000000 0 0 1
30.203392 -25.206897 15.091859 42.135457 -0.695469 1.204484 0.112360 -0.032704 237.377000 0 0 1
30.439592 -26.423097 15.808759 43.297409 -0.714880 1.197034 0.107503 -0.036180 49094.000000 0 0 1
31.023092 -26.096197 17.055359 43.981007 -0.699355 1.172564 0.111223 -0.012468 9741.160000 0 0 1
31.428692 -27.326097 17.874659 45.320874 -0.715686 1.165379 0.107039 0.006756 319256.000000 0 0 1
30.310392 -27.933897 18.496059 45.178829 -0.744619 1.149004 0.091284 -0.008468 -35024.400000 0 0 1
30.732292 -28.887897 19.441359 46.442984 -0.754472 1.138885 0.116284 -0.012234 192937.000000 0 0 1
29.588192 -29.813997 19.880059 46.470983 -0.789199 1.128744 0.100963 -0.007747 -620697.000000 0 0 1
28.653692 -29.263097 20.838359 45.952150 -0.795920 1.100131 0.107280 -0.010303 1480000.000000 0 0 1
27.479292 -30.081697 21.090259 45.878306 -0.830579 1.093139 0.132093 -0.015702 1376240.000000 0 0 1
26.546092 -30.391597 19.895459 44.990815 -0.852835 1.112733 0.131439 -0.023491 -1062810.000000 0 0 1
27.110192 -31.426297 19.122759 45.697424 -0.858999 1.139042 0.109947 -0.013305 -187995.000000 0 0 1
26.418392 -31.759397 17.956359 45.044661 -0.876946 1.160769 0.118232 -0.015090 -404572.000000 0 0 1
26.774592 -30.882597 16.731359 44.165053 -0.856527 1.182257 0.114040 -0.015143 -360505.000000 0 0 1
28.117692 -31.035397 16.384259 44.969371 -0.834683 1.197870 0.117521 -0.022626 -494139.000000 0 0 1
28.582592 -29.960597 15.565259 44.236627 -0.808932 1.211235 0.110207 -0.042462 526158.000000 0 0 1
30.139092 -30.043197 15.401059 45.256504 -0.783805 1.223554 0.129442 -0.032258 612220.000000 0 0 1
30.705492 -30.986297 14.456259 45.956079 -0.789950 1.250796 0.155273 -0.031254 154221.000000 0 0 1
30.677992 -32.380397 14.799859 46.996437 -0.812389 1.250430 0.163560 -0.035295 -842903.000000 0 0 1
29.623792 -33.275697 14.203359 46.760843 -0.843392 1.262176 0.149858 -0.036375 -426081.000000 0 0 1
29.876992 -33.525197 12.833859 46.704190 -0.842875 1.292425 0.146859 -0.036392 373903.000000 0 0 1
29.016492 33.114894 12.399859 45.741769 0.851266 1.296277 0.119516 -0.045519 10586.900000 0 0 1
29.326392 32.626994 10.978959 45.222732 0.838623 1.325571 0.119964 -0.048423 -166861.000000 0 0 1
30.556492 31.940994 10.916159 45.531185 0.807547 1.328687 0.100923 -0.034866 162090.000000 0 0 1
30.673692 31.254694 9.663859 44.845528 0.794780 1.353601 0.099667 -0.039318 358483.000000 0 0 1
32.144692 30.749794 9.525959 45.492581 0.763223 1.359839 0.082166 -0.036931 331643.000000 0 0 1
32.594992 29.850394 10.492159 45.426478 0.741474 1.337722 0.079360 -0.031226 1331050.000000 0 0 1
33.989692 29.573194 10.150859 46.183469 0.716027 1.349193 0.080870 -0.023768 1486510.000000 0 0 1
34.705792 28.657194 11.163259 46.371813 0.690227 1.327675 0.081546 -0.026866 -77974.400000 0 0 1
34.109392 27.383994 11.239059 45.162486 0.676463 1.319295 0.080248 -0.034948 95676.400000 0 0 1
34.485192 26.683894 12.430959 45.340791 0.658546 1.293073 0.093668 -0.043151 -86568.100000 0 0 1
34.272092 25.178294 12.338559 44.280501 0.633610 1.288413 0.092519 -0.045004 151408.000000 0 0 1
35.195792 24.643394 11.402659 44.452910 0.610847 1.311386 0.102888 -0.035785 -21910.700000 0 0 1
35.220192 23.221494 11.341759 43.684495 0.582902 1.308158 0.104004 -0.036050 394795.000000 0 0 1
33.951592 22.493194 10.765459 42.125401 0.585118 1.312372 0.091444 -0.029847 1257430.000000 0 0 1
32.782992 22.454994 11.592159 41.392384 0.600560 1.286945 0.100417 -0.037922 471697.000000 0 0 1
31.596492 22.549594 10.842759 40.303695 0.619844 1.298414 0.096396 -0.035072 -703535.000000 0 0 1
30.324292 22.246494 11.576359 39.350746 0.632935 1.272195 0.099406 -0.035278 -572274.000000 0 0 1
29.693892 23.267094 12.373259 39.701163 0.664639 1.253857 0.107360 -0.033674 955321.000000 0 0 1
28.570592 22.695294 13.086659 38.763587 0.671292 1.226428 0.148777 -0.035052 499801.000000 0 0 1
25.052392 9.250394 25.359509 36.827935 0.353713 0.811247 0.077348 -0.022207 -174348.000000 0 0 1
24.749292 7.914094 25.530159 36.427316 0.309495 0.794205 0.079474 -0.030007 64209.200000 0 0 1
23.382892 7.675194 25.781529 35.642046 0.317159 0.762160 0.040380 -0.020967 -587765.000000 0 0 1
23.146692 6.516194 26.792849 36.001206 0.274415 0.731429 0.048089 -0.023183 -357214.000000 0 0 1
23.641092 6.754194 28.109149 37.344941 0.278284 0.718659 0.039062 -0.018289 1034520.000000 0 0 1
25.056092 6.520794 28.233199 38.307206 0.254600 0.742145 0.043094 -0.015303 687374.000000 0 0 1
25.504992 6.352494 29.729019 39.682154 0.244102 0.723975 0.055087 -0.025998 -160512.000000 0 0 1
25.531092 7.523094 30.481359 40.466614 0.286554 0.717811 0.083201 -0.030279 159440.000000 0 0 1
25.266192 7.275794 31.830020 41.285201 0.280380 0.690419 0.077273 -0.025918 -81602.400000 0 0 1
25.218192 8.497394 32.808570 42.244114 0.325006 0.681478 0.134089 -0.031439 1206430.000000 0 0 1
26.485192 9.209194 32.703880 43.079211 0.334634 0.708779 0.103389 -0.036637 1111630.000000 0 0 1
26.695792 9.847894 -33.612761 44.039346 0.353406 2.439115 0.120414 -0.035142 136212.000000 0 0 1
27.932792 10.768094 -33.708911 45.083072 0.367944 2.415398 0.104979 -0.038334 -128563.000000 0 0 1
27.641392 11.955994 33.244385 44.857346 0.408239 0.736069 0.112390 -0.044525 406445.000000 0 0 1
27.318692 13.006794 -33.423221 45.084358 0.444356 2.405874 0.104520 -0.040418 -197878.000000 0 0 1
26.914592 14.411594 33.654889 45.439419 0.491609 0.736753 0.098464 -0.039068 -989198.000000 0 0 1
27.949192 15.110994 33.061273 45.853541 0.495644 0.765525 0.087555 -0.042013 -265951.000000 0 0 1
27.711592 16.503194 32.957244 46.113638 0.537129 0.774607 0.091173 -0.038043 -12104.300000 0 0 1
28.342492 17.401294 -33.492051 47.199781 0.550625 2.359699 0.081206 -0.048538 -287217.000000 0 0 1
27.748492 17.145794 -32.236071 45.859801 0.553477 2.350300 0.101717 -0.053870 438358.000000 0 0 1
28.630092 16.394894 -31.397631 45.544329 0.520063 2.331438 0.100910 -0.053861 -67326.300000 0 0 1
27.931992 15.754194 -30.175451 44.033494 0.513543 2.325790 0.112623 -0.037127 60843.000000 0 0 1
27.163492 14.644294 -30.583171 43.446990 0.494449 2.351697 0.115003 -0.024826 214048.000000 0 0 1
26.172792 14.195294 -29.679641 42.040486 0.496965 2.354599 0.146600 -0.030562 -1385.450000 0 0 1
25.356092 13.003594 -30.174341 41.503201 0.473866 2.384792 0.143518 -0.026403 -1050150.000000 0 0 1
24.374292 13.411494 -31.085211 41.716479 0.503021 2.411562 0.148201 -0.031461 619843.000000 0 0 1
23.510792 12.340994 -31.553921 41.239634 0.483375 2.442049 0.124756 -0.024640 642797.000000 0 0 1
22.527792 11.643094 -30.573031 39.721194 0.477023 2.449153 0.123964 -0.015751 -1167250.000000 0 0 1
21.528392 12.482594 -30.146961 39.091253 0.525449 2.451512 0.154415 -0.011870 -726877.000000 0 0 1
20.562092 11.751394 -29.445651 37.788110 0.519206 2.464234 0.144252 -0.003992 604303.000000 0 0 1
19.233792 12.592694 -29.197751 37.162122 0.579684 2.474600 0.119070 0.007640 1587960.000000 0 0 1
18.328592 12.788594 -30.339661 37.682628 0.609208 2.506702 0.085533 0.011775 604145.000000 0 0 1
17.127392 13.282594 -29.820761 36.865331 0.659633 2.513093 0.071792 0.006660 -575930.000000 0 0 1
16.073792 13.885294 -30.837761 37.445102 0.712478 2.538430 0.061752 0.008614 445078.000000 0 0 1
15.210392 12.900794 -31.343111 37.150735 0.703423 2.574887 0.062801 -0.000582 554029.000000 0 0 1
14.061292 12.587094 -30.520231 35.883692 0.730134 2.587792 0.068249 -0.004560 492789.000000 0 0 1
12.964592 11.792794 -31.300791 35.873251 0.738102 2.631171 0.075652 -0.010607 -1414.120000 0 0 1
12.482092 12.581894 -32.307321 36.849283 0.789380 2.639843 0.095392 -0.009605 -209373.000000 0 0 1
11.626692 11.847594 -33.145131 37.069464 0.794808 2.677294 0.110248 -0.012142 -371547.000000 0 0 1
11.003792 12.583194 33.261047 37.225226 0.852259 0.465698 0.124537 -0.017695 -509541.000000 0 0 1
11.803892 12.630194 32.126739 36.482612 0.819203 0.493661 0.103181 -0.006092 217175.000000 0 0 1
11.124692 12.971294 30.922649 35.330206 0.861884 0.504851 0.116425 -0.033917 -254518.000000 0 0 1
12.219592 12.940594 29.868739 34.769512 0.814047 0.537386 0.126096 -0.031946 -25543.000000 0 0 1
12.594892 11.632394 29.497199 34.117864 0.745691 0.526507 0.122276 -0.032528 167009.000000 0 0 1
12.332692 11.421894 28.106329 32.749361 0.747075 0.538994 0.166621 -0.029864 38001.800000 0 0 1
12.969592 10.093294 27.603159 32.125057 0.661323 0.537013 0.173985 -0.035101 -165714.000000 0 0 1
12.323192 8.938694 28.050889 31.915728 0.627541 0.497235 0.161521 -0.046438 70558.000000 0 0 1
12.995492 7.748394 27.694349 31.557842 0.537648 0.500017 0.133846 -0.040469 -412609.000000 0 0 1
12.158492 6.511194 27.950839 31.168477 0.491663 0.458390 0.138254 -0.044286 -122803.000000 0 0 1
11.027392 6.467994 27.101209 29.965210 0.530463 0.440772 0.139752 -0.042990 -145826.000000 0 0 1
10.126092 5.401094 27.336339 29.647681 0.489997 0.397479 0.129289 -0.041279 70148.700000 0 0 1
10.459792 3.926894 26.863579 29.094323 0.359145 0.394140 0.122663 -0.036580 -490039.000000 0 0 1
11.248892 3.290594 27.828519 30.195894 0.284586 0.398615 0.121154 -0.036141 29999.100000 0 0 1
11.799192 2.100294 27.357599 29.867547 0.176158 0.412892 0.080383 -0.025580 -5017.680000 0 0 1
12.373492 1.124594 28.461839 31.055503 0.090638 0.411597 0.065853 -0.016398 -152279.000000 0 0 1
11.301392 0.570094 29.156739 31.275580 0.050402 0.370207 0.052489 -0.014595 -280840.000000 0 0 1
11.695092 -0.342406 30.172249 32.361351 -0.029269 0.369925 0.048148 -0.021009 132012.000000 0 0 1
10.606492 -0.251206 31.273139 33.023779 -0.023680 0.327068 0.067122 -0.017501 178876.000000 0 0 1
10.779192 0.887294 32.078818 33.853048 0.082130 0.325189 0.055260 -0.020532 826451.000000 0 0 1
9.569892 1.188794 32.798976 34.187262 0.123589 0.285959 0.073718 -0.019680 462307.000000 0 0 1
9.746892 2.567294 33.509169 34.992246 0.257547 0.292184 0.078732 -0.027749 -119391.000000 0 0 1
9.738692 3.748894 32.692028 34.317124 0.367464 0.308978 0.067161 -0.031926 613399.000000 0 0 1
10.864792 3.854994 31.812235 33.836710 0.340958 0.347670 0.069597 -0.031706 7462.810000 0 0 1
10.879092 5.192394 31.081479 33.337275 0.445309 0.369981 0.085111 -0.035131 115582.000000 0 0 1
11.280592 6.213194 32.038492 34.529994 0.503447 0.382203 0.088321 -0.040498 172337.000000 0 0 1
11.400892 7.456494 31.332929 34.166242 0.579201 0.410121 0.102275 -0.036856 -373992.000000 0 0 1
11.338592 8.743194 32.197078 35.237181 0.656869 0.418438 0.124979 -0.045660 -442443.000000 0 0 1
10.110792 9.229194 32.655427 35.408799 0.739845 0.396960 0.137854 -0.047852 -482470.000000 0 0 1
9.588492 8.455194 33.719599 36.061625 0.722672 0.362382 0.125523 -0.050678 -791389.000000 0 0 1
8.100892 8.695194 -33.656141 35.692670 0.820767 2.802157 0.130529 -0.058056 -636366.000000 0 0 1
7.526192 7.873394 -32.678951 34.446302 0.807941 2.819871 0.131679 -0.047532 545815.000000 0 0 1
6.145392 8.123794 -32.390691 33.954657 0.923168 2.836901 0.123460 -0.049060 774441.000000 0 0 1
5.648692 7.375194 -31.150901 32.506612 0.917194 2.851769 0.118819 -0.038265 -753613.000000 0 0 1
6.304792 7.767294 -29.996481 31.620723 0.888956 2.819685 0.122583 -0.042764 -100710.000000 0 0 1
5.881192 7.280194 -28.747391 30.232468 0.891296 2.826856 0.120925 -0.039628 39004.000000 0 0 1
4.521992 7.795694 -28.174881 29.581163 1.045166 2.832008 0.104966 -0.035854 -83722.700000 0 0 1
3.452392 7.389494 -28.961601 30.088170 1.133729 2.867081 0.093971 -0.033207 -2283000.000000 0 0 1
2.290992 7.664094 -28.338861 29.446189 1.280326 2.866481 0.126517 -0.021475 -969701.000000 0 0 1
1.069692 6.897594 -28.961801 29.791055 1.416940 2.905094 0.129841 -0.034434 211496.000000 0 0 1
0.688092 7.456094 -30.193761 31.108359 1.478771 2.898506 0.106346 -0.038091 -82137.400000 0 0 1
-0.002608 6.552594 -31.040171 31.724261 -1.570398 2.933547 0.143000 -0.038320 -467307.000000 0 0 1
-0.396308 7.188694 -32.398371 33.188685 -1.515723 2.922925 0.143996 -0.048659 508438.000000 0 0 1
0.669792 7.849894 -33.125231 34.049235 1.485678 2.908094 0.100885 -0.039922 1260810.000000 0 0 1
1.818292 7.061294 -33.513451 34.297514 1.318770 2.927358 0.117159 -0.045356 660153.000000 0 0 1
1.652692 6.571894 32.623200 33.319579 1.324426 0.204808 0.153411 -0.052929 -46416.000000 0 0 1
0.720192 5.536194 32.425188 32.902294 1.441435 0.170504 0.147363 -0.045011 -280513.000000 0 0 1
0.436692 5.309594 31.058489 31.512097 1.488735 0.169879 0.163875 -0.042181 -122097.000000 0 0 1
1.422492 4.382494 30.381509 30.728909 1.256940 0.150510 0.179491 -0.039898 -185288.000000 0 0 1
1.227992 4.456794 28.986819 29.353137 1.301935 0.158150 0.155108 -0.038398 103847.000000 0 0 1
1.886592 3.417694 28.253369 28.521794 1.066413 0.137303 0.131764 -0.030724 -34161.800000 0 0 1
1.809992 3.778894 26.772109 27.098006 1.124111 0.155247 0.120397 -0.023293 53299.400000 0 0 1
2.588892 4.886794 26.437779 27.009985 1.083615 0.206205 0.120414 -0.025910 -69102.500000 0 0 1
2.248592 5.295794 25.160399 25.809829 1.169265 0.224804 0.089237 -0.025157 -607800.000000 0 0 1
2.585892 6.785194 25.016319 26.048837 1.206681 0.282498 0.081789 -0.015828 -196018.000000 0 0 1
3.911792 7.221394 24.870189 26.191162 1.074352 0.318953 0.078752 -0.014769 -302033.000000 0 0 1
4.444392 6.873794 23.609509 24.988209 0.996836 0.333733 0.085873 -0.024025 389800.000000 0 1 0
5.993992 7.135594 23.408039 25.194859 0.872129 0.378879 0.092578 -0.026102 1758980.000000 0 0 1
6.983392 6.434394 24.195189 25.991852 0.744505 0.373993 0.110579 -0.027167 692223.000000 0 0 1
6.904992 4.972494 24.298869 25.745672 0.624109 0.336839 0.111761 -0.029946 -1045400.000000 0 0 1
7.103592 4.079694 23.025829 24.439593 0.521319 0.341800 0.102304 -0.030330 -137111.000000 0 1 0
6.113792 4.325794 22.065059 23.301454 0.615773 0.327221 0.076534 -0.028966 -995992.000000 0 1 0
4.954192 3.614394 22.332359 23.159061 0.630292 0.267997 0.071042 -0.021950 -967642.000000 0 1 0
3.871992 3.858994 21.261759 21.953281 0.783717 0.251660 0.038017 -0.016101 -17440.300000 0 1 0
3.414792 5.225894 21.192559 22.092879 0.992009 0.286466 0.033290 -0.025841 -33046.700000 0 1 0
2.126292 5.329994 20.626959 21.410310 1.191213 0.271341 0.025430 -0.017983 -20986.900000 0 1 0
1.560992 6.800494 20.610259 21.759278 1.345164 0.326427 0.027369 -0.017748 161433.000000 0 1 0
2.257692 7.649494 19.716859 21.268908 1.283802 0.384390 0.020490 -0.025855 -182383.000000 0 1 0
1.848892 8.949894 20.023659 22.010586 1.367080 0.428166 0.039898 -0.027077 544703.000000 0 1 0
2.832992 10.060694 19.506059 22.129838 1.296314 0.491900 0.046568 -0.033356 -388625.000000 0 1 0
3.047092 10.188994 18.109059 21.000914 1.280205 0.531005 0.043349 -0.032350 -159709.000000 0 1 0
3.784592 11.340094 17.704959 21.363203 1.248684 0.593909 0.041057 -0.030006 -295767.000000 0 1 0
5.282792 11.240594 18.020759 21.886219 1.131456 0.603448 0.045433 -0.026540 -977382.000000 0 1 0
5.817492 10.203894 17.240459 20.861354 1.052634 0.598058 0.042806 -0.018286 -105018.000000 0 1 0
7.124492 9.800794 17.599159 21.366898 0.942224 0.602953 0.041109 -0.010460 95695.800000 0 1 0
7.224792 8.250294 18.014259 21.089772 0.851569 0.546843 0.053435 -0.017303 -160101.000000 0 1 0
6.802392 8.026794 19.339259 22.016105 0.867778 0.498263 0.062877 -0.020622 -78608.400000 0 1 0
6.849092 6.682594 19.735059 21.932617 0.773094 0.451476 0.060771 -0.029093 -392941.000000 0 1 0
8.208492 6.056794 20.042359 22.489114 0.635692 0.470807 0.087610 -0.022259 -424384.000000 0 1 0
9.035392 5.972394 18.888659 21.773590 0.584069 0.520636 0.092666 -0.025225 -913805.000000 0 1 0
10.379592 5.731894 19.115659 22.494420 0.504552 0.555199 0.101875 -0.025292 -526435.000000 0 1 0
10.872092 4.283394 19.354359 22.608429 0.375307 0.543182 0.121551 -0.019336 -610642.000000 0 1 0
10.276892 3.633994 20.412259 23.140457 0.339886 0.490489 0.131114 -0.026351 -119496.000000 0 1 0
10.340092 2.226294 20.273559 22.866812 0.212070 0.480869 0.129795 -0.037396 173765.000000 0 1 0
9.344292 1.472094 21.194759 23.209926 0.156255 0.419785 0.136279 -0.037188 -867.081000 0 1 0
9.723292 1.497794 22.509789 24.565756 0.152840 0.412035 0.132463 -0.029507 -3053.000000 0 1 0
9.062992 0.499494 23.257679 24.966116 0.055058 0.372089 0.119597 -0.036968 -530376.000000 0 1 0
9.602292 0.234694 24.669639 26.473575 0.024437 0.371293 0.111454 -0.025411 397378.000000 0 0 1
10.989592 -0.105706 24.712689 27.046244 -0.009618 0.418450 0.099029 -0.033195 653436.000000 0 0 1
11.160492 -1.514206 24.751319 27.193330 -0.134852 0.427034 0.095491 -0.031668 119760.000000 0 0 1
12.621992 -1.950906 24.464419 27.597618 -0.153351 0.481139 0.084576 -0.030791 278638.000000 0 0 1
12.816292 -3.378006 24.440759 27.803219 -0.257710 0.496905 0.088254 -0.020934 25259.500000 0 0 1
14.207992 -3.595806 24.373439 28.440488 -0.247879 0.541381 0.091293 -0.018835 20429.100000 0 0 1
14.520492 -5.121206 24.557559 28.985257 -0.339068 0.560023 0.098550 -0.024027 -316844.000000 0 0 1
14.035092 -5.900306 23.485629 27.988787 -0.397965 0.575154 0.118764 -0.037458 3547.290000 0 0 1
13.594492 -7.151406 23.968509 28.468267 -0.484271 0.569932 0.136651 -0.043086 -127021.000000 0 0 1
13.183492 -7.953106 22.726519 27.450884 -0.542815 0.595448 0.148185 -0.050654 -28671.900000 0 0 1
12.667192 -9.211406 23.008819 27.833676 -0.628740 0.597661 0.149950 -0.043489 -344416.000000 0 0 1
12.620992 -10.009906 21.823059 27.124409 -0.670529 0.635872 0.156199 -0.045047 129022.000000 0 0 1
11.953192 -11.417106 21.880959 27.422718 -0.762463 0.646970 0.161327 -0.038172 725309.000000 0 0 1
10.529192 -11.351606 21.916859 26.834149 -0.822967 0.615036 0.129226 -0.031086 90721.500000 0 0 1
9.927292 -12.623506 21.869659 27.132748 -0.904395 0.633392 0.120578 -0.030112 1027620.000000 0 0 1
8.422592 -12.529406 22.347159 26.968900 -0.978955 0.594146 0.082758 -0.021940 823516.000000 0 0 1
7.606092 -11.849906 21.422159 25.635558 -1.000158 0.581495 0.076087 -0.022288 199927.000000 0 0 1
6.227492 -11.888906 21.803559 25.603182 -1.088285 0.551775 0.050347 -0.023721 624553.000000 0 0 1
5.403292 -10.772606 21.144259 24.337714 -1.105888 0.518051 0.041068 -0.026460 -116136.000000 0 1 0
5.795192 -9.526906 21.684459 24.383641 -1.024298 0.474976 0.048902 -0.020368 -272853.000000 0 1 0
5.197492 -8.408206 21.060259 23.264702 -1.017142 0.438840 0.035738 -0.025799 91147.400000 0 1 0
5.423792 -7.048006 21.749259 23.497280 -0.914900 0.388159 0.052769 -0.027759 -310132.000000 0 1 0
4.787092 -5.992406 21.205259 22.549683 -0.896751 0.347052 0.041187 -0.030154 -589690.000000 0 1 0
5.478392 -4.756506 21.399059 22.595505 -0.714983 0.326878 0.076011 -0.049981 311678.000000 0 1 0
-8.382808 -15.124706 -20.751841 27.012352 1.064699 2.446876 0.098111 -0.021559 10309.000000 0 0 1
-7.888608 -14.813806 -19.494141 25.723541 1.081475 2.430781 0.079629 -0.018043 221651.000000 0 0 1
-7.150208 -13.563306 -19.452541 24.768733 1.085647 2.474085 0.093433 -0.031295 597119.000000 0 1 0
-6.322408 -13.326406 -18.168241 23.401943 1.127816 2.459660 0.069365 -0.032652 345600.000000 0 1 0
-5.153908 -14.107506 -17.977941 23.426286 1.220529 2.445613 0.058893 -0.020608 378138.000000 0 1 0
-4.493608 -13.754206 -16.764041 22.145062 1.255020 2.429522 0.050934 -0.022222 -25600.900000 0 1 0
-3.466308 -14.783406 -16.303841 22.279579 1.340484 2.391732 0.046810 -0.008546 -40555.600000 0 1 0
-2.280808 -14.789606 -17.088041 22.714218 1.417785 2.422352 0.047590 -0.013685 415946.000000 0 1 0
-1.285308 -15.591706 -16.420641 22.680185 1.488547 2.380392 0.054475 -0.010594 281701.000000 0 1 0
0.058992 -15.604706 -17.193941 23.219431 -1.567016 2.404607 0.069060 -0.008896 29382.700000 0 1 0
0.076692 -16.382006 -18.397941 24.634534 -1.566115 2.414087 0.099655 -0.027362 -378272.000000 0 1 0
-0.141008 -17.769106 -18.225041 25.454138 1.562861 2.368845 0.098666 -0.017394 -329823.000000 0 0 1
-0.478508 -18.330706 -19.585541 26.829782 1.544698 2.389107 0.114501 -0.043863 -188214.000000 0 0 1
-1.801608 -18.066406 -19.992841 27.006565 1.471403 2.404306 0.140457 -0.043397 -116853.000000 0 0 1
-1.988008 -18.391506 -21.377241 28.269880 1.463121 2.428259 0.159858 -0.048827 -312631.000000 0 0 1
-3.405808 -18.021806 -21.838341 28.518383 1.384016 2.443024 0.169614 -0.047947 12387.900000 0 0 1
-3.666408 -16.616106 -22.007541 27.818508 1.353622 2.483420 0.145597 -0.045585 -161896.000000 0 0 1
-3.954908 -15.909406 -20.834141 26.510601 1.327146 2.474914 0.122090 -0.034926 390916.000000 0 0 1
-2.875708 -14.811706 -20.421941 25.391180 1.379031 2.505281 0.118861 -0.023416 718487.000000 0 0 1
-2.849708 -13.769706 -21.348141 25.563036 1.366722 2.559143 0.111398 -0.023989 5180.360000 0 0 1
-2.023608 -12.668906 -21.030541 24.634931 1.412404 2.593822 0.089407 -0.019784 73197.100000 0 1 0
-1.783508 -11.630106 -22.143441 25.075332 1.418629 2.653176 0.091305 -0.021948 48095.200000 0 0 1
-2.927308 -10.837106 -22.356941 25.016891 1.306974 2.676263 0.104268 -0.020404 94088.700000 0 0 1
-2.898208 -10.100206 -23.566141 25.802651 1.291359 2.722166 0.121179 -0.017533 12064.600000 0 0 1
-3.983908 -9.015806 -23.628741 25.602221 1.154715 2.746388 0.105570 -0.016124 1652910.000000 0 0 1
-5.392308 -9.431006 -23.613141 25.992332 1.051398 2.710395 0.116730 -0.022309 2383200.000000 0 0 1
-6.181708 -8.209806 -23.572941 25.715715 0.925399 2.730474 0.105900 -0.023602 -261198.000000 0 0 1
-7.703608 -8.363506 -23.458841 26.069351 0.826446 2.690251 0.082561 -0.028670 -170798.000000 0 0 1
-8.386108 -8.818906 -24.592041 27.438448 0.810548 2.682065 0.083539 -0.024378 -210932.000000 0 0 1
-9.069108 -7.757306 -25.160331 27.847204 0.707595 2.698695 0.074591 -0.025236 -473630.000000 0 0 1
-9.845108 -8.100406 -26.437111 29.350700 0.688481 2.692248 0.053092 -0.026176 -214389.000000 0 0 1
-10.677608 -7.071106 -26.859941 29.756820 0.584930 2.696680 0.063773 -0.035442 -322818.000000 0 0 1
-11.286208 -7.525406 -28.054481 31.161902 0.588080 2.691212 0.058960 -0.028718 -219622.000000 0 0 1
-12.093808 -6.412406 -28.777591 31.867364 0.487532 2.697597 0.046296 -0.036507 159695.000000 0 0 1
-11.378108 -5.351906 -29.332211 31.913678 0.439663 2.736614 0.027655 -0.029686 321672.000000 0 0 1
-12.299908 -4.837706 -30.296981 33.054474 0.374728 2.730231 0.049409 -0.031048 492907.000000 0 0 1
-11.658408 -3.805306 -31.213881 33.536625 0.315498 2.767228 0.054268 -0.032156 -313102.000000 0 0 1
-10.698908 -4.288706 -32.117731 34.123427 0.381243 2.797027 0.054725 -0.028522 -43227.700000 0 0 1
-10.117308 -3.176106 -32.759241 34.432767 0.304185 2.828538 0.050603 -0.029795 19384.800000 0 0 1
-9.008908 -3.509406 33.760429 35.117559 0.371464 0.278915 0.039583 -0.026879 -231243.000000 0 0 1
-7.744508 -3.590306 -33.238561 34.317192 0.434101 2.890207 0.041077 -0.031758 -800060.000000 0 0 1
-6.805108 -3.870806 33.354272 34.260766 0.517169 0.230548 0.026619 -0.026081 -740125.000000 0 0 1
-5.331208 -3.712206 33.698629 34.319089 0.608249 0.190441 0.081887 -0.043321 -434597.000000 0 0 1
-5.020708 -2.352806 33.767289 34.219483 0.438230 0.162750 0.119209 -0.056566 5501.640000 0 0 1
-3.629008 -2.166006 -33.614631 33.879267 0.538107 3.016522 0.130622 -0.057385 223498.000000 0 0 1
-3.201708 -0.748206 -33.071991 33.235032 0.229570 3.042500 0.143473 -0.058157 -174753.000000 0 0 1
-3.578108 -0.505106 -31.735001 31.940073 0.140239 3.028214 0.145557 -0.059439 -60314.400000 0 0 1
-3.800608 0.877894 -31.455811 31.696741 -0.227006 3.018217 0.173282 -0.064422 -322534.000000 0 0 1
-4.506308 1.034794 -30.078881 30.432166 -0.225719 2.989071 0.179304 -0.068676 835190.000000 0 0 1
-5.730808 0.334994 -29.832931 30.380227 -0.058388 2.951492 0.155600 -0.069618 457273.000000 0 0 1
-6.872008 1.040394 -30.272861 31.060474 -0.150255 2.915915 0.152844 -0.068397 -81691.500000 0 0 1
-8.126508 0.134794 -30.416181 31.483367 -0.016585 2.880479 0.125515 -0.069634 123954.000000 0 0 1
-8.673008 -0.325706 -29.169241 30.433071 0.037536 2.852391 0.129479 -0.051538 -486203.000000 0 0 1
-9.650208 -1.273306 -29.395141 30.964854 0.131188 2.821819 0.070783 -0.040118 -479798.000000 0 0 1
-9.850408 -2.197306 -28.203831 29.955213 0.219474 2.797949 0.068338 -0.038945 -178999.000000 0 0 1
-10.617608 -1.620406 -27.172431 29.218151 0.151446 2.765167 0.069857 -0.037416 89689.600000 0 0 1
-10.642008 -2.419506 -25.926911 28.130252 0.223554 2.743169 0.060670 -0.037770 87552.400000 0 0 1
-11.667808 -1.801606 -24.946641 27.599247 0.153198 2.699570 0.062467 -0.032649 54744.100000 0 0 1
-11.236908 -0.553106 -24.507941 26.966891 0.049183 2.711233 0.070754 -0.030383 720086.000000 0 0 1
-12.237708 0.102794 -23.691841 26.665997 -0.008400 2.664789 0.083717 -0.043275 733842.000000 0 0 1
-11.565608 1.261994 -22.906241 25.691474 -0.108686 2.671639 0.088042 -0.039861 -3397.480000 0 0 1
-11.120308 2.253394 -23.755541 26.326124 -0.199931 2.696002 0.067740 -0.043154 -16570.300000 0 0 1
-10.286508 3.192894 -23.080841 25.470219 -0.300967 2.704980 0.072537 -0.038533 56748.500000 0 0 1
-9.848108 4.420894 -23.894841 26.220087 -0.421945 2.717271 0.096802 -0.046669 498815.000000 0 0 1
-10.981808 5.264094 -24.145941 27.043248 -0.446989 2.674462 0.108640 -0.044216 482216.000000 0 0 1
-11.614908 4.940394 -25.373191 28.339238 -0.402166 2.679985 0.094434 -0.039801 -818236.000000 0 0 1
-12.985008 5.556594 -25.560941 29.203560 -0.404344 2.636786 0.095512 -0.025036 -636355.000000 0 0 1
-13.134408 6.921594 -25.838641 29.800277 -0.484999 2.620068 0.084510 -0.024303 340372.000000 0 0 1
-14.518108 7.159194 -26.107681 30.718733 -0.458130 2.586581 0.088770 -0.018273 643976.000000 0 0 1
-14.823708 8.673994 -26.218251 31.342897 -0.529424 2.561656 0.109384 -0.010774 -38756.300000 0 0 1
-14.577508 9.316694 -24.976541 30.383090 -0.568685 2.535805 0.153822 -0.025054 9879.550000 0 0 1
-14.840508 10.666894 -25.101741 31.050293 -0.623212 2.512263 0.148548 -0.022793 -97699.400000 0 0 1
-14.682108 11.294494 -23.704541 30.083802 -0.655720 2.478269 0.154803 -0.027254 210044.000000 0 0 1
-15.716908 11.048794 -22.764041 29.787558 -0.612728 2.440617 0.176993 -0.029317 152917.000000 0 0 1
-15.375408 11.668194 -21.533241 28.917649 -0.649164 2.410792 0.163426 -0.030035 -367516.000000 0 0 1
-16.510208 11.731294 -20.523441 28.834387 -0.617770 2.362811 0.160461 -0.032678 -192475.000000 0 0 1
-17.605108 12.554594 -20.903241 30.074959 -0.619479 2.339269 0.136818 -0.032154 656770.000000 0 0 1
-18.375508 12.863094 -19.711141 29.860468 -0.610735 2.291759 0.121462 -0.023776 1083260.000000 0 0 1
-19.871108 13.327694 -19.893841 31.116769 -0.590795 2.264421 0.113781 -0.027095 834567.000000 0 0 1
-20.019408 14.583194 -20.509741 32.157359 -0.629568 2.262426 0.103601 -0.030968 803246.000000 0 0 1
-21.402408 14.919094 -20.343841 33.083445 -0.608760 2.233087 0.081288 -0.029971 596546.000000 0 0 1
-21.822908 16.223094 -21.032941 34.377503 -0.639262 2.229159 0.087997 -0.020700 -142738.000000 0 0 1
-21.737008 16.173394 -22.454641 35.189304 -0.639681 2.262837 0.096523 -0.018054 90306.900000 0 0 1
-21.901708 17.484194 -23.030641 36.273851 -0.673705 2.258689 0.090049 -0.003437 -171943.000000 0 0 1
-21.573808 17.453994 -24.541941 37.045620 -0.680227 2.294920 0.083929 -0.000247 -506432.000000 0 0 1
-20.238308 17.108894 -24.803341 36.297508 -0.701801 2.323116 0.086494 -0.012100 -290427.000000 0 0 1
-20.014208 16.719894 -26.147401 36.929798 -0.695957 2.357501 0.069140 -0.015726 -91888.900000 0 0 1
-19.295608 17.837194 -26.901551 37.605577 -0.746143 2.367936 0.044216 -0.004997 -16699.300000 0 0 1
-20.223408 18.889594 -27.262601 38.846524 -0.751310 2.348721 0.040563 -0.007802 874436.000000 0 0 1
-19.723908 20.203394 -27.050371 39.101563 -0.797407 2.334772 0.023832 -0.007765 -473126.000000 0 0 1
-20.814208 21.269094 -27.345251 40.414952 -0.796207 2.313948 0.069156 -0.013433 286968.000000 0 0 1
-21.678108 21.528794 -26.252391 40.281725 -0.781942 2.280646 0.091388 -0.011955 327025.000000 0 0 1
-22.832508 20.698494 -26.218701 40.461974 -0.736415 2.275731 0.117866 -0.019274 514632.000000 0 0 1
-23.837608 21.044194 -25.026841 40.465200 -0.723239 2.237601 0.138610 -0.003041 798050.000000 0 0 1
-23.290008 20.664794 -23.763541 39.168407 -0.725744 2.222701 0.116796 -0.005100 539531.000000 0 0 1
-24.178808 21.083094 -22.705041 39.301788 -0.717109 2.186717 0.108203 -0.013166 502325.000000 0 0 1
-23.770308 20.523194 -21.345341 37.971735 -0.712220 2.167765 0.113603 -0.013537 46872.600000 0 0 1
-22.592408 21.051594 -20.787341 37.224992 -0.750109 2.163281 0.112415 -0.015032 -154023.000000 0 0 1
-21.925808 20.263294 -19.783741 35.815340 -0.746012 2.156015 0.101033 -0.014002 -286262.000000 0 0 1
-22.662008 19.762994 -18.551941 35.331531 -0.717172 2.123607 0.115907 -0.021639 -1182530.000000 0 0 1
-23.575908 18.753494 -18.946841 35.587916 -0.671961 2.132224 0.147771 -0.023779 -362953.000000 0 0 1
-24.262308 18.150394 -17.911441 35.198240 -0.642278 2.104672 0.136000 -0.022467 -43593.100000 0 0 1
-25.488928 18.983194 -17.461941 36.262467 -0.640141 2.073211 0.112479 -0.021841 -1277320.000000 0 0 1
-26.499358 19.153894 -18.383441 37.510512 -0.625869 2.082987 0.116820 -0.011609 -373927.000000 0 0 1
-27.471268 20.049594 -17.870341 38.418822 -0.630472 2.054595 0.098951 -0.010072 -34049.600000 0 0 1
-28.922688 19.931594 -18.446341 39.674398 -0.603396 2.054367 0.056119 0.010184 994619.000000 0 0 1
-29.673508 18.718894 -18.180541 39.515138 -0.562780 2.048893 0.046627 0.006682 351494.000000 0 0 1
-29.924348 18.544594 -16.806141 39.010447 -0.554790 2.016188 0.052582 0.006482 -860227.000000 0 0 1
-30.944218 17.481694 -16.294141 39.097996 -0.514243 2.000665 0.046274 0.004683 -32380.800000 0 0 1
-30.608438 16.116294 -16.651841 38.391343 -0.484646 2.019435 0.082146 -0.013702 3887.640000 0 0 1
-31.273448 15.136394 -15.886941 38.203846 -0.450767 1.999670 0.073526 -0.015693 146409.000000 0 0 1
-30.276028 14.110294 -15.256441 36.721891 -0.436125 1.999244 0.133804 -0.012560 -44985.800000 0 0 1
-29.734658 14.470594 -14.000541 35.910488 -0.452917 1.971290 0.162256 -0.013191 -85275.200000 0 0 1
-30.594928 14.603094 -12.859141 36.258206 -0.445327 1.933341 0.123674 -0.001396 -10650.200000 0 0 1
-30.101508 15.574794 -11.744141 35.869205 -0.477478 1.904364 0.171236 -0.010717 54490.000000 0 0 1
-30.194318 16.960394 -12.025341 36.660069 -0.511788 1.905006 0.182291 -0.005744 270011.000000 0 0 1
-31.145448 17.638194 -11.217041 37.509557 -0.515284 1.874488 0.108312 -0.002109 116970.000000 0 0 1
-30.760698 19.107294 -11.354741 37.950486 -0.555833 1.874649 0.196017 -0.012517 492440.000000 0 0 1
-29.441908 19.433194 -10.932441 36.932279 -0.583409 1.871312 0.130854 -0.026967 110581.000000 0 0 1
-29.353278 20.771794 -10.588541 37.485992 -0.615841 1.857161 0.092125 -0.022546 444001.000000 0 0 1
-27.909508 21.334494 -10.420741 36.642777 -0.652664 1.859164 0.148774 -0.027415 501627.000000 0 0 1
-27.952698 22.746594 -10.375541 37.502170 -0.683071 1.851118 0.152187 -0.033115 13220.900000 0 0 1
-26.673748 23.351994 -10.334041 36.926912 -0.719095 1.854435 0.142483 -0.017403 69611.300000 0 0 1
-26.686828 24.652694 -9.582341 37.573440 -0.745798 1.828675 0.173252 -0.003683 81508.600000 0 0 1
-26.939308 24.522394 -8.210841 37.342898 -0.738467 1.792485 0.151073 -0.012498 -163897.000000 0 0 1
-28.290888 24.730894 -7.881741 38.394183 -0.718357 1.777551 0.190987 -0.023899 -252777.000000 0 0 1
-28.638938 24.315694 -6.452841 38.119298 -0.703938 1.740896 0.190778 -0.021211 -56073.800000 0 0 1
-28.577258 22.876994 -6.339641 37.151145 -0.675065 1.742280 0.208369 -0.039605 203260.000000 0 0 1
-28.980428 22.528694 -5.029441 37.050001 -0.660793 1.706964 0.162438 -0.030739 -375989.000000 0 0 1
-29.022798 21.013494 -4.708341 36.139427 -0.626675 1.701450 0.180999 -0.032203 411785.000000 0 0 1
-27.796378 20.269994 -4.686841 34.719991 -0.630076 1.706199 0.188558 -0.031586 945737.000000 0 0 1
-27.008638 20.117794 -5.901641 34.190957 -0.640207 1.744273 0.185389 -0.027503 225567.000000 0 0 1
-27.738728 19.382994 -7.088441 34.574318 -0.609900 1.777281 0.198121 -0.029035 -116295.000000 0 0 1
-27.642278 18.015894 -7.134141 33.757428 -0.577605 1.783737 0.188571 -0.032081 316457.000000 0 0 1
-28.311858 17.516394 -8.277641 34.306045 -0.554052 1.814489 0.170704 -0.035214 -45729.900000 0 0 1
-28.092838 15.992894 -8.460141 33.414880 -0.517530 1.826767 0.212816 -0.034426 190266.000000 0 0 1
-28.855058 15.140894 -7.606141 33.462134 -0.483229 1.800107 0.186363 -0.024037 43544.200000 0 0 1
-28.664978 13.779594 -7.934341 32.779749 -0.448098 1.815275 0.204999 -0.040810 -359960.000000 0 0 1
-29.434188 12.781094 -7.119041 32.869569 -0.409659 1.789111 0.179613 -0.033936 -834148.000000 0 0 1
-30.806358 12.867994 -7.369041 34.189468 -0.395676 1.788036 0.175239 -0.022247 -827554.000000 0 0 1
-31.602458 12.047494 -6.566541 34.452532 -0.364213 1.762566 0.178310 -0.034937 17768.200000 0 0 1
-32.084558 10.727694 -7.292941 34.607648 -0.322671 1.783120 0.138622 -0.019680 36047.400000 0 0 1
-31.072138 9.851394 -7.763241 33.508143 -0.307024 1.804603 0.184294 -0.019842 154862.000000 0 0 1
-31.676378 8.607294 -8.146041 33.820651 -0.265320 1.814048 0.144263 -0.010865 186110.000000 0 0 1
-30.649358 7.495694 -8.452141 32.665077 -0.239855 1.832526 0.207255 -0.021027 57077.300000 0 0 1
-29.827658 7.709094 -9.578941 32.262601 -0.252920 1.872247 0.220735 -0.038468 174458.000000 0 0 1
-29.067878 6.579494 -9.932041 31.414594 -0.222598 1.892476 0.238654 -0.043395 -186362.000000 0 0 1
-28.188778 6.695894 -11.182041 31.056083 -0.233215 1.939128 0.226132 -0.039903 854711.000000 0 0 1
-27.088598 7.646594 -11.014341 30.225457 -0.275123 1.943791 0.251972 -0.037421 1464110.000000 0 0 1
-26.133878 7.561294 -12.070041 29.763042 -0.281639 1.988364 0.219780 -0.027709 198430.000000 0 0 1
-33.516988 25.377994 -33.312721 53.639244 -0.648073 2.240880 0.084011 -0.001152 20059.400000 0 0 1
-34.000998 26.662294 -33.732031 54.816017 -0.665009 2.233649 0.091476 -0.011114 -12203.300000 0 0 1
-33.445918 26.990694 32.618868 53.954773 -0.678992 0.921584 0.068724 -0.017137 -266326.000000 0 0 1
-33.634818 28.466794 32.243049 54.601040 -0.702371 0.939092 0.091310 -0.034498 -65720.900000 0 0 1
-33.319188 28.804394 30.925099 53.816570 -0.712851 0.958633 0.105209 -0.041770 126272.000000 0 0 1
-33.641618 30.154494 30.719249 54.632630 -0.730792 0.973647 0.115760 -0.043790 -150476.000000 0 0 1
-33.231858 30.706994 29.332719 53.922948 -0.745930 0.995630 0.116282 -0.048878 -886436.000000 0 0 1
-31.866148 30.808994 29.164159 53.058399 -0.768533 0.988837 0.112008 -0.044127 -874018.000000 0 0 1
-31.625608 31.512194 27.990839 52.694255 -0.783602 1.010788 0.092623 -0.041130 -641859.000000 0 0 1
-30.201558 31.435794 27.480929 51.531978 -0.805420 1.008324 0.105450 -0.040653 -865712.000000 0 0 1
-29.874158 30.278094 26.741789 50.242926 -0.792113 1.009540 0.126496 -0.037759 761560.000000 0 0 1
-28.609868 30.326694 26.053489 49.163169 -0.814520 1.012267 0.097080 -0.025102 639846.000000 0 0 1
-28.569368 30.993194 24.658119 48.834513 -0.826069 1.041493 0.103547 -0.028057 -156169.000000 0 0 1
-28.867118 32.369794 24.741519 49.932523 -0.842535 1.052387 0.082701 -0.026287 -420261.000000 0 0 1
-29.900208 32.688894 23.868359 50.321812 -0.829924 1.076611 0.090948 -0.028575 -331914.000000 0 0 1
-30.519588 -33.597897 24.211149 51.443597 0.833372 1.080786 0.091218 -0.017175 173854.000000 0 0 1
-31.178248 -33.661097 25.480399 52.482410 0.823672 1.063857 0.102375 -0.033724 213297.000000 0 0 1
-31.131358 -32.447497 26.160989 52.023061 0.806096 1.043877 0.089524 -0.029860 45224.500000 0 0 1
-31.484548 -32.496797 27.717119 53.061825 0.801218 1.021186 0.094389 -0.028483 521475.000000 0 0 1
-32.876298 -32.689797 27.946339 54.133831 0.782554 1.028335 0.081261 -0.034818 345279.000000 0 0 1
-33.010348 -32.917097 29.333719 55.078902 0.783984 1.009155 0.079471 -0.035860 -545268.000000 0 0 1
-34.459416 -33.228297 29.659869 56.314109 0.767212 1.016099 0.094935 -0.038888 -651698.000000 0 0 1
-34.810592 -33.280197 31.000539 57.274621 0.762926 0.998860 0.097728 -0.039745 -1584080.000000 0 0 1
-36.151298 -33.129797 31.189329 58.114319 0.741814 1.004288 0.092742 -0.044458 -1439090.000000 0 0 1
-36.570238 -33.448797 32.660902 59.354350 0.740848 0.988109 0.115234 -0.028682 -23547.400000 0 0 1
-36.336778 32.867194 32.959740 59.050473 -0.735304 0.978627 0.117117 -0.025195 98538.700000 0 0 1
-37.074618 32.402194 -33.498811 59.553336 -0.718248 2.168204 0.125650 -0.021538 261657.000000 0 0 1
-36.696608 30.960694 -33.099981 58.316502 -0.700821 2.174374 0.121115 -0.024995 351937.000000 0 0 1
-35.419032 30.889994 -32.496221 57.137588 -0.717202 2.175765 0.128775 -0.022677 -155598.000000 0 0 1
-35.037021 29.514994 -32.271381 56.037218 -0.700062 2.184491 0.111235 -0.017695 66004.300000 0 0 1
-34.152724 29.421894 -31.016351 54.718100 -0.711121 2.173460 0.098395 -0.017052 -207098.000000 0 0 1
-34.751268 29.673794 -29.774011 54.540594 -0.706749 2.148266 0.117843 -0.026452 -605291.000000 0 0 1
-34.901108 31.009894 -29.370591 55.157343 -0.726429 2.132333 0.111657 -0.023522 951311.000000 0 0 1
-36.065078 31.318894 -28.320511 55.530301 -0.715079 2.105982 0.102861 -0.023401 1001100.000000 0 0 1
-35.763342 30.732694 -27.072671 54.373198 -0.709889 2.091977 0.085840 -0.035547 787472.000000 0 0 1
-36.865978 30.886694 -26.129821 54.734411 -0.697375 2.068482 0.123537 -0.031196 757157.000000 0 0 1
-36.504738 30.640294 -24.653541 53.658369 -0.698279 2.048176 0.117561 -0.035452 -314685.000000 0 0 1
-36.212838 31.746494 -23.932841 53.777229 -0.719772 2.032012 0.107309 -0.038889 -67894.400000 0 0 1
-36.055678 31.478394 -22.532041 52.901740 -0.717724 2.010778 0.094533 -0.038322 186566.000000 0 0 1
-37.364338 31.163694 -21.732341 53.287562 -0.695161 1.990874 0.074764 -0.025290 307243.000000 0 0 1
37.314270 32.215594 -21.662241 53.846559 0.712198 1.984819 0.074360 -0.032374 25355.200000 0 0 1
37.518270 33.379994 -20.835541 54.368781 0.727095 1.964083 0.083166 -0.034876 -260550.000000 0 0 1
37.600980 33.127894 -19.330641 53.711867 0.722240 1.938952 0.088103 -0.031216 76264.300000 0 0 1
-36.924278 32.301894 -19.102241 52.647035 -0.718725 1.942106 0.081977 -0.033391 -141462.000000 0 0 1
-36.503488 32.266694 -17.759241 51.855904 -0.723868 1.920344 0.080342 -0.023255 51869.900000 0 0 1
-35.467319 31.117194 -17.632941 50.369942 -0.720158 1.928441 0.097333 -0.030051 81540.900000 0 0 1
-35.029853 30.929394 -16.304141 49.492858 -0.723311 1.906490 0.077973 -0.017525 -40631.200000 0 0 1
-33.933848 30.066694 -16.147041 48.127321 -0.725048 1.912939 0.096642 -0.022131 -368786.000000 0 0 1
-33.633288 29.946094 -14.588941 47.337129 -0.727469 1.884089 0.114615 -0.023571 -1028040.000000 0 0 1
-34.651835 29.462394 -13.837641 47.542220 -0.704634 1.866131 0.098344 -0.014468 -828757.000000 0 0 1
-34.222065 29.346594 -12.498541 46.782324 -0.708852 1.841245 0.130007 -0.015177 543557.000000 0 0 1
-35.300231 28.478894 -11.769541 46.858039 -0.678851 1.824690 0.127159 -0.023778 375620.000000 0 0 1
-35.087388 28.261894 -10.394441 46.237472 -0.678068 1.797540 0.145202 -0.019855 -75085.500000 0 0 1
-35.837424 27.197394 -9.934741 46.072967 -0.649179 1.788134 0.170919 -0.030578 -468830.000000 0 0 1
-35.024448 26.488094 -8.902441 44.806077 -0.647505 1.770816 0.190252 -0.023384 -260372.000000 0 0 1
-34.821260 27.287994 -7.736641 44.911139 -0.664697 1.743925 0.184418 -0.029104 290164.000000 0 0 1
-33.545328 27.002394 -7.197741 43.660346 -0.677753 1.736410 0.176666 -0.037186 -62967.700000 0 0 1
-33.195608 27.631794 -5.822841 43.581761 -0.694183 1.704804 0.184152 -0.042464 144017.000000 0 0 1
-32.131728 26.904094 -5.210841 42.230689 -0.697078 1.694502 0.197001 -0.037122 287363.000000 0 0 1
-31.873908 27.402394 -3.956841 42.219590 -0.710106 1.664655 0.182988 -0.035497 733301.000000 0 0 1
-30.847148 26.473394 -3.155341 40.771845 -0.709242 1.648264 0.188772 -0.035322 1155680.000000 0 0 1
-31.520838 25.260794 -2.725641 40.485801 -0.675594 1.638171 0.174083 -0.030662 846040.000000 0 0 1
-30.535728 24.507194 -2.048141 39.207501 -0.676309 1.623059 0.165230 -0.036922 383936.000000 0 0 1
-31.177938 23.251494 -1.532441 38.923568 -0.640787 1.610177 0.156820 -0.038853 -117239.000000 0 0 1
-31.433778 22.406794 -2.628841 38.691829 -0.619282 1.638792 0.155622 -0.036910 -150599.000000 0 0 1
-32.362758 21.456094 -2.177841 38.890295 -0.585451 1.626825 0.129089 -0.042887 -516040.000000 0 0 1
-32.873698 20.673194 -3.344241 38.977493 -0.561375 1.656701 0.169964 -0.030768 -464477.000000 0 0 1
-32.034278 19.701494 -3.930541 37.812604 -0.551385 1.674932 0.158755 -0.032332 -364767.000000 0 0 1
-32.621648 19.013194 -4.965441 38.083186 -0.527706 1.701553 0.155053 -0.025947 -339003.000000 0 0 1
-31.743158 17.865594 -5.481841 36.835555 -0.512630 1.720170 0.145769 -0.034373 -125729.000000 0 0 1
-31.624808 16.780694 -4.548641 36.088922 -0.487841 1.697172 0.188537 -0.038277 -166428.000000 0 0 1
-30.800718 15.800394 -5.067941 34.986007 -0.473984 1.716164 0.185244 -0.045237 -451733.000000 0 0 1
-30.472808 14.624994 -4.096841 34.048004 -0.447468 1.691414 0.182294 -0.044849 489900.000000 0 0 1
-31.632598 13.940094 -3.598141 34.754771 -0.415083 1.674512 0.174748 -0.046547 661978.000000 0 0 1
-31.223998 12.796994 -2.954641 33.873751 -0.388964 1.658132 0.173207 -0.054904 -307128.000000 0 0 1
-32.349418 12.074594 -2.207841 34.599931 -0.357240 1.634650 0.167742 -0.050214 -326302.000000 0 0 1
-33.239608 11.474194 -3.118941 35.302358 -0.332389 1.659261 0.155421 -0.022084 156277.000000 0 0 1
-34.007252 10.431794 -2.526741 35.660902 -0.297640 1.641710 0.156323 -0.021077 493960.000000 0 0 1
-35.164349 9.783394 -3.360941 36.654361 -0.271357 1.662618 0.118422 -0.015486 357012.000000 0 0 1
-34.653878 9.063794 -4.483141 36.099061 -0.255821 1.695308 0.104473 -0.018199 1116010.000000 0 0 1
-35.672067 8.427594 -5.315541 37.037491 -0.231998 1.714811 0.123069 -0.013167 694208.000000 0 0 1
-35.022317 7.644494 -6.492641 36.430143 -0.214904 1.749975 0.126089 -0.021277 7445.640000 0 0 1
-34.413756 6.411194 -6.097141 35.532874 -0.184186 1.743241 0.116358 -0.011820 463969.000000 0 0 1
-33.957041 5.699094 -7.208841 35.178512 -0.166283 1.777180 0.106906 -0.015386 -239904.000000 0 0 1
-32.926538 4.587394 -6.915241 33.956173 -0.138431 1.775883 0.129949 -0.025777 972816.000000 0 0 1
-31.595578 5.016794 -6.539941 32.653019 -0.157467 1.772446 0.155088 -0.031326 1209880.000000 0 0 1
-30.826218 3.934994 -6.040441 31.657967 -0.126964 1.762777 0.156241 -0.036334 209031.000000 0 0 1
-29.323178 4.216294 -5.814341 30.189940 -0.142808 1.764599 0.219876 -0.038630 -275838.000000 0 0 1
-28.576578 4.550494 -6.909641 29.750142 -0.157913 1.805193 0.217436 -0.030615 -285714.000000 0 0 1
-27.217538 4.612694 -6.519141 28.364953 -0.167880 1.802700 0.250735 -0.040914 -354924.000000 0 0 1
-26.285578 4.990794 -7.613341 27.817308 -0.187635 1.848025 0.246495 -0.048625 -688351.000000 0 0 1
-26.260588 4.053594 -8.666141 27.949099 -0.153152 1.886062 0.227592 -0.056185 518665.000000 0 0 1
-25.119808 4.277894 -9.491441 27.191775 -0.168681 1.927359 0.221615 -0.049913 191157.000000 0 0 1
-25.127318 3.638894 -10.877841 27.621570 -0.143818 1.975577 0.200818 -0.061036 124257.000000 0 0 1
-26.112098 4.199394 -11.750141 28.940325 -0.159456 1.988883 0.227184 -0.041956 546533.000000 0 0 1
-26.379808 3.397294 -12.874141 29.549609 -0.128079 2.021589 0.214269 -0.047508 -95238.800000 0 0 1
-27.278818 4.127394 -13.874241 30.881449 -0.150165 2.036749 0.190471 -0.037608 -306588.000000 0 0 1
-26.589858 5.137294 -14.606141 30.769331 -0.190853 2.065417 0.166815 -0.030173 590871.000000 0 0 1
-27.382588 6.023294 -15.416441 31.996138 -0.216520 2.073529 0.172380 -0.038120 188992.000000 0 0 1
-28.234518 5.483694 -16.614841 33.216139 -0.191831 2.094631 0.143198 -0.015985 525648.000000 0 0 1
-29.519568 5.002994 -16.230341 34.056700 -0.167885 2.067543 0.171968 -0.035441 171394.000000 0 0 1
-30.269108 4.576994 -17.309541 35.167997 -0.150073 2.085407 0.160183 -0.018797 -1025930.000000 0 0 1
-31.593708 3.938994 -16.979541 36.083000 -0.124036 2.060732 0.169271 -0.024328 -788018.000000 0 0 1
-31.622828 2.707694 -16.272841 35.667075 -0.085416 2.044565 0.182350 -0.034749 83132.400000 0 0 1
-31.382998 1.510194 -17.004641 35.725776 -0.048084 2.066871 0.207527 -0.033309 -24606.600000 0 0 1
-31.899348 0.407794 -16.103341 35.735869 -0.012783 2.038257 0.193424 -0.029811 -112401.000000 0 0 1
-31.646268 -0.864806 -16.659041 35.773703 0.027320 2.055197 0.185689 -0.017645 161153.000000 0 0 1
-32.035628 -1.869506 -15.772141 35.756636 0.058291 2.027617 0.175693 -0.028390 -144657.000000 0 0 1
-31.801888 -3.251606 -16.368041 35.914424 0.101892 2.044012 0.163383 -0.016946 -48804.700000 0 0 1
-32.863558 -3.569706 -17.231641 37.278489 0.108198 2.051317 0.181715 -0.024193 73109.500000 0 0 1
-32.572748 -4.733406 -17.979341 37.505277 0.144308 2.070746 0.170486 -0.022991 78336.600000 0 0 1
-33.443498 -4.919406 -19.252941 38.901721 0.146049 2.088530 0.193786 -0.026403 26883.600000 0 0 1
-33.175678 -6.090206 -19.900641 39.163143 0.181553 2.103828 0.184830 -0.029299 400751.000000 0 0 1
-34.013391 -6.112906 -21.052341 40.465782 0.177822 2.117941 0.181268 -0.029499 -48162.300000 0 0 1
-33.774878 -7.347006 -21.909741 40.923803 0.214192 2.135753 0.176561 -0.032955 466993.000000 0 0 1
-32.586988 -7.104906 -22.681341 40.334040 0.214669 2.168006 0.177216 -0.030543 462322.000000 0 0 1
-32.417308 -7.947806 -23.826041 41.008898 0.240429 2.190749 0.159394 -0.021314 -421830.000000 0 0 1
-31.136228 -7.697706 -24.606041 40.424951 0.242367 2.225198 0.146697 -0.016709 -558376.000000 0 0 1
-31.150448 -6.454306 -25.279361 40.633171 0.204307 2.242264 0.149838 -0.022389 -8957.120000 0 0 1
-31.079258 -6.588106 -26.725231 41.515797 0.208886 2.270167 0.120075 -0.020291 1006590.000000 0 0 1
-32.495898 -6.801906 -27.410831 43.053490 0.206337 2.260968 0.142752 -0.017614 759607.000000 0 0 1
-33.096348 -8.014806 -27.028641 43.475888 0.237592 2.241698 0.128049 -0.017614 -718825.000000 0 0 1
-34.180719 -8.269506 -27.873121 44.873346 0.237374 2.241007 0.110863 -0.020790 -384285.000000 0 0 1
-35.113139 -9.331806 -27.271811 45.428701 0.259759 2.214699 0.106759 -0.025844 -822141.000000 0 0 1
-34.660508 -10.671806 -27.293631 45.389212 0.298684 2.215954 0.114258 -0.011411 77014.600000 0 0 1
-35.654147 -11.669706 -27.042851 46.246255 0.316313 2.195378 0.094508 -0.013863 372626.000000 0 0 1
-36.895188 -11.803706 -27.970341 47.779937 0.309635 2.196169 0.065435 -0.007726 256216.000000 0 0 1
37.758060 -10.818006 -27.647191 48.031943 -0.279034 2.184134 0.064504 -0.019227 559209.000000 0 0 1
36.907390 -10.540606 -28.771071 47.969098 -0.278190 2.214027 0.063821 -0.021634 364594.000000 0 0 1
35.948160 -9.326606 -28.678501 46.922406 -0.253849 2.228359 0.068398 -0.014165 308464.000000 0 0 1
34.679040 -9.618706 -28.114431 45.668113 -0.270562 2.233975 0.054294 -0.019683 166790.000000 0 0 1
34.042940 -8.390106 -27.801421 44.746337 -0.241641 2.241212 0.018629 -0.010372 -260610.000000 0 0 1
32.691940 -8.466606 -27.087481 43.291777 -0.253414 2.246819 0.021531 -0.006698 -159541.000000 0 0 1
32.750370 -8.674806 -25.706931 42.528641 -0.258930 2.219886 0.013635 0.005270 385241.000000 0 0 1
31.506700 -9.219506 -25.252931 41.417170 -0.284673 2.226505 -0.004871 0.009565 264258.000000 0 0 1
31.563300 -9.512106 -23.769241 40.641098 -0.292710 2.195500 -0.014285 0.012169 7919.240000 0 0 1
32.391310 -10.590606 -23.376141 41.325560 -0.316002 2.172028 -0.023355 0.009596 158240.000000 0 0 1
32.534200 -10.466306 -21.935041 40.609897 -0.311246 2.141400 -0.001660 0.001305 -136592.000000 0 0 1
33.308020 -11.619706 -21.321241 41.219378 -0.335655 2.114446 0.034364 0.001170 651894.000000 0 0 1
34.692450 -11.689206 -21.689141 42.551410 -0.324991 2.105651 0.049883 -0.005974 1148540.000000 0 0 1
35.496390 -12.354506 -20.693141 42.904937 -0.334936 2.074077 0.082050 -0.009282 717802.000000 0 0 1
37.025360 -12.414006 -20.985941 44.332771 -0.323505 2.063913 0.111993 -0.031266 376733.000000 0 0 1
-37.813278 -11.214606 -21.086241 44.724054 0.288315 2.061758 0.137691 -0.028683 715796.000000 0 0 1
37.620990 -10.426306 -22.276741 44.947747 -0.270355 2.089338 0.132744 -0.023202 -492615.000000 0 0 1
-37.263898 -10.791406 -23.605641 45.412321 0.281883 2.117421 0.102181 -0.025598 258102.000000 0 0 1
-37.766438 -11.942506 -24.319641 46.479805 0.306270 2.121433 0.102800 -0.015786 1073810.000000 0 0 1
36.482130 -11.873306 -24.683341 45.620045 -0.314644 2.142498 0.119095 -0.016751 440191.000000 0 0 1
35.921620 -13.146006 -25.311341 45.867682 -0.350825 2.155358 0.091523 -0.028233 -276761.000000 0 0 1
35.848960 -14.310506 -24.470241 45.702639 -0.379807 2.135805 0.089498 -0.036623 599092.000000 0 0 1
34.583780 -14.357406 -23.823441 44.381632 -0.393497 2.137420 0.053832 -0.025385 -39010.800000 0 0 1
-31.064518 8.167694 -19.168041 37.404937 -0.257108 2.108828 0.101490 -0.019751 -23329.500000 0 0 1
-29.785678 7.591394 -19.243541 36.264718 -0.249554 2.130153 0.094990 -0.017560 -89489.400000 0 0 1
-29.018448 8.188694 -20.277041 36.335705 -0.275038 2.162827 0.116857 -0.030334 -118162.000000 0 0 1
-27.660598 7.557694 -20.587641 35.299836 -0.266720 2.193486 0.104702 -0.028486 123881.000000 0 0 1
-26.682818 7.743594 -19.556341 33.976264 -0.282450 2.184120 0.118018 -0.021429 -23956.200000 0 0 1
-25.689028 6.767494 -19.592441 33.008922 -0.257587 2.206259 0.144886 -0.035887 -293808.000000 0 0 1
-24.375708 7.290494 -18.982541 31.743713 -0.290620 2.211792 0.098787 -0.029851 3097.690000 0 0 1
-23.663008 8.230694 -19.748041 31.900900 -0.334740 2.238320 0.093146 -0.022886 -496977.000000 0 0 1
-22.379708 8.474994 -19.262041 30.719751 -0.362003 2.248524 0.078477 -0.020646 -36477.800000 0 0 1
-21.583408 9.591894 -20.043141 30.977015 -0.418196 2.274483 0.110493 -0.014741 33455.400000 0 0 1
-21.211408 9.098994 -21.317941 31.419264 -0.405226 2.316514 0.146215 -0.025205 114582.000000 0 0 1
-20.620208 10.135494 -22.083341 31.868404 -0.456850 2.336375 0.125612 -0.019631 114022.000000 0 0 1
-19.481508 9.677494 -23.031441 31.680125 -0.461046 2.384739 0.160652 -0.015036 243365.000000 0 0 1
-19.877808 8.777794 -24.104341 32.452984 -0.415836 2.407959 0.152499 -0.016555 24161.500000 0 0 1
-18.737808 8.227094 -24.716041 32.088522 -0.413722 2.450022 0.125682 -0.009571 -24122.800000 0 0 1
-19.068108 7.113394 -25.762681 32.831522 -0.357062 2.472998 0.102403 -0.003039 -159808.000000 0 0 1
-19.559008 5.948994 -25.175221 32.430496 -0.295265 2.459543 0.136761 -0.009434 162797.000000 0 0 1
-20.057808 5.046794 -26.178851 33.363424 -0.246496 2.472939 0.121520 -0.012222 -559474.000000 0 0 1
-20.438308 3.700794 -25.496741 32.886230 -0.179131 2.457989 0.107674 -0.005051 -281524.000000 0 0 1
-19.425908 2.813994 -25.146151 31.900053 -0.143857 2.478804 0.098338 -0.006781 -257994.000000 0 0 1
-18.360808 3.279294 -24.340541 30.664882 -0.176739 2.487762 0.097667 -0.016197 -379912.000000 0 0 1
-17.521708 2.057094 -23.872241 29.683763 -0.116868 2.505156 0.080085 -0.022836 -83301.200000 0 0 1
-18.064808 1.326894 -22.771441 29.097018 -0.073320 2.469634 0.082944 -0.021333 1058710.000000 0 0 1
-19.352608 0.681994 -22.902641 29.991991 -0.035226 2.439706 0.073814 -0.018925 704272.000000 0 0 1
-19.665908 -0.210006 -21.687841 29.277201 0.010678 2.405021 0.096800 -0.018510 -72368.000000 0 0 1
-18.928308 -1.380206 -21.498341 28.676898 0.072789 2.418367 0.090193 -0.022769 185217.000000 0 0 1
-19.498508 -1.986406 -20.375341 28.271756 0.101525 2.375602 0.091621 -0.016171 185177.000000 0 0 1
-18.903508 -3.417306 -20.090341 27.796446 0.178845 2.378593 0.065414 -0.029089 -23495.600000 0 0 1
-19.374208 -4.292106 -21.031441 28.915457 0.218016 2.385238 0.070221 -0.033945 225936.000000 0 0 1
-19.615708 -5.553206 -20.545941 28.943908 0.275881 2.360087 0.077553 -0.029653 -287112.000000 0 0 1
-19.569408 -6.514406 -21.753641 29.976994 0.321349 2.382815 0.053829 -0.036710 -298649.000000 0 0 1
-18.344808 -6.541906 -22.457941 29.726884 0.342550 2.427176 0.051741 -0.031228 -25023.400000 0 0 1
-18.331208 -7.530106 -23.474041 30.720780 0.389765 2.440456 0.068519 -0.040888 -149183.000000 0 0 1
-17.047708 -7.668606 -24.307941 30.664440 0.422714 2.486035 0.060266 -0.040564 -926071.000000 0 0 1
-17.124908 -8.604806 -25.386171 31.808220 0.465624 2.494933 0.076591 -0.061066 -401239.000000 0 0 1
-15.994608 -8.622106 -26.200951 31.885076 0.494408 2.535238 0.081521 -0.058624 53405.900000 0 0 1
-14.707208 -9.294606 -25.634031 30.980562 0.563600 2.545300 0.062482 -0.051835 -292870.000000 0 0 1
-14.012008 -8.699106 -24.574741 29.596093 0.555597 2.550509 0.068678 -0.041598 157081.000000 0 0 1
-13.148008 -9.681206 -24.010341 29.036053 0.634691 2.544395 0.051033 -0.031556 -614434.000000 0 0 1
-12.229208 -9.192306 -22.974941 27.602535 0.644568 2.554129 0.079733 -0.030594 -768193.000000 0 0 1
-12.876308 -8.858806 -21.779541 26.807204 0.602622 2.519140 0.075443 -0.031900 173603.000000 0 0 1
-12.039208 -8.008506 -21.007241 25.502606 0.586988 2.538754 0.082158 -0.025153 -655591.000000 0 0 1
-12.535308 -7.692906 -19.590941 24.497342 0.550431 2.497620 0.068949 -0.018421 405523.000000 0 1 0
-13.661408 -6.808706 -19.470641 24.740623 0.462359 2.476713 0.060657 -0.007987 1172320.000000 0 1 0
-14.905308 -7.518606 -19.621241 25.762197 0.467181 2.436620 0.067679 -0.022431 850158.000000 0 0 1
-16.208008 -6.644606 -19.438541 26.166911 0.389061 2.408140 0.056745 -0.004766 430741.000000 0 0 1
-16.478608 -5.973506 -18.231141 25.290350 0.347768 2.375858 0.056092 -0.001460 576872.000000 0 0 1
-15.590008 -4.873706 -17.933241 24.257010 0.302992 2.402829 0.058639 -0.004374 -108560.000000 0 1 0
-15.362308 -4.632106 -16.435541 22.969196 0.292854 2.368203 0.083716 -0.002630 -203347.000000 0 1 0
-16.518708 -4.164306 -15.787841 23.226388 0.246951 2.318201 0.121296 -0.013453 54386.700000 0 1 0
-16.757708 -2.793106 -15.804841 23.203776 0.165158 2.320104 0.067506 -0.020250 -555984.000000 0 1 0
-17.919108 -2.394306 -14.936341 23.450404 0.132831 2.261310 0.066101 -0.023509 -566305.000000 0 1 0
-17.557108 -2.458806 -13.554541 22.316437 0.139141 2.223554 0.079014 -0.026430 453928.000000 0 1 0
-18.532308 -1.871006 -12.732541 22.562463 0.100618 2.170411 0.086023 -0.034541 -233215.000000 0 1 0
-18.144208 -0.482006 -12.067441 21.796049 0.026559 2.157541 0.083286 -0.031674 -27142.200000 0 1 0
-17.892808 0.479694 -13.117441 22.191214 -0.026803 2.203230 0.104831 -0.029951 945887.000000 0 1 0
-16.951708 1.394094 -12.525141 21.123046 -0.082054 2.205527 0.089961 -0.024063 -464027.000000 0 1 0
-16.330708 2.465194 -13.468041 21.310968 -0.149823 2.254898 0.085239 -0.019237 13360.600000 0 1 0
-15.689008 1.849694 -14.542941 21.472389 -0.117356 2.314863 0.079844 -0.023876 343194.000000 0 1 0
-14.385908 1.370094 -14.219441 20.273727 -0.094952 2.348118 0.069883 -0.020645 -638770.000000 0 1 0
-13.668708 0.513194 -15.206341 20.453112 -0.037528 2.409045 0.059581 -0.021223 -209286.000000 0 1 0
-13.307708 1.187994 -16.402341 21.155218 -0.089035 2.458039 0.060209 -0.026603 176590.000000 0 1 0
-12.898708 0.257994 -17.384241 21.648443 -0.019999 2.503150 0.027871 -0.015629 -183698.000000 0 1 0
-12.378808 0.863294 -18.697341 22.440382 -0.069627 2.555667 0.048744 -0.019003 -756902.000000 0 1 0
-11.123408 1.428794 -18.484141 21.620248 -0.127750 2.596243 0.019803 -0.011624 -713841.000000 0 1 0
-10.701108 2.184494 -19.634441 22.467688 -0.201370 2.633958 0.023965 -0.011584 -590544.000000 0 1 0
-9.295708 2.695294 -19.429141 21.706366 -0.282212 2.679428 0.023470 -0.011941 -1932640.000000 0 1 0
-8.340908 1.665594 -19.425341 21.205868 -0.197097 2.728880 0.034186 -0.010145 -655218.000000 0 1 0
-7.011608 2.081094 -19.270441 20.611732 -0.288525 2.778846 0.036597 -0.005739 201301.000000 0 1 0
-6.417408 3.160594 -20.249441 21.475855 -0.457632 2.802009 0.041145 -0.000786 -1304220.000000 0 1 0
-6.213908 2.718394 -21.573741 22.614788 -0.412385 2.836990 0.042695 -0.001907 119692.000000 0 1 0
-5.930508 3.792794 -22.475141 23.551819 -0.568986 2.838054 0.048501 0.003217 -189665.000000 0 1 0
-5.330308 3.275794 -23.836441 24.643842 -0.551057 2.884909 0.081126 -0.011265 -565048.000000 0 1 0
-4.039208 2.793694 -23.700741 24.204236 -0.605096 2.937267 0.095926 -0.015506 -906687.000000 0 1 0
-3.604708 2.146394 -24.876241 25.227531 -0.537061 2.974516 0.140505 -0.022527 -68890.800000 0 0 1
-2.178708 1.585694 -24.792241 24.938252 -0.629150 3.033328 0.107148 -0.017430 -855104.000000 0 1 0
-1.175708 2.580594 -24.870941 25.032089 -1.143298 3.028062 0.107385 -0.013458 973950.000000 0 0 1
0.188192 2.133994 -24.952041 25.043836 1.482836 3.055947 0.097250 -0.009798 1105690.000000 0 0 1
0.761492 1.225594 -23.823441 23.867097 1.014844 3.081100 0.086807 -0.004282 -1109320.000000 0 1 0
0.317992 -0.080106 -23.872941 23.875193 -0.246779 3.127857 0.081107 -0.008666 -125484.000000 0 1 0
1.037692 -0.859406 -22.949441 22.988959 -0.691696 3.082950 0.075994 -0.006311 -235283.000000 0 1 0
0.399692 -2.226506 -22.740241 22.852476 -1.393173 3.042443 0.085892 -0.021876 -79932.300000 0 1 0
-0.785208 -2.101406 -21.993841 22.107951 1.213202 3.039947 0.082383 -0.022468 -451520.000000 0 1 0
-1.883808 -2.748006 -22.612841 22.856965 0.969856 2.995308 0.091317 -0.024243 627333.000000 0 1 0
-3.124808 -1.796406 -22.756741 23.040416 0.521748 2.984510 0.108352 -0.022811 -129508.000000 0 1 0
-3.770308 -1.542106 -21.490641 21.873294 0.388252 2.954268 0.085765 -0.023040 741381.000000 0 1 0
-4.731608 -0.481406 -21.575341 22.093330 0.101394 2.924624 0.061574 -0.022507 937186.000000 0 1 0
-6.082508 -0.520806 -22.342341 23.161355 0.085415 2.874866 0.078087 -0.010861 111404.000000 0 1 0
-6.945108 -1.500506 -21.840141 22.966885 0.212782 2.827058 0.089583 -0.004464 506074.000000 0 1 0
-8.307808 -1.066706 -21.665941 23.228658 0.127699 2.772693 0.051606 -0.006946 1049990.000000 0 1 0
-9.251308 -2.217206 -21.276241 23.306247 0.235227 2.721126 0.056137 -0.009980 -201497.000000 0 1 0
-9.515308 -3.139006 -22.318241 24.464226 0.318648 2.719615 0.109261 -0.017865 -32962.500000 0 1 0
-9.824708 -4.467806 -21.883341 24.400140 0.426799 2.683399 0.078438 -0.017907 -53895.400000 0 1 0
-10.650208 -5.216506 -22.972441 25.852890 0.455457 2.665043 0.074900 -0.025339 -199772.000000 0 0 1
-12.014608 -4.924606 -22.941541 26.361276 0.388999 2.626555 0.063354 -0.026188 -906262.000000 0 0 1
-12.727808 -5.532406 -23.937241 27.669408 0.410033 2.616177 0.057654 -0.039869 121816.000000 0 0 1
-14.278308 -5.448906 -23.860441 28.335161 0.364563 2.571922 0.051160 -0.044880 98768.000000 0 0 1
-14.693408 -4.125606 -23.988541 28.431795 0.273731 2.574977 0.059293 -0.043183 159709.000000 0 0 1
-15.986108 -3.967006 -23.392341 28.609342 0.243240 2.528108 0.063193 -0.045856 629442.000000 0 0 1
-16.563308 -2.567806 -23.685641 29.016313 0.153805 2.525750 0.060014 -0.042176 -99681.800000 0 0 1
-16.762708 -2.490806 -25.065041 30.256384 0.147513 2.547080 0.047529 -0.041835 8862.150000 0 0 1
-17.157408 -1.192306 -25.475301 30.737424 0.069381 2.547763 0.051319 -0.036770 1214830.000000 0 0 1
-18.654508 -0.918006 -25.951171 31.973375 0.049171 2.517767 0.054731 -0.030339 1073420.000000 0 0 1
-18.975708 -1.498706 -27.234891 33.227442 0.078817 2.531597 0.063080 -0.037397 192456.000000 0 0 1
-18.436108 -0.791406 -28.387311 33.857877 0.042901 2.565184 0.049168 -0.031715 -76282.800000 0 0 1
-18.421308 -1.617406 -29.666121 34.957679 0.087576 2.584186 0.050606 -0.031455 916928.000000 0 0 1
-19.770008 -1.741406 -30.147961 36.094117 0.087856 2.559401 0.046383 -0.031896 872931.000000 0 0 1
-19.747208 -2.419406 -31.371431 37.147981 0.121911 2.576425 0.050394 -0.040073 -766382.000000 0 0 1
-21.074408 -2.968106 -31.903991 38.351076 0.139919 2.553307 0.017756 -0.030935 173410.000000 0 0 1
-22.147608 -2.083306 -32.222171 39.155141 0.093789 2.537356 0.017947 -0.032198 893343.000000 0 0 1
-22.821508 -1.445006 -31.117821 38.616423 0.063233 2.507852 0.015868 -0.015089 -467898.000000 0 0 1
-23.971008 -0.513606 -31.536821 39.616210 0.021423 2.491551 0.027832 -0.015946 -407752.000000 0 0 1
-23.648908 0.754694 -32.111041 39.886832 -0.031902 2.506562 0.026328 -0.020947 -157624.000000 0 0 1
-24.793908 1.467894 -32.466171 40.877193 -0.059135 2.488547 0.031767 -0.023958 -633202.000000 0 0 1
-24.479808 2.739494 -33.239091 41.371524 -0.111445 2.503829 0.036126 -0.021828 -284891.000000 0 0 1
-23.834908 3.857794 -32.569531 40.543308 -0.160463 2.503657 0.036574 -0.019137 476589.000000 0 0 1
-24.520708 4.383094 -31.478441 40.141860 -0.176883 2.472170 0.039067 -0.021851 -458447.000000 0 0 1
-25.864458 5.114594 -31.671191 41.209145 -0.195227 2.447364 0.045210 -0.029457 297723.000000 0 0 1
-26.870308 4.249894 -32.231831 42.177791 -0.156864 2.440580 0.061464 -0.031719 334373.000000 0 0 1
-27.927788 4.983294 -32.823121 43.383774 -0.176577 2.428857 0.078831 -0.038220 279579.000000 0 0 1
-29.052188 4.157894 -33.495731 44.534051 -0.142153 2.422096 0.105462 -0.035030 -2379.420000 0 0 1
-28.631468 3.675094 32.833378 43.718394 -0.127660 0.721191 0.103967 -0.025917 112315.000000 0 0 1
-29.624828 2.966294 32.135027 43.807412 -0.099796 0.747262 0.105156 -0.027942 -129668.000000 0 0 1
-29.444278 1.412094 32.203415 43.657983 -0.047921 0.741244 0.104765 -0.011437 -157139.000000 0 0 1
-29.588238 0.856994 33.506799 44.709103 -0.028956 0.723580 0.120280 -0.009762 212875.000000 0 0 1
-29.867548 -0.520806 33.381313 44.795689 0.017435 0.729976 0.109008 -0.000950 -548193.000000 0 0 1
-29.917978 -1.166306 -32.779681 44.395419 0.038964 2.401428 0.074306 -0.002342 413666.000000 0 0 1
-28.629268 -1.423406 -32.230371 43.133026 0.049678 2.414683 0.099136 -0.013839 719111.000000 0 0 1
-27.799628 -0.356106 -31.841981 42.271242 0.012809 2.423828 0.091718 -0.014427 -829310.000000 0 0 1
-27.863778 -0.006006 -30.332121 41.187714 0.000216 2.398583 0.111541 -0.017889 -217092.000000 0 0 1
-27.130078 -0.909806 -29.487471 40.079669 0.033522 2.397528 0.090119 -0.023086 698339.000000 0 0 1
-27.368898 -0.655306 -28.058051 39.201279 0.023939 2.368484 0.099359 -0.028838 -58617.900000 0 0 1
-26.258368 -1.337006 -27.238861 37.858223 0.050873 2.373873 0.088929 -0.028162 -89425.800000 0 0 1
-26.421278 -2.747206 -27.152001 37.985027 0.103605 2.367146 0.078878 -0.023701 294119.000000 0 0 1
-25.478628 -3.258906 -26.214001 36.700883 0.127217 2.366364 0.087290 -0.026275 -16439.700000 0 0 1
-25.811388 -4.664706 -25.685271 36.711312 0.178793 2.345712 0.083175 -0.035553 157208.000000 0 0 1
-26.580708 -4.526606 -24.489241 36.424541 0.168678 2.308146 0.101031 -0.031124 -179142.000000 0 0 1
-26.981818 -5.736806 -24.020141 36.577270 0.209498 2.287225 0.096148 -0.029603 5349.770000 0 0 1
-28.063838 -5.393006 -22.954041 36.654489 0.189855 2.247501 0.109007 -0.025728 7160.300000 0 0 1
-28.531728 -6.553206 -22.332441 36.820402 0.225766 2.222477 0.117824 -0.034628 -860682.000000 0 0 1
-29.524228 -6.199206 -21.457941 37.020987 0.206964 2.189053 0.151355 -0.030800 -616669.000000 0 0 1
-30.080408 -7.332706 -20.545341 37.157914 0.239107 2.156661 0.153273 -0.038454 -390454.000000 0 0 1
-29.136578 -7.897906 -19.687141 36.040264 0.264704 2.148682 0.142870 -0.040427 -87868.000000 0 0 1
-29.736598 -8.722606 -18.675841 36.181987 0.285325 2.113163 0.143312 -0.039306 290052.000000 0 0 1
-30.246848 -8.103106 -17.332241 35.790205 0.261753 2.076329 0.148443 -0.042614 562706.000000 0 0 1
-29.168308 -7.504206 -16.613741 34.396508 0.251812 2.074882 0.129157 -0.039932 612046.000000 0 0 1
-29.664718 -6.829106 -15.496241 34.157952 0.226268 2.041669 0.132472 -0.039096 -10605.500000 0 0 1
-28.554468 -6.188006 -14.618041 32.670112 0.213409 2.034701 0.135968 -0.029747 -130697.000000 0 0 1
-27.903618 -5.157206 -15.247841 32.213435 0.182760 2.063873 0.149702 -0.020626 -224141.000000 0 0 1
-26.970998 -4.512906 -14.425541 30.917589 0.165789 2.056217 0.137820 -0.035393 -267834.000000 0 0 1
-14.237108 21.175394 -4.677341 25.941667 -0.978875 1.752090 0.076996 -0.031647 -216450.000000 0 0 1
-14.450108 20.658694 -5.940741 25.901345 -0.960427 1.802217 0.099860 -0.039749 -79243.200000 0 0 1
-15.293508 19.519394 -5.880041 25.484760 -0.906196 1.803622 0.083127 -0.045133 187266.000000 0 0 1
-15.708708 18.916594 -7.219341 25.626547 -0.877780 1.856376 0.108240 -0.045711 -22861.500000 0 0 1
-14.568908 18.437694 -7.927741 24.800216 -0.902078 1.896171 0.094067 -0.037932 316361.000000 0 1 0
-14.825908 17.557794 -9.057241 24.700552 -0.869559 1.946236 0.082883 -0.039112 -597482.000000 0 1 0
-15.233708 16.152094 -8.707941 23.849198 -0.814651 1.944564 0.084014 -0.039927 -294028.000000 0 1 0
-16.568508 16.129794 -8.272641 24.558548 -0.771982 1.914370 0.080510 -0.039041 -277951.000000 0 1 0
-16.856608 15.093494 -7.400641 23.806056 -0.730271 1.886907 0.092411 -0.024197 -687886.000000 0 1 0
-18.296408 15.190394 -6.927441 24.768853 -0.692909 1.854261 0.111467 -0.026267 -817732.000000 0 1 0
-19.216108 14.718394 -7.879841 25.455487 -0.653625 1.885520 0.099670 -0.033701 438700.000000 0 0 1
-20.524408 15.197194 -7.502241 26.617469 -0.637358 1.856522 0.117569 -0.040293 871557.000000 0 0 1
-21.687808 14.486794 -8.247641 27.354192 -0.588904 1.877075 0.120910 -0.029399 44329.300000 0 0 1
-21.814708 13.137294 -7.877441 26.655657 -0.542052 1.870802 0.156298 -0.032051 235201.000000 0 0 1
-22.898508 12.637194 -8.653541 27.548578 -0.504284 1.890325 0.187891 -0.033192 521745.000000 0 0 1
-23.365908 11.241194 -8.123741 27.172142 -0.448409 1.874413 0.207549 -0.034500 980587.000000 0 0 1
-22.244908 10.328094 -8.237041 25.871883 -0.434674 1.894814 0.199071 -0.031254 931666.000000 0 0 1
-22.247408 9.476994 -7.069141 25.193915 -0.402702 1.855204 0.208166 -0.037020 -269667.000000 0 0 1
-21.064008 8.498994 -7.011541 23.771560 -0.383506 1.870205 0.158463 -0.023247 -503919.000000 0 1 0
-21.040708 7.313494 -7.746241 23.583953 -0.334524 1.905463 0.175131 -0.022133 387636.000000 0 1 0
-19.934908 6.479294 -7.415641 22.234513 -0.314252 1.910831 0.116168 -0.012048 -136299.000000 0 1 0
-19.644408 5.297494 -8.334641 21.987098 -0.263404 1.959587 0.097721 -0.022045 140027.000000 0 1 0
-20.625308 4.220894 -8.316441 22.635867 -0.201859 1.947009 0.129656 -0.026692 992343.000000 0 1 0
-20.391108 3.348694 -9.386941 22.696381 -0.162770 1.997187 0.121777 -0.030289 -480210.000000 0 1 0
-21.266108 2.136994 -9.475041 23.379275 -0.100152 1.988076 0.113046 -0.031335 -370645.000000 0 1 0
-20.786908 1.190794 -8.498441 22.488598 -0.057223 1.958323 0.091089 -0.034525 724871.000000 0 1 0
-21.683308 0.105894 -8.240741 23.196700 -0.004884 1.933983 0.110454 -0.030387 193876.000000 0 1 0
-21.772708 -1.113206 -9.224941 23.672550 0.051084 1.971091 0.097311 -0.042489 -70166.200000 0 1 0
-20.606908 -1.899206 -9.106241 22.609186 0.091904 1.985335 0.067674 -0.024940 376225.000000 0 1 0
-20.633808 -3.192606 -9.591941 22.977209 0.153510 2.001439 0.062036 -0.018504 -129608.000000 0 1 0
-21.554708 -4.150006 -8.758941 23.633600 0.190206 1.950466 0.077750 -0.023487 428636.000000 0 1 0
-21.149708 -4.331906 -7.396941 22.820831 0.202027 1.900889 0.078432 -0.014591 66038.600000 0 1 0
-22.149208 -5.046006 -6.727041 23.691828 0.223996 1.858696 0.110809 -0.012505 -590865.000000 0 1 0
-22.101208 -6.599306 -6.861441 24.064364 0.290167 1.859937 0.106780 -0.027297 -247038.000000 0 1 0
-21.007708 -7.156906 -6.161541 23.032797 0.328348 1.841606 0.083403 -0.025414 367103.000000 0 1 0
-21.168408 -8.559406 -5.950741 23.596107 0.384249 1.825741 0.101574 -0.031911 238149.000000 0 1 0
-19.884808 -9.269606 -5.411441 22.596790 0.436215 1.812625 0.086911 -0.038248 300819.000000 0 1 0
-18.973608 -9.761806 -6.368641 22.267696 0.475175 1.860850 0.070275 -0.015746 818721.000000 0 1 0
-17.982808 -10.557906 -5.660641 21.607722 0.530888 1.835862 0.066434 -0.007850 360445.000000 0 1 0
-17.187808 -11.524106 -6.542341 21.703180 0.590639 1.877005 0.056474 -0.009250 342633.000000 0 1 0
-16.259508 -10.927506 -7.483541 20.971061 0.591733 1.935691 0.080809 -0.026623 990764.000000 0 1 0
-16.803808 -10.789506 -8.740441 21.798549 0.570792 1.983366 0.089927 -0.022389 184188.000000 0 1 0
-15.696808 -11.292906 -9.727041 21.645666 0.623654 2.036863 0.084865 -0.010738 632299.000000 0 1 0
-15.727808 -12.719706 -9.936941 22.536586 0.680047 2.027425 0.092605 -0.017000 -229952.000000 0 1 0
-14.813708 -13.151806 -10.890941 22.605941 0.726041 2.073474 0.109272 -0.006306 -324595.000000 0 1 0
-15.224908 -14.398406 -11.664341 23.982677 0.757505 2.078721 0.126856 -0.011418 140794.000000 0 1 0
-16.303908 -14.266106 -12.573741 25.048716 0.718836 2.096673 0.133928 -0.021490 238787.000000 0 0 1
-16.691108 -15.475106 -13.141741 26.282644 0.747612 2.094414 0.126092 -0.016400 -118120.000000 0 0 1
-17.267608 -15.260906 -14.551441 27.254541 0.723786 2.134013 0.146694 -0.024066 -105044.000000 0 0 1
-17.269108 -16.402706 -15.378241 28.350682 0.759673 2.144122 0.124416 -0.016311 237301.000000 0 0 1
-17.639908 -16.157406 -16.732441 29.192512 0.741562 2.181173 0.120068 -0.017872 -217250.000000 0 0 1
-18.057408 -17.475406 -17.445341 30.590844 0.769020 2.177643 0.125421 -0.028208 -393859.000000 0 0 1
-19.317908 -17.914706 -17.041541 31.377260 0.747729 2.144942 0.076049 -0.016635 -119829.000000 0 0 1
-20.260708 -17.998306 -18.133441 32.607622 0.726333 2.160495 0.065051 -0.011318 1009630.000000 0 0 1
-21.752308 -17.816706 -17.703841 33.226856 0.686262 2.132723 0.062229 -0.016935 389342.000000 0 0 1
-22.019508 -16.491706 -17.252941 32.473052 0.642834 2.130931 0.048060 -0.006910 100282.000000 0 0 1
-21.926908 -16.395006 -15.818141 31.619601 0.642035 2.094700 0.046967 -0.010555 -260055.000000 0 0 1
-21.956408 -14.980106 -15.228241 30.633100 0.598724 2.091070 0.066664 -0.022328 463279.000000 0 0 1
-23.297308 -14.516206 -15.087341 31.322719 0.557221 2.073360 0.068529 -0.021797 808531.000000 0 0 1
-23.241708 -13.216606 -14.618341 30.472145 0.517056 2.071141 0.083350 -0.033471 -588381.000000 0 0 1
-24.620708 -12.580806 -14.496941 31.218861 0.472397 2.053714 0.105529 -0.041608 -366858.000000 0 0 1
-25.428968 -13.280006 -13.538041 31.721752 0.481280 2.011720 0.120284 -0.042293 -20154.800000 0 0 1
-26.481088 -12.512706 -13.080141 32.076564 0.441419 1.990816 0.125900 -0.043158 -751242.000000 0 0 1
-27.319038 -13.097106 -11.931941 32.561254 0.447043 1.945983 0.151332 -0.045702 -174923.000000 0 0 1
-28.271868 -12.195306 -11.404541 32.834244 0.407244 1.925526 0.153525 -0.051122 -159484.000000 0 0 1
-28.776658 -12.683906 -10.234641 33.071520 0.415152 1.885432 0.168530 -0.047310 119178.000000 0 0 1
-29.746948 -11.663206 -9.552241 33.349013 0.373661 1.861298 0.168407 -0.042687 -45481.000000 0 0 1
-29.021878 -10.569006 -9.107241 32.201167 0.349246 1.857533 0.179549 -0.040113 278967.000000 0 0 1
-29.742228 -9.791106 -8.113241 32.346416 0.318025 1.824327 0.199184 -0.041957 -216455.000000 0 0 1
-28.952208 -8.668606 -7.571341 31.156064 0.290916 1.816268 0.207535 -0.035116 -808283.000000 0 0 1
-28.040598 -9.025706 -6.585241 30.184498 0.311407 1.790731 0.206251 -0.032199 -465223.000000 0 0 1
-27.280558 -7.964806 -6.072141 29.060934 0.284064 1.781292 0.195984 -0.031101 -492168.000000 0 0 1
-27.903008 -6.676706 -5.511341 29.215256 0.234867 1.760580 0.219022 -0.035799 -417950.000000 0 0 1
-28.807328 -6.836306 -4.384541 29.930277 0.233001 1.717817 0.246038 -0.037717 921817.000000 0 0 1
-28.261588 -7.287906 -3.137741 29.354325 0.252375 1.677893 0.218554 -0.029916 -265615.000000 0 0 1
-27.363888 -6.211406 -2.463441 28.167934 0.223210 1.658364 0.213639 -0.033861 183841.000000 0 0 1
-28.083488 -5.071106 -2.021941 28.609206 0.178647 1.641530 0.247082 -0.048498 304670.000000 0 0 1
-27.169778 -4.143806 -1.426541 27.520956 0.151349 1.622654 0.201584 -0.043134 179668.000000 0 0 1
-27.794988 -2.875506 -0.806341 27.954966 0.103087 1.599645 0.224621 -0.051747 -41582.600000 0 0 1
-28.524128 -3.024506 0.437859 28.687371 0.105639 1.555533 0.208217 -0.042504 608775.000000 0 0 1
-27.758408 -3.496706 1.544159 28.020361 0.125309 1.515660 0.193406 -0.045013 14213.700000 0 0 1
-28.617778 -3.633606 2.837659 28.986767 0.126294 1.472744 0.203882 -0.037427 71509.900000 0 0 1
-29.697868 -4.530306 2.744959 30.166569 0.151379 1.479677 0.196544 -0.043152 64970.400000 0 0 1
-30.371188 -4.699106 3.977659 30.988909 0.153505 1.442084 0.239418 -0.056774 -558293.000000 0 0 1
-31.560968 -5.607606 3.869559 32.287977 0.175840 1.450662 0.225498 -0.060199 -746728.000000 0 0 1
-31.083188 -6.904306 3.706859 32.055808 0.218575 1.454899 0.219898 -0.056842 -134436.000000 0 0 1
-32.047488 -7.868006 3.453559 33.179423 0.240749 1.466520 0.287686 -0.078393 -647963.000000 0 0 1
-31.405578 -9.250406 3.464059 32.922334 0.286446 1.465382 0.255317 -0.056167 106261.000000 0 0 1
-31.001608 -9.649106 4.783059 32.818937 0.301741 1.424535 0.200803 -0.046171 47873.800000 0 0 1
-30.687348 -11.055606 4.812959 32.971266 0.345791 1.424299 0.175899 -0.037355 -7129.750000 0 0 1
-30.526818 -11.634906 6.233159 33.258231 0.364140 1.382264 0.158229 -0.049388 211173.000000 0 0 1
-29.294258 -11.269206 6.837659 32.123234 0.367239 1.356298 0.110164 -0.034390 272596.000000 0 0 1
-29.264298 -11.534506 8.179259 32.501450 0.375453 1.316403 0.137588 -0.048961 -120899.000000 0 0 1
-29.980808 -10.454206 9.084759 33.025326 0.335513 1.292119 0.141564 -0.058286 266437.000000 0 0 1
-29.175818 -9.339906 9.463459 32.062740 0.309816 1.271179 0.108782 -0.033503 414560.000000 0 0 1
-29.947058 -8.533006 10.343259 32.811911 0.277580 1.250099 0.109344 -0.029747 -32556.800000 0 0 1
-29.329888 -7.211806 10.875759 32.101941 0.241103 1.225168 0.135962 -0.021633 -321892.000000 0 0 1
-29.151828 -6.214006 9.890859 31.404969 0.210017 1.250397 0.131287 -0.025168 406614.000000 0 0 1
-28.443948 -5.067406 10.366559 30.695315 0.176304 1.226298 0.137654 -0.033392 12295.700000 0 0 1
-28.319448 -4.014806 9.278859 30.070036 0.140830 1.257102 0.149664 -0.043053 -301837.000000 0 0 1
-27.516798 -4.375606 8.205459 29.045648 0.157696 1.284395 0.149191 -0.032619 -43600.300000 0 0 1
-27.324668 -3.304906 7.287559 28.472240 0.120365 1.311963 0.158314 -0.050851 231872.000000 0 0 1
-26.599208 -3.822006 5.941659 27.521427 0.142712 1.353191 0.130458 -0.036962 191472.000000 0 0 1
-25.214518 -3.547406 5.940859 26.146698 0.139772 1.341582 0.162048 -0.055477 304898.000000 0 0 1
-24.684308 -3.664006 4.636659 25.381856 0.147359 1.387089 0.174159 -0.030188 -247823.000000 0 0 1
-23.153408 -3.573606 4.491959 23.854322 0.153136 1.381357 0.172650 -0.030474 114298.000000 0 1 0
-22.618108 -2.256706 4.637059 23.198575 0.099445 1.369555 0.132789 -0.027705 368228.000000 0 1 0
-21.218308 -2.238906 4.449659 21.795155 0.105129 1.365193 0.131180 -0.030862 39424.000000 0 1 0
-20.512108 -0.866306 4.626759 21.045284 0.042209 1.349138 0.104594 -0.038800 -386522.000000 0 1 0
-20.792208 0.103194 3.638959 21.108496 -0.004963 1.397538 0.123609 -0.032813 1045960.000000 0 1 0
-22.121308 0.625594 3.558459 22.414421 -0.028273 1.411364 0.108334 -0.047608 339521.000000 0 1 0
-22.317208 1.781494 2.562559 22.534379 -0.079657 1.456832 0.157775 -0.038236 -296939.000000 0 1 0
-21.564708 2.888994 2.991659 21.962080 -0.133176 1.434152 0.126568 -0.042758 283441.000000 0 1 0
-21.674308 4.007094 2.246659 22.155810 -0.182813 1.469219 0.149383 -0.032753 124343.000000 0 1 0
-20.453908 4.264194 1.323259 20.935538 -0.205534 1.507548 0.101649 -0.017609 -407601.000000 0 1 0
-20.700708 5.131994 0.216059 21.328464 -0.243014 1.560666 0.122508 -0.013486 239399.000000 0 1 0
-21.508908 4.674094 -0.833841 22.026702 -0.213983 1.608661 0.157711 -0.023294 -315850.000000 0 1 0
-20.973208 3.513894 -1.703841 21.333682 -0.166000 1.650748 0.134050 -0.022269 -637817.000000 0 1 0
-20.933108 2.273694 -1.015541 21.080703 -0.108193 1.618989 0.098142 -0.018214 352512.000000 0 1 0
-20.518808 1.270894 -1.901241 20.645856 -0.061859 1.663015 0.084918 -0.011325 -433084.000000 0 1 0
-19.783408 0.163294 -1.090741 19.814127 -0.008254 1.625873 0.083786 -0.009950 -405532.000000 0 1 0
-20.508008 -0.523806 -0.078441 20.514847 0.025536 1.574620 0.099518 -0.017478 445197.000000 0 1 0
-19.744608 -1.236606 0.888659 19.803244 0.062548 1.525907 0.073943 -0.017189 -676911.000000 0 1 0
-18.980408 -2.469906 0.463159 19.146040 0.129402 1.546603 0.031299 -0.011436 -262773.000000 0 1 0
-18.320408 -3.202906 1.479459 18.657030 0.173078 1.491415 0.036226 -0.013119 141420.000000 0 1 0
-17.577108 -4.254506 0.980359 18.111231 0.237481 1.516640 0.019837 -0.009450 -482533.000000 0 1 0
-18.363108 -5.540806 0.624159 19.190984 0.293048 1.538267 0.008695 -0.008147 -310404.000000 0 1 0
-18.898108 -6.101906 1.799059 19.940120 0.312317 1.480450 0.023608 -0.013728 653548.000000 0 1 0
-20.057908 -6.857306 1.454959 21.247570 0.329419 1.502266 0.053554 -0.017899 -87651.800000 0 1 0
-20.900908 -7.376006 2.620859 22.318655 0.339259 1.453096 0.084388 -0.019187 -193443.000000 0 1 0
-20.100408 -8.054306 3.574059 21.947031 0.381113 1.407218 0.075058 -0.013812 777679.000000 0 1 0
-20.888508 -8.497706 4.700259 23.035478 0.386365 1.365309 0.080303 -0.015530 487097.000000 0 1 0
-20.018408 -9.330606 5.676559 22.803952 0.436163 1.319222 0.075285 -0.006869 -35732.900000 0 1 0
-19.716508 -10.629506 5.180759 22.990593 0.494449 1.343502 0.096524 -0.005972 910721.000000 0 1 0
-18.663408 -11.248306 5.979659 22.596538 0.542397 1.302979 0.113728 -0.016623 609237.000000 0 1 0
-18.278708 -12.597706 5.350359 22.835055 0.603442 1.334293 0.093485 -0.009473 -555775.000000 0 1 0
-19.067708 -13.701406 5.608059 24.140347 0.623078 1.336344 0.121006 -0.011865 42105.400000 0 1 0
-18.504608 -14.920606 4.995659 24.289949 0.678582 1.363650 0.112177 -0.012658 868378.000000 0 1 0
-19.575908 -16.033106 5.190359 25.830535 0.686233 1.368480 0.135349 -0.019635 579936.000000 0 0 1
-19.033708 -17.247606 4.698459 26.112018 0.736209 1.389876 0.137711 -0.025213 432967.000000 0 0 1
-19.669508 -18.370706 5.288059 27.428744 0.751269 1.376789 0.136568 -0.023066 -201720.000000 0 0 1
-18.866908 -19.592106 4.957459 27.647554 0.804252 1.390512 0.143603 -0.035619 -942387.000000 0 0 1
-18.762208 -19.841106 3.591759 27.542525 0.813339 1.440016 0.137797 -0.037788 125041.000000 0 0 1
-18.020908 -21.022006 3.396559 27.896496 0.862114 1.448738 0.132460 -0.032923 -282810.000000 0 0 1
-16.496408 -20.886006 3.479659 26.841475 0.902287 1.440793 0.136580 -0.036273 -681824.000000 0 0 1
-15.789408 -22.138706 3.435959 27.408640 0.951264 1.445105 0.115779 -0.036693 34579.700000 0 0 1
-14.398308 -21.903606 3.508859 26.446008 0.989272 1.437724 0.102278 -0.032570 -481976.000000 0 0 1
-13.577208 -23.096406 3.892059 27.072730 1.039359 1.426533 0.120025 -0.030959 -494195.000000 0 0 1
-13.507308 -24.100506 2.889159 27.778211 1.059960 1.466600 0.106236 -0.031321 -238570.000000 0 0 1
-12.849408 -25.282916 3.246759 28.546009 1.100590 1.456812 0.088551 -0.030937 -49049.000000 0 0 1
19.745092 19.330694 -24.242641 36.759353 0.774794 2.290944 0.074152 -0.008078 646183.000000 0 0 1
18.756592 19.669894 -25.242941 37.093403 0.809161 2.319274 0.054844 -0.015884 1000780.000000 0 0 1
19.434992 19.738994 -26.494891 38.331789 0.793158 2.333943 0.069427 -0.019759 196451.000000 0 0 1
18.392292 19.865694 -27.606241 38.665575 0.823891 2.365955 0.064244 -0.026141 -164393.000000 0 0 1
17.914192 21.119094 -27.748681 39.203618 0.867321 2.357188 0.067896 -0.023416 56747.400000 0 0 1
17.046992 21.180694 -28.874411 39.660476 0.893113 2.386255 0.061166 -0.025598 34707.100000 0 0 1
16.662292 22.633394 -29.309641 40.607358 0.936198 2.377169 0.087871 -0.035281 -370546.000000 0 0 1
16.022692 23.331694 -28.269961 40.003566 0.969029 2.355600 0.084092 -0.032562 352385.000000 0 0 1
15.858292 24.719694 -28.629871 41.014853 1.000402 2.343448 0.088967 -0.029335 -255261.000000 0 0 1
14.949692 25.539494 -27.709121 40.540775 1.041214 2.323326 0.089369 -0.034254 459445.000000 0 0 1
13.583692 25.122394 -27.669961 39.765287 1.075121 2.340374 0.093359 -0.043722 625775.000000 0 0 1
12.847692 25.827594 -26.683661 39.295617 1.109198 2.317263 0.085746 -0.035209 -1095590.000000 0 0 1
11.449592 25.344094 -26.322381 38.292088 1.146475 2.328714 0.103325 -0.042268 -29659.900000 0 0 1
10.813792 26.144994 -25.286781 37.946279 1.178614 2.300144 0.093775 -0.038795 87098.800000 0 0 1
10.367292 27.380594 -25.726181 38.974531 1.208841 2.291717 0.115198 -0.050768 -655529.000000 0 0 1
9.840992 28.241494 -24.535241 38.683396 1.235495 2.257844 0.133056 -0.054065 162619.000000 0 0 1
10.879192 28.992394 -23.930441 39.135428 1.211813 2.228723 0.127839 -0.043207 -4196.020000 0 0 1
10.442492 29.869994 -22.927741 39.076124 1.234480 2.197830 0.156187 -0.054512 -533867.000000 0 0 1
11.512392 30.264194 -21.917241 39.100154 1.207303 2.165835 0.123622 -0.047629 16948.500000 0 0 1
12.612392 31.012094 -22.424641 40.294998 1.184534 2.160978 0.122753 -0.060163 657317.000000 0 0 1
13.412692 31.585494 -21.368241 40.424565 1.169225 2.127741 0.090145 -0.035948 -266139.000000 0 0 1
14.756092 32.110094 -21.835641 41.540289 1.140032 2.124275 0.091074 -0.030716 -838451.000000 0 0 1
15.753492 31.176394 -22.076741 41.322179 1.102916 2.134427 0.084104 -0.032695 -238711.000000 0 0 1
16.899092 31.823794 -22.590441 42.528357 1.082641 2.130795 0.067350 -0.028210 29342.400000 0 0 1
18.118792 30.971594 -22.979841 42.609897 1.041469 2.140411 0.032646 -0.017744 -383951.000000 0 0 1
18.951792 30.660894 -21.932741 42.193672 1.017167 2.117426 0.042681 -0.006771 -603623.000000 0 0 1
20.084292 30.053594 -22.517741 42.586922 0.981676 2.127921 0.046883 -0.004419 253961.000000 0 0 1
21.115592 29.435494 -21.501141 42.126186 0.948520 2.106444 0.065150 -0.003220 642309.000000 0 0 1
21.931192 30.358194 -20.780341 42.830126 0.945185 2.077366 0.058443 -0.001517 244773.000000 0 0 1
22.706992 29.679294 -19.829841 42.304734 0.917715 2.058658 0.084467 -0.002565 94300.500000 0 0 1
23.496092 30.592194 -18.859341 42.937436 0.915848 2.025536 0.086257 -0.013628 579742.000000 0 0 1
24.608892 31.350894 -19.383341 44.319183 0.905300 2.023455 0.084931 -0.014007 751426.000000 0 0 1
25.253992 32.062994 -18.350141 44.749607 0.903640 1.993319 0.105585 -0.011873 -159051.000000 0 0 1
26.651892 32.578494 -18.682141 46.051102 0.885126 1.988522 0.092426 -0.016199 -52282.500000 0 0 1
27.656092 31.612994 -18.964541 46.085731 0.852061 1.994902 0.090241 -0.018108 534807.000000 0 0 1
28.904792 32.283294 -19.185741 47.389774 0.840557 1.987611 0.093566 -0.016064 -4973.900000 0 0 1
30.045392 31.351994 -19.472941 47.590634 0.806676 1.992347 0.096665 -0.018686 -850207.000000 0 0 1
30.449892 30.503294 -18.454941 46.885303 0.786274 1.975361 0.098827 -0.010482 -347088.000000 0 0 1
31.615392 29.793894 -18.770641 47.323842 0.755745 1.978653 0.076976 -0.011556 -439502.000000 0 0 1
31.962892 28.740694 -17.713741 46.491188 0.732367 1.961688 0.066941 -0.015627 -266235.000000 0 0 1
32.316492 29.264694 -16.464341 46.603138 0.735881 1.931880 0.048494 -0.001635 120158.000000 0 0 1
32.586792 28.192494 -15.551241 45.810007 0.713224 1.917152 0.058690 -0.000530 -408951.000000 0 0 1
33.034992 28.743494 -14.197241 46.033257 0.716044 1.884320 0.059981 0.002942 -331841.000000 0 0 1
34.353092 29.189994 -14.063741 47.222658 0.704323 1.873202 0.055226 -0.004408 -366342.000000 0 0 1
34.441092 30.571194 -14.429341 48.259637 0.725943 1.874435 0.065452 -0.014281 1061750.000000 0 0 1
35.936992 31.086694 -14.585541 49.705009 0.713157 1.868622 0.073378 -0.020633 1561550.000000 0 0 1
36.694092 31.306194 -13.392741 50.058961 0.706330 1.841635 0.082714 -0.016828 5583.810000 0 0 1
-37.704957 31.886594 -13.714641 51.249488 -0.701985 1.841703 0.087102 -0.032558 275825.000000 0 0 1
-36.862357 32.273794 -12.454041 50.552292 -0.719125 1.819719 0.080118 -0.021146 418521.000000 0 0 1
-37.527957 33.290394 -11.746841 51.522676 -0.725632 1.800813 0.088816 -0.028733 798650.000000 0 0 1
-36.670257 33.533994 -10.633541 50.816421 -0.740754 1.781608 0.068359 -0.014701 471985.000000 0 0 1
-37.056857 -32.808197 -9.893241 50.472414 0.724661 1.768087 0.071036 -0.005118 -299873.000000 0 0 1
-36.056757 -32.276697 -9.095641 49.240284 0.730137 1.756583 0.064917 -0.006760 -409443.000000 0 0 1
-35.863757 -32.914297 -7.814341 49.301358 0.742541 1.729969 0.064241 -0.008541 113494.000000 0 0 1
-35.589557 -31.930197 -6.622041 48.270130 0.731254 1.708417 0.083643 -0.011059 107139.000000 0 0 1
-36.760157 -31.182197 -6.278341 48.611275 0.703483 1.700312 0.070552 -0.000043 160569.000000 0 0 1
-36.563057 -30.167597 -5.351141 47.702995 0.689850 1.683209 0.095588 -0.001135 -503185.000000 0 0 1
-37.811657 -29.361997 -5.013141 48.135017 0.660267 1.675133 0.081536 -0.006200 157441.000000 0 0 1
36.884892 -30.055397 -4.188441 47.763638 -0.683726 1.658600 0.054143 -0.004570 -50702.200000 0 0 1
35.622692 -29.535097 -3.948841 46.442345 -0.692240 1.655926 0.053619 0.002520 -501837.000000 0 0 1
35.459592 -28.541197 -2.781241 45.603924 -0.677718 1.631821 0.050913 0.002054 -288513.000000 0 0 1
36.109292 -27.321897 -2.980841 45.378986 -0.647740 1.636531 0.085159 -0.008517 141759.000000 0 0 1
35.252292 -26.351297 -2.485641 44.082801 -0.641903 1.627212 0.085603 -0.004966 -141471.000000 0 0 1
35.754092 -24.923197 -2.839741 43.675908 -0.608759 1.635861 0.102292 -0.018837 -193705.000000 0 0 1
35.496292 -24.609297 -4.213641 43.397684 -0.606210 1.668043 0.098637 -0.024017 365461.000000 0 0 1
35.295292 -23.233697 -4.489841 42.493775 -0.582164 1.676653 0.112345 -0.026960 -471333.000000 0 0 1
35.110592 -23.010597 -5.990041 42.404266 -0.580144 1.712531 0.109447 -0.024175 14546.100000 0 0 1
36.275292 -23.042997 -6.809141 43.511388 -0.565919 1.727933 0.108481 -0.021549 354389.000000 0 0 1
35.988892 -22.745697 -8.133741 43.344259 -0.563631 1.759570 0.085771 -0.025425 -574381.000000 0 0 1
37.217692 -22.451097 -8.997041 44.386429 -0.542796 1.774909 0.084604 -0.023284 259134.000000 0 0 1
-37.622157 -23.662197 -9.136041 45.373929 0.561430 1.773532 0.065913 -0.002480 892312.000000 0 0 1
-36.377457 -23.430397 -9.807941 44.367765 0.572210 1.793698 0.089255 -0.001705 655156.000000 0 0 1
-35.657757 -24.691397 -10.325741 44.584320 0.605644 1.804519 0.092612 -0.005348 -198575.000000 0 0 1
-35.199657 -25.561897 -9.344441 44.494325 0.628093 1.782386 0.102213 -0.005527 81933.600000 0 0 1
-36.090857 -26.649697 -9.081141 45.773610 0.636039 1.770514 0.089013 -0.006544 389082.000000 0 0 1
-35.283157 -27.838497 -8.494241 45.738771 0.667999 1.757593 0.085473 -0.002062 666998.000000 0 0 1
-34.333457 -28.430397 -9.406141 45.558196 0.691622 1.778756 0.088487 -0.007106 492466.000000 0 0 1
-33.781757 -29.629397 -8.897341 45.806887 0.720008 1.766275 0.084217 -0.012152 -83331.100000 0 0 1
-33.348657 -30.593097 -10.009241 46.349276 0.742330 1.788464 0.079876 -0.010440 -330474.000000 0 0 1
-32.385157 -30.129197 -10.904041 45.557271 0.749327 1.812491 0.050123 0.012785 -79890.700000 0 0 1
-32.226457 -31.149097 -11.896041 46.371613 0.768400 1.830234 0.050544 0.009333 -301070.000000 0 0 1
-32.135757 -30.506797 -13.322141 46.269331 0.759400 1.862857 0.025090 0.017392 -803698.000000 0 0 1
-31.097157 -29.607697 -13.384241 44.975402 0.760867 1.872964 0.022070 0.016867 -568870.000000 0 0 1
-31.191357 -28.981597 -14.667541 45.032993 0.748691 1.902555 0.019474 0.026391 448612.000000 0 0 1
-30.081557 -27.905597 -14.905541 43.655441 0.747891 1.919241 0.040336 0.006129 -181581.000000 0 0 1
-28.869957 -28.420397 -15.345641 43.320689 0.777551 1.932891 0.067800 -0.001285 -946194.000000 0 0 1
-27.944557 -27.430697 -15.708941 42.191376 0.776119 1.952310 0.084733 0.009293 -246714.000000 0 0 1
-26.741657 -28.160497 -16.341241 42.132718 0.811235 1.969096 0.098297 -0.002137 -562848.000000 0 0 1
-27.028357 -28.788997 -17.594741 43.230930 0.816931 1.989957 0.098800 -0.003744 77535.400000 0 0 1
-27.236557 -27.871797 -18.714441 43.230746 0.796925 2.018500 0.077061 0.003976 -224847.000000 0 0 1
-25.945557 -27.163197 -19.151141 42.163697 0.808321 2.042281 0.080257 -0.005394 -12298.900000 0 0 1
-25.575357 -26.154697 -18.192141 40.854878 0.796597 2.032291 0.086954 -0.005538 -97631.700000 0 0 1
-24.217657 -25.830097 -18.413341 39.909146 0.817605 2.050348 0.075876 -0.013438 94484.800000 0 0 1
-23.679457 -24.794997 -17.459141 38.475059 0.808407 2.041797 0.089615 -0.008519 -228122.000000 0 0 1
-23.717957 -25.139197 -16.088041 38.122772 0.814480 2.006453 0.100506 -0.016962 12787.200000 0 0 1
-23.440857 -24.069497 -15.206641 36.878942 0.798629 1.995817 0.120730 -0.017355 -90142.700000 0 0 1
-24.181657 -24.167197 -13.855141 36.888628 0.785099 1.955834 0.116601 -0.011448 -428437.000000 0 0 1
-25.563557 -24.004097 -13.942341 37.736997 0.753947 1.949225 0.090238 0.005195 -530382.000000 0 0 1
-26.067557 -23.824097 -12.612641 37.499118 0.740462 1.913829 0.091653 -0.002526 160028.000000 0 0 1
-27.613057 -23.733697 -12.539641 38.509893 0.709989 1.902465 0.086748 0.019014 -611014.000000 0 0 1
-28.198657 -24.963397 -12.972641 39.832460 0.724617 1.902527 0.087767 0.010683 1124180.000000 0 0 1
-29.586457 -25.167597 -12.632441 40.845378 0.704869 1.885227 0.061470 0.018286 1324220.000000 0 0 1
-30.653357 -24.206797 -13.316941 41.266672 0.668426 1.899382 0.074183 0.018785 -724735.000000 0 0 1
-30.641757 -22.781297 -13.001641 40.335436 0.639310 1.898995 0.088697 0.018454 83377.800000 0 0 1
-31.014857 -22.472897 -11.677241 40.041358 0.627036 1.866726 0.097846 0.016434 -212167.000000 0 0 1
-32.489257 -22.738697 -11.245541 41.219684 0.610648 1.847119 0.063984 0.018736 436318.000000 0 0 1
-33.587357 -22.039097 -11.817741 41.874710 0.580702 1.856900 0.091776 -0.002312 521195.000000 0 0 1
-33.917657 -22.401797 -13.109641 42.709608 0.583704 1.882781 0.091234 0.004842 -1384980.000000 0 0 1
-35.336357 -21.993797 -13.475941 43.749128 0.556737 1.883916 0.065822 -0.014886 -221242.000000 0 0 1
-36.334057 -22.878997 -12.934741 44.843279 0.561961 1.863397 0.080557 -0.004287 371285.000000 0 0 1
-37.607657 -22.363697 -13.284441 45.726876 0.536482 1.865564 0.090232 -0.024013 348913.000000 0 0 1
36.825692 -23.313397 -12.983741 45.477726 -0.564384 1.860321 0.087465 -0.003651 140855.000000 0 0 1
36.805292 -24.505097 -13.732241 46.300148 -0.587405 1.871918 0.084929 0.002694 73191.000000 0 0 1
36.339392 -25.628397 -13.016441 46.333507 -0.614242 1.855559 0.097247 -0.007826 18771.500000 0 0 1
36.107192 -26.889697 -13.945741 47.130338 -0.640112 1.871191 0.086595 -0.013615 548333.000000 0 0 1
35.022092 -26.729797 -14.862941 46.496623 -0.651913 1.896163 0.082230 -0.012111 313276.000000 0 0 1
34.950292 -27.779997 -15.879541 47.385767 -0.671589 1.912520 0.073265 -0.004031 -335714.000000 0 0 1
33.986192 -27.564597 -17.038041 46.959164 -0.681444 1.942096 0.064988 -0.011618 110929.000000 0 0 1
32.638692 -27.953397 -16.804841 46.141947 -0.708227 1.943569 0.108676 -0.011848 276776.000000 0 0 1
31.903092 -27.681297 -17.971441 45.902442 -0.714662 1.973073 0.109687 -0.018808 -347667.000000 0 0 1
30.382492 -27.770597 -18.024841 44.935473 -0.740514 1.983543 0.106418 -0.022563 -104432.000000 0 0 1
29.679192 -26.801597 -17.252641 43.552654 -0.734494 1.978098 0.093591 -0.025601 -187862.000000 0 0 1
28.301592 -27.056297 -17.250241 42.785443 -0.762907 1.985786 0.119338 -0.024467 -467985.000000 0 0 1
27.443892 -26.184897 -16.338641 41.300935 -0.761926 1.977517 0.113616 -0.039218 -392472.000000 0 0 1
27.332692 -24.796197 -16.782041 40.540897 -0.736778 1.997589 0.120455 -0.046930 46008.400000 0 0 1
27.200092 -23.932897 -15.678441 39.477108 -0.721589 1.979209 0.118633 -0.052157 -118396.000000 0 0 1
26.937592 -22.390397 -15.938241 38.483649 -0.693475 1.997812 0.128630 -0.054520 793042.000000 0 0 1
25.543792 -22.146997 -16.172141 37.476832 -0.714293 2.016977 0.123954 -0.063469 696246.000000 0 0 1
25.202892 -20.766597 -16.044541 36.384950 -0.689191 2.027471 0.136265 -0.059822 -620553.000000 0 0 1
23.713692 -20.485797 -16.223641 35.287584 -0.712497 2.048516 0.124949 -0.061021 -574777.000000 0 0 1
23.001792 -20.477597 -15.016241 34.262252 -0.727408 2.024473 0.125656 -0.054473 29243.900000 0 0 1
21.755392 -19.827197 -15.151341 33.105557 -0.739061 2.046166 0.116165 -0.050362 -8808.100000 0 0 1
21.552892 -18.607397 -14.157541 31.799345 -0.712186 2.032211 0.098393 -0.038975 -75453.700000 0 0 1
20.829792 -18.944897 -12.993341 31.009938 -0.738044 2.003146 0.093182 -0.050351 160193.000000 0 0 1
20.615992 -17.715797 -12.297041 29.834306 -0.709882 1.995639 0.085782 -0.052989 -338529.000000 0 0 1
19.875592 -17.942397 -10.939341 28.924694 -0.734324 1.958648 0.092441 -0.037043 -33831.900000 0 0 1
20.538592 -18.597097 -9.874941 29.414286 -0.735829 1.913165 0.100428 -0.049146 260658.000000 0 0 1
19.684092 -18.556197 -8.741141 28.428919 -0.755912 1.883333 0.089575 -0.042443 23401.600000 0 0 1
20.348592 -19.294497 -7.587541 29.050190 -0.758815 1.835048 0.091862 -0.043347 294616.000000 0 0 1
21.531392 -18.595297 -7.192641 29.344846 -0.712358 1.818427 0.094518 -0.040793 372320.000000 0 0 1
22.181092 -19.265097 -6.097241 30.005352 -0.715158 1.775427 0.097316 -0.033889 114648.000000 0 0 1
23.527792 -18.525397 -5.889741 30.519442 -0.667001 1.764998 0.099979 -0.031910 -305595.000000 0 0 1
24.494692 -18.625897 -6.902341 31.536586 -0.650127 1.791450 0.096816 -0.046193 -120880.000000 0 0 1
25.341192 -17.501597 -6.715641 31.521131 -0.604415 1.785494 0.110422 -0.035995 -416140.000000 0 0 1
26.234192 -17.333097 -7.973441 32.438323 -0.583865 1.819144 0.136147 -0.042867 101191.000000 0 0 1
27.384792 -18.159397 -7.972141 33.811914 -0.585543 1.808816 0.155437 -0.057890 423833.000000 0 0 1
27.137692 -19.403297 -8.640641 34.461615 -0.620719 1.824233 0.165032 -0.068444 -244284.000000 0 0 1
28.300392 -20.377597 -8.351041 35.859427 -0.624054 1.805837 0.159588 -0.070441 68654.400000 0 0 1
29.564792 -19.832097 -8.636841 36.633100 -0.590859 1.808803 0.133184 -0.046986 -302641.000000 0 0 1
30.559692 -20.819997 -8.604241 37.965774 -0.598058 1.799414 0.117788 -0.046709 -45083.700000 0 0 1
-31.108258 30.062794 3.957159 43.441390 -0.768309 1.479578 0.091699 -0.031587 210251.000000 0 0 1
-30.597638 30.811694 2.887259 43.519102 -0.788884 1.504403 0.103439 -0.033264 -205335.000000 0 0 1
-29.864558 31.876694 3.482259 43.819420 -0.817976 1.491244 0.095708 -0.015037 -176687.000000 0 0 1
-29.187378 32.762894 2.433659 43.945796 -0.843050 1.515389 0.108465 -0.021367 -1270940.000000 0 0 1
-28.078128 32.130094 1.890359 42.711798 -0.852596 1.526523 0.118617 -0.031805 -346759.000000 0 0 1
-27.368788 33.045294 1.041559 42.920005 -0.879083 1.546527 0.129834 -0.044340 77341.500000 0 0 1
-26.238508 -33.787297 1.681559 42.812012 0.910500 1.531508 0.136863 -0.037278 -1114060.000000 0 0 1
-25.066558 33.175494 1.760859 41.617861 -0.923737 1.528474 0.128215 -0.043546 -1235570.000000 0 0 1
-24.114108 -33.765597 2.462159 41.565226 0.950629 1.511526 0.120757 -0.035970 -359262.000000 0 0 1
-22.661108 33.653094 2.069059 40.624347 -0.978165 1.519843 0.110911 -0.039892 -202897.000000 0 0 1
-22.138708 -33.448097 0.901059 40.121185 0.986113 1.548336 0.125795 -0.043722 442758.000000 0 0 1
-20.813008 33.764794 0.638259 39.669257 -1.018397 1.554706 0.114137 -0.040510 19690.200000 0 0 1
-20.147208 -33.275697 -0.607341 38.904381 1.026369 1.586408 0.118667 -0.041102 53330.200000 0 0 1
-19.732708 -31.924797 -0.504541 37.534344 1.017174 1.584239 0.130581 -0.041694 686907.000000 0 0 1
-18.830208 -31.594997 0.571059 36.785142 1.033333 1.555272 0.132751 -0.027951 -172131.000000 0 0 1
-18.507308 -30.069697 0.547259 35.312981 1.019072 1.555298 0.138263 -0.041222 -78848.600000 0 0 1
-17.667708 -29.721297 -0.537841 34.580235 1.034471 1.586350 0.131605 -0.033406 107680.000000 0 0 1
-17.330408 -28.334297 -0.527941 33.218280 1.021861 1.586690 0.113002 -0.035613 -155941.000000 0 0 1
-16.295108 -27.928997 -1.595641 32.374457 1.042637 1.620103 0.099648 -0.035344 -201962.000000 0 0 1
-16.719308 -28.182497 -2.934541 32.899847 1.035354 1.660111 0.099862 -0.029705 -766300.000000 0 0 1
-15.801508 -27.765597 -3.825241 32.175278 1.053404 1.689966 0.089106 -0.021178 -750278.000000 0 0 1
-16.487508 -27.706297 -5.210941 32.659313 1.034001 1.731036 0.133658 -0.029445 124635.000000 0 0 1
-17.333408 -26.586997 -5.307341 32.178927 0.993051 1.736486 0.131387 -0.026673 -140942.000000 0 0 1
-17.957808 -26.543997 -6.597441 32.719916 0.975996 1.773822 0.147417 -0.032738 225132.000000 0 0 1
-18.711508 -25.243297 -6.879841 32.166392 0.932921 1.786344 0.126277 -0.025747 -174393.000000 0 0 1
-17.807608 -24.168397 -6.894341 30.801855 0.935788 1.796537 0.082302 -0.009914 2802.200000 0 0 1
-18.381508 -22.885897 -6.841041 30.140404 0.894119 1.799764 0.063622 -0.005438 402275.000000 0 0 1
-17.270208 -21.825597 -6.545141 28.591181 0.901394 1.801766 0.079285 0.001054 810301.000000 0 0 1
-16.367008 -21.608997 -7.611441 28.156025 0.922566 1.844533 0.095230 -0.000479 296719.000000 0 0 1
-15.116808 -21.005097 -7.245641 26.874361 0.946988 1.843786 0.121867 -0.031692 529741.000000 0 0 1
-14.169008 -21.007297 -8.448741 26.710458 0.977404 1.892632 0.121491 -0.030686 -388525.000000 0 0 1
-14.447408 -20.039197 -9.449741 26.449851 0.946143 1.936140 0.138457 -0.031394 -239340.000000 0 0 1
-13.660208 -20.221597 -10.611141 26.610347 0.976686 1.980961 0.130169 -0.023182 157722.000000 0 0 1
-14.150708 -19.343697 -11.796341 26.712821 0.939214 2.028176 0.149993 -0.024717 485356.000000 0 0 1
-15.352908 -19.812097 -12.406041 27.966781 0.911533 2.030407 0.124647 -0.009689 93935.700000 0 0 1
-15.636608 -18.938497 -13.492341 28.021660 0.880608 2.073158 0.144864 -0.031661 1140860.000000 0 0 1
-16.969508 -19.314697 -14.284441 29.412021 0.849942 2.077922 0.155405 -0.030339 1515930.000000 0 0 1
-18.158008 -19.128697 -13.519441 29.637739 0.811425 2.044467 0.146500 -0.025879 -288765.000000 0 0 1
-19.294208 -19.368997 -14.256241 30.832855 0.787333 2.051465 0.109800 -0.012487 -1080270.000000 0 0 1
-20.615808 -19.258497 -13.485141 31.268999 0.751372 2.016688 0.079549 -0.006789 347950.000000 0 0 1
-21.652508 -19.731497 -14.367741 32.628133 0.739012 2.026783 0.083347 -0.009544 90305.800000 0 0 1
-22.968008 -19.492897 -13.923341 33.186772 0.703738 2.003740 0.062088 -0.005454 136969.000000 0 0 1
-24.006008 -20.243697 -14.815741 34.721778 0.700578 2.011636 0.071728 -0.010477 -78881.600000 0 0 1
-24.105408 -19.726797 -16.132541 35.078143 0.685834 2.048682 0.078271 -0.020134 839748.000000 0 0 1
-24.861908 -20.705797 -16.932241 36.517740 0.694442 2.052931 0.093107 -0.022958 272309.000000 0 0 1
-25.241098 -20.205397 -18.334441 37.168842 0.675043 2.086646 0.096684 -0.015422 -730450.000000 0 0 1
-24.194708 -20.131297 -19.223441 36.880804 0.693983 2.119090 0.087717 -0.015844 -355960.000000 0 0 1
-24.629608 -19.559897 -20.435341 37.507471 0.671171 2.146987 0.097255 -0.022075 -11008.500000 0 0 1
-23.516708 -18.708497 -21.090741 36.713251 0.672016 2.182755 0.070184 -0.018336 -425742.000000 0 0 1
-22.402708 -19.436497 -21.494441 36.628810 0.714621 2.197920 0.053999 -0.004300 -266245.000000 0 0 1
-21.503608 -18.549997 -22.174041 36.030482 0.711790 2.233721 0.047679 -0.007454 505384.000000 0 0 1
-20.053008 -19.095697 -22.257141 35.526738 0.760950 2.247838 0.050507 -0.002407 178456.000000 0 0 1
-19.955408 -20.166097 -23.188941 36.641735 0.790649 2.256033 0.035479 0.009794 -187389.000000 0 0 1
-18.629208 -20.619397 -23.269441 36.244639 0.836062 2.267914 0.034686 0.008624 -216198.000000 0 0 1
-18.475308 -22.059797 -23.876541 37.390652 0.873598 2.263435 0.039130 0.004079 -265799.000000 0 0 1
-18.635908 -22.121997 -25.265851 38.406289 0.870722 2.288766 0.033215 0.000403 251605.000000 0 0 1
-18.760208 -23.501997 -25.597581 39.490827 0.897130 2.276002 0.040835 -0.006957 40504.900000 0 0 1
-18.946608 -23.710197 -27.107431 40.693491 0.896610 2.299813 0.045528 -0.003279 429023.000000 0 0 1
-17.687908 -23.444697 -27.719631 40.384327 0.924452 2.327318 0.049556 -0.008749 407355.000000 0 0 1
-17.750908 -23.786497 -29.118141 41.578340 0.929693 2.346642 0.064950 -0.013769 205909.000000 0 0 1
-16.422308 -23.577097 -29.898291 41.466607 0.962399 2.376071 0.044707 -0.022245 1030040.000000 0 0 1
-15.344708 -24.412197 -29.394711 41.176018 1.009636 2.365819 0.048633 -0.023407 1209400.000000 0 0 1
-14.177408 -24.287597 -30.220791 41.281745 1.042426 2.392140 0.062331 -0.025388 982182.000000 0 0 1
-13.027808 -25.309297 -29.983371 41.343522 1.095423 2.382158 0.112648 -0.032068 -320901.000000 0 0 1
-13.475008 -26.659697 -30.182411 42.465200 1.102802 2.361369 0.081480 -0.026589 430109.000000 0 0 1
-12.516008 -27.701697 -30.018221 42.721518 1.146435 2.349910 0.104833 -0.026314 368021.000000 0 0 1
-11.218608 -27.694097 -30.897901 42.982560 1.185910 2.372939 0.121065 -0.026004 784136.000000 0 0 1
-10.264008 -26.762497 -30.318431 41.722756 1.204575 2.384250 0.179472 -0.043052 165684.000000 0 0 1
-9.178308 -26.529697 -31.164721 41.944082 1.237722 2.408348 0.156052 -0.038142 -341129.000000 0 0 1
-8.061008 -25.602397 -30.648171 40.740311 1.265769 2.422314 0.245122 -0.050870 42626.000000 0 0 1
-8.382608 -24.200697 -30.640791 39.934946 1.237351 2.445366 0.260826 -0.050960 255537.000000 0 0 1
-9.376708 -23.828997 -29.688191 39.206281 1.195906 2.429859 0.230232 -0.039283 140004.000000 0 0 1
-9.684608 -22.363997 -29.480771 38.249913 1.162132 2.450799 0.229614 -0.046755 -62680.900000 0 0 1
-10.334608 -21.820797 -30.600311 38.978588 1.128480 2.473580 0.197439 -0.046743 -7113.900000 0 0 1
-10.706808 -20.471097 -30.254881 38.066513 1.088902 2.489458 0.183873 -0.046622 242341.000000 0 0 1
-11.402208 -19.733497 -31.405601 38.803776 1.046853 2.513831 0.154400 -0.041601 -14407.200000 0 0 1
-12.085108 -18.537697 -31.161891 38.219884 0.993072 2.524099 0.130215 -0.035963 144208.000000 0 0 1
-13.061008 -18.387597 -32.180061 39.296946 0.953180 2.530279 0.112407 -0.028470 165538.000000 0 0 1
-13.983908 -17.106897 -32.110361 38.977826 0.885510 2.538898 0.124191 -0.028530 168905.000000 0 0 1
-13.413008 -15.834997 -32.276081 38.371882 0.868018 2.570182 0.132468 -0.031073 50055.100000 0 0 1
-12.382508 -15.392497 -31.387251 37.086588 0.893347 2.579841 0.101324 -0.029615 492579.000000 0 0 1
-12.015108 -13.908897 -31.573601 36.533718 0.858320 2.614418 0.085218 -0.025805 778682.000000 0 0 1
-11.161508 -13.612097 -32.733021 37.166102 0.883997 2.648182 0.090909 -0.028263 997318.000000 0 0 1
-11.915208 -13.573897 33.629259 38.172633 0.850381 0.492871 0.096742 -0.028326 115519.000000 0 0 1
-12.362608 -12.258197 33.015235 37.324298 0.781157 0.485266 0.091666 -0.021087 593336.000000 0 0 1
-13.521708 -11.682697 33.658239 38.107730 0.712563 0.488071 0.074619 -0.011865 168258.000000 0 0 1
-14.072408 -10.832797 32.700320 37.211465 0.656047 0.497517 0.079583 -0.021668 429606.000000 0 0 1
-15.272808 -10.057797 33.335655 38.022150 0.582357 0.501748 0.090233 -0.022080 292268.000000 0 0 1
-14.818408 -9.129597 -33.298351 37.572795 0.552172 2.659951 0.065907 -0.015337 642817.000000 0 0 1
-15.869608 -8.637397 -32.419031 37.113915 0.498436 2.633144 0.080306 -0.019321 798881.000000 0 0 1
-15.369908 -7.533697 -31.377671 35.742816 0.455744 2.642200 0.068804 -0.031941 -152763.000000 0 0 1
-15.175708 -6.242597 -31.997831 35.960163 0.390256 2.667732 0.067683 -0.037659 43119.500000 0 0 1
-16.212208 -5.304597 -31.806351 36.091806 0.316218 2.649323 0.074200 -0.029659 -83393.500000 0 0 1
-16.412708 -4.811697 -30.360981 34.847075 0.285178 2.628567 0.068532 -0.044634 -129461.000000 0 0 1
-16.716208 -5.806297 -29.369181 34.288387 0.334308 2.599313 0.057499 -0.046400 -34745.700000 0 0 1
-17.178308 -5.287597 -28.148561 33.397522 0.298603 2.573324 0.067158 -0.049716 52895.000000 0 0 1
-16.146408 -4.571997 -27.233641 31.988762 0.275935 2.589350 0.068199 -0.049431 113016.000000 0 0 1
-15.728308 -3.326197 -27.732251 32.054969 0.208408 2.616239 0.066725 -0.045424 663439.000000 0 0 1
-14.346208 -3.052697 -27.417661 31.094385 0.209661 2.650368 0.062669 -0.047356 774231.000000 0 0 1
-13.912208 -1.880897 -28.221011 31.520038 0.134383 2.679980 0.046147 -0.032792 -327883.000000 0 0 1
-14.114208 -2.057897 -29.582561 32.841647 0.144783 2.692321 0.055679 -0.041070 71846.000000 0 0 1
-14.076008 -0.876897 -30.382761 33.496494 0.062217 2.707003 0.067884 -0.043387 -52260.100000 0 0 1
-14.219008 -1.088897 -31.926921 34.967044 0.076431 2.721515 0.065583 -0.041181 796043.000000 0 0 1
-15.546808 -1.543897 -32.286601 35.867973 0.098982 2.690913 0.039814 -0.040291 1306950.000000 0 0 1
-15.568008 -2.080897 -33.599731 37.089553 0.132877 2.704316 0.052608 -0.040573 -91388.100000 0 0 1
-17.020408 -2.031897 33.450199 37.586417 0.118818 0.473551 0.040400 -0.033569 133453.000000 0 0 1
-17.041508 -2.163897 32.030435 36.346172 0.126302 0.492274 0.066563 -0.045736 645274.000000 0 0 1
-18.331508 -1.794897 31.537447 36.522273 0.097602 0.528602 0.057666 -0.036015 391212.000000 0 0 1
-18.391408 -1.815897 29.993409 35.229902 0.098417 0.552220 0.083754 -0.030445 85237.500000 0 0 1
-17.777808 -0.690897 29.360699 34.330431 0.038843 0.544786 0.089929 -0.015045 48086.900000 0 0 1
-17.937708 -0.736897 27.959739 33.227269 0.041058 0.570799 0.106844 -0.019365 200426.000000 0 0 1
-17.221908 0.477103 27.258739 32.246870 -0.027696 0.563643 0.089228 -0.019182 363070.000000 0 0 1
-17.712208 1.790103 27.695289 32.923485 -0.100724 0.571295 0.076869 -0.014764 -401185.000000 0 0 1
-18.995708 2.174103 27.321029 33.346698 -0.113956 0.610603 0.085682 -0.024100 -503301.000000 0 0 1
-19.061808 2.930103 25.966059 32.344617 -0.152522 0.638830 0.096657 -0.029602 -327185.000000 0 0 1
-18.471808 4.231103 25.938939 32.123800 -0.225173 0.630949 0.081311 -0.025563 61480.200000 0 0 1
-19.025308 5.156103 25.026049 31.856724 -0.264656 0.667161 0.088794 -0.025129 -816828.000000 0 0 1
-18.714908 6.665103 25.248979 32.127595 -0.342133 0.666651 0.083660 -0.027525 1428700.000000 0 0 1
-17.365008 7.187103 25.050209 31.316305 -0.392418 0.643652 0.069778 -0.026177 1299280.000000 0 0 1
-16.721508 6.909103 23.827349 29.918007 -0.391822 0.649441 0.066016 -0.028129 -847908.000000 0 0 1
-15.530808 7.801103 23.505149 29.232777 -0.465485 0.636690 0.047434 -0.023129 -167141.000000 0 0 1
-14.472208 7.462103 24.408729 29.341334 -0.476062 0.588294 0.042078 -0.023794 -731420.000000 0 0 1
-13.332508 8.027103 23.870829 28.495730 -0.541940 0.577741 0.048914 -0.022324 -861328.000000 0 0 1
-12.069008 8.047103 24.757509 28.694095 -0.588066 0.529997 0.036169 -0.006345 -191344.000000 0 0 1
-10.995408 8.656103 24.077019 27.848339 -0.666916 0.526489 0.027003 -0.010567 -178279.000000 0 0 1
-9.799908 8.699103 24.825379 28.071552 -0.725962 0.485674 0.038979 -0.016635 -18953.500000 0 0 1
-9.570508 10.011103 25.573549 29.083040 -0.807895 0.496346 0.050790 -0.023822 -808500.000000 0 0 1
-10.582408 10.181103 26.528889 30.322008 -0.766073 0.505556 0.046414 -0.024363 12284.300000 0 0 1
-10.578808 11.492103 27.144699 31.317955 -0.826755 0.522157 0.066997 -0.025650 -614116.000000 0 0 1
-11.351908 12.649103 26.477379 31.462950 -0.839393 0.570666 0.052724 -0.025250 471029.000000 0 0 1
-12.756508 12.448103 26.311509 31.780171 -0.773163 0.595404 0.051126 -0.026859 583394.000000 0 0 1
-13.092508 11.604103 25.182149 30.662838 -0.725203 0.607181 0.045480 -0.019115 -67354.500000 0 0 1
-14.582608 11.493103 24.736629 30.929674 -0.667466 0.643884 0.027345 -0.020203 236992.000000 0 0 1
-15.074208 12.677103 24.206909 31.207614 -0.699234 0.683015 0.037398 -0.020992 271717.000000 0 0 1
-16.361508 12.595103 23.592609 31.351982 -0.656054 0.718935 0.036816 -0.010246 502595.000000 0 0 1
-16.400308 12.017103 22.194459 30.099417 -0.632361 0.741625 0.030382 -0.003687 -330913.000000 0 0 1
-16.079108 10.676103 22.012759 29.275903 -0.586136 0.719846 0.034519 -0.002523 -75801.900000 0 0 1
-15.987608 10.348103 20.648959 28.090325 -0.574445 0.744995 0.056516 -0.008875 -59170.400000 0 0 1
-16.459308 8.908103 20.339459 27.639767 -0.496077 0.743836 0.067779 -0.016882 -333117.000000 0 0 1
-17.825908 8.690103 20.486059 28.512445 -0.453596 0.769160 0.082489 -0.013954 -855818.000000 0 0 1
-18.129608 7.313103 20.490259 28.319868 -0.383416 0.761895 0.082518 -0.014586 -142147.000000 0 0 1
-19.593108 7.050103 20.883359 29.490821 -0.345401 0.783949 0.110725 -0.025398 -108812.000000 0 0 1
-19.958908 7.643103 22.120559 30.758644 -0.365715 0.768196 0.090300 -0.026054 258554.000000 0 0 1
-21.370508 7.513103 22.259659 31.759058 -0.338068 0.794149 0.085697 -0.022876 265063.000000 0 0 1
-21.923408 8.291103 23.436399 33.145785 -0.361560 0.785450 0.092689 -0.022257 -867813.000000 0 0 1
-22.037608 9.731103 23.328429 33.534552 -0.415820 0.801467 0.087244 -0.022512 22479.500000 0 0 1
-20.916108 10.590103 23.306099 33.057649 -0.468685 0.788354 0.086376 -0.018490 177801.000000 0 0 1
-19.813608 10.434103 24.394849 33.114321 -0.484711 0.742640 0.072716 -0.023232 26597.300000 0 0 1
-20.258208 10.865103 25.661999 34.452629 -0.492288 0.730488 0.063437 -0.025225 299160.000000 0 0 1
-19.744308 9.900103 26.570999 34.552391 -0.464779 0.693511 0.059199 -0.022756 208645.000000 0 0 1
-32.843198 -14.065206 19.800959 40.848301 0.404623 1.064726 0.097701 -0.016229 -36595.100000 0 0 1
-32.013348 -15.219806 19.729459 40.567826 0.443791 1.062909 0.089809 -0.006029 142595.000000 0 0 1
-32.129378 -16.032806 18.571359 40.425774 0.462853 1.093483 0.071331 0.008454 398357.000000 0 0 1
-31.457458 -15.416906 17.264059 39.055095 0.455686 1.112921 0.080906 0.009770 -354991.000000 0 0 1
-32.194848 -14.318706 16.910459 39.083209 0.418481 1.123335 0.078426 -0.005254 -446848.000000 0 0 1
-31.900748 -13.872206 15.600659 38.124486 0.410188 1.149216 0.077327 -0.005987 -950462.000000 0 0 1
-33.003848 -13.001706 14.931459 38.486970 0.375276 1.172378 0.079215 -0.007933 203461.000000 0 0 1
-34.263062 -13.619206 14.719759 39.700271 0.378340 1.190956 0.101772 -0.015327 736648.000000 0 0 1
-35.145909 -13.676206 15.843659 40.905930 0.371098 1.173074 0.103319 -0.016765 10443.900000 0 0 1
-35.864096 -12.342506 16.350659 41.302723 0.331451 1.163777 0.099330 -0.019229 -243754.000000 0 0 1
-36.638598 -12.580806 17.481359 42.500135 0.330761 1.146889 0.084189 -0.013564 -272781.000000 0 0 1
-37.559518 -11.533306 17.697959 43.092370 0.297928 1.147577 0.071526 -0.014157 -38607.400000 0 0 1
37.151280 -11.750806 18.892359 43.303814 -0.306340 1.119342 0.065562 0.002291 -122218.000000 0 0 1
-37.775208 -11.938106 20.108259 44.427771 0.306098 1.101111 0.062069 0.006254 -323862.000000 0 0 1
37.106370 -11.710006 21.277959 44.348151 -0.305688 1.070377 0.055415 -0.001475 -1297510.000000 0 0 1
-37.782438 -12.135906 22.520119 45.628375 0.310796 1.054624 0.054258 -0.008473 400830.000000 0 0 1
-36.534658 -11.462506 22.712999 44.520227 0.304017 1.035411 0.068447 -0.007421 492721.000000 0 0 1
-35.493440 -12.063006 21.946859 43.439211 0.327618 1.041146 0.067554 -0.008594 -1367540.000000 0 0 1
-34.303978 -11.097906 21.862259 42.164972 0.312890 1.025708 0.081769 -0.014347 -382299.000000 0 0 1
-34.428338 -9.945706 21.103459 41.588262 0.281225 1.038588 0.093608 -0.014184 -493416.000000 0 0 1
-33.200958 -9.283706 21.047759 40.391819 0.272658 1.022669 0.115108 -0.019940 -735835.000000 0 0 1
-33.336888 -8.000806 20.245659 39.815170 0.235544 1.037365 0.103864 -0.012342 125295.000000 0 0 1
-33.671278 -8.170706 18.881859 39.459347 0.238060 1.071834 0.107279 -0.018149 577217.000000 0 0 1
-35.071948 -8.383706 18.712559 40.626198 0.234640 1.092122 0.094076 -0.019244 20061.700000 0 0 1
-35.581298 -8.333206 17.243859 40.408190 0.230055 1.129909 0.099287 -0.024930 33681.300000 0 0 1
-36.988958 -8.446606 17.172059 41.646222 0.224505 1.145784 0.020167 -0.027593 87368.500000 0 0 1
-37.383758 -8.550806 15.800059 41.476542 0.224862 1.179984 0.050233 -0.025101 -372662.000000 0 0 1
36.751400 -8.467506 15.568459 40.801237 -0.226448 1.179304 0.089580 -0.039670 -531952.000000 0 0 1
36.040340 -9.625306 15.937259 40.565365 -0.260979 1.167037 0.099099 -0.021529 -568674.000000 0 0 1
34.707820 -9.490806 15.522359 39.187393 -0.266923 1.163524 0.092615 -0.016398 -499660.000000 0 0 1
33.961190 -10.811106 15.785659 38.979860 -0.308194 1.153851 0.090701 -0.004675 -148994.000000 0 0 1
33.850370 -11.205606 17.137659 39.561503 -0.319679 1.122767 0.056608 -0.007936 390025.000000 0 0 1
32.760880 -12.081506 17.427659 39.025137 -0.353305 1.107862 0.081484 -0.007212 351813.000000 0 0 1
32.629620 -12.602406 18.896259 39.756526 -0.368576 1.075492 0.067181 -0.004781 201512.000000 0 0 1
33.536410 -13.645606 19.258959 41.009765 -0.386431 1.081937 0.079434 0.004557 116417.000000 0 0 1
33.500330 -13.818006 20.651859 41.709815 -0.391213 1.052810 0.084876 0.005990 -305236.000000 0 0 1
34.233970 -15.071806 21.149259 42.969934 -0.414724 1.056196 0.087711 0.000586 140402.000000 0 0 1
34.295530 -15.226506 22.568869 43.787940 -0.417836 1.029307 0.086558 -0.012566 -320814.000000 0 0 1
35.015540 -16.389306 22.872089 44.920261 -0.437769 1.036575 0.095679 -0.018706 -58527.800000 0 0 1
35.522310 -16.270606 24.317999 46.020997 -0.429519 1.014069 0.112236 -0.023466 -309704.000000 0 0 1
36.617980 -15.408306 24.343189 46.592738 -0.398295 1.021054 0.090659 -0.009338 -408688.000000 0 0 1
37.119920 -15.154606 25.659249 47.601971 -0.387607 1.001502 0.099253 -0.012151 618268.000000 0 0 1
-37.303248 -14.173306 25.594339 47.407649 0.363102 1.000504 0.080962 -0.003424 619709.000000 0 0 1
-36.016358 -14.667706 25.261999 46.373358 0.386742 0.994702 0.048478 -0.006506 172819.000000 0 0 1
-35.073009 -13.626006 25.395469 45.395087 0.370557 0.977096 0.063136 -0.009152 -241097.000000 0 0 1
-33.650178 -14.106506 25.092999 44.283029 0.396957 0.968361 0.056033 -0.009213 -1297190.000000 0 0 1
-33.472788 -14.405506 23.751469 43.498028 0.406406 0.993172 0.049195 -0.004487 1207360.000000 0 0 1
-32.073528 -14.710806 23.488479 42.389005 0.430031 0.983494 0.060071 -0.008168 1239780.000000 0 0 1
-31.525758 -15.996506 24.069319 42.767906 0.469559 0.973040 0.059383 -0.007297 -1292790.000000 0 0 1
-31.361498 -15.989306 25.486849 43.460108 0.471488 0.944137 0.064330 -0.011461 -7790.120000 0 0 1
-30.887518 -17.239206 25.915649 43.850312 0.509063 0.938495 0.057263 -0.015757 -378428.000000 0 0 1
-30.602868 -17.314306 27.440239 44.601429 0.514873 0.908116 0.051573 -0.015067 795604.000000 0 0 1
-29.412388 -16.600706 27.864849 43.784950 0.513841 0.880971 0.051230 -0.017949 880114.000000 0 0 1
-28.902108 -17.224606 29.033289 44.440419 0.537446 0.858850 0.059990 -0.016589 782010.000000 0 0 1
-27.620918 -16.492306 29.599149 43.715225 0.538281 0.826995 0.048618 -0.019717 552888.000000 0 0 1
-27.879858 -15.213906 30.147039 43.790335 0.499532 0.811460 0.064214 -0.024749 20887.400000 0 0 1
-27.045048 -14.263906 29.539469 42.514396 0.485337 0.802639 0.044478 -0.021214 -424995.000000 0 0 1
-26.912688 -12.925706 30.328959 42.558342 0.447750 0.777536 0.058185 -0.013027 26058.900000 0 0 1
-26.274138 -13.105406 31.588795 43.126952 0.462683 0.748867 0.055867 -0.016093 206117.000000 0 0 1
-25.773088 -11.854606 32.033235 42.789157 0.431106 0.724803 0.055117 -0.012813 -44958.300000 0 0 1
-25.037878 -11.945906 33.377296 43.400967 0.445171 0.693451 0.067542 -0.015332 -716857.000000 0 0 1
-23.773908 -12.518606 33.398674 42.864737 0.484676 0.677465 0.033117 -0.016379 -636381.000000 0 0 1
-23.572508 -13.910306 33.571839 43.315449 0.533114 0.683995 0.034869 -0.017333 -160079.000000 0 0 1
-23.717608 -14.468106 -32.549231 42.793732 0.547751 2.435045 0.035298 -0.016425 -600383.000000 0 0 1
-22.590008 -14.233806 -31.763911 41.495250 0.562253 2.442588 0.024598 -0.009146 -379945.000000 0 0 1
-22.596808 -15.140706 -30.699651 41.016159 0.590333 2.416559 0.029373 -0.008177 389982.000000 0 0 1
-21.282108 -15.241806 -29.854861 39.705838 0.621502 2.421737 0.025289 -0.009663 544044.000000 0 0 1
-20.885908 -14.137306 -29.004891 38.436549 0.595042 2.425867 0.032066 -0.005908 140784.000000 0 0 1
-21.363308 -14.123706 -27.639371 37.680298 0.584153 2.394288 0.035924 -0.009092 -6329.920000 0 0 1
-20.978208 -12.872906 -26.837121 36.414668 0.550383 2.399397 0.036914 -0.009504 -453447.000000 0 0 1
-19.675208 -12.903806 -26.338911 35.317988 0.580470 2.412478 0.033391 -0.014748 -698261.000000 0 0 1
-19.303808 -11.695606 -25.745311 34.238068 0.544725 2.421811 0.040106 -0.018028 -258996.000000 0 0 1
-17.943008 -11.702806 -25.054341 32.964030 0.577935 2.434188 0.058033 -0.030929 -1044290.000000 0 0 1
-17.884808 -12.362106 -23.816041 32.247354 0.604800 2.401702 0.070032 -0.032427 563314.000000 0 0 1
-16.619708 -12.344806 -23.139541 31.049111 0.638865 2.411715 0.079716 -0.037789 57197.100000 0 0 1
-15.531908 -13.206306 -23.720941 31.278263 0.704650 2.431627 0.052468 -0.028932 -1477260.000000 0 0 1
-14.898308 -12.677106 -24.807741 31.592604 0.705022 2.473878 0.048482 -0.040777 -364558.000000 0 0 1
-14.284108 -13.724906 -25.585551 32.357831 0.765436 2.482759 0.068068 -0.040153 -264246.000000 0 0 1
-13.195508 -13.086706 -26.465231 32.338704 0.781258 2.529376 0.078933 -0.037576 -81158.700000 0 0 1
-13.723008 -12.091506 -27.326941 32.882932 0.722281 2.551766 0.092711 -0.036514 139736.000000 0 0 1
-12.734708 -11.603906 -28.211681 33.056352 0.738970 2.593351 0.085606 -0.037853 -42522.000000 0 0 1
-13.379308 -10.684306 -29.235061 33.879922 0.673868 2.611781 0.061894 -0.029262 177808.000000 0 0 1
-12.431008 -9.762806 -29.749171 33.687617 0.665750 2.653202 0.058072 -0.019903 285490.000000 0 0 1
-12.257208 -10.040206 -31.126871 34.927454 0.686295 2.670750 0.061698 -0.014537 -157005.000000 0 0 1
-11.536408 -8.957406 -31.920031 35.102881 0.660213 2.712462 0.043727 -0.006273 754044.000000 0 0 1
-10.169808 -8.700406 -31.564051 34.284273 0.707686 2.740556 0.045340 -0.010931 631230.000000 0 0 1
-9.730208 -7.396406 -31.910691 34.171274 0.649965 2.775814 0.035860 -0.010970 -319972.000000 0 0 1
-8.214508 -7.204506 -31.752491 33.579812 0.719988 2.810177 0.055018 -0.013769 -428067.000000 0 0 1
-7.799608 -7.046506 -30.399541 32.165498 0.734714 2.808690 0.058064 -0.014266 -150773.000000 0 0 1
-7.979008 -5.754606 -29.758281 31.342230 0.624825 2.822316 0.068921 -0.019172 -512969.000000 0 0 1
-7.215008 -4.506506 -30.212551 31.387309 0.558313 2.867134 0.063912 -0.026488 100384.000000 0 0 1
-5.843308 -4.541606 -29.837401 30.741518 0.660703 2.898465 0.101991 -0.035172 246575.000000 0 0 1
-5.169308 -3.407406 -30.332881 30.958292 0.582788 2.940247 0.114050 -0.046397 -514018.000000 0 0 1
-3.695408 -3.324206 -29.934171 30.344044 0.732567 2.977045 0.117954 -0.032728 -1320060.000000 0 0 1
-2.947408 -4.093506 -30.814361 31.224491 0.946760 2.979335 0.138618 -0.039467 -966184.000000 0 0 1
-1.571808 -4.090106 -30.614081 30.926065 1.203901 2.999430 0.156364 -0.036522 -230087.000000 0 0 1
-0.831308 -2.760806 -31.061731 31.195260 1.278321 3.049035 0.150091 -0.036178 629446.000000 0 0 1
0.627192 -2.790206 -30.969211 31.100975 -1.349688 3.049510 0.142024 -0.032026 1756990.000000 0 0 1
1.109092 -1.639606 -31.745061 31.806718 -0.976060 3.079317 0.110369 -0.020544 201490.000000 0 0 1
1.485192 -0.411406 -30.816091 30.854603 -0.270230 3.091624 0.107519 -0.034223 1155320.000000 0 0 1
0.321192 0.210694 -30.169091 30.171537 0.580564 3.128861 0.119580 -0.030447 1190210.000000 0 0 1
0.796192 1.390694 -29.499481 29.542974 1.050832 3.087324 0.147282 -0.048942 65367.900000 0 0 1
-0.230508 1.986494 -28.548861 28.618818 -1.455275 3.071658 0.132696 -0.036652 9358.310000 0 0 1
-1.378808 2.562194 -29.142941 29.287830 -1.077107 3.042082 0.106588 -0.058655 -40200.800000 0 0 1
-1.860708 3.618494 -28.327531 28.618259 -1.095836 2.998932 0.150433 -0.054044 1445730.000000 0 0 1
-3.275108 4.131294 -28.902911 29.379792 -0.900488 2.961173 0.181698 -0.059956 1531930.000000 0 0 1
-3.130308 4.859194 -30.136501 30.685816 -0.998507 2.952094 0.183593 -0.060720 1211600.000000 0 0 1
-4.439608 5.090294 -30.723791 31.457472 -0.853571 2.925194 0.203901 -0.059733 786048.000000 0 0 1
-4.256808 5.629394 -32.186891 32.951577 -0.923355 2.925738 0.205910 -0.054535 191369.000000 0 0 1
-3.786708 4.744594 -33.236361 33.786181 -0.897209 2.960939 0.228830 -0.057402 812628.000000 0 0 1
-2.507408 4.138894 -33.013551 33.366332 -1.026111 2.996048 0.201872 -0.059263 109681.000000 0 0 1
-2.206108 3.249594 33.309652 33.540419 -0.974381 0.117373 0.179888 -0.053066 299984.000000 0 0 1
-3.311308 2.424194 32.885847 33.140918 -0.631943 0.124149 0.170341 -0.064308 447690.000000 0 0 1
-3.183208 1.791094 31.633305 31.843474 -0.512518 0.114955 0.160508 -0.049357 -169360.000000 0 0 1
-3.075008 2.772494 30.437379 30.717689 -0.733710 0.135198 0.150901 -0.041020 599232.000000 0 0 1
-4.199008 3.670194 30.305319 30.814191 -0.718298 0.181988 0.129936 -0.040063 518681.000000 0 0 1
-3.990908 4.608894 29.270829 29.899008 -0.857135 0.205349 0.114470 -0.039476 -34516.400000 0 0 1
-5.147908 5.605094 29.054809 30.034979 -0.827890 0.256177 0.118261 -0.032296 -33923.200000 0 0 1
-5.214508 6.113694 27.712479 28.853940 -0.864608 0.282218 0.113475 -0.019824 79108.700000 0 0 1
-6.311908 7.012094 27.555989 29.126314 -0.837901 0.329866 0.092564 -0.012248 146957.000000 0 0 1
-6.410908 7.733594 26.167549 28.029428 -0.878639 0.366537 0.085168 -0.019291 399832.000000 0 0 1
-5.305908 8.620794 25.924809 27.831034 -1.019074 0.372261 0.096217 -0.017414 466365.000000 0 0 1
-5.615208 9.463794 24.863929 27.190236 -1.035291 0.416666 0.093667 -0.017535 308470.000000 0 0 1
-4.713508 10.746794 24.826669 27.460412 -1.157466 0.441552 0.085685 -0.016463 -319410.000000 0 0 1
-4.847308 11.531494 23.659349 26.762596 -1.172868 0.486349 0.092957 -0.016962 113561.000000 0 0 1
-4.304108 12.851994 23.838699 27.422302 -1.247638 0.516976 0.088162 -0.008382 69913.500000 0 0 1
-2.732608 12.969094 23.677729 27.134837 -1.363132 0.510306 0.070888 -0.003662 1075740.000000 0 0 1
-1.971508 12.374894 24.751699 27.742953 -1.412809 0.468648 0.073314 0.002196 175715.000000 0 0 1
-2.064508 13.079094 25.963849 29.145263 -1.414240 0.471599 0.090714 0.005347 -1037180.000000 0 0 1
-1.157208 12.505494 27.071609 29.842897 -1.478523 0.434365 0.081601 0.003370 153802.000000 0 0 1
0.206692 12.859994 26.985719 29.893999 1.554725 0.444761 0.074012 0.010719 -398295.000000 0 0 1
0.927592 12.408394 28.133019 30.761915 1.496180 0.416426 0.077571 -0.002852 235885.000000 0 0 1
2.425592 12.728194 27.972539 30.827802 1.382486 0.433788 0.082144 -0.002654 -42824.600000 0 0 1
2.846992 14.054794 28.126089 31.570864 1.370937 0.471501 0.075128 0.004158 675918.000000 0 0 1
4.256292 14.207394 27.916039 31.611253 1.279722 0.488358 0.093219 -0.004935 1104980.000000 0 0 1
5.054292 15.475094 28.418389 32.751019 1.255111 0.520220 0.093740 -0.005532 179723.000000 0 0 1
5.095992 15.734894 29.847669 34.123882 1.257591 0.506010 0.101320 0.002612 283476.000000 0 0 1
4.187192 16.706994 30.381439 34.924032 1.325229 0.515737 0.072156 0.003617 154180.000000 0 0 1
4.233292 18.194394 29.756029 35.133716 1.342193 0.560599 0.081378 0.007139 -20067.000000 0 0 1
5.333892 18.942794 30.223809 36.066029 1.296324 0.577164 0.120459 0.001924 31277.400000 0 0 1
5.551592 19.994894 29.234159 35.850411 1.299968 0.617293 0.090056 -0.003740 195117.000000 0 0 1
6.474492 21.123594 29.754519 37.060176 1.273382 0.638702 0.094996 -0.001098 -56082.900000 0 0 1
5.899592 21.859894 30.803209 38.229541 1.307194 0.633866 0.082328 -0.020834 295960.000000 0 0 1
6.862592 22.668594 31.507530 39.416808 1.276832 0.644596 0.071537 -0.023626 403340.000000 0 0 1
7.252792 24.065394 30.910819 39.839991 1.278075 0.682697 0.066467 -0.013103 23465.100000 0 0 1
7.858992 23.946794 29.637149 38.904669 1.253686 0.704726 0.055463 -0.013159 32995.800000 0 0 1
8.027992 25.210994 29.104179 39.333142 1.262516 0.737815 0.059633 -0.017302 56393.500000 0 0 1
8.547892 25.078294 27.646619 38.292595 1.242298 0.764132 0.085182 -0.016006 366918.000000 0 0 1
7.601592 24.400294 26.795189 37.028917 1.268789 0.761751 0.068240 -0.018150 627420.000000 0 0 1
8.181292 24.130894 25.556879 36.088608 1.243920 0.783893 0.080794 -0.022984 -136947.000000 0 0 1
30.691590 2.451194 7.540659 31.699268 0.079696 1.330613 0.198849 0.002168 56799.900000 0 0 1
30.378540 3.560794 8.312559 31.695955 0.116682 1.305434 0.187587 -0.021795 71532.300000 0 0 1
29.044240 3.496994 8.782659 30.543934 0.119826 1.279137 0.165352 -0.010402 -142273.000000 0 0 1
28.759740 4.498594 9.947359 30.762151 0.155163 1.241514 0.146917 -0.025476 -313036.000000 0 0 1
28.601140 5.899294 9.631459 30.750477 0.203408 1.252222 0.164701 -0.028387 683759.000000 0 0 1
29.735140 6.508394 8.983059 31.736935 0.215481 1.283826 0.203994 -0.042455 576744.000000 0 0 1
29.344240 7.931194 8.513559 31.566896 0.263974 1.297716 0.242347 -0.055375 1551990.000000 0 0 1
28.236740 7.962894 7.532259 30.289537 0.274867 1.319484 0.176674 -0.048912 1263760.000000 0 0 1
28.294540 9.170894 6.810859 30.513506 0.313438 1.345692 0.217777 -0.073053 -454146.000000 0 0 1
27.186940 9.345494 5.785659 29.324764 0.331096 1.372197 0.181018 -0.050289 -639460.000000 0 0 1
25.953940 9.742194 6.307859 28.430730 0.359090 1.347067 0.150087 -0.036384 368742.000000 0 0 1
25.019940 9.953494 5.190259 27.422768 0.378628 1.380379 0.184609 -0.042363 175630.000000 0 0 1
23.674640 10.565494 5.499459 26.502118 0.419755 1.361767 0.116041 -0.032570 -886359.000000 0 0 1
23.691240 11.988894 5.728759 27.162973 0.468474 1.358297 0.100365 -0.030565 391267.000000 0 0 1
22.504140 12.534194 6.307759 26.520372 0.508181 1.330649 0.104108 -0.017630 239637.000000 0 0 1
22.599440 14.053394 6.414359 27.374743 0.556329 1.334281 0.096700 -0.008549 -19403.500000 0 0 1
22.147440 14.693594 5.220659 27.086271 0.585768 1.376841 0.091353 -0.025735 354116.000000 0 0 1
22.439940 16.063794 5.251559 28.092263 0.621289 1.382750 0.122234 -0.022114 -222907.000000 0 0 1
21.994140 16.705194 3.896459 27.892437 0.649572 1.430642 0.113800 -0.037826 -114943.000000 0 0 1
20.585440 16.739794 3.907259 26.818794 0.682730 1.424585 0.120210 -0.022001 153577.000000 0 0 1
20.102640 17.598394 2.889159 26.873162 0.719072 1.463077 0.136346 -0.025351 -661762.000000 0 0 1
18.594740 17.627894 2.666959 25.760816 0.758713 1.467083 0.108691 -0.018634 -631577.000000 0 0 1
17.896440 18.242194 3.729359 25.825729 0.794965 1.425885 0.119702 -0.033468 1023760.000000 0 0 1
16.491940 17.964094 3.578659 24.647506 0.828098 1.425088 0.085900 -0.038701 482236.000000 0 1 0
15.564740 19.093794 4.075959 24.968931 0.886872 1.406821 0.124165 -0.042601 -35983.300000 0 1 0
14.231740 18.609594 4.179859 23.797702 0.917920 1.394239 0.126242 -0.046228 105396.000000 0 1 0
13.362440 19.689394 4.060759 24.139527 0.974535 1.401772 0.092247 -0.047873 -953648.000000 0 1 0
11.868840 19.465394 4.033559 23.152548 1.023245 1.395686 0.069923 -0.039643 -571010.000000 0 1 0
11.268440 19.084894 5.264959 22.780050 1.037438 1.337566 0.056526 -0.041838 720797.000000 0 1 0
9.840040 19.030794 5.160159 22.036895 1.093595 1.334442 0.044608 -0.033957 860758.000000 0 1 0
9.155040 18.553594 6.483359 21.681433 1.112412 1.267122 0.031656 -0.025681 -482464.000000 0 1 0
9.242240 19.540994 7.520559 22.887294 1.129008 1.235985 0.051231 -0.027916 -221365.000000 0 1 0
8.607240 19.123694 8.694959 22.702479 1.147874 1.177759 0.054462 -0.010279 -637156.000000 0 1 0
7.582940 20.110894 9.263959 23.404486 1.210224 1.163836 0.058831 -0.004366 -297413.000000 0 1 0
6.522940 20.245794 8.357959 22.853804 1.259110 1.196396 0.045180 -0.013744 -589318.000000 0 1 0
6.624840 21.306394 7.407559 23.510058 1.269341 1.250255 0.050456 -0.018801 -1499280.000000 0 1 0
5.619440 21.466094 6.268959 23.057995 1.314760 1.295452 0.043711 -0.017120 471483.000000 0 1 0
4.246940 21.610794 6.667559 23.011285 1.376750 1.276829 0.044839 -0.020580 816817.000000 0 1 0
3.902840 22.797894 7.369659 24.275254 1.401247 1.262341 0.042526 -0.023940 -778689.000000 0 1 0
3.824540 24.178294 6.581159 25.348149 1.413915 1.308157 0.066426 -0.024590 853465.000000 0 0 1
2.668440 24.216094 5.698359 25.020213 1.461046 1.341030 0.028117 -0.013409 1003730.000000 0 0 1
2.761840 25.306594 4.841259 25.913109 1.462091 1.382865 0.044904 -0.017161 -775872.000000 0 0 1
1.495840 25.672294 4.093059 26.039534 1.512595 1.412955 0.047026 -0.014405 -416557.000000 0 0 1
0.497440 26.175894 5.000359 26.653863 1.551795 1.382075 0.051862 -0.017990 107591.000000 0 0 1
-0.708460 26.290094 4.264659 26.643165 -1.543855 1.410039 0.069434 -0.019399 407232.000000 0 0 1
-1.828560 27.035794 5.065359 27.566930 -1.503264 1.385999 0.092524 -0.024051 296322.000000 0 0 1
-2.923560 27.450194 4.285759 27.936142 -1.464692 1.416775 0.120303 -0.030599 -345107.000000 0 0 1
-3.817460 28.226294 5.031059 28.924180 -1.436367 1.395968 0.132475 -0.043341 -38471.800000 0 0 1
-4.982860 28.666194 4.086459 29.381605 -1.398692 1.431262 0.148920 -0.054063 -18443.200000 0 0 1
-4.476460 29.546594 3.084959 30.042584 -1.420435 1.467929 0.160310 -0.053861 54975.700000 0 0 1
-5.322660 29.899294 1.997059 30.434959 -1.394622 1.505132 0.176125 -0.064384 -430096.000000 0 0 1
-4.527260 30.542094 0.815459 30.886575 -1.423638 1.544392 0.153595 -0.062523 197449.000000 0 0 1
-3.905360 31.765394 1.254659 32.029147 -1.448466 1.531614 0.157173 -0.060730 1176040.000000 0 0 1
-2.601760 31.609194 1.867959 31.771049 -1.488671 1.511968 0.171071 -0.056792 892690.000000 0 0 1
-1.662360 32.883294 1.732459 32.970833 -1.520286 1.518227 0.167553 -0.064271 -659427.000000 0 0 1
-1.206360 33.154794 0.469359 33.180053 -1.534427 1.556650 0.118147 -0.057480 -238230.000000 0 0 1
-0.261760 -33.509097 0.467359 33.513378 1.562985 1.556850 0.110834 -0.052494 302947.000000 0 0 1
1.163940 -33.729197 1.033159 33.765084 -1.536302 1.540193 0.074907 -0.043850 -562047.000000 0 0 1
1.151540 -33.588197 2.463159 33.698073 -1.536526 1.497636 0.079547 -0.047800 -765440.000000 0 0 1
2.350440 33.809994 3.090059 34.032171 1.501389 1.479873 0.045985 -0.038570 -661184.000000 0 0 1
2.274840 -33.587297 4.591059 33.975862 -1.503170 1.435255 0.041756 -0.041321 -350229.000000 0 0 1
1.150040 33.483394 5.136259 33.894563 1.536463 1.418674 0.107287 -0.056689 -213517.000000 0 0 1
0.602840 -33.729897 6.353859 34.328427 -1.552926 1.384633 0.119581 -0.038089 264719.000000 0 0 1
1.467340 33.635894 7.627359 34.521052 1.527200 1.348010 0.083737 -0.030155 44596.300000 0 0 1
1.543140 32.266494 8.027659 33.285901 1.523008 1.327222 0.094996 -0.032472 138326.000000 0 0 1
2.364440 32.241994 9.173159 33.604815 1.497593 1.294316 0.108670 -0.029946 198492.000000 0 0 1
3.178540 30.928594 9.492059 32.508156 1.468386 1.274489 0.099879 -0.028500 546235.000000 0 0 1
2.394740 29.895394 10.073159 31.637602 1.490863 1.246764 0.125863 -0.029861 287884.000000 0 0 1
3.191640 28.743294 10.242859 30.680281 1.460210 1.230403 0.087616 -0.031422 30463.300000 0 0 1
2.614740 27.715794 11.283559 30.038655 1.476734 1.185715 0.083989 -0.027238 -153353.000000 0 0 1
3.218340 27.918794 12.564659 30.784532 1.456028 1.150371 0.095703 -0.033745 133732.000000 0 0 1
2.906840 26.939794 13.520059 30.281912 1.463311 1.107976 0.105547 -0.024509 113946.000000 0 0 1
1.428640 26.655594 13.929459 30.109658 1.517251 1.089843 0.091539 -0.024823 473432.000000 0 0 1
0.668040 27.692594 14.534559 31.282254 1.546678 1.087584 0.106721 -0.024472 260439.000000 0 0 1
0.189040 28.748494 13.739259 31.863441 1.564221 1.124983 0.129471 -0.030902 -572139.000000 0 0 1
-0.630060 29.847094 14.428859 33.157773 -1.549690 1.120583 0.146107 -0.027095 -234746.000000 0 0 1
-1.900760 29.404394 14.815359 32.980693 -1.506244 1.104912 0.125327 -0.028959 -434896.000000 0 0 1
-2.583960 30.502594 15.403959 34.269039 -1.486285 1.104590 0.142422 -0.029871 -418257.000000 0 0 1
-4.014260 30.390694 15.898159 34.532014 -1.439468 1.092363 0.121238 -0.022581 -546298.000000 0 0 1
-4.941760 29.975994 14.915259 33.844440 -1.407409 1.114418 0.100990 -0.026470 80477.100000 0 0 1
-6.093560 29.603894 15.665559 34.043086 -1.367795 1.092611 0.088898 -0.024195 -390676.000000 0 0 1
-7.300860 29.092294 14.870759 33.478405 -1.324919 1.110527 0.070765 -0.023736 485930.000000 0 0 1
-8.355560 28.669194 15.764159 33.767540 -1.287204 1.085078 0.067190 -0.023437 237233.000000 0 0 1
-9.449660 28.097994 15.090959 33.264551 -1.246368 1.099923 0.071892 -0.023224 591334.000000 0 0 1
-10.579760 27.689994 16.139659 33.751380 -1.205834 1.072201 0.065056 -0.021993 480099.000000 0 0 1
-11.133360 28.859994 16.690459 35.148575 -1.202616 1.075998 0.057438 -0.028584 -183303.000000 0 0 1
-11.693560 28.704894 17.947259 35.816398 -1.183951 1.045938 0.073721 -0.024296 -483379.000000 0 0 1
-12.442060 29.921794 18.488259 37.308636 -1.176727 1.052329 0.074753 -0.025360 -1182220.000000 0 0 1
-13.691160 30.079794 17.886959 37.579052 -1.143658 1.074716 0.081748 -0.020282 -599898.000000 0 0 1
-14.409360 31.140094 18.436659 38.951835 -1.137409 1.077741 0.077657 -0.026967 -28322.500000 0 0 1
-15.414160 30.612094 19.481259 39.423547 -1.104327 1.053936 0.076227 -0.024548 -408282.000000 0 0 1
-14.816060 30.402694 20.760159 39.684047 -1.117338 1.020270 0.071685 -0.022901 -98857.600000 0 0 1
-15.797860 30.174994 21.720859 40.396761 -1.088493 1.003104 0.078424 -0.022518 -168837.000000 0 0 1
-15.292260 30.148194 23.181859 40.989820 -1.101376 0.969694 0.066275 -0.011201 -590850.000000 0 0 1
-14.273060 29.225994 23.482259 40.116025 -1.116497 0.945474 0.061196 -0.011340 180909.000000 0 0 1
-13.817060 29.149894 24.791459 40.684688 -1.128164 0.915548 0.063906 -0.000973 118860.000000 0 0 1
-13.301160 30.462794 25.475659 41.879731 -1.159111 0.916873 0.055477 0.004988 -730949.000000 0 0 1
-14.371060 31.274794 25.894059 43.071364 -1.140063 0.925807 0.062899 -0.001076 -36452.400000 0 0 1
-14.050260 32.553794 26.420359 44.217583 -1.163348 0.930407 0.069179 -0.001444 134734.000000 0 0 1
-15.272760 33.310194 27.049559 45.546732 -1.140895 0.934916 0.091241 -0.009120 409718.000000 0 0 1
-15.833160 32.808494 28.285159 46.120889 -1.121171 0.910586 0.063546 -0.010596 -542642.000000 0 0 1
-15.010960 32.741294 29.364059 46.471165 -1.140920 0.886824 0.074958 0.000225 -1017870.000000 0 0 1
-15.552060 31.962794 30.655359 46.938660 -1.117952 0.859133 0.071248 -0.003298 319661.000000 0 0 1
-16.741460 32.622094 31.102659 48.081731 -1.096649 0.867323 0.065240 -0.010647 349961.000000 0 0 1
-17.421260 31.968194 32.189159 48.596375 -1.071834 0.846808 0.055557 -0.009447 -122474.000000 0 0 1
-18.911760 32.271994 32.192559 49.350756 -1.040726 0.860153 0.058742 -0.009951 -487866.000000 0 0 1
-19.121360 33.658994 32.476759 50.530131 -1.054170 0.872752 0.069548 -0.009465 -123617.000000 0 0 1
-20.501660 -33.733997 32.412559 51.077143 1.024702 0.883331 0.071143 -0.005214 21443.400000 0 0 1
-20.669460 -32.161397 32.709259 50.313792 0.999585 0.863073 0.074073 -0.012838 -225148.000000 0 0 1
-20.475960 -31.683597 -33.525341 50.468443 0.997052 2.297331 0.078458 -0.012321 206712.000000 0 0 1
-21.551960 -32.044597 -32.662641 50.578566 0.978724 2.272841 0.073004 -0.013176 286160.000000 0 0 1
-21.483060 -31.264397 -31.272541 49.162549 0.968753 2.260236 0.080197 -0.016421 -26689.000000 0 0 1
-21.564260 -29.871397 -31.334941 48.365238 0.945521 2.275596 0.089725 -0.013035 172849.000000 0 0 1
-20.882560 -29.289197 -30.241441 46.994501 0.951413 2.269872 0.077367 -0.004739 173565.000000 0 0 1
-21.074860 -27.726797 -30.335341 46.186123 0.920869 2.287372 0.091844 -0.018335 -550426.000000 0 0 1
-22.373360 -27.401397 -29.985541 46.373877 0.886072 2.273921 0.092659 -0.011227 -803100.000000 0 0 1
-22.664460 -26.036897 -29.926641 45.685902 0.854535 2.285048 0.089119 -0.013871 473594.000000 0 0 1
-24.014360 -25.753497 -29.189541 45.737965 0.820329 2.262942 0.087643 -0.015520 416687.000000 0 0 1
-23.998760 -25.805897 -27.748741 44.853957 0.821667 2.237815 0.078905 -0.015461 44148.100000 0 0 1
-23.414360 -24.673097 -27.121341 43.503576 0.811568 2.243916 0.087146 -0.014643 -413442.000000 0 0 1
-23.153560 -24.850197 -25.614241 42.540675 0.820727 2.216940 0.077890 -0.013047 -929916.000000 0 0 1
-24.310960 -24.884397 -24.889541 42.775522 0.797054 2.191815 0.072137 -0.016135 -745027.000000 0 0 1
-24.107460 -25.562397 -23.620541 42.338348 0.814682 2.162649 0.073435 -0.006848 -883472.000000 0 0 1
-25.273160 -25.252897 -22.688841 42.322866 0.784997 2.136594 0.068382 -0.005943 -48227.800000 0 0 1
-26.469260 -25.988597 -22.859741 43.572889 0.776236 2.123079 0.077095 -0.009084 -174576.000000 0 0 1
-26.402760 -27.399097 -22.743241 44.329125 0.803915 2.109535 0.076457 -0.005444 -1694040.000000 0 0 1
-27.739660 -28.174897 -22.780341 45.631760 0.793182 2.093496 0.065869 -0.006392 768301.000000 0 0 1
-28.656260 -27.888997 -21.696841 45.494289 0.771830 2.067936 0.069966 0.003579 691942.000000 0 0 1
-29.482660 -26.745297 -21.956541 45.460179 0.736753 2.074856 0.059092 0.001272 117896.000000 0 0 1
-30.239160 -26.101097 -20.729041 45.004080 0.712082 2.049471 0.064938 0.010326 -21629.000000 0 0 1
-31.142360 -26.941597 -20.115141 45.829195 0.713202 2.025188 0.081834 0.013769 -275216.000000 0 0 1
-31.551860 -26.489497 -18.882541 45.318470 0.698398 2.000568 0.083809 0.017475 -372808.000000 0 0 1
-32.303060 -27.524397 -17.960241 46.083081 0.705693 1.971141 0.064589 0.010813 762667.000000 0 0 1
-33.484360 -28.162697 -18.464041 47.489585 0.699287 1.970127 0.063805 0.019421 1394660.000000 0 0 1
-34.649160 -27.396697 -18.809541 48.009813 0.669037 1.973368 0.051225 0.022523 579328.000000 0 0 1
-35.528560 -26.941397 -17.606641 47.938620 0.648794 1.946874 0.063388 0.023591 -490683.000000 0 0 1
-35.098060 -25.714397 -17.090241 46.745913 0.632301 1.945072 0.057422 0.030126 521199.000000 0 0 1
-35.771360 -25.227597 -15.879441 46.563704 0.614238 1.918805 0.058626 0.021625 200552.000000 0 0 1
-35.285360 -25.838397 -14.548341 46.090494 0.632057 1.891935 0.078661 0.023683 3219.180000 0 0 1
-35.601660 -27.227397 -14.394441 47.074508 0.652893 1.881554 0.076045 0.009993 398250.000000 0 0 1
-35.152360 -27.624897 -13.084641 46.583594 0.666060 1.855513 0.077212 0.001408 -153090.000000 0 0 1
-35.681160 -28.979597 -12.695941 47.688040 0.682125 1.840275 0.102932 -0.005310 -276005.000000 0 0 1
-35.521160 -30.059397 -13.592341 48.477540 0.702307 1.854991 0.091993 0.000188 344416.000000 0 0 1
-36.027460 -31.294397 -13.065541 49.477526 0.715209 1.838036 0.065053 -0.010388 -161244.000000 0 0 1
-35.542960 -32.384797 -14.019941 50.086284 0.738939 1.854503 0.062755 -0.005024 173828.000000 0 0 1
-34.210660 -32.875697 -13.896341 49.439751 0.765502 1.855712 0.043878 0.000489 353911.000000 0 0 1
-33.765260 -33.494597 -15.069741 49.890660 0.781374 1.877644 0.084177 -0.029480 312929.000000 0 0 1
-32.246960 -33.819597 -15.132441 49.118452 0.809197 1.883971 0.072786 -0.018134 305733.000000 0 0 1
-31.834760 33.390294 -16.399941 48.962452 -0.809242 1.912348 0.093679 -0.022994 -750551.000000 0 0 1
-30.539960 32.887994 -16.287441 47.745053 -0.822400 1.918919 0.096545 -0.024057 -630752.000000 0 0 1
10.049692 19.039194 -9.090541 23.369320 1.085124 1.970336 0.114975 -0.048401 -490203.000000 0 1 0
8.661792 19.364394 -9.090241 23.078970 1.150186 1.975640 0.093625 -0.040178 486716.000000 0 1 0
8.191292 19.796694 -10.340341 23.789262 1.178475 2.020462 0.093938 -0.034972 77860.500000 0 1 0
7.972392 18.673494 -11.432141 23.301336 1.167287 2.083599 0.088503 -0.026668 580925.000000 0 1 0
9.208792 18.056694 -11.905641 23.507240 1.099186 2.101879 0.111187 -0.039893 904430.000000 0 1 0
9.043992 16.936394 -12.766941 23.057103 1.080322 2.157609 0.098721 -0.042959 -245624.000000 0 1 0
10.367892 16.393194 -13.363341 23.554381 1.006857 2.174068 0.118715 -0.045309 94240.200000 0 1 0
10.311992 15.244994 -14.186741 23.238129 0.976073 2.227481 0.129030 -0.051107 -454559.000000 0 1 0
11.562092 15.079494 -14.780641 24.073646 0.916666 2.231884 0.163006 -0.058741 -548746.000000 0 1 0
11.655792 13.881994 -15.785341 24.036310 0.872351 2.287269 0.154265 -0.047557 -466348.000000 0 1 0
11.595292 12.581194 -15.208541 22.891853 0.826155 2.297440 0.152835 -0.033491 203436.000000 0 1 0
12.705592 12.160894 -14.456941 22.766698 0.763497 2.258810 0.181876 -0.039417 -720109.000000 0 1 0
13.838192 11.512494 -15.209441 23.566081 0.693913 2.272337 0.192178 -0.044804 -753666.000000 0 1 0
14.410692 12.381994 -16.127241 24.921270 0.709824 2.274607 0.156967 -0.039911 -64042.100000 0 1 0
15.412792 11.709594 -16.873241 25.678298 0.649701 2.287763 0.153652 -0.039756 251388.000000 0 0 1
16.210892 12.562294 -17.896541 27.219302 0.659266 2.288285 0.114160 -0.030547 385055.000000 0 0 1
17.263192 13.373594 -17.411541 27.929063 0.659115 2.243906 0.088388 -0.024759 73294.900000 0 0 1
17.974892 14.029194 -18.432741 29.320316 0.662730 2.250635 0.047044 -0.010854 323595.000000 0 0 1
19.130092 14.927794 -17.868141 30.134198 0.662632 2.205517 0.058199 -0.011015 70039.900000 0 0 1
18.743992 16.180894 -17.286341 30.198942 0.712141 2.180245 0.066706 -0.017765 454804.000000 0 0 1
18.161992 17.115194 -18.240841 30.911423 0.755733 2.201979 0.064972 -0.014709 -62413.700000 0 0 1
18.015292 18.533994 -17.627441 31.285561 0.799589 2.169336 0.069453 -0.012432 550183.000000 0 0 1
19.213292 19.288994 -17.367741 32.293254 0.787364 2.138638 0.084835 -0.018752 648943.000000 0 0 1
18.800992 20.580594 -16.921641 32.609509 0.830556 2.116380 0.072808 -0.010281 754854.000000 0 0 1
19.798192 21.784294 -17.227241 34.107208 0.833125 2.100284 0.088171 -0.016102 621899.000000 0 0 1
21.022792 21.942594 -16.552641 34.603831 0.806803 2.069568 0.103730 -0.020343 -118630.000000 0 0 1
20.869392 22.578294 -15.270841 34.329425 0.824710 2.031783 0.101417 -0.015970 -192028.000000 0 0 1
22.239792 23.078194 -14.822541 35.311741 0.803896 2.003980 0.092431 -0.024824 -249387.000000 0 0 1
23.161192 22.143794 -14.343341 35.107262 0.762945 1.991670 0.101989 -0.025892 43015.000000 0 0 1
24.217392 22.793594 -13.630441 35.941882 0.755121 1.959766 0.078481 -0.023046 742310.000000 0 0 1
25.680592 22.309394 -13.884641 36.742143 0.715265 1.958317 0.076221 -0.016026 468474.000000 0 0 1
26.073492 22.760894 -15.157341 37.783994 0.717669 1.983577 0.107017 -0.017654 -686087.000000 0 0 1
27.251392 23.473894 -15.188741 39.043052 0.711066 1.970370 0.088121 -0.009445 -887937.000000 0 0 1
27.688392 23.919794 -16.597141 40.177962 0.712504 1.996642 0.111742 -0.017589 -190660.000000 0 0 1
28.308692 22.901394 -17.338841 40.329781 0.680197 2.015208 0.115478 -0.028525 50430.600000 0 0 1
28.372792 23.195094 -18.699441 41.142396 0.685328 2.042613 0.107387 -0.029068 -415205.000000 0 0 1
29.147892 22.195094 -19.589941 41.545006 0.650798 2.061827 0.109650 -0.035959 -191180.000000 0 0 1
30.528692 22.208794 -19.314041 42.405939 0.628927 2.043681 0.110103 -0.023866 -645582.000000 0 0 1
31.054492 21.445494 -20.404841 42.902776 0.604373 2.066450 0.121891 -0.030717 -129468.000000 0 0 1
32.571892 21.677494 -20.575641 44.206321 0.587214 2.054934 0.130116 -0.026868 -200976.000000 0 0 1
32.904492 22.955894 -21.025941 45.296455 0.609149 2.053511 0.112172 -0.018691 -236306.000000 0 0 1
34.286192 23.202994 -20.923241 46.386462 0.594947 2.038753 0.089220 -0.014093 -61320.900000 0 0 1
34.702392 24.540294 -21.528041 47.643872 0.615518 2.039638 0.077815 -0.008882 -140108.000000 0 0 1
34.667792 24.623894 -22.951141 48.321287 0.617593 2.065726 0.085659 -0.012895 477748.000000 0 0 1
33.369392 24.633594 -23.537541 47.690104 0.635912 2.086965 0.099989 -0.022339 -3892.720000 0 0 1
33.421692 24.855694 -25.022441 48.589480 0.639457 2.111777 0.105300 -0.028204 -73043.200000 0 0 1
33.187292 26.252294 -25.384371 49.345167 0.669250 2.111133 0.107708 -0.024288 -7396.150000 0 0 1
31.818392 26.541494 -25.617231 48.714510 0.695223 2.124527 0.097236 -0.020993 287895.000000 0 0 1
31.304992 26.306794 -27.048971 49.027510 0.698858 2.155210 0.106056 -0.022133 -177621.000000 0 0 1
30.959092 24.958194 -27.295481 48.232977 0.678490 2.172332 0.105373 -0.039019 -133065.000000 0 0 1
30.714992 24.786994 -28.651431 48.772023 0.678995 2.198708 0.109834 -0.042129 -220909.000000 0 0 1
30.059592 23.416394 -28.979201 47.871710 0.661804 2.221003 0.111347 -0.053291 926188.000000 0 0 1
28.661692 23.465094 -28.637121 46.820806 0.686035 2.228919 0.108408 -0.045545 750794.000000 0 0 1
28.003392 22.269594 -29.077741 46.104661 0.671836 2.253238 0.116481 -0.059434 708247.000000 0 0 1
26.448192 22.378794 -28.910861 45.123776 0.702247 2.266208 0.110956 -0.045793 561515.000000 0 0 1
26.200892 22.396894 -27.529111 44.113031 0.707282 2.244722 0.120532 -0.028046 -46894.100000 0 0 1
24.846092 22.648894 -27.251351 43.277440 0.739169 2.251950 0.104713 -0.029452 -254358.000000 0 0 1
24.626192 22.855194 -25.711091 42.306848 0.748117 2.223994 0.118890 -0.029867 -377160.000000 0 0 1
24.915992 21.706994 -24.991741 41.431719 0.716678 2.218307 0.119019 -0.037396 312462.000000 0 0 1
25.203892 22.005594 -23.625241 40.958935 0.717755 2.185606 0.128160 -0.032653 -385241.000000 0 0 1
25.798792 20.911394 -22.729841 40.243132 0.681145 2.171003 0.125110 -0.029754 -113877.000000 0 0 1
27.172892 20.745894 -23.037241 41.224660 0.652071 2.163761 0.127239 -0.035993 195475.000000 0 0 1
27.822192 19.898294 -22.125941 40.737866 0.620851 2.144956 0.147782 -0.041893 -533303.000000 0 0 1
29.158692 19.528494 -22.754341 41.825248 0.590121 2.146033 0.165825 -0.043983 -287562.000000 0 0 1
30.049192 18.716894 -21.969741 41.664680 0.557070 2.126215 0.150487 -0.032542 696497.000000 0 0 1
31.231092 18.407494 -22.717141 42.781835 0.532586 2.130576 0.130235 -0.022708 124602.000000 0 0 1
32.307892 17.737494 -21.887941 42.866076 0.502086 2.106693 0.103144 -0.012088 155710.000000 0 0 1
33.179592 18.675294 -21.229441 43.592901 0.512659 2.079440 0.091889 -0.014508 -161184.000000 0 0 1
34.374092 18.136294 -20.756641 44.060657 0.485495 2.061325 0.086040 -0.015317 -179587.000000 0 0 1
35.053592 19.157294 -19.789941 44.580242 0.500163 2.030762 0.056593 -0.027101 -7752.360000 0 0 1
34.371492 19.187094 -18.561341 43.520884 0.509138 2.011408 0.080988 -0.034077 246367.000000 0 0 1
34.800992 20.333794 -17.833241 44.074898 0.528786 1.987351 0.064441 -0.030625 278422.000000 0 0 1
34.331092 20.340794 -16.313241 43.110249 0.534878 1.958872 0.075492 -0.035814 255197.000000 0 0 1
35.026092 19.386894 -15.546441 42.946136 0.505525 1.941207 0.075449 -0.035999 627750.000000 0 0 1
34.456292 19.400194 -14.220141 42.021613 0.512798 1.916013 0.083395 -0.037772 154336.000000 0 0 1
34.976292 18.158994 -13.435241 41.636471 0.478874 1.899356 0.083425 -0.029837 980262.000000 0 0 1
36.397892 18.296794 -13.181041 42.817275 0.465796 1.883722 0.049425 -0.024146 1320070.000000 0 0 1
36.946492 17.366094 -12.270741 42.628576 0.439388 1.862780 0.032915 -0.012063 -67843.000000 0 0 1
36.684492 17.696694 -10.799841 42.137412 0.449471 1.829989 0.054452 -0.017412 -490893.000000 0 0 1
37.455592 18.809894 -10.360341 43.174878 0.465400 1.813123 0.041003 -0.002391 86140.100000 0 0 1
36.944992 19.494494 -9.236141 42.781701 0.485532 1.788400 0.032074 -0.000190 26624.000000 0 0 1
35.682792 20.383994 -9.433441 42.163475 0.519016 1.796441 0.033752 -0.000071 558391.000000 0 0 1
34.454192 19.669994 -9.578441 40.813558 0.518750 1.807694 0.057571 -0.024403 -368606.000000 0 0 1
33.446392 20.639594 -9.665741 40.473207 0.552894 1.811945 0.042549 -0.007457 181832.000000 0 0 1
32.054292 19.940394 -9.837541 39.011205 0.556498 1.825721 0.035211 -0.015166 427840.000000 0 0 1
31.977692 19.430394 -11.161041 39.047174 0.546006 1.860674 0.062486 -0.027769 170806.000000 0 0 1
30.689992 18.963994 -11.542741 37.878008 0.553493 1.880456 0.058011 -0.031736 176543.000000 0 0 1
30.607892 18.218594 -12.884141 37.878243 0.536901 1.917869 0.091416 -0.031125 -91473.100000 0 0 1
31.251492 16.953094 -12.973541 37.846742 0.497046 1.920683 0.094296 -0.036095 334863.000000 0 0 1
31.033492 16.414594 -14.273941 37.898046 0.486524 1.956963 0.096877 -0.031874 -514528.000000 0 0 1
32.374892 15.944094 -14.793941 39.002672 0.457616 1.959842 0.106044 -0.036539 -555328.000000 0 0 1
32.984992 14.912894 -14.041441 38.827389 0.424608 1.940820 0.092824 -0.033109 -937575.000000 0 0 1
34.268592 14.688094 -14.478841 39.996416 0.404930 1.941213 0.097336 -0.034780 -1038170.000000 0 0 1
35.071092 13.686394 -13.678241 40.054876 0.372071 1.919295 0.081357 -0.046125 -354405.000000 0 0 1
35.835892 14.122594 -12.595941 40.525504 0.375402 1.886847 0.064638 -0.029236 -246095.000000 0 0 1
36.492792 12.995494 -12.055841 40.570309 0.342109 1.872512 0.055000 -0.014499 640974.000000 0 0 1
37.616992 13.438994 -11.018041 41.437203 0.343127 1.839931 0.080476 -0.010930 697986.000000 0 0 1
-36.994657 14.201094 -11.621441 41.295685 -0.366523 1.856070 0.061984 -0.018588 5700.830000 0 0 1
-36.098257 14.626594 -10.578841 40.360045 -0.384971 1.836006 0.056160 -0.001404 -852789.000000 0 0 1
-34.687357 14.864894 -11.123641 39.343528 -0.404865 1.857437 0.086917 -0.017839 -290536.000000 0 0 1
-33.981957 13.742294 -11.639041 38.458956 -0.384293 1.878253 0.111156 -0.016181 224467.000000 0 0 1
-33.635257 12.774794 -10.654741 37.523984 -0.362975 1.858702 0.125419 -0.006397 -134700.000000 0 0 1
-32.497557 11.773194 -11.127241 36.311359 -0.347572 1.882247 0.175473 -0.012216 642347.000000 0 0 1
-32.910757 10.851494 -12.155841 36.723797 -0.318499 1.908167 0.144800 -0.010367 -439014.000000 0 0 1
-32.065557 9.784594 -12.193641 35.673843 -0.296169 1.919638 0.214943 -0.025062 -825984.000000 0 0 1
-32.102957 8.950494 -13.465841 35.944958 -0.271901 1.954787 0.206672 -0.034635 435668.000000 0 0 1
-33.372657 8.424194 -13.874741 37.110776 -0.247263 1.953978 0.165848 -0.039635 673013.000000 0 0 1
-33.174957 7.418494 -14.823241 37.085580 -0.219998 1.981990 0.180165 -0.046921 452232.000000 0 0 1
-34.460957 6.888194 -15.542441 38.426192 -0.197284 1.987201 0.181879 -0.045726 247613.000000 0 0 1
-35.388457 6.123494 -14.827441 38.854769 -0.171340 1.962336 0.185825 -0.050009 -31364.500000 0 0 1
-36.142057 5.283494 -15.640341 39.733913 -0.145159 1.975370 0.126116 -0.054147 -774821.000000 0 0 1
-37.490457 4.938294 -15.028841 40.691365 -0.130967 1.949092 0.110923 -0.050507 -457067.000000 0 0 1
37.382592 3.975394 -15.735341 40.753685 0.105945 1.967205 0.122523 -0.044627 240705.000000 0 0 1
36.236692 3.574894 -15.007641 39.384095 0.098336 1.961737 0.139213 -0.036907 -22311.100000 0 0 1
35.534192 2.320194 -15.520641 38.845236 0.065202 1.981823 0.141877 -0.029911 -69698.900000 0 0 1
36.318392 1.113994 -15.518041 39.510456 0.030663 1.974425 0.151557 -0.036222 321238.000000 0 0 1
35.544692 -0.055706 -15.227941 38.669347 -0.001567 1.975557 0.141439 -0.044509 380240.000000 0 0 1
35.173292 -0.177206 -13.726941 37.757393 -0.005038 1.942879 0.143085 -0.049900 -185685.000000 0 0 1
36.343792 -0.413106 -12.992841 38.598650 -0.011366 1.914115 0.174545 -0.046143 64419.600000 0 0 1
36.220192 -0.265306 -11.568141 38.023605 -0.007325 1.879932 0.166085 -0.043998 -523397.000000 0 0 1
36.004692 1.186094 -10.973441 37.658479 0.032931 1.866480 0.149627 -0.036952 621219.000000 0 0 1
34.789292 1.881494 -11.265341 36.616154 0.054030 1.883530 0.138389 -0.026019 905603.000000 0 0 1
35.066592 3.142694 -10.785541 36.822144 0.089382 1.868064 0.131518 -0.026208 439107.000000 0 0 1
33.960292 4.199494 -11.149341 35.989512 0.123034 1.885773 0.127767 -0.027643 208498.000000 0 0 1
33.904292 4.443994 -12.510541 36.411038 0.130332 1.921535 0.116837 -0.026438 459524.000000 0 0 1
32.805392 5.259094 -12.882141 35.634272 0.158959 1.940683 0.117356 -0.025919 -187513.000000 0 0 1
32.884292 5.998194 -14.201441 36.318534 0.180420 1.972541 0.075217 -0.020092 -448230.000000 0 0 1
32.810692 5.252594 -15.334941 36.596334 0.158741 2.003172 0.061605 -0.011584 183072.000000 0 0 1
33.133392 6.054594 -16.477641 37.496565 0.180740 2.025776 0.058912 -0.009972 -757176.000000 0 0 1
32.050992 7.046294 -16.995041 36.956024 0.216404 2.048647 0.084276 -0.016640 324398.000000 0 0 1
30.929192 6.536894 -17.701541 36.231070 0.208285 2.081250 0.063969 -0.011830 -320338.000000 0 0 1
30.006392 5.945194 -16.886741 34.941249 0.195598 2.075205 0.060032 -0.005518 -1329840.000000 0 0 1
28.585492 5.956394 -17.527441 34.056132 0.205432 2.111411 0.063804 -0.011780 114985.000000 0 0 1
28.472292 5.032194 -18.620641 34.390735 0.174933 2.142949 0.067540 -0.012561 82697.000000 0 0 1
27.599792 5.436194 -19.653541 34.315629 0.194476 2.180627 0.068516 -0.012718 -15394.400000 0 0 1
27.038192 4.155494 -20.385241 34.115832 0.152497 2.211214 0.059560 -0.004097 -193643.000000 0 0 1
26.247392 3.384194 -19.525041 32.887772 0.128227 2.206429 0.064498 -0.011174 -50064.400000 0 0 1
25.611092 2.353494 -20.224441 32.718419 0.091636 2.237166 0.075628 -0.014700 572781.000000 0 0 1
24.482592 1.589494 -19.392341 31.272779 0.064832 2.239670 0.081746 -0.012833 -366627.000000 0 0 1
23.328092 2.310894 -19.280941 30.352838 0.098738 2.259099 0.086657 -0.026379 -1196780.000000 0 0 1
22.376692 1.564294 -18.550941 29.108431 0.069794 2.261792 0.103948 -0.034402 -618991.000000 0 0 1
21.057892 2.308994 -18.489741 28.118264 0.109213 2.288386 0.127126 -0.048733 -1946650.000000 0 0 1
20.368092 2.347694 -19.735641 28.458151 0.114757 2.337128 0.125594 -0.035145 1166550.000000 0 0 1
19.037592 2.901394 -19.682241 27.536133 0.151240 2.367104 0.128457 -0.031376 1393230.000000 0 0 1
17.953292 2.241994 -18.778941 26.076730 0.124236 2.374803 0.180008 -0.042652 -878632.000000 0 0 1
18.266192 2.321894 -17.393041 25.329090 0.126436 2.327712 0.183360 -0.044951 -443041.000000 0 0 1
17.220892 1.753594 -16.654241 24.020782 0.101480 2.336891 0.164590 -0.034278 -250229.000000 0 1 0
16.164392 2.770994 -16.222941 23.068372 0.169776 2.350762 0.160553 -0.031022 -103795.000000 0 1 0
15.352992 3.187594 -17.338541 23.377342 0.204712 2.406370 0.142133 -0.022334 373575.000000 0 1 0
14.385992 4.164794 -16.955541 22.622834 0.281799 2.418085 0.149707 -0.028386 235257.000000 0 1 0
-20.683708 -21.888306 -16.756941 34.463152 0.813686 2.078564 0.109362 -0.027707 -51553.000000 0 0 1
-20.544108 -22.585006 -18.002241 35.443245 0.832684 2.103562 0.108099 -0.027168 266818.000000 0 0 1
-21.470508 -22.192006 -18.993741 36.252312 0.801921 2.122257 0.106500 -0.013740 -68100.700000 0 0 1
-21.164208 -22.980206 -20.267541 37.239587 0.826513 2.146288 0.081141 -0.010847 -81615.300000 0 0 1
-21.292008 -24.391106 -20.162841 38.142049 0.853133 2.127776 0.070049 -0.011827 245884.000000 0 0 1
-20.881008 -24.969326 -21.379141 38.942926 0.874330 2.151948 0.061132 -0.016111 -53693.200000 0 0 1
-20.721508 -26.487016 -21.190841 39.749147 0.906925 2.133074 0.061163 -0.000406 -895851.000000 0 0 1
-21.942208 -27.122696 -21.310041 40.880546 0.890593 2.119142 0.067268 0.012550 -608616.000000 0 0 1
-21.898908 -28.495826 -21.166741 41.708575 0.915563 2.103067 0.088946 -0.015099 103453.000000 0 0 1
-23.309708 -29.089276 -21.454441 43.009552 0.895253 2.093044 0.084254 -0.016138 488642.000000 0 0 1
-23.833208 -29.044546 -22.792041 43.944108 0.883635 2.116079 0.057988 -0.014731 -22431.100000 0 0 1
-23.147108 -29.875236 -23.702741 44.610966 0.911616 2.130955 0.053194 -0.015732 -513075.000000 0 0 1
-23.487508 -29.294176 -25.088841 45.158186 0.894970 2.159853 0.051765 -0.009603 1297340.000000 0 0 1
-24.894408 -29.483866 -25.409631 46.202590 0.869597 2.153114 0.057688 -0.006842 1272520.000000 0 0 1
-25.336308 -28.744686 -26.468061 46.569773 0.848339 2.175299 0.053844 -0.007654 -164482.000000 0 0 1
-24.727508 -29.082306 -27.899181 47.282074 0.866152 2.201927 0.066605 -0.016249 -300291.000000 0 0 1
-25.163258 -30.266776 -28.564321 48.633196 0.877211 2.198567 0.054717 -0.005352 206193.000000 0 0 1
-24.878508 -30.302196 -29.980211 49.355611 0.883373 2.223621 0.093946 -0.008878 124141.000000 0 0 1
-25.433588 -31.658996 -30.547961 50.816704 0.894010 2.215723 0.064108 -0.009815 209660.000000 0 0 1
-24.574008 -32.736886 -30.299201 50.927667 0.926878 2.207995 0.057247 -0.014674 13214.000000 0 0 1
-25.292168 33.767844 -30.636121 52.139553 -0.927935 2.198860 0.060157 -0.017633 306874.000000 0 0 1
-24.479208 32.441282 -30.655161 50.905867 -0.924377 2.217042 0.071071 -0.015431 -114027.000000 0 0 1
-23.723708 32.264925 -31.815091 51.147236 -0.936784 2.242128 0.084655 -0.029528 -481117.000000 0 0 1
-22.974508 31.077104 -31.685911 49.976108 -0.934195 2.257538 0.090251 -0.026856 -671854.000000 0 0 1
-21.848508 31.097964 -32.714351 50.146480 -0.958347 2.281511 0.083984 -0.020634 -676545.000000 0 0 1
-22.079808 30.847784 33.538539 50.635337 -0.949567 0.846839 0.077800 -0.015205 -176049.000000 0 0 1
-21.827208 29.541104 33.043334 49.406131 -0.934453 0.838189 0.068756 -0.011874 -67447.100000 0 0 1
-22.020008 29.447694 31.539832 48.443869 -0.928726 0.861817 0.070882 -0.010491 -335316.000000 0 0 1
-21.106408 30.173284 30.765319 47.983460 -0.960402 0.874781 0.063996 -0.006008 -39274.000000 0 0 1
-21.455008 30.335884 29.386139 47.372232 -0.955222 0.901640 0.071588 -0.005874 -295418.000000 0 0 1
-20.908508 31.603804 28.763839 47.574411 -0.986322 0.921523 0.058595 -0.023070 -280429.000000 0 0 1
-21.655508 32.703453 29.151729 48.870238 -0.985908 0.931647 0.054032 -0.019063 -14386.300000 0 0 1
-21.029908 -33.831606 28.649299 49.067474 1.014642 0.947302 0.055943 -0.029830 214077.000000 0 0 1
-21.933608 -32.541786 28.778189 48.664517 0.977725 0.938054 0.065681 -0.030513 269792.000000 0 0 1
-22.268708 -32.226166 30.092039 49.395870 0.966127 0.915743 0.060024 -0.020101 -25219.200000 0 0 1
-23.269708 -31.242656 30.306649 49.356620 0.930628 0.909635 0.082686 -0.020988 44024.500000 0 0 1
-22.946708 -29.745756 29.915759 48.024099 0.913722 0.898311 0.088976 -0.020717 -223543.000000 0 0 1
-22.777408 -29.562846 28.550259 46.988185 0.914320 0.917755 0.088090 -0.012961 97507.400000 0 0 1
-23.163908 -28.240236 28.105959 46.087119 0.883832 0.914932 0.078814 -0.020941 190963.000000 0 0 1
-24.608808 -28.172576 27.582379 46.476609 0.852815 0.935435 0.077620 -0.013338 -1428290.000000 0 0 1
-25.647528 -28.003886 28.468629 47.460259 0.829290 0.927493 0.092624 -0.012822 -274800.000000 0 0 1
-26.711738 -28.924786 28.451189 48.576027 0.825154 0.945048 0.080040 -0.006778 337202.000000 0 0 1
-27.679358 -28.837726 27.251059 48.377490 0.805891 0.972422 0.061557 -0.000747 -449718.000000 0 0 1
-27.048238 -29.269326 26.023909 47.597736 0.824816 0.992322 0.064170 -0.002940 -115899.000000 0 0 1
-27.995978 -29.245886 25.007559 47.586497 0.807230 1.017473 0.062686 -0.000775 -222923.000000 0 0 1
-27.503198 -29.419266 23.519369 46.637752 0.819046 1.042226 0.048938 0.002190 -515549.000000 0 0 1
-26.824488 -28.332966 22.934739 45.258286 0.812740 1.039383 0.033349 0.003665 185702.000000 0 0 1
-26.287688 -28.547316 21.661459 44.443342 0.826583 1.061693 0.057532 -0.002010 360171.000000 0 0 1
-25.062138 -29.521836 21.521959 44.303999 0.866921 1.063542 0.057595 -0.006610 -527860.000000 0 0 1
-25.295738 -30.868316 21.520759 45.341707 0.884294 1.076247 0.051512 -0.014849 54708.100000 0 0 1
-24.165608 -31.632256 21.161559 45.082013 0.918424 1.082184 0.059636 -0.011108 -6992.960000 0 0 1
-23.284308 -32.296606 22.216559 45.593917 0.946146 1.061835 0.055183 -0.006126 195258.000000 0 0 1
-22.502808 -31.398856 23.017049 44.967201 0.948966 1.033444 0.084338 -0.013070 -469831.000000 0 0 1
-21.586408 -32.139926 23.689679 45.388862 0.979360 1.021688 0.085010 -0.017260 -938273.000000 0 0 1
-20.952508 -31.391666 24.870539 45.199425 0.982249 0.988145 0.090903 -0.016890 -809469.000000 0 0 1
-19.891108 -30.576966 24.476589 43.928470 0.994051 0.979796 0.098654 -0.014849 -250770.000000 0 0 1
-19.163908 -29.895846 25.463359 43.696678 1.000758 0.948713 0.106284 -0.012776 189522.000000 0 0 1
-18.106208 -30.683136 26.266979 44.263346 1.037686 0.935489 0.096671 -0.019945 -644395.000000 0 0 1
-18.682208 -31.605016 27.139679 45.655932 1.036935 0.934228 0.088915 -0.019662 65505.900000 0 0 1
-17.851508 -31.999476 28.220189 46.249561 1.061932 0.914519 0.086469 -0.017914 -475465.000000 0 0 1
-18.226408 -31.438506 29.614529 46.878588 1.045401 0.887016 0.098783 -0.017701 -230808.000000 0 0 1
-18.027708 -30.041726 29.787559 45.986979 1.030311 0.866183 0.105497 -0.012940 163205.000000 0 0 1
-18.357908 -29.528016 31.047779 46.614173 1.014565 0.841884 0.103331 -0.010783 -199490.000000 0 0 1
-17.958208 -28.090396 31.094539 45.589889 1.001979 0.820235 0.102426 -0.013174 94897.300000 0 0 1
-18.728608 -27.144286 30.317719 44.796620 0.966837 0.827408 0.116417 -0.019774 404045.000000 0 0 1
-18.817008 -27.296376 28.876649 43.966269 0.967248 0.854241 0.111689 -0.012597 706605.000000 0 0 1
-17.462808 -26.981386 28.115459 42.701568 0.996380 0.852082 0.102193 -0.009327 814382.000000 0 0 1
-17.238908 -25.570316 28.055149 41.690676 0.977613 0.832626 0.089251 -0.008939 -424896.000000 0 0 1
-16.118608 -25.228876 27.316249 40.527561 1.002267 0.831164 0.071505 -0.004682 -499257.000000 0 0 1
-16.294308 -23.805006 26.755479 39.345120 0.970555 0.823006 0.075622 -0.004760 -113595.000000 0 0 1
-17.186408 -23.797206 25.654949 38.985332 0.945324 0.852548 0.102931 -0.011942 22865.500000 0 0 1
-17.101808 -22.672206 24.793599 37.699116 0.924544 0.853074 0.096233 -0.015595 -116927.000000 0 0 1
-17.593008 -21.329706 25.401379 37.545977 0.881108 0.827742 0.089628 -0.013750 -657188.000000 0 0 1
-17.341108 -20.172206 24.585299 36.222491 0.860725 0.824764 0.087168 -0.016760 4324.550000 0 0 1
-17.809808 -18.933606 25.118379 36.146974 0.815974 0.802521 0.094464 -0.014592 -231701.000000 0 0 1
-17.458608 -17.746506 24.216899 34.730386 0.793576 0.799197 0.085593 -0.023885 760927.000000 0 0 1
-16.063608 -17.446106 24.139309 33.839509 0.826631 0.776534 0.088860 -0.029918 210887.000000 0 0 1
-15.854808 -16.400806 23.213819 32.546011 0.802324 0.776656 0.091381 -0.025352 1593980.000000 0 0 1
-14.337608 -15.892506 23.189249 31.557567 0.836788 0.745390 0.100199 -0.033326 1535610.000000 0 0 1
-13.411908 -16.916306 22.830629 31.420986 0.900437 0.757430 0.077170 -0.035116 806573.000000 0 0 1
-12.024708 -16.644106 23.077149 30.889718 0.945155 0.727135 0.077369 -0.034057 786242.000000 0 0 1
-11.357308 -15.876206 21.881159 29.322816 0.949831 0.728436 0.098251 -0.035456 -230951.000000 0 0 1
-10.987808 -16.714306 20.755759 28.825362 0.989244 0.766919 0.131327 -0.040400 -339579.000000 0 0 1
-9.850908 -17.505906 20.943359 29.019329 1.058240 0.764536 0.119319 -0.045329 -638853.000000 0 0 1
-9.598908 -18.557506 19.862559 28.827788 1.093443 0.810678 0.116918 -0.039957 70839.100000 0 0 1
-9.169508 -18.038906 18.613459 27.494416 1.100516 0.827130 0.117542 -0.035725 -206025.000000 0 0 1
-8.843408 -19.130006 17.756259 27.558080 1.137778 0.870661 0.106186 -0.036420 161330.000000 0 0 1
-8.445808 -18.665706 16.327059 26.197579 1.145884 0.897933 0.093732 -0.034581 1250410.000000 0 0 1
-7.188008 -17.933206 16.340959 25.304037 1.189582 0.868746 0.100805 -0.033896 578606.000000 0 0 1
-6.767308 -17.728406 15.007959 24.193629 1.206146 0.901637 0.098025 -0.035262 502147.000000 0 1 0
-5.615708 -16.672906 15.149359 23.216914 1.245914 0.859899 0.085584 -0.030148 342330.000000 0 1 0
-6.104508 -15.486706 15.730259 22.902929 1.195320 0.813687 0.106226 -0.037227 -249758.000000 0 1 0
-5.118108 -14.497706 15.778759 22.030610 1.231426 0.772426 0.073237 -0.025675 -734250.000000 0 1 0
-5.276708 -13.455406 16.923259 22.255074 1.197064 0.706833 0.054670 -0.011983 -385489.000000 0 1 0
-5.097608 -13.988106 18.218359 23.527884 1.221329 0.685140 0.074484 -0.010918 -150641.000000 0 1 0
-6.033708 -14.916706 18.761859 24.716819 1.186422 0.708909 0.117404 -0.030611 419916.000000 0 1 0
-7.398208 -14.273006 19.143059 24.998178 1.092588 0.698546 0.150371 -0.041865 -34995.600000 0 1 0
-7.333208 -13.435006 20.268359 25.398459 1.071161 0.646802 0.131086 -0.042955 375471.000000 0 0 1
-8.608108 -12.893406 20.625059 25.801793 0.982123 0.644558 0.133662 -0.036750 743366.000000 0 0 1
-8.433708 -11.844106 21.726459 26.142864 0.952023 0.589774 0.129865 -0.029322 27694.800000 0 0 1
-7.732408 -10.644306 21.415059 25.133566 0.942547 0.550907 0.093343 -0.025223 139928.000000 0 0 1
-7.489008 -9.772906 22.479059 25.630120 0.916943 0.501097 0.089153 -0.027191 -660474.000000 0 0 1
-6.070308 -9.906706 22.993249 25.762007 1.021056 0.467882 0.092047 -0.025652 -722618.000000 0 0 1
-5.903708 -11.131606 23.726319 26.864561 1.083160 0.488191 0.106564 -0.016496 -1324610.000000 0 0 1
-4.608008 -11.309606 24.118579 27.034178 1.183891 0.468711 0.091936 -0.010149 -1209280.000000 0 0 1
-4.401308 -12.796506 24.578719 28.057718 1.239525 0.503279 0.108090 -0.018601 -10092.200000 0 0 1
-3.083408 -13.069306 25.013769 28.390189 1.339106 0.492675 0.105810 -0.008766 46244.400000 0 0 1
-3.023608 -14.262106 25.821269 29.652788 1.361887 0.513995 0.106128 -0.002081 79845.700000 0 0 1
-2.795708 -15.686806 25.234719 29.844312 1.394428 0.563211 0.129957 -0.040121 -360748.000000 0 0 1
-1.511508 -15.958206 24.753419 29.490350 1.476361 0.574667 0.142839 -0.041553 -451124.000000 0 0 1
-1.469408 -17.259106 24.244009 29.796105 1.485863 0.620370 0.150161 -0.042181 -339547.000000 0 0 1
-0.036908 -17.807506 24.218949 30.061040 1.568724 0.634009 0.148860 -0.050254 596444.000000 0 0 1
0.717292 -18.134706 25.419399 31.233443 -1.531263 0.620046 0.145810 -0.048198 348801.000000 0 0 1
0.950492 -17.082006 26.373109 31.436273 -1.515211 0.575466 0.149243 -0.046915 -110608.000000 0 0 1
1.704992 -17.621506 27.660959 32.841333 -1.474340 0.569333 0.117478 -0.026634 91445.900000 0 0 1
3.014792 -18.081506 27.355509 32.929527 -1.405583 0.590381 0.118825 -0.033003 -133226.000000 0 0 1
3.751892 -18.282006 28.535539 34.096707 -1.368384 0.579201 0.113288 -0.036085 187916.000000 0 0 1
4.567192 -17.067606 29.031299 33.984978 -1.309328 0.546711 0.153547 -0.040897 -1099170.000000 0 0 1
3.777092 -16.027806 29.334099 33.639952 -1.339360 0.511519 0.149799 -0.042867 -675752.000000 0 0 1
4.550692 -14.997506 29.893759 33.753086 -1.276196 0.482883 0.185480 -0.055906 -333344.000000 0 0 1
3.639992 -13.953906 30.494259 33.732194 -1.315625 0.441737 0.183452 -0.057056 -572609.000000 0 0 1
2.928592 -14.574606 31.469219 34.803844 -1.372499 0.441321 0.183029 -0.064320 -738877.000000 0 0 1
2.058792 -13.655406 32.079678 34.925843 -1.421156 0.406505 0.173225 -0.062024 -470322.000000 0 0 1
1.370892 -14.229406 33.307512 36.245630 -1.474751 0.405415 0.160953 -0.058329 -111435.000000 0 0 1
2.157592 -14.317306 -33.102001 36.130084 -1.421224 2.729262 0.167711 -0.056873 -238158.000000 0 0 1
1.403492 -14.930106 -32.097761 35.428014 -1.477068 2.704531 0.165894 -0.070044 45579.800000 0 0 1
2.158692 -15.203406 -30.758931 34.378996 -1.429752 2.678558 0.135885 -0.047142 -177233.000000 0 0 1
1.582392 -16.168206 -29.899011 34.027426 -1.473236 2.643874 0.134299 -0.045794 -184950.000000 0 0 1
2.042392 -16.104006 -28.541241 32.834629 -1.444645 2.624464 0.110912 -0.042395 167026.000000 0 0 1
1.777592 -17.434106 -27.769181 32.836494 -1.469187 2.578635 0.124248 -0.045840 172013.000000 0 0 1
2.621392 -18.466906 -28.283721 33.880189 -1.429788 2.558595 0.107415 -0.038879 364031.000000 0 0 1
2.368992 -19.680706 -27.642741 34.015636 -1.451001 2.519478 0.098747 -0.043291 -483181.000000 0 0 1
3.405292 -20.788706 -28.026591 35.060749 -1.408433 2.497046 0.074095 -0.036397 2012210.000000 0 0 1
4.779592 -20.824506 -27.490951 34.817481 -1.345186 2.480910 0.083546 -0.032944 1995110.000000 0 0 1
4.870592 -20.671206 -26.102391 33.650502 -1.339395 2.458606 0.090656 -0.039557 -1671220.000000 0 0 1
6.258692 -21.062906 -25.586881 33.726929 -1.281963 2.432032 0.071292 -0.030673 -345412.000000 0 0 1
6.589192 -22.419006 -25.470851 34.565786 -1.284935 2.399240 0.080858 -0.024243 152402.000000 0 0 1
6.817892 -23.103006 -26.717901 35.973307 -1.283833 2.407912 0.073131 -0.019773 -706626.000000 0 0 1
5.912192 -24.303106 -27.032831 36.828915 -1.332163 2.395006 0.060506 -0.016283 -248800.000000 0 0 1
6.162792 -25.412586 -26.217481 37.028852 -1.332880 2.357499 0.084894 -0.015544 -412541.000000 0 0 1
5.495192 -26.554166 -26.555431 37.954075 -1.366734 2.345736 0.100496 -0.018371 -486016.000000 0 0 1
5.842292 -27.739126 -25.610781 38.203450 -1.363215 2.305515 0.132206 -0.022442 -531845.000000 0 0 1
7.193092 -28.023576 -25.791431 38.758990 -1.319541 2.298867 0.158481 -0.031087 -726973.000000 0 0 1
7.524792 -29.207126 -25.157571 39.275719 -1.318644 2.265994 0.173171 -0.042078 -347762.000000 0 0 1
8.977192 -29.653636 -25.347111 40.030041 -1.276832 2.256480 0.168600 -0.046698 -282500.000000 0 0 1
9.250692 -29.919306 -26.700361 41.153973 -1.270932 2.276792 0.167206 -0.043255 881108.000000 0 0 1
10.670892 -30.096896 -26.872061 41.734863 -1.230073 2.270349 0.206448 -0.049806 1101890.000000 0 0 1
11.122192 -29.934716 -28.361181 42.710034 -1.215055 2.297006 0.190491 -0.046321 -25605.700000 0 0 1
11.011092 -31.012286 -29.223091 44.011307 -1.229625 2.296939 0.196238 -0.063517 70387.100000 0 0 1
11.628492 -30.739556 -30.461941 44.811516 -1.209144 2.318258 0.182473 -0.057639 -66706.900000 0 0 1
-36.300728 -5.313206 -4.784341 36.998148 0.145334 1.700472 0.245352 -0.043556 -129297.000000 0 0 1
-35.434934 -4.698906 -3.842441 35.951059 0.131837 1.677881 0.259599 -0.069814 325014.000000 0 0 1
-34.448842 -3.859406 -4.390041 34.941240 0.111568 1.696770 0.251357 -0.067780 -146901.000000 0 0 1
-34.945629 -2.547706 -5.115141 35.409779 0.072776 1.715759 0.256269 -0.040860 -233482.000000 0 0 1
-35.674274 -1.617406 -4.326541 35.972056 0.045307 1.691363 0.195409 -0.035767 322042.000000 0 0 1
-36.600988 -0.873306 -5.075941 36.961604 0.023856 1.708562 0.170243 -0.034481 815398.000000 0 0 1
-37.764558 -0.205006 -4.240541 38.002449 0.005428 1.682615 0.173989 -0.032261 1036170.000000 0 0 1
-37.097078 0.671394 -3.321241 37.251505 -0.018096 1.660072 0.152227 -0.024524 527777.000000 0 0 1
37.625070 1.338294 -2.476841 37.730248 0.035554 1.636490 0.159464 -0.018997 -380886.000000 0 0 1
-37.354218 2.428494 -1.553541 37.465300 -0.064921 1.612274 0.147384 -0.021993 194579.000000 0 0 1
-36.785728 3.549194 -2.188541 37.021295 -0.096185 1.629947 0.165034 -0.041545 408230.000000 0 0 1
-35.540825 3.269394 -2.810141 35.801342 -0.091732 1.649370 0.113590 -0.012846 -713258.000000 0 0 1
-34.794651 4.557994 -3.266041 35.243582 -0.130255 1.663600 0.094794 -0.016902 -367503.000000 0 0 1
-34.263159 5.153594 -2.138441 34.714501 -0.149293 1.632436 0.099215 -0.025057 201930.000000 0 0 1
-33.605748 6.406294 -2.355941 34.291943 -0.188371 1.639553 0.127072 -0.044296 -52836.400000 0 0 1
-33.212198 7.110394 -1.004941 33.979666 -0.210906 1.600375 0.145065 -0.044918 -485970.000000 0 0 1
-31.847178 7.052694 -0.686741 32.625985 -0.217937 1.591847 0.181822 -0.033779 -68516.500000 0 0 1
-31.408498 7.570994 0.576059 32.313241 -0.236537 1.552968 0.207966 -0.049708 114942.000000 0 0 1
-31.650098 9.094694 0.823659 32.941169 -0.279812 1.545790 0.234984 -0.061097 124969.000000 0 0 1
-33.032628 9.398594 0.988759 34.357907 -0.277199 1.542014 0.190112 -0.054366 374504.000000 0 0 1
-33.221018 10.673194 1.564059 34.928490 -0.310862 1.526002 0.217167 -0.050853 273648.000000 0 0 1
-34.730014 11.033894 1.589559 36.475299 -0.307620 1.527203 0.194841 -0.051384 75165.900000 0 0 1
-35.306433 11.301494 0.273759 37.072132 -0.309791 1.563412 0.153059 -0.044089 274673.000000 0 0 1
-36.638388 11.729494 0.356259 38.471801 -0.309832 1.561536 0.146974 -0.024320 -17155.500000 0 0 1
-37.788368 10.701194 0.417359 39.276590 -0.275962 1.560170 0.154711 -0.052125 -155277.000000 0 0 1
37.690900 9.961594 -0.789641 38.993087 0.258389 1.591049 0.157489 -0.041768 439149.000000 0 0 1
36.471740 9.221894 -0.642241 37.625039 0.247660 1.587867 0.164596 -0.037806 711387.000000 0 0 1
36.131000 8.489894 -1.949641 37.166228 0.230789 1.623278 0.155184 -0.048836 -14312.400000 0 0 1
35.679960 9.307594 -2.992241 36.995193 0.255177 1.651767 0.143317 -0.052083 45876.700000 0 0 1
35.477090 8.519894 -4.124741 36.718197 0.235689 1.683369 0.138612 -0.055128 -252406.000000 0 0 1
34.633560 9.116694 -5.258441 36.197359 0.257394 1.716584 0.123202 -0.052242 -39349.200000 0 0 1
33.276700 9.294994 -4.918641 34.898835 0.272382 1.712207 0.169829 -0.044309 373528.000000 0 0 1
32.492530 9.833994 -5.982241 34.471135 0.293890 1.745223 0.140504 -0.027005 -212806.000000 0 0 1
31.023000 10.202894 -5.727441 33.156133 0.317739 1.744409 0.190960 -0.032292 -230919.000000 0 0 1
30.163240 9.136294 -6.022341 32.086781 0.294111 1.759605 0.222740 -0.021930 1506560.000000 0 0 1
28.751740 9.503194 -6.014141 30.873016 0.319222 1.766852 0.227000 -0.017709 1524770.000000 0 0 1
27.830140 8.277594 -6.273841 29.705156 0.289100 1.783603 0.255447 -0.012568 -225334.000000 0 0 1
28.058840 7.816394 -7.543241 30.088120 0.271684 1.824205 0.249662 -0.011008 395377.000000 0 0 1
27.225340 6.696894 -7.814741 29.105630 0.241192 1.842628 0.278903 -0.006326 -124443.000000 0 0 1
27.611740 5.849794 -9.025741 29.632622 0.208772 1.880302 0.268663 -0.022657 548657.000000 0 0 1
28.752040 4.996694 -8.745141 30.465131 0.172067 1.861946 0.253375 -0.023535 1129790.000000 0 0 1
28.887140 3.845294 -9.604741 30.683940 0.132336 1.889169 0.235536 -0.022970 -243723.000000 0 0 1
29.753840 2.701194 -9.018541 31.207716 0.090537 1.863962 0.209694 -0.025014 501573.000000 0 0 1
31.171010 2.955494 -9.050241 32.592540 0.094533 1.852173 0.173959 -0.013217 1242060.000000 0 0 1
31.960010 2.296594 -8.100841 33.050570 0.071735 1.818424 0.159118 -0.019028 -49223.200000 0 0 1
32.121670 0.745094 -8.168641 33.152429 0.023192 1.819757 0.152175 -0.023431 -734291.000000 0 0 1
30.897230 0.157594 -7.812641 31.870064 0.005101 1.818461 0.194153 -0.022835 376845.000000 0 0 1
31.094680 -1.233706 -7.558341 32.023892 -0.039655 1.809066 0.181973 -0.022342 46154.200000 0 0 1
31.009930 -2.189106 -8.790541 32.306060 -0.070477 1.846373 0.167357 -0.009720 -41323.800000 0 0 1
32.134330 -1.956406 -9.620841 33.600644 -0.060807 1.861190 0.155488 -0.012561 343032.000000 0 0 1
32.215440 -2.987106 -10.604041 34.047071 -0.092458 1.887517 0.126819 -0.033984 -79860.000000 0 0 1
33.565040 -2.973306 -11.362641 35.560681 -0.088353 1.896028 0.148703 -0.031289 -247921.000000 0 0 1
34.652620 -3.447606 -10.610641 36.404337 -0.099164 1.866556 0.178062 -0.023958 41027.100000 0 0 1
35.630630 -3.954906 -11.512841 37.652737 -0.110545 1.881537 0.191611 -0.042413 216592.000000 0 0 1
36.886980 -4.506906 -10.754241 38.686111 -0.121579 1.852494 0.209871 -0.037407 139682.000000 0 0 1
36.665720 -5.714906 -10.002541 38.432876 -0.154621 1.834088 0.215463 -0.038364 222636.000000 0 0 1
37.815990 -6.047006 -9.272841 39.403058 -0.158564 1.808358 0.229412 -0.040614 -227988.000000 0 0 1
37.606470 -7.222106 -8.312941 39.185589 -0.189734 1.784563 0.228836 -0.037108 -314554.000000 0 0 1
36.979660 -6.853906 -7.117841 38.277081 -0.183263 1.757841 0.247446 -0.042907 361988.000000 0 0 1
36.547850 -7.969206 -6.471341 37.962242 -0.214688 1.742101 0.251712 -0.046646 -987483.000000 0 0 1
36.080690 -7.788106 -5.063141 37.257297 -0.212591 1.707115 0.245375 -0.049373 -711062.000000 0 0 1
37.090110 -7.611706 -4.094541 38.083849 -0.202412 1.678518 0.282452 -0.050173 415863.000000 0 0 1
37.716310 -8.691506 -3.461541 38.859292 -0.226490 1.659993 0.306965 -0.060764 258830.000000 0 0 1
-36.942928 -9.624506 -4.273941 38.414550 0.254858 1.682286 0.287052 -0.057709 -94375.700000 0 0 1
-37.594028 -10.327706 -5.316641 39.347670 0.268103 1.706330 0.251833 -0.050208 927997.000000 0 0 1
-36.617068 -11.078806 -6.044841 38.730992 0.293802 1.727509 0.207900 -0.040060 389316.000000 0 0 1
-37.321478 -11.633006 -7.320341 39.771937 0.302153 1.755910 0.189299 -0.039189 214998.000000 0 0 1
-37.413848 -10.688006 -8.327441 39.791655 0.278259 1.781631 0.183982 -0.046246 110590.000000 0 0 1
37.781150 -11.321406 -9.485441 40.565541 -0.291143 1.806811 0.192443 -0.029392 -147080.000000 0 0 1
37.743320 -10.459106 -10.768741 40.619169 -0.270328 1.839119 0.190114 -0.032109 -448191.000000 0 0 1
36.797890 -9.442506 -10.743641 39.480013 -0.251185 1.846401 0.194040 -0.035979 15990.600000 0 0 1
36.925150 -8.708506 -11.903341 39.761719 -0.231610 1.874825 0.186864 -0.035231 -360559.000000 0 0 1
35.663320 -7.890606 -12.250641 38.525475 -0.217745 1.894403 0.187941 -0.038360 -398803.000000 0 0 1
35.696430 -7.053706 -13.428641 38.785542 -0.195089 1.924344 0.190581 -0.039801 71494.200000 0 0 1
34.515990 -6.354306 -13.707241 37.677835 -0.182059 1.943142 0.171592 -0.041834 -351802.000000 0 0 1
34.763190 -5.388506 -14.887441 38.198839 -0.153782 1.971141 0.160101 -0.046702 41483.900000 0 0 1
35.665780 -4.296206 -14.720241 38.822554 -0.119880 1.959693 0.157718 -0.028985 61968.300000 0 0 1
36.126630 -3.974706 -15.995341 39.708722 -0.109581 1.985389 0.161711 -0.039867 621936.000000 0 0 1
37.624110 -3.508806 -15.877741 40.987657 -0.092991 1.968583 0.166173 -0.035593 465990.000000 0 0 1
-37.315348 -3.370406 -17.110841 41.189510 0.090078 1.999198 0.179793 -0.036067 100024.000000 0 0 1
-35.984908 -2.927206 -16.963941 39.890569 0.081167 2.010048 0.202556 -0.032984 -164653.000000 0 0 1
-35.706261 -1.402006 -16.470841 39.347063 0.039245 2.002704 0.198150 -0.033031 -582700.000000 0 0 1
-36.214578 -0.517006 -17.417041 40.188510 0.014275 2.019040 0.175326 -0.033863 47608.700000 0 0 1
-36.174188 0.797994 -16.873741 39.924076 -0.022056 2.007159 0.178295 -0.036324 156425.000000 0 0 1
-36.624808 1.886694 -17.843241 40.783789 -0.051469 2.023622 0.145848 -0.036734 677379.000000 0 0 1
-35.619720 2.093294 -18.869041 40.363190 -0.058700 2.057236 0.141589 -0.029901 867037.000000 0 0 1
-35.885521 3.259394 -19.656541 41.045997 -0.090579 2.070187 0.120695 -0.026821 1043160.000000 0 0 1
-34.739760 3.534394 -20.742641 40.615269 -0.101390 2.106807 0.115852 -0.017690 1606130.000000 0 0 1
-33.438338 3.990394 -20.360641 39.352273 -0.118774 2.114599 0.125577 -0.017651 898103.000000 0 0 1
-32.660948 4.347694 -21.513341 39.350525 -0.132338 2.149227 0.111427 -0.016733 706489.000000 0 0 1
-31.221818 4.798294 -21.099541 37.987053 -0.152491 2.159689 0.124916 -0.015895 582115.000000 0 0 1
-30.346218 3.761594 -20.803541 36.984184 -0.123327 2.168201 0.127570 -0.010963 -562234.000000 0 0 1
-28.974978 3.972094 -20.830941 35.906197 -0.136238 2.189708 0.100497 -0.002459 -426230.000000 0 0 1
-28.093058 2.970194 -20.111041 34.677024 -0.105336 2.189467 0.133186 -0.005165 -200746.000000 0 0 1
-27.457828 3.347894 -18.928241 33.517444 -0.121330 2.170900 0.130162 -0.002588 582633.000000 0 0 1
-26.628698 2.281894 -18.387541 32.440658 -0.085484 2.173419 0.123041 -0.000766 180744.000000 0 0 1
-25.724438 2.605794 -17.214541 31.062474 -0.100952 2.158187 0.129347 -0.015126 -339420.000000 0 0 1
-24.584108 3.380194 -17.473541 30.350103 -0.136638 2.184296 0.120701 -0.015530 -92683.100000 0 0 1
-23.894508 3.690894 -16.289441 29.153321 -0.153255 2.163675 0.138460 -0.028271 -196717.000000 0 0 1
-22.626208 4.536894 -16.524841 28.383077 -0.197891 2.192238 0.134044 -0.033886 -386285.000000 0 0 1
-21.547208 3.777594 -17.002041 27.705989 -0.173553 2.231483 0.152097 -0.039613 49840.400000 0 0 1
-20.465508 4.696394 -17.209041 27.148559 -0.225573 2.257361 0.135733 -0.039479 -105250.000000 0 0 1
-19.207308 4.081194 -17.813041 26.511908 -0.209367 2.307552 0.157130 -0.048033 -735937.000000 0 0 1
-18.438108 3.337494 -16.923041 25.248605 -0.179072 2.305351 0.149345 -0.041365 -60232.500000 0 0 1
-17.362508 2.656694 -17.555341 24.833540 -0.151836 2.355931 0.125551 -0.040045 -384576.000000 0 1 0
-17.319208 1.117094 -17.294941 24.501385 -0.064411 2.354456 0.119521 -0.041147 -6715.270000 0 1 0
-18.435108 0.304394 -17.627541 25.508353 -0.016510 2.333737 0.103930 -0.037750 1207490.000000 0 0 1
-19.637208 0.568994 -16.848141 25.880564 -0.028967 2.279692 0.124832 -0.034681 292371.000000 0 0 1
-20.789808 -0.365906 -17.179841 26.972152 0.017598 2.261328 0.108199 -0.022252 -502404.000000 0 0 1
-20.782608 -1.656706 -16.578841 26.636807 0.079548 2.242606 0.092512 -0.029363 312932.000000 0 0 1
-21.934108 -2.349906 -16.991241 27.844738 0.106728 2.227127 0.096695 -0.020969 -142843.000000 0 0 1
-22.135208 -3.661006 -16.155941 27.647511 0.163909 2.194880 0.113044 -0.031051 -52705.100000 0 0 1
-22.214708 -3.452706 -14.741541 26.883591 0.154191 2.151183 0.105470 -0.025463 450017.000000 0 0 1
-22.913408 -4.544806 -14.178941 27.326213 0.195806 2.116333 0.109494 -0.037260 -62169.300000 0 0 1
-23.352908 -4.224606 -12.733741 26.932393 0.178967 2.063266 0.124337 -0.044190 -107066.000000 0 0 1
-24.285208 -3.166306 -12.657441 27.568237 0.129649 2.047813 0.112979 -0.034579 245402.000000 0 0 1
-24.723708 -2.866606 -11.372141 27.364298 0.115430 1.999380 0.146663 -0.047891 -213651.000000 0 0 1
-25.715408 -1.679006 -11.297441 28.137759 0.065199 1.983955 0.177522 -0.048118 -180851.000000 0 0 1
-26.082188 -1.301706 -9.990341 27.960363 0.049866 1.936176 0.181773 -0.052721 400514.000000 0 0 1
-26.484308 0.049194 -9.947941 28.291033 -0.001857 1.930107 0.194194 -0.051752 -274019.000000 0 0 1
-26.726838 0.395194 -8.429541 28.027437 -0.014785 1.876286 0.220188 -0.054484 18487.900000 0 0 1
-25.535278 0.818294 -7.788841 26.709289 -0.032035 1.866712 0.197662 -0.046548 340302.000000 0 0 1
-25.653478 1.021094 -6.384041 26.455615 -0.039782 1.814513 0.198557 -0.048182 194644.000000 0 0 1
-24.289808 1.397994 -5.731941 24.996086 -0.057491 1.802169 0.144674 -0.037668 267482.000000 0 1 0
-24.015208 2.756294 -5.825741 24.864968 -0.114273 1.807290 0.186070 -0.035693 553621.000000 0 1 0
-22.690608 2.979294 -5.345941 23.501468 -0.130554 1.800278 0.173828 -0.024638 383091.000000 0 1 0
-22.271508 4.467594 -5.344841 23.335527 -0.197969 1.801891 0.169640 -0.029508 -358531.000000 0 1 0
-22.819408 5.201394 -4.292141 23.795007 -0.224108 1.752169 0.187884 -0.032002 523494.000000 0 1 0
-22.591608 6.559294 -4.549041 23.960361 -0.282573 1.761813 0.183895 -0.031585 -447363.000000 0 1 0
-23.095608 7.542994 -3.425541 24.536467 -0.315677 1.710864 0.199861 -0.034213 -277734.000000 0 1 0
-22.454708 7.554994 -2.150841 23.789031 -0.324557 1.661333 0.174778 -0.036525 1692390.000000 0 1 0
-21.028408 7.804194 -2.010141 22.519771 -0.355370 1.660176 0.178284 -0.030104 1143970.000000 0 1 0
-20.706208 9.349094 -2.263141 22.831435 -0.424110 1.670083 0.166731 -0.033764 -468881.000000 0 1 0
-20.437708 9.734994 -3.578341 22.918869 -0.444529 1.727569 0.130406 -0.032561 565850.000000 0 1 0
-19.969608 11.090694 -3.691841 23.139111 -0.506963 1.731031 0.123555 -0.024396 -15800.700000 0 1 0
-19.898908 11.637294 -5.127541 23.615352 -0.529183 1.789667 0.113446 -0.024893 -241946.000000 0 1 0
-18.856808 11.066994 -5.868741 22.638456 -0.530729 1.833029 0.095260 -0.018240 154709.000000 0 1 0
-18.998508 11.648994 -7.163941 23.408640 -0.550035 1.881825 0.103105 -0.015370 -180786.000000 0 1 0
-17.702908 11.552694 -7.990141 22.598674 -0.578192 1.932178 0.074012 -0.003144 -216729.000000 0 1 0
-17.301308 10.253494 -8.421941 21.803635 -0.534992 1.967373 0.057347 -0.000650 760195.000000 0 1 0
-18.135808 9.596594 -9.411641 22.573904 -0.486696 2.000857 0.089714 -0.005003 265525.000000 0 1 0
-18.082208 10.279794 -10.816341 23.444267 -0.516938 2.050328 0.082376 -0.007482 -242922.000000 0 1 0
-17.015608 9.853194 -11.625141 22.842072 -0.524886 2.104744 0.069031 -0.013657 -84890.400000 0 1 0
-17.099708 10.448294 -12.907541 23.836348 -0.548484 2.143025 0.082797 -0.017629 -460423.000000 0 1 0
-15.911808 10.154194 -13.809441 23.387902 -0.568003 2.202416 0.052291 -0.009518 -560900.000000 0 1 0
-15.925208 8.886394 -14.489441 23.292148 -0.508971 2.242185 0.067698 -0.021914 108236.000000 0 1 0
-15.541308 7.792594 -13.693141 22.130497 -0.464776 2.237941 0.056368 -0.016763 -483948.000000 0 1 0
-15.507908 6.432194 -14.377241 22.103697 -0.393173 2.278967 0.062309 -0.025766 -519771.000000 0 1 0
-14.543608 6.271094 -15.356941 22.060798 -0.407104 2.340774 0.064321 -0.023724 -38158.200000 0 1 0
-14.572108 4.909294 -15.816841 22.059464 -0.324954 2.370299 0.066814 -0.033518 70875.100000 0 1 0
33.207000 -16.086606 27.719479 46.150333 -0.451118 0.926502 0.083586 -0.024008 78769.600000 0 0 1
32.535230 -14.821506 27.905629 45.353526 -0.427462 0.908041 0.101228 -0.017895 675698.000000 0 0 1
31.552910 -14.766506 28.960869 45.303066 -0.437715 0.877248 0.099514 -0.018742 457724.000000 0 0 1
32.089370 -14.710906 30.419139 46.598953 -0.429847 0.859540 0.103235 -0.027717 126580.000000 0 0 1
32.771310 -13.498006 30.776149 46.939602 -0.390710 0.855748 0.085478 -0.021273 317399.000000 0 0 1
33.158080 -13.490406 32.121699 48.096287 -0.386399 0.839463 0.073123 -0.021613 -354025.000000 0 0 1
33.708950 -12.140106 32.596545 48.437694 -0.345684 0.832595 0.068403 -0.014741 -173419.000000 0 0 1
33.788230 -11.994206 -33.579771 49.123380 -0.341106 2.323453 0.061027 -0.031720 134288.000000 0 0 1
34.060390 -10.632306 -33.197091 48.736054 -0.302575 2.320143 0.081401 -0.019989 -137399.000000 0 0 1
33.579220 -10.237606 -31.827861 47.385497 -0.295927 2.307270 0.089481 -0.019968 -348116.000000 0 0 1
32.190340 -10.288406 -31.659651 46.307697 -0.309351 2.323590 0.125958 -0.023293 -263508.000000 0 0 1
31.762230 -9.641006 -30.456941 45.049012 -0.294698 2.313232 0.088061 -0.019451 95733.700000 0 0 1
30.288340 -9.927906 -30.088411 43.832172 -0.316744 2.327386 0.098829 -0.009290 19802.300000 0 0 1
29.790640 -9.433606 -28.868281 42.542365 -0.306673 2.316620 0.079493 -0.015145 465356.000000 0 0 1
28.614240 -10.198806 -28.590511 41.715797 -0.342386 2.325900 0.115385 -0.016812 -95587.600000 0 0 1
28.257540 -10.214506 -27.090171 40.456175 -0.346864 2.304490 0.113617 -0.016387 -1351790.000000 0 0 1
27.544540 -9.121506 -26.485731 39.286098 -0.319789 2.310644 0.097141 -0.020576 1518070.000000 0 0 1
26.163040 -8.918106 -26.855641 38.539107 -0.328515 2.341780 0.100721 -0.024334 881281.000000 0 0 1
25.192640 -10.092606 -26.677191 38.055254 -0.381038 2.347612 0.101312 -0.016500 -1481880.000000 0 0 1
25.473540 -11.179006 -27.496071 39.114004 -0.413541 2.350365 0.093739 -0.016749 -125703.000000 0 0 1
24.586340 -12.284106 -27.400681 38.809596 -0.463353 2.354671 0.103400 -0.030501 381197.000000 0 0 1
25.339540 -13.475606 -28.054751 40.134191 -0.488764 2.344828 0.086809 -0.010104 331226.000000 0 0 1
25.640640 -13.297206 -29.453291 41.252327 -0.478416 2.365961 0.088173 -0.018612 693355.000000 0 0 1
26.520340 -14.352306 -29.911701 42.473839 -0.496047 2.352146 0.090979 -0.010418 184542.000000 0 0 1
26.627340 -14.591606 -31.468401 43.728600 -0.501301 2.374065 0.107014 -0.019578 -522234.000000 0 0 1
25.402040 -15.085306 -31.930011 43.501215 -0.535894 2.394993 0.104882 -0.019479 -144822.000000 0 0 1
25.340540 -15.460706 -33.334781 44.636129 -0.547826 2.414051 0.091179 -0.022074 -66266.600000 0 0 1
25.511440 -14.351706 33.174490 44.241969 -0.512435 0.722973 0.073644 -0.025077 -41316.500000 0 0 1
24.447840 -13.439306 33.106852 43.294058 -0.502623 0.700225 0.087119 -0.026919 -1366.880000 0 0 1
24.758940 -12.463206 32.096664 42.409108 -0.466350 0.712340 0.075704 -0.018164 -379266.000000 0 0 1
23.878740 -11.191606 32.309747 41.705707 -0.438283 0.684543 0.091839 -0.022112 786235.000000 0 0 1
22.471940 -11.327706 32.159633 40.835610 -0.466908 0.663991 0.079357 -0.022125 466137.000000 0 0 1
21.966140 -11.704706 30.906879 39.683077 -0.489583 0.677978 0.067427 -0.010194 215782.000000 0 0 1
20.391140 -11.821206 30.839469 38.815105 -0.525376 0.652576 0.079646 -0.010570 1066660.000000 0 0 1
19.692040 -10.656806 31.070939 38.298136 -0.496041 0.624439 0.076275 -0.022229 -990851.000000 0 0 1
18.556240 -10.841106 31.835790 38.410691 -0.528743 0.593790 0.067038 -0.013783 -358212.000000 0 0 1
17.661340 -9.575806 31.996350 37.780754 -0.496827 0.560677 0.077643 -0.019953 -336008.000000 0 0 1
16.890540 -9.319606 30.819049 36.358757 -0.504197 0.559280 0.108863 -0.029577 670887.000000 0 0 1
15.863440 -8.320006 30.941659 35.752727 -0.483037 0.524779 0.105890 -0.022511 1926440.000000 0 0 1
14.726440 -8.421606 32.098939 36.306107 -0.519479 0.486190 0.105459 -0.027341 -200490.000000 0 0 1
13.844840 -9.475606 31.812360 35.965163 -0.600189 0.485305 0.108779 -0.029116 -377035.000000 0 0 1
12.822540 -9.691106 32.754208 36.485247 -0.647194 0.456188 0.109221 -0.028298 756276.000000 0 0 1
11.529640 -8.899206 32.287836 35.420797 -0.657342 0.423758 0.149155 -0.034381 -37237.900000 0 0 1
11.743340 -7.468606 32.458342 35.316144 -0.566461 0.405058 0.131804 -0.035541 -144013.000000 0 0 1
10.745740 -6.655306 31.913487 34.325423 -0.554522 0.377109 0.163154 -0.035297 -170949.000000 0 0 1
11.183940 -5.157406 31.911144 34.205270 -0.432083 0.368328 0.150410 -0.032864 156466.000000 0 0 1
11.283340 -4.495606 33.177552 35.330924 -0.379151 0.350936 0.130921 -0.040455 246437.000000 0 0 1
11.732740 -3.163606 33.095955 35.256316 -0.263376 0.351887 0.082634 -0.034106 -208727.000000 0 0 1
11.583540 -2.441506 -33.125761 35.177484 -0.207733 2.798370 0.080528 -0.038833 1142700.000000 0 0 1
10.176140 -2.128206 -32.956501 34.557402 -0.206165 2.836018 0.094716 -0.021561 1120130.000000 0 0 1
9.990240 -1.329606 -31.798491 33.357410 -0.132313 2.834665 0.108046 -0.013386 -21522.900000 0 0 1
8.507940 -1.049906 -31.513751 32.658902 -0.122782 2.875996 0.109571 -0.009608 -138009.000000 0 0 1
7.819340 -0.283206 -32.465571 33.395143 -0.036203 2.905095 0.107480 -0.013112 -627259.000000 0 0 1
6.478240 -0.086806 -32.133111 32.779749 -0.013399 2.942636 0.132573 -0.011551 -574865.000000 0 0 1
5.810940 0.964394 -33.003141 33.524684 0.164463 2.964972 0.155623 -0.020465 -87703.300000 0 0 1
6.270840 2.315494 -32.777541 33.452237 0.353718 2.940411 0.124780 -0.025638 269042.000000 0 0 1
5.593540 3.066094 -33.750331 34.347831 0.501421 2.954797 0.143999 -0.027350 -8610.160000 0 0 1
6.407740 4.310094 33.504019 34.382486 0.592126 0.226536 0.114030 -0.032863 -160741.000000 0 0 1
5.769040 5.046994 32.498951 33.390654 0.718740 0.231624 0.136481 -0.047411 -398363.000000 0 0 1
6.567040 6.052794 31.992362 33.215562 0.744672 0.272229 0.124853 -0.051620 -520207.000000 0 0 1
5.839040 7.210794 31.315439 32.661088 0.890130 0.288050 0.140703 -0.051413 -372086.000000 0 0 1
4.829040 7.904894 32.057365 33.368872 1.022406 0.281295 0.154719 -0.054906 604009.000000 0 0 1
4.455140 9.215794 31.527167 33.147268 1.120497 0.313940 0.158933 -0.056806 -289155.000000 0 0 1
3.962340 9.258394 30.134589 31.772810 1.166410 0.322521 0.144747 -0.050863 163068.000000 0 0 1
2.712140 8.565694 29.946789 31.265588 1.264155 0.291480 0.140403 -0.045744 565489.000000 0 0 1
2.310540 8.506894 28.569449 29.898482 1.305586 0.299282 0.102282 -0.025103 -149351.000000 0 0 1
1.044240 7.730194 28.219569 29.277814 1.436523 0.269684 0.108284 -0.029852 200654.000000 0 0 1
-0.180360 8.418694 28.523969 29.740944 -1.549376 0.287059 0.102692 -0.017629 -424409.000000 0 0 1
-1.059560 8.033494 27.515959 28.684276 -1.439660 0.286390 0.100061 -0.016206 39142.200000 0 0 1
-2.527060 8.370694 27.922729 29.259756 -1.277603 0.303471 0.096921 -0.012256 374378.000000 0 0 1
-2.685860 9.814394 28.086419 29.872782 -1.303671 0.347576 0.100266 -0.007196 -95416.000000 0 0 1
-3.997060 10.046694 28.567369 30.545165 -1.192146 0.361831 0.096580 0.001570 -63389.700000 0 0 1
-4.163660 11.398194 29.311809 31.724392 -1.220564 0.392510 0.090389 0.004496 -296611.000000 0 0 1
-4.221860 12.576394 28.556479 31.487494 -1.246920 0.434893 0.066132 0.000233 1041070.000000 0 0 1
-5.456560 12.757094 27.793329 31.064234 -1.166618 0.463026 0.057740 -0.008510 1114500.000000 0 0 1
-5.887660 14.146794 27.404709 31.397681 -1.176417 0.509833 0.044555 -0.003024 552048.000000 0 0 1
-4.856160 14.653494 26.547119 30.709228 -1.250787 0.526707 0.035906 0.007370 297154.000000 0 0 1
-5.134060 15.939994 26.056979 30.974314 -1.259202 0.571215 0.041509 0.008770 -500553.000000 0 0 1
-4.155360 16.531294 25.076489 30.321296 -1.324535 0.597000 0.064068 0.005496 -751248.000000 0 0 1
-4.112660 16.054094 23.729369 28.943580 -1.320014 0.609649 0.061260 0.001439 -308260.000000 0 0 1
-3.189060 16.845894 23.046019 28.724088 -1.383702 0.639618 0.078507 0.001200 -135669.000000 0 0 1
-3.158060 16.521494 21.534959 27.325584 -1.381926 0.663100 0.075413 -0.001453 -143141.000000 0 0 1
-2.299860 15.435894 21.276959 26.386837 -1.422890 0.632846 0.067709 -0.008463 -25837.900000 0 0 1
-2.152860 15.211094 19.914359 25.151419 -1.430198 0.657081 0.068647 -0.017692 21721.400000 0 0 1
-1.319660 13.974894 19.569059 24.082924 -1.476645 0.622249 0.063377 -0.027365 333898.000000 0 1 0
-2.076360 12.746894 19.559359 23.438496 -1.409323 0.583577 0.062319 -0.024117 179638.000000 0 1 0
-1.215560 11.775194 19.059959 22.436907 -1.467930 0.555776 0.060611 -0.027511 -62792.200000 0 1 0
-1.906060 10.397094 18.869059 21.628084 -1.389483 0.510637 0.041667 -0.026897 -362906.000000 0 1 0
-2.180060 9.541894 20.003959 22.270132 -1.346179 0.455044 0.060887 -0.033138 -62815.300000 0 1 0
-2.940160 9.962894 21.136259 23.550907 -1.283831 0.456794 0.072789 -0.018709 -405737.000000 0 1 0
-4.429360 10.110494 20.853659 23.594839 -1.157886 0.486824 0.052471 -0.014019 -409622.000000 0 1 0
-5.182360 8.891994 20.725959 23.140652 -1.043111 0.460903 0.043263 -0.020572 -863863.000000 0 1 0
-6.549560 9.041294 20.706459 23.524438 -0.943878 0.494491 0.038642 -0.012280 -895899.000000 0 1 0
-7.344460 7.751694 20.814259 23.393658 -0.812368 0.474022 0.031443 -0.015654 -303193.000000 0 1 0
-7.194060 7.138794 22.070159 24.285979 -0.781542 0.430490 0.039541 -0.022270 -155078.000000 0 1 0
-7.868760 5.922394 22.058659 24.157330 -0.645193 0.419912 0.035536 -0.021430 -28144.600000 0 1 0
-7.938560 5.086894 23.344899 25.177004 -0.569868 0.383847 0.044126 -0.028620 -86309.400000 0 0 1
-8.703260 5.800794 24.285399 26.441947 -0.587893 0.406672 0.036892 -0.027880 -168423.000000 0 0 1
-8.989460 4.936194 25.352319 27.348062 -0.502159 0.384398 0.039156 -0.018764 379026.000000 0 0 1
-9.975960 5.349294 26.530139 28.844116 -0.492201 0.403286 0.051837 -0.019983 249399.000000 0 0 1
-9.504360 6.409194 27.299709 29.608863 -0.593298 0.397552 0.059152 -0.017865 46076.100000 0 0 1
-10.481760 6.815694 28.252209 30.895118 -0.576546 0.416636 0.067644 -0.021004 225735.000000 0 0 1
-9.956660 7.921594 29.157629 31.812797 -0.672057 0.411460 0.085262 -0.020870 -663705.000000 0 0 1
-8.959660 7.460094 29.975769 32.163259 -0.694324 0.370937 0.093456 -0.018599 -610729.000000 0 0 1
-8.549360 8.533694 30.842069 33.123235 -0.784481 0.373295 0.105193 -0.021991 -162785.000000 0 0 1
-7.431260 8.141594 31.815426 33.670915 -0.830980 0.333527 0.131824 -0.023055 -137626.000000 0 0 1
-6.145760 8.191694 31.237429 32.873259 -0.927140 0.316796 0.117781 -0.022373 -527508.000000 0 0 1
-5.222760 7.733294 32.210752 33.535259 -0.976799 0.281988 0.145202 -0.030404 -584542.000000 0 0 1
-3.790360 7.712494 31.712055 32.855804 -1.114006 0.264632 0.116879 -0.026488 -516801.000000 0 0 1
-3.192960 8.994394 31.704699 33.110150 -1.229679 0.292409 0.103230 -0.022613 -695714.000000 0 0 1
-1.796460 8.875894 31.645530 32.915776 -1.371096 0.278717 0.097588 -0.023428 -27332.100000 0 0 1
-1.107460 10.211694 31.231479 32.877202 -1.462768 0.317742 0.094395 -0.018941 -159934.000000 0 0 1
-1.345460 11.235194 32.190978 34.121824 -1.451610 0.338020 0.095717 -0.027652 -37492.700000 0 0 1
-1.356460 12.507194 31.562665 33.977518 -1.462764 0.379290 0.092404 -0.020424 -296201.000000 0 0 1
-1.582560 13.700494 32.483894 35.290386 -1.455795 0.401504 0.088606 -0.029109 116018.000000 0 0 1
-0.425160 14.034994 33.245750 36.089357 -1.540513 0.399626 0.135420 -0.035692 -59414.300000 0 0 1
-0.585360 15.151694 -33.479351 36.753006 -1.532182 2.716325 0.139662 -0.042277 724922.000000 0 0 1
0.738840 15.450794 -32.675871 36.152254 1.523014 2.699458 0.129363 -0.046405 846055.000000 0 0 1
1.751740 16.052894 -33.477661 37.168774 1.462103 2.692159 0.141394 -0.037764 30474.300000 0 0 1
2.830440 16.435094 -32.649031 36.661737 1.400250 2.669344 0.151868 -0.039196 285961.000000 0 0 1
3.893240 17.236494 -33.465351 37.844204 1.348652 2.655773 0.140909 -0.022384 251496.000000 0 0 1
3.432140 18.499194 33.705829 38.601589 1.387353 0.509123 0.124709 -0.020304 725091.000000 0 0 1
4.530940 19.350294 33.306397 38.785040 1.340787 0.537984 0.105735 -0.006406 786735.000000 0 0 1
4.093640 20.833894 33.320706 39.510485 1.376779 0.567331 0.109597 -0.022376 -24366.600000 0 0 1
3.916840 21.279594 -32.947721 39.417193 1.388768 2.560515 0.129983 -0.047311 173372.000000 0 0 1
4.167740 22.711994 -32.843001 40.148069 1.389312 2.528803 0.117341 -0.040119 -32417.300000 0 0 1
3.607740 23.376694 -31.560491 39.440464 1.417674 2.498435 0.131182 -0.043341 -50296.100000 0 0 1
3.813440 24.771294 -31.562211 40.303008 1.418050 2.470468 0.149854 -0.048355 102991.000000 0 0 1
3.337240 25.329494 -30.339241 39.663459 1.439798 2.441708 0.154651 -0.051754 -102511.000000 0 0 1
3.039340 26.856394 -30.300551 40.603286 1.458106 2.413220 0.154933 -0.052493 332711.000000 0 0 1
4.189240 27.684394 -30.460801 41.374337 1.420614 2.398271 0.135012 -0.046855 167916.000000 0 0 1
3.885240 29.056694 -30.165051 42.063248 1.437872 2.370480 0.137864 -0.046683 61171.200000 0 0 1
5.105240 29.985594 -29.887941 42.643737 1.402157 2.347420 0.177289 -0.057340 365098.000000 0 0 1
5.854840 29.691194 -28.725071 41.725003 1.376103 2.330129 0.146146 -0.068016 -423835.000000 0 0 1
6.589640 30.776694 -28.290611 42.320053 1.359870 2.302975 0.174671 -0.078167 -455329.000000 0 0 1
7.667740 30.356094 -27.221931 41.488796 1.323379 2.286472 0.175500 -0.079398 594474.000000 0 0 1
8.848340 29.710794 -27.704091 41.575727 1.281345 2.300103 0.171946 -0.071547 1627740.000000 0 0 1
10.053240 30.507994 -27.899211 42.546108 1.252474 2.285960 0.190877 -0.076893 1099310.000000 0 0 1
9.936540 31.615294 -28.978311 44.022768 1.266277 2.289298 0.206833 -0.076667 -1165010.000000 0 0 1
9.590840 32.846694 -28.288251 44.397237 1.286706 2.261607 0.215104 -0.077177 377493.000000 0 0 1
9.434240 -33.649397 -29.072761 45.458907 -1.297446 2.264695 0.190216 -0.071799 -33755.500000 0 0 1
8.065040 -33.543897 -29.806591 45.592442 -1.334843 2.283341 0.152162 -0.051667 71907.900000 0 0 1
7.877240 33.291594 -30.953691 46.135801 1.338456 2.306253 0.128034 -0.048627 -553618.000000 0 0 1
6.552040 33.238194 -31.376281 46.175510 1.376168 2.317878 0.122321 -0.038637 -567725.000000 0 0 1
6.227140 32.487494 -32.685921 46.503591 1.381415 2.350219 0.131625 -0.060915 25520.800000 0 0 1
6.597140 33.240894 33.751559 47.829353 1.374878 0.787433 0.139739 -0.050158 185666.000000 0 0 1
6.178940 32.563194 32.596436 46.487294 1.383273 0.793731 0.146187 -0.051781 -226367.000000 0 0 1
5.979240 33.317294 31.244149 46.065065 1.393223 0.825402 0.117591 -0.057042 2978.420000 0 0 1
7.185640 33.706194 30.614379 46.097517 1.360756 0.844477 0.125631 -0.052296 206407.000000 0 0 1
7.018240 -33.441997 29.340039 45.038436 -1.363935 0.861310 0.096653 -0.056053 -109969.000000 0 0 1
19.113892 -21.883006 28.960039 41.023051 -0.852840 0.787039 0.103198 0.002341 -660028.000000 0 0 1
18.114492 -20.867506 28.882759 39.972508 -0.855904 0.763290 0.111416 0.003522 1574330.000000 0 0 1
16.753492 -21.309606 29.128239 39.789862 -0.904530 0.749467 0.111624 0.002964 1340640.000000 0 0 1
16.465692 -21.699506 30.605289 40.971591 -0.921684 0.727276 0.087694 0.002057 -917491.000000 0 0 1
17.243492 -22.746006 31.094889 42.209133 -0.922138 0.742639 0.090532 -0.002179 22478.600000 0 0 1
16.719392 -22.982206 32.390800 43.091575 -0.941856 0.720200 0.091047 -0.005945 245508.000000 0 0 1
17.472592 -24.034906 33.253640 44.595659 -0.942200 0.729257 0.092043 -0.015483 64213.600000 0 0 1
17.279292 -25.352306 32.837555 44.940164 -0.972549 0.751457 0.114194 -0.021144 44077.300000 0 0 1
18.018092 -26.203786 33.703289 46.337908 -0.968432 0.756362 0.107555 -0.023978 1372.910000 0 0 1
17.649892 -27.653686 33.546629 46.921438 -1.002728 0.774239 0.112085 -0.016404 12584.600000 0 0 1
18.288392 -28.270846 32.451600 46.763366 -0.996604 0.803831 0.111477 -0.021566 276080.000000 0 0 1
17.837992 -29.642006 32.330202 47.350654 -1.029068 0.819232 0.115555 -0.029082 62348.600000 0 0 1
18.418292 -30.354806 31.063749 47.176310 -1.025416 0.852025 0.120487 -0.025446 148386.000000 0 0 1
19.776592 -30.691806 31.217799 48.038022 -0.998396 0.863401 0.093670 -0.029869 -140371.000000 0 0 1
20.349492 -31.153086 30.018409 47.809220 -0.992168 0.891971 0.074315 -0.015769 435146.000000 0 0 1
21.775792 -31.779136 30.268679 48.992770 -0.970057 0.904830 0.068472 -0.016932 575332.000000 0 0 1
22.765892 -30.805556 30.434329 48.923578 -0.934360 0.899401 0.060977 -0.015419 792872.000000 0 0 1
24.099292 -31.278926 30.151209 49.681410 -0.914326 0.918653 0.067811 -0.019428 682503.000000 0 0 1
25.047792 -30.104206 29.943499 49.297751 -0.876824 0.918012 0.068955 -0.021170 -416099.000000 0 0 1
26.122992 -30.372686 29.070819 49.497710 -0.860478 0.943057 0.063742 -0.022435 -206517.000000 0 0 1
26.941692 -29.229526 29.070079 49.247228 -0.826105 0.939380 0.065233 -0.026808 874542.000000 0 0 1
28.393192 -29.350606 28.463309 49.777418 -0.801977 0.962084 0.083748 -0.028667 694568.000000 0 0 1
29.307292 -30.101416 29.214129 51.171066 -0.798765 0.963181 0.090494 -0.027644 437477.000000 0 0 1
30.578892 -30.043506 28.543319 51.501475 -0.776567 0.983367 0.097812 -0.046624 420794.000000 0 0 1
31.613392 -31.010816 29.073939 52.975194 -0.775776 0.989842 0.089448 -0.038192 -188589.000000 0 0 1
31.219292 -32.352296 28.685409 53.330741 -0.803219 1.002879 0.068288 -0.033565 617359.000000 0 0 1
32.129492 -33.334916 29.215579 54.745511 -0.803810 1.007872 0.082844 -0.030953 -109035.000000 0 0 1
31.445792 32.996732 29.564259 54.329251 0.809461 0.995399 0.071688 -0.017602 -2089.100000 0 0 1
30.499692 32.933366 30.596709 54.323074 0.823745 0.972499 0.093794 -0.012563 1354130.000000 0 0 1
29.297892 33.774824 30.632139 54.198091 0.856260 0.970135 0.078753 -0.007874 670500.000000 0 0 1
28.172692 33.346165 29.712119 52.806034 0.869296 0.973190 0.083583 -0.008740 -712813.000000 0 0 1
27.571992 32.105426 30.026949 51.890180 0.861218 0.953707 0.079630 -0.000471 896063.000000 0 0 1
26.176192 32.186654 29.667349 51.003189 0.888021 0.950008 0.080296 -0.003454 1697680.000000 0 0 1
25.296192 30.854624 29.619839 49.691448 0.884068 0.932192 0.090082 -0.018617 113506.000000 0 0 1
25.452992 30.136784 28.411239 48.613568 0.869456 0.946619 0.109789 -0.034089 239611.000000 0 0 1
24.865692 28.797854 28.515229 47.547211 0.858542 0.927640 0.134943 -0.052281 125889.000000 0 0 1
24.155692 28.393254 27.212069 46.153776 0.865864 0.940238 0.140831 -0.052497 -48770.900000 0 0 1
22.901892 29.019964 27.067379 45.818096 0.902690 0.938799 0.145177 -0.054352 -423974.000000 0 0 1
22.197692 28.557944 25.959679 44.521889 0.910060 0.948286 0.157651 -0.046819 -203973.000000 0 0 1
20.957492 29.422584 25.676169 44.318964 0.951868 0.952866 0.144569 -0.043935 -142939.000000 0 0 1
21.197792 30.767374 25.199929 45.066774 0.967512 0.977414 0.141946 -0.045538 -652117.000000 0 0 1
19.971192 31.326964 24.875809 44.710547 1.003253 0.980780 0.106291 -0.037711 -899814.000000 0 0 1
20.014892 32.680694 24.136329 45.290021 1.021282 1.008739 0.111856 -0.034477 -204631.000000 0 0 1
20.581992 32.681844 22.848539 44.875127 1.008775 1.036590 0.112705 -0.033253 671924.000000 0 0 1
21.970792 33.030903 22.832409 45.771991 0.983838 1.048549 0.113113 -0.025292 554518.000000 0 0 1
22.507092 33.272176 21.394759 45.512005 0.976049 1.081403 0.114996 -0.025022 -115152.000000 0 0 1
22.208492 -33.117756 20.944259 45.040702 -0.980081 1.087153 0.105064 -0.018799 343567.000000 0 0 1
22.626692 -33.011166 19.579659 44.554094 -0.969919 1.115801 0.110923 -0.024305 13537.100000 0 0 1
22.372592 -31.641496 18.883359 43.107985 -0.955345 1.117370 0.106347 -0.021325 -157747.000000 0 0 1
23.146092 -30.578146 19.402359 42.979252 -0.922863 1.102423 0.100328 -0.011094 189644.000000 0 0 1
22.766192 -29.293246 18.899659 41.636413 -0.910124 1.099635 0.104806 -0.018989 -25605.800000 0 0 1
23.422792 -28.835386 17.541159 41.082830 -0.888604 1.129656 0.088276 -0.024498 -233061.000000 0 0 1
23.134692 -29.619886 16.435659 41.020513 -0.907716 1.158549 0.080904 -0.028935 144039.000000 0 0 1
23.289192 -28.840086 15.241159 40.080294 -0.891482 1.180713 0.083314 -0.021746 -417616.000000 0 0 1
22.812692 -29.543826 13.991459 39.862482 -0.913260 1.212165 0.087241 -0.042511 -622751.000000 0 0 1
23.303792 -30.797686 13.702959 40.979694 -0.923038 1.229845 0.084161 -0.029187 -93893.000000 0 0 1
23.372192 -31.015176 12.301059 40.737164 -0.925013 1.264047 0.079487 -0.035704 -33292.100000 0 0 1
22.028892 -31.361946 11.601459 40.042947 -0.958456 1.276856 0.085826 -0.024774 122365.000000 0 0 1
21.436192 -32.542716 12.036259 40.784927 -0.988323 1.271220 0.092465 -0.031490 -70141.100000 0 0 1
20.195992 -32.856116 11.405859 40.218106 -1.019653 1.283250 0.086407 -0.027167 279486.000000 0 0 1
19.280092 -33.579266 12.400459 40.657846 -1.049589 1.260863 0.080896 -0.023775 -565078.000000 0 0 1
18.998992 -32.708056 13.472959 40.153446 -1.044565 1.228621 0.077761 -0.020142 169348.000000 0 0 1
19.657092 -33.095396 14.665159 41.191909 -1.034835 1.206791 0.060066 -0.020158 -1007970.000000 0 0 1
19.583992 -32.020206 15.791959 40.721153 -1.021881 1.172545 0.065325 -0.020816 449355.000000 0 0 1
18.296692 -31.765326 16.346559 40.137450 -1.048214 1.151339 0.092957 -0.031868 408392.000000 0 0 1
17.375992 -32.773986 16.660359 40.664811 -1.083300 1.148672 0.078670 -0.025366 -697689.000000 0 0 1
17.744292 -33.619456 17.924159 42.028600 -1.085158 1.130204 0.058668 -0.021379 -31560.800000 0 0 1
18.726792 33.057934 17.731559 41.927651 1.055386 1.134144 0.057058 -0.023692 180379.000000 0 0 1
19.030992 32.507860 19.014459 42.195844 1.041161 1.103332 0.061302 -0.019341 19114.100000 0 0 1
19.929892 31.278834 18.890359 41.622250 1.003494 1.099712 0.085339 -0.026433 -238700.000000 0 0 1
19.243092 30.074474 18.488659 40.206978 1.001591 1.092985 0.070071 -0.032234 -272673.000000 0 0 1
20.083192 28.980744 18.299959 39.725390 0.964795 1.092056 0.067802 -0.034337 -352184.000000 0 0 1
19.383592 27.598454 18.200259 38.322940 0.958499 1.075925 0.080580 -0.041721 56424.500000 0 0 1
18.793492 27.105314 19.384559 38.257738 0.964547 1.039463 0.090029 -0.049838 -10369.500000 0 0 1
18.314692 25.781974 19.178359 36.985775 0.953146 1.025661 0.101632 -0.049652 -277270.000000 0 0 1
17.993192 24.922264 20.411659 36.898645 0.945475 0.984617 0.115658 -0.052274 714226.000000 0 0 1
16.769992 25.255164 21.081959 36.925667 0.984627 0.963159 0.110004 -0.048533 1635130.000000 0 0 1
15.645692 24.375924 20.776359 35.645903 1.000172 0.948560 0.110903 -0.048059 852997.000000 0 0 1
14.309192 24.649644 21.476459 35.687480 1.044836 0.925053 0.116676 -0.051888 -69566.100000 0 0 1
13.663892 25.778374 20.940659 35.912918 1.083397 0.948263 0.116784 -0.050164 201059.000000 0 0 1
12.330092 25.849084 21.452659 35.782997 1.125715 0.927894 0.108657 -0.047575 536677.000000 0 0 1
11.521492 27.016894 20.827859 36.006347 1.167694 0.953970 0.086212 -0.044111 -96647.600000 0 0 1
12.120692 28.241974 21.117359 37.288914 1.165396 0.968766 0.083497 -0.041407 -102943.000000 0 0 1
11.582592 29.121644 20.191759 37.281815 1.192247 0.998459 0.077659 -0.040221 107761.000000 0 0 1
12.210692 30.542514 20.304959 38.655368 1.190468 1.017750 0.065838 -0.038458 53471.500000 0 0 1
11.736792 31.350034 21.382859 39.721575 1.212570 1.002356 0.066716 -0.034886 -897468.000000 0 0 1
12.327492 31.057594 22.642709 40.363764 1.192945 0.975244 0.063764 -0.033287 -274690.000000 0 0 1
11.774892 31.827024 23.824329 41.463311 1.216447 0.958695 0.059500 -0.029428 -157375.000000 0 0 1
10.467192 31.443274 24.177819 41.022049 1.249444 0.940498 0.054953 -0.030773 -223417.000000 0 0 1
10.074792 32.221699 25.292699 42.183645 1.267756 0.927813 0.066712 -0.030755 149967.000000 0 0 1
8.739992 31.926752 26.106959 42.157778 1.303591 0.902986 0.135621 -0.044319 1980330.000000 0 0 1
7.547692 32.611440 25.582959 42.130291 1.343358 0.918221 0.110368 -0.037837 1257380.000000 0 0 1
7.038792 32.152553 24.367719 40.952619 1.355278 0.933503 0.109676 -0.051607 -376639.000000 0 0 1
5.958592 31.041734 24.496589 39.989710 1.381149 0.911485 0.099267 -0.035540 -357100.000000 0 0 1
6.583592 29.829814 24.704209 39.286886 1.353574 0.890767 0.081511 -0.045615 -263087.000000 0 0 1
5.895292 28.673384 24.257589 38.017733 1.368021 0.878820 0.077073 -0.041353 -633154.000000 0 0 1
6.847592 27.462384 24.275939 37.287977 1.326435 0.861843 0.068443 -0.049450 -527449.000000 0 0 1
7.872392 27.379564 23.327919 36.821283 1.290821 0.884671 0.062368 -0.043006 474952.000000 0 0 1
9.000892 28.244864 23.504169 37.831658 1.262297 0.900417 0.095499 -0.048488 -366157.000000 0 0 1
10.012192 27.851394 24.588619 38.477842 1.225696 0.877556 0.095625 -0.052659 -1458800.000000 0 0 1
9.714792 27.909494 25.987539 39.353135 1.235831 0.849488 0.105262 -0.044332 357057.000000 0 0 1
10.847792 27.650864 26.826589 40.023877 1.196934 0.836231 0.095007 -0.028248 594620.000000 0 0 1
12.042392 28.635594 26.828159 41.045908 1.172710 0.858447 0.081006 -0.026810 -186024.000000 0 0 1
11.733292 29.903834 27.465799 42.264400 1.196887 0.863401 0.103001 -0.037155 -375586.000000 0 0 1
12.863992 30.690884 27.496509 43.167935 1.173894 0.880240 0.097661 -0.027747 -726445.000000 0 0 1
12.605892 31.985134 28.320379 44.542128 1.195372 0.881737 0.080205 -0.029823 -47586.600000 0 0 1
12.370792 31.682114 29.698999 45.153332 1.198536 0.852986 0.108562 -0.048374 -150484.000000 0 0 1
11.025292 31.714954 30.089079 45.086007 1.236228 0.840124 0.147864 -0.052012 -432491.000000 0 0 1
10.859892 31.538824 31.621707 45.962670 1.239178 0.812085 0.174743 -0.050096 -120969.000000 0 0 1
11.135192 30.234084 32.021421 45.425364 1.217913 0.788481 0.156402 -0.053823 262222.000000 0 0 1
11.280592 30.148324 33.435005 46.411989 1.212754 0.766423 0.183725 -0.046832 -62791.800000 0 0 1
11.262992 28.738164 -33.580521 45.611275 1.197277 2.398283 0.147790 -0.046229 1303340.000000 0 0 1
12.531192 28.031694 33.791349 45.658098 1.150410 0.737584 0.166190 -0.043503 1478240.000000 0 0 1
12.366792 26.666524 -33.427331 44.513228 1.136561 2.420300 0.163487 -0.048744 978181.000000 0 0 1
13.796092 26.000374 -33.362391 44.490457 1.082961 2.418673 0.150594 -0.050163 1057800.000000 0 0 1
13.777692 24.571914 -33.364511 43.666856 1.059768 2.440394 0.127127 -0.047223 -103457.000000 0 0 1
13.779192 24.080524 -32.020061 42.367701 1.051059 2.427619 0.120162 -0.044788 -195453.000000 0 0 1
13.789992 22.536984 -32.012471 41.507563 1.021685 2.451590 0.118849 -0.066865 -440181.000000 0 0 1
15.032492 21.952584 -32.334931 41.874091 0.970364 2.453084 0.103178 -0.040348 -59081.500000 0 0 1
15.023192 20.534184 -32.337501 41.146846 0.939163 2.474954 0.102102 -0.037639 52634.300000 0 0 1
16.353492 19.916384 -32.817631 41.726442 0.883317 2.475909 0.122774 -0.049288 119789.000000 0 0 1
17.525092 20.314584 -32.148421 41.872809 0.858984 2.446140 0.122118 -0.054654 -33506.800000 0 0 1
18.641092 19.690684 -32.753211 42.520421 0.812773 2.450098 0.125726 -0.052604 687939.000000 0 0 1
20.023892 19.935384 -32.051421 42.727852 0.783183 2.419054 0.112485 -0.045235 858973.000000 0 0 1
20.616392 21.288684 -32.227601 43.781982 0.801440 2.398076 0.105410 -0.038507 379853.000000 0 0 1
21.698992 21.558084 -31.357981 43.805481 0.782141 2.368631 0.085493 -0.029328 176327.000000 0 0 1
21.339492 21.847084 -29.870521 42.719047 0.797151 2.345119 0.080292 -0.028365 331013.000000 0 0 1
20.617692 23.103574 -29.810801 42.983115 0.842195 2.337197 0.065164 -0.020973 237770.000000 0 0 1
20.130292 23.630474 -28.605141 42.212345 0.865213 2.315357 0.070879 -0.017424 -425008.000000 0 0 1
21.221492 24.091894 -27.625161 42.354700 0.848659 2.281324 0.054472 -0.006515 26262.600000 0 0 1
22.132692 25.051194 -28.115741 43.679666 0.847173 2.270094 0.062253 -0.005496 -82971.600000 0 0 1
21.622092 26.389914 -28.074601 44.182866 0.884378 2.259346 0.047888 0.001769 119512.000000 0 0 1
22.568692 27.375884 -28.858051 45.733707 0.881353 2.253640 0.042692 0.000646 139394.000000 0 0 1
22.674092 27.265964 -30.269071 46.623641 0.877088 2.277357 0.047374 0.005120 -63606.900000 0 0 1
23.093892 26.013384 -30.830311 46.481524 0.844780 2.295991 0.048770 0.002903 1023430.000000 0 0 1
24.586092 25.566734 -30.512141 46.788081 0.804949 2.281193 0.074680 -0.005995 1023170.000000 0 0 1
25.535192 26.515694 -30.951161 48.094723 0.804233 2.269918 0.067928 0.000864 422768.000000 0 0 1
26.851692 26.207734 -30.485791 48.345032 0.773262 2.253107 0.088431 -0.019522 912566.000000 0 0 1
27.985092 27.201524 -30.870041 49.759900 0.771201 2.240023 0.070680 -0.004439 287014.000000 0 0 1
28.140792 28.224324 -29.952871 49.856706 0.786880 2.215272 0.048103 0.002443 719535.000000 0 0 1
29.325692 28.961604 -30.335051 51.176030 0.779152 2.205277 0.047815 0.000963 957738.000000 0 0 1
29.588092 30.140994 -29.383921 51.452400 0.794655 2.178629 0.036186 0.011105 -67263.700000 0 0 1
29.869392 29.736794 -28.066181 50.637614 0.783174 2.158265 0.058731 -0.003332 26064.000000 0 0 1
28.787392 30.061034 -27.232391 49.739148 0.807038 2.150175 0.048782 -0.001022 -267658.000000 0 0 1
29.234192 30.213954 -25.741741 49.296635 0.801878 2.120202 0.078372 -0.011957 -154184.000000 0 0 1
29.529092 28.975884 -25.102541 48.391184 0.775943 2.116175 0.066743 -0.002730 614304.000000 0 0 1
28.461792 28.208314 -24.479641 46.957804 0.780925 2.119183 0.069966 -0.005440 325330.000000 0 0 1
27.796692 28.735444 -23.198941 46.223075 0.802002 2.096580 0.074430 -0.005497 139126.000000 0 0 1
26.880392 29.821164 -23.394741 46.466883 0.837216 2.098408 0.097718 -0.005342 636975.000000 0 0 1
26.346992 30.236344 -22.093941 45.788019 0.854027 2.074333 0.068041 -0.005641 317792.000000 0 0 1
4.335192 -26.148106 -19.662341 33.001894 -1.406497 2.209051 0.100160 -0.021924 -450324.000000 0 0 1
3.899992 -27.200096 -18.861341 33.328747 -1.428385 2.172343 0.119858 -0.009890 237915.000000 0 0 1
3.582092 -26.773206 -17.559841 32.217759 -1.437792 2.147228 0.108003 -0.011711 -271424.000000 0 0 1
3.398492 -27.908356 -16.546341 32.622194 -1.449620 2.102742 0.094407 -0.013021 -545528.000000 0 0 1
4.536892 -28.648906 -16.225541 33.235695 -1.413739 2.080818 0.082312 -0.010742 -408922.000000 0 0 1
4.400192 -29.409416 -15.069141 33.336984 -1.422280 2.039830 0.077673 -0.016987 -1396900.000000 0 0 1
5.679092 -30.003436 -14.606141 33.849633 -1.383728 2.016952 0.107083 -0.013493 -1934380.000000 0 0 1
6.612092 -29.004406 -14.297441 33.005942 -1.346658 2.018812 0.076223 -0.012116 64698.900000 0 0 1
7.980292 -29.388196 -14.429341 33.698027 -1.305643 2.013291 0.079718 -0.013055 742733.000000 0 0 1
8.440492 -30.262956 -13.218041 34.085261 -1.298803 1.969033 0.082181 -0.014811 -1395890.000000 0 0 1
8.679492 -29.558636 -12.025141 33.070388 -1.285188 1.942950 0.064363 -0.011361 97396.800000 0 0 1
8.925792 -30.393016 -10.883741 33.494194 -1.285149 1.901749 0.065217 -0.014304 -135057.000000 0 0 1
10.114092 -31.384466 -10.918541 34.734624 -1.259041 1.890559 0.072355 -0.013685 14318.000000 0 0 1
11.321792 -30.787646 -10.483641 34.437899 -1.218407 1.880128 0.052727 -0.015218 408079.000000 0 0 1
12.422392 -31.675726 -10.306841 35.551349 -1.197055 1.864934 0.054741 -0.012529 601796.000000 0 0 1
13.519192 -31.176056 -9.338141 35.240827 -1.161630 1.838980 0.054608 -0.004222 54760.300000 0 0 1
14.473592 -30.222936 -9.793041 34.911522 -1.124175 1.855122 0.072307 -0.022440 252319.000000 0 0 1
15.369492 -30.004576 -8.748641 34.828646 -1.097406 1.824707 0.064768 -0.017636 -270008.000000 0 0 1
16.704992 -29.310606 -9.142341 34.953552 -1.052781 1.835431 0.082481 -0.024980 156743.000000 0 0 1
16.668392 -27.910226 -9.245141 33.797761 -1.032428 1.847871 0.112742 -0.027245 220159.000000 0 0 1
15.950892 -27.384216 -10.348041 33.337790 -1.043355 1.886410 0.095252 -0.023982 -229228.000000 0 0 1
15.855392 -25.814446 -10.334641 32.009122 -1.019997 1.899552 0.092225 -0.028278 -921571.000000 0 0 1
14.770292 -25.319186 -9.635041 30.855417 -1.042699 1.888372 0.054314 -0.022600 -80426.400000 0 0 1
14.068692 -24.141406 -10.121041 29.718194 -1.043148 1.918316 0.032419 -0.011018 685031.000000 0 0 1
13.447892 -24.162306 -11.557441 29.970607 -1.062927 1.966682 0.010323 -0.008699 -50128.400000 0 0 1
14.385692 -23.866706 -12.577641 30.573924 -1.028356 1.994769 0.009301 -0.009181 179774.000000 0 0 1
13.786092 -24.124406 -13.841741 31.042505 -1.051628 2.032972 0.015331 -0.009423 59862.200000 0 0 1
14.466892 -23.303106 -14.931041 31.229180 -1.015213 2.069300 0.024390 -0.007370 139534.000000 0 0 1
15.765892 -23.777806 -15.219741 32.335552 -0.985301 2.060859 0.037729 -0.016979 77673.300000 0 0 1
16.246792 -23.182406 -16.385241 32.708689 -0.959517 2.095486 0.041266 -0.029508 -264049.000000 0 0 1
17.240492 -24.075506 -17.227341 34.258515 -0.949346 2.097704 0.052191 -0.034131 556637.000000 0 0 1
18.543192 -24.241506 -16.717041 34.798851 -0.917805 2.071896 0.102286 -0.041167 -150883.000000 0 0 1
19.439392 -23.209606 -17.018841 34.730631 -0.873570 2.082914 0.116365 -0.051270 -966220.000000 0 0 1
20.779492 -23.249906 -16.291741 35.181902 -0.841448 2.052254 0.113851 -0.043571 -302417.000000 0 0 1
21.491192 -24.405106 -16.719041 36.565105 -0.848802 2.045686 0.124312 -0.039710 -1378320.000000 0 0 1
22.826792 -24.279506 -16.442141 37.160474 -0.816227 2.029140 0.136128 -0.022714 -1046300.000000 0 0 1
23.738592 -25.345756 -17.080341 38.699692 -0.818129 2.027906 0.128501 -0.015601 -174006.000000 0 0 1
23.998192 -25.038966 -18.469441 39.293553 -0.806619 2.060130 0.144746 -0.018538 -165072.000000 0 0 1
24.798692 -25.984176 -19.137641 40.698917 -0.808738 2.060342 0.122785 -0.022693 154874.000000 0 0 1
26.135292 -25.368826 -19.643941 41.382548 -0.770518 2.065410 0.117624 -0.022926 168351.000000 0 0 1
25.834792 -24.327206 -20.504341 40.983868 -0.755353 2.094745 0.117926 -0.019334 -23656.700000 0 0 1
26.152992 -23.091106 -19.911641 40.170283 -0.723300 2.089415 0.122425 -0.020555 -76397.100000 0 0 1
25.257592 -21.898806 -20.405641 39.164957 -0.714292 2.118839 0.146933 -0.042054 -63201.300000 0 0 1
25.424092 -21.450606 -21.751441 39.744662 -0.700832 2.149907 0.122895 -0.023769 253294.000000 0 0 1
24.885392 -22.319306 -22.779441 40.451664 -0.731091 2.168962 0.092925 -0.017080 -174425.000000 0 0 1
24.054892 -21.590506 -23.831341 40.158693 -0.731461 2.206109 0.080969 -0.009745 -313894.000000 0 0 1
24.819092 -20.860006 -24.760141 40.794507 -0.698943 2.223011 0.055400 0.000637 199829.000000 0 0 1
24.000292 -20.065806 -25.628991 40.441263 -0.696348 2.257167 0.051766 0.000306 10881.600000 0 0 1
24.768092 -19.444606 -26.821611 41.363630 -0.665569 2.276323 0.058263 0.001249 -441558.000000 0 0 1
24.055192 -18.468206 -27.545941 40.969571 -0.654760 2.308177 0.053606 0.002000 -255294.000000 0 0 1
24.705792 -17.972906 -28.670351 41.897381 -0.628930 2.324439 0.068336 0.001620 -502716.000000 0 0 1
23.937692 -16.806006 -29.307811 41.405347 -0.612116 2.357213 0.104863 -0.007765 1057530.000000 0 0 1
22.612492 -17.261106 -29.734261 41.150904 -0.651987 2.378304 0.093761 -0.014042 1433890.000000 0 0 1
22.058292 -16.385206 -30.671941 41.180228 -0.638886 2.411064 0.110587 -0.027255 267264.000000 0 0 1
20.689692 -16.803106 -31.286721 41.100689 -0.682105 2.435991 0.087693 -0.025041 44441.100000 0 0 1
20.824392 -17.756106 -32.280441 42.319753 -0.706036 2.438390 0.086341 -0.017790 256536.000000 0 0 1
19.615892 -18.063306 -32.931661 42.374055 -0.744216 2.460946 0.081424 -0.026844 -111365.000000 0 0 1
19.938092 -18.925006 33.435468 43.285262 -0.759336 0.688115 0.089796 -0.004288 129119.000000 0 0 1
20.515292 -20.181306 -33.768361 44.367381 -0.777192 2.435816 0.091941 0.000674 263228.000000 0 0 1
20.748992 -20.922406 32.657502 43.986136 -0.789560 0.734076 0.082056 -0.004954 355167.000000 0 0 1
21.643792 -22.199606 32.858115 45.176675 -0.798075 0.756381 0.072293 -0.006897 175124.000000 0 0 1
20.986192 -23.159306 33.631329 45.911219 -0.834585 0.748766 0.075480 -0.008731 120269.000000 0 0 1
21.264092 -23.055606 -32.556571 45.206779 -0.825799 2.374844 0.078020 -0.009059 317817.000000 0 0 1
20.210792 -23.864306 -31.714431 44.539717 -0.868102 2.363208 0.080474 -0.014858 298620.000000 0 0 1
20.354992 -25.247296 -31.820251 45.434349 -0.892271 2.346693 0.092410 -0.033776 19597.300000 0 0 1
21.317692 -25.695576 -30.892931 45.487139 -0.878251 2.317411 0.088496 -0.025935 32020.600000 0 0 1
21.494492 -27.201536 -30.809131 46.380376 -0.902063 2.297314 0.073309 -0.032558 504159.000000 0 0 1
20.349792 -27.824306 -30.212341 45.837666 -0.939327 2.290439 0.076556 -0.038275 439355.000000 0 0 1
20.542892 -29.207096 -30.070451 46.682940 -0.957824 2.270698 0.075819 -0.031482 -1346820.000000 0 0 1
19.355292 -29.841556 -29.415141 46.156217 -0.995405 2.261780 0.110257 -0.029136 -782731.000000 0 0 1
18.187892 -29.927386 -30.201521 46.244781 -1.024709 2.282440 0.122150 -0.036688 -56959.900000 0 0 1
18.257992 -30.804776 -31.305651 47.563981 -1.035762 2.289195 0.133813 -0.039056 -494465.000000 0 0 1
16.817292 -31.222576 -31.714691 47.576173 -1.076727 2.300446 0.160117 -0.049482 94668.400000 0 0 1
16.066692 -30.281196 -32.348621 47.133032 -1.082983 2.327222 0.161933 -0.045136 -716462.000000 0 0 1
14.828892 -30.772056 -32.790031 47.349780 -1.121738 2.335754 0.121234 -0.034842 284407.000000 0 0 1
13.966292 -29.644076 -33.511151 46.870309 -1.130508 2.367386 0.120500 -0.031898 648681.000000 0 0 1
13.184092 -28.809926 -32.634141 45.484275 -1.141621 2.370977 0.135229 -0.041509 794778.000000 0 0 1
12.101792 -28.224256 -33.389181 45.364076 -1.165734 2.397979 0.120712 -0.038054 1404480.000000 0 0 1
10.997892 -27.472976 -32.503651 43.956858 -1.190017 2.403041 0.134185 -0.038882 1476720.000000 0 0 1
10.045392 -28.412506 -31.921681 43.899592 -1.230958 2.384961 0.135308 -0.043858 659568.000000 0 0 1
9.038992 -27.716646 -31.224071 42.718362 -1.255550 2.390478 0.101482 -0.041659 -205948.000000 0 0 1
8.058092 -28.529646 -30.367481 42.438868 -1.295521 2.368219 0.094263 -0.040810 697429.000000 0 0 1
6.848192 -29.031486 -30.972341 43.000126 -1.339143 2.375009 0.083096 -0.035598 623611.000000 0 0 1
7.016092 -30.028536 -31.972981 44.420829 -1.341266 2.374274 0.097878 -0.039045 -102024.000000 0 0 1
5.692092 -30.642526 -32.506351 45.033623 -1.387132 2.377231 0.128201 -0.043725 368487.000000 0 0 1
4.916092 -31.263656 -31.531071 44.674295 -1.414827 2.354347 0.140837 -0.058477 -221063.000000 0 0 1
3.683092 -31.784246 -31.953791 45.219998 -1.455433 2.355520 0.172776 -0.066058 -386078.000000 0 0 1
2.715692 -32.176486 -30.815791 44.635348 -1.486596 2.332824 0.159689 -0.062240 741718.000000 0 0 1
1.724692 -31.169006 -30.489651 43.635998 -1.515519 2.344413 0.129828 -0.045858 1103240.000000 0 0 1
0.458392 -31.251006 -31.138611 44.118575 -1.556129 2.354339 0.098952 -0.010726 404578.000000 0 0 1
-0.548208 -30.169126 -30.692011 43.040403 1.552627 2.364703 0.064371 0.001546 -18320.100000 0 0 1
-1.202208 -30.330426 -29.450991 42.293510 1.531180 2.341092 0.044505 -0.001137 67187.300000 0 0 1
-1.993608 -29.214606 -29.104231 41.285881 1.502662 2.353140 0.100210 -0.010093 40161.400000 0 0 1
-2.702208 -29.505586 -27.776261 40.612834 1.479468 2.323930 0.108506 -0.019089 -627811.000000 0 0 1
-1.808208 -29.312706 -26.746891 39.722797 1.509188 2.309512 0.082380 -0.013663 -234738.000000 0 0 1
-2.319108 -29.654556 -25.474361 39.162662 1.492751 2.279007 0.106693 -0.023721 240136.000000 0 0 1
-1.166908 -29.592626 -24.456941 38.408686 1.531384 2.261079 0.059652 -0.020254 93877.700000 0 0 1
-1.731408 -29.608466 -23.164641 37.633226 1.512386 2.233863 0.118688 -0.029955 585886.000000 0 0 1
-0.812008 -30.270516 -22.263541 37.584954 1.543978 2.204772 0.099859 -0.023966 504339.000000 0 0 1
-1.270708 -30.298516 -20.796441 36.771004 1.528881 2.171916 0.064631 -0.015128 76391.000000 0 0 1
-1.186108 -29.061566 -20.088541 35.348706 1.530005 2.175230 0.042694 -0.009856 -295674.000000 0 0 1
0.100692 -28.746986 -19.631341 34.810759 -1.567294 2.169951 0.073626 -0.015729 -324424.000000 0 0 1
0.158592 -27.358006 -18.949441 33.280129 -1.564999 2.176562 0.086449 -0.018420 -644078.000000 0 0 1
-0.701708 -27.244426 -17.894641 32.603211 1.545046 2.151798 0.082592 -0.019729 -391653.000000 0 0 1
-0.518908 -26.003466 -17.197941 31.180422 1.550844 2.155032 0.100569 -0.022302 -137912.000000 0 0 1
-1.581308 -25.826106 -16.098641 30.473834 1.509644 2.127367 0.092290 -0.018676 -269593.000000 0 0 1
-1.639908 -24.556306 -15.464241 29.066204 1.504114 2.131799 0.088449 -0.014920 624238.000000 0 0 1
-2.533008 -24.628306 -14.319841 28.601179 1.468307 2.095173 0.093818 -0.017084 299419.000000 0 0 1
-2.401108 -23.495806 -13.304641 27.107780 1.468957 2.083810 0.092528 -0.017007 -58478.100000 0 0 1
-1.244208 -23.622306 -12.492441 26.751122 1.518174 2.056677 0.108324 -0.029155 107621.000000 0 0 1
-1.236508 -22.822806 -11.317441 25.504782 1.516671 2.030562 0.113516 -0.027541 512972.000000 0 0 1
0.230392 -22.637906 -10.811441 25.088148 -1.560619 2.016329 0.112554 -0.033896 600717.000000 0 0 1
0.594392 -21.371906 -10.285141 23.725426 -1.542992 2.019177 0.095149 -0.022355 390747.000000 0 1 0
1.944492 -21.242706 -9.843341 23.493084 -1.479514 2.003128 0.080925 -0.020690 706690.000000 0 1 0
2.442692 -19.878306 -9.309241 22.085647 -1.448527 2.005902 0.081078 -0.015542 -713978.000000 0 1 0
2.663892 -19.048306 -10.412441 21.871288 -1.431848 2.066986 0.070481 -0.005748 59803.900000 0 1 0
3.528692 -17.942406 -10.217241 20.946924 -1.376607 2.080328 0.046955 -0.006678 419606.000000 0 1 0
5.052492 -18.227606 -10.061941 21.424658 -1.300396 2.059683 0.060835 -0.016587 117294.000000 0 1 0
5.220092 -18.829306 -8.796741 21.428364 -1.300356 1.993819 0.059314 -0.011846 -520532.000000 0 1 0
6.464092 -19.461806 -8.663241 22.262034 -1.250118 1.970504 0.042308 0.000439 -212221.000000 0 1 0
6.295992 -20.486606 -7.525341 22.715002 -1.272635 1.908471 0.039112 -0.016380 122934.000000 0 1 0
5.524192 -21.635906 -7.870641 23.676489 -1.320812 1.909669 0.077100 -0.026419 322369.000000 0 1 0
5.632192 -22.622606 -6.873841 24.305423 -1.326794 1.857520 0.081117 -0.027306 628444.000000 0 1 0
4.608692 -23.757406 -7.295541 25.276062 -1.379187 1.863597 0.093292 -0.028788 793037.000000 0 0 1
5.073692 -24.318406 -8.491041 26.253095 -1.365111 1.900149 0.077425 -0.028306 -46032.000000 0 0 1
4.036192 -25.031286 -9.104841 26.939827 -1.410927 1.915555 0.085766 -0.022721 -109037.000000 0 0 1
4.494192 -25.920396 -10.311041 28.255659 -1.399119 1.944343 0.056270 -0.021201 143896.000000 0 0 1
4.978892 -27.240016 -9.956841 29.426970 -1.390013 1.915967 0.068146 -0.024347 104137.000000 0 0 1
5.430392 -27.997226 -11.057141 30.587485 -1.379213 1.940664 0.090008 -0.019729 32134.500000 0 0 1
5.283192 -29.533526 -10.874741 31.912400 -1.393781 1.918531 0.093599 -0.024080 138642.000000 0 0 1
3.952192 -29.964226 -11.130241 32.208026 -1.439656 1.923646 0.100313 -0.019334 446586.000000 0 0 1
3.735192 -31.367966 -10.974741 33.441679 -1.452278 1.905168 0.107286 -0.017100 142243.000000 0 0 1
2.341592 -31.791996 -11.506441 33.891183 -1.497276 1.917194 0.092798 -0.021428 142066.000000 0 0 1
2.312792 -31.793996 -12.935741 34.402625 -1.498181 1.956283 0.095924 -0.022363 457232.000000 0 0 1
1.127492 -32.466266 -13.305541 35.105087 -1.536082 1.959534 0.089012 -0.023345 -169596.000000 0 0 1
0.808992 -32.448546 -14.832641 35.687111 -1.545870 1.999432 0.083851 -0.018375 -6187.640000 0 0 1
-0.174308 -31.470966 -15.122341 34.916147 1.565258 2.018731 0.081726 -0.018354 40719.400000 0 0 1
-0.593408 -31.705466 -16.468241 35.732222 1.552082 2.049782 0.062924 -0.018070 370421.000000 0 0 1
-1.774308 -30.782576 -16.926641 35.174229 1.513220 2.072845 0.064946 -0.011115 1067340.000000 0 0 1
-3.007608 -31.105306 -16.260741 35.227794 1.474405 2.050581 0.062917 -0.017148 177734.000000 0 0 1
-4.089208 -30.599036 -17.005441 35.244967 1.437945 2.074295 0.079273 -0.009782 7884.060000 0 0 1
-5.440008 -30.643126 -16.274241 35.120447 1.395099 2.052606 0.070883 -0.010376 -474118.000000 0 0 1
-5.563408 -29.486896 -15.476241 33.763036 1.384315 2.046966 0.067519 -0.010131 64973.100000 0 0 1
-6.912008 -29.095886 -15.328141 33.605035 1.337560 2.044434 0.077894 -0.015151 138713.000000 0 0 1
-7.763008 -29.799626 -14.244941 33.929344 1.315954 2.004067 0.063064 -0.026625 -259344.000000 0 0 1
-8.040208 -31.109256 -14.599041 35.292532 1.317880 1.997265 0.066613 -0.024009 -313026.000000 0 0 1
-8.623508 -31.853246 -13.542341 35.670565 1.306408 1.960215 0.072306 -0.016495 268272.000000 0 0 1
-8.923108 -33.297766 -14.002141 37.207836 1.308969 1.956620 0.104597 -0.027018 816291.000000 0 0 1
-7.683708 33.663997 -14.097141 37.296561 -1.346393 1.958404 0.084905 -0.020306 758066.000000 0 0 1
-7.979708 32.293377 -14.187841 36.163971 -1.328548 1.973949 0.110722 -0.033705 -404551.000000 0 0 1
-8.332208 -21.880306 -3.780341 23.716334 1.206943 1.730877 0.127647 -0.026212 119191.000000 0 1 0
-8.103008 -20.684506 -4.515141 22.669231 1.197428 1.771312 0.107332 -0.028353 -188536.000000 0 1 0
-6.813708 -20.738606 -5.085641 22.413839 1.253355 1.799687 0.115455 -0.031462 303109.000000 0 1 0
-6.463008 -19.619006 -6.053241 21.524814 1.252567 1.855863 0.103672 -0.039333 -175843.000000 0 1 0
-7.191508 -19.800206 -7.264041 22.283004 1.222408 1.902855 0.098017 -0.041219 29848.000000 0 1 0
-7.104908 -18.672206 -8.074041 21.548113 1.207206 1.954868 0.067384 -0.044272 -42741.200000 0 1 0
-7.962908 -18.816606 -9.379241 22.482054 1.170464 2.001145 0.071698 -0.045513 143450.000000 0 1 0
-7.478508 -19.673606 -10.346841 23.452846 1.207537 2.027705 0.089434 -0.038570 115454.000000 0 1 0
-8.501508 -19.942506 -11.316841 24.455063 1.167824 2.051903 0.100005 -0.039951 442133.000000 0 1 0
-8.074108 -21.019106 -12.301241 25.657642 1.204044 2.070810 0.095461 -0.026378 -108457.000000 0 0 1
-6.989608 -20.565806 -13.115341 25.373593 1.243178 2.114010 0.090372 -0.011934 188854.000000 0 0 1
-6.862008 -21.311006 -14.278241 26.553989 1.259286 2.138510 0.075280 -0.012246 95653.400000 0 0 1
-5.616308 -20.857406 -15.083641 26.345598 1.307763 2.180384 0.068008 -0.003113 -21589.100000 0 0 1
-4.382208 -20.960706 -14.372041 25.789737 1.364697 2.161900 0.057958 -0.007168 499018.000000 0 0 1
-3.283808 -20.533006 -15.167041 25.737655 1.412211 2.200981 0.067168 -0.002269 64243.100000 0 0 1
-3.089008 -18.959506 -15.285441 24.548922 1.409289 2.242924 0.070297 -0.001282 -887066.000000 0 1 0
-4.016708 -18.206506 -16.065041 24.610899 1.353655 2.282020 0.070364 -0.006129 147730.000000 0 1 0
-4.002208 -18.465606 -17.462741 25.728265 1.357359 2.316839 0.117096 -0.020104 -120561.000000 0 0 1
-5.314608 -18.017106 -18.147741 26.118991 1.283955 2.338952 0.103597 -0.015057 387301.000000 0 0 1
-6.463308 -18.773306 -17.832241 26.687080 1.239225 2.302580 0.081506 -0.013813 -1037800.000000 0 0 1
-7.580408 -18.452206 -18.559541 27.247075 1.181003 2.320138 0.070497 -0.020602 -1046600.000000 0 0 1
-8.648308 -19.418606 -18.065941 27.897200 1.151806 2.275213 0.099881 -0.023159 -550520.000000 0 0 1
-8.260708 -20.740006 -18.459541 28.967945 1.191758 2.261708 0.113686 -0.018931 57783.300000 0 0 1
-9.183508 -21.713106 -18.126041 29.738009 1.170665 2.226257 0.139101 -0.019734 -359881.000000 0 0 1
-8.778808 -23.078906 -18.761741 31.011390 1.207315 2.220556 0.156365 -0.028533 -341397.000000 0 0 1
-8.929008 -22.976806 -20.211241 31.877188 1.200148 2.257556 0.153023 -0.031990 188930.000000 0 0 1
-8.434608 -24.059106 -21.001741 33.031142 1.233606 2.259862 0.178248 -0.051422 662985.000000 0 0 1
-6.867608 -24.181206 -21.120241 32.832292 1.294077 2.269566 0.177606 -0.035480 468248.000000 0 0 1
-6.253708 -23.100406 -21.754341 32.341753 1.306415 2.308566 0.210189 -0.056153 72396.000000 0 0 1
-6.014708 -21.855706 -21.036241 30.925266 1.302243 2.318870 0.170267 -0.051602 -399490.000000 0 0 1
-5.037608 -21.800006 -19.817741 29.889139 1.343700 2.295671 0.167309 -0.030011 499802.000000 0 0 1
-3.664208 -22.065006 -20.058241 30.043701 1.406234 2.301825 0.149894 -0.033001 190501.000000 0 0 1
-2.928008 -21.914606 -18.899741 29.086482 1.437973 2.278088 0.095581 -0.028040 827087.000000 0 0 1
-1.407308 -22.334106 -18.809541 29.233400 1.507868 2.269762 0.112662 -0.025772 264382.000000 0 0 1
-0.585808 -21.534306 -19.540541 29.084399 1.543600 2.307509 0.136116 -0.037532 -839308.000000 0 0 1
0.677592 -22.176806 -19.443741 29.501338 -1.540252 2.290391 0.103505 -0.036371 65838.100000 0 0 1
1.816892 -21.446706 -20.173441 29.499662 -1.486282 2.323827 0.093661 -0.036287 -35263.000000 0 0 1
1.570592 -21.389306 -21.547241 30.401526 -1.497499 2.358528 0.085476 -0.044632 -698064.000000 0 0 1
2.595192 -20.789506 -22.258341 30.567505 -1.446607 2.386445 0.086239 -0.045853 -945615.000000 0 0 1
2.384792 -20.948806 -23.788241 31.787107 -1.457445 2.416384 0.126105 -0.058374 298025.000000 0 0 1
1.451992 -20.087106 -24.450241 31.676717 -1.498637 2.452570 0.143642 -0.057531 -872936.000000 0 0 1
0.125992 -20.222406 -24.071141 31.438534 -1.564566 2.442859 0.167642 -0.055407 -977819.000000 0 0 1
-0.724608 -19.199506 -24.915841 31.463395 1.533073 2.484709 0.197555 -0.059228 167116.000000 0 0 1
-0.354608 -17.910606 -24.519541 30.366486 1.551000 2.510620 0.138092 -0.045633 -370976.000000 0 0 1
-1.118908 -16.931006 -25.153991 30.341955 1.504806 2.548144 0.178399 -0.052689 -126294.000000 0 0 1
-0.672108 -15.472306 -24.830841 29.264563 1.527384 2.583932 0.149260 -0.029262 860270.000000 0 0 1
0.694492 -15.217706 -25.208851 29.454152 -1.525191 2.598022 0.137470 -0.035730 461058.000000 0 0 1
1.195792 -13.989706 -24.693341 28.406036 -1.485527 2.624579 0.111135 -0.035496 240306.000000 0 0 1
0.688192 -12.716306 -25.450281 28.458652 -1.516730 2.677638 0.118977 -0.025874 -15979.000000 0 0 1
1.334692 -11.518406 -25.073041 27.624491 -1.455436 2.708419 0.088557 -0.019153 136807.000000 0 0 1
0.748592 -10.414606 -25.741031 27.778141 -1.499041 2.756238 0.092598 -0.023871 -162560.000000 0 0 1
1.495092 -9.055606 -25.500371 27.101812 -1.407171 2.796104 0.088975 -0.022730 981904.000000 0 0 1
2.848592 -8.830806 -25.930371 27.540548 -1.258760 2.797952 0.089212 -0.029331 522725.000000 0 0 1
2.955192 -8.849506 -27.326711 28.875527 -1.248501 2.812582 0.103594 -0.038096 -13813.000000 0 0 1
4.412692 -8.611406 -27.866221 29.498380 -1.097259 2.807382 0.123950 -0.039613 635660.000000 0 0 1
4.799892 -7.206406 -27.763761 29.082601 -0.983215 2.839285 0.113944 -0.031993 869848.000000 0 0 1
6.056392 -6.898106 -28.409241 29.855464 -0.850282 2.829064 0.134579 -0.034389 1268030.000000 0 0 1
7.324392 -7.036306 -27.480121 29.296986 -0.765340 2.787567 0.145010 -0.032731 527928.000000 0 0 1
7.858792 -8.317806 -27.114921 29.430689 -0.813766 2.742244 0.107762 -0.039689 337533.000000 0 0 1
8.589392 -8.966606 -28.106471 30.727047 -0.806881 2.725597 0.107625 -0.041194 -605229.000000 0 0 1
8.992892 -10.376006 -27.610561 30.836289 -0.856686 2.680107 0.118657 -0.038133 -374415.000000 0 0 1
7.892792 -11.221406 -27.353411 30.601066 -0.957813 2.676703 0.113826 -0.042713 131092.000000 0 0 1
8.166092 -12.421306 -26.600001 30.471855 -0.989218 2.631987 0.120553 -0.035089 -446318.000000 0 0 1
9.292692 -13.356306 -27.043951 31.561374 -0.962926 2.599961 0.118202 -0.037656 -661519.000000 0 0 1
8.947792 -14.130606 -28.182371 32.771681 -1.006307 2.605990 0.124531 -0.046976 -894543.000000 0 0 1
9.959792 -14.952306 -28.652501 33.819148 -0.983183 2.581540 0.113307 -0.051954 -665069.000000 0 0 1
9.637792 -15.759306 -29.910541 35.155131 -1.021919 2.588332 0.114257 -0.052059 -237175.000000 0 0 1
9.560492 -14.910606 -31.071731 35.765649 -1.000641 2.623487 0.136074 -0.058169 262612.000000 0 0 1
8.791992 -15.591706 -32.024911 36.687809 -1.057352 2.631918 0.152438 -0.051616 -390216.000000 0 0 1
7.509392 -14.848106 -32.407701 36.429608 -1.102561 2.667260 0.153668 -0.051941 -483424.000000 0 0 1
7.746692 -13.801506 -33.344641 36.910133 -1.059324 2.698432 0.157195 -0.047374 -571013.000000 0 0 1
6.600592 -13.133206 -33.712701 36.777645 -1.105080 2.730445 0.200442 -0.064907 -882666.000000 0 0 1
6.803392 -11.994206 32.888904 35.662685 -1.054826 0.397009 0.210739 -0.054907 -136421.000000 0 0 1
7.166392 -12.319606 31.537708 34.608625 -1.043937 0.424445 0.204034 -0.047998 231953.000000 0 0 1
7.120292 -11.143006 30.779899 33.500259 -1.002199 0.405777 0.209378 -0.049675 12189.600000 0 0 1
7.708292 -11.280906 29.358789 32.382327 -0.971364 0.435569 0.206779 -0.038756 422652.000000 0 0 1
6.831992 -12.049006 28.542229 31.725597 -1.054982 0.451808 0.194450 -0.037758 888615.000000 0 0 1
7.458492 -12.028206 27.256839 30.712247 -1.015740 0.478925 0.142655 -0.031124 984354.000000 0 0 1
6.460892 -12.689206 26.218549 29.835740 -1.099844 0.497532 0.131301 -0.040830 352108.000000 0 0 1
6.724592 -14.036506 25.906259 30.222143 -1.124025 0.540999 0.121070 -0.027411 -361299.000000 0 0 1
6.150092 -14.557506 24.733699 29.351329 -1.171072 0.568560 0.080399 -0.021935 356580.000000 0 0 1
4.640892 -14.940606 24.812779 29.333149 -1.269623 0.562554 0.101241 -0.028714 841903.000000 0 0 1
3.775192 -13.774506 24.901789 28.706936 -1.303294 0.520746 0.092406 -0.037307 -1462070.000000 0 0 1
2.471192 -14.147906 24.817519 28.673669 -1.397872 0.524617 0.095062 -0.035240 -1597330.000000 0 0 1
1.620392 -12.896706 24.642289 27.860243 -1.445807 0.485382 0.105168 -0.029929 -803246.000000 0 0 1
1.857392 -12.110506 23.446639 26.454851 -1.418612 0.481527 0.057245 -0.023379 14206.700000 0 0 1
0.900692 -11.072306 23.226509 25.746416 -1.489629 0.446125 0.060348 -0.018253 1131790.000000 0 0 1
-0.575208 -11.491406 22.926509 25.651669 1.520783 0.465131 0.083004 -0.017596 240827.000000 0 0 1
-0.625508 -12.251606 21.696059 24.924127 1.519785 0.514611 0.070351 -0.016817 387211.000000 0 1 0
-1.793108 -13.096606 21.644059 25.361420 1.434728 0.548276 0.088267 -0.021654 867641.000000 0 0 1
-2.101608 -13.599706 20.210459 24.450592 1.417476 0.597786 0.107108 -0.028556 191194.000000 0 1 0
-1.098608 -14.520706 19.814959 24.590455 1.495282 0.633773 0.125034 -0.039225 -404899.000000 0 1 0
-1.244008 -15.329906 18.620559 24.151166 1.489825 0.690386 0.123909 -0.040622 -538332.000000 0 1 0
-2.333608 -16.368106 18.549659 24.848551 1.429180 0.727997 0.111111 -0.045126 -366079.000000 0 1 0
-2.222108 -17.253706 17.464859 24.650547 1.442711 0.783429 0.085537 -0.039434 214165.000000 0 1 0
-3.267408 -18.260206 17.565459 25.547142 1.393734 0.812659 0.101367 -0.035478 688694.000000 0 0 1
-2.980408 -19.556506 16.809859 25.959799 1.419560 0.866452 0.097437 -0.037653 -386407.000000 0 0 1
-2.015408 -20.345406 17.429159 26.865834 1.472059 0.864858 0.094891 -0.038485 -604678.000000 0 0 1
-2.045108 -21.721206 17.128059 27.737406 1.476920 0.905226 0.087377 -0.054933 -212685.000000 0 0 1
-0.941608 -22.476006 17.870559 28.730026 1.528927 0.899481 0.108297 -0.037815 35409.300000 0 0 1
0.332892 -22.324606 17.291259 28.239804 -1.555886 0.911829 0.119013 -0.043302 -204391.000000 0 0 1
1.262792 -23.269006 17.841559 29.348978 -1.516580 0.917370 0.148713 -0.031651 108381.000000 0 0 1
2.592792 -23.366506 17.094659 29.067913 -1.460287 0.942096 0.146941 -0.038467 -393672.000000 0 0 1
3.344792 -22.214706 17.337959 28.377555 -1.421352 0.913506 0.139583 -0.043480 -406931.000000 0 0 1
4.309092 -21.967206 16.322459 27.704677 -1.377096 0.940779 0.143197 -0.045420 572695.000000 0 0 1
5.305692 -20.823706 16.735359 27.236912 -1.321314 0.909124 0.123797 -0.033368 -361399.000000 0 0 1
6.287192 -21.186306 17.663259 28.290972 -1.282317 0.896507 0.129628 -0.020796 -29693.300000 0 0 1
7.186792 -20.215306 18.168959 28.114403 -1.229219 0.868135 0.124415 -0.019880 642726.000000 0 0 1
8.122092 -19.422006 17.236959 27.208371 -1.174708 0.884706 0.106583 -0.021817 -105237.000000 0 0 1
7.360592 -18.578706 16.295259 25.785308 -1.193584 0.886718 0.099399 -0.018771 323820.000000 0 0 1
8.139892 -17.908506 15.354459 24.954596 -1.144185 0.908035 0.117787 -0.030270 -234445.000000 0 1 0
7.290792 -16.830106 14.650359 23.474266 -1.162001 0.896813 0.074618 -0.017942 -339478.000000 0 1 0
6.244692 -17.380806 13.905959 23.118484 -1.225872 0.925409 0.078569 -0.017403 -439508.000000 0 1 0
5.760292 -16.381506 13.065259 21.730985 -1.232667 0.925760 0.054731 -0.018335 -292522.000000 0 1 0
6.266292 -16.487306 11.589959 21.105090 -1.207590 0.989444 0.059293 -0.024736 -1521420.000000 0 1 0
7.602392 -16.259106 11.528959 21.332412 -1.133422 0.999832 0.058987 -0.012307 -1698560.000000 0 1 0
8.148792 -16.542106 10.268959 21.106767 -1.113079 1.062689 0.056111 -0.011042 -166857.000000 0 1 0
9.532092 -15.885806 10.169559 21.133848 -1.030349 1.068776 0.058796 -0.012295 -102146.000000 0 1 0
10.371792 -16.454506 9.180859 21.508441 -1.008372 1.129791 0.073352 -0.006462 -614333.000000 0 1 0
11.635992 -15.862606 9.263959 21.744873 -0.937908 1.130697 0.074275 0.001021 -289582.000000 0 1 0
12.740492 -16.586506 8.473559 22.566203 -0.915796 1.185863 0.086349 -0.011657 -43386.000000 0 1 0
13.106992 -17.827306 9.051459 23.906798 -0.936822 1.182497 0.092479 -0.022048 -96471.600000 0 1 0
13.804792 -18.600206 8.113559 24.543223 -0.932316 1.233876 0.090032 -0.021126 25629.200000 0 1 0
14.384992 -19.938306 8.646759 26.062051 -0.945802 1.232611 0.087095 -0.019116 -55345.200000 0 0 1
13.396792 -20.926306 8.876959 26.385313 -1.001349 1.227667 0.082124 -0.021873 -18724.100000 0 0 1
13.999692 -22.114106 9.300059 27.776180 -1.006418 1.229381 0.058037 -0.014613 335361.000000 0 0 1
13.009092 -23.051606 10.096259 28.329269 -1.057005 1.206395 0.073670 -0.021859 437598.000000 0 0 1
12.807692 -22.435406 11.359559 28.220985 -1.052072 1.156526 0.084966 -0.028405 -241427.000000 0 0 1
11.947292 -23.178006 12.229759 28.801472 -1.094859 1.132251 0.120393 -0.034736 -220536.000000 0 0 1
12.233292 -24.660206 12.622959 30.283961 -1.110294 1.140852 0.103631 -0.031273 -160087.000000 0 0 1
13.413892 -24.715506 13.401959 31.151264 -1.073550 1.126058 0.074363 -0.030899 -26608.700000 0 0 1
13.459292 -25.915196 14.088759 32.422879 -1.091782 1.121278 0.080339 -0.044382 253502.000000 0 0 1
14.780392 -25.934616 14.901859 33.363599 -1.052796 1.107778 0.059959 -0.032586 106012.000000 0 0 1
14.820492 -25.208216 16.098759 33.380701 -1.039304 1.067544 0.063564 -0.027064 571958.000000 0 0 1
15.792792 -25.733936 17.037659 34.668856 -1.020368 1.057054 0.075392 -0.028428 165672.000000 0 0 1
15.637992 -25.183256 18.474559 34.929250 -1.015102 1.013476 0.088466 -0.024315 -47879.800000 0 0 1
16.083292 -23.875606 18.758859 34.360030 -0.977989 0.993274 0.083342 -0.026038 -335214.000000 0 0 1
17.477492 -23.759906 18.865659 35.012983 -0.936583 1.001762 0.096652 -0.029713 -502163.000000 0 0 1
17.896192 -22.290506 19.120659 34.390987 -0.894313 0.981256 0.113503 -0.037029 -134096.000000 0 0 1
17.965292 -21.506306 17.942859 33.274902 -0.874869 1.001273 0.090595 -0.028270 1052660.000000 0 0 1
16.751992 -20.732906 17.753559 32.026106 -0.891202 0.983219 0.102002 -0.027799 347869.000000 0 0 1
16.932292 -19.592806 16.700159 30.813566 -0.858110 0.998012 0.087949 -0.028213 -23533.100000 0 0 1
17.781892 -18.478806 16.951159 30.740913 -0.804615 0.986731 0.088169 -0.031282 529685.000000 0 0 1
19.166392 -18.813506 16.812459 31.685286 -0.776107 1.011479 0.080704 -0.030139 -39461.100000 0 0 1
19.996692 -17.551806 17.019759 31.584898 -0.720377 1.001716 0.086786 -0.030731 -487026.000000 0 0 1
20.204092 -17.098906 18.328659 32.194994 -0.702347 0.965140 0.085827 -0.022800 176370.000000 0 0 1
20.937592 -15.901606 18.420659 32.102407 -0.649538 0.959647 0.083695 -0.026017 -145946.000000 0 0 1
21.587792 -15.634806 19.817759 33.214808 -0.626812 0.931471 0.076949 -0.019118 731807.000000 0 0 1
22.703392 -16.557706 20.057859 34.524185 -0.630124 0.950864 0.070222 -0.020287 787001.000000 0 0 1
23.047592 -16.444706 21.407359 35.494998 -0.619736 0.923403 0.059938 -0.013957 -354006.000000 0 0 1
35.845650 -1.445806 -7.677141 36.687048 -0.040312 1.781615 0.181315 -0.026492 532757.000000 0 0 1
37.093740 -1.222406 -8.341241 38.039665 -0.032943 1.791870 0.187975 -0.024415 557587.000000 0 0 1
-37.638608 -2.279306 -8.108541 38.569528 0.060484 1.782608 0.215274 -0.031016 963368.000000 0 0 1
-36.169028 -2.033606 -8.638141 37.241800 0.056166 1.804876 0.198270 -0.036468 587731.000000 0 0 1
-35.320096 -3.085606 -8.390841 36.434001 0.087140 1.803185 0.230300 -0.031412 401420.000000 0 0 1
-34.041046 -2.872406 -9.016241 35.331801 0.084181 1.828838 0.249233 -0.037430 708177.000000 0 0 1
-32.905338 -3.852906 -8.658641 34.242930 0.116560 1.826431 0.233870 -0.037199 -212822.000000 0 0 1
-32.549068 -3.660106 -7.326141 33.563531 0.111978 1.790845 0.256614 -0.044572 631436.000000 0 0 1
-31.407728 -4.490406 -7.074941 32.506368 0.142009 1.790200 0.251584 -0.049304 265353.000000 0 0 1
-30.870958 -4.397806 -5.642441 31.689019 0.141506 1.749808 0.262798 -0.065600 -500609.000000 0 0 1
-30.297168 -3.163806 -5.371541 30.931886 0.104049 1.745338 0.235992 -0.060891 285142.000000 0 0 1
-30.073768 -2.904606 -3.977841 30.474440 0.096284 1.701700 0.245664 -0.064251 -208540.000000 0 0 1
-29.783358 -1.434706 -3.596641 30.034025 0.048134 1.690837 0.229820 -0.055911 -122570.000000 0 0 1
-28.427788 -1.022206 -3.718341 28.688153 0.035943 1.700774 0.204303 -0.042658 638352.000000 0 0 1
-28.340608 0.287694 -3.305341 28.534157 -0.010151 1.686895 0.234605 -0.058535 -1126410.000000 0 0 1
-26.934888 0.621894 -2.911641 27.098941 -0.023085 1.678449 0.240736 -0.036082 -1101140.000000 0 0 1
-26.546788 0.071094 -1.661941 26.598855 -0.002678 1.633319 0.227777 -0.042058 -466430.000000 0 0 1
-25.271548 0.450994 -1.275741 25.307747 -0.017844 1.621227 0.202720 -0.038563 -734179.000000 0 0 1
-24.872208 -0.179606 0.103159 24.873071 0.007221 1.566649 0.192427 -0.037479 -42727.900000 0 1 0
-24.580108 -1.550006 -0.039941 24.628964 0.062976 1.572418 0.167298 -0.033229 375029.000000 0 1 0
-23.706908 -1.973806 1.004559 23.810136 0.083067 1.528593 0.133405 -0.030710 -36936.800000 0 1 0
-23.409408 -3.501506 0.946159 23.688735 0.148476 1.530844 0.109164 -0.013261 -431477.000000 0 1 0
-24.460708 -4.353906 1.297559 24.879036 0.176151 1.518618 0.117196 -0.029200 65858.000000 0 1 0
-24.198208 -5.673606 0.974259 24.873526 0.230304 1.531618 0.080709 -0.013610 91711.300000 0 1 0
-25.416998 -6.510806 1.430959 26.276645 0.250767 1.516312 0.134175 -0.023980 228895.000000 0 0 1
-25.642958 -6.689806 2.822259 26.651078 0.255195 1.464701 0.128516 -0.029095 731012.000000 0 0 1
-27.004678 -7.093906 3.004659 28.082096 0.256888 1.463596 0.179531 -0.026136 640309.000000 0 0 1
-27.372028 -7.272906 4.504459 28.677749 0.259705 1.413072 0.154463 -0.034805 80826.400000 0 0 1
-26.879928 -8.454506 5.167659 28.648105 0.304732 1.389420 0.170850 -0.022134 -244208.000000 0 0 1
-27.328828 -8.607206 6.488159 29.377629 0.305115 1.348107 0.122695 -0.024406 -55463.600000 0 0 1
-26.727288 -7.581006 7.512559 28.779474 0.276384 1.306698 0.111609 -0.008856 1488580.000000 0 0 1
-25.297558 -7.327706 7.485259 27.380483 0.281944 1.293892 0.147391 -0.019344 1142200.000000 0 0 1
-24.891208 -6.310606 8.340659 26.999307 0.248296 1.256738 0.135675 -0.031217 -148839.000000 0 0 1
-23.496308 -5.841706 7.882359 25.462396 0.243682 1.256057 0.181419 -0.040856 14105.700000 0 0 1
-22.395808 -6.422606 8.558859 24.820882 0.279282 1.218744 0.178083 -0.044558 155907.000000 0 1 0
-21.204308 -5.984806 7.916559 23.411803 0.275089 1.225852 0.161151 -0.034073 -6523.730000 0 1 0
-19.946208 -6.424206 8.665859 22.676392 0.311585 1.178671 0.187911 -0.043044 -228414.000000 0 1 0
-19.564308 -5.562106 9.737259 22.550242 0.276990 1.124306 0.150077 -0.034136 457159.000000 0 1 0
-18.352508 -5.978006 10.357759 21.905120 0.314894 1.078278 0.134590 -0.048749 -124454.000000 0 1 0
-17.886208 -5.028206 11.498859 21.850013 0.274049 1.016596 0.105868 -0.031900 -64071.500000 0 1 0
-18.729208 -4.884206 12.638659 23.116540 0.255099 0.992335 0.111205 -0.036611 131304.000000 0 1 0
-19.458308 -3.656406 12.646059 23.492933 0.185744 1.002387 0.144807 -0.029991 -186385.000000 0 1 0
-20.694008 -3.884206 13.531159 25.028410 0.185538 0.999608 0.147497 -0.040029 -685781.000000 0 0 1
-20.414108 -4.157706 14.903859 25.615373 0.200920 0.949816 0.145264 -0.039638 -183633.000000 0 0 1
-21.580808 -4.279206 15.672259 27.012268 0.195748 0.951834 0.127917 -0.023718 -242936.000000 0 0 1
-21.268808 -4.589406 17.163359 27.712917 0.212523 0.902911 0.117833 -0.018070 834061.000000 0 0 1
-22.439408 -4.671906 18.019659 29.155820 0.205269 0.904541 0.107546 -0.015469 1293340.000000 0 0 1
-22.095608 -5.348006 19.183459 29.745961 0.237472 0.869891 0.112426 -0.010537 715350.000000 0 0 1
-23.143908 -4.972706 20.337259 31.208531 0.211643 0.861029 0.130913 -0.020481 626285.000000 0 0 1
-23.242308 -3.588906 20.683459 31.319173 0.153203 0.849433 0.136302 -0.027243 43198.600000 0 0 1
-23.907408 -3.296206 21.871259 32.569635 0.137010 0.834534 0.129684 -0.029016 -274879.000000 0 0 1
-23.928308 -1.783406 22.186559 32.680084 0.074394 0.824531 0.111415 -0.017697 -465659.000000 0 0 1
-24.876608 -1.126806 21.438159 32.858941 0.045265 0.860010 0.116428 -0.020400 -537098.000000 0 0 1
-24.855508 0.208694 21.896859 33.125704 -0.008396 0.848615 0.110286 -0.027615 -10441.900000 0 0 1
-26.100958 0.998894 21.452559 33.800445 -0.038252 0.883198 0.121144 -0.029956 760170.000000 0 0 1
-27.338708 0.612394 22.058059 35.133146 -0.022396 0.892019 0.122811 -0.028700 562603.000000 0 0 1
-28.465968 1.353394 21.627159 35.775369 -0.047508 0.921625 0.086791 -0.024271 311417.000000 0 0 1
-29.479628 1.488894 22.806259 37.301350 -0.050463 0.912961 0.072650 -0.019461 -270881.000000 0 0 1
-29.087128 2.367094 23.793559 37.653653 -0.081200 0.886787 0.072403 -0.018830 1052810.000000 0 0 1
-30.182268 2.525294 24.747759 39.112632 -0.083474 0.885722 0.070445 -0.020119 976356.000000 0 0 1
-29.709488 3.332694 25.986259 39.611188 -0.111709 0.855245 0.098828 -0.024188 -75679.000000 0 0 1
-28.773238 2.718994 26.834559 39.438379 -0.094218 0.822464 0.082697 -0.028581 -34323.800000 0 0 1
-28.301738 3.664594 27.740459 39.798878 -0.128767 0.799569 0.084119 -0.027519 -245893.000000 0 0 1
-26.989288 3.372094 28.486459 39.386178 -0.124298 0.762284 0.097905 -0.027680 -128611.000000 0 0 1
-27.163368 2.303994 29.404659 40.097268 -0.084617 0.747585 0.091296 -0.025947 743884.000000 0 0 1
-25.896548 1.979994 29.993659 39.675826 -0.076309 0.713665 0.073455 -0.032115 625550.000000 0 0 1
-25.909898 0.931894 31.123059 40.507235 -0.035951 0.694563 0.078041 -0.025998 -149155.000000 0 0 1
-26.299018 -0.277406 30.491459 40.267163 0.010548 0.711736 0.074646 -0.026410 -303224.000000 0 0 1
-26.492568 -1.348306 31.316359 41.041302 0.050850 0.702785 0.106030 -0.025819 -993069.000000 0 0 1
-27.342958 -2.415906 30.665459 41.156340 0.088127 0.730116 0.084685 -0.013492 1613020.000000 0 0 1
-28.764088 -2.107506 30.460759 41.948447 0.073138 0.758094 0.091945 -0.012571 1882710.000000 0 0 1
-29.039848 -1.049106 29.513459 41.418084 0.036111 0.777636 0.081657 -0.010479 -1025600.000000 0 0 1
-30.476688 -0.971006 28.963259 42.055223 0.031850 0.811107 0.081255 -0.016460 -252136.000000 0 0 1
-31.344548 -0.429706 29.875759 43.303884 0.013708 0.809432 0.103607 -0.009065 -929842.000000 0 0 1
-32.670348 -0.453706 29.398059 43.952285 0.013887 0.838118 0.104998 -0.019217 198672.000000 0 0 1
-33.776688 -0.030506 30.376259 45.426674 0.000903 0.838354 0.125403 -0.021049 -89150.000000 0 0 1
-34.010918 -1.032206 31.313759 46.242400 0.030340 0.826893 0.126679 -0.023017 -193383.000000 0 0 1
-34.789392 -0.644206 32.429659 47.564689 0.018515 0.820574 0.148748 -0.024738 -94230.000000 0 0 1
-35.149028 -1.885006 33.200659 48.386891 0.053578 0.814613 0.148252 -0.030492 27378.700000 0 0 1
-36.078138 -2.692706 32.496959 48.630598 0.074497 0.838954 0.095340 -0.034969 -13960.300000 0 0 1
-36.294358 -3.893006 33.229859 49.362531 0.106853 0.832296 0.086381 -0.024113 174334.000000 0 0 1
-37.553858 -4.687706 32.797459 50.079339 0.124184 0.856733 0.071537 -0.024184 549574.000000 0 0 1
36.865930 -4.162906 33.319359 49.865882 -0.112444 0.839037 0.065640 -0.032219 19528.700000 0 0 1
35.763640 -4.792506 32.689259 48.688743 -0.133211 0.834710 0.059363 -0.026586 138565.000000 0 0 1
34.440570 -4.414906 33.426559 48.197293 -0.127494 0.804411 0.081351 -0.030354 -142856.000000 0 0 1
34.298400 -4.981606 -32.867141 47.764481 -0.144235 2.329675 0.073401 -0.030067 75558.200000 0 0 1
33.829670 -6.314906 -32.751441 47.507700 -0.184544 2.331446 0.076801 -0.026522 -372160.000000 0 0 1
32.397420 -6.706406 -33.176641 46.853583 -0.204121 2.357589 0.076105 -0.023954 -22920.000000 0 0 1
31.340420 -6.399606 -32.278741 45.443306 -0.201427 2.360732 0.103878 -0.029411 -291112.000000 0 0 1
30.172240 -6.894806 -32.877341 45.153316 -0.224657 2.386382 0.110941 -0.028550 -373928.000000 0 0 1
28.911040 -6.408506 -32.115341 43.684234 -0.218136 2.396714 0.115882 -0.043191 -484659.000000 0 0 1
27.752740 -7.131806 -32.383741 43.240998 -0.251534 2.417216 0.103034 -0.039386 -771074.000000 0 0 1
26.699240 -6.633206 -31.618741 41.911736 -0.243512 2.425555 0.111832 -0.050110 164408.000000 0 0 1
25.292540 -7.081806 -32.188841 41.544988 -0.273005 2.457187 0.116871 -0.058041 691230.000000 0 0 1
24.991840 -8.447806 -32.120841 41.565682 -0.325965 2.453995 0.113848 -0.057819 152817.000000 0 0 1
24.809940 -8.988806 -30.797441 40.556308 -0.347596 2.433148 0.125290 -0.052236 -553110.000000 0 0 1
24.439640 -10.508506 -30.750641 40.661120 -0.406079 2.428384 0.124371 -0.044610 963441.000000 0 0 1
23.139740 -10.847806 -31.295341 40.404466 -0.438374 2.456802 0.130988 -0.058922 1093000.000000 0 0 1
22.906740 -12.273506 -31.287341 40.672539 -0.491878 2.448462 0.111743 -0.041377 -125174.000000 0 0 1
21.820840 -12.695306 -32.312341 41.004966 -0.526928 2.478367 0.094491 -0.036559 747758.000000 0 0 1
20.461940 -12.452706 -31.974141 39.951303 -0.546704 2.498638 0.090710 -0.035728 364873.000000 0 0 1
20.008540 -11.105606 -32.142241 39.456303 -0.506707 2.522885 0.093099 -0.049070 -922362.000000 0 0 1
18.558840 -10.864506 -31.760841 38.356474 -0.529622 2.546406 0.092274 -0.048530 -525328.000000 0 0 1
17.582440 -11.425906 -32.607141 38.767502 -0.576268 2.570100 0.067679 -0.031720 -68854.900000 0 0 1
16.349740 -11.504906 -31.911641 37.656735 -0.613188 2.581932 0.100288 -0.041294 -31649.900000 0 0 1
15.138740 -11.676906 -32.834641 37.995332 -0.657011 2.614306 0.088714 -0.032277 -1076330.000000 0 0 1
14.863140 -13.047106 -33.141741 38.594235 -0.720423 2.603568 0.107306 -0.024377 967466.000000 0 0 1
13.580940 -13.169706 -33.788141 38.723657 -0.770027 2.631185 0.099759 -0.021986 1643380.000000 0 0 1
12.306140 -13.125506 -32.846841 37.451769 -0.817605 2.640470 0.088496 -0.024227 155773.000000 0 0 1
12.102540 -11.944906 -32.096941 36.323077 -0.778843 2.654402 0.165831 -0.029240 328320.000000 0 0 1
11.004140 -11.899706 -31.174141 35.135754 -0.824479 2.662142 0.151561 -0.035966 1045410.000000 0 0 1
9.775840 -11.046706 -31.646741 34.915799 -0.846356 2.705415 0.160150 -0.032593 270647.000000 0 0 1
9.956840 -9.679006 -31.451041 34.380079 -0.771250 2.725819 0.152629 -0.035162 -121490.000000 0 0 1
8.977940 -8.909806 -32.063741 34.468414 -0.781589 2.765850 0.140933 -0.032747 -486192.000000 0 0 1
9.396540 -7.444406 -32.219441 34.377413 -0.669997 2.785388 0.157665 -0.025373 -117039.000000 0 0 1
9.492540 -6.805906 -30.973741 33.102890 -0.622027 2.780980 0.166440 -0.034903 233365.000000 0 0 1
9.940240 -5.489006 -31.088441 33.097262 -0.504531 2.791397 0.134183 -0.037627 -304551.000000 0 0 1
9.733540 -4.748706 -29.805141 31.711803 -0.453897 2.793061 0.127417 -0.024789 456913.000000 0 0 1
8.366540 -4.398306 -29.544941 31.020117 -0.483997 2.831957 0.146196 -0.028477 571791.000000 0 0 1
8.239240 -3.496106 -28.471941 29.845591 -0.401298 2.837019 0.143910 -0.023187 -264184.000000 0 0 1
6.798540 -3.013206 -28.314841 29.275071 -0.417196 2.884761 0.132099 -0.023634 -1220400.000000 0 0 1
6.317740 -2.319006 -29.460441 30.219352 -0.351794 2.917008 0.121170 -0.017915 -7419.830000 0 0 1
5.060040 -1.745806 -29.208641 29.695060 -0.332230 2.960345 0.136085 -0.027931 762684.000000 0 0 1
3.784340 -2.683006 -29.205141 29.571270 -0.616725 2.984069 0.127540 -0.033991 43903.300000 0 0 1
3.710940 -3.334806 -27.966941 28.408482 -0.732064 2.965054 0.132802 -0.029537 -208633.000000 0 0 1
2.616540 -4.223306 -27.918841 28.357438 -1.016127 2.965486 0.114337 -0.028573 -4310.400000 0 0 1
2.583840 -5.349906 -26.817341 27.467572 -1.120866 2.923571 0.085007 -0.029123 -422875.000000 0 0 1
2.549240 -4.797806 -25.510641 26.082761 -1.082397 2.931757 0.078733 -0.033105 187499.000000 0 0 1
3.248340 -5.715306 -24.684141 25.544535 -1.053968 2.881312 0.086579 -0.040473 71943.100000 0 0 1
3.429240 -5.339606 -23.209641 24.061557 -0.999905 2.874697 0.109751 -0.039716 -185046.000000 0 1 0
4.231940 -4.240406 -22.897941 23.668673 -0.786398 2.885696 0.105957 -0.040606 -186015.000000 0 1 0
4.115940 -3.989206 -21.533241 22.283070 -0.769763 2.881437 0.087663 -0.039059 -94700.200000 0 1 0
4.963440 -2.823906 -21.033541 21.794955 -0.517269 2.876487 0.090577 -0.043087 -320266.000000 0 1 0
6.328140 -3.125506 -20.902641 22.062062 -0.458761 2.815956 0.091543 -0.039833 -203949.000000 0 1 0
7.079440 -1.935606 -20.559541 21.830249 -0.266890 2.798716 0.098182 -0.028747 -248722.000000 0 1 0
8.556840 -2.218306 -20.340841 22.178598 -0.253659 2.731636 0.117676 -0.031069 -1574620.000000 0 1 0
9.223040 -2.427806 -21.543741 23.560380 -0.257394 2.724833 0.119797 -0.041548 956215.000000 0 1 0
10.571740 -2.944606 -21.525241 24.161300 -0.271650 2.670114 0.110930 -0.037292 2129270.000000 0 1 0
11.723740 -2.151906 -20.762441 23.940671 -0.181531 2.620439 0.111467 -0.033640 23098.300000 0 1 0
11.465940 -2.055006 -19.358441 22.592921 -0.177344 2.599899 0.109076 -0.026948 -288519.000000 0 1 0
12.438140 -1.418106 -18.589641 22.411897 -0.113523 2.548926 0.112930 -0.027729 -307169.000000 0 1 0
12.709440 0.116094 -18.767841 22.666610 0.009134 2.546319 0.091243 -0.024595 76032.500000 0 1 0
13.343940 0.530594 -19.960141 24.015610 0.039742 2.551937 0.108275 -0.032104 58717.700000 0 1 0
13.696540 1.832494 -19.764341 24.116020 0.133003 2.531426 0.138642 -0.044095 -28300.600000 0 1 0
14.076840 2.666094 -21.049741 25.462857 0.187179 2.543985 0.121301 -0.042298 -131772.000000 0 0 1
15.294840 2.234894 -21.616041 26.574050 0.145094 2.520816 0.134074 -0.039011 71232.200000 0 0 1
15.769840 3.150894 -22.564741 27.708907 0.197208 2.522404 0.124567 -0.041179 242289.000000 0 0 1
17.260140 2.940694 -22.953441 28.869025 0.168754 2.489951 0.106148 -0.035545 257271.000000 0 0 1
17.418240 2.008694 -23.990641 29.714993 0.114814 2.510457 0.087029 -0.023081 -143822.000000 0 0 1
18.670540 1.392394 -23.892141 30.353949 0.074439 2.476919 0.100267 -0.024494 -419214.000000 0 0 1
10.513392 26.833694 3.043559 28.980023 1.197380 1.465580 0.052774 -0.017275 -4445.370000 0 0 1
10.381492 26.972194 4.437059 29.239735 1.203378 1.418460 0.065073 -0.016813 -68941.400000 0 0 1
11.567492 27.389894 5.057659 30.159460 1.171192 1.402303 0.068127 -0.011956 -375295.000000 0 0 1
11.347792 27.836094 6.463059 30.747221 1.183700 1.359017 0.064787 -0.019159 -73460.900000 0 0 1
10.877892 26.877694 7.377559 29.919347 1.186229 1.321645 0.058473 -0.023074 221421.000000 0 0 1
10.774692 27.472194 8.640859 30.748656 1.197029 1.285944 0.058326 -0.020821 -512792.000000 0 0 1
10.777892 26.515794 9.888959 30.282697 1.184724 1.238140 0.064825 -0.018931 735165.000000 0 0 1
12.052992 25.954294 10.308859 30.416649 1.136038 1.225026 0.072689 -0.018747 1081070.000000 0 0 1
12.567692 24.960694 9.439959 29.497388 1.104353 1.245038 0.077690 -0.028570 -257707.000000 0 0 1
13.917792 24.387694 9.936659 29.785931 1.052208 1.230674 0.082016 -0.026997 -372376.000000 0 0 1
14.904392 25.372594 9.879459 31.040507 1.039678 1.246886 0.095027 -0.027723 187292.000000 0 0 1
16.093092 24.880094 10.555759 31.455217 0.996656 1.228575 0.098192 -0.031353 1376870.000000 0 0 1
17.177892 26.045894 10.688359 32.980442 0.987755 1.240755 0.090605 -0.036176 -946202.000000 0 0 1
17.862292 26.323194 9.524659 33.206793 0.974594 1.279882 0.080533 -0.041204 256248.000000 0 0 1
19.245792 25.984094 9.545559 33.714853 0.933289 1.283744 0.086989 -0.047274 914051.000000 0 0 1
20.170092 26.705494 10.604459 35.106560 0.923925 1.263938 0.080579 -0.051056 -1046950.000000 0 0 1
20.423092 28.094494 10.497059 36.284866 0.942216 1.277305 0.082880 -0.056173 469020.000000 0 0 1
19.250692 28.847294 10.802759 36.324304 0.982334 1.268831 0.069499 -0.040272 353895.000000 0 0 1
19.547092 30.430194 11.145959 37.845976 0.999812 1.271855 0.066066 -0.032882 -709396.000000 0 0 1
19.982292 31.296294 10.120759 38.486098 1.002557 1.304695 0.090264 -0.048088 116768.000000 0 0 1
19.183292 31.573094 8.949859 38.012615 1.024819 1.333120 0.102415 -0.051601 658555.000000 0 0 1
17.707092 32.056194 9.074059 37.729023 1.066130 1.327909 0.097602 -0.042962 341925.000000 0 0 1
17.618992 33.242494 9.747459 38.865218 1.083427 1.317288 0.087206 -0.037014 378588.000000 0 0 1
16.252792 33.631594 9.894959 38.641267 1.120630 1.311839 0.106234 -0.029864 616816.000000 0 0 1
16.124392 -32.549197 10.188959 37.726133 -1.110847 1.297323 0.102870 -0.035027 -55588.500000 0 0 1
16.694792 -31.848197 9.110759 37.094873 -1.087977 1.322651 0.111201 -0.038339 90368.700000 0 0 1
16.669892 -30.469697 9.300359 35.955311 -1.070184 1.309157 0.106304 -0.021886 6722.540000 0 0 1
17.563992 -29.787697 8.240059 35.548548 -1.038030 1.336871 0.086510 -0.018622 327629.000000 0 0 1
16.898992 -29.560197 6.984259 34.758611 -1.051460 1.368483 0.088525 -0.027625 -204059.000000 0 0 1
17.774192 -29.057997 6.046259 34.595467 -1.021833 1.395124 0.083181 -0.017664 -393328.000000 0 0 1
17.341292 -29.217497 4.607659 34.287214 -1.035152 1.436004 0.094655 -0.022300 -91114.600000 0 0 1
17.499992 -30.549797 4.202659 35.457046 -1.050591 1.451989 0.094100 -0.031118 -85257.400000 0 0 1
17.382692 -30.622997 2.791059 35.323022 -1.054514 1.491699 0.089456 -0.025805 -212773.000000 0 0 1
17.621992 -32.030997 2.200359 36.624594 -1.067835 1.510681 0.086070 -0.027543 -308896.000000 0 0 1
18.922492 -32.555097 2.283459 37.724120 -1.044281 1.510229 0.089347 -0.024004 -308071.000000 0 0 1
19.070592 -33.808997 1.637659 38.851225 -1.057216 1.528632 0.096809 -0.028598 -268950.000000 0 0 1
20.490192 33.301994 1.788059 39.141639 1.019214 1.525099 0.088035 -0.029796 -53375.200000 0 0 1
20.814792 32.951394 3.120359 39.099700 1.007407 1.490906 0.090839 -0.051380 694629.000000 0 0 1
22.182392 32.488794 3.131859 39.463765 0.971728 1.491352 0.075854 -0.035733 965242.000000 0 0 1
22.797392 32.308494 4.563959 39.804391 0.956311 1.455884 0.068167 -0.027610 2939.410000 0 0 1
22.273892 31.282794 5.375259 38.776705 0.952050 1.431728 0.078077 -0.036005 69299.400000 0 0 1
23.076692 30.131094 5.272459 38.317298 0.917212 1.432758 0.063802 -0.044788 392950.000000 0 0 1
22.384492 28.999894 6.101859 37.138820 0.913437 1.405749 0.076725 -0.050789 188368.000000 0 0 1
21.181492 28.473294 5.619959 35.930043 0.931206 1.413737 0.079010 -0.043457 -613103.000000 0 0 1
20.276592 28.231394 6.652359 35.389343 0.947941 1.381695 0.082441 -0.048164 -886339.000000 0 0 1
18.828092 28.326394 6.215959 34.576289 0.984168 1.390038 0.107915 -0.040371 -692050.000000 0 0 1
18.234492 29.636494 6.005559 35.311261 1.019223 1.399891 0.099738 -0.052619 317967.000000 0 0 1
18.694792 30.398694 4.907759 36.023074 1.019430 1.434132 0.102012 -0.046436 -307290.000000 0 0 1
18.647592 31.976194 5.135959 37.370947 1.042843 1.432928 0.113206 -0.048588 -168161.000000 0 0 1
17.333192 32.459094 5.045559 37.141485 1.080319 1.434528 0.116748 -0.044678 -360972.000000 0 0 1
17.278592 -33.824997 5.456559 38.372570 -1.098528 1.428113 0.117567 -0.047233 -1260430.000000 0 0 1
15.932892 -33.243797 5.741559 37.309148 -1.123866 1.416291 0.110672 -0.044906 -1298130.000000 0 0 1
15.242192 -33.079597 4.557059 36.706279 -1.139020 1.446326 0.093148 -0.029355 691653.000000 0 0 1
14.005592 -32.313097 4.671359 35.526250 -1.161804 1.438924 0.076224 -0.024611 1494970.000000 0 0 1
13.021992 -32.341097 3.476059 35.037149 -1.188012 1.471422 0.066532 -0.019628 -22514.000000 0 0 1
11.904592 -31.510497 3.525559 33.868278 -1.209575 1.466511 0.065649 -0.027435 -255380.000000 0 0 1
11.264792 -31.355497 2.268759 33.394760 -1.225896 1.502806 0.059793 -0.010981 -687102.000000 0 0 1
10.359492 -30.150897 2.179659 31.955384 -1.239845 1.502534 0.075791 -0.016225 -52578.600000 0 0 1
9.867392 -29.775197 0.879759 31.379958 -1.250790 1.542757 0.078921 -0.009540 -178015.000000 0 0 1
8.897592 -30.595297 0.265259 31.863924 -1.287787 1.562471 0.064699 -0.011745 -655735.000000 0 0 1
9.184492 -31.077997 -1.163341 32.427614 -1.283445 1.606679 0.072627 -0.020161 -7553.970000 0 0 1
10.347192 -31.883997 -1.050041 33.537385 -1.256993 1.602111 0.068623 -0.020497 -159747.000000 0 0 1
10.554292 -32.652197 -2.202041 34.386160 -1.258163 1.634879 0.067073 -0.012530 526837.000000 0 0 1
11.883092 -33.472797 -2.267241 35.591802 -1.229668 1.634541 0.058020 -0.010951 218511.000000 0 0 1
11.848392 33.265394 -1.198141 35.332794 1.228629 1.604713 0.058384 -0.014466 951770.000000 0 0 1
13.044592 32.442594 -1.251041 34.989260 1.188496 1.606559 0.062811 -0.020634 567916.000000 0 0 1
13.331692 31.478594 -0.059741 34.185368 1.170183 1.572544 0.060622 -0.022025 -478551.000000 0 0 1
13.433492 32.093994 1.205259 34.812868 1.174387 1.536168 0.064331 -0.024255 496579.000000 0 0 1
14.623392 32.842894 1.455059 35.980779 1.151897 1.530345 0.076004 -0.021513 -452526.000000 0 0 1
15.902592 32.122494 1.780959 35.887586 1.111108 1.521150 0.090596 -0.030159 -1152240.000000 0 0 1
16.451992 31.538394 0.609759 35.576820 1.089979 1.553656 0.090441 -0.034783 -474812.000000 0 0 1
17.261492 30.443794 0.772659 35.005438 1.054999 1.548722 0.095021 -0.030254 -805521.000000 0 0 1
17.947292 29.893494 -0.486441 34.870659 1.030101 1.584747 0.086692 -0.025680 -392626.000000 0 0 1
18.962692 30.738894 -0.954641 36.129968 1.018046 1.597222 0.062200 -0.018184 -200624.000000 0 0 1
18.598692 31.781694 -1.893641 36.872391 1.041329 1.622176 0.062661 -0.020362 150167.000000 0 0 1
19.881492 32.461694 -2.430441 38.143706 1.021265 1.634558 0.067827 -0.019748 244635.000000 0 0 1
20.702192 33.192894 -1.585041 39.151772 1.013137 1.611292 0.069329 -0.021002 -454322.000000 0 0 1
21.796492 33.809494 -2.184741 40.285754 0.998166 1.625054 0.078399 -0.023979 -1029250.000000 0 0 1
22.864392 -33.372997 -1.190741 40.471659 -0.970129 1.600222 0.083629 -0.026414 -361684.000000 0 0 1
23.900792 33.456394 -0.728541 41.123094 0.950480 1.588513 0.071256 -0.019240 820206.000000 0 0 1
24.839092 32.889894 -1.638241 41.248144 0.923963 1.610524 0.081529 -0.015891 65139.800000 0 0 1
25.549092 33.768594 -2.705841 42.431068 0.923089 1.634610 0.064003 -0.018906 -679617.000000 0 0 1
24.586592 -33.475397 -3.650141 41.694439 -0.937310 1.658454 0.069846 -0.027770 153672.000000 0 0 1
25.200592 -32.759097 -4.697041 41.596760 -0.915076 1.683956 0.061278 -0.022549 15132.800000 0 0 1
24.202292 -32.341397 -5.808641 40.810013 -0.928360 1.713615 0.063517 -0.028276 45247.100000 0 0 1
23.249892 -31.371997 -5.406141 39.420629 -0.933013 1.708370 0.087236 -0.032124 66653.700000 0 0 1
22.658692 -30.782097 -6.545741 38.778867 -0.936251 1.740405 0.097222 -0.034805 139225.000000 0 0 1
21.526192 -29.775997 -6.216541 37.264357 -0.944841 1.738403 0.118390 -0.038055 674681.000000 0 0 1
20.289192 -30.250297 -5.684141 36.865176 -0.979999 1.725601 0.093280 -0.029558 163798.000000 0 0 1
19.476792 -29.128697 -5.508241 35.470651 -0.981425 1.726717 0.101219 -0.036325 455957.000000 0 0 1
18.124192 -29.324597 -4.752141 34.799442 -1.017207 1.707782 0.074037 -0.019706 971130.000000 0 0 1
17.118592 -30.059497 -5.453441 35.019417 -1.053113 1.727159 0.067278 -0.022251 57117.300000 0 0 1
15.891892 -29.963697 -4.761641 34.249797 -1.083148 1.710275 0.044143 -0.015229 345392.000000 0 0 1
14.821492 -30.972597 -5.282641 34.740246 -1.124467 1.723450 0.031170 -0.007785 -73836.300000 0 0 1
15.065192 -32.270897 -4.784241 35.934103 -1.134031 1.704332 0.024214 -0.005614 -120074.000000 0 0 1
14.165192 -33.184697 -5.318941 36.471467 -1.167352 1.717157 0.038869 -0.006730 -588941.000000 0 0 1
14.768792 33.099294 -5.197441 36.615486 1.151110 1.713224 0.032585 -0.007460 -90534.900000 0 0 1
14.706092 32.569894 -3.891041 35.947285 1.146676 1.679252 0.036332 -0.016184 -153780.000000 0 0 1
15.182892 31.230694 -3.847841 34.938264 1.118288 1.681153 0.050983 -0.021928 230894.000000 0 0 1
14.286592 30.029594 -4.447541 33.550914 1.126736 1.703749 0.055623 -0.021632 1635290.000000 0 0 1
13.100892 29.647894 -3.681241 32.621810 1.154713 1.683883 0.055979 -0.025078 1242640.000000 0 0 1
13.486492 28.808594 -2.578341 31.913451 1.132959 1.651676 0.053832 -0.022878 -17032.200000 0 0 1
12.300092 28.208594 -1.800741 30.826282 1.159611 1.629245 0.056161 -0.014506 267259.000000 0 0 1
11.520892 29.065494 -0.975141 31.280741 1.193417 1.601975 0.054418 -0.020719 -107029.000000 0 0 1
10.463492 28.318194 -0.428441 30.192521 1.216859 1.584987 0.047418 -0.014997 -144365.000000 0 0 1
9.342692 29.137094 0.239659 30.599241 1.260508 1.562964 0.054461 -0.008989 -97364.100000 0 0 1
8.365092 28.297794 0.820359 29.519703 1.283373 1.543003 0.054526 -0.014070 -265783.000000 0 0 1
7.247492 29.116394 1.141059 30.026530 1.326840 1.532785 0.054510 -0.015394 -191301.000000 0 0 1
6.151992 28.265994 1.795759 28.983411 1.356492 1.508798 0.038743 -0.022032 -100665.000000 0 0 1
5.571592 27.320594 0.922559 27.898182 1.369621 1.537722 0.051669 -0.024177 -751219.000000 0 0 1
4.435992 26.795894 1.505159 27.202269 1.406737 1.515436 0.047827 -0.028012 -507785.000000 0 0 1
4.006392 25.424594 0.961759 25.756283 1.414502 1.533447 0.055602 -0.030530 145092.000000 0 0 1
2.642392 25.104194 1.157359 25.269393 1.465926 1.524979 0.067072 -0.030552 180252.000000 0 0 1
2.268292 23.802594 0.787359 23.923389 1.475787 1.537879 0.062430 -0.032774 -744464.000000 0 1 0
0.760392 23.589694 0.785759 23.615022 1.538573 1.537516 0.051454 -0.021804 -1010460.000000 0 1 0
0.030592 24.446494 -0.059441 24.446585 1.569545 1.573228 0.055410 -0.036279 288193.000000 0 1 0
-1.362808 24.127494 -0.086841 24.166107 -1.514373 1.574390 0.040459 -0.021579 576725.000000 0 1 0
-2.173608 24.836694 1.012259 24.952166 -1.483503 1.530217 0.078232 -0.040374 -775870.000000 0 1 0
-3.571108 24.722994 0.837559 24.993614 -1.427344 1.537279 0.091142 -0.019630 139619.000000 0 1 0
-4.267008 25.570794 1.753859 25.983627 -1.405449 1.503246 0.099839 -0.027810 1001180.000000 0 0 1
-5.814708 25.625694 1.479559 26.318740 -1.347665 1.514550 0.115897 -0.041896 912501.000000 0 0 1
-6.104508 26.265194 0.232359 26.966264 -1.342432 1.562180 0.135352 -0.041647 456725.000000 0 0 1
-7.494808 26.392494 -0.081041 27.436152 -1.294105 1.573750 0.143993 -0.040857 583142.000000 0 0 1
-7.681308 27.523994 -1.097941 28.596821 -1.298644 1.609200 0.142374 -0.043666 1196.350000 0 0 1
-7.459708 28.872594 -0.626241 29.827271 -1.317959 1.591793 0.164543 -0.051130 -75681.500000 0 0 1
-7.702608 29.756494 -1.704641 30.784491 -1.317501 1.626198 0.156795 -0.051522 97280.200000 0 0 1
-7.463008 31.239494 -1.247841 32.142799 -1.336295 1.609628 0.139984 -0.050010 -600775.000000 0 0 1
-7.747508 32.307394 -2.111241 33.290373 -1.335435 1.634258 0.123890 -0.032211 138908.000000 0 0 1
-6.951308 32.496294 -3.307041 33.395603 -1.360061 1.669985 0.089393 -0.030709 841379.000000 0 0 1
-5.397908 32.644494 -3.199041 33.242055 -1.406925 1.667180 0.128453 -0.038290 163449.000000 0 0 1
-5.029008 -33.769397 -2.634441 34.243297 1.422961 1.647805 0.141732 -0.048598 177740.000000 0 0 1
-4.638108 33.815194 -1.242741 34.154411 -1.434486 1.607190 0.156581 -0.057716 -4469.240000 0 0 1
-4.268208 -32.477897 -0.680741 32.764230 1.440126 1.591575 0.163282 -0.053344 -212628.000000 0 0 1
-5.383608 -31.635497 -0.704741 32.098046 1.402235 1.592754 0.157109 -0.042912 -337062.000000 0 0 1
-5.217308 -30.435797 -1.465341 30.914483 1.401026 1.618214 0.162396 -0.040532 -524387.000000 0 0 1
-6.565608 -29.759297 -1.644141 30.519275 1.353651 1.624695 0.168334 -0.042877 -453391.000000 0 0 1
-6.939508 -29.115297 -0.415941 29.933765 1.336816 1.584692 0.163702 -0.032778 327632.000000 0 0 1
-8.133908 -28.349497 -0.667941 29.500857 1.291387 1.593440 0.133931 -0.026707 718167.000000 0 0 1
-8.700608 -27.739397 0.594359 29.077964 1.266859 1.550355 0.126181 -0.024300 82457.300000 0 0 1
-7.719808 -26.855097 1.108759 27.964639 1.290882 1.531137 0.141130 -0.034860 -71805.600000 0 0 1
-7.808908 -26.575597 2.507959 27.812430 1.285003 1.480500 0.126628 -0.020986 92379.400000 0 0 1
-8.693808 -25.469197 3.095259 27.089535 1.241852 1.456286 0.110554 -0.018798 74291.000000 0 0 1
-8.105808 -24.209397 2.799759 25.683412 1.247708 1.461569 0.106654 -0.024237 17534.900000 0 0 1
-8.976108 -23.078097 2.841459 24.924746 1.199856 1.456546 0.105854 -0.035758 -118524.000000 0 1 0
-8.156108 -21.824797 3.065259 23.499780 1.213159 1.439986 0.055057 -0.009169 -158542.000000 0 1 0
-7.680208 -21.954097 4.338459 23.659886 1.234273 1.386385 0.058332 -0.008942 -403208.000000 0 1 0
-6.850108 -20.887197 4.859059 22.512428 1.253892 1.353245 0.029887 -0.005821 -191389.000000 0 1 0
-7.464708 -19.584697 5.425759 21.649967 1.206645 1.317483 0.037256 -0.020591 -100570.000000 0 1 0
-8.072608 -19.825197 6.684759 22.425241 1.184108 1.268104 0.043428 -0.018913 -67991.100000 0 1 0
-8.639408 -18.673597 7.233659 21.809824 1.137470 1.232723 0.025385 -0.021338 -232402.000000 0 1 0
-27.904788 27.887894 -4.687741 39.728916 -0.785095 1.689065 0.224402 -0.031750 -165103.000000 0 0 1
-27.377688 29.080694 -4.081241 40.148239 -0.815553 1.672627 0.199968 -0.046399 1263560.000000 0 0 1
-25.940898 28.874294 -4.036941 39.025017 -0.838861 1.674427 0.184853 -0.028817 942157.000000 0 0 1
-25.192758 29.984394 -3.240841 39.296844 -0.872022 1.653361 0.151926 -0.036974 -427910.000000 0 0 1
-25.562778 30.106394 -1.903641 39.540794 -0.866836 1.618959 0.121934 -0.047399 -209922.000000 0 0 1
-24.940008 31.151394 -1.236841 39.924217 -0.895686 1.601781 0.116617 -0.056078 1531990.000000 0 0 1
-23.479908 30.718594 -0.714141 38.671024 -0.918171 1.589264 0.091615 -0.044895 1687440.000000 0 0 1
-22.414908 30.638294 -1.642941 37.997795 -0.939177 1.614048 0.093283 -0.043930 72964.900000 0 0 1
-21.229308 30.208094 -1.023541 36.935892 -0.958214 1.598511 0.066784 -0.036935 257855.000000 0 0 1
-20.020408 29.946594 -1.975341 36.076546 -0.981500 1.625578 0.091333 -0.034088 -346884.000000 0 0 1
-18.858908 29.644994 -1.300441 35.159283 -1.004213 1.607792 0.089062 -0.028230 -705584.000000 0 0 1
-17.894508 28.963794 -2.098441 34.110383 -1.017374 1.632354 0.093703 -0.022884 -552858.000000 0 0 1
-16.520908 29.076394 -1.476941 33.474743 -1.054095 1.614932 0.119872 -0.030097 -930902.000000 0 0 1
-16.269308 28.410994 -0.239241 32.740375 -1.050736 1.578104 0.111725 -0.035485 -642438.000000 0 0 1
-15.040908 28.793794 0.263859 32.486629 -1.089416 1.562674 0.123280 -0.042905 -791961.000000 0 0 1
-14.645208 28.056894 1.545359 31.686899 -1.089718 1.522007 0.126763 -0.036166 -174796.000000 0 0 1
-15.426408 28.320294 2.698159 32.361909 -1.072022 1.487325 0.110888 -0.036155 92200.900000 0 0 1
-14.879208 27.734494 3.893459 31.713593 -1.078387 1.447716 0.125173 -0.034984 690465.000000 0 0 1
-13.686708 28.488294 4.573459 31.934705 -1.122925 1.427089 0.123916 -0.033249 460434.000000 0 0 1
-14.040708 29.605694 5.353559 33.200891 -1.127954 1.408842 0.102099 -0.023523 -157776.000000 0 0 1
-14.076708 30.829794 4.608059 34.203276 -1.142472 1.435660 0.109569 -0.026015 56045.000000 0 0 1
-13.835808 32.078094 5.415859 35.352018 -1.163588 1.416993 0.113990 -0.030904 410447.000000 0 0 1
-15.025808 32.561294 6.038659 36.365893 -1.138451 1.403971 0.113192 -0.035180 425418.000000 0 0 1
-14.752508 33.713994 6.803459 37.424015 -1.158320 1.387986 0.099939 -0.040731 -620478.000000 0 0 1
-15.910008 -33.562497 7.662059 37.924619 1.128131 1.367362 0.092223 -0.040122 -585862.000000 0 0 1
-16.164808 33.385194 8.878359 38.140496 -1.119876 1.335861 0.080320 -0.039558 -9930.330000 0 0 1
-17.370108 33.833794 9.461959 39.191516 -1.096490 1.326958 0.087138 -0.036993 -473087.000000 0 0 1
-17.471708 33.222494 10.892659 39.085095 -1.086644 1.288366 0.077780 -0.023863 399051.000000 0 0 1
-16.503808 33.642294 11.842659 39.299213 -1.114723 1.264692 0.081764 -0.030752 -227203.000000 0 0 1
-15.250808 33.020094 11.801659 38.238631 -1.138120 1.257042 0.090649 -0.029285 -211914.000000 0 0 1
-14.498108 33.110294 13.162659 38.467418 -1.158073 1.221564 0.086148 -0.026490 -67696.500000 0 0 1
-15.124008 32.421294 14.240359 38.505373 -1.134319 1.191973 0.063237 -0.020997 104267.000000 0 0 1
-14.618208 31.084594 14.434159 37.259749 -1.131213 1.172994 0.064775 -0.016135 -52897.700000 0 0 1
-15.307008 29.908694 13.656959 36.267713 -1.097760 1.184717 0.068848 -0.021177 212170.000000 0 0 1
-15.049308 29.908994 12.234759 35.647144 -1.104616 1.220455 0.076617 -0.016238 -230308.000000 0 0 1
-16.189108 29.379994 11.647459 35.509640 -1.067167 1.236602 0.060254 -0.010234 -342399.000000 0 0 1
-16.088808 29.138194 10.126759 34.791311 -1.066300 1.275450 0.071116 -0.009376 226382.000000 0 0 1
-15.237308 28.051394 9.739859 33.375456 -1.073195 1.274660 0.057675 -0.004597 267709.000000 0 0 1
-15.264308 27.714194 8.351259 32.723373 -1.067358 1.312734 0.062492 -0.009889 -176970.000000 0 0 1
-14.407008 26.501794 7.934159 31.190669 -1.072862 1.313594 0.071491 -0.015161 1433420.000000 0 0 1
-13.010308 26.860094 7.749559 30.834857 -1.119728 1.316748 0.084373 -0.014447 1897890.000000 0 0 1
-12.094708 25.720194 7.679459 29.441203 -1.131237 1.306904 0.097830 -0.025410 497101.000000 0 0 1
-10.849108 26.035994 6.868659 29.030236 -1.175980 1.331928 0.140821 -0.035835 -457496.000000 0 0 1
-11.128008 26.061594 5.485559 28.864002 -1.167242 1.379585 0.147440 -0.036983 861174.000000 0 0 1
-9.929708 26.150094 4.681059 28.360868 -1.207894 1.404984 0.157207 -0.032507 610403.000000 0 0 1
-10.138608 26.618394 3.219259 28.665203 -1.206874 1.458253 0.162780 -0.037526 7556.610000 0 0 1
-10.122108 28.028094 2.976559 29.948139 -1.224231 1.471242 0.160629 -0.028032 -10885.000000 0 0 1
-10.359308 28.265894 1.634359 30.148750 -1.219503 1.516560 0.164802 -0.037200 111769.000000 0 0 1
-9.989108 29.757894 1.373959 31.419775 -1.246936 1.527053 0.177058 -0.040290 199378.000000 0 0 1
-11.035208 30.623594 1.742959 32.597825 -1.224931 1.517302 0.150183 -0.033901 -181328.000000 0 0 1
-10.631508 31.970294 1.580259 33.728710 -1.249757 1.523927 0.140461 -0.032369 -156243.000000 0 0 1
-11.276708 33.046694 2.525059 35.008914 -1.241951 1.498607 0.125013 -0.038649 2252630.000000 0 0 1
-12.708008 33.324594 2.312559 35.740313 -1.206479 1.506047 0.126275 -0.037405 1636170.000000 0 0 1
-12.919108 -33.605897 1.146359 36.021852 1.203784 1.538967 0.119097 -0.029004 -636053.000000 0 0 1
-14.383708 -33.580297 0.680259 36.537517 1.166102 1.552177 0.120981 -0.030564 -108889.000000 0 0 1
-14.905108 32.871194 0.240359 36.093426 -1.145086 1.564137 0.110076 -0.026078 -133051.000000 0 0 1
-15.532008 33.021794 -1.032241 36.506817 -1.131144 1.599075 0.119068 -0.035482 -197293.000000 0 0 1
-14.638708 32.989094 -2.324241 36.165926 -1.153157 1.635107 0.124415 -0.031991 53456.600000 0 0 1
-13.993808 31.766194 -2.534441 34.804326 -1.155850 1.643681 0.123268 -0.029764 -90618.800000 0 0 1
-12.652408 31.703194 -2.107641 34.199679 -1.191075 1.632463 0.132875 -0.020794 -414028.000000 0 0 1
-12.136008 30.254294 -2.085241 32.664250 -1.189313 1.634678 0.105492 -0.022896 -173575.000000 0 0 1
-12.060208 29.690994 -3.371341 32.223744 -1.184964 1.675611 0.096947 -0.031335 -93536.600000 0 0 1
-10.883808 29.800494 -4.161141 31.997528 -1.220625 1.701211 0.086493 -0.027266 129318.000000 0 0 1
-10.837108 29.165994 -5.530541 31.601978 -1.215039 1.746708 0.079448 -0.017716 -31903.900000 0 0 1
-11.176108 27.799794 -5.609741 30.482833 -1.188549 1.755881 0.075216 -0.015354 -95640.000000 0 0 1
-10.957008 27.229794 -6.825441 30.134770 -1.188231 1.799276 0.065005 -0.011852 -119083.000000 0 0 1
-11.459308 25.797694 -7.048041 29.094873 -1.152777 1.815474 0.095962 -0.015666 -96254.800000 0 0 1
-10.911108 24.818494 -6.205341 27.812159 -1.156594 1.795806 0.062280 -0.013369 -207891.000000 0 0 1
-11.462108 23.522794 -6.405841 26.939498 -1.117379 1.810882 0.077988 -0.018225 68986.000000 0 0 1
-10.786308 22.425894 -5.525241 25.491046 -1.122484 1.789283 0.072779 -0.030044 -154144.000000 0 0 1
-9.470708 22.079294 -5.928041 24.745327 -1.165593 1.812711 0.080237 -0.031095 139343.000000 0 1 0
-8.881808 20.932294 -5.288341 23.345535 -1.169509 1.799305 0.080944 -0.028834 39031.300000 0 1 0
-8.828108 20.949194 -3.650041 23.024487 -1.171974 1.729997 0.095384 -0.035830 -371781.000000 0 1 0
-10.053808 20.790494 -2.964841 23.283341 -1.120373 1.698480 0.104305 -0.035072 -433472.000000 0 1 0
-10.525708 19.475494 -3.074741 22.350379 -1.075308 1.708804 0.091294 -0.035006 -273372.000000 0 1 0
-11.978708 19.346394 -2.571041 22.899403 -1.016400 1.683309 0.085341 -0.038873 -291505.000000 0 1 0
-12.098108 19.308894 -1.146541 22.814735 -1.011079 1.621072 0.102365 -0.041023 259683.000000 0 1 0
-11.496608 18.177394 -0.486241 21.513393 -1.006845 1.593400 0.074245 -0.030824 -136225.000000 0 1 0
-11.305708 18.211994 1.079059 21.462994 -1.015235 1.520500 0.076975 -0.029107 479551.000000 0 1 0
-12.497908 18.073794 1.855559 22.052275 -0.965802 1.486553 0.099341 -0.040878 504973.000000 0 1 0
-12.208408 18.287494 3.176059 22.216323 -0.982160 1.427344 0.094845 -0.034372 88641.100000 0 1 0
-13.473808 18.273694 4.053059 23.062929 -0.935451 1.394140 0.097578 -0.039101 63089.900000 0 1 0
-13.885408 16.964094 4.473559 22.374042 -0.884866 1.369495 0.069203 -0.042885 181549.000000 0 1 0
-15.198908 17.075894 4.982859 23.397048 -0.843489 1.356183 0.095718 -0.047327 184668.000000 0 1 0
-15.680108 15.730194 5.615459 22.909347 -0.786993 1.323156 0.074294 -0.036742 -197555.000000 0 1 0
-14.859008 15.311994 6.701559 22.364216 -0.800411 1.266465 0.066473 -0.025926 -78237.100000 0 1 0
-15.284808 15.837194 7.920159 23.391686 -0.803145 1.225380 0.063110 -0.026840 -778361.000000 0 1 0
-14.138308 15.765294 8.931359 22.982720 -0.839752 1.171672 0.056065 -0.018585 1029490.000000 0 1 0
-12.963408 16.601694 8.755159 22.810502 -0.907843 1.176865 0.056653 -0.030468 1107630.000000 0 1 0
-12.125708 16.122494 7.695259 21.591309 -0.925953 1.206379 0.052473 -0.031933 -504129.000000 0 1 0
-10.928508 17.072294 7.360859 21.565661 -1.001390 1.222472 0.071694 -0.044160 786535.000000 0 1 0
-9.933708 17.004394 8.400159 21.410059 -1.042087 1.167615 0.066421 -0.041813 -109949.000000 0 1 0
-9.278508 18.243394 8.397059 22.122900 -1.100296 1.181471 0.070294 -0.039140 -206385.000000 0 1 0
-8.056108 18.334594 9.343059 22.098664 -1.156797 1.134276 0.065395 -0.034276 276425.000000 0 1 0
-6.921508 17.629294 8.797459 20.882877 -1.196673 1.135944 0.045443 -0.027293 770559.000000 0 1 0
-5.728908 17.800694 9.595959 21.018266 -1.259429 1.096679 0.044030 -0.027616 886010.000000 0 1 0
-4.872008 18.892994 8.911059 21.449677 -1.318421 1.142370 0.035010 -0.023150 -1317830.000000 0 1 0
-5.264808 20.215194 9.007059 22.748612 -1.316018 1.163706 0.048488 -0.025690 -152434.000000 0 1 0
-4.622208 21.063394 8.088159 23.031493 -1.354778 1.211967 0.044873 -0.028391 1027870.000000 0 1 0
-3.130308 21.553894 8.351559 23.326330 -1.426573 1.204638 0.039945 -0.021738 1547270.000000 0 1 0
-2.099808 20.546594 8.355659 22.279783 -1.468953 1.186364 0.033177 -0.010584 255013.000000 0 1 0
-0.892308 21.254894 8.101159 22.763908 -1.528840 1.206944 0.027327 -0.015943 114741.000000 0 1 0
0.324592 20.340894 7.864459 21.810709 1.554840 1.201909 0.019745 -0.015825 193325.000000 0 1 0
0.778892 19.579594 8.987559 21.557907 1.531037 1.140761 0.017497 -0.020848 -34251.600000 0 1 0
2.187492 19.675594 9.080959 21.780218 1.460073 1.140725 0.011583 -0.002858 -278145.000000 0 1 0
2.720192 18.953294 10.242559 21.714898 1.428249 1.079597 0.005252 -0.024520 -555544.000000 0 1 0
4.106492 19.050294 10.512059 22.142275 1.358484 1.076116 0.028947 -0.003099 197515.000000 0 1 0
4.368892 18.121894 11.598359 21.954775 1.334227 1.014218 0.022650 -0.018478 378270.000000 0 1 0
5.858092 18.104894 12.060059 22.528858 1.257864 1.005914 0.054428 -0.018657 332132.000000 0 1 0
6.711992 17.468494 11.126759 21.771630 1.203955 1.034371 0.049649 -0.021577 123090.000000 0 1 0
7.733592 16.814994 11.907359 22.007672 1.139722 0.999105 0.055486 -0.020520 308623.000000 0 1 0
8.810292 16.176894 10.981359 21.445358 1.072091 1.033212 0.066039 -0.032516 372814.000000 0 1 0
9.934692 17.026394 10.791459 22.473357 1.042607 1.069926 0.086391 -0.041151 -214612.000000 0 1 0
10.866392 16.571694 9.894759 22.149622 0.990410 1.107696 0.084817 -0.048783 -1330870.000000 0 1 0
12.130892 17.344694 9.723259 23.292460 0.960473 1.140167 0.092214 -0.040442 -955248.000000 0 1 0
13.018392 16.920394 8.736059 23.067227 0.915000 1.182382 0.097341 -0.038082 -74268.300000 0 1 0
14.080992 17.881194 8.637659 24.343799 0.903739 1.208075 0.113809 -0.035159 801178.000000 0 1 0
15.107692 17.552594 7.495659 24.341750 0.860117 1.257775 0.112211 -0.035089 572511.000000 0 1 0
16.031192 16.491694 7.802659 24.286962 0.799557 1.243727 0.132765 -0.047873 414501.000000 0 1 0
17.029092 16.476694 6.794559 24.650303 0.768913 1.291543 0.132758 -0.033030 293685.000000 0 1 0
18.462392 16.450994 7.420359 25.817762 0.727851 1.279272 0.127167 -0.036671 185231.000000 0 0 1
18.787592 15.331494 8.217059 25.603678 0.684447 1.244082 0.135729 -0.029536 -354207.000000 0 0 1
20.042892 15.419294 8.797459 26.774379 0.655748 1.235999 0.136311 -0.030056 -752260.000000 0 0 1
20.354692 14.401694 9.962459 26.850937 0.615766 1.190680 0.127148 -0.027280 369317.000000 0 0 1
21.072092 13.247294 9.443859 26.621613 0.561231 1.208156 0.145602 -0.032199 645723.000000 0 0 1
21.483292 12.390894 10.481359 26.924430 0.523163 1.170938 0.145090 -0.028669 -270935.000000 0 0 1
22.256092 11.143694 10.024059 26.832765 0.464210 1.187936 0.125738 -0.017945 742487.000000 0 0 1
23.655792 11.492694 9.801759 28.066937 0.452247 1.214049 0.122765 -0.020580 1733810.000000 0 0 1
24.374592 10.604094 8.970259 28.054109 0.410350 1.245332 0.129408 -0.024580 -151480.000000 0 0 1
24.496292 9.041694 9.344959 27.733532 0.353592 1.227115 0.136673 -0.033168 -603154.000000 0 0 1
23.259792 8.345794 9.365059 26.426776 0.344500 1.208548 0.138947 -0.035000 460823.000000 0 0 1
23.288192 6.981094 9.904459 26.252121 0.291245 1.183936 0.124155 -0.027367 1218.470000 0 0 1
24.146392 5.879394 9.135559 26.477801 0.238842 1.218529 0.127879 -0.037953 433490.000000 0 0 1
23.702892 5.663794 7.806559 25.589998 0.234551 1.260792 0.113302 -0.024279 395792.000000 0 0 1
24.777092 5.440694 6.928259 26.296505 0.216155 1.304182 0.126740 -0.029616 -229279.000000 0 0 1
24.232692 5.270994 5.480259 25.397637 0.214180 1.353307 0.136004 -0.034065 -434795.000000 0 0 1
23.621992 4.038794 5.359059 24.556666 0.169339 1.350794 0.133779 -0.022442 45096.000000 0 1 0
23.126992 3.953494 4.057259 23.810695 0.169311 1.399564 0.155384 -0.025445 -132202.000000 0 1 0
22.309092 2.631394 3.816159 22.785585 0.117409 1.402522 0.155862 -0.017517 84959.700000 0 1 0
23.068992 1.449094 3.866259 23.435576 0.062733 1.405065 0.194046 -0.019545 433355.000000 0 1 0
22.200692 0.351594 3.611959 22.495346 0.015836 1.409534 0.191278 -0.015297 135155.000000 0 1 0
22.776192 -1.113106 3.717559 23.104418 -0.048833 1.409191 0.209843 -0.020957 -287869.000000 0 1 0
23.100492 -1.433506 5.056159 23.690766 -0.061976 1.355719 0.213929 -0.020939 596678.000000 0 1 0
22.940892 -2.831106 5.203959 23.693477 -0.122788 1.349354 0.187835 -0.025824 -343724.000000 0 1 0
23.419692 -3.411806 6.556359 24.558262 -0.144663 1.300547 0.244537 -0.036557 -95609.000000 0 1 0
23.055592 -4.797506 6.790059 24.508800 -0.205157 1.290078 0.199720 -0.036199 610236.000000 0 1 0
23.359792 -5.167406 8.104359 25.259901 -0.217704 1.244181 0.244261 -0.048135 -120015.000000 0 0 1
22.950192 -6.639606 8.347459 25.307622 -0.281616 1.234663 0.237717 -0.051163 1050690.000000 0 0 1
21.537892 -6.936306 8.330859 24.112161 -0.311563 1.218020 0.243709 -0.061701 1488170.000000 0 1 0
21.239992 -8.104106 9.058459 24.471809 -0.364500 1.191616 0.229273 -0.051116 -114504.000000 0 1 0
-27.870768 -32.686897 5.094159 43.256946 0.864761 1.452757 0.101773 -0.038269 59811.400000 0 0 1
-29.014308 -33.376697 5.538759 44.570302 0.855205 1.446204 0.101767 -0.046139 27344.100000 0 0 1
-28.861698 -33.810497 6.877759 44.982784 0.864198 1.417297 0.094837 -0.029137 -62067.700000 0 0 1
-29.636618 32.593594 7.171659 44.632994 -0.832879 1.409416 0.109382 -0.038801 164397.000000 0 0 1
-31.046528 32.719594 7.249759 45.683889 -0.811630 1.411429 0.104695 -0.038583 -143170.000000 0 0 1
-31.651848 31.527094 7.658359 45.326015 -0.783424 1.401020 0.122585 -0.045117 162874.000000 0 0 1
-33.188648 31.649794 7.769259 46.514054 -0.761669 1.402979 0.108040 -0.040512 77460.800000 0 0 1
-33.804618 31.694894 6.508559 46.794015 -0.753200 1.431254 0.096444 -0.035215 -667043.000000 0 0 1
-35.194986 31.735294 6.544059 47.839739 -0.733753 1.433575 0.072659 -0.025497 -433327.000000 0 0 1
-35.952661 31.679194 5.185959 48.198126 -0.722295 1.462991 0.065961 -0.015409 -249519.000000 0 0 1
-35.797050 30.402494 4.623659 47.192358 -0.704088 1.472664 0.075821 -0.023479 129655.000000 0 0 1
-36.430978 30.174894 3.387059 47.425864 -0.691746 1.499318 0.081115 -0.003338 -382312.000000 0 0 1
-35.994358 28.915594 2.734859 46.251323 -0.676772 1.511631 0.084070 -0.016286 -414885.000000 0 0 1
-36.302948 27.719894 3.381659 45.801006 -0.652130 1.496895 0.117722 -0.029441 64533.200000 0 0 1
-35.726362 26.515294 2.857159 44.582475 -0.638476 1.506665 0.099410 -0.030889 -121276.000000 0 0 1
-36.188788 25.199294 3.575959 44.242743 -0.608258 1.489882 0.128349 -0.033902 -494372.000000 0 0 1
-37.545838 24.952894 3.388259 45.208596 -0.586569 1.495779 0.149351 -0.032186 -747175.000000 0 0 1
37.523230 24.051894 4.358559 44.782624 0.570013 1.473315 0.160801 -0.036625 609669.000000 0 0 1
35.983430 23.879294 4.182759 43.388055 0.585890 1.474243 0.174514 -0.041890 188194.000000 0 0 1
35.525320 23.191094 3.066559 42.535620 0.578344 1.498640 0.161997 -0.053225 -144079.000000 0 0 1
35.822680 21.793894 2.997659 42.038365 0.546560 1.499428 0.151767 -0.047587 -398182.000000 0 0 1
34.838740 20.890094 2.182159 40.680408 0.540142 1.517129 0.167635 -0.047291 231156.000000 0 0 1
33.575520 20.632794 2.764459 39.505315 0.551027 1.500762 0.153006 -0.060671 231013.000000 0 0 1
33.403510 19.711694 3.795959 38.971203 0.533115 1.473237 0.129913 -0.046534 -317872.000000 0 0 1
33.563110 18.218694 3.493059 38.348463 0.497313 1.479583 0.146088 -0.050505 -362021.000000 0 0 1
32.502150 17.811694 2.662359 37.158234 0.501319 1.499086 0.116035 -0.056110 328291.000000 0 0 1
32.665550 16.517594 2.178659 36.669000 0.468164 1.511347 0.121998 -0.044683 -420550.000000 0 0 1
32.028330 15.468894 3.153159 35.707744 0.449935 1.482377 0.138502 -0.049404 -81090.500000 0 0 1
30.634340 15.397794 2.910159 34.409647 0.465751 1.486121 0.120666 -0.048532 315937.000000 0 0 1
30.000240 14.556194 3.898659 33.572261 0.451740 1.454406 0.127807 -0.052223 -705495.000000 0 0 1
28.504840 14.764094 4.005959 32.350457 0.477905 1.446648 0.124734 -0.044907 -648344.000000 0 0 1
27.803940 14.117494 2.902159 31.317491 0.469830 1.477994 0.131171 -0.049529 16900.100000 0 0 1
26.510540 14.642794 2.810359 30.415756 0.504637 1.478266 0.094888 -0.033100 -370284.000000 0 0 1
25.673840 14.229094 1.555759 29.394447 0.506081 1.517845 0.097573 -0.032418 -265400.000000 0 0 1
26.105540 14.582094 0.228759 29.902993 0.509408 1.563146 0.104290 -0.036266 420767.000000 0 0 1
27.326040 13.934294 -0.125841 30.673976 0.471558 1.574899 0.114428 -0.034579 -471302.000000 0 0 1
28.041840 14.654294 -1.267841 31.665447 0.481553 1.610846 0.131812 -0.036375 -139062.000000 0 0 1
28.515140 15.983494 -1.001741 32.704568 0.510889 1.601431 0.069164 -0.026973 607376.000000 0 0 1
29.601040 16.089294 -0.093441 33.691181 0.497869 1.573570 0.090490 -0.031203 -567662.000000 0 0 1
30.069640 17.532894 0.030159 34.807851 0.527883 1.569930 0.091682 -0.028026 -434929.000000 0 0 1
30.855890 18.016794 -1.033841 35.745763 0.528498 1.599722 0.101386 -0.024801 86495.600000 0 0 1
31.240980 19.327294 -0.860041 36.746194 0.554021 1.594203 0.083717 -0.015612 48449.000000 0 0 1
32.459910 19.754694 -1.717941 38.037415 0.546710 1.615976 0.068216 -0.010827 309698.000000 0 0 1
33.014320 21.084994 -1.606941 39.205925 0.568363 1.611795 0.045147 -0.000455 605905.000000 0 0 1
32.122900 22.067494 -2.118041 39.030002 0.601928 1.625090 0.063612 -0.001704 -685907.000000 0 0 1
32.733670 23.420494 -2.369741 40.319081 0.621044 1.629605 0.078860 -0.010731 -341538.000000 0 0 1
33.106620 24.178294 -1.226541 41.013931 0.630784 1.600706 0.084033 -0.013111 1192720.000000 0 0 1
34.366370 23.749494 -0.655341 41.779364 0.604706 1.586483 0.111783 -0.005794 272401.000000 0 0 1
34.941140 24.575894 0.504759 42.721336 0.612972 1.558981 0.133606 -0.037080 -133590.000000 0 0 1
35.330330 25.874094 0.063559 43.791608 0.632108 1.569345 0.148050 -0.031978 -47501.000000 0 0 1
36.621550 26.108694 0.581859 44.979332 0.619353 1.557860 0.149131 -0.036934 -57950.800000 0 0 1
37.297520 27.380694 0.123159 46.269023 0.633257 1.568135 0.104977 -0.028394 -401704.000000 0 0 1
37.695880 27.434794 -1.248441 46.639102 0.629136 1.597568 0.094426 -0.026738 258167.000000 0 0 1
36.668030 27.599794 -2.226741 45.948356 0.645223 1.619277 0.078540 -0.025843 66027.100000 0 0 1
37.116240 27.417494 -3.679341 46.291163 0.636225 1.650363 0.082894 -0.022437 231368.000000 0 0 1
-37.698348 28.363594 -4.390941 47.380790 -0.645024 1.663603 0.087802 -0.021506 440846.000000 0 0 1
-37.519588 27.951794 -5.752441 47.139292 -0.640288 1.693132 0.099696 -0.022626 22475.800000 0 0 1
36.904680 28.071294 -6.707341 46.850201 0.650278 1.714456 0.064109 -0.004959 738801.000000 0 0 1
35.907580 27.054394 -6.522441 45.429470 0.645702 1.714867 0.068898 0.004295 21712.300000 0 0 1
34.722330 27.204994 -7.258941 44.703960 0.664600 1.733897 0.049425 -0.000967 86234.100000 0 0 1
33.565350 26.381194 -6.640241 43.205241 0.666124 1.725099 0.049307 0.005740 -346323.000000 0 0 1
33.562740 24.922794 -6.629041 42.326674 0.638731 1.728060 0.038926 0.008281 163404.000000 0 0 1
34.637950 24.360594 -5.866541 42.750934 0.612932 1.708457 0.052504 0.002095 122398.000000 0 0 1
34.830670 22.854394 -5.975341 42.085669 0.580691 1.713258 0.056595 -0.000033 -6275.160000 0 0 1
33.830070 21.924094 -5.583141 40.697800 0.575014 1.708416 0.039754 0.006035 264563.000000 0 0 1
34.242960 20.566294 -5.890341 40.376340 0.540860 1.717205 0.046919 -0.000962 72619.900000 0 0 1
33.187740 19.550194 -5.449241 38.901547 0.532350 1.711336 0.062291 -0.002226 -35750.600000 0 0 1
32.000470 19.504294 -6.228541 37.990028 0.547376 1.735492 0.040722 -0.008630 -506774.000000 0 0 1
31.102530 18.792294 -5.430241 36.742417 0.543505 1.719132 0.063900 -0.016590 -959045.000000 0 0 1
29.844140 18.576594 -6.264141 35.707170 0.556766 1.747140 0.029224 -0.019165 -788095.000000 0 0 1
29.896740 17.494394 -7.238241 35.387300 0.529437 1.776794 0.030213 -0.019587 -169316.000000 0 0 1
28.880140 17.522594 -8.218541 34.765618 0.545357 1.809454 0.046942 -0.029629 -17974.300000 0 0 1
28.964140 16.363494 -9.288341 34.539233 0.514254 1.843069 0.058717 -0.032817 -386747.000000 0 0 1
27.888640 16.425994 -10.176941 33.928743 0.532281 1.875437 0.068283 -0.028317 49029.000000 0 0 1
28.195440 15.498294 -11.177741 34.060561 0.502593 1.905165 0.079090 -0.016089 249131.000000 0 0 1
27.242940 15.571694 -12.418041 33.747047 0.519265 1.947626 0.085621 -0.011612 1095240.000000 0 0 1
25.850140 15.256094 -12.204041 32.402419 0.533164 1.956963 0.071284 -0.009190 1459750.000000 0 0 1
25.023640 15.323594 -13.379941 32.249308 0.549462 1.998619 0.071354 -0.020424 186411.000000 0 0 1
25.103040 14.062494 -14.318541 32.139336 0.510634 2.032545 0.072068 -0.021230 -672607.000000 0 0 1
26.382240 13.832594 -14.860841 33.289755 0.482910 2.033544 0.094977 -0.026935 -23710.400000 0 0 1
26.660540 14.469994 -16.094441 34.339425 0.497260 2.058600 0.112758 -0.031729 386201.000000 0 0 1
28.102140 14.192694 -16.670441 35.623958 0.467671 2.057773 0.129445 -0.025236 843923.000000 0 0 1
28.241640 12.798694 -16.994641 35.358374 0.425500 2.072180 0.126675 -0.032887 520042.000000 0 0 1
29.549940 12.510694 -17.484041 36.543236 0.400493 2.069683 0.122997 -0.013904 479399.000000 0 0 1
29.844340 11.019594 -17.782641 36.446377 0.353707 2.080493 0.093047 -0.014426 -160767.000000 0 0 1
29.308840 10.658594 -19.066741 36.553445 0.348796 2.119536 0.100854 -0.016555 426290.000000 0 0 1
29.760340 9.371894 -19.481641 36.783754 0.305081 2.128956 0.092716 -0.017559 -268811.000000 0 0 1
31.192440 9.356294 -20.032841 38.233797 0.291414 2.122286 0.097067 -0.012669 -1208780.000000 0 0 1
31.288930 10.065994 -21.273341 39.151965 0.311254 2.145222 0.091941 -0.013680 219389.000000 0 0 1
31.999070 9.363694 -22.268541 40.093730 0.284676 2.159655 0.061181 -0.007562 -175652.000000 0 0 1
33.484220 9.003094 -22.169741 41.155147 0.262664 2.139674 0.061090 -0.000562 -816221.000000 0 0 1
34.430190 10.000394 -22.195641 42.167432 0.282676 2.125121 0.064374 -0.003536 -140333.000000 0 0 1
35.736650 9.463194 -22.136241 43.089133 0.258862 2.110325 0.028428 -0.002580 179289.000000 0 0 1
36.978450 10.328794 -21.969041 44.234924 0.272377 2.090525 0.056239 -0.004137 -129553.000000 0 0 1
36.958930 10.720894 -20.618241 43.657896 0.282327 2.062659 0.042261 -0.010897 233468.000000 0 0 1
-37.800628 11.792094 -20.333241 44.512714 -0.302388 2.045187 0.017055 -0.003348 -107800.000000 0 0 1
37.597770 12.401094 -18.975141 43.902567 0.318600 2.017739 0.029974 -0.013172 -43747.900000 0 0 1
-37.566708 11.649394 -17.915841 43.219710 -0.300696 1.998222 0.028337 -0.009640 248633.000000 0 0 1
37.541380 12.302794 -16.787141 42.924609 0.316684 1.972606 0.039194 -0.012931 9835.520000 0 0 1
-37.806798 11.494394 -15.493141 42.444228 -0.295150 1.944454 0.045008 -0.013295 -132409.000000 0 0 1
37.145680 10.222794 -15.449541 41.508979 0.268560 1.952172 0.029560 -0.009386 232643.000000 0 0 1
37.561900 9.417294 -14.416441 41.320885 0.245651 1.927183 0.031377 -0.021561 -84796.700000 0 0 1
36.612510 8.214294 -14.192741 40.117133 0.220703 1.932408 0.079843 -0.021030 168450.000000 0 0 1
35.396530 8.433094 -13.511041 38.814683 0.233886 1.926330 0.092019 -0.020347 487844.000000 0 0 1
35.422140 8.081594 -12.144141 38.308228 0.224311 1.893373 0.093899 -0.018911 -46192.800000 0 0 1
34.314590 8.871094 -11.378841 37.224527 0.252984 1.881450 0.116758 -0.021175 177689.000000 0 0 1
34.614480 10.269694 -11.229941 37.811908 0.288415 1.872340 0.122959 -0.032474 141243.000000 0 0 1
33.830340 10.817194 -10.195641 36.952059 0.309475 1.850338 0.108970 -0.020413 -458121.000000 0 0 1
34.318810 10.594394 -8.729441 36.962481 0.299424 1.809219 0.124854 -0.019116 1067290.000000 0 0 1
35.556190 11.297194 -8.373641 38.235940 0.307641 1.791585 0.118581 -0.022646 1216530.000000 0 0 1
35.374030 12.558394 -7.761241 38.331085 0.341138 1.774685 0.110317 -0.021805 -268153.000000 0 0 1
35.177670 12.624994 -6.206541 37.886410 0.344575 1.735358 0.089112 -0.019467 -348225.000000 0 0 1
36.380050 12.396094 -5.537941 38.830915 0.328401 1.713901 0.108475 -0.019584 -210902.000000 0 0 1
36.212660 12.482394 -4.109841 38.523469 0.331943 1.677684 0.107996 -0.026477 -194399.000000 0 0 1
37.532620 12.342794 -3.337141 39.650708 0.317715 1.655059 0.122953 -0.021579 119377.000000 0 0 1
-37.404738 13.612994 -3.338841 39.944661 -0.349037 1.654481 0.129645 -0.017254 611205.000000 0 0 1
-36.085908 13.459494 -2.802141 38.616094 -0.357003 1.643424 0.144420 -0.035422 553018.000000 0 0 1
-35.262704 14.761094 -3.014541 38.346260 -0.396440 1.649491 0.130009 -0.034383 -82099.300000 0 0 1
-35.741208 15.901594 -2.284841 39.185650 -0.418612 1.629138 0.168724 -0.029636 387964.000000 0 0 1
-34.844914 17.008194 -2.265541 38.840435 -0.454091 1.629159 0.152012 -0.034117 192676.000000 0 0 1
-35.314666 17.996594 -1.204241 39.654171 -0.471303 1.601170 0.164110 -0.025887 330966.000000 0 0 1
-36.579018 18.521094 -1.581141 41.031153 -0.468700 1.609341 0.149274 -0.020855 567865.000000 0 0 1
-37.102998 19.375994 -0.558241 41.861358 -0.481267 1.584132 0.146011 -0.027103 368201.000000 0 0 1
37.433660 20.392894 -0.986341 42.639440 0.498822 1.593931 0.136126 -0.026022 528102.000000 0 0 1
-37.636518 21.640394 -1.474241 43.439470 -0.521822 1.604741 0.137045 -0.021802 654566.000000 0 0 1
37.243430 22.230994 -2.524641 43.447255 0.538145 1.628937 0.102131 -0.007398 69826.100000 0 0 1
-37.665038 23.509194 -3.068341 44.505640 -0.557999 1.639794 0.128849 -0.025756 -8750.470000 0 0 1
-36.392008 23.199994 -3.581541 43.306413 -0.567539 1.653593 0.150384 -0.020053 -208373.000000 0 0 1
-35.756317 24.388694 -3.971941 43.463766 -0.598598 1.662309 0.167075 -0.025817 729003.000000 0 0 1
-34.266359 24.276794 -4.457041 42.230455 -0.616390 1.676534 0.180513 -0.043336 728871.000000 0 0 1
-34.092393 23.556094 -5.653141 41.822707 -0.604625 1.706381 0.147166 -0.019426 89595.800000 0 0 1
-32.789108 23.578094 -6.232641 40.864385 -0.623419 1.723914 0.180330 -0.020173 351110.000000 0 0 1
-32.667048 22.737194 -7.507641 40.502848 -0.608055 1.757235 0.171141 -0.029610 234921.000000 0 0 1
-33.455058 23.279294 -8.572041 41.649086 -0.607927 1.778094 0.160176 -0.034251 340199.000000 0 0 1
-33.204598 22.477494 -9.709941 41.256103 -0.595081 1.808383 0.118412 -0.026767 72677.000000 0 0 1
-34.163971 22.672594 -10.914341 42.430488 -0.585905 1.830950 0.105260 -0.013921 -5238.500000 0 0 1
-34.043162 23.920494 -11.490241 43.164251 -0.612504 1.840243 0.120552 -0.017010 -42418.600000 0 0 1
-34.387108 23.959194 -12.823741 43.828809 -0.608541 1.867727 0.076235 -0.010043 -695276.000000 0 0 1
-34.210964 25.378294 -13.446241 44.668213 -0.638244 1.876563 0.080587 -0.011544 519247.000000 0 0 1
-32.919658 25.963394 -13.376641 44.008366 -0.667806 1.879640 0.090841 -0.008148 -726738.000000 0 0 1
-31.927648 25.418794 -14.141241 43.191023 -0.672381 1.904359 0.095495 -0.012684 -704095.000000 0 0 1
-30.514418 25.925494 -13.703341 42.320710 -0.704270 1.900537 0.095698 -0.021817 -2674.420000 0 0 1
-29.939248 25.324794 -12.535041 41.168325 -0.702093 1.880192 0.090197 -0.031713 -26482.200000 0 0 1
-30.671198 25.253794 -11.313541 41.309475 -0.688830 1.848214 0.129788 -0.029380 -189491.000000 0 0 1
-31.082628 26.566194 -10.600941 42.240648 -0.707214 1.824474 0.146697 -0.022804 609056.000000 0 0 1
-29.903588 27.257594 -10.179041 41.723062 -0.739141 1.817250 0.158501 -0.020096 321270.000000 0 0 1
-30.170398 28.610594 -9.786541 42.715283 -0.758869 1.801961 0.133257 -0.023678 -471077.000000 0 0 1
-28.929048 29.464694 -9.597841 42.393119 -0.794571 1.799177 0.147573 -0.020285 -316453.000000 0 0 1
-29.101938 30.853894 -9.649141 43.497029 -0.814611 1.794492 0.123580 -0.037870 655921.000000 0 0 1
-27.949288 31.453194 -8.993641 43.027337 -0.844316 1.781371 0.170836 -0.025383 581832.000000 0 0 1
36.123120 -24.524606 33.447598 55.000708 -0.596436 0.917093 0.074496 -0.021635 -120873.000000 0 0 1
35.813580 -23.193006 33.632489 54.329296 -0.574689 0.903265 0.073704 -0.019734 560181.000000 0 0 1
34.683190 -23.104506 -33.077051 53.205575 -0.587651 2.241687 0.045554 -0.008674 510910.000000 0 0 1
34.082080 -21.674806 -32.816351 52.041313 -0.566441 2.253100 0.037111 -0.001135 71695.700000 0 0 1
33.440100 -21.238206 33.596809 51.942731 -0.565838 0.867409 0.030502 -0.006696 99920.400000 0 0 1
32.965760 -19.912406 33.744979 51.205164 -0.543380 0.851288 0.033652 -0.008833 271748.000000 0 0 1
32.641940 -19.290506 32.399627 49.873397 -0.533756 0.863689 0.043754 -0.024070 91701.000000 0 0 1
33.885710 -18.994106 31.785620 50.193058 -0.510895 0.885029 0.082359 -0.036214 515410.000000 0 0 1
33.717500 -18.456706 30.500209 49.069161 -0.500839 0.900043 0.094367 -0.036777 261740.000000 0 0 1
35.055050 -18.213206 29.743299 49.449381 -0.479173 0.925432 0.089598 -0.037072 -71349.500000 0 0 1
35.894970 -17.153006 30.095249 49.883850 -0.445785 0.923156 0.095475 -0.035220 1087110.000000 0 0 1
37.187670 -17.388206 29.494559 50.549001 -0.437377 0.947784 0.100209 -0.026213 800672.000000 0 0 1
-37.480488 -16.188406 29.590489 50.422699 0.407714 0.943635 0.085075 -0.022128 1155.610000 0 0 1
-36.112728 -16.521106 29.579299 49.517785 0.429063 0.930607 0.086147 -0.016112 271804.000000 0 0 1
-35.291975 -15.409906 29.939519 48.778720 0.411689 0.909954 0.077893 -0.016530 168928.000000 0 0 1
-33.836388 -15.822006 30.243499 48.061485 0.437396 0.890187 0.082360 -0.023353 -359321.000000 0 0 1
-33.088048 -14.731206 30.665099 47.457093 0.418865 0.868248 0.070415 -0.018693 646956.000000 0 0 1
-31.779938 -15.182906 31.090539 46.979855 0.445691 0.847600 0.071473 -0.020908 1232660.000000 0 0 1
-30.823848 -14.027506 31.551410 46.285765 0.427076 0.820760 0.067236 -0.021406 268444.000000 0 0 1
-31.134148 -13.532406 32.866252 47.250944 0.410014 0.801586 0.085298 -0.027046 793909.000000 0 0 1
-30.111318 -12.651506 33.400930 46.715889 0.397762 0.774201 0.076230 -0.020708 468028.000000 0 0 1
-30.355928 -12.080106 -32.796641 46.292883 0.378737 2.358110 0.073715 -0.020452 -361692.000000 0 0 1
-30.332878 -13.119306 -31.819191 45.876581 0.408215 2.337247 0.084566 -0.016992 129059.000000 0 0 1
-30.620558 -12.575906 -30.508291 45.016973 0.389698 2.315435 0.099970 -0.016889 -409333.000000 0 0 1
-30.748418 -13.590206 -29.386881 44.651402 0.416165 2.289142 0.105660 -0.013187 12858.200000 0 0 1
-31.975528 -14.267206 -29.541031 45.811135 0.419682 2.271615 0.104708 -0.019295 -125889.000000 0 0 1
-32.282738 -14.992206 -28.362051 45.512058 0.434767 2.243594 0.116009 -0.022101 668671.000000 0 0 1
-33.590478 -15.838906 -28.480061 46.800695 0.440613 2.225015 0.105347 -0.026929 389496.000000 0 0 1
-33.442878 -17.003506 -29.222701 47.555353 0.470372 2.232547 0.104403 -0.023237 -259747.000000 0 0 1
-34.597181 -17.789106 -29.199751 48.641985 0.474925 2.214672 0.098053 -0.027290 -265283.000000 0 0 1
-34.427822 -19.133106 -29.982111 49.500280 0.507244 2.221436 0.091124 -0.030291 491735.000000 0 0 1
-35.685495 -19.793406 -29.960321 50.624642 0.506416 2.204102 0.068838 -0.029389 442305.000000 0 0 1
-35.488648 -21.040606 -30.611961 51.373568 0.535170 2.209145 0.069779 -0.032655 -492334.000000 0 0 1
-36.762838 -21.817906 -30.850081 52.718638 0.535610 2.195903 0.096766 -0.035704 -726322.000000 0 0 1
-37.458148 -22.320306 -29.734711 52.777476 0.537380 2.169289 0.069572 -0.030747 483683.000000 0 0 1
37.184910 -23.289506 -30.146711 53.234790 -0.559545 2.172803 0.070794 -0.023773 504884.000000 0 0 1
37.746700 -24.711506 -30.385311 54.394292 -0.579649 2.163508 0.058748 -0.017209 151949.000000 0 0 1
-37.213258 -24.887606 -31.629331 54.814543 0.589467 2.185877 0.071493 -0.019929 559068.000000 0 0 1
-36.393768 -26.118046 -31.642221 54.844224 0.622475 2.185782 0.059159 -0.016057 624195.000000 0 0 1
-36.721008 -27.057066 -32.854551 56.213333 0.635018 2.195013 0.070903 -0.022052 847236.000000 0 0 1
37.617450 -27.648196 -32.696851 56.996310 -0.633821 2.181771 0.081238 -0.018590 372485.000000 0 0 1
37.458720 -28.837536 -33.414821 57.890496 -0.656084 2.186101 0.082573 -0.023811 123990.000000 0 0 1
-37.538418 -30.141056 -32.842071 58.277078 0.676530 2.169474 0.079990 -0.026111 305416.000000 0 0 1
37.488390 -30.569996 -31.633121 57.797564 -0.684092 2.149942 0.089092 -0.029802 200813.000000 0 0 1
-37.390748 -31.637966 -31.058251 57.996931 0.702251 2.135914 0.086349 -0.034254 362033.000000 0 0 1
37.664380 -32.230706 -29.716901 57.797216 -0.707814 2.110822 0.077270 -0.036949 -519704.000000 0 0 1
36.503470 -32.943616 -29.923211 57.560262 -0.734183 2.117482 0.108628 -0.030496 -560669.000000 0 0 1
35.975800 -33.408626 -28.693251 56.865606 -0.748416 2.099692 0.125478 -0.031347 114090.000000 0 0 1
34.742380 33.362906 -28.653661 56.045952 0.765146 2.107438 0.120593 -0.034350 721628.000000 0 0 1
33.476590 -33.753456 -28.972821 55.672275 -0.789516 2.118136 0.127525 -0.026172 411235.000000 0 0 1
32.337560 33.169816 -28.645111 54.465557 0.798102 2.124605 0.097404 -0.022865 -375978.000000 0 0 1
31.102090 33.660036 -29.336171 54.414602 0.824875 2.140192 0.050529 0.002008 -751735.000000 0 0 1
31.194860 33.397306 -30.726161 55.069014 0.819483 2.162719 0.071209 0.007108 189714.000000 0 0 1
29.914440 33.635656 -31.309271 54.831574 0.843887 2.178530 0.053567 0.014160 301575.000000 0 0 1
29.739940 33.040726 -32.729831 55.203219 0.837926 2.205448 0.052418 0.005966 12959.400000 0 0 1
29.663040 31.642124 -32.819161 54.389496 0.817669 2.218567 0.039856 0.018788 23032.000000 0 0 1
29.591840 31.179514 33.437987 54.460426 0.811518 0.909695 0.051873 0.011066 18466.000000 0 0 1
29.485040 29.618004 33.400860 53.499637 0.787648 0.896536 0.061838 -0.000947 -261945.000000 0 0 1
30.656340 28.926484 33.707269 53.969738 0.756374 0.896230 0.076962 0.003585 -482264.000000 0 0 1
30.430640 27.519374 33.769179 53.138472 0.735203 0.882148 0.077954 -0.000207 -54832.400000 0 0 1
31.703190 26.838324 -33.303151 53.239907 0.702488 2.246607 0.101401 -0.009627 -94136.000000 0 0 1
32.075050 27.163754 -31.968501 52.807797 0.702681 2.221033 0.106550 -0.012241 -1411660.000000 0 0 1
33.175720 26.393754 -31.758851 52.970589 0.672037 2.213743 0.111056 -0.009205 -1179300.000000 0 0 1
33.769350 26.656274 -30.395821 52.676673 0.668221 2.185879 0.117262 -0.022080 -220594.000000 0 0 1
34.733440 27.676064 -30.225881 53.721320 0.672795 2.168375 0.090273 -0.015773 -128206.000000 0 0 1
34.280330 28.988184 -30.329451 54.178699 0.701947 2.164946 0.124526 -0.024390 328352.000000 0 0 1
33.397860 29.588674 -29.156321 53.301010 0.724996 2.149588 0.138279 -0.008993 485896.000000 0 0 1
34.146810 29.611384 -27.953751 53.143681 0.714383 2.124691 0.114095 -0.019075 112712.000000 0 0 1
33.304380 29.930504 -26.856331 52.213785 0.732094 2.111050 0.112025 -0.016150 365483.000000 0 0 1
34.080030 30.544354 -25.626461 52.451134 0.730741 2.081255 0.127355 -0.018590 277356.000000 0 0 1
34.589180 31.849968 -25.938061 53.699300 0.744193 2.074902 0.125275 -0.025166 603802.000000 0 0 1
35.421150 32.252904 -24.821141 53.953653 0.738616 2.048843 0.105064 -0.030705 272828.000000 0 0 1
35.678820 33.803684 -24.798541 55.051202 0.758418 2.038080 0.113466 -0.026824 119865.000000 0 0 1
34.506570 -33.123176 -24.520641 53.750442 -0.764946 2.044510 0.103978 -0.018935 482008.000000 0 0 1
34.692450 -31.735926 -24.436541 52.989430 -0.740921 2.050097 0.090801 -0.021785 -816952.000000 0 0 1
34.991330 -30.970306 -25.714961 53.336782 -0.724513 2.073874 0.084026 -0.026527 388508.000000 0 0 1
36.235070 -31.148936 -26.401821 54.592057 -0.710061 2.075582 0.108638 -0.030986 760364.000000 0 0 1
37.279090 -30.377366 -25.792151 54.568764 -0.683739 2.063096 0.111875 -0.027988 -57776.200000 0 0 1
-36.921678 -30.803076 -26.136581 54.728062 0.695298 2.068685 0.080274 -0.023101 -11216.000000 0 0 1
-36.460738 -32.195506 -25.885231 55.099739 0.723353 2.059848 0.069589 -0.026203 132185.000000 0 0 1
-36.306588 -32.568576 -24.556341 54.606725 0.731179 2.037220 0.073799 -0.018520 493528.000000 0 0 1
-35.032288 -32.029256 -23.782541 53.091842 0.740648 2.035268 0.062595 -0.018536 609949.000000 0 0 1
-34.942771 -30.622376 -23.643941 52.132170 0.719599 2.041528 0.035391 -0.016067 -195167.000000 0 0 1
-34.689814 -30.270326 -22.285741 51.150075 0.717469 2.021605 0.054206 -0.016728 -252854.000000 0 0 1
-34.464780 -28.737516 -22.114241 50.027049 0.695027 2.028674 0.064224 0.000226 681989.000000 0 0 1
-35.666207 -27.996016 -22.358041 50.554300 0.665494 2.028911 0.045407 0.004288 293643.000000 0 0 1
-35.969978 -27.767216 -23.780741 51.287243 0.657405 2.052938 0.056231 -0.007369 -312559.000000 0 0 1
-37.157698 -26.911276 -24.189841 51.865786 0.626813 2.056005 0.062494 -0.007589 -262838.000000 0 0 1
-37.042808 -25.728696 -23.470241 50.842774 0.607070 2.050621 0.054744 -0.000688 640440.000000 0 0 1
37.663360 -24.687906 -23.941441 51.002098 -0.580224 2.059431 0.056977 -0.005927 832242.000000 0 0 1
-37.678268 -24.071906 -25.327401 51.386631 0.568519 2.086192 0.057983 -0.014975 -247473.000000 0 0 1
-36.444758 -23.423506 -25.474661 50.257730 0.571235 2.102358 0.060508 -0.022128 -357831.000000 0 0 1
-36.103328 -23.009106 -26.794261 50.505462 0.567404 2.130013 0.061889 -0.027096 87654.600000 0 0 1
-34.888229 -22.055706 -26.694741 49.155386 0.563747 2.144883 0.078634 -0.036775 -47865.700000 0 0 1
-35.161532 -20.912506 -25.888611 48.413701 0.536554 2.134993 0.085574 -0.025463 191034.000000 0 0 1
-36.081778 -19.980306 -26.478281 49.012312 0.505718 2.141515 0.096675 -0.024554 612387.000000 0 0 1
-37.380988 -19.815506 -25.633231 49.467718 0.487433 2.115519 0.082758 -0.025667 216988.000000 0 0 1
-37.216708 -19.057806 -24.426241 48.424422 0.473262 2.099506 0.078763 -0.035549 154403.000000 0 0 1
-36.529818 -19.733206 -23.316441 47.618101 0.495284 2.082490 0.068246 -0.032509 220660.000000 0 0 1
-37.148998 -21.034406 -22.700641 48.350941 0.515209 2.059518 0.062741 -0.014513 -130856.000000 0 0 1
37.450640 -20.630106 -21.848841 48.015868 -0.503504 2.043206 0.064282 -0.014676 -471819.000000 0 0 1
36.883570 -21.779606 -21.307541 47.840990 -0.533402 2.032398 0.057497 -0.001692 -202408.000000 0 0 1
35.819970 -21.540806 -20.218041 46.431086 -0.541421 2.021325 0.055162 -0.010152 -203667.000000 0 0 1
34.622060 -21.034806 -20.743841 45.513262 -0.545956 2.044040 0.062778 -0.007662 -131124.000000 0 0 1
33.620130 -20.889906 -19.745941 44.233511 -0.555971 2.033537 0.060327 -0.009735 317529.000000 0 0 1
32.275970 -20.356806 -20.289741 43.218184 -0.562696 2.059489 0.062420 -0.015157 -397883.000000 0 0 1
31.620390 -21.246306 -21.225641 43.609431 -0.591629 2.079129 0.067355 -0.013710 431134.000000 0 0 1
30.344440 -20.819106 -21.650741 42.696309 -0.601331 2.102598 0.098294 -0.019382 77713.900000 0 0 1
30.382140 -19.677506 -22.684241 42.718304 -0.574733 2.130599 0.081020 -0.015732 -771488.000000 0 0 1
30.889130 -18.535806 -22.045241 42.233957 -0.540475 2.119966 0.084238 -0.020883 -34103.400000 0 0 1
30.760920 -17.372606 -22.853541 42.075242 -0.514106 2.144991 0.074023 -0.015864 -172977.000000 0 0 1
31.410490 -16.212806 -22.088341 41.681756 -0.476491 2.129312 0.062029 -0.018408 -221929.000000 0 0 1
30.716990 -15.793806 -20.909241 40.375415 -0.474921 2.115156 0.051330 -0.022917 -75630.900000 0 0 1
31.502280 -15.136706 -19.975841 40.256027 -0.447923 2.090036 0.035532 -0.017198 -308210.000000 0 0 1
32.464400 -16.001906 -19.139341 40.942797 -0.457957 2.057218 0.055644 -0.025651 381552.000000 0 0 1
33.573480 -16.500806 -19.902341 42.374029 -0.456811 2.059727 0.048887 -0.024432 137927.000000 0 0 1
34.448050 -17.217206 -19.071641 42.974735 -0.463489 2.030617 0.047646 -0.022809 -465353.000000 0 0 1
35.712370 -17.649606 -19.836541 44.501352 -0.459009 2.032810 0.057394 -0.032583 -522166.000000 0 0 1
36.557410 -16.592806 -20.093141 44.894318 -0.426079 2.034837 0.065921 -0.036332 -422187.000000 0 0 1
37.354130 -16.759106 -21.217541 46.112717 -0.421735 2.048931 0.080454 -0.034740 -209847.000000 0 0 1
-37.442038 -15.571306 -21.676741 45.981006 0.394119 2.061706 0.105072 -0.042139 -199175.000000 0 0 1
-36.314808 -15.214006 -20.925041 44.587988 0.396733 2.059292 0.136559 -0.039212 343255.000000 0 0 1
-35.546195 -14.191306 -21.584741 43.941168 0.379847 2.084285 0.162465 -0.040447 196579.000000 0 0 1
-34.170525 -13.760706 -20.938341 42.372113 0.382838 2.087658 0.165955 -0.043606 238362.000000 0 0 1
-33.151208 -14.607006 -21.354241 42.052002 0.415024 2.103432 0.180890 -0.051063 -396422.000000 0 0 1
-33.026578 -15.848506 -20.686741 42.069838 0.447415 2.084865 0.162676 -0.053436 -242462.000000 0 0 1
-31.805708 -16.720206 -21.132341 41.686260 0.483994 2.102425 0.134826 -0.060097 313734.000000 0 0 1
-31.760388 -17.915406 -20.373841 41.770534 0.513589 2.080314 0.148578 -0.067438 467754.000000 0 0 1
-30.793328 -18.893406 -20.770841 41.672746 0.550327 2.092580 0.139725 -0.061409 9204.140000 0 0 1
-30.870928 -20.200206 -19.961641 41.946748 0.579423 2.066761 0.124859 -0.021590 -115254.000000 0 0 1
-31.941888 -20.955406 -20.490341 43.350518 0.580615 2.063111 0.119791 -0.027489 266399.000000 0 0 1
-32.245188 -22.104606 -19.696941 43.775967 0.600939 2.037504 0.103910 -0.000463 110362.000000 0 0 1
-33.371058 -22.947806 -20.318041 45.310619 0.602393 2.035790 0.078110 -0.011738 -158682.000000 0 0 1
-32.923868 -23.422106 -21.552141 45.793788 0.618337 2.060806 0.073770 -0.019231 -233785.000000 0 0 1
-33.749458 -24.353006 -22.160941 47.150845 0.625064 2.060088 0.066830 -0.013334 -433096.000000 0 0 1
-33.448258 -24.699306 -23.671441 47.845364 0.636057 2.088342 0.065589 -0.017547 -699074.000000 0 0 1
-32.215438 -25.256776 -23.947441 47.425934 0.664906 2.100113 0.064472 -0.026125 -854982.000000 0 0 1
-32.057978 -25.577026 -25.317551 48.196231 0.673420 2.123866 0.061405 -0.019879 -383327.000000 0 0 1
-30.749628 -26.312576 -25.640441 47.909535 0.707796 2.135522 0.069381 -0.028758 -558666.000000 0 0 1
-29.753668 -25.336326 -25.704481 46.775320 0.705385 2.152599 0.079793 -0.025714 -1215080.000000 0 0 1
-28.489298 -25.862276 -25.964901 46.418461 0.737102 2.164417 0.068136 -0.017424 -161243.000000 0 0 1
-27.445408 -24.720806 -26.137271 45.249593 0.733216 2.186612 0.074548 -0.025445 -43986.800000 0 0 1
-27.475288 -24.021606 -27.361771 45.613546 0.718433 2.214123 0.081203 -0.030326 104482.000000 0 0 1
-26.470788 -23.016106 -27.476261 44.557701 0.715701 2.235270 0.095395 -0.022675 -134126.000000 0 0 1
-26.507518 -22.221706 -28.822411 45.024262 0.697672 2.265494 0.074123 -0.020248 -76626.800000 0 0 1
-25.813758 -22.928906 -29.822161 45.622869 0.726282 2.283216 0.077197 -0.016140 148759.000000 0 0 1
-25.678468 -22.153906 -30.959241 45.920082 0.711845 2.310675 0.068595 -0.014465 -107019.000000 0 0 1
-25.065258 -22.957606 -32.107641 46.757026 0.741538 2.327724 0.069085 -0.027827 674484.000000 0 0 1
-26.055318 -23.847006 -32.634671 48.089303 0.741174 2.316687 0.049285 -0.025354 726906.000000 0 0 1
-25.410888 -24.605806 -33.651151 48.821706 0.769303 2.331272 0.086796 -0.013916 360929.000000 0 0 1
-20.206708 -14.891506 -11.618941 27.659859 0.635102 2.004313 0.070791 -0.003389 -37750.600000 0 0 1
-20.429508 -14.338206 -10.365041 27.025600 0.611958 1.964408 0.083636 -0.005558 -174234.000000 0 0 1
-19.797808 -15.079106 -9.392941 26.600000 0.650919 1.931698 0.075101 -0.015288 -424116.000000 0 0 1
-20.045208 -14.528606 -7.944041 25.999973 0.627172 1.881302 0.111195 -0.029348 -478189.000000 0 0 1
-21.280408 -14.936806 -7.430441 27.040256 0.612003 1.849170 0.128974 -0.029807 -177864.000000 0 0 1
-21.547608 -14.329606 -6.139741 26.595742 0.586862 1.803752 0.122066 -0.034588 250493.000000 0 0 1
-22.879008 -14.862306 -5.545241 27.840382 0.576097 1.771317 0.133775 -0.034747 69850.800000 0 0 1
-22.747908 -16.216506 -5.022841 28.384351 0.619317 1.748691 0.098200 -0.037538 354712.000000 0 0 1
-22.385008 -16.206106 -3.677141 27.879165 0.626634 1.703077 0.109510 -0.043818 -194314.000000 0 0 1
-22.238408 -17.553806 -3.016041 28.491743 0.668211 1.676852 0.081181 -0.034290 731811.000000 0 0 1
-23.479308 -18.233506 -2.717641 29.851704 0.660295 1.661961 0.078797 -0.031000 723811.000000 0 0 1
-23.342108 -19.363806 -1.955541 30.391367 0.692510 1.635186 0.070594 -0.025033 346614.000000 0 0 1
-24.606708 -20.294406 -1.877641 31.951190 0.689652 1.629596 0.077437 -0.041588 503792.000000 0 0 1
-24.782908 -20.997606 -3.086441 32.628487 0.702902 1.665531 0.064550 -0.035716 -534603.000000 0 0 1
-25.828238 -21.903506 -2.978241 33.996050 0.703358 1.658514 0.085529 -0.029268 -556290.000000 0 0 1
-25.722978 -22.995106 -4.022441 34.736531 0.729464 1.686855 0.098996 -0.032344 -379185.000000 0 0 1
-24.611208 -23.847506 -3.955741 34.497290 0.769640 1.685717 0.109850 -0.031978 -493871.000000 0 0 1
-24.265808 -24.466506 -5.189641 34.847837 0.789517 1.720275 0.112032 -0.036531 935674.000000 0 0 1
-22.757608 -24.429806 -5.678541 33.866946 0.820821 1.739264 0.095805 -0.027954 1476830.000000 0 0 1
-22.211508 -23.134206 -6.075441 32.641287 0.805743 1.758016 0.063055 -0.019248 341003.000000 0 0 1
-22.156808 -22.177806 -5.008641 31.746901 0.785872 1.729226 0.061413 -0.017333 -722521.000000 0 0 1
-22.217408 -20.730506 -5.552541 30.890093 0.750791 1.751530 0.068986 -0.005558 382196.000000 0 0 1
-20.901308 -20.344506 -5.925241 29.763604 0.771899 1.771212 0.047221 0.004736 520662.000000 0 0 1
-20.996108 -19.138106 -6.678041 29.183898 0.739136 1.801668 0.034136 -0.008402 -86115.300000 0 0 1
-19.803908 -18.848706 -7.593341 28.374766 0.760691 1.841707 0.036510 -0.007451 -334636.000000 0 0 1
-19.789108 -19.736506 -8.717241 29.276762 0.784067 1.873134 0.036038 -0.006861 -183801.000000 0 0 1
-18.547108 -19.794406 -9.368341 28.698076 0.817918 1.903336 0.079774 -0.002342 -328113.000000 0 0 1
-18.069408 -18.626706 -10.259341 27.905408 0.800584 1.947274 0.082790 -0.007309 -114225.000000 0 0 1
-17.727308 -17.421506 -9.581441 26.637762 0.776698 1.938736 0.101158 -0.011375 253290.000000 0 0 1
-16.379908 -17.454706 -9.126041 25.617432 0.817154 1.935041 0.134663 -0.018622 -61371.400000 0 0 1
-16.058408 -16.166806 -8.370541 24.275586 0.788762 1.922836 0.115777 -0.021199 -85548.500000 0 1 0
-16.742708 -16.229106 -7.131841 24.383711 0.769822 1.867620 0.105623 -0.018540 272811.000000 0 1 0
-16.668808 -14.986506 -6.389841 23.308252 0.732304 1.848497 0.110889 -0.022409 85725.300000 0 1 0
-17.580408 -15.217806 -5.143141 23.813952 0.713488 1.788483 0.127542 -0.033257 14231.200000 0 1 0
-17.856008 -14.033106 -4.441641 23.140728 0.666086 1.763935 0.104236 -0.025985 -9119.320000 0 1 0
-18.328408 -14.427706 -3.163341 23.539244 0.666873 1.705590 0.084134 -0.020518 -384296.000000 0 1 0
-19.177608 -13.323406 -2.573441 23.492902 0.607185 1.680558 0.100165 -0.017710 1327880.000000 0 1 0
-20.552608 -13.286306 -3.099341 24.668635 0.573878 1.696768 0.131391 -0.035277 1892070.000000 0 1 0
-21.242508 -12.238206 -2.408741 24.633715 0.522675 1.668735 0.138046 -0.017936 90482.200000 0 1 0
-22.742408 -12.061906 -2.743441 25.888862 0.487648 1.676966 0.131266 -0.016809 90323.400000 0 0 1
-23.018408 -11.810806 -4.115441 26.196930 0.474075 1.728546 0.170222 -0.032456 597469.000000 0 0 1
-24.416908 -11.555106 -4.235341 27.343080 0.442013 1.726319 0.173112 -0.027037 202480.000000 0 0 1
-24.757308 -11.402106 -5.689941 27.844349 0.431597 1.776594 0.190102 -0.036518 -119709.000000 0 0 1
-25.142998 -12.611806 -6.367541 28.840486 0.464929 1.793415 0.186074 -0.036801 347563.000000 0 0 1
-25.636008 -12.343906 -7.699841 29.476508 0.448744 1.835082 0.203504 -0.039542 -396523.000000 0 0 1
-24.624008 -12.128506 -8.794241 28.823274 0.457668 1.880849 0.192717 -0.048813 -256876.000000 0 0 1
-23.736708 -11.020206 -8.860341 27.629367 0.434656 1.897250 0.187509 -0.043058 894526.000000 0 0 1
-22.538308 -11.391006 -9.539741 26.995130 0.467963 1.931986 0.147647 -0.042790 492663.000000 0 0 1
-21.277708 -10.541806 -9.240541 25.480545 0.459992 1.941907 0.150781 -0.045628 -55049.900000 0 0 1
-21.190608 -9.278506 -9.826041 25.133318 0.412712 1.972467 0.150073 -0.043831 1305550.000000 0 0 1
-19.900508 -8.693006 -9.523841 23.712911 0.411842 1.984093 0.144198 -0.030306 767707.000000 0 1 0
-19.647308 -7.332006 -10.161041 23.302828 0.357175 2.021994 0.113145 -0.034185 -287392.000000 0 1 0
-19.521408 -7.410606 -11.558641 23.866392 0.362810 2.076366 0.131100 -0.031405 467181.000000 0 1 0
-19.383508 -6.119206 -12.175041 23.693812 0.305790 2.110462 0.127100 -0.047695 -229784.000000 0 1 0
-18.753008 -6.131206 -13.584441 23.954208 0.315990 2.173777 0.149767 -0.035433 -138887.000000 0 1 0
-19.596508 -6.663606 -14.595341 25.326879 0.327775 2.184964 0.154545 -0.042287 519812.000000 0 0 1
-19.187008 -6.347706 -15.920441 25.727322 0.319499 2.238029 0.153867 -0.044789 -225599.000000 0 0 1
-19.776208 -7.345706 -16.930041 27.049660 0.355647 2.247065 0.128187 -0.038187 66487.900000 0 0 1
-21.146308 -7.176306 -17.226341 28.203060 0.327169 2.227863 0.116663 -0.041755 506357.000000 0 0 1
-21.691008 -8.071506 -18.211641 29.450177 0.356237 2.237486 0.111622 -0.046186 297369.000000 0 0 1
-23.085308 -7.822406 -18.840641 30.807325 0.326705 2.228832 0.106776 -0.045041 -488443.000000 0 0 1
-23.169408 -6.529906 -19.466141 30.957904 0.274708 2.250797 0.104554 -0.041735 390608.000000 0 0 1
-24.200408 -6.428406 -20.471941 32.343230 0.259636 2.256166 0.095422 -0.039272 94368.200000 0 0 1
-25.508758 -6.050106 -19.779141 32.840752 0.232875 2.217143 0.135494 -0.039118 -934442.000000 0 0 1
-25.559518 -4.693606 -19.397741 32.428248 0.181611 2.212017 0.128138 -0.028420 722186.000000 0 0 1
-26.824378 -4.405006 -18.777141 33.038347 0.162764 2.175288 0.141190 -0.025452 298582.000000 0 0 1
-27.093148 -3.013006 -18.107641 32.726191 0.110754 2.157126 0.138436 -0.016313 2220.050000 0 0 1
-27.419608 -1.928506 -18.984041 33.405806 0.070217 2.175217 0.141818 -0.012225 785065.000000 0 0 1
-28.724668 -2.027706 -19.569841 34.816618 0.070474 2.167699 0.157213 -0.010859 406043.000000 0 0 1
-28.978258 -0.856106 -20.543441 35.531751 0.029534 2.187282 0.159490 -0.013471 -103505.000000 0 0 1
-28.277008 -0.867106 -21.764941 35.693889 0.030655 2.226562 0.149042 -0.010097 34749.700000 0 0 1
-28.944388 -1.571706 -22.818141 36.890588 0.054248 2.237674 0.154150 -0.008187 42399.700000 0 0 1
-28.265438 -1.423906 -24.193941 37.233175 0.050334 2.278111 0.147962 -0.013848 -352877.000000 0 0 1
-28.236928 -0.089406 -24.807641 37.586582 0.003166 2.291633 0.149866 -0.017902 -47701.000000 0 0 1
-27.828428 1.089694 -24.149941 36.862291 -0.039138 2.285164 0.133492 -0.011465 -547384.000000 0 0 1
-26.396938 1.108094 -23.598541 35.424813 -0.041953 2.299842 0.131241 -0.015814 -831187.000000 0 0 1
-25.464908 0.912194 -24.611041 35.425937 -0.035806 2.338824 0.108648 -0.017664 -261809.000000 0 0 1
-24.158608 0.773894 -24.067241 34.109667 -0.032023 2.354044 0.093669 -0.016187 126808.000000 0 0 1
-23.164508 0.168894 -25.053641 34.121956 -0.007291 2.395340 0.083499 -0.011611 -269269.000000 0 0 1
-23.017708 0.870194 -26.309851 34.968277 -0.037787 2.422482 0.056466 -0.012479 402076.000000 0 0 1
-22.118108 0.183394 -27.190721 35.051101 -0.008291 2.458691 0.035031 -0.018392 181460.000000 0 0 1
-21.998608 1.057894 -28.476161 35.999301 -0.048052 2.483271 0.031599 -0.004472 -623259.000000 0 0 1
-21.027308 2.043494 -28.527931 35.498823 -0.096879 2.504167 0.039355 -0.004696 -263023.000000 0 0 1
-21.047908 2.782594 -29.786341 36.578455 -0.131441 2.522342 0.028599 -0.003124 -2865.600000 0 0 1
-20.547308 2.077794 -31.072491 37.309634 -0.100780 2.554993 0.012637 0.004654 69135.000000 0 0 1
-19.138508 1.940894 -31.084711 36.555558 -0.101067 2.587430 -0.001725 0.008295 -59154.800000 0 0 1
-18.598508 1.445694 -32.293501 37.294299 -0.077576 2.617763 0.008279 0.010850 -648425.000000 0 0 1
-17.096508 1.429194 -32.064211 36.365462 -0.083402 2.650295 0.019142 -0.013567 -1116980.000000 0 0 1
-16.531508 2.677394 -32.159831 36.258984 -0.160563 2.661491 0.028982 -0.006814 -128941.000000 0 0 1
-15.123008 2.582794 -32.256611 35.719255 -0.169154 2.697636 0.053381 -0.019897 284324.000000 0 0 1
-14.387308 3.866894 -32.710871 35.943687 -0.262566 2.714222 0.071949 -0.018758 -109785.000000 0 0 1
-14.371508 4.887494 -31.678511 35.127709 -0.327812 2.694736 0.071293 -0.028913 -10204.300000 0 0 1
-13.905208 6.051594 -32.251781 35.639220 -0.410481 2.702063 0.097605 -0.021474 -323232.000000 0 0 1
-13.654308 7.105994 -31.107861 34.707842 -0.479851 2.682100 0.099652 -0.026724 282634.000000 0 0 1
-12.471008 7.025394 -30.299771 33.510571 -0.513026 2.700265 0.154927 -0.043893 521711.000000 0 0 1
-12.405008 5.914094 -29.440891 32.490411 -0.444876 2.704866 0.136734 -0.045603 186844.000000 0 0 1
-10.935208 5.429594 -29.135001 31.589675 -0.460863 2.744774 0.171134 -0.060222 694982.000000 0 0 1
-10.333608 4.706094 -30.156881 32.223722 -0.427349 2.781487 0.146151 -0.062315 49197.900000 0 0 1
-10.780508 3.381794 -30.149571 32.197089 -0.303973 2.783043 0.143219 -0.061032 -375347.000000 0 0 1
-10.472708 2.733594 -31.549341 33.354326 -0.255324 2.811106 0.126083 -0.061300 -49743.700000 0 0 1
-11.019408 1.430894 -31.721081 33.611037 -0.129130 2.804650 0.130445 -0.057007 194856.000000 0 0 1
-10.724908 0.778294 -33.008031 34.715408 -0.072442 2.826662 0.108705 -0.048563 -287328.000000 0 0 1
-11.358008 1.321094 33.320406 35.227817 -0.115794 0.330578 0.111091 -0.044991 -73672.000000 0 0 1
-12.693508 0.934294 33.069333 35.434148 -0.073472 0.367408 0.080965 -0.036953 -274455.000000 0 0 1
-12.996808 1.423994 31.793934 34.377304 -0.109130 0.390149 0.079316 -0.026757 757680.000000 0 0 1
-14.467308 1.115394 31.325749 34.523176 -0.076945 0.433781 0.074109 -0.018290 1124920.000000 0 0 1
-15.389708 2.183194 31.500678 35.126944 -0.140920 0.458388 0.072306 -0.009533 -151815.000000 0 0 1
-16.631008 1.850294 30.940989 35.176112 -0.110800 0.495771 0.055313 -0.010503 -608167.000000 0 0 1
-17.562008 2.998994 30.672299 35.471228 -0.169135 0.526225 0.052614 -0.004053 -452403.000000 0 0 1
-18.044008 3.602994 31.904834 36.830507 -0.197086 0.523127 0.033932 -0.002875 348343.000000 0 0 1
-17.235208 4.666394 32.366451 36.965048 -0.264409 0.504128 0.033138 0.003408 -106912.000000 0 0 1
-17.857508 5.362894 33.620879 38.444957 -0.291747 0.506351 0.016918 0.005632 204251.000000 0 0 1
-19.163508 5.892894 33.509299 39.049192 -0.298329 0.539179 0.014277 0.001883 -639230.000000 0 0 1
-19.945508 5.386694 -33.049671 38.975897 -0.263778 2.582905 0.005136 0.009447 355545.000000 0 0 1
-21.399508 5.980494 -33.084531 39.853375 -0.272516 2.550184 0.009927 0.003950 394920.000000 0 0 1
-21.532508 7.361294 -32.861931 39.971791 -0.329413 2.535935 0.013146 -0.003642 -2465.960000 0 0 1
-20.933008 8.260594 -33.783911 40.592868 -0.375860 2.553972 0.005650 -0.008429 -415995.000000 0 0 1
-21.009608 9.713694 -33.287821 40.544279 -0.433073 2.533999 0.022611 -0.007621 -279433.000000 0 0 1
-20.017808 10.140594 -32.355301 39.375244 -0.468897 2.535213 0.023476 -0.005740 319010.000000 0 0 1
-19.836508 11.549394 -32.288771 39.616162 -0.527250 2.523595 0.043437 -0.021065 -293550.000000 0 0 1
-19.144208 12.259994 -33.462731 40.454450 -0.569598 2.544850 0.025514 -0.026456 -770466.000000 0 0 1
-19.833708 12.174894 32.914675 40.311039 -0.550540 0.615443 0.034369 -0.028058 -272286.000000 0 0 1
-19.092808 12.606894 31.811204 39.184459 -0.583579 0.623513 0.032285 -0.020155 65652.800000 0 0 1
-19.719408 12.051994 30.462749 38.237216 -0.548595 0.649018 0.040331 -0.020743 -73579.300000 0 0 1
-19.854108 10.655394 30.398949 37.839386 -0.492563 0.637867 0.036004 -0.017922 332121.000000 0 0 1
-18.635808 9.917794 30.346899 36.967422 -0.489067 0.607795 0.034584 -0.025299 398487.000000 0 0 1
-18.876808 8.400594 30.519619 36.855814 -0.418706 0.595119 0.035279 -0.006479 89336.000000 0 0 1
-19.405208 7.793594 29.349319 36.037269 -0.381905 0.619075 0.045605 -0.013495 6971.150000 0 0 1
-19.574608 6.433794 29.519419 35.999376 -0.317557 0.609389 0.045051 -0.009001 -568941.000000 0 0 1
-20.316608 5.802794 28.408109 35.404204 -0.278211 0.639501 0.062960 -0.022403 9924.890000 0 0 1
-21.685108 6.185794 28.273619 36.164976 -0.277875 0.673256 0.080803 -0.025422 603283.000000 0 0 1
-22.387708 5.234194 27.451599 35.807772 -0.229672 0.697208 0.084672 -0.028430 936487.000000 0 0 1
-23.932608 5.451694 27.310459 36.719911 -0.223972 0.732132 0.092573 -0.025790 560991.000000 0 0 1
-24.303708 6.152394 26.142119 36.220610 -0.247938 0.764473 0.096783 -0.035445 -485705.000000 0 0 1
-25.662938 6.420094 26.114179 37.171957 -0.245139 0.791859 0.105209 -0.032521 -894098.000000 0 0 1
-26.112838 7.223294 24.803389 36.732335 -0.269870 0.829497 0.105026 -0.029548 -85596.400000 0 0 1
-26.080188 6.473694 23.589259 35.756651 -0.243305 0.850355 0.093660 -0.024816 470544.000000 0 0 1
-26.966428 5.365294 23.448029 36.135643 -0.196397 0.864673 0.089777 -0.024277 -95273.300000 0 0 1
-26.974668 4.882794 21.952159 35.119392 -0.179075 0.895572 0.101127 -0.021776 26284.500000 0 0 1
-27.770148 5.587394 21.017459 35.272279 -0.198551 0.932456 0.086733 -0.015250 -20318.800000 0 0 1
-27.599478 4.990594 19.753259 34.304934 -0.178889 0.957197 0.094237 -0.019802 50244.500000 0 0 1
-28.547608 5.597694 18.650759 34.556489 -0.193626 1.000694 0.118799 -0.027374 57354.500000 0 0 1
-29.896398 5.388094 18.944859 35.801311 -0.178311 1.013178 0.127193 -0.028959 -660444.000000 0 0 1
-30.761998 5.830194 17.953759 36.091954 -0.187304 1.050145 0.138307 -0.025863 87736.300000 0 0 1
-32.259238 5.836594 18.355359 37.571844 -0.178991 1.060380 0.140967 -0.028942 288037.000000 0 0 1
-32.582148 6.783494 19.345859 38.495122 -0.205264 1.044246 0.160374 -0.040943 729292.000000 0 0 1
-33.980692 6.722194 19.695659 39.847137 -0.195302 1.053789 0.174485 -0.032403 922530.000000 0 0 1
-34.492501 8.193394 19.873659 40.642671 -0.233219 1.059870 0.178982 -0.028524 -183850.000000 0 0 1
-34.155054 8.775094 21.105359 41.097521 -0.251480 1.031487 0.149488 -0.016396 192154.000000 0 0 1
-35.010042 9.874294 21.429359 42.218741 -0.274901 1.038423 0.140659 -0.017746 507805.000000 0 0 1
0.086992 32.746994 12.238259 34.959235 1.568140 1.213148 0.153910 -0.034396 34753.000000 0 0 1
0.149592 32.730494 13.637059 35.458101 1.566226 1.176026 0.160279 -0.036667 -5030.110000 0 0 1
-0.041208 -33.693197 14.218959 36.570644 1.569573 1.171459 0.149621 -0.040325 -51270.900000 0 0 1
-0.325508 -33.669797 15.759159 37.176770 1.561129 1.133052 0.166792 -0.046862 437842.000000 0 0 1
-1.616308 33.562094 16.145359 37.278669 -1.522675 1.122868 0.158407 -0.040919 40421.900000 0 0 1
-1.810008 33.772294 17.560459 38.107921 -1.517253 1.091890 0.153135 -0.049116 487945.000000 0 0 1
-3.265408 -33.585897 18.021959 38.255279 1.473875 1.080262 0.153047 -0.042248 504493.000000 0 0 1
-4.144108 32.987194 18.083659 37.846364 -1.445823 1.072628 0.156737 -0.039295 146464.000000 0 0 1
-5.187908 33.328094 18.991459 38.708548 -1.416374 1.057987 0.124046 -0.029948 -436559.000000 0 0 1
-6.352608 32.374894 19.082959 38.113629 -1.377038 1.046405 0.115751 -0.031446 -201223.000000 0 0 1
-7.289408 32.490294 17.999059 37.851298 -1.350094 1.075241 0.107204 -0.037333 -159987.000000 0 0 1
-8.297608 31.551994 18.165259 37.341066 -1.313637 1.062753 0.087214 -0.036255 -31566.600000 0 0 1
-9.393908 31.544794 17.048959 37.067324 -1.281363 1.092862 0.083176 -0.047953 217313.000000 0 0 1
-10.140608 32.746294 16.978759 38.254803 -1.270490 1.110924 0.084332 -0.036836 -442036.000000 0 0 1
-11.128308 32.634994 16.003059 38.012892 -1.242168 1.136260 0.082649 -0.039093 -494321.000000 0 0 1
-12.092608 33.816594 16.006959 39.319409 -1.227372 1.151519 0.082192 -0.045705 -237379.000000 0 0 1
-13.049408 33.763194 17.066359 40.018757 -1.201983 1.130222 0.081336 -0.040420 217327.000000 0 0 1
-14.068908 -32.980997 16.739359 39.571283 1.167591 1.134023 0.069968 -0.038312 272663.000000 0 0 1
-15.383708 -33.142597 17.523759 40.523726 1.136224 1.123608 0.094316 -0.032799 177726.000000 0 0 1
-15.183908 -32.901797 18.900459 40.869385 1.138427 1.090029 0.090205 -0.027039 -785788.000000 0 0 1
-16.398508 -32.984397 19.548659 41.701697 1.109424 1.082894 0.094833 -0.032160 -686987.000000 0 0 1
-16.384308 -32.586397 21.026059 42.100047 1.104914 1.047855 0.099952 -0.031403 -51448.400000 0 0 1
-16.250708 -31.216597 21.108759 41.038289 1.090821 1.030526 0.099351 -0.022840 -36522.700000 0 0 1
-15.823108 -30.846097 22.398959 41.274275 1.096827 0.997165 0.099852 -0.021663 159003.000000 0 0 1
-15.746108 -29.321097 22.584859 40.221170 1.077971 0.974579 0.118634 -0.028692 -99858.700000 0 0 1
-15.679808 -28.969797 23.926559 40.713459 1.074698 0.942606 0.123424 -0.032264 -118946.000000 0 0 1
-15.519108 -27.572697 24.185359 39.824966 1.058146 0.918149 0.106525 -0.018323 101085.000000 0 0 1
-16.619808 -26.575797 23.731259 39.314929 1.011928 0.922763 0.114335 -0.017006 321612.000000 0 0 1
-17.845108 -26.630997 24.435559 40.308243 0.980429 0.919501 0.119512 -0.009919 113950.000000 0 0 1
-18.862608 -25.890297 23.826259 39.922376 0.941159 0.931271 0.112988 -0.000517 -920982.000000 0 0 1
-19.947808 -25.347897 24.773359 40.671246 0.904057 0.915855 0.103411 -0.002112 -164003.000000 0 0 1
-20.740208 -26.275897 25.478459 42.068169 0.902599 0.920218 0.114882 -0.008870 231911.000000 0 0 1
-21.516808 -27.170897 24.695759 42.557152 0.901010 0.951704 0.094833 -0.012164 69343.700000 0 0 1
-23.025308 -26.777097 24.475859 42.967958 0.860590 0.964740 0.065749 -0.002584 682182.000000 0 0 1
-23.269908 -25.514897 23.837959 41.961254 0.831384 0.966608 0.084528 -0.002542 -398234.000000 0 0 1
-24.562008 -25.525797 23.308459 42.404514 0.804638 0.988828 0.067862 0.003815 -560069.000000 0 0 1
-24.911008 -24.132197 22.883759 41.552228 0.769519 0.987566 0.067720 0.009232 -251845.000000 0 0 1
-25.334688 -23.298697 23.920559 41.915019 0.743559 0.963448 0.060520 0.002398 70830.900000 0 0 1
-25.831838 -22.048597 23.562159 41.335213 0.706548 0.964258 0.048033 0.004929 188545.000000 0 0 1
-26.513798 -21.245997 24.728559 42.022322 0.675544 0.941640 0.049806 0.006506 651262.000000 0 0 1
-27.853538 -21.629897 25.024959 43.242579 0.660283 0.953649 0.035194 0.011315 445446.000000 0 0 1
-28.295928 -20.869897 26.132759 43.807913 0.635491 0.931625 0.027177 0.004688 -400833.000000 0 0 1
-29.555148 -21.340697 26.887759 45.297723 0.625381 0.935298 0.031784 0.005139 -295147.000000 0 0 1
-30.793918 -21.041297 26.325859 45.651423 0.599426 0.956148 0.041816 0.002421 -87278.000000 0 0 1
-31.244808 -21.899297 25.301159 45.781720 0.611326 0.985259 0.036491 0.007161 -552332.000000 0 0 1
-32.694988 -22.407497 25.466359 47.112563 0.600826 0.999714 0.043783 0.003906 155583.000000 0 0 1
-33.316748 -23.193897 24.455259 47.392217 0.608146 1.028600 0.029571 0.000008 401347.000000 0 0 1
-32.636678 -24.428997 24.115459 47.365431 0.642549 1.036615 0.025588 0.002097 -94279.400000 0 0 1
-33.105078 -25.006697 22.767559 47.324865 0.646931 1.068898 0.019445 0.008518 -352886.000000 0 0 1
-34.413452 -25.493797 22.680559 48.462636 0.637593 1.083769 0.036059 0.005013 -443429.000000 0 0 1
-34.604285 -26.081097 21.420959 48.337746 0.645862 1.111685 0.034678 0.011387 -508569.000000 0 0 1
-35.995208 -26.669897 21.244959 49.581112 0.637670 1.127977 0.054471 -0.004795 -797686.000000 0 0 1
-36.335568 -27.787797 22.140959 50.819851 0.652877 1.120008 0.043700 -0.000140 288857.000000 0 0 1
-35.655494 -29.010297 21.995159 50.957812 0.682995 1.124492 0.027442 0.005184 -318497.000000 0 0 1
-36.366408 -29.913397 20.920659 51.526701 0.688344 1.152706 0.043687 0.000222 -39791.600000 0 0 1
-36.234148 -29.415997 19.610859 50.624107 0.681913 1.173006 0.040291 0.001236 254506.000000 0 0 1
-36.782738 -30.262897 18.634259 51.147320 0.688458 1.197888 0.041730 -0.004574 -621975.000000 0 0 1
-36.811228 -29.741997 17.187059 50.349259 0.679576 1.222436 0.056425 -0.002788 -552017.000000 0 0 1
-35.569338 -29.566897 16.562359 49.129329 0.693506 1.226943 0.053393 -0.010760 -355382.000000 0 0 1
-35.579554 -28.959997 15.233859 48.338976 0.683190 1.250185 0.043486 -0.012567 -173438.000000 0 0 1
-36.226738 -29.711097 14.027659 48.907066 0.686903 1.279888 0.040643 -0.022732 -383618.000000 0 0 1
-35.521568 -30.781197 13.483859 48.898654 0.714024 1.291425 0.062488 -0.028733 -116662.000000 0 0 1
-36.293088 -31.714497 12.670759 49.835185 0.718175 1.313721 0.075288 -0.024139 468823.000000 0 0 1
-36.838698 -31.107897 11.348459 49.533609 0.701255 1.339637 0.087209 -0.029132 127600.000000 0 0 1
37.809910 -30.120997 11.516159 49.693919 -0.672691 1.336928 0.084056 -0.032447 -177599.000000 0 0 1
37.544060 -29.411897 10.291959 48.790783 -0.664535 1.358259 0.076664 -0.025131 -188320.000000 0 0 1
36.375970 -28.434997 10.433559 47.335181 -0.663481 1.348553 0.108612 -0.019028 -230543.000000 0 0 1
36.295610 -27.602597 9.345559 46.546902 -0.650184 1.368645 0.124911 -0.057639 1296680.000000 0 0 1
35.123040 -26.724897 9.460859 45.137079 -0.650437 1.359628 0.118482 -0.052354 1146590.000000 0 0 1
35.031760 -25.565797 8.376059 44.170041 -0.630440 1.380009 0.109046 -0.050123 16112.300000 0 0 1
36.013130 -24.566797 8.510459 44.417349 -0.598654 1.378002 0.116015 -0.054384 -14553.000000 0 0 1
36.153570 -23.739197 7.359059 43.872381 -0.581016 1.402262 0.104821 -0.047218 41496.000000 0 0 1
36.808690 -22.368197 7.660859 43.748196 -0.546053 1.394776 0.118942 -0.047511 31887.900000 0 0 1
35.957810 -21.516697 8.411259 42.739696 -0.539233 1.372701 0.094003 -0.049995 -134317.000000 0 0 1
36.528610 -20.236397 8.552559 42.626252 -0.505900 1.368785 0.109095 -0.032369 364924.000000 0 0 1
35.651930 -19.183197 9.325359 41.545366 -0.493637 1.344405 0.086556 -0.017992 347977.000000 0 0 1
35.921610 -19.269597 10.693259 42.142914 -0.492369 1.314254 0.069242 -0.028716 126936.000000 0 0 1
35.173240 -18.326997 11.410659 41.270313 -0.480345 1.290661 0.070106 -0.021162 -209009.000000 0 0 1
35.686260 -18.241597 12.853259 42.088849 -0.472540 1.260455 0.065411 -0.029096 638234.000000 0 0 1
36.966620 -17.602197 12.940959 42.939920 -0.444398 1.264663 0.060944 -0.023518 917196.000000 0 0 1
37.573600 -17.930597 14.212759 43.991865 -0.445252 1.241817 0.062280 -0.005895 799824.000000 0 0 1
-36.756098 -17.104497 14.533759 43.067444 0.435546 1.226574 0.087507 -0.015803 598195.000000 0 0 1
-35.609142 -17.560297 13.864159 42.054607 0.458145 1.234842 0.072856 -0.014669 -386394.000000 0 0 1
-34.478792 -16.978697 14.446559 41.058085 0.457580 1.211243 0.070282 -0.014649 587713.000000 0 0 1
-33.151038 -16.978697 13.570559 39.641236 0.473330 1.221396 0.078964 -0.013964 847885.000000 0 0 1
-32.737828 -18.305897 13.382559 39.824165 0.509854 1.228086 0.079512 -0.021216 -320641.000000 0 0 1
-31.686988 -18.329197 12.469359 38.671819 0.524420 1.242490 0.075471 -0.017071 -177442.000000 0 0 1
-30.983418 -19.704197 12.230959 38.701730 0.566441 1.249253 0.052106 -0.010444 434616.000000 0 0 1
-31.650738 -20.537797 11.299159 39.385801 0.575593 1.279824 0.069345 -0.013300 -365037.000000 0 0 1
-30.687468 -21.349597 10.756759 38.900307 0.607841 1.290624 0.063645 -0.015185 -414301.000000 0 0 1
-31.319398 -22.254897 9.646259 39.613577 0.617791 1.324814 0.071058 -0.014408 401837.000000 0 0 1
-32.129758 -23.300797 10.106759 40.956014 0.627445 1.321449 0.069441 -0.013589 -1435180.000000 0 0 1
-33.465988 -23.009697 10.167859 41.866501 0.602324 1.325479 0.078798 -0.023657 -1531640.000000 0 0 1
-34.360657 -24.242897 10.319059 43.299605 0.614436 1.330163 0.113141 -0.036817 -212282.000000 0 0 1
-34.462201 -25.020297 9.153659 43.559707 0.627977 1.359078 0.111915 -0.033497 -258679.000000 0 0 1
-35.066367 -26.261897 9.371959 44.801462 0.642809 1.360051 0.119862 -0.030985 52178.700000 0 0 1
-35.254380 -27.098797 8.070259 45.192314 0.655340 1.391257 0.119913 -0.029259 -327525.000000 0 0 1
-34.063860 -27.534297 7.502559 44.438412 0.679790 1.401153 0.109027 -0.031331 -754294.000000 0 0 1
-34.270645 -28.101997 6.264759 44.759877 0.686819 1.430372 0.105592 -0.029045 -518243.000000 0 0 1
-32.998028 -28.425497 5.498559 43.898894 0.711093 1.445211 0.110842 -0.021878 -358615.000000 0 0 1
-32.340968 -27.226397 5.054159 42.576513 0.699746 1.451808 0.116507 -0.012227 -901051.000000 0 0 1
-31.217358 -27.668497 4.390559 41.944561 0.725204 1.465929 0.124588 -0.021423 -712991.000000 0 0 1
-30.399138 -26.564897 3.668659 40.537149 0.718190 1.480171 0.111187 -0.017226 123514.000000 0 0 1
-30.813808 -26.090897 2.370859 40.445601 0.702591 1.512144 0.124758 -0.014505 -519531.000000 0 0 1
-29.968868 -25.116397 1.841659 39.145347 0.697535 1.523732 0.115575 -0.026689 -342066.000000 0 0 1
-30.409278 -24.477697 0.499759 39.040128 0.677747 1.557995 0.122647 -0.025872 -142056.000000 0 0 1
-30.305398 -25.252397 -0.685041 39.453390 0.694697 1.588161 0.121672 -0.030470 -103401.000000 0 0 1
-30.448418 -24.589697 -1.913341 39.184439 0.679349 1.619645 0.124169 -0.027030 -72066.000000 0 0 1
-31.912748 -24.425097 -2.366241 40.256775 0.653266 1.629609 0.141146 -0.017569 2343.280000 0 0 1
-32.568208 -23.338197 -1.767341 40.105899 0.621777 1.614877 0.142451 -0.006482 -967326.000000 0 0 1
-33.916058 -23.330397 -2.102041 41.219231 0.602550 1.621815 0.148793 -0.006356 -750412.000000 0 0 1
-34.698641 -22.098397 -1.637741 41.170585 0.567087 1.610586 0.150682 -0.005558 -238828.000000 0 0 1
-34.826576 -21.943697 -0.271541 41.164183 0.562247 1.577393 0.154638 -0.024556 237563.000000 0 0 1
-35.277213 -20.616997 0.045559 40.860059 0.528891 1.569681 0.161638 -0.020091 -173388.000000 0 0 1
-35.530619 -20.354597 1.521559 40.976209 0.520236 1.533655 0.147855 -0.025129 57902.100000 0 0 1
-36.712028 -20.982497 1.986059 42.331816 0.519232 1.523863 0.133083 -0.025831 378096.000000 0 0 1
-37.050418 -20.704797 3.328959 42.573514 0.509595 1.492523 0.128652 -0.023497 -22684.600000 0 0 1
37.365670 -21.465297 3.966859 43.274568 -0.521433 1.479000 0.158037 -0.023651 1319770.000000 0 0 1
36.099390 -21.298597 3.342959 42.047254 -0.533033 1.491208 0.102197 -0.018718 354915.000000 0 0 1
35.444420 -20.035097 3.478459 40.863329 -0.514479 1.485569 0.083786 -0.026118 -40117.200000 0 0 1
34.220790 -19.966597 2.534559 39.700774 -0.528172 1.506911 0.061180 -0.012659 887588.000000 0 0 1
33.088910 -20.814497 2.795859 39.191020 -0.561505 1.499396 0.066185 -0.017731 1699500.000000 0 0 1
31.857450 -20.246797 2.220259 37.812160 -0.566145 1.512044 0.084836 -0.019509 334892.000000 0 0 1
30.681340 -21.057597 2.580559 37.301827 -0.601494 1.501561 0.069547 -0.006601 -1365970.000000 0 0 1
30.596540 -22.283097 1.921859 37.899580 -0.629460 1.520065 0.053525 -0.015396 154381.000000 0 0 1
29.362040 -22.858497 2.323459 37.283223 -0.661496 1.508437 0.054755 -0.008428 426672.000000 0 0 1
28.870140 -24.028597 1.346959 37.585539 -0.694128 1.534951 0.048683 -0.006641 14125.600000 0 0 1
28.389140 -23.511497 0.142759 36.861282 -0.691693 1.566923 0.056707 -0.017087 -42659.400000 0 0 1
27.804540 -24.571197 -0.567441 37.110081 -0.723743 1.586088 0.048705 -0.013915 -405729.000000 0 0 1
26.878940 -24.234297 -1.709841 36.231231 -0.733703 1.618006 0.042431 -0.021888 -195502.000000 0 0 1
27.519540 -23.523397 -2.828341 36.313562 -0.707268 1.648762 0.058723 -0.029604 424511.000000 0 0 1
28.157740 -24.285797 -3.835241 37.381376 -0.711701 1.673575 0.065509 -0.031039 -734675.000000 0 0 1
27.255440 -24.857197 -4.940441 37.217566 -0.739410 1.703934 0.067702 -0.034020 -205326.000000 0 0 1
26.701140 -23.956797 -5.884941 36.352600 -0.731277 1.733397 0.069687 -0.047486 546320.000000 0 0 1
25.528640 -23.317997 -5.401341 34.994498 -0.740172 1.725764 0.085312 -0.042258 -694367.000000 0 0 1
24.758640 -22.520197 -6.455441 34.085513 -0.738088 1.761337 0.100423 -0.049253 -424626.000000 0 0 1
24.096640 -23.306997 -7.409941 34.333240 -0.768742 1.788332 0.108739 -0.062130 59616.300000 0 0 1
23.116940 -22.672697 -8.186841 33.398629 -0.775697 1.818445 0.114241 -0.065435 -214473.000000 0 0 1
23.523240 -21.392397 -8.969741 33.036854 -0.737993 1.845755 0.120147 -0.056734 -464262.000000 0 0 1
24.193440 -21.591297 -10.224741 34.000764 -0.728625 1.876245 0.122289 -0.059680 122789.000000 0 0 1
24.239740 -20.369497 -10.943741 33.499953 -0.698856 1.903584 0.121080 -0.054725 105679.000000 0 0 1
25.072940 -20.510697 -12.253541 34.633658 -0.685645 1.932432 0.097490 -0.045662 -70328.200000 0 0 1
26.465240 -20.553997 -12.170241 35.650953 -0.660335 1.919173 0.133140 -0.056993 -119140.000000 0 0 1
27.124940 -19.854497 -13.252341 36.132921 -0.631858 1.946327 0.135509 -0.053967 -54656.400000 0 0 1
28.661540 -19.969497 -13.236541 37.355999 -0.608531 1.932999 0.112111 -0.051561 -279037.000000 0 0 1
29.075440 -21.315197 -13.511741 38.500467 -0.632597 1.929382 0.090761 -0.038964 231630.000000 0 0 1
29.610940 -21.904197 -12.310741 38.834983 -0.636898 1.893362 0.116958 -0.050284 -145551.000000 0 0 1
29.805040 -23.421197 -12.578641 39.938892 -0.666030 1.891197 0.084189 -0.031410 -986556.000000 0 0 1
30.928390 -23.733997 -13.299841 41.191670 -0.654535 1.899564 0.064313 -0.030271 -581879.000000 0 0 1
31.086570 -25.106597 -13.349841 42.129969 -0.679379 1.893227 0.053029 -0.022180 -109974.000000 0 0 1
-3.551308 -8.999006 -27.380751 29.039619 1.194925 2.801956 0.105493 -0.021671 -98028.600000 0 0 1
-3.650108 -7.720106 -26.780011 28.108581 1.129140 2.832909 0.110719 -0.016490 797538.000000 0 0 1
-4.736208 -6.874106 -27.288541 28.536809 0.967496 2.844725 0.099990 -0.013036 995780.000000 0 0 1
-4.763608 -5.488506 -26.647281 27.620523 0.855988 2.875341 0.097711 -0.022692 -37374.800000 0 0 1
-5.284708 -5.552006 -25.318461 26.453306 0.810059 2.847619 0.083566 -0.016034 289232.000000 0 0 1
-5.237508 -4.273306 -24.730141 25.637327 0.684364 2.874774 0.090276 -0.023239 60838.400000 0 0 1
-5.904708 -4.324706 -23.334541 24.455459 0.632152 2.837653 0.084083 -0.025409 -285074.000000 0 1 0
-5.245008 -5.202506 -22.480741 23.663472 0.781330 2.824092 0.087827 -0.029102 73847.800000 0 1 0
-5.762808 -5.289506 -21.171741 22.570588 0.742601 2.787679 0.074876 -0.025988 -437221.000000 0 1 0
-5.069908 -6.310106 -20.322641 21.875355 0.893950 2.762552 0.066579 -0.031788 -508610.000000 0 1 0
-5.468208 -7.611606 -20.650641 22.677893 0.947825 2.715546 0.063359 -0.022886 168790.000000 0 1 0
-4.623308 -8.556806 -20.070641 22.303017 1.075425 2.690353 0.065642 -0.025524 -1013100.000000 0 1 0
-5.319508 -9.942206 -19.924141 22.893581 1.079509 2.626595 0.071101 -0.024799 -44648.800000 0 1 0
-6.373808 -9.921706 -18.998441 22.360824 0.999775 2.586081 0.064053 -0.027844 705936.000000 0 1 0
-7.638508 -9.512806 -19.554341 23.048049 0.894246 2.583783 0.053901 -0.021051 -479918.000000 0 1 0
-8.846208 -9.525106 -18.647241 22.731095 0.822336 2.532803 0.045745 -0.009777 -658391.000000 0 1 0
-9.422208 -10.824206 -18.643441 23.526992 0.854535 2.485575 0.065139 -0.012031 274927.000000 0 1 0
-10.110808 -11.033506 -17.404541 22.953971 0.829009 2.431401 0.072480 -0.014752 -437397.000000 0 1 0
-10.905408 -12.388406 -17.332841 23.933824 0.848977 2.380668 0.078941 -0.012742 75989.800000 0 1 0
-12.184208 -12.346606 -17.933641 24.950133 0.792018 2.372841 0.097508 -0.034260 32381.200000 0 1 0
-12.185808 -12.155206 -19.332241 25.883943 0.784141 2.414156 0.098204 -0.034397 -1409420.000000 0 0 1
-13.522308 -11.779606 -20.005041 26.866589 0.716630 2.410742 0.095039 -0.033833 673229.000000 0 0 1
-14.607808 -12.708806 -20.117641 27.921700 0.715992 2.375322 0.090827 -0.031509 230292.000000 0 0 1
-15.202308 -12.989906 -18.912241 27.523094 0.707083 2.328343 0.097627 -0.023468 -1637200.000000 0 0 1
-16.324508 -13.984206 -19.123741 28.770907 0.708336 2.297875 0.096146 -0.018952 -484921.000000 0 0 1
-15.862308 -15.271506 -19.460541 29.386126 0.766424 2.294595 0.108528 -0.022399 -44469.300000 0 0 1
-16.604908 -15.787406 -20.537241 30.769197 0.760166 2.301590 0.101084 -0.017741 126302.000000 0 0 1
-16.114608 -17.182806 -20.936041 31.515826 0.817468 2.297357 0.056599 -0.008827 -222626.000000 0 0 1
-16.513008 -18.228106 -20.054741 31.735405 0.834726 2.254845 0.081190 -0.008453 538803.000000 0 0 1
-15.948708 -19.477906 -20.528041 32.483082 0.884691 2.254877 0.062032 -0.006597 314657.000000 0 0 1
-16.798408 -20.597606 -19.857341 33.177732 0.886644 2.212441 0.089155 -0.013938 275252.000000 0 0 1
-16.489708 -21.845606 -20.419941 34.148426 0.924211 2.211770 0.073836 -0.012895 654656.000000 0 0 1
-17.428608 -22.810606 -19.903541 34.931807 0.918359 2.177038 0.087795 -0.008821 314906.000000 0 0 1
-17.142008 -24.246306 -20.259241 35.946748 0.955391 2.169522 0.087247 -0.015396 -176110.000000 0 0 1
-17.407908 -24.561706 -21.614141 37.060542 0.954227 2.193473 0.046276 -0.013078 182460.000000 0 0 1
-16.830808 -25.829196 -21.881441 37.805039 0.993283 2.188049 0.049699 -0.015400 -156068.000000 0 0 1
-16.942308 -26.305026 -23.341941 39.036425 0.998600 2.211741 0.053949 -0.018947 -400703.000000 0 0 1
-18.201908 -26.811936 -23.729841 40.165841 0.974391 2.202842 0.068391 -0.015410 -292218.000000 0 0 1
-18.435808 -28.203406 -23.490241 41.074355 0.991843 2.179611 0.077985 -0.019221 -404871.000000 0 0 1
-19.638508 -28.729986 -24.292941 42.440902 0.971193 2.180219 0.078310 -0.022655 -373634.000000 0 0 1
-19.508708 -28.823496 -25.723691 43.279232 0.975788 2.207273 0.072316 -0.019279 -85571.000000 0 0 1
-19.427308 -27.549676 -26.352871 42.788770 0.956606 2.234302 0.069326 -0.024509 -88276.100000 0 0 1
-18.193208 -27.225876 -27.222261 42.582775 0.981711 2.264356 0.083419 -0.026711 -107897.000000 0 0 1
-18.109108 -27.915476 -28.463381 43.787872 0.995327 2.278419 0.089142 -0.014666 605683.000000 0 0 1
-16.773508 -27.754866 -28.963751 43.480824 1.027188 2.299800 0.067052 -0.006988 569346.000000 0 0 1
-16.550708 -28.064136 -30.464301 44.604880 1.037951 2.322633 0.081942 -0.011829 -176025.000000 0 0 1
-16.759208 -29.347246 -30.898061 45.791070 1.051924 2.311438 0.074212 -0.008747 197477.000000 0 0 1
-17.045408 -29.272666 -32.258961 46.776870 1.043495 2.331781 0.064970 -0.010291 68052.100000 0 0 1
-17.325908 -30.617386 -33.026961 48.253410 1.055839 2.324643 0.069675 -0.013272 575849.000000 0 0 1
-16.083908 -31.225126 -33.389951 48.462248 1.095146 2.330889 0.078451 -0.013034 357627.000000 0 0 1
-16.212608 -32.312346 33.367887 49.197076 1.105752 0.825419 0.068214 -0.014922 345295.000000 0 0 1
-14.896008 -32.770786 32.675811 48.616089 1.144164 0.833729 0.056912 -0.016095 694513.000000 0 0 1
-13.909508 -33.393756 33.484869 49.293548 1.176121 0.823995 0.070382 -0.014666 -34901.800000 0 0 1
-12.861208 33.740494 32.727098 48.732890 -1.206618 0.834483 0.070745 -0.014680 59764.000000 0 0 1
-11.954608 32.820607 33.601959 48.468511 -1.221491 0.804774 0.070898 -0.015363 -85527.800000 0 0 1
-11.141708 33.542311 -33.112091 48.431755 -1.250094 2.323597 0.075070 -0.018641 -426966.000000 0 0 1
-10.403308 32.666804 -32.263751 47.077580 -1.262484 2.325855 0.074000 -0.023315 629981.000000 0 0 1
-9.448208 33.608528 -31.410011 46.961586 -1.296744 2.303450 0.065074 -0.026211 271013.000000 0 0 1
-10.132408 -33.444896 -30.379911 46.305138 1.276628 2.286410 0.092477 -0.030587 -344787.000000 0 0 1
-9.458808 -32.312706 -29.962221 45.070109 1.286025 2.298011 0.104586 -0.033820 -433307.000000 0 0 1
-10.398608 -31.428386 -29.098241 44.074734 1.251267 2.291884 0.116372 -0.038713 325375.000000 0 0 1
-10.517708 -31.782596 -27.726441 43.468508 1.251213 2.262501 0.143394 -0.043515 -257262.000000 0 0 1
-11.251408 -32.953386 -27.536431 44.393411 1.241773 2.239898 0.114655 -0.041972 -772344.000000 0 0 1
-11.689008 -33.097266 -26.089051 43.734432 1.231299 2.209971 0.119834 -0.035738 237298.000000 0 0 1
-10.654608 -33.177216 -25.099841 42.944737 1.260058 2.195021 0.131783 -0.051004 -24168.400000 0 0 1
-11.137508 -33.054886 -23.756541 42.202404 1.245803 2.168710 0.128470 -0.057092 -32631.200000 0 0 1
-9.956608 -32.884976 -22.800141 41.235933 1.276800 2.156660 0.140965 -0.067583 -127594.000000 0 0 1
-9.223908 33.605905 -22.708741 41.594762 -1.302920 2.148321 0.117771 -0.052818 -892104.000000 0 0 1
-8.309208 33.766004 -21.679941 40.978114 -1.329509 2.128291 0.137903 -0.052454 -475506.000000 0 0 1
-7.449008 32.521514 -21.418441 39.647020 -1.345632 2.141505 0.138949 -0.048291 -206404.000000 0 0 1
-6.574108 32.167776 -22.479541 39.790884 -1.369203 2.171159 0.112853 -0.058174 -16923.900000 0 0 1
-5.753908 31.134514 -21.977841 38.542067 -1.388050 2.177582 0.095957 -0.045315 527428.000000 0 0 1
-4.285308 31.056704 -22.517941 38.599746 -1.433679 2.193668 0.102131 -0.051525 628879.000000 0 0 1
-4.174708 30.829804 -23.907441 39.236090 -1.436204 2.226002 0.123789 -0.050375 -361123.000000 0 0 1
-2.817908 30.654274 -24.237741 39.180266 -1.479128 2.237783 0.109708 -0.053252 -134427.000000 0 0 1
-2.574808 30.815304 -25.712741 40.216385 -1.487434 2.264462 0.110391 -0.014747 -448498.000000 0 0 1
-1.756708 31.856301 -26.168591 41.263847 -1.515707 2.257740 0.122367 -0.041924 -194780.000000 0 0 1
-2.212308 33.204796 -25.917001 42.179897 -1.504268 2.232472 0.114556 -0.032491 32615.700000 0 0 1
-1.359708 -33.340776 -26.552481 42.643762 1.530037 2.242931 0.044329 -0.007463 -395959.000000 0 0 1
-0.097208 -33.159206 -26.000561 42.137532 1.567865 2.235773 0.101738 -0.030827 -663280.000000 0 0 1
0.559992 -32.045656 -26.599111 41.650335 -1.553323 2.263512 0.062604 -0.010887 284975.000000 0 0 1
1.920592 -31.616226 -26.007091 40.983451 -1.510124 2.258255 0.079895 -0.010650 1320.410000 0 0 1
1.820292 -31.100376 -24.672341 39.740047 -1.512333 2.240614 0.065215 -0.005934 161534.000000 0 0 1
2.973692 -30.319856 -24.427141 39.048966 -1.473032 2.246635 0.049894 -0.011726 -84474.900000 0 0 1
3.020392 -29.641586 -23.035941 37.661665 -1.469250 2.228947 0.065438 -0.011748 -187237.000000 0 0 1
3.203592 -30.489186 -21.936441 37.696962 -1.466107 2.191878 0.077147 -0.016039 413433.000000 0 0 1
3.660992 -29.775826 -20.822641 36.518284 -1.448459 2.177543 0.076884 -0.011143 -450694.000000 0 0 1
3.781892 -30.593546 -19.472841 36.461752 -1.447803 2.134194 0.076745 -0.005328 -682637.000000 0 0 1
2.539092 -31.028696 -19.005241 36.475008 -1.489148 2.118875 0.083764 -0.011843 -166486.000000 0 0 1
2.192492 -32.371586 -19.364741 37.785180 -1.503171 2.108885 0.092600 -0.012061 -411016.000000 0 0 1
2.768892 -33.538976 -18.509341 38.407361 -1.488426 2.073643 0.064517 -0.020686 -40437.800000 0 0 1
4.069592 33.822714 -18.952341 38.983699 1.451051 2.078487 0.075325 -0.013486 75166.300000 0 0 1
4.610692 32.802008 -18.072941 37.734088 1.431150 2.070261 0.084798 -0.035444 -246037.000000 0 0 1
5.863692 32.111670 -18.568941 37.554597 1.390183 2.088000 0.100118 -0.033412 -11302.200000 0 0 1
7.030692 32.937333 -18.628741 38.488031 1.360496 2.076032 0.134141 -0.036217 -751711.000000 0 0 1
8.038492 32.190882 -19.136741 38.302547 1.326088 2.093957 0.124680 -0.045505 297614.000000 0 0 1
9.448292 32.859230 -19.452441 39.336963 1.290811 2.088065 0.121230 -0.053398 1441770.000000 0 0 1
10.347992 32.889274 -18.358141 39.061575 1.265971 2.060064 0.107107 -0.039948 27751.000000 0 0 1
11.613892 33.384553 -18.750241 40.012278 1.236009 2.058515 0.109004 -0.030308 -5224.520000 0 0 1
12.583992 33.617405 -17.588741 39.973123 1.212613 2.026411 0.075202 -0.021860 -204651.000000 0 0 1
13.333792 32.433305 -17.206741 39.061249 1.180746 2.026959 0.066913 -0.023911 396498.000000 0 0 1
14.106492 32.835887 -16.064441 39.182328 1.165031 1.993242 0.051681 -0.026508 -676019.000000 0 0 1
15.197992 31.849870 -15.705441 38.627115 1.125574 1.989516 0.056836 -0.022224 -285222.000000 0 0 1
14.714692 30.643394 -15.104741 37.198023 1.123121 1.988938 0.069930 -0.014759 1020850.000000 0 0 1
15.853292 29.806354 -14.735541 36.835876 1.081974 1.982348 0.074756 -0.015862 1186720.000000 0 0 1
15.373592 28.575734 -13.955641 35.322511 1.077217 1.976964 0.078808 -0.019181 -84900.900000 0 0 1
15.457292 28.842074 -12.547641 35.046204 1.078821 1.936955 0.083264 -0.020080 216141.000000 0 0 1
14.251392 28.601544 -11.833841 34.076242 1.108531 1.925460 0.100930 -0.021005 487979.000000 0 0 1
13.758892 27.101494 -11.661441 32.554374 1.101023 1.937151 0.100678 -0.023843 -114719.000000 0 0 1
13.011692 26.671404 -12.810841 32.323143 1.116914 1.978319 0.084825 -0.021464 244058.000000 0 0 1
12.405892 25.413624 -12.755741 31.023658 1.116666 1.994524 0.104287 -0.022279 18958.900000 0 0 1
11.426492 25.020624 -11.640941 29.868174 1.142399 1.971150 0.107324 -0.029548 -870226.000000 0 0 1
10.161992 25.611374 -11.723441 29.944075 1.193072 1.973070 0.092247 -0.017513 -213196.000000 0 0 1
9.565892 25.719594 -10.439741 29.359700 1.214720 1.934332 0.079294 -0.009480 -459866.000000 0 0 1
8.612492 26.864164 -10.236241 30.010647 1.260555 1.918869 0.084297 -0.010567 -509523.000000 0 0 1
9.160392 28.132324 -10.443941 31.375410 1.256006 1.910142 0.083235 -0.012880 -708870.000000 0 0 1
8.223792 29.148694 -10.302541 31.990928 1.295811 1.898686 0.079838 -0.018527 -421329.000000 0 0 1
8.729692 30.564534 -10.471841 33.467263 1.292588 1.889039 0.094170 -0.019745 -275370.000000 0 0 1
9.696192 30.958544 -9.512241 33.807252 1.267275 1.856015 0.075327 -0.019648 -16896.600000 0 0 1
10.231892 32.252178 -9.783641 35.222354 1.263593 1.852266 0.087881 -0.019313 935489.000000 0 0 1
11.351692 32.355940 -10.910641 35.983466 1.233375 1.878859 0.069742 -0.016102 60478.900000 0 0 1
12.696792 32.219663 -10.555441 36.204040 1.195413 1.866648 0.062650 -0.014362 83639.300000 0 0 1
13.535992 32.649000 -11.679141 37.223414 1.177775 1.889945 0.077619 -0.011232 551278.000000 0 0 1
15.036792 32.597416 -11.328941 37.643612 1.138595 1.876488 0.083926 -0.020296 14598.900000 0 0 1
15.380292 33.389515 -10.207141 38.152311 1.139136 1.841632 0.075865 -0.014831 -721.291000 0 0 1
16.773292 33.606916 -10.151441 38.907838 1.107867 1.834761 0.071513 -0.020111 -32161.700000 0 0 1
17.288192 -33.117966 -9.108441 38.453153 -1.089689 1.809940 0.074412 -0.022785 -209095.000000 0 0 1
17.500292 -33.694316 -7.832441 38.767439 -1.091762 1.774233 0.064172 -0.022856 243676.000000 0 0 1
17.867792 -32.719436 -6.865841 37.907246 -1.070959 1.752924 0.055280 -0.021974 -1225020.000000 0 0 1
18.344592 -33.391536 -5.511241 38.495357 -1.068430 1.714456 0.062387 -0.018574 478269.000000 0 0 1
19.371892 33.298336 -5.608841 38.929532 1.043891 1.715376 0.068959 -0.027804 51234.000000 0 0 1
20.594392 -33.829966 -6.012441 40.059269 -1.023959 1.721454 0.084565 -0.029518 -1353880.000000 0 0 1
21.421392 32.846072 -6.884341 39.813749 0.992894 1.744583 0.068067 -0.022973 239709.000000 0 0 1
21.685792 31.584434 -6.227441 38.815345 0.969122 1.731930 0.067931 -0.017011 -192710.000000 0 0 1
22.547892 31.595594 -5.129241 39.153519 0.950974 1.702177 0.060373 -0.016578 -648265.000000 0 0 1
23.000792 30.197434 -4.703241 38.249731 0.919862 1.694070 0.049624 -0.018651 -190854.000000 0 0 1
23.894492 29.535794 -5.568941 38.396913 0.890591 1.716346 0.048784 -0.013675 39609.600000 0 0 1
24.109792 28.169164 -5.234841 37.445793 0.862891 1.711054 0.056600 -0.009094 -284331.000000 0 0 1
25.128192 27.539454 -6.222141 37.796330 0.831149 1.736172 0.031592 -0.001608 30234.500000 0 0 1
26.318392 28.317474 -6.119441 39.140575 0.821971 1.727786 0.039093 0.000998 -235584.000000 0 0 1
27.430892 27.839314 -6.802741 39.670625 0.792788 1.743129 0.012579 0.003239 139758.000000 0 0 1
28.280992 26.695844 -6.103941 39.366746 0.756573 1.726478 0.011659 0.012853 -219352.000000 0 0 1
29.100592 27.170834 -5.048041 40.132049 0.751118 1.696916 0.033224 0.004372 143421.000000 0 0 1
29.717392 26.090804 -4.349641 39.784077 0.720506 1.680347 0.042195 0.000572 -419577.000000 0 0 1
31.024292 26.393474 -3.626141 40.893411 0.704921 1.659586 0.051404 -0.006622 -528230.000000 0 0 1
30.978692 27.147044 -2.460941 41.263756 0.719573 1.630471 0.071345 -0.017317 -1359970.000000 0 0 1
32.210792 27.277364 -1.903341 42.251774 0.702656 1.615859 0.083278 -0.034853 -1155620.000000 0 0 1
32.295192 28.390894 -0.839841 43.008459 0.721151 1.590325 0.091591 -0.021589 180453.000000 0 0 1
32.007992 29.584664 -1.480441 43.611415 0.746074 1.604749 0.061132 -0.005724 6485.710000 0 0 1
31.660392 30.674764 -0.628641 44.087603 0.769588 1.585056 0.081268 -0.013748 51341.900000 0 0 1
34.661160 22.526594 18.802759 45.413513 0.576311 1.143915 0.146478 -0.023920 268125.000000 0 0 1
34.584200 22.231494 20.189459 45.803061 0.571313 1.114319 0.142895 -0.031042 58077.200000 0 0 1
35.659940 22.843794 20.853159 47.205132 0.569739 1.113241 0.152042 -0.033235 36829.300000 0 0 1
35.440070 22.802794 22.431759 47.740441 0.571735 1.081654 0.110231 -0.022464 -270491.000000 0 0 1
34.303880 23.446394 22.929749 47.458012 0.599560 1.066538 0.098923 -0.018225 -90623.300000 0 0 1
34.230160 23.342694 24.351939 48.058320 0.598498 1.039425 0.093936 -0.015523 -14436.400000 0 0 1
33.033210 24.179494 24.888389 47.909005 0.631865 1.024539 0.077372 -0.016355 82528.100000 0 0 1
33.037200 25.552494 24.718229 48.532230 0.658339 1.036407 0.058880 -0.019279 149590.000000 0 0 1
32.048060 26.189294 25.516089 48.621271 0.685134 1.018325 0.064074 -0.018658 109815.000000 0 0 1
32.000010 27.744894 25.596329 49.486885 0.714297 1.027180 0.051138 -0.016904 -343442.000000 0 0 1
31.906140 28.375994 24.359409 49.158718 0.726905 1.052356 0.048925 -0.013424 329643.000000 0 0 1
31.703180 29.736294 24.617579 49.953618 0.753396 1.055482 0.051586 -0.022499 -164677.000000 0 0 1
31.751530 30.681394 23.409459 49.975097 0.768259 1.083292 0.055677 -0.018121 387878.000000 0 0 1
33.102620 30.895994 23.029559 50.800654 0.750933 1.100296 0.036428 -0.020097 217041.000000 0 0 1
33.134480 31.813594 21.932959 50.902389 0.765063 1.125326 0.056230 -0.015892 650719.000000 0 0 1
34.607330 32.166894 21.551059 51.930959 0.748867 1.142860 0.028843 -0.026953 759489.000000 0 0 1
35.216530 33.062094 22.485019 53.281161 0.753855 1.135138 0.039569 -0.011048 -162451.000000 0 0 1
36.581200 33.239194 22.180459 54.175649 0.737569 1.148981 0.034802 -0.005706 274846.000000 0 0 1
37.248610 -33.256297 23.006729 54.979540 -0.728834 1.139047 0.036364 -0.004859 -240478.000000 0 0 1
36.710630 -32.038097 22.542489 53.686812 -0.717537 1.137474 0.041498 -0.001383 153198.000000 0 0 1
36.948320 -30.977897 23.411489 53.599499 -0.697728 1.118774 0.044269 0.001012 -877842.000000 0 0 1
36.058970 -29.686097 23.167989 52.137025 -0.688767 1.110328 0.055715 -0.001249 1094870.000000 0 0 1
34.696460 -29.882397 23.590789 51.510458 -0.710990 1.095074 0.061478 -0.003201 926347.000000 0 0 1
33.893460 -30.466697 22.567909 50.855646 -0.732205 1.111002 0.070023 0.000427 -660344.000000 0 0 1
33.249190 -31.830397 22.921579 51.420634 -0.763601 1.108766 0.062409 -0.002071 699268.000000 0 0 1
31.994460 -31.691697 23.629389 50.856240 -0.780644 1.087578 0.101730 -0.018843 777214.000000 0 0 1
31.400700 -32.926897 23.875369 51.383049 -0.809119 1.087552 0.107717 -0.019792 -402985.000000 0 0 1
30.286940 -32.877797 24.920939 51.179111 -0.826393 1.062218 0.100266 -0.029853 -226910.000000 0 0 1
30.032340 33.415194 25.071459 51.449924 0.838665 1.061803 0.110465 -0.041242 -100941.000000 0 0 1
29.022440 33.186894 26.015629 51.190672 0.852241 1.037691 0.108913 -0.037341 -1018860.000000 0 0 1
28.686640 31.717094 26.318619 50.215207 0.835526 1.019119 0.104042 -0.028959 -3753.340000 0 0 1
27.845840 31.056594 25.415539 48.845188 0.839854 1.023561 0.094977 -0.025926 -407463.000000 0 0 1
26.496540 31.461094 25.543879 48.418558 0.870848 1.015066 0.099591 -0.029029 -535554.000000 0 0 1
25.784540 31.388394 24.127509 47.246274 0.883102 1.034826 0.134363 -0.041797 113075.000000 0 0 1
26.250040 32.270394 23.128569 47.595941 0.887914 1.063363 0.126335 -0.045338 651216.000000 0 0 1
27.564940 32.072794 22.595339 47.948299 0.860842 1.080096 0.111860 -0.034434 502312.000000 0 0 1
27.812440 32.893094 21.273459 48.042143 0.868897 1.112068 0.125986 -0.030674 1233170.000000 0 0 1
29.213340 32.833494 20.903559 48.666377 0.843678 1.126827 0.120791 -0.024124 1251560.000000 0 0 1
29.331140 33.546994 19.716159 48.728261 0.852346 1.154239 0.111049 -0.028344 -11181.100000 0 0 1
30.789300 -33.817597 19.347759 49.658299 -0.832237 1.170580 0.115578 -0.033980 -114904.000000 0 0 1
31.598090 32.786594 18.947359 49.319392 0.803855 1.176480 0.106474 -0.038950 331845.000000 0 0 1
32.735880 33.371794 18.276359 50.193025 0.795017 1.198107 0.100575 -0.032303 394411.000000 0 0 1
33.608080 32.294194 17.584659 49.816044 0.765464 1.210029 0.075193 -0.023010 32915.100000 0 0 1
34.434860 31.556194 18.481259 50.230567 0.741804 1.194016 0.045273 -0.024022 197646.000000 0 0 1
35.295040 30.681594 17.755559 50.023593 0.715586 1.207942 0.060198 -0.025074 136254.000000 0 0 1
36.276570 29.969394 18.706759 50.636912 0.690476 1.192402 0.075337 -0.033283 35870.300000 0 0 1
37.286420 30.832494 19.194559 52.051425 0.690935 1.193120 0.073743 -0.033863 -303678.000000 0 0 1
-37.408958 30.149994 19.957859 52.026613 -0.678362 1.177096 0.108868 -0.032233 -105425.000000 0 0 1
-36.313318 31.085294 20.511459 52.016079 -0.707984 1.165459 0.128148 -0.035897 126899.000000 0 0 1
-35.405793 31.543994 19.497559 51.271323 -0.727780 1.180695 0.133821 -0.037845 710738.000000 0 0 1
-34.260049 32.274094 19.962759 51.126117 -0.755558 1.169664 0.123379 -0.029851 729858.000000 0 0 1
-34.501932 33.657994 20.673159 52.446386 -0.773017 1.165624 0.090449 -0.022991 -285224.000000 0 0 1
-34.895910 33.526694 22.066759 53.185576 -0.765390 1.142962 0.083357 -0.019658 247780.000000 0 0 1
-34.586064 -32.916997 22.764199 52.895494 0.760677 1.125903 0.065118 -0.014103 -46215.700000 0 0 1
-34.686325 -33.294797 24.269019 53.857868 0.764932 1.103345 0.077408 -0.022414 502087.000000 0 0 1
-35.987568 -33.483597 24.840069 55.075270 0.749370 1.102888 0.065423 -0.016982 193291.000000 0 0 1
-35.823456 33.496994 26.006419 55.513084 -0.751850 1.083234 0.077346 -0.021851 479244.000000 0 0 1
-37.145108 33.625194 26.787909 56.815533 -0.735702 1.079818 0.063743 -0.028307 147741.000000 0 0 1
-37.056258 32.829294 28.012039 56.882362 -0.724988 1.055887 0.088033 -0.030826 -570454.000000 0 0 1
37.350230 32.750294 28.663349 57.351626 0.719873 1.047448 0.090338 -0.033368 -433640.000000 0 0 1
37.293970 31.606894 29.752309 57.227928 0.703045 1.024072 0.097410 -0.027457 954.003000 0 0 1
37.056440 30.314794 29.253369 56.106381 0.685663 1.022316 0.086202 -0.026858 926807.000000 0 0 1
-37.431378 29.768694 28.566299 55.707420 -0.671861 1.032363 0.079232 -0.027430 582476.000000 0 0 1
-37.657868 28.265494 28.176049 54.872060 -0.643876 1.031554 0.090312 -0.019093 -464987.000000 0 0 1
37.019530 28.096194 27.165939 53.831496 0.649208 1.041823 0.085100 -0.017612 119433.000000 0 0 1
36.838580 26.755294 26.701189 52.781438 0.628150 1.040392 0.091600 -0.022589 409755.000000 0 0 1
36.250960 25.686494 27.692399 52.352622 0.616457 1.013423 0.082739 -0.027305 552124.000000 0 0 1
37.368560 25.268994 28.502019 53.360064 0.594580 1.007300 0.070052 -0.021567 827102.000000 0 0 1
37.302450 23.871194 28.746159 52.798185 0.569268 0.995059 0.074190 -0.017896 159587.000000 0 0 1
-37.777918 22.887594 27.712189 52.143825 -0.544707 1.010477 0.084283 -0.021046 -365314.000000 0 0 1
37.119080 22.988294 26.525249 51.086951 0.554499 1.024861 0.085661 -0.021921 -112966.000000 0 0 1
37.584590 22.152694 25.495399 50.530769 0.532596 1.041933 0.083993 -0.037939 -396991.000000 0 0 1
37.355320 20.658794 25.575069 49.762333 0.505170 1.031020 0.083777 -0.036395 -1042220.000000 0 0 1
36.025570 20.272394 25.573619 48.608863 0.512558 1.016776 0.111289 -0.018032 -640959.000000 0 0 1
35.822520 18.952194 25.972529 48.135339 0.486623 1.000866 0.098844 -0.007442 -325651.000000 0 0 1
35.487990 18.698194 27.469629 48.616873 0.484926 0.970336 0.085855 0.001749 -200590.000000 0 0 1
34.328780 19.266694 28.037039 48.329558 0.511432 0.951918 0.083145 -0.008771 214829.000000 0 0 1
34.413710 20.674894 28.243919 49.086389 0.540989 0.957713 0.091946 -0.027293 344407.000000 0 0 1
33.211210 21.182594 29.139519 48.997942 0.567761 0.933893 0.093261 -0.022779 1031860.000000 0 0 1
31.863570 21.164394 28.701589 47.822587 0.586306 0.927085 0.115885 -0.029350 585651.000000 0 0 1
31.414490 21.969094 27.595789 47.233874 0.610276 0.946856 0.110482 -0.020866 179950.000000 0 0 1
30.992580 23.391694 28.049729 47.900925 0.646535 0.945203 0.117984 -0.017091 44189.500000 0 0 1
32.250000 24.020894 28.246409 49.141891 0.640187 0.958445 0.094812 -0.025764 377740.000000 0 0 1
32.233190 25.214494 28.985309 50.148752 0.663825 0.954537 0.080413 -0.018271 -168482.000000 0 0 1
32.578400 25.210294 30.493569 51.252012 0.658582 0.933564 0.088593 -0.022850 961863.000000 0 0 1
33.947450 24.748294 30.607709 51.978257 0.629937 0.941154 0.061323 -0.008960 879683.000000 0 0 1
34.376380 24.670994 31.963113 53.028615 0.622489 0.923851 0.078158 -0.001910 65874.700000 0 0 1
33.892750 23.461094 32.830351 52.696996 0.605482 0.898221 0.087536 0.000016 -250426.000000 0 0 1
34.265240 23.475194 -33.387431 53.290824 0.600657 2.247868 0.105850 -0.015022 34566.600000 0 0 1
33.812820 22.380294 -32.678861 52.077752 0.584687 2.249136 0.089310 -0.019189 326494.000000 0 0 1
34.490970 22.305294 -31.243261 51.607117 0.574052 2.221072 0.103467 -0.028034 862592.000000 0 0 1
33.705730 23.198994 -30.403241 50.976726 0.602817 2.209823 0.083110 -0.033640 673056.000000 0 0 1
34.056970 23.112194 -29.015441 50.358182 0.596241 2.184845 0.101031 -0.049328 188413.000000 0 0 1
35.371050 23.816694 -28.563741 51.324783 0.592607 2.160999 0.097098 -0.019116 439899.000000 0 0 1
36.033620 23.102694 -27.555971 50.906657 0.570123 2.142783 0.087317 -0.026241 -134380.000000 0 0 1
37.039310 23.847794 -26.883831 51.607830 0.572040 2.118731 0.091390 -0.016600 269438.000000 0 0 1
37.703710 23.116194 -25.689681 51.145751 0.549997 2.097034 0.067986 -0.012983 -361977.000000 0 0 1
-36.974908 22.199594 -26.141781 50.431721 -0.540711 2.115728 0.051190 -0.008279 110723.000000 0 0 1
-37.270978 20.911894 -25.545211 49.789466 -0.511308 2.109548 0.030980 -0.001978 235334.000000 0 0 1
-36.192138 19.891694 -26.056571 48.831294 -0.502547 2.133653 0.031232 0.007822 -60009.600000 0 0 1
-34.970348 20.098394 -25.416921 47.674842 -0.521629 2.133093 0.032186 0.006550 -556820.000000 0 0 1
-34.082048 18.999194 -25.602391 46.669453 -0.508548 2.151473 0.010514 0.002632 706590.000000 0 0 1
-32.714858 19.298594 -24.907041 45.420902 -0.532962 2.151199 0.022747 -0.000787 302210.000000 0 0 1
-32.758278 19.172794 -23.511541 44.648554 -0.529526 2.125382 0.031098 -0.000046 69350.800000 0 0 1
-31.548288 19.586094 -22.895541 43.624711 -0.555594 2.123311 0.048683 0.005807 275565.000000 0 0 1
-31.714098 19.987794 -21.403741 43.167303 -0.562365 2.089589 0.037652 0.003647 122390.000000 0 0 1
-32.205168 18.934694 -20.608841 42.666378 -0.531504 2.074900 0.024545 0.006456 60717.500000 0 0 1
-32.938818 19.453994 -19.496541 42.936450 -0.533486 2.042135 0.029258 0.008283 -317464.000000 0 0 1
-33.771938 18.329294 -18.803441 42.779390 -0.497250 2.025888 0.023923 0.006689 572232.000000 0 0 1
-34.641315 18.539294 -17.678741 43.084383 -0.491393 1.993610 0.021127 -0.000936 630517.000000 0 0 1
-35.636910 19.522594 -17.926841 44.412754 -0.501168 1.986290 0.018383 0.003272 -899421.000000 0 0 1
-36.606448 19.644594 -16.754841 44.795835 -0.492530 1.954143 0.020378 -0.005987 -485977.000000 0 0 1
-36.440988 20.607894 -15.773241 44.737300 -0.514676 1.931117 0.026347 -0.007412 -169830.000000 0 0 1
-37.424118 20.397294 -14.807341 45.120634 -0.499020 1.905164 0.041592 -0.008255 -786056.000000 0 0 1
-37.302108 21.332694 -13.569241 45.062794 -0.519494 1.876662 0.042046 -0.008717 -199434.000000 0 0 1
-37.759218 22.630594 -13.703141 46.105080 -0.539934 1.872571 0.072239 -0.009496 -557169.000000 0 0 1
36.494650 22.756494 -13.639141 45.119216 0.557561 1.877892 0.070940 -0.004600 -833770.000000 0 0 1
36.100450 24.181594 -14.130741 45.691025 0.590198 1.885219 0.086173 -0.013390 -14978.500000 0 0 1
36.687210 25.177494 -13.315541 46.445249 0.601455 1.861570 0.079785 -0.011573 -12148.000000 0 0 1
36.402960 26.507894 -13.719841 47.075237 0.629389 1.866533 0.080118 -0.001849 -426472.000000 0 0 1
37.582340 27.343994 -14.209041 48.600649 0.628994 1.867493 0.103797 -0.001063 -249642.000000 0 0 1
-37.667538 26.937594 -15.509141 48.836573 -0.620815 1.893964 0.099137 0.003299 173040.000000 0 0 1
-36.539948 27.607594 -16.036241 48.523274 -0.647041 1.907614 0.105942 -0.006824 -581190.000000 0 0 1
-36.123128 27.376494 -17.499041 48.585690 -0.648516 1.939245 0.101300 -0.011670 -196308.000000 0 0 1
-35.621780 26.078494 -17.755941 47.584373 -0.631942 1.953194 0.098237 -0.013391 -269013.000000 0 0 1
-34.235133 26.039594 -17.587041 46.469440 -0.650257 1.958933 0.095675 -0.005570 -558555.000000 0 0 1
-33.458738 24.988394 -18.416441 45.640687 -0.641477 1.986145 0.075565 -0.003681 17071.700000 0 0 1
-33.502048 25.150694 -19.807441 46.338746 -0.643962 2.012465 0.066899 0.003466 599781.000000 0 0 1
-32.656138 24.175994 -20.483641 45.502545 -0.637277 2.037746 0.052619 0.006473 452175.000000 0 0 1
-32.861558 24.095194 -22.023641 46.319555 -0.632684 2.066297 0.051427 0.004489 -284320.000000 0 0 1
-33.945418 23.328894 -22.506441 46.936858 -0.602116 2.070886 0.063545 0.008002 -90868.200000 0 0 1
-34.065877 23.136794 -23.877741 47.601909 -0.596614 2.096259 0.047226 0.001120 -408818.000000 0 0 1
-34.719079 24.244894 -24.700941 49.024135 -0.609595 2.098850 0.048109 0.003655 -347208.000000 0 0 1
-33.942408 25.451394 -24.881641 49.182889 -0.643399 2.101222 0.048664 0.002285 292689.000000 0 0 1
-34.736864 26.467894 -25.482851 50.562583 -0.651108 2.099004 0.075604 -0.005986 541814.000000 0 0 1
-33.886478 27.699794 -25.890841 50.851820 -0.685278 2.104985 0.072162 -0.013320 145536.000000 0 0 1
-32.812478 27.555294 -26.769621 50.522921 -0.698531 2.129221 0.058795 -0.013390 -636448.000000 0 0 1
-32.293638 28.823594 -27.062711 51.049672 -0.728682 2.129544 0.069842 -0.019941 1226700.000000 0 0 1
-30.834038 28.852194 -27.673471 50.487702 -0.752206 2.150915 0.072575 -0.023929 315283.000000 0 0 1
-29.801618 28.508694 -26.819161 49.195015 -0.763229 2.147376 0.067845 -0.026168 417288.000000 0 0 1
-28.517128 28.427194 -27.509741 48.765949 -0.783819 2.170161 0.079949 -0.030637 1111200.000000 0 0 1
-27.705118 29.658294 -27.220121 48.868425 -0.819434 2.161576 0.063201 -0.037111 -950588.000000 0 0 1
-27.141928 29.887894 -25.922991 47.978870 -0.833511 2.141590 0.052423 -0.035581 307670.000000 0 0 1
-28.136088 30.164994 -24.907741 48.186740 -0.820185 2.114022 0.063995 -0.028445 293487.000000 0 0 1
-27.527568 30.569994 -23.566141 47.409435 -0.837718 2.091023 0.036164 -0.020846 33372.700000 0 0 1
-26.762838 31.759594 -23.640741 47.789182 -0.870573 2.088272 0.031669 -0.022994 428728.000000 0 0 1
-26.010248 31.968994 -22.427741 46.920711 -0.887812 2.069164 0.039389 -0.006084 233697.000000 0 0 1
-25.439968 33.391994 -22.366841 47.565668 -0.919749 2.060349 0.032593 0.007444 -370521.000000 0 0 1
-26.436898 -33.338297 -22.173141 47.979160 0.900345 2.051204 0.020739 -0.005421 -80449.100000 0 0 1
-25.879058 -32.092897 -22.427741 46.932753 0.892177 2.069024 0.035435 -0.001267 -29182.200000 0 0 1
17.411192 8.486294 -25.428791 31.965453 0.453521 2.490643 0.076236 -0.011887 -730685.000000 0 0 1
16.313392 8.007994 -24.754541 30.708989 0.456329 2.508330 0.062833 -0.014103 -695170.000000 0 0 1
16.296392 6.638394 -25.053541 30.615692 0.386830 2.529284 0.059549 -0.020099 1164510.000000 0 0 1
14.866892 5.936494 -25.167031 29.826932 0.379911 2.575063 0.070656 -0.023916 1253280.000000 0 0 1
14.100192 6.040294 -23.963841 28.452877 0.404733 2.572201 0.091442 -0.041819 82279.000000 0 0 1
12.864092 5.390194 -24.187741 27.921065 0.396787 2.618523 0.100381 -0.034960 103121.000000 0 0 1
11.814092 5.733094 -23.089741 26.562704 0.451799 2.624488 0.113730 -0.035956 -63978.400000 0 0 1
12.291292 5.174594 -21.906241 25.646358 0.398475 2.594741 0.107397 -0.024708 -9262.810000 0 0 1
11.542592 5.406594 -20.738841 24.342601 0.438053 2.590507 0.119698 -0.022714 -736413.000000 0 1 0
12.235592 6.301094 -19.712241 24.041338 0.475560 2.532087 0.135213 -0.040580 -392488.000000 0 1 0
11.598892 6.508194 -18.446041 22.740873 0.511329 2.516896 0.126166 -0.032529 -110515.000000 0 1 0
11.858392 7.789094 -17.899041 22.840033 0.581170 2.471348 0.127872 -0.031938 -610700.000000 0 1 0
13.301292 8.178794 -17.635641 23.554890 0.551294 2.416901 0.129564 -0.023013 -861327.000000 0 1 0
13.876592 7.450094 -16.584341 22.871468 0.492716 2.381991 0.154036 -0.023797 81236.500000 0 1 0
15.036392 8.120294 -16.121941 23.493600 0.495166 2.327085 0.127602 -0.024747 -209110.000000 0 1 0
15.641592 7.511194 -14.857741 22.843596 0.447688 2.278923 0.124112 -0.030130 -156606.000000 0 1 0
16.640992 8.377794 -14.365441 23.526069 0.466398 2.227637 0.091770 -0.034261 199495.000000 0 1 0
17.112292 8.039294 -13.086041 22.993591 0.439194 2.176228 0.076774 -0.035977 109918.000000 0 1 0
17.935692 9.196394 -12.447841 23.689902 0.473790 2.124039 0.121194 -0.039597 -88530.900000 0 1 0
17.132592 10.296694 -12.124041 23.378194 0.541155 2.116015 0.153193 -0.049024 54561.400000 0 1 0
17.920292 11.288694 -11.591741 24.144149 0.562143 2.071571 0.212698 -0.071991 -704492.000000 0 1 0
17.207792 12.672194 -11.404941 24.223238 0.634754 2.061024 0.222539 -0.068858 -651300.000000 0 1 0
16.501892 12.710894 -10.167641 23.178873 0.656347 2.024903 0.260193 -0.055522 701091.000000 0 1 0
15.461492 13.682094 -10.161741 23.011267 0.724418 2.028176 0.133578 -0.044320 639244.000000 0 1 0
14.208092 13.576694 -11.112141 22.576008 0.762677 2.085423 0.103350 -0.058592 691789.000000 0 1 0
13.210792 14.629294 -10.920441 22.534358 0.836306 2.076717 0.138506 -0.059943 832140.000000 0 1 0
13.700792 15.957794 -11.209241 23.832959 0.861351 2.060456 0.182324 -0.056913 -267088.000000 0 1 0
13.173892 17.026494 -10.258641 23.847277 0.912281 2.015489 0.176118 -0.045247 -14833.300000 0 1 0
13.588092 16.772894 -8.937741 23.363420 0.889914 1.963354 0.184504 -0.038610 217442.000000 0 1 0
13.029092 17.663294 -7.967941 23.350316 0.935255 1.919027 0.177164 -0.011682 -365348.000000 0 1 0
13.472392 17.194594 -6.562241 22.808384 0.906182 1.862633 0.163617 -0.014484 -49050.400000 0 1 0
14.698992 17.801094 -6.255241 23.917929 0.880559 1.835403 0.223697 -0.016464 -159300.000000 0 1 0
14.981292 17.630694 -4.877941 23.644762 0.866460 1.778590 0.204226 -0.016521 279341.000000 0 1 0
16.183492 18.573994 -4.518641 25.046292 0.854067 1.752201 0.187420 -0.019000 -200388.000000 0 0 1
17.378492 18.222594 -5.137541 25.699596 0.809104 1.772060 0.205719 -0.043509 -393629.000000 0 0 1
18.147492 19.381794 -5.315441 27.078391 0.818275 1.768378 0.124520 -0.035536 -829805.000000 0 0 1
19.379892 19.183394 -6.165441 27.957029 0.780303 1.793157 0.130100 -0.017703 133906.000000 0 0 1
20.586492 18.690994 -5.536941 28.351624 0.737176 1.767355 0.123247 -0.027542 1029990.000000 0 0 1
20.723892 17.262194 -5.598641 27.546466 0.694519 1.775466 0.177940 -0.052498 -12799.700000 0 0 1
21.841692 16.649294 -4.713541 27.865318 0.651309 1.740768 0.161295 -0.053127 141128.000000 0 0 1
23.166392 16.952994 -5.096341 29.155761 0.631746 1.746496 0.098246 -0.053838 26950.300000 0 0 1
24.030992 16.160194 -4.319741 29.279696 0.592012 1.718871 0.099136 -0.056397 -1400640.000000 0 0 1
25.492892 16.459994 -4.395141 30.661640 0.573325 1.714635 0.091970 -0.049525 -1140280.000000 0 0 1
25.929192 17.623794 -3.697741 31.568883 0.596964 1.688198 0.083983 -0.043976 -639916.000000 0 0 1
27.301492 17.742094 -3.576541 32.755839 0.576275 1.680202 0.073750 -0.032535 -918255.000000 0 0 1
27.773592 19.112594 -3.006541 33.848233 0.602733 1.659738 0.081770 -0.023683 -223411.000000 0 0 1
27.695592 20.175694 -3.978041 34.495351 0.629586 1.686375 0.071112 -0.028093 309712.000000 0 0 1
27.873392 21.412694 -3.298441 35.303103 0.655056 1.664365 0.096930 -0.012812 -385502.000000 0 0 1
27.791692 22.698794 -4.149941 36.122505 0.684870 1.685936 0.069063 -0.012301 -345865.000000 0 0 1
28.901392 23.111694 -4.918641 37.331406 0.674542 1.702937 0.045687 0.001829 63023.400000 0 0 1
29.190392 22.236694 -5.981541 37.179676 0.650999 1.732381 0.033107 0.004117 -205724.000000 0 0 1
30.249492 22.769394 -6.954341 38.494673 0.645240 1.752451 0.020503 0.011245 -185106.000000 0 0 1
29.707592 23.797594 -7.818841 38.858728 0.675388 1.773391 0.002983 0.015141 149166.000000 0 0 1
30.591892 24.783994 -8.336241 40.244293 0.680899 1.779448 0.009618 0.010107 -254660.000000 0 0 1
31.580592 24.220694 -9.384641 40.890674 0.654260 1.802366 0.018612 0.000096 -348526.000000 0 0 1
30.941792 23.773494 -10.558641 40.423488 0.655129 1.835062 0.019144 0.006161 -108496.000000 0 0 1
31.817292 23.332894 -11.583741 41.121126 0.632753 1.856360 0.020717 -0.002088 -20129.100000 0 0 1
31.128592 22.646394 -12.811741 40.570791 0.628952 1.892083 0.039097 -0.001361 65646.400000 0 0 1
31.214592 23.470394 -13.907041 41.456192 0.644719 1.912894 0.046205 -0.008247 43330.400000 0 0 1
31.192592 22.648894 -15.095141 41.398230 0.628028 1.944034 0.063217 -0.016873 -175438.000000 0 0 1
31.618492 23.447894 -16.303641 42.606824 0.638096 1.963463 0.070687 -0.012232 -535569.000000 0 0 1
32.903592 23.977094 -16.281441 43.847835 0.629734 1.951223 0.065291 -0.004823 -702938.000000 0 0 1
33.325992 24.545894 -17.511841 44.942042 0.634830 1.971052 0.083244 -0.009173 253780.000000 0 0 1
34.795192 25.027594 -17.492841 46.293469 0.623551 1.958289 0.081800 -0.005674 227715.000000 0 0 1
35.725292 23.974494 -17.424441 46.418573 0.591051 1.955599 0.084168 0.005585 -498416.000000 0 0 1
37.050792 24.399794 -17.631441 47.738651 0.582362 1.949087 0.076772 0.002129 -311617.000000 0 0 1
-37.653057 23.174494 -17.741841 47.640138 -0.551720 1.952405 0.063999 -0.004412 -173932.000000 0 0 1
-37.723757 22.608494 -19.088941 47.943857 -0.539917 1.980298 0.053181 0.000414 434498.000000 0 0 1
-36.518757 22.856494 -19.786841 47.408417 -0.559235 2.001345 0.077152 0.012447 -41751.600000 0 0 1
-36.575357 22.181894 -21.171041 47.728462 -0.545164 2.030377 0.065246 0.003892 -145542.000000 0 0 1
-36.531257 20.798394 -20.983141 46.982955 -0.517564 2.033771 0.036399 0.001872 165655.000000 0 0 1
-36.224657 20.107294 -22.151041 46.980822 -0.506729 2.061777 0.028976 0.006984 125608.000000 0 0 1
-35.974557 18.567394 -21.896841 46.025954 -0.476465 2.066613 0.020849 0.003702 709438.000000 0 0 1
-37.225357 17.870894 -21.765741 46.678084 -0.447579 2.055894 0.021643 -0.002900 636425.000000 0 0 1
-37.141157 16.480094 -21.836241 46.128954 -0.417615 2.063913 0.020134 -0.006400 -550015.000000 0 0 1
37.260192 15.654694 -21.459941 45.759375 0.397751 2.058925 0.027644 -0.006267 430123.000000 0 0 1
36.287892 15.787194 -22.542841 45.543674 0.410356 2.088599 0.049433 0.005298 1244550.000000 0 0 1
35.276092 14.781094 -22.750741 44.502580 0.396788 2.107403 0.070410 0.003255 374789.000000 0 0 1
35.795792 13.524294 -23.406441 44.856512 0.361239 2.119764 0.047901 0.000989 -374783.000000 0 0 1
35.768392 13.552994 -24.796941 45.584534 0.362194 2.145966 0.058525 -0.002777 134437.000000 0 0 1
36.240092 12.328794 -25.358521 45.917295 0.327916 2.155875 0.048581 0.004239 80753.700000 0 0 1
36.341792 12.544894 -26.852571 46.895210 0.332385 2.180480 0.050729 -0.007126 53135.200000 0 0 1
35.042392 12.478194 -27.400571 46.200279 0.342089 2.205678 0.044672 -0.006040 275827.000000 0 0 1
34.663092 13.622694 -28.207581 46.720181 0.374460 2.219001 0.048144 -0.007621 48815.900000 0 0 1
35.217692 13.563394 -29.685551 48.015450 0.367622 2.237311 0.057863 -0.026632 -1322950.000000 0 0 1
36.509292 13.997594 -29.795511 49.159266 0.366113 2.221946 0.063148 -0.013196 -1507900.000000 0 0 1
36.890992 13.948394 -31.168441 50.269023 0.361484 2.239581 0.083600 -0.022350 -356986.000000 0 0 1
-37.231057 14.141394 -31.419771 50.728026 -0.362997 2.238745 0.082812 -0.021415 603932.000000 0 0 1
-36.415957 13.063194 -30.870821 49.495217 -0.344423 2.244281 0.093383 -0.019265 450356.000000 0 0 1
-36.304957 12.971894 -29.453041 48.515993 -0.343167 2.223176 0.068808 -0.016175 -1117850.000000 0 0 1
-35.213257 11.968394 -29.064961 47.201566 -0.327634 2.234150 0.068632 -0.018832 -15641.100000 0 0 1
-35.511857 10.605394 -29.484901 47.359537 -0.290212 2.242826 0.076124 -0.022664 120399.000000 0 0 1
-34.421457 9.748894 -29.243901 46.206962 -0.275993 2.256076 0.074607 -0.022357 -90327.100000 0 0 1
-34.536957 8.316894 -29.766081 46.346431 -0.236312 2.268229 0.089668 -0.022665 -533474.000000 0 0 1
-34.671757 8.258794 -31.204731 47.371654 -0.233842 2.289915 0.097505 -0.028575 43456.100000 0 0 1
-35.076457 7.039894 -31.795151 47.862820 -0.198070 2.297350 0.103266 -0.029021 717147.000000 0 0 1
-36.570257 6.601794 -31.565401 48.757993 -0.178600 2.274950 0.117415 -0.012941 496834.000000 0 0 1
-36.656857 6.083894 -30.242401 47.909725 -0.164470 2.253944 0.112405 -0.018747 547190.000000 0 0 1
37.681292 5.566394 -29.982391 48.474821 0.146662 2.237647 0.091750 -0.004039 303524.000000 0 0 1
37.661892 5.008294 -28.543231 47.520702 0.132205 2.215108 0.090696 -0.015134 638516.000000 0 0 1
-37.063257 3.895694 -28.410671 46.861793 -0.104725 2.222152 0.099874 -0.015674 943047.000000 0 0 1
-37.598157 3.091794 -27.402691 46.627117 -0.082048 2.199008 0.109926 -0.011161 436118.000000 0 0 1
-36.717857 1.802894 -27.196751 45.728708 -0.049062 2.207740 0.147698 -0.021232 122433.000000 0 0 1
-35.572157 1.971394 -26.392241 44.337514 -0.055363 2.208382 0.152838 -0.024860 -385856.000000 0 0 1
-34.763257 0.865694 -26.641171 43.806226 -0.024897 2.224536 0.163220 -0.024448 -118457.000000 0 0 1
-33.477657 0.764494 -25.774411 42.257049 -0.022832 2.226786 0.153930 -0.023292 -47483.000000 0 0 1
-33.654157 0.529394 -24.415841 41.581436 -0.015729 2.198369 0.152005 -0.018063 -356387.000000 0 0 1
-32.494457 0.683994 -23.651041 40.196135 -0.021046 2.199864 0.168380 -0.011886 -464447.000000 0 0 1
-32.601857 0.433094 -22.135241 39.408597 -0.013284 2.167218 0.153616 -0.004609 -625265.000000 0 0 1
-32.889057 -0.921606 -21.913441 39.531485 0.028014 2.158353 0.170683 -0.014949 165136.000000 0 0 1
-33.418457 -1.201706 -20.648641 39.301447 0.035944 2.123971 0.178074 -0.014199 557226.000000 0 0 1
-34.927057 -0.838906 -20.432441 40.473296 0.024014 2.099990 0.171128 -0.018919 189116.000000 0 0 1
-35.810657 -1.845706 -20.871441 41.490081 0.051495 2.097917 0.164550 -0.022947 736771.000000 0 0 1
-37.170457 -1.640006 -20.499141 42.479963 0.044093 2.074372 0.156015 -0.030524 1304680.000000 0 0 1
37.495092 -2.827506 -20.146741 42.658737 -0.075268 2.062669 0.150728 -0.036468 327807.000000 0 0 1
36.952892 -3.680106 -21.132541 42.727552 -0.099262 2.088157 0.127983 -0.028309 265318.000000 0 0 1
37.714592 -4.810906 -21.617841 43.736327 -0.126876 2.087799 0.120098 -0.018466 -280919.000000 0 0 1
37.024192 -5.605706 -22.687541 43.782865 -0.150265 2.115522 0.110452 -0.026340 147738.000000 0 0 1
36.034792 -6.571506 -22.177941 42.819995 -0.180383 2.115231 0.119573 -0.020861 1155300.000000 0 0 1
35.514592 -7.333606 -23.276641 43.091415 -0.203633 2.141434 0.117664 -0.017786 -274714.000000 0 0 1
34.241592 -6.759006 -23.893041 42.297141 -0.194886 2.171091 0.088297 -0.015791 -1038250.000000 0 0 1
34.442892 -5.636006 -24.809541 42.820447 -0.162196 2.188771 0.084785 -0.017244 839212.000000 0 0 1
33.161392 -5.146406 -25.251481 41.997627 -0.153964 2.215873 0.047110 -0.013083 786553.000000 0 0 1
33.234592 -3.839206 -26.109371 42.437918 -0.115009 2.233483 0.074922 -0.040704 -73654.500000 0 0 1
33.649992 -4.005406 -27.450061 43.610447 -0.118474 2.251626 0.078403 -0.044164 292009.000000 0 0 1
33.176592 -2.947806 -28.261841 43.681889 -0.088619 2.274429 0.076086 -0.046607 -22393.700000 0 0 1
32.768392 -3.448006 -29.685831 44.349801 -0.104838 2.304139 0.091155 -0.046308 77338.100000 0 0 1
32.211692 -2.470706 -30.518751 44.442003 -0.076552 2.327749 0.094583 -0.056898 -84094.500000 0 0 1
31.739992 -3.044406 -31.717421 44.974329 -0.095625 2.353549 0.106976 -0.056651 -933264.000000 0 0 1
31.219292 -2.055406 -32.744901 45.289043 -0.065743 2.378961 0.108060 -0.049733 -92862.200000 0 0 1
30.262392 -1.055006 -32.355061 44.314505 -0.034848 2.389299 0.105742 -0.048903 1528240.000000 0 0 1
29.035492 -1.524506 -31.737221 43.042248 -0.052457 2.399936 0.108394 -0.056977 546801.000000 0 0 1
27.879692 -1.980806 -32.642581 42.973700 -0.070929 2.433486 0.103069 -0.049615 -554388.000000 0 0 1
28.217492 -3.184506 -33.257341 43.731209 -0.112380 2.434871 0.109838 -0.049529 -65590.900000 0 0 1
27.724092 -3.335406 33.042386 43.261409 -0.119732 0.701640 0.103281 -0.039683 -565128.000000 0 0 1
28.371492 -4.492206 32.299561 43.224797 -0.157032 0.726888 0.078541 -0.037743 411351.000000 0 0 1
29.774792 -4.526006 32.040489 43.972899 -0.150853 0.754460 0.080498 -0.026908 548611.000000 0 0 1
30.137592 -3.914906 30.799519 43.269057 -0.129178 0.778719 0.097284 -0.040267 -353980.000000 0 0 1
30.688292 -2.498306 30.858689 43.592103 -0.081230 0.784281 0.075445 -0.037345 -26239.100000 0 0 1
32.043092 -2.529106 31.299239 44.864223 -0.078765 0.798693 0.080629 -0.037784 394930.000000 0 0 1
32.554992 -1.189206 31.426369 45.264317 -0.036513 0.803369 0.081121 -0.031663 -264797.000000 0 0 1
34.013892 -1.048506 31.883983 46.632956 -0.030816 0.817945 0.082945 -0.036302 -498963.000000 0 0 1
34.838192 -1.403406 30.822189 46.536829 -0.040262 0.846888 0.094259 -0.032875 15642.600000 0 0 1
36.202292 -1.427306 31.244299 47.841920 -0.039405 0.859160 0.089203 -0.026328 601261.000000 0 0 1
37.257692 -1.988206 30.272059 48.046708 -0.053313 0.889173 0.096431 -0.025347 68558.900000 0 0 1
37.485292 -1.201406 29.140839 47.495041 -0.032039 0.910241 0.107163 -0.018627 32947.300000 0 0 1
-36.983657 -1.656706 28.493429 46.716282 0.044766 0.914830 0.105040 -0.015436 168383.000000 0 0 1
-36.833557 -0.982406 27.114229 45.747759 0.026665 0.936402 0.112326 -0.012472 -15136.500000 0 0 1
37.768592 -1.297506 26.206629 45.988449 -0.034341 0.964470 0.109615 -0.026409 -139158.000000 0 0 1
-37.708457 -0.664806 24.954539 45.222767 0.017628 0.986259 0.126198 -0.024461 -139845.000000 0 0 1
-27.446578 14.859694 11.882759 33.396484 -0.496220 1.207017 0.120698 -0.004793 43972.800000 0 0 1
-28.652298 14.273394 12.310759 34.296337 -0.462174 1.203651 0.100280 0.008021 339789.000000 0 0 1
-29.647788 15.245394 12.657859 35.659988 -0.474956 1.207925 0.118311 -0.004405 1085400.000000 0 0 1
-30.951188 14.537294 13.190659 36.651091 -0.439102 1.202638 0.126454 -0.004921 563239.000000 0 0 1
-32.026648 15.396594 13.489559 38.009597 -0.448124 1.207991 0.120865 -0.004975 -307906.000000 0 0 1
-33.004108 14.638894 14.176459 38.788405 -0.417475 1.196646 0.133982 -0.017884 309179.000000 0 0 1
-34.123519 15.456194 14.871759 40.304810 -0.425303 1.192883 0.126037 -0.015334 86049.100000 0 0 1
-33.669888 16.151394 16.022259 40.635473 -0.447275 1.165499 0.116883 -0.004507 30773.400000 0 0 1
-34.563878 16.083994 17.097059 41.781168 -0.435538 1.149214 0.109952 -0.018154 -264667.000000 0 0 1
-33.881158 16.602194 18.374159 41.966361 -0.455626 1.117612 0.135721 -0.005049 360311.000000 0 0 1
-33.168588 15.531494 19.000459 41.260150 -0.437934 1.092234 0.133886 -0.011970 -82695.000000 0 0 1
-32.271048 15.794294 20.066259 41.152582 -0.455153 1.061450 0.123595 -0.009783 78010.900000 0 0 1
-32.725578 15.993194 21.517759 42.305551 -0.454572 1.037207 0.123804 -0.024494 -763728.000000 0 0 1
-33.331518 17.258194 21.680459 43.346022 -0.477765 1.046999 0.128119 -0.026146 174310.000000 0 0 1
-33.684598 17.592694 23.039959 44.440913 -0.481310 1.025770 0.124230 -0.034748 -1231400.000000 0 0 1
-34.548823 16.538294 23.858659 45.126178 -0.446457 1.013716 0.113711 -0.040272 227656.000000 0 0 1
-35.868274 16.274194 23.411159 45.819918 -0.425944 1.034520 0.127169 -0.029815 544565.000000 0 0 1
-36.697138 17.409994 23.091059 46.722423 -0.442978 1.053861 0.118254 -0.037316 -1309810.000000 0 0 1
37.502770 16.909594 22.858159 47.062591 0.423593 1.063636 0.083900 -0.039820 -129006.000000 0 0 1
36.915410 16.549294 24.101159 47.090259 0.421442 1.033509 0.094746 -0.037479 125892.000000 0 0 1
35.992490 15.455494 23.920159 45.896684 0.405599 1.022570 0.110215 -0.032803 404107.000000 0 0 1
35.670690 14.856594 25.250059 46.159311 0.394643 0.991996 0.106055 -0.022187 108622.000000 0 0 1
34.744140 15.703494 25.968959 46.131787 0.424495 0.972870 0.090676 -0.020588 679040.000000 0 0 1
34.311690 15.200394 27.243859 46.374259 0.417025 0.942857 0.092427 -0.013131 315357.000000 0 0 1
33.386590 13.937294 27.348359 45.352456 0.395460 0.923517 0.093057 -0.016268 -197979.000000 0 0 1
34.014760 12.716394 27.055959 45.285047 0.357761 0.930468 0.083693 -0.021126 622222.000000 0 0 1
33.104010 11.584794 27.221759 44.397151 0.336631 0.910764 0.085856 -0.017301 892353.000000 0 0 1
33.820710 10.245994 26.819659 44.363441 0.294161 0.921603 0.086614 -0.027941 -5233.790000 0 0 1
34.638880 9.687294 27.832559 45.479083 0.272698 0.912227 0.082170 -0.022440 250687.000000 0 0 1
35.219570 8.424994 27.407359 45.415437 0.234801 0.922937 0.101512 -0.014177 222928.000000 0 0 1
36.444500 7.965994 28.217659 46.774939 0.215194 0.923208 0.107465 -0.019836 -74646.700000 0 0 1
37.691460 8.570594 27.989159 47.723099 0.223586 0.944077 0.109331 -0.022226 -242875.000000 0 0 1
-36.915128 7.782094 28.536859 47.303700 -0.207768 0.923203 0.113462 -0.023231 -688978.000000 0 0 1
-35.593398 8.489594 28.673359 46.487899 -0.234141 0.906136 0.128079 -0.026172 -603030.000000 0 0 1
-35.024800 8.971594 27.430359 45.383374 -0.250758 0.921766 0.112912 -0.027202 563886.000000 0 0 1
-33.657588 9.247494 27.746459 44.589409 -0.268136 0.899163 0.114875 -0.016478 424823.000000 0 0 1
-32.901608 10.110294 26.728559 43.579235 -0.298130 0.910523 0.121726 -0.026870 -120290.000000 0 0 1
-32.510598 9.357094 25.561759 42.401624 -0.280242 0.923730 0.108219 -0.023451 241602.000000 0 0 1
-31.587228 10.098294 24.778759 41.397046 -0.309427 0.929090 0.111655 -0.023495 518077.000000 0 0 1
-30.682688 9.136594 23.912659 39.958979 -0.289416 0.929256 0.115714 -0.028230 572332.000000 0 0 1
-29.664388 9.803194 23.181959 38.903493 -0.319171 0.932431 0.119485 -0.035982 624195.000000 0 0 1
-28.870538 8.829694 22.400159 37.593066 -0.296804 0.932462 0.094873 -0.017932 258117.000000 0 0 1
-27.728378 9.475994 21.620859 36.415916 -0.329301 0.935122 0.095442 -0.016734 -1105430.000000 0 0 1
-26.677758 9.892994 22.510759 36.280964 -0.355112 0.901472 0.098234 -0.022828 1394230.000000 0 0 1
-25.459598 10.359294 21.881359 35.132606 -0.386433 0.898452 0.081437 -0.001837 1481030.000000 0 0 1
-24.793308 9.504294 20.727859 33.685069 -0.366063 0.907976 0.070431 0.000493 -1099180.000000 0 0 1
-25.547758 9.540494 19.530759 33.543398 -0.357400 0.949299 0.071392 -0.006782 -24543.700000 0 0 1
-24.981018 8.933494 18.369659 32.269226 -0.343439 0.965188 0.075849 -0.020332 -210411.000000 0 0 1
-24.839008 7.342794 18.495759 31.827442 -0.287429 0.950685 0.074067 -0.011567 211396.000000 0 0 1
-23.660808 6.888394 19.186359 31.231397 -0.283300 0.909261 0.089988 -0.012089 821449.000000 0 0 1
-23.705508 5.549894 19.673559 31.301779 -0.229976 0.891157 0.104768 -0.015397 -304400.000000 0 0 1
-23.715708 4.366594 18.667559 30.495569 -0.182083 0.912032 0.102301 -0.022898 88169.500000 0 0 1
-24.922008 4.199394 17.911459 30.976794 -0.166933 0.954249 0.121909 -0.024637 685380.000000 0 0 1
-24.847208 3.245194 16.892659 30.220473 -0.129871 0.977640 0.124489 -0.023229 -214239.000000 0 0 1
-24.813808 1.734394 17.316859 30.308527 -0.069783 0.962643 0.125695 -0.016740 -171896.000000 0 0 1
-23.636608 1.261694 17.929059 29.693977 -0.053328 0.922544 0.108475 -0.017211 219891.000000 0 0 1
-23.792608 -0.087306 18.300759 30.016889 0.003669 0.915137 0.126726 -0.024920 46895.600000 0 0 1
-22.436608 -0.826406 18.427759 29.045940 0.036816 0.883519 0.123423 -0.015561 -156522.000000 0 0 1
-21.513108 -0.276506 19.332559 28.924697 0.012852 0.838774 0.113210 -0.012408 -84488.700000 0 0 1
-20.548208 -1.316306 19.535559 28.383086 0.063972 0.811679 0.112560 -0.011504 267484.000000 0 0 1
-19.466308 -0.867006 20.545559 28.316229 0.044509 0.758926 0.112749 -0.010907 361068.000000 0 0 1
-19.902008 -0.974306 21.918059 29.621622 0.048916 0.737823 0.124518 -0.019461 -231229.000000 0 0 1
-18.853108 -0.610206 22.775459 29.572514 0.032355 0.691710 0.130540 -0.024493 -438337.000000 0 0 1
-19.254308 -0.743706 24.297159 31.010215 0.038606 0.670484 0.130972 -0.016488 728449.000000 0 0 1
-20.138508 0.215394 24.893659 32.020309 -0.010695 0.680221 0.128959 -0.027089 989079.000000 0 0 1
-21.509708 0.196394 24.459259 32.572403 -0.009130 0.721343 0.140042 -0.031055 1096130.000000 0 0 1
-22.500608 1.155294 25.227359 33.823538 -0.051300 0.728983 0.115460 -0.033821 327539.000000 0 0 1
-22.210108 2.442494 24.766459 33.356141 -0.109532 0.734023 0.109802 -0.035928 1317060.000000 0 0 1
-23.342408 3.099394 24.093459 33.689301 -0.132007 0.773934 0.106093 -0.032710 417912.000000 0 0 1
-22.906708 4.326694 23.229259 32.909513 -0.186684 0.787171 0.116099 -0.029411 198494.000000 0 0 1
-22.159208 4.022194 22.050759 31.518955 -0.179558 0.795954 0.131545 -0.029722 1512570.000000 0 0 1
-20.781408 3.637194 22.274659 30.679904 -0.173267 0.758259 0.113263 -0.022374 506990.000000 0 0 1
-20.239008 2.806294 21.045159 29.332430 -0.137779 0.770632 0.105387 -0.021825 -47185.700000 0 0 1
-19.853208 3.600394 19.950259 28.374734 -0.179401 0.791050 0.100644 -0.016063 162571.000000 0 0 1
-19.394508 2.771594 18.899559 27.221719 -0.141945 0.803374 0.108890 -0.018245 4991.500000 0 0 1
-18.995708 3.536994 17.648159 26.168775 -0.184091 0.830648 0.094830 -0.013598 688808.000000 0 0 1
-17.631908 3.999194 17.692259 25.296122 -0.223042 0.796230 0.100150 -0.028506 808958.000000 0 0 1
-17.288908 4.679094 16.501959 24.353951 -0.264310 0.826318 0.104154 -0.019071 -328972.000000 0 1 0
-15.808508 5.069894 16.557059 23.446726 -0.310344 0.786741 0.097132 -0.016230 -186455.000000 0 1 0
-15.287708 6.066294 17.459559 23.986457 -0.377752 0.755553 0.091619 -0.020657 164807.000000 0 1 0
-15.712608 7.421194 17.307459 24.525666 -0.441250 0.787403 0.097008 -0.028345 -428890.000000 0 1 0
-15.230308 8.082394 15.977459 23.506735 -0.487888 0.823447 0.053932 -0.024153 27040.800000 0 1 0
-15.886308 7.793994 14.774459 23.052240 -0.456108 0.875110 0.093914 -0.022919 -392339.000000 0 1 0
-17.255908 7.982394 14.574959 23.956511 -0.433273 0.916763 0.083049 -0.014358 -281259.000000 0 1 0
-17.733808 7.411294 13.247159 23.343146 -0.395858 0.967334 0.085012 -0.016180 -2969.280000 0 1 0
-17.468608 5.978594 13.307959 22.759561 -0.329752 0.946262 0.081689 -0.023274 426501.000000 0 1 0
-17.886108 5.357094 12.084859 22.240844 -0.291008 0.996358 0.064354 -0.033521 208126.000000 0 1 0
-17.424308 3.888494 12.098259 21.566056 -0.219567 0.975220 0.064572 -0.029622 311426.000000 0 1 0
-18.046308 3.103794 13.127759 22.530886 -0.170324 0.948803 0.082042 -0.028065 384074.000000 0 1 0
-17.642308 1.754294 12.995159 21.981873 -0.099111 0.938280 0.068586 -0.027502 -416360.000000 0 1 0
-18.332408 0.864194 14.050959 23.113924 -0.047105 0.917383 0.071309 -0.034012 -31291.600000 0 1 0
-19.717308 0.844894 13.795459 24.079053 -0.042824 0.960728 0.093717 -0.028749 226917.000000 0 1 0
-20.465508 0.072094 14.732659 25.216928 -0.003523 0.946857 0.110302 -0.028208 -925759.000000 0 0 1
-21.933608 -0.049406 14.460759 26.271642 0.002253 0.987914 0.119596 -0.026734 -1247700.000000 0 0 1
-22.274308 -0.861906 13.379959 25.998288 0.038676 1.030200 0.145257 -0.036216 -894646.000000 0 0 1
-23.617908 -0.900606 13.096559 27.021039 0.038114 1.064799 0.181665 -0.037052 -1063560.000000 0 0 1
-24.015108 -1.986506 12.028059 26.932245 0.082531 1.107830 0.186214 -0.046217 -70092.400000 0 0 1
-23.842308 -3.341906 12.605859 27.175939 0.139260 1.088448 0.156626 -0.038015 316228.000000 0 0 1
-23.883308 -4.316406 11.563759 26.884276 0.178799 1.126159 0.172123 -0.046814 -247922.000000 0 0 1
-23.879508 -5.805206 12.033959 27.363251 0.238478 1.115437 0.152181 -0.045483 876022.000000 0 0 1
-25.043238 -6.165806 12.827859 28.805120 0.241405 1.109251 0.135568 -0.037901 1077820.000000 0 0 1
-25.181328 -7.532806 13.108159 29.371182 0.290670 1.108177 0.143207 -0.041513 -85855.200000 0 0 1
-26.291528 -7.887006 14.100759 30.859046 0.291441 1.096243 0.149516 -0.033720 1070990.000000 0 0 1
-27.630568 -7.410806 13.805259 31.764029 0.262043 1.121181 0.130107 -0.038779 1621960.000000 0 0 1
-28.504378 -7.755606 14.920159 33.094715 0.265654 1.103099 0.130328 -0.021807 73809.100000 0 0 1
-29.890588 -7.057706 14.825659 34.103646 0.231871 1.121065 0.130753 -0.033662 609585.000000 0 0 1
-30.870798 -7.610106 13.909759 34.704485 0.241696 1.158400 0.124732 -0.027570 1018110.000000 0 0 1
-31.274188 -9.003206 14.000059 35.427874 0.280301 1.164543 0.121924 -0.037260 -680038.000000 0 0 1
-31.813098 -9.491706 15.318959 36.562771 0.289950 1.138478 0.116304 -0.035193 -856222.000000 0 0 1
-30.777508 -9.758306 16.228259 36.136352 0.307033 1.105056 0.114072 -0.018750 -71171.400000 0 0 1
-31.141298 -10.521806 17.426959 37.204674 0.325831 1.083309 0.118417 -0.011516 -206809.000000 0 0 1
-29.958858 -10.670506 18.382459 36.732924 0.342163 1.046695 0.148232 -0.014041 -181335.000000 0 0 1
-28.940408 -11.482406 17.881359 35.904539 0.377710 1.049477 0.146251 -0.010678 -23378.800000 0 0 1
-27.745628 -11.412206 18.661659 35.331514 0.390223 1.014332 0.146204 -0.017879 294692.000000 0 0 1
-26.606648 -12.260306 18.103659 34.437934 0.431798 1.017271 0.130592 -0.011403 -283757.000000 0 0 1
-26.104518 -11.858506 16.808059 33.235236 0.426399 1.040568 0.117105 -0.009814 -538411.000000 0 0 1
-25.069748 -12.737506 16.605759 32.657121 0.470093 1.037368 0.104161 -0.013872 -815888.000000 0 0 1
-24.547608 -12.732506 15.131259 31.522322 0.478485 1.070122 0.097822 -0.014929 -388591.000000 0 0 1
-23.762708 -11.608006 14.859659 30.335154 0.454403 1.058879 0.101197 -0.020094 -467836.000000 0 0 1
-23.367008 -11.787906 13.549259 29.471244 0.467216 1.093088 0.087683 -0.018047 387063.000000 0 0 1
-22.016608 -11.040806 13.278359 27.981159 0.464828 1.076348 0.115716 -0.037090 58702.200000 0 0 1
-22.084608 -9.614806 13.370059 27.548737 0.410615 1.064063 0.131185 -0.048809 845696.000000 0 0 1
-20.781908 -8.995706 13.384859 26.305226 0.408511 1.036972 0.142144 -0.051982 1667260.000000 0 0 1
-19.832708 -9.053906 12.091259 24.930064 0.428258 1.064425 0.152233 -0.034473 89833.100000 0 1 0
-19.252008 -10.285706 11.795859 24.810842 0.490684 1.075342 0.139846 -0.036902 63550.600000 0 1 0
-18.608008 -10.087406 10.567059 23.657483 0.496758 1.107758 0.129146 -0.025015 -874827.000000 0 1 0
-17.948608 -11.282106 9.868659 23.384373 0.561168 1.135125 0.094474 -0.020379 815930.000000 0 1 0
-16.539608 -11.452806 10.062859 22.494145 0.605639 1.106991 0.106997 -0.025945 955394.000000 0 1 0
-16.065108 -11.691006 11.363559 22.888814 0.629093 1.051271 0.113595 -0.022920 -337846.000000 0 1 0
-14.557408 -12.053106 11.392159 22.067551 0.691565 1.028341 0.104256 -0.019059 210342.000000 0 1 0
-14.274408 -13.372806 10.964359 22.423377 0.752799 1.059888 0.099169 -0.028835 445614.000000 0 1 0
-12.884208 -13.663306 10.918459 21.723294 0.814737 1.044175 0.087649 -0.029110 307056.000000 0 1 0
-12.454108 -15.118506 10.775959 22.356103 0.881731 1.067844 0.090921 -0.028109 -121783.000000 0 1 0
-12.773808 -15.713906 9.572159 22.399180 0.888240 1.129243 0.084766 -0.028293 67832.200000 0 1 0
-12.452708 -17.085106 9.571859 23.207570 0.940960 1.145659 0.088963 -0.026483 116338.000000 0 1 0
-12.885708 -17.860506 8.293259 23.533324 0.945810 1.210657 0.094193 -0.020795 -172238.000000 0 1 0
-12.051808 -17.613206 7.218259 22.529412 0.970720 1.244652 0.075309 -0.027612 -230101.000000 0 1 0
-12.526808 -18.385206 6.107659 23.070333 0.972695 1.302861 0.059983 -0.028981 -328667.000000 0 1 0
-11.709408 -18.376006 4.823459 22.317115 1.003464 1.352945 0.059802 -0.020339 -446438.000000 0 1 0
-12.154808 -19.105006 3.706559 22.945135 1.004176 1.408545 0.083132 -0.028819 -92658.100000 0 1 0
-11.128308 -19.176906 2.760959 22.343140 1.044990 1.446909 0.087146 -0.029944 -75995.000000 0 1 0
-11.559708 -20.019806 1.561859 23.170216 1.047150 1.503337 0.107402 -0.035921 -207171.000000 0 1 0
-11.612908 -21.380906 1.854159 24.401654 1.073232 1.494738 0.101052 -0.039721 -203628.000000 0 1 0
-11.971708 -22.218506 0.740159 25.249389 1.076579 1.541478 0.116665 -0.040878 629608.000000 0 0 1
-10.955608 -22.210006 -0.543841 24.771062 1.112544 1.592753 0.124715 -0.040310 973312.000000 0 1 0
-10.863808 -21.175306 -1.556241 23.850321 1.096770 1.636093 0.124338 -0.056104 799355.000000 0 1 0
-12.023108 -21.112706 -2.439941 24.418330 1.053126 1.670886 0.129518 -0.048531 1090500.000000 0 1 0
-13.135708 -20.094406 -2.122741 24.100582 0.991825 1.658989 0.135216 -0.049402 228225.000000 0 1 0
-13.851708 -20.430106 -0.923141 24.700431 0.974985 1.608179 0.122416 -0.045617 293887.000000 0 1 0
-14.777608 -19.380606 -0.591441 24.378996 0.919346 1.595059 0.127049 -0.037531 502915.000000 0 1 0
27.076592 -19.511306 -4.028241 33.616359 -0.624416 1.690915 0.115357 -0.035159 -625269.000000 0 0 1
25.874392 -19.590306 -3.321041 32.623512 -0.648049 1.672772 0.105233 -0.028405 -179070.000000 0 0 1
25.798792 -20.816406 -2.646441 33.255136 -0.678919 1.650460 0.086337 -0.023969 258967.000000 0 0 1
24.429092 -21.018006 -1.923941 32.283721 -0.710482 1.630426 0.064637 -0.019769 392848.000000 0 0 1
23.379492 -21.328906 -2.815341 31.771828 -0.739565 1.659524 0.077580 -0.022935 -710693.000000 0 0 1
22.260092 -21.811606 -2.152241 31.239238 -0.775222 1.639746 0.052558 -0.017070 -584137.000000 0 0 1
21.374892 -22.616206 -3.106741 31.273481 -0.813608 1.670302 0.070049 -0.029960 -373438.000000 0 0 1
20.518092 -21.834006 -3.883741 30.212570 -0.816459 1.699700 0.084705 -0.036862 -332206.000000 0 0 1
19.770892 -22.576206 -4.826041 30.395130 -0.851547 1.730248 0.093211 -0.037520 224470.000000 0 0 1
18.715492 -21.717706 -5.578841 29.207052 -0.859513 1.762987 0.082344 -0.021220 516602.000000 0 0 1
17.559492 -21.252306 -4.840141 27.989699 -0.880259 1.744596 0.074544 -0.019830 1170550.000000 0 0 1
17.840892 -20.062706 -4.154741 27.167471 -0.843949 1.724330 0.077144 -0.027721 -424106.000000 0 0 1
16.750292 -19.628906 -3.168241 25.998154 -0.864362 1.692964 0.082924 -0.013634 -362316.000000 0 0 1
16.634892 -20.550106 -2.105341 26.522801 -0.890302 1.650258 0.103550 -0.022385 193614.000000 0 0 1
15.861792 -19.939006 -1.102241 25.502458 -0.898796 1.614031 0.112711 -0.015551 -408453.000000 0 0 1
15.655592 -20.729006 0.216459 25.977608 -0.923943 1.562464 0.114783 -0.018498 -176764.000000 0 0 1
14.781692 -21.823206 0.211459 26.358973 -0.975442 1.562774 0.123330 -0.026938 100225.000000 0 0 1
14.148292 -22.045306 1.480659 26.236655 -1.000220 1.514332 0.115071 -0.020158 505881.000000 0 0 1
13.191192 -23.252806 1.666159 26.785754 -1.054772 1.508553 0.118191 -0.027430 298378.000000 0 0 1
13.851792 -24.503306 1.731759 28.200765 -1.056280 1.509349 0.110700 -0.027903 -13128.000000 0 0 1
12.962092 -25.524256 1.373659 28.659910 -1.100901 1.522848 0.084996 -0.022871 35119.400000 0 0 1
13.228792 -26.864266 2.073659 30.016492 -1.113222 1.501657 0.089665 -0.021488 4373.140000 0 0 1
12.670692 -26.917046 3.372459 29.940730 -1.130837 1.457919 0.106355 -0.027973 104714.000000 0 0 1
13.076192 -28.059616 4.122759 31.230210 -1.134705 1.438398 0.089418 -0.023517 -25039.400000 0 0 1
12.434492 -28.169626 5.498059 31.278956 -1.155105 1.394103 0.091337 -0.024957 -375819.000000 0 0 1
12.961392 -29.302556 6.134259 32.623099 -1.154339 1.381636 0.080161 -0.024896 -143534.000000 0 0 1
12.587292 -29.466906 7.491359 32.906822 -1.167092 1.341129 0.082907 -0.028285 -91596.800000 0 0 1
13.030792 -30.835776 8.029459 34.425555 -1.170971 1.335387 0.090782 -0.027305 93641.600000 0 0 1
12.796192 -31.115906 9.390859 34.930365 -1.180636 1.298602 0.082266 -0.027072 -159095.000000 0 0 1
11.937792 -32.226926 9.535859 35.665365 -1.216039 1.300133 0.075405 -0.024819 70382.700000 0 0 1
11.671692 -32.511806 11.062859 36.271653 -1.226128 1.260858 0.075213 -0.019491 -11854.600000 0 0 1
12.801892 -33.083256 11.707359 37.355756 -1.201582 1.252023 0.065088 -0.024389 322762.000000 0 0 1
12.601492 -33.557076 13.080759 38.157322 -1.211566 1.220888 0.074202 -0.018940 -287258.000000 0 0 1
11.543392 33.084869 13.390059 37.512026 1.235100 1.205792 0.065053 -0.012737 -264203.000000 0 0 1
11.947692 31.856957 12.778059 36.344075 1.211989 1.211532 0.074028 -0.024761 383290.000000 0 0 1
10.923892 30.867514 12.756359 35.140568 1.230655 1.199301 0.054939 -0.021318 67699.500000 0 0 1
11.013892 29.929064 11.561759 33.922396 1.218177 1.222997 0.070069 -0.029405 -132317.000000 0 0 1
10.696592 30.419934 10.266659 33.840711 1.232669 1.262557 0.081373 -0.029191 -330429.000000 0 0 1
11.619792 31.341324 9.767259 34.823806 1.215757 1.286506 0.056011 -0.021382 -403617.000000 0 0 1
11.245492 31.939264 8.440359 34.897239 1.232261 1.326511 0.062998 -0.016752 264734.000000 0 0 1
9.974792 32.573818 8.554059 35.124379 1.273642 1.324786 0.057665 -0.017765 348057.000000 0 0 1
9.270892 32.754713 7.343759 34.824581 1.294971 1.358323 0.055517 -0.024466 -64311.400000 0 0 1
9.672292 -33.671166 6.548259 35.639590 -1.291071 1.386011 0.059201 -0.011102 -291947.000000 0 0 1
9.196892 -32.512096 7.158459 34.537845 -1.295123 1.362019 0.060125 -0.011394 44653.500000 0 0 1
9.461992 -31.392826 6.378459 33.402449 -1.278050 1.378658 0.070473 -0.024193 113804.000000 0 0 1
8.623192 -30.195196 6.898559 32.151197 -1.292619 1.354549 0.064982 -0.019087 -22252.400000 0 0 1
9.186792 -29.665736 8.062659 32.085192 -1.270486 1.316784 0.078028 -0.018147 -253750.000000 0 0 1
8.652192 -28.469146 8.557159 30.960906 -1.275752 1.290765 0.102670 -0.013584 -336731.000000 0 0 1
9.339592 -27.214546 7.975059 29.857345 -1.240207 1.300408 0.113067 -0.024032 -190451.000000 0 0 1
10.440292 -26.786346 8.755259 30.052664 -1.199147 1.275179 0.112154 -0.022503 -81705.700000 0 0 1
11.229392 -25.761376 8.175659 29.267544 -1.159729 1.287687 0.093142 -0.033335 -365109.000000 0 0 1
10.576492 -24.518206 7.517659 27.740220 -1.163540 1.296362 0.133611 -0.039054 -607867.000000 0 0 1
10.115392 -25.019066 6.299759 27.712124 -1.186582 1.341463 0.132659 -0.031888 -543906.000000 0 0 1
9.075092 -24.229606 5.791759 26.513687 -1.212424 1.350577 0.127042 -0.029822 239999.000000 0 0 1
8.497892 -24.548806 4.381359 26.344912 -1.237544 1.403712 0.120412 -0.027859 243907.000000 0 0 1
7.745492 -25.733136 4.207059 27.200851 -1.278429 1.415507 0.100808 -0.025515 -223628.000000 0 0 1
8.427492 -26.949136 4.246659 28.553681 -1.267712 1.421517 0.104042 -0.021941 144438.000000 0 0 1
7.435992 -28.023646 3.728059 29.232125 -1.311426 1.442915 0.095147 -0.022647 460846.000000 0 0 1
6.519492 -28.500186 4.688559 29.609914 -1.345913 1.411783 0.086520 -0.015289 269343.000000 0 0 1
5.461692 -29.300616 4.116659 30.088255 -1.386509 1.433546 0.061667 -0.015406 743123.000000 0 0 1
5.691792 -30.848096 4.128459 31.639307 -1.388338 1.439938 0.049897 -0.009735 558239.000000 0 0 1
6.815292 -31.300446 3.349259 32.208441 -1.356405 1.466621 0.053147 -0.009445 437311.000000 0 0 1
7.010992 -32.658646 3.670759 33.603804 -1.359331 1.461342 0.054172 -0.014387 -149639.000000 0 0 1
7.996292 -33.377936 2.717359 34.429803 -1.335660 1.491790 0.059226 -0.015476 -204741.000000 0 0 1
7.735592 -33.497936 1.342559 34.405720 -1.343847 1.531765 0.066801 -0.018637 98033.200000 0 0 1
8.622492 33.228733 0.691959 34.336203 1.316907 1.550643 0.057259 -0.017061 220165.000000 0 0 1
7.972692 32.590228 -0.569241 33.556084 1.330874 1.587761 0.077573 -0.017587 82771.900000 0 0 1
6.894792 31.766013 -0.306541 32.507102 1.357062 1.580226 0.066082 -0.017179 -636694.000000 0 0 1
5.627592 32.379520 -0.206541 32.865571 1.398714 1.577081 0.073204 -0.029668 -119122.000000 0 0 1
4.426592 31.420954 -0.044141 31.731262 1.430837 1.572187 0.071262 -0.030714 60967.800000 0 0 1
4.077192 30.703464 -1.260941 30.998648 1.438776 1.611485 0.084512 -0.030484 12436.200000 0 0 1
3.191292 29.654284 -0.959841 29.840948 1.463592 1.602967 0.086559 -0.040507 -143925.000000 0 0 1
3.224392 28.691334 -2.121241 28.949767 1.458884 1.644135 0.092908 -0.036477 -235024.000000 0 0 1
2.625392 29.217554 -3.249341 29.514680 1.481180 1.681112 0.105278 -0.044229 -223890.000000 0 0 1
2.548792 28.329514 -4.331841 28.771905 1.481068 1.721929 0.109394 -0.047522 78559.900000 0 0 1
1.872492 29.008744 -5.562841 29.596599 1.506337 1.759876 0.129416 -0.049561 340493.000000 0 0 1
0.450192 29.051654 -5.560141 29.582367 1.555301 1.759876 0.121287 -0.051047 119695.000000 0 0 1
0.028892 30.057014 -6.403941 30.731667 1.569835 1.780717 0.110715 -0.040860 -340187.000000 0 0 1
-0.082308 29.770884 -7.924941 30.807742 -1.568032 1.830960 0.096225 -0.034826 -1155380.000000 0 0 1
-1.235008 29.051834 -8.238041 30.222502 -1.528311 1.846870 0.071043 -0.029239 -273224.000000 0 0 1
-1.447708 28.760984 -9.621741 30.362278 -1.520503 1.893253 0.079750 -0.026402 -118055.000000 0 0 1
-1.510408 29.996104 -10.586041 31.845123 -1.520485 1.909668 0.054079 -0.021137 -533752.000000 0 0 1
-0.264708 30.621494 -10.748241 32.454131 -1.562152 1.908353 0.067326 -0.026632 -124739.000000 0 0 1
-0.415408 31.933181 -11.262141 33.863497 -1.557788 1.909829 0.051011 -0.021849 117951.000000 0 0 1
-0.586208 33.069587 -10.263541 34.630644 -1.553072 1.871688 0.053307 -0.024189 219300.000000 0 0 1
0.597992 33.149235 -9.496541 34.487877 1.552759 1.849759 0.064248 -0.034734 87151.800000 0 0 1
0.404392 -33.534116 -8.517541 34.601286 -1.558738 1.819515 0.084604 -0.032834 814930.000000 0 0 1
1.538092 -33.318706 -7.412241 34.167869 -1.524666 1.789471 0.109546 -0.034990 964983.000000 0 0 1
2.663492 -32.582276 -7.847641 33.619703 -1.489231 1.806394 0.103270 -0.026653 171384.000000 0 0 1
3.608192 -32.387126 -6.780141 33.285362 -1.459846 1.775929 0.110868 -0.034351 -441286.000000 0 0 1
4.870192 -31.698096 -7.306641 32.891870 -1.418345 1.794806 0.088477 -0.029452 -278163.000000 0 0 1
5.687292 -32.459706 -8.189741 33.956585 -1.397346 1.814381 0.101986 -0.019981 102294.000000 0 0 1
6.659592 -33.184586 -7.462641 34.659168 -1.372744 1.787811 0.119063 -0.019151 -933550.000000 0 0 1
6.882392 33.055421 -7.971041 34.692444 1.365521 1.802631 0.118695 -0.021053 -103105.000000 0 0 1
5.718892 32.287025 -8.145041 33.786083 1.395488 1.814272 0.119760 -0.025652 -250098.000000 0 0 1
4.912492 32.618009 -9.264141 34.262098 1.421313 1.844595 0.128770 -0.030771 522873.000000 0 0 1
3.924792 31.441434 -9.661141 33.125600 1.446610 1.866750 0.113934 -0.039008 526479.000000 0 0 1
4.584292 30.364804 -10.280741 32.384112 1.420954 1.893849 0.097499 -0.028723 -239576.000000 0 0 1
3.778992 29.256144 -10.455841 31.297402 1.442338 1.911425 0.078005 -0.032355 -126902.000000 0 0 1
4.509292 28.240144 -11.359141 30.771245 1.412456 1.948888 0.077954 -0.026505 72507.600000 0 0 1
4.519592 28.707394 -12.707941 31.718022 1.414642 1.983026 0.075432 -0.020962 42337.000000 0 0 1
5.602792 28.183794 -13.434341 31.720640 1.374560 2.008124 0.080890 -0.026055 -46437.600000 0 0 1
5.700992 28.757784 -14.866641 32.871393 1.375092 2.040102 0.079578 -0.017344 -461636.000000 0 0 1
4.671192 28.239184 -15.641941 32.618122 1.406865 2.070935 0.079591 -0.020680 -331723.000000 0 0 1
4.518692 28.766724 -16.953341 33.695085 1.414989 2.098025 0.104617 -0.023661 -56334.300000 0 0 1
3.314892 28.208934 -17.731841 33.483588 1.453821 2.128888 0.095852 -0.027131 -77329.900000 0 0 1
3.563792 26.957654 -18.330141 32.793441 1.439359 2.163924 0.115026 -0.020355 -117739.000000 0 0 1
2.567592 26.611934 -19.251841 32.945727 1.474611 2.194875 0.117897 -0.032583 75811.400000 0 0 1
3.111992 25.436754 -20.111041 32.575557 1.449059 2.236186 0.135344 -0.032175 360697.000000 0 0 1
3.351192 24.277254 -19.314641 31.203700 1.433625 2.238247 0.130537 -0.039245 9568.270000 0 0 1
4.135392 23.329424 -20.011541 31.013308 1.395358 2.272155 0.139994 -0.030214 226446.000000 0 0 1
4.590992 22.134884 -19.156841 29.631315 1.366286 2.273793 0.139137 -0.032928 964041.000000 0 0 1
3.554592 21.172484 -18.906941 28.607370 1.404460 2.292829 0.141263 -0.030126 467813.000000 0 0 1
4.237192 20.087584 -18.337141 27.526634 1.362908 2.299844 0.136010 -0.023073 -1241.710000 0 0 1
3.357492 18.923984 -17.953541 26.300562 1.395204 2.322151 0.121074 -0.028217 -661351.000000 0 0 1
2.436792 19.238084 -16.954541 25.758461 1.444802 2.289238 0.123387 -0.024742 -194904.000000 0 0 1
1.744092 18.056984 -16.465141 24.498926 1.474507 2.307805 0.085154 -0.017312 730568.000000 0 1 0
2.578392 17.142484 -15.446341 23.218577 1.421506 2.298635 0.058552 -0.010460 1104590.000000 0 1 0
3.607892 16.249184 -15.967941 23.065732 1.352306 2.335440 0.077862 -0.025472 71913.600000 0 1 0
3.247392 15.169484 -16.772241 22.846594 1.359905 2.395173 0.084357 -0.033602 -388920.000000 0 1 0
3.161492 15.327084 -18.280941 24.064649 1.367381 2.433586 0.089761 -0.034000 -7354.860000 0 1 0
4.468992 15.464284 -18.799841 24.749747 1.289473 2.433490 0.112178 -0.042135 -275347.000000 0 1 0
4.498892 15.981584 -20.133241 26.095947 1.296393 2.452005 0.119227 -0.038842 -379995.000000 0 0 1
4.783392 14.986884 -21.248441 26.438301 1.261845 2.504282 0.116518 -0.050152 321514.000000 0 0 1
3.774092 14.028684 -21.578441 26.013013 1.307992 2.549053 0.101887 -0.044522 339923.000000 0 0 1
2.651192 14.572984 -22.277641 26.752457 1.390839 2.554821 0.104586 -0.045319 681127.000000 0 0 1
1.685092 13.420384 -22.759041 26.474897 1.445888 2.605373 0.106475 -0.033801 252614.000000 0 0 1
1.185192 12.611284 -21.731241 25.153449 1.477093 2.613851 0.096151 -0.024583 132953.000000 0 0 1
0.277192 11.697884 -22.354841 25.232048 1.547105 2.659378 0.068686 -0.015726 194366.000000 0 0 1
-0.452208 10.759584 -21.343941 23.906839 -1.528793 2.674312 0.040887 -0.007564 -148204.000000 0 1 0
-1.590008 11.360284 -20.747641 23.707568 -1.431738 2.636539 0.044317 -0.004328 192559.000000 0 1 0
-2.126008 10.596784 -19.641741 22.418959 -1.372797 2.638554 0.034184 0.001434 -29105.900000 0 1 0
-3.148808 9.510984 -19.917841 22.295610 -1.251083 2.675548 0.038119 -0.003018 -596051.000000 0 1 0
-2.622508 8.308184 -20.470541 22.247394 -1.265041 2.739214 0.036942 -0.008074 41410.300000 0 1 0
-3.636908 7.341884 -20.768741 22.326463 -1.110864 2.765835 0.043662 -0.001716 379993.000000 0 1 0
-3.108908 6.077084 -21.592641 22.645936 -1.097928 2.835401 0.050927 -0.009071 639764.000000 0 1 0
-2.085408 5.307584 -20.923141 21.686337 -1.196416 2.875507 0.046158 -0.001400 705837.000000 0 1 0
-1.914308 4.109684 -21.644541 22.114254 -1.134878 2.935118 0.068124 -0.004723 162288.000000 0 1 0
-0.991208 3.049884 -20.946441 21.190509 -1.256566 2.989672 0.060748 -0.003052 -1070400.000000 0 1 0
0.350892 3.261984 -21.008041 21.262678 1.463638 2.986675 0.059403 -0.000675 -1516630.000000 0 1 0
1.082392 2.340484 -20.216941 20.380730 1.137625 3.014729 0.056483 0.002474 -391621.000000 0 1 0
2.584492 2.605584 -20.210341 20.540851 0.789462 2.961961 0.039031 -0.006154 -452686.000000 0 1 0
3.190392 2.218784 -21.416941 21.766648 0.607671 2.962097 0.059437 -0.003904 -783536.000000 0 1 0
4.542692 1.964984 -21.186941 21.757382 0.408256 2.912099 0.076766 -0.014371 -155055.000000 0 1 0
5.284592 1.374284 -22.471941 23.125823 0.254419 2.903226 0.082180 -0.009282 1418020.000000 0 1 0
6.664792 1.034384 -22.184341 23.186944 0.153973 2.846448 0.082917 -0.023346 1205900.000000 0 1 0
7.358492 0.673084 -23.389441 24.528889 0.091217 2.835594 0.083423 -0.022249 189653.000000 0 1 0
8.890492 0.545384 -23.252741 24.900367 0.061268 2.775774 0.082175 -0.031128 64829.800000 0 1 0
9.480792 1.780684 -22.911241 24.859228 0.185657 2.743080 0.077610 -0.043992 162897.000000 0 1 0
10.865892 1.764684 -23.227141 25.703731 0.161000 2.699010 0.086971 -0.035772 138230.000000 0 0 1
13.029092 -20.373806 22.542999 33.061095 -1.001836 0.820496 0.094471 -0.009431 -149067.000000 0 0 1
12.414592 -21.561706 22.041459 33.239362 -1.048383 0.845826 0.086537 -0.001874 -648762.000000 0 0 1
11.341192 -21.421606 21.195559 32.198751 -1.083885 0.852274 0.088226 0.008183 -730946.000000 0 0 1
11.582592 -20.831406 19.750259 30.954429 -1.063346 0.878842 0.120813 -0.027980 -186530.000000 0 0 1
12.086892 -19.521106 19.637259 30.212390 -1.016400 0.863246 0.131487 -0.030577 121872.000000 0 0 1
12.033692 -19.198006 18.234359 29.083759 -1.010889 0.893151 0.138470 -0.033106 20120.400000 0 0 1
12.071292 -17.701106 17.940859 27.944940 -0.972287 0.873683 0.157575 -0.043033 18163.500000 0 0 1
10.830392 -17.132106 18.275159 27.290802 -1.007058 0.837065 0.179412 -0.044151 -294337.000000 0 0 1
10.844292 -15.790506 17.879359 26.203249 -0.969012 0.819846 0.191906 -0.041460 -36425.300000 0 0 1
9.634292 -14.963306 18.299359 25.526196 -0.998749 0.771472 0.148013 -0.035980 -433677.000000 0 0 1
8.389492 -15.314706 17.757459 24.904842 -1.069639 0.777011 0.114942 -0.030806 -394198.000000 0 1 0
7.435792 -14.429506 18.344859 24.495622 -1.094969 0.724390 0.085507 -0.025441 1037470.000000 0 1 0
5.938392 -14.845106 18.064059 24.123679 -1.190270 0.724531 0.030057 -0.016032 556377.000000 0 1 0
5.659392 -14.726206 16.677659 22.957225 -1.203891 0.757630 0.021486 -0.021763 -549748.000000 0 1 0
4.346092 -15.064206 16.347659 22.650933 -1.289919 0.764511 0.002023 -0.016138 -455386.000000 0 1 0
3.722392 -16.440906 16.556059 23.627583 -1.348140 0.794406 -0.005953 -0.003764 -968789.000000 0 1 0
2.433492 -16.492606 16.036359 23.132072 -1.424303 0.804804 0.000913 -0.004203 -1082510.000000 0 1 0
1.913992 -17.773406 16.138059 24.083071 -1.463521 0.836453 0.021684 -0.010921 668685.000000 0 1 0
0.396792 -17.771006 15.760659 23.756357 -1.548472 0.845404 0.034324 -0.003346 342847.000000 0 1 0
0.237292 -17.441406 14.346859 22.585202 -1.557192 0.882487 0.035335 -0.010151 -605174.000000 0 1 0
-1.128008 -17.445406 14.060659 22.434722 1.506227 0.893438 0.042259 -0.013074 -519791.000000 0 1 0
-1.550908 -18.683806 13.227759 22.944794 1.487978 0.956353 0.036881 0.001420 -449537.000000 0 1 0
-2.932708 -18.925306 13.263259 23.295537 1.417057 0.965084 0.039813 -0.006001 -301000.000000 0 1 0
-3.269508 -20.092406 12.526959 23.902284 1.409487 1.019150 0.054535 -0.015702 346224.000000 0 1 0
-4.795608 -20.337006 12.402359 24.298358 1.339220 1.035124 0.052473 -0.017123 367304.000000 0 1 0
-5.349408 -20.791406 13.627659 25.428564 1.318969 1.005200 0.056924 -0.025797 -499806.000000 0 0 1
-6.725108 -20.982306 13.425059 25.801482 1.260628 1.023569 0.064968 -0.023738 -487052.000000 0 0 1
-7.454108 -21.598006 14.607959 27.118814 1.238467 1.001944 0.067805 -0.026784 -891002.000000 0 0 1
-8.823308 -21.598706 14.420559 27.428223 1.182975 1.017192 0.066573 -0.024183 -1302120.000000 0 0 1
-9.466508 -22.425306 15.344059 28.774108 1.171355 1.008348 0.069602 -0.021345 1828550.000000 0 0 1
-11.034108 -22.140606 15.529559 29.208307 1.108457 1.010210 0.092713 -0.026436 1814830.000000 0 0 1
-11.199308 -20.902406 16.136859 28.683328 1.078928 0.973285 0.088218 -0.025207 -810762.000000 0 0 1
-12.408608 -20.292706 15.828259 28.570987 1.021978 0.983638 0.101811 -0.024897 -521000.000000 0 0 1
-12.662108 -19.096206 16.723459 28.366674 0.985288 0.940300 0.106322 -0.027195 -312962.000000 0 0 1
-12.934508 -19.439006 18.054759 29.515264 0.983679 0.912577 0.100860 -0.032566 -115763.000000 0 0 1
-13.379608 -18.368906 18.831059 29.513377 0.941274 0.878831 0.110545 -0.032386 -127712.000000 0 0 1
-13.959108 -18.717006 20.224759 30.890515 0.929990 0.856979 0.095267 -0.035106 -278305.000000 0 0 1
-15.185208 -19.379606 20.040459 31.745546 0.906157 0.887588 0.086535 -0.022074 -326005.000000 0 0 1
-15.665608 -19.892806 21.254359 33.058778 0.903723 0.872484 0.092122 -0.015143 99159.100000 0 0 1
-17.134008 -20.361806 21.097659 33.960103 0.871271 0.900462 0.109877 -0.023697 -619919.000000 0 0 1
-17.353108 -21.457606 20.184659 34.190345 0.890763 0.939290 0.129251 -0.027925 -126401.000000 0 0 1
-18.705108 -21.642806 19.869459 34.829407 0.858079 0.963707 0.107601 -0.021344 276956.000000 0 0 1
-19.677008 -22.177606 20.991659 36.327409 0.845072 0.954709 0.108039 -0.022542 -133316.000000 0 0 1
-20.106108 -21.270206 22.031059 36.633930 0.813525 0.925564 0.115229 -0.018891 -427673.000000 0 0 1
-20.887608 -21.936606 22.942309 37.998111 0.809889 0.922568 0.092163 -0.021383 -568796.000000 0 0 1
-21.547308 -20.815306 23.755199 38.234447 0.768120 0.900391 0.087179 -0.005726 42661.300000 0 0 1
-22.417508 -19.977406 22.975999 37.809232 0.727905 0.917657 0.082269 0.004181 352233.000000 0 0 1
-22.874908 -18.899906 23.772309 38.020923 0.690531 0.895354 0.084408 -0.005284 427002.000000 0 0 1
-23.906808 -17.956306 23.073899 37.767304 0.644202 0.913537 0.086537 -0.003482 248951.000000 0 0 1
-23.281108 -17.233606 22.048559 36.402557 0.637225 0.920167 0.095613 0.001408 -326029.000000 0 0 1
-24.167808 -16.386406 21.385559 36.193085 0.595826 0.938654 0.093272 -0.004191 -252863.000000 0 0 1
-23.595308 -15.810206 20.025259 34.752154 0.590346 0.956687 0.093954 0.003045 279885.000000 0 0 1
-22.483308 -14.950806 20.056559 33.634675 0.586830 0.931905 0.108474 0.002752 -237352.000000 0 0 1
-21.963008 -14.768306 18.757659 32.439581 0.591973 0.954234 0.103078 0.002032 560304.000000 0 0 1
-20.925208 -13.601006 18.551759 31.096937 0.576362 0.931565 0.094040 -0.004607 529954.000000 0 0 1
-20.411108 -13.769206 17.254359 30.065217 0.593471 0.959539 0.095460 -0.009137 125324.000000 0 0 1
-19.561308 -12.666006 16.891859 28.782068 0.574618 0.943586 0.101117 -0.021773 -65679.900000 0 0 1
-18.894508 -12.748106 15.494459 27.560750 0.593543 0.973761 0.094705 -0.029331 212762.000000 0 0 1
-18.358208 -11.575606 14.877359 26.312626 0.562574 0.969869 0.090353 -0.035216 -6066.770000 0 0 1
-17.204608 -11.068006 15.495859 25.663612 0.571662 0.922528 0.112971 -0.051459 -633327.000000 0 0 1
-16.783508 -9.759806 14.836859 24.435064 0.526714 0.918270 0.113024 -0.059353 -23116.300000 0 1 0
-17.515508 -8.635006 15.260659 24.783948 0.458026 0.907462 0.130357 -0.054245 156462.000000 0 1 0
-17.086908 -7.582606 14.470159 23.639879 0.417659 0.912073 0.130127 -0.051330 -759416.000000 0 1 0
-17.230908 -6.246606 15.274159 23.858421 0.347788 0.876038 0.131864 -0.047464 457354.000000 0 1 0
-16.395008 -6.079006 16.438759 23.999655 0.355069 0.816250 0.116718 -0.038636 -411522.000000 0 1 0
-15.050808 -6.033606 16.073459 22.831718 0.381267 0.789787 0.121304 -0.041224 -1354590.000000 0 1 0
-14.074108 -6.085306 17.280559 23.102580 0.408102 0.725764 0.100211 -0.039209 73523.900000 0 1 0
-14.064508 -7.237006 18.114059 24.047948 0.475226 0.717811 0.084150 -0.038917 -114723.000000 0 1 0
-13.636008 -8.436206 17.429159 23.683030 0.554035 0.743750 0.105772 -0.041881 -540497.000000 0 1 0
-13.921408 -9.649506 18.400459 25.009908 0.606108 0.744057 0.102493 -0.036650 722622.000000 0 0 1
-15.274308 -10.092706 18.482359 26.014704 0.583905 0.780647 0.106801 -0.038374 279589.000000 0 0 1
-16.044408 -9.257006 19.351659 26.788093 0.523307 0.763533 0.083848 -0.035566 395944.000000 0 0 1
-17.474508 -9.855206 19.759959 28.159182 0.513510 0.792983 0.079157 -0.026246 1680370.000000 0 0 1
-18.491208 -9.765206 18.782359 28.108025 0.485874 0.838982 0.085383 -0.025593 275114.000000 0 0 1
-18.927208 -8.431306 18.375359 27.694403 0.419072 0.845303 0.089277 -0.026929 -539023.000000 0 0 1
-20.002608 -8.481806 17.249859 27.741720 0.401053 0.899755 0.116849 -0.034797 762196.000000 0 0 1
-21.285408 -8.640106 17.882659 29.112017 0.385597 0.909335 0.119857 -0.030596 313122.000000 0 0 1
-22.296508 -8.780706 16.921359 29.335431 0.375163 0.955962 0.134662 -0.037193 -95859.300000 0 0 1
-23.760608 -8.965306 17.334859 30.748017 0.360801 0.971851 0.139409 -0.026562 -151542.000000 0 0 1
-24.359008 -7.932206 18.042959 31.334160 0.314808 0.957185 0.145868 -0.024303 -211833.000000 0 0 1
-25.710068 -8.138506 18.308459 32.595131 0.306570 0.974366 0.149216 -0.017072 -359494.000000 0 0 1
-26.476258 -7.026306 19.075759 33.380321 0.259402 0.962504 0.146760 -0.019070 126372.000000 0 0 1
-26.189228 -7.019006 20.454859 33.963854 0.261857 0.924475 0.159027 -0.023853 379577.000000 0 0 1
-27.018568 -6.042406 21.079359 34.797314 0.220019 0.920056 0.145881 -0.023186 -270829.000000 0 0 1
-27.090568 -5.887506 22.620469 35.780543 0.213999 0.886407 0.139442 -0.024736 621989.000000 0 0 1
-25.907998 -5.573306 23.363359 35.328921 0.211890 0.848233 0.139753 -0.030533 1738780.000000 0 0 1
-24.804208 -6.549806 23.413039 34.732105 0.258167 0.831046 0.148590 -0.028503 938601.000000 0 0 1
-23.811208 -6.413106 24.561769 34.804915 0.263089 0.787388 0.147136 -0.022080 91374.900000 0 0 1
-23.047508 -5.208906 24.504629 34.041110 0.222273 0.767204 0.131891 -0.022370 -293107.000000 0 0 1
-22.191208 -5.103806 25.579999 34.246678 0.226061 0.727358 0.129155 -0.031851 -132772.000000 0 0 1
-21.384908 -3.772806 25.533259 33.518587 0.174627 0.704764 0.116138 -0.031106 178461.000000 0 0 1
-20.681108 -3.289806 26.693769 33.927693 0.157751 0.665215 0.115377 -0.030531 -21190.400000 0 0 1
-21.374908 -3.103006 27.934599 35.310865 0.144163 0.658183 0.101546 -0.029810 174813.000000 0 0 1
-22.175708 -1.727106 28.029999 35.783038 0.077726 0.670788 0.105618 -0.037014 1097930.000000 0 0 1
-23.384508 -1.797506 27.249589 35.952835 0.076717 0.710668 0.116481 -0.038208 299724.000000 0 0 1
-24.275908 -0.773806 27.722099 36.856930 0.031865 0.719471 0.102341 -0.038840 117927.000000 0 0 1
-25.629218 -0.735406 27.015569 37.245653 0.028686 0.759276 0.107291 -0.037798 -1169330.000000 0 0 1
-25.616168 -0.111206 25.763309 36.331096 0.004341 0.782539 0.116577 -0.037302 322991.000000 0 0 1
-26.902218 0.357394 25.377859 36.985035 -0.013284 0.814592 0.102576 -0.031417 356183.000000 0 0 1
-27.967908 -0.714606 25.003129 37.521607 0.025545 0.841472 0.101456 -0.022964 -755186.000000 0 0 1
-28.496858 -1.383806 26.082369 38.655864 0.048522 0.830194 0.085646 -0.021519 -121759.000000 0 0 1
-29.119888 -2.638806 25.775179 38.978084 0.090372 0.848281 0.077785 -0.023331 72576.300000 0 0 1
-28.141738 -3.827106 25.751389 38.337165 0.135165 0.834284 0.097484 -0.027244 -7658.260000 0 0 1
-27.707128 -4.169006 27.049509 38.945366 0.149347 0.803002 0.092360 -0.023766 -221969.000000 0 0 1
-27.033818 -5.415706 26.970659 38.569077 0.197714 0.796404 0.101433 -0.028274 -283100.000000 0 0 1
-26.442218 -5.802806 28.312529 39.172220 0.216028 0.762993 0.077664 -0.022271 -347696.000000 0 0 1
-27.444078 -6.252906 29.194849 40.553859 0.224018 0.767134 0.096417 -0.019641 97756.800000 0 0 1
-26.976028 -6.806706 30.391389 41.202838 0.247165 0.741281 0.089990 -0.014266 -636883.000000 0 0 1
-28.108108 -7.386406 31.210239 42.646263 0.256976 0.749778 0.078057 -0.016059 -67439.700000 0 0 1
-28.933838 -8.330706 30.522559 42.874168 0.280340 0.778582 0.071930 -0.017649 286368.000000 0 0 1
-30.087168 -8.753506 31.212329 44.227492 0.283123 0.787354 0.088900 -0.013430 -55032.400000 0 0 1
-31.098338 -9.314006 30.193489 44.334007 0.291000 0.821606 0.062747 -0.016699 -596077.000000 0 0 1
-30.764808 -10.637906 29.842029 44.160901 0.332912 0.828805 0.064576 -0.020544 128148.000000 0 0 1
-31.716328 -11.177606 28.963009 44.381531 0.338833 0.859797 0.047735 -0.016929 -200656.000000 0 0 1
-31.232598 -12.397906 28.182649 43.857097 0.377878 0.872907 0.052286 -0.011269 -390755.000000 0 0 1
-30.310608 -12.016806 27.204519 42.464367 0.377447 0.875460 0.067971 -0.013502 -92470.000000 0 0 1
-29.523998 -13.198906 26.840669 42.027362 0.420404 0.878057 0.079389 -0.013814 -206926.000000 0 0 1
-28.292678 -12.665306 26.104739 40.525832 0.420901 0.870884 0.104988 -0.017801 -392837.000000 0 0 1
-27.273648 -12.048706 26.900509 40.157946 0.415990 0.836766 0.091866 -0.027501 335918.000000 0 0 1
-27.501558 -10.745706 27.510879 40.356590 0.372490 0.820720 0.096669 -0.034311 -835083.000000 0 0 1
-27.723678 -9.506306 26.581689 39.567138 0.330331 0.834144 0.110792 -0.030330 122792.000000 0 0 1
-26.613298 -8.961406 25.883329 38.190590 0.324801 0.826110 0.111337 -0.030678 180759.000000 0 0 1
-26.018018 -9.751506 24.845939 37.273984 0.358594 0.841190 0.103368 -0.027468 214355.000000 0 0 1
-26.741438 -9.782906 23.417409 36.867124 0.350710 0.882550 0.122282 -0.018797 -1017400.000000 0 0 1
-27.987218 -10.335806 23.485599 37.969549 0.353768 0.903916 0.112894 -0.013574 -1422410.000000 0 0 1
-28.695378 -10.113306 22.286259 37.714467 0.338844 0.938597 0.142937 -0.007857 -233789.000000 0 0 1
-29.944748 -10.990606 22.193859 38.859346 0.351765 0.962911 0.129828 -0.016393 665399.000000 0 0 1
-31.121398 -10.658306 22.981619 40.128491 0.329956 0.961000 0.113222 -0.013866 704148.000000 0 0 1
-31.061588 -10.676106 24.411599 40.923437 0.331058 0.931640 0.117220 -0.014521 -8016.780000 0 0 1
-32.467448 -10.451006 25.068369 42.329445 0.311418 0.936984 0.062465 -0.011062 368477.000000 0 0 1
-32.917858 -9.130606 24.957009 42.306095 0.270573 0.939842 0.062826 -0.018528 -375650.000000 0 0 1
-34.281844 -8.887606 25.184729 43.456933 0.253666 0.952641 0.060937 -0.007264 121000.000000 0 0 1
-34.888629 -9.032906 26.620139 44.804483 0.253344 0.934600 0.035866 -0.003285 -322659.000000 0 0 1
-35.170469 -10.357406 27.040639 45.556931 0.286396 0.935325 0.038658 -0.010980 -83747.400000 0 0 1
-35.729652 -10.371206 28.285439 46.735811 0.282505 0.920754 0.052277 -0.011647 -850187.000000 0 0 1
-36.170808 -11.805706 28.710249 47.665297 0.315487 0.924379 0.069571 -0.006598 -813403.000000 0 0 1
-37.313548 -12.312906 28.175189 48.350283 0.318734 0.948712 0.061992 -0.013742 -1021900.000000 0 0 1
37.103410 -11.883606 28.708939 48.395106 -0.309960 0.935744 0.072306 -0.010245 204605.000000 0 0 1
35.847930 -12.348506 27.878949 47.061614 -0.331739 0.936771 0.085582 -0.021317 575947.000000 0 0 1
35.599790 -11.737706 26.629409 45.980911 -0.318489 0.953122 0.082837 -0.012010 -663472.000000 0 0 1
34.409080 -12.242706 26.131339 44.907856 -0.341831 0.949748 0.090797 -0.009184 -522744.000000 0 0 1
34.127690 -11.813406 24.709879 43.758815 -0.333244 0.970747 0.083612 -0.008585 -50111.100000 0 0 1
33.842400 -10.424606 24.586689 43.110158 -0.298811 0.963898 0.088586 -0.019615 52744.900000 0 0 1
34.080160 -9.990206 23.333219 42.493536 -0.285150 0.989509 0.076790 -0.017248 -348385.000000 0 0 1
33.613720 -8.567806 23.067009 41.657849 -0.249576 0.983965 0.087641 -0.008733 -487884.000000 0 0 1
32.243410 -8.381806 23.251199 40.626474 -0.254325 0.961468 0.094030 -0.018726 -813039.000000 0 0 1
31.959050 -7.057306 22.831579 39.905732 -0.217336 0.961686 0.098679 -0.013685 -534094.000000 0 0 1
30.477640 -6.798506 22.628319 38.563545 -0.219472 0.943720 0.083631 -0.005811 -576954.000000 0 0 1
29.970640 -7.247706 21.405059 37.535917 -0.237272 0.963980 0.086766 -0.010928 507471.000000 0 0 1
28.623740 -7.723506 21.477759 36.609632 -0.263552 0.943856 0.081712 -0.022845 275871.000000 0 0 1
15.846192 -17.008806 25.137719 34.238957 -0.820770 0.746331 0.127061 -0.011237 52897.800000 0 0 1
15.276192 -18.298506 24.912479 34.479399 -0.875174 0.763338 0.130549 -0.005372 200595.000000 0 0 1
16.135792 -19.336706 25.283829 35.686748 -0.875391 0.783435 0.116808 -0.008456 -857837.000000 0 0 1
15.419492 -20.784806 25.132319 36.074955 -0.932523 0.800052 0.101343 -0.016923 84241.200000 0 0 1
14.664092 -21.091206 26.257859 36.733496 -0.963252 0.774429 0.096912 -0.018502 1553500.000000 0 0 1
13.410592 -20.315906 26.381789 35.896780 -0.987352 0.745226 0.101486 -0.013554 828944.000000 0 0 1
12.552892 -20.660206 27.624009 36.708379 -1.024816 0.718907 0.098215 -0.012997 352945.000000 0 0 1
13.134292 -20.138306 28.854259 37.558345 -0.992873 0.694691 0.096634 -0.014184 807251.000000 0 0 1
12.248392 -19.235106 29.570899 37.342342 -1.003776 0.656904 0.092133 -0.017617 620318.000000 0 0 1
12.121992 -17.829206 28.971449 36.113268 -0.973691 0.639761 0.102362 -0.012810 703086.000000 0 0 1
13.237492 -16.978106 29.271329 36.335905 -0.908569 0.634150 0.091160 -0.007100 104282.000000 0 0 1
13.025392 -15.695406 28.816379 35.304253 -0.878096 0.615942 0.103504 -0.008890 629925.000000 0 0 1
14.208192 -14.668206 29.033719 35.496279 -0.801327 0.612980 0.097883 -0.010157 686387.000000 0 0 1
13.873992 -13.376906 28.536429 34.434823 -0.767159 0.594000 0.134648 -0.019326 -283697.000000 0 0 1
14.735692 -12.440906 29.083569 34.896572 -0.701158 0.585525 0.126030 -0.017594 -373759.000000 0 0 1
14.244792 -10.987206 28.958069 34.091092 -0.657003 0.555888 0.120548 -0.018824 -91794.800000 0 0 1
14.221492 -10.336806 27.693589 32.802976 -0.628516 0.565651 0.158093 -0.026360 277992.000000 0 0 1
15.474592 -10.221606 27.027979 32.778894 -0.583750 0.601382 0.145305 -0.029331 -11790.900000 0 0 1
15.715792 -8.896106 26.250639 31.862562 -0.515091 0.602589 0.136262 -0.021536 -3972.020000 0 0 1
16.142492 -7.702806 26.987379 32.376409 -0.445222 0.585292 0.130571 -0.029270 544950.000000 0 0 1
17.501892 -7.774806 27.427169 33.451658 -0.418042 0.609552 0.125926 -0.033500 -158955.000000 0 0 1
17.943092 -6.348506 27.618789 33.541848 -0.340068 0.603397 0.111582 -0.036238 83621.800000 0 0 1
19.356292 -6.203006 27.662199 34.326966 -0.310124 0.633696 0.101113 -0.043602 340393.000000 0 0 1
19.801192 -4.950806 27.124369 33.945973 -0.245003 0.645091 0.099896 -0.043550 -1490660.000000 0 0 1
21.256492 -4.838606 26.892479 34.618723 -0.223816 0.681198 0.103211 -0.041752 -2285510.000000 0 0 1
21.779992 -5.674806 25.863209 34.285231 -0.254884 0.716126 0.109966 -0.038833 1675920.000000 0 0 1
23.176492 -5.501406 25.453689 34.861232 -0.233057 0.752265 0.105483 -0.034792 1968070.000000 0 0 1
24.205392 -5.849306 26.581709 36.423929 -0.237107 0.752786 0.094833 -0.038615 -687251.000000 0 0 1
24.614992 -4.800006 27.406169 37.148835 -0.192587 0.741080 0.106097 -0.035281 -275182.000000 0 0 1
25.577792 -5.168906 28.349199 38.530742 -0.199400 0.744015 0.103276 -0.044475 -235618.000000 0 0 1
26.285792 -3.907606 28.932759 39.285071 -0.147578 0.742941 0.116118 -0.047044 -420952.000000 0 0 1
27.195292 -3.207506 28.157669 39.277555 -0.117401 0.771466 0.091331 -0.032671 -168996.000000 0 0 1
27.415992 -1.902506 28.573749 39.644864 -0.069283 0.765923 0.074019 -0.040917 -244966.000000 0 0 1
28.253792 -1.094106 27.538549 39.469551 -0.038705 0.798592 0.075273 -0.036139 163992.000000 0 0 1
29.588192 -1.542306 27.459669 40.396451 -0.052079 0.823368 0.093598 -0.032605 -331036.000000 0 0 1
30.315692 -0.761606 26.552789 40.307218 -0.025117 0.851627 0.091430 -0.013507 368847.000000 0 0 1
31.819992 -0.609206 26.915979 41.681566 -0.019143 0.868788 0.101175 -0.016276 272454.000000 0 0 1
32.013692 0.256694 27.999799 42.531530 0.008018 0.852198 0.095296 -0.012742 410688.000000 0 0 1
33.409192 0.251394 28.290789 43.779059 0.007525 0.868179 0.103422 -0.018296 418076.000000 0 0 1
33.821292 1.410794 29.166419 44.682772 0.041689 0.859595 0.118531 -0.026941 -130491.000000 0 0 1
33.749992 2.679894 28.509099 44.260733 0.079238 0.870928 0.112652 -0.026429 167267.000000 0 0 1
34.056592 3.671894 29.453179 45.175480 0.107403 0.860613 0.101639 -0.025909 -11989.100000 0 0 1
33.998792 5.161994 28.870959 44.900961 0.150678 0.872398 0.105409 -0.023583 -195645.000000 0 0 1
34.191192 6.179594 29.805059 45.777358 0.178806 0.861780 0.122683 -0.027440 182941.000000 0 0 1
33.010892 6.621194 30.440319 45.389120 0.197949 0.835708 0.107020 -0.024828 -292070.000000 0 0 1
33.372792 7.495794 31.644044 46.596949 0.220941 0.824259 0.098127 -0.028052 29238.200000 0 0 1
33.761892 6.740694 32.798316 47.550308 0.197063 0.809638 0.109035 -0.021426 205649.000000 0 0 1
34.155092 7.603094 -33.737801 48.606754 0.219034 2.337961 0.109701 -0.032553 -159259.000000 0 0 1
34.379992 6.762294 -32.429391 47.742830 0.194213 2.317539 0.115236 -0.021313 -226513.000000 0 0 1
33.230492 6.115994 -31.942841 46.497484 0.182011 2.328121 0.091177 -0.015662 -198446.000000 0 0 1
33.078492 4.748694 -32.332731 46.498841 0.142584 2.339696 0.109490 -0.020819 -131943.000000 0 0 1
33.872392 3.632394 -31.613371 46.475138 0.106829 2.318861 0.108775 -0.026346 -185628.000000 0 0 1
33.816792 2.376694 -32.218511 46.768114 0.070166 2.330765 0.110860 -0.032317 140728.000000 0 0 1
34.141692 1.339294 -31.275301 46.320549 0.039207 2.312022 0.089523 -0.035202 -58942.000000 0 0 1
34.067492 -0.093506 -31.872491 46.652529 -0.002745 2.322917 0.084658 -0.049253 -161527.000000 0 0 1
35.115592 -0.368106 -32.816601 48.064224 -0.010482 2.322338 0.086252 -0.041738 868907.000000 0 0 1
36.010192 -1.435306 -32.462741 48.503851 -0.039837 2.304038 0.085473 -0.034678 638909.000000 0 0 1
37.037292 -1.354606 -31.329141 48.529486 -0.036558 2.272565 0.090054 -0.037108 -581496.000000 0 0 1
36.427692 -1.422206 -30.094471 47.272366 -0.039022 2.260902 0.072572 -0.040658 -283506.000000 0 0 1
37.291892 -1.139506 -29.023161 47.268674 -0.030547 2.231920 0.083694 -0.036369 -182958.000000 0 0 1
36.511392 -0.981206 -27.675601 45.825576 -0.026868 2.219223 0.086305 -0.040760 22562.400000 0 0 1
35.735692 0.194694 -27.625781 45.169252 0.005448 2.228885 0.079757 -0.032572 35079.600000 0 0 1
35.025892 0.185994 -26.432341 43.880706 0.005310 2.217261 0.086872 -0.025954 -509668.000000 0 0 1
34.292892 1.512494 -26.126001 43.137663 0.044077 2.221369 0.062939 -0.015724 231385.000000 0 0 1
33.348792 1.737794 -27.177461 43.055502 0.052063 2.253921 0.084610 -0.027949 672814.000000 0 0 1
32.583192 2.928594 -26.908821 42.359482 0.089640 2.259127 0.072872 -0.013800 285458.000000 0 0 1
31.826392 3.511094 -28.108781 42.606931 0.109876 2.291247 0.095055 -0.020687 -26665.900000 0 0 1
30.755192 4.359694 -27.742781 41.647937 0.140817 2.299799 0.076003 -0.017937 243265.000000 0 0 1
30.137992 4.906094 -28.879311 42.028358 0.161372 2.328340 0.084370 -0.022333 225624.000000 0 0 1
28.911492 5.770594 -28.440351 40.963736 0.197006 2.338217 0.078941 -0.018031 222166.000000 0 0 1
27.728292 5.102194 -28.060901 39.778194 0.181971 2.353832 0.092811 -0.023049 376497.000000 0 0 1
26.751692 6.040494 -27.656571 38.949024 0.222074 2.360395 0.105237 -0.032310 -155235.000000 0 0 1
25.361292 5.422194 -27.429481 37.748798 0.210627 2.384203 0.117183 -0.030317 -19984.600000 0 0 1
24.647092 4.901694 -28.543511 38.029433 0.196314 2.419711 0.117446 -0.023735 129207.000000 0 0 1
23.325392 4.596494 -28.187881 36.874901 0.194567 2.440936 0.114159 -0.020828 324975.000000 0 0 1
22.358792 4.230294 -29.388151 37.168190 0.186990 2.482716 0.101361 -0.018215 542385.000000 0 0 1
22.776492 3.007194 -29.982331 37.772370 0.131271 2.487768 0.085789 -0.027703 87373.800000 0 0 1
21.883092 2.550394 -30.952651 37.992642 0.116023 2.523010 0.052146 -0.023880 -564496.000000 0 0 1
21.803392 3.368094 -32.349821 39.156645 0.153264 2.543062 0.071091 -0.020209 -725346.000000 0 0 1
23.046992 3.336294 -32.952371 40.350383 0.143762 2.526389 0.081284 -0.026985 -763288.000000 0 0 1
22.993692 3.744194 33.314714 40.652171 0.161419 0.610247 0.065072 -0.026369 -773777.000000 0 0 1
24.241992 3.635494 32.461508 40.677272 0.148857 0.646784 0.053777 -0.024512 -610638.000000 0 0 1
24.610892 2.307294 32.222011 40.611299 0.093478 0.654381 0.092376 -0.032801 105596.000000 0 0 1
26.011492 2.099594 32.214511 41.458180 0.080543 0.680853 0.091791 -0.033651 -177359.000000 0 0 1
26.368892 0.630694 32.117068 41.559864 0.023914 0.687570 0.080995 -0.038127 -942803.000000 0 0 1
26.059792 -0.014106 30.890689 40.414695 -0.000541 0.700775 0.084975 -0.038696 1032120.000000 0 0 1
24.703392 -0.375306 30.564049 39.300884 -0.015191 0.679808 0.093713 -0.045843 457027.000000 0 0 1
24.005492 -1.372206 31.497544 39.626277 -0.057100 0.652011 0.090894 -0.056898 -585416.000000 0 0 1
24.579592 -2.640106 31.542735 40.075811 -0.107000 0.664741 0.082231 -0.054501 172969.000000 0 0 1
23.730092 -3.510406 32.266685 40.206705 -0.146865 0.639289 0.112577 -0.061171 81760.700000 0 0 1
23.818092 -4.943106 31.717539 39.971716 -0.204631 0.654258 0.105819 -0.060905 597276.000000 0 0 1
25.124692 -5.515606 31.858196 40.946510 -0.216101 0.679250 0.090806 -0.044560 602590.000000 0 0 1
25.049792 -6.939206 31.754246 41.036286 -0.270240 0.685964 0.098300 -0.043585 -172390.000000 0 0 1
26.440192 -7.577406 31.568730 41.869864 -0.279106 0.716708 0.080351 -0.033099 63292.600000 0 0 1
26.852892 -7.397006 30.230419 41.105617 -0.268798 0.744491 0.096392 -0.037795 141129.000000 0 0 1
28.138192 -7.891806 29.879289 41.794860 -0.273441 0.774310 0.091112 -0.024233 385644.000000 0 0 1
28.547192 -7.577006 28.397609 40.972886 -0.259438 0.805039 0.076834 -0.026638 -482474.000000 0 0 1
27.646792 -8.085106 27.466229 39.800851 -0.284509 0.809181 0.063772 -0.022252 -487207.000000 0 0 1
27.938892 -7.778606 26.126039 39.034066 -0.271538 0.837511 0.079638 -0.025899 -25027.600000 0 0 1
27.178592 -8.660306 25.069829 37.975954 -0.308473 0.849778 0.054639 -0.020725 -488417.000000 0 0 1
25.842792 -8.299206 24.961719 36.875658 -0.310739 0.827232 0.055336 -0.026118 -862405.000000 0 0 1
25.154492 -9.206406 24.132799 36.054103 -0.350852 0.837463 0.066818 -0.033615 245331.000000 0 0 1
23.688692 -8.883406 23.786259 34.725425 -0.358776 0.816219 0.071553 -0.029377 449119.000000 0 0 1
22.674292 -9.187806 24.749129 34.800268 -0.384988 0.779626 0.065137 -0.017836 386394.000000 0 0 1
21.442992 -8.648506 24.293739 33.537804 -0.383370 0.760678 0.092253 -0.018872 629420.000000 0 0 1
20.308092 -8.611806 25.380119 33.626362 -0.401072 0.715495 0.096304 -0.029782 -66549.600000 0 0 1
19.767292 -9.878106 25.784489 33.958249 -0.463423 0.708560 0.113018 -0.023869 306000.000000 0 0 1
20.613492 -10.790906 26.496989 35.262588 -0.482261 0.720586 0.087336 -0.017674 -146263.000000 0 0 1
19.777092 -11.919106 27.126399 35.623587 -0.542382 0.705214 0.090021 -0.017535 234343.000000 0 0 1
19.182092 -12.815006 26.201439 34.909776 -0.588974 0.721906 0.119241 -0.020797 7358.820000 0 0 1
18.308092 -13.783006 26.707429 35.191537 -0.645314 0.709149 0.103230 -0.013574 -741625.000000 0 0 1
18.888692 -14.873606 27.567349 36.578212 -0.667032 0.717191 0.107974 0.000828 -567845.000000 0 0 1
17.996092 -15.857306 28.056569 36.911848 -0.722304 0.707335 0.098755 0.004025 306464.000000 0 0 1
18.708892 -16.994706 28.549509 38.130265 -0.737423 0.724643 0.087190 0.008916 -26852.400000 0 0 1
19.100492 -18.033306 27.485859 38.019750 -0.756667 0.762753 0.093409 0.000999 264395.000000 0 0 1
20.209892 -17.528506 26.738899 37.824026 -0.714465 0.785650 0.098305 -0.004145 460226.000000 0 0 1
20.589092 -18.353606 25.662629 37.674077 -0.728057 0.821430 0.086495 0.005632 5675.020000 0 0 1
21.917192 -17.882306 25.041639 37.778616 -0.684363 0.846175 0.081425 -0.014076 883128.000000 0 0 1
23.106192 -17.927506 25.866649 39.043247 -0.659856 0.846628 0.060332 -0.006758 2132530.000000 0 0 1
24.249592 -17.328406 25.167439 39.009183 -0.620448 0.869554 0.035893 -0.009396 1047550.000000 0 0 1
25.537392 -17.170606 26.046909 40.316617 -0.591942 0.868387 0.049018 -0.011279 585651.000000 0 0 1
26.160192 -18.368806 26.484829 41.511623 -0.612178 0.878885 0.057116 -0.009647 283840.000000 0 0 1
26.881392 -19.088606 25.480299 41.668090 -0.617476 0.912833 0.039016 -0.024356 -448254.000000 0 0 1
27.448692 -20.390906 26.102889 43.018375 -0.638925 0.918787 0.043321 -0.030596 390192.000000 0 0 1
28.481092 -20.109206 27.079759 44.145964 -0.614778 0.910420 0.034943 -0.018748 514632.000000 0 0 1
28.993192 -21.332406 27.634859 45.380196 -0.634333 0.916044 0.049088 -0.030338 -211062.000000 0 0 1
28.093892 -22.278406 28.453859 45.773532 -0.670457 0.899984 0.058578 -0.020355 -294527.000000 0 0 1
28.036592 -21.866806 29.808499 46.397783 -0.662388 0.873098 0.066150 -0.016832 489115.000000 0 0 1
27.127092 -22.780006 30.472019 46.726350 -0.698514 0.860395 0.070006 -0.011049 258152.000000 0 0 1
27.129792 -22.886006 31.985145 47.779121 -0.700752 0.837345 0.068104 -0.008602 524798.000000 0 0 1
26.171492 -23.874306 32.441302 48.035066 -0.739529 0.829334 0.073339 -0.011641 593104.000000 0 0 1
25.999392 -23.663006 -33.749981 48.733638 -0.738387 2.335800 0.074792 -0.002504 -377034.000000 0 0 1
25.688692 -24.941206 -32.967991 48.670947 -0.770636 2.314971 0.072321 -0.008656 118932.000000 0 0 1
24.429792 -25.570856 -33.121541 48.453276 -0.808215 2.323449 0.082554 -0.014227 -22244.500000 0 0 1
24.114492 -26.066576 33.177700 48.597684 -0.824279 0.819343 0.077843 -0.016568 -494535.000000 0 0 1
22.761092 -26.768386 33.038966 48.230562 -0.866130 0.816163 0.088779 -0.017495 -92022.100000 0 0 1
22.787792 -28.120176 33.426319 49.268109 -0.889763 0.825135 0.078693 -0.022360 68979.300000 0 0 1
21.487992 -28.640566 33.606089 49.105856 -0.927126 0.817071 0.097060 -0.018494 -207426.000000 0 0 1
21.465092 -30.206076 -33.731891 50.109856 -0.952977 2.309268 0.073556 -0.017836 -355886.000000 0 0 1
22.239692 -30.596426 -32.652741 49.969458 -0.942262 2.282935 0.049953 -0.018679 1263000.000000 0 0 1
23.448692 -31.320446 -33.070561 51.229616 -0.928147 2.272521 0.032975 0.001622 1329140.000000 0 0 1
24.109192 -32.179356 -31.934071 51.347337 -0.927799 2.241992 0.029939 0.003138 433891.000000 0 0 1
25.353992 -32.830716 -32.272241 52.556430 -0.913198 2.231977 0.024233 0.017209 1173380.000000 0 0 1
26.012292 -33.545046 -31.256031 52.714789 -0.911209 2.205485 0.020711 0.030025 164054.000000 0 0 1
26.677392 -32.653406 -30.163141 51.843450 -0.885783 2.191751 0.024800 0.021790 -718504.000000 0 0 1
27.492692 -33.271846 -29.211311 52.116836 -0.880220 2.165782 0.045617 0.025502 3340.200000 0 0 1
27.900092 -32.365396 -28.155981 51.173169 -0.859357 2.153412 0.047360 0.011277 -398651.000000 0 0 1
27.585392 -32.837416 -26.688361 50.512557 -0.872101 2.127454 0.060895 0.008502 299038.000000 0 0 1
28.520492 -33.748726 -26.117641 51.327635 -0.869163 2.104635 0.053841 0.026543 740079.000000 0 0 1
29.807192 -33.215406 -25.794691 51.547046 -0.839425 2.094869 0.054338 0.006005 434273.000000 0 0 1
-28.022888 -30.517397 8.685459 42.332387 0.827984 1.364156 0.084662 -0.016190 71663.900000 0 0 1
-27.840928 -31.539297 9.576559 43.145742 0.847601 1.346974 0.091287 -0.025908 -676216.000000 0 0 1
-26.550388 -31.590397 10.096759 42.483183 0.871868 1.330835 0.084117 -0.025694 -643592.000000 0 0 1
-26.312718 -32.489197 11.325159 43.314735 0.890053 1.306260 0.084403 -0.025891 -305882.000000 0 0 1
-26.621658 33.829494 11.032959 44.439549 -0.904072 1.319904 0.099603 -0.011835 -436966.000000 0 0 1
-27.973238 33.458694 10.980159 44.972771 -0.874455 1.324152 0.084390 -0.028855 -338487.000000 0 0 1
-28.022468 31.908494 10.715159 43.797549 -0.850149 1.323636 0.097771 -0.021940 184329.000000 0 0 1
-27.559308 31.475194 9.416859 42.882170 -0.851633 1.349393 0.124745 -0.039297 70468.800000 0 0 1
-27.793738 30.086294 9.148959 41.968803 -0.824986 1.351037 0.136513 -0.037007 191317.000000 0 0 1
-27.122898 29.609494 7.801559 40.905233 -0.829200 1.378898 0.115493 -0.025552 275772.000000 0 0 1
-25.711318 29.608494 7.785059 39.979269 -0.855730 1.374817 0.102075 -0.017837 466132.000000 0 0 1
-25.060478 29.526194 6.486159 39.266957 -0.867026 1.404855 0.089554 -0.014889 1258790.000000 0 0 1
-23.689608 28.723794 6.485559 37.793073 -0.881152 1.398336 0.111884 -0.013018 819406.000000 0 0 1
-23.742008 27.277294 6.651159 36.769167 -0.854581 1.388905 0.109259 -0.008373 425904.000000 0 0 1
-24.447508 26.499094 5.634359 36.491487 -0.825646 1.415774 0.081846 -0.011849 46035.400000 0 0 1
-24.626608 25.000494 5.907259 35.586377 -0.792932 1.404027 0.104415 -0.002426 -756505.000000 0 0 1
-25.729478 24.853694 6.751259 36.404555 -0.768086 1.384266 0.109643 -0.004423 29417.800000 0 0 1
-26.196628 23.551394 7.138959 35.942958 -0.732276 1.370848 0.109396 -0.017540 30014.500000 0 0 1
-26.678468 22.685694 6.007959 35.531351 -0.704690 1.400891 0.097770 -0.031805 88168.000000 0 0 1
-27.957008 23.127594 5.492959 36.696764 -0.691141 1.420547 0.100082 -0.033314 808870.000000 0 0 1
-28.236208 22.633294 4.182659 36.428616 -0.675697 1.455725 0.092139 -0.030230 -16293.200000 0 0 1
-27.875898 23.587194 3.000859 36.639140 -0.702255 1.488801 0.080398 -0.029385 377081.000000 0 0 1
-26.467708 23.889794 2.967059 35.778000 -0.734251 1.487771 0.081312 -0.027056 853131.000000 0 0 1
-26.044168 24.601094 1.842259 35.873478 -0.756912 1.519419 0.083637 -0.036623 340338.000000 0 0 1
-24.593008 25.158494 1.837359 35.229842 -0.796764 1.518619 0.070067 -0.026129 352128.000000 0 0 1
-24.186508 25.630494 0.624159 35.246262 -0.814376 1.553087 0.069515 -0.027960 -387676.000000 0 0 1
-22.913208 26.221794 0.736459 34.830159 -0.852633 1.549650 0.079836 -0.032110 -180887.000000 0 0 1
-22.214308 26.739194 -0.584641 34.767827 -0.877569 1.587613 0.089945 -0.029886 300713.000000 0 0 1
-21.901908 25.796794 -1.556641 33.876117 -0.866873 1.616764 0.088841 -0.026623 37052.200000 0 0 1
-20.752308 25.015694 -1.298141 32.528886 -0.878282 1.610714 0.084193 -0.034960 -249344.000000 0 0 1
-20.335508 23.992494 -2.357541 31.539351 -0.867710 1.645615 0.087355 -0.041171 -552270.000000 0 0 1
-21.217508 22.924394 -2.516141 31.337541 -0.824047 1.651174 0.093343 -0.030634 -159986.000000 0 0 1
-20.783908 21.809594 -3.332541 30.310643 -0.809474 1.680965 0.098935 -0.021732 -401484.000000 0 0 1
-21.960908 21.301594 -4.147241 30.874569 -0.770159 1.705529 0.087730 -0.011678 -272651.000000 0 0 1
-22.158808 21.934894 -5.360241 31.636759 -0.780320 1.741048 0.084244 -0.011561 -615144.000000 0 0 1
-23.484708 21.802294 -5.768241 32.559855 -0.748265 1.748894 0.110386 -0.006505 -371413.000000 0 0 1
-23.620008 22.445294 -7.154941 33.359994 -0.759903 1.786952 0.131950 -0.007052 -9822.050000 0 0 1
-23.056608 21.691394 -8.177241 32.695428 -0.754899 1.823583 0.106055 -0.018368 -1255.230000 0 0 1
-22.709608 22.514094 -9.269341 33.294615 -0.781075 1.852928 0.112008 -0.021396 -87385.900000 0 0 1
-22.208408 21.769794 -10.503041 32.824552 -0.775425 1.896500 0.105303 -0.016838 478755.000000 0 0 1
-23.255408 21.205894 -11.331641 33.450113 -0.739334 1.916398 0.098680 -0.017361 315543.000000 0 0 1
-22.883908 20.764394 -12.583641 33.364372 -0.736877 1.957522 0.080620 -0.011042 -129349.000000 0 0 1
-24.103108 20.293294 -13.395941 34.237828 -0.699794 1.972798 0.075387 -0.025569 504589.000000 0 0 1
-24.922608 19.285894 -12.787241 34.008758 -0.658579 1.956270 0.096158 -0.018869 1259250.000000 0 0 1
-26.270778 19.318394 -13.319841 35.224598 -0.634063 1.958583 0.110069 -0.031812 1361800.000000 0 0 1
-26.824058 17.879994 -13.627741 34.999137 -0.587933 1.970748 0.181612 -0.033524 -42493.500000 0 0 1
-26.306368 17.264994 -14.767241 34.758832 -0.580795 2.009591 0.168586 -0.030806 -37932.500000 0 0 1
-26.902928 15.995894 -14.980741 34.699550 -0.536423 2.017203 0.169793 -0.034759 37755.100000 0 0 1
-26.470218 15.377494 -16.345141 34.703075 -0.526284 2.061220 0.171497 -0.024968 564107.000000 0 0 1
-25.118488 14.928494 -16.368541 33.492201 -0.536235 2.081426 0.171359 -0.022274 387738.000000 0 0 1
-24.784008 14.187994 -17.521441 33.504435 -0.519928 2.121115 0.168938 -0.032545 68362.400000 0 0 1
-23.869808 12.979494 -17.196341 32.155080 -0.498041 2.135060 0.171266 -0.029693 -103834.000000 0 0 1
-22.635808 13.280494 -16.616041 31.061941 -0.530585 2.135224 0.154512 -0.039640 -323022.000000 0 0 1
-21.858908 12.136994 -16.373441 29.886587 -0.506859 2.150591 0.139056 -0.031340 38989.300000 0 0 1
-20.634108 12.441694 -15.480741 28.639405 -0.542599 2.141875 0.137579 -0.036214 977935.000000 0 0 1
-19.546408 13.144394 -16.157641 28.564078 -0.592010 2.172033 0.111503 -0.027970 1577050.000000 0 0 1
-18.374408 13.261794 -15.355641 27.373158 -0.625177 2.166359 0.095062 -0.018582 595151.000000 0 0 1
-17.403008 14.438394 -15.652241 27.501356 -0.692560 2.176261 0.076644 -0.014806 19988.100000 0 0 1
-16.821608 14.400194 -16.933341 27.875978 -0.707998 2.223646 0.103165 -0.025654 34262.700000 0 0 1
-16.203308 15.594294 -17.288541 28.365875 -0.766248 2.226206 0.097358 -0.017694 -65384.700000 0 0 1
-15.362008 15.466794 -18.624441 28.671987 -0.788797 2.277814 0.121123 -0.023430 -118053.000000 0 0 1
-14.159008 14.798494 -18.410941 27.539711 -0.807478 2.303018 0.114712 -0.017541 -820117.000000 0 0 1
-13.468308 14.629594 -19.623541 27.937496 -0.826705 2.349572 0.148729 -0.030055 -256959.000000 0 0 1
-12.326508 13.627394 -19.400041 26.720970 -0.835479 2.383317 0.134265 -0.026410 -231411.000000 0 0 1
-12.589008 12.355494 -19.958641 26.636229 -0.776037 2.417807 0.148236 -0.025703 412339.000000 0 0 1
-11.618508 11.328194 -19.630941 25.469424 -0.772747 2.450837 0.109998 -0.016051 391595.000000 0 0 1
-11.824408 10.012394 -20.447641 25.654838 -0.702608 2.493156 0.126603 -0.027715 36911.300000 0 0 1
-11.436208 10.139094 -21.795541 26.620175 -0.725350 2.530045 0.141957 -0.036740 -179992.000000 0 0 1
-11.821708 8.992394 -22.503041 26.962989 -0.650294 2.558184 0.125340 -0.021391 -64369.100000 0 0 1
-11.496308 9.040594 -23.954441 28.066220 -0.666388 2.593456 0.114894 -0.026984 644915.000000 0 0 1
-10.117708 9.214494 -24.339841 27.923159 -0.738711 2.629400 0.117691 -0.022607 567314.000000 0 0 1
-9.871908 8.478094 -25.524021 28.649752 -0.709587 2.670116 0.090364 -0.032904 -152241.000000 0 0 1
-9.681808 9.292894 -26.853121 30.019750 -0.764905 2.678142 0.135872 -0.037360 -83424.000000 0 0 1
-8.455108 9.941494 -27.088351 30.068271 -0.866020 2.692623 0.116451 -0.040106 -227852.000000 0 0 1
-8.177608 11.118694 -26.358611 29.753571 -0.936651 2.659221 0.087538 -0.031207 -244564.000000 0 0 1
-6.674308 11.423094 -26.499411 29.618444 -1.042014 2.678539 0.079580 -0.034835 -104623.000000 0 0 1
-6.339108 11.884494 -27.812181 30.902150 -1.080792 2.690584 0.104254 -0.050539 208256.000000 0 0 1
-5.054408 12.483294 -27.810891 30.900248 -1.186078 2.690615 0.113601 -0.054836 200626.000000 0 0 1
-4.449408 12.752094 -29.249371 32.217058 -1.235088 2.709006 0.117917 -0.052098 609984.000000 0 0 1
-3.062108 13.077894 -29.222241 32.161268 -1.340796 2.710754 0.131253 -0.061588 411987.000000 0 0 1
-2.476208 13.076594 -30.492621 33.270540 -1.383650 2.730051 0.128015 -0.059574 -144754.000000 0 0 1
-0.961708 12.835394 -30.506201 33.110429 -1.496010 2.742328 0.155199 -0.070541 -438443.000000 0 0 1
-0.556608 11.720894 -29.754811 31.984964 -1.523343 2.765958 0.127185 -0.044648 650569.000000 0 0 1
0.794392 11.232894 -29.778541 31.836622 1.500194 2.780058 0.134323 -0.053597 759890.000000 0 0 1
1.250792 10.540594 -31.073681 32.836599 1.452684 2.812427 0.145949 -0.055096 -286986.000000 0 0 1
1.664592 11.425694 -32.110011 34.122869 1.426126 2.796404 0.150166 -0.063432 152507.000000 0 0 1
1.620992 10.720994 -33.354781 35.072906 1.420735 2.827292 0.165520 -0.057283 36540.400000 0 0 1
1.884692 11.700394 33.077999 35.136951 1.411089 0.344033 0.153898 -0.054955 -99278.800000 0 0 1
3.245692 12.087694 33.017552 35.310134 1.308472 0.362331 0.161831 -0.060705 -95204.700000 0 0 1
3.504992 12.765594 31.816962 34.461057 1.302834 0.394281 0.153357 -0.050739 929268.000000 0 0 1
5.039492 13.054994 31.596813 34.557024 1.202399 0.416925 0.150009 -0.043104 975038.000000 0 0 1
5.767392 11.893694 31.207309 33.891280 1.119292 0.400653 0.144205 -0.055130 496900.000000 0 0 1
7.166192 12.235494 31.157049 34.231905 1.040966 0.427088 0.123289 -0.037421 566149.000000 0 0 1
7.898192 10.938194 30.727229 33.558726 0.945408 0.413735 0.110046 -0.038208 -347215.000000 0 0 1
7.753992 10.628494 29.410699 32.219225 0.940514 0.420633 0.111569 -0.042811 674220.000000 0 0 1
8.692092 9.566894 29.089969 31.832440 0.833272 0.418138 0.122454 -0.036875 824473.000000 0 0 1
8.147392 8.661794 27.931169 30.357155 0.815991 0.402498 0.105795 -0.034697 -139708.000000 0 0 1
7.093192 7.846894 28.310809 30.222326 0.835804 0.357566 0.103156 -0.036451 -354388.000000 0 0 1
6.537892 7.157394 27.171749 28.849199 0.830602 0.342689 0.116733 -0.036973 402738.000000 0 0 1
5.590892 6.014894 27.632829 28.827248 0.821916 0.288870 0.137028 -0.039195 117493.000000 0 0 1
6.305792 5.017294 28.327539 29.451413 0.672092 0.277148 0.103630 -0.029403 184019.000000 0 0 1
5.428292 4.112594 28.972839 29.762479 0.648361 0.230866 0.128572 -0.033635 -151155.000000 0 0 1
6.141292 2.915194 29.677729 30.446370 0.443193 0.225178 0.128651 -0.022616 254858.000000 0 0 1
6.628692 1.961594 28.724749 29.544858 0.287714 0.236167 0.125407 -0.021015 816350.000000 0 0 1
7.986392 1.538594 28.912479 30.034666 0.190320 0.274219 0.115344 -0.016342 702567.000000 0 0 1
8.384692 0.285694 28.128099 29.352592 0.034060 0.289862 0.110646 -0.023744 -423968.000000 0 0 1
8.062592 -0.883006 28.809689 29.929639 -0.109084 0.274427 0.084494 -0.025429 39384.800000 0 0 1
8.339292 -2.026106 28.011539 29.296676 -0.238341 0.297290 0.107678 -0.022145 -182785.000000 0 0 1
8.897492 -3.262206 28.766419 30.287196 -0.351424 0.318238 0.092789 -0.018232 1023580.000000 0 0 1
10.295792 -3.189606 29.089639 31.022315 -0.300421 0.354845 0.063083 -0.020314 1347650.000000 0 0 1
11.175492 -3.938606 28.195219 30.583895 -0.338840 0.397846 0.084969 -0.024706 363200.000000 0 0 1
12.658592 -3.561506 28.387409 31.285288 -0.274261 0.433806 0.062074 -0.023978 1515410.000000 0 0 1
13.723192 -4.454106 27.857239 31.371816 -0.313841 0.477884 0.089297 -0.033056 1508950.000000 0 0 1
14.027492 -5.624606 28.614859 32.360730 -0.381343 0.485918 0.108944 -0.034459 -270261.000000 0 0 1
13.251192 -6.918206 28.238039 31.950626 -0.481157 0.486868 0.124875 -0.027970 -656918.000000 0 0 1
11.862992 -6.806006 28.241549 31.378932 -0.520870 0.450990 0.121574 -0.025539 -1138270.000000 0 0 1
11.253292 -8.026606 28.226389 31.429159 -0.619575 0.455376 0.146454 -0.025823 -581498.000000 0 0 1
9.742892 -7.874906 28.064939 30.734002 -0.679765 0.419835 0.167274 -0.027401 -610211.000000 0 0 1
9.122992 -7.219206 29.143619 31.379873 -0.669426 0.379807 0.201696 -0.031469 -382703.000000 0 0 1
7.746792 -7.160906 28.839739 30.708662 -0.746118 0.350677 0.213997 -0.038789 -516806.000000 0 0 1
6.898492 -6.731706 29.988729 31.499666 -0.773162 0.310983 0.198084 -0.045763 -507054.000000 0 0 1
6.822692 -7.832206 30.958919 32.654973 -0.854175 0.323711 0.222659 -0.055635 -33557.500000 0 0 1
5.936492 -7.580506 32.030644 33.446497 -0.906429 0.292007 0.221278 -0.048139 -191050.000000 0 0 1
6.370692 -6.588806 33.148194 34.391872 -0.802227 0.269748 0.202016 -0.029764 -37397.900000 0 0 1
6.767092 -5.314006 32.670241 33.784269 -0.665696 0.257517 0.196129 -0.026202 -98676.800000 0 0 1
7.281092 -4.424806 33.598479 34.661953 -0.546071 0.248353 0.157813 -0.014624 61689.300000 0 0 1
7.509792 -3.133206 32.809960 33.803956 -0.395259 0.243105 0.141056 -0.029700 160466.000000 0 0 1
6.287392 -2.472006 32.545842 33.239644 -0.374604 0.204674 0.175163 -0.039850 64397.000000 0 0 1
6.523992 -1.326306 31.716685 32.407864 -0.200564 0.206900 0.132584 -0.020725 -110831.000000 0 0 1
5.260292 -0.696606 31.102109 31.551499 -0.131661 0.168979 0.183782 -0.035787 374382.000000 0 0 1
4.298892 -0.323506 32.091734 32.380002 -0.075112 0.133536 0.168215 -0.031683 -552611.000000 0 0 1
3.152392 0.226094 31.566562 31.724384 0.071599 0.099789 0.172460 -0.035968 -362374.000000 0 0 1
2.051392 0.649394 32.560240 32.631260 0.306582 0.065988 0.152505 -0.040499 231347.000000 0 0 1
2.529392 1.664594 33.435727 33.572556 0.582049 0.090315 0.142871 -0.032642 548432.000000 0 0 1
1.499692 2.188894 -33.284901 33.390492 0.970115 3.062044 0.117205 -0.036499 437974.000000 0 0 1
1.964192 3.360494 -32.468931 32.701414 1.041856 3.022281 0.109243 -0.033999 -175663.000000 0 0 1
2.790792 3.093894 -31.370941 31.646432 0.836860 3.009548 0.100391 -0.013132 -112492.000000 0 0 1
3.305992 4.239694 -30.695791 31.163058 0.908512 2.968204 0.090562 -0.019417 -15131.300000 0 0 1
4.225192 3.841094 -29.535521 30.082441 0.737816 2.950616 0.089448 -0.012767 -178764.000000 0 0 1
3.501092 3.108594 -28.608201 28.988794 0.726086 2.979372 0.086070 -0.016035 149652.000000 0 0 1
4.355092 2.894594 -27.494741 27.987610 0.586602 2.953645 0.095901 -0.018448 19266.800000 0 0 1
3.950992 1.986094 -26.335521 26.704205 0.465791 2.975231 0.076708 -0.017615 -285921.000000 0 0 1
4.407792 0.635094 -26.567481 26.938133 0.143099 2.975514 0.101521 -0.017304 296459.000000 0 0 1
3.888292 -0.213306 -25.569871 25.864698 -0.054804 2.990460 0.114211 -0.011335 -258738.000000 0 0 1
4.513292 -1.616506 -25.539421 25.985475 -0.343931 2.956040 0.121565 -0.023875 -366601.000000 0 0 1
5.769592 -1.586406 -24.918041 25.626425 -0.268329 2.905919 0.101851 -0.036479 -417885.000000 0 0 1
6.245992 -2.920306 -24.795341 25.736152 -0.437351 2.870370 0.111346 -0.039390 -20246.100000 0 0 1
7.705992 -3.104506 -24.313941 25.694124 -0.382977 2.812340 0.131974 -0.051039 136475.000000 0 0 1
8.636192 -2.689106 -25.268481 26.838615 -0.301861 2.797842 0.123128 -0.043158 -891430.000000 0 0 1
9.908092 -3.216206 -25.060641 27.139455 -0.313874 2.747649 0.119949 -0.035798 -306567.000000 0 0 1
-30.609608 -3.823806 17.449859 35.441038 0.124278 1.055994 0.143345 -0.022135 580772.000000 0 0 1
-32.027308 -3.909406 17.374559 36.645699 0.121464 1.076829 0.120793 -0.012515 -139441.000000 0 0 1
-32.532838 -4.902006 18.132159 37.565815 0.149554 1.067087 0.130420 -0.027484 352112.000000 0 0 1
-33.999941 -4.642806 18.574959 39.020261 0.135714 1.074657 0.121704 -0.026333 1103480.000000 0 0 1
-35.016639 -4.730606 17.545759 39.451202 0.134283 1.109906 0.112777 -0.027398 789472.000000 0 0 1
-36.323338 -4.600506 18.077759 40.833258 0.125983 1.112165 0.108250 -0.022012 -592120.000000 0 0 1
-37.310258 -4.328906 16.989759 41.224346 0.115508 1.146007 0.097598 -0.023076 -1553920.000000 0 0 1
37.057370 -4.333606 17.515659 41.216830 -0.116414 1.131874 0.104206 -0.019506 -955010.000000 0 0 1
36.055330 -4.300506 16.505859 39.886395 -0.118714 1.144148 0.095114 -0.031360 -83037.700000 0 0 1
34.706690 -4.881006 16.898959 38.909554 -0.139720 1.121520 0.079134 -0.024053 -26588.100000 0 0 1
33.867930 -4.015406 17.702359 38.425690 -0.118010 1.092023 0.091289 -0.026285 467152.000000 0 0 1
32.678550 -4.700106 18.033559 37.618983 -0.142849 1.070855 0.117309 -0.032252 -209786.000000 0 0 1
31.924350 -4.059606 19.228259 37.488271 -0.126484 1.032220 0.123314 -0.031873 602299.000000 0 0 1
30.986950 -2.968806 18.932859 36.434297 -0.095517 1.024362 0.133965 -0.031448 833488.000000 0 0 1
31.534490 -1.740406 18.503259 36.603602 -0.055135 1.040831 0.152896 -0.031027 -252021.000000 0 0 1
30.635340 -0.588206 18.976259 36.041205 -0.019198 1.016299 0.153878 -0.016949 74982.300000 0 0 1
30.883500 0.663894 18.389759 35.950168 0.021493 1.033826 0.158759 -0.023671 287818.000000 0 0 1
29.938340 1.602894 18.885659 35.433622 0.053489 1.008669 0.135656 -0.024832 260969.000000 0 0 1
30.257940 3.085894 18.498359 35.598524 0.101635 1.024369 0.156983 -0.023785 -10957.000000 0 0 1
30.230740 3.365794 17.101359 34.895310 0.110880 1.058619 0.154506 -0.014818 726137.000000 0 0 1
29.009540 3.926594 16.567359 33.637017 0.134538 1.055798 0.162115 -0.022811 812989.000000 0 0 1
29.162140 4.244094 15.021759 33.077122 0.144520 1.099386 0.155004 -0.020144 470509.000000 0 0 1
28.233440 5.272294 14.588859 32.214267 0.184613 1.100815 0.189661 -0.036400 744172.000000 0 0 1
28.054340 5.308494 13.206359 31.458449 0.187011 1.137568 0.146751 -0.029951 -439110.000000 0 0 1
27.394740 6.602494 12.757659 30.932548 0.236503 1.145671 0.156021 -0.022293 176143.000000 0 0 1
26.054840 6.791994 13.200059 29.987121 0.255006 1.114985 0.095997 -0.024184 407761.000000 0 0 1
25.499840 7.903294 12.611459 29.525460 0.300546 1.129471 0.139698 -0.034886 -1686.110000 0 0 1
24.184340 8.404594 13.323059 28.862144 0.334466 1.090987 0.127427 -0.033259 1155300.000000 0 0 1
22.926840 7.776394 13.072059 27.513470 0.327006 1.075702 0.121503 -0.015214 1023810.000000 0 0 1
22.855940 6.429794 13.569559 27.347197 0.274231 1.051585 0.123337 -0.018226 -1526420.000000 0 0 1
21.502440 5.761794 13.355959 25.960255 0.261809 1.030398 0.143293 -0.020162 -805254.000000 0 0 1
21.213140 5.489294 11.965659 24.966110 0.253214 1.070967 0.138160 -0.035505 392587.000000 0 1 0
20.272740 4.459094 11.806459 23.880117 0.216508 1.053646 0.136610 -0.031289 -360361.000000 0 1 0
19.984940 4.127994 10.358559 22.885320 0.203691 1.101085 0.157539 -0.031159 48908.800000 0 1 0
21.095540 3.470694 9.788959 23.513639 0.163062 1.141413 0.159290 -0.032534 657507.000000 0 1 0
20.876540 3.366894 8.382259 22.747047 0.159900 1.193403 0.186911 -0.035706 207420.000000 0 1 0
22.057940 2.667294 7.655859 23.500624 0.120338 1.238968 0.190235 -0.030083 -804412.000000 0 1 0
22.463240 1.412194 8.200159 23.954833 0.062784 1.221414 0.203498 -0.027113 904133.000000 0 1 0
23.274340 0.649694 7.279659 24.394885 0.027907 1.267771 0.193582 -0.013089 541098.000000 0 1 0
24.742740 1.144094 7.031759 25.747966 0.046207 1.294183 0.166807 -0.018219 397101.000000 0 0 1
25.730640 0.939094 8.045259 26.975432 0.036481 1.267944 0.159264 -0.007547 736371.000000 0 0 1
25.564440 1.733094 9.192159 27.222050 0.067690 1.226352 0.156778 -0.019713 -571709.000000 0 0 1
26.306240 1.026794 10.352359 28.288582 0.039013 1.196137 0.124864 -0.018643 669226.000000 0 0 1
27.724340 1.228694 10.366959 29.624695 0.044289 1.213286 0.154190 -0.034698 714764.000000 0 0 1
28.370340 0.577894 11.473659 30.608087 0.020367 1.186554 0.123388 -0.026373 1343520.000000 0 0 1
29.930240 0.835894 11.341159 32.017805 0.027921 1.208723 0.185062 -0.026723 1125220.000000 0 0 1
30.347240 2.144694 11.708359 32.598165 0.070554 1.203415 0.184212 -0.027181 18842.300000 0 0 1
31.628620 2.461594 11.221159 33.650311 0.077671 1.230821 0.173714 -0.026629 -612760.000000 0 0 1
32.296010 3.620794 11.939559 34.622182 0.111647 1.218714 0.178544 -0.039552 570071.000000 0 0 1
33.630030 3.852094 11.449259 35.733780 0.114046 1.244640 0.172590 -0.044192 980098.000000 0 0 1
34.181660 5.071094 11.937859 36.559736 0.147283 1.238166 0.160305 -0.046651 -331304.000000 0 0 1
35.639620 5.325994 11.519759 37.831912 0.148342 1.261384 0.189719 -0.044331 -965156.000000 0 0 1
36.425400 4.438194 12.219359 38.675833 0.121246 1.249346 0.184556 -0.041086 -720644.000000 0 0 1
37.755180 4.663894 11.818959 39.835829 0.122907 1.269570 0.174040 -0.030857 113773.000000 0 0 1
-36.844298 3.709294 12.521359 39.090224 -0.100337 1.244730 0.164222 -0.020564 30012.100000 0 0 1
-36.799588 2.383294 11.974959 38.772277 -0.064674 1.256809 0.145511 -0.019623 299820.000000 0 0 1
-37.791358 1.465994 12.425459 39.808642 -0.038772 1.253362 0.153829 -0.018401 49409.600000 0 0 1
37.671030 1.158094 13.933459 40.181948 0.030733 1.216683 0.159592 -0.017097 -170826.000000 0 0 1
-37.007218 0.288494 14.499959 39.747531 -0.007795 1.197377 0.134581 -0.018425 209651.000000 0 0 1
-37.265738 0.022494 15.905559 40.518176 -0.000604 1.167390 0.151104 -0.024012 -220872.000000 0 0 1
-36.119618 -0.763206 16.523559 39.727035 0.021127 1.141834 0.120953 -0.019186 -694288.000000 0 0 1
-34.947483 -0.104206 16.874659 38.808395 0.002982 1.120958 0.118685 -0.021438 -660613.000000 0 0 1
-33.957769 -0.930406 17.397059 38.166129 0.027392 1.097498 0.121276 -0.014842 -196390.000000 0 0 1
-33.861208 -0.983006 18.932059 38.806837 0.029022 1.061167 0.097000 -0.015300 382881.000000 0 0 1
-34.976266 -1.595506 19.608359 40.129447 0.045585 1.060280 0.104862 -0.022372 555737.000000 0 0 1
-34.850044 -1.415906 20.997059 40.711262 0.040606 1.028907 0.096580 -0.023950 366625.000000 0 0 1
-35.773247 -2.398106 21.774959 41.947884 0.066936 1.025004 0.098715 -0.014788 297565.000000 0 0 1
-35.240787 -3.726006 21.705659 41.556370 0.105339 1.021229 0.107278 -0.017853 241105.000000 0 0 1
-35.899910 -4.728506 22.486509 42.624001 0.130960 1.015076 0.096268 -0.014717 -41624.700000 0 0 1
-35.854201 -4.612606 24.046509 43.416984 0.127946 0.983815 0.096581 -0.018875 -299431.000000 0 0 1
-34.613231 -4.764306 24.662959 42.767230 0.136785 0.956139 0.100167 -0.019473 -828072.000000 0 0 1
-34.791906 -4.666806 26.057949 43.718103 0.133339 0.932230 0.093028 -0.029312 548820.000000 0 0 1
-33.762648 -3.675406 26.709749 43.206895 0.108433 0.904368 0.095266 -0.028163 466658.000000 0 0 1
-33.999730 -2.313106 26.403799 43.110239 0.067928 0.911613 0.100797 -0.026560 -50616.900000 0 0 1
-33.346898 -2.020106 25.153949 41.818867 0.060505 0.925422 0.086168 -0.020088 71340.700000 0 0 1
-33.066418 -0.519306 24.898979 41.395856 0.015704 0.925438 0.092881 -0.018340 -497934.000000 0 0 1
-34.257087 0.148194 24.676809 42.219840 -0.004326 0.946553 0.104274 -0.024725 -598791.000000 0 0 1
-34.009641 1.528594 24.294239 41.823467 -0.044916 0.950992 0.112497 -0.017486 -64288.300000 0 0 1
-35.246621 2.369894 23.935339 42.671316 -0.067136 0.975296 0.138205 -0.012769 -129588.000000 0 0 1
-35.865252 2.045794 22.726409 42.508720 -0.056979 1.006727 0.149044 -0.010348 -520690.000000 0 0 1
-36.950448 2.846894 22.406859 43.307133 -0.076894 1.026993 0.153265 -0.010436 -46183.400000 0 0 1
-36.453128 4.035094 21.586959 42.557130 -0.110244 1.038810 0.154582 -0.007426 -87989.800000 0 0 1
-35.909080 3.707694 20.316959 41.424484 -0.102888 1.058181 0.140528 -0.014036 -113145.000000 0 0 1
-36.806168 3.301594 19.294559 41.687823 -0.089463 1.089606 0.183910 -0.023014 14115.600000 0 0 1
-36.063158 2.670094 18.091159 40.434773 -0.073905 1.106923 0.169660 -0.020409 -65263.300000 0 0 1
-35.185540 3.588794 17.491859 39.457152 -0.101645 1.111505 0.161890 -0.025801 -179687.000000 0 0 1
-34.625609 2.952594 16.376359 38.416608 -0.085066 1.130416 0.165997 -0.020466 -265597.000000 0 0 1
-33.741468 3.842394 15.488359 37.324790 -0.113389 1.142896 0.164079 -0.025794 135591.000000 0 0 1
-34.446856 4.965294 14.913759 37.863706 -0.143158 1.165947 0.185148 -0.033496 -155786.000000 0 0 1
-33.647848 5.766394 14.100459 36.935781 -0.169726 1.179101 0.204085 -0.032686 -525665.000000 0 0 1
-34.289200 7.064094 13.598459 37.557540 -0.203173 1.200309 0.219827 -0.046687 -421805.000000 0 0 1
-33.435968 7.693394 12.699359 36.584505 -0.226157 1.216294 0.244331 -0.039740 -308457.000000 0 0 1
-33.829098 8.919094 12.218559 37.057406 -0.257785 1.234790 0.220057 -0.043040 -484175.000000 0 0 1
-32.870288 9.512594 11.185159 36.000737 -0.281702 1.254875 0.243529 -0.039880 -58222.400000 0 0 1
-33.103108 10.868694 11.005459 36.538533 -0.317239 1.264844 0.214019 -0.025684 -437173.000000 0 0 1
-32.184398 11.461394 10.156959 35.642150 -0.342113 1.281821 0.214180 -0.035278 -290988.000000 0 0 1
-32.309828 12.989994 10.061459 36.247730 -0.382268 1.289527 0.183651 -0.024914 442418.000000 0 0 1
-31.475978 13.480194 8.986259 35.400645 -0.404636 1.314143 0.183714 -0.020528 307881.000000 0 0 1
-31.564958 14.885894 8.843259 36.001940 -0.440667 1.322624 0.152979 -0.014481 323615.000000 0 0 1
-30.504128 15.465594 7.842359 35.088303 -0.469232 1.345389 0.156497 -0.015260 -42310.900000 0 0 1
-29.186668 15.278094 8.272659 33.966434 -0.482240 1.324768 0.186592 -0.014988 -655156.000000 0 0 1
-28.360078 16.066494 7.449059 33.435232 -0.515436 1.346120 0.134497 -0.024442 357792.000000 0 0 1
-26.937928 16.369194 8.047859 32.532607 -0.546035 1.320823 0.137136 -0.012483 320756.000000 0 0 1
-26.828348 16.859894 9.381059 33.045734 -0.561066 1.282957 0.128801 -0.016720 161417.000000 0 0 1
-27.239228 18.236194 9.502859 34.129733 -0.589950 1.288634 0.120885 -0.027991 -181037.000000 0 0 1
-27.303148 18.712694 10.985159 34.875500 -0.600838 1.250359 0.137009 -0.014265 -943295.000000 0 0 1
-26.092918 18.957594 11.595259 34.273616 -0.628318 1.225671 0.128285 -0.011737 -839441.000000 0 0 1
-26.236938 19.542594 12.888859 35.162659 -0.640197 1.195499 0.122010 -0.021396 -53768.800000 0 0 1
-26.494708 18.545994 14.052859 35.261967 -0.610718 1.160886 0.114380 -0.019126 52200.200000 0 0 1
-25.533258 17.524594 14.256059 34.092431 -0.601502 1.139379 0.116867 -0.020819 -459.699000 0 0 1
-25.944328 16.617194 15.279559 34.390467 -0.569664 1.110408 0.123773 -0.017869 -184271.000000 0 0 1
-24.809608 15.691794 15.673259 33.277622 -0.563966 1.080389 0.108040 -0.011450 -623883.000000 0 0 1
-23.740308 16.267094 16.356659 33.102279 -0.600731 1.053968 0.102487 -0.016431 877864.000000 0 0 1
-22.594308 15.373494 16.591559 31.970720 -0.597460 1.025161 0.090701 -0.031041 1112670.000000 0 0 1
-22.793508 14.157994 17.543259 32.058677 -0.555820 0.991753 0.107309 -0.018376 -552960.000000 0 0 1
-22.669908 14.564794 18.903559 32.915080 -0.571065 0.959032 0.107864 -0.013001 121327.000000 0 0 1
-22.997608 13.506394 19.774259 33.201415 -0.531026 0.932803 0.096458 -0.012465 -430029.000000 0 0 1
-22.725008 13.670694 21.270959 33.996582 -0.541573 0.894794 0.098405 -0.009420 1510520.000000 0 0 1
-21.375208 13.884894 21.809759 33.546317 -0.576079 0.863029 0.099562 -0.007682 1357560.000000 0 0 1
-20.901008 15.192594 21.606859 33.682687 -0.628542 0.874367 0.092995 0.001202 -509868.000000 0 0 1
-19.428408 15.375394 22.071559 33.181614 -0.669467 0.843069 0.084386 -0.007881 445717.000000 0 0 1
-18.535708 14.768794 21.149659 31.764726 -0.672772 0.842201 0.063908 -0.007165 -275794.000000 0 0 1
-18.062308 15.645094 20.168259 31.269388 -0.713809 0.869794 0.059989 -0.020719 -1163200.000000 0 0 1
-16.830008 15.027194 19.464359 29.798104 -0.728868 0.858983 0.062761 -0.012411 309042.000000 0 0 1
-15.699408 14.620694 20.210959 29.474039 -0.749836 0.815203 0.049075 -0.007242 -291991.000000 0 0 1
-14.956008 15.687894 20.672459 29.952341 -0.809277 0.809061 0.043661 -0.010948 -1296630.000000 0 0 1
-13.976608 15.221694 21.759459 30.008659 -0.828015 0.759608 0.019867 -0.009243 141864.000000 0 0 1
-12.767208 14.622994 21.272159 28.798234 -0.853048 0.739713 0.025542 -0.004827 566816.000000 0 0 1
-11.992008 14.161094 22.409459 29.095166 -0.868147 0.691622 0.041858 -0.003932 -418277.000000 0 0 1
-10.630008 13.637194 22.050959 28.021687 -0.908689 0.664987 0.040873 -0.007848 -1654770.000000 0 0 1
-10.142508 12.679494 22.971899 28.130911 -0.896108 0.615288 0.040950 -0.001470 721500.000000 0 0 1
-8.891008 12.130194 22.527119 27.086209 -0.938287 0.588666 0.046835 0.008020 1723030.000000 0 0 1
-7.562808 12.972994 22.673559 27.195311 -1.042996 0.584967 0.048494 0.014011 -223279.000000 0 0 1
-7.462408 13.826294 21.542959 26.663702 -1.075875 0.630130 0.041924 0.005841 -157387.000000 0 0 1
-6.683408 15.005894 21.785159 27.284390 -1.151786 0.646084 0.041477 0.004411 -153651.000000 0 0 1
-7.376808 16.150094 22.582989 28.726890 -1.142330 0.666279 0.050919 -0.011108 29788.000000 0 0 1
-8.397908 16.818994 21.880159 28.846920 -1.107700 0.709800 0.022574 -0.005431 -509234.000000 0 0 1
-7.960608 17.596094 20.763559 28.356995 -1.145942 0.749220 0.038326 -0.012984 -1421470.000000 0 0 1
-8.888608 17.641194 19.574459 27.809684 -1.104069 0.789962 0.039652 -0.014201 239874.000000 0 0 1
-10.121508 18.352194 19.656659 28.733816 -1.066791 0.817434 0.027247 -0.013526 -185878.000000 0 0 1
-11.072408 17.546694 20.311659 29.035292 -1.007876 0.796028 0.024732 -0.014867 -530758.000000 0 0 1
-12.386908 18.390694 20.491959 30.192275 -0.978049 0.824784 0.025921 -0.015463 28501.400000 0 0 1
-13.218608 18.519394 19.405259 29.904241 -0.950888 0.864641 0.037725 -0.014426 232543.000000 0 0 1
-14.441508 19.194494 19.785459 31.119932 -0.925775 0.881776 0.037644 -0.018215 815779.000000 0 0 1
-15.366908 19.339094 18.556259 30.894614 -0.899355 0.926506 0.061827 -0.022194 -499052.000000 0 0 1
-16.096008 18.222994 18.209759 30.376871 -0.847296 0.927968 0.064372 -0.023030 -146874.000000 0 0 1
-16.712108 18.389194 16.932559 30.069396 -0.833140 0.972645 0.077308 -0.033469 -1155260.000000 0 0 1
-17.473208 17.098194 16.449359 29.465957 -0.774551 0.978522 0.066449 -0.031924 479719.000000 0 0 1
-18.667508 16.772594 17.154759 30.398709 -0.731981 0.971181 0.068109 -0.026467 215417.000000 0 0 1
-19.703708 17.709994 16.985859 31.470612 -0.732160 1.000671 0.076159 -0.030549 -1162490.000000 0 0 1
35.940870 -9.571006 11.968659 39.071717 -0.260259 1.259466 0.095170 -0.047548 -364420.000000 0 0 1
34.559400 -9.670206 11.703259 37.746937 -0.272836 1.255556 0.100353 -0.035383 -102881.000000 0 0 1
34.097230 -10.827806 12.291359 37.827767 -0.307485 1.239859 0.110546 -0.035216 14036.100000 0 0 1
32.565280 -11.054706 12.332759 36.534927 -0.327257 1.226472 0.123357 -0.028034 -947756.000000 0 0 1
31.861300 -9.973006 12.886559 35.786404 -0.303352 1.202425 0.129921 -0.026876 -616577.000000 0 0 1
30.495840 -10.236906 12.837659 34.635184 -0.323863 1.191084 0.130550 -0.029084 -387664.000000 0 0 1
29.851240 -11.333206 13.761059 34.769309 -0.362847 1.163877 0.113396 -0.013361 -1292590.000000 0 0 1
29.706040 -10.943906 15.157259 35.099293 -0.352978 1.124265 0.122126 -0.011323 39596.500000 0 0 1
28.682540 -11.602606 15.854459 34.765967 -0.384395 1.097263 0.120445 -0.014563 1180620.000000 0 0 1
27.205140 -11.099406 15.559659 33.247849 -0.387375 1.083781 0.109430 -0.024953 749685.000000 0 0 1
26.964840 -9.820306 16.137459 32.923526 -0.349259 1.058535 0.114390 -0.020601 -545468.000000 0 0 1
26.092140 -9.097906 15.349259 31.609673 -0.335502 1.063761 0.121409 -0.028875 -288312.000000 0 0 1
25.937040 -7.624506 15.802059 31.314025 -0.285908 1.041841 0.146391 -0.049892 1095630.000000 0 0 1
27.173540 -6.893106 15.596059 32.080418 -0.248430 1.063112 0.125264 -0.043670 971015.000000 0 0 1
27.063840 -5.560006 16.130559 31.993125 -0.202621 1.042355 0.147162 -0.048276 116309.000000 0 0 1
28.355840 -4.717506 16.014059 32.905297 -0.164858 1.062521 0.145008 -0.041289 55838.200000 0 0 1
28.581140 -4.341806 14.660859 32.414096 -0.150759 1.101455 0.163921 -0.042211 -362779.000000 0 0 1
29.731340 -3.563606 14.622559 33.323731 -0.119291 1.116530 0.157017 -0.038322 -519933.000000 0 0 1
30.067540 -3.008206 13.221259 32.983449 -0.099716 1.158357 0.167750 -0.042366 -29057.900000 0 0 1
30.506140 -3.985406 12.332159 33.144987 -0.129907 1.189561 0.155999 -0.041542 70009.600000 0 0 1
30.952190 -3.428706 11.125559 33.069202 -0.110324 1.227670 0.158660 -0.042199 -74335.200000 0 0 1
31.470270 -4.498506 10.185259 33.381940 -0.141983 1.260739 0.157812 -0.035727 507465.000000 0 0 1
32.876110 -4.762106 10.234259 34.759981 -0.143850 1.271941 0.155513 -0.040143 747059.000000 0 0 1
33.238000 -5.615806 9.180859 34.936944 -0.167377 1.304890 0.156632 -0.042752 383249.000000 0 0 1
34.714730 -6.121906 9.198759 36.430857 -0.174554 1.315534 0.133524 -0.048182 -61332.000000 0 0 1
35.677520 -5.241006 8.783359 37.114700 -0.145856 1.331875 0.126148 -0.043240 -515544.000000 0 0 1
36.954620 -5.831706 8.851159 38.444710 -0.156517 1.338481 0.147037 -0.049970 391902.000000 0 0 1
-37.473328 -4.969106 8.385259 38.720213 0.131835 1.352507 0.150179 -0.048907 320841.000000 0 0 1
-37.372348 -4.725606 7.003959 38.315522 0.125779 1.386966 0.173970 -0.045647 -175417.000000 0 0 1
-36.232168 -3.962806 6.713359 37.061342 0.108940 1.388649 0.173047 -0.030569 -132608.000000 0 0 1
-36.195338 -3.415206 5.288459 36.738726 0.094076 1.426347 0.180899 -0.040994 -23369.500000 0 0 1
-35.929671 -4.420406 4.301059 36.455183 0.122414 1.452539 0.216210 -0.069487 4729.340000 0 0 1
-35.991428 -3.750606 3.036059 36.313463 0.103834 1.487092 0.236446 -0.060413 -25128.300000 0 0 1
-35.383282 -4.465006 1.816159 35.710102 0.125526 1.519916 0.324902 -0.073928 22993.900000 0 0 1
-36.007808 -5.705606 1.631359 36.493527 0.157148 1.526079 0.296646 -0.066485 -5357.370000 0 0 1
-36.858108 -5.862306 0.511959 37.324910 0.157729 1.557080 0.259165 -0.062839 -132167.000000 0 0 1
-36.176078 -6.004606 -0.885841 36.681721 0.164483 1.594948 0.302790 -0.066081 -858665.000000 0 0 1
-35.387176 -7.146406 -1.024841 36.116114 0.199269 1.599176 0.316033 -0.084501 679069.000000 0 0 1
-34.250390 -7.086106 -1.889341 35.026729 0.204013 1.624763 0.282924 -0.073105 26488.200000 0 0 1
-33.079558 -6.182006 -1.525141 33.686799 0.184752 1.616086 0.285700 -0.077236 -1278680.000000 0 0 1
-32.254898 -6.886506 -0.636341 32.987988 0.210345 1.590088 0.314414 -0.074400 -1214850.000000 0 0 1
-31.159858 -6.096706 -0.325441 31.752362 0.193218 1.581046 0.283242 -0.072721 -1067240.000000 0 0 1
-30.177948 -6.978206 0.426759 30.977186 0.227241 1.557019 0.248559 -0.062731 -796333.000000 0 0 1
-29.782728 -8.101606 -0.365841 30.867147 0.265597 1.582649 0.225470 -0.043464 401629.000000 0 0 1
-29.161418 -9.090806 0.459459 30.549013 0.302193 1.555756 0.266445 -0.057441 9614.180000 0 0 1
-28.805708 -10.457306 -0.231541 30.646006 0.348234 1.578352 0.202159 -0.035039 -389156.000000 0 0 1
-27.785468 -10.400206 -1.191641 29.692029 0.358160 1.610940 0.179514 -0.033279 199148.000000 0 0 1
-27.215308 -11.654106 -1.569541 29.647170 0.404594 1.623762 0.160019 -0.018375 290882.000000 0 0 1
-28.132398 -12.636606 -2.419841 30.934953 0.422175 1.649100 0.167055 -0.020055 327773.000000 0 0 1
-29.025788 -13.417906 -1.637941 32.019048 0.433015 1.621974 0.213754 -0.035678 560036.000000 0 0 1
-29.731608 -14.398006 -2.383741 33.120286 0.450981 1.642831 0.179591 -0.027224 -353980.000000 0 0 1
-30.662088 -15.271106 -1.584441 34.291119 0.462083 1.617018 0.206595 -0.025558 -335818.000000 0 0 1
-29.950738 -16.205106 -0.766641 34.062295 0.495953 1.593305 0.178241 -0.019492 364065.000000 0 0 1
-30.700258 -16.768206 0.301959 34.982421 0.499914 1.562164 0.175613 -0.020020 236780.000000 0 0 1
-31.261878 -18.199506 -0.006041 36.173569 0.527201 1.570963 0.188895 -0.018931 572179.000000 0 0 1
-30.241698 -19.191606 0.154859 35.817622 0.565478 1.566473 0.184383 -0.023231 580019.000000 0 0 1
-30.754748 -20.507606 0.039459 36.965092 0.588103 1.569729 0.165214 -0.016132 248886.000000 0 0 1
-31.659048 -21.019206 1.220959 38.020956 0.586102 1.538678 0.159564 -0.015070 376611.000000 0 0 1
-30.960048 -21.390706 2.389659 37.706729 0.604601 1.507379 0.156054 -0.016684 169673.000000 0 0 1
-31.938798 -21.776906 3.345759 38.800961 0.598429 1.484460 0.134406 -0.017056 453107.000000 0 0 1
-31.394018 -22.036006 4.770159 38.651318 0.612012 1.447066 0.126174 -0.018376 5976.000000 0 0 1
-30.884568 -20.837306 5.193459 37.616777 0.593532 1.432292 0.117418 -0.018952 -107148.000000 0 0 1
-30.016118 -20.936206 6.327359 37.139300 0.609045 1.399593 0.112625 -0.022521 369226.000000 0 0 1
-29.580578 -19.525306 6.825859 36.094883 0.583423 1.380542 0.130753 -0.022245 136928.000000 0 0 1
-28.841918 -19.585806 8.045459 35.779736 0.596543 1.343996 0.114599 -0.029470 -131123.000000 0 0 1
-28.411348 -18.311306 8.401659 34.829535 0.572504 1.327171 0.122925 -0.024638 -13903.200000 0 0 1
-27.437058 -18.423006 9.594659 34.413033 0.591317 1.288243 0.125781 -0.020226 -29726.000000 0 0 1
-28.037898 -18.796506 10.794359 35.439393 0.590580 1.261292 0.102955 -0.022492 -268869.000000 0 0 1
-27.026338 -19.196506 11.656159 35.139648 0.617598 1.232681 0.101652 -0.012247 -31676.900000 0 0 1
-26.334088 -18.084606 12.502759 34.305338 0.601769 1.197749 0.081281 -0.014884 -39563.100000 0 0 1
-25.262438 -17.402306 11.813859 32.872455 0.603211 1.203188 0.091445 -0.011683 821926.000000 0 0 1
-24.564908 -16.381006 12.517559 32.069633 0.588127 1.169812 0.094587 -0.007023 575460.000000 0 0 1
-23.829208 -16.777706 13.849659 32.266634 0.613460 1.127161 0.091469 -0.010580 -160959.000000 0 0 1
-24.738008 -17.054306 14.939959 33.556233 0.603574 1.109375 0.084771 -0.010225 331274.000000 0 0 1
-24.164208 -17.668006 16.070559 33.975436 0.631337 1.078098 0.098654 -0.005782 -288345.000000 0 0 1
-25.231348 -18.174006 17.052859 35.464284 0.624217 1.069177 0.086431 0.000963 -445426.000000 0 0 1
-25.981618 -17.123906 17.577159 35.738343 0.582730 1.056607 0.104693 0.003363 -201323.000000 0 0 1
-26.825098 -17.661606 18.590959 37.109864 0.582257 1.046076 0.076476 0.013040 -121909.000000 0 0 1
-27.794428 -16.630406 19.191659 37.648645 0.539195 1.035894 0.088365 0.006953 -80643.400000 0 0 1
-27.150038 -15.859506 20.198159 37.371301 0.528678 0.999798 0.101784 -0.003191 104807.000000 0 0 1
-27.937118 -14.807006 20.696859 37.790078 0.487368 0.991208 0.102684 -0.009558 -45587.900000 0 0 1
-27.192668 -14.039206 21.802959 37.575385 0.476592 0.951766 0.101767 -0.012102 1377000.000000 0 0 1
-26.024898 -13.296806 21.307859 36.168014 0.472350 0.940808 0.107244 -0.010599 695431.000000 0 0 1
-25.084358 -12.990006 22.240059 35.952545 0.477828 0.903843 0.119348 -0.016782 -337355.000000 0 0 1
-23.770808 -12.387006 21.681559 34.475778 0.480386 0.890668 0.125250 -0.012330 86278.600000 0 0 1
-23.897508 -11.005406 21.344459 33.879135 0.431572 0.889220 0.143158 -0.010048 544223.000000 0 0 1
-22.717608 -10.433606 20.787359 32.512523 0.430539 0.877125 0.124957 -0.015143 -74283.100000 0 0 1
-22.511608 -8.943006 21.350559 32.289259 0.378144 0.848342 0.138760 -0.019334 14466.100000 0 0 1
-22.189708 -8.867706 22.729059 32.979228 0.380189 0.810421 0.140142 -0.019964 1240100.000000 0 0 1
-20.764508 -9.007206 22.932759 32.221204 0.409283 0.778840 0.102800 -0.005815 1044120.000000 0 0 1
-20.345008 -9.371206 24.409359 33.129378 0.431646 0.742488 0.093509 -0.022273 107585.000000 0 0 1
-20.598008 -10.666406 24.940259 34.059752 0.477815 0.749176 0.099570 -0.016241 12999.500000 0 0 1
-19.901708 -10.863706 26.154859 34.614661 0.499665 0.714226 0.106891 -0.019928 -266104.000000 0 0 1
-20.511308 -12.066606 26.977859 35.973902 0.531765 0.722842 0.094937 -0.036071 458436.000000 0 0 1
-21.822108 -11.948306 27.492359 37.078245 0.500947 0.735540 0.087677 -0.025149 -291183.000000 0 0 1
-22.837508 -12.322806 26.610859 37.169089 0.494813 0.772826 0.093610 -0.024324 -839042.000000 0 0 1
-24.094708 -12.829306 27.287559 38.597370 0.489272 0.785578 0.081193 -0.023178 -802661.000000 0 0 1
-24.023808 -14.060506 28.071059 39.532589 0.529521 0.781193 0.069645 -0.022812 -490358.000000 0 0 1
-23.128308 -14.200106 29.151759 39.829470 0.550629 0.749669 0.072892 -0.024821 -281764.000000 0 0 1
-23.509508 -15.277906 30.208459 41.214832 0.576277 0.748146 0.056308 -0.028748 -560154.000000 0 0 1
-23.108308 -16.595306 29.859559 41.243077 0.622806 0.761228 0.055984 -0.021309 -186288.000000 0 0 1
-23.287508 -17.468306 30.999859 42.525769 0.643575 0.753985 0.059254 -0.021808 -299773.000000 0 0 1
-24.675608 -17.805506 31.606359 43.873496 0.625065 0.766421 0.049098 -0.018054 40501.200000 0 0 1
-25.181698 -16.809806 32.486759 44.408074 0.588607 0.750203 0.048036 -0.011274 28352.200000 0 0 1
-26.521128 -17.089006 32.864859 45.557692 0.572396 0.764989 0.051896 -0.021510 14125.800000 0 0 1
-27.256768 -15.917606 33.471759 46.007176 0.528562 0.756076 0.057081 -0.023301 40756.500000 0 0 1
-26.709258 -15.597706 -32.849741 45.119602 0.528558 2.386283 0.063762 -0.019395 141310.000000 0 0 1
-27.618008 -14.676006 -32.291141 44.953947 0.488445 2.372175 0.063871 -0.013678 -206102.000000 0 0 1
-27.208488 -14.048306 -30.929041 43.523124 0.476619 2.361196 0.055480 -0.007685 -234022.000000 0 0 1
-27.318778 -14.978506 -29.835941 43.137625 0.501526 2.334561 0.078536 -0.004020 202377.000000 0 0 1
-26.602298 -14.438606 -28.742041 41.740395 0.497266 2.330340 0.085426 0.004668 -16354.600000 0 0 1
-26.746628 -15.352706 -27.471841 41.301208 0.521086 2.298502 0.085638 -0.000881 910792.000000 0 0 1
-28.012448 -15.266506 -26.759341 41.639234 0.498989 2.268745 0.101880 -0.010284 1007250.000000 0 0 1
-28.209798 -14.152606 -25.883341 40.817109 0.465000 2.257679 0.119640 -0.013624 -206077.000000 0 0 1
-27.293218 -14.020706 -24.635141 39.349589 0.474553 2.247284 0.110408 -0.020912 57033.900000 0 0 1
-25.964728 -13.678606 -25.015941 38.562530 0.484869 2.276686 0.077814 -0.011557 842633.000000 0 0 1
-24.973738 -13.834006 -23.990141 37.290672 0.505865 2.269634 0.072364 -0.008703 304023.000000 0 0 1
-24.368708 -15.276506 -23.944641 37.423942 0.559957 2.265062 0.064505 -0.003135 -629724.000000 0 0 1
-23.670908 -15.625806 -25.109541 37.880956 0.583461 2.295420 0.052590 0.002798 14006.500000 0 0 1
-23.432708 -17.003106 -25.204441 38.385692 0.627711 2.287112 0.062003 -0.001152 -159037.000000 0 0 1
-22.682008 -17.354006 -26.525341 38.977286 0.653095 2.319287 0.045789 0.000423 175994.000000 0 0 1
-23.368508 -17.110006 -27.764341 40.121044 0.632000 2.335072 0.052914 0.000299 139617.000000 0 0 1
-24.399308 -18.047206 -28.008541 41.297776 0.636851 2.316120 0.072667 0.001778 -226300.000000 0 0 1
-24.828808 -17.862906 -29.505641 42.498659 0.623656 2.338205 0.066440 -0.010642 -548685.000000 0 0 1
-24.024808 -18.530406 -30.419841 42.964336 0.656996 2.357494 0.062950 -0.017238 144008.000000 0 0 1
-24.457308 -18.286306 -31.761841 44.060907 0.642016 2.375842 0.053975 -0.018574 -362576.000000 0 0 1
-23.391808 -18.813506 -32.716641 44.401614 0.677344 2.399172 0.058355 -0.025482 -292585.000000 0 0 1
-22.290308 -17.910506 -32.907341 43.595151 0.676878 2.426206 0.057948 -0.019505 52752.200000 0 0 1
-21.061608 -18.443006 -32.522441 42.912062 0.719209 2.430863 0.059963 -0.027631 -336998.000000 0 0 1
-20.387308 -19.537306 -33.393541 43.731880 0.764111 2.439662 0.064744 -0.027483 -1063040.000000 0 0 1
-20.036808 -19.144106 32.856759 42.982986 0.762618 0.700666 0.069969 -0.028155 177948.000000 0 0 1
-19.992408 -20.190006 31.901259 42.720289 0.790316 0.727638 0.075202 -0.032808 -617569.000000 0 0 1
-21.359308 -20.567406 31.319559 43.129491 0.766513 0.758054 0.078742 -0.027733 -553559.000000 0 0 1
-22.205408 -21.003206 32.381059 44.528057 0.757582 0.756554 0.075330 -0.028814 1193770.000000 0 0 1
-23.538908 -21.463206 31.997759 45.150925 0.739306 0.783164 0.072882 -0.013309 1550250.000000 0 0 1
-23.501708 -22.790906 31.129259 45.175065 0.770045 0.810577 0.087622 -0.011271 -650623.000000 0 0 1
-22.923608 -23.921906 31.747459 45.887368 0.806705 0.806740 0.088014 -0.011429 63890.800000 0 0 1
-23.003208 -25.071806 30.875359 45.945956 0.828400 0.833900 0.092359 -0.004445 -312903.000000 0 0 1
-22.487908 -26.309256 31.592759 46.861342 0.863550 0.830949 0.109976 -0.005229 -384317.000000 0 0 1
-23.357108 -26.985796 32.471159 48.251051 0.857353 0.832589 0.093624 -0.008865 -180871.000000 0 0 1
-22.737208 -28.043306 33.154359 49.016520 0.889511 0.827944 0.092094 -0.014582 -289348.000000 0 0 1
-23.821408 -28.935906 -33.763041 50.444912 0.882040 2.304070 0.091550 -0.013234 -156534.000000 0 0 1
-24.707008 -29.549756 32.885259 50.646467 0.874418 0.864119 0.080584 -0.018199 1365750.000000 0 0 1
-25.912308 -28.793886 32.568059 50.608439 0.838023 0.871695 0.077705 -0.015147 671956.000000 0 0 1
-26.979098 -28.694756 33.700159 51.835909 0.816205 0.863039 0.070075 -0.017055 -1319000.000000 0 0 1
-28.179618 -28.196806 33.229759 51.897665 0.785703 0.875915 0.061518 -0.009374 -795657.000000 0 0 1
-29.047808 -28.074866 -33.251341 52.322318 0.768367 2.259465 0.053050 -0.003464 -131389.000000 0 0 1
-30.158518 -27.016656 -33.400941 52.488655 0.730502 2.260548 0.044280 -0.012963 128609.000000 0 0 1
-31.112638 -27.345516 33.165359 53.063307 0.721046 0.895646 0.043069 -0.010995 -263001.000000 0 0 1
-32.147688 -26.407606 33.206959 53.230984 0.687682 0.897166 0.049186 -0.017967 -159527.000000 0 0 1
