# x y z rho theta phi s1 s2 stress_xx np intf bulk
-0.662209 -10.728094 -14.370089 17.945194 1.509148 2.499387 0.009083 0.003788 -1013000.000000 1 0 0
2.136191 -13.457494 -13.112289 18.910304 -1.413374 2.336985 0.025187 0.001933 806063.000000 1 0 0
2.135791 -11.178594 -14.836889 18.699087 -1.382011 2.487262 0.011356 0.007116 137702.000000 1 0 0
-5.480909 -6.338994 -16.457189 18.467872 0.857868 2.670616 0.015937 -0.005159 -924340.000000 1 0 0
4.501491 -14.139394 -11.461989 18.750016 -1.262577 2.228506 0.015988 -0.004633 403510.000000 1 0 0
14.178391 -10.584794 -7.954889 19.399611 -0.641286 1.993310 0.048007 -0.014611 -312269.000000 1 0 0
7.034691 10.878106 -10.706889 16.806473 0.996756 2.261487 0.036925 -0.022222 39489.800000 1 0 0
5.800491 -4.134894 -12.536889 14.419314 -0.619300 2.624886 0.006605 -0.002769 2452990.000000 1 0 0
13.727091 0.571406 -9.940289 16.957856 0.041602 2.197127 0.045752 -0.009154 2214160.000000 1 0 0
14.197691 5.158706 -10.414589 18.348034 0.348516 2.174400 0.056763 -0.008220 93466.300000 1 0 0
4.148991 4.376506 -13.414989 14.708156 0.812078 2.719121 0.011538 -0.008218 2897930.000000 1 0 0
10.415791 -4.931894 -13.647889 17.862731 -0.442225 2.440353 0.044305 -0.009444 -414686.000000 1 0 0
2.635791 -7.580394 -12.063789 14.489471 -1.236162 2.554564 -0.005883 0.005191 1075970.000000 1 0 0
-5.507309 -2.053794 -15.044389 16.151847 0.356947 2.769132 0.013079 -0.010083 1615530.000000 1 0 0
10.732891 0.078706 -9.631789 14.421252 0.007333 2.302165 0.017434 -0.004570 1222590.000000 1 0 0
-1.547809 -9.572694 -16.947189 19.525353 1.410494 2.621872 0.022433 -0.004032 429411.000000 1 0 0
8.805391 1.749506 -17.781189 19.918995 0.196132 2.674042 0.046582 -0.017927 713518.000000 1 0 0
16.368691 -5.837294 -8.758189 19.460574 -0.342554 2.037615 0.073466 -0.014813 325632.000000 1 0 0
10.033091 7.587006 -9.920889 16.020287 0.647456 2.238609 0.038684 -0.012382 383086.000000 1 0 0
13.791691 -2.247194 -10.549689 17.508757 -0.161519 2.217474 0.050471 -0.012863 -2019850.000000 1 0 0
7.277391 -1.792894 -13.612489 15.539458 -0.241555 2.638291 0.021821 -0.011317 1128290.000000 1 0 0
-2.800909 6.609506 -13.669489 15.439740 -1.169968 2.658031 0.006880 -0.005038 -201542.000000 1 0 0
11.313291 1.788706 -13.928089 18.032795 0.156809 2.453369 0.036623 -0.011449 816910.000000 1 0 0
-2.338609 10.664706 -12.830889 16.847455 -1.354928 2.436563 0.010165 -0.001463 -852697.000000 1 0 0
2.902991 -1.060594 -15.234989 15.545324 -0.350280 2.941443 0.012059 -0.010248 1215870.000000 1 0 0
-9.099709 0.332406 -15.201489 17.720058 -0.036513 2.601905 0.021937 -0.002164 -1057030.000000 1 0 0
2.338491 -1.809194 -18.015489 18.256494 -0.658472 2.978926 0.033050 -0.017337 21274.700000 1 0 0
0.972491 7.873906 -13.154789 15.362051 1.447911 2.598892 0.007262 -0.003120 -1313370.000000 1 0 0
9.410891 -9.016294 -9.920089 16.378846 -0.763988 2.221397 0.029472 -0.004319 -458620.000000 1 0 0
3.902591 7.316706 -13.486689 15.832093 1.080802 2.590318 0.010463 -0.007958 1674070.000000 1 0 0
-2.799709 9.070506 -15.390189 18.082322 -1.271413 2.588908 0.010382 -0.003163 -139959.000000 1 0 0
5.625191 -7.597294 -15.268889 17.958302 -0.933454 2.587240 0.024326 -0.005968 559629.000000 1 0 0
4.281791 7.221206 -16.392389 18.417110 1.035579 2.668280 0.020498 -0.007872 1121450.000000 1 0 0
-0.282509 5.044806 -13.466189 14.382911 -1.514855 2.782634 0.012637 -0.009284 2203890.000000 1 0 0
8.950691 4.395006 -16.495589 19.275253 0.456441 2.597874 0.044944 -0.017606 -564179.000000 1 0 0
5.359391 0.328706 -14.287089 15.262766 0.061256 2.782098 0.009129 -0.007578 704844.000000 1 0 0
6.189891 8.004206 -11.504289 15.320924 0.912531 2.420201 0.010230 -0.011773 -1054460.000000 1 0 0
2.811391 -8.335494 -15.087389 17.464641 -1.245498 2.613723 0.006454 0.002148 294792.000000 1 0 0
4.050391 11.372406 -13.799689 18.334904 1.228645 2.422868 0.028322 -0.022555 -1921140.000000 1 0 0
0.746091 -4.555994 -13.724989 14.480644 -1.408477 2.817111 0.004052 -0.001226 1078790.000000 1 0 0
8.533291 0.014206 -11.567289 14.374263 0.001665 2.506004 0.009450 -0.005563 -872933.000000 1 0 0
-0.829009 -5.066894 -16.273089 17.063824 1.408620 2.835971 0.012087 -0.008793 -351506.000000 1 0 0
4.433091 0.927106 -11.679489 12.526862 0.206162 2.771670 0.005118 -0.004545 367352.000000 1 0 0
-2.791309 -7.213094 -15.596489 17.408923 1.201566 2.681228 0.000009 -0.001270 2469600.000000 1 0 0
11.374391 -3.666794 -11.331289 16.468766 -0.311854 2.329591 0.029266 -0.006080 1293400.000000 1 0 0
6.513691 -7.027294 -12.477789 15.732331 -0.823310 2.486728 0.017985 -0.000935 -1501740.000000 1 0 0
3.539291 -4.003694 -14.618689 15.564775 -0.846888 2.791137 0.011375 -0.004400 2778910.000000 1 0 0
-0.584909 -1.542494 -18.290189 18.364434 1.208351 3.051642 0.032004 -0.021307 817663.000000 1 0 0
14.982291 3.094406 -8.446889 17.475535 0.203674 2.075280 0.044215 -0.009738 -1149730.000000 1 0 0
7.014991 4.382506 -14.353389 16.566117 0.558408 2.618805 0.019390 -0.007134 1992540.000000 1 0 0
10.135391 -9.610694 -14.089489 19.839488 -0.758832 2.360542 0.070073 -0.019246 -244464.000000 1 0 0
9.133391 -3.055694 -15.575089 18.312277 -0.322857 2.587783 0.056773 -0.020304 -743859.000000 1 0 0
-5.251709 -2.229094 -17.989089 18.872112 0.401406 2.834479 0.001854 -0.001562 -419972.000000 1 0 0
5.052891 -9.170194 -11.131789 15.282045 -1.067176 2.386813 -0.004277 0.004530 1985030.000000 1 0 0
-2.503409 3.967006 -16.966389 17.602913 -1.007853 2.871851 0.018253 -0.005549 -200523.000000 1 0 0
9.318091 9.509306 -14.428589 19.632572 0.795554 2.396361 0.084625 -0.033736 -2384700.000000 1 0 0
9.730391 10.099306 -11.520889 18.149583 0.804000 2.258513 0.053149 -0.029135 363070.000000 1 0 0
12.075491 -5.906294 -9.636689 16.539878 -0.454901 2.192762 0.039797 -0.007834 -423068.000000 1 0 0
8.079491 7.076306 -13.688689 17.399209 0.719303 2.476309 0.025091 -0.015837 203521.000000 1 0 0
4.050491 -4.180194 -17.520589 18.462165 -0.801155 2.820844 0.039871 -0.019388 1306320.000000 1 0 0
9.378591 -7.407494 -12.376189 17.204621 -0.668509 2.373666 0.038942 -0.010527 1585550.000000 1 0 0
12.066691 -8.618794 -8.855289 17.271502 -0.620235 2.109136 0.041072 -0.010621 1388350.000000 1 0 0
-2.841809 -2.506194 -13.805789 14.316309 0.722725 2.873734 0.010591 -0.007978 -1456820.000000 1 0 0
-0.456609 6.151106 -17.667989 18.713696 -1.496700 2.805713 0.028363 -0.003390 3677360.000000 1 0 0
1.225291 -8.489694 -17.551489 19.535378 -1.427459 2.687014 0.020333 -0.003682 3123670.000000 1 0 0
-0.015809 8.573606 -16.013889 18.164570 -1.568952 2.650038 0.019292 -0.001768 -424380.000000 1 0 0
1.814791 3.382306 -14.882189 15.369223 1.078335 2.889174 0.020246 -0.011226 1682070.000000 1 0 0
-1.894309 -0.463494 -15.776789 15.896865 0.239963 3.018605 0.018907 -0.015615 1259320.000000 1 0 0
14.137691 -4.212794 -8.378889 16.965486 -0.289605 2.087341 0.044884 -0.006002 194643.000000 1 0 0
0.579291 0.637106 -14.553189 14.578642 0.832892 3.082493 0.012067 -0.011204 1210830.000000 1 0 0
8.901791 2.787006 -12.564089 15.648182 0.303417 2.502958 0.016514 -0.003423 1478680.000000 1 0 0
6.056091 1.162906 -16.955789 18.042377 0.189713 2.792770 0.034339 -0.014903 -939774.000000 1 0 0
15.342091 1.608806 -12.299289 19.729179 0.104480 2.243888 0.080593 -0.020776 904496.000000 1 0 0
8.886091 -11.221794 -11.965889 18.656735 -0.901038 2.267080 0.055814 -0.010651 1796680.000000 1 0 0
-4.566309 0.742706 -15.002989 15.700079 -0.161237 2.842484 0.013527 -0.010504 1673070.000000 1 0 0
2.366091 5.136206 -17.278689 18.180541 1.139106 2.825298 0.035571 -0.011282 2465860.000000 1 0 0
6.009691 -11.716294 -12.425789 18.104921 -1.096855 2.327215 0.020329 -0.003287 818782.000000 1 0 0
12.732491 7.229506 -8.720089 17.041773 0.516406 2.107946 0.035630 -0.007878 417010.000000 1 0 0
-5.097409 3.587306 -15.497989 16.704490 -0.613239 2.759198 0.006707 -0.006796 2477830.000000 1 0 0
-0.503609 -4.367894 -19.026489 19.527913 1.456005 2.914489 0.030131 -0.014908 -1886460.000000 1 0 0
9.722591 4.485306 -10.282689 14.845216 0.432234 2.335967 0.007730 -0.004172 -322507.000000 1 0 0
13.428491 3.761706 -12.902889 18.998930 0.273128 2.317383 0.075130 -0.022144 213905.000000 1 0 0
-6.387509 5.667006 -17.100189 19.113652 -0.725699 2.678462 0.010062 -0.002225 59320.800000 1 0 0
-10.238409 3.072006 -15.290989 18.656811 -0.291500 2.531496 0.037682 -0.012561 -728369.000000 1 0 0
10.778891 13.623206 -8.178889 19.200793 0.901435 2.010826 0.124487 -0.019713 1313770.000000 1 0 0
7.384691 13.464206 -12.273489 19.658510 1.069130 2.245076 0.082752 -0.031568 1328020.000000 1 0 0
5.236491 15.234406 -11.123089 19.576288 1.239720 2.175103 0.058142 -0.021303 331522.000000 1 0 0
14.265991 9.397506 -9.989089 19.789227 0.582491 2.099917 0.116284 -0.026655 -156500.000000 1 0 0
8.534691 -17.064694 -2.186689 19.204852 -1.107039 1.684905 0.035172 -0.011235 -573642.000000 1 0 0
0.859491 -15.962694 -0.065389 15.985950 -1.517005 1.574887 0.005103 -0.009205 2567630.000000 1 0 0
-9.177909 -11.686394 7.476611 16.634468 0.905052 1.104630 0.030434 -0.010304 417997.000000 1 0 0
2.184791 -15.883394 -2.690689 16.257163 -1.434102 1.737069 0.015324 -0.012619 989219.000000 1 0 0
-1.297409 -11.098294 -9.403289 14.604015 1.454423 2.270360 -0.002657 0.000883 750331.000000 1 0 0
-4.749009 -12.631294 -12.805689 18.603450 1.211174 2.330009 0.014228 -0.005217 -622299.000000 1 0 0
-8.332109 -18.010894 -1.432389 19.896434 1.137501 1.642851 0.059046 -0.020503 -1098800.000000 1 0 0
-11.376709 -7.212994 -8.846689 16.115852 0.565055 2.151896 0.027593 -0.011408 3752920.000000 1 0 0
-13.540709 -11.698694 -4.627689 18.483121 0.712546 1.823863 0.046595 -0.015023 219245.000000 1 0 0
-5.761909 -13.510894 9.621511 17.558967 1.167686 0.990880 0.023958 -0.011134 -511033.000000 1 0 0
0.248791 -14.009094 -3.690389 14.489154 -1.553039 1.828334 0.007959 -0.005504 -721174.000000 1 0 0
-14.769409 -11.665294 1.938011 18.920106 0.668508 1.468185 0.018087 -0.000351 471865.000000 1 0 0
-3.865709 -16.612094 -7.402989 18.593268 1.342161 1.980300 0.025117 -0.009619 304802.000000 1 0 0
0.557691 -15.353194 -9.297789 17.957741 -1.534488 2.115026 0.011590 -0.004528 642045.000000 1 0 0
4.629691 -14.163094 -2.695789 15.142475 -1.254861 1.749779 0.011212 -0.008546 1225960.000000 1 0 0
-3.336509 -18.154194 -2.356189 18.608028 1.389037 1.697759 0.036294 -0.021826 1704960.000000 1 0 0
-0.774709 -13.486494 0.640911 13.523922 1.513416 1.523388 0.004075 -0.003326 2291920.000000 1 0 0
-8.457709 -11.315994 -10.496489 17.600024 0.928954 2.209793 0.024265 -0.010536 1325280.000000 1 0 0
-3.567809 -14.155394 -0.397489 14.603508 1.323893 1.598018 0.011378 -0.003374 4000810.000000 1 0 0
-1.454909 -14.939794 -7.284189 16.684532 1.473718 2.022594 0.015324 -0.004352 356286.000000 1 0 0
-14.239909 -8.101694 -1.861989 16.488768 0.517270 1.683962 0.029186 -0.006617 1824510.000000 1 0 0
-10.717209 -7.306194 -11.678089 17.453275 0.598356 2.303801 0.036253 -0.012680 -1694430.000000 1 0 0
-9.498409 -14.679094 6.724711 18.732787 0.996483 1.203621 0.027439 -0.009236 445639.000000 1 0 0
-2.478309 -14.354294 -12.218489 19.012608 1.399829 2.268751 0.026383 -0.003252 -795263.000000 1 0 0
2.502191 -17.752294 -4.788989 18.556382 -1.430768 1.831828 0.035941 -0.017264 128560.000000 1 0 0
-6.570609 -9.678394 -9.205789 14.885925 0.974376 2.237530 0.014632 -0.007606 689631.000000 1 0 0
-10.869409 -15.328994 0.486711 18.797846 0.954006 1.544902 0.045037 -0.016960 439291.000000 1 0 0
-12.667309 -11.012494 4.050711 17.266847 0.715629 1.333995 0.029097 -0.005842 3036820.000000 1 0 0
-17.077609 -9.075794 -1.706389 19.414596 0.488485 1.658802 0.023306 -0.007000 492550.000000 1 0 0
-1.192609 -19.187194 -4.009889 19.637972 1.508720 1.776433 0.054647 -0.021151 -620306.000000 1 0 0
3.327791 -14.267494 -8.760889 17.070113 -1.341650 2.109740 0.019202 -0.009081 495389.000000 1 0 0
-4.199809 -8.050094 -13.060289 15.906400 1.089932 2.534082 0.004529 0.000015 684517.000000 1 0 0
5.636291 -16.545894 1.197611 17.520521 -1.242479 1.502388 0.026804 -0.007243 4500930.000000 1 0 0
-2.658409 -13.782794 -3.241089 14.406152 1.380257 1.797718 0.011585 -0.005138 -471104.000000 1 0 0
-0.278009 -14.000294 3.678711 14.478206 1.550942 1.313894 -0.000314 -0.003661 -3251830.000000 1 0 0
1.230591 -16.271094 7.019611 17.763384 -1.495310 1.164540 0.026559 -0.005914 2721050.000000 1 0 0
-5.351809 -10.404894 -14.632989 18.735743 1.095731 2.467094 0.013897 -0.004483 311416.000000 1 0 0
-0.105509 -17.237494 -5.952789 18.236722 1.564675 1.903308 0.039900 -0.014124 335567.000000 1 0 0
-6.372309 -13.417294 -1.326189 14.912709 1.127403 1.659844 0.017153 -0.006714 3608600.000000 1 0 0
-1.487509 -17.798494 -0.130689 17.861024 1.487415 1.578113 0.021320 -0.015201 1109810.000000 1 0 0
-9.404309 -9.884294 -4.839089 14.476087 0.810277 1.911639 0.025251 -0.006530 1521530.000000 1 0 0
-0.664509 -16.699094 4.825211 17.394941 1.531024 1.289718 0.018968 -0.012789 2238010.000000 1 0 0
-6.721509 -9.833794 -6.274889 13.463151 0.971223 2.055650 0.016261 -0.007909 2194250.000000 1 0 0
-5.961809 -14.600594 -8.510389 17.920582 1.183133 2.065641 0.021921 -0.009333 -577968.000000 1 0 0
-5.738809 -12.219194 -10.149189 16.889307 1.131718 2.215453 0.021366 -0.008441 1249600.000000 1 0 0
-10.575509 -12.239194 -8.661389 18.348268 0.858191 2.062417 0.045076 -0.019958 -129008.000000 1 0 0
4.171891 -17.010894 6.494111 18.680168 -1.330295 1.215736 0.052930 -0.014448 1794020.000000 1 0 0
-6.580809 -14.514694 -4.128989 16.463048 1.145127 1.824306 0.024851 -0.013938 -1785750.000000 1 0 0
-2.785809 -12.269194 -7.036889 14.415674 1.347525 2.080755 0.003687 -0.005597 1630360.000000 1 0 0
-7.022109 -12.857894 4.320811 15.274321 1.070928 1.284000 0.015942 -0.008327 2965720.000000 1 0 0
2.670991 -16.359494 2.325711 16.738464 -1.408956 1.431401 0.017304 -0.009586 2947180.000000 1 0 0
-6.228409 -11.973494 7.129411 15.263884 1.091133 1.084814 0.014152 -0.011059 1898700.000000 1 0 0
-11.298509 -12.933394 -0.978389 17.201344 0.852764 1.627706 0.048721 -0.006849 1670880.000000 1 0 0
-14.290209 -8.713294 4.569811 17.349777 0.547550 1.304259 0.009085 -0.003002 447689.000000 1 0 0
-7.832209 -15.569894 4.453211 17.988780 1.104723 1.320641 0.031505 -0.005572 895627.000000 1 0 0
-16.493209 -9.270094 1.160811 18.955423 0.512052 1.509519 0.008405 0.000388 -74520.900000 1 0 0
-6.383509 -17.014294 2.316711 18.319458 1.211863 1.443995 0.030518 -0.013608 -47860.300000 1 0 0
-11.577809 -14.998694 -4.610489 19.500336 0.913413 1.809488 0.064354 -0.013830 37681.000000 1 0 0
-10.098009 -10.010094 -12.574089 18.981030 0.781026 2.294888 0.036855 -0.012025 -544258.000000 1 0 0
-4.230309 -16.086294 -4.493789 17.229583 1.313643 1.834666 0.017033 -0.013704 292163.000000 1 0 0
-11.888409 -8.333794 0.073211 14.518669 0.611398 1.565754 0.010196 -0.002875 3430580.000000 1 0 0
-9.619709 -11.195594 3.437211 15.155677 0.860962 1.342012 0.020492 -0.001433 2847460.000000 1 0 0
-14.308009 -13.084794 -0.587089 19.397826 0.740773 1.601067 0.046857 -0.006589 846113.000000 1 0 0
5.668291 -14.908294 -7.155789 17.481192 -1.207465 1.992529 0.016908 -0.019419 358398.000000 1 0 0
-7.403209 -10.634094 -1.234289 13.015949 0.962641 1.665768 0.015406 -0.003800 1972030.000000 1 0 0
-11.521309 -8.334194 -6.034889 15.447305 0.626240 1.972162 0.025731 -0.010378 -184749.000000 1 0 0
-14.475209 -6.790894 -9.208089 18.450930 0.438656 2.093308 0.044717 -0.017418 3210530.000000 1 0 0
-3.680609 -16.512394 1.399811 16.975439 1.351482 1.488242 0.020102 -0.012956 5780.760000 1 0 0
-7.864209 -15.533694 0.177411 17.411861 1.102147 1.560607 0.048052 -0.015921 1848320.000000 1 0 0
1.118391 -18.657894 3.570311 19.029318 -1.510926 1.382056 0.028992 -0.013840 1269520.000000 1 0 0
-14.052809 -8.862494 -4.641489 17.250179 0.562657 1.843223 0.036395 -0.014409 -716320.000000 1 0 0
-3.276209 -14.476694 10.906411 18.418958 1.348236 0.937097 0.016388 -0.019720 -148654.000000 1 0 0
-10.765609 -12.261394 -3.805589 16.754780 0.850265 1.799931 0.050992 -0.016284 1918680.000000 1 0 0
-10.032809 -10.782094 0.483711 14.735834 0.821380 1.537965 0.018973 -0.002356 1911490.000000 1 0 0
-0.030009 -13.184094 -11.137289 17.258634 1.568520 2.272234 0.012884 -0.002084 968312.000000 1 0 0
-5.821509 -12.658594 -6.293289 15.288409 1.139752 1.995047 0.012695 -0.011109 2773680.000000 1 0 0
1.883091 -16.018394 9.972711 18.962857 -1.453775 1.017014 0.027412 -0.002511 637508.000000 1 0 0
-8.898909 -15.830294 -5.168089 18.881153 1.058677 1.848052 0.054285 -0.015573 216492.000000 1 0 0
-3.209709 -15.574394 5.851311 16.944080 1.367553 1.218205 0.008601 -0.004946 -1910070.000000 1 0 0
-17.539009 -5.657194 -6.570689 19.565138 0.312014 1.913290 0.032043 -0.008381 1105330.000000 1 0 0
18.783891 5.660206 -3.000989 19.846370 0.292679 1.722590 0.033227 0.000783 -1089170.000000 1 0 0
12.994491 -12.333794 -5.819589 18.837380 -0.759319 1.884873 0.041256 -0.010221 153188.000000 1 0 0
11.086691 -13.313094 -1.742889 17.412377 -0.876393 1.671059 0.028954 -0.007690 2511210.000000 1 0 0
18.674791 -2.666194 4.453011 19.382614 -0.141811 1.338983 0.092881 -0.023735 818047.000000 1 0 0
8.946591 -16.784294 4.764411 19.607489 -1.081072 1.325350 0.060137 -0.021296 151239.000000 1 0 0
18.120591 -0.937494 6.685811 19.337393 -0.051690 1.217763 0.121185 -0.019594 -262394.000000 1 0 0
17.978691 -4.079194 -5.119589 19.133305 -0.223113 1.841671 0.089704 -0.016910 659819.000000 1 0 0
5.362491 -11.787294 14.874511 19.721757 -1.143843 0.716333 0.017337 -0.002703 612993.000000 1 0 0
16.046091 -8.755094 -0.802289 18.296786 -0.499475 1.614659 0.042022 -0.008589 302387.000000 1 0 0
13.961191 -12.561594 -1.474889 18.838360 -0.732677 1.649168 0.039082 -0.000553 -486440.000000 1 0 0
11.061691 -1.825294 13.784711 17.768257 -0.163537 0.682806 0.042167 -0.011194 -46771.100000 1 0 0
17.059391 -6.017094 -1.469989 18.149080 -0.339091 1.651880 0.056567 -0.008912 -1951190.000000 1 0 0
17.763791 3.840306 -0.976589 18.200383 0.212911 1.624480 0.031042 0.001093 850268.000000 1 0 0
9.718491 -11.110794 9.483711 17.545358 -0.852142 0.999735 0.034724 -0.006357 -27351.600000 1 0 0
9.117791 -11.082094 4.260411 14.969904 -0.882337 1.282209 0.015908 -0.005948 -757758.000000 1 0 0
14.099091 -9.993094 6.739611 18.549088 -0.616592 1.198947 0.046515 -0.014020 -362597.000000 1 0 0
16.242191 -0.451094 -4.799589 16.942500 -0.027766 1.858016 0.033691 -0.004356 -2242830.000000 1 0 0
15.794191 -0.395294 -1.793189 15.900574 -0.025023 1.683812 0.031665 -0.001862 236006.000000 1 0 0
12.946991 -5.159194 -0.350889 13.941484 -0.379201 1.595968 0.017637 -0.005977 1931220.000000 1 0 0
14.325391 -7.464094 1.053911 16.187658 -0.480337 1.505644 0.030091 -0.004044 3256870.000000 1 0 0
15.493591 2.534806 3.615711 16.110555 0.162167 1.344437 0.044403 -0.002692 2735920.000000 1 0 0
15.886391 -7.022994 4.877011 18.041206 -0.416245 1.297064 0.060709 -0.014554 -2523520.000000 1 0 0
13.729691 -12.064794 3.229411 18.560517 -0.720943 1.395913 0.021640 0.000204 2079680.000000 1 0 0
13.999791 -0.903494 9.134111 16.740443 -0.064447 0.993654 0.067526 -0.011673 1261950.000000 1 0 0
14.301691 -2.703694 -1.604889 14.643224 -0.186842 1.680616 0.021038 -0.004231 608610.000000 1 0 0
15.057291 1.953006 9.173811 17.739646 0.128985 1.027295 0.090866 -0.008514 -1308390.000000 1 0 0
14.411891 -10.053594 -3.006589 17.827421 -0.609107 1.740256 0.041348 -0.009906 987847.000000 1 0 0
7.383691 -12.657094 6.063011 15.858154 -1.042699 1.178482 0.014549 -0.006223 1317600.000000 1 0 0
12.388391 -4.575194 6.972111 14.933686 -0.353776 1.085047 0.021069 -0.004619 1335860.000000 1 0 0
15.089391 -8.932794 -5.702389 18.439137 -0.534510 1.885205 0.056344 -0.014164 -1222780.000000 1 0 0
14.260291 -4.491794 4.562311 15.631596 -0.305148 1.274620 0.025881 -0.011300 -180432.000000 1 0 0
17.164091 -4.036094 0.883011 17.654342 -0.230952 1.520759 0.040965 -0.012330 -573355.000000 1 0 0
10.335991 -14.346294 1.058711 17.713547 -0.946468 1.510992 0.037127 -0.007535 -61805.300000 1 0 0
16.381891 -2.511394 8.494911 18.623559 -0.152119 1.097146 0.104995 -0.015994 -354396.000000 1 0 0
16.031691 -2.509594 3.125711 16.525231 -0.155279 1.380502 0.035259 -0.007962 2316040.000000 1 0 0
7.903791 -15.156494 2.550411 17.282761 -1.090114 1.422686 0.021987 -0.004988 2389170.000000 1 0 0
16.667291 -6.855994 7.757011 19.620766 -0.390247 1.164351 0.090047 -0.019162 -37180.700000 1 0 0
10.330491 -8.524694 5.159811 14.353157 -0.689917 1.203075 0.011636 -0.006976 2309120.000000 1 0 0
10.996291 -11.787694 2.100811 16.256739 -0.820119 1.441207 0.022732 -0.005036 -174297.000000 1 0 0
12.385391 -7.188494 11.932011 18.639883 -0.525884 0.876124 0.061615 -0.015167 -685104.000000 1 0 0
15.335091 -9.844094 4.251811 18.712272 -0.570683 1.341574 0.039451 -0.003410 88115.900000 1 0 0
7.360691 -10.313294 7.786111 14.871696 -0.950929 1.019781 0.017340 -0.002588 2002500.000000 1 0 0
15.228691 -3.236594 -4.370189 16.170563 -0.209417 1.844455 0.042198 -0.009428 335192.000000 1 0 0
11.832991 -8.982094 9.684311 17.733685 -0.649282 0.993098 0.048571 -0.012693 -2225870.000000 1 0 0
17.062291 -6.445194 2.336711 18.388108 -0.361175 1.443374 0.068197 -0.014033 2097790.000000 1 0 0
17.562991 4.061106 2.006911 18.137776 0.227237 1.459921 0.047999 0.001752 313755.000000 1 0 0
14.757791 -4.852994 8.643011 17.777671 -0.317704 1.063092 0.071149 -0.014689 467617.000000 1 0 0
12.930291 -12.619594 6.132911 19.080335 -0.773238 1.243562 0.032878 -0.003074 1084210.000000 1 0 0
18.239691 0.898906 -0.956989 18.286886 0.049243 1.623152 0.042402 -0.001226 -47071.600000 1 0 0
11.685891 -2.021694 10.873511 16.089765 -0.171307 0.828743 0.021912 -0.002501 1368610.000000 1 0 0
5.797091 -12.485794 10.509411 17.319037 -1.136119 0.918752 0.012129 -0.002910 -1035310.000000 1 0 0
10.764691 -4.900694 11.014511 16.162142 -0.427217 0.820985 0.028395 -0.004153 1227580.000000 1 0 0
17.841991 1.469506 5.164311 18.632396 0.082177 1.289951 0.092550 -0.008455 -680470.000000 1 0 0
12.312091 -7.620894 7.133011 16.141421 -0.554256 1.113073 0.032457 -0.010562 -344294.000000 1 0 0
10.775291 -7.778294 14.340011 19.551079 -0.625250 0.747392 0.078188 -0.013068 -855261.000000 1 0 0
14.067791 -0.214694 3.643811 14.533623 -0.015260 1.317377 0.012278 0.001210 2069380.000000 1 0 0
11.743591 -7.654794 2.604611 14.258043 -0.577659 1.387088 0.017984 -0.006383 599710.000000 1 0 0
9.293491 6.183506 3.586511 11.724665 0.587097 1.259918 0.004704 0.001736 1472460.000000 1 0 0
-3.977009 14.716506 -9.982489 18.222026 -1.306860 2.150559 0.005885 -0.008446 1232210.000000 1 0 0
8.897391 -6.475494 9.295811 14.405127 -0.629139 0.869364 0.004639 -0.001355 204917.000000 1 0 0
5.845891 -10.542694 -8.502889 14.752016 -1.064507 2.185098 0.005831 -0.004231 -416286.000000 1 0 0
5.346791 1.114706 0.565511 5.490951 0.205537 1.467624 -0.000973 0.002981 3644060.000000 1 0 0
-0.631409 9.992606 11.045211 14.907969 -1.507693 0.736397 0.012866 0.006172 1177800.000000 1 0 0
-6.297509 -5.185994 1.016011 8.221036 0.688906 1.446893 0.011769 -0.003161 3692930.000000 1 0 0
-1.034909 3.947506 -10.833289 11.576441 -1.314399 2.781331 0.008408 -0.006986 1596510.000000 1 0 0
10.911291 5.864806 1.236211 12.449114 0.493195 1.471331 0.008095 0.001953 818258.000000 1 0 0
-10.185409 -1.947894 -13.601189 17.103485 0.188962 2.490182 0.024413 -0.007763 683916.000000 1 0 0
7.365991 10.841806 -6.046989 14.434980 0.974026 2.003043 0.006199 -0.003500 1125590.000000 1 0 0
-12.476209 -3.069694 -9.547889 16.007529 0.241252 2.209883 0.014540 -0.000998 1121430.000000 1 0 0
-3.863509 -8.653294 2.454511 9.789322 1.150875 1.317358 0.012538 -0.002432 -975286.000000 1 0 0
8.124391 -6.667094 -6.022889 12.113260 -0.687192 2.091182 0.001518 -0.007696 2723170.000000 1 0 0
14.282191 3.160506 -4.202589 15.219446 0.217780 1.850565 0.026910 0.000156 1451300.000000 1 0 0
-2.539209 -4.852594 9.753311 11.185809 1.088708 0.511654 0.007729 -0.001518 1979500.000000 1 0 0
3.482191 -2.008794 -4.498289 6.032869 -0.523243 2.412276 -0.004365 0.001244 -3212310.000000 1 0 0
-3.977109 8.316206 -3.430389 9.835865 -1.124711 1.927048 -0.003053 -0.001392 -879798.000000 1 0 0
5.778391 0.199506 11.706611 13.056583 0.034512 0.458752 -0.002687 0.002877 1625250.000000 1 0 0
7.075091 4.832506 12.378411 15.054404 0.599246 0.605452 0.011415 0.002037 1317050.000000 1 0 0
1.159091 -14.566594 12.348311 19.131387 -1.491392 0.869187 0.005024 -0.004658 -2006440.000000 1 0 0
2.950091 8.729906 -9.066489 12.927316 1.244915 2.348077 0.000414 -0.001443 822955.000000 1 0 0
-4.336209 -8.887894 -4.544889 10.883629 1.116893 2.001587 0.011105 -0.005773 1068940.000000 1 0 0
5.780291 -6.670694 -4.023889 9.700598 -0.856789 1.998528 -0.002741 -0.003265 2632870.000000 1 0 0
-3.139309 3.449606 8.612811 9.794670 -0.832457 0.496329 0.002837 -0.000838 2628970.000000 1 0 0
-3.756709 3.068406 -11.059589 12.076526 -0.684889 2.728272 0.010943 -0.010456 856232.000000 1 0 0
3.084891 -6.101794 8.657511 11.031815 -1.102702 0.668461 0.002952 -0.000787 136216.000000 1 0 0
-5.098309 -8.722994 10.466611 14.547623 1.041876 0.767754 0.009201 -0.005572 1527310.000000 1 0 0
-13.318209 -2.533494 6.526611 15.046260 0.187982 1.122124 0.012788 -0.005153 486037.000000 1 0 0
3.955291 -5.962094 -8.329389 10.980420 -0.985054 2.431908 -0.006165 -0.001269 3008390.000000 1 0 0
2.929591 -0.497594 12.487911 12.836589 -0.168245 0.233610 -0.003563 0.003113 1228800.000000 1 0 0
1.552091 -1.489894 -7.580889 7.880270 -0.764955 2.865063 -0.001264 -0.003671 -9161.060000 1 0 0
3.628191 -3.530894 3.446611 6.124550 -0.771808 0.973083 -0.001078 0.001733 2495540.000000 1 0 0
1.564591 0.379006 -11.815989 11.925149 0.237661 3.006184 0.006065 -0.008190 1065060.000000 1 0 0
3.975191 3.581706 -10.609089 11.882067 0.733375 2.674465 0.000377 -0.003109 1228480.000000 1 0 0
2.854091 3.308806 3.459211 5.573165 0.859047 0.901173 -0.004806 0.004708 193934.000000 1 0 0
-5.355309 0.874506 2.639011 6.033944 -0.161868 1.118134 0.000660 -0.004182 1362900.000000 1 0 0
-9.446709 -9.287494 5.652311 14.403003 0.776900 1.167514 0.015936 -0.002682 -2093630.000000 1 0 0
-3.035509 3.816206 -0.489089 4.900709 -0.898851 1.670762 -0.001058 -0.004648 -449860.000000 1 0 0
-15.877109 -6.465694 4.926311 17.836937 0.386727 1.290973 0.026925 -0.010612 1426300.000000 1 0 0
0.997891 6.641206 -8.024089 10.463623 1.421655 2.444724 -0.000529 -0.000757 -291357.000000 1 0 0
-1.614109 6.463206 -9.385389 11.509296 -1.326064 2.524323 0.004200 -0.002936 1369910.000000 1 0 0
2.062891 -0.347294 5.264611 5.665003 -0.166789 0.378224 0.000744 0.001086 3303390.000000 1 0 0
-3.344909 -0.635894 -6.255089 7.121721 0.187866 2.643115 0.011784 -0.007296 321155.000000 1 0 0
1.891891 -1.069494 -2.354589 3.204241 -0.514517 2.396220 0.001574 0.000422 2994710.000000 1 0 0
2.429191 -8.639894 -7.571689 11.742198 -1.296712 2.271594 -0.004573 -0.000262 2270280.000000 1 0 0
-2.523009 14.025706 -5.573389 15.301917 -1.392815 1.943600 0.003774 -0.000242 2183860.000000 1 0 0
6.882391 -5.097494 -8.249289 11.891279 -0.637495 2.337446 -0.000940 -0.004240 3325030.000000 1 0 0
-14.245009 -5.131094 -2.178289 15.296841 0.345735 1.713683 0.012102 -0.003651 178806.000000 1 0 0
-2.701109 6.871706 -6.749489 10.003596 -1.196272 2.311363 0.003706 -0.002970 -1689780.000000 1 0 0
-5.594709 -1.091594 -8.060889 9.872704 0.192691 2.526088 0.022458 -0.010815 480508.000000 1 0 0
-5.695709 -10.602694 3.426311 12.513906 1.077838 1.293454 0.010290 -0.004139 -3931300.000000 1 0 0
8.088191 -7.601194 6.689811 12.959574 -0.754368 1.028381 0.005902 -0.004393 513528.000000 1 0 0
8.808791 -5.961994 13.118211 16.888684 -0.595001 0.681314 0.034903 -0.006441 188502.000000 1 0 0
-4.784709 9.454506 -0.775589 10.624625 -1.102299 1.643860 -0.004496 0.002505 868229.000000 1 0 0
2.648491 6.712806 12.226211 14.197060 1.195003 0.533211 0.012116 0.003712 1744510.000000 1 0 0
6.013591 -2.757894 10.964011 12.805421 -0.429991 0.542926 0.001740 -0.000236 -483659.000000 1 0 0
-9.717009 -6.536794 -1.139589 11.766419 0.592179 1.667799 0.015785 -0.004261 -10867.600000 1 0 0
0.908891 -13.306494 6.274411 14.739644 -1.502598 1.131080 0.003862 -0.004227 441587.000000 1 0 0
-0.460709 -3.124794 8.740311 9.293526 1.424414 0.346777 0.001936 -0.002108 2100580.000000 1 0 0
4.260391 0.784806 3.412211 5.514529 0.182168 0.903624 -0.004275 0.005004 1227320.000000 1 0 0
-10.246809 5.532206 8.255311 14.274192 -0.495052 0.954106 -0.004830 -0.007780 -139304.000000 1 0 0
9.278391 7.998906 0.001711 12.250348 0.711477 1.570657 0.006331 -0.001046 408002.000000 1 0 0
4.285191 2.939306 8.160911 9.674857 0.601215 0.566997 -0.005555 0.003040 2762410.000000 1 0 0
1.329391 2.592006 -9.722089 10.149127 1.096897 2.850475 0.004031 -0.004705 1586010.000000 1 0 0
-1.413009 -10.172694 3.019011 10.704893 1.432777 1.284896 0.005690 -0.003197 -1745620.000000 1 0 0
-9.983509 9.535506 9.068111 16.517474 -0.762450 0.989628 0.005153 -0.011317 1200590.000000 1 0 0
9.719991 -1.989194 -7.698089 12.557695 -0.201863 2.230671 0.010421 -0.003860 202887.000000 1 0 0
-5.252409 -1.890994 6.667111 8.695633 0.345577 0.697081 0.006108 -0.003173 292150.000000 1 0 0
3.165491 -7.833894 -4.907089 9.770863 -1.186781 2.096956 -0.006553 -0.002760 1828970.000000 1 0 0
-5.117609 4.837206 -12.958989 14.748691 -0.757238 2.643831 0.003650 -0.012548 2241690.000000 1 0 0
-5.717109 9.558906 5.500811 12.422437 -1.031781 1.112063 -0.006743 -0.001778 806848.000000 1 0 0
-0.380809 -1.838394 -9.399289 9.584954 1.366543 2.944446 0.004210 -0.007988 -500473.000000 1 0 0
-16.786209 0.158306 6.288611 17.926196 -0.009430 1.212365 0.038085 -0.019951 -1218870.000000 1 0 0
-5.957309 -2.923494 4.035011 7.766445 0.456213 1.024479 0.001070 -0.003191 2165830.000000 1 0 0
1.047191 -5.735694 -5.136189 7.770150 -1.390211 2.292967 0.000466 -0.001690 268694.000000 1 0 0
-7.092509 1.394006 -8.442189 11.113842 -0.194072 2.433510 0.012298 -0.008383 1520620.000000 1 0 0
8.013891 1.973106 4.772411 9.533703 0.241409 1.046524 -0.003997 0.003457 859364.000000 1 0 0
0.530491 -8.021794 -0.453689 8.052108 -1.504761 1.627170 0.000689 -0.000438 1198940.000000 1 0 0
5.409891 5.510006 -3.390789 8.433536 0.794566 1.984562 -0.002537 0.001022 366115.000000 1 0 0
-0.784709 -0.325494 -1.126489 1.410919 0.393196 2.495443 0.004820 -0.001537 833877.000000 1 0 0
9.055191 6.401606 -6.348489 12.778120 0.615378 2.090733 0.005413 -0.003683 1990580.000000 1 0 0
-15.088909 -7.097794 2.389211 16.845242 0.439687 1.428483 0.001987 -0.002397 2632110.000000 1 0 0
-6.475309 6.802106 8.910311 12.945729 -0.810006 0.811678 -0.006521 -0.000808 864528.000000 1 0 0
-9.454409 -3.259594 -9.633289 13.885642 0.332008 2.337492 0.015480 -0.006529 1860940.000000 1 0 0
14.860791 3.582206 -1.273289 15.339380 0.236538 1.653900 0.016314 0.002115 390179.000000 1 0 0
12.026591 1.755506 -5.824789 13.477717 0.144945 2.017704 0.015965 -0.001192 45684.100000 1 0 0
1.604091 -9.469894 12.747811 15.961162 -1.403001 0.645703 -0.000158 -0.003915 -140032.000000 1 0 0
-3.660209 6.371706 7.950711 10.826337 -1.049378 0.746035 -0.001400 0.000426 2109300.000000 1 0 0
-4.103609 12.995206 -12.425389 18.441943 -1.264927 2.310078 0.008094 -0.007154 271025.000000 1 0 0
-10.276009 7.808506 6.492011 14.446983 -0.649793 1.104739 -0.009381 -0.006413 -364618.000000 1 0 0
8.080891 -9.282394 -7.242389 14.279910 -0.854486 2.102698 0.010721 -0.005402 219865.000000 1 0 0
5.881791 -3.811294 -0.248089 7.013058 -0.574955 1.606179 0.001423 0.000780 -957326.000000 1 0 0
-1.646209 -4.483794 4.269911 6.406759 1.218929 0.841333 0.002878 -0.001918 1562680.000000 1 0 0
9.880491 -1.969094 -2.634189 10.413471 -0.196714 1.826535 0.002936 0.000266 -1166400.000000 1 0 0
13.539091 7.225006 1.347311 15.405289 0.490196 1.483227 0.022577 0.001113 -102272.000000 1 0 0
5.482791 -3.750594 -3.256289 7.398065 -0.599952 2.026567 -0.003847 -0.000183 -2503100.000000 1 0 0
-12.268109 -5.971294 1.909611 13.777136 0.452978 1.431741 0.003162 -0.000151 1887410.000000 1 0 0
3.781391 -5.713394 -0.242489 6.855698 -0.986138 1.606174 0.000651 -0.000568 -1038160.000000 1 0 0
-5.217009 3.688406 -8.632189 10.739469 -0.615406 2.504421 0.009755 -0.008790 1374400.000000 1 0 0
-1.700509 -9.277094 7.176011 11.851217 1.389507 0.920392 0.003418 -0.001838 1585530.000000 1 0 0
-7.427209 -7.459694 2.502411 10.820006 0.787580 1.337407 0.013788 -0.002857 -2830090.000000 1 0 0
-5.764409 13.044006 -8.481689 16.592575 -1.154682 2.107346 0.004584 -0.010595 926374.000000 1 0 0
9.349891 -13.814994 -4.279689 17.221796 -0.975816 1.821932 0.027128 -0.007050 2406390.000000 1 0 0
-6.515609 -5.234794 -6.766989 10.753993 0.676825 2.251389 0.017387 -0.006716 1186790.000000 1 0 0
3.387891 0.322606 -6.129889 7.011235 0.094937 2.634778 -0.002921 -0.002310 2168250.000000 1 0 0
-3.673309 5.780506 5.028611 8.496727 -1.004707 0.937470 -0.000997 0.000061 105118.000000 1 0 0
-2.513109 -10.856194 -2.854289 11.503027 1.343313 1.821550 0.009418 -0.004457 1699790.000000 1 0 0
-12.591809 -0.475594 1.732511 12.719333 0.037752 1.434161 0.007967 -0.005149 981218.000000 1 0 0
8.502591 -11.938994 -6.182689 15.907837 -0.951949 1.969970 0.024623 -0.012340 -1070610.000000 1 0 0
6.167091 4.036606 0.989211 7.436783 0.579560 1.437385 -0.001914 0.002792 960479.000000 1 0 0
3.478491 -4.829294 -10.907489 12.425590 -0.946583 2.642098 -0.005409 -0.000016 -259530.000000 1 0 0
-7.677609 4.206606 8.623811 12.288667 -0.501234 0.792918 -0.005315 -0.000218 1885120.000000 1 0 0
8.127391 8.729406 4.019411 12.586210 0.821096 1.245752 0.009887 -0.001447 87840.300000 1 0 0
0.214691 10.637706 -6.287989 12.359032 1.550617 2.104560 -0.000081 0.001497 1624330.000000 1 0 0
5.344791 8.120506 3.280911 10.260301 0.988689 1.245312 0.006329 0.001001 2298910.000000 1 0 0
8.019891 6.754406 -3.738589 11.131832 0.699952 1.913300 0.002544 -0.002829 1258110.000000 1 0 0
10.531591 2.718106 -8.258389 13.656628 0.252579 2.220206 0.009062 -0.001924 1570690.000000 1 0 0
3.410391 -12.535194 -0.317789 12.994724 -1.305161 1.595254 0.000693 -0.005347 -2541980.000000 1 0 0
0.653591 2.125406 5.324311 5.769993 1.272461 0.395618 0.000089 0.002195 771405.000000 1 0 0
-4.884409 13.355506 1.423711 14.291744 -1.220184 1.471013 -0.007513 0.004840 2752730.000000 1 0 0
8.186991 4.145406 -8.098689 12.239280 0.468707 2.293876 0.002986 -0.001404 1352200.000000 1 0 0
-13.907609 -0.706094 -3.570389 14.375946 0.050727 1.821782 0.012370 -0.003417 541766.000000 1 0 0
-8.591409 0.027506 -0.467989 8.604190 -0.003202 1.625214 0.004415 -0.004711 582814.000000 1 0 0
1.820791 -3.800094 -1.081989 4.350482 -1.123973 1.822140 0.000806 0.000394 -2066930.000000 1 0 0
8.108691 -5.648794 -0.195689 9.884232 -0.608464 1.590596 0.004852 -0.003240 2357880.000000 1 0 0
-2.331109 -1.195094 7.332911 7.786778 0.473734 0.343109 0.006114 -0.002432 2480740.000000 1 0 0
-5.852409 8.800006 -11.699489 15.766066 -0.983917 2.406946 0.004611 -0.007005 -742205.000000 1 0 0
-6.253009 9.202606 -8.851289 14.217362 -0.973974 2.242818 0.005424 -0.003524 -1039810.000000 1 0 0
-1.551709 13.999706 -8.385689 16.392661 -1.460408 2.107786 0.011447 -0.006836 -728397.000000 1 0 0
-1.472409 7.246906 9.804811 12.280877 -1.370347 0.646196 0.003881 -0.000088 467282.000000 1 0 0
10.041391 2.444206 -4.005689 11.083737 0.238770 1.940568 0.004800 -0.000329 -2028050.000000 1 0 0
-3.035009 -7.537194 -6.971089 10.705917 1.187990 2.279887 0.011568 -0.005080 942533.000000 1 0 0
-5.488709 -5.017794 -1.625489 7.612253 0.740607 1.785989 0.012553 -0.001709 1084000.000000 1 0 0
5.619791 7.462006 -8.762989 12.808339 0.925301 2.324251 -0.002030 -0.001303 -1142480.000000 1 0 0
-9.537109 5.197306 -7.484189 13.190205 -0.498962 2.174147 0.005904 -0.001890 1482030.000000 1 0 0
-0.383109 6.158406 -5.282489 8.122649 -1.508667 2.278829 -0.000006 -0.001749 -702063.000000 1 0 0
-8.228409 2.782206 -6.303989 10.732551 -0.326054 2.198603 0.009992 -0.004009 890665.000000 1 0 0
3.716291 1.465406 -2.048689 4.489472 0.375600 2.044665 -0.003804 0.001393 2784440.000000 1 0 0
-6.864109 12.446106 -3.502189 14.638540 -1.066797 1.812384 0.003207 0.004468 1725720.000000 1 0 0
-6.552509 3.078106 -2.363689 7.615585 -0.439164 1.886384 0.003860 -0.004371 -1634120.000000 1 0 0
12.084291 4.114206 -0.829389 12.792367 0.328150 1.635677 0.009375 0.002863 385478.000000 1 0 0
2.258391 12.447206 -5.473989 13.783969 1.391311 1.979181 0.005398 -0.004058 185465.000000 1 0 0
-9.210509 -1.465994 -4.275989 10.259956 0.157841 2.000680 0.010333 -0.002749 688774.000000 1 0 0
-1.179709 5.781506 3.492811 6.856913 -1.369511 1.036326 -0.001062 0.001215 723467.000000 1 0 0
11.509491 2.697306 12.077111 16.899718 0.230201 0.774696 0.052840 -0.002493 -972337.000000 1 0 0
-7.036109 -2.398994 -5.761289 9.405023 0.328594 2.230112 0.017265 -0.006167 -210521.000000 1 0 0
7.618791 -7.443594 10.867611 15.217031 -0.773767 0.775353 0.013625 -0.001916 -1034140.000000 1 0 0
-5.460609 -2.006194 -10.887889 12.344602 0.352086 2.650877 0.019133 -0.006639 -1340610.000000 1 0 0
0.791191 -6.228894 4.506111 7.728528 -1.444453 0.948320 -0.000030 -0.001584 1766340.000000 1 0 0
-4.799509 -9.305394 7.352211 12.793774 1.094607 0.958594 0.002837 -0.004163 1203730.000000 1 0 0
-8.697109 9.247106 1.635911 12.799409 -0.816039 1.442634 -0.004919 -0.001958 1460200.000000 1 0 0
-8.166109 7.227306 -9.066389 14.181632 -0.724486 2.264390 0.003815 -0.005235 -175801.000000 1 0 0
-1.178609 -10.613394 -0.056989 10.678788 1.460200 1.576133 0.003310 -0.002627 -172051.000000 1 0 0
-4.011809 10.265706 7.777311 13.489473 -1.198248 0.956300 -0.003735 0.000798 1383770.000000 1 0 0
-7.439309 11.964106 1.945811 14.222142 -1.014500 1.433550 -0.009419 -0.002119 -103124.000000 1 0 0
-8.085509 -8.304694 -2.834089 11.932119 0.798770 1.810606 0.023024 -0.006226 766096.000000 1 0 0
5.383291 4.612406 -8.061789 10.735294 0.708429 2.420313 -0.001434 0.000134 566082.000000 1 0 0
-8.946509 -0.255494 -10.131489 13.518593 0.028550 2.418025 0.012453 -0.006879 -701817.000000 1 0 0
-15.267809 -2.383994 -1.583889 15.533774 0.154894 1.672938 0.011121 -0.007814 240844.000000 1 0 0
-7.235809 -5.802694 8.778911 12.770962 0.675924 0.812877 0.008564 -0.002092 -1082570.000000 1 0 0
8.138391 3.425606 -0.970489 8.883132 0.398409 1.680266 -0.000342 0.003807 458773.000000 1 0 0
11.859491 7.270706 -5.901689 15.110944 0.549975 1.972033 0.019279 -0.002428 416788.000000 1 0 0
3.695591 13.314906 -9.480889 16.758024 1.300058 2.172142 0.011169 -0.009545 -137910.000000 1 0 0
-9.745209 5.475206 -0.574589 11.192727 -0.511885 1.622155 -0.001596 -0.002809 882076.000000 1 0 0
11.213791 -1.225894 -5.243989 12.439909 -0.108888 2.005945 0.016279 -0.003712 -1228430.000000 1 0 0
10.617991 1.807406 -1.257289 10.843856 0.168605 1.687003 0.004035 0.002653 351265.000000 1 0 0
14.562091 5.148206 4.781711 16.168589 0.339820 1.270565 0.041606 -0.005073 3533790.000000 1 0 0
0.900391 -0.795194 10.372111 10.441443 -0.723436 0.115303 0.002894 0.001550 1174010.000000 1 0 0
-8.001809 1.293606 -12.549489 14.939613 -0.160277 2.568106 0.005743 -0.007153 -60433.800000 1 0 0
3.220391 -11.598194 -7.808789 14.348039 -1.299956 2.146280 -0.003413 -0.002832 -608923.000000 1 0 0
2.902891 5.000906 -6.676489 8.832403 1.044859 2.427837 -0.002072 0.000744 -613850.000000 1 0 0
6.377091 8.138006 0.518811 10.351985 0.906124 1.520658 0.005946 -0.001648 -243768.000000 1 0 0
-9.114009 -5.446194 6.754311 12.583597 0.538626 1.004210 0.005062 -0.001185 -1869470.000000 1 0 0
-0.190009 -6.885094 -11.779489 13.645402 1.543206 2.612483 0.000357 0.003355 1943080.000000 1 0 0
6.488191 -13.300194 -4.747689 15.541311 -1.116935 1.881248 0.013897 -0.010913 2618050.000000 1 0 0
-3.311709 -0.313294 9.997711 10.536593 0.094321 0.321204 0.006960 -0.000414 -101375.000000 1 0 0
8.561991 8.569306 6.931811 13.956744 0.785825 1.051045 0.007227 -0.000291 -1230710.000000 1 0 0
-7.920709 5.604206 -2.697589 10.070836 -0.615767 1.841969 0.002805 -0.005241 827232.000000 1 0 0
-5.354209 5.826806 -6.405989 10.181155 -0.827641 2.251321 0.005481 -0.003826 -2110140.000000 1 0 0
3.379791 -13.632694 2.538511 14.272960 -1.327778 1.391990 0.011915 -0.008599 -1298450.000000 1 0 0
-11.349509 -7.080194 6.401711 14.829781 0.557759 1.124443 0.014521 -0.003886 259581.000000 1 0 0
-12.978009 -3.904094 -6.707489 15.121544 0.292212 2.030376 0.017761 -0.005581 -252411.000000 1 0 0
6.021791 0.361606 -7.235489 9.420458 0.059977 2.446604 -0.003064 -0.000055 -121640.000000 1 0 0
-1.459309 2.210106 -2.494989 3.638560 -0.987222 2.326372 0.001788 -0.004782 3455630.000000 1 0 0
7.594791 1.005006 -5.006889 9.152039 0.131564 2.149667 -0.000676 0.001888 453844.000000 1 0 0
3.704691 -4.462194 10.912111 12.357592 -0.877887 0.488519 -0.000233 0.001068 408302.000000 1 0 0
5.998591 -2.571494 2.174611 6.879288 -0.404986 1.249170 0.001546 0.002317 -2175100.000000 1 0 0
-6.329809 7.650506 1.152811 9.996284 -0.879587 1.455215 -0.008328 -0.001070 1110660.000000 1 0 0
6.084891 -3.459394 8.013911 10.640304 -0.516952 0.717935 0.000505 -0.001476 9222.300000 1 0 0
6.743291 -2.229994 -7.931289 10.646605 -0.319377 2.411270 -0.000963 -0.003076 299673.000000 1 0 0
12.222391 -8.063494 -5.856789 15.770503 -0.583186 1.951287 0.029993 -0.013456 323555.000000 1 0 0
5.620391 -9.610294 9.989011 14.957503 -1.041606 0.839512 0.006094 -0.000230 2791240.000000 1 0 0
-6.603709 7.529506 -4.465189 10.965416 -0.850810 1.990190 0.002090 -0.003872 695159.000000 1 0 0
-1.317009 -7.523194 9.668011 12.320852 1.397493 0.668606 0.006242 -0.004094 -1405710.000000 1 0 0
10.146791 -9.213994 0.756711 13.726896 -0.737256 1.515642 0.010113 -0.004779 673880.000000 1 0 0
11.037091 6.105006 9.790211 15.966737 0.505247 0.910738 0.012371 -0.007146 2674860.000000 1 0 0
-15.409509 -4.414494 -5.013389 16.795083 0.279006 1.873920 0.023025 -0.011227 1111540.000000 1 0 0
-4.758609 -4.657494 7.842711 10.288087 0.774660 0.703922 0.006261 -0.003180 -966307.000000 1 0 0
2.884591 10.893406 -11.026489 15.766122 1.311936 2.345324 0.000839 -0.004257 -1585770.000000 1 0 0
9.848791 -1.448794 1.496411 10.066625 -0.146056 1.421593 0.001160 0.002773 -209275.000000 1 0 0
-1.628609 -2.668994 0.686911 3.201210 1.022914 1.354536 0.003815 -0.002135 -346029.000000 1 0 0
1.536991 3.022906 0.947711 3.521144 1.100413 1.298287 -0.002389 0.000639 -91551.400000 1 0 0
-8.947709 -2.446394 4.268911 10.211266 0.266888 1.139489 -0.000593 -0.002165 3904190.000000 1 0 0
9.911191 5.017506 -2.693889 11.430840 0.468632 1.808703 0.004538 0.001367 1060610.000000 1 0 0
2.465591 8.554006 2.529211 9.254570 1.290165 1.293981 -0.000490 0.001597 1559920.000000 1 0 0
-8.167009 -0.129694 2.510711 8.545205 0.015879 1.272581 0.000901 -0.005015 933300.000000 1 0 0
6.799291 2.170706 13.764911 15.505325 0.309027 0.478354 0.005636 0.002506 -1519600.000000 1 0 0
6.840591 4.413306 3.817211 8.991221 0.572968 1.132333 -0.002560 0.002385 1231120.000000 1 0 0
-0.318109 3.390506 7.789411 8.501273 -1.477247 0.412144 -0.001177 0.001331 -411479.000000 1 0 0
2.683791 -10.189894 9.260211 14.028121 -1.313267 0.849821 0.001848 -0.003521 2602720.000000 1 0 0
1.410991 -4.567794 6.886611 8.383380 -1.271195 0.606830 -0.000528 -0.000477 -793101.000000 1 0 0
-0.258609 10.839206 -1.976089 11.020898 -1.546942 1.751075 -0.001352 0.000563 2944040.000000 1 0 0
8.758691 5.547706 7.990411 13.089628 0.564613 0.914182 0.004710 -0.001269 -101121.000000 1 0 0
2.532891 11.450006 -2.857089 12.069844 1.353089 1.809778 0.003984 -0.005743 1724240.000000 1 0 0
1.531391 2.414906 -6.665589 7.253069 1.005651 2.736339 -0.001904 -0.001788 2689620.000000 1 0 0
-13.619109 -2.264094 3.549311 14.254959 0.164737 1.319161 0.004590 -0.003188 -296072.000000 1 0 0
-0.863809 -10.694994 -5.337989 11.984290 1.490204 2.032435 0.001975 -0.004314 827890.000000 1 0 0
-5.638609 2.738006 0.411311 6.281701 -0.452047 1.505272 0.002405 -0.005534 1512430.000000 1 0 0
3.733291 7.253906 -5.005889 9.571600 1.095490 2.121156 -0.001994 -0.001176 -1719440.000000 1 0 0
2.920791 9.828306 -6.431889 12.103545 1.281927 2.131055 0.000724 -0.001025 1788640.000000 1 0 0
-12.231909 1.599906 -2.589189 12.604888 -0.130059 1.777680 0.006943 -0.002128 -91745.200000 1 0 0
-2.531509 9.593106 -5.719789 11.452170 -1.312790 2.093760 -0.002759 0.000430 2033390.000000 1 0 0
-1.332609 3.390006 1.790811 4.058939 -1.196253 1.113859 -0.000726 -0.002582 -973592.000000 1 0 0
12.851491 3.793006 9.681011 16.530871 0.286993 0.945136 0.053077 -0.005904 -522212.000000 1 0 0
-2.503909 -9.589594 11.543811 15.214778 1.315392 0.709445 0.001970 -0.009422 -87753.100000 1 0 0
-0.514209 -8.969194 -7.518489 11.714885 1.513528 2.267626 0.000097 -0.002096 3236770.000000 1 0 0
2.286691 7.756406 -0.476589 8.100489 1.284105 1.629665 -0.000624 0.001631 1155540.000000 1 0 0
-11.907709 -1.439994 -5.591689 13.233824 0.120345 2.007031 0.013075 -0.000112 -750781.000000 1 0 0
-6.164209 -7.213394 -11.030089 14.549687 0.863666 2.431188 0.012096 -0.003158 1646330.000000 1 0 0
-4.681009 -2.275494 -1.403389 5.390661 0.452476 1.834168 0.007703 -0.002844 -1576330.000000 1 0 0
-10.454409 3.627106 4.428711 11.919062 -0.333951 1.190102 -0.001457 -0.005049 2940790.000000 1 0 0
6.661291 9.413406 -3.585589 12.076483 0.954962 1.872248 0.003761 -0.001510 -609424.000000 1 0 0
1.310491 -2.711694 -11.611289 11.995528 -1.120619 2.887804 0.000544 -0.003736 -482210.000000 1 0 0
1.184591 8.862506 7.612711 11.743110 1.437921 0.865486 0.002426 0.005611 160284.000000 1 0 0
10.295191 0.556706 10.475311 14.698062 0.054022 0.777456 0.011021 0.000704 1142040.000000 1 0 0
-5.204209 -0.870694 -3.938689 6.584464 0.165770 2.212023 0.014445 -0.006159 -27943.900000 1 0 0
11.666891 5.749606 5.443511 14.099862 0.457882 1.174431 0.005181 0.000421 2128520.000000 1 0 0
9.966691 -3.466494 3.665811 11.170930 -0.334721 1.236445 0.011666 -0.005391 -2129380.000000 1 0 0
7.289591 -1.677494 -3.480689 8.250292 -0.226184 2.006322 -0.000657 0.002568 -2587310.000000 1 0 0
2.328391 9.352106 10.520111 14.267306 1.326788 0.741646 0.011515 0.005240 2808720.000000 1 0 0
2.427991 -10.847494 6.388711 12.821034 -1.350596 1.049160 -0.001105 -0.002480 1192260.000000 1 0 0
5.929291 -7.522094 -1.203989 9.653392 -0.903261 1.695844 0.000402 -0.005190 550843.000000 1 0 0
-0.150209 -5.542894 -2.348589 6.021803 1.543704 1.971443 0.002495 0.001429 2114950.000000 1 0 0
7.724891 -5.091394 2.770411 9.657713 -0.582738 1.279849 0.002800 -0.004356 1767870.000000 1 0 0
-2.647709 -12.514594 4.610011 13.596972 1.362301 1.224893 0.004378 -0.003881 -500568.000000 1 0 0
4.871491 -10.251894 -1.137389 11.407297 -1.127201 1.670669 0.000586 -0.006216 327301.000000 1 0 0
0.951891 0.187006 1.203911 1.546114 0.193986 0.678255 -0.002427 0.001173 -1214820.000000 1 0 0
-1.713809 8.553506 2.558411 9.090933 -1.373051 1.285518 -0.005702 0.002854 -1280720.000000 1 0 0
-7.565009 0.581806 -3.063089 8.182321 -0.076756 1.954497 0.006217 -0.003068 268752.000000 1 0 0
4.542491 -6.391694 12.879311 15.078615 -0.952934 0.546893 0.019060 -0.004464 -212797.000000 1 0 0
-5.158609 12.993206 8.382111 16.300136 -1.192858 1.030680 0.003410 -0.006197 1361650.000000 1 0 0
0.619091 6.126106 8.267211 10.308211 1.470080 0.640156 -0.001537 0.006100 -57133.900000 1 0 0
7.892191 -0.540794 -0.758489 7.946977 -0.068416 1.666386 -0.000141 0.002562 5599130.000000 1 0 0
2.508291 -9.155394 -2.366389 9.783280 -1.303389 1.815100 -0.004154 -0.002888 851050.000000 1 0 0
-7.140209 12.064106 4.850811 14.834271 -1.036387 1.237669 -0.005997 -0.007802 -51054.100000 1 0 0
-15.008509 0.159906 0.147811 15.010089 -0.010654 1.560949 0.012816 -0.008047 203856.000000 1 0 0
6.858491 -0.502894 3.914711 7.913075 -0.073193 1.053290 -0.001054 0.003057 782572.000000 1 0 0
-4.242009 -5.116094 5.090511 8.371521 0.878532 0.917163 0.005612 -0.003730 -682625.000000 1 0 0
2.869991 5.165806 6.852311 9.048567 1.063683 0.711656 -0.004468 0.005041 -1654070.000000 1 0 0
2.114391 -7.199894 1.842211 7.726763 -1.285157 1.330058 -0.001704 -0.001550 1422940.000000 1 0 0
-2.496909 6.405006 -1.654289 7.070737 -1.199082 1.806948 -0.003191 -0.000574 1974140.000000 1 0 0
2.757391 -3.901194 -6.539989 8.099011 -0.955517 2.510706 -0.004546 -0.002001 -1473100.000000 1 0 0
-5.161809 0.845206 -12.136389 13.215543 -0.162302 2.734667 0.013573 -0.009295 361498.000000 1 0 0
-7.497709 6.351706 -11.842389 15.388372 -0.702839 2.448960 0.003296 -0.011252 2995020.000000 1 0 0
-1.060509 11.221606 -8.937189 14.384800 -1.476570 2.241189 0.003067 -0.001226 1155500.000000 1 0 0
4.540891 5.955706 -0.654289 7.517860 0.919379 1.657938 0.000016 0.001364 908154.000000 1 0 0
-2.703209 13.467106 3.604811 14.200878 -1.372702 1.314144 -0.005124 0.004923 769604.000000 1 0 0
1.425391 -7.834194 10.275911 13.000027 -1.390820 0.659248 -0.000181 -0.004627 -185680.000000 1 0 0
13.021291 -0.222694 -1.133389 13.072421 -0.017101 1.657606 0.014566 -0.002375 1834040.000000 1 0 0
-1.026409 3.140206 -5.364889 6.300511 -1.254883 2.589637 0.002028 -0.004998 1241920.000000 1 0 0
6.481391 1.158006 7.317111 9.843247 0.176801 0.732711 -0.002189 0.003480 642647.000000 1 0 0
5.445091 -6.185494 6.885411 10.738633 -0.848972 0.874760 0.002241 -0.001480 1579600.000000 1 0 0
12.211391 -4.843594 2.556711 13.383394 -0.377611 1.378579 0.018615 -0.007594 -1146880.000000 1 0 0
4.357391 -9.225294 13.874011 17.221530 -1.129528 0.634075 0.014936 -0.005650 1264910.000000 1 0 0
-2.654809 -4.337994 -1.425789 5.281958 1.021607 1.844123 0.009322 -0.002388 1293340.000000 1 0 0
-9.338609 -5.254594 -7.488189 13.072618 0.512522 2.180732 0.018338 -0.005740 717401.000000 1 0 0
-10.643909 -3.139294 7.845011 13.590150 0.286806 0.955431 -0.002647 0.000055 -250903.000000 1 0 0
11.975391 -0.577194 1.570711 12.091744 -0.048161 1.440529 0.009121 0.000094 679338.000000 1 0 0
-7.571009 4.609806 4.357311 9.877077 -0.546920 1.113912 -0.001101 -0.004809 1627900.000000 1 0 0
-1.140109 10.604506 6.979511 12.746331 -1.463696 0.991339 -0.002178 0.005597 640918.000000 1 0 0
7.510391 -9.926594 1.876811 12.588315 -0.923089 1.421147 0.005985 -0.008228 2649430.000000 1 0 0
-4.285409 -1.706994 1.672011 4.906545 0.379063 1.223059 0.002520 -0.001743 1062290.000000 1 0 0
6.836391 -14.916094 -1.038989 16.440974 -1.141042 1.634034 0.028758 -0.013023 -1821680.000000 1 0 0
-10.513209 1.633506 2.275711 10.880017 -0.154144 1.360076 0.000576 -0.004194 454321.000000 1 0 0
-3.064509 8.260706 -11.286889 14.318671 -1.215560 2.478779 0.000196 -0.001256 -1015570.000000 1 0 0
-1.214509 -5.232394 -6.859789 8.712617 1.342722 2.477278 0.002155 -0.004259 -613507.000000 1 0 0
12.799291 -0.444394 6.370511 14.303942 -0.034706 1.109212 0.015026 -0.003863 2059690.000000 1 0 0
6.041591 -13.223794 3.670011 14.994617 -1.142242 1.323529 0.008159 -0.001712 -12348.900000 1 0 0
-5.555109 3.489106 -4.971389 8.230905 -0.560818 2.219295 0.007956 -0.006481 2435760.000000 1 0 0
-4.462409 8.043806 3.383611 9.801262 -1.064303 1.218321 -0.005461 0.000236 -506918.000000 1 0 0
14.021391 6.226206 -3.999989 15.854493 0.417895 1.825846 0.034247 0.001650 1395210.000000 1 0 0
-6.729509 -8.513694 5.288911 12.072360 0.901916 1.117311 0.010525 -0.003997 771148.000000 1 0 0
1.507191 11.464506 2.669811 11.867367 1.440080 1.343883 -0.000449 -0.000023 1282740.000000 1 0 0
-7.420709 7.190706 5.981611 11.939549 -0.769658 1.046052 -0.006913 -0.005196 -424377.000000 1 0 0
-17.407309 -4.048894 5.119811 18.590869 0.228534 1.291797 0.039222 -0.012916 -674971.000000 1 0 0
7.512991 -13.070894 -8.635389 17.374212 -1.049122 2.090961 0.031293 -0.013532 -167289.000000 1 0 0
-2.375909 12.778206 -2.875889 13.311582 -1.386961 1.788557 -0.002496 0.002677 699017.000000 1 0 0
-5.594009 13.955806 -5.796389 16.113832 -1.189568 1.938759 0.007943 0.002421 2787350.000000 1 0 0
-5.731309 2.400606 7.408511 9.669377 -0.396657 0.697916 0.004607 -0.003057 1777870.000000 1 0 0
-7.414709 4.978906 1.379811 9.037217 -0.591335 1.417516 -0.001854 -0.003240 2245590.000000 1 0 0
10.741391 -5.617294 -5.045689 13.129754 -0.481845 1.965240 0.015195 -0.006691 2715890.000000 1 0 0
-9.520709 -0.782894 6.747011 11.695255 0.082046 0.955866 -0.003973 -0.002037 170807.000000 1 0 0
-11.395809 -4.648094 -2.548089 12.568294 0.387279 1.774951 0.011809 -0.002252 1498360.000000 1 0 0
6.510491 -4.307394 13.572911 15.657715 -0.584492 0.521945 0.023563 -0.007908 -213581.000000 1 0 0
0.171791 10.262306 -11.576589 15.471323 1.554058 2.416233 0.002544 0.000929 -2738040.000000 1 0 0
-11.779109 -3.201694 1.447211 12.291976 0.265399 1.452786 0.004229 -0.003130 2949320.000000 1 0 0
5.176391 6.042106 5.488811 9.665874 0.862414 0.966899 -0.000226 0.004073 -4908150.000000 1 0 0
-7.176209 -0.005594 8.088811 10.813273 0.000780 0.725686 0.000661 -0.001639 1258130.000000 1 0 0
1.740091 2.141406 9.691511 10.076652 0.888424 0.277370 -0.003382 0.001077 1610820.000000 1 0 0
10.497291 -4.863994 -2.037389 11.747447 -0.433906 1.745110 0.009210 -0.003050 1834160.000000 1 0 0
-9.688409 -2.401294 -1.661689 10.118928 0.242956 1.735759 0.010095 -0.003608 -53192.000000 1 0 0
-1.976509 -5.237594 -9.903089 11.375858 1.209950 2.627086 0.010230 -0.007002 1040110.000000 1 0 0
7.632591 -1.518594 6.589811 10.197460 -0.196397 0.868174 -0.000368 -0.000241 3202070.000000 1 0 0
1.583991 -11.826994 -2.574789 12.207226 -1.437658 1.783316 0.000796 -0.002297 -4515610.000000 1 0 0
-0.750809 -1.531594 4.816911 5.110003 1.115008 0.340333 0.004019 -0.001612 2636860.000000 1 0 0
7.581691 1.681906 9.901211 12.583514 0.218303 0.665125 0.002341 0.001217 637433.000000 1 0 0
-3.888009 10.659606 -7.970689 13.866351 -1.221049 2.183183 0.002101 -0.000747 2545620.000000 1 0 0
-9.561009 12.604906 6.407011 17.068870 -0.921868 1.186009 0.005755 -0.012655 1806250.000000 1 0 0
-2.492309 -2.495394 -11.011489 11.562503 0.786017 2.831629 0.014772 -0.008697 -891199.000000 1 0 0
1.114091 -11.945294 11.038411 16.302692 -1.477799 0.826993 -0.004864 0.001560 422439.000000 1 0 0
1.371091 3.447406 -1.943889 4.188460 1.192260 2.053421 -0.001826 0.000212 2149900.000000 1 0 0
-1.840609 -9.419294 -11.973889 15.345519 1.377820 2.465919 -0.000718 0.000736 2652180.000000 1 0 0
1.266391 -2.656894 1.640711 3.369683 -1.126008 1.062255 0.004816 0.000605 2411280.000000 1 0 0
-0.974109 -2.345394 -6.614589 7.085376 1.177146 2.775003 0.004174 -0.006685 1072840.000000 1 0 0
1.774391 5.911806 4.069011 7.392886 1.279208 0.987958 -0.005592 0.004924 309034.000000 1 0 0
-10.973909 8.542306 3.622511 14.370812 -0.661443 1.315973 -0.008027 -0.005260 2198580.000000 1 0 0
-16.332109 -1.531194 3.917311 16.864983 0.093480 1.336381 0.030073 -0.013123 437649.000000 1 0 0
-12.246309 0.202306 6.742411 13.981170 -0.016518 1.067576 0.000016 0.000373 2379190.000000 1 0 0
-5.065109 2.995206 4.702711 7.532734 -0.534028 0.896557 -0.000993 -0.001654 1561850.000000 1 0 0
5.156391 -6.084094 3.985011 8.915430 -0.867744 1.107411 0.000817 -0.002873 2090810.000000 1 0 0
9.912491 3.473106 6.254511 12.224518 0.337010 1.033708 -0.003415 0.003261 1068440.000000 1 0 0
-12.167409 5.788806 3.218211 13.853267 -0.444071 1.336347 0.000382 -0.004852 2193960.000000 1 0 0
-5.006009 12.316006 -1.343489 13.362226 -1.184730 1.671510 -0.007607 0.005279 1585170.000000 1 0 0
-1.788109 -12.201594 10.188511 15.996312 1.425285 0.880289 0.008680 -0.005976 1081620.000000 1 0 0
5.202191 6.578006 13.891911 16.227081 0.901662 0.543132 0.007414 0.005456 916525.000000 1 0 0
12.843691 -3.569494 -5.895489 14.575955 -0.271077 1.987192 0.014848 -0.009096 985930.000000 1 0 0
3.595191 -2.575594 6.434611 7.807900 -0.621648 0.602158 -0.001599 0.002497 804202.000000 1 0 0
7.306291 -11.767694 -0.679789 13.868044 -1.015167 1.619834 0.010406 -0.006560 -622089.000000 1 0 0
-6.042809 -6.620694 -4.115289 9.863303 0.831000 2.001194 0.018058 -0.004969 -394003.000000 1 0 0
0.293391 -8.968994 5.044111 10.294270 -1.538096 1.058716 0.003943 -0.004189 459380.000000 1 0 0
-10.215209 2.534206 -0.461589 10.534978 -0.243172 1.614625 0.002667 -0.001847 -314108.000000 1 0 0
-1.888309 8.964906 -0.267289 9.165516 -1.363198 1.599963 -0.004649 0.003425 1255600.000000 1 0 0
-3.508709 2.254506 -6.552589 7.767255 -0.571117 2.574781 0.011719 -0.008238 386442.000000 1 0 0
-12.628109 2.995606 6.405311 14.473106 -0.232912 1.112338 -0.000965 -0.006207 337809.000000 1 0 0
11.377091 1.691106 7.930311 13.970965 0.147561 0.967174 0.011650 -0.002453 -2004220.000000 1 0 0
6.044491 2.664606 -3.205289 7.342334 0.415204 2.022556 -0.003111 0.002713 161530.000000 1 0 0
10.495791 -2.335294 6.367111 12.496213 -0.218932 1.036166 0.011041 -0.004097 3290910.000000 1 0 0
-1.070709 11.093806 4.141911 11.890095 -1.474580 1.214986 -0.003208 0.003024 2361980.000000 1 0 0
-1.622709 -12.190094 7.291411 14.296722 1.438457 1.035605 -0.000306 -0.002083 -779882.000000 1 0 0
8.059291 8.666206 -7.799089 14.173252 0.821669 2.153482 0.003349 -0.003665 1415670.000000 1 0 0
-4.705709 -6.042494 -8.736089 11.617861 0.909136 2.421817 0.015159 -0.006724 -89607.000000 1 0 0
-8.494509 -5.393594 -11.597989 15.354507 0.565723 2.426981 0.017380 -0.006060 3117710.000000 1 0 0
6.026891 -0.511994 -9.934089 11.630635 -0.084748 2.594674 0.000525 -0.002033 -827175.000000 1 0 0
-11.197309 -5.587194 -5.316489 13.596379 0.462828 1.972539 0.013357 -0.005511 -700918.000000 1 0 0
3.844091 8.945106 -2.758889 10.119457 1.164916 1.846924 0.003266 -0.002172 1459480.000000 1 0 0
11.738091 -10.289094 -4.003789 16.114545 -0.719711 1.821884 0.024323 -0.011867 58871.400000 1 0 0
3.923991 -11.278094 3.919211 12.567949 -1.235967 1.253666 0.002505 -0.003329 1212150.000000 1 0 0
-1.014709 0.968106 3.278611 3.565972 -0.761899 0.404204 0.003651 -0.002285 -519995.000000 1 0 0
-10.651609 -5.129994 4.482111 12.643692 0.448833 1.208424 0.006913 -0.002373 4299900.000000 1 0 0
4.585991 -8.741194 2.747011 10.246261 -1.087631 1.299377 -0.000050 -0.003981 5346910.000000 1 0 0
-3.634209 -5.766894 2.581411 7.288911 1.008477 1.208785 0.006674 -0.001785 2369770.000000 1 0 0
9.954491 5.168506 12.320611 16.661416 0.478900 0.738514 0.024500 0.000173 368628.000000 1 0 0
1.769691 -12.312294 -5.243789 13.498953 -1.428040 1.969755 -0.001389 -0.003453 1446130.000000 1 0 0
9.868591 -10.613494 -1.785289 14.602144 -0.821751 1.693365 0.012419 -0.008651 172550.000000 1 0 0
9.650791 -4.495294 -9.158789 14.043819 -0.435911 2.281224 0.019521 -0.005117 1492520.000000 1 0 0
-7.460609 -3.059394 -13.054289 15.343893 0.389160 2.588266 0.014151 -0.006384 2133000.000000 1 0 0
0.394291 6.195106 -2.441389 6.670471 1.507236 1.945503 -0.001817 -0.001235 1496820.000000 1 0 0
-5.909509 -9.485894 0.939111 11.215454 1.013652 1.486965 0.014638 -0.002922 1080720.000000 1 0 0
-8.982409 -4.100694 0.595211 9.892100 0.428267 1.510590 0.007892 -0.003372 2472690.000000 1 0 0
1.863091 3.820606 12.187611 12.907595 1.117083 0.335578 0.000814 -0.000310 452824.000000 1 0 0
6.562191 4.404606 9.595611 12.431358 0.591141 0.688991 -0.004072 0.002853 1581870.000000 1 0 0
-8.286009 9.741706 -3.580589 13.280790 -0.865971 1.843781 -0.000790 -0.000398 1614620.000000 1 0 0
16.455191 2.182906 -6.052289 17.668293 0.131888 1.920427 0.067639 -0.006741 757644.000000 1 0 0
-11.005109 2.613906 -5.114489 12.413820 -0.233196 1.995444 0.006413 -0.001052 1798690.000000 1 0 0
-13.706909 3.907706 1.555411 14.337671 -0.277723 1.462098 0.007050 -0.001017 -777438.000000 1 0 0
-17.416709 10.319806 3.268411 20.506649 -0.534904 1.410731 0.040590 -0.022002 377243.000000 1 0 0
-14.316309 2.760506 -1.109089 14.622147 -0.190485 1.646719 0.011124 -0.002851 855015.000000 1 0 0
-14.427509 4.950506 5.118111 16.088990 -0.330541 1.247058 0.003383 -0.006607 681359.000000 1 0 0
-17.311309 7.427706 3.061211 19.084634 -0.405310 1.409699 0.020431 -0.010397 -1805460.000000 1 0 0
-14.829309 12.569606 -3.456889 19.744707 -0.703110 1.746783 0.039645 -0.019061 -1062600.000000 1 0 0
-8.449009 12.516706 -9.597389 17.893115 -0.977034 2.136930 0.006939 -0.016973 308630.000000 1 0 0
-12.475709 8.744106 -9.808689 18.119412 -0.611323 2.142822 0.008221 -0.008362 -1710150.000000 1 0 0
-14.009809 -3.665594 -12.129989 18.890420 0.255908 2.268062 0.042003 -0.004441 -771283.000000 1 0 0
-14.870109 5.660106 -7.658989 17.658342 -0.363703 2.019427 0.018915 0.003871 411800.000000 1 0 0
-10.909209 13.551306 -8.471589 19.349846 -0.892996 2.023960 0.012670 -0.019515 388539.000000 1 0 0
-10.908209 13.427506 4.007311 17.757969 -0.888553 1.343173 0.006393 -0.008962 -2287610.000000 1 0 0
-15.262009 3.114406 3.073211 15.876809 -0.201299 1.376001 0.013641 -0.005176 142616.000000 1 0 0
-11.199809 9.264806 -12.402889 19.107695 -0.691125 2.277203 0.016964 -0.021389 380405.000000 1 0 0
-12.989909 11.550506 -9.040789 19.593054 -0.726811 2.050401 0.022290 -0.024183 -278204.000000 1 0 0
-9.016609 14.593306 -3.561789 17.519993 -1.017348 1.775522 0.012384 0.000625 1605170.000000 1 0 0
-16.773809 8.226706 -4.080289 19.122973 -0.455978 1.785821 0.040050 -0.007996 -1551680.000000 1 0 0
-16.849209 6.740806 0.275811 18.149666 -0.380564 1.555599 0.024217 -0.003045 -222367.000000 1 0 0
-10.577609 2.725406 -12.462989 16.572258 -0.252173 2.421947 0.014512 -0.009184 1530230.000000 1 0 0
-16.945809 0.828306 2.269311 17.117135 -0.048841 1.437829 0.040471 -0.013966 756631.000000 1 0 0
-12.660209 1.139606 -6.991989 14.507498 -0.089773 2.073683 0.008034 -0.000656 1017110.000000 1 0 0
-12.354609 8.948506 -5.533789 16.227598 -0.626853 1.918788 0.009867 -0.001654 -2121790.000000 1 0 0
-9.658909 13.894706 1.306511 16.972458 -0.963333 1.493742 0.007406 -0.003868 -526159.000000 1 0 0
-12.203909 11.045006 2.776711 16.692443 -0.735592 1.403674 0.002264 -0.006516 667068.000000 1 0 0
-12.591809 6.750906 -3.694989 14.757416 -0.492136 1.823871 0.000094 0.004043 308023.000000 1 0 0
-15.950909 3.540006 -9.350189 18.825227 -0.218392 2.090570 0.039762 -0.002023 -1922440.000000 1 0 0
-15.172909 5.819506 -4.762889 16.934253 -0.366242 1.855901 0.016959 0.002868 1830560.000000 1 0 0
-17.982709 5.110406 7.457511 20.127308 -0.276885 1.191231 0.037818 -0.016930 196274.000000 1 0 0
-15.775809 10.100706 -2.119189 18.851827 -0.569501 1.683447 0.027129 -0.008098 -1577850.000000 1 0 0
-8.837209 9.963606 -8.411389 15.751862 -0.845239 2.134113 0.003766 -0.006596 -310003.000000 1 0 0
-16.998709 4.139106 -1.266489 17.541160 -0.238847 1.643060 0.023356 -0.000512 2550.200000 1 0 0
-10.259309 5.377606 -4.617289 12.469620 -0.482795 1.950110 0.003971 -0.002361 1445590.000000 1 0 0
-18.386009 2.644006 6.064611 19.540102 -0.142826 1.255217 0.066505 -0.024193 -664016.000000 1 0 0
-10.385709 9.975806 -5.753189 15.507380 -0.765270 1.950879 -0.000289 -0.006650 475029.000000 1 0 0
-15.302609 0.392706 -5.878889 16.397725 -0.025657 1.937477 0.012013 -0.001379 -484462.000000 1 0 0
-16.444309 -4.212594 -8.814089 19.127190 0.250780 2.049709 0.045545 -0.021389 -640527.000000 1 0 0
-9.974109 9.619406 -1.068789 13.898134 -0.767297 1.647774 -0.005851 0.000661 2277690.000000 1 0 0
-17.499909 -3.197794 -3.345489 18.101519 0.180738 1.756683 0.043900 -0.011530 753891.000000 1 0 0
-12.134809 4.935406 -11.593389 17.493384 -0.386282 2.295255 0.012095 -0.005193 963002.000000 1 0 0
-16.322209 6.924706 5.844811 18.668901 -0.401236 1.252365 0.020845 -0.011816 -905007.000000 1 0 0
-12.162209 5.914506 -8.786689 16.127821 -0.452629 2.146966 0.009011 -0.001720 1988480.000000 1 0 0
-14.447009 8.422506 -0.196389 16.724032 -0.527821 1.582540 0.014711 -0.004878 816457.000000 1 0 0
-14.890209 11.718306 3.882311 19.341907 -0.666752 1.368703 0.010661 -0.019940 1280650.000000 1 0 0
-17.322909 3.989306 -4.060789 18.234246 -0.226345 1.795381 0.027732 0.000322 -1942350.000000 1 0 0
-13.821809 13.362706 -0.818689 19.242520 -0.768511 1.613355 0.028181 -0.011576 -139879.000000 1 0 0
-10.077009 6.708906 -13.022389 17.780274 -0.587377 2.392646 -0.001737 -0.015791 1367680.000000 1 0 0
-15.848409 -1.222694 -8.313189 17.938120 0.076997 2.052666 0.017970 -0.005827 17083.900000 1 0 0
-11.478209 11.885806 -0.060589 16.523478 -0.802842 1.574463 0.012077 -0.003854 -600924.000000 1 0 0
-11.957009 7.378006 -1.003289 14.085866 -0.552858 1.642083 -0.001508 0.002850 253309.000000 1 0 0
-11.512909 -0.012194 -11.691689 16.408620 0.001059 2.363899 0.017864 -0.003768 387834.000000 1 0 0
-19.104909 -1.361194 -4.759589 19.735858 0.071128 1.814362 0.039628 -0.016858 -257929.000000 1 0 0
-17.889509 1.268306 -5.038789 18.628809 -0.070778 1.844692 0.013071 -0.006097 693795.000000 1 0 0
-13.364809 -0.223894 -9.510989 16.405096 0.016751 2.189228 0.016141 -0.002970 16628.600000 1 0 0
-6.174209 11.164506 -13.280689 18.415856 -1.065636 2.376265 -0.003238 -0.005531 -490260.000000 1 0 0
16.355191 5.876406 7.012911 18.740473 0.344935 1.187249 0.093343 -0.017556 -415792.000000 1 0 0
14.647391 10.312306 -5.316189 18.685598 0.613430 1.859289 0.071847 -0.015170 -879416.000000 1 0 0
2.375091 17.010406 4.414311 17.733615 1.432067 1.319228 0.039856 -0.015783 3017320.000000 1 0 0
-3.978609 18.191806 -5.915789 19.538876 -1.355483 1.878394 0.034806 -0.013466 1193760.000000 1 0 0
5.420791 14.625106 5.652611 16.590078 1.215845 1.223111 0.026171 -0.013355 451826.000000 1 0 0
9.827291 6.038106 15.053311 18.964086 0.550957 0.653797 0.053791 -0.006811 -2714300.000000 1 0 0
4.554191 12.786306 -1.133989 13.620433 1.228629 1.654149 0.008075 -0.008305 785035.000000 1 0 0
3.543191 13.994406 12.993111 19.422114 1.322821 0.837953 0.047689 -0.010473 1161100.000000 1 0 0
-0.837809 12.471706 9.202111 15.521734 -1.503720 0.936199 0.014546 0.001726 1330300.000000 1 0 0
-7.790209 13.845806 8.329811 17.938212 -1.058300 1.087883 0.009392 -0.015048 553117.000000 1 0 0
11.300091 12.830306 -4.200489 17.605479 0.848728 1.811710 0.086041 -0.013466 1737430.000000 1 0 0
-5.808109 16.110306 0.795011 17.143749 -1.224779 1.524406 0.001686 0.004307 1209260.000000 1 0 0
3.200991 10.696106 6.741911 13.042484 1.280012 1.027548 0.010894 0.002845 1185730.000000 1 0 0
-1.257509 15.622406 2.501211 15.871262 -1.490476 1.412543 0.005245 -0.002631 -1266540.000000 1 0 0
9.900391 8.912306 9.446411 16.330389 0.732924 0.953962 0.018276 -0.006182 2676700.000000 1 0 0
7.270391 12.319806 6.139711 15.567024 1.037660 1.165376 0.017534 -0.006984 890900.000000 1 0 0
11.860091 14.046706 -1.613489 18.454675 0.869602 1.658338 0.086982 -0.015046 -271993.000000 1 0 0
9.757991 15.933406 -1.119789 18.717525 1.021292 1.630658 0.072589 -0.014285 309319.000000 1 0 0
10.148891 13.802306 2.990211 17.390946 0.936767 1.397997 0.042863 -0.010895 1695430.000000 1 0 0
-6.119809 14.435306 6.190311 16.856751 -1.169818 1.194767 -0.011866 -0.007220 -641568.000000 1 0 0
-1.026209 18.210006 -6.228989 19.273238 -1.514502 1.899899 0.033669 -0.008518 945589.000000 1 0 0
-3.622609 15.786006 5.410111 17.076023 -1.345220 1.248416 -0.007530 -0.002162 2526380.000000 1 0 0
7.069391 12.396606 10.560911 17.753449 1.052525 0.933698 0.023896 -0.002072 3093410.000000 1 0 0
1.453491 14.712806 6.196011 16.030279 1.472325 1.173942 0.020830 -0.008277 -89779.200000 1 0 0
17.558791 7.878306 -1.564989 19.308755 0.421757 1.651936 0.044185 0.001937 296563.000000 1 0 0
2.084491 16.293406 -3.336689 16.761672 1.443553 1.771202 0.008388 -0.010842 1391850.000000 1 0 0
6.620391 11.258306 0.605811 13.074633 1.039214 1.524445 0.014602 -0.006146 2309040.000000 1 0 0
12.645291 9.380206 3.238611 16.074210 0.638229 1.367929 0.035543 -0.001469 -1695090.000000 1 0 0
5.937791 14.334306 -3.421189 15.888178 1.178078 1.787825 0.014737 -0.009503 507686.000000 1 0 0
3.006691 16.599306 1.539611 16.939526 1.391606 1.479782 0.022305 -0.018214 -1406790.000000 1 0 0
2.801391 18.974706 -2.401689 19.330167 1.424217 1.695364 0.018140 -0.022424 -65705.500000 1 0 0
3.926991 12.078506 10.687411 16.599166 1.256454 0.871274 0.028500 -0.002286 3527370.000000 1 0 0
8.063591 11.558906 3.324711 14.480452 0.961677 1.339130 0.014826 -0.003695 2777010.000000 1 0 0
0.603691 12.629506 0.157011 12.644900 1.523033 1.558379 0.004018 -0.004229 -2069840.000000 1 0 0
11.833691 9.903406 -4.574189 16.094623 0.696829 1.858975 0.055537 -0.004170 306710.000000 1 0 0
-1.531509 16.444406 9.922211 19.266922 -1.477932 1.029804 0.025771 -0.007088 -454659.000000 1 0 0
8.123791 14.821606 -8.006589 18.702445 1.069409 2.013190 0.058811 -0.011109 915183.000000 1 0 0
14.529291 7.764706 -1.416689 16.534750 0.490801 1.656581 0.033970 0.001200 1916500.000000 1 0 0
12.517191 8.381606 6.037711 16.229151 0.590036 1.189603 0.027623 -0.006759 -1138430.000000 1 0 0
-3.206209 14.155806 10.212711 17.747284 -1.348060 0.957640 0.011100 -0.010167 933057.000000 1 0 0
-4.691009 17.035806 -3.182189 17.954124 -1.302094 1.748978 0.024800 -0.005045 371824.000000 1 0 0
-7.218909 16.266106 -1.857489 17.892711 -1.153110 1.674796 0.012356 0.001780 354388.000000 1 0 0
8.263491 11.292706 -1.825589 14.111813 0.939075 1.700526 0.020271 -0.007344 -148157.000000 1 0 0
8.466891 12.925306 -4.143589 15.997534 0.990870 1.832798 0.049355 -0.008156 2453990.000000 1 0 0
2.503091 14.894706 -7.294689 16.772901 1.404300 2.020734 0.009780 -0.009357 338398.000000 1 0 0
11.371491 11.444706 9.730711 18.840882 0.788607 1.028075 0.034501 -0.010283 -399840.000000 1 0 0
8.496091 15.757506 1.436711 17.959585 1.076300 1.490714 0.027159 -0.015151 -485363.000000 1 0 0
6.005891 10.068606 7.715411 14.034782 1.032957 0.988749 0.009191 0.007477 2067110.000000 1 0 0
14.410991 11.520006 2.677711 18.642889 0.674369 1.426666 0.054644 -0.006434 2432250.000000 1 0 0
12.142391 12.726206 1.073911 17.622351 0.808870 1.509818 0.064367 -0.009019 2220440.000000 1 0 0
5.319891 15.929206 8.187611 18.683624 1.248472 1.117175 0.039806 -0.012606 -520622.000000 1 0 0
11.484591 15.043806 5.145611 19.613496 0.918768 1.305339 0.051755 -0.011172 -149009.000000 1 0 0
5.872591 16.765606 1.731111 17.848518 1.233876 1.473655 0.020204 -0.026273 419598.000000 1 0 0
-0.668909 16.172606 -4.242889 16.733282 -1.529459 1.827155 0.014310 -0.007391 364459.000000 1 0 0
16.004091 6.537006 2.559211 17.476067 0.387777 1.423827 0.028488 -0.001930 51934.300000 1 0 0
7.805091 16.641906 -3.126289 18.645272 1.132253 1.739264 0.039519 -0.021740 135962.000000 1 0 0
14.886491 8.247706 7.520611 18.606232 0.505939 1.154694 0.075282 -0.015766 1022040.000000 1 0 0
2.019991 13.047906 8.564311 15.737714 1.417202 0.995373 0.024033 -0.000743 1609040.000000 1 0 0
15.971891 7.640406 -5.887589 18.658532 0.446191 1.891826 0.052461 -0.000906 -777732.000000 1 0 0
-3.002409 17.023906 0.645211 17.298674 -1.396227 1.533489 0.002690 -0.002637 792363.000000 1 0 0
-2.983109 18.628606 4.488111 19.392448 -1.412009 1.337243 0.005618 -0.002114 3050810.000000 1 0 0
-0.921609 19.094506 0.805111 19.133680 -1.522568 1.528706 0.014128 -0.015467 -427465.000000 1 0 0
7.023191 16.841706 -5.982289 19.203022 1.175711 1.887598 0.036469 -0.012788 946636.000000 1 0 0
11.003391 10.113006 0.765111 14.964387 0.743258 1.519645 0.030657 -0.004196 -171526.000000 1 0 0
9.284791 8.731706 14.335511 19.182203 0.754709 0.726756 0.045630 -0.003736 751859.000000 1 0 0
6.356491 12.474906 -8.309189 16.280997 1.099544 2.106401 0.030561 -0.011985 1916820.000000 1 0 0
6.532791 9.121806 13.330111 17.423448 0.949298 0.699650 0.027646 -0.003836 -439637.000000 1 0 0
16.680391 9.498306 2.783711 19.395935 0.517638 1.426779 0.047031 -0.002610 461227.000000 1 0 0
2.494991 14.800106 -0.782789 15.029333 1.403787 1.622904 0.008402 -0.010751 113806.000000 1 0 0
9.161691 12.914506 8.291811 17.873868 0.953782 1.088396 0.021492 -0.008866 536538.000000 1 0 0
7.212591 9.515206 10.537711 15.924948 0.922191 0.847698 0.014804 0.000361 2212320.000000 1 0 0
4.337291 16.026506 -5.301089 17.428784 1.306495 1.879850 0.024289 -0.009602 1807760.000000 1 0 0
0.178091 16.340906 -8.189289 18.278987 1.559898 2.035342 0.019338 -0.007191 339681.000000 1 0 0
-2.455609 15.668006 -2.032989 15.989042 -1.415333 1.698290 0.000707 -0.001652 -276847.000000 1 0 0
13.310591 10.585406 7.685611 18.662563 0.671845 1.146346 0.056713 -0.016146 1719200.000000 1 0 0
-1.099609 15.944706 6.981711 17.440959 -1.501941 1.158946 0.014724 -0.006158 2570090.000000 1 0 0
13.266191 13.332006 6.687611 19.961421 0.787873 1.229163 0.058064 -0.015196 -96897.800000 1 0 0
5.390791 17.427506 4.522711 18.794507 1.270805 1.327771 0.033092 -0.021966 2299470.000000 1 0 0
10.703391 9.544906 -1.840889 14.458792 0.728247 1.698463 0.026602 -0.004464 1135120.000000 1 0 0
3.133391 12.820306 4.640311 13.989670 1.331087 1.232696 0.010721 0.001426 3015600.000000 1 0 0
-0.225209 18.099506 3.531911 18.442267 -1.558354 1.378094 0.014177 -0.010800 3294530.000000 1 0 0
-7.739109 15.980606 -5.865789 18.699761 -1.119803 1.889865 0.028493 -0.007991 -721846.000000 1 0 0
-12.454209 -9.121994 8.224811 17.491873 0.632169 1.081270 0.025584 -0.012352 -749952.000000 1 0 0
-13.247109 -11.754194 6.779811 18.963460 0.725756 1.205186 0.038417 -0.007495 -359935.000000 1 0 0
-6.647109 -12.361694 12.147011 18.561935 1.077431 0.857402 0.036083 -0.013628 -2037800.000000 1 0 0
-1.922109 -10.813894 14.319211 18.046457 1.394889 0.654317 0.011237 -0.010725 2073550.000000 1 0 0
-8.897509 2.777406 10.998811 14.417125 -0.302571 0.703011 0.000339 -0.001077 1209080.000000 1 0 0
0.304691 10.021406 15.258411 18.257615 1.540402 0.581338 0.016673 -0.005103 475287.000000 1 0 0
0.981291 -6.850194 16.535511 17.925156 -1.428514 0.396353 0.025799 -0.019899 1028830.000000 1 0 0
6.070991 2.221906 17.871811 19.005142 0.350846 0.347088 0.024872 -0.003287 625348.000000 1 0 0
-5.108809 -3.046894 17.659711 18.634615 0.537768 0.324898 0.025273 -0.009440 -526441.000000 1 0 0
-4.418309 8.095706 13.048411 15.978828 -1.071215 0.615290 -0.006811 0.000717 89821.700000 1 0 0
0.065891 -4.967094 18.496711 19.152146 -1.557532 0.262372 0.028872 -0.021281 -2005580.000000 1 0 0
-11.716109 1.992006 11.216911 16.341799 -0.168412 0.814278 0.004318 -0.005336 192414.000000 1 0 0
-3.425909 -6.110594 14.356911 15.974890 1.059813 0.453960 0.018338 -0.010678 1431280.000000 1 0 0
-7.596509 -2.308094 14.677211 16.686964 0.294973 0.495857 0.021965 -0.005589 2123380.000000 1 0 0
-6.152909 -1.189494 10.653211 12.359777 0.190967 0.531741 0.009775 -0.003519 1709690.000000 1 0 0
-3.980409 2.419506 11.203311 12.133089 -0.546174 0.394033 0.003821 0.000930 -151644.000000 1 0 0
-6.496209 6.138706 13.470511 16.165986 -0.757111 0.585814 -0.014187 -0.003510 954334.000000 1 0 0
-9.099209 5.320506 12.506611 16.355999 -0.529110 0.700299 -0.006081 -0.005662 -406789.000000 1 0 0
-12.369109 -2.290594 15.855111 20.239225 0.183112 0.670702 0.037861 -0.009222 898758.000000 1 0 0
-3.536209 -7.741694 16.856211 18.883073 1.142323 0.467578 0.032363 -0.016962 -2144140.000000 1 0 0
-0.537309 -5.388894 14.409311 15.393412 1.471418 0.359508 0.009180 -0.004885 1877260.000000 1 0 0
-14.258409 -2.243194 13.601711 19.832819 0.156045 0.815069 0.022634 -0.013296 -1594420.000000 1 0 0
-6.561909 1.423106 12.191111 13.917869 -0.213566 0.503431 0.004525 -0.002495 1752370.000000 1 0 0
2.257791 -2.351094 14.651511 15.009732 -0.805640 0.218913 0.001017 -0.000052 -755424.000000 1 0 0
-12.622109 3.946606 9.171511 16.093786 -0.303043 0.964438 -0.000078 -0.007606 -589589.000000 1 0 0
-9.153409 -3.095194 12.576711 15.859974 0.326076 0.655104 0.011380 -0.002564 607794.000000 1 0 0
-7.178009 -7.288494 15.289411 18.395979 0.793035 0.589663 0.027805 -0.014192 1141150.000000 1 0 0
-3.205109 5.920206 19.402611 20.537353 -1.074592 0.333973 0.018430 -0.014763 260990.000000 1 0 0
0.643491 5.494306 16.194611 17.113355 1.454208 0.329160 0.009518 -0.004957 1554470.000000 1 0 0
3.441291 1.463406 16.842811 17.252951 0.402082 0.218481 0.004950 -0.001852 1794260.000000 1 0 0
-11.763509 11.330206 7.804311 18.101408 -0.766638 1.125036 0.005686 -0.018129 -500280.000000 1 0 0
0.504091 -9.520394 15.378311 18.093769 -1.517897 0.554957 -0.002784 -0.007885 1382990.000000 1 0 0
-2.512109 -3.734694 18.869111 19.398505 0.978669 0.234160 0.032481 -0.014174 2111400.000000 1 0 0
-12.927709 2.352506 13.772811 19.035500 -0.180004 0.761890 0.004877 -0.013255 -595919.000000 1 0 0
-5.404709 -0.640294 15.793711 16.705154 0.117920 0.331856 0.018972 -0.002978 3042470.000000 1 0 0
-4.488109 -6.022594 11.622711 13.838431 0.930367 0.573722 0.010879 -0.002638 1802410.000000 1 0 0
2.416491 1.796906 14.051111 14.370178 0.639393 0.211121 -0.002819 0.002224 -562331.000000 1 0 0
0.097391 3.293006 14.406511 14.778394 1.541230 0.224812 0.006962 -0.001203 -731446.000000 1 0 0
-12.956109 7.204806 12.202111 19.200560 -0.507509 0.882130 0.007901 -0.006555 -336008.000000 1 0 0
0.852991 1.568106 18.292411 18.379305 1.072600 0.097278 0.008889 -0.000681 1822440.000000 1 0 0
-2.121909 6.365406 12.512111 14.197669 -1.249031 0.492234 0.000707 0.000555 770966.000000 1 0 0
-13.577609 -2.778294 10.777111 17.556096 0.201837 0.909846 0.025067 -0.009649 806259.000000 1 0 0
-2.529509 3.537706 13.463011 14.148019 -0.950065 0.312452 0.004959 0.000207 -288284.000000 1 0 0
3.537091 6.205706 16.287411 17.784869 1.052747 0.413297 0.007161 -0.002115 303358.000000 1 0 0
-3.959009 12.351006 12.337411 17.900637 -1.260602 0.810389 0.012963 -0.006310 1240510.000000 1 0 0
3.739691 -1.556294 17.168611 17.639970 -0.394356 0.231694 0.027514 -0.005683 -1153740.000000 1 0 0
-15.875309 0.395706 9.061711 18.283780 -0.024921 1.052254 0.034878 -0.016715 1058550.000000 1 0 0
-4.756709 4.524406 15.135211 16.497610 -0.760374 0.409253 -0.001665 -0.006262 2038220.000000 1 0 0
-8.028809 -8.245094 10.551811 15.613586 0.798688 0.828734 0.015706 -0.010154 4460270.000000 1 0 0
-2.647409 -0.506294 14.707211 14.952163 0.188960 0.181258 0.016042 -0.002258 2949150.000000 1 0 0
-1.874209 0.938006 17.228211 17.355223 -0.464032 0.121056 0.016150 -0.006056 575056.000000 1 0 0
-0.618009 -2.519594 14.343511 14.576234 1.330264 0.178933 0.012341 -0.002039 -246399.000000 1 0 0
5.116991 -8.234294 16.443411 19.088556 -1.014772 0.532722 0.030068 -0.014913 641241.000000 1 0 0
-4.535909 9.958306 10.614511 15.245005 -1.143386 0.800620 -0.006352 -0.001405 -557009.000000 1 0 0
-6.211409 2.003206 15.220311 16.560565 -0.311973 0.405083 0.007548 -0.003315 300600.000000 1 0 0
-4.929509 6.736706 17.244111 19.158357 -0.939085 0.450836 0.003848 -0.003335 293345.000000 1 0 0
-4.425709 9.186806 15.735111 18.750414 -1.121858 0.575009 0.006213 -0.003086 -396282.000000 1 0 0
-4.754009 -10.057494 18.252611 21.375491 1.129240 0.547356 0.062847 -0.021173 -1761610.000000 1 0 0
-6.875709 -4.106794 11.174511 13.748121 0.538425 0.621849 0.013588 -0.000275 -244458.000000 1 0 0
-2.366009 -0.840394 19.542111 19.702750 0.341295 0.127783 0.026501 -0.010178 -125467.000000 1 0 0
-5.805509 -4.598094 15.310111 17.007231 0.669858 0.450541 0.021120 -0.007473 1311900.000000 1 0 0
-12.925709 -0.041094 9.673911 16.144974 0.003179 0.928307 0.006347 -0.004467 2271360.000000 1 0 0
-14.483609 8.501506 10.171411 19.634361 -0.530787 1.026237 0.010983 -0.024013 -986837.000000 1 0 0
-8.454709 10.622706 12.811811 18.667257 -0.898555 0.814372 0.002530 -0.012322 -1973780.000000 1 0 0
-10.507209 7.114806 10.733011 16.619850 -0.595215 0.868733 0.002067 -0.008854 -373350.000000 1 0 0
-9.956409 -6.581394 14.795811 19.009494 0.584084 0.678782 0.039056 -0.018354 -150504.000000 1 0 0
-0.706709 -13.520094 14.347811 19.726938 1.518573 0.756386 0.008585 -0.014809 1644780.000000 1 0 0
3.710791 -5.678994 17.006011 18.309161 -0.992018 0.379567 0.039493 -0.015857 2061000.000000 1 0 0
-7.372909 9.336406 10.332111 15.756928 -0.902371 0.855662 -0.000873 -0.007017 210113.000000 1 0 0
-10.332909 -6.787094 11.805511 17.093968 0.581170 0.808444 0.029582 -0.019246 1674470.000000 1 0 0
-10.935009 -4.095994 10.660311 15.811193 0.358399 0.830881 0.010685 -0.003582 -2313350.000000 1 0 0
-10.086009 -10.213294 9.715011 17.332640 0.791669 0.975802 0.030691 -0.018770 1060870.000000 1 0 0
-10.016709 -3.680794 15.269211 18.628782 0.352149 0.609984 0.038559 -0.022465 1247920.000000 1 0 0
5.643291 -3.387094 16.190511 17.477179 -0.540565 0.386112 0.034197 -0.010052 796496.000000 1 0 0
-11.356309 0.442506 15.343411 19.094026 -0.038946 0.637525 0.016453 -0.005184 -892534.000000 1 0 0
-3.305009 3.143406 18.640911 19.190822 -0.760342 0.239970 0.024453 -0.012387 -640689.000000 1 0 0
0.357991 7.346006 14.006811 15.820326 1.522102 0.483511 0.008961 -0.001459 -180858.000000 1 0 0
-13.171309 -7.284894 12.401611 19.502642 0.505211 0.881630 0.043542 -0.023264 -1372080.000000 1 0 0
-1.489909 -1.092694 12.122111 12.262112 0.632790 0.151256 0.010158 -0.000370 514642.000000 1 0 0
2.062391 -4.953194 13.131711 14.185536 -1.176253 0.387884 0.003115 -0.004086 995183.000000 1 0 0
-14.591309 -4.196594 8.564411 17.431777 0.280051 1.057203 0.028200 -0.012808 -2069940.000000 1 0 0
7.961591 0.906906 16.093111 17.977698 0.113421 0.461982 0.055015 -0.011504 248875.000000 1 0 0
-1.529309 11.398306 13.489411 17.726375 -1.437423 0.705975 0.016472 -0.000413 1419730.000000 1 0 0
2.865091 -12.267794 -13.879489 18.744272 -1.341363 2.404559 0.019892 0.003193 150517.000000 1 0 0
0.863291 -10.667394 -14.035989 17.650710 -1.490044 2.490147 0.008888 0.005793 -3177410.000000 1 0 0
3.263991 -14.328094 -12.410289 19.234427 -1.346815 2.272097 0.028920 -0.002968 -848042.000000 1 0 0
-4.917609 -10.318994 -16.177889 19.808801 1.126077 2.526469 0.021252 -0.010744 -613361.000000 1 0 0
-0.980709 -12.201294 -14.938089 19.312687 1.490591 2.455119 0.025297 -0.005745 -433782.000000 1 0 0
5.769591 -15.016294 -11.929189 20.027052 -1.203965 2.208876 0.026233 -0.007825 643969.000000 1 0 0
1.870191 -11.837494 -16.257489 20.197273 -1.414103 2.506362 0.021728 0.003025 -898941.000000 1 0 0
1.315391 -14.413194 -14.141889 20.235203 -1.479785 2.344621 0.040283 0.002293 -10447.500000 1 0 0
-1.102209 -10.724294 -15.911689 19.219969 1.468379 2.546101 0.021040 -0.002825 -316444.000000 1 0 0
-6.027809 -5.651594 -15.086589 17.201168 0.753197 2.640520 0.018087 -0.006807 185906.000000 1 0 0
-6.146209 -7.748494 -16.642689 19.359601 0.900207 2.605402 0.013279 -0.000913 -63390.200000 1 0 0
5.036491 -12.593994 -11.491289 17.777082 -1.190366 2.273667 0.011349 0.000172 612125.000000 1 0 0
-1.884409 -15.578994 -13.039989 20.403367 1.450423 2.264136 0.031728 -0.001932 159540.000000 1 0 0
15.612491 -7.266194 -8.824689 19.350002 -0.435594 2.044355 0.042720 -0.013152 531688.000000 1 0 0
19.105891 -3.351594 -4.152389 19.837101 -0.173655 1.781680 0.125271 -0.032980 1340850.000000 1 0 0
14.930691 -11.648994 -8.869589 20.911581 -0.662554 2.008816 0.051362 -0.020145 180890.000000 1 0 0
17.888991 -3.368094 -6.540389 19.342615 -0.186099 1.915729 0.098807 -0.016441 432740.000000 1 0 0
9.564491 -9.055494 -15.484889 20.328877 -0.758069 2.436758 0.103343 -0.032251 -69173.000000 1 0 0
1.336091 1.897006 -15.193589 15.369740 0.957180 2.990048 0.017188 -0.013773 -32480.500000 1 0 0
4.970791 -4.322894 -13.936489 15.414990 -0.715797 2.700034 0.010512 -0.003529 678806.000000 1 0 0
13.051491 -5.335494 -8.537089 16.483046 -0.388072 2.115227 0.035701 -0.006234 -1282290.000000 1 0 0
2.964291 1.021106 -12.261789 12.656269 0.331739 2.891265 0.003622 -0.006427 -2342530.000000 1 0 0
0.588391 6.290606 -12.968689 14.425838 1.477533 2.688255 0.012456 -0.005089 417206.000000 1 0 0
3.078591 -1.089394 -16.824389 17.138394 -0.340111 2.949874 0.024731 -0.013020 -185656.000000 1 0 0
13.307991 4.374806 -11.455789 18.096316 0.317607 2.256277 0.048762 -0.012745 590059.000000 1 0 0
-3.844809 9.495006 -16.516089 19.434991 -1.186048 2.586425 0.001888 0.003751 -528628.000000 1 0 0
-0.073509 -5.122094 -17.665789 18.393514 1.556446 2.859359 0.018530 -0.011147 545864.000000 1 0 0
-0.374109 -8.742194 -17.602589 19.657494 1.528029 2.680270 0.020539 -0.001636 -389514.000000 1 0 0
5.680191 -10.157094 -12.242489 16.891112 -1.060891 2.381524 0.008286 0.002712 459818.000000 1 0 0
2.065391 -9.767294 -18.191489 20.750811 -1.362406 2.639680 0.049112 -0.010783 92759.800000 1 0 0
10.783991 8.912706 -14.483989 20.137446 0.690677 2.373528 0.091221 -0.049316 -1483780.000000 1 0 0
10.942991 -3.639894 -12.870189 17.281193 -0.321111 2.410958 0.032129 -0.009379 564615.000000 1 0 0
4.865491 7.626306 -12.281489 15.253475 1.002912 2.506742 0.000500 -0.005806 -1182210.000000 1 0 0
9.611591 -5.877294 -12.674489 16.957828 -0.548818 2.414955 0.028482 -0.005528 -1136850.000000 1 0 0
-3.218809 0.441006 -15.814489 16.144760 -0.136161 2.938975 0.018394 -0.013072 -790091.000000 1 0 0
-0.754109 10.751306 -12.721589 16.673274 -1.500770 2.438727 0.003662 0.000522 -1721890.000000 1 0 0
6.678891 -5.451794 -12.269289 14.995503 -0.684585 2.529066 0.017739 -0.005762 -76421.900000 1 0 0
17.841791 -6.053494 -8.068489 20.495727 -0.327100 1.975414 0.080517 -0.021639 1630050.000000 1 0 0
13.369891 4.934506 -14.050189 20.012774 0.353567 2.349084 0.088798 -0.028813 323760.000000 1 0 0
14.221491 0.892306 -11.417089 18.259160 0.062661 2.246287 0.043743 -0.008023 -15887.100000 1 0 0
15.182691 6.194706 -11.197089 19.856064 0.387393 2.169913 0.091567 -0.020773 682237.000000 1 0 0
8.403291 1.590306 -11.632089 14.437793 0.187036 2.507601 0.002909 -0.002818 553755.000000 1 0 0
10.072991 1.361606 -8.958989 13.549266 0.134360 2.293235 0.005765 -0.003389 116552.000000 1 0 0
-0.046609 -5.772994 -12.953989 14.182224 1.562723 2.722347 0.000586 -0.001905 615141.000000 1 0 0
10.601091 -5.762594 -9.088889 15.106241 -0.497905 2.216380 0.023993 -0.006493 -1839620.000000 1 0 0
10.100291 8.553106 -11.207289 17.342861 0.702644 2.273416 0.051361 -0.029010 602677.000000 1 0 0
8.311891 8.352906 -14.617989 18.776159 0.787859 2.463132 0.050590 -0.025054 -537737.000000 1 0 0
8.592691 10.596106 -10.497589 17.213691 0.889427 2.226654 0.066663 -0.026628 -557216.000000 1 0 0
7.196191 1.874106 -17.750589 19.245281 0.254771 2.744876 0.041823 -0.015313 -1515050.000000 1 0 0
12.206291 2.745906 -12.996089 18.039730 0.221275 2.375197 0.046266 -0.013579 -1087360.000000 1 0 0
2.698391 -0.913294 -19.294489 19.503659 -0.326356 2.995006 0.049460 -0.021483 -332442.000000 1 0 0
10.373591 -2.063894 -15.333889 18.627914 -0.196392 2.537763 0.059676 -0.022969 191419.000000 1 0 0
8.340991 -0.761094 -12.979689 15.447450 -0.090995 2.568537 0.015049 -0.006788 682133.000000 1 0 0
0.601191 4.389906 -14.617089 15.273899 1.434694 2.847267 0.014651 -0.009255 -259829.000000 1 0 0
4.085091 -7.609894 -15.771389 17.981523 -1.078134 2.640563 0.027426 -0.008322 420920.000000 1 0 0
11.685891 -5.694094 -14.272489 19.305095 -0.453406 2.402844 0.077898 -0.019039 -490038.000000 1 0 0
-6.010909 4.148606 -16.685889 18.214303 -0.604105 2.729007 0.015301 -0.008520 487942.000000 1 0 0
11.354091 7.913706 -9.118089 16.573523 0.608704 2.153352 0.048619 -0.013260 -1426720.000000 1 0 0
9.497791 6.365106 -13.348889 17.575990 0.590422 2.433334 0.029825 -0.013887 14870.900000 1 0 0
12.134591 0.668606 -10.102489 15.803658 0.055043 2.264319 0.021774 -0.002914 -1347130.000000 1 0 0
5.552791 -7.236994 -13.735589 16.488601 -0.916328 2.555368 0.018576 -0.003018 -578492.000000 1 0 0
8.684791 -10.146194 -10.833789 17.197146 -0.862849 2.252319 0.034325 -0.005860 562061.000000 1 0 0
10.275691 4.659606 -15.633489 19.279723 0.425727 2.516446 0.067763 -0.028939 -29973.200000 1 0 0
9.924491 -0.321694 -10.940589 14.774826 -0.032403 2.404593 0.012867 -0.002968 -1511870.000000 1 0 0
-1.737009 5.479306 -14.012289 15.145436 -1.263806 2.752312 0.011182 -0.007710 -78233.900000 1 0 0
1.374491 -0.677794 -14.956589 15.034899 -0.458132 3.039484 0.012666 -0.011386 -684634.000000 1 0 0
11.517391 -10.359394 -14.390089 21.143368 -0.732515 2.319372 0.113392 -0.030714 -88773.700000 1 0 0
9.410591 -7.659794 -10.796989 16.242126 -0.683192 2.297958 0.032268 -0.007537 -300983.000000 1 0 0
14.101391 -0.968894 -9.650089 17.114678 -0.068601 2.169835 0.040963 -0.006383 632054.000000 1 0 0
3.968691 11.142306 -12.180689 16.978535 1.228625 2.370884 0.018872 -0.016028 -457733.000000 1 0 0
-1.359709 3.106006 -16.401389 16.748183 -1.158161 2.937739 0.018496 -0.016265 -1927470.000000 1 0 0
5.935891 -0.315794 -17.608989 18.585237 -0.053151 2.816033 0.021621 -0.013266 -45195.100000 1 0 0
6.459491 -6.522494 -15.999889 18.446257 -0.790251 2.620707 0.036168 -0.011167 -618700.000000 1 0 0
-1.544909 -5.242494 -19.839589 20.578624 1.284218 2.872781 0.030140 -0.013670 -976139.000000 1 0 0
0.120991 -4.428194 -15.197489 15.829947 -1.543480 2.857966 0.004890 -0.005187 -440223.000000 1 0 0
0.490991 0.681306 -12.964289 12.991460 0.946338 3.076906 0.009022 -0.010629 596798.000000 1 0 0
15.803491 0.574006 -13.447089 20.758228 0.036305 2.275484 0.102371 -0.033351 433905.000000 1 0 0
-0.302109 7.005006 -16.337689 17.778680 -1.527695 2.736202 0.024292 -0.003657 -23844.200000 1 0 0
-4.913109 -0.661094 -18.214389 18.876961 0.133754 2.875861 0.012396 -0.010846 -319632.000000 1 0 0
10.419991 -8.363794 -13.143489 18.742480 -0.676366 2.347970 0.040482 -0.018375 434752.000000 1 0 0
4.431691 8.454506 -17.395789 19.842682 1.087992 2.639724 0.045532 -0.020490 -308173.000000 1 0 0
9.317891 0.678906 -16.698789 19.134617 0.072732 2.631502 0.041159 -0.020427 -576026.000000 1 0 0
3.287291 4.821306 -18.531189 19.428233 0.972372 2.836529 0.041060 -0.011039 -637575.000000 1 0 0
1.593291 -8.183894 -16.048789 18.085307 -1.378515 2.662457 0.012117 -0.003333 -1038650.000000 1 0 0
4.406391 7.829706 -14.899689 17.398888 1.058195 2.598973 0.014769 -0.009123 539973.000000 1 0 0
-5.651409 -0.460394 -15.076489 16.107480 0.081286 2.781866 0.008085 -0.009517 428196.000000 1 0 0
2.951191 3.370606 -13.742289 14.454100 0.851645 2.826455 0.011516 -0.008332 60991.800000 1 0 0
-2.201809 -10.390694 -18.117189 21.001120 1.361983 2.611336 0.028091 0.001045 -351767.000000 1 0 0
6.283991 -9.005794 -15.478189 18.978072 -0.961567 2.524532 0.029022 -0.008172 -76581.000000 1 0 0
-1.895109 5.388306 -17.444489 18.355802 -1.232601 2.825164 0.021817 -0.002384 2037370.000000 1 0 0
10.235291 -12.051794 -11.561389 19.587563 -0.866723 2.202154 0.080377 -0.022871 980322.000000 1 0 0
10.875691 3.863606 -9.361889 14.861126 0.341346 2.252296 0.013281 -0.006530 -1782190.000000 1 0 0
4.752091 -0.430194 -10.886389 11.886164 -0.090281 2.728509 0.003557 -0.004766 85383.300000 1 0 0
6.236091 9.592806 -11.291489 16.075089 0.994365 2.349590 0.021662 -0.019742 330399.000000 1 0 0
10.850991 -9.487394 -9.457789 17.239618 -0.718453 2.151495 0.045399 -0.011081 -838061.000000 1 0 0
3.235891 -2.445394 -14.465689 15.023552 -0.647145 2.868226 0.007052 -0.006100 -289315.000000 1 0 0
9.443491 -4.424994 -14.789589 18.096741 -0.438194 2.527422 0.053038 -0.013713 296308.000000 1 0 0
-3.910009 -6.503794 -16.472489 18.136439 1.029503 2.709888 0.004016 -0.006684 -1739210.000000 1 0 0
5.886391 -7.790094 -11.214389 14.869354 -0.923705 2.425223 0.002271 0.002020 277119.000000 1 0 0
5.464891 6.134406 -16.638789 18.556542 0.843054 2.682948 0.031661 -0.028481 -757488.000000 1 0 0
9.222591 1.322706 -19.274889 21.408575 0.142449 2.691335 0.068812 -0.022425 450094.000000 1 0 0
13.105291 5.810906 -9.441689 17.165686 0.417353 2.153200 0.032388 -0.010918 783763.000000 1 0 0
-1.629409 -0.821094 -17.308589 17.404494 0.466780 3.036565 0.027670 -0.016013 545001.000000 1 0 0
-0.387909 -0.559294 -19.522489 19.534351 0.964400 3.106742 0.042073 -0.024261 -454841.000000 1 0 0
2.847291 6.523906 -16.636089 18.094968 1.159276 2.737289 0.023784 -0.001472 31700.500000 1 0 0
7.765591 3.808406 -15.595989 17.833766 0.455955 2.635242 0.029290 -0.007872 -567029.000000 1 0 0
3.094691 -9.907894 -14.917689 18.173633 -1.268052 2.533681 0.018098 0.002753 210397.000000 1 0 0
9.058491 -10.605594 -13.407189 19.346514 -0.863913 2.336442 0.065362 -0.013845 360274.000000 1 0 0
3.864891 0.147706 -14.808189 15.304955 0.038199 2.886113 0.011834 -0.010370 -1586370.000000 1 0 0
-1.150209 -2.928294 -18.800089 19.061512 1.196520 2.975785 0.041691 -0.018550 246529.000000 1 0 0
9.107091 10.196606 -12.994389 18.861708 0.841779 2.330808 0.079257 -0.039068 -123464.000000 1 0 0
4.602491 2.113306 -10.675889 11.816243 0.430450 2.698646 0.000360 -0.002693 -92439.900000 1 0 0
-0.557409 7.048406 -18.995289 20.268491 -1.491878 2.785262 0.032685 -0.000477 36056.200000 1 0 0
0.827391 -1.762294 -17.615889 17.723143 -1.131848 3.031522 0.031914 -0.016402 -3180730.000000 1 0 0
-4.393509 -2.286994 -13.981789 14.833195 0.479944 2.801133 0.014644 -0.012844 -3092010.000000 1 0 0
9.945191 6.073806 -10.496789 15.683766 0.548270 2.304032 0.020079 -0.003566 225482.000000 1 0 0
8.530491 5.736506 -17.265089 20.093782 0.592010 2.604550 0.073118 -0.025749 -253563.000000 1 0 0
11.463491 0.282406 -13.449389 17.674203 0.024630 2.435590 0.034201 -0.003344 126688.000000 1 0 0
6.773991 12.026106 -11.795889 18.156463 1.057819 2.277960 0.054901 -0.029191 -174702.000000 1 0 0
-0.887909 0.551206 -15.121489 15.157560 -0.555567 3.072590 0.015067 -0.014566 -1727040.000000 1 0 0
-4.238909 -3.108994 -18.826089 19.546248 0.632820 2.869297 0.013522 -0.008853 -554224.000000 1 0 0
5.808991 -12.082994 -13.984789 19.373112 -1.122661 2.377291 0.022655 -0.002837 -111740.000000 1 0 0
2.308591 -4.800494 -13.967189 14.948468 -1.122540 2.777243 0.003364 -0.000305 -517578.000000 1 0 0
11.797391 1.887206 -15.414789 19.502710 0.158624 2.482245 0.070541 -0.018608 39889.000000 1 0 0
9.761391 2.173806 -13.795589 17.039027 0.219119 2.514346 0.027773 -0.008848 197079.000000 1 0 0
-2.071909 -4.098994 -16.333889 16.967336 1.102784 2.867483 0.005411 -0.010664 -1744530.000000 1 0 0
-2.961509 10.038706 -14.155689 17.604820 -1.283925 2.504923 0.011274 -0.004611 74570.500000 1 0 0
3.578091 5.805306 -13.678489 15.284154 1.018443 2.679106 0.006968 -0.008637 -191058.000000 1 0 0
-5.039709 -2.610494 -16.457189 17.408401 0.477932 2.809490 0.007441 -0.007645 401327.000000 1 0 0
-4.273509 6.068306 -13.490889 15.397769 -0.957234 2.638631 0.004689 -0.006932 -750540.000000 1 0 0
5.894991 -1.113994 -14.009989 15.240462 -0.186771 2.737000 0.012929 -0.005584 -1211850.000000 1 0 0
6.856191 -2.927994 -12.596989 14.637781 -0.403613 2.607205 0.014005 -0.008513 1077300.000000 1 0 0
2.907291 -3.315394 -18.253089 18.778164 -0.850888 2.904556 0.043334 -0.021779 11164.200000 1 0 0
7.518191 -12.027094 -12.012389 18.586869 -1.012122 2.273501 0.036212 -0.007900 -867851.000000 1 0 0
-5.905009 -5.491994 -17.759789 19.504903 0.749175 2.715359 0.025133 -0.002967 366430.000000 1 0 0
0.402191 8.697906 -11.882989 14.731624 1.524589 2.509227 0.005487 0.000888 15390.800000 1 0 0
0.509591 8.622206 -14.521189 16.895770 1.511763 2.605003 0.012401 -0.001263 381389.000000 1 0 0
7.820491 -2.403494 -14.995989 17.082639 -0.298171 2.642150 0.027633 -0.018579 -467142.000000 1 0 0
14.386391 1.693806 -8.960189 17.032974 0.117197 2.124745 0.041554 -0.006296 468006.000000 1 0 0
2.806891 10.715906 -14.528089 18.269500 1.314615 2.490150 0.017677 -0.006083 -397556.000000 1 0 0
6.275391 1.053406 -15.371089 16.636122 0.166312 2.749100 0.023921 -0.011734 192577.000000 1 0 0
16.713591 -5.423594 -10.286089 20.360823 -0.313781 2.100399 0.103587 -0.023084 644188.000000 1 0 0
4.928491 -4.246694 -11.182689 12.937425 -0.711226 2.614687 -0.000969 -0.000377 -1406320.000000 1 0 0
8.949491 -3.441194 -17.110489 19.613874 -0.367085 2.630819 0.053869 -0.019652 190096.000000 1 0 0
13.386891 -9.510494 -8.819189 18.639647 -0.617694 2.063649 0.059323 -0.015835 -63519.100000 1 0 0
2.402191 -7.736194 -13.642189 15.865955 -1.269722 2.605753 -0.003388 0.004249 98598.000000 1 0 0
-6.771609 -2.527994 -18.448289 19.813753 0.357299 2.768172 0.008317 -0.007542 -250817.000000 1 0 0
-1.359609 -6.488894 -15.748389 17.087014 1.364256 2.743129 0.004234 -0.002372 516374.000000 1 0 0
1.585791 -7.227794 -18.505989 19.930564 -1.354817 2.761211 0.035939 -0.011081 -180583.000000 1 0 0
5.449691 10.883006 -14.410889 18.862997 1.106547 2.440250 0.053097 -0.033797 -133697.000000 1 0 0
5.370391 -3.237394 -17.359189 18.457065 -0.542493 2.794946 0.029277 -0.019230 202916.000000 1 0 0
3.924991 12.963406 -14.001489 19.480686 1.276796 2.372780 0.045217 -0.023966 220594.000000 1 0 0
9.234791 10.683206 -15.558189 21.011175 0.857989 2.404569 0.107016 -0.046324 271342.000000 1 0 0
2.496391 3.937606 -16.198189 16.855801 1.005761 2.861342 0.028362 -0.014416 32001.900000 1 0 0
16.669591 2.054506 -11.444289 20.324075 0.122630 2.168917 0.120999 -0.018225 1285180.000000 1 0 0
10.004791 -3.650794 -10.502289 14.957346 -0.349891 2.349208 0.024176 -0.005654 122746.000000 1 0 0
14.570691 -2.310094 -11.962689 18.993354 -0.157235 2.252138 0.073496 -0.015516 359518.000000 1 0 0
-2.684409 -8.676394 -16.268289 18.631777 1.270745 2.632419 0.009565 0.005515 -186878.000000 1 0 0
13.911491 8.247206 -8.953689 18.485522 0.535134 2.076430 0.077624 -0.014998 -257762.000000 1 0 0
-8.374509 -0.023594 -16.601089 18.593792 0.002817 2.674385 0.008817 -0.003464 -259481.000000 1 0 0
-3.573809 4.099606 -15.789689 16.700094 -0.853813 2.809877 0.011561 -0.006964 140387.000000 1 0 0
15.162791 4.153506 -9.659589 18.451816 0.267369 2.121754 0.053668 -0.012557 225451.000000 1 0 0
5.483691 1.082906 -12.863389 14.025346 0.194969 2.731674 0.006928 -0.004112 -1762.430000 1 0 0
7.879491 -7.687894 -12.893189 16.953596 -0.773091 2.434877 0.039543 -0.007323 -2103210.000000 1 0 0
3.361691 -6.169194 -11.787789 13.722678 -1.071865 2.604111 -0.004284 0.003130 -1060000.000000 1 0 0
-3.163409 3.246706 -18.243489 18.798222 -0.798392 2.898051 0.020984 -0.015537 -280521.000000 1 0 0
0.806791 5.127206 -17.730289 18.474369 1.414721 2.856813 0.035495 -0.019297 1170650.000000 1 0 0
6.267191 7.141406 -10.195489 13.936476 0.850504 2.391416 0.001075 -0.003687 93742.500000 1 0 0
9.777491 3.786206 -11.680189 15.695907 0.369456 2.410065 0.018175 -0.008985 -129558.000000 1 0 0
4.767691 2.045906 -17.239689 18.003430 0.405354 2.849273 0.031760 -0.016732 -1044780.000000 1 0 0
2.518991 8.070406 -13.136789 15.622163 1.268251 2.569754 0.006490 -0.006628 -1937250.000000 1 0 0
14.421491 -3.487794 -9.780689 17.770931 -0.237291 2.153611 0.056576 -0.006255 241228.000000 1 0 0
-1.396409 9.363806 -16.071389 18.652623 -1.422759 2.609240 0.016133 -0.000494 -1650340.000000 1 0 0
-5.295809 2.042506 -15.508489 16.514559 -0.368104 2.790739 0.008268 -0.009175 306711.000000 1 0 0
4.493791 4.344406 -11.883289 13.426860 0.768498 2.657373 0.007105 -0.007357 553786.000000 1 0 0
9.375691 3.219706 -17.488189 20.102409 0.330792 2.625907 0.052251 -0.020192 738336.000000 1 0 0
-4.382509 14.183206 -13.441289 20.025932 -1.271110 2.306615 0.014330 -0.012088 -289554.000000 1 0 0
15.513991 -4.820594 -7.874589 18.053565 -0.301268 2.022145 0.057322 -0.008132 -301529.000000 1 0 0
1.044191 9.154706 -17.054089 19.384038 1.457227 2.646239 0.019198 -0.000040 -103520.000000 1 0 0
0.488191 -3.215594 -12.903389 13.306984 -1.420127 2.894675 0.002665 -0.004021 227771.000000 1 0 0
7.610991 3.613506 -13.044489 15.528789 0.443264 2.568116 0.011564 -0.004815 196928.000000 1 0 0
-2.898209 7.526506 -14.950689 16.987378 -1.203229 2.646881 0.006885 -0.004991 -4143.030000 1 0 0
12.170191 -5.042094 -11.015189 17.171798 -0.392772 2.267209 0.044690 -0.008318 -818159.000000 1 0 0
0.805591 -4.257494 -19.949589 20.414733 -1.383790 2.927715 0.052101 -0.020175 -640448.000000 1 0 0
3.498491 -4.578694 -16.088589 17.089370 -0.918344 2.797667 0.026484 -0.014431 508340.000000 1 0 0
-5.815009 4.146306 -14.216089 15.909223 -0.619421 2.676044 0.002641 -0.005295 648616.000000 1 0 0
12.373291 -7.426194 -9.893889 17.496735 -0.540551 2.171800 0.038771 -0.007589 281855.000000 1 0 0
-1.973909 -1.786594 -14.930089 15.165612 0.735628 2.965125 0.015860 -0.008965 434760.000000 1 0 0
7.079991 5.980106 -14.227089 16.979340 0.701379 2.564231 0.026552 -0.011992 -489095.000000 1 0 0
4.531191 -5.472894 -18.322089 19.651545 -0.879253 2.771651 0.054344 -0.021320 330499.000000 1 0 0
7.493191 7.670106 -12.303489 16.320364 0.797065 2.424734 0.019126 -0.018493 -1345340.000000 1 0 0
12.280991 -2.425794 -10.884989 16.588858 -0.195014 2.286519 0.030535 -0.008456 -2422650.000000 1 0 0
7.403391 -0.571794 -10.673089 13.001999 -0.077081 2.533748 0.002177 -0.003394 -2261720.000000 1 0 0
5.463791 4.027106 -14.316389 15.843913 0.635164 2.698871 0.010682 -0.008318 122347.000000 1 0 0
14.720891 2.847206 -13.103989 19.912954 0.191054 2.289040 0.077510 -0.027315 -174537.000000 1 0 0
-6.372009 6.682106 -15.863989 18.355358 -0.809148 2.614494 0.002992 0.000028 426866.000000 1 0 0
-11.172209 3.704306 -16.429789 20.210841 -0.320158 2.519944 0.066073 -0.027814 -143772.000000 1 0 0
-5.186509 6.108006 -18.085889 19.781481 -0.866806 2.724533 0.005036 0.011981 360998.000000 1 0 0
-10.146709 1.508106 -15.561989 18.638819 -0.147550 2.558790 0.046297 -0.012703 163234.000000 1 0 0
-7.868709 5.785206 -17.721689 20.234709 -0.633972 2.637900 0.020105 -0.011446 68988.600000 1 0 0
-8.792609 3.760306 -15.436889 18.158949 -0.404127 2.586968 0.013086 -0.008073 -845277.000000 1 0 0
8.990891 13.366406 -12.051089 20.117795 0.978664 2.213081 0.123055 -0.046235 127279.000000 1 0 0
13.610591 9.060706 -11.400089 19.932551 0.587340 2.179657 0.084050 -0.030328 6918.790000 1 0 0
8.428591 16.047606 -9.037189 20.254322 1.087174 2.033295 0.085911 -0.017939 -91103.300000 1 0 0
7.039491 13.635706 -13.843589 20.667169 1.094230 2.304783 0.099168 -0.034876 42958.000000 1 0 0
4.685091 16.012506 -12.396389 20.785112 1.286152 2.209814 0.080193 -0.032296 31847.900000 1 0 0
11.034091 11.031806 -11.394289 19.320500 0.785295 2.201547 0.112890 -0.041437 170511.000000 1 0 0
15.860291 9.329406 -10.264389 21.069986 0.531716 2.079628 0.143301 -0.012891 407592.000000 1 0 0
13.648491 10.764606 -9.442189 19.781632 0.667814 2.068400 0.153319 -0.031896 -9783.990000 1 0 0
10.583591 12.030606 -8.089789 17.949723 0.849298 2.038336 0.093085 -0.011626 379790.000000 1 0 0
5.345691 16.122706 -9.841089 19.630718 1.250640 2.095909 0.059151 -0.022390 -108775.000000 1 0 0
6.690791 14.644906 -11.447189 19.755457 1.142246 2.188843 0.070160 -0.018584 -261388.000000 1 0 0
10.870191 14.201506 -9.712989 20.351559 0.917496 2.068331 0.130322 -0.025235 -150973.000000 1 0 0
8.527191 -18.456394 -1.362589 20.376656 -1.137993 1.637716 0.061781 -0.012041 -168878.000000 1 0 0
7.515991 -17.166694 -3.477889 19.059938 -1.158114 1.754296 0.045350 -0.017302 474743.000000 1 0 0
4.635891 -18.090694 5.393111 19.438373 -1.319936 1.289661 0.056228 -0.009539 302113.000000 1 0 0
10.023691 -16.949994 -2.668589 19.872042 -1.036748 1.705492 0.055681 -0.009769 -1761470.000000 1 0 0
-9.651809 -12.222594 -9.954289 18.483428 0.902386 2.139514 0.041923 -0.014133 146120.000000 1 0 0
-5.087309 -7.016094 -12.230889 14.990028 0.943428 2.525141 0.009638 -0.000991 988126.000000 1 0 0
-10.746909 -9.663494 -5.634989 15.512327 0.732366 1.942560 0.026236 -0.007976 -1224770.000000 1 0 0
-4.475609 -11.538794 -13.931889 18.635246 1.200786 2.415252 0.009894 -0.004693 294245.000000 1 0 0
-2.979109 -15.606594 7.429311 17.539542 1.382178 1.133408 0.009983 -0.001683 210425.000000 1 0 0
-4.707809 -12.047094 -11.311789 17.182914 1.198260 2.289376 0.013159 -0.001494 67103.800000 1 0 0
-14.386509 -12.944294 -4.018089 19.765410 0.732678 1.775512 0.072094 -0.024503 287746.000000 1 0 0
-3.185109 -12.282794 -3.274589 13.104766 1.317070 1.823350 0.013494 -0.002806 1215020.000000 1 0 0
-2.198609 -17.481594 -1.500489 17.683085 1.445686 1.655753 0.021293 -0.015317 -1318260.000000 1 0 0
-5.742709 -12.196494 3.636211 13.962636 1.130740 1.307335 0.011262 -0.005924 159776.000000 1 0 0
-8.855609 -10.785994 -11.950889 18.373438 0.883364 2.278965 0.023667 -0.006891 437258.000000 1 0 0
-9.584509 -12.161394 -7.406089 17.164279 0.903348 2.016932 0.040180 -0.013671 406804.000000 1 0 0
-10.838109 -15.102494 5.932211 19.512588 0.948331 1.261887 0.064341 -0.020711 -680313.000000 1 0 0
-9.320109 -15.456994 0.795811 18.066998 1.028196 1.526734 0.047027 -0.013963 -1876430.000000 1 0 0
-14.886809 -7.811794 -8.045689 18.637981 0.483248 2.017153 0.036046 -0.015950 99473.500000 1 0 0
-2.267709 -16.613594 5.040811 17.508963 1.435137 1.278764 0.011571 -0.009863 660271.000000 1 0 0
4.483291 -15.545294 5.884411 17.215759 -1.290014 1.221961 0.040159 -0.009994 -348102.000000 1 0 0
4.209091 -14.692494 -9.989589 18.258634 -1.291790 2.149711 0.016011 -0.011190 -786967.000000 1 0 0
-7.494409 -14.087694 -0.371489 15.961432 1.081891 1.594073 0.025033 -0.007310 1374010.000000 1 0 0
2.988691 -14.896994 9.661711 18.005593 -1.372801 1.004400 0.026139 -0.008462 -447995.000000 1 0 0
2.629391 -17.399494 10.342811 20.411512 -1.420812 1.039427 0.064596 -0.011861 -190015.000000 1 0 0
-8.207509 -17.290794 -5.243189 19.845045 1.127613 1.838177 0.053713 -0.010427 -113526.000000 1 0 0
-6.387709 -9.098694 -7.710289 13.529140 0.958698 2.177183 0.012988 -0.006313 -25733.700000 1 0 0
-6.000409 -13.179194 -4.824089 15.263286 1.143549 1.892368 0.014464 -0.010640 466378.000000 1 0 0
2.304591 -19.339394 -4.954089 20.096425 -1.452190 1.819880 0.042760 -0.023588 -3220.820000 1 0 0
-5.459609 -12.879594 8.168411 16.199204 1.169861 1.042286 0.014700 -0.010207 1096810.000000 1 0 0
2.266991 -17.484694 3.414711 17.958676 -1.441860 1.379489 0.023917 -0.012189 825952.000000 1 0 0
-17.766809 -10.267394 -2.511989 20.673388 0.524009 1.692606 0.052391 -0.012534 634368.000000 1 0 0
-3.310409 -15.424494 2.494511 15.971738 1.359383 1.413971 0.008189 -0.006347 -119098.000000 1 0 0
-10.071509 -10.430794 -14.118589 20.237868 0.802921 2.342884 0.035472 -0.023700 99490.000000 1 0 0
6.171891 -14.505994 -5.733789 16.774756 -1.168526 1.919639 0.011914 -0.015103 124809.000000 1 0 0
-7.262909 -12.332894 -10.683889 17.860448 1.038575 2.212033 0.018104 -0.009337 -928792.000000 1 0 0
-7.136809 -14.315994 3.781811 16.437270 1.108333 1.338641 0.019879 -0.007150 975696.000000 1 0 0
3.353491 -14.958294 -3.248289 15.669967 -1.350254 1.779604 0.011199 -0.010817 -662796.000000 1 0 0
-7.607309 -11.379094 7.702111 15.705969 0.981502 1.058255 0.019370 -0.011826 -41569.000000 1 0 0
-12.862809 -12.566194 -1.096989 18.015673 0.773734 1.631725 0.046468 -0.001120 580929.000000 1 0 0
-1.781409 -13.698094 4.089911 14.406199 1.441474 1.282938 -0.007160 -0.002683 -2484140.000000 1 0 0
-3.088509 -14.048194 5.187211 15.290448 1.354388 1.224682 0.002460 -0.004057 365570.000000 1 0 0
-14.420409 -10.378294 -4.509889 18.330202 0.623822 1.819385 0.043230 -0.014588 726734.000000 1 0 0
-6.145009 -8.708394 -10.483589 14.950014 0.956294 2.347936 0.012103 -0.005422 289252.000000 1 0 0
0.851991 -19.584294 2.302011 19.737521 -1.527320 1.453899 0.041531 -0.018937 -198843.000000 1 0 0
6.486391 -14.268794 -8.384589 17.775632 -1.144135 2.062003 0.026215 -0.011557 -1757800.000000 1 0 0
-3.749909 -16.845494 -5.811989 18.210209 1.351762 1.895640 0.020088 -0.013942 -116134.000000 1 0 0
-3.609509 -13.696594 -13.074989 19.276426 1.313122 2.316228 0.027546 -0.004212 -1791360.000000 1 0 0
-8.115409 -14.746994 -4.308589 17.375202 1.067716 1.821384 0.029593 -0.016694 -1885850.000000 1 0 0
-4.497409 -14.372194 9.941211 18.044787 1.267525 0.987332 0.024053 -0.009263 -2231590.000000 1 0 0
-0.215609 -12.150394 -9.996089 15.735322 1.553053 2.259147 0.006514 0.001636 1283820.000000 1 0 0
2.571691 -17.108694 6.706211 18.555169 -1.421598 1.201006 0.039080 -0.016453 247951.000000 1 0 0
-2.662409 -19.087394 -3.447689 19.578141 1.432205 1.747818 0.040408 -0.026315 -1213200.000000 1 0 0
0.771391 -15.372594 -3.133189 15.707596 -1.520659 1.771613 0.008621 -0.007332 -1223290.000000 1 0 0
6.144991 -17.971694 0.560211 19.001488 -1.241332 1.541310 0.032666 -0.008897 -117337.000000 1 0 0
-6.819009 -16.689894 3.883511 18.442698 1.182923 1.358637 0.035976 -0.011822 474327.000000 1 0 0
-5.191509 -13.544894 -9.442489 17.308279 1.204785 2.147839 0.020843 -0.006772 222153.000000 1 0 0
5.833391 -15.140494 -2.261789 16.382268 -1.203040 1.709302 0.021194 -0.007587 -226928.000000 1 0 0
-8.893309 -10.431894 -0.576789 13.720352 0.864846 1.612848 0.016149 -0.003471 1626760.000000 1 0 0
-7.263509 -18.727094 -2.400089 20.229262 1.200798 1.689721 0.048122 -0.019892 190427.000000 1 0 0
8.095791 -15.891694 -1.223289 17.876919 -1.099629 1.639278 0.028569 -0.008162 -54556.100000 1 0 0
-8.094009 -10.108794 -9.478989 16.048425 0.895635 2.202659 0.022619 -0.009289 -360440.000000 1 0 0
-9.055709 -15.382694 -6.694589 19.064382 1.038731 1.929603 0.048224 -0.014568 215858.000000 1 0 0
-11.516509 -10.436594 -11.985189 19.626442 0.736246 2.227697 0.054879 -0.008873 -364586.000000 1 0 0
6.685491 -16.167594 2.359611 17.653744 -1.178696 1.436734 0.034462 -0.006400 215207.000000 1 0 0
-2.154709 -11.189894 -6.105889 12.928201 1.380566 2.062686 0.006247 -0.004163 -1079820.000000 1 0 0
-12.426609 -15.386794 -3.281689 20.048530 0.891429 1.735224 0.065528 -0.020091 -163974.000000 1 0 0
-0.184809 -19.586394 -2.798089 19.786114 1.561361 1.712689 0.062123 -0.028768 -37069.100000 1 0 0
-5.761109 -15.735794 -4.741689 17.415201 1.219838 1.846551 0.018852 -0.012215 -2318910.000000 1 0 0
2.122591 -15.910694 -1.094889 16.088952 -1.438173 1.638901 0.013065 -0.012619 1025600.000000 1 0 0
-13.325009 -11.908194 5.201111 18.612160 0.729308 1.287578 0.041042 -0.006109 134085.000000 1 0 0
2.099491 -15.263094 -8.919689 17.802549 -1.434101 2.095590 0.020658 -0.008576 -1270050.000000 1 0 0
-11.404009 -16.789694 0.102911 20.296696 0.974149 1.565726 0.080746 -0.027124 343012.000000 1 0 0
-7.627609 -16.687894 -0.947089 18.372894 1.142075 1.622367 0.051856 -0.016955 708987.000000 1 0 0
-2.784509 -14.432794 -1.781689 14.806534 1.380209 1.691420 0.010583 -0.005471 594280.000000 1 0 0
-1.680909 -10.528494 -13.145489 16.925677 1.412479 2.460142 0.006506 0.000935 188937.000000 1 0 0
1.562591 -19.603194 4.786111 20.239412 -1.491253 1.332060 0.055125 -0.021465 -94273.100000 1 0 0
-17.394809 -9.412994 2.510611 19.937076 0.496014 1.444534 0.028385 -0.006787 -123355.000000 1 0 0
-2.636209 -15.748294 -8.001089 17.859894 1.404938 2.035314 0.018424 -0.004936 -77875.000000 1 0 0
-10.705509 -12.185594 0.253511 16.222235 0.849966 1.555168 0.029495 -0.001024 431641.000000 1 0 0
-6.785309 -11.403294 -6.475689 14.765165 1.034039 2.024813 0.018617 -0.007296 182602.000000 1 0 0
-2.107709 -13.676794 -6.624189 15.342002 1.417891 2.017249 0.005389 -0.007405 466757.000000 1 0 0
-14.496109 -14.624294 -0.903089 20.611228 0.789800 1.614626 0.086554 -0.013865 460652.000000 1 0 0
-9.511509 -11.423894 -4.442289 15.514770 0.876492 1.861187 0.028692 -0.009219 1480180.000000 1 0 0
9.675791 -15.123094 -5.132989 18.672881 -1.001623 1.849272 0.037022 -0.008822 251048.000000 1 0 0
-5.649209 -10.991994 -9.203189 15.408965 1.096060 2.210879 0.016538 -0.008071 -586185.000000 1 0 0
-10.408009 -16.091594 -4.672189 19.725502 0.996675 1.809929 0.061802 -0.011429 -219769.000000 1 0 0
2.406191 -17.375494 -3.251489 17.840116 -1.433190 1.754078 0.026320 -0.013651 422416.000000 1 0 0
-0.301809 -14.587894 -8.253589 16.763636 1.550110 2.085585 0.007597 -0.004374 -1545650.000000 1 0 0
-0.310909 -18.293994 -7.167189 19.650331 1.553803 1.944146 0.045977 -0.012183 225630.000000 1 0 0
-1.717109 -9.974794 -10.483389 14.572111 1.400322 2.373755 0.001689 0.000050 215816.000000 1 0 0
-4.865909 -17.292394 2.092311 18.085401 1.296499 1.454846 0.031682 -0.014844 -3090220.000000 1 0 0
0.406491 -12.851494 -2.648489 13.127857 -1.539177 1.773936 -0.002046 -0.002796 -2408150.000000 1 0 0
2.721591 -14.976594 3.132211 15.540791 -1.391035 1.367859 0.018108 -0.006491 -1188640.000000 1 0 0
-9.418109 -13.048394 6.687611 17.426575 0.945600 1.176932 0.026720 -0.009673 -769655.000000 1 0 0
-0.826009 -17.812594 -4.643789 18.426491 1.524457 1.825560 0.042353 -0.017757 -127754.000000 1 0 0
-9.654809 -17.763794 -2.288989 20.347167 1.072949 1.683532 0.066814 -0.021687 -299570.000000 1 0 0
1.375591 -16.234494 1.379011 16.350924 -1.486266 1.486358 0.011398 -0.012054 297262.000000 1 0 0
-0.262109 -18.006094 4.041811 18.456012 1.556241 1.350010 0.026857 -0.014437 -244705.000000 1 0 0
-17.382409 -9.362994 -0.183789 19.744558 0.494086 1.580105 0.009740 -0.004986 803890.000000 1 0 0
-15.031309 -7.401594 -10.591489 19.821793 0.457559 2.134518 0.064968 -0.020048 739539.000000 1 0 0
2.853991 -12.759094 -8.824689 15.773867 -1.350736 2.164518 0.003375 -0.002251 655670.000000 1 0 0
-11.636409 -14.722794 1.781011 18.850429 0.901957 1.476174 0.052378 -0.010534 188403.000000 1 0 0
-2.153609 -15.531094 10.427711 18.830562 1.433011 0.983917 0.025953 -0.010427 4118.900000 1 0 0
-6.781109 -15.825094 1.337911 17.268673 1.165962 1.493242 0.042055 -0.014770 -937748.000000 1 0 0
-12.527809 -15.166194 -5.908389 20.539438 0.880381 1.862580 0.065571 -0.016560 530065.000000 1 0 0
1.061991 -13.724594 -5.068189 14.668976 -1.493572 1.923572 0.003791 -0.004691 406345.000000 1 0 0
5.989691 -16.467194 -7.332489 18.995007 -1.221938 1.967112 0.045881 -0.026991 195662.000000 1 0 0
-6.674509 -12.913694 5.893311 15.685780 1.093756 1.185633 0.018989 -0.009332 -658903.000000 1 0 0
-2.391309 -13.568694 0.510311 13.787249 1.396350 1.533775 0.003934 -0.003226 1037980.000000 1 0 0
-4.080009 -15.547394 0.205911 16.075147 1.314159 1.557987 0.015706 -0.010075 -4684.770000 1 0 0
-17.757609 -7.695094 -2.199189 19.477772 0.408914 1.683945 0.021816 -0.004858 826417.000000 1 0 0
1.155691 -12.739694 -12.070689 17.587978 -1.480328 2.327191 0.013086 0.002090 -486873.000000 1 0 0
1.448191 -16.990094 -5.696289 17.977994 -1.485764 1.893201 0.035098 -0.019276 -1377120.000000 1 0 0
-12.855409 -6.565694 -9.130489 17.080273 0.472198 2.134787 0.032451 -0.009682 2811140.000000 1 0 0
-11.415309 -13.579894 -8.663689 19.742906 0.871783 2.025087 0.058576 -0.018115 237253.000000 1 0 0
-4.322709 -9.808694 3.513211 11.280024 1.155702 1.254073 0.008464 -0.002491 -4004260.000000 1 0 0
-7.051709 -14.444294 9.436911 18.639193 1.116633 1.039915 0.026009 -0.010592 -676280.000000 1 0 0
-5.170609 -15.838894 -7.877389 18.429841 1.255253 2.012440 0.022291 -0.016969 -814992.000000 1 0 0
-0.158409 -13.526194 2.138211 13.695071 1.559086 1.414025 -0.000636 -0.006307 549613.000000 1 0 0
-10.963109 -13.546694 -4.662789 18.040075 0.890421 1.832233 0.062705 -0.015788 -987276.000000 1 0 0
-9.789209 -10.522194 6.563811 15.799646 0.821470 1.142369 0.029720 -0.007311 -305302.000000 1 0 0
-15.434309 -8.162794 -4.927089 18.141811 0.486479 1.845838 0.036202 -0.014195 -854924.000000 1 0 0
-14.524109 -7.295194 5.328311 17.104400 0.465471 1.254007 0.015783 -0.004939 263272.000000 1 0 0
-1.235309 -19.367094 0.117411 19.406806 1.507099 1.564746 0.047390 -0.023168 -224088.000000 1 0 0
-15.517309 -12.319394 -1.280689 19.854333 0.671018 1.635345 0.049472 -0.005691 202515.000000 1 0 0
-4.294609 -12.166194 -6.582989 14.484326 1.231456 2.042597 0.006801 -0.007223 -300284.000000 1 0 0
-7.036009 -18.423794 1.970611 19.819812 1.205992 1.471205 0.059632 -0.018925 -431058.000000 1 0 0
-2.451609 -11.792094 -8.534489 14.761483 1.365814 2.187267 0.002191 -0.001341 131477.000000 1 0 0
-1.099209 -20.344794 -5.107989 21.005011 1.516820 1.816439 0.064434 -0.020207 -170217.000000 1 0 0
-5.229109 -8.969694 -13.890989 17.342392 1.042989 2.499734 0.009145 -0.002435 783423.000000 1 0 0
-8.784709 -19.081594 -0.328789 21.009199 1.139347 1.586447 0.076740 -0.023604 319372.000000 1 0 0
-17.072909 -7.162394 5.791311 19.399057 0.397218 1.267638 0.039610 -0.009452 213815.000000 1 0 0
-3.510309 -14.648594 -4.301989 15.665590 1.335597 1.848984 0.014672 -0.008790 -2141660.000000 1 0 0
-2.958209 -14.912294 -10.803189 18.650373 1.374965 2.188602 0.019134 -0.003376 -260521.000000 1 0 0
-0.048409 -16.842294 6.245211 17.962959 1.567922 1.215710 0.032916 -0.007851 -743395.000000 1 0 0
-11.137309 -11.527794 3.859011 16.487015 0.802625 1.334541 0.027768 -0.004869 741718.000000 1 0 0
-0.035709 -14.658294 -0.186389 14.659523 1.568360 1.583511 0.004593 -0.002665 394572.000000 1 0 0
-7.212209 -9.610294 -2.454889 12.263776 0.926996 1.772332 0.019120 -0.004423 194298.000000 1 0 0
-11.093509 -14.497794 -0.812089 18.273245 0.917647 1.615252 0.054987 -0.015029 305236.000000 1 0 0
0.384791 -14.650894 -10.702089 18.147492 -1.544538 2.201519 0.013842 -0.002810 60489.700000 1 0 0
-1.269609 -13.897494 -3.955389 14.505080 1.479694 1.846984 0.003565 -0.004558 -4243810.000000 1 0 0
-11.316009 -8.199994 -7.633689 15.923730 0.627070 2.070757 0.026798 -0.009292 790682.000000 1 0 0
-0.033409 -17.240294 -0.397489 17.244908 1.568858 1.593848 0.013575 -0.017024 -847225.000000 1 0 0
-12.897609 -9.459594 4.417211 16.593493 0.632817 1.301346 0.019133 -0.006185 -713741.000000 1 0 0
4.071991 -16.768794 1.625211 17.332481 -1.332576 1.476892 0.024087 -0.013221 1932240.000000 1 0 0
-3.884909 -18.077594 -7.985289 20.140923 1.359114 1.978466 0.042923 -0.016152 265229.000000 1 0 0
-13.379709 -11.240494 2.616711 17.669536 0.698727 1.422158 0.020570 -0.005759 163365.000000 1 0 0
-8.534609 -12.301694 3.933211 15.480355 0.964260 1.313902 0.022886 -0.006600 2415880.000000 1 0 0
-8.216709 -9.445694 -5.852989 13.820019 0.854868 2.008119 0.020843 -0.008580 314009.000000 1 0 0
3.936391 -17.332594 -5.412889 18.579918 -1.347475 1.866413 0.014168 -0.010600 2255.780000 1 0 0
-2.674509 -13.057894 11.175811 17.394262 1.368771 0.873040 0.012778 -0.009725 -73040.600000 1 0 0
0.067691 -16.868094 -9.636389 19.426713 -1.566783 2.089826 0.027482 -0.006438 179003.000000 1 0 0
-6.939409 -10.720394 -14.670389 19.450002 0.996315 2.425325 0.017961 0.003562 22800.200000 1 0 0
-4.357909 -18.991094 -1.387489 19.534026 1.345230 1.641886 0.045528 -0.025973 -27627.300000 1 0 0
-2.338609 -17.293594 1.099511 17.485606 1.436382 1.507874 0.025527 -0.017029 -476317.000000 1 0 0
4.102491 -14.654494 -7.384089 16.914769 -1.297836 2.022553 0.022129 -0.014392 301943.000000 1 0 0
-0.834709 -15.852194 -6.152489 17.024745 1.518189 1.940549 0.021194 -0.006992 -354590.000000 1 0 0
-9.658909 -15.131794 8.231711 19.749096 1.002677 1.140858 0.047308 -0.017950 -398351.000000 1 0 0
-7.118109 -12.052194 -1.801489 14.112697 1.037312 1.698796 0.017057 -0.004161 1344680.000000 1 0 0
-7.241409 -15.124694 -9.321289 19.185432 1.124268 2.078135 0.035306 -0.008271 -49998.900000 1 0 0
-4.897809 -13.248894 -0.624489 14.139014 1.216701 1.614978 0.017981 -0.005098 2621040.000000 1 0 0
-6.448209 -13.755894 -7.265289 16.840085 1.132452 2.016872 0.019560 -0.011300 697004.000000 1 0 0
5.868291 -15.366794 0.135511 16.449729 -1.206006 1.562558 0.019295 -0.006692 51992.400000 1 0 0
-14.411809 -12.921994 0.991211 19.381968 0.730948 1.519633 0.023240 -0.003914 1026800.000000 1 0 0
0.855991 -15.517594 11.127811 19.114304 -1.515690 0.949399 0.018628 -0.000146 776129.000000 1 0 0
-9.362909 -10.902794 1.892811 14.495438 0.861237 1.439843 0.019929 -0.001699 334944.000000 1 0 0
-9.390409 -8.977894 -3.481989 13.450153 0.762944 1.832660 0.021141 -0.005885 -114295.000000 1 0 0
-12.214309 -7.110994 -12.132689 18.626801 0.527218 2.280167 0.048792 -0.019728 -1086940.000000 1 0 0
-13.384209 -8.468694 -0.573189 15.848797 0.564144 1.606970 0.019081 -0.005720 611057.000000 1 0 0
-11.305609 -9.781794 0.514611 14.958781 0.713262 1.536388 0.014866 -0.000747 1447780.000000 1 0 0
-15.735809 -12.155394 3.109911 20.125627 0.657726 1.415650 0.041268 -0.004593 -384226.000000 1 0 0
-10.453209 -12.609594 -2.307689 16.540764 0.878628 1.710768 0.047878 -0.013479 817078.000000 1 0 0
-3.381109 -8.934494 -12.065289 15.389226 1.209019 2.471894 0.004975 0.001730 5723.000000 1 0 0
-0.091309 -15.547894 3.918111 16.034243 1.564924 1.323938 0.010071 -0.010753 -1107840.000000 1 0 0
-15.703509 -7.848794 1.117111 17.591239 0.463497 1.507250 0.002603 -0.002801 279538.000000 1 0 0
-6.110409 -13.393994 -13.040189 19.666792 1.142794 2.295690 0.015922 -0.004991 -1264330.000000 1 0 0
-15.374809 -10.440194 1.073411 18.615440 0.596524 1.513102 0.018430 0.000341 598057.000000 1 0 0
-9.896209 -8.437994 -12.502889 18.040425 0.706030 2.336506 0.033578 -0.011807 870211.000000 1 0 0
-13.303309 -12.037594 -6.142089 18.963306 0.735492 1.900638 0.054627 -0.009341 -42615.700000 1 0 0
-12.143409 -11.466694 -3.862389 17.142506 0.756744 1.798058 0.041326 -0.010600 -960468.000000 1 0 0
-11.661009 -11.026194 -8.659289 18.235662 0.757424 2.065595 0.046706 -0.026537 1008180.000000 1 0 0
-13.054509 -8.615394 -5.864089 16.704274 0.583342 1.929492 0.025688 -0.012422 -2015160.000000 1 0 0
-13.484909 -8.245294 -3.258289 16.138281 0.548793 1.774092 0.029118 -0.010617 109789.000000 1 0 0
-4.170909 -17.038394 -3.185589 17.828386 1.330723 1.750442 0.021340 -0.019747 611899.000000 1 0 0
-15.490909 -9.146594 -1.934189 18.093356 0.533367 1.677901 0.026301 -0.006626 -111161.000000 1 0 0
-9.225409 -15.850994 3.708311 18.711327 1.043711 1.371290 0.039798 -0.009562 -927714.000000 1 0 0
4.957391 -17.233294 7.857311 19.578036 -1.290695 1.157825 0.070398 -0.026642 72906.100000 1 0 0
-8.269909 -15.433694 5.963211 18.497303 1.078894 1.242551 0.029787 -0.007586 426794.000000 1 0 0
1.000891 -16.212094 8.625611 18.391165 -1.509137 1.082629 0.019712 -0.004235 649933.000000 1 0 0
-10.793509 -7.858194 -10.186289 16.793199 0.629303 2.222538 0.030347 -0.012493 1095500.000000 1 0 0
-4.682709 -16.061494 5.650011 17.658482 1.287111 1.245109 0.019566 -0.012228 -2487610.000000 1 0 0
-1.383009 -13.238694 -11.990389 17.914943 1.466707 2.304056 0.015046 -0.002107 -883715.000000 1 0 0
-6.311909 -14.401594 -2.553389 15.930032 1.157733 1.731778 0.021060 -0.010268 493548.000000 1 0 0
-17.726809 -7.121794 -7.319889 20.458262 0.382016 1.936703 0.054057 -0.014588 54073.600000 1 0 0
-17.277709 -4.074894 -10.197389 20.472194 0.231614 2.092213 0.081256 -0.023997 806036.000000 1 0 0
-15.362309 -5.469594 -8.913389 18.584012 0.342045 2.071026 0.037158 -0.021297 1084800.000000 1 0 0
-16.148009 -5.631294 -5.749089 18.042220 0.335543 1.895097 0.024488 -0.011580 677630.000000 1 0 0
-15.287909 -4.598894 -12.349089 20.183409 0.292208 2.229186 0.081258 -0.017861 -695088.000000 1 0 0
-18.825809 -5.393794 -5.603489 20.369173 0.279036 1.849486 0.050830 -0.018389 372743.000000 1 0 0
-17.484209 -4.486494 -7.647189 19.603716 0.251183 1.971524 0.042631 -0.020369 510293.000000 1 0 0
12.298991 -7.826294 8.700111 16.976690 -0.566710 1.032733 0.050681 -0.011402 414628.000000 1 0 0
16.005191 -3.282094 1.726811 16.429247 -0.202260 1.465496 0.032274 -0.008812 598351.000000 1 0 0
11.922391 -2.031694 12.450511 17.357604 -0.168789 0.770885 0.051219 -0.007193 540237.000000 1 0 0
9.801391 -10.013694 5.216211 14.951595 -0.796112 1.214428 0.014030 -0.007223 555821.000000 1 0 0
16.972991 -1.944494 7.149511 18.519692 -0.114067 1.174451 0.094514 -0.018368 252454.000000 1 0 0
5.162791 -12.865694 9.061311 16.561638 -1.189184 0.991869 0.017116 0.000156 170125.000000 1 0 0
15.225991 -8.962594 -2.167889 17.800524 -0.532023 1.692887 0.033922 -0.010524 703822.000000 1 0 0
11.159791 -8.480894 6.528111 15.462301 -0.649839 1.134931 0.018832 -0.009132 -2648770.000000 1 0 0
20.039791 -2.980294 3.594111 20.576516 -0.147637 1.395225 0.139901 -0.031037 1337000.000000 1 0 0
13.637291 -8.436494 6.623011 17.349767 -0.554009 1.179124 0.044706 -0.012664 -427295.000000 1 0 0
8.297691 -11.112894 8.819411 16.435635 -0.929428 1.004390 0.021094 -0.003478 -1633480.000000 1 0 0
16.859491 0.186806 -0.798289 16.879413 0.011080 1.618108 0.031140 0.000555 -2165180.000000 1 0 0
12.496291 -12.256994 2.244311 17.647326 -0.775731 1.443275 0.017245 -0.001568 -1918900.000000 1 0 0
10.406691 -11.498694 3.523811 15.903975 -0.835208 1.347374 0.021519 -0.005719 -1317840.000000 1 0 0
16.421791 2.995806 2.375811 16.861036 0.180444 1.429420 0.035451 -0.000028 -120098.000000 1 0 0
18.383891 -3.029694 0.429511 18.636818 -0.163333 1.547748 0.070184 -0.015152 1447000.000000 1 0 0
13.592991 -11.707194 -0.153789 17.940219 -0.710999 1.579369 0.036266 -0.001804 -430868.000000 1 0 0
17.036891 -7.489894 -0.821489 18.628715 -0.414195 1.614909 0.058935 -0.008054 429816.000000 1 0 0
10.230791 -5.714794 9.753111 15.246348 -0.509413 0.876687 0.016732 -0.001825 -133601.000000 1 0 0
11.500991 -13.343294 6.392811 18.739913 -0.859417 1.222674 0.044896 -0.001495 442395.000000 1 0 0
13.105191 -1.699994 10.215511 16.703074 -0.128999 0.912722 0.051460 -0.006120 169485.000000 1 0 0
15.690891 -1.941594 -1.410689 15.873370 -0.123114 1.659785 0.029352 -0.006223 -294900.000000 1 0 0
10.473591 -12.504594 9.170011 18.712298 -0.873557 1.058646 0.061139 -0.017783 243105.000000 1 0 0
14.491791 1.302106 3.243011 14.907200 0.089611 1.351496 0.017861 0.001995 1372580.000000 1 0 0
14.809691 -5.886894 5.111111 16.736365 -0.378352 1.260449 0.050162 -0.016377 -911293.000000 1 0 0
14.437091 -3.368194 -3.017789 15.128826 -0.229202 1.771616 0.027611 -0.006785 877148.000000 1 0 0
14.109091 0.683206 9.482811 17.013434 0.048385 0.979579 0.075836 -0.008787 -108837.000000 1 0 0
15.354191 -3.379094 4.309811 16.301654 -0.216623 1.303237 0.038143 -0.009707 -514411.000000 1 0 0
18.405491 4.948106 -4.411489 19.562901 0.262629 1.798255 0.046093 0.001509 532645.000000 1 0 0
18.421191 -5.618394 -5.258989 19.964058 -0.296034 1.837365 0.101763 -0.020198 554271.000000 1 0 0
17.341191 0.284106 6.042211 18.365891 0.016382 1.235562 0.088675 -0.007871 845749.000000 1 0 0
16.964291 -6.476494 3.914211 18.575608 -0.364695 1.358487 0.070458 -0.020140 -698667.000000 1 0 0
9.821891 -6.514994 14.183011 18.441055 -0.585678 0.693365 0.057155 -0.007225 -1002740.000000 1 0 0
8.652391 -12.349994 5.114711 15.923144 -0.959669 1.243787 0.019118 -0.005965 -1015580.000000 1 0 0
16.929591 -10.075194 -0.430289 19.705475 -0.536826 1.592634 0.050559 -0.004581 393785.000000 1 0 0
15.005891 -8.699594 0.376411 17.349392 -0.525393 1.549099 0.040088 -0.008589 -368714.000000 1 0 0
10.065091 -12.808794 1.372111 16.347904 -0.904777 1.486766 0.024548 -0.006709 -266057.000000 1 0 0
17.033991 -8.038594 8.784811 20.783377 -0.440928 1.134391 0.105033 -0.019353 791900.000000 1 0 0
19.151291 0.074806 -2.016789 19.257336 0.003906 1.675717 0.099270 -0.007241 -18898.200000 1 0 0
13.442091 -1.147494 7.626011 15.497180 -0.085159 1.056307 0.030343 -0.007869 -250701.000000 1 0 0
12.823691 -9.742194 -3.005689 16.382661 -0.649682 1.755309 0.026521 -0.008647 -932035.000000 1 0 0
8.939691 -15.109494 1.324011 17.605905 -1.036531 1.495523 0.035933 -0.002207 -173337.000000 1 0 0
11.560491 -8.227194 11.074211 17.999162 -0.618512 0.908077 0.064436 -0.009816 -356572.000000 1 0 0
14.056891 -3.985694 -0.622089 14.624259 -0.276289 1.613347 0.022630 -0.006693 -134196.000000 1 0 0
7.188691 -13.272894 10.741511 18.526388 -1.074420 0.952319 0.039283 -0.002079 160983.000000 1 0 0
15.559491 -6.608294 1.703811 16.990300 -0.401626 1.470346 0.034554 -0.009555 1787660.000000 1 0 0
16.014791 -6.114194 -2.679989 17.350482 -0.364705 1.725879 0.060232 -0.010348 82676.000000 1 0 0
11.284191 -8.474494 3.876311 14.634747 -0.644145 1.302727 0.018824 -0.007262 352232.000000 1 0 0
10.813791 -14.322994 -0.486789 17.953362 -0.924106 1.597914 0.041206 -0.011097 675216.000000 1 0 0
13.375891 -12.787094 4.604311 19.068926 -0.762897 1.326930 0.018603 -0.001677 561099.000000 1 0 0
12.940891 -11.057694 6.433211 18.196853 -0.707087 1.209450 0.032706 -0.008410 -74942.500000 1 0 0
11.004391 -10.381594 1.319311 15.186004 -0.756285 1.483810 0.014527 -0.005782 88911.400000 1 0 0
13.955591 -7.487594 11.777211 19.736395 -0.492443 0.931382 0.082321 -0.017875 -193603.000000 1 0 0
15.411391 -1.795794 -5.052389 16.317551 -0.116001 1.885599 0.039656 -0.005479 -461671.000000 1 0 0
13.119891 -11.298494 -7.009589 18.679450 -0.710945 1.955470 0.046342 -0.011246 -106519.000000 1 0 0
17.758891 -5.112994 1.841311 18.571789 -0.280330 1.471488 0.096161 -0.014808 487387.000000 1 0 0
10.666791 -9.888394 9.090711 17.152312 -0.747548 1.012197 0.038721 -0.008453 -685264.000000 1 0 0
16.384691 1.593306 9.969111 19.245256 0.096939 1.026281 0.131215 -0.016994 -364887.000000 1 0 0
18.166791 3.852206 0.523611 18.578104 0.208952 1.542608 0.034006 -0.000201 600406.000000 1 0 0
13.194591 -4.049294 5.643311 14.911102 -0.297766 1.182660 0.020708 -0.013505 -1301220.000000 1 0 0
12.027591 -6.097794 6.685911 15.051493 -0.469219 1.110512 0.017744 -0.006945 -207674.000000 1 0 0
16.775091 -10.219194 3.651811 19.979273 -0.547148 1.386983 0.051539 -0.003282 49697.700000 1 0 0
16.389391 -8.063994 -5.464489 19.065696 -0.457247 1.861487 0.068074 -0.017161 -170734.000000 1 0 0
13.915491 -0.287494 5.229211 14.868362 -0.020657 1.211409 0.023568 -0.004040 342926.000000 1 0 0
18.389791 -4.039694 5.273611 19.552865 -0.216236 1.297704 0.112863 -0.020677 257477.000000 1 0 0
14.061591 -13.397494 7.051811 20.662750 -0.761218 1.222517 0.073448 -0.013430 719426.000000 1 0 0
15.085391 -13.627994 -1.190289 20.364382 -0.734685 1.629279 0.045340 0.002400 -66759.100000 1 0 0
17.928391 -5.859394 7.875711 20.439827 -0.315879 1.175250 0.117828 -0.021206 415126.000000 1 0 0
14.355291 3.355006 9.576811 17.579697 0.229591 0.994687 0.072333 -0.007619 -1396770.000000 1 0 0
18.749591 3.821306 3.058511 19.377926 0.201054 1.412299 0.083143 -0.004783 -293821.000000 1 0 0
14.873791 -10.330794 8.060411 19.822341 -0.607068 1.152031 0.050724 -0.023105 -500074.000000 1 0 0
14.810391 -4.784794 10.250411 18.636332 -0.312485 0.988405 0.089917 -0.017416 54369.400000 1 0 0
18.023291 -7.666194 1.907311 19.678602 -0.402166 1.473721 0.118258 -0.015120 189654.000000 1 0 0
18.512591 -5.741694 -2.021689 19.487696 -0.300743 1.674725 0.072884 -0.015904 -1021600.000000 1 0 0
14.461391 -12.818194 -5.240589 20.022530 -0.725235 1.835615 0.056349 -0.015913 1131000.000000 1 0 0
15.454091 -1.519694 9.274411 18.087374 -0.098021 1.032404 0.122196 -0.017426 -1183260.000000 1 0 0
13.040791 -9.972794 10.062211 19.255310 -0.652867 1.020936 0.054937 -0.028344 -1247610.000000 1 0 0
16.495891 2.215306 4.839611 17.333316 0.133496 1.287826 0.065853 -0.005217 -473720.000000 1 0 0
14.977691 2.555206 -0.044689 15.194153 0.168974 1.573738 0.015037 0.004828 -1114460.000000 1 0 0
15.257091 -9.833694 -7.029289 19.465130 -0.572522 1.940267 0.061497 -0.012427 1027790.000000 1 0 0
16.051691 0.018606 -3.291889 16.385776 0.001159 1.773072 0.025890 -0.001693 71908.500000 1 0 0
12.004991 2.754906 13.574611 18.329740 0.225574 0.736866 0.096715 -0.014212 -283951.000000 1 0 0
17.527391 -3.044594 9.483611 20.159808 -0.171989 1.081028 0.113908 -0.022471 -35748.800000 1 0 0
8.166091 -18.099894 4.206311 20.297396 -1.146972 1.362050 0.078951 -0.021122 54104.100000 1 0 0
6.824391 -11.252194 6.586411 14.716148 -1.025615 1.106757 0.017244 -0.005231 523475.000000 1 0 0
17.974391 2.365206 -1.578789 18.197953 0.130836 1.657662 0.027357 0.003444 536871.000000 1 0 0
17.523291 -2.092394 3.521611 17.995710 -0.118844 1.373834 0.049959 -0.011084 -1002330.000000 1 0 0
12.677491 -13.302994 -2.068889 18.492397 -0.809469 1.682909 0.031927 -0.000584 307270.000000 1 0 0
15.145491 -8.263394 4.195511 17.755897 -0.499460 1.332252 0.039462 -0.006302 -209977.000000 1 0 0
11.670791 -2.838494 14.865311 19.111303 -0.238581 0.679594 0.097428 -0.022319 140781.000000 1 0 0
12.294491 -13.580994 -6.490689 19.435199 -0.835076 1.911304 0.038301 -0.018784 -102967.000000 1 0 0
10.754291 -11.835294 -1.345489 16.048031 -0.833216 1.654736 0.025092 -0.009221 -1097040.000000 1 0 0
13.217591 -7.980394 2.144411 15.588133 -0.543187 1.432792 0.019636 -0.005165 -727606.000000 1 0 0
8.851191 -7.918494 10.019011 15.537912 -0.729837 0.870021 0.019196 -0.005617 -2391430.000000 1 0 0
15.540191 -3.685794 7.930111 17.831693 -0.232875 1.109935 0.088409 -0.020314 -1256340.000000 1 0 0
10.477991 -17.057794 5.166211 20.674776 -1.019954 1.318240 0.064301 -0.018132 -228361.000000 1 0 0
15.227691 -6.276694 8.200411 18.399082 -0.390970 1.108844 0.072306 -0.012709 243069.000000 1 0 0
16.684491 -4.805494 -0.452589 17.368646 -0.280432 1.596857 0.041950 -0.009403 -868263.000000 1 0 0
14.172291 -10.550994 3.389411 17.990704 -0.639959 1.381266 0.030940 -0.002246 539246.000000 1 0 0
14.891191 -9.863294 -4.464289 18.410921 -0.585014 1.815718 0.050784 -0.016782 -396031.000000 1 0 0
13.641091 -6.595194 -0.096989 15.152074 -0.450344 1.577197 0.025581 -0.006593 157349.000000 1 0 0
17.770991 -0.776794 -4.825889 18.430972 -0.043684 1.835720 0.093285 -0.012597 -1944500.000000 1 0 0
14.447491 0.366006 -1.537189 14.533647 0.025328 1.676762 0.018598 -0.000720 -2037020.000000 1 0 0
4.824191 -12.890094 11.723811 18.079687 -1.212678 0.865247 0.010951 -0.001797 -302010.000000 1 0 0
12.004791 -7.398294 13.458911 19.493385 -0.552303 0.808706 0.067717 -0.013809 -926540.000000 1 0 0
12.084791 -5.673194 11.514811 17.630036 -0.438910 0.859078 0.050277 -0.009559 372911.000000 1 0 0
13.232791 -4.594294 8.297511 16.280755 -0.334169 1.036017 0.040063 -0.009548 -1972220.000000 1 0 0
15.290691 -1.091994 3.040211 15.628198 -0.071295 1.375014 0.029991 -0.002874 742328.000000 1 0 0
15.289791 -10.327694 5.743411 19.324227 -0.594068 1.269024 0.047527 -0.010231 -86341.300000 1 0 0
13.805691 -8.028694 -5.887189 17.021047 -0.526743 1.923970 0.043776 -0.012046 -1581030.000000 1 0 0
9.490591 -2.114494 13.542811 16.671837 -0.219219 0.622683 0.018754 -0.005982 135281.000000 1 0 0
9.966591 -9.076394 13.865811 19.338423 -0.738685 0.771295 0.082009 -0.002437 -216810.000000 1 0 0
20.300491 6.126406 -3.197689 21.444533 0.293095 1.720469 0.141559 -0.013258 -379471.000000 1 0 0
11.117491 -3.494894 10.452911 15.654911 -0.304578 0.839671 0.019811 -0.001776 823046.000000 1 0 0
10.266391 -13.883994 -2.982189 17.523057 -0.934087 1.741815 0.025976 -0.005392 134155.000000 1 0 0
14.970591 -12.907194 2.536411 19.928563 -0.711517 1.443175 0.028836 0.006379 1279600.000000 1 0 0
11.271991 -0.300894 14.303911 18.214011 -0.026688 0.667576 0.081659 -0.015408 498585.000000 1 0 0
19.074191 -1.615694 5.610211 19.947674 -0.084504 1.285704 0.143685 -0.027487 862605.000000 1 0 0
19.059491 -0.432694 7.886111 20.631097 -0.022698 1.178573 0.161872 -0.024879 366860.000000 1 0 0
19.066191 0.962306 0.445311 19.095653 0.050429 1.547474 0.077394 -0.006687 425606.000000 1 0 0
18.550991 0.860506 3.845011 18.964805 0.046353 1.366636 0.078421 -0.012131 315553.000000 1 0 0
16.609891 -3.972894 -4.316689 17.615509 -0.234778 1.818368 0.052962 -0.013442 -1917980.000000 1 0 0
11.224691 -7.952494 15.835411 20.976084 -0.616396 0.715254 0.112353 -0.015635 168304.000000 1 0 0
16.532991 -7.391894 6.275911 19.166819 -0.420439 1.237207 0.069966 -0.016417 422174.000000 1 0 0
18.892791 2.351106 6.011911 19.965178 0.123808 1.264930 0.106968 -0.010848 601129.000000 1 0 0
15.376391 2.016006 7.617511 17.277851 0.130367 1.114214 0.078347 -0.006118 152973.000000 1 0 0
8.863291 -15.541294 3.775211 18.285021 -1.052497 1.362836 0.036035 -0.016421 609061.000000 1 0 0
11.396091 -15.046694 1.982111 18.979006 -0.922588 1.466169 0.036941 -0.000888 -814473.000000 1 0 0
8.181891 -16.181794 5.999911 19.099548 -1.102660 1.251247 0.052567 -0.013293 -392275.000000 1 0 0
14.642191 -11.570594 -2.516389 18.830949 -0.668751 1.704828 0.039402 -0.007276 791883.000000 1 0 0
13.676891 -4.834694 3.137411 14.841663 -0.339784 1.357797 0.020161 -0.006592 -2051140.000000 1 0 0
-1.152709 10.394506 -5.525689 11.828260 -1.460352 2.056872 -0.002383 0.000084 -596149.000000 1 0 0
8.232091 -1.685094 -8.076789 11.655101 -0.201909 2.336415 0.000313 -0.003113 -3994470.000000 1 0 0
2.984391 -10.210094 7.690811 13.126355 -1.286420 0.944799 0.002288 -0.002428 479736.000000 1 0 0
-6.359509 1.311606 8.370611 10.593904 -0.203391 0.659768 0.002154 -0.002213 -358371.000000 1 0 0
7.251391 -6.295794 -7.301289 12.063520 -0.714976 2.220860 -0.001543 -0.004342 52611.600000 1 0 0
-11.420909 -4.570994 -4.123089 12.974244 0.380705 1.894194 0.013946 -0.004403 -14651.100000 1 0 0
2.104591 -3.189694 2.953811 4.829954 -0.987556 0.912764 0.001603 0.001586 1993470.000000 1 0 0
-3.671409 -4.176694 8.882911 10.479987 0.849693 0.559337 0.005552 -0.003332 -1997280.000000 1 0 0
-4.795209 -1.076794 -2.403789 5.470989 0.220892 2.025694 0.007687 -0.003383 -66273.400000 1 0 0
5.103191 -5.259994 -3.641689 8.183642 -0.800528 2.031966 -0.000490 -0.001125 331914.000000 1 0 0
2.696591 14.294506 -8.803189 17.002959 1.384342 2.115009 0.018516 -0.011006 -1110690.000000 1 0 0
5.537091 -5.582094 13.755511 15.844028 -0.789446 0.519268 0.025245 -0.006611 -1464650.000000 1 0 0
-4.752209 -0.971094 9.886111 11.011889 0.201571 0.456123 0.010872 -0.001942 -1848850.000000 1 0 0
-1.076509 11.901406 -2.802289 12.274166 -1.480590 1.801136 -0.005379 0.000166 -952377.000000 1 0 0
3.021091 9.363206 -10.511689 14.397646 1.258686 2.389261 0.001412 -0.003626 -487211.000000 1 0 0
-10.586209 2.693306 1.057611 10.974528 -0.249131 1.474277 -0.001613 -0.002225 -129465.000000 1 0 0
5.637091 -8.975094 -0.642789 10.618017 -1.009984 1.631371 0.001934 -0.005511 494603.000000 1 0 0
-6.997509 5.375906 9.438311 12.920805 -0.655085 0.751781 -0.006827 0.000409 127964.000000 1 0 0
-5.484909 -1.894994 5.140911 7.752690 0.332654 0.845826 0.004354 -0.004013 590238.000000 1 0 0
6.607191 -3.744194 -7.430489 10.624788 -0.515563 2.345290 -0.002532 -0.001594 470479.000000 1 0 0
6.141991 4.941606 11.029611 13.557132 0.677516 0.620539 0.002766 0.002258 1281930.000000 1 0 0
3.671091 -9.923194 3.253811 11.069507 -1.216460 1.272446 -0.003226 -0.004385 1150520.000000 1 0 0
-6.565609 6.617306 -5.786189 10.971597 -0.789320 2.126309 0.002290 -0.005292 -984275.000000 1 0 0
-11.040809 8.441106 5.226111 14.848029 -0.652740 1.211118 -0.007609 -0.007309 168594.000000 1 0 0
-9.170109 -5.507894 5.137111 11.866664 0.540887 1.123086 0.006377 -0.001608 885862.000000 1 0 0
3.192591 9.778306 -7.972489 13.014164 1.255211 2.230143 0.001504 -0.002274 672214.000000 1 0 0
-8.125609 -8.576594 6.071711 13.283417 0.812393 1.096076 0.009596 -0.002427 -2094590.000000 1 0 0
-7.838009 -5.813694 -7.492689 12.303407 0.638188 2.225587 0.016616 -0.006790 -82419.000000 1 0 0
9.245091 -1.475594 6.971611 11.672722 -0.158273 0.930720 0.001560 -0.002117 3513280.000000 1 0 0
-3.993809 -0.485594 -4.813389 6.273358 0.120993 2.445377 0.011853 -0.007901 -1836870.000000 1 0 0
9.076791 1.326106 -4.550289 10.239718 0.145072 2.031274 0.000854 0.001236 -3030880.000000 1 0 0
-2.066209 -10.669594 10.472411 15.092411 1.379510 0.803925 0.003326 -0.005816 358382.000000 1 0 0
-12.923909 0.152806 -2.581989 13.180191 -0.011823 1.767971 0.011854 -0.002912 100801.000000 1 0 0
-9.843309 -5.232494 -6.006489 12.662845 0.488590 2.065010 0.016156 -0.004978 -1589240.000000 1 0 0
-5.542609 8.198306 -0.081089 9.896429 -0.976314 1.578990 -0.005213 -0.000152 236469.000000 1 0 0
6.147091 9.734206 0.368411 11.518559 1.007541 1.538807 0.013017 -0.004669 663778.000000 1 0 0
-0.399709 -12.025894 0.027011 12.032566 1.537571 1.568551 0.001984 -0.000995 -807005.000000 1 0 0
6.155591 4.794106 2.408711 8.165576 0.661693 1.271358 -0.000693 0.001766 550948.000000 1 0 0
3.442491 -7.514394 -8.197489 11.641121 -1.141211 2.352069 -0.004969 -0.001881 932337.000000 1 0 0
-6.537209 -9.926394 4.590111 12.741174 0.988421 1.202252 0.012413 -0.004108 -2592840.000000 1 0 0
-0.037009 6.442906 -9.163989 11.202281 -1.565052 2.528803 0.004502 -0.002619 -1768690.000000 1 0 0
-17.332509 -2.668994 4.322111 18.061563 0.152788 1.329153 0.049243 -0.014786 189372.000000 1 0 0
-8.401109 0.818406 -9.127489 12.432195 -0.097110 2.395257 0.013040 -0.006295 325008.000000 1 0 0
-10.022309 -5.900194 -11.890289 16.632436 0.532074 2.367257 0.023922 -0.004673 744132.000000 1 0 0
2.114091 9.573906 6.511311 11.769716 1.353466 0.984565 0.000553 0.006235 -178259.000000 1 0 0
-11.279909 1.688406 -1.322889 11.482034 -0.148579 1.686267 0.004994 -0.002386 -1544740.000000 1 0 0
-5.980509 -5.376594 -3.112089 8.623187 0.732273 1.940027 0.019396 -0.005158 752481.000000 1 0 0
-6.844709 -8.243694 1.270411 10.789925 0.877853 1.452782 0.015248 -0.002838 -328431.000000 1 0 0
-0.007909 10.976806 -7.802289 13.467221 -1.570076 2.188732 0.004278 -0.000441 223777.000000 1 0 0
-2.969409 9.197906 -4.206489 10.541034 -1.258524 1.981286 -0.000771 -0.001424 -840423.000000 1 0 0
3.518291 -4.782294 9.403211 11.120660 -0.936516 0.563179 -0.000556 0.001227 -941014.000000 1 0 0
-8.873609 1.622506 -0.464789 9.032690 -0.180848 1.622275 0.004219 -0.003712 -1220220.000000 1 0 0
2.392091 3.568706 -10.421589 11.272412 0.980285 2.750575 0.004207 -0.004490 -893628.000000 1 0 0
-13.775809 0.438006 1.130411 13.829049 -0.031785 1.488963 0.010093 -0.005266 -122558.000000 1 0 0
9.569491 -12.528494 -5.179589 16.594170 -0.918510 1.888234 0.033823 -0.010964 -1828090.000000 1 0 0
-4.799209 9.422206 -8.336389 13.464982 -1.099696 2.238413 0.000138 -0.003508 -2057010.000000 1 0 0
-2.327209 7.171306 8.414111 11.297822 -1.257002 0.730629 0.001206 0.001922 -138488.000000 1 0 0
-10.764409 -1.356194 -4.502389 11.746628 0.125328 1.964154 0.009824 -0.003298 -2662240.000000 1 0 0
2.745991 -7.130394 9.784811 12.414730 -1.203191 0.662980 0.000948 -0.002484 -1277950.000000 1 0 0
-16.285209 -6.590794 3.348411 17.884587 0.384561 1.382462 0.026916 -0.003599 204663.000000 1 0 0
-10.778209 -0.107394 6.127011 12.398451 0.009964 1.053910 -0.002726 -0.001222 -944985.000000 1 0 0
-8.462609 9.950206 9.352111 16.065003 -0.866014 0.949436 0.000276 -0.010421 -36274.200000 1 0 0
0.324891 -6.027294 -3.765489 7.114263 -1.516945 2.128557 -0.000175 -0.000166 -38822.600000 1 0 0
4.941391 1.541506 -3.057189 6.011654 0.302391 2.104289 -0.005625 0.003288 -628127.000000 1 0 0
0.317991 5.394106 3.727811 6.564607 1.511913 0.966887 -0.002056 0.003314 -2672170.000000 1 0 0
6.078791 -11.206494 -1.564789 12.844679 -1.073780 1.692924 -0.000016 -0.006290 -1037930.000000 1 0 0
6.255891 -13.435794 5.187711 15.702519 -1.135034 1.234096 0.016199 -0.005977 395343.000000 1 0 0
8.355591 -8.239594 -6.087989 13.220077 -0.778409 2.049367 0.006219 -0.006666 617612.000000 1 0 0
-13.110109 -1.469994 -4.627589 13.980358 0.111660 1.908166 0.010736 -0.001301 -3810820.000000 1 0 0
-6.685709 -1.539494 -7.007289 9.806674 0.226321 2.366767 0.019313 -0.006103 -403917.000000 1 0 0
-5.834309 12.857006 -4.643889 14.862956 -1.144800 1.888564 0.000093 0.002373 216319.000000 1 0 0
-4.280809 6.900206 -6.688189 10.519983 -1.015520 2.259790 0.003235 -0.003139 -3012920.000000 1 0 0
-9.402909 -3.753394 -8.081789 12.954458 0.379794 2.244470 0.014487 -0.004555 678857.000000 1 0 0
-2.164709 -6.255894 9.154311 11.297061 1.237665 0.626087 0.006673 -0.000963 -306995.000000 1 0 0
7.540091 -6.044994 10.087611 13.969783 -0.675785 0.763960 0.008014 -0.000212 666621.000000 1 0 0
9.649291 -4.977594 12.156011 16.298892 -0.476248 0.729034 0.025091 -0.002688 -88540.900000 1 0 0
-6.497609 2.776806 -9.025789 11.462741 -0.403866 2.477380 0.010713 -0.008504 490074.000000 1 0 0
7.405691 5.578506 8.904411 12.855058 0.645592 0.805601 0.002959 -0.000207 916503.000000 1 0 0
12.603991 3.324006 11.165511 17.163282 0.257855 0.862493 0.065248 -0.005836 -1075260.000000 1 0 0
-7.442109 -7.325994 -3.919589 11.154298 0.777536 1.929859 0.019837 -0.008680 -963202.000000 1 0 0
2.282491 1.383706 -5.697689 6.291905 0.544985 2.703491 -0.003051 -0.000980 107374.000000 1 0 0
12.776091 6.936906 -7.162289 16.206404 0.497422 2.028559 0.026747 -0.005071 369952.000000 1 0 0
0.808391 -7.725494 1.112211 7.846896 -1.466536 1.428578 0.000328 -0.001586 543681.000000 1 0 0
-10.230609 -6.142294 -8.491789 14.645942 0.540702 2.189286 0.019487 -0.006578 437569.000000 1 0 0
-6.777609 0.310906 3.193311 7.498659 -0.045840 1.130894 0.002369 -0.003757 764772.000000 1 0 0
10.850591 -7.899094 1.290711 13.483210 -0.629264 1.474922 0.011631 -0.006215 -19542.500000 1 0 0
6.182091 1.205106 10.517911 12.259567 0.192521 0.539560 0.000771 0.003101 67508.900000 1 0 0
-12.812309 5.175806 1.907011 13.949226 -0.383925 1.433656 0.002486 -0.003279 100105.000000 1 0 0
1.943591 7.464706 3.604611 8.514258 1.316081 1.133644 -0.002964 0.003294 194166.000000 1 0 0
10.072291 -9.375994 -0.819989 13.785235 -0.749611 1.630315 0.009701 -0.006310 779859.000000 1 0 0
6.872491 -11.633894 -9.005789 16.238315 -1.037221 2.158680 0.010447 -0.010958 -727664.000000 1 0 0
10.227191 3.621006 11.933111 16.127810 0.340284 0.737861 0.016530 -0.000472 -824543.000000 1 0 0
-11.090209 -3.166094 -1.919389 11.691918 0.278088 1.735707 0.010605 -0.002058 602042.000000 1 0 0
12.287291 1.061606 6.796311 14.081703 0.086185 1.067136 0.013857 -0.002165 -143288.000000 1 0 0
-9.523709 9.009006 3.049211 13.459603 -0.757633 1.342267 -0.007151 -0.005310 1662540.000000 1 0 0
-6.663709 7.685406 -8.797589 13.448719 -0.856481 2.283865 0.002971 -0.006822 -991029.000000 1 0 0
8.446291 5.609406 12.132311 15.811332 0.586242 0.696149 0.020315 0.001708 -2243190.000000 1 0 0
1.361991 4.902106 -2.602389 5.714725 1.299794 2.043599 -0.003735 -0.000481 764804.000000 1 0 0
1.357391 0.569306 9.608511 9.720602 0.397128 0.152010 -0.001503 0.000283 705830.000000 1 0 0
2.423391 12.639006 -3.932089 13.456545 1.381356 1.867329 0.005427 -0.006398 497262.000000 1 0 0
2.037391 0.615206 13.067811 13.239982 0.293252 0.161444 -0.002733 0.001439 -397274.000000 1 0 0
-12.181109 -1.788294 0.827311 12.339443 0.145768 1.503700 0.006504 -0.003659 319975.000000 1 0 0
3.212591 8.806606 -1.249489 9.457181 1.221004 1.703304 0.002338 -0.000794 175803.000000 1 0 0
3.704191 -2.990594 -5.726589 7.447047 -0.679209 2.448032 -0.004367 -0.000431 -1558970.000000 1 0 0
-7.842609 -7.235694 9.294411 14.150896 0.745169 0.854220 0.009210 -0.002513 247988.000000 1 0 0
-7.142309 10.848206 -3.532489 13.460112 -0.988548 1.836348 0.001778 0.002258 24687.100000 1 0 0
0.395291 0.560406 2.625911 2.713986 0.956478 0.255457 -0.000851 0.000044 -1501410.000000 1 0 0
-7.185309 4.443406 -1.910589 8.661574 -0.553840 1.793208 0.004520 -0.005545 -1364370.000000 1 0 0
-6.871009 -3.954194 -5.924889 9.897006 0.522202 2.212617 0.015086 -0.005524 126278.000000 1 0 0
3.063491 -6.164094 13.457511 15.115741 -1.109560 0.472798 0.010743 -0.006866 -580878.000000 1 0 0
-5.609109 -0.584694 -11.562689 12.864670 0.103865 2.687807 0.019694 -0.008903 -1379780.000000 1 0 0
11.882491 2.506906 -0.655889 12.161758 0.207926 1.624753 0.007770 0.003037 -1693900.000000 1 0 0
6.081991 -10.898794 10.794011 16.501061 -1.061799 0.857751 0.013243 -0.003805 502538.000000 1 0 0
-8.184109 6.258406 -10.403689 14.641859 -0.652844 2.361068 0.003404 -0.007391 477876.000000 1 0 0
2.760291 7.943606 11.179611 13.989417 1.236363 0.644920 0.010594 0.004127 816820.000000 1 0 0
-6.151909 -10.236094 -0.405489 11.949395 1.029641 1.604737 0.019566 -0.002970 -452076.000000 1 0 0
11.261791 4.330206 6.033111 13.489887 0.367077 1.107128 0.004407 0.000481 319884.000000 1 0 0
-7.843709 10.545506 1.384011 13.215406 -0.931277 1.465877 -0.011017 -0.000778 202597.000000 1 0 0
4.308191 -2.777594 -3.451689 6.179781 -0.572657 2.163428 -0.003182 -0.000510 -4759740.000000 1 0 0
6.333491 6.561806 6.372311 11.125500 0.803102 0.960920 0.001361 0.002395 -5619600.000000 1 0 0
-0.394109 10.341406 -10.067889 14.438226 -1.532705 2.342431 0.000866 -0.001693 -116741.000000 1 0 0
14.168291 6.614206 -2.494889 15.833908 0.436763 1.729022 0.031411 0.001507 770778.000000 1 0 0
1.348591 9.569506 -6.113289 11.435315 1.430792 2.134828 0.000504 -0.001268 -187992.000000 1 0 0
0.650591 7.375006 7.272411 10.377954 1.482808 0.794340 -0.002610 0.007341 78589.000000 1 0 0
12.215791 6.485206 1.812611 13.948799 0.488051 1.440480 0.011874 0.000943 -2061150.000000 1 0 0
-6.772209 6.574306 -3.200989 9.966476 -0.770571 1.897767 -0.000577 -0.005194 47767.600000 1 0 0
0.987191 9.943406 11.171211 14.988056 1.471840 0.729750 0.019282 0.002200 697785.000000 1 0 0
-3.685109 13.502506 -10.969589 17.782845 -1.304365 2.235548 0.006313 -0.008119 -47866.400000 1 0 0
-10.110909 -5.566394 -2.341789 11.777063 0.503253 1.770974 0.010967 -0.002136 36356.200000 1 0 0
-4.041209 3.793006 -12.465189 13.641818 -0.753727 2.723213 0.007608 -0.010508 -421617.000000 1 0 0
-3.255309 8.579006 2.526311 9.517280 -1.208129 1.302131 -0.004988 0.005208 -4200540.000000 1 0 0
7.051691 9.011806 7.155711 13.496043 0.906821 1.011950 0.008948 0.002637 -946897.000000 1 0 0
-1.278009 -2.334894 -8.182989 8.605019 1.069988 2.827106 0.006047 -0.007596 -1126370.000000 1 0 0
0.859291 -1.368994 4.874011 5.135028 -1.010272 0.320210 0.003427 -0.000222 360329.000000 1 0 0
2.699191 -8.851394 -6.012189 11.035363 -1.274809 2.146960 -0.006777 -0.002590 390185.000000 1 0 0
5.288991 4.071406 8.726911 10.986753 0.656046 0.652922 -0.002419 0.002765 -722148.000000 1 0 0
6.206991 -7.543094 -2.771289 10.154066 -0.882265 1.847228 -0.001109 -0.004940 895825.000000 1 0 0
1.851391 2.289806 -8.250089 8.759842 0.890872 2.798765 -0.000583 -0.003029 -18175.100000 1 0 0
-5.494409 10.877506 -0.731289 12.208335 -1.103064 1.630733 -0.006330 0.002346 468761.000000 1 0 0
-5.434009 3.323406 -3.391889 7.216536 -0.548901 2.060105 0.004436 -0.003754 -621917.000000 1 0 0
2.063891 13.777806 -6.237589 15.264177 1.422104 1.991762 0.004703 -0.003774 583829.000000 1 0 0
-5.289809 -2.607694 2.604211 6.447020 0.458004 1.154976 0.000341 -0.002542 893356.000000 1 0 0
10.459291 -3.255094 -1.863489 11.111480 -0.301714 1.739301 0.004053 -0.002119 76700.600000 1 0 0
2.466391 -3.409794 7.087011 8.242300 -0.944587 0.535852 -0.000872 0.000719 -2467020.000000 1 0 0
-2.927909 9.821906 -11.638889 15.508263 -1.281084 2.419609 0.002920 -0.000897 -2640660.000000 1 0 0
0.556291 -1.988994 9.307211 9.533611 -1.298080 0.218367 0.002720 -0.000695 715476.000000 1 0 0
9.452091 2.626206 4.997411 11.009682 0.271008 1.099647 -0.001900 0.001887 -476234.000000 1 0 0
13.402991 2.064706 -5.030489 14.464059 0.152847 1.926012 0.021226 -0.000875 -714776.000000 1 0 0
-6.629509 3.699406 7.536211 10.697218 -0.508981 0.789075 -0.000666 -0.002559 -233811.000000 1 0 0
10.492591 0.026306 1.768811 10.640670 0.002507 1.403790 -0.001388 0.004224 1364560.000000 1 0 0
15.394091 6.689806 -4.697589 17.429827 0.409948 1.843685 0.040075 -0.000239 615072.000000 1 0 0
8.123991 -4.948294 -9.288989 13.295494 -0.547081 2.344315 0.007080 -0.003711 614549.000000 1 0 0
4.408091 5.642606 -2.175489 7.483516 0.907615 1.865759 -0.000813 -0.000326 -107089.000000 1 0 0
-1.671809 -10.611394 1.457911 10.840763 1.414532 1.435903 0.006743 -0.002770 -752617.000000 1 0 0
-2.822609 12.164406 -12.826889 17.901647 -1.342793 2.369597 0.007158 -0.003266 -385578.000000 1 0 0
8.280691 4.338706 -9.671389 13.451021 0.482627 2.373170 0.005289 -0.002377 -1903860.000000 1 0 0
4.102991 7.665506 -8.965589 12.489047 1.079345 2.371543 0.000861 -0.003291 -3433500.000000 1 0 0
-1.693009 -5.044794 -2.487589 5.874039 1.247011 2.008089 0.007123 -0.001242 691706.000000 1 0 0
-3.273609 -9.024594 7.105311 11.943419 1.222815 0.933637 0.005430 -0.001606 -1734220.000000 1 0 0
0.987091 7.266906 -1.372389 7.460946 1.435789 1.755793 -0.000668 -0.001212 1331470.000000 1 0 0
0.352491 -0.605794 -2.182889 2.292649 -1.043818 2.830910 0.002980 -0.001114 -683896.000000 1 0 0
4.239491 -6.731794 7.775511 11.124249 -1.008773 0.796841 0.001716 -0.000464 -760466.000000 1 0 0
-13.916209 3.711306 5.949011 15.582856 -0.260624 1.179090 -0.001703 -0.005142 -1569920.000000 1 0 0
4.164091 6.516706 12.707511 14.875750 1.002202 0.546703 0.009049 0.005283 -808735.000000 1 0 0
8.257791 10.149906 -7.223689 14.946350 0.887828 2.075226 0.018924 -0.005766 396995.000000 1 0 0
12.506691 5.384206 9.576711 16.646933 0.406525 0.957845 0.048345 -0.004863 1908990.000000 1 0 0
7.643591 4.017406 0.357511 8.642444 0.483910 1.529418 -0.000346 0.004513 -161028.000000 1 0 0
-10.921009 -7.562894 -0.978489 13.320032 0.605681 1.644323 0.013124 -0.002866 -163278.000000 1 0 0
10.224491 6.793606 0.193811 12.277249 0.586463 1.555009 0.010315 -0.001081 -1064720.000000 1 0 0
14.616791 3.740306 4.124711 15.641410 0.250515 1.303936 0.033674 -0.001130 69287.600000 1 0 0
2.133991 5.609906 8.194911 10.157831 1.207303 0.632152 -0.004006 0.005521 -375678.000000 1 0 0
4.174891 0.196306 11.751711 12.472809 0.046986 0.341700 -0.003219 0.003304 -657738.000000 1 0 0
-1.413109 -1.670094 -0.507589 2.245827 0.868556 1.798780 0.006088 -0.003282 -1343410.000000 1 0 0
3.064291 -5.282394 -9.462089 11.261647 -1.045141 2.568457 -0.005879 -0.001079 466098.000000 1 0 0
-3.908009 -5.283994 -1.361589 6.711710 0.933989 1.775082 0.010041 -0.003474 -628194.000000 1 0 0
-1.142609 -8.609994 8.488811 12.144854 1.438860 0.796849 0.003855 -0.001144 -426246.000000 1 0 0
3.838091 8.580306 -5.936389 11.117252 1.150178 2.134097 0.001902 -0.001139 198671.000000 1 0 0
-14.396309 -1.963894 -2.795889 14.796202 0.135580 1.760899 0.011135 -0.005688 -1157590.000000 1 0 0
8.928991 -10.582394 -6.861089 15.452783 -0.869937 2.030858 0.007276 -0.007753 397066.000000 1 0 0
14.712291 6.204606 1.671811 16.054395 0.399097 1.466473 0.019070 0.001656 -704691.000000 1 0 0
-5.780809 0.435406 -8.508089 10.295383 -0.075177 2.543478 0.016632 -0.010920 751840.000000 1 0 0
-7.883609 -4.625194 -12.933889 15.837588 0.530571 2.526392 0.017469 -0.008430 996172.000000 1 0 0
0.838191 -10.692594 12.017711 16.107747 -1.492566 0.728637 -0.000203 -0.002199 -86672.400000 1 0 0
0.067991 11.815306 3.242011 12.252212 1.565042 1.303001 -0.001145 0.001875 -1059310.000000 1 0 0
5.216091 -13.095894 -3.796189 14.598668 -1.191757 1.833857 0.010839 -0.010503 750303.000000 1 0 0
-7.506209 1.580306 -6.947589 10.349374 -0.207503 2.306765 0.009667 -0.004675 327685.000000 1 0 0
1.515991 2.736506 4.087411 5.147195 1.064897 0.653264 -0.001231 0.001615 -1587530.000000 1 0 0
17.170691 5.566606 2.196011 18.183569 0.313501 1.449732 0.034833 -0.001676 -824906.000000 1 0 0
2.468391 -8.140294 -3.536289 9.212095 -1.276378 1.964785 -0.004057 -0.001720 443221.000000 1 0 0
-0.382009 -9.329694 -0.578689 9.355427 1.529874 1.632692 0.003680 -0.001296 -748920.000000 1 0 0
0.763091 11.966806 -5.638889 13.250804 1.507115 2.010367 0.003163 -0.000562 -1336710.000000 1 0 0
6.081091 -5.021794 7.800711 11.092753 -0.690279 0.790872 0.001843 -0.000160 -507178.000000 1 0 0
-5.905909 -2.011694 -9.345789 11.237012 0.328298 2.552953 0.022001 -0.009332 336077.000000 1 0 0
2.063691 -1.270194 11.340911 11.596917 -0.551736 0.210509 -0.005265 0.000635 -190628.000000 1 0 0
18.057491 2.289806 -5.859689 19.122033 0.126133 1.882243 0.087492 -0.008189 499791.000000 1 0 0
-8.922809 4.797506 7.764311 12.763899 -0.493326 0.916876 -0.003267 -0.005755 -556172.000000 1 0 0
11.620591 -6.936894 -4.920489 14.400342 -0.538173 1.919514 0.018228 -0.010196 303773.000000 1 0 0
10.800991 0.699206 8.990811 14.070713 0.064645 0.877633 0.006261 -0.001328 239705.000000 1 0 0
-8.430309 -7.359694 -1.571589 11.300668 0.717698 1.710319 0.017218 -0.004360 -502573.000000 1 0 0
10.300991 -10.330994 -3.272189 14.951491 -0.786852 1.791436 0.018884 -0.009055 765312.000000 1 0 0
7.750891 -13.880194 -3.921189 16.374121 -1.061516 1.812621 0.022305 -0.011761 563187.000000 1 0 0
1.801491 -1.216194 -11.676589 11.877173 -0.593821 2.957550 0.001865 -0.006697 -63619.200000 1 0 0
-11.939909 -2.774594 -6.398989 13.827757 0.228327 2.051907 0.014687 -0.004114 -543270.000000 1 0 0
2.900591 -12.149594 -6.342689 14.009132 -1.336443 2.040648 -0.000099 -0.004791 518196.000000 1 0 0
-5.591909 1.384406 1.180511 5.880445 -0.242693 1.368671 0.000456 -0.005276 391907.000000 1 0 0
0.230691 6.822306 -3.917389 7.870388 1.536995 2.091785 -0.000369 -0.002724 879414.000000 1 0 0
5.454691 -11.712494 3.630911 13.420868 -1.134950 1.296840 0.000662 -0.007052 -1022410.000000 1 0 0
-4.322209 -9.232694 1.074611 10.250801 1.132959 1.465771 0.015239 -0.002526 38794.000000 1 0 0
7.179791 -6.271294 -4.740289 10.646543 -0.717960 2.032241 0.001519 -0.004795 1558510.000000 1 0 0
-6.950809 -6.020194 2.188911 9.452398 0.713775 1.337103 0.010628 -0.003823 340198.000000 1 0 0
-6.170509 -0.684494 7.071311 9.409950 0.110478 0.720506 0.004662 -0.001746 -504561.000000 1 0 0
4.175191 -5.053794 3.211811 7.299917 -0.880313 1.115221 -0.001140 0.000024 -455582.000000 1 0 0
-2.495309 10.521006 -8.740989 13.904065 -1.337925 2.250631 -0.000932 -0.001095 -118478.000000 1 0 0
-2.289909 -4.886594 2.823711 6.090635 1.132574 1.088725 0.003017 -0.001518 280126.000000 1 0 0
15.083891 5.154006 6.341311 17.155167 0.329252 1.192170 0.064354 -0.012240 414059.000000 1 0 0
6.777391 0.330506 0.141411 6.786918 0.048727 1.549959 -0.000657 0.002857 4676980.000000 1 0 0
-9.772609 9.112806 0.425611 13.368929 -0.750475 1.538955 -0.008916 -0.002549 -764954.000000 1 0 0
7.083091 10.471406 -2.500289 12.886891 0.976070 1.766053 0.008782 -0.004737 -234069.000000 1 0 0
1.662991 -4.272694 -5.424589 7.102649 -1.199623 2.439886 -0.001797 -0.000270 -899987.000000 1 0 0
0.900191 -8.159894 -7.810989 11.331627 -1.460922 2.331331 -0.002217 -0.000197 2172800.000000 1 0 0
-10.444409 0.105406 -10.502989 14.812480 -0.010092 2.358966 0.011169 -0.003784 -2618620.000000 1 0 0
5.743991 -2.489594 0.620111 6.290950 -0.408986 1.472064 -0.001244 0.001934 344863.000000 1 0 0
-3.386609 5.308506 -0.951289 6.368226 -1.002932 1.720738 -0.002340 -0.003827 795954.000000 1 0 0
-0.323809 4.536906 -5.172789 6.888114 -1.499545 2.420331 -0.000211 -0.001285 -1032800.000000 1 0 0
3.999191 -9.643494 10.052711 14.493016 -1.177679 0.804288 0.002015 -0.001874 576385.000000 1 0 0
7.328891 -13.380594 -0.790389 15.276703 -1.069701 1.622558 0.019005 -0.010494 521886.000000 1 0 0
12.969291 -0.079194 0.429911 12.976656 -0.006106 1.537661 0.004989 -0.000357 634271.000000 1 0 0
9.262791 2.377306 -0.689189 9.587797 0.251229 1.642740 0.001818 0.004014 -1169480.000000 1 0 0
-0.786309 -5.843594 4.537011 7.439781 1.437041 0.914949 0.000204 -0.000815 775856.000000 1 0 0
11.460591 -3.717394 3.308511 12.494415 -0.313656 1.302801 0.014570 -0.006535 -3220120.000000 1 0 0
1.562591 -8.213894 11.827111 14.484140 -1.382805 0.615377 0.004134 -0.003977 326987.000000 1 0 0
9.465291 -5.804094 -6.025489 12.632726 -0.550067 2.068006 0.006773 -0.008924 -285449.000000 1 0 0
3.087091 6.449406 -0.295289 7.156267 1.124364 1.612071 -0.002951 0.002427 -1807500.000000 1 0 0
6.363991 -1.238894 11.360411 13.080297 -0.192268 0.518602 -0.002587 0.002661 364408.000000 1 0 0
-4.815409 -7.579094 -3.834689 9.763999 1.004786 1.974403 0.017072 -0.005468 -71101.800000 1 0 0
-3.375209 -8.474794 -5.762089 10.789617 1.191787 2.134168 0.011126 -0.002844 -569460.000000 1 0 0
9.841091 5.444106 2.320611 11.483492 0.505298 1.367313 0.002789 0.001981 -25537.900000 1 0 0
8.786391 -1.410294 0.253611 8.902467 -0.159151 1.542305 -0.000339 0.002283 657054.000000 1 0 0
-3.875009 9.642106 9.222611 13.893972 -1.188667 0.844928 -0.006113 0.000233 -120282.000000 1 0 0
-14.400009 -3.651394 -5.968089 16.009717 0.248335 1.952799 0.015938 -0.006652 -16212.100000 1 0 0
10.637391 6.281006 -6.091789 13.773707 0.533379 2.028932 0.009124 -0.003218 -871540.000000 1 0 0
-1.864709 4.579406 2.727211 5.646749 -1.184103 1.066753 0.000155 -0.000631 284253.000000 1 0 0
7.004191 -3.669294 2.646511 8.338251 -0.482562 1.247816 0.001322 -0.000956 -2012560.000000 1 0 0
8.387191 -11.127094 -1.651589 14.031570 -0.924891 1.688775 0.012739 -0.009261 -2384450.000000 1 0 0
4.531791 0.541106 1.806311 4.908430 0.118840 1.193937 -0.001035 0.004332 -181568.000000 1 0 0
-10.909309 2.289106 3.675411 11.737192 -0.206830 1.252296 0.000969 -0.004046 -205605.000000 1 0 0
-0.891109 -3.071994 4.447511 5.478283 1.288470 0.623493 0.004226 -0.001075 177691.000000 1 0 0
8.576891 -8.687894 -8.610389 14.939256 -0.791828 2.185064 0.012467 -0.003352 -575282.000000 1 0 0
12.111091 -4.771794 0.960711 13.052644 -0.375325 1.497127 0.013203 -0.006542 420128.000000 1 0 0
2.928391 4.880506 3.474711 6.668465 1.030364 1.022697 -0.004919 0.002706 773614.000000 1 0 0
5.984091 7.570306 1.911911 9.837392 0.901894 1.375200 0.004358 0.000027 122825.000000 1 0 0
-1.613809 -1.340994 -10.254489 10.466957 0.693330 2.939761 0.011895 -0.007505 1216200.000000 1 0 0
-0.976509 -8.680894 5.928711 10.557514 1.458778 0.974523 -0.000359 -0.003497 -1134740.000000 1 0 0
-4.316709 -0.291094 2.400711 4.947942 0.067332 1.064211 0.001232 -0.004635 316682.000000 1 0 0
-8.444509 6.303506 -7.834989 13.131297 -0.641233 2.210135 0.002191 -0.004894 -619342.000000 1 0 0
6.359591 11.241406 -9.327389 15.931534 1.055957 2.196252 0.014888 -0.012218 -74778.800000 1 0 0
-11.151709 -5.811094 3.114111 12.954811 0.480380 1.328036 0.005710 0.000577 1424500.000000 1 0 0
1.655191 -6.363694 3.153211 7.292394 -1.316335 1.123647 -0.002227 -0.002298 567083.000000 1 0 0
10.066791 2.280606 7.300011 12.642452 0.222787 0.955231 0.001893 0.000943 -1327510.000000 1 0 0
-4.039309 -2.593194 -10.715589 11.741572 0.570723 2.720443 0.017250 -0.010815 -3294150.000000 1 0 0
-8.298309 11.728306 5.879911 15.523802 -0.955024 1.182332 0.000455 -0.009598 356112.000000 1 0 0
6.846591 6.011506 -2.908889 9.564290 0.720543 1.879832 0.002207 -0.000294 -1850520.000000 1 0 0
3.976391 -9.806694 -2.340889 10.838021 -1.185577 1.788501 -0.005558 -0.005132 -1609080.000000 1 0 0
8.425591 -13.003294 -7.326589 17.139287 -0.995858 2.012492 0.025964 -0.012297 266320.000000 1 0 0
-1.309409 9.510606 3.801911 10.325730 -1.433978 1.193726 -0.007346 0.003013 -39611.800000 1 0 0
0.678691 -13.244194 4.681411 14.063603 -1.519597 1.231446 0.003729 -0.004847 -1354190.000000 1 0 0
-11.185109 -7.151894 -5.039789 14.200554 0.568896 1.933604 0.021412 -0.008530 -23310.600000 1 0 0
3.534691 10.323506 -3.409189 11.432033 1.240915 1.873617 0.003851 -0.003376 -204722.000000 1 0 0
11.649191 -8.049394 -7.372989 15.964253 -0.604649 2.050869 0.035925 -0.011034 709246.000000 1 0 0
11.595391 -4.541494 -5.828289 13.749444 -0.373299 2.008535 0.019296 -0.009852 -897024.000000 1 0 0
1.416391 -10.275194 -2.625289 10.699436 -1.433814 1.818695 -0.004213 -0.002364 -928221.000000 1 0 0
2.474691 -12.020594 -3.847989 12.861796 -1.367762 1.874629 0.000022 -0.002541 -2248680.000000 1 0 0
-7.684009 -5.602394 7.264211 11.966603 0.629989 0.918465 0.006667 -0.000317 -3684850.000000 1 0 0
-7.176909 -0.852994 9.452911 11.899292 0.118298 0.652762 0.005908 -0.001557 150027.000000 1 0 0
16.224591 2.799506 -7.525489 18.102695 0.170865 1.999521 0.079121 -0.009775 -826758.000000 1 0 0
-1.988309 6.245206 -5.476089 8.540698 -1.262569 2.266826 0.000352 0.000347 262366.000000 1 0 0
7.576391 1.286606 8.397511 11.383112 0.168213 0.741114 0.000028 0.000988 -775318.000000 1 0 0
7.819491 8.337906 -3.753789 12.031460 0.817472 1.888091 0.005019 -0.001011 -231556.000000 1 0 0
8.057791 0.602106 3.996511 9.014579 0.074585 1.111476 -0.000738 0.002078 1389460.000000 1 0 0
-7.043009 5.827806 5.279911 10.556740 -0.691262 1.047029 -0.002625 -0.007178 -123827.000000 1 0 0
-5.968109 -2.099194 -4.583689 7.812499 0.338220 2.197789 0.015642 -0.005710 93906.200000 1 0 0
-15.116309 -2.246094 3.112911 15.596088 0.147508 1.369851 0.013423 -0.007138 -1736190.000000 1 0 0
1.201291 1.153206 -10.452889 10.584700 0.764978 2.983612 0.006181 -0.009317 138162.000000 1 0 0
1.446291 -9.202494 9.404311 13.237021 -1.414909 0.780651 0.001818 -0.005744 -987068.000000 1 0 0
-0.040109 -6.694994 -1.174589 6.797368 1.564805 1.744469 0.001744 -0.000434 511290.000000 1 0 0
-0.360109 -10.297494 -8.407589 13.298707 1.535840 2.255200 0.000385 -0.000987 -311627.000000 1 0 0
-4.388209 6.488306 3.795611 8.704088 -0.976136 1.119567 -0.003637 -0.000257 -460219.000000 1 0 0
10.743391 -1.146494 -8.600689 13.809661 -0.106314 2.243116 0.019345 -0.004122 342822.000000 1 0 0
3.013791 -1.102094 6.303411 7.073227 -0.350578 0.470890 -0.002373 0.002913 591532.000000 1 0 0
1.947491 -12.301594 6.871011 14.224371 -1.413787 1.066667 0.003303 -0.003886 -305191.000000 1 0 0
2.981491 -4.855694 -1.297889 5.843935 -1.020132 1.794755 0.001817 -0.000789 -1864370.000000 1 0 0
-1.071509 9.521006 -1.557089 9.706812 -1.458726 1.731904 -0.002794 0.000578 256956.000000 1 0 0
4.544591 -2.451494 2.707811 5.830555 -0.494693 1.087820 -0.000520 0.002524 -2017830.000000 1 0 0
17.818791 6.873906 -2.755089 19.296383 0.368177 1.714063 0.034889 0.003752 90095.100000 1 0 0
-7.111309 3.525106 -5.453089 9.629811 -0.460205 2.172772 0.007075 -0.007373 -46200.300000 1 0 0
-13.849609 -6.013194 2.231511 15.262694 0.409619 1.424063 -0.000051 -0.000972 2333120.000000 1 0 0
6.742091 -6.070094 3.594111 9.758046 -0.732996 1.193592 0.001169 -0.003351 1485500.000000 1 0 0
-4.666009 2.000006 3.532211 6.184511 -0.404944 0.962904 0.001342 -0.004148 266123.000000 1 0 0
7.038791 -12.049894 -5.536089 15.013088 -1.042122 1.948461 0.017063 -0.012842 -468449.000000 1 0 0
2.868291 -12.305194 3.276711 13.053036 -1.341790 1.317052 0.005877 -0.006689 -161270.000000 1 0 0
3.321491 11.387406 -6.071589 13.325521 1.286989 2.043883 0.002950 -0.001384 -37097.600000 1 0 0
-5.551809 -8.303594 6.380211 11.852399 0.981454 1.002371 0.008034 -0.001741 67601.600000 1 0 0
-4.112709 6.529606 6.387211 10.017315 -1.008713 0.879395 -0.000995 -0.001684 313037.000000 1 0 0
4.379391 4.415306 -6.855989 9.256272 0.789482 2.404887 -0.001568 -0.000053 -1071690.000000 1 0 0
-0.320409 -2.729594 1.660711 3.211123 1.453948 1.027250 0.003789 -0.000892 -607564.000000 1 0 0
-13.348009 -0.976494 6.528611 14.891127 0.073026 1.116953 0.006517 -0.003398 781376.000000 1 0 0
-0.543209 -9.286494 -5.953189 11.044207 1.512368 2.140085 0.001307 -0.002012 57136.900000 1 0 0
2.098191 -1.629794 -3.859489 4.685540 -0.660410 2.538705 -0.003271 0.001289 -1569450.000000 1 0 0
11.330291 -1.967794 1.093811 11.551802 -0.171960 1.475967 0.005349 -0.002133 949651.000000 1 0 0
0.643491 -4.220994 -2.007789 4.718272 -1.419511 2.010349 0.000780 0.000911 -1835390.000000 1 0 0
1.246391 -7.359294 -11.298489 13.541365 -1.403026 2.557783 -0.006847 0.003419 -1190510.000000 1 0 0
-4.346709 4.070106 -9.940889 11.587964 -0.752547 2.601893 0.008556 -0.008993 220046.000000 1 0 0
-1.080109 5.759806 -2.089189 6.221471 -1.385424 1.913254 -0.001590 -0.000758 -1403700.000000 1 0 0
-11.436209 1.658706 -3.957889 12.214871 -0.144035 1.900774 0.007262 -0.002326 -128567.000000 1 0 0
-1.722909 -11.293794 4.114011 12.142623 1.419410 1.225147 0.007672 -0.004418 -272655.000000 1 0 0
-3.499309 -5.496994 -9.588189 11.592906 1.003909 2.544678 0.009740 -0.003818 -2038080.000000 1 0 0
-12.890309 -3.960694 -8.271289 15.819652 0.298105 2.120986 0.020501 -0.004052 326226.000000 1 0 0
11.395291 4.548506 0.522711 12.280667 0.379779 1.528220 0.007969 0.002959 161707.000000 1 0 0
-8.921209 -2.324394 -3.039389 9.707145 0.254880 1.889261 0.010333 -0.004422 -134122.000000 1 0 0
-2.463009 -6.127394 -6.448889 9.230360 1.188596 2.344320 0.006193 -0.003629 -48343.500000 1 0 0
-0.053709 2.735006 -1.901489 3.331486 -1.551161 2.178231 0.000225 -0.002527 -612810.000000 1 0 0
8.056791 6.070006 -5.152289 11.327088 0.645675 2.043016 0.002736 -0.001696 -243279.000000 1 0 0
-9.778709 -0.926294 -1.026289 9.875953 0.094444 1.674902 0.006454 -0.003767 -121477.000000 1 0 0
6.045891 0.618806 -8.781889 10.679761 0.101996 2.536225 -0.002115 0.000267 423926.000000 1 0 0
-4.218809 2.471906 7.915911 9.304317 -0.530006 0.553332 0.001862 -0.000514 -46431.100000 1 0 0
-10.138809 -3.365594 1.428711 10.777935 0.320507 1.437846 0.005259 -0.002708 1633210.000000 1 0 0
-1.826909 -8.134394 -7.842389 11.445918 1.349872 2.325632 0.005376 -0.005702 -393825.000000 1 0 0
-9.307909 -9.812294 4.172211 14.153644 0.811772 1.271571 0.011437 -0.003570 -1170510.000000 1 0 0
-1.115309 -10.701994 7.309411 13.007847 1.466956 0.974087 0.005487 -0.004120 -246083.000000 1 0 0
9.436791 3.895506 -3.763789 10.880905 0.391492 1.924002 0.003166 -0.000419 -534291.000000 1 0 0
12.732791 -0.742594 2.971211 13.095935 -0.058255 1.341923 0.010452 -0.000584 -795645.000000 1 0 0
6.445591 11.933906 -6.802189 15.173448 1.075580 2.035654 0.012558 -0.004486 417940.000000 1 0 0
-11.833809 -0.168994 -6.567289 13.535024 0.014280 2.077396 0.011011 -0.000647 655203.000000 1 0 0
-7.635509 -6.735094 -11.429589 15.306796 0.722823 2.413884 0.019136 -0.007147 -1461020.000000 1 0 0
4.049091 6.088606 6.543411 9.812364 0.983929 0.840818 -0.001783 0.004666 -4148180.000000 1 0 0
-4.147909 -1.380794 -7.438489 8.628028 0.321351 2.610257 0.013550 -0.011626 -612622.000000 1 0 0
9.617791 9.256606 0.926111 13.380745 0.766264 1.501529 0.019532 -0.003171 -190207.000000 1 0 0
-8.916809 3.826206 4.860611 10.852413 -0.405339 1.106400 -0.003433 -0.004244 1120750.000000 1 0 0
-7.049609 7.830306 -12.149389 16.081615 -0.837817 2.427188 0.001656 -0.009979 -284580.000000 1 0 0
11.240591 -3.490494 7.229011 13.812785 -0.301085 1.020011 0.013388 -0.004402 -144810.000000 1 0 0
11.934991 6.944306 6.480311 15.253256 0.526963 1.132003 0.019158 -0.005108 92716.700000 1 0 0
-9.987909 -0.858194 -14.718889 17.808439 0.085713 2.543679 0.024440 -0.003311 -118319.000000 1 0 0
1.693591 -13.172294 11.907811 17.837420 -1.442926 0.839850 0.002797 0.000894 104649.000000 1 0 0
2.916591 2.999706 13.119211 13.770201 0.799446 0.308715 -0.005156 0.004303 -542642.000000 1 0 0
-2.494909 -1.308994 10.897411 11.255737 0.483185 0.253003 0.011568 -0.001594 -666790.000000 1 0 0
2.599591 -10.154994 -8.151289 13.278754 -1.320187 2.231737 -0.005921 0.001181 -1044350.000000 1 0 0
13.909191 3.770806 -7.466489 16.230620 0.264738 2.048820 0.029722 -0.006093 -2799090.000000 1 0 0
7.394791 -1.479994 5.030311 9.065172 -0.197530 0.982547 -0.001088 0.000815 391961.000000 1 0 0
-1.260009 8.769606 10.208711 13.517078 -1.428094 0.714768 0.006009 0.003387 -25353.800000 1 0 0
-12.254009 -4.665294 0.971811 13.148008 0.363772 1.496816 0.005913 -0.001309 -35028.600000 1 0 0
-4.817409 4.876406 -5.287089 8.656793 -0.791484 2.227797 0.006490 -0.006543 -154088.000000 1 0 0
-11.262909 0.349806 1.761911 11.405254 -0.031048 1.415693 0.003016 -0.005971 -2379310.000000 1 0 0
-1.388009 2.271706 -4.063989 4.858315 -1.022329 2.561664 0.003044 -0.005241 650473.000000 1 0 0
3.068491 -9.897194 13.188111 16.771892 -1.270157 0.665963 0.006607 -0.000860 -1476120.000000 1 0 0
8.962791 4.662706 -1.499989 10.213834 0.479700 1.718188 0.002553 0.000416 -1498170.000000 1 0 0
4.120091 2.351906 3.819811 6.090777 0.518701 0.892912 -0.006694 0.005374 730192.000000 1 0 0
-5.553209 -3.325894 7.388011 9.822546 0.539621 0.719480 0.006938 -0.002953 14032.600000 1 0 0
1.801191 -5.846494 7.764111 9.884696 -1.271943 0.667345 0.000668 -0.002220 -365933.000000 1 0 0
-5.803809 -6.279294 -9.818289 13.019698 0.824729 2.425095 0.017445 -0.005915 -648343.000000 1 0 0
-11.757509 -5.804994 5.469811 14.207597 0.458616 1.175597 0.008063 -0.001043 -1411340.000000 1 0 0
10.524391 6.326006 4.545311 13.093548 0.541214 1.216275 0.003351 0.000767 -2131840.000000 1 0 0
1.390091 -3.687294 0.433511 3.964395 -1.210278 1.461226 0.008123 0.000643 -725962.000000 1 0 0
8.748991 4.427706 6.858311 11.966029 0.468501 0.960453 0.000209 0.002753 185477.000000 1 0 0
-7.893809 11.877906 3.502911 14.685614 -0.984240 1.329948 -0.005274 -0.007480 101185.000000 1 0 0
-6.298609 13.193306 -7.024489 16.219717 -1.125384 2.018707 0.011060 -0.006820 305632.000000 1 0 0
4.461691 -6.937994 -0.954589 8.303836 -0.999301 1.686009 -0.000700 -0.003353 -134192.000000 1 0 0
-1.875609 -8.203994 10.997911 13.848375 1.346038 0.653162 0.005053 -0.006904 -702326.000000 1 0 0
11.472391 8.832506 -5.754089 15.580066 0.656111 1.949078 0.049862 -0.007882 284575.000000 1 0 0
-3.301209 -2.924394 -1.847689 4.781633 0.724945 1.967536 0.010013 -0.002931 -2863080.000000 1 0 0
-2.095809 5.981406 4.805211 7.953596 -1.233776 0.922090 -0.001678 0.002057 266626.000000 1 0 0
0.514891 -11.437094 -5.691089 12.785176 -1.525807 2.032118 -0.001310 -0.005198 309855.000000 1 0 0
-8.852309 6.279306 -1.618989 10.973339 -0.616968 1.718875 0.001005 -0.003482 -821450.000000 1 0 0
2.955091 0.020406 3.959811 4.940960 0.006905 0.641122 -0.002838 0.004211 -12504.800000 1 0 0
-10.166109 4.003906 -1.132889 10.984738 -0.375192 1.674113 0.002490 -0.003566 -332637.000000 1 0 0
6.410091 5.602906 13.561711 16.012552 0.718306 0.560588 0.017312 0.004245 -354239.000000 1 0 0
-8.688209 -1.677494 5.672611 10.510827 0.190730 1.000725 -0.001883 -0.002233 317766.000000 1 0 0
12.994091 -1.752894 -1.530989 13.200870 -0.134090 1.687034 0.013067 -0.004563 -755428.000000 1 0 0
4.900191 -5.728694 5.495711 9.329129 -0.863189 0.940862 0.003625 -0.003928 409716.000000 1 0 0
-9.054109 -1.289994 3.169311 9.679127 0.141524 1.237206 -0.000284 -0.003813 560904.000000 1 0 0
1.935391 5.481006 5.584711 8.060779 1.231355 0.805397 -0.002485 0.004376 -945540.000000 1 0 0
9.220991 3.156106 -7.415989 12.246819 0.329775 2.221246 0.005626 -0.001181 -764782.000000 1 0 0
2.276091 -2.287494 -1.463989 3.543513 -0.787897 1.996703 0.001397 0.000464 295441.000000 1 0 0
-6.211509 0.378306 -3.896789 7.342406 -0.060829 2.130251 0.007767 -0.003210 -751053.000000 1 0 0
-4.052609 4.200906 5.162711 7.792614 -0.803364 0.846627 -0.000412 -0.001775 672350.000000 1 0 0
-6.481409 1.670906 -12.371489 14.066070 -0.252306 2.645664 0.009110 -0.008092 -2344390.000000 1 0 0
-0.064009 3.166106 6.256411 7.012204 -1.550582 0.468564 -0.001727 0.001562 1170930.000000 1 0 0
-8.727309 9.383706 -2.084389 12.983240 -0.821625 1.732039 -0.003278 0.000542 773053.000000 1 0 0
-1.313109 -3.812594 -6.066989 7.284812 1.239107 2.554992 0.003742 -0.003341 276320.000000 1 0 0
-3.335109 6.957106 -2.886389 8.237446 -1.123779 1.928793 -0.000242 0.000933 445600.000000 1 0 0
7.021091 -0.391694 -4.389189 8.289398 -0.055730 2.128801 -0.002207 0.002735 -126610.000000 1 0 0
-5.151109 -10.813494 6.862011 13.804086 1.126239 1.050543 0.006997 -0.007010 754857.000000 1 0 0
9.596291 8.463806 -1.442189 12.876518 0.722774 1.683033 0.010217 -0.000803 -47514.400000 1 0 0
13.714891 4.644806 -4.368789 15.124773 0.326545 1.863822 0.017884 -0.002152 598634.000000 1 0 0
4.723091 1.074506 -6.632489 8.212920 0.223693 2.510813 -0.005353 0.000361 -376485.000000 1 0 0
9.041191 -4.763894 3.572711 10.825991 -0.484943 1.234480 0.003234 -0.003983 -803449.000000 1 0 0
-8.755509 -3.256394 -0.710589 9.368457 0.356072 1.646718 0.009314 -0.002848 500075.000000 1 0 0
-8.472409 -4.342594 -10.363389 14.072657 0.473643 2.398560 0.015695 -0.007649 493171.000000 1 0 0
10.473191 -1.019094 10.592711 14.930901 -0.097000 0.782080 0.014075 0.000181 885653.000000 1 0 0
2.151791 -11.536594 9.930911 15.373556 -1.386396 0.868498 0.000996 -0.003678 -67158.400000 1 0 0
-6.378209 -10.509294 2.025711 12.459146 1.025311 1.407483 0.017621 -0.003954 -859175.000000 1 0 0
-3.704709 -1.626694 6.619411 7.758067 0.413743 0.548650 0.008412 -0.005000 -1519040.000000 1 0 0
4.722691 -7.598094 3.870811 9.747719 -1.014673 1.162442 -0.001288 -0.002411 273152.000000 1 0 0
11.593591 -9.380494 -5.272189 15.817743 -0.680271 1.910607 0.025458 -0.013194 591306.000000 1 0 0
11.282291 1.240706 11.518711 16.171275 0.109529 0.778034 0.029787 0.001039 119849.000000 1 0 0
-10.252909 -3.513594 4.328111 11.670477 0.330150 1.190862 0.003928 -0.000295 1970490.000000 1 0 0
2.012091 8.881706 8.998311 12.802453 1.348013 0.791388 0.006932 0.005089 198954.000000 1 0 0
6.545791 8.796806 4.071711 11.696581 0.931075 1.215241 0.008087 0.000531 -1330710.000000 1 0 0
-4.203009 3.434006 0.511211 5.451515 -0.685042 1.476884 0.002322 -0.004458 -1228150.000000 1 0 0
4.838191 7.063806 4.294811 9.578666 0.970258 1.105853 0.002320 0.002876 -657008.000000 1 0 0
-8.345209 13.011806 1.149311 15.500662 -1.000521 1.496582 -0.007025 0.000237 -515411.000000 1 0 0
8.748691 8.184906 -9.171689 15.088146 0.752117 2.224176 0.014649 -0.011717 -1316310.000000 1 0 0
7.034991 2.024206 6.080211 9.516169 0.280166 0.877684 -0.003793 0.003344 107350.000000 1 0 0
11.544991 -6.193394 3.067711 13.455698 -0.492386 1.340788 0.017102 -0.006586 9379.020000 1 0 0
11.389291 4.805206 -2.100289 12.538627 0.399247 1.739095 0.010404 0.001971 -115559.000000 1 0 0
-4.032409 14.284706 -6.024889 16.019127 -1.295667 1.956386 0.002173 -0.001716 -210662.000000 1 0 0
7.197291 -2.975594 6.992011 10.466297 -0.392032 0.839211 -0.000172 -0.000497 -521223.000000 1 0 0
-8.000609 -0.461194 0.941911 8.069055 0.057581 1.453798 0.004019 -0.003826 291318.000000 1 0 0
-3.356409 1.098906 10.720811 11.287554 -0.316406 0.318231 0.006639 0.001133 -331881.000000 1 0 0
7.039491 -1.220694 -1.948089 7.405375 -0.171699 1.836993 0.002694 0.002732 -1496150.000000 1 0 0
-7.814709 5.162506 2.930511 9.813717 -0.583801 1.267556 -0.002715 -0.002631 724935.000000 1 0 0
9.407791 -2.183494 2.862111 10.073026 -0.228057 1.282691 0.000939 -0.000377 -1899030.000000 1 0 0
0.216791 3.474606 1.680011 3.865530 1.508484 1.121187 -0.001583 0.000045 -4497280.000000 1 0 0
-7.552709 -3.134494 3.915511 9.066405 0.393384 1.124231 0.000755 -0.002177 239183.000000 1 0 0
-2.249709 8.382706 -6.686889 10.956524 -1.308600 2.227250 0.000359 -0.001987 -673114.000000 1 0 0
4.485891 9.934206 7.289011 13.112641 1.146646 0.981379 0.011684 0.008342 -713486.000000 1 0 0
-11.874209 -3.131594 6.867611 14.070103 0.257859 1.060885 0.008572 -0.004871 -1528930.000000 1 0 0
-4.728309 2.306306 -5.563289 7.656771 -0.453812 2.384134 0.011248 -0.007512 -1055030.000000 1 0 0
-2.761809 2.900506 -1.795489 4.389112 -0.809888 1.992240 0.001891 -0.004210 1379100.000000 1 0 0
2.309791 5.269506 11.617711 12.964337 1.157688 0.459829 0.003967 0.001253 308658.000000 1 0 0
-0.692409 1.754906 4.604111 4.975637 -1.194992 0.388889 0.002258 -0.000313 -241726.000000 1 0 0
4.982591 1.623206 7.586111 9.220092 0.314933 0.604510 -0.007291 0.003577 -216628.000000 1 0 0
3.440891 -8.135594 1.808611 9.016579 -1.170669 1.368839 -0.000866 -0.002528 2022150.000000 1 0 0
5.061991 6.453006 -4.629789 9.418067 0.905616 2.084706 -0.000972 -0.000655 -2436650.000000 1 0 0
-4.079909 2.845206 -7.919989 9.352384 -0.608959 2.580815 0.012786 -0.010484 159548.000000 1 0 0
-8.797209 -2.231494 -12.842089 15.725448 0.248420 2.526368 0.019224 -0.008348 -708651.000000 1 0 0
-7.856609 8.047306 1.198511 11.310255 -0.797388 1.464630 -0.005125 -0.002025 -2327270.000000 1 0 0
7.344991 0.941306 -6.561889 9.894106 0.127461 2.295898 -0.002662 0.000770 -21649.400000 1 0 0
8.895291 8.956006 5.420811 13.737592 0.788799 1.165167 0.011581 -0.000003 472519.000000 1 0 0
9.396391 -1.014194 -1.402389 9.554446 -0.107518 1.718107 -0.000042 0.001424 2473060.000000 1 0 0
5.441291 0.124606 4.262911 6.913435 0.022896 0.906364 -0.004520 0.004843 -1661420.000000 1 0 0
-4.273109 -7.376794 -7.941189 11.650710 1.045764 2.320751 0.011354 -0.006920 -1199580.000000 1 0 0
-2.256509 7.430106 -0.489689 7.780623 -1.275950 1.633775 -0.004326 0.000265 19937.900000 1 0 0
13.405191 -3.206794 -7.348689 15.620048 -0.234808 2.060614 0.030398 -0.004467 1304810.000000 1 0 0
-4.756109 -5.068994 1.564411 7.124792 0.817233 1.349420 0.008569 -0.001411 2597080.000000 1 0 0
-8.978909 1.221106 2.517711 9.404827 -0.135168 1.299787 0.000003 -0.004741 -765664.000000 1 0 0
-1.068409 11.278106 10.243511 15.273071 -1.476345 0.835656 0.008857 0.001799 518235.000000 1 0 0
-8.589209 0.313606 7.359511 11.315267 -0.036495 0.862678 -0.004076 -0.002474 29661.400000 1 0 0
-6.249309 12.924106 -2.084289 14.506227 -1.120404 1.714978 -0.002013 0.005757 -217314.000000 1 0 0
-12.971309 -0.812694 3.289211 13.406500 0.062571 1.322921 0.005598 -0.005924 853352.000000 1 0 0
-6.712109 12.648706 8.609911 16.708463 -1.082926 1.029436 0.003200 -0.009314 354376.000000 1 0 0
-8.116109 0.798706 -14.081989 16.273032 -0.098094 2.616659 0.008154 -0.005331 -876672.000000 1 0 0
7.257691 2.892706 3.746811 8.664896 0.379274 1.123629 -0.002714 0.003936 -553144.000000 1 0 0
-1.698909 0.726106 -1.915889 2.661607 -0.403898 2.374345 0.003776 -0.003197 407331.000000 1 0 0
-6.310109 9.611506 -10.389489 15.496451 -0.989854 2.305602 0.002739 -0.005970 -244675.000000 1 0 0
-10.092609 13.718206 5.328711 17.845030 -0.936504 1.267560 0.000368 -0.007497 592769.000000 1 0 0
-5.751509 8.257406 2.503811 10.369844 -0.962405 1.326935 -0.008240 -0.000511 -1570540.000000 1 0 0
-2.310509 -10.843494 -1.222889 11.154160 1.360858 1.680652 0.007171 -0.002346 486091.000000 1 0 0
-2.274609 -12.458894 8.718211 15.375471 1.390216 0.967912 0.005219 -0.002026 332409.000000 1 0 0
-14.800209 -6.600294 -1.854489 16.311015 0.419489 1.684738 0.019401 -0.003126 308319.000000 1 0 0
-2.793009 -9.459194 3.310611 10.403721 1.283685 1.246951 0.006614 -0.002430 -1375150.000000 1 0 0
4.701191 -2.756294 7.608811 9.359079 -0.530283 0.621532 -0.001719 0.002396 -880281.000000 1 0 0
-15.140809 -1.382894 -0.319589 15.207190 0.091083 1.591814 0.010599 -0.008296 256886.000000 1 0 0
5.444891 8.796106 -2.843989 10.728774 1.016515 1.839084 0.002887 -0.000102 -1860960.000000 1 0 0
-5.691009 -5.703294 8.580311 11.770169 0.786476 0.753954 0.006663 -0.000934 -3242430.000000 1 0 0
3.443691 3.658206 6.995011 8.612297 0.815594 0.622862 -0.004099 0.004427 368260.000000 1 0 0
3.252591 2.494106 9.310811 10.173058 0.654170 0.414688 -0.002803 -0.000424 -59472.200000 1 0 0
9.839891 -3.195094 5.222011 11.588852 -0.313968 1.103352 0.012515 -0.004267 -447101.000000 1 0 0
6.365891 10.026206 -5.059089 12.909057 1.005092 1.973495 0.002676 -0.002460 764327.000000 1 0 0
-4.508709 12.054306 -8.393989 15.365344 -1.212874 2.148729 0.001784 -0.006873 -400759.000000 1 0 0
-3.284409 -7.225294 2.133611 8.218547 1.144148 1.308179 0.010061 -0.003205 660884.000000 1 0 0
-7.440709 -4.027094 1.121611 8.534615 0.496081 1.438996 0.008330 -0.002564 2836150.000000 1 0 0
-1.903709 -3.992594 -10.936289 11.796921 1.125872 2.757253 0.011392 -0.005616 -973308.000000 1 0 0
-5.192609 8.218806 -4.414689 10.677145 -1.007325 1.997059 0.003400 -0.004173 -2138500.000000 1 0 0
-10.990609 -3.362194 -10.111989 15.308500 0.296875 2.292344 0.017672 -0.002094 678298.000000 1 0 0
4.763391 -11.325194 -7.659189 14.478021 -1.172657 2.128244 0.004437 -0.007152 -2284540.000000 1 0 0
-9.432209 -3.956694 7.204111 12.510844 0.397192 0.957178 0.000986 -0.000947 -160182.000000 1 0 0
-5.634709 -9.600294 -5.131689 12.257644 1.040042 2.002757 0.016420 -0.007409 -273715.000000 1 0 0
4.707391 4.402306 -9.456889 11.444325 0.751921 2.543372 -0.000567 -0.000743 -24292.500000 1 0 0
-3.216009 -7.332694 -14.045089 16.167116 1.157476 2.623457 0.001632 -0.000598 -453477.000000 1 0 0
0.681191 -0.851494 -8.806389 8.873644 -0.896059 3.018396 0.002839 -0.009074 81905.600000 1 0 0
-7.751509 2.137206 -2.874789 8.539201 -0.269031 1.914162 0.006052 -0.005107 164165.000000 1 0 0
-2.342909 7.550506 -12.493589 14.784760 -1.269919 2.577421 0.004746 -0.004237 -401050.000000 1 0 0
-9.839409 8.857906 7.598411 15.264741 -0.732952 1.049765 -0.002294 -0.009677 -349208.000000 1 0 0
-10.691009 -3.308894 -14.289789 18.150607 0.300152 2.477198 0.030752 -0.002527 -333349.000000 1 0 0
-3.341609 4.846406 8.005611 9.936992 -0.967150 0.634046 0.001979 -0.000543 150625.000000 1 0 0
8.677291 -2.389694 -3.567789 9.681691 -0.268735 1.948201 0.000353 0.002389 -4359440.000000 1 0 0
1.973391 -8.420194 -1.078189 8.715299 -1.340587 1.694826 -0.001652 -0.001139 121382.000000 1 0 0
-13.602609 -2.886394 5.015111 14.782205 0.209093 1.224659 0.015363 -0.009544 307042.000000 1 0 0
7.016991 2.761906 -1.915689 7.780498 0.374979 1.819571 -0.001801 0.002530 393530.000000 1 0 0
-11.139509 4.448706 8.948411 14.965083 -0.379957 0.929852 -0.002334 -0.004833 -2300400.000000 1 0 0
-1.759609 -2.476594 8.080911 8.633126 0.953061 0.359607 0.004363 -0.002724 -712904.000000 1 0 0
3.100291 11.894806 -9.809089 15.726297 1.315827 2.244312 0.002994 -0.007240 440466.000000 1 0 0
3.714291 -5.080094 -7.040389 9.443008 -0.939471 2.412181 -0.007753 -0.002205 -23707.300000 1 0 0
8.489291 -13.612094 -9.799089 18.798386 -1.013163 2.119138 0.036571 -0.013483 435822.000000 1 0 0
-6.270409 -5.769894 -0.446789 8.532838 0.743852 1.623181 0.014878 -0.002893 -75715.700000 1 0 0
-1.149009 -4.039494 9.847711 10.705847 1.293672 0.403113 0.002928 -0.001938 1308110.000000 1 0 0
2.805391 3.251106 1.886011 4.690090 0.858859 1.156958 -0.004498 0.002607 -20077.800000 1 0 0
-9.156409 13.265306 7.798111 17.905829 -0.966642 1.120195 0.006087 -0.019551 -777073.000000 1 0 0
4.086491 -11.116894 -0.044389 11.844269 -1.218535 1.574544 0.000463 -0.006266 -513901.000000 1 0 0
-12.626009 -1.566694 -9.071089 15.625469 0.123454 2.190179 0.016629 -0.001442 -95828.200000 1 0 0
-4.227409 0.758606 -13.472189 14.140238 -0.177559 2.832979 0.012039 -0.010106 955406.000000 1 0 0
3.983191 -3.116994 4.956611 7.081628 -0.664002 0.795503 -0.002357 0.004631 187434.000000 1 0 0
1.780891 -1.187794 1.110411 2.411523 -0.588210 1.092282 -0.000762 0.002011 814976.000000 1 0 0
8.207591 -9.067594 7.321411 14.254434 -0.835140 1.031394 0.016598 -0.003514 -1347200.000000 1 0 0
-0.058409 2.309906 -6.349189 6.756573 -1.545515 2.792565 -0.000551 -0.005017 673659.000000 1 0 0
-3.642609 -9.838994 -3.383389 11.023690 1.216221 1.882751 0.014665 -0.004215 922486.000000 1 0 0
-9.439109 2.355506 -5.386289 11.120130 -0.244553 2.076442 0.008556 -0.002742 -262300.000000 1 0 0
8.939491 -7.647894 5.304211 12.905016 -0.707689 1.147224 0.009230 -0.005741 2466290.000000 1 0 0
-5.517709 -4.343994 4.592511 8.390862 0.666938 0.991634 0.004256 -0.002508 -968830.000000 1 0 0
-0.206409 -12.406894 10.313511 16.135121 1.554161 0.877343 0.003056 -0.002169 -1378730.000000 1 0 0
-14.292409 -8.307094 3.033411 16.807211 0.526499 1.389319 0.001230 -0.005151 -1238060.000000 1 0 0
10.823291 -1.172594 -3.685189 11.493443 -0.107919 1.897195 0.009070 -0.001477 6880.620000 1 0 0
-13.692209 2.893006 2.828611 14.277504 -0.208226 1.371360 0.005165 -0.002833 -1290450.000000 1 0 0
-6.257809 6.055206 1.056811 8.771690 -0.768945 1.450023 -0.001998 -0.002528 863587.000000 1 0 0
7.141691 -6.906994 -0.414589 9.943953 -0.768694 1.612501 0.002642 -0.004180 -613946.000000 1 0 0
-7.015909 7.842606 10.016011 14.527557 -0.840979 0.810068 -0.007675 -0.002998 341570.000000 1 0 0
-12.694109 -5.232794 -1.842389 13.853409 0.390998 1.704183 0.007264 -0.002824 -1957310.000000 1 0 0
-9.398809 -5.618594 0.134711 10.950998 0.538799 1.558495 0.012067 -0.003276 -553275.000000 1 0 0
-1.777909 1.889906 2.225411 3.418356 -0.815924 0.861872 0.001972 -0.002393 -127157.000000 1 0 0
-7.125909 7.286506 7.569911 12.695483 -0.796541 0.931952 -0.004984 -0.005214 -352802.000000 1 0 0
5.538691 7.224906 -0.487089 9.116667 0.916749 1.624250 0.004317 -0.001735 -1125510.000000 1 0 0
0.118091 -3.945394 7.485911 8.462798 -1.540874 0.485232 0.002366 -0.000880 -1598880.000000 1 0 0
6.364791 0.800506 13.018011 14.512753 0.125114 0.457850 -0.001098 0.003694 148283.000000 1 0 0
5.694191 6.163106 -7.909189 11.530956 0.824924 2.326649 -0.004432 -0.001637 -464741.000000 1 0 0
9.934391 5.308706 9.011511 14.425041 0.490769 0.896032 0.006136 -0.001984 -2499470.000000 1 0 0
-1.195909 -4.996694 -8.460589 9.898420 1.335875 2.595849 0.008045 -0.004764 1245400.000000 1 0 0
9.962391 -3.556594 -7.900089 13.202651 -0.342899 2.212263 0.015329 -0.007014 222402.000000 1 0 0
8.372091 -5.627394 1.388411 10.182689 -0.591797 1.434020 0.005434 -0.004534 1519950.000000 1 0 0
15.724191 3.099006 -4.923889 16.765998 0.194591 1.868874 0.027988 -0.001913 180281.000000 1 0 0
-6.906109 3.498106 1.061111 7.813901 -0.468853 1.434578 -0.000051 -0.005894 779102.000000 1 0 0
-1.689309 3.773906 0.308411 4.146233 -1.149916 1.496344 0.001626 -0.004938 -1542810.000000 1 0 0
-2.631109 10.103106 6.967511 12.551561 -1.316030 0.982300 -0.005444 0.004578 -967818.000000 1 0 0
5.529091 -5.834994 -8.681689 11.831726 -0.812310 2.394641 -0.003640 -0.002061 101971.000000 1 0 0
-1.238909 -0.924494 6.237111 6.425818 0.641075 0.242948 0.003610 -0.002301 -213218.000000 1 0 0
-5.579609 4.998206 -7.786389 10.804719 -0.730489 2.375532 0.006780 -0.005866 -36226.100000 1 0 0
6.759691 -1.255094 2.538711 7.328966 -0.183583 1.217072 -0.001885 0.003870 -1561630.000000 1 0 0
8.691391 7.564306 3.170611 11.950388 0.716174 1.302266 0.009015 -0.000355 -526170.000000 1 0 0
-5.337809 -4.970594 -7.827789 10.699219 0.749790 2.391495 0.016424 -0.010890 633113.000000 1 0 0
-2.289609 7.830506 -9.953089 12.869464 -1.286330 2.454965 0.002676 -0.000886 666945.000000 1 0 0
-2.779609 -2.156894 1.642311 3.882732 0.659916 1.134067 0.000170 -0.001318 -1702630.000000 1 0 0
5.999491 -1.960894 -9.338389 11.271402 -0.315898 2.547225 -0.004409 -0.001374 1106980.000000 1 0 0
1.095891 -7.627894 5.171611 9.280696 -1.428104 0.979733 0.000368 -0.002578 310539.000000 1 0 0
1.582191 11.911706 1.146711 12.070916 1.438743 1.475655 0.002966 -0.004130 -174175.000000 1 0 0
-1.133709 7.036406 2.516711 7.558448 -1.411049 1.231348 -0.003825 0.002957 723559.000000 1 0 0
8.704991 7.898506 -6.580389 13.470886 0.736863 2.081154 0.006231 -0.004098 -365887.000000 1 0 0
3.667491 -10.999794 5.433211 12.804911 -1.248973 1.132600 0.006101 -0.000647 -257246.000000 1 0 0
8.014291 -7.114694 12.373211 16.368998 -0.726006 0.713779 0.026754 -0.005933 -60060.000000 1 0 0
-8.721409 0.041906 -4.002189 9.595950 -0.004805 2.001016 0.008276 -0.002316 -451481.000000 1 0 0
-3.213609 -5.085294 11.168111 12.685196 1.007221 0.494081 0.011142 -0.003590 1674100.000000 1 0 0
-8.210209 0.080206 -11.503289 14.132927 -0.009769 2.521691 0.011588 -0.007596 -2409700.000000 1 0 0
1.412691 -4.986894 5.340511 7.442168 -1.294748 0.770444 0.000131 -0.000966 -415267.000000 1 0 0
6.656691 3.702506 -7.825589 10.920619 0.507597 2.369695 -0.002659 0.000678 -174740.000000 1 0 0
16.260191 4.310306 -1.359989 16.876674 0.259124 1.651468 0.023763 0.006271 -303758.000000 1 0 0
7.766191 7.578506 0.081611 10.851457 0.773167 1.563276 0.007522 -0.001825 -3301520.000000 1 0 0
5.452391 -10.413694 14.021211 18.296665 -1.088464 0.697693 0.016940 -0.005558 629297.000000 1 0 0
-5.238809 -9.133494 8.904811 13.789906 1.050028 0.868793 0.003095 -0.006075 425554.000000 1 0 0
-12.560609 -3.176194 2.805011 13.256138 0.247677 1.357584 0.004960 -0.003849 -596779.000000 1 0 0
-2.028309 -1.394294 -5.865189 6.360702 0.602231 2.744263 0.009202 -0.007119 -844426.000000 1 0 0
-2.584209 12.937806 -4.402589 13.908549 -1.373650 1.892874 0.001974 0.003907 554020.000000 1 0 0
3.970591 -0.571394 -4.924389 6.351511 -0.142925 2.458002 -0.004028 0.002229 -239856.000000 1 0 0
-8.898009 3.748406 -7.390489 12.159130 -0.398701 2.224101 0.007870 -0.003974 70019.100000 1 0 0
-4.601109 7.920106 -11.258089 14.513540 -1.044509 2.458613 0.004461 -0.006641 -2510290.000000 1 0 0
-10.189809 -6.482094 7.371311 14.148710 0.566566 1.022788 0.007186 -0.001713 -353628.000000 1 0 0
8.074391 5.387106 4.192011 10.573063 0.588361 1.163117 -0.000502 0.002034 -1067260.000000 1 0 0
-6.762609 -7.613894 3.959411 10.926171 0.844543 1.199978 0.011700 -0.002200 -442877.000000 1 0 0
-4.148209 11.815906 7.996711 14.858353 -1.233169 1.002501 -0.004296 0.000291 18135.900000 1 0 0
-7.305109 10.006906 -7.939589 14.715293 -0.940214 2.140695 0.002818 -0.005561 -933372.000000 1 0 0
13.015091 5.573906 4.595611 14.885586 0.404633 1.256940 0.013640 0.000241 335069.000000 1 0 0
5.406791 3.971306 -3.707889 7.665057 0.633509 2.075718 -0.002697 0.001266 142188.000000 1 0 0
-2.921909 -4.253994 5.207511 7.331589 0.968942 0.780895 0.005823 -0.002109 -1493830.000000 1 0 0
12.431291 -2.178394 -5.270289 13.676927 -0.173473 1.966374 0.016515 -0.008611 -2343570.000000 1 0 0
-5.261309 9.676406 7.021111 13.061784 -1.072783 1.003290 -0.007431 -0.000617 -684656.000000 1 0 0
1.714791 3.810606 -0.423789 4.200098 1.147938 1.671868 -0.001707 0.000167 553313.000000 1 0 0
-0.150909 9.654806 7.744611 12.378087 -1.555167 0.894805 0.001156 0.003531 -1704180.000000 1 0 0
-5.535709 2.014306 5.877811 8.321668 -0.348982 0.786502 0.001562 -0.002411 859904.000000 1 0 0
8.777591 1.026206 10.676611 13.859626 0.116384 0.691424 0.010806 0.002113 -1338050.000000 1 0 0
0.505791 -2.884194 -10.228189 10.639091 -1.397195 2.862763 0.000601 -0.005484 -1892500.000000 1 0 0
1.160291 10.637406 -2.731789 11.043702 1.462149 1.820753 0.001256 -0.001072 -409976.000000 1 0 0
2.264491 -4.325194 11.641411 12.623695 -1.088480 0.397098 0.000850 0.000858 793909.000000 1 0 0
6.530491 -3.125494 9.488311 11.934994 -0.446382 0.651790 0.002553 0.000534 139407.000000 1 0 0
-10.617009 -8.216494 5.504111 14.509545 0.658622 1.181709 0.012073 -0.000926 -548079.000000 1 0 0
-2.950609 0.777506 -6.844689 7.494023 -0.257650 2.722241 0.011701 -0.007637 670536.000000 1 0 0
11.089591 2.766606 -5.106589 12.518402 0.244487 1.990978 0.011426 -0.001608 -2870840.000000 1 0 0
-2.078509 -4.105494 0.054511 4.601984 1.102141 1.558951 0.003399 -0.001471 729942.000000 1 0 0
-1.194909 -6.432994 -10.592689 12.450554 1.387142 2.588265 0.004834 -0.001350 1121780.000000 1 0 0
0.324591 6.817306 -6.573089 9.475575 1.523219 2.337393 0.000792 -0.000618 -3584980.000000 1 0 0
2.166191 3.722806 -6.030889 7.411025 1.043814 2.521411 -0.003496 0.000376 -1084010.000000 1 0 0
1.534591 -14.787494 6.524111 16.235424 -1.467390 1.157266 0.016776 -0.006240 108968.000000 1 0 0
-1.722209 5.335506 -10.484889 11.889765 -1.258571 2.650550 0.006182 -0.004438 -418166.000000 1 0 0
13.648891 4.456606 -0.796489 14.380124 0.315604 1.626213 0.014293 0.001000 -874138.000000 1 0 0
-2.352909 3.319706 -6.221489 7.433946 -0.954208 2.562396 0.007388 -0.006476 -676774.000000 1 0 0
5.924991 7.932706 14.212211 17.321093 0.929278 0.608486 0.022680 0.003957 364119.000000 1 0 0
15.913891 0.675406 -5.843589 16.966309 0.042416 1.922421 0.029791 -0.006569 244263.000000 1 0 0
6.258891 -8.282094 10.599911 14.836607 -0.923649 0.774969 0.007065 0.000415 745583.000000 1 0 0
0.125791 -5.951494 -6.408689 8.746851 -1.549663 2.393056 -0.000653 -0.002233 -1115180.000000 1 0 0
8.578891 5.597406 -7.601189 12.755642 0.578104 2.209192 0.004016 -0.001193 -602921.000000 1 0 0
-15.965309 -0.648594 5.184511 16.798539 0.040603 1.257045 0.027197 -0.018473 -561879.000000 1 0 0
-0.369209 3.964506 -12.276989 12.906513 -1.477936 2.827977 0.009182 -0.007030 463566.000000 1 0 0
-11.241309 3.634606 5.839911 13.178845 -0.312717 1.111712 -0.002056 -0.005061 714306.000000 1 0 0
5.086691 -9.770694 -9.680389 14.664611 -1.090799 2.291774 -0.008220 0.002032 80470.000000 1 0 0
1.474991 11.077106 -11.616489 16.118954 1.438418 2.375568 0.001084 -0.003786 -4688690.000000 1 0 0
5.905491 2.491506 1.186911 6.518526 0.399239 1.387692 -0.001309 0.004219 -169425.000000 1 0 0
5.754391 4.662506 4.987011 8.928732 0.680961 0.978177 -0.003821 0.003998 281053.000000 1 0 0
0.459491 -1.609794 -6.387289 6.603032 -1.292755 2.885262 0.000172 -0.003007 429247.000000 1 0 0
12.687091 6.865706 -4.595789 15.140062 0.496028 1.879214 0.023672 -0.002701 286172.000000 1 0 0
7.225891 3.292206 12.728211 15.001982 0.427511 0.557774 0.009556 0.003342 -33572.800000 1 0 0
-2.635809 -0.185494 8.551211 8.950146 0.070259 0.299693 0.005901 0.000106 730766.000000 1 0 0
2.248791 -15.232794 13.214311 20.290715 -1.424227 0.861567 0.011928 -0.007724 -1172420.000000 1 0 0
18.874291 4.687006 -1.710889 19.522654 0.243404 1.658545 0.031625 -0.000890 619482.000000 1 0 0
-0.464109 -13.241694 7.082511 15.023975 1.535762 1.079903 0.002316 -0.002253 -1834660.000000 1 0 0
4.361391 1.639506 -0.600189 4.697865 0.359571 1.698904 -0.000787 0.001846 335702.000000 1 0 0
2.787291 -0.575594 -7.310489 7.844970 -0.203644 2.770329 -0.004987 -0.001726 -746095.000000 1 0 0
7.253991 -11.204794 0.897711 13.378105 -0.996251 1.503643 0.004151 -0.006286 579922.000000 1 0 0
-11.871609 -7.360494 1.309611 14.029507 0.555002 1.477313 0.007077 0.001749 267813.000000 1 0 0
0.118191 -6.980794 9.980811 12.180396 -1.553867 0.610405 0.002799 -0.004237 -2470130.000000 1 0 0
-4.600609 -7.217394 10.565711 13.597450 1.003306 0.680853 0.009691 -0.001704 -965708.000000 1 0 0
11.798391 0.730806 -1.665189 11.937712 0.061862 1.710742 0.008253 0.000975 1592780.000000 1 0 0
6.525091 -9.564594 -7.444989 13.765396 -0.972108 2.142241 -0.000664 -0.006463 -475488.000000 1 0 0
-10.869509 4.934606 3.605311 12.469757 -0.426164 1.277484 -0.004964 -0.004413 368442.000000 1 0 0
6.038891 -9.173494 2.048511 11.172180 -0.988610 1.386395 0.002644 -0.006994 4779610.000000 1 0 0
11.583491 -1.315994 5.795811 13.019237 -0.113124 1.109429 0.013095 -0.005524 -365031.000000 1 0 0
-6.439309 3.583606 4.166311 8.465523 -0.507835 1.056238 -0.002586 -0.003835 -2171820.000000 1 0 0
9.481091 6.452806 -3.158589 11.895649 0.597585 1.839544 0.005636 -0.001800 26352.600000 1 0 0
-2.300409 6.541206 10.942211 12.954198 -1.232626 0.564821 0.002501 -0.000216 -65307.400000 1 0 0
1.834891 9.930606 3.023111 10.541487 1.388086 1.279930 -0.001782 0.001747 -17624.400000 1 0 0
2.772791 6.139306 -5.572789 8.742735 1.146575 2.261941 -0.001534 -0.000891 -2954110.000000 1 0 0
11.678191 0.194706 -5.865889 13.070069 0.016671 2.036222 0.013326 -0.003341 137552.000000 1 0 0
-2.695309 -12.497594 6.172411 14.196944 1.358383 1.121013 0.002963 -0.003700 -40609.100000 1 0 0
10.880891 1.894606 -2.827089 11.400691 0.172394 1.821386 0.008845 0.000306 166291.000000 1 0 0
-8.853209 5.292306 0.749211 10.341621 -0.538788 1.498287 -0.002865 -0.003918 250279.000000 1 0 0
1.184991 -10.156094 5.595011 11.655668 -1.454644 1.070113 -0.002127 -0.003082 27273.600000 1 0 0
9.467791 -5.678194 -1.075689 11.092252 -0.540227 1.667926 0.009074 -0.003216 1102630.000000 1 0 0
-7.843109 8.520406 -4.458289 12.409191 -0.826765 1.938285 0.001701 -0.004365 -583782.000000 1 0 0
-7.455009 -0.133894 -1.620589 7.630295 0.017958 1.784815 0.005757 -0.003664 -928999.000000 1 0 0
4.031191 8.905106 2.828111 10.175933 1.145713 1.289167 0.004795 -0.000096 800101.000000 1 0 0
-1.200009 -10.606294 -3.780389 11.323641 1.458134 1.911180 0.006677 -0.003073 -296094.000000 1 0 0
3.125791 7.858806 -3.662489 9.216573 1.192236 1.979457 0.002230 -0.001988 -219208.000000 1 0 0
-4.328109 1.599406 -11.018889 11.945984 -0.353974 2.745026 0.012702 -0.011055 -302311.000000 1 0 0
1.283791 2.903906 11.011111 11.459727 1.154539 0.280732 -0.002634 0.001661 567101.000000 1 0 0
2.137791 5.543306 -7.998589 9.963725 1.202719 2.502724 -0.001073 -0.000442 -462625.000000 1 0 0
15.519291 6.228706 4.042211 17.204204 0.381672 1.333624 0.041093 -0.006658 434453.000000 1 0 0
-4.517709 8.979606 4.639211 11.070921 -1.104666 1.138403 -0.004304 0.001123 -464710.000000 1 0 0
-0.797209 -8.240094 -12.392089 14.902972 1.474349 2.552631 0.000631 0.003208 467173.000000 1 0 0
14.164291 -4.129794 -5.192089 15.640976 -0.283699 1.909171 0.030550 -0.008150 971596.000000 1 0 0
-5.977609 -6.232794 -5.676589 10.334563 0.806294 2.152301 0.017342 -0.006316 389233.000000 1 0 0
-8.996309 2.536706 -12.166889 15.342804 -0.274836 2.486519 0.008254 -0.006775 976697.000000 1 0 0
10.456491 5.490406 13.756211 18.130530 0.483503 0.709432 0.036175 -0.002808 240924.000000 1 0 0
-0.464109 10.987806 5.583611 12.333855 -1.528583 1.100998 -0.000122 0.006513 546925.000000 1 0 0
0.123791 11.357506 -0.581389 11.373050 1.559897 1.621938 0.000620 -0.000729 -251947.000000 1 0 0
-1.457209 -0.545294 3.709811 4.022872 0.358073 0.397118 0.003655 -0.001564 586945.000000 1 0 0
-4.866309 6.780306 8.911411 12.209290 -0.948282 0.752639 -0.002684 -0.002047 -269937.000000 1 0 0
3.509591 -8.838194 -11.496489 14.919791 -1.192798 2.450505 -0.005439 0.004265 1014080.000000 1 0 0
6.675691 -3.706194 12.080111 14.290900 -0.506810 0.563668 0.015859 -0.000996 -387851.000000 1 0 0
-2.324409 -1.910494 -12.461989 12.820064 0.687969 2.904688 0.012762 -0.008520 1025180.000000 1 0 0
-16.029509 -4.886094 5.244211 17.559067 0.295872 1.267507 0.018324 -0.009784 746552.000000 1 0 0
-8.994709 7.255306 5.790311 12.925632 -0.678764 1.106301 -0.006074 -0.005045 -3241280.000000 1 0 0
-12.829409 1.487406 6.007311 14.244083 -0.115422 1.135432 -0.001962 -0.003691 563900.000000 1 0 0
-3.531709 3.538106 10.163611 11.326524 -0.786303 0.457118 0.003060 0.001208 698303.000000 1 0 0
2.111691 -12.246994 -1.114389 12.477579 -1.400050 1.660227 0.001406 -0.003213 -3456470.000000 1 0 0
10.244991 -5.150494 -3.600589 12.018805 -0.465832 1.875048 0.016043 -0.004104 530416.000000 1 0 0
3.155891 -13.461694 0.967211 13.860460 -1.340520 1.500958 0.002438 -0.004634 434225.000000 1 0 0
9.993591 -1.672494 -6.174289 11.865536 -0.165820 2.118063 0.010551 -0.001178 -6082.350000 1 0 0
11.966491 -5.317594 -1.609789 13.193375 -0.418165 1.693116 0.016537 -0.006055 -616474.000000 1 0 0
1.457191 0.958306 6.025511 6.272841 0.581727 0.281747 -0.000403 0.000384 406731.000000 1 0 0
-10.802609 11.632006 6.588011 17.187257 -0.822351 1.177421 0.003004 -0.013169 -764028.000000 1 0 0
4.847991 -14.030294 3.026411 15.149632 -1.238103 1.369675 0.013057 -0.005725 -3126970.000000 1 0 0
5.429591 -3.486194 -1.694289 6.671179 -0.570783 1.827580 -0.000970 0.001388 -1380170.000000 1 0 0
2.188591 -2.945194 -7.710689 8.539252 -0.931722 2.697428 -0.006239 -0.001068 161963.000000 1 0 0
-2.781809 14.820106 -8.926989 17.523274 -1.385250 2.105326 0.012025 -0.008800 -1988950.000000 1 0 0
-2.325209 5.997006 -8.065289 10.315986 -1.200914 2.468383 0.005060 -0.003163 -365143.000000 1 0 0
2.660491 -3.534594 -11.410489 12.238089 -0.925569 2.771725 -0.006507 0.000091 -1143110.000000 1 0 0
14.451491 2.880206 -2.648089 14.971758 0.196724 1.748604 0.018456 0.002667 376827.000000 1 0 0
-3.516909 13.170406 2.268011 13.819266 -1.309854 1.405931 -0.009376 0.004688 -101212.000000 1 0 0
7.881591 -5.006494 13.981611 16.812790 -0.565910 0.588804 0.031413 -0.007601 -1247700.000000 1 0 0
-11.481809 7.187506 2.903911 13.853695 -0.559311 1.359617 -0.006258 -0.001512 1212350.000000 1 0 0
-2.415709 11.997706 4.169611 12.929279 -1.372105 1.242434 -0.005468 0.004111 561759.000000 1 0 0
1.712491 1.478206 0.682011 2.362807 0.712102 1.277986 -0.002532 0.001778 -810351.000000 1 0 0
-6.873809 8.500206 5.297211 12.147559 -0.890795 1.119567 -0.008929 -0.003531 -1728640.000000 1 0 0
-1.196509 9.221306 1.207411 9.376671 -1.441762 1.441670 -0.005803 0.003705 833880.000000 1 0 0
4.922791 13.169606 -8.496589 16.427550 1.213079 2.114391 0.021274 -0.013648 -1247700.000000 1 0 0
8.822491 6.932606 7.116011 13.286647 0.666015 1.005606 -0.000724 -0.000931 -1900420.000000 1 0 0
7.249291 -13.677394 2.745811 15.721413 -1.083422 1.395242 0.020763 -0.005776 -110421.000000 1 0 0
4.250191 -13.462894 -1.290589 14.176716 -1.265002 1.661958 0.000413 -0.003002 -3017140.000000 1 0 0
12.186291 -11.736494 -4.576189 17.526908 -0.766598 1.834953 0.026344 -0.006986 -1240570.000000 1 0 0
3.003191 0.016406 -1.884989 3.545787 0.005463 2.131301 -0.001608 0.000062 1486720.000000 1 0 0
-13.635509 -3.394394 -10.594689 17.598195 0.243979 2.216841 0.026371 -0.007415 176690.000000 1 0 0
-6.657109 13.623206 4.953011 15.951212 -1.116262 1.255067 -0.000199 -0.007399 -13233.800000 1 0 0
7.378691 -4.287594 -0.498489 8.548511 -0.526390 1.629142 0.000429 0.001678 -1153920.000000 1 0 0
11.780191 2.302606 -7.327289 14.062861 0.193030 2.118863 0.023398 -0.002080 -1344030.000000 1 0 0
-7.479809 -4.549394 9.714911 13.077616 0.546444 0.733455 0.012138 -0.001731 437972.000000 1 0 0
0.938091 2.855906 8.530311 9.044469 1.253425 0.338806 -0.002595 0.001691 -2044780.000000 1 0 0
1.560591 8.028506 -8.676389 11.923593 1.378809 2.385709 0.001520 -0.002578 44345.300000 1 0 0
-8.547109 -2.034194 -5.594589 10.415875 0.233651 2.137817 0.016465 -0.004132 -1413600.000000 1 0 0
6.619091 -0.408294 7.150411 9.752305 -0.061606 0.747777 -0.002362 0.002328 479950.000000 1 0 0
-10.910009 6.515106 7.169711 14.590396 -0.538334 1.057101 -0.004170 -0.006375 5971.960000 1 0 0
-5.932609 11.039806 4.901311 13.457192 -1.077691 1.198007 -0.010974 -0.001412 -404634.000000 1 0 0
6.031291 -1.226394 -6.936989 9.273744 -0.200604 2.415877 -0.005903 0.001423 -539630.000000 1 0 0
4.557991 -5.711994 11.457511 13.589581 -0.897295 0.567756 0.006366 -0.002014 -1587610.000000 1 0 0
-9.022609 -7.519494 2.584211 12.026156 0.694781 1.354225 0.011205 0.000679 -1184270.000000 1 0 0
-1.340109 12.743306 -9.376289 15.877737 -1.466020 2.202512 0.009907 -0.002874 407633.000000 1 0 0
-4.647709 9.166906 -2.325089 10.537523 -1.101557 1.793276 -0.003728 -0.001539 366310.000000 1 0 0
-3.306509 9.697206 -0.245889 10.248378 -1.242184 1.594792 -0.004254 0.000374 -1435210.000000 1 0 0
-3.619809 10.576006 -6.391289 12.876470 -1.241028 2.090190 0.002394 0.001579 702675.000000 1 0 0
4.956791 -4.929494 0.398811 7.002053 -0.782637 1.513809 0.000977 -0.000917 -1948930.000000 1 0 0
-2.188309 2.846106 -10.870089 11.447613 -0.915322 2.822596 0.010193 -0.007501 -806209.000000 1 0 0
-3.711709 12.123206 -2.310589 12.887502 -1.273693 1.751060 -0.003401 0.002798 396068.000000 1 0 0
-0.251209 0.315306 0.202811 0.451283 -0.898061 1.104691 -0.001296 0.000131 -1843020.000000 1 0 0
-4.763009 -1.675594 0.125311 5.050700 0.338271 1.545983 0.002678 -0.001760 193597.000000 1 0 0
2.579991 2.541206 -2.482389 4.390482 0.777825 2.171717 -0.007572 0.000915 1238570.000000 1 0 0
6.027391 -9.702094 8.465111 14.216827 -1.014901 0.932997 0.007921 -0.001036 530322.000000 1 0 0
-4.318609 -5.527994 6.588911 9.624077 0.907609 0.816703 0.005102 -0.003846 29776.400000 1 0 0
-6.260309 5.257506 -11.893589 14.432266 -0.698552 2.539403 0.002800 -0.009712 1639390.000000 1 0 0
-12.850509 3.028806 7.927811 15.399982 -0.231471 1.030030 0.001221 -0.009123 595575.000000 1 0 0
4.755491 -7.553894 -4.858489 10.162723 -1.008938 2.069252 -0.004616 -0.003767 702037.000000 1 0 0
-5.834809 2.428606 -1.137089 6.421534 -0.394417 1.748809 0.001549 -0.005632 -835351.000000 1 0 0
-6.877909 -2.771194 -14.507489 16.292710 0.383014 2.669082 0.016037 -0.005084 1095520.000000 1 0 0
2.749591 -6.094794 0.889311 6.745194 -1.146997 1.438568 -0.000432 -0.000385 90765.800000 1 0 0
4.815991 -7.978894 12.944711 15.950613 -1.027740 0.623997 0.015940 -0.007666 -102751.000000 1 0 0
-9.988109 -1.720394 7.982711 12.901386 0.170571 0.903648 -0.000074 0.000564 40859.800000 1 0 0
-4.488509 13.175806 -0.099989 13.919719 -1.242464 1.577980 -0.008978 0.007523 685799.000000 1 0 0
6.864591 2.266106 -4.462189 8.495232 0.318851 2.123815 -0.002325 0.002630 -2204920.000000 1 0 0
4.987191 4.660206 0.150911 6.827325 0.751517 1.548691 -0.004201 0.002833 -383841.000000 1 0 0
-5.908609 12.154606 1.832311 13.638309 -1.118313 1.436039 -0.009939 0.001825 -2066990.000000 1 0 0
6.542091 -7.315694 6.604511 11.829535 -0.841165 0.978453 0.003608 -0.003108 -1500540.000000 1 0 0
-0.335909 4.986706 7.785111 9.251379 -1.503537 0.570728 -0.002042 0.001875 -1172350.000000 1 0 0
-5.788209 -3.441094 -1.591989 6.919460 0.536366 1.802950 0.010413 -0.003524 208919.000000 1 0 0
2.365991 -6.569594 -5.199189 8.705691 -1.225114 2.210824 -0.003682 -0.000351 -1638000.000000 1 0 0
-14.527609 -4.961294 -3.802489 15.815334 0.329090 1.813606 0.018558 -0.008204 252960.000000 1 0 0
-12.440209 -5.325994 -6.281389 14.919144 0.404517 2.005376 0.023002 -0.010941 -984921.000000 1 0 0
-14.833709 -3.890694 -1.320889 15.392244 0.256509 1.656717 0.009604 -0.005130 390267.000000 1 0 0
11.954391 3.008506 8.653811 15.061441 0.246545 0.958721 0.024690 -0.004997 -1224820.000000 1 0 0
8.771391 -6.573994 7.692811 13.391566 -0.643169 0.958862 0.007565 -0.005377 85307.300000 1 0 0
-8.881009 -1.805894 -9.665589 13.249799 0.200608 2.388372 0.014015 -0.006312 104383.000000 1 0 0
-8.860109 5.068106 -3.880589 10.919991 -0.519587 1.934101 0.005359 -0.005087 -173889.000000 1 0 0
-4.116709 -6.300794 4.027811 8.536426 0.992060 1.079422 0.008585 -0.002004 -1021540.000000 1 0 0
-0.141909 -9.320494 3.508811 9.960096 1.555572 1.210783 0.001478 -0.003098 689687.000000 1 0 0
7.965491 -10.391994 3.362111 13.518372 -0.916817 1.319451 0.009217 -0.006819 278076.000000 1 0 0
-0.009209 6.593906 9.689011 11.719924 -1.569400 0.597557 0.001835 0.000223 235565.000000 1 0 0
-0.027909 3.436506 -9.668689 10.261281 -1.562675 2.800082 0.004850 -0.004787 -215096.000000 1 0 0
4.478091 -3.113794 11.003111 12.280776 -0.607591 0.460203 -0.001476 -0.000079 -2646770.000000 1 0 0
8.652191 -9.059594 1.319911 12.596778 -0.808396 1.465822 0.006382 -0.005100 -1344570.000000 1 0 0
-0.294609 -0.395294 11.348411 11.359115 0.930316 0.043415 0.007641 0.000609 -2075460.000000 1 0 0
10.822891 6.101806 11.382611 16.850247 0.513367 0.829132 0.025925 -0.002956 84292.400000 1 0 0
-6.359409 -2.909594 -11.843189 13.753870 0.429095 2.608187 0.019399 -0.007674 556388.000000 1 0 0
-1.681309 2.828706 8.393511 9.015509 -1.034524 0.373631 0.004369 -0.000607 -460029.000000 1 0 0
-1.751609 13.523506 -6.864089 15.266599 -1.441990 2.037130 0.006258 -0.002983 301835.000000 1 0 0
7.647791 3.224006 9.759811 12.811590 0.398954 0.704716 0.004963 0.001165 829825.000000 1 0 0
6.477091 8.466906 -7.857389 13.243102 0.917771 2.205973 0.001916 -0.002407 -501619.000000 1 0 0
6.566191 -2.965394 -4.090889 8.285155 -0.424197 2.087206 -0.000754 0.002387 -2214580.000000 1 0 0
1.981291 8.231406 1.026911 8.528546 1.334591 1.450095 -0.001452 0.002324 598808.000000 1 0 0
-17.637509 6.140706 6.267511 19.699535 -0.335036 1.247013 0.035370 -0.014115 -296800.000000 1 0 0
-14.736109 2.834306 -10.118689 18.099007 -0.190017 2.164065 0.033623 -0.003257 -848589.000000 1 0 0
-18.227609 -0.112794 -4.340989 18.737733 0.006188 1.804591 0.040353 -0.013864 -55074.800000 1 0 0
-13.004009 7.867506 0.067511 15.198896 -0.544092 1.566354 0.000541 -0.001498 -2075270.000000 1 0 0
-12.836009 -4.501894 -12.841889 18.706798 0.337320 2.327437 0.041338 0.000865 -750482.000000 1 0 0
-17.331809 -0.627694 -8.604589 19.360386 0.036201 2.031349 0.049426 -0.016036 318400.000000 1 0 0
-16.782009 -2.413394 -2.135589 17.088623 0.142829 1.696095 0.034426 -0.014691 552043.000000 1 0 0
-15.298409 3.967106 1.710011 15.896647 -0.253726 1.463017 0.016543 -0.003777 -1022990.000000 1 0 0
-13.295109 5.789706 4.374511 15.146517 -0.410711 1.277810 -0.000872 -0.007294 118211.000000 1 0 0
-10.014309 14.053406 2.853111 17.490707 -0.951671 1.406943 0.009308 -0.009093 -271599.000000 1 0 0
-11.815709 2.393806 -6.448789 13.672168 -0.199890 2.061983 0.007350 0.003669 22108.200000 1 0 0
-15.857309 10.448106 3.722311 19.351299 -0.582594 1.377235 0.012089 -0.016444 986820.000000 1 0 0
-12.876009 0.996906 -8.606289 15.519460 -0.077269 2.158616 0.009791 0.000494 384787.000000 1 0 0
-12.201509 14.301606 3.949611 19.209690 -0.864473 1.363714 0.029707 -0.016772 -1536720.000000 1 0 0
-10.478409 11.156806 -1.039089 15.341156 -0.816744 1.638580 -0.000933 0.001026 140772.000000 1 0 0
-17.181809 5.433306 8.813811 20.060375 -0.306274 1.115906 0.041332 -0.022203 -383848.000000 1 0 0
-11.640709 12.353406 -9.220989 19.316816 -0.815092 2.068439 0.007852 -0.023981 -1716350.000000 1 0 0
-17.215509 -0.620094 2.885911 17.466733 0.036004 1.404812 0.043975 -0.012198 1507140.000000 1 0 0
-13.075509 14.756806 -0.585989 19.725000 -0.845733 1.600509 0.031194 -0.012492 28083.100000 1 0 0
-16.749809 4.434106 -10.431789 20.224728 -0.258789 2.112730 0.074741 -0.005922 903941.000000 1 0 0
-12.042609 7.496606 -8.926789 16.760402 -0.556804 2.132480 0.011592 -0.005720 18805.600000 1 0 0
-14.762509 13.385706 -2.111789 20.039173 -0.736524 1.676375 0.043607 -0.021284 533903.000000 1 0 0
-11.870309 10.476006 -5.438589 16.740047 -0.723084 1.901686 0.014810 -0.009570 108034.000000 1 0 0
-17.780209 2.811306 -0.760989 18.017169 -0.156816 1.613046 0.050599 -0.006391 416646.000000 1 0 0
-9.517209 15.390806 0.734011 18.110575 -1.016979 1.530256 0.017464 -0.002127 71681.100000 1 0 0
-8.273409 13.143306 -3.788089 15.985787 -1.008984 1.810038 0.002692 -0.000100 -31977.600000 1 0 0
-17.958409 11.409406 2.247211 21.394601 -0.565989 1.465566 0.098804 -0.017975 -224171.000000 1 0 0
-8.096509 15.593906 -7.417989 19.072229 -1.091899 1.970279 0.040938 -0.025570 -130151.000000 1 0 0
-6.377009 15.263406 -5.447989 17.416038 -1.175042 1.888951 0.011404 -0.002522 -1466080.000000 1 0 0
-17.238809 5.236806 -0.117389 18.017060 -0.294921 1.577312 0.035557 -0.003390 579146.000000 1 0 0
-5.400309 12.107406 -12.235389 18.040437 -1.151246 2.316134 -0.002723 -0.011540 -898841.000000 1 0 0
-11.185609 3.668506 -11.377089 16.371131 -0.316913 2.339144 0.010753 -0.006625 51362.600000 1 0 0
-11.850809 11.037506 1.219211 16.240526 -0.749880 1.495653 0.001905 -0.002813 161074.000000 1 0 0
-12.992309 0.015806 -11.083289 17.077460 -0.001217 2.277067 0.022717 -0.003966 468643.000000 1 0 0
-14.168309 -2.249094 -12.927589 19.311187 0.157428 2.304245 0.068166 -0.012082 132298.000000 1 0 0
-18.905609 -2.531194 -3.731489 19.435869 0.133094 1.763986 0.048943 -0.015715 1059640.000000 1 0 0
-18.413109 4.555206 -5.042189 19.626924 -0.242520 1.830611 0.063251 -0.004506 -664078.000000 1 0 0
-8.425909 15.369806 -2.333289 17.682508 -1.069327 1.703137 0.017210 0.002196 -250247.000000 1 0 0
-16.262009 9.162206 -5.277289 19.397132 -0.513082 1.846335 0.047533 -0.006727 51685.800000 1 0 0
-18.346409 1.663406 2.095911 18.540509 -0.090419 1.457509 0.076058 -0.017841 1038160.000000 1 0 0
-15.751409 -2.790294 -8.545189 18.135956 0.175327 2.061418 0.019554 -0.009964 -211445.000000 1 0 0
-9.703209 10.443306 -7.175689 15.959493 -0.822117 2.037135 0.006499 -0.010651 235444.000000 1 0 0
-13.807609 12.006906 -7.674289 19.842141 -0.715756 1.967920 0.036282 -0.026925 157811.000000 1 0 0
-11.041009 6.510606 -3.823689 13.375816 -0.532793 1.860706 -0.000251 -0.000626 -1525430.000000 1 0 0
-13.327609 4.798806 -12.695889 19.022074 -0.345613 2.301548 0.044265 -0.013455 1045460.000000 1 0 0
-17.618809 8.919706 2.552511 19.912280 -0.468643 1.442255 0.031699 -0.021318 1176870.000000 1 0 0
-13.495909 8.737306 -6.637789 17.393686 -0.574548 1.962345 0.012055 -0.002940 -677336.000000 1 0 0
-15.851109 6.957006 -3.867489 17.737391 -0.413582 1.790604 0.020886 0.004298 -727317.000000 1 0 0
-14.942709 -0.458194 -9.399889 17.659343 0.030654 2.132099 0.032054 -0.006699 -442404.000000 1 0 0
-10.032609 5.836206 -6.091889 13.108228 -0.526873 2.054135 0.006381 -0.001294 373614.000000 1 0 0
-12.728409 12.212406 -0.942289 17.664743 -0.764712 1.624165 0.016575 -0.007457 -1418780.000000 1 0 0
-10.796509 3.407706 -13.889089 17.918813 -0.305734 2.457689 0.028957 -0.010152 -161479.000000 1 0 0
-11.138309 6.156006 -11.946989 17.455340 -0.504904 2.324620 0.004724 -0.010709 379234.000000 1 0 0
-5.907509 11.578406 -14.825189 19.716601 -1.099008 2.421757 0.001641 -0.007833 -238937.000000 1 0 0
-15.633409 13.096206 3.546611 20.700061 -0.697314 1.398613 0.025177 -0.025791 -67039.600000 1 0 0
-15.164109 11.033706 -3.264089 19.035418 -0.629023 1.743122 0.038506 -0.009355 390797.000000 1 0 0
-18.236909 7.803706 -4.540089 20.349326 -0.404331 1.795798 0.052758 -0.009349 -834013.000000 1 0 0
-4.197509 16.111706 -10.679689 19.780341 -1.315936 2.141132 0.017280 -0.012201 -603668.000000 1 0 0
-15.886109 4.374106 -4.577089 17.101199 -0.268684 1.841747 0.020229 0.006637 -895201.000000 1 0 0
-18.745509 -1.840194 -6.220689 19.836265 0.097854 1.889780 0.040927 -0.018956 181359.000000 1 0 0
-10.907809 8.460406 -5.951589 15.032637 -0.659702 1.977856 0.000744 -0.001186 -535045.000000 1 0 0
-11.451809 13.791506 -6.950789 19.226623 -0.877820 1.940693 0.019264 -0.005771 273659.000000 1 0 0
-9.542109 10.266106 -4.402389 14.691011 -0.821932 1.875138 -0.008746 -0.001996 -815893.000000 1 0 0
-10.997509 6.397206 -0.267889 12.725612 -0.526852 1.591849 -0.000848 -0.001280 -1539790.000000 1 0 0
-14.618809 9.240206 -1.498689 17.359062 -0.563672 1.657239 0.019639 -0.002924 -580866.000000 1 0 0
-18.746109 3.499706 4.717411 19.644809 -0.184565 1.328291 0.064467 -0.017393 199046.000000 1 0 0
-14.739409 13.126906 0.503211 19.743836 -0.727597 1.545307 0.023308 -0.010330 51743.500000 1 0 0
-16.947009 2.409406 -8.932589 19.307965 -0.141226 2.051764 0.051658 -0.005770 -559471.000000 1 0 0
-9.194209 8.460206 -8.879489 15.328205 -0.743846 2.188655 0.006329 -0.004525 -1775600.000000 1 0 0
-17.594509 4.620006 -2.642289 18.381863 -0.256785 1.715040 0.032219 0.001190 525144.000000 1 0 0
-13.612609 5.720606 -4.423489 15.414140 -0.397835 1.861865 0.004539 0.007886 -162534.000000 1 0 0
-12.159209 9.571106 3.236111 15.809011 -0.666856 1.364639 -0.003768 -0.004431 1188850.000000 1 0 0
-17.413109 2.363206 -4.002989 18.022903 -0.134890 1.794770 0.023939 0.000847 941862.000000 1 0 0
-11.263109 1.283406 -12.581889 16.935427 -0.113458 2.408238 0.024619 -0.003081 -253229.000000 1 0 0
-11.129709 11.906106 3.605811 16.692143 -0.819089 1.353062 0.002049 -0.009322 132867.000000 1 0 0
-15.957609 13.190606 -4.434289 21.173103 -0.690753 1.781789 0.052324 -0.023024 376168.000000 1 0 0
-11.186309 4.066206 -4.525189 12.733612 -0.348649 1.934110 0.001226 -0.001221 45682.300000 1 0 0
-11.167509 14.910606 -9.265089 20.805799 -0.927958 2.032320 0.029952 -0.032241 308716.000000 1 0 0
-15.462209 7.181506 -0.356289 17.052298 -0.434810 1.591692 0.020187 0.000650 -721105.000000 1 0 0
-12.769409 8.268806 -4.145589 15.767589 -0.574650 1.836842 0.003865 0.000920 566283.000000 1 0 0
-19.149709 1.873206 -5.876089 20.118367 -0.097509 1.867193 0.072537 -0.018513 507046.000000 1 0 0
-12.683309 9.994406 -8.886289 18.431511 -0.667379 2.073875 0.016092 -0.016501 569441.000000 1 0 0
-16.516009 10.955506 -1.020289 19.845469 -0.585687 1.622231 0.027308 -0.014484 -153754.000000 1 0 0
-10.573709 6.451406 -14.484589 19.058522 -0.547839 2.434118 0.023928 -0.023148 -196083.000000 1 0 0
-13.457809 12.711406 -4.247589 18.993011 -0.756884 1.796343 0.026549 -0.020960 -586282.000000 1 0 0
-17.994809 7.799706 -0.148989 19.613025 -0.408999 1.578393 0.064474 -0.012064 51357.500000 1 0 0
-12.693209 6.555206 -2.108189 14.440663 -0.476708 1.717310 -0.003112 0.001957 95065.800000 1 0 0
-13.836509 8.386006 -10.600189 19.342649 -0.544877 2.150793 0.017590 -0.013522 -571311.000000 1 0 0
-14.890609 1.268006 -0.983089 14.976800 -0.084950 1.636484 0.011038 -0.002678 -1373620.000000 1 0 0
-13.370009 2.659906 -2.404489 13.842464 -0.196382 1.745386 0.010180 0.001077 -673756.000000 1 0 0
-11.338509 9.015006 -10.844489 18.095167 -0.671733 2.213427 0.008710 -0.016380 -863419.000000 1 0 0
-15.533409 4.265406 -7.990789 17.981468 -0.267990 2.031290 0.023241 0.001505 480500.000000 1 0 0
-18.317409 10.314406 4.584011 21.515752 -0.512840 1.356097 0.079561 -0.043346 404911.000000 1 0 0
-15.390809 6.214206 -6.299089 17.753081 -0.383744 1.933514 0.017316 0.005150 693497.000000 1 0 0
-7.744509 11.207406 -12.938289 18.787833 -0.966125 2.330425 -0.006645 -0.015437 -525114.000000 1 0 0
-16.853809 9.164606 -2.816189 19.389992 -0.498048 1.716551 0.040557 -0.015610 428624.000000 1 0 0
-20.672109 -0.923594 -4.851089 21.253757 0.044649 1.801072 0.087146 -0.031383 1205790.000000 1 0 0
-15.483509 4.280306 4.171911 16.597136 -0.269707 1.316708 0.013133 -0.004808 -644914.000000 1 0 0
-6.881409 12.515506 -9.435489 17.117831 -1.068083 2.154608 0.007176 -0.013394 -1997210.000000 1 0 0
-17.327909 1.525106 5.642811 18.287255 -0.087788 1.257112 0.042217 -0.017873 162683.000000 1 0 0
-10.570609 14.220806 -3.348789 18.032844 -0.931584 1.757586 0.027148 -0.010315 195440.000000 1 0 0
-9.988009 8.316406 -12.893289 18.307371 -0.694328 2.352187 -0.005681 -0.016787 383207.000000 1 0 0
-13.677209 11.655606 2.869511 18.197618 -0.705765 1.412449 0.011502 -0.010783 -933912.000000 1 0 0
-16.661209 6.646306 1.883311 18.036522 -0.379565 1.466189 0.014623 -0.005169 529754.000000 1 0 0
-9.341209 13.304106 -8.513389 18.350346 -0.958642 2.053230 0.020115 -0.019289 -769873.000000 1 0 0
-5.666609 9.691306 -12.996889 17.174137 -1.041695 2.429155 0.005071 -0.005573 -406402.000000 1 0 0
-15.988009 1.707806 3.136911 16.382101 -0.106414 1.378122 0.017932 -0.005776 -1148110.000000 1 0 0
-18.622609 -4.842894 4.448711 19.749588 0.254419 1.343591 0.063536 -0.012341 266322.000000 1 0 0
-5.259809 14.431006 -9.053189 17.829182 -1.221281 2.103395 0.003753 -0.013028 -79416.200000 1 0 0
-15.376309 -0.880294 -6.812789 16.841018 0.057188 1.987267 0.014149 -0.001798 540764.000000 1 0 0
-8.939209 10.996206 -9.615389 17.125469 -0.888217 2.166954 -0.001816 -0.014663 117128.000000 1 0 0
-16.616309 1.241106 -6.039189 17.723258 -0.074554 1.918510 0.009455 -0.002029 -408520.000000 1 0 0
-11.185109 8.690706 -1.580489 14.252473 -0.660551 1.681917 -0.003956 -0.001134 -36056.700000 1 0 0
-10.823009 10.768406 -12.740589 19.885137 -0.782869 2.266218 0.023718 -0.024169 -72521.800000 1 0 0
-13.928709 11.665106 -10.343989 20.906500 -0.697184 2.088371 0.048788 -0.031440 -166577.000000 1 0 0
-13.262909 5.527406 -7.647789 16.277151 -0.394868 2.059915 0.008389 0.004221 857333.000000 1 0 0
-8.857709 15.373506 -4.944189 18.418705 -1.048085 1.842562 0.017952 -0.009209 -467403.000000 1 0 0
-8.650309 5.967806 -12.868989 16.614856 -0.603912 2.456795 0.004186 -0.013747 217228.000000 1 0 0
-16.343409 7.436906 4.323211 18.469021 -0.427037 1.334525 0.017983 -0.006735 47213.800000 1 0 0
-12.698409 5.191206 -10.112089 17.042669 -0.388076 2.205998 0.009987 -0.003451 269113.000000 1 0 0
-12.499209 8.881906 -13.287589 20.289862 -0.617803 2.284831 0.048930 -0.031299 -620521.000000 1 0 0
-10.792009 5.155406 -8.486889 14.665366 -0.445654 2.187934 0.004587 -0.000692 -507143.000000 1 0 0
-17.843209 -4.658494 -2.773989 18.648772 0.255379 1.720100 0.035476 -0.010483 440596.000000 1 0 0
-8.811409 13.139706 -11.020289 19.280549 -0.980080 2.179221 0.025256 -0.022971 285972.000000 1 0 0
-15.107109 5.995706 6.181411 17.389165 -0.377814 1.207374 0.014242 -0.009975 -1257030.000000 1 0 0
-16.457809 -3.307494 -4.580489 17.400571 0.198326 1.837173 0.023649 -0.009820 -394988.000000 1 0 0
-11.172909 -1.401794 -12.506789 16.829103 0.124812 2.408584 0.018235 -0.002774 -305642.000000 1 0 0
-15.354409 6.780906 -8.709789 18.910288 -0.415868 2.049450 0.008636 0.002198 -95424.900000 1 0 0
-14.772309 9.425306 1.041311 17.553969 -0.567921 1.511441 0.014089 -0.010235 -131184.000000 1 0 0
-19.556909 5.201606 7.829411 21.698596 -0.259954 1.201643 0.085481 -0.032485 432335.000000 1 0 0
-16.358509 0.597206 0.793211 16.388614 -0.036491 1.522377 0.034632 -0.011548 -1157870.000000 1 0 0
-17.590709 3.647706 6.982011 19.274005 -0.204468 1.200115 0.034216 -0.017676 505652.000000 1 0 0
-15.428409 3.895406 -1.285989 15.964453 -0.247314 1.651437 0.015975 0.000581 -1301560.000000 1 0 0
-10.726609 13.184906 0.426811 17.002472 -0.887846 1.545691 0.009912 -0.010078 -1559480.000000 1 0 0
-13.448109 3.154006 0.165211 13.814003 -0.230368 1.558836 0.009408 -0.001508 -737299.000000 1 0 0
-15.066709 0.108406 -4.304989 15.670048 -0.007195 1.849102 0.017833 -0.002141 -700048.000000 1 0 0
-18.774109 6.812106 3.304611 20.243330 -0.348073 1.406818 0.039153 -0.011269 548243.000000 1 0 0
-14.086609 1.306706 -6.329989 15.498671 -0.092498 1.991520 0.011340 0.001504 -1464960.000000 1 0 0
-14.332409 11.959106 5.366011 19.422467 -0.695373 1.290877 0.011038 -0.017389 416591.000000 1 0 0
17.676591 5.611406 6.161811 19.542714 0.307387 1.250024 0.094742 -0.016701 -542593.000000 1 0 0
18.567091 7.740506 -0.299789 20.118205 0.394985 1.585698 0.056459 0.000034 450073.000000 1 0 0
16.563391 5.220306 8.473711 19.323594 0.305317 1.116849 0.109452 -0.017783 253431.000000 1 0 0
11.434491 12.374406 11.012011 20.128037 0.824855 0.991903 0.026881 -0.013314 565387.000000 1 0 0
-2.323209 16.220906 -0.547289 16.395567 -1.428541 1.604183 0.002972 -0.004243 -23180.000000 1 0 0
15.111391 12.729506 3.440311 20.055677 0.700053 1.398406 0.082568 -0.013528 332800.000000 1 0 0
13.558391 11.793206 6.678811 19.170712 0.715882 1.214947 0.060814 -0.008799 780541.000000 1 0 0
-0.809409 15.937406 8.561311 18.109447 -1.520053 1.078383 0.020704 -0.004805 408323.000000 1 0 0
0.647391 13.049506 9.427111 16.111460 1.521227 0.945770 0.018162 -0.000274 423319.000000 1 0 0
0.744091 15.618406 -3.933289 16.123245 1.523190 1.817235 0.010007 -0.009795 -1369770.000000 1 0 0
5.696591 10.434106 13.676211 18.120719 1.071061 0.715557 0.027643 -0.005250 96123.400000 1 0 0
-1.362409 16.451306 -2.870589 16.755354 -1.488170 1.742969 0.009695 -0.003916 -623306.000000 1 0 0
8.529991 10.052106 3.241711 13.576239 0.867129 1.329689 0.014293 -0.004095 256412.000000 1 0 0
12.418091 13.708506 -4.984789 19.156728 0.834749 1.834037 0.105656 -0.023182 789428.000000 1 0 0
2.395791 11.696806 7.730511 14.223779 1.368766 0.996205 0.018636 0.002958 685244.000000 1 0 0
-0.333509 14.942906 -8.715589 17.302114 -1.548481 2.098707 0.016349 -0.006468 -1809230.000000 1 0 0
2.273291 15.947906 0.286811 16.111667 1.429205 1.552994 0.013202 -0.015052 -1027050.000000 1 0 0
1.836491 13.464306 5.303811 14.587345 1.435236 1.198678 0.012323 0.000985 138561.000000 1 0 0
17.597191 9.363506 -2.115789 20.045272 0.488998 1.676544 0.041378 0.002615 376820.000000 1 0 0
-7.275609 14.870106 7.221011 18.060939 -1.115763 1.159483 0.003997 -0.013638 -1061710.000000 1 0 0
8.551891 15.850006 -0.118089 18.010315 1.076011 1.577353 0.039121 -0.020296 -695626.000000 1 0 0
15.588791 10.532306 2.167211 18.937705 0.594185 1.456106 0.057418 -0.001810 693968.000000 1 0 0
14.130591 7.547906 8.764411 18.260870 0.490596 1.070192 0.072686 -0.017729 -761942.000000 1 0 0
4.147991 18.400206 -1.742489 18.942272 1.349071 1.662916 0.019199 -0.028473 -532417.000000 1 0 0
-0.477209 17.623006 -4.871989 18.290280 -1.543724 1.840422 0.020792 -0.006348 609465.000000 1 0 0
1.250891 13.752806 -0.847189 13.835538 1.480091 1.632067 0.003255 -0.007650 454699.000000 1 0 0
10.218391 14.829506 4.224411 18.497984 0.967452 1.340392 0.035184 -0.014149 -699590.000000 1 0 0
-1.648309 15.273806 -5.216689 16.224053 -1.463295 1.898152 0.010645 -0.006073 786622.000000 1 0 0
15.129091 8.995706 -6.144489 18.643145 0.536437 1.906660 0.072685 -0.008223 794944.000000 1 0 0
-2.371909 18.477606 0.814411 18.647014 -1.443128 1.527107 0.012501 -0.010199 -1317300.000000 1 0 0
-3.867209 19.439106 3.438811 20.116152 -1.374421 1.399005 0.022373 -0.011786 2526.780000 1 0 0
1.837291 17.706506 -2.654689 17.998426 1.467403 1.718832 0.013434 -0.013203 -108201.000000 1 0 0
2.662791 12.419206 3.226911 13.104964 1.359585 1.322002 0.008911 -0.000385 371324.000000 1 0 0
-2.642309 16.224306 1.971211 16.555832 -1.409353 1.451449 0.002672 -0.002841 -716280.000000 1 0 0
11.796391 12.860206 -2.668589 17.653926 0.828517 1.722539 0.068611 -0.006357 466685.000000 1 0 0
7.300491 11.612406 4.730411 14.509374 1.009555 1.238701 0.009539 -0.004795 -88168.000000 1 0 0
7.014991 15.672006 1.884311 17.273462 1.149929 1.461492 0.019171 -0.018784 -2500770.000000 1 0 0
5.487191 12.248306 10.224611 16.872253 1.149610 0.919772 0.024625 0.002611 1902820.000000 1 0 0
-1.378309 14.216806 3.204511 14.638517 -1.474149 1.350100 -0.002237 0.002185 -1140050.000000 1 0 0
4.491591 16.057806 1.501411 16.741617 1.298053 1.480994 0.018161 -0.023259 -2862770.000000 1 0 0
7.273991 13.307106 11.841711 19.241001 1.070548 0.907850 0.036841 -0.008473 228273.000000 1 0 0
0.856491 17.087906 -9.470189 19.555423 1.520716 2.076330 0.029743 -0.010719 485095.000000 1 0 0
9.817591 9.585406 15.603111 20.777925 0.773432 0.721302 0.047705 -0.007543 62629.200000 1 0 0
13.554191 7.711606 -0.132189 15.594949 0.517273 1.579273 0.022435 0.002156 482902.000000 1 0 0
12.513691 13.519706 -0.278189 18.424231 0.824022 1.585896 0.079381 -0.017981 243583.000000 1 0 0
9.456691 12.443106 3.487511 16.013201 0.920929 1.351247 0.024140 -0.005058 2074760.000000 1 0 0
-0.774609 13.077606 0.754811 13.122253 -1.511634 1.513243 -0.000684 -0.003689 -1332840.000000 1 0 0
16.093891 7.601006 -1.033689 17.828548 0.441236 1.628808 0.035337 0.003308 -372882.000000 1 0 0
-4.264009 18.357206 -2.377989 18.995357 -1.342564 1.696314 0.033207 -0.008035 147040.000000 1 0 0
11.363891 9.220306 -3.230989 14.986372 0.681635 1.788098 0.034426 -0.002494 -22071.800000 1 0 0
14.728291 9.857906 7.866411 19.390237 0.589836 1.153064 0.067707 -0.017595 -129872.000000 1 0 0
4.433191 13.823006 4.685011 15.253786 1.260448 1.258613 0.022690 -0.005027 1127240.000000 1 0 0
2.090591 16.066006 5.678911 17.167910 1.441398 1.233660 0.031518 -0.010893 178170.000000 1 0 0
6.284791 18.426306 5.445711 20.215912 1.242093 1.298050 0.044705 -0.025041 511079.000000 1 0 0
10.817891 17.060206 -0.654989 20.211541 1.005679 1.603209 0.108700 -0.027909 -805007.000000 1 0 0
9.873691 13.613506 -4.407089 17.385044 0.943300 1.827092 0.084522 -0.017721 343599.000000 1 0 0
16.503591 8.027906 2.222511 18.486626 0.452736 1.450282 0.027007 -0.001843 -261763.000000 1 0 0
3.843391 14.075306 -0.477989 14.598437 1.304235 1.603545 0.006454 -0.010161 -713600.000000 1 0 0
5.476291 13.187606 -2.347489 14.471123 1.177204 1.733735 0.008489 -0.010263 -665948.000000 1 0 0
-6.250609 16.729006 -3.008289 18.110206 -1.213219 1.737680 0.021721 -0.001465 -988764.000000 1 0 0
18.180091 10.037606 2.449011 20.910927 0.504470 1.453411 0.083876 -0.013664 995069.000000 1 0 0
7.923991 12.923906 9.314111 17.792404 1.020781 1.019857 0.022354 -0.005615 441876.000000 1 0 0
-2.668409 15.787106 6.688711 17.352002 -1.403354 1.175077 0.002906 -0.003985 -146804.000000 1 0 0
11.277491 16.129906 6.295911 20.663837 0.960630 1.261191 0.046757 -0.013168 -374465.000000 1 0 0
13.584591 12.089506 1.440511 18.242048 0.727231 1.491748 0.064618 -0.007643 651618.000000 1 0 0
17.497991 7.967706 -5.561589 20.014877 0.427294 1.852375 0.058745 0.010856 -567644.000000 1 0 0
9.464691 9.306306 7.986211 15.490877 0.776961 1.029155 0.014017 -0.002234 -684730.000000 1 0 0
-2.030009 14.104006 -2.100889 14.403390 -1.427847 1.717179 -0.001226 -0.000393 808446.000000 1 0 0
10.992991 11.663206 0.781611 16.046406 0.814971 1.522068 0.037981 -0.003513 85683.000000 1 0 0
11.720591 9.816906 -0.635389 15.301882 0.697238 1.612332 0.035366 -0.001797 -963767.000000 1 0 0
-0.512509 16.247806 11.169311 19.723270 -1.539264 0.968785 0.038686 -0.003553 363018.000000 1 0 0
2.156191 20.196006 -1.538489 20.368965 1.464436 1.646399 0.030768 -0.024793 -161593.000000 1 0 0
9.238491 14.391606 1.815411 17.197783 1.000111 1.465039 0.033051 -0.014244 -278349.000000 1 0 0
8.343591 11.649706 -5.117589 15.215810 0.949276 1.913817 0.032390 -0.005847 -1215690.000000 1 0 0
10.712791 10.108606 10.216311 17.925424 0.756389 0.964371 0.020914 -0.006835 765313.000000 1 0 0
-5.206009 15.704906 5.761411 17.519716 -1.250706 1.235708 -0.012177 -0.002730 1210830.000000 1 0 0
14.461791 9.256706 -1.903389 17.275789 0.569370 1.681197 0.048686 0.000982 -143541.000000 1 0 0
12.178791 9.661706 6.928911 17.020027 0.670656 1.151516 0.028762 -0.010266 -219113.000000 1 0 0
3.042791 12.997806 9.739411 16.524456 1.340837 0.940488 0.025281 -0.002877 -1132350.000000 1 0 0
8.382891 12.642406 -2.605189 15.391241 0.985283 1.740880 0.035357 -0.009341 -719359.000000 1 0 0
9.223591 17.072806 2.027911 19.510708 1.075469 1.466670 0.025140 -0.016039 -436083.000000 1 0 0
9.511891 14.307506 -7.416289 18.713154 0.984074 1.978295 0.101483 -0.019352 210064.000000 1 0 0
6.364291 11.598606 7.243011 15.082873 1.068943 1.069897 0.012496 0.002605 -652282.000000 1 0 0
5.513291 17.071606 -5.458589 18.751861 1.258419 1.866168 0.041983 -0.009113 -648761.000000 1 0 0
-4.194309 17.215006 -4.679789 18.326185 -1.331810 1.829017 0.026073 -0.005062 457578.000000 1 0 0
-0.194309 18.591506 -0.521389 18.599830 -1.560345 1.598832 0.017421 -0.017140 -381527.000000 1 0 0
6.678491 15.590306 -2.712289 17.176041 1.166071 1.729371 0.024634 -0.012441 626895.000000 1 0 0
-0.928509 20.699606 0.832311 20.737130 -1.525970 1.530649 0.019626 -0.017652 -106800.000000 1 0 0
-1.366609 18.915206 4.251311 19.435181 -1.498672 1.350270 0.011706 -0.009411 1193410.000000 1 0 0
7.103791 13.787206 -4.353389 16.109093 1.095027 1.844443 0.027721 -0.008645 647696.000000 1 0 0
-0.956509 12.029506 7.688811 14.308799 -1.491450 1.003506 0.002424 0.004940 408116.000000 1 0 0
7.681191 10.971806 10.941011 17.294130 0.960014 0.885835 0.020635 -0.002459 469364.000000 1 0 0
1.375391 16.049506 -7.220589 17.652627 1.485308 1.992196 0.015122 -0.012026 -661011.000000 1 0 0
8.888991 7.268906 14.798611 18.730991 0.685466 0.659889 0.041457 0.000233 -418482.000000 1 0 0
11.263891 11.348906 -4.814989 16.699012 0.789158 1.863289 0.080024 -0.007834 -740247.000000 1 0 0
-3.492809 17.063106 4.459511 17.978780 -1.368886 1.320137 -0.004072 -0.000007 1315.720000 1 0 0
3.883391 15.491106 -6.750989 17.338712 1.325173 1.970732 0.029636 -0.011607 -2679.120000 1 0 0
-4.544509 14.058206 9.383711 17.502564 -1.258136 1.004946 0.012764 -0.012063 -1210660.000000 1 0 0
6.122691 17.709506 0.448511 18.743401 1.237931 1.546865 0.020037 -0.030117 -376080.000000 1 0 0
9.737691 10.780306 -2.131489 14.682672 0.836169 1.716481 0.042602 -0.005830 -741016.000000 1 0 0
7.414491 18.059806 -2.446789 19.675315 1.181227 1.695477 0.045174 -0.017643 240888.000000 1 0 0
3.500991 10.500206 10.490111 15.249711 1.248967 0.812220 0.020147 0.003498 1315320.000000 1 0 0
-0.023109 18.579106 2.019811 18.688588 -1.569553 1.462508 0.015391 -0.015269 -972.430000 1 0 0
-0.974409 17.147006 -7.407589 18.704054 -1.514031 1.977999 0.027535 -0.011217 267180.000000 1 0 0
10.451291 8.727406 13.241911 18.993296 0.695754 0.799328 0.047384 -0.003778 -63134.800000 1 0 0
3.654891 11.492406 5.438811 13.229296 1.262884 1.147115 0.010354 0.001095 1211530.000000 1 0 0
13.114691 13.900406 8.212911 20.800680 0.814474 1.164904 0.053235 -0.023042 -186004.000000 1 0 0
-0.640009 17.463506 6.710411 18.719328 -1.534164 1.204163 0.024914 -0.009406 -345386.000000 1 0 0
12.041291 13.592706 5.700811 19.032960 0.845846 1.266604 0.044406 -0.012379 -218063.000000 1 0 0
4.793291 14.734506 -4.422489 16.113339 1.256284 1.848826 0.013936 -0.009110 -1006520.000000 1 0 0
3.808991 17.682906 4.715411 18.693011 1.358633 1.315786 0.040922 -0.016581 272882.000000 1 0 0
7.017991 11.716406 2.094311 13.817109 1.031121 1.418636 0.016313 -0.005298 929435.000000 1 0 0
6.431291 8.838106 11.767311 16.060611 0.941735 0.748543 0.019395 -0.000001 662086.000000 1 0 0
-5.380209 14.868906 1.692311 15.902670 -1.223610 1.464178 -0.006446 0.005079 -95299.800000 1 0 0
6.782491 13.812306 5.944111 16.495891 1.114337 1.202165 0.021472 -0.008197 624293.000000 1 0 0
5.946191 15.918106 4.861711 17.674261 1.213298 1.292131 0.025170 -0.019568 1271490.000000 1 0 0
1.209991 18.167706 4.355811 18.721717 1.504293 1.335984 0.041857 -0.014359 2430750.000000 1 0 0
7.487691 18.103106 -6.835489 20.748780 1.178609 1.906507 0.048612 -0.014376 364943.000000 1 0 0
-2.477309 18.737206 -5.950589 19.814879 -1.439345 1.875813 0.040077 -0.009597 -1775650.000000 1 0 0
13.411191 10.047606 -4.441489 17.336125 0.642986 1.829884 0.056574 -0.007313 -2708040.000000 1 0 0
-1.802909 18.004706 10.004111 20.676125 -1.470994 1.065749 0.035800 -0.007871 -155797.000000 1 0 0
3.351291 11.837706 -1.544989 12.399573 1.294912 1.695721 0.008156 -0.007167 -177140.000000 1 0 0
4.278291 13.997606 -10.781989 18.179330 1.274169 2.205688 0.026688 -0.022108 144526.000000 1 0 0
11.552091 13.529706 2.303211 17.939022 0.864082 1.442050 0.057885 -0.012891 -697072.000000 1 0 0
15.982791 6.776006 -7.274289 18.822304 0.400986 1.967599 0.054381 0.003226 316452.000000 1 0 0
2.417691 16.231506 3.004411 16.683330 1.422933 1.389724 0.023136 -0.012238 -186437.000000 1 0 0
13.387091 10.738106 3.670811 17.549814 0.676035 1.360075 0.043051 0.000225 303741.000000 1 0 0
-5.083509 19.386506 -5.772089 20.856550 -1.314351 1.851209 0.040196 -0.015646 677185.000000 1 0 0
5.336191 12.112806 0.078211 13.236356 1.155836 1.564887 0.011094 -0.007540 971873.000000 1 0 0
4.822091 15.371706 9.575011 18.740937 1.266819 1.034548 0.042936 -0.010161 -213856.000000 1 0 0
7.959091 9.482606 13.858811 18.583153 0.872526 0.729102 0.037281 -0.009203 -2128800.000000 1 0 0
-5.078309 13.506906 6.928511 16.007186 -1.211168 1.123158 -0.008704 -0.000066 -1492350.000000 1 0 0
-4.569909 17.045506 0.447411 17.653144 -1.308856 1.545449 0.010980 -0.002529 -1605400.000000 1 0 0
-0.676109 16.553806 3.586811 16.951425 -1.529976 1.357591 0.011776 -0.007792 -1399950.000000 1 0 0
7.975491 16.784406 -4.721489 19.173346 1.127207 1.819608 0.053100 -0.021284 353707.000000 1 0 0
3.061791 16.619906 -4.576389 17.508260 1.388615 1.835253 0.006336 -0.007386 -301237.000000 1 0 0
9.669691 14.397206 8.108711 19.145069 0.979361 1.133446 0.031490 -0.011396 54424.100000 1 0 0
12.801391 11.085806 9.151811 19.249061 0.713701 1.075330 0.047040 -0.015932 -471952.000000 1 0 0
3.744891 12.569606 12.226711 17.930746 1.281238 0.820459 0.038844 -0.002833 715313.000000 1 0 0
-3.424909 19.387406 5.855411 20.539896 -1.395944 1.281712 0.019977 -0.006948 252203.000000 1 0 0
-2.902309 15.700506 10.186411 18.939172 -1.388005 1.002913 0.023133 -0.012466 -506906.000000 1 0 0
2.081991 14.395706 7.635011 16.427551 1.427166 1.087423 0.030065 -0.006526 -111193.000000 1 0 0
4.590291 17.340606 7.877111 19.591229 1.312018 1.157016 0.052778 -0.015219 386298.000000 1 0 0
-2.010909 13.479506 9.438811 16.578057 -1.422706 0.965074 0.011754 -0.002598 -1674710.000000 1 0 0
5.792891 17.714806 2.976511 18.874097 1.254749 1.412432 0.020035 -0.028060 571489.000000 1 0 0
7.227891 15.531006 -6.895489 18.466248 1.135222 1.953479 0.032403 -0.004870 -447410.000000 1 0 0
10.919491 7.646006 9.356311 16.286106 0.610871 0.958807 0.011248 -0.009859 653842.000000 1 0 0
9.260091 16.289306 -2.571089 18.912992 1.053878 1.707162 0.074812 -0.021636 -214915.000000 1 0 0
14.235791 11.443606 -6.394689 19.352155 0.677091 1.907564 0.094458 -0.018594 443388.000000 1 0 0
11.026091 6.521606 15.927611 20.440030 0.534124 0.677350 0.098552 -0.029076 -1232050.000000 1 0 0
8.541691 8.613106 10.272811 15.895808 0.789561 0.868124 0.013178 0.000768 871257.000000 1 0 0
16.669791 9.420406 4.352011 19.635834 0.514376 1.347304 0.081728 -0.010553 328580.000000 1 0 0
-3.516109 14.377506 4.655511 15.516104 -1.330948 1.266058 -0.007116 0.004128 -1626140.000000 1 0 0
4.584091 15.097006 12.418811 20.078853 1.276001 0.903961 0.041162 -0.005449 -189899.000000 1 0 0
15.867091 10.795406 -4.412789 19.692081 0.597426 1.796805 0.069650 -0.018469 46914.900000 1 0 0
14.631391 13.944706 6.078111 21.106299 0.761373 1.278684 0.079745 -0.012109 -44118.900000 1 0 0
6.185191 9.661906 9.260111 14.743089 1.001368 0.891689 0.010487 0.004214 1399730.000000 1 0 0
10.463691 12.113306 8.621211 18.180932 0.858335 1.076753 0.032459 -0.012011 -927725.000000 1 0 0
7.899491 11.585806 -0.293289 14.025650 0.972373 1.591709 0.011355 -0.006428 121288.000000 1 0 0
7.460391 13.560406 -8.688089 17.748941 1.067830 2.082311 0.048120 -0.015925 -1161290.000000 1 0 0
2.791391 15.376206 -2.280889 15.793100 1.391212 1.715726 0.009142 -0.012383 223321.000000 1 0 0
12.193091 14.067806 -7.592289 20.105160 0.856665 1.958031 0.128460 -0.024297 -445932.000000 1 0 0
-8.064809 14.579006 9.754211 19.306299 -1.065515 1.041142 0.028945 -0.021423 303949.000000 1 0 0
11.551091 9.613106 2.157411 15.182026 0.694084 1.428211 0.036341 -0.001860 -2567900.000000 1 0 0
12.029591 8.728606 4.523911 15.535939 0.627698 1.275326 0.025693 -0.002442 159309.000000 1 0 0
14.059691 8.080606 6.146711 17.342236 0.521636 1.208486 0.038567 -0.009769 -2832050.000000 1 0 0
16.243291 7.433106 7.224711 19.268939 0.429165 1.186463 0.106205 -0.020577 175871.000000 1 0 0
13.542091 8.388806 2.415911 16.112011 0.554607 1.420284 0.033128 -0.000946 -2510400.000000 1 0 0
-4.185909 17.235006 -7.211389 19.146054 -1.332537 1.956975 0.029743 -0.018700 75644.000000 1 0 0
3.346091 19.559506 -3.804489 20.205067 1.401364 1.760221 0.036893 -0.018507 648128.000000 1 0 0
-0.119809 14.882806 6.279411 16.153738 -1.562746 1.171546 0.011005 -0.003561 -663279.000000 1 0 0
6.927291 16.005106 8.249211 19.292492 1.162323 1.128975 0.049156 -0.020818 -154622.000000 1 0 0
12.706591 15.264206 -2.286089 19.991989 0.876583 1.685397 0.121890 -0.025202 -354197.000000 1 0 0
12.585191 15.720406 4.185611 20.567876 0.895712 1.365863 0.064981 -0.015560 -532848.000000 1 0 0
2.863491 18.200806 1.316611 18.471664 1.414748 1.499458 0.025351 -0.021492 -460451.000000 1 0 0
10.405791 14.491406 -1.185489 17.879785 0.948048 1.637148 0.071431 -0.008408 -1811680.000000 1 0 0
-6.414609 15.647606 -0.631189 16.923155 -1.181749 1.608102 0.001571 0.003426 5478.880000 1 0 0
-3.934209 15.782106 -2.576989 16.467961 -1.326493 1.727927 0.014681 -0.000845 -1299160.000000 1 0 0
-6.877109 16.950806 1.675511 18.369316 -1.185377 1.479457 0.010726 -0.002742 96738.800000 1 0 0
0.074191 19.394506 -6.516689 20.460195 1.566971 1.894949 0.043761 -0.015144 1238860.000000 1 0 0
4.818891 15.004506 7.064011 17.270123 1.260039 1.149405 0.035310 -0.008959 -737845.000000 1 0 0
8.713491 12.438506 6.821811 16.648677 0.959718 1.148615 0.021433 -0.007411 -211954.000000 1 0 0
-7.607809 17.562306 -5.692089 19.967804 -1.162009 1.859869 0.039200 -0.010721 135429.000000 1 0 0
-7.937009 17.641506 -1.394189 19.394912 -1.148021 1.642743 0.044029 -0.004238 538735.000000 1 0 0
-13.650909 -9.135694 9.255011 18.853739 0.589780 1.057691 0.041709 -0.022550 -753585.000000 1 0 0
-12.588709 -13.033094 7.511111 19.615146 0.802740 1.177837 0.049738 -0.011489 -163520.000000 1 0 0
-3.812109 -15.012694 12.358811 19.815483 1.322126 0.897336 0.028073 -0.021791 357373.000000 1 0 0
-2.002509 -14.232394 15.005211 20.778052 1.431013 0.763867 0.044245 -0.012276 -48427.400000 1 0 0
-7.241809 -13.812894 12.449511 19.955705 1.087915 0.897128 0.044095 -0.016516 -31761.300000 1 0 0
-9.941209 -11.568094 8.848611 17.633671 0.860891 1.045116 0.034217 -0.013744 328505.000000 1 0 0
-10.777209 -10.731394 11.071911 18.812184 0.783268 0.941532 0.064627 -0.030610 376559.000000 1 0 0
-6.054209 -12.314494 10.655211 17.373363 1.113865 0.910555 0.027385 -0.009461 796744.000000 1 0 0
-12.545709 -10.365394 7.192611 17.792410 0.690520 1.154636 0.027021 -0.010422 -384764.000000 1 0 0
-7.738109 -11.245494 12.356411 18.412506 0.968097 0.835121 0.040775 -0.022246 -656780.000000 1 0 0
-14.785909 -11.737994 7.288611 20.236785 0.670988 1.202350 0.048437 -0.003983 480958.000000 1 0 0
-11.077809 -9.189794 9.045011 16.999482 0.692512 1.009746 0.023803 -0.015559 -468056.000000 1 0 0
-5.419509 -12.114394 13.101511 18.648840 1.150139 0.791839 0.036174 -0.017946 -990164.000000 1 0 0
3.869291 -12.433894 14.666311 19.613103 -1.269106 0.726082 0.004915 -0.008532 932882.000000 1 0 0
6.436291 -12.776994 14.249711 20.192367 -1.104161 0.787389 0.032724 -0.005972 -102919.000000 1 0 0
6.591191 -8.202094 15.799111 18.982362 -0.893865 0.587544 0.031466 -0.023610 -837311.000000 1 0 0
0.774391 -1.818494 14.585111 14.718426 -1.168213 0.134695 0.006830 -0.002001 -2571010.000000 1 0 0
-0.177109 -6.442794 15.534911 16.818871 1.543314 0.393274 0.014352 -0.011852 -421643.000000 1 0 0
-1.463909 -4.804894 18.300311 18.977129 1.275060 0.267877 0.029315 -0.020164 -2827370.000000 1 0 0
-5.513309 12.566306 12.755011 18.734965 -1.157348 0.821924 0.015252 -0.014287 82873.400000 1 0 0
-4.202509 8.715806 11.599611 15.105540 -1.121513 0.695233 -0.006998 0.002545 -152133.000000 1 0 0
-0.676709 -3.940394 15.014611 15.537799 1.400719 0.260241 0.011707 -0.004054 402157.000000 1 0 0
-4.662509 9.163206 14.184711 17.518829 -1.100110 0.627183 -0.000109 -0.004350 321896.000000 1 0 0
-13.585609 -2.594394 16.867811 21.813361 0.188694 0.686800 0.042995 -0.009449 -5716.370000 1 0 0
-0.298309 0.886706 17.398311 17.423446 -1.246267 0.053720 0.009455 -0.002027 -700198.000000 1 0 0
-3.222909 -7.288394 15.393011 17.333569 1.154450 0.477718 0.022032 -0.014399 581774.000000 1 0 0
-7.520009 5.392006 12.522811 15.570647 -0.622058 0.636371 -0.011668 -0.002885 -1701450.000000 1 0 0
-9.903509 10.258406 13.338411 19.525050 -0.802999 0.818738 0.009720 -0.010547 -541136.000000 1 0 0
-5.554909 2.219706 11.167811 12.669022 -0.380156 0.491755 0.005851 -0.000034 -646468.000000 1 0 0
-7.132509 -7.615994 16.837311 19.808359 0.818168 0.554791 0.028688 -0.019363 -346280.000000 1 0 0
-4.880509 2.935106 18.467911 19.326095 -0.541443 0.299126 0.011534 -0.010504 -768392.000000 1 0 0
0.955691 -8.427894 16.447211 18.505499 -1.457882 0.476132 0.020974 -0.017049 622170.000000 1 0 0
-15.041409 -3.586694 13.992411 20.854159 0.234083 0.835287 0.048193 -0.023965 -3571.630000 1 0 0
-14.387509 2.218106 13.146711 19.615209 -0.152965 0.836277 0.021538 -0.010409 -919756.000000 1 0 0
-5.522909 0.913606 16.150511 17.093163 -0.163937 0.333654 0.017821 -0.004977 202852.000000 1 0 0
4.639791 5.874306 15.185911 16.930653 0.902278 0.457979 0.011156 0.005035 73322.300000 1 0 0
-1.184909 -12.118594 13.757911 18.372383 1.473330 0.724492 0.004505 -0.009600 180894.000000 1 0 0
-5.931009 -4.136794 16.806211 18.295865 0.609037 0.406324 0.026405 -0.010739 438274.000000 1 0 0
-13.053509 -1.632594 9.801211 16.404975 0.124423 0.930474 0.010170 -0.003585 -478736.000000 1 0 0
-15.008709 10.040406 9.936111 20.610614 -0.589597 1.067761 0.035935 -0.022615 381677.000000 1 0 0
-3.630209 -3.503794 17.762611 18.465247 0.767680 0.276751 0.025921 -0.007525 -2801990.000000 1 0 0
-8.003409 9.493706 11.772911 17.111003 -0.870367 0.812023 -0.005822 -0.005071 212375.000000 1 0 0
-4.813409 10.669206 16.229811 20.010188 -1.146987 0.624805 0.015327 -0.008948 47131.500000 1 0 0
-12.575709 12.631706 8.251811 19.641813 -0.787620 1.137225 0.021759 -0.022824 -43459.700000 1 0 0
-12.591309 3.085206 10.496611 16.680480 -0.240292 0.890176 0.000956 -0.006667 -39465.300000 1 0 0
-10.204709 -3.567494 13.692011 17.445179 0.336312 0.668327 0.025025 -0.012243 -916885.000000 1 0 0
-4.283909 -6.595094 17.677711 19.348091 0.994731 0.418580 0.039568 -0.016148 -349423.000000 1 0 0
0.755391 -3.741394 17.724911 18.131219 -1.371574 0.212102 0.026244 -0.021275 -905036.000000 1 0 0
-6.005109 1.674006 13.663811 15.018767 -0.271862 0.428037 0.005498 -0.000859 -564480.000000 1 0 0
-10.588309 8.591306 10.237011 17.050490 -0.681651 0.926803 0.002253 -0.014038 -168892.000000 1 0 0
4.590191 2.457606 17.342811 18.107534 0.491568 0.291661 0.013382 -0.003530 -1105440.000000 1 0 0
0.560091 -5.436194 13.270911 14.352108 -1.468129 0.390638 0.007281 -0.003469 -1163350.000000 1 0 0
-4.291509 5.625306 20.562111 21.745379 -0.919094 0.331408 0.047355 -0.019028 -163817.000000 1 0 0
-10.903109 10.828806 9.060111 17.838902 -0.781979 1.038069 0.007902 -0.013891 65834.800000 1 0 0
0.670591 4.146206 13.185611 13.838391 1.410449 0.308374 0.008321 -0.000539 -2478040.000000 1 0 0
-3.261109 7.067406 13.386911 15.485233 -1.138478 0.526651 -0.003906 0.001868 -1123720.000000 1 0 0
0.422691 8.920006 14.184811 16.761683 1.523445 0.561863 0.013933 0.001350 56965.300000 1 0 0
-4.137709 -6.678994 13.057911 15.239378 1.016154 0.541661 0.015553 -0.008186 258650.000000 1 0 0
-5.318709 8.106606 16.501211 19.138853 -0.990148 0.531231 0.007942 -0.002547 102082.000000 1 0 0
1.496391 -10.754794 15.734211 19.117275 -1.432547 0.604060 0.000545 -0.010520 -152272.000000 1 0 0
-15.138109 -1.018494 14.125711 20.730060 0.067179 0.821106 0.019517 -0.008368 333742.000000 1 0 0
-13.390209 -5.282794 8.477711 16.705604 0.375779 1.038542 0.026026 -0.012464 -921570.000000 1 0 0
-14.259909 -2.036894 12.025111 18.764254 0.141881 0.875189 0.027158 -0.012199 610217.000000 1 0 0
9.301791 1.101306 16.956811 19.371877 0.117849 0.504676 0.094432 -0.020931 -360650.000000 1 0 0
4.849791 -6.764094 17.001811 18.929739 -0.948758 0.455245 0.042442 -0.014778 -297042.000000 1 0 0
-6.097709 -2.720994 11.156611 13.002147 0.419716 0.539318 0.012413 -0.001393 249544.000000 1 0 0
0.525791 -6.410594 17.999211 19.113968 -1.488960 0.343213 0.035015 -0.025735 -284542.000000 1 0 0
-8.617209 12.042906 12.022611 19.074356 -0.949715 0.888854 0.011224 -0.010982 182287.000000 1 0 0
-6.761309 -5.801994 14.887511 17.349825 0.709188 0.539280 0.027486 -0.011127 -488236.000000 1 0 0
-4.454609 -9.009594 17.024711 19.770107 1.111615 0.533300 0.045087 -0.022870 278190.000000 1 0 0
2.435691 -6.296794 16.197711 17.548449 -1.201708 0.394918 0.028146 -0.016564 -350748.000000 1 0 0
2.236991 5.342306 16.049011 17.062096 1.174247 0.346333 0.010083 -0.003256 -1250980.000000 1 0 0
0.830791 -8.929494 13.981011 16.610080 -1.478024 0.570338 0.002945 -0.007288 -707270.000000 1 0 0
-10.053709 -2.896994 11.272411 15.379756 0.280552 0.748165 0.003398 -0.002052 104500.000000 1 0 0
-1.396509 10.151506 12.456611 16.129800 -1.434088 0.688385 0.009171 0.001961 -298448.000000 1 0 0
-12.351009 -3.785494 11.225911 17.114277 0.297403 0.855371 0.019228 -0.008019 -1071600.000000 1 0 0
-1.917709 6.518106 20.144311 21.259270 -1.284657 0.325302 0.028852 -0.013850 -363926.000000 1 0 0
0.459491 -13.390494 15.463211 20.460385 -1.536495 0.713977 0.004612 -0.018900 -98003.500000 1 0 0
4.007691 -8.672594 15.344311 18.075491 -1.137918 0.556893 0.019977 -0.012478 206641.000000 1 0 0
4.437191 -4.459394 16.290311 17.462792 -0.787894 0.368529 0.040047 -0.008909 -4445.380000 1 0 0
7.946291 1.822406 14.785711 16.884370 0.225442 0.503904 0.014643 0.003153 -513929.000000 1 0 0
-6.475809 -0.156994 11.829111 13.486609 0.024238 0.501005 0.008518 -0.001660 389879.000000 1 0 0
-3.465309 -10.930294 18.308111 21.602468 1.263783 0.559537 0.068591 -0.028256 -1238490.000000 1 0 0
3.203291 -1.526694 13.713711 14.165371 -0.444754 0.253202 -0.001911 0.002654 -132274.000000 1 0 0
-2.868709 8.835206 15.976611 18.480867 -1.256844 0.526652 0.009354 0.001444 -775717.000000 1 0 0
-3.288609 3.915206 14.783911 15.643139 -0.872161 0.332978 0.005381 -0.003872 521183.000000 1 0 0
-5.035509 -9.238694 19.611511 22.255813 1.071765 0.492431 0.079473 -0.023818 165261.000000 1 0 0
-5.863909 -3.034094 19.112411 20.220668 0.477485 0.332615 0.032760 -0.015590 -4799.090000 1 0 0
-6.549209 -8.603494 11.156311 15.536265 0.920149 0.769754 0.020685 -0.011274 959078.000000 1 0 0
-11.726809 2.354006 12.739811 17.474615 -0.198104 0.753868 0.002154 -0.010368 -177432.000000 1 0 0
-11.740309 -7.526094 11.801611 18.268962 0.570056 0.868474 0.038015 -0.019318 -1605690.000000 1 0 0
-11.207109 -7.374294 15.449311 20.461200 0.581980 0.715060 0.062369 -0.039443 395247.000000 1 0 0
0.222691 5.775906 17.687511 18.608029 1.532260 0.315855 0.011093 -0.009077 29415.000000 1 0 0
-2.179309 -0.130494 13.193711 13.373123 0.059807 0.163988 0.011455 0.000914 272441.000000 1 0 0
-6.064409 -10.946094 17.959711 21.889387 1.064868 0.608554 0.072776 -0.027389 371330.000000 1 0 0
0.187691 2.814506 19.087211 19.294515 1.504208 0.146721 0.014679 -0.011149 -214570.000000 1 0 0
-1.013109 10.869406 14.909211 18.478499 -1.477857 0.632011 0.018611 -0.003156 -63941.400000 1 0 0
-12.862609 -2.253394 14.327311 19.385467 0.173430 0.739100 0.028733 -0.010901 -1569020.000000 1 0 0
-13.771809 8.462906 11.618911 19.906848 -0.551020 0.947563 0.018379 -0.019368 352063.000000 1 0 0
-17.957609 -0.750194 6.877511 19.244185 0.041752 1.205334 0.073149 -0.031488 -972975.000000 1 0 0
-2.128609 -7.880794 17.556711 19.361715 1.306991 0.435226 0.026158 -0.021097 -1920020.000000 1 0 0
5.635791 2.740506 14.680011 15.961680 0.452602 0.403472 0.008198 0.001293 -3003710.000000 1 0 0
-14.177009 -6.910394 11.192011 19.339138 0.453547 0.953634 0.050900 -0.022901 535621.000000 1 0 0
3.147291 7.749706 16.238311 18.265983 1.185027 0.475657 0.017924 -0.015349 -201688.000000 1 0 0
1.000891 2.065406 14.677911 14.856270 1.119546 0.155111 0.003766 0.000014 -2637180.000000 1 0 0
-14.398509 0.622106 9.620111 17.327741 -0.043179 0.982210 0.020168 -0.011460 -584438.000000 1 0 0
-9.740409 -5.211794 15.550811 19.075274 0.491308 0.617663 0.038929 -0.016096 -62222.100000 1 0 0
-2.648709 -0.070194 18.160311 18.352588 0.026495 0.144880 0.022441 -0.009048 -19343.200000 1 0 0
6.905091 3.563006 17.628611 19.265078 0.476363 0.415151 0.039403 -0.006025 -264004.000000 1 0 0
-4.213009 -0.881594 14.706111 15.323066 0.206279 0.284732 0.020968 -0.002958 686769.000000 1 0 0
5.034291 -9.277994 17.690111 20.600129 -1.073648 0.537995 0.040187 -0.011602 -129201.000000 1 0 0
1.797891 7.033106 13.522611 15.347899 1.320523 0.492671 0.013053 0.002457 -2473090.000000 1 0 0
-3.704209 -0.988694 20.443511 20.799900 0.260831 0.185382 0.031242 -0.007173 -473468.000000 1 0 0
-10.733109 1.517606 16.316511 19.589060 -0.140464 0.586397 0.017512 -0.009765 -397527.000000 1 0 0
-3.743009 6.996706 18.331111 19.974825 -1.079568 0.408518 0.006333 -0.008644 722662.000000 1 0 0
-12.664709 1.052206 14.697711 19.429995 -0.082891 0.712937 0.016710 -0.012289 -249961.000000 1 0 0
-15.867209 -5.056394 8.282311 18.599251 0.308495 1.109283 0.047781 -0.025692 -1890920.000000 1 0 0
-2.327009 0.731806 15.698811 15.887202 -0.304691 0.154153 0.016425 -0.002852 307916.000000 1 0 0
-13.698709 -8.625894 13.176111 20.872724 0.561962 0.887620 0.061706 -0.038697 656533.000000 1 0 0
6.102791 -3.241594 14.641011 16.189849 -0.488268 0.440982 0.027929 -0.008456 761174.000000 1 0 0
-15.848409 0.517406 7.492111 17.537717 -0.032636 1.129403 0.034430 -0.017838 -57440.300000 1 0 0
-13.987509 6.134606 12.686211 19.855069 -0.413314 0.877676 0.024977 -0.007139 -877595.000000 1 0 0
0.329091 9.511106 16.779311 19.290275 1.536209 0.515933 0.021326 -0.005318 -596656.000000 1 0 0
-10.373709 -5.580294 10.771011 15.961460 0.493527 0.830084 0.018012 -0.011664 137270.000000 1 0 0
-3.367409 -11.136694 15.013911 18.994287 1.277166 0.659264 0.031362 -0.013774 507486.000000 1 0 0
-3.437309 2.519206 12.662311 13.360225 -0.632467 0.324652 0.005116 0.000824 -1018600.000000 1 0 0
-12.430409 -7.754494 7.405711 16.416206 0.557759 1.102774 0.026154 -0.009749 467242.000000 1 0 0
-8.320909 -1.935094 13.266511 15.779177 0.228497 0.572110 0.016635 -0.003113 -67073.600000 1 0 0
-9.906209 6.344206 9.537111 15.143923 -0.569616 0.889546 -0.001723 -0.007833 -831917.000000 1 0 0
-18.032209 -3.715694 6.538711 19.537699 0.203214 1.229540 0.071044 -0.026011 735342.000000 1 0 0
-1.346209 0.011606 20.446311 20.490584 -0.008621 0.065749 0.026464 -0.009411 -1134390.000000 1 0 0
-2.934409 2.513706 20.032911 20.402132 -0.708331 0.190536 0.034374 -0.014422 -448796.000000 1 0 0
-3.857509 11.269906 11.200711 16.350752 -1.241012 0.816155 0.001020 -0.002491 -922868.000000 1 0 0
-4.271209 -4.876194 14.939911 16.285621 0.851439 0.409379 0.021103 -0.008259 271598.000000 1 0 0
-0.186309 -14.420794 13.155711 19.520931 1.557878 0.831283 0.012148 -0.013462 -836414.000000 1 0 0
-12.163809 0.455906 8.344211 14.757776 -0.037463 0.969865 -0.001776 -0.001537 -254631.000000 1 0 0
-7.791009 1.972606 15.551211 17.505175 -0.247979 0.476996 0.008451 -0.000129 -323813.000000 1 0 0
3.511791 -2.313894 18.587111 19.056954 -0.582601 0.222516 0.034869 -0.006642 -22852.800000 1 0 0
-2.101609 4.784706 12.580711 13.622939 -1.156931 0.393704 0.002932 0.002476 -339412.000000 1 0 0
-10.257709 -6.200694 13.261311 17.875446 0.543715 0.734937 0.018049 -0.020642 -161510.000000 1 0 0
2.408891 -3.884294 14.198711 14.916229 -1.015684 0.311429 0.004210 -0.003772 -334715.000000 1 0 0
6.660591 1.017306 17.020711 18.305818 0.151564 0.376933 0.027873 -0.003021 -1068320.000000 1 0 0
-1.981909 -5.688294 13.853011 15.105978 1.235531 0.410165 0.010539 -0.005201 -1623180.000000 1 0 0
-12.828709 3.701406 14.634211 19.810005 -0.280896 0.739615 -0.000199 -0.010225 95245.300000 1 0 0
-13.283109 -6.100294 13.481111 19.884540 0.430521 0.825800 0.043301 -0.038595 -132322.000000 1 0 0
-9.539409 6.789306 11.992711 16.760672 -0.618543 0.773418 -0.004645 -0.007079 16092.300000 1 0 0
-1.014609 -2.451994 12.799211 13.071401 1.178459 0.204431 0.008562 0.001362 492560.000000 1 0 0
-0.001909 6.643406 15.320711 16.699073 -1.570509 0.409151 0.011187 -0.005934 396128.000000 1 0 0
-16.472309 -0.994294 9.592911 19.087942 0.060288 1.044234 0.050966 -0.018304 129772.000000 1 0 0
-1.265809 2.709006 13.922811 14.240283 -1.133682 0.211553 0.005013 0.000186 -2721940.000000 1 0 0
-11.298809 -3.400194 16.196611 20.038828 0.292313 0.629603 0.040809 -0.020494 -728033.000000 1 0 0
-5.197709 -1.521494 17.098711 17.935915 0.284768 0.306742 0.029095 -0.004667 337615.000000 1 0 0
-11.949309 6.560406 11.157811 17.615949 -0.502090 0.884867 0.008021 -0.008572 -1369210.000000 1 0 0
-2.732609 4.613206 18.685211 19.439288 -1.036025 0.279445 0.016964 -0.006749 123412.000000 1 0 0
5.142891 -1.950494 16.636211 17.521908 -0.362500 0.319311 0.032170 -0.006448 -1900900.000000 1 0 0
-8.075309 -4.175294 12.159211 15.181901 0.477190 0.641997 0.018477 -0.006695 -2463000.000000 1 0 0
-11.719009 -0.873894 16.181411 19.998423 0.074433 0.628119 0.039153 -0.010550 182739.000000 1 0 0
2.041391 2.031806 17.362111 17.599387 0.783045 0.164392 0.001696 -0.005809 -1318910.000000 1 0 0
-9.057609 -7.753194 11.665211 16.680211 0.707959 0.796317 0.022833 -0.013370 480046.000000 1 0 0
-7.189609 6.701006 14.762311 17.734706 -0.750238 0.587378 -0.013043 -0.006800 -1138550.000000 1 0 0
-5.719609 3.425006 15.716411 17.071912 -0.539550 0.401181 0.002581 -0.003830 -339022.000000 1 0 0
-9.461409 4.138406 11.497511 15.454366 -0.412325 0.731811 -0.003686 -0.005196 -379014.000000 1 0 0
-10.292109 0.077906 14.189611 17.529365 -0.007569 0.627536 0.015090 -0.003132 -200111.000000 1 0 0
7.892891 -0.626594 15.617211 17.509644 -0.079221 0.469222 0.045153 -0.012769 230944.000000 1 0 0
-8.695609 -7.550194 14.754111 18.716379 0.715009 0.662756 0.038132 -0.017048 -326461.000000 1 0 0
-0.039809 4.138106 15.734711 16.269807 -1.561177 0.257180 0.007240 -0.005645 262871.000000 1 0 0
-8.167709 3.016906 9.593711 12.955790 -0.353826 0.736988 -0.003675 0.000448 -646541.000000 1 0 0
-2.206309 -9.773094 13.080811 16.476917 1.348765 0.653621 0.007589 -0.008956 548984.000000 1 0 0
-6.098809 10.230706 10.437511 15.836807 -1.033229 0.851219 0.003818 -0.006402 -2305980.000000 1 0 0
-8.788209 -2.728094 15.683111 18.183374 0.300995 0.530612 0.031275 -0.012293 545737.000000 1 0 0
4.023091 5.858206 17.769811 19.138182 0.969022 0.380442 0.009173 -0.004981 143235.000000 1 0 0
-6.854209 -1.020194 15.195911 16.701398 0.147757 0.427853 0.015824 -0.002733 483879.000000 1 0 0
-1.020309 -10.072794 15.438411 18.462035 1.469847 0.580434 0.000097 -0.007666 503943.000000 1 0 0
-4.377109 5.666406 16.168311 17.682803 -0.913071 0.416891 0.000172 -0.005740 514898.000000 1 0 0
3.726491 0.003306 17.438711 17.832425 0.000887 0.210524 0.016100 -0.002873 -487667.000000 1 0 0
1.323591 0.420606 19.324611 19.374452 0.307684 0.071744 0.008817 -0.000382 -378915.000000 1 0 0
-6.298309 6.265006 17.927511 20.007865 -0.782747 0.460066 -0.003049 -0.001618 -731353.000000 1 0 0
-12.267209 0.521106 11.002411 16.486632 -0.042454 0.840147 0.007741 -0.003127 -219082.000000 1 0 0
-5.347109 5.061506 13.743311 15.591312 -0.757966 0.491825 -0.007923 -0.002692 -793520.000000 1 0 0
-8.654509 -9.586594 10.015811 16.343800 0.836452 0.911172 0.023804 -0.012144 -286629.000000 1 0 0
6.901691 -3.781194 17.119511 18.841667 -0.501203 0.430880 0.055950 -0.010678 72488.800000 1 0 0
-16.897209 1.550006 9.591611 19.491465 -0.091475 1.056304 0.056669 -0.023837 713750.000000 1 0 0
-4.077609 -9.606794 11.326311 15.401387 1.169391 0.744527 0.008500 -0.009258 -755383.000000 1 0 0
-11.082709 -3.899994 9.137911 14.884146 0.338366 0.909759 0.004022 -0.001179 -655422.000000 1 0 0
3.375791 -5.292994 18.546211 19.579931 -1.003056 0.326393 0.030901 -0.017804 -793172.000000 1 0 0
2.573091 -2.011594 16.189211 16.515383 -0.663533 0.199072 0.008680 -0.001779 -607954.000000 1 0 0
-3.144309 -4.370794 20.195511 20.900938 0.947175 0.260548 0.034211 -0.016907 -644511.000000 1 0 0
-6.415009 -3.401394 14.475911 16.194870 0.487534 0.464919 0.020812 -0.003267 910722.000000 1 0 0
-9.782109 4.966806 13.897911 17.706235 -0.469823 0.668235 0.005752 -0.006491 365116.000000 1 0 0
-5.921909 -5.287194 11.661111 14.106911 0.728834 0.597714 0.011775 -0.000424 216324.000000 1 0 0
6.066791 1.782206 19.427411 20.430529 0.285726 0.314662 0.070392 -0.016991 255687.000000 1 0 0
-3.062809 11.877506 13.544311 18.273049 -1.318428 0.735913 0.007668 -0.009497 -574533.000000 1 0 0
3.394591 1.385906 15.241911 15.676729 0.387614 0.236075 0.003026 0.002628 -1070620.000000 1 0 0
-5.781909 7.357506 12.736511 15.804495 -0.904742 0.633638 -0.016304 -0.005595 -572453.000000 1 0 0
-1.735309 -1.769394 15.179111 15.380100 0.795123 0.161843 0.017141 -0.003719 338062.000000 1 0 0
-7.372509 10.769006 13.954111 19.106088 -0.970478 0.751964 0.023718 -0.014489 -671747.000000 1 0 0
-10.225609 1.996406 10.657211 14.903854 -0.192810 0.774081 -0.001019 -0.000284 -1384070.000000 1 0 0
-13.733509 5.073406 9.093011 17.234604 -0.353868 1.015021 0.009777 -0.011221 -278811.000000 1 0 0
0.459691 -4.863694 20.049811 20.636418 -1.476561 0.239004 0.042647 -0.027278 -203376.000000 1 0 0
-14.500509 -3.016094 7.481711 16.593300 0.205075 1.103037 0.026067 -0.008653 563466.000000 1 0 0
-2.426109 2.386506 17.568111 17.894690 -0.777169 0.191342 0.014222 -0.007300 -62101.500000 1 0 0
-6.309909 -8.387594 14.511111 17.909189 0.925831 0.626200 0.021693 -0.013318 -97731.900000 1 0 0
-8.044309 1.962606 12.095111 14.657914 -0.239300 0.600313 -0.001630 -0.000078 -666909.000000 1 0 0
-14.688309 -3.618194 10.039111 18.155481 0.241523 0.984893 0.033707 -0.011661 107203.000000 1 0 0
-0.704909 7.001106 12.868111 14.666310 -1.470449 0.500396 0.008326 0.001297 -699756.000000 1 0 0
-1.811909 -2.330094 19.280111 19.504744 0.909857 0.151915 0.030130 -0.014605 268213.000000 1 0 0
-12.757509 10.194706 7.320711 17.896337 -0.674201 1.149370 0.001843 -0.019041 -555017.000000 1 0 0
-19.647209 2.067906 6.901811 20.926635 -0.104866 1.234694 0.101663 -0.032092 687468.000000 1 0 0
-16.228209 8.276506 6.722011 19.417537 -0.471621 1.217297 0.024608 -0.009418 444034.000000 1 0 0
-12.216509 7.788206 13.525311 19.820022 -0.567548 0.819747 0.008049 -0.006384 122791.000000 1 0 0
-15.692409 7.460006 10.311011 20.204463 -0.443766 1.035224 0.026768 -0.035078 -876461.000000 1 0 0
1.575291 10.963906 14.960111 18.614341 1.428093 0.637330 0.026368 -0.016043 -418730.000000 1 0 0
2.041991 14.513906 12.587011 19.319835 1.431022 0.861227 0.041632 -0.010806 749734.000000 1 0 0
-3.389909 13.718206 11.713611 18.354545 -1.328539 0.878657 0.010417 -0.005789 157881.000000 1 0 0
8.990891 4.891606 15.809711 18.833770 0.498273 0.574555 0.059367 -0.003694 133951.000000 1 0 0
-0.608309 12.654606 13.014111 18.162494 -1.522763 0.771970 0.026277 -0.004213 -50033.800000 1 0 0
3.716091 13.748506 14.606011 20.400154 1.306814 0.772776 0.047363 -0.007837 -5623.430000 1 0 0
-2.806209 -4.141194 -13.731289 14.614123 0.975240 2.792228 0.007626 -0.007309 -145323.000000 1 0 0
5.789391 -11.766794 16.400411 20.998761 -1.113560 0.674502 0.029481 -0.002411 295089.000000 1 0 0
7.915091 -13.601094 7.256911 17.329201 -1.043758 1.138708 0.015266 -0.006679 -91412.100000 1 0 0
-0.124409 15.604906 1.400711 15.668138 -1.562824 1.481278 0.009149 -0.006780 -3032030.000000 1 0 0
-13.496409 8.057206 9.008611 18.117028 -0.538202 1.050375 -0.008075 -0.007420 -105416.000000 1 0 0
-15.554709 -9.712994 4.952811 18.995304 0.558197 1.307009 0.027042 -0.004560 533390.000000 1 0 0
9.401491 -11.159594 11.080311 18.322060 -0.870697 0.921341 0.043766 -0.012166 377516.000000 1 0 0
-5.617309 -10.510594 -16.791189 20.590551 1.079976 2.524355 0.031647 -0.004182 41873.300000 1 0 0
-1.777109 -12.625194 -14.640589 19.413925 1.430956 2.425122 0.028373 -0.008150 40857.200000 1 0 0
5.667491 -15.960794 -11.931789 20.717987 -1.229596 2.184519 0.047561 -0.013916 149258.000000 1 0 0
1.131391 -12.434394 -16.278889 20.515761 -1.480057 2.487306 0.040154 -0.004481 251408.000000 1 0 0
0.832591 -15.029894 -13.604289 20.289594 -1.515457 2.305687 0.056675 0.013634 311154.000000 1 0 0
-6.751409 -6.031894 -14.602389 17.181241 0.729172 2.586598 0.024500 -0.005027 -86877.900000 1 0 0
-5.854109 -8.200594 -17.425489 20.128785 0.950826 2.617343 0.012520 -0.006993 -151853.000000 1 0 0
-2.513709 -16.290694 -13.043289 21.019820 1.417700 2.240206 0.041443 -0.010220 287363.000000 1 0 0
16.144691 -8.033994 -8.652389 20.001499 -0.461745 2.018157 0.076366 -0.028206 -101099.000000 1 0 0
18.832391 -2.923394 -3.349689 19.350080 -0.154003 1.744783 0.123938 -0.036154 6206.700000 1 0 0
15.446391 -12.321694 -8.440589 21.486244 -0.673341 1.974511 0.047301 -0.005535 -130389.000000 1 0 0
18.698891 -2.878094 -6.620789 20.044121 -0.152719 1.907429 0.195799 -0.012231 -204758.000000 1 0 0
8.983291 -9.646194 -15.949489 20.691418 -0.820967 2.450934 0.091227 -0.016251 138038.000000 1 0 0
-4.507209 10.074106 -16.157889 19.567317 -1.150102 2.542343 0.000418 0.007935 233371.000000 1 0 0
2.948691 -9.484794 -18.397689 20.907679 -1.269382 2.646551 0.060990 -0.010912 375717.000000 1 0 0
11.495091 9.542206 -14.462189 20.792925 0.692834 2.339959 0.130149 -0.059697 436000.000000 1 0 0
18.608191 -5.801694 -8.570189 21.292547 -0.302230 1.985039 0.103730 -0.023738 348799.000000 1 0 0
12.627391 5.526506 -14.025489 19.664883 0.412545 2.364885 0.088926 -0.028047 102114.000000 1 0 0
15.926791 6.461806 -10.670289 20.230489 0.385427 2.126376 0.081830 -0.028362 334741.000000 1 0 0
3.614091 -0.667694 -19.354389 19.700250 -0.182688 2.953935 0.057831 -0.013370 251619.000000 1 0 0
10.466991 -1.669294 -14.474789 17.940567 -0.158150 2.509544 0.045968 -0.017072 123401.000000 1 0 0
12.531491 -5.351094 -14.008189 19.542309 -0.403573 2.370018 0.074797 -0.018420 536338.000000 1 0 0
10.110991 6.888206 -12.846089 17.739828 0.598037 2.380580 0.051349 -0.021682 396065.000000 1 0 0
10.817891 5.355806 -15.985389 20.031078 0.459710 2.494814 0.085899 -0.047992 405387.000000 1 0 0
11.775891 -10.126594 -15.273989 21.783348 -0.710238 2.347844 0.120952 -0.031684 249833.000000 1 0 0
-0.891109 2.602606 -17.056689 17.277102 -1.240916 2.981688 0.028730 -0.019192 379240.000000 1 0 0
6.551791 -0.835094 -17.105489 18.336333 -0.126777 2.773107 0.035678 -0.008006 178823.000000 1 0 0
6.462591 -5.618894 -15.706889 17.889757 -0.715678 2.642427 0.014319 -0.015775 227605.000000 1 0 0
-2.358309 -4.751694 -19.839489 20.536444 1.110106 2.880322 0.047739 -0.031179 -76548.300000 1 0 0
16.281991 -0.156594 -13.073489 20.881663 -0.009617 2.247306 0.098457 -0.029078 148384.000000 1 0 0
-4.020209 -0.584294 -18.529489 18.969593 0.144329 2.925765 0.015810 -0.013858 210721.000000 1 0 0
3.599791 8.907506 -17.467389 19.935191 1.186735 2.638735 0.050276 -0.033776 210685.000000 1 0 0
10.249991 0.531406 -16.808589 19.694501 0.051798 2.593397 0.071464 -0.034837 -170224.000000 1 0 0
4.188491 4.603006 -18.324789 19.352752 0.832513 2.814196 0.041443 -0.011107 460129.000000 1 0 0
-2.982909 -10.818494 -17.786489 21.030852 1.301758 2.578734 0.047915 -0.020770 127384.000000 1 0 0
6.391891 -9.279494 -16.381489 19.882617 -0.967614 2.539073 0.043240 -0.008409 218217.000000 1 0 0
10.376091 -12.128694 -10.624989 19.174433 -0.863118 2.158105 0.051611 -0.019025 308373.000000 1 0 0
6.252791 6.558306 -16.958189 19.227297 0.809241 2.650854 0.057300 -0.032239 284671.000000 1 0 0
8.645191 1.548606 -19.994689 21.838615 0.177249 2.727709 0.074710 -0.026203 71805.200000 1 0 0
-1.067609 -0.555394 -20.186089 20.221930 0.479695 3.082046 0.043132 -0.020691 125596.000000 1 0 0
-0.876609 6.559406 -19.744589 20.824098 -1.437942 2.818193 0.031987 -0.006606 32416.100000 1 0 0
9.107091 5.889006 -18.004489 21.018590 0.574009 2.599437 0.100223 -0.038473 -12288.300000 1 0 0
12.317191 0.156306 -13.052089 17.946996 0.012689 2.385114 0.039554 -0.005633 36507.800000 1 0 0
-4.178809 -2.946994 -19.760189 20.411082 0.614223 2.888373 0.009220 -0.011279 376214.000000 1 0 0
5.204891 -11.486094 -14.410589 19.149056 -1.145328 2.422720 0.015254 -0.010200 -229598.000000 1 0 0
11.761391 2.744606 -15.822289 19.904974 0.229255 2.489625 0.073378 -0.014970 -28531.300000 1 0 0
-2.756409 -4.207894 -16.983689 17.712985 0.990875 2.853639 0.006312 -0.013317 330490.000000 1 0 0
-6.757009 -5.074494 -17.712689 19.625163 0.644139 2.696452 0.022973 -0.005898 23619.800000 1 0 0
3.044491 10.012906 -15.121289 18.389687 1.275622 2.536185 0.017477 -0.021729 318004.000000 1 0 0
17.211391 -6.068194 -10.775089 21.193336 -0.338961 2.104144 0.118300 -0.025776 88888.300000 1 0 0
9.683091 -3.282894 -17.692889 20.434724 -0.326872 2.617593 0.055179 -0.024847 4030.670000 1 0 0
-7.065909 -1.885494 -19.083089 20.436400 0.260768 2.775629 0.004064 0.001385 521304.000000 1 0 0
2.012291 -7.446594 -19.326289 20.808809 -1.306870 2.761837 0.060914 -0.024914 273739.000000 1 0 0
5.958891 10.374306 -13.790889 18.257141 1.049421 2.427014 0.050419 -0.030416 419741.000000 1 0 0
5.909391 -3.380494 -18.128289 19.364491 -0.519618 2.782344 0.043219 -0.021445 303849.000000 1 0 0
4.616091 13.384906 -14.498589 20.265070 1.238696 2.368060 0.058828 -0.028887 -197492.000000 1 0 0
9.504891 11.511206 -15.178589 21.289443 0.880575 2.364511 0.127078 -0.053962 -269448.000000 1 0 0
16.989391 2.882806 -11.782289 20.875160 0.168082 2.170523 0.128059 0.002429 138531.000000 1 0 0
15.168491 -3.009594 -12.198689 19.696416 -0.195867 2.238692 0.095866 -0.021094 197479.000000 1 0 0
-8.843609 0.277906 -17.370289 19.493937 -0.031414 2.670474 0.030503 -0.015592 368172.000000 1 0 0
-3.749409 3.879106 -18.642489 19.407419 -0.802398 2.859898 0.039040 -0.023922 -51798.000000 1 0 0
4.276791 2.276106 -16.459589 17.157787 0.489074 2.855335 0.031579 -0.025711 254212.000000 1 0 0
-5.139909 14.090106 -14.007089 20.521898 -1.221008 2.322034 0.012455 -0.013662 381795.000000 1 0 0
0.761191 9.340206 -17.941789 20.241706 1.489480 2.660257 0.021770 -0.002740 224688.000000 1 0 0
1.172591 -5.119894 -20.104489 20.779287 -1.345653 2.886047 0.047728 -0.004846 370478.000000 1 0 0
3.727791 -5.917294 -18.566189 19.839712 -1.008622 2.781345 0.049224 -0.006824 223231.000000 1 0 0
-7.023209 7.373806 -15.863789 18.850949 -0.809745 2.570920 0.006868 -0.005785 -85867.700000 1 0 0
-11.844709 3.102406 -16.726289 20.728984 -0.256169 2.509687 0.091999 -0.033959 353411.000000 1 0 0
-4.542009 6.689806 -17.700389 19.459885 -0.974342 2.713077 -0.000309 0.021851 477326.000000 1 0 0
-8.555709 5.344406 -17.235689 19.970774 -0.558354 2.612065 0.030782 -0.021041 516169.000000 1 0 0
-8.481009 4.145706 -14.626389 17.408206 -0.454665 2.568450 -0.000793 -0.029830 391082.000000 1 0 0
9.515891 13.767806 -12.733589 21.029716 0.966021 2.221196 0.130292 -0.054412 451953.000000 1 0 0
14.156191 8.702006 -12.090089 20.549766 0.551168 2.199791 0.143059 -0.042804 28015.800000 1 0 0
8.561191 15.782306 -9.939689 20.522490 1.073764 2.076395 0.102446 -0.023742 115749.000000 1 0 0
6.832291 12.859406 -14.350489 20.444585 1.082418 2.348888 0.143778 -0.061747 -164757.000000 1 0 0
3.795791 15.790506 -12.646489 20.583532 1.334888 2.232420 0.072455 -0.029944 180649.000000 1 0 0
10.772691 11.933406 -11.248589 19.621106 0.836473 2.181312 0.114406 -0.040373 144471.000000 1 0 0
16.251791 10.070306 -10.711889 21.915208 0.554738 2.081496 0.169607 -0.022819 364004.000000 1 0 0
12.735991 10.841406 -9.695189 19.332311 0.705214 2.096130 0.122661 -0.047876 -45893.500000 1 0 0
11.018591 11.637106 -7.342589 17.627966 0.812692 2.000422 0.106348 -0.021167 303639.000000 1 0 0
5.699791 16.993906 -9.975389 20.513138 1.247185 2.078638 0.076297 -0.014328 113154.000000 1 0 0
11.654691 13.904306 -10.158689 20.793280 0.873188 2.081231 0.177696 -0.049446 104711.000000 1 0 0
8.593891 -19.194494 -1.956889 21.121387 -1.149834 1.663579 0.052658 -0.012369 285826.000000 1 0 0
8.025291 -17.066694 -4.273589 19.337552 -1.131246 1.793635 0.055834 -0.012691 413415.000000 1 0 0
3.918391 -18.632394 5.086011 19.707547 -1.363517 1.309768 0.075210 -0.026798 28864.500000 1 0 0
10.655791 -16.927294 -1.959689 20.097750 -1.008965 1.668459 0.058074 -0.039019 472300.000000 1 0 0
-3.557109 -14.935994 7.773811 17.209564 1.336995 1.102110 0.028852 -0.030344 56154.200000 1 0 0
-15.311909 -12.870094 -4.219689 20.442594 0.698970 1.778707 0.074287 -0.024849 223222.000000 1 0 0
-9.237709 -12.978394 -7.067389 17.427621 0.952211 1.988353 0.039004 -0.010425 161552.000000 1 0 0
-11.585809 -15.213494 6.507711 20.199794 0.919945 1.242778 0.069359 -0.016813 270641.000000 1 0 0
-14.359509 -8.598494 -8.119289 18.602485 0.539538 2.022460 0.038190 -0.017530 -68301.500000 1 0 0
3.794991 -15.136394 5.373011 16.503989 -1.325140 1.239194 0.027176 -0.017892 -42088.900000 1 0 0
2.710891 -14.116194 9.197211 17.064717 -1.381065 1.001594 0.013775 -0.005142 294334.000000 1 0 0
3.375291 -17.517394 9.766511 20.338054 -1.380447 1.069904 0.057246 -0.015597 187746.000000 1 0 0
-8.828809 -17.993994 -5.390989 20.755589 1.114654 1.833546 0.067243 -0.002503 -78210.600000 1 0 0
2.427891 -19.781494 -4.122289 20.351792 -1.448672 1.774759 0.063617 -0.026134 141686.000000 1 0 0
-17.959209 -11.048394 -2.006589 21.180808 0.551517 1.665675 0.013632 -0.005597 5702.660000 1 0 0
-4.091609 -14.967794 2.783511 15.764646 1.303955 1.393299 0.008957 -0.003467 154070.000000 1 0 0
-10.875709 -10.156994 -14.543889 20.807938 0.751240 2.344737 0.056559 -0.019569 287934.000000 1 0 0
0.342891 -20.357294 2.516211 20.515076 -1.553954 1.447835 0.042148 -0.025466 349506.000000 1 0 0
7.082491 -18.120994 0.524211 19.462963 -1.198207 1.543859 0.052802 -0.015072 226438.000000 1 0 0
-7.076909 -18.229894 -3.187789 19.813472 1.200501 1.732389 0.019408 -0.045993 226794.000000 1 0 0
-8.569909 -15.916594 -7.312189 19.499985 1.076882 1.955176 0.057261 -0.011748 -161200.000000 1 0 0
-11.833209 -11.316594 -12.151489 20.389920 0.763086 2.209252 0.050329 -0.010762 395495.000000 1 0 0
-13.279709 -14.969194 -3.295489 20.280229 0.845134 1.734018 0.074578 -0.028474 60425.400000 1 0 0
-0.172409 -20.535194 -2.752489 20.719559 1.562401 1.704035 0.074531 -0.027073 483071.000000 1 0 0
-11.536909 -17.037494 -0.804489 20.591835 0.975572 1.609875 0.068579 -0.016674 -43893.300000 1 0 0
0.823291 -20.044994 5.187111 20.721625 -1.529747 1.317782 0.072485 -0.031809 -12566.800000 1 0 0
-18.339709 -9.365194 2.424311 20.734731 0.472132 1.453608 0.060937 0.001243 -1170.600000 1 0 0
-15.202209 -14.924294 -0.342789 21.306319 0.776174 1.586886 0.095540 -0.026794 24267.400000 1 0 0
10.610091 -15.294994 -5.133889 19.309782 -0.964313 1.839902 0.038606 -0.008747 59774.100000 1 0 0
0.241591 -19.065694 -7.126889 20.355629 -1.558126 1.928494 0.061365 -0.013993 151408.000000 1 0 0
-10.342909 -18.417994 -2.256089 21.243545 1.059117 1.677198 0.075199 0.026577 429185.000000 1 0 0
-14.853309 -6.824594 -11.324789 19.885842 0.430698 2.176682 0.067185 -0.021158 131635.000000 1 0 0
-12.584309 -14.784494 1.764711 19.495136 0.865616 1.480152 0.079114 -0.030451 389790.000000 1 0 0
-2.405509 -16.115494 9.722411 18.974217 1.422623 1.032818 0.033613 -0.028449 286850.000000 1 0 0
-12.179809 -14.715894 -6.669089 20.233192 0.879414 1.906688 0.053152 -0.010271 143490.000000 1 0 0
6.595591 -16.872594 -6.723489 19.323342 -1.198154 1.926176 0.060373 -0.032073 94574.200000 1 0 0
-17.159909 -7.319594 -2.834889 18.869964 0.403185 1.721600 -0.013772 -0.013601 -83010.800000 1 0 0
-12.269709 -13.570294 -9.078889 20.423635 0.835688 2.031444 0.074327 -0.032743 154099.000000 1 0 0
-7.879709 -14.196294 9.831111 18.980920 1.064081 1.026347 0.045418 -0.007085 520848.000000 1 0 0
-16.006909 -8.581694 -5.558889 18.993890 0.492128 1.867811 0.058861 -0.007145 213652.000000 1 0 0
-0.466609 -19.702294 -0.328789 19.710561 1.547118 1.587478 0.045475 -0.023336 270797.000000 1 0 0
-15.227909 -11.736394 -1.972589 19.326750 0.656628 1.673040 0.045761 0.000328 99609.600000 1 0 0
-6.422509 -19.000994 1.531211 20.115442 1.244843 1.494601 0.048345 -0.029838 -169746.000000 1 0 0
-1.677709 -20.159394 -5.838389 21.054754 1.487765 1.851774 0.062262 -0.022574 232140.000000 1 0 0
-9.091309 -19.863294 -0.773189 21.858641 1.141563 1.606176 0.074034 -0.022906 156666.000000 1 0 0
-17.899909 -7.068494 5.333311 19.970342 0.376093 1.300454 0.061908 -0.007288 -967.327000 1 0 0
-2.684209 -15.787294 -10.554789 19.179343 1.402383 2.153545 0.021274 -0.004622 27768.900000 1 0 0
-3.059909 -18.318394 -8.390289 20.379489 1.405284 1.995118 0.026725 -0.008325 154393.000000 1 0 0
4.039291 -17.729094 -6.270089 19.234102 -1.346786 1.902853 0.022412 0.016382 365786.000000 1 0 0
0.747191 -17.498994 -9.429589 19.891964 -1.528123 2.064670 0.040336 -0.008964 47668.200000 1 0 0
-7.501909 -10.004794 -14.942289 19.484521 0.927403 2.444762 0.012673 -0.005198 633636.000000 1 0 0
-4.785709 -19.671494 -1.893989 20.333664 1.332151 1.664077 0.052896 -0.025360 392840.000000 1 0 0
-10.514509 -14.974094 8.613211 20.222903 0.958609 1.130825 0.061919 -0.042991 166706.000000 1 0 0
-7.165509 -15.105694 -10.267989 19.620350 1.127872 2.121555 0.025568 -0.008816 216845.000000 1 0 0
-12.507109 -7.796894 -12.721189 19.469155 0.557446 2.282866 0.051934 -0.014364 147895.000000 1 0 0
-15.536009 -12.949794 3.591111 20.541685 0.694857 1.395073 0.054703 -0.007413 -69719.700000 1 0 0
-6.037509 -14.290094 -12.733389 20.069816 1.171048 2.258099 -0.000702 -0.000781 439539.000000 1 0 0
-14.021309 -12.390494 -6.654289 19.859532 0.723731 1.912473 0.064274 -0.009781 52575.700000 1 0 0
-11.778209 -10.713694 -7.769789 17.716633 0.738105 2.024791 0.044688 -0.016366 290806.000000 1 0 0
-9.669609 -15.077394 3.381711 18.228141 1.000539 1.384194 0.031902 -0.001539 522932.000000 1 0 0
5.368191 -18.089794 7.860211 20.441161 -1.282322 1.176099 0.085841 -0.031319 185983.000000 1 0 0
-4.767909 -17.005894 5.591911 18.525735 1.297446 1.264168 0.018987 0.009623 516722.000000 1 0 0
-17.621709 -7.833794 -6.699789 20.415194 0.418315 1.905169 0.027395 -0.025682 53484.100000 1 0 0
-17.150609 -4.813894 -10.780589 20.821577 0.273642 2.115027 0.097660 -0.012686 -302652.000000 1 0 0
-15.919509 -4.399994 -13.030189 21.037503 0.269658 2.238748 0.100735 -0.026495 362617.000000 1 0 0
-19.667609 -5.466594 -6.037689 21.287372 0.271106 1.858371 0.076806 -0.020353 -440449.000000 1 0 0
5.538891 -13.673294 8.731511 17.142858 -1.185911 1.036381 0.038595 -0.003396 279908.000000 1 0 0
20.049491 -2.729294 2.678011 20.410852 -0.135296 1.439212 0.117860 -0.024693 94555.000000 1 0 0
18.079991 -2.366994 -0.179589 18.235158 -0.130178 1.580645 0.055046 -0.013732 266719.000000 1 0 0
14.326491 -11.210694 0.189611 18.192415 -0.663988 1.560374 0.037340 -0.000680 106660.000000 1 0 0
11.248191 -13.780594 5.588211 18.645500 -0.886235 1.266409 0.036366 0.002373 457181.000000 1 0 0
9.948491 -13.253294 9.427511 19.065683 -0.926884 1.053565 0.048924 -0.002944 305569.000000 1 0 0
19.157691 4.653206 -4.911189 20.317215 0.238275 1.814940 0.114885 0.006568 10899.400000 1 0 0
19.323891 -5.706694 -4.976189 20.754315 -0.287156 1.812922 0.129107 -0.024674 14868.300000 1 0 0
17.758291 -9.858494 -0.019589 20.311258 -0.506788 1.571761 0.067698 -0.004405 216668.000000 1 0 0
17.417591 -8.790694 8.349211 21.221642 -0.467402 1.166438 0.121812 -0.025830 -114992.000000 1 0 0
19.955991 0.546006 -2.198189 20.084116 0.027354 1.680465 0.137671 -0.012947 77529.100000 1 0 0
7.409291 -13.243794 11.665111 19.140807 -1.060724 0.915446 0.043827 -0.008292 306112.000000 1 0 0
16.459791 -6.545494 -3.399989 18.036855 -0.378492 1.760433 0.070700 -0.009834 371457.000000 1 0 0
14.395791 -7.130294 11.014911 19.478402 -0.459884 0.969765 0.101336 -0.047839 517210.000000 1 0 0
16.250091 1.161206 10.804311 19.548580 0.071337 0.985207 0.141867 -0.029297 145931.000000 1 0 0
16.866291 -9.753894 2.828611 19.687846 -0.524316 1.426624 0.046178 -0.011488 350074.000000 1 0 0
16.420891 -7.254794 -5.961189 18.915958 -0.416016 1.891401 0.072858 -0.010957 237119.000000 1 0 0
19.042491 -4.262694 5.926911 20.394002 -0.220221 1.275921 0.209641 -0.022587 -54938.500000 1 0 0
13.917091 -13.261794 7.980911 20.814792 -0.761292 1.177294 0.079635 -0.022026 187294.000000 1 0 0
15.272491 -14.198794 -1.926289 20.941951 -0.748982 1.662909 0.048297 0.000495 155579.000000 1 0 0
18.728791 -6.364994 7.797011 21.262035 -0.327605 1.195326 0.159158 -0.027407 225998.000000 1 0 0
19.527791 3.564706 2.577911 20.017177 0.180557 1.441653 0.103392 -0.005706 180671.000000 1 0 0
15.821091 -10.259794 8.058611 20.506377 -0.575312 1.166925 0.081919 -0.038570 123855.000000 1 0 0
14.268191 -4.092494 10.610011 18.245605 -0.279328 0.950212 0.082846 -0.014785 534.211000 1 0 0
18.910291 -7.328394 1.947511 20.373936 -0.369714 1.475062 0.126960 -0.019204 53787.800000 1 0 0
19.112591 -5.414794 -1.361689 19.911437 -0.276076 1.639237 0.091993 -0.021415 243797.000000 1 0 0
14.919291 -13.419194 -5.816389 20.892353 -0.732513 1.852922 0.076668 -0.022215 496900.000000 1 0 0
13.849391 -9.483994 10.161511 19.621623 -0.600448 1.026434 0.060729 -0.024695 322412.000000 1 0 0
14.185991 2.176906 0.319411 14.355601 0.152267 1.548545 0.005493 0.000399 -249670.000000 1 0 0
12.941391 2.878906 13.675311 19.046833 0.218893 0.769895 0.099503 -0.024294 136615.000000 1 0 0
18.376891 -3.190094 9.084011 20.746231 -0.171880 1.117576 0.147644 -0.030099 221237.000000 1 0 0
7.617491 -18.583394 4.812711 20.652625 -1.181777 1.335603 0.083374 -0.027027 425675.000000 1 0 0
12.564491 -2.632794 15.113411 19.829605 -0.206554 0.704147 0.097689 -0.008722 331254.000000 1 0 0
11.513591 -13.359494 -6.984289 18.968900 -0.859475 1.947865 0.039046 -0.022158 117342.000000 1 0 0
11.026091 -17.470494 4.509111 21.145329 -1.007804 1.355902 0.053031 -0.013591 628802.000000 1 0 0
18.333491 -0.165894 -5.287389 19.081428 -0.009048 1.851567 0.127086 -0.021959 210530.000000 1 0 0
4.186991 -13.558994 11.502411 18.266983 -1.271288 0.889651 0.012656 -0.007814 48149.700000 1 0 0
9.059591 -2.481794 14.305511 17.113829 -0.267382 0.581019 0.026537 -0.006645 372554.000000 1 0 0
9.090291 -8.990194 14.222211 19.124023 -0.779862 0.732234 0.069228 -0.006672 336760.000000 1 0 0
20.994291 5.799306 -2.637089 21.939609 0.269512 1.691285 0.173809 -0.007982 562035.000000 1 0 0
14.676191 -13.261394 1.705511 19.853562 -0.734800 1.484786 0.026404 -0.005672 216449.000000 1 0 0
11.605291 -0.309394 15.193511 19.121226 -0.026653 0.652466 0.097626 -0.013234 -102172.000000 1 0 0
19.805891 0.084506 7.607311 21.216777 0.004267 1.204080 0.195710 -0.034521 224559.000000 1 0 0
19.908291 1.401606 0.467811 19.963051 0.070287 1.547360 0.107724 -0.007040 335590.000000 1 0 0
17.998191 0.443606 3.194511 18.284873 0.024642 1.395187 0.069838 -0.007917 -58733.400000 1 0 0
10.562191 -8.407894 16.341511 21.196640 -0.672320 0.690468 0.100719 -0.005453 214114.000000 1 0 0
18.870691 3.294106 5.899311 20.043851 0.172821 1.272052 0.087431 -0.001318 116281.000000 1 0 0
14.795491 2.630806 7.185011 16.656893 0.175972 1.124804 0.066681 -0.010324 146759.000000 1 0 0
11.252591 -15.985394 1.953111 19.646075 -0.957438 1.471217 0.008469 0.003514 260984.000000 1 0 0
8.769191 -16.074994 6.739011 19.512007 -1.071401 1.218155 0.055438 -0.010777 486897.000000 1 0 0
6.095691 6.751906 7.272211 11.646061 0.836431 0.896388 0.005654 0.004155 -832829.000000 1 0 0
18.500291 2.843306 -6.492189 19.811453 0.152497 1.904663 0.110227 -0.011876 351559.000000 1 0 0
14.189991 4.649506 -7.239489 16.594696 0.316637 2.022227 0.033023 -0.005982 442077.000000 1 0 0
-10.696809 -4.013994 -13.653189 17.802905 0.358991 2.444805 0.030380 -0.011822 -385856.000000 1 0 0
8.003591 -14.198294 -10.367389 19.316619 -1.057495 2.137327 0.035725 -0.008308 99627.200000 1 0 0
1.969191 -16.063594 13.580511 21.126927 -1.448818 0.872641 0.013147 -0.018285 427494.000000 1 0 0
-9.544309 -8.058594 2.001411 12.650708 0.701196 1.411923 0.012404 0.000684 329501.000000 1 0 0
-13.883209 3.184206 -9.889489 17.340261 -0.225457 2.177691 0.023575 0.001317 72012.700000 1 0 0
-13.121109 -5.135194 -13.489989 19.506756 0.373044 2.334436 0.050395 -0.000510 94722.400000 1 0 0
-18.027709 -1.272694 -8.558489 19.996644 0.070480 2.013071 0.087710 -0.030171 483207.000000 1 0 0
-12.324209 15.140906 4.377411 20.007371 -0.887596 1.350222 0.038426 -0.019442 415386.000000 1 0 0
-16.257309 5.569106 8.642111 19.235413 -0.330032 1.104836 -0.025286 -0.040612 191667.000000 1 0 0
-13.331509 15.269806 0.171511 20.271298 -0.853064 1.562335 0.041286 -0.026671 117067.000000 1 0 0
-16.158609 4.960706 -10.956889 20.143551 -0.297867 2.145922 0.051701 -0.001950 43915.300000 1 0 0
-18.351709 2.840406 -0.002689 18.570222 -0.153558 1.570941 0.081827 -0.010057 -27482.900000 1 0 0
-9.744209 15.422006 -0.187989 18.243443 -1.007295 1.581101 0.015154 -0.004697 -12377.300000 1 0 0
-18.872509 11.389706 1.989411 22.132662 -0.542995 1.480789 0.152443 -0.048731 -195802.000000 1 0 0
-8.462609 16.282006 -7.961089 20.002460 -1.091472 1.980138 0.057478 -0.029027 130013.000000 1 0 0
-14.785109 -1.748694 -12.406389 19.379780 0.117727 2.265518 0.078110 -0.040063 70927.100000 1 0 0
-18.909109 5.172906 -4.517789 20.117748 -0.267033 1.797295 0.080736 -0.007048 -90113.100000 1 0 0
-16.895309 9.781706 -5.620089 20.315478 -0.524805 1.851093 0.054174 0.008456 -73086.100000 1 0 0
-19.022209 1.419206 2.717311 19.267651 -0.074470 1.429295 0.091338 -0.032704 10361.600000 1 0 0
-14.696009 11.674006 -7.723689 20.295577 -0.671296 1.961198 0.048129 -0.013896 -26690.000000 1 0 0
-13.008609 5.046306 -13.555789 19.453753 -0.370050 2.341752 0.062127 -0.025971 114034.000000 1 0 0
-14.087009 9.461606 -6.469689 18.161021 -0.591448 1.935038 0.021790 -0.008945 139220.000000 1 0 0
-6.594809 11.241606 -15.387889 20.165622 -1.040256 2.438854 0.008986 -0.029739 7778.200000 1 0 0
-15.041709 13.743506 3.181311 20.621777 -0.740329 1.415908 0.039521 -0.029142 101980.000000 1 0 0
-18.652809 8.630906 -4.752989 21.095277 -0.433376 1.798058 0.089229 -0.016925 38770.100000 1 0 0
-5.024009 16.072106 -11.146489 20.193996 -1.267828 2.155522 0.017368 -0.014403 39823.100000 1 0 0
-19.161409 -2.615994 -6.577989 20.427260 0.135685 1.898659 0.037778 -0.026200 -105458.000000 1 0 0
-10.819509 13.379806 -6.373589 18.349485 -0.890806 1.925534 0.022967 -0.029373 329376.000000 1 0 0
-19.519909 3.066806 4.376211 20.238166 -0.155838 1.352839 0.097601 -0.023625 50838.300000 1 0 0
-14.986809 12.225706 0.673411 19.352669 -0.684280 1.535992 0.017122 -0.016099 114721.000000 1 0 0
-17.511809 2.622206 -8.198989 19.513145 -0.148635 2.004437 0.044081 -0.013854 42211.000000 1 0 0
-16.263009 14.055006 -4.185189 21.898503 -0.712698 1.763097 0.047675 0.018262 144719.000000 1 0 0
-11.114609 15.681706 -8.712889 21.103669 -0.954213 1.996390 0.050448 -0.029034 155576.000000 1 0 0
-19.385709 1.490106 -6.712689 20.569062 -0.076715 1.903235 0.091055 -0.028271 341770.000000 1 0 0
-17.192609 10.460006 -0.574089 20.132737 -0.546574 1.599315 0.049661 -0.012953 22510.900000 1 0 0
-11.457509 6.782306 -14.594189 19.755114 -0.534481 2.402018 0.033746 -0.025867 145751.000000 1 0 0
-13.532509 12.301706 -5.101389 18.986441 -0.737792 1.842825 0.036926 -0.020289 387942.000000 1 0 0
-18.801209 7.297506 -0.140489 20.168262 -0.370241 1.577762 0.081633 -0.018594 35291.900000 1 0 0
-14.123209 9.088806 -11.171489 20.171108 -0.571818 2.157761 0.008441 0.005582 271392.000000 1 0 0
-18.161909 11.105006 5.087211 21.887344 -0.548792 1.336224 0.063636 -0.046845 25346.500000 1 0 0
-8.154109 11.961406 -13.345889 19.689527 -0.972457 2.315585 -0.004549 -0.017107 391776.000000 1 0 0
-21.093209 -1.279394 -5.624689 21.867726 0.060580 1.830935 0.097517 -0.034039 174697.000000 1 0 0
-10.773109 13.315606 -3.143689 17.414018 -0.890556 1.752318 0.014458 -0.001456 500211.000000 1 0 0
-18.651709 -4.802594 3.500011 19.575527 0.252014 1.391034 0.054955 -0.017674 -99703.600000 1 0 0
-11.588909 11.313406 -12.878289 20.691696 -0.773369 2.242588 0.047673 -0.029710 166728.000000 1 0 0
-14.729809 11.266906 -10.024289 21.080721 -0.652972 2.066351 0.043057 -0.029954 48552.700000 1 0 0
-13.066209 9.608306 -13.518689 21.113984 -0.634062 2.265648 0.086468 -0.041386 283680.000000 1 0 0
-18.683809 -4.929594 -3.123889 19.574072 0.257964 1.731075 0.049948 -0.013189 -478702.000000 1 0 0
-9.423709 12.624406 -11.532089 19.523601 -0.929560 2.202691 0.024236 -0.020018 31368.900000 1 0 0
-15.217409 7.638606 -8.324989 18.953186 -0.465218 2.025548 -0.001992 0.001108 -214883.000000 1 0 0
-14.466209 9.002506 1.835111 17.137209 -0.556665 1.463507 0.013982 -0.007322 4420.980000 1 0 0
-20.051609 6.007606 7.919411 22.380246 -0.291096 1.209104 0.096816 -0.029143 438823.000000 1 0 0
-18.851309 5.874006 3.176511 19.999150 -0.302062 1.411288 0.043412 -0.012777 217288.000000 1 0 0
-14.897809 12.564006 5.831811 20.342295 -0.700618 1.280033 0.038753 -0.023701 76737.400000 1 0 0
18.097791 6.452806 6.030911 20.138039 0.342500 1.266650 0.097455 -0.016434 162603.000000 1 0 0
18.390191 8.312806 0.437611 20.186465 0.424536 1.549116 0.064845 0.006620 -48378.700000 1 0 0
15.828691 5.150806 9.071911 18.957263 0.314602 1.071799 0.080934 -0.004476 -285567.000000 1 0 0
12.201091 12.934606 10.980811 20.898537 0.814572 1.017571 0.054596 -0.019012 55570.700000 1 0 0
15.482891 12.499206 4.283711 20.354366 0.679171 1.358754 0.082958 -0.008708 240993.000000 1 0 0
5.480691 10.528706 14.596511 18.813552 1.090846 0.682734 0.032435 -0.001862 159245.000000 1 0 0
12.063991 14.573706 -5.153889 19.608553 0.879338 1.836760 0.076134 0.015016 299275.000000 1 0 0
18.275891 9.451106 -2.774789 20.761287 0.477262 1.704850 0.071022 -0.003059 492.519000 1 0 0
14.564791 7.578706 9.608811 19.023648 0.479790 1.041301 0.091421 -0.019280 82948.400000 1 0 0
4.749091 19.126906 -1.627989 19.774800 1.327424 1.653216 0.015411 -0.024680 438267.000000 1 0 0
-4.801809 19.392706 3.602911 20.300625 -1.328069 1.392373 0.020666 -0.003541 346503.000000 1 0 0
8.158991 13.134806 12.141011 19.659512 1.014954 0.905154 0.081577 -0.006427 39890.500000 1 0 0
0.316591 17.231906 -10.238389 20.046531 1.552426 2.106831 0.026107 0.006485 -62909.800000 1 0 0
10.314291 9.145206 16.282811 21.334229 0.725392 0.702507 0.056773 -0.005632 39538.700000 1 0 0
-1.358909 12.345706 0.914611 12.453899 -1.461166 1.497290 -0.006462 0.001741 298644.000000 1 0 0
-4.831709 19.104006 -2.527989 19.867037 -1.323075 1.698388 0.038972 0.000180 39861.400000 1 0 0
5.666691 18.829906 6.043711 20.571903 1.278476 1.272612 0.049624 -0.011399 443804.000000 1 0 0
11.295891 17.345306 -1.424789 20.748176 0.993553 1.639521 0.115074 -0.030324 392998.000000 1 0 0
18.404691 10.840606 2.904211 21.556573 0.532302 1.435660 0.077375 -0.015435 333557.000000 1 0 0
11.774391 16.938006 6.346511 21.582644 0.963335 1.272328 0.055411 -0.004659 -172347.000000 1 0 0
18.042991 7.195606 -5.657989 20.232130 0.379474 1.854230 0.066731 0.009452 386254.000000 1 0 0
-0.643909 15.474506 11.705211 19.413575 -1.529209 0.923616 0.033414 0.020434 172487.000000 1 0 0
1.301991 20.530806 -1.785089 20.649351 1.507465 1.657352 0.028341 -0.010751 355094.000000 1 0 0
14.464091 9.925906 -1.229189 17.585347 0.601434 1.640752 0.051242 -0.008941 62904.100000 1 0 0
10.110691 17.236006 1.729611 20.057356 1.040286 1.484456 0.057461 -0.031294 266883.000000 1 0 0
0.032191 17.669606 -0.486589 17.676334 1.568975 1.598328 0.011171 -0.012271 48771.900000 1 0 0
-0.077509 21.038406 1.084411 21.066477 -1.567112 1.519298 0.029395 -0.017902 235639.000000 1 0 0
6.148791 17.249306 -0.382189 18.316447 1.228373 1.591664 0.026647 -0.033765 -28023.200000 1 0 0
6.871691 18.673306 -2.927889 20.111813 1.218181 1.716896 0.032673 -0.025137 169118.000000 1 0 0
10.578791 9.557506 12.797911 19.158373 0.734723 0.839270 0.046611 -0.005972 214660.000000 1 0 0
13.579591 14.712506 8.377011 21.703397 0.825420 1.174530 0.080346 -0.022012 95227.800000 1 0 0
0.218291 17.720306 7.026411 19.063770 1.558478 1.193322 0.030676 -0.010985 240716.000000 1 0 0
7.667091 18.036706 -7.766089 21.081252 1.168856 1.948071 0.062789 -0.010628 130633.000000 1 0 0
-1.600709 18.462206 9.196411 20.687902 -1.484311 1.110146 0.076914 -0.022243 201744.000000 1 0 0
16.193791 7.324706 -8.020589 19.499231 0.424778 1.994707 0.092436 0.002604 -165439.000000 1 0 0
-5.245109 19.705206 -6.652289 21.448992 -1.310649 1.886141 0.041434 -0.018158 220115.000000 1 0 0
3.908091 15.581706 9.726411 18.779398 1.325053 1.026367 0.051484 -0.013164 139541.000000 1 0 0
9.368191 14.856806 7.333911 19.033495 1.008205 1.175246 0.035692 -0.012705 41340.900000 1 0 0
-2.774609 19.952206 6.256111 21.093314 -1.432620 1.269674 0.030802 -0.005030 -3572.700000 1 0 0
5.033191 18.034806 8.350811 20.501787 1.298639 1.151277 0.059368 -0.018130 342613.000000 1 0 0
14.387291 12.328806 -6.084689 19.900177 0.708500 1.881533 0.073610 -0.014720 34877.000000 1 0 0
11.689991 6.906006 15.367311 20.506171 0.533599 0.723642 0.117529 -0.029831 103871.000000 1 0 0
17.516291 9.606606 4.740711 20.532454 0.501643 1.337805 0.110551 -0.018931 200306.000000 1 0 0
5.341491 14.774606 11.944711 19.735669 1.223885 0.920736 0.037579 -0.030850 135567.000000 1 0 0
15.941791 10.386006 -3.558789 19.356518 0.577426 1.755703 0.081185 -0.029213 122500.000000 1 0 0
15.419091 13.747806 6.571311 21.677930 0.728160 1.262817 0.100953 -0.008561 509113.000000 1 0 0
12.940891 14.121406 -8.175689 20.826009 0.828993 1.974222 0.191597 -0.044835 388554.000000 1 0 0
-8.605809 15.354006 9.658411 20.077110 -1.059933 1.068926 0.039674 -0.019672 214704.000000 1 0 0
-3.972709 17.713306 -8.003989 19.839543 -1.350169 1.986065 0.011106 0.034089 24563.200000 1 0 0
2.845091 19.350206 -4.584089 20.088277 1.424811 1.801022 0.040306 -0.029481 27.894300 1 0 0
7.256091 16.307906 9.087511 20.029516 1.152156 1.099877 0.048027 -0.024097 490059.000000 1 0 0
13.558491 15.487806 -1.930189 20.674391 0.851723 1.664294 0.140647 -0.032566 306652.000000 1 0 0
12.833091 16.595806 4.458811 21.447377 0.912566 1.361373 0.093076 -0.028181 336628.000000 1 0 0
2.735291 18.417906 0.400711 18.624222 1.423361 1.549279 0.024424 -0.026389 160420.000000 1 0 0
-7.303409 17.642806 1.183511 19.131364 -1.178314 1.508894 0.006851 0.012025 367062.000000 1 0 0
0.526991 19.725306 -5.749889 20.553020 1.544086 1.854339 0.046806 -0.014275 261476.000000 1 0 0
-7.354409 17.940606 -6.525889 20.458247 -1.181758 1.895455 0.052095 -0.020702 56628.000000 1 0 0
-7.653509 18.386106 -1.911489 20.006971 -1.176347 1.666483 0.053102 -0.006061 49181.400000 1 0 0
-14.373109 -8.579294 8.987911 18.999292 0.538136 1.078029 0.050631 -0.019016 330429.000000 1 0 0
-13.197209 -13.656594 7.890011 20.565047 0.802503 1.177039 0.055759 -0.007379 21185.200000 1 0 0
-3.575509 -15.930394 12.425111 20.516947 1.350010 0.920274 0.046144 -0.015619 125241.000000 1 0 0
-1.778809 -15.104694 15.308011 21.578952 1.453571 0.782156 0.043571 -0.008697 517163.000000 1 0 0
-7.595309 -13.846394 13.330711 20.666863 1.069074 0.869736 0.038383 -0.015038 130226.000000 1 0 0
-10.113509 -10.799794 11.748111 18.892769 0.818202 0.899718 0.059370 -0.029839 4667.950000 1 0 0
-7.426909 -10.479994 12.825111 18.151384 0.954272 0.786166 0.037480 -0.021153 335012.000000 1 0 0
-15.002209 -11.615494 8.205511 20.671633 0.658843 1.162610 0.049484 0.008173 343943.000000 1 0 0
-4.740409 -12.778094 13.069511 18.882884 1.215555 0.806353 0.037889 -0.015760 358834.000000 1 0 0
3.660091 -12.630594 13.760711 19.033795 -1.288742 0.762716 0.003100 -0.000431 437197.000000 1 0 0
6.327991 -13.693594 14.474711 20.906345 -1.137915 0.806042 0.029888 -0.011321 275077.000000 1 0 0
7.138891 -8.648094 16.434511 19.895890 -0.880706 0.598777 0.063517 -0.021673 388875.000000 1 0 0
-5.576109 13.374706 13.249911 19.635068 -1.175794 0.830091 0.019709 -0.012673 594021.000000 1 0 0
-13.560009 -2.030894 17.632211 22.335918 0.148666 0.660948 0.050108 -0.012817 386488.000000 1 0 0
-10.232809 9.378706 13.195911 19.152090 -0.741875 0.810679 0.003852 -0.011045 351066.000000 1 0 0
-7.443709 -8.501194 16.986011 20.401071 0.851622 0.587004 0.045355 -0.027880 137942.000000 1 0 0
-5.041709 2.038006 18.735711 19.508951 -0.384147 0.282488 0.021728 0.001471 523957.000000 1 0 0
-15.938609 -3.435994 14.266011 21.664819 0.212327 0.851989 0.070065 -0.031694 225296.000000 1 0 0
-14.826909 3.059606 13.181711 20.073762 -0.203499 0.854410 0.036176 0.007506 339893.000000 1 0 0
-14.409709 10.681906 10.299611 20.683926 -0.637909 1.049560 -0.013006 0.018507 141245.000000 1 0 0
-4.904909 11.298506 15.524111 19.816972 -1.161226 0.670720 0.016980 -0.008276 277117.000000 1 0 0
-13.417009 12.745006 7.825211 20.091919 -0.759718 1.170740 0.025482 -0.037759 176832.000000 1 0 0
-3.776009 -6.350994 18.442511 19.867551 1.034391 0.381054 0.038427 -0.020740 205483.000000 1 0 0
0.431191 -2.858994 17.861711 18.094212 -1.421105 0.160481 0.014019 -0.018846 64837.100000 1 0 0
-4.444609 6.415106 21.067311 22.466413 -0.964895 0.354775 0.036806 -0.012029 345902.000000 1 0 0
2.131591 -10.411094 16.351411 19.501364 -1.368845 0.576317 0.010754 -0.019308 55456.400000 1 0 0
-15.081609 -0.200494 13.646011 20.339832 0.013293 0.835373 0.018385 -0.015201 21738.900000 1 0 0
-13.543209 -6.072994 8.982411 17.348875 0.421536 1.026575 0.021246 -0.000513 257782.000000 1 0 0
10.061991 1.087806 16.387211 19.260521 0.107692 0.553255 0.094934 -0.013244 396916.000000 1 0 0
-7.794209 12.345706 11.657311 18.683122 -1.007658 0.897011 0.018343 -0.012733 77750.600000 1 0 0
-1.472209 7.301806 19.844511 21.196424 -1.371841 0.359082 0.032867 -0.027902 487163.000000 1 0 0
1.348091 -13.161794 15.217011 20.164514 -1.468728 0.715686 -0.007609 -0.023867 643946.000000 1 0 0
-3.303709 -11.478294 17.549111 21.228213 1.290549 0.597601 0.062316 -0.032878 423732.000000 1 0 0
-2.727309 8.643906 16.896311 19.173958 -1.265164 0.492377 0.025873 -0.008899 266405.000000 1 0 0
-5.922009 -9.348394 19.934911 22.800512 1.006123 0.506766 0.136587 -0.042727 78015.500000 1 0 0
-6.750109 -2.694694 19.067711 20.405954 0.379823 0.364172 0.035531 -0.018303 368097.000000 1 0 0
-10.968009 -8.081294 16.037111 21.042658 0.635003 0.704209 0.077254 -0.037973 66885.700000 1 0 0
0.068991 6.693106 17.881111 19.092840 1.560489 0.358184 0.013760 -0.004177 236864.000000 1 0 0
-6.087809 -11.751594 18.462911 22.716524 1.092820 0.621935 0.091299 -0.039617 306218.000000 1 0 0
0.446891 3.647706 18.711711 19.069179 1.448891 0.193932 0.016468 -0.009588 261834.000000 1 0 0
-18.556109 -0.236194 7.406911 19.981174 0.012728 1.191040 0.078782 -0.031586 94497.300000 1 0 0
-1.797409 -8.765694 17.457711 19.617333 1.368549 0.473643 0.021408 -0.018868 334916.000000 1 0 0
5.074391 3.419006 14.323811 15.575962 0.592909 0.403710 0.011068 -0.003329 -21015.900000 1 0 0
-15.049709 -7.282994 11.238111 20.145245 0.450709 0.978998 0.105249 0.007702 213425.000000 1 0 0
3.379691 8.290106 16.984311 19.199349 1.183689 0.485097 0.031013 -0.006352 175299.000000 1 0 0
6.319691 4.310606 17.597711 19.188519 0.598605 0.410063 0.048180 -0.029512 346053.000000 1 0 0
4.273591 -9.839694 17.780711 20.766243 -1.161057 0.542866 0.003185 -0.014938 202813.000000 1 0 0
-4.510009 -0.934394 19.943311 20.468242 0.204292 0.226965 0.027883 -0.005981 680909.000000 1 0 0
-11.320409 1.910906 16.951311 20.473157 -0.167225 0.595305 0.039930 -0.013518 183341.000000 1 0 0
-16.660609 -4.579794 8.496411 19.254595 0.268262 1.113787 0.048004 -0.029745 101532.000000 1 0 0
-13.551109 -8.621194 14.114511 21.381697 0.566612 0.849816 0.087531 -0.047403 120592.000000 1 0 0
-14.636209 6.488706 13.283011 20.802892 -0.417295 0.878226 0.038914 -0.014583 323084.000000 1 0 0
1.154691 9.534706 17.248611 19.742302 1.450279 0.508064 0.024070 -0.007686 74786.300000 1 0 0
-4.097909 -10.754894 14.541511 18.544977 1.206752 0.669517 0.036240 -0.021072 398322.000000 1 0 0
-17.613509 -3.057694 7.081111 19.228295 0.171886 1.193654 0.058249 -0.022795 -103583.000000 1 0 0
-0.843209 -0.514394 21.056911 21.080064 0.547772 0.046873 0.032762 -0.010802 383990.000000 1 0 0
-2.054009 2.841806 20.173011 20.475478 -0.944943 0.172097 0.021332 -0.015632 -9781.510000 1 0 0
-7.962409 1.750406 16.458711 18.367173 -0.216392 0.459907 0.000999 0.007495 557733.000000 1 0 0
2.955191 -1.945894 19.263311 19.585577 -0.582304 0.181657 0.027612 0.006685 147806.000000 1 0 0
-12.277809 4.286906 14.128011 19.202157 -0.335925 0.744021 -0.005006 -0.015572 116464.000000 1 0 0
-13.161609 -5.229294 13.121811 19.306874 0.378189 0.823518 0.023677 -0.031300 -41165.900000 1 0 0
-17.116209 -0.912994 10.286611 19.990311 0.053290 1.030279 0.052662 -0.023402 267168.000000 1 0 0
-7.552009 7.577606 14.709811 18.188774 -0.787090 0.628806 -0.002135 -0.011734 7133.160000 1 0 0
-9.696109 0.781406 13.960811 17.015563 -0.080416 0.608558 0.019704 -0.006050 274985.000000 1 0 0
7.664991 -0.721294 14.699911 16.593967 -0.093826 0.482455 0.036512 -0.007291 50650.000000 1 0 0
3.817691 6.500906 18.438611 19.920314 1.039801 0.388130 0.010459 -0.001153 73996.700000 1 0 0
1.423991 0.701806 20.226511 20.288717 0.457907 0.078327 0.014218 0.004912 219611.000000 1 0 0
-7.091209 6.735706 17.699011 20.221522 -0.759693 0.504831 0.000383 -0.004714 613114.000000 1 0 0
7.721791 -3.344494 16.921611 18.898482 -0.408732 0.461478 0.052990 -0.000023 455096.000000 1 0 0
-16.686809 2.453706 9.387711 19.302834 -0.145998 1.062902 0.045868 -0.016696 274156.000000 1 0 0
3.636891 -5.950594 19.180111 20.408655 -1.022196 0.348744 0.043711 -0.023818 112176.000000 1 0 0
-3.856809 -3.875194 20.581811 21.295611 0.787776 0.259644 0.032269 -0.015296 418802.000000 1 0 0
-9.585409 5.605106 14.573411 18.321615 -0.529134 0.651093 -0.002917 -0.004431 -178820.000000 1 0 0
6.210891 2.517506 20.011411 21.103781 0.385099 0.323155 0.090087 -0.015974 -13727.900000 1 0 0
-7.383709 11.556106 14.485911 19.947540 -1.002232 0.758017 0.025345 -0.018545 208603.000000 1 0 0
-14.279609 4.998506 9.866811 18.062288 -0.336715 0.992897 0.008971 -0.009301 261361.000000 1 0 0
0.743991 -5.692694 20.416411 21.208256 -1.440841 0.274122 0.048321 -0.024021 256390.000000 1 0 0
-6.430509 -8.275194 13.575511 17.150067 0.910186 0.657419 0.025174 -0.008999 313751.000000 1 0 0
-12.608309 10.091506 6.388111 17.367093 -0.674976 1.194124 -0.015934 -0.019675 36958.400000 1 0 0
-19.679509 2.270006 7.829511 21.301109 -0.114841 1.194409 0.089157 -0.035240 -25603.900000 1 0 0
-16.003109 9.064006 6.240711 19.421693 -0.515340 1.243666 0.022283 -0.014193 26584.700000 1 0 0
-12.823109 8.292806 14.054311 20.753949 -0.574057 0.826863 0.024589 -0.008173 228741.000000 1 0 0
-16.577309 7.804706 10.334711 21.036322 -0.440021 1.057238 0.056240 -0.050761 333272.000000 1 0 0
2.193491 10.720906 14.280911 17.991488 1.368982 0.653831 0.029535 -0.050337 492815.000000 1 0 0
1.914891 14.803106 11.691011 18.959918 1.442153 0.906358 0.046208 -0.047369 565777.000000 1 0 0
8.602891 5.255206 16.597011 19.418746 0.548370 0.545843 0.061798 -0.013813 158449.000000 1 0 0
-0.012809 13.017106 13.659511 18.868690 -1.569812 0.761322 0.022655 0.005045 384318.000000 1 0 0
4.296991 14.362906 15.039011 21.235090 1.280099 0.783830 0.057234 0.020398 103838.000000 1 0 0
-3.321809 -4.474094 -13.006189 14.149660 0.932142 2.736808 -0.001188 -0.010674 142416.000000 1 0 0
5.772891 -12.561294 16.921111 21.850318 -1.140006 0.685014 0.021724 0.015777 96134.500000 1 0 0
8.862391 -13.535794 7.285611 17.743727 -0.991098 1.147682 0.029518 -0.013021 411369.000000 1 0 0
-0.331609 15.594706 0.473711 15.605422 -1.549535 1.540436 0.006125 -0.005853 -620317.000000 1 0 0
-13.950109 7.833106 8.204611 17.979954 -0.511636 1.096941 -0.008141 -0.009219 171046.000000 1 0 0
-16.440609 -9.422394 4.770311 19.540497 0.520418 1.324180 0.045484 -0.008913 318125.000000 1 0 0
9.555891 -10.289594 11.429211 18.105736 -0.822352 0.887635 0.053925 -0.004293 52582.700000 1 0 0
-26.805129 5.997306 30.820751 41.284395 -0.220112 0.727939 0.081309 -0.032365 200358.000000 0 0 1
-25.695379 5.139006 30.570291 40.264185 -0.197393 0.708648 0.081747 -0.031483 1073340.000000 0 0 1
-24.530109 5.446406 31.346712 40.174693 -0.218485 0.675715 0.073599 -0.025020 -141363.000000 0 0 1
-23.255109 4.752806 30.972541 39.021629 -0.201600 0.653884 0.076494 -0.033315 -1115620.000000 0 0 1
-23.092409 3.451906 31.405259 39.133940 -0.148384 0.639311 0.050850 -0.032589 343421.000000 0 0 1
-21.804809 2.989006 31.009441 38.025903 -0.136231 0.617235 0.071890 -0.030547 452651.000000 0 0 1
-21.386409 1.611406 31.677668 38.255062 -0.075205 0.595149 0.056748 -0.030367 -53175.900000 0 0 1
-22.126709 0.478906 31.288478 38.324789 -0.021640 0.615642 0.051984 -0.026577 -39265.100000 0 0 1
-22.057209 -0.505194 32.275110 39.095503 0.022900 0.599629 0.049454 -0.030067 -244448.000000 0 0 1
-22.824109 -1.795394 31.948684 39.304984 0.078501 0.621784 0.059992 -0.037697 -812766.000000 0 0 1
-22.054909 -2.716394 31.236619 38.334373 0.122548 0.618332 0.092128 -0.042218 -33866.900000 0 0 1
-22.484309 -4.071894 31.362077 38.803406 0.179158 0.629656 0.099314 -0.043508 661203.000000 0 0 1
-24.005809 -4.377294 30.990151 39.443999 0.180362 0.667010 0.064061 -0.035441 1406590.000000 0 0 1
-24.987539 -4.002694 31.968413 40.772271 0.158838 0.669596 0.043105 -0.026456 300112.000000 0 0 1
-25.006489 -4.651694 33.262301 41.872944 0.183917 0.652839 0.037518 -0.032530 -1059590.000000 0 0 1
-26.006739 -4.026294 -33.124799 42.306191 0.153598 2.470235 0.052981 -0.022597 -567786.000000 0 0 1
-25.996909 -4.575794 -31.798389 41.326925 0.174228 2.448753 0.060136 -0.032021 -195335.000000 0 0 1
-27.070939 -4.095794 -31.053779 41.399861 0.150160 2.419000 0.074832 -0.027248 -491280.000000 0 0 1
-27.231259 -4.834994 -29.762799 40.629335 0.175722 2.392849 0.072132 -0.031840 -487226.000000 0 0 1
-27.492549 -6.213794 -30.053759 41.202912 0.222283 2.388253 0.069357 -0.023424 633091.000000 0 0 1
-27.365659 -6.933094 -28.854459 40.367399 0.248129 2.367129 0.065897 -0.012983 -442166.000000 0 0 1
-27.526759 -8.435594 -28.957489 40.834028 0.297364 2.359090 0.068648 -0.010879 -708724.000000 0 0 1
-28.859639 -8.804494 -28.794569 41.707614 0.296111 2.332826 0.075304 -0.012643 -439180.000000 0 0 1
-28.960629 -10.200494 -28.782519 42.085645 0.338651 2.323896 0.084168 -0.009481 398085.000000 0 0 1
-30.387269 -10.503894 -28.246899 42.797257 0.332810 2.291637 0.113530 -0.011588 282384.000000 0 0 1
-30.443379 -10.726394 -26.831299 41.973485 0.338757 2.264311 0.132416 -0.020896 533657.000000 0 0 1
-31.748629 -10.948494 -26.271019 42.638145 0.332079 2.234627 0.128813 -0.025875 624885.000000 0 0 1
-31.679239 -11.755794 -24.983289 42.023060 0.355337 2.207457 0.143880 -0.023316 206912.000000 0 0 1
-31.092989 -10.933694 -23.927089 40.728678 0.338140 2.198732 0.142273 -0.019543 493580.000000 0 0 1
-31.168609 -11.639494 -22.705289 40.280146 0.357399 2.169636 0.155483 -0.023383 -140688.000000 0 0 1
-30.571389 -10.864794 -21.478389 38.909829 0.341469 2.155562 0.173020 -0.038304 3896.210000 0 0 1
-30.498139 -11.588894 -20.283389 38.416856 0.363136 2.127018 0.182571 -0.033329 193792.000000 0 0 1
-29.456159 -12.550394 -20.213489 37.865061 0.402777 2.133919 0.184505 -0.039481 -401404.000000 0 0 1
-29.136999 -12.820994 -18.733189 36.936093 0.414527 2.102704 0.166379 -0.044376 -328704.000000 0 0 1
-28.619969 -11.674694 -18.188989 35.864194 0.387316 2.102686 0.154036 -0.045827 -56388.100000 0 0 1
-28.414659 -11.870894 -16.816189 35.086966 0.395734 2.070621 0.142158 -0.048132 -191417.000000 0 0 1
-27.962689 -10.583794 -16.112589 33.963866 0.361833 2.065083 0.135294 -0.041408 -1770050.000000 0 0 1
-26.630109 -10.355694 -16.233489 32.862277 0.370876 2.087464 0.127697 -0.041331 -1440200.000000 0 0 1
-26.245159 -9.146894 -15.699489 31.920965 0.335353 2.084979 0.127328 -0.045465 194159.000000 0 0 1
-24.756909 -8.763494 -15.913289 30.707265 0.340218 2.115571 0.131608 -0.041876 429943.000000 0 0 1
-23.826009 -9.302194 -15.007189 29.655105 0.372222 2.101404 0.133975 -0.045090 -338156.000000 0 0 1
-22.596809 -8.661194 -14.977889 28.459958 0.366021 2.125015 0.159727 -0.066406 -87704.500000 0 0 1
-21.627209 -9.076194 -13.784089 27.205047 0.397344 2.102119 0.135183 -0.036712 1067710.000000 0 0 1
-20.645809 -10.039494 -14.237689 27.013935 0.452606 2.125922 0.122549 -0.029335 1066740.000000 0 0 1
-19.433709 -9.967194 -13.493289 25.672609 0.473900 2.124206 0.135894 -0.028164 854416.000000 0 0 1
-18.249309 -10.823894 -14.067189 25.457411 0.535340 2.156250 0.140362 -0.021560 688669.000000 0 0 1
-17.663309 -10.474394 -15.306689 25.612500 0.535259 2.211333 0.142372 -0.044701 675042.000000 0 0 1
-18.523109 -10.936194 -16.349189 27.018547 0.533337 2.220700 0.136356 -0.049761 426146.000000 0 0 1
-17.989709 -10.444894 -17.724989 27.329484 0.526036 2.276496 0.149272 -0.050968 379456.000000 0 0 1
-18.941109 -10.866294 -18.695789 28.746730 0.520848 2.278858 0.114818 -0.039893 753864.000000 0 0 1
-18.493409 -10.387194 -19.948689 29.117867 0.511759 2.325539 0.122368 -0.045195 -394703.000000 0 0 1
-19.440709 -10.759994 -21.064689 30.617638 0.505509 2.329515 0.131006 -0.036084 -194156.000000 0 0 1
-20.688909 -10.096494 -20.989089 31.153042 0.454014 2.310056 0.104460 -0.039561 379414.000000 0 0 1
-21.602909 -10.447594 -22.014389 32.564877 0.450458 2.313139 0.107011 -0.020225 392385.000000 0 0 1
-22.596109 -9.310494 -22.345589 33.114873 0.390842 2.311477 0.092082 -0.017718 124215.000000 0 0 1
-21.957509 -8.361394 -23.215989 33.030702 0.363845 2.350208 0.097374 -0.036800 491016.000000 0 0 1
-22.798709 -7.832094 -24.225689 34.176115 0.330901 2.358661 0.095710 -0.026862 -42844.700000 0 0 1
-21.948509 -7.170594 -25.369739 34.304200 0.315769 2.403201 0.095404 -0.029421 -179306.000000 0 0 1
-21.172709 -8.177594 -25.936349 34.465212 0.368582 2.422702 0.096071 -0.037893 -268468.000000 0 0 1
-20.433009 -7.579794 -26.959439 34.666590 0.355223 2.461760 0.103779 -0.052734 -190918.000000 0 0 1
-19.434609 -8.470294 -27.724839 34.901527 0.411013 2.488771 0.107240 -0.055416 67669.100000 0 0 1
-20.102809 -9.367894 -28.610989 36.200401 0.436079 2.482176 0.102626 -0.046288 1254500.000000 0 0 1
-19.132809 -10.270494 -29.230609 36.413952 0.492653 2.502657 0.084861 -0.044746 660092.000000 0 0 1
-19.739609 -11.286894 -30.238229 37.833803 0.519418 2.496823 0.081852 -0.031531 -207875.000000 0 0 1
-20.320309 -10.718194 -31.386909 38.896436 0.485375 2.509741 0.088478 -0.028299 233604.000000 0 0 1
-20.735809 -11.748894 -32.231839 40.086179 0.515498 2.504895 0.071111 -0.027618 -120156.000000 0 0 1
-21.335709 -11.115494 -33.513589 41.254422 0.480291 2.518990 0.069754 -0.028005 -684407.000000 0 0 1
-20.404909 -10.475294 32.998323 40.186831 0.474287 0.607421 0.055931 -0.025147 -354710.000000 0 0 1
-20.730309 -10.508894 31.621261 39.243939 0.469179 0.633836 0.065349 -0.027845 -464728.000000 0 0 1
-20.142209 -11.754194 30.889351 38.704285 0.528244 0.646684 0.070215 -0.030021 526898.000000 0 0 1
-18.720809 -11.609094 30.762891 37.836427 0.555080 0.621425 0.072673 -0.026001 1010270.000000 0 0 1
-17.960909 -12.651694 30.132481 37.291098 0.613674 0.629989 0.073973 -0.025166 275562.000000 0 0 1
-18.060109 -14.114194 30.578771 38.215694 0.663366 0.643230 0.066399 -0.016885 -781468.000000 0 0 1
-19.210309 -14.801794 30.054241 38.618473 0.656501 0.678946 0.056005 -0.025240 602997.000000 0 0 1
-19.441609 -16.086594 30.561501 39.632815 0.691245 0.690204 0.064024 -0.027539 65660.400000 0 0 1
-19.895009 -16.284094 32.045674 41.084162 0.685921 0.676129 0.039365 -0.042100 473503.000000 0 0 1
-18.862709 -15.935294 32.979486 41.199295 0.701470 0.642690 0.069070 -0.033230 892358.000000 0 0 1
-19.501409 -15.230894 -33.255569 41.451393 0.663057 2.501899 0.056848 -0.027023 181122.000000 0 0 1
-18.418209 -14.866994 -32.260169 40.012204 0.679110 2.508596 0.086643 -0.031750 272339.000000 0 0 1
-17.465609 -13.973194 -32.890289 39.775228 0.674766 2.544376 0.072962 -0.029749 1221220.000000 0 0 1
-16.241209 -13.624594 -32.190029 38.543539 0.698009 2.559220 0.078340 -0.027294 1122460.000000 0 0 1
-16.293909 -13.128194 -30.718169 37.167820 0.678214 2.543608 0.082290 -0.029760 -628627.000000 0 0 1
-16.484809 -14.228194 -29.886479 36.978265 0.712056 2.511915 0.087006 -0.032122 -195895.000000 0 0 1
-16.783209 -13.837194 -28.539389 35.883712 0.689483 2.490348 0.066262 -0.025177 -185770.000000 0 0 1
-16.982509 -15.088294 -27.692919 35.818431 0.726403 2.454585 0.079228 -0.024717 735490.000000 0 0 1
-15.774709 -15.719494 -27.238139 35.183237 0.783645 2.456214 0.107612 -0.049464 741408.000000 0 0 1
-15.020809 -16.414294 -28.232939 35.946524 0.829698 2.474163 0.112360 -0.052850 126911.000000 0 0 1
-13.675709 -17.046494 -27.753109 35.324822 0.894679 2.474550 0.159225 -0.050193 -198721.000000 0 0 1
-12.576809 -16.205294 -27.868819 34.604317 0.910804 2.507073 0.135363 -0.048776 -546197.000000 0 0 1
-11.727409 -16.445594 -26.724239 33.498875 0.951330 2.494376 0.169504 -0.053756 -645495.000000 0 0 1
-10.325809 -15.969094 -26.995529 33.021098 0.996806 2.527894 0.142059 -0.055543 -845957.000000 0 0 1
-10.238409 -14.562394 -27.057079 32.387866 0.958012 2.559671 0.132700 -0.055509 -365405.000000 0 0 1
-8.881009 -14.302294 -27.333329 32.102006 1.015115 2.589545 0.170908 -0.060329 72510.100000 0 0 1
-8.476109 -12.906294 -27.905559 31.892587 0.989696 2.636203 0.143278 -0.063351 101555.000000 0 0 1
-9.009509 -12.595794 -29.216329 33.066889 0.949889 2.654190 0.163227 -0.058213 261068.000000 0 0 1
-8.671609 -11.278294 -29.641569 32.878858 0.915324 2.694109 0.143079 -0.060668 968965.000000 0 0 1
-7.327609 -11.137394 -30.455849 33.245964 0.988868 2.728981 0.139226 -0.044654 747565.000000 0 0 1
-6.073109 -11.398394 -29.817379 32.494340 1.081251 2.732841 0.128591 -0.041588 1714280.000000 0 0 1
-4.926409 -11.028294 -30.630119 32.925628 1.150685 2.765977 0.127993 -0.035833 625161.000000 0 0 1
-4.755509 -9.506594 -30.908239 32.685003 1.106963 2.810353 0.109506 -0.032889 -847722.000000 0 0 1
-3.477009 -9.176694 -31.425419 32.922003 1.208615 2.838914 0.141474 -0.042552 394495.000000 0 0 1
-3.480809 -7.802594 -31.913469 33.037343 1.151183 2.880009 0.138545 -0.037625 191251.000000 0 0 1
-2.071309 -7.358894 -32.377999 33.268280 1.296425 2.909727 0.146649 -0.040135 176468.000000 0 0 1
-1.527409 -8.083494 -33.453599 34.450242 1.384044 2.900468 0.153361 -0.043540 -115990.000000 0 0 1
-0.301109 -7.499194 33.478441 34.309395 1.530666 0.220535 0.170424 -0.032925 -52414.100000 0 0 1
0.221391 -7.909194 32.088840 33.049932 -1.542812 0.241752 0.149319 -0.034237 -488117.000000 0 0 1
-0.544209 -7.464594 31.013351 31.903672 1.498020 0.236801 0.127320 -0.029308 17297.700000 0 0 1
-0.122709 -8.175494 29.859161 30.958412 1.555788 0.267281 0.098311 -0.031423 201329.000000 0 0 1
-0.459009 -7.473894 28.518651 29.485305 1.509458 0.256768 0.074337 -0.024847 173428.000000 0 0 1
0.430691 -6.384494 28.350711 29.063896 -1.503439 0.221989 0.101725 -0.023975 321121.000000 0 0 1
0.208291 -5.812294 27.047121 27.665374 -1.534975 0.211808 0.094507 -0.021792 755338.000000 0 0 1
-1.056609 -4.863094 26.873451 27.330358 1.356851 0.183110 0.067704 -0.009691 918470.000000 0 0 1
-2.302809 -5.503194 26.893951 27.547644 1.174487 0.218284 0.035538 0.000340 -1140980.000000 0 0 1
-3.324009 -4.695994 26.430341 27.049294 0.954828 0.214337 0.027587 -0.005090 -528209.000000 0 0 1
-4.680809 -5.241494 26.916011 27.818247 0.841846 0.255382 0.028140 0.004657 -102263.000000 0 0 1
-5.160609 -6.429694 26.221021 27.486629 0.894459 0.304638 0.032406 0.004941 -148303.000000 0 0 1
-6.408209 -6.840294 26.720601 28.316873 0.818001 0.337371 0.037591 -0.000472 169402.000000 0 0 1
-6.598309 -8.352294 26.588831 28.640259 0.902183 0.380787 0.053101 -0.008593 42911.500000 0 0 1
-5.786209 -9.105694 27.456911 29.500438 1.004718 0.374395 0.053133 -0.013361 -123925.000000 0 0 1
-5.943209 -10.492494 27.326701 29.869094 1.055430 0.415580 0.052099 -0.018224 80189.500000 0 0 1
-5.219909 -11.342994 28.422651 31.044453 1.139502 0.413931 0.046354 -0.013926 -133444.000000 0 0 1
-5.410809 -12.734994 28.243761 31.451025 1.169030 0.455540 0.079207 -0.020819 -144134.000000 0 0 1
-4.925909 -13.505794 29.286031 32.624265 1.221064 0.456329 0.100669 -0.025598 -225954.000000 0 0 1
-5.091709 -15.015594 29.096091 33.135722 1.243870 0.498944 0.152311 -0.063505 -366395.000000 0 0 1
-6.441209 -15.377294 29.160351 33.589826 1.174123 0.519373 0.174517 -0.056477 -568062.000000 0 0 1
-6.524209 -16.797594 29.211451 34.322490 1.200329 0.552743 0.187242 -0.057994 196107.000000 0 0 1
-6.769009 -17.420994 30.638491 35.889102 1.200195 0.547749 0.205367 -0.053440 733864.000000 0 0 1
-8.058409 -17.145094 31.205291 36.505649 1.131425 0.545617 0.189342 -0.057425 378477.000000 0 0 1
-8.131909 -17.575194 32.568814 37.891200 1.137438 0.536437 0.195447 -0.056911 -975045.000000 0 0 1
-9.532909 -17.428194 33.108173 38.610483 1.070273 0.540422 0.188713 -0.040092 -124661.000000 0 0 1
-10.525609 -18.337794 32.605995 38.861473 1.049726 0.575296 0.212962 -0.049813 219384.000000 0 0 1
-11.253909 -17.752194 31.547633 37.908363 1.005791 0.587719 0.200332 -0.061179 -367936.000000 0 0 1
-12.066809 -18.955494 30.937341 38.236602 1.003909 0.628173 0.193595 -0.050960 621295.000000 0 0 1
-13.149709 -19.397594 31.781129 39.486981 0.975054 0.635372 0.179263 -0.051381 376824.000000 0 0 1
-13.299709 -20.796094 31.701275 40.178734 1.001817 0.661606 0.179857 -0.051530 -143677.000000 0 0 1
-12.449409 -21.698194 32.613525 41.102815 1.049900 0.654320 0.193354 -0.054384 1022030.000000 0 0 1
-11.036209 -21.776094 32.274891 40.468071 1.101720 0.647591 0.209257 -0.064162 1424950.000000 0 0 1
-10.164009 -22.234294 33.299421 41.310076 1.142027 0.633290 0.223392 -0.070982 282732.000000 0 0 1
-10.328409 -23.712794 -33.614259 42.413336 1.160013 2.485759 0.204859 -0.053958 -499759.000000 0 0 1
-9.930309 -24.641694 32.745477 42.167409 1.187717 0.681611 0.211567 -0.060550 -78876.500000 0 0 1
-9.983009 -25.971224 33.233551 43.343210 1.203821 0.697028 0.209828 -0.061487 -1436300.000000 0 0 1
-9.417809 -26.971264 32.266626 43.096164 1.234853 0.724679 0.174767 -0.050428 506935.000000 0 0 1
-8.021609 -26.840514 32.005809 42.533883 1.280384 0.718980 0.198970 -0.065082 580060.000000 0 0 1
-7.176609 -27.174784 33.095752 43.420058 1.312600 0.704056 0.196652 -0.058590 -1144500.000000 0 0 1
-5.660309 -27.165614 32.876852 43.022054 1.365373 0.701018 0.192173 -0.077222 -25581.100000 0 0 1
-5.079709 -26.060584 33.573391 42.803389 1.378291 0.669128 0.199316 -0.070579 -342116.000000 0 0 1
-4.009509 -25.549784 32.837779 41.799370 1.415137 0.667124 0.255644 -0.067275 -304780.000000 0 0 1
-3.480309 -24.170494 33.318601 41.309255 1.427789 0.632478 0.232811 -0.065384 -205418.000000 0 0 1
-2.715209 -24.186894 -32.796669 40.841152 1.459005 2.503159 0.185718 -0.072494 100523.000000 0 0 1
-2.190409 -22.919494 -32.556179 39.874878 1.475516 2.526047 0.173884 -0.069167 -261262.000000 0 0 1
36.061153 -15.886094 1.873711 39.449785 -0.414953 1.523282 0.253334 -0.076327 228996.000000 0 0 1
37.165793 -15.805594 2.748611 40.480462 -0.402102 1.502844 0.204466 -0.065088 848068.000000 0 0 1
36.636293 -15.943994 4.103511 40.165504 -0.410476 1.468453 0.197557 -0.052396 494436.000000 0 0 1
37.809563 -15.691494 5.088311 41.251387 -0.393382 1.447133 0.172281 -0.033716 -487846.000000 0 0 1
-37.598049 -16.763594 5.053311 41.474900 0.419409 1.448653 0.161934 -0.034140 -431135.000000 0 0 1
-36.993779 -16.882394 6.339911 41.155187 0.428128 1.416132 0.151112 -0.022507 240432.000000 0 0 1
-35.905129 -18.021094 6.381411 40.677519 0.465173 1.413268 0.107652 -0.030642 240182.000000 0 0 1
-36.359909 -19.334194 6.323211 41.663378 0.488720 1.418439 0.100260 -0.030218 -202092.000000 0 0 1
-35.303028 -20.152294 6.738711 41.204720 0.518700 1.406516 0.068939 -0.017664 -179904.000000 0 0 1
-35.546182 -21.654094 6.717211 42.161022 0.547144 1.410792 0.081457 -0.011765 -378995.000000 0 0 1
-35.237916 -22.346294 5.540411 42.092324 0.565155 1.438788 0.102430 -0.012704 147112.000000 0 0 1
-35.418732 -23.735594 5.704911 43.016404 0.590405 1.437783 0.104228 -0.013426 164699.000000 0 0 1
-34.793006 -24.464894 4.480811 42.768703 0.612841 1.465835 0.107920 -0.014058 -19466.600000 0 0 1
-35.434924 -24.094494 3.303111 42.977774 0.597152 1.493864 0.100162 -0.005171 356941.000000 0 0 1
-34.837780 -24.781294 2.183611 42.808312 0.618292 1.519765 0.079735 -0.003113 128042.000000 0 0 1
-35.427214 -24.249294 0.835211 42.939648 0.600235 1.551344 0.085374 -0.000189 -111233.000000 0 0 1
-36.734119 -24.700094 0.564911 44.269733 0.591963 1.558035 0.066538 0.008436 156790.000000 0 0 1
-37.422389 -23.937494 -0.434389 44.425528 0.569070 1.580574 0.076885 0.000657 65008.900000 0 0 1
37.768883 -23.005094 0.206911 44.224040 -0.547085 1.566118 0.105450 -0.012993 420851.000000 0 0 1
36.452283 -23.533294 0.042911 43.388785 -0.573270 1.569807 0.073896 -0.001953 187572.000000 0 0 1
35.463313 -22.698894 0.575311 42.109587 -0.569361 1.557134 0.120819 -0.018907 520723.000000 0 0 1
33.995393 -23.024594 0.163511 41.059048 -0.595318 1.566814 0.079149 -0.005361 645511.000000 0 0 1
33.598813 -22.715594 -1.132289 40.572904 -0.594493 1.598707 0.086312 -0.016862 200482.000000 0 0 1
32.200183 -22.696394 -1.378189 39.419253 -0.613976 1.605766 0.095904 -0.010832 653070.000000 0 0 1
31.687683 -22.537694 -2.841289 38.988842 -0.618233 1.643735 0.095213 0.000217 28834.200000 0 0 1
31.935943 -21.223294 -3.315589 38.487995 -0.586542 1.657049 0.120577 -0.020161 11064.000000 0 0 1
31.674033 -21.021594 -4.716289 38.306594 -0.585936 1.694229 0.130609 -0.043023 146630.000000 0 0 1
31.699653 -19.564394 -5.109289 37.599712 -0.552956 1.707104 0.156206 -0.046001 186959.000000 0 0 1
30.680363 -18.845194 -4.443089 36.279017 -0.550826 1.693575 0.182157 -0.045486 161218.000000 0 0 1
30.871463 -17.417894 -4.519089 35.733072 -0.513685 1.697604 0.199307 -0.052510 -49905.400000 0 0 1
30.130463 -16.656994 -3.384489 34.594147 -0.505013 1.668787 0.218653 -0.040586 116690.000000 0 0 1
30.748563 -16.584594 -2.059789 34.996651 -0.494639 1.629687 0.222199 -0.037033 457528.000000 0 0 1
31.352733 -17.748494 -1.429789 36.056167 -0.515113 1.610461 0.202080 -0.019680 280861.000000 0 0 1
30.372863 -18.916094 -1.130789 35.799554 -0.557013 1.602388 0.170175 -0.018132 74697.200000 0 0 1
29.612263 -18.754094 0.048911 35.051456 -0.564561 1.569401 0.151776 0.002834 61787.200000 0 0 1
28.608863 -19.746194 0.044211 34.761777 -0.604127 1.569524 0.134433 0.004502 68553.300000 0 0 1
27.643963 -19.709094 1.266711 33.974132 -0.619372 1.533503 0.120275 0.010163 926685.000000 0 0 1
26.508363 -20.589294 1.065711 33.581961 -0.660377 1.539056 0.104785 0.004090 879184.000000 0 0 1
25.524063 -20.465794 2.075511 32.781615 -0.675852 1.507441 0.099377 0.002234 527632.000000 0 0 1
24.075563 -20.050394 1.694011 31.377073 -0.694430 1.516781 0.079091 0.001149 377113.000000 0 0 1
23.853963 -18.737994 1.248711 30.359237 -0.665855 1.529654 0.133283 -0.018436 74843.600000 0 0 1
23.807063 -17.858494 2.315311 29.850674 -0.643587 1.493155 0.172496 -0.026404 -355930.000000 0 0 1
23.321463 -16.396694 2.111111 28.586693 -0.612786 1.496880 0.142577 -0.008428 940630.000000 0 0 1
21.947163 -16.269294 1.705311 27.372906 -0.637906 1.508457 0.129297 -0.018749 544538.000000 0 0 1
21.791663 -14.906794 1.338911 26.436372 -0.599947 1.520128 0.143412 -0.028550 178933.000000 0 0 1
20.411363 -14.648494 0.704711 25.133618 -0.622483 1.542754 0.088731 -0.014886 429112.000000 0 0 1
19.284863 -14.742294 1.600911 24.327024 -0.652685 1.504941 0.069279 -0.011827 731123.000000 0 1 0
18.342863 -13.687294 1.405211 22.929833 -0.641059 1.509475 0.073235 -0.013873 -81930.500000 0 1 0
18.711263 -12.303394 1.937711 22.477535 -0.581657 1.484483 0.093007 -0.017288 -392516.000000 0 1 0
19.716363 -11.604894 1.214111 22.910316 -0.531989 1.517777 0.116152 -0.020379 407503.000000 0 1 0
20.004263 -10.371894 1.803811 22.605319 -0.478325 1.490916 0.138415 -0.015380 -106001.000000 0 1 0
20.894763 -9.529994 0.841711 22.980870 -0.427911 1.534162 0.140172 -0.023757 -107300.000000 0 1 0
20.308963 -9.392294 -0.406789 22.379335 -0.433176 1.588974 0.148630 -0.019392 837730.000000 0 1 0
21.229863 -8.695094 -1.284589 22.977422 -0.388728 1.626732 0.142613 -0.021801 28276.000000 0 1 0
20.685663 -8.246794 -2.627389 22.423413 -0.379361 1.688238 0.140052 -0.023007 -250848.000000 0 1 0
21.567963 -7.527094 -3.497689 23.109911 -0.335779 1.722730 0.176975 -0.036442 1363990.000000 0 1 0
22.686463 -8.205894 -4.132589 24.476327 -0.347068 1.740449 0.175315 -0.042101 388985.000000 0 1 0
22.281963 -9.378894 -5.115289 24.710639 -0.398409 1.779312 0.148349 -0.040505 80763.400000 0 1 0
21.613263 -8.912294 -6.313889 24.216261 -0.391110 1.834574 0.141947 -0.050884 478897.000000 0 1 0
20.223263 -8.654494 -6.254389 22.869150 -0.404365 1.847812 0.132600 -0.032388 156831.000000 0 1 0
19.477963 -8.843794 -7.637889 22.714336 -0.426209 1.913738 0.133395 -0.028951 -135596.000000 0 1 0
19.547663 -10.138994 -8.189389 23.494178 -0.478480 1.926842 0.125534 -0.031451 -158383.000000 0 1 0
20.726063 -10.466794 -8.862889 24.853053 -0.467645 1.935435 0.124030 -0.038321 -554983.000000 0 1 0
20.778563 -11.898394 -9.450389 25.741607 -0.520050 1.946713 0.100144 -0.041905 -359907.000000 0 0 1
19.770963 -12.044594 -10.406389 25.382201 -0.547161 1.993237 0.133464 -0.045953 -200987.000000 0 0 1
19.805363 -13.314194 -10.944189 26.254436 -0.591859 2.000775 0.139228 -0.039122 -120869.000000 0 0 1
18.641463 -13.686894 -11.882389 26.000507 -0.633324 2.045423 0.143248 -0.036071 -157757.000000 0 0 1
18.663263 -15.075694 -12.107489 26.873504 -0.679463 2.038162 0.130890 -0.044110 52235.800000 0 0 1
17.925763 -15.314894 -13.262589 27.051344 -0.707015 2.083201 0.133755 -0.039677 -822426.000000 0 0 1
17.862463 -16.859894 -13.562789 28.058383 -0.756532 2.075305 0.100046 -0.046217 -1018640.000000 0 0 1
16.851163 -17.481094 -12.842389 27.467750 -0.803744 2.057307 0.092117 -0.041749 -212790.000000 0 0 1
16.824863 -18.869094 -13.039789 28.445647 -0.842607 2.047002 0.084166 -0.038275 535670.000000 0 0 1
15.655163 -19.656194 -12.325989 27.988928 -0.898224 2.026827 0.074575 -0.037069 1390280.000000 0 0 1
14.351963 -19.389094 -12.868689 27.340793 -0.933592 2.060855 0.082386 -0.042622 433862.000000 0 0 1
13.376863 -20.004394 -12.054589 26.915225 -0.981390 2.035181 0.083301 -0.031389 975210.000000 0 0 1
11.877663 -19.983794 -12.525989 26.407031 -1.034531 2.065014 0.086461 -0.035578 696742.000000 0 0 1
11.013963 -20.479194 -11.560089 25.968066 -1.077358 2.032155 0.096965 -0.041161 -313270.000000 0 0 1
9.669663 -20.366194 -12.011089 25.545068 -1.127519 2.060305 0.070785 -0.039633 297052.000000 0 0 1
8.658163 -20.960194 -11.015789 25.211924 -1.179068 2.022977 0.069507 -0.034632 -374748.000000 0 0 1
8.857363 -22.341894 -10.708089 26.311144 -1.193357 1.989941 0.092000 -0.036899 -282770.000000 0 0 1
8.097563 -22.833494 -9.646489 26.076690 -1.229998 1.949727 0.089420 -0.034325 -120324.000000 0 0 1
8.262263 -24.378694 -9.502089 27.438575 -1.244032 1.924425 0.088915 -0.032066 -5776.350000 0 0 1
9.491063 -24.752794 -8.951389 27.980501 -1.204652 1.896436 0.088046 -0.023969 -633160.000000 0 0 1
9.937863 -26.003654 -9.499689 29.414201 -1.205753 1.899655 0.080315 -0.024480 215814.000000 0 0 1
11.436163 -26.352654 -9.392189 30.223524 -1.161356 1.886786 0.071778 -0.019361 58161.700000 0 0 1
11.740863 -26.649254 -8.076889 30.220304 -1.155812 1.841352 0.079301 -0.022909 -364470.000000 0 0 1
13.064463 -27.094684 -7.890389 31.097594 -1.121508 1.827331 0.091237 -0.014995 -353817.000000 0 0 1
13.286363 -27.636494 -6.434089 31.332104 -1.122664 1.777619 0.082913 -0.020152 45227.700000 0 0 1
12.732163 -28.877654 -5.967089 32.119045 -1.155536 1.757662 0.091743 -0.023937 50677.000000 0 0 1
11.324763 -28.950824 -6.035489 31.667453 -1.197923 1.762559 0.092626 -0.021684 -207118.000000 0 0 1
10.795663 -30.038804 -5.012189 32.310960 -1.225780 1.726549 0.096685 -0.018685 85223.600000 0 0 1
11.101063 -31.402114 -5.351089 33.733671 -1.230995 1.730097 0.111883 -0.023931 83558.900000 0 0 1
10.148363 -31.993454 -6.232389 34.138147 -1.263634 1.754390 0.109775 -0.034121 301711.000000 0 0 1
10.372763 -33.486314 -6.360589 35.628423 -1.270408 1.750284 0.108584 -0.029210 -165544.000000 0 0 1
9.994763 33.360349 -5.198689 35.211284 1.279706 1.718981 0.101065 -0.031608 -196963.000000 0 0 1
10.252863 31.972836 -5.272989 33.988054 1.260482 1.726568 0.106237 -0.022371 145783.000000 0 0 1
9.619863 31.111075 -4.125189 32.824654 1.270911 1.696803 0.082641 -0.023499 -378617.000000 0 0 1
8.243963 31.010575 -4.275789 32.371299 1.310963 1.703269 0.077921 -0.022914 -1281070.000000 0 0 1
7.761663 30.010685 -3.456689 31.190276 1.317712 1.681850 0.060520 -0.018868 -492989.000000 0 0 1
6.358163 29.523565 -3.783789 30.436560 1.358677 1.695436 0.068445 -0.025440 -518801.000000 0 0 1
6.190963 28.725925 -4.964389 29.801878 1.358525 1.738156 0.078579 -0.035140 -10099.900000 0 0 1
5.933763 29.476935 -6.155889 30.691924 1.372149 1.772736 0.065921 -0.033945 -199100.000000 0 0 1
6.128963 28.729915 -7.526389 30.325216 1.360617 1.821607 0.069064 -0.035105 -260938.000000 0 0 1
5.257663 27.683045 -7.852989 29.251725 1.383108 1.842593 0.072248 -0.040549 -262520.000000 0 0 1
5.562863 26.498865 -7.185289 28.013633 1.363873 1.830188 0.070098 -0.036976 -88519.800000 0 0 1
4.684763 25.310625 -7.675989 26.860669 1.387777 1.860607 0.072635 -0.039615 1448550.000000 0 0 1
3.272763 25.236015 -7.361589 26.490761 1.441830 1.852396 0.071789 -0.036230 1302680.000000 0 0 1
2.349763 26.044615 -8.087289 27.372387 1.480819 1.870727 0.084993 -0.038735 339996.000000 0 0 1
1.894563 25.355025 -9.436089 27.120222 1.496214 1.926164 0.102856 -0.042594 244151.000000 0 0 1
2.976563 25.042545 -10.345389 27.258321 1.452491 1.960086 0.092930 -0.038087 531614.000000 0 0 1
2.598863 24.262885 -11.470189 26.963065 1.464090 2.010204 0.112366 -0.037057 -323271.000000 0 0 1
2.272263 22.794105 -11.270889 25.529734 1.471438 2.028045 0.114190 -0.034798 497575.000000 0 0 1
0.995763 22.576685 -10.665089 24.988845 1.526719 2.011741 0.116166 -0.032512 426541.000000 0 1 0
1.020363 21.368235 -10.005789 23.616909 1.523081 2.008290 0.085529 -0.026428 15553.000000 0 1 0
-0.309137 21.123835 -9.241789 23.059111 -1.556163 1.983172 0.079052 -0.020533 -42132.800000 0 1 0
-1.386837 20.649435 -10.027989 22.997457 -1.503736 2.021999 0.081393 -0.026478 -179095.000000 0 1 0
-2.431337 20.362035 -9.111989 22.439969 -1.451954 1.988936 0.069146 -0.023587 -1105060.000000 0 1 0
-3.747937 20.254135 -9.805489 22.812817 -1.387821 2.015094 0.065718 -0.029140 -1244910.000000 0 1 0
-4.780837 19.550635 -9.166889 22.115957 -1.330967 1.998181 0.062723 -0.031618 -106778.000000 0 1 0
-5.726837 19.196535 -10.144889 22.454897 -1.280875 2.039567 0.055237 -0.028910 -1304980.000000 0 1 0
-6.611037 18.040235 -9.802389 21.569486 -1.219533 2.042558 0.049534 -0.028784 -512332.000000 0 1 0
-7.721237 18.337735 -8.976489 21.828133 -1.172270 1.994605 0.078192 -0.030628 155743.000000 0 1 0
-8.885537 18.752835 -9.671289 22.894441 -1.128308 2.006920 0.080008 -0.031012 -967869.000000 0 1 0
-9.961237 19.080435 -8.687089 23.211091 -1.089653 1.954400 0.081837 -0.035378 -746608.000000 0 1 0
-10.447537 17.956135 -8.008589 22.264575 -1.043839 1.938744 0.072195 -0.031140 -646719.000000 0 1 0
-11.502537 18.205835 -7.152289 22.691761 -1.007318 1.891457 0.096206 -0.025537 -559731.000000 0 1 0
-11.706637 17.059935 -6.111189 21.573905 -0.969388 1.857996 0.054465 -0.029368 321927.000000 0 1 0
-12.700337 17.367135 -5.119589 22.116196 -0.939380 1.804401 0.074116 -0.022038 579625.000000 0 1 0
-13.111937 16.254635 -4.355689 21.333262 -0.892009 1.776416 0.054188 -0.019738 -1025860.000000 0 1 0
-14.231737 16.512135 -3.419389 22.065474 -0.859437 1.726389 0.049468 -0.025433 -1455930.000000 0 1 0
-15.510437 16.433835 -3.961989 22.942143 -0.814297 1.744361 0.121408 -0.053967 -592396.000000 0 1 0
-16.465637 16.600435 -2.965989 23.568808 -0.789475 1.696975 0.136119 -0.052647 567662.000000 0 1 0
-17.966937 16.809435 -3.391789 24.836911 -0.752126 1.707787 0.163149 -0.061124 748946.000000 0 1 0
-18.150837 17.903335 -4.237289 25.844475 -0.778534 1.735493 0.146775 -0.059305 601581.000000 0 0 1
-19.491537 18.397935 -4.279889 27.142614 -0.756543 1.729139 0.147413 -0.064167 444773.000000 0 0 1
-19.844737 19.338235 -5.452389 28.240210 -0.772472 1.765088 0.142101 -0.043053 72264.200000 0 0 1
-19.230637 20.616235 -5.412489 28.707866 -0.820157 1.760468 0.148014 -0.065429 327395.000000 0 0 1
-19.596337 21.190035 -6.656789 29.620041 -0.824453 1.797472 0.133970 -0.040110 -62899.600000 0 0 1
-19.590837 22.768215 -6.816389 30.800254 -0.860269 1.793953 0.142559 -0.036805 -579740.000000 0 0 1
-18.340437 23.349795 -6.675889 30.432746 -0.904981 1.791960 0.140163 -0.039819 -416942.000000 0 0 1
-17.930137 23.529915 -5.317289 30.056950 -0.919650 1.748639 0.151859 -0.050319 -21963.000000 0 0 1
-16.512937 24.145485 -5.206589 29.711784 -0.970962 1.746942 0.124279 -0.050334 -395131.000000 0 0 1
-16.186337 24.603775 -3.912289 29.709413 -0.988901 1.702865 0.120253 -0.049940 722019.000000 0 0 1
-14.904237 25.208375 -3.679489 29.515031 -1.036842 1.695786 0.144724 -0.054735 761120.000000 0 0 1
-14.520237 26.408585 -4.547889 30.478417 -1.068083 1.720572 0.149437 -0.048383 -185702.000000 0 0 1
-15.263837 27.554385 -4.106789 31.766249 -1.064923 1.700441 0.173592 -0.043594 365530.000000 0 0 1
-14.929937 28.659995 -4.937389 32.690612 -1.090543 1.722410 0.133496 -0.046779 -5554.270000 0 0 1
-15.823837 29.878935 -4.676689 34.132330 -1.083751 1.708245 0.134841 -0.037279 -662205.000000 0 0 1
-17.084537 29.854855 -5.264889 34.798173 -1.051029 1.722677 0.149911 -0.040754 -694275.000000 0 0 1
-17.712837 31.073095 -4.969489 36.110630 -1.052699 1.708853 0.168281 -0.031885 -141290.000000 0 0 1
13.464091 -8.770894 18.561411 24.550688 -0.577379 0.713548 0.178308 -0.020980 139258.000000 0 1 0
14.276891 -9.796194 19.063111 25.752616 -0.601375 0.737369 0.169516 -0.028678 -106778.000000 0 0 1
14.493691 -10.876494 18.113011 25.621209 -0.643776 0.785615 0.174287 -0.028768 -41094.700000 0 0 1
15.029791 -12.101194 18.817511 26.952407 -0.677872 0.797950 0.206449 -0.053485 -470750.000000 0 0 1
16.356591 -11.966494 19.287411 27.977478 -0.631621 0.810149 0.184942 -0.054650 279355.000000 0 0 1
16.795991 -13.037794 20.108911 29.265298 -0.660087 0.813272 0.186418 -0.058777 -163048.000000 0 0 1
17.414691 -14.194494 19.407311 29.688362 -0.683873 0.858332 0.174818 -0.059191 -1220330.000000 0 0 1
16.448691 -14.723694 18.577511 28.852565 -0.730117 0.871241 0.203416 -0.067022 -340978.000000 0 0 1
16.673191 -15.938594 17.890711 29.190951 -0.762876 0.911089 0.208129 -0.065802 -168540.000000 0 0 1
16.004591 -15.945494 16.450911 27.947060 -0.783549 0.941414 0.202884 -0.061390 92864.000000 0 0 1
14.596791 -15.745494 16.522511 27.092070 -0.823238 0.914906 0.257868 -0.062453 146998.000000 0 0 1
14.055091 -15.611294 15.237311 25.950602 -0.837807 0.943243 0.275388 -0.066108 -138938.000000 0 0 1
13.615691 -16.934794 14.562011 26.157723 -0.893617 0.980388 0.213923 -0.050776 -740432.000000 0 0 1
14.686291 -17.681694 14.081711 26.955965 -0.877677 1.021137 0.195871 -0.044398 -30652.700000 0 0 1
14.187591 -18.769294 13.294011 27.024154 -0.923534 1.056490 0.165647 -0.037337 358525.000000 0 0 1
15.303191 -19.717994 12.737111 28.021794 -0.910798 1.098937 0.142772 -0.033363 319832.000000 0 0 1
15.998691 -20.477894 13.713211 29.382893 -0.907583 1.085232 0.108143 -0.023184 278665.000000 0 0 1
16.476991 -21.688994 13.103411 30.225868 -0.921120 1.122405 0.066195 -0.016032 -6090.680000 0 0 1
17.258391 -22.619894 14.054211 31.733776 -0.919043 1.111990 0.055424 -0.023514 458085.000000 0 0 1
18.627991 -22.302594 14.281611 32.378576 -0.874935 1.113992 0.049936 -0.013438 278376.000000 0 0 1
19.156191 -23.176394 15.248811 33.713961 -0.880081 1.101454 0.053419 -0.031325 535921.000000 0 0 1
20.556491 -22.681094 15.732611 34.416804 -0.834497 1.096042 0.043343 -0.006714 -364732.000000 0 0 1
21.639591 -22.957294 14.957811 34.914830 -0.814937 1.128066 0.028058 -0.017366 -1938630.000000 0 0 1
22.723391 -22.181894 15.281911 35.240967 -0.773340 1.122267 0.020293 -0.002703 -82399.300000 0 0 1
24.034291 -22.778394 14.645611 36.207683 -0.758576 1.154376 0.021196 -0.009458 420836.000000 0 0 1
24.422391 -23.976194 15.319211 37.496524 -0.776179 1.149931 0.033440 -0.007528 -301160.000000 0 0 1
25.406291 -24.669894 14.632911 38.317168 -0.770694 1.178957 0.046745 -0.012660 -185891.000000 0 0 1
25.981291 -25.983174 15.277211 39.793794 -0.785434 1.176770 0.062862 -0.009000 188563.000000 0 0 1
26.538991 -25.730924 16.571311 40.509343 -0.769940 1.149358 0.069884 -0.001664 216479.000000 0 0 1
27.249291 -26.872724 17.041811 41.893800 -0.778441 1.151863 0.097519 -0.001181 179567.000000 0 0 1
27.677891 -26.545514 18.491911 42.575589 -0.764518 1.121501 0.081287 0.001315 424890.000000 0 0 1
26.566691 -26.503834 19.376611 42.233818 -0.784214 1.094159 0.090147 0.001435 437504.000000 0 0 1
27.005591 -25.963204 20.623611 42.763574 -0.765721 1.067552 0.088524 -0.001514 245776.000000 0 0 1
25.782891 -25.807804 21.540911 42.365211 -0.785881 1.037404 0.086762 -0.010882 147298.000000 0 0 1
25.205291 -27.056204 21.906811 42.979684 -0.820800 1.035958 0.094432 -0.001198 260846.000000 0 0 1
24.013591 -26.827894 22.656381 42.540570 -0.840696 1.009147 0.097517 -0.007771 415726.000000 0 0 1
23.239691 -28.123444 22.934161 43.092773 -0.880196 1.009594 0.121831 -0.012506 270167.000000 0 0 1
24.110191 -29.012524 23.669491 44.533950 -0.877421 1.010434 0.116601 -0.023471 820705.000000 0 0 1
24.421891 -30.213484 22.981891 45.138129 -0.891008 1.036604 0.127174 -0.023543 -301849.000000 0 0 1
25.476591 -31.102844 23.650991 46.645611 -0.884512 1.039054 0.105024 -0.017103 -338949.000000 0 0 1
25.202291 -31.466174 24.974421 47.423594 -0.895487 1.016172 0.106345 -0.018703 357483.000000 0 0 1
26.356091 -31.900684 25.696011 48.709159 -0.880287 1.015095 0.101242 -0.020549 -233019.000000 0 0 1
26.047691 -32.366234 27.169921 49.641313 -0.893148 0.991632 0.090747 -0.031913 394068.000000 0 0 1
25.259991 -33.559484 27.260781 50.074508 -0.925574 0.995117 0.079414 -0.024543 347346.000000 0 0 1
23.890191 -33.406474 26.969831 49.133548 -0.949984 0.989738 0.098396 -0.023643 -575665.000000 0 0 1
22.968591 32.868516 27.340391 48.532386 0.960875 0.972370 0.118997 -0.041845 -86931.600000 0 0 1
22.548991 32.864241 28.669911 49.096630 0.969443 0.947212 0.119940 -0.033749 78895.100000 0 0 1
22.019391 31.633730 29.150141 48.324705 0.962711 0.923272 0.125289 -0.043427 2012.760000 0 0 1
21.702591 31.698071 30.662461 49.152382 0.970436 0.897170 0.123714 -0.045759 -472543.000000 0 0 1
22.834691 31.702496 31.469880 50.167965 0.946589 0.892727 0.102371 -0.040187 -364780.000000 0 0 1
22.637191 32.441910 32.669219 51.304949 0.961564 0.880500 0.100129 -0.038790 -321967.000000 0 0 1
23.905591 32.481887 33.510421 52.435661 0.936337 0.877499 0.087098 -0.029039 -217954.000000 0 0 1
24.370291 31.221855 -33.329629 51.764654 0.908027 2.270340 0.079478 -0.026050 -395846.000000 0 0 1
25.560391 31.273205 -32.613889 51.913511 0.885580 2.250079 0.078335 -0.022243 -442695.000000 0 0 1
26.156291 29.889075 -32.268779 51.174041 0.851903 2.253083 0.076369 -0.016978 -21121.100000 0 0 1
26.621891 29.199935 -33.459119 51.777156 0.831549 2.273409 0.073474 -0.020802 549831.000000 0 0 1
25.908391 27.947095 33.650481 50.839352 0.823235 0.847448 0.069863 -0.025980 291691.000000 0 0 1
26.149491 27.366565 32.256812 49.731546 0.808136 0.865028 0.082790 -0.029658 321928.000000 0 0 1
27.377891 26.641665 32.249639 49.993664 0.771770 0.869676 0.061379 -0.028422 614926.000000 0 0 1
27.496491 25.817075 31.078981 48.872092 0.753908 0.881590 0.075339 -0.037834 -727976.000000 0 0 1
28.711891 24.912095 31.187961 49.169849 0.714656 0.883706 0.033547 -0.021092 -805307.000000 0 0 1
28.755391 23.925045 32.175707 49.341224 0.693962 0.860437 0.053612 -0.020773 221674.000000 0 0 1
29.484291 24.385975 33.291051 50.717780 0.691039 0.854762 0.069849 -0.028396 -1120510.000000 0 0 1
29.435591 23.501535 -32.726919 49.898170 0.673768 2.286136 0.082117 -0.028126 10283.200000 0 0 1
28.289191 23.753355 -31.897579 48.805284 0.698462 2.283086 0.078655 -0.031300 1008220.000000 0 0 1
27.016091 23.378945 -32.400469 48.231054 0.713350 2.307400 0.062155 -0.025508 -298164.000000 0 0 1
26.809091 21.834435 -32.484269 47.441518 0.683485 2.325019 0.038387 -0.020099 -898023.000000 0 0 1
26.791891 21.268435 -31.203249 46.301128 0.670973 2.310298 0.021195 -0.026207 302427.000000 0 0 1
26.763491 19.908235 -31.269269 45.720777 0.639559 2.323916 0.019204 -0.021969 -217041.000000 0 0 1
26.426391 19.216535 -29.937719 44.315870 0.628730 2.312511 0.030212 -0.019872 -340780.000000 0 0 1
25.085891 19.375335 -29.542229 43.329537 0.657658 2.321021 0.024647 -0.014060 -25626.700000 0 0 1
24.881891 18.852635 -28.223109 42.084132 0.648401 2.305861 0.042364 -0.014999 835293.000000 0 0 1
23.397391 18.824335 -27.664059 40.830058 0.677508 2.315211 0.041547 -0.013548 1004410.000000 0 0 1
23.397391 18.079735 -26.435069 39.662672 0.657887 2.300297 0.057860 -0.016106 250278.000000 0 0 1
23.913791 18.768035 -25.254309 39.520737 0.665416 2.264012 0.065946 -0.008470 57084.000000 0 0 1
23.923791 17.850735 -24.020489 38.314232 0.641032 2.248408 0.103072 -0.011906 285432.000000 0 0 1
25.002191 16.928535 -24.075889 38.617784 0.595179 2.243932 0.086514 -0.024028 290873.000000 0 0 1
24.832991 15.980235 -23.077489 37.478205 0.571798 2.234143 0.125089 -0.033037 230501.000000 0 0 1
25.717391 14.688235 -23.194089 37.617738 0.518929 2.235179 0.138693 -0.034237 948990.000000 0 0 1
27.136091 14.900335 -23.084389 38.617048 0.502149 2.211522 0.172038 -0.044612 1719070.000000 0 0 1
28.035291 13.733835 -23.037789 38.798653 0.455516 2.206542 0.175108 -0.046630 1016180.000000 0 0 1
27.841191 12.927135 -21.728189 37.607937 0.434696 2.186772 0.160827 -0.041394 -17196.000000 0 0 1
26.513891 12.407635 -21.721989 36.452443 0.437695 2.209181 0.144205 -0.034384 233457.000000 0 0 1
26.235191 11.888735 -20.380989 35.284727 0.425479 2.186600 0.123240 -0.037213 799417.000000 0 0 1
24.709691 11.552635 -20.221689 33.955101 0.437340 2.208737 0.118309 -0.020026 554689.000000 0 0 1
23.916091 12.702535 -20.253789 33.816413 0.488240 2.212965 0.156831 -0.023470 -286650.000000 0 0 1
22.558891 12.320935 -20.470389 32.859486 0.499896 2.243327 0.139902 -0.024474 184295.000000 0 0 1
21.686791 13.587035 -20.422589 32.741511 0.559686 2.244330 0.136726 -0.030772 -719705.000000 0 0 1
21.839191 14.425035 -21.552089 33.904637 0.583729 2.259670 0.127058 -0.023575 491308.000000 0 0 1
20.950191 15.566235 -21.538689 33.839818 0.639014 2.260735 0.113048 -0.029130 -177063.000000 0 0 1
19.646591 15.325035 -22.267289 33.416723 0.662448 2.300101 0.091840 -0.008066 -564102.000000 0 0 1
18.697191 14.520535 -21.557589 32.018128 0.660319 2.309450 0.075179 -0.020284 633192.000000 0 0 1
17.500891 14.461535 -22.334589 31.847308 0.690592 2.348019 0.084821 -0.029190 141306.000000 0 0 1
16.352791 13.648135 -21.682389 30.394265 0.695489 2.365093 0.054991 -0.025056 353961.000000 0 0 1
15.218391 13.874335 -22.522389 30.518103 0.739232 2.400899 0.080755 -0.025280 462582.000000 0 0 1
14.014291 13.226935 -22.094989 29.317924 0.756503 2.424370 0.100542 -0.030516 353770.000000 0 0 1
12.833091 13.500935 -23.022789 29.614393 0.810753 2.461348 0.106478 -0.029639 -471985.000000 0 0 1
12.278091 14.771235 -22.928689 29.910962 0.877309 2.444271 0.103042 -0.022677 -82513.700000 0 0 1
11.572091 15.196435 -24.077789 30.734099 0.919976 2.470950 0.122047 -0.036804 -643844.000000 0 0 1
11.680391 16.751435 -24.297789 31.739953 0.961900 2.442656 0.126018 -0.032473 -274410.000000 0 0 1
12.910991 17.428535 -24.204889 32.501141 0.933212 2.410941 0.114574 -0.026161 -317995.000000 0 0 1
14.008491 17.015935 -24.991789 33.322205 0.882034 2.418865 0.129342 -0.043751 -272341.000000 0 0 1
13.913091 16.881035 -26.541769 34.394897 0.881482 2.452271 0.172490 -0.044302 -1141050.000000 0 0 1
15.143891 16.821835 -27.194919 35.381848 0.837842 2.447465 0.157603 -0.046301 -571430.000000 0 0 1
15.035591 16.700235 -28.596349 36.369190 0.837803 2.475561 0.204450 -0.052237 59875.200000 0 0 1
16.207891 17.212335 -29.479129 37.788612 0.815444 2.465632 0.174383 -0.052007 232521.000000 0 0 1
17.381291 16.451435 -29.454909 37.951952 0.757921 2.459271 0.118041 -0.044570 188183.000000 0 0 1
18.427991 16.940235 -30.300159 39.302189 0.743358 2.451133 0.105011 -0.036388 130988.000000 0 0 1
19.741391 16.184535 -30.058319 39.435570 0.686714 2.437522 0.108486 -0.033494 -1027220.000000 0 0 1
20.822391 16.805935 -30.650799 40.687626 0.679061 2.423892 0.092694 -0.031810 -200634.000000 0 0 1
21.945391 15.913935 -30.674399 40.936197 0.627414 2.417834 0.083849 -0.027345 837447.000000 0 0 1
23.244691 16.571935 -31.254409 42.329455 0.619354 2.401433 0.081315 -0.022083 370805.000000 0 0 1
23.239891 16.798135 -32.639479 43.446581 0.625874 2.420758 0.097132 -0.029995 -156565.000000 0 0 1
24.435191 17.427535 -33.018569 44.620885 0.619540 2.403837 0.072679 -0.033615 -308857.000000 0 0 1
24.532791 18.051935 32.880994 44.820642 0.634370 0.747173 0.037034 -0.025687 -138543.000000 0 0 1
25.497091 19.085735 32.767787 45.695676 0.642570 0.771182 0.037052 -0.018175 133680.000000 0 0 1
25.472091 19.662735 31.491527 45.024069 0.657391 0.796186 0.067440 -0.024740 -463095.000000 0 0 1
26.528791 20.765735 31.316420 45.996855 0.664141 0.821890 0.079892 -0.028145 172938.000000 0 0 1
27.823591 20.214535 31.172391 46.416566 0.628307 0.834458 0.035237 -0.022422 -190917.000000 0 0 1
28.834491 21.123535 30.777071 47.168418 0.632258 0.859926 0.021358 -0.031987 -160707.000000 0 0 1
30.159791 20.513335 31.236158 48.021948 0.597283 0.862612 0.071892 -0.025313 -772420.000000 0 0 1
30.134691 20.531135 32.665499 48.955714 0.598073 0.840291 0.053790 -0.032184 870679.000000 0 0 1
31.384491 20.028135 33.171375 49.864342 0.568002 0.842991 0.069538 -0.030022 691803.000000 0 0 1
31.176091 19.506635 -32.667919 49.189942 0.559097 2.297110 0.069147 -0.010321 -132480.000000 0 0 1
31.141491 20.538335 -31.711289 48.961429 0.583036 2.275331 0.061421 -0.023972 223561.000000 0 0 1
30.733891 20.024635 -30.448719 47.672660 0.577463 2.263609 0.081877 -0.034389 662315.000000 0 0 1
31.951091 20.154235 -29.437859 47.892097 0.562748 2.232764 0.105528 -0.040406 918201.000000 0 0 1
32.986391 19.234135 -29.752889 48.407523 0.527895 2.232718 0.111475 -0.040540 47153.500000 0 0 1
33.968291 19.295235 -28.720859 48.487510 0.516585 2.204750 0.135949 -0.048509 550520.000000 0 0 1
35.299291 18.528735 -29.085799 49.349140 0.483372 2.201098 0.120384 -0.038272 904923.000000 0 0 1
36.214291 19.261835 -29.895119 50.756391 0.488829 2.200608 0.126486 -0.037657 279325.000000 0 0 1
37.273791 19.804235 -29.096849 51.265679 0.488387 2.174347 0.100162 -0.027100 -143229.000000 0 0 1
-38.073881 20.640935 -29.980489 52.673507 -0.496780 2.176300 0.090257 -0.030823 -182932.000000 0 0 1
-37.116581 19.922935 -30.730429 52.143294 -0.492626 2.201045 0.069490 -0.027621 -197640.000000 0 0 1
-36.236681 20.782535 -31.391959 52.253860 -0.520723 2.215246 0.066377 -0.026413 -112913.000000 0 0 1
-35.311181 19.950435 -32.337159 51.870909 -0.514278 2.243900 0.072679 -0.034114 344193.000000 0 0 1
-34.376481 19.123235 -31.619089 50.469865 -0.507658 2.247844 0.078906 -0.028844 621209.000000 0 0 1
-33.444881 18.580935 -32.570369 50.245797 -0.507109 2.276042 0.070074 -0.027224 210329.000000 0 0 1
-32.552281 17.481335 -31.943109 48.842709 -0.492826 2.283656 0.060352 -0.008903 217231.000000 0 0 1
-33.270981 16.264535 -31.656519 48.719898 -0.454688 2.278073 0.059925 -0.005944 424000.000000 0 0 1
-32.936381 15.263535 -32.620789 48.804677 -0.433962 2.302845 0.058469 -0.003180 604450.000000 0 0 1
-33.965881 14.049535 -32.552169 49.099024 -0.392207 2.295602 0.077217 -0.003036 705277.000000 0 0 1
-33.483581 12.785135 -33.027989 48.738669 -0.364748 2.315365 0.091949 -0.004682 656030.000000 0 0 1
-34.574881 11.857135 -33.081129 49.298835 -0.330372 2.306397 0.102451 -0.013059 401277.000000 0 0 1
-34.147481 10.378635 -33.067149 48.653909 -0.295064 2.318068 0.113372 -0.017609 187756.000000 0 0 1
-33.450781 9.955735 33.044422 48.062513 -0.289275 0.812714 0.098370 -0.015036 368847.000000 0 0 1
-33.524081 8.581635 32.860664 47.721396 -0.250603 0.811248 0.131778 -0.030738 67307.700000 0 0 1
-32.502281 8.089435 31.784546 46.174609 -0.243932 0.811577 0.127090 -0.031977 482984.000000 0 0 1
-31.255381 7.700835 32.339787 45.629634 -0.241573 0.783078 0.087841 -0.010348 -41165.100000 0 0 1
-30.337081 7.409435 31.322187 44.230279 -0.239547 0.783905 0.074149 -0.021935 -173817.000000 0 0 1
22.552491 -3.921594 -31.988629 39.335304 -0.172166 2.520477 0.093018 -0.054560 -1018270.000000 0 0 1
23.885691 -3.976494 -32.377359 40.430584 -0.164967 2.499449 0.060956 -0.053519 22507.700000 0 0 1
24.736491 -2.970494 -31.757429 40.363995 -0.119513 2.476365 0.052244 -0.046413 -174222.000000 0 0 1
24.420791 -1.518294 -32.199349 40.441047 -0.062092 2.491792 0.060599 -0.039469 -739446.000000 0 0 1
25.385791 -0.677294 -31.615959 40.552016 -0.026674 2.464886 0.066900 -0.029219 273503.000000 0 0 1
24.984591 0.655106 -31.852249 40.487340 0.026214 2.476276 0.072847 -0.037142 326501.000000 0 0 1
26.070191 1.599006 -31.219329 40.704523 0.061258 2.444909 0.054362 -0.020557 637802.000000 0 0 1
27.279691 1.485806 -31.955399 42.042082 0.054412 2.434234 0.053747 -0.020550 53774.500000 0 0 1
28.312891 2.215406 -31.306909 42.268787 0.078088 2.404852 0.064869 -0.015879 966777.000000 0 0 1
29.776891 1.972506 -31.825729 43.628328 0.066146 2.388349 0.063071 -0.013348 747933.000000 0 0 1
29.921191 2.629206 -33.066109 44.671668 0.087646 2.404169 0.068638 -0.018902 -86361.800000 0 0 1
30.440891 1.841506 33.236781 45.107899 0.060421 0.742429 0.053771 -0.010843 -401310.000000 0 0 1
30.989791 2.580006 31.962348 44.593893 0.083062 0.771676 0.068682 -0.012102 -343051.000000 0 0 1
30.163291 3.505306 31.318218 43.622724 0.115692 0.769967 0.067247 -0.003300 -73616.400000 0 0 1
30.164891 4.755806 31.948572 44.195583 0.156373 0.762820 0.072780 -0.008586 -10224.500000 0 0 1
29.298191 5.782606 31.184141 43.177230 0.194866 0.763767 0.075577 -0.013918 22216.800000 0 0 1
29.503591 7.088006 31.748923 43.916919 0.235774 0.762761 0.115385 -0.037587 228754.000000 0 0 1
28.966691 8.075306 30.861011 43.089230 0.271876 0.772438 0.126334 -0.044508 -25512.600000 0 0 1
29.543891 9.512606 31.049881 43.902463 0.311500 0.785200 0.132292 -0.047190 -184315.000000 0 0 1
30.840191 9.532906 30.513861 44.419471 0.299790 0.813516 0.132437 -0.048703 -346620.000000 0 0 1
31.324191 10.879206 30.686581 45.179955 0.334276 0.824114 0.124192 -0.036424 203269.000000 0 0 1
32.785591 11.072106 30.184831 45.919609 0.325687 0.853512 0.129239 -0.038689 -518080.000000 0 0 1
33.734791 10.460006 31.050421 47.027401 0.300666 0.849628 0.123650 -0.043624 861913.000000 0 0 1
35.077491 10.454406 30.530591 47.663843 0.289655 0.875595 0.125248 -0.043292 830361.000000 0 0 1
35.741891 11.846906 30.483751 48.446785 0.320061 0.890245 0.117370 -0.035458 -1238050.000000 0 0 1
36.162791 12.398606 31.733894 49.684131 0.330296 0.877972 0.123905 -0.033829 295432.000000 0 0 1
36.724091 13.697006 31.722691 50.424160 0.356990 0.890380 0.123607 -0.022757 -11529.400000 0 0 1
35.664891 14.815906 31.731047 49.983546 0.393728 0.883008 0.119117 -0.025705 -310078.000000 0 0 1
35.149491 15.107306 30.435431 48.887962 0.405931 0.898793 0.120940 -0.033717 660696.000000 0 0 1
34.258091 16.267306 30.481371 48.655483 0.443322 0.893776 0.114720 -0.033683 1333870.000000 0 0 1
32.751691 15.972506 30.804271 47.714749 0.453747 0.868998 0.104903 -0.026711 354766.000000 0 0 1
32.065091 15.385506 29.731601 46.355711 0.447375 0.874501 0.125635 -0.027155 -105209.000000 0 0 1
30.743891 15.001206 30.047301 45.530905 0.453954 0.850068 0.105941 -0.034206 290243.000000 0 0 1
29.903191 14.411906 28.880751 44.000018 0.449105 0.854785 0.107227 -0.030343 86677.600000 0 0 1
30.133491 13.046006 28.622211 43.559804 0.408577 0.853860 0.135988 -0.029799 113405.000000 0 0 1
29.214891 12.425006 27.726721 42.150465 0.402122 0.852898 0.142256 -0.041997 156644.000000 0 0 1
29.308691 10.854506 27.678291 41.748143 0.354689 0.846001 0.140996 -0.032306 576782.000000 0 0 1
30.344091 10.243006 26.866191 41.802814 0.325551 0.872794 0.148802 -0.028925 786428.000000 0 0 1
30.330091 8.836306 27.085661 41.612831 0.283491 0.862031 0.164556 -0.033169 -464336.000000 0 0 1
31.586891 8.179706 26.540711 42.060059 0.253393 0.887930 0.128990 -0.038729 -593752.000000 0 0 1
31.774091 8.372506 25.115281 41.357817 0.257645 0.918179 0.145177 -0.040417 825156.000000 0 0 1
32.878491 7.624006 24.539381 41.728909 0.227857 0.942130 0.158375 -0.036838 660116.000000 0 0 1
33.139691 7.963506 23.031361 41.135145 0.235830 0.976537 0.133271 -0.038049 111859.000000 0 0 1
33.937691 9.125606 22.746801 41.862400 0.262680 0.996349 0.128339 -0.040386 282091.000000 0 0 1
33.279291 10.373706 22.827981 41.668234 0.302171 0.991003 0.147483 -0.039891 -60632.400000 0 0 1
32.475691 10.757206 21.551711 40.433454 0.319864 1.008634 0.140880 -0.014089 -206273.000000 0 0 1
33.277691 10.976506 20.421811 40.557844 0.318608 1.043125 0.161546 -0.027496 -62727.800000 0 0 1
32.919391 10.187206 19.302211 39.497352 0.300112 1.060201 0.172273 -0.039809 -1254240.000000 0 0 1
33.791591 10.485306 18.026711 39.708633 0.300873 1.099575 0.202702 -0.065670 336859.000000 0 0 1
35.055891 9.899006 17.844511 40.562697 0.275212 1.115282 0.179958 -0.055771 273804.000000 0 0 1
35.966191 10.136906 18.931711 41.889538 0.274719 1.101853 0.165498 -0.042830 -207654.000000 0 0 1
37.482991 9.903506 18.625811 43.011334 0.258311 1.122929 0.176290 -0.030982 600037.000000 0 0 1
37.862391 8.586606 18.320111 42.929208 0.223012 1.129898 0.132361 -0.019576 -367982.000000 0 0 1
-37.716781 8.601906 17.145211 42.314378 -0.224231 1.153614 0.146938 -0.023827 -791889.000000 0 0 1
-37.284581 7.212706 16.626411 41.456008 -0.191090 1.158121 0.144761 -0.027360 -332515.000000 0 0 1
37.910391 6.305606 16.494711 41.821453 0.164820 1.165373 0.138341 -0.033908 -277595.000000 0 0 1
-38.064081 5.135006 15.766611 41.519014 -0.134095 1.181276 0.168310 -0.037381 -288909.000000 0 0 1
37.079091 4.063606 15.695611 40.468804 0.109157 1.172504 0.155689 -0.036988 -23032.200000 0 0 1
36.892191 3.285606 16.889911 40.707469 0.088825 1.142953 0.151414 -0.022759 740394.000000 0 0 1
35.624691 2.583406 16.956811 39.538918 0.072391 1.127562 0.124928 -0.022638 998092.000000 0 0 1
35.463791 1.675906 18.179811 39.887274 0.047222 1.097548 0.135258 -0.034757 -294931.000000 0 0 1
36.209091 0.509106 18.243511 40.548528 0.014059 1.104123 0.157814 -0.031831 -290430.000000 0 0 1
36.069491 -0.209394 19.433111 40.971915 -0.005805 1.076624 0.134932 -0.022995 292247.000000 0 0 1
36.539591 -1.747494 19.361011 41.388938 -0.047788 1.084016 0.138538 -0.019412 341919.000000 0 0 1
36.074091 -2.506594 20.470511 41.553157 -0.069373 1.055682 0.163298 -0.016308 186628.000000 0 0 1
36.343391 -3.880994 20.271511 41.795195 -0.106384 1.064410 0.126020 -0.019857 -48747.400000 0 0 1
35.773291 -4.711094 21.469011 41.986202 -0.130940 1.034059 0.124175 -0.016827 371745.000000 0 0 1
36.397791 -4.407894 22.753301 43.150219 -0.120516 1.015371 0.139367 -0.023273 580577.000000 0 0 1
35.553191 -4.849394 23.788211 43.051423 -0.135562 0.985372 0.128713 -0.029825 161981.000000 0 0 1
35.919791 -4.269494 25.166301 44.065890 -0.118307 0.962944 0.140561 -0.034950 207127.000000 0 0 1
34.933691 -4.591494 26.133101 43.867796 -0.130685 0.932630 0.131166 -0.038122 90484.400000 0 0 1
34.856191 -3.631494 27.182951 44.351489 -0.103811 0.911073 0.137534 -0.033073 137068.000000 0 0 1
33.878791 -4.003094 28.324281 44.340299 -0.117614 0.877868 0.118383 -0.030142 -8202.190000 0 0 1
34.291891 -5.095894 29.106621 45.266956 -0.147524 0.872388 0.132576 -0.035119 249396.000000 0 0 1
33.348991 -5.381394 30.147911 45.277049 -0.159987 0.842158 0.130040 -0.039600 143891.000000 0 0 1
33.418791 -6.909494 30.534451 45.792023 -0.203882 0.840880 0.139282 -0.031132 148253.000000 0 0 1
34.610291 -7.308094 31.179281 47.153240 -0.208097 0.848335 0.138332 -0.032311 -82518.000000 0 0 1
35.037891 -8.593694 30.746641 47.401069 -0.240521 0.864989 0.133898 -0.029819 1210580.000000 0 0 1
36.458791 -8.982494 31.355349 48.919184 -0.241563 0.875045 0.128648 -0.030227 1182370.000000 0 0 1
36.492791 -9.217494 32.723922 49.875255 -0.247409 0.855137 0.124762 -0.039315 -254421.000000 0 0 1
37.813491 -9.487094 33.104307 51.144503 -0.245818 0.866799 0.095101 -0.038482 -222730.000000 0 0 1
38.055991 -9.817694 -32.692639 51.121954 -0.252475 2.264648 0.110683 -0.045083 -384300.000000 0 0 1
37.734491 -8.792794 -31.772209 50.106669 -0.228932 2.257629 0.090261 -0.042602 559525.000000 0 0 1
-37.697281 -7.618694 -31.692229 49.834996 0.199416 2.260026 0.108366 -0.040856 392031.000000 0 0 1
37.842791 -6.466594 -30.886769 49.273585 -0.169246 2.248290 0.107095 -0.042725 -59840.500000 0 0 1
37.888691 -6.524694 -29.455969 48.433239 -0.170534 2.224558 0.090304 -0.031147 426428.000000 0 0 1
37.153491 -5.440894 -28.832299 47.342229 -0.145410 2.225619 0.106249 -0.030251 291309.000000 0 0 1
37.621591 -5.174694 -27.355469 46.802599 -0.136688 2.195043 0.115402 -0.033907 128038.000000 0 0 1
-37.291881 -4.783494 -27.321679 46.476234 0.127575 2.199212 0.124329 -0.032098 -286676.000000 0 0 1
-36.803081 -4.426794 -26.044809 45.303370 0.119708 2.183276 0.125242 -0.024964 401490.000000 0 0 1
-35.258681 -4.267194 -25.999579 44.015470 0.120440 2.202712 0.140266 -0.022304 -335276.000000 0 0 1
-34.864681 -3.666994 -24.767389 42.923378 0.104793 2.185864 0.159002 -0.024414 878527.000000 0 0 1
-33.446781 -3.667594 -24.528589 41.638805 0.109218 2.200716 0.162471 -0.019318 1208400.000000 0 0 1
-32.549681 -2.742494 -25.417469 41.389017 0.084057 2.232056 0.163741 -0.021562 -551741.000000 0 0 1
-32.346981 -3.319794 -26.692869 42.069674 0.102273 2.258147 0.157139 -0.010193 88000.400000 0 0 1
-31.417981 -2.560694 -27.454949 41.802164 0.081324 2.287341 0.155657 -0.009389 97029.600000 0 0 1
-31.255381 -3.359894 -28.729679 42.586173 0.107087 2.311252 0.128597 -0.016550 176512.000000 0 0 1
-32.358381 -3.469694 -29.616549 44.002768 0.106819 2.309136 0.145571 -0.021289 -101618.000000 0 0 1
-31.964781 -4.290594 -30.692039 44.521429 0.133431 2.331425 0.103207 -0.013722 -1043430.000000 0 0 1
-33.088081 -4.558994 -31.705329 46.052507 0.136921 2.330160 0.109342 -0.028022 -330135.000000 0 0 1
-34.183681 -5.366794 -31.208489 46.597170 0.155728 2.304669 0.127439 -0.032555 936419.000000 0 0 1
-35.020181 -4.790594 -30.228669 46.509518 0.135951 2.278310 0.144540 -0.032759 -1547030.000000 0 0 1
-35.924081 -3.681094 -30.726639 47.415360 0.102112 2.275793 0.175971 -0.031731 -1538340.000000 0 0 1
-35.367781 -2.467294 -31.151779 47.195347 0.069648 2.291695 0.200180 -0.020894 -362705.000000 0 0 1
-35.187781 -1.528594 -30.099839 46.330517 0.043414 2.277955 0.203084 -0.020352 -40869.800000 0 0 1
-34.928781 -0.141794 -30.722129 46.517621 0.004060 2.292202 0.190760 -0.025225 -51308.700000 0 0 1
-35.978781 0.352506 -31.518849 47.833406 -0.009797 2.290191 0.224375 -0.024026 -55411.400000 0 0 1
-35.770881 1.704706 -31.833889 47.915117 -0.047620 2.297462 0.237661 -0.018465 319751.000000 0 0 1
-37.146981 2.344006 -32.165799 49.193812 -0.063017 2.283469 0.208241 -0.019356 119639.000000 0 0 1
-37.744481 1.893506 -33.317029 50.381104 -0.050124 2.293347 0.198404 -0.017007 -547321.000000 0 0 1
37.354091 2.589106 -33.614759 50.318819 0.069202 2.302362 0.159055 -0.017564 -525158.000000 0 0 1
36.597991 2.195406 32.398389 48.927378 0.059915 0.847081 0.131343 -0.010372 3956.130000 0 0 1
37.219991 2.482806 31.153931 48.601023 0.066608 0.874978 0.152799 -0.026509 762326.000000 0 0 1
-38.015081 1.549506 30.760391 48.925954 -0.040738 0.890899 0.154489 -0.025728 323126.000000 0 0 1
-37.504281 1.746306 29.316911 47.635091 -0.046529 0.907842 0.173280 -0.030518 -41338.700000 0 0 1
-36.668781 2.891106 29.214951 46.973092 -0.078681 0.899565 0.171840 -0.040972 138170.000000 0 0 1
-36.128781 2.806406 27.899841 45.733640 -0.077522 0.914672 0.145002 -0.043908 51161.800000 0 0 1
-35.546881 4.212106 27.544311 45.166488 -0.117944 0.914938 0.127575 -0.040876 -413858.000000 0 0 1
-35.147981 4.383806 26.248841 44.086278 -0.124083 0.933037 0.122373 -0.030462 73345.900000 0 0 1
-34.426581 5.569806 26.129521 43.577105 -0.160398 0.927775 0.110569 -0.029039 -505553.000000 0 0 1
-33.647181 5.715906 24.810581 42.194422 -0.168271 0.942205 0.087117 -0.014953 452005.000000 0 0 1
-32.480281 4.882506 24.650571 41.066509 -0.149205 0.926971 0.080477 -0.020639 1121770.000000 0 0 1
-31.680281 5.234306 23.497881 39.789302 -0.163744 0.939047 0.084826 -0.015321 271728.000000 0 0 1
-32.162581 4.750006 22.120811 39.323332 -0.146627 0.973346 0.103804 -0.017138 -176914.000000 0 0 1
-32.141281 3.362106 21.906011 39.041503 -0.104225 0.975088 0.096406 -0.020093 -70844.600000 0 0 1
-32.896781 3.074006 20.733511 39.006745 -0.093173 1.010383 0.117936 -0.022678 -188649.000000 0 0 1
-32.953681 1.587006 20.332811 38.754185 -0.048121 1.018479 0.103476 -0.022256 341104.000000 0 0 1
-31.711281 1.073606 19.841111 37.422288 -0.033843 1.011966 0.118962 -0.025915 537295.000000 0 0 1
-31.341381 1.518406 18.553911 36.453193 -0.048409 1.036798 0.127685 -0.031646 -274366.000000 0 0 1
-30.099681 0.909706 17.881411 35.022324 -0.030214 1.034947 0.142187 -0.041888 -239556.000000 0 0 1
-30.299981 -0.401294 17.461011 34.973372 0.013243 1.048045 0.159480 -0.031313 199927.000000 0 0 1
-29.176681 -0.896594 16.746311 33.652957 0.030720 1.049946 0.182108 -0.043017 28941.800000 0 0 1
-28.941881 -0.270894 15.314611 32.745124 0.009360 1.084119 0.193537 -0.042913 76409.000000 0 0 1
-28.370081 1.065806 15.267811 32.235128 -0.037550 1.077378 0.204700 -0.047598 577352.000000 0 0 1
-28.826281 1.682406 14.062411 32.117540 -0.058297 1.117599 0.234011 -0.049172 59450.700000 0 0 1
-28.040881 2.959506 13.686211 31.342655 -0.105153 1.118909 0.227707 -0.053760 -58282.800000 0 0 1
-26.681381 2.705706 13.421111 29.989050 -0.101063 1.106791 0.208198 -0.065383 88945.000000 0 0 1
-25.974781 3.842106 12.920611 29.264196 -0.146852 1.113509 0.208817 -0.064656 -21648.300000 0 0 1
-24.471781 3.636706 12.669911 27.796049 -0.147528 1.097506 0.196989 -0.068981 -463101.000000 0 0 1
-23.739781 3.915806 13.831111 27.752664 -0.163475 1.049078 0.161530 -0.059428 -565912.000000 0 0 1
-22.384681 4.013406 13.491711 26.442534 -0.177408 1.035347 0.160888 -0.057158 -544996.000000 0 0 1
-21.521781 4.523106 14.650011 26.424768 -0.207149 0.983149 0.126916 -0.055800 -307312.000000 0 0 1
-21.656181 5.905806 14.861111 26.920649 -0.266234 0.985995 0.120531 -0.043532 271131.000000 0 0 1
-20.921881 6.355906 15.976911 27.081069 -0.294932 0.939780 0.097366 -0.027135 -121700.000000 0 0 1
-21.198081 7.843706 16.211111 27.815148 -0.354397 0.948607 0.093367 -0.022311 -291294.000000 0 0 1
-20.568081 8.696206 15.282211 27.059488 -0.400007 0.970650 0.090873 -0.022485 578943.000000 0 0 1
-20.936181 10.066006 15.471311 27.910743 -0.448166 0.983258 0.085983 -0.014204 -349391.000000 0 0 1
-20.543281 10.781506 16.791811 28.639696 -0.483305 0.944297 0.097299 -0.009986 35060.500000 0 0 1
-21.262281 10.314806 17.949311 29.675875 -0.451675 0.921225 0.119547 -0.020678 530262.000000 0 0 1
-20.769081 10.855206 19.124711 30.248054 -0.481612 0.886326 0.134348 -0.012335 -142282.000000 0 0 1
-13.141909 -33.224923 -19.829789 40.863502 1.194137 2.077467 0.161386 -0.058115 -14789.100000 0 0 1
-14.264309 -33.725723 -19.138389 41.317948 1.170663 2.052397 0.183925 -0.050007 969846.000000 0 0 1
-15.389909 -32.781623 -19.188689 40.984020 1.131872 2.058048 0.154709 -0.064453 778315.000000 0 0 1
-16.643109 -33.298523 -18.492989 41.566517 1.107297 2.031860 0.136697 -0.049095 -1268060.000000 0 0 1
-17.243509 33.169506 -19.249289 42.048660 -1.091387 2.046300 0.140345 -0.047509 109980.000000 0 0 1
-18.188309 32.314506 -18.603689 41.486614 -1.058139 2.035800 0.159428 -0.040797 424144.000000 0 0 1
-19.527709 32.803506 -18.048589 42.227396 -1.033845 2.012427 0.139621 -0.034908 -799442.000000 0 0 1
-19.331609 33.703006 -16.968989 42.397527 -1.050025 1.982570 0.149271 -0.034119 -349405.000000 0 0 1
-20.487109 -33.456423 -16.238589 42.458753 1.021344 1.963249 0.128127 -0.031158 -343515.000000 0 0 1
-20.475509 33.432206 -14.849089 41.922002 -1.021274 1.932863 0.123223 -0.024150 -38020.800000 0 0 1
-20.571109 32.027706 -14.785489 40.835709 -0.999859 1.941287 0.121643 -0.028789 107892.000000 0 0 1
-20.873209 31.568306 -13.472189 40.171491 -0.986582 1.912791 0.126360 -0.020723 -115410.000000 0 0 1
-21.061909 30.025606 -13.384589 39.042134 -0.959088 1.920718 0.105366 -0.024942 143440.000000 0 0 1
-19.862509 29.279306 -13.345789 37.814112 -0.974728 1.931499 0.129137 -0.039244 61658.100000 0 0 1
-20.159509 27.897106 -13.298889 36.898709 -0.945038 1.939510 0.121212 -0.044632 -390247.000000 0 0 1
-18.931609 27.120506 -12.853189 35.484252 -0.961377 1.941447 0.119845 -0.041776 -432380.000000 0 0 1
-17.875009 27.217706 -13.785689 35.360496 -0.989696 1.971277 0.157227 -0.046603 -202853.000000 0 0 1
-17.063909 26.053406 -13.742789 34.041463 -0.990943 1.986362 0.174027 -0.066068 316940.000000 0 0 1
-15.575409 26.381206 -14.032289 33.696684 -1.037467 2.000311 0.134311 -0.058621 107821.000000 0 0 1
-15.455809 26.836406 -15.352489 34.565497 -1.048266 2.031029 0.128157 -0.054223 -194508.000000 0 0 1
-14.158109 27.118306 -15.839489 34.449150 -1.089636 2.048559 0.171492 -0.053233 100960.000000 0 0 1
-14.168409 27.434206 -17.356289 35.420619 -1.094075 2.082892 0.190476 -0.067015 80656.400000 0 0 1
-14.357409 26.270506 -18.131289 35.000261 -1.070627 2.115346 0.184331 -0.066566 46920.400000 0 0 1
-14.511909 26.520806 -19.527089 35.989663 -1.070113 2.144296 0.174894 -0.067033 -17535.800000 0 0 1
-13.726109 25.557006 -20.454789 35.495986 -1.077928 2.184937 0.168377 -0.051280 436593.000000 0 0 1
-12.449009 26.056806 -20.810389 35.595045 -1.125095 2.195236 0.138361 -0.044192 1033250.000000 0 0 1
-11.385109 25.072606 -21.001889 34.631425 -1.144550 2.222372 0.127277 -0.036222 879288.000000 0 0 1
-10.200909 25.636306 -21.759389 35.139006 -1.192094 2.238568 0.145384 -0.034663 -335100.000000 0 0 1
-10.557309 25.910806 -23.089289 36.275913 -1.183886 2.260736 0.119937 -0.030580 688173.000000 0 0 1
-9.432109 26.470606 -23.795389 36.822251 -1.228499 2.273421 0.115654 -0.033074 637348.000000 0 0 1
-9.810909 27.180506 -25.184089 38.331086 -1.224397 2.287648 0.102160 -0.029693 -154174.000000 0 0 1
-10.445409 26.300206 -26.053379 38.465386 -1.192740 2.314910 0.091972 -0.024457 -122167.000000 0 0 1
-10.780909 26.915506 -27.256919 39.794624 -1.189819 2.325317 0.090833 -0.023487 -219015.000000 0 0 1
-12.026209 26.379906 -28.006459 40.309935 -1.143059 2.338908 0.065155 -0.012369 48888.800000 0 0 1
-12.425409 27.064906 -29.199219 41.707245 -1.140403 2.346333 0.059251 -0.004420 903924.000000 0 0 1
-13.682509 26.486006 -29.641339 42.039607 -1.093962 2.353334 0.057792 0.002086 956216.000000 0 0 1
-14.089109 26.839706 -31.106759 43.433895 -1.087400 2.369119 0.064746 -0.003446 -80971.400000 0 0 1
-13.176509 26.422606 -32.104169 43.617108 -1.108203 2.398006 0.075633 -0.009141 140352.000000 0 0 1
-13.093209 24.989806 -32.335959 42.913130 -1.088179 2.424198 0.075287 -0.008944 4926.130000 0 0 1
-12.375609 24.479706 -33.594389 43.370435 -1.102722 2.456866 0.065418 -0.016948 536060.000000 0 0 1
-13.215309 24.507806 32.533943 42.822125 -1.076261 0.707874 0.063752 -0.019514 645177.000000 0 0 1
-12.516409 23.854406 31.496685 41.445558 -1.087584 0.707555 0.056422 -0.024477 -636730.000000 0 0 1
-13.248109 23.865806 30.164971 40.681870 -1.064040 0.735516 0.066239 -0.018998 -667565.000000 0 0 1
-14.484509 23.252806 30.367321 40.898266 -1.013698 0.733988 0.086700 -0.027236 -543695.000000 0 0 1
-15.155109 22.945506 29.173111 40.090447 -0.987087 0.755859 0.102770 -0.031491 -136001.000000 0 0 1
-16.243309 21.883006 29.294041 40.010647 -0.932255 0.749314 0.094082 -0.028444 -120886.000000 0 0 1
-15.744109 20.602406 29.502251 39.277460 -0.918277 0.721033 0.085303 -0.030321 -156536.000000 0 0 1
-16.808809 19.672206 29.490001 39.232536 -0.863728 0.720203 0.075467 -0.024489 196706.000000 0 0 1
-16.374309 18.203506 29.766711 38.542738 -0.838250 0.688336 0.066942 -0.030817 -100455.000000 0 0 1
-15.885609 17.487806 28.691031 37.166533 -0.833370 0.688880 0.091444 -0.037306 98512.700000 0 0 1
-15.107209 16.358506 29.051791 36.603757 -0.825144 0.653956 0.088907 -0.051643 199959.000000 0 0 1
-14.449209 15.651006 27.838471 35.053018 -0.825303 0.653136 0.109195 -0.046736 533428.000000 0 0 1
-13.494909 16.478006 27.137881 34.497852 -0.884598 0.665425 0.066712 -0.039514 636079.000000 0 0 1
-12.781909 15.756206 26.104431 33.061708 -0.889245 0.660693 0.042491 -0.027964 403113.000000 0 0 1
-11.831709 16.702606 25.300811 32.543777 -0.954472 0.680212 0.060440 -0.019348 16325.600000 0 0 1
-12.353809 17.619306 24.362151 32.504937 -0.959298 0.723504 0.059942 -0.018204 -189027.000000 0 0 1
-12.985109 18.859106 24.794961 33.750096 -0.967808 0.745626 0.047328 -0.018387 437471.000000 0 0 1
-12.201609 19.912606 25.679361 34.710527 -1.021049 0.738001 0.041824 -0.019041 77935.800000 0 0 1
-11.883009 19.546506 27.005301 35.391497 -1.024563 0.702785 0.054960 -0.022743 -118010.000000 0 0 1
-12.940109 19.743306 27.903251 36.549090 -0.990622 0.702165 0.082092 -0.030996 -311159.000000 0 0 1
-12.519009 19.460306 29.375691 37.394656 -0.999138 0.667198 0.083870 -0.037024 558298.000000 0 0 1
-11.400009 20.293906 29.738781 37.765035 -1.058980 0.664105 0.061666 -0.039923 600468.000000 0 0 1
-11.167709 20.233806 31.129951 38.771103 -1.066470 0.638625 0.056127 -0.041256 37707.200000 0 0 1
-9.987709 21.147506 31.625202 39.333506 -1.129563 0.636759 0.038725 -0.029867 1480740.000000 0 0 1
-8.752709 20.380306 31.639479 38.639661 -1.165147 0.611419 0.055509 -0.032238 1873330.000000 0 0 1
-7.608509 21.115806 32.194167 39.245777 -1.224955 0.608823 0.067129 -0.024902 648781.000000 0 0 1
-6.577509 20.182306 32.752198 39.029419 -1.255746 0.575047 0.068584 -0.019078 -1170800.000000 0 0 1
-6.994009 19.438106 -33.461099 39.324309 -1.225410 2.588495 0.067361 -0.032551 555325.000000 0 0 1
-5.896409 18.881906 -32.707479 38.223987 -1.268113 2.597659 0.054037 -0.029624 782570.000000 0 0 1
-5.022009 17.833306 -33.457189 38.244357 -1.296297 2.635875 0.042119 -0.021609 -302543.000000 0 0 1
-5.725509 16.635506 33.577521 37.907406 -1.239321 0.482630 0.039620 -0.022861 -71359.900000 0 0 1
-5.125309 15.856606 32.586625 36.600394 -1.258167 0.472715 0.045960 -0.016457 -127694.000000 0 0 1
-5.801309 14.483706 32.404897 35.965404 -1.189824 0.448723 0.055288 -0.028689 -467986.000000 0 0 1
-5.159509 13.543006 33.207462 36.232155 -1.206800 0.411507 0.063723 -0.026675 -251154.000000 0 0 1
-5.642309 12.206306 33.010637 35.644518 -1.137806 0.386837 0.077501 -0.026765 -346847.000000 0 0 1
-4.839609 10.984306 33.508411 35.593404 -1.155793 0.343974 0.094188 -0.040300 -174036.000000 0 0 1
-4.771009 10.746506 -32.467279 34.530770 -1.152977 2.794136 0.100321 -0.042857 -67562.700000 0 0 1
-3.852509 9.671306 -32.346869 33.980817 -1.191718 2.830225 0.126713 -0.045288 122176.000000 0 0 1
-3.802609 9.046106 -30.950489 32.468825 -1.172863 2.834568 0.132488 -0.044022 411428.000000 0 0 1
-5.003109 8.368206 -30.599819 32.115524 -1.031944 2.833140 0.138427 -0.042843 240846.000000 0 0 1
-5.445809 8.685206 -29.294209 31.036113 -1.010745 2.804968 0.170717 -0.046372 -94737.000000 0 0 1
-6.547209 7.763806 -28.783309 30.522475 -0.870205 2.802390 0.163450 -0.040479 8010.490000 0 0 1
-6.028309 6.517006 -28.347969 29.705542 -0.824333 2.838102 0.174731 -0.029249 367819.000000 0 0 1
-7.090809 5.749306 -27.773749 29.235513 -0.681298 2.824033 0.178939 -0.051983 217463.000000 0 0 1
-6.685309 5.010906 -26.450109 27.738255 -0.643207 2.835641 0.176157 -0.052267 -60905.500000 0 0 1
-6.714509 5.878806 -25.292169 26.820492 -0.719134 2.802379 0.138442 -0.035905 39906.700000 0 0 1
-5.717409 6.880706 -25.160789 26.703898 -0.877476 2.799975 0.131717 -0.039060 -116301.000000 0 0 1
-6.101009 8.014406 -24.143289 26.160111 -0.920131 2.746354 0.084149 -0.015907 179042.000000 0 0 1
-6.201909 7.583606 -22.752489 24.771970 -0.885293 2.735009 0.063428 -0.009980 -428329.000000 0 1 0
-7.498609 7.350606 -22.268289 24.619854 -0.775431 2.700967 0.067421 -0.014425 -273127.000000 0 1 0
-7.532209 7.434706 -20.710889 23.258331 -0.778884 2.669177 0.049771 -0.014252 -143844.000000 0 1 0
-7.245409 8.805506 -20.386689 23.359152 -0.882291 2.631603 0.031493 -0.006578 156568.000000 0 1 0
-7.002509 9.016006 -19.022389 22.185012 -0.910440 2.601077 0.020524 -0.006145 -432772.000000 0 1 0
-8.241609 9.204006 -18.153189 21.958509 -0.840508 2.544021 0.032433 -0.010545 -1000580.000000 0 1 0
-7.955809 9.207806 -16.803989 20.747352 -0.858214 2.514836 0.017341 -0.010128 406222.000000 0 1 0
-9.061609 9.457906 -15.901689 20.601661 -0.806794 2.452565 0.026886 -0.023610 489342.000000 0 1 0
-9.713709 10.867806 -16.047289 21.679041 -0.841414 2.404196 0.059243 -0.033445 29494.200000 0 1 0
-8.843109 11.967506 -15.591889 21.552929 -0.934420 2.379544 0.032276 -0.027706 659008.000000 0 1 0
-9.261409 13.237206 -16.035389 22.762491 -0.960305 2.352466 0.060220 -0.033601 -626048.000000 0 1 0
-8.188909 14.276306 -15.750789 22.780660 -1.050014 2.334236 0.061841 -0.024991 -537970.000000 0 1 0
-7.828909 14.495406 -14.414189 21.890122 -1.075589 2.289592 0.058415 -0.026672 289570.000000 0 1 0
-8.628209 15.340306 -13.589489 22.236123 -1.058442 2.228302 0.060517 -0.030260 -713261.000000 0 1 0
-7.818609 16.048706 -12.468289 21.774982 -1.117457 2.180466 0.048294 -0.030078 285628.000000 0 1 0
-7.229809 17.295906 -12.854989 22.730359 -1.174864 2.171887 0.054904 -0.028460 517174.000000 0 1 0
-6.211509 17.335106 -13.859789 23.047396 -1.226729 2.215999 0.060650 -0.021726 -42911.700000 0 1 0
-5.961409 18.746806 -14.403889 24.381410 -1.262912 2.202813 0.082360 -0.017225 156702.000000 0 1 0
-5.360809 19.589406 -13.445089 24.356796 -1.303678 2.155564 0.079699 -0.027247 -204406.000000 0 1 0
-5.251009 20.948906 -13.817689 25.638999 -1.325199 2.139966 0.084473 -0.022267 -75501.900000 0 0 1
-4.513709 21.887406 -12.834389 25.771178 -1.367423 2.092103 0.088372 -0.026274 -793010.000000 0 0 1
-4.482009 23.303306 -12.952189 27.035008 -1.380783 2.070413 0.095128 -0.030160 61730.200000 0 0 1
-5.714109 24.013606 -13.021089 27.907939 -1.337188 2.056208 0.087406 -0.028102 627713.000000 0 0 1
-6.567709 24.003106 -11.677889 27.489216 -1.303714 2.009556 0.095488 -0.027408 386260.000000 0 0 1
-7.298109 22.778506 -11.446689 26.516964 -1.260736 2.017144 0.089377 -0.022396 322149.000000 0 0 1
-8.199909 22.728906 -10.363289 26.291432 -1.224559 1.975961 0.102056 -0.023867 244966.000000 0 0 1
-7.589309 23.000106 -8.941889 25.817820 -1.252077 1.924469 0.106908 -0.021128 17809.600000 0 0 1
-7.298709 24.349006 -8.782789 26.893914 -1.279565 1.903470 0.108478 -0.020993 -385296.000000 0 0 1
-6.660009 24.649806 -7.586689 26.636938 -1.306912 1.859613 0.107467 -0.017114 82148.800000 0 0 1
-6.462309 26.171006 -7.398889 27.954007 -1.328713 1.838669 0.110282 -0.023735 300942.000000 0 0 1
-5.635909 27.012806 -8.208389 28.789456 -1.365109 1.859926 0.113529 -0.030000 -99368.300000 0 0 1
-5.923909 27.109106 -9.606089 29.364490 -1.355657 1.904064 0.115693 -0.030749 -37048.100000 0 0 1
-5.436709 28.341506 -10.358089 30.660867 -1.381270 1.915404 0.114648 -0.035949 772264.000000 0 0 1
-6.401809 29.396106 -10.190789 31.764231 -1.356367 1.897398 0.108771 -0.032897 640629.000000 0 0 1
-7.366509 29.536406 -11.231689 32.447119 -1.326378 1.924265 0.115719 -0.031261 377694.000000 0 0 1
-8.526109 30.499706 -10.829689 33.469520 -1.298208 1.900295 0.122229 -0.035970 611590.000000 0 0 1
-9.520509 29.865806 -10.001489 32.903438 -1.262204 1.879648 0.121031 -0.035376 48657.000000 0 0 1
-10.617309 30.722906 -9.890289 33.977080 -1.238062 1.866159 0.105575 -0.041179 101266.000000 0 0 1
-11.762909 30.325006 -8.918989 33.727146 -1.200769 1.838425 0.134703 -0.047989 89229.300000 0 0 1
-12.518109 29.267006 -9.361589 33.179813 -1.166623 1.856828 0.135657 -0.050989 -303922.000000 0 0 1
-13.714009 29.107706 -8.613189 33.309452 -1.130496 1.832349 0.148414 -0.043600 169396.000000 0 0 1
-14.754809 28.182906 -9.243589 33.127398 -1.088496 1.853582 0.142054 -0.046472 -150963.000000 0 0 1
-14.477409 26.816606 -9.049889 31.790348 -1.075766 1.859463 0.148298 -0.047681 321770.000000 0 0 1
-15.477909 26.020106 -9.682889 31.786316 -1.034176 1.880340 0.148332 -0.052843 314402.000000 0 0 1
-15.531809 24.571806 -9.044089 30.443493 -1.007109 1.872427 0.156290 -0.044796 188564.000000 0 0 1
-14.389709 23.789806 -9.361489 29.336940 -1.026805 1.895579 0.159776 -0.042998 181734.000000 0 0 1
-14.558209 22.438606 -8.904889 28.190947 -0.995264 1.892178 0.137191 -0.040102 -125616.000000 0 0 1
-13.525809 21.332606 -9.246089 26.898285 -1.005720 1.921696 0.139376 -0.039023 -290692.000000 0 0 1
-13.552809 21.011806 -10.643689 27.174671 -0.997938 1.973250 0.135111 -0.031012 345334.000000 0 0 1
-12.979609 19.746706 -10.947289 26.043152 -0.989303 2.004629 0.128323 -0.029272 -231750.000000 0 0 1
-13.255409 19.358906 -12.370889 26.523800 -0.970400 2.056021 0.132394 -0.028177 -444703.000000 0 0 1
-14.557209 18.888206 -12.492389 26.920929 -0.914176 2.053347 0.140484 -0.024311 -646899.000000 0 0 1
-14.971109 18.715006 -13.807089 27.659017 -0.896085 2.093459 0.139241 -0.018168 -909557.000000 0 0 1
-16.454209 18.506306 -14.028289 28.460802 -0.844028 2.086214 0.130820 -0.010925 -1029420.000000 0 0 1
-17.071909 19.734306 -14.207489 29.711036 -0.857608 2.069388 0.138238 -0.012894 -1538380.000000 0 0 1
-18.382309 19.486806 -14.527489 30.474462 -0.814556 2.067705 0.121784 -0.011142 -1340390.000000 0 0 1
-19.182209 20.592106 -15.260189 32.013518 -0.820831 2.067670 0.115448 -0.019015 -32352.900000 0 0 1
-19.646909 21.618606 -14.416689 32.576158 -0.833143 2.029240 0.115309 -0.037131 299157.000000 0 0 1
-20.291509 22.644306 -15.156089 33.973769 -0.840141 2.033212 0.109433 -0.032970 184952.000000 0 0 1
-20.900309 23.779806 -14.245989 34.716715 -0.849756 1.993634 0.111984 -0.023330 -291181.000000 0 0 1
-22.050409 23.482306 -13.521789 34.935340 -0.816835 1.968228 0.136471 -0.028100 -213310.000000 0 0 1
-22.445209 24.593906 -12.754989 35.655818 -0.831045 1.936627 0.138661 -0.038950 12670.800000 0 0 1
-26.712359 -0.305994 3.635911 26.960408 0.011455 1.435523 0.263217 -0.074708 91396.500000 0 0 1
-27.533809 -0.021694 4.761011 27.942411 0.000788 1.399574 0.287407 -0.069722 1291620.000000 0 0 1
-28.956529 -0.018094 4.514511 29.306343 0.000625 1.416135 0.267857 -0.066110 877227.000000 0 0 1
-29.640779 0.657706 5.723011 30.195384 -0.022186 1.380110 0.262121 -0.038808 -507576.000000 0 0 1
-29.566819 2.064706 5.786611 30.198422 -0.069719 1.377984 0.299109 -0.050419 194907.000000 0 0 1
-29.820199 2.589606 7.091911 30.761104 -0.086623 1.338156 0.293869 -0.048057 1088720.000000 0 0 1
-28.513279 3.062806 7.894611 29.744121 -0.107007 1.302159 0.306071 -0.048766 1058560.000000 0 0 1
-27.664669 2.094406 8.457711 29.004367 -0.075563 1.274896 0.277383 -0.059642 143384.000000 0 0 1
-26.934479 2.549606 9.544511 28.689098 -0.094378 1.231644 0.283916 -0.070348 -352159.000000 0 0 1
-26.026089 1.394506 10.089911 27.948314 -0.053530 1.201434 0.260105 -0.068418 131976.000000 0 0 1
-24.962649 1.066306 9.199811 26.625315 -0.042690 1.217994 0.262794 -0.072349 492426.000000 0 0 1
-25.223189 -0.136494 8.454811 26.602852 0.005411 1.247371 0.232458 -0.060477 -236818.000000 0 0 1
-23.963409 -0.704794 7.780611 25.204754 0.029403 1.256974 0.206949 -0.064620 117261.000000 0 0 1
-22.984009 -1.183794 8.676211 24.595583 0.051460 1.210283 0.218064 -0.081981 1368930.000000 0 1 0
-21.727309 -1.576694 8.065811 23.229706 0.072440 1.216192 0.213988 -0.070325 1734460.000000 0 1 0
-20.553109 -1.975894 9.043111 22.541347 0.095841 1.157993 0.149933 -0.051960 924703.000000 0 1 0
-19.870109 -0.827294 9.648911 22.104460 0.041611 1.119076 0.127464 -0.049646 1434410.000000 0 1 0
-20.634709 -0.204794 10.729511 23.258452 0.009924 1.091318 0.163802 -0.056989 -134579.000000 0 1 0
-20.217809 1.287706 10.852411 22.982446 -0.063606 1.079006 0.117992 -0.047007 -514416.000000 0 1 0
-20.637809 2.209806 9.877911 22.986421 -0.106669 1.126605 0.145876 -0.041068 1239040.000000 0 1 0
-22.058209 2.453506 9.811711 24.266313 -0.110773 1.154545 0.172553 -0.054854 598248.000000 0 1 0
-22.445609 3.837306 9.306511 24.599623 -0.169323 1.182816 0.169664 -0.054413 -234357.000000 0 1 0
-22.179209 4.754806 10.352011 24.933705 -0.211185 1.142654 0.137264 -0.050939 513035.000000 0 1 0
-22.376709 6.080106 9.830711 25.185863 -0.265310 1.169810 0.110894 -0.043342 -214156.000000 0 0 1
-22.560809 7.176006 10.857711 26.045634 -0.307955 1.140794 0.117879 -0.051164 74136.500000 0 0 1
-23.769309 7.038506 11.572811 27.357825 -0.287891 1.134025 0.146633 -0.054184 161664.000000 0 0 1
-23.714009 7.915406 12.701411 28.041643 -0.322158 1.100727 0.151936 -0.052190 168649.000000 0 0 1
-24.585209 7.396106 13.869611 29.180490 -0.292223 1.075487 0.171780 -0.057122 616948.000000 0 0 1
-25.977609 7.318606 13.565811 30.206446 -0.274610 1.105035 0.167798 -0.059062 326953.000000 0 0 1
-26.768589 6.966606 14.655011 31.302720 -0.254605 1.083577 0.161115 -0.055992 404938.000000 0 0 1
-28.300039 7.092606 14.380211 32.526723 -0.245564 1.112853 0.162952 -0.052766 575429.000000 0 0 1
-28.854879 6.067406 13.574011 32.460302 -0.207254 1.139364 0.197156 -0.044013 -268961.000000 0 0 1
-30.153879 6.325106 13.124911 33.489202 -0.206763 1.168084 0.224890 -0.042433 -439993.000000 0 0 1
-30.720679 5.278406 12.105511 33.438976 -0.170158 1.200365 0.261452 -0.045578 -532504.000000 0 0 1
-31.258219 4.182106 12.789811 34.031537 -0.133002 1.185512 0.218223 -0.047227 -13107.200000 0 0 1
-31.734699 3.331106 11.775011 34.012325 -0.104584 1.217280 0.206264 -0.025691 150661.000000 0 0 1
-32.984679 2.430406 12.040211 35.197480 -0.073550 1.221671 0.164488 -0.014277 384749.000000 0 0 1
-32.699939 1.331906 12.862911 35.164108 -0.040709 1.196308 0.164210 -0.011194 -90577.700000 0 0 1
-33.853319 0.555706 13.019111 36.274692 -0.016414 1.203704 0.140584 -0.014507 -186250.000000 0 0 1
-33.580269 -0.596594 14.009811 36.390455 0.017764 1.175604 0.133965 -0.028087 87691.900000 0 0 1
-33.579789 -1.902194 13.424811 36.213894 0.056587 1.191024 0.161493 -0.029995 230005.000000 0 0 1
-33.715419 -2.909394 14.426011 36.787278 0.086079 1.167832 0.164905 -0.029032 -225171.000000 0 0 1
-33.590819 -4.361194 13.910211 36.617716 0.129111 1.181134 0.178400 -0.039384 -183975.000000 0 0 1
-34.740664 -4.739694 13.199011 37.464548 0.135594 1.210762 0.147812 -0.043561 111906.000000 0 0 1
-34.758657 -6.078994 12.712811 37.506452 0.173140 1.224996 0.169285 -0.040798 -675791.000000 0 0 1
-35.889515 -6.304394 11.688711 38.267854 0.173887 1.260391 0.166778 -0.041356 1085370.000000 0 0 1
-37.245259 -6.403494 12.176211 39.704838 0.170263 1.259106 0.146214 -0.039548 1359020.000000 0 0 1
-37.848169 -5.204494 12.703811 40.261116 0.136653 1.249775 0.155708 -0.048108 -1335160.000000 0 0 1
36.989943 -5.084094 12.200011 39.280328 -0.136589 1.254984 0.165608 -0.047157 -365000.000000 0 0 1
36.117303 -5.834394 13.093711 38.858011 -0.160157 1.227107 0.145947 -0.043062 157710.000000 0 0 1
34.793483 -5.727894 12.621911 37.452742 -0.163162 1.227058 0.168623 -0.040249 81759.500000 0 0 1
33.803473 -6.820994 13.121911 36.896955 -0.199110 1.207201 0.149571 -0.027684 55987.900000 0 0 1
33.297773 -6.582494 14.419311 36.878007 -0.195169 1.169078 0.147765 -0.025725 386317.000000 0 0 1
32.392203 -7.642594 14.771511 36.412382 -0.231702 1.153082 0.127831 -0.021962 273041.000000 0 0 1
31.878543 -7.555694 16.221211 36.557594 -0.232721 1.111055 0.127187 -0.025680 36399.300000 0 0 1
32.887593 -7.902494 17.148711 37.922572 -0.235817 1.101562 0.104994 -0.025209 -126647.000000 0 0 1
32.461133 -7.974494 18.461011 38.185424 -0.240892 1.066197 0.102984 -0.035111 -490273.000000 0 0 1
33.539063 -8.416794 19.447211 39.672474 -0.245877 1.058484 0.117283 -0.036501 254289.000000 0 0 1
34.649983 -7.545994 19.670111 40.552147 -0.214430 1.064368 0.122507 -0.025864 -299831.000000 0 0 1
35.808123 -8.186494 19.235511 41.463782 -0.224758 1.088391 0.072690 -0.005445 -1225450.000000 0 0 1
37.001473 -7.744894 20.051511 42.792002 -0.206334 1.083113 0.056599 -0.015279 -682419.000000 0 0 1
37.015333 -8.327194 21.356211 43.538084 -0.221282 1.058112 0.057001 -0.020716 484866.000000 0 0 1
-37.964409 -8.046494 21.902911 44.562091 0.208858 1.056968 0.062172 -0.026292 361987.000000 0 0 1
-37.852419 -8.510894 23.324311 45.268802 0.221166 1.029508 0.065969 -0.019425 -294991.000000 0 0 1
37.852503 -7.677194 24.312411 45.638192 -0.200104 1.008984 0.085969 -0.020563 95729.700000 0 0 1
37.475103 -8.519894 25.381711 46.056522 -0.223548 0.987115 0.094551 -0.033616 -63525.000000 0 0 1
37.098613 -7.711894 26.649511 46.324689 -0.204957 0.957854 0.121300 -0.031585 592985.000000 0 0 1
-37.985529 -7.177494 27.246611 47.294764 0.186752 0.956845 0.108650 -0.045080 418756.000000 0 0 1
37.990193 -6.566394 28.498711 47.943183 -0.171153 0.934244 0.117163 -0.049591 486707.000000 0 0 1
-36.983879 -6.030994 29.187011 47.498019 0.161648 0.909058 0.131251 -0.043433 641402.000000 0 0 1
-36.450389 -6.980194 30.102111 47.785888 0.189208 0.889324 0.121570 -0.034500 -394095.000000 0 0 1
-35.142815 -6.715294 30.514011 47.023585 0.188810 0.864647 0.112137 -0.052075 -290068.000000 0 0 1
-34.702427 -7.564194 31.751411 47.640609 0.214616 0.841322 0.093715 -0.040999 -38677.800000 0 0 1
-34.533134 -8.908794 31.394011 47.513029 0.252473 0.848985 0.081803 -0.037092 281038.000000 0 0 1
-34.041577 -9.598394 32.540711 48.060962 0.274826 0.827020 0.064120 -0.035079 -178772.000000 0 0 1
-34.226321 -11.155594 32.537311 48.523860 0.315078 0.835856 0.081549 -0.025969 -810139.000000 0 0 1
-35.579471 -11.463994 32.524511 49.549629 0.311705 0.854756 0.069586 -0.030518 -579876.000000 0 0 1
-35.871814 -12.839894 32.538711 50.104068 0.343729 0.863972 0.070784 -0.034617 566402.000000 0 0 1
-37.405219 -13.109694 32.655911 51.355847 0.337100 0.881654 0.066386 -0.027470 441216.000000 0 0 1
-37.769379 -14.470294 32.751011 52.043675 0.365873 0.890146 0.059276 -0.033745 -342319.000000 0 0 1
37.136033 -14.496994 33.098811 51.814854 -0.372182 0.877872 0.043395 -0.023863 -406298.000000 0 0 1
36.633903 -15.909094 33.324011 52.015688 -0.409698 0.875448 0.035724 -0.008894 -207664.000000 0 0 1
37.219513 -16.526294 -32.828889 52.308187 -0.417872 2.249270 0.041169 -0.024165 233418.000000 0 0 1
37.187393 -17.945194 -32.982889 52.846978 -0.449600 2.244802 0.035800 -0.031936 -458040.000000 0 0 1
37.729483 -18.685994 -31.711189 52.709389 -0.459850 2.216328 0.051444 -0.038534 342524.000000 0 0 1
36.908833 -18.503694 -30.554789 51.363837 -0.464715 2.207900 0.057699 -0.036824 230718.000000 0 0 1
37.342623 -19.419694 -29.556689 51.431448 -0.479552 2.183011 0.062469 -0.033390 -1238620.000000 0 0 1
36.401063 -19.428494 -28.391689 50.085844 -0.490269 2.173486 0.084438 -0.033233 188844.000000 0 0 1
35.203163 -20.201094 -28.574989 49.637454 -0.520964 2.184224 0.077335 -0.029737 1058860.000000 0 0 1
34.180413 -19.590494 -29.362089 49.134716 -0.520443 2.211280 0.073690 -0.027367 59385.000000 0 0 1
32.752143 -20.235294 -29.349189 48.410173 -0.553428 2.222147 0.080532 -0.018590 611372.000000 0 0 1
31.847933 -19.579294 -30.198789 48.058365 -0.551212 2.250262 0.072809 -0.013952 -684932.000000 0 0 1
30.550863 -20.063194 -30.109989 47.355025 -0.581081 2.259886 0.067045 -0.008641 -369669.000000 0 0 1
29.539463 -19.368194 -31.057789 47.035019 -0.580352 2.292030 0.056100 0.001057 72806.200000 0 0 1
29.884863 -19.537394 -32.382389 48.202011 -0.579011 2.307440 0.041679 -0.003534 280939.000000 0 0 1
28.818163 -19.348694 -33.338089 48.127816 -0.591277 2.336021 0.069107 -0.004504 579883.000000 0 0 1
29.225263 -19.677394 32.515211 47.943245 -0.592581 0.825483 0.065517 -0.012755 332241.000000 0 0 1
30.288363 -18.857394 32.016511 47.937910 -0.556868 0.839447 0.036950 -0.008060 341479.000000 0 0 1
30.445363 -18.792694 30.611711 47.086753 -0.553014 0.863063 0.044522 -0.010928 315139.000000 0 0 1
29.215363 -18.240294 29.785011 45.534521 -0.558124 0.857779 0.030173 -0.003888 546045.000000 0 0 1
28.938463 -16.873994 30.103611 45.037692 -0.527900 0.838728 0.039982 -0.013739 465080.000000 0 0 1
27.771463 -16.532294 29.360111 43.664482 -0.536955 0.833346 0.034770 -0.012209 177577.000000 0 0 1
27.385663 -15.064294 29.634211 43.070802 -0.502904 0.812019 0.053978 -0.010028 128593.000000 0 0 1
28.361363 -14.136994 29.163511 43.066598 -0.462415 0.826883 0.060631 -0.018940 305642.000000 0 0 1
28.078263 -12.854094 29.663811 42.820068 -0.429317 0.805494 0.082634 -0.000692 -240873.000000 0 0 1
29.290563 -11.945294 29.876111 43.511023 -0.387230 0.813949 0.092080 -0.003817 -525461.000000 0 0 1
29.886163 -11.323194 28.814811 43.031277 -0.362166 0.837093 0.104123 -0.015152 -1084290.000000 0 0 1
31.087163 -10.758594 29.175111 43.969832 -0.333177 0.845275 0.131559 -0.021206 -700768.000000 0 0 1
31.810543 -10.124594 27.949311 43.538282 -0.308140 0.873760 0.146079 -0.033567 -33762.500000 0 0 1
31.507513 -8.774294 27.714211 42.869442 -0.271601 0.867836 0.130975 -0.027313 22973.900000 0 0 1
32.285333 -8.269094 26.643311 42.668333 -0.250735 0.896397 0.163836 -0.038053 160120.000000 0 0 1
32.215153 -6.718994 26.583911 42.304436 -0.205619 0.891308 0.154869 -0.038700 22009.200000 0 0 1
30.905863 -6.353594 26.188611 41.004681 -0.202754 0.878023 0.146856 -0.031605 -164881.000000 0 0 1
30.760963 -4.965294 26.059011 40.619737 -0.160035 0.874298 0.142498 -0.032490 1621480.000000 0 0 1
29.254363 -4.582294 25.677211 39.193550 -0.155374 0.856430 0.109138 -0.013204 1526360.000000 0 0 1
28.830363 -5.037894 24.408811 38.109845 -0.172996 0.875666 0.137855 -0.022222 -264016.000000 0 0 1
27.484863 -4.682194 24.219011 36.931032 -0.168736 0.855567 0.110362 -0.009503 -54274.500000 0 0 1
26.877663 -5.061194 22.792011 35.601969 -0.186125 0.876051 0.121829 -0.016568 219373.000000 0 0 1
27.280463 -4.114894 21.805611 35.165902 -0.149708 0.901954 0.148536 -0.011096 264393.000000 0 0 1
26.760763 -4.478294 20.544711 34.033494 -0.165809 0.922710 0.144407 -0.007821 9101.830000 0 0 1
27.183663 -3.508494 19.443511 33.605225 -0.128357 0.953802 0.150978 -0.005073 -14732.000000 0 0 1
26.372363 -2.364494 19.317611 32.775943 -0.089419 0.940500 0.122574 0.006897 -198065.000000 0 0 1
26.811863 -1.446994 18.339111 32.516039 -0.053916 0.971572 0.131835 -0.000459 9755.350000 0 0 1
25.674563 -0.442494 18.027711 31.374788 -0.017233 0.958690 0.096439 -0.005178 532044.000000 0 0 1
24.646463 -1.138094 17.320911 30.145602 -0.046144 0.958711 0.100301 -0.011854 -243441.000000 0 0 1
23.573463 -0.319694 16.931711 29.025733 -0.013561 0.947968 0.133657 -0.015312 -284676.000000 0 0 1
22.361463 -1.099194 16.448311 27.781112 -0.049116 0.937174 0.135978 -0.025045 -767772.000000 0 0 1
22.610163 -1.883194 15.330711 27.382414 -0.083098 0.976562 0.198642 -0.049967 -625664.000000 0 0 1
21.492463 -2.610994 14.957611 26.314889 -0.120892 0.966226 0.204687 -0.052411 -613224.000000 0 0 1
21.707463 -3.449794 13.626911 25.861317 -0.157604 1.015821 0.229260 -0.063043 183860.000000 0 0 1
20.574963 -4.216894 13.214011 24.813734 -0.202153 1.009212 0.241212 -0.056694 799545.000000 0 1 0
20.692763 -4.553494 11.840411 24.271796 -0.216600 1.061199 0.221417 -0.054931 95558.900000 0 1 0
19.511863 -5.465694 11.444511 23.271516 -0.273121 1.056661 0.211950 -0.052590 116188.000000 0 1 0
19.730463 -6.774794 11.963611 24.048222 -0.330754 1.050100 0.218894 -0.053340 243450.000000 0 1 0
18.526163 -7.463894 12.161911 23.384621 -0.382990 1.023850 0.203192 -0.030742 -283658.000000 0 1 0
18.732463 -8.927294 12.608011 24.280933 -0.444727 1.024817 0.212435 -0.049536 -84195.600000 0 1 0
19.313963 -9.650894 11.486811 24.456405 -0.463395 1.081862 0.193366 -0.056951 636816.000000 0 1 0
19.267463 -11.039894 11.655911 25.079367 -0.520316 1.087432 0.212218 -0.052160 -247581.000000 0 0 1
19.698363 -11.651594 10.329111 25.109275 -0.534147 1.146844 0.203173 -0.052617 -90659.700000 0 0 1
18.849463 -11.289094 9.259511 23.842912 -0.539616 1.171951 0.164665 -0.040682 793930.000000 0 1 0
19.431363 -11.673194 8.009411 24.041464 -0.540963 1.231154 0.176157 -0.046592 225466.000000 0 1 0
18.472563 -11.173194 6.905911 22.666439 -0.543981 1.261198 0.122735 -0.026199 -31240.500000 0 1 0
18.577263 -9.786594 6.543011 21.993252 -0.484861 1.268722 0.095502 -0.025019 315451.000000 0 1 0
19.642863 -9.542594 5.666111 22.561205 -0.452227 1.316934 0.119300 -0.020205 -450837.000000 0 1 0
19.891763 -8.046594 5.341911 22.112574 -0.384396 1.326805 0.118566 -0.017150 -377551.000000 0 1 0
20.730963 -7.718794 4.246611 22.525237 -0.356429 1.381134 0.151955 -0.022607 597645.000000 0 1 0
20.890663 -6.323094 4.161811 22.219856 -0.293910 1.382382 0.145826 -0.030708 -143156.000000 0 1 0
21.803263 -5.792394 3.061911 22.766409 -0.259668 1.435895 0.194671 -0.043791 38839.200000 0 1 0
21.161463 -6.127894 1.838011 22.107394 -0.281868 1.487560 0.157513 -0.043595 1074700.000000 0 1 0
21.985963 -5.729194 0.756611 22.732767 -0.254915 1.537507 0.192866 -0.039538 264109.000000 0 1 0
-25.099729 -14.566294 -0.556189 29.025552 0.525836 1.589960 0.148501 -0.027753 -548793.000000 0 0 1
-23.876809 -13.934394 -0.878289 27.659370 0.528270 1.602555 0.109027 -0.013439 411579.000000 0 0 1
-22.747109 -14.504594 -0.238789 26.979089 0.567641 1.579647 0.131951 -0.014519 117225.000000 0 0 1
-22.555309 -14.126794 1.230511 26.642493 0.559546 1.524594 0.161253 -0.037590 -835454.000000 0 0 1
-23.520009 -14.678794 2.113411 27.805113 0.557951 1.494715 0.162657 -0.012056 266402.000000 0 0 1
-23.124409 -14.487694 3.471511 27.507871 0.559685 1.444258 0.142905 -0.004798 116888.000000 0 0 1
-24.093309 -15.200294 4.435011 28.830640 0.562826 1.416353 0.175724 -0.000591 -4985.280000 0 0 1
-23.991309 -16.630694 4.507211 29.537736 0.606145 1.417606 0.225701 -0.031546 -107267.000000 0 0 1
-24.946629 -17.174794 5.364911 30.758578 0.602940 1.395480 0.241601 -0.031300 -326415.000000 0 0 1
-25.043569 -18.671594 5.018411 31.638477 0.640656 1.411506 0.185613 -0.022671 -41308.200000 0 0 1
-25.535799 -19.398194 6.130411 32.648873 0.649647 1.381907 0.186552 -0.035042 54101.500000 0 0 1
-25.458769 -20.781294 5.775811 33.367216 0.684585 1.396822 0.169482 -0.037479 25163.800000 0 0 1
-25.930189 -21.885294 6.807111 34.607479 0.701005 1.372811 0.147676 -0.029894 804928.000000 0 0 1
-25.000459 -22.053594 7.910611 34.263125 0.722853 1.337816 0.142788 -0.023947 498873.000000 0 0 1
-25.558329 -22.883694 8.902211 35.442080 0.730241 1.316901 0.120669 -0.022055 201932.000000 0 0 1
-24.671509 -23.057094 10.158611 35.263442 0.751586 1.278578 0.116673 -0.031784 172103.000000 0 0 1
-24.743909 -21.961894 11.068511 34.886928 0.725904 1.247949 0.115258 -0.035230 -464441.000000 0 0 1
-23.735709 -22.012894 11.997611 34.523819 0.747758 1.215875 0.125088 -0.038647 -642079.000000 0 0 1
-24.135909 -21.181294 13.205811 34.721503 0.720292 1.180638 0.097284 -0.025552 59930.100000 0 0 1
-25.339309 -21.512894 13.863911 36.015181 0.703909 1.175647 0.086306 -0.023959 -73676.700000 0 0 1
-25.608559 -20.778694 15.092811 36.267691 0.681651 1.141589 0.089557 -0.014630 -224916.000000 0 0 1
-26.988289 -21.159994 15.691111 37.713712 0.664935 1.141690 0.068901 -0.019478 -684083.000000 0 0 1
-28.052869 -20.833894 14.859011 37.971105 0.638790 1.168726 0.080743 -0.017576 -387154.000000 0 0 1
-28.494469 -21.878294 14.036711 38.569726 0.654801 1.198312 0.065396 -0.018235 20796.900000 0 0 1
-29.606729 -22.812194 14.632611 40.138111 0.656497 1.197640 0.070839 -0.024202 201997.000000 0 0 1
-29.032339 -23.597394 15.665311 40.560026 0.682495 1.174260 0.046070 -0.016290 292443.000000 0 0 1
-29.727049 -24.838494 15.910211 41.878193 0.696046 1.181090 0.047080 -0.016313 22810.300000 0 0 1
-29.484489 -26.048174 14.966811 42.093324 0.723598 1.207280 0.051321 -0.018311 -4311.800000 0 0 1
-30.198529 -25.937914 13.749111 42.116085 0.709646 1.238243 0.058807 -0.033794 7568.770000 0 0 1
-31.405649 -26.680254 13.800511 43.458082 0.704225 1.247642 0.111116 -0.051452 -177854.000000 0 0 1
-32.170049 -26.782024 12.495311 43.684341 0.694255 1.280708 0.143394 -0.065118 -511923.000000 0 0 1
-31.673279 -27.721084 11.622611 43.666237 0.718955 1.301380 0.107488 -0.061567 -176311.000000 0 0 1
-32.515569 -27.993084 10.524511 44.177374 0.710796 1.330250 0.103167 -0.038999 -222366.000000 0 0 1
-32.092949 -29.172404 9.639211 44.428605 0.737764 1.352098 0.092348 -0.034759 -74324.800000 0 0 1
-32.159719 -30.428544 10.301311 45.456142 0.757745 1.342189 0.094907 -0.022156 285506.000000 0 0 1
-31.674589 -31.559274 9.554811 45.722662 0.783575 1.360271 0.103281 -0.033530 -408361.000000 0 0 1
-31.770189 -32.910824 10.324911 46.894254 0.803031 1.348803 0.108342 -0.031083 207485.000000 0 0 1
-33.086289 -33.326734 10.669411 48.158178 0.789019 1.347393 0.090012 -0.019046 447501.000000 0 0 1
-33.003349 32.780095 11.166911 47.837805 -0.782004 1.335190 0.121112 -0.025388 36059.200000 0 0 1
-34.275517 32.164888 11.887011 48.483936 -0.753642 1.323097 0.120406 -0.016301 1390590.000000 0 0 1
-35.434848 31.807850 11.135811 48.901677 -0.731511 1.341062 0.084017 -0.017184 414168.000000 0 0 1
-36.071609 32.855867 10.499311 49.908962 -0.738778 1.358844 0.107121 -0.019426 -1575930.000000 0 0 1
-37.537049 32.597414 10.169811 50.744916 -0.715083 1.369019 0.114248 -0.011895 -537555.000000 0 0 1
-37.720719 31.776255 9.064511 50.147267 -0.700070 1.389039 0.090138 -0.007302 140998.000000 0 0 1
37.198103 31.907730 8.654411 49.766463 0.708993 1.396007 0.076541 -0.009462 -107658.000000 0 0 1
36.941933 31.485637 7.196611 49.069776 0.705828 1.423605 0.066533 -0.013776 -329644.000000 0 0 1
36.826573 30.105205 7.134111 48.097976 0.685313 1.421922 0.110729 -0.020487 195720.000000 0 0 1
36.605773 29.646675 5.793211 47.460185 0.680743 1.448427 0.122407 -0.027760 -71504.300000 0 0 1
36.775953 28.109295 5.647711 46.631532 0.652615 1.449385 0.132752 -0.022039 -332148.000000 0 0 1
35.815613 27.344835 6.286311 45.497426 0.652078 1.432184 0.129039 -0.022040 -209898.000000 0 0 1
36.156043 27.072005 7.642211 45.810002 0.642704 1.403189 0.129260 -0.023473 491580.000000 0 0 1
35.109573 26.053365 8.205711 44.483633 0.638399 1.385268 0.116066 -0.014621 438697.000000 0 0 1
35.310613 24.792155 7.583811 43.806443 0.612145 1.396799 0.113015 -0.027106 -212585.000000 0 0 1
34.308233 23.928355 7.979311 42.582748 0.609014 1.382298 0.113343 -0.029183 -1005690.000000 0 0 1
34.312793 22.531755 7.227411 41.680729 0.581041 1.396516 0.114712 -0.032570 563495.000000 0 0 1
35.350743 21.609035 7.573911 42.118755 0.548669 1.389990 0.116630 -0.028391 592722.000000 0 0 1
36.692103 21.974135 7.276011 43.383330 0.539595 1.402286 0.102712 -0.023556 -183430.000000 0 0 1
37.653393 20.808935 7.138511 43.609037 0.504871 1.406363 0.069114 -0.017467 -285345.000000 0 0 1
37.418833 19.966235 6.011911 42.836464 0.490155 1.429986 0.100943 -0.029282 -186057.000000 0 0 1
38.001143 18.710035 6.185711 42.806720 0.457513 1.425785 0.121997 -0.033774 -214669.000000 0 0 1
37.633703 17.650435 5.164211 41.886782 0.438546 1.447192 0.122405 -0.033509 -307339.000000 0 0 1
-37.979999 17.643435 3.930811 42.062125 -0.434884 1.477207 0.136090 -0.033311 -120281.000000 0 0 1
37.721613 16.597835 3.136211 41.330908 0.414514 1.494843 0.144294 -0.031512 -731676.000000 0 0 1
-37.835369 16.141735 1.837211 41.175795 -0.403251 1.526163 0.174458 -0.027720 100774.000000 0 0 1
-36.683809 15.324035 1.943311 39.803321 -0.395699 1.521954 0.172844 -0.046549 -392478.000000 0 0 1
-35.532077 16.058835 2.119111 39.050036 -0.424477 1.516503 0.193633 -0.051987 -633920.000000 0 0 1
-34.197668 15.225335 2.140311 37.494963 -0.418868 1.513683 0.210019 -0.049169 576324.000000 0 0 1
-34.062774 14.489835 3.325611 37.165677 -0.402198 1.481196 0.233220 -0.050525 490770.000000 0 0 1
-32.715799 14.044035 3.426011 35.767247 -0.405485 1.474863 0.229549 -0.065309 258109.000000 0 0 1
-32.475919 13.249935 4.721911 35.391278 -0.387378 1.436977 0.260234 -0.052377 -68271.800000 0 0 1
-32.918249 11.898035 4.697011 35.316232 -0.346831 1.437402 0.285886 -0.054162 187096.000000 0 0 1
-32.664759 11.227135 5.892911 35.039427 -0.331058 1.401814 0.240432 -0.035890 -92795.600000 0 0 1
-32.759429 9.696035 5.878411 34.666252 -0.287762 1.400401 0.287882 -0.049281 183794.000000 0 0 1
-34.008482 9.149435 6.267611 35.771105 -0.262811 1.394673 0.272918 -0.027200 288417.000000 0 0 1
-33.940067 7.739435 6.214611 35.361680 -0.224199 1.394135 0.305143 -0.039331 754605.000000 0 0 1
-35.393285 7.133235 6.266611 36.644755 -0.198878 1.398942 0.253706 -0.026430 729416.000000 0 0 1
-36.049119 7.280435 7.503811 37.534663 -0.199278 1.369523 0.228178 -0.027323 576894.000000 0 0 1
-37.328429 6.627035 7.366911 38.621245 -0.175703 1.378873 0.163401 -0.028840 910308.000000 0 0 1
-37.894999 6.048835 8.692011 39.346797 -0.158286 1.348051 0.150930 -0.036259 -18276.900000 0 0 1
37.820153 6.905835 9.647411 39.637445 0.180607 1.324936 0.157578 -0.038100 1061790.000000 0 0 1
-37.407609 7.646435 10.332111 39.554389 -0.201631 1.306518 0.175161 -0.041049 758806.000000 0 0 1
38.128123 8.497535 11.367111 40.683818 0.219284 1.287626 0.144074 -0.036996 -96622.300000 0 0 1
37.531983 7.814435 12.430311 40.301709 0.205275 1.257253 0.130324 -0.044330 947989.000000 0 0 1
36.729433 8.728235 13.237911 40.005944 0.233309 1.233541 0.148043 -0.043999 352339.000000 0 0 1
36.006193 8.273435 14.562911 39.711132 0.225858 1.195314 0.173353 -0.050290 -861875.000000 0 0 1
34.723753 7.781435 14.411411 38.392428 0.220453 1.185999 0.173782 -0.057226 -615213.000000 0 0 1
34.306133 7.001835 15.543111 38.308285 0.201333 1.153011 0.164317 -0.047914 -120059.000000 0 0 1
32.791163 6.751435 15.671811 36.965496 0.203054 1.132985 0.166966 -0.040854 -808347.000000 0 0 1
32.243283 8.008735 15.819411 36.797050 0.243458 1.126403 0.154300 -0.047260 499675.000000 0 0 1
30.808563 8.086935 15.831611 35.569734 0.256699 1.109525 0.153245 -0.042858 947421.000000 0 0 1
30.115563 7.636735 17.128511 35.477496 0.248346 1.066948 0.143031 -0.050494 -751814.000000 0 0 1
30.453263 8.452235 18.221911 36.481221 0.270733 1.047789 0.172623 -0.052164 294666.000000 0 0 1
29.633263 8.376635 19.393311 36.392290 0.275489 1.008777 0.161384 -0.036273 -155283.000000 0 0 1
29.920663 7.097535 20.187511 36.785278 0.232907 0.989876 0.150862 -0.031316 220771.000000 0 0 1
29.163463 6.909335 21.386611 36.818930 0.232628 0.951013 0.123965 -0.025575 382160.000000 0 0 1
29.686463 5.810335 22.194911 37.518797 0.193280 0.937794 0.129849 -0.027755 280480.000000 0 0 1
28.787063 5.476535 23.465311 37.540754 0.187996 0.895585 0.123703 -0.018680 -94756.300000 0 0 1
27.498063 5.036135 23.220011 36.341093 0.181138 0.877668 0.108007 -0.009755 -1009600.000000 0 0 1
26.551063 6.079935 23.334011 35.866427 0.225109 0.862447 0.118697 -0.007220 -802027.000000 0 0 1
25.214663 5.581335 22.821211 34.463578 0.217840 0.847067 0.106805 -0.011527 -1082550.000000 0 0 1
25.135063 5.509435 21.422111 33.481817 0.215781 0.876541 0.115222 -0.004504 -256535.000000 0 0 1
23.849663 5.271535 20.924611 32.162631 0.217534 0.862438 0.133617 -0.009866 -1101370.000000 0 0 1
23.198463 3.870535 21.157911 31.635532 0.165322 0.838200 0.127909 -0.016018 337709.000000 0 0 1
21.861563 3.752535 20.675911 30.323304 0.169993 0.820509 0.135163 -0.029416 1325850.000000 0 0 1
20.823863 4.486235 21.383311 30.182868 0.212194 0.783485 0.164329 -0.031667 46643.400000 0 0 1
19.512763 4.415835 20.567811 28.692897 0.222556 0.771557 0.241706 -0.044259 219689.000000 0 0 1
18.630163 3.303035 20.777311 28.101417 0.175472 0.738664 0.226871 -0.042603 -309277.000000 0 0 1
17.633163 3.182535 19.853811 26.743799 0.178563 0.734195 0.282750 -0.052870 -885548.000000 0 0 1
16.508263 2.223135 20.232911 26.207551 0.133863 0.688774 0.317670 -0.056993 -429172.000000 0 0 1
16.754563 0.850535 20.158711 26.226178 0.050721 0.694071 0.226167 -0.042953 -149524.000000 0 0 1
15.708563 0.215435 20.849711 26.105858 0.013714 0.645731 0.272256 -0.049612 -174517.000000 0 0 1
15.910263 -1.279365 20.945811 26.334393 -0.080239 0.651164 0.196978 -0.030497 -75553.000000 0 0 1
15.535163 -1.927565 19.764411 25.212868 -0.123447 0.669871 0.228784 -0.030052 114793.000000 0 0 1
15.708563 -3.314465 19.897311 25.566533 -0.207947 0.678912 0.168666 -0.022586 -85960.000000 0 0 1
15.193863 -4.108765 18.638711 24.395429 -0.264106 0.701268 0.166279 -0.021656 -48826.100000 0 1 0
13.792763 -4.023465 18.569111 23.478511 -0.283833 0.658521 0.180529 -0.024239 -366878.000000 0 1 0
13.268563 -4.902365 17.588411 22.570781 -0.353916 0.677319 0.173526 -0.019303 1568890.000000 0 1 0
11.683263 -4.877765 17.486611 21.588719 -0.395501 0.626664 0.141888 -0.008615 1247220.000000 0 1 0
11.012963 -5.634565 18.436211 22.201972 -0.472909 0.590996 0.139788 -0.001510 326117.000000 0 1 0
9.622163 -5.597065 18.085611 21.236819 -0.526844 0.551736 0.120317 -0.020817 1385100.000000 0 1 0
8.611463 -6.575565 18.800511 21.699184 -0.652138 0.522818 0.129023 -0.031021 598167.000000 0 1 0
8.652863 -7.899965 18.214711 21.657728 -0.739945 0.571619 0.130602 -0.046479 104126.000000 0 1 0
9.183963 -8.785765 19.205511 23.030122 -0.763242 0.584605 0.143392 -0.038827 287310.000000 0 1 0
9.082363 -10.207565 18.696211 23.156684 -0.843663 0.631101 0.156629 -0.044253 57107.900000 0 1 0
9.657763 -10.298965 17.425011 22.427039 -0.817517 0.680967 0.142313 -0.033507 -24392.300000 0 1 0
9.883263 -11.650565 16.947711 22.817525 -0.867286 0.733629 0.145254 -0.039955 313363.000000 0 1 0
9.770263 -11.798665 15.430011 21.742856 -0.879165 0.781782 0.140217 -0.039916 132570.000000 0 1 0
10.174663 -13.057965 14.989811 22.332234 -0.908873 0.834945 0.115153 -0.038403 -301680.000000 0 1 0
10.082863 -13.240265 13.562711 21.468952 -0.919957 0.887006 0.110760 -0.032634 -328792.000000 0 1 0
10.997763 -14.320065 12.951711 22.220753 -0.915876 0.948546 0.149236 -0.041256 502973.000000 0 1 0
12.344263 -14.006665 12.619911 22.535076 -0.848402 0.976396 0.119578 -0.043743 270000.000000 0 1 0
12.541863 -13.090465 11.541411 21.490993 -0.806798 1.003878 0.076796 -0.039813 -2149520.000000 0 1 0
13.957263 -12.800765 11.193411 21.999028 -0.742204 1.036990 0.104127 -0.042022 -1452610.000000 0 1 0
14.646263 -13.946765 10.717411 22.888604 -0.760939 1.083496 0.108839 -0.035918 -300367.000000 0 1 0
15.836063 -13.502565 10.114211 23.138656 -0.706029 1.118410 0.106587 -0.048318 247419.000000 0 1 0
16.920163 -14.611465 9.812511 24.414590 -0.712310 1.157193 0.088520 -0.044882 501118.000000 0 1 0
17.702763 -15.031465 10.876711 25.644407 -0.703973 1.132789 0.094676 -0.033586 446180.000000 0 0 1
16.959863 -16.017765 11.652311 26.076466 -0.756838 1.107553 0.149081 -0.028144 320185.000000 0 0 1
17.753163 -16.648665 12.831511 27.513642 -0.753303 1.085615 0.130283 -0.023782 -375669.000000 0 0 1
18.787663 -17.444365 12.351911 28.457896 -0.748340 1.121822 0.141930 -0.033749 -400846.000000 0 0 1
19.180263 -18.402265 13.284111 29.715206 -0.764700 1.107334 0.109059 -0.027390 231383.000000 0 0 1
20.346063 -19.314465 12.743611 30.812505 -0.759393 1.144407 0.051855 -0.020963 1070740.000000 0 0 1
21.584163 -18.587365 12.758911 31.211473 -0.710936 1.149669 0.053616 -0.021786 772776.000000 0 0 1
22.695263 -19.394665 12.315711 32.294036 -0.707141 1.179527 0.045375 -0.021840 473908.000000 0 0 1
23.563063 -18.653665 11.311011 32.110997 -0.669628 1.210825 0.083128 -0.023707 -907960.000000 0 0 1
23.212663 -18.589165 9.927711 31.351941 -0.675241 1.248597 0.082181 -0.019326 198140.000000 0 0 1
21.908663 -18.159665 9.543811 30.014118 -0.692105 1.247201 0.094582 -0.025029 420291.000000 0 0 1
21.671463 -16.645565 9.738511 29.009752 -0.654977 1.228450 0.160667 -0.047989 -333145.000000 0 0 1
22.445063 -15.920865 8.835311 28.901860 -0.616958 1.260122 0.151445 -0.032831 -192486.000000 0 0 1
22.269863 -14.524165 8.963611 28.057877 -0.577913 1.245628 0.173301 -0.037865 5124.480000 0 0 1
-36.861049 24.478406 8.016311 44.968773 -0.586204 1.391574 0.126919 -0.020331 -308500.000000 0 0 1
-35.735782 23.871506 8.561611 43.820042 -0.588925 1.374150 0.149112 -0.026723 -610710.000000 0 0 1
-34.745133 24.806106 8.899811 43.609331 -0.620024 1.365272 0.180637 -0.030961 -836639.000000 0 0 1
-33.587049 24.063606 9.534811 42.403533 -0.621684 1.343998 0.214179 -0.041890 -728035.000000 0 0 1
-32.822879 23.264706 8.646111 41.150251 -0.616605 1.359108 0.229391 -0.034277 218766.000000 0 0 1
-31.914949 22.424206 9.326311 40.104726 -0.612485 1.336099 0.220709 -0.035428 340769.000000 0 0 1
-31.098629 21.470306 8.413511 38.715448 -0.604250 1.351732 0.190729 -0.038848 -156730.000000 0 0 1
-31.963749 20.554106 7.853611 38.805048 -0.571470 1.367002 0.200592 -0.040012 -414250.000000 0 0 1
-31.446989 19.965106 6.737711 37.853868 -0.565673 1.391850 0.202405 -0.043885 -613041.000000 0 0 1
-32.460759 19.346806 5.778411 38.228128 -0.537478 1.419059 0.196904 -0.033923 -437615.000000 0 0 1
-33.061189 18.160106 6.242011 38.233419 -0.502296 1.406802 0.216157 -0.043360 439663.000000 0 0 1
-34.123422 17.717706 5.414911 38.828421 -0.478908 1.430883 0.157554 -0.046520 394425.000000 0 0 1
-34.841619 16.388406 5.871011 38.948518 -0.439663 1.419482 0.147408 -0.022766 73647.300000 0 0 1
-35.457732 16.445806 7.122911 39.729726 -0.434282 1.390538 0.096879 -0.013139 82753.900000 0 0 1
-36.252219 15.322606 7.404311 40.047840 -0.399893 1.384840 0.099522 -0.013190 83525.100000 0 0 1
-37.163629 15.535406 8.645311 41.197397 -0.395950 1.359374 0.084033 -0.004563 -212352.000000 0 0 1
37.965933 16.324306 8.470611 42.185854 0.406075 1.368629 0.112266 -0.018478 -233931.000000 0 0 1
37.430713 16.741606 9.748811 42.147111 0.420581 1.337378 0.107915 -0.015041 227080.000000 0 0 1
36.451403 17.943106 9.577311 41.741882 0.457426 1.339293 0.068803 -0.011165 -319198.000000 0 0 1
35.155233 17.488406 9.319011 40.355652 0.461615 1.337771 0.101421 -0.019657 -867025.000000 0 0 1
34.379453 18.613206 9.007311 40.118946 0.496220 1.344351 0.102888 -0.024976 199417.000000 0 0 1
32.860713 18.400806 8.781111 38.672005 0.510461 1.341732 0.123777 -0.030453 -112947.000000 0 0 1
32.057363 19.532006 9.013111 38.605827 0.547217 1.335157 0.122313 -0.026855 396510.000000 0 0 1
30.692563 19.473006 8.612411 37.355120 0.565369 1.338148 0.099921 -0.030360 583784.000000 0 0 1
30.433263 19.452206 7.079311 36.806092 0.568728 1.377249 0.073018 -0.021003 -953844.000000 0 0 1
30.786063 18.253706 6.501511 36.376491 0.535198 1.391102 0.081125 -0.024284 74815.700000 0 0 1
30.361363 18.066006 5.173611 35.706570 0.536759 1.425392 0.072635 -0.028117 43152.500000 0 0 1
28.901963 18.249006 4.668811 34.498514 0.563196 1.435046 0.096080 -0.024877 -367216.000000 0 0 1
27.948763 17.468806 5.386011 33.396132 0.558621 1.408812 0.084863 -0.028135 426659.000000 0 0 1
26.618263 17.680006 4.945111 32.335254 0.586297 1.417261 0.117765 -0.027549 257067.000000 0 0 1
25.830663 18.964606 5.205411 32.464992 0.633305 1.409762 0.128677 -0.020982 -679240.000000 0 0 1
26.349863 20.077906 4.481011 33.429284 0.651120 1.436347 0.108562 -0.027149 96549.800000 0 0 1
25.910663 21.279606 5.076111 33.910927 0.687576 1.420542 0.127785 -0.019066 -150381.000000 0 0 1
26.799263 22.527606 4.741711 35.329553 0.699015 1.436176 0.086484 -0.011301 225193.000000 0 0 1
27.967763 22.456706 5.555711 36.295527 0.676537 1.417123 0.090090 -0.026954 207515.000000 0 0 1
28.823363 23.559806 5.268111 37.597921 0.685252 1.430217 0.072089 -0.012381 -425697.000000 0 0 1
30.157863 23.513206 6.095211 38.723625 0.662222 1.412736 0.081740 -0.020196 763169.000000 0 0 1
31.124163 22.549906 5.640311 38.846169 0.626990 1.425085 0.071921 -0.018099 578482.000000 0 0 1
31.523333 22.502706 4.269311 38.965617 0.619956 1.461010 0.065755 -0.020575 -911021.000000 0 0 1
32.392743 23.612706 3.632911 40.249816 0.629893 1.480414 0.086747 -0.023904 -586948.000000 0 0 1
31.745653 24.831106 3.460911 40.451801 0.663786 1.485135 0.073350 -0.026042 301.395000 0 0 1
32.527443 25.839106 2.776511 41.634156 0.671304 1.504058 0.119434 -0.025179 -862767.000000 0 0 1
31.986113 27.286006 2.971611 42.148167 0.706267 1.500234 0.106083 -0.018627 146834.000000 0 0 1
30.730063 27.586106 2.442811 41.367829 0.731538 1.511711 0.117346 -0.021542 -534612.000000 0 0 1
29.613563 26.961406 3.011911 40.161575 0.738554 1.495731 0.090166 -0.016513 -832878.000000 0 0 1
28.257363 27.395406 2.413911 39.431127 0.769911 1.509540 0.044647 -0.002112 12932.500000 0 0 1
27.910363 28.774006 2.602611 40.170951 0.800633 1.505963 0.033559 0.005559 409863.000000 0 0 1
26.664263 29.118206 1.992811 39.532570 0.829361 1.520366 0.024818 0.003636 609808.000000 0 0 1
26.218363 30.559906 2.379211 40.335729 0.861715 1.511777 0.044588 -0.006434 -115528.000000 0 0 1
25.973263 30.731106 3.762011 40.412423 0.869108 1.477571 0.024528 -0.009595 443717.000000 0 0 1
27.139063 30.808906 4.601611 41.314552 0.848644 1.459185 0.035228 -0.016902 380278.000000 0 0 1
26.842463 30.758606 6.142211 41.283609 0.853281 1.421461 0.028746 -0.020835 31692.300000 0 0 1
26.371763 29.535006 6.738811 40.164636 0.841919 1.402219 0.031973 -0.027953 129130.000000 0 0 1
27.215063 28.413006 6.540111 39.883976 0.806930 1.406074 0.072476 -0.035158 -157822.000000 0 0 1
26.680563 27.120506 7.162611 38.712753 0.793575 1.384705 0.089613 -0.040029 497369.000000 0 0 1
25.536763 26.698106 6.396811 37.494457 0.807628 1.399351 0.053197 -0.029497 694761.000000 0 0 1
25.028863 25.406906 6.747611 36.297177 0.792894 1.383810 0.064250 -0.031117 -500346.000000 0 0 1
23.939763 24.951306 5.785611 35.059281 0.806085 1.405014 0.080315 -0.010899 -658805.000000 0 0 1
24.194363 24.768006 4.415511 34.904413 0.797114 1.443954 0.073280 -0.021993 123447.000000 0 0 1
24.468563 26.006806 3.709311 35.900188 0.815864 1.467289 0.055541 -0.019325 -132428.000000 0 0 1
24.471263 25.881606 2.154111 35.683896 0.813400 1.510393 0.068515 -0.006106 -810505.000000 0 0 1
25.581263 25.185806 1.728711 35.940426 0.777609 1.522678 0.037146 0.007212 -469343.000000 0 0 1
25.751463 25.217906 0.317111 36.044156 0.774930 1.561998 0.049699 -0.002952 -869445.000000 0 0 1
27.027763 24.678206 -0.272989 36.600387 0.739989 1.578255 0.072491 -0.011646 -1429430.000000 0 0 1
28.203663 25.408706 -0.040189 37.961171 0.733313 1.571855 0.083268 -0.006251 -248668.000000 0 0 1
29.403163 24.760106 -0.316489 38.440980 0.699884 1.579030 0.086018 0.004581 -146813.000000 0 0 1
29.881663 23.542306 0.512211 38.044924 0.667289 1.557333 0.065212 0.000212 -913011.000000 0 0 1
29.017963 22.456606 0.357011 36.694260 0.658614 1.561067 0.054096 -0.003598 -82684.800000 0 0 1
29.284063 21.530706 1.377211 36.373401 0.633985 1.532924 0.053598 -0.003845 -433963.000000 0 0 1
28.107763 20.619606 1.696911 34.901203 0.632916 1.522157 0.055100 -0.013140 -345930.000000 0 0 1
27.600563 19.729706 0.688611 33.934150 0.620610 1.550502 0.075153 -0.021145 663674.000000 0 0 1
26.621063 18.846506 1.235211 32.640427 0.616045 1.532944 0.086876 -0.028578 101545.000000 0 0 1
25.859463 18.087306 0.090411 31.557418 0.610354 1.567931 0.083655 -0.023556 -440532.000000 0 0 1
24.681463 17.491506 0.564711 30.256343 0.616534 1.552131 0.095870 -0.025871 -182807.000000 0 0 1
24.156763 16.667906 -0.434689 29.352295 0.603976 1.585606 0.111159 -0.052797 -276199.000000 0 0 1
22.729263 16.194306 -0.129289 27.908630 0.619057 1.575429 0.111398 -0.040354 -337039.000000 0 0 1
22.168963 15.457606 -1.202189 27.052647 0.608887 1.615250 0.123079 -0.040451 674524.000000 0 0 1
20.768963 15.196306 -1.136889 25.759853 0.631675 1.614945 0.150165 -0.041117 636551.000000 0 0 1
19.759263 16.220206 -1.694889 25.620230 0.687350 1.636999 0.179222 -0.042528 -252439.000000 0 0 1
19.591063 17.359306 -0.794189 26.187515 0.725073 1.601128 0.142257 -0.036272 845027.000000 0 0 1
18.530163 18.243806 -1.231489 26.033055 0.777611 1.618119 0.136958 -0.042045 662128.000000 0 0 1
18.587063 19.610206 -0.535489 27.024541 0.812178 1.590613 0.142565 -0.036960 -175582.000000 0 0 1
17.999963 19.576906 0.730811 26.604285 0.827339 1.543323 0.144396 -0.033341 -116688.000000 0 0 1
17.852563 20.864306 1.395311 27.495093 0.863031 1.520027 0.160062 -0.034302 338843.000000 0 0 1
16.838063 21.965506 0.916311 27.691938 0.916775 1.537701 0.141975 -0.043449 -618377.000000 0 0 1
15.543163 21.793106 1.358811 26.802532 0.951256 1.520077 0.116483 -0.040560 -907801.000000 0 0 1
14.735163 22.830806 0.808311 27.184997 0.997657 1.541058 0.099584 -0.037534 -348919.000000 0 0 1
13.285663 22.766906 1.278011 26.390796 1.042559 1.522351 0.085044 -0.038894 -353541.000000 0 0 1
13.193363 23.050506 2.642011 26.690276 1.050943 1.471646 0.072201 -0.018626 -741877.000000 0 0 1
11.842863 23.067406 2.968611 26.099258 1.096484 1.456807 0.051762 -0.024372 -481733.000000 0 0 1
11.571363 23.400406 4.475811 26.486002 1.111563 1.400994 0.076516 -0.031633 -55875.000000 0 0 1
12.020563 22.396806 5.356911 25.977054 1.078215 1.363089 0.081788 -0.045805 100333.000000 0 0 1
11.463163 22.607606 6.629611 26.200375 1.101525 1.314980 0.066674 -0.028239 -782781.000000 0 0 1
11.890863 21.570506 7.681911 25.800990 1.066990 1.268475 0.071684 -0.030891 -45224.800000 0 0 1
13.145463 21.663406 8.317911 26.670095 1.025388 1.253624 0.083675 -0.034164 -388676.000000 0 0 1
14.214263 21.350006 7.489711 26.720101 0.983412 1.286687 0.090136 -0.032917 -1196590.000000 0 0 1
15.593163 21.357206 8.145811 27.670041 0.940145 1.271978 0.094590 -0.035507 -433342.000000 0 0 1
15.818863 20.289506 9.055811 27.274680 0.908583 1.232349 0.100205 -0.036149 1009030.000000 0 0 1
17.210163 20.178806 9.445711 28.153070 0.864631 1.228647 0.099404 -0.043090 1182530.000000 0 0 1
17.537963 20.987406 10.730711 29.380257 0.874697 1.196911 0.079097 -0.042376 -588801.000000 0 0 1
16.713363 20.609506 11.807511 29.043167 0.889412 1.152121 0.085155 -0.050837 -224032.000000 0 0 1
16.985363 21.233606 13.046011 30.159028 0.896099 1.123451 0.091216 -0.047943 -135791.000000 0 0 1
18.066863 20.698806 14.054611 30.860722 0.853188 1.097952 0.111387 -0.032546 1292000.000000 0 0 1
19.407663 21.044606 13.648411 31.714538 0.825842 1.125914 0.116832 -0.035008 350458.000000 0 0 1
20.327963 20.409306 14.497011 32.247933 0.787395 1.104536 0.113622 -0.039285 202914.000000 0 0 1
21.754163 21.021006 14.406811 33.506454 0.768260 1.126335 0.134713 -0.046004 433687.000000 0 0 1
22.484763 20.610806 13.247911 33.254729 0.741942 1.161050 0.147006 -0.052511 -540602.000000 0 0 1
23.757163 21.158706 13.213611 34.448412 0.727611 1.177130 0.175472 -0.051515 -1053580.000000 0 0 1
24.647963 20.503406 12.189011 34.299908 0.693862 1.207491 0.174189 -0.051476 -638651.000000 0 0 1
24.351563 20.692606 10.839111 33.744168 0.704346 1.243785 0.184115 -0.046298 611335.000000 0 0 1
25.410963 20.161706 10.027311 33.952295 0.670719 1.270990 0.183243 -0.062234 291163.000000 0 0 1
25.423363 20.890906 8.668211 34.028153 0.687846 1.313221 0.158701 -0.051648 68181.300000 0 0 1
25.893163 22.209306 8.623011 35.186154 0.708964 1.323206 0.131760 -0.037805 -54020.000000 0 0 1
27.277763 22.442406 8.707311 36.380698 0.688452 1.329112 0.117057 -0.049123 -427796.000000 0 0 1
27.573763 23.781106 9.415811 37.609984 0.711680 1.317750 0.144677 -0.051032 774402.000000 0 0 1
28.821163 24.423406 9.037511 38.843774 0.702990 1.335981 0.138951 -0.038407 1162040.000000 0 0 1
29.090863 25.559406 9.810111 39.947463 0.720869 1.322683 0.142437 -0.041393 -936.333000 0 0 1
30.381863 26.291206 9.392911 41.261506 0.713343 1.341139 0.137556 -0.045627 118720.000000 0 0 1
30.201063 27.022406 8.211611 41.349065 0.729907 1.370875 0.127193 -0.046723 -247676.000000 0 0 1
31.462013 27.349706 7.714711 42.395535 0.715589 1.387807 0.148088 -0.038297 -372627.000000 0 0 1
31.438383 28.156706 6.408711 42.687745 0.730387 1.420097 0.174468 -0.027467 -1099.510000 0 0 1
31.226863 29.526606 6.592211 43.478669 0.757419 1.418590 0.167457 -0.028037 66916.400000 0 0 1
31.216363 30.135306 5.311711 43.712838 0.767779 1.448982 0.169842 -0.023444 -20182.100000 0 0 1
31.207063 31.705806 5.334611 44.806215 0.793326 1.451454 0.124160 -0.017113 782513.000000 0 0 1
30.057063 32.309806 5.972011 44.531062 0.821503 1.436282 0.121693 -0.032539 647817.000000 0 0 1
30.252163 33.724906 6.186911 45.725709 0.839626 1.435075 0.097133 -0.019603 -143527.000000 0 0 1
29.018163 -32.963623 6.704711 44.425301 -0.848968 1.419296 0.101839 -0.030632 200183.000000 0 0 1
27.949363 -33.074623 5.783311 43.686889 -0.869189 1.438026 0.083129 -0.024170 -965584.000000 0 0 1
26.820063 -32.399023 6.205411 42.514934 -0.879330 1.424315 0.073221 -0.029628 -694955.000000 0 0 1
25.685763 -32.576723 5.185611 41.807797 -0.903126 1.446442 0.061871 -0.018171 -320792.000000 0 0 1
25.966263 -31.876323 4.011211 41.309038 -0.887220 1.473541 0.051584 0.002921 324362.000000 0 0 1
24.898763 -31.968423 3.059911 40.636087 -0.909082 1.495425 0.052351 -0.009079 264078.000000 0 0 1
25.286663 -31.364123 1.728811 40.325083 -0.892269 1.527911 0.059814 0.005399 -1006.480000 0 0 1
25.418763 -29.981623 1.845411 39.349927 -0.867574 1.523882 0.077356 0.006254 14657.900000 0 0 1
25.848763 -29.343723 0.639211 39.110372 -0.848637 1.554452 0.067389 0.008203 -195588.000000 0 0 1
26.045063 -27.792123 0.765611 38.096372 -0.817838 1.550698 0.096069 -0.005429 -207864.000000 0 0 1
24.866363 -27.047523 0.866811 36.751270 -0.827388 1.547208 0.083729 -0.000010 -661675.000000 0 0 1
24.270163 -26.846023 -0.384889 36.192512 -0.835748 1.581431 0.080020 -0.000631 43724.300000 0 0 1
23.083563 -25.845123 -0.380589 34.654958 -0.841779 1.581779 0.072880 0.004987 176673.000000 0 0 1
23.498963 -24.514823 -0.111789 33.958656 -0.806553 1.574088 0.105907 -0.012331 -92791.000000 0 0 1
23.673663 -24.149323 1.263611 33.841230 -0.795344 1.533448 0.089731 -0.002544 631230.000000 0 0 1
22.327863 -23.759523 1.978311 32.664386 -0.816452 1.510194 0.076064 -0.010144 726533.000000 0 0 1
22.476963 -23.147823 3.262411 32.429599 -0.800101 1.470026 0.074493 -0.012252 -1165300.000000 0 0 1
21.240263 -23.005823 3.826111 31.544505 -0.825280 1.449204 0.064827 -0.014782 -1106760.000000 0 0 1
21.286263 -22.159323 5.149111 31.155320 -0.805491 1.404762 0.047281 -0.012378 -330823.000000 0 0 1
21.415263 -20.736823 4.940611 30.216534 -0.769305 1.406552 0.089074 -0.014350 -80138.500000 0 0 1
20.254963 -20.093923 4.482011 28.881096 -0.781407 1.414978 0.054688 -0.003671 -757123.000000 0 0 1
20.230963 -18.602523 4.900311 27.916998 -0.743489 1.394351 0.064287 -0.000875 221807.000000 0 0 1
19.861363 -18.425023 6.275311 27.808897 -0.747900 1.343178 0.080434 -0.006834 343621.000000 0 0 1
18.492163 -18.636823 6.605211 27.072497 -0.789294 1.324326 0.046414 0.002305 203122.000000 0 0 1
20.043191 -25.734814 -11.632689 34.631339 -0.909094 1.913358 0.102139 -0.038434 -323276.000000 0 0 1
20.115291 -24.534994 -12.345389 34.044082 -0.884062 1.941884 0.114685 -0.038769 -825471.000000 0 0 1
19.042191 -24.088994 -13.107189 33.386870 -0.901879 1.974237 0.089400 -0.039846 -417218.000000 0 0 1
19.313891 -22.690294 -13.636389 32.769299 -0.865608 1.999985 0.079780 -0.045853 32706.900000 0 0 1
19.220491 -21.636194 -12.673989 31.594021 -0.844456 1.983570 0.085032 -0.046714 -708955.000000 0 0 1
20.278691 -21.407594 -11.791789 31.757782 -0.812472 1.951209 0.080766 -0.044965 -1161580.000000 0 0 1
20.357191 -22.034294 -10.333189 31.728538 -0.824940 1.902522 0.076720 -0.034458 704143.000000 0 0 1
19.324791 -21.686694 -9.371589 30.521909 -0.842926 1.882882 0.083867 -0.041336 1084770.000000 0 0 1
17.975391 -22.022894 -9.703889 30.038109 -0.886247 1.899750 0.086030 -0.026448 123610.000000 0 0 1
16.985191 -21.292094 -8.804689 28.624684 -0.897445 1.883456 0.077547 -0.026306 -1214300.000000 0 0 1
17.075091 -19.874794 -8.917589 27.678323 -0.861024 1.898835 0.073719 -0.030976 968207.000000 0 0 1
16.158391 -19.214594 -7.964589 26.338734 -0.871583 1.877996 0.088018 -0.032814 723050.000000 0 0 1
14.666291 -19.264594 -8.308289 25.597897 -0.920097 1.901353 0.081925 -0.022062 -653532.000000 0 0 1
14.068491 -20.527994 -8.349489 26.249475 -0.969983 1.894502 0.073649 -0.023332 -19599.300000 0 0 1
12.648091 -20.430794 -8.370389 25.445137 -1.016473 1.905997 0.075313 -0.029446 446834.000000 0 0 1
11.876791 -21.705794 -8.032989 26.014007 -1.070127 1.884722 0.083785 -0.029681 -148025.000000 0 0 1
12.028291 -22.196594 -6.712689 26.123338 -1.074195 1.830673 0.080227 -0.027686 -47896.700000 0 0 1
11.270091 -23.356294 -6.443089 26.721617 -1.121223 1.814315 0.059997 -0.024529 83155.700000 0 0 1
11.809091 -24.197594 -5.246889 27.431880 -1.116773 1.763252 0.071034 -0.016098 586995.000000 0 0 1
10.749991 -24.831294 -4.513089 27.432161 -1.162236 1.736066 0.072912 -0.017535 399824.000000 0 0 1
11.296691 -25.761254 -3.593789 28.357940 -1.157534 1.697868 0.062443 -0.017748 -2054.410000 0 0 1
10.228291 -26.615014 -2.918989 28.661776 -1.203893 1.672816 0.059537 -0.020626 -182999.000000 0 0 1
9.540191 -26.018034 -1.863489 27.774556 -1.219343 1.637940 0.048593 -0.011933 -521417.000000 0 0 1
8.941191 -27.041184 -1.096389 28.502151 -1.251462 1.609273 0.045331 -0.013816 24037.900000 0 0 1
8.409591 -26.405004 0.232811 27.712807 -1.262468 1.562395 0.058165 -0.017159 156746.000000 0 0 1
7.104291 -25.891814 0.068111 26.848867 -1.303003 1.568259 0.052164 -0.025477 -352836.000000 0 0 1
6.634091 -25.376744 1.309711 26.262248 -1.315095 1.520905 0.051682 -0.021562 -274448.000000 0 0 1
5.247391 -24.729394 1.282311 25.312495 -1.361705 1.520115 0.073339 -0.031552 543759.000000 0 0 1
4.177491 -25.641874 1.006311 25.999420 -1.409298 1.532082 0.085055 -0.036994 -152654.000000 0 0 1
2.925491 -25.015634 0.904011 25.202335 -1.454379 1.534918 0.098528 -0.044871 82594.400000 0 0 1
1.789991 -25.998274 0.476211 26.064173 -1.502054 1.552525 0.109478 -0.045061 119129.000000 0 0 1
1.435191 -26.873824 1.523011 26.955181 -1.517442 1.514265 0.108588 -0.045199 -203113.000000 0 0 1
1.971691 -28.183654 1.390611 28.286741 -1.500951 1.521615 0.086928 -0.046777 -323338.000000 0 0 1
1.241091 -29.268654 2.143711 29.373286 -1.528418 1.497750 0.126311 -0.046589 -341012.000000 0 0 1
1.574491 -29.109334 3.473011 29.358034 -1.516760 1.452220 0.102235 -0.038132 -47768.700000 0 0 1
1.262891 -30.233714 4.267011 30.559446 -1.529050 1.430709 0.135616 -0.044575 23344.600000 0 0 1
1.557191 -29.986834 5.780511 30.578577 -1.518914 1.380614 0.149321 -0.053487 1878860.000000 0 0 1
2.989591 -30.122174 6.118911 30.882424 -1.471871 1.371341 0.062956 -0.029719 1794460.000000 0 0 1
3.062291 -29.924804 7.522111 31.007317 -1.468818 1.325760 0.085346 -0.031276 -486525.000000 0 0 1
4.433591 -30.342484 7.990611 31.688688 -1.425705 1.315885 0.082678 -0.036096 -554132.000000 0 0 1
4.769891 -31.674664 7.632811 32.928651 -1.421329 1.336870 0.103441 -0.031486 -1106140.000000 0 0 1
6.085391 -31.971264 7.921011 33.495315 -1.382707 1.332054 0.070812 -0.025685 -760563.000000 0 0 1
6.265191 -33.545344 7.867911 35.020662 -1.386156 1.344197 0.071495 -0.018274 -259655.000000 0 0 1
5.992091 33.441529 6.577211 34.604923 1.393497 1.379567 0.058020 -0.007971 -91886.100000 0 0 1
5.718391 32.020018 6.533511 33.176321 1.394071 1.372568 0.054686 -0.007443 -172165.000000 0 0 1
5.928291 31.419385 5.122311 32.381483 1.384306 1.411943 0.055803 -0.015307 502332.000000 0 0 1
7.313491 31.371965 4.811311 32.570478 1.341765 1.422534 0.062345 -0.018066 96079.600000 0 0 1
7.844291 30.076285 4.624811 31.424587 1.315667 1.423088 0.065010 -0.019679 759257.000000 0 0 1
9.247391 30.190165 3.890311 31.813437 1.273565 1.448204 0.054871 -0.021497 335193.000000 0 0 1
10.265591 30.543635 4.770911 32.573879 1.246562 1.423803 0.059399 -0.021834 -440522.000000 0 0 1
11.438391 30.721355 3.990011 33.023607 1.214371 1.449677 0.044985 -0.023318 416842.000000 0 0 1
12.726391 31.199985 4.711711 34.023525 1.183500 1.431866 0.068472 -0.037342 284517.000000 0 0 1
13.309691 30.226555 5.562211 33.492248 1.156012 1.403949 0.075698 -0.034857 -514836.000000 0 0 1
14.492991 30.767345 6.070111 34.547395 1.130575 1.394176 0.094632 -0.032241 123296.000000 0 0 1
15.373591 29.769445 6.910811 34.210034 1.094098 1.367385 0.077723 -0.024374 307789.000000 0 0 1
14.787891 29.625915 8.188011 34.108944 1.107826 1.328374 0.087243 -0.021371 113441.000000 0 0 1
15.508891 28.699055 8.962511 33.830283 1.075356 1.302669 0.073915 -0.022683 242407.000000 0 0 1
15.188791 28.760405 10.489911 34.174530 1.084911 1.258808 0.051005 -0.001447 179408.000000 0 0 1
15.899091 29.844735 11.037011 35.571124 1.081311 1.255309 0.028377 -0.012598 65666.000000 0 0 1
15.499891 30.038345 12.387111 35.999851 1.094428 1.219529 0.030768 -0.009131 -60924.700000 0 0 1
16.335291 31.101375 13.091511 37.490331 1.087171 1.214082 0.017414 -0.003936 -258066.000000 0 0 1
17.542891 30.677855 13.653311 37.885310 1.051338 1.202115 0.008302 -0.005256 -665067.000000 0 0 1
18.083891 31.707392 14.413511 39.244555 1.052474 1.194720 0.023102 0.000045 99535.600000 0 0 1
19.286991 31.243485 15.278211 39.768921 1.017744 1.176483 0.035872 -0.003441 95187.600000 0 0 1
20.342691 30.547715 14.677911 39.527573 0.983303 1.190352 0.026542 -0.005958 -172329.000000 0 0 1
20.379991 29.197495 14.778611 38.551849 0.961411 1.177382 0.018594 -0.005240 -629202.000000 0 0 1
21.632891 28.547725 14.188211 38.526094 0.922335 1.193643 0.045336 -0.021727 -311024.000000 0 0 1
22.781691 28.915405 14.913711 39.718067 0.903493 1.185872 0.080077 -0.026297 -248919.000000 0 0 1
23.948491 28.680555 14.141711 39.951125 0.875071 1.208978 0.094597 -0.033508 5161.840000 0 0 1
25.270291 28.906685 14.875711 41.176095 0.852418 1.201166 0.148104 -0.047764 -150921.000000 0 0 1
25.804991 27.764185 15.625311 40.998754 0.821955 1.179792 0.148262 -0.032840 23036.100000 0 0 1
26.756491 28.172345 16.568711 42.238762 0.811169 1.167706 0.126148 -0.038256 -500806.000000 0 0 1
27.666891 27.059315 17.055411 42.291257 0.774297 1.155693 0.090600 -0.020316 -599666.000000 0 0 1
26.996791 25.968745 17.654111 41.410990 0.765991 1.130382 0.100576 -0.019458 119841.000000 0 0 1
27.127991 26.113555 19.072411 42.209033 0.766347 1.101951 0.131149 -0.017424 -34556.900000 0 0 1
26.564791 24.874905 19.764311 41.413488 0.752558 1.073281 0.124710 -0.017067 685005.000000 0 0 1
27.420291 23.708665 19.674611 41.243951 0.712932 1.073524 0.098670 -0.020072 1116640.000000 0 0 1
26.576191 22.614735 20.053011 40.247278 0.705039 1.049223 0.091894 -0.011932 884667.000000 0 0 1
27.366191 21.252335 19.841111 39.927933 0.660303 1.050747 0.065121 -0.012297 596771.000000 0 0 1
26.698391 19.986135 20.053311 38.915099 0.642598 1.029428 0.049859 0.006868 263111.000000 0 0 1
27.632191 18.917735 20.060911 39.036634 0.600334 1.031072 0.063589 -0.004387 507525.000000 0 0 1
28.358791 18.629535 21.391111 40.110600 0.581226 1.008296 0.108307 0.004488 101822.000000 0 0 1
27.435891 18.084635 22.288611 39.705973 0.582787 0.974790 0.071373 0.017556 366284.000000 0 0 1
28.133491 17.742935 23.498311 40.724387 0.562666 0.955735 0.122493 0.013807 603366.000000 0 0 1
27.211591 17.028235 24.534711 40.402766 0.559154 0.918197 0.095644 0.015289 468290.000000 0 0 1
26.792491 15.718735 24.112511 39.323395 0.530571 0.910710 0.100596 0.004405 -94359.200000 0 0 1
25.700291 15.171935 24.780411 38.791253 0.533287 0.877840 0.105914 0.002026 -388984.000000 0 0 1
25.233891 13.873935 24.075411 37.534794 0.502700 0.874454 0.117875 -0.003174 520097.000000 0 0 1
23.925291 13.477335 24.487411 36.792545 0.513004 0.842561 0.093563 -0.001783 545503.000000 0 0 1
23.449491 12.348135 23.770811 35.600653 0.484688 0.839672 0.103770 -0.006079 462703.000000 0 0 1
22.148891 11.770635 24.423411 35.008916 0.488476 0.798707 0.109850 -0.011843 71717.500000 0 0 1
21.029991 12.598235 24.273311 34.498836 0.539728 0.790348 0.105133 -0.010726 -498508.000000 0 0 1
19.898491 11.751835 24.419511 33.620947 0.533471 0.757846 0.109112 -0.013739 657642.000000 0 0 1
18.573191 12.580935 24.623911 33.310364 0.595376 0.738875 0.086969 -0.015376 507604.000000 0 0 1
18.503091 13.284135 25.862411 34.462979 0.622666 0.722068 0.104279 -0.019009 168637.000000 0 0 1
17.343191 14.101735 25.934611 34.238126 0.682677 0.711356 0.117341 -0.018122 193925.000000 0 0 1
16.888491 14.372735 27.391311 35.243163 0.705096 0.680578 0.104110 -0.011765 -253660.000000 0 0 1
16.241191 13.322935 28.056311 35.049015 0.687008 0.642688 0.111148 -0.018621 -86443.500000 0 0 1
16.327791 13.402035 29.445111 36.238458 0.687303 0.622304 0.102488 -0.020215 1236830.000000 0 0 1
17.773491 13.129235 30.068511 37.314731 0.636228 0.633758 0.110527 -0.022665 1464390.000000 0 0 1
18.681391 14.201335 29.881111 37.994119 0.649988 0.665729 0.132047 -0.031498 565602.000000 0 0 1
20.054391 13.829235 30.033711 38.671050 0.603703 0.681473 0.117152 -0.027474 541146.000000 0 0 1
21.017491 14.972435 29.612611 39.278690 0.618986 0.716802 0.128544 -0.026235 -195250.000000 0 0 1
21.101691 15.498935 28.301911 38.555110 0.633499 0.746509 0.132367 -0.031825 173449.000000 0 0 1
21.306991 14.589935 27.189311 37.498169 0.600417 0.759640 0.118979 -0.009343 -208426.000000 0 0 1
21.099491 15.374335 25.876511 36.758026 0.629702 0.789826 0.090691 -0.005146 50769.800000 0 0 1
22.164991 16.260835 25.583711 37.553000 0.632940 0.821301 0.083860 -0.001199 333327.000000 0 0 1
21.890591 16.810335 24.310211 36.780045 0.654875 0.848696 0.062177 0.005242 -138021.000000 0 0 1
23.135191 17.508135 23.739111 37.487561 0.647823 0.885047 0.063791 0.004390 -501637.000000 0 0 1
22.965491 18.255835 22.551511 37.003512 0.671639 0.915439 0.071152 -0.007428 -232745.000000 0 0 1
24.148491 18.842035 22.042111 37.736276 0.662586 0.947014 0.081989 -0.005750 -221643.000000 0 0 1
24.453891 20.224435 22.762311 39.053084 0.691015 0.948558 0.089455 -0.016007 -608667.000000 0 0 1
23.621591 21.278435 22.453411 38.921806 0.733259 0.955886 0.089489 -0.013922 -456955.000000 0 0 1
23.830191 22.454635 23.148111 40.098923 0.755688 0.955409 0.114029 -0.020956 144927.000000 0 0 1
22.854391 23.531745 22.608911 39.840043 0.800000 0.967340 0.112018 -0.029714 -47345.900000 0 0 1
23.308191 24.164225 21.468511 39.850702 0.803428 1.001875 0.117305 -0.026711 173899.000000 0 0 1
22.333891 25.050545 20.910711 39.542260 0.842668 1.013587 0.123554 -0.033674 159340.000000 0 0 1
22.767591 25.910995 19.674011 39.709061 0.849883 1.052439 0.126026 -0.034918 -126911.000000 0 0 1
22.858991 25.227385 18.389711 38.692840 0.834611 1.075521 0.129370 -0.035281 87877.700000 0 0 1
23.056891 26.217455 17.361311 38.992182 0.849453 1.109342 0.119694 -0.039876 30162.400000 0 0 1
22.801091 25.435015 16.038611 37.736809 0.839949 1.131821 0.085225 -0.022530 -400086.000000 0 0 1
21.438291 25.241285 15.797311 36.691659 0.866689 1.125703 0.067637 -0.015468 -628974.000000 0 0 1
21.183891 24.758735 14.501611 35.665795 0.863053 1.152070 0.083020 -0.014194 -32625.500000 0 0 1
19.675091 24.770495 14.217511 34.681756 0.899543 1.148406 0.057507 -0.018598 -627423.000000 0 0 1
19.078591 26.007645 13.935211 35.136595 0.937890 1.162985 0.033384 -0.014536 -363959.000000 0 0 1
18.020591 26.353335 14.784011 35.182480 0.971021 1.137120 0.045586 -0.002649 491832.000000 0 0 1
16.600591 25.861845 14.303711 33.897061 1.000140 1.135174 0.039263 -0.010271 -144609.000000 0 0 1
16.380491 24.466185 14.204811 32.690845 0.980824 1.121292 0.044079 -0.014865 -169235.000000 0 0 1
16.284391 23.739655 15.425811 32.660500 0.969557 1.078889 0.061204 -0.018071 284599.000000 0 0 1
15.144891 24.110285 16.465711 32.890625 1.009935 1.046481 0.107670 -0.026927 545717.000000 0 0 1
15.444291 25.374665 17.045811 34.248495 1.024041 1.049840 0.087887 -0.029376 -951220.000000 0 0 1
14.466091 25.769245 17.876211 34.538105 1.059265 1.026777 0.092048 -0.033010 -1012040.000000 0 0 1
14.905791 26.985225 18.664311 36.038056 1.066136 1.026396 0.093557 -0.041155 -254985.000000 0 0 1
15.036991 28.142075 17.858911 36.565396 1.080068 1.060529 0.075005 -0.029829 168648.000000 0 0 1
15.812891 29.148505 18.480811 37.963446 1.073734 1.062367 0.044443 -0.019879 -370515.000000 0 0 1
15.866391 30.456605 17.612511 38.594659 1.090529 1.096912 0.021514 -0.020273 918764.000000 0 0 1
14.543891 30.960165 17.310211 38.336666 1.131631 1.102315 0.053416 -0.022210 835944.000000 0 0 1
14.609291 32.244686 16.788811 39.179271 1.145387 1.127950 0.043928 -0.010836 635057.000000 0 0 1
13.199091 32.922293 16.691711 39.200849 1.189500 1.130951 0.069230 -0.020131 699626.000000 0 0 1
13.344991 -33.241844 15.978211 39.222598 -1.189039 1.151221 0.086748 -0.027123 14714.500000 0 0 1
13.744191 -32.024174 16.650511 38.622403 -1.165389 1.125074 0.070603 -0.019592 72583.500000 0 0 1
13.338091 -31.772564 18.177611 38.959287 -1.173339 1.085377 0.072948 -0.025198 -202320.000000 0 0 1
14.041991 -32.591334 19.064011 40.284105 -1.163981 1.077832 0.073870 -0.024840 -26816.800000 0 0 1
13.772791 -32.373744 20.482511 40.709733 -1.168561 1.043573 0.083560 -0.028667 -76021.700000 0 0 1
14.870491 -32.851254 21.479311 41.972577 -1.145731 1.033580 0.101157 -0.025133 -243788.000000 0 0 1
16.104791 -32.251094 21.241811 41.841510 -1.107664 1.038314 0.105873 -0.024923 -690463.000000 0 0 1
17.080491 -32.699064 22.159011 43.034797 -1.089426 1.029895 0.102497 -0.023113 594689.000000 0 0 1
18.524191 -32.236574 21.748311 43.073558 -1.049238 1.041518 0.129404 -0.023929 776620.000000 0 0 1
18.601791 -30.840154 22.028811 42.218601 -1.028051 1.021860 0.139081 -0.025891 -378315.000000 0 0 1
19.812491 -30.321444 21.571511 42.157501 -0.992024 1.033647 0.124896 -0.022335 -275598.000000 0 0 1
-4.937209 13.071206 18.698811 23.342621 -1.209646 0.641734 0.014708 0.001476 -595708.000000 0 1 0
-4.620109 14.245706 17.943511 23.372101 -1.257183 0.695502 0.020494 -0.009617 -347896.000000 0 1 0
-5.806109 14.922106 17.684911 23.856576 -1.199726 0.735789 0.018563 -0.017029 -492824.000000 0 1 0
-5.624309 16.384906 17.228811 24.432149 -1.240137 0.788134 0.050011 -0.030286 -165260.000000 0 1 0
-5.318509 17.095606 18.430811 25.695156 -1.269184 0.770895 0.054942 -0.020758 191834.000000 0 0 1
-5.000409 18.466606 18.252311 26.441756 -1.306357 0.808915 0.075567 -0.023564 -408744.000000 0 0 1
-4.423509 19.119006 19.506111 27.669336 -1.343430 0.788412 0.081644 -0.028364 -195787.000000 0 0 1
-5.317209 19.178506 20.609511 28.650301 -1.300341 0.767934 0.057422 -0.020605 -250473.000000 0 0 1
-4.730609 19.724506 21.745811 29.737436 -1.335408 0.750628 0.062444 -0.020599 -682334.000000 0 0 1
-5.606009 20.161306 22.911871 31.029976 -1.299589 0.740133 0.034831 -0.010812 -354789.000000 0 0 1
-6.128709 19.061406 23.633591 30.974907 -1.259711 0.702868 0.029755 -0.012055 -203573.000000 0 0 1
-6.799609 19.367206 24.847591 32.229274 -1.233152 0.690444 0.014832 -0.010372 136709.000000 0 0 1
-6.029009 20.126706 25.965481 33.401189 -1.279750 0.680303 0.016608 -0.003606 -870734.000000 0 0 1
-5.732509 21.448706 25.595311 33.882570 -1.309635 0.714513 0.024165 -0.008079 528287.000000 0 0 1
-4.557809 22.007906 26.206751 34.524127 -1.366584 0.708890 0.039216 -0.005015 1336390.000000 0 0 1
-3.170309 21.426906 25.777821 33.669856 -1.423903 0.698815 0.063099 -0.002371 -324880.000000 0 0 1
-2.817709 20.193506 26.308281 33.284272 -1.432156 0.659315 0.071013 -0.001056 -1698720.000000 0 0 1
-1.508709 19.963006 26.036051 32.843169 -1.495364 0.655507 0.084158 -0.005613 -1371220.000000 0 0 1
-0.987109 18.593206 26.567371 32.442362 -1.517756 0.611287 0.093838 -0.003483 -168180.000000 0 0 1
-1.323209 17.464406 25.817811 31.198008 -1.495175 0.596073 0.086226 -0.008340 -374296.000000 0 0 1
-0.753009 16.232106 26.229631 30.855175 -1.524439 0.554643 0.087064 -0.007248 606477.000000 0 0 1
0.764791 15.931406 25.943371 30.454114 1.522828 0.551224 0.106870 -0.008843 865851.000000 0 0 1
1.177891 15.789106 24.602641 29.257020 1.496333 0.571826 0.099686 -0.016740 -128717.000000 0 0 1
0.856291 14.495006 24.101481 28.137516 1.511790 0.542229 0.095460 -0.013027 -222808.000000 0 0 1
1.135991 14.421906 22.596691 26.830808 1.492190 0.569461 0.107079 -0.031891 -66029.400000 0 0 1
2.499891 14.452606 22.245551 26.645671 1.399519 0.582908 0.094381 -0.030948 -347380.000000 0 0 1
2.726391 13.745706 21.041711 25.281045 1.374993 0.587531 0.077035 -0.030634 313220.000000 0 0 1
4.187691 13.654806 20.543711 25.020682 1.273220 0.607515 0.070508 -0.031673 503877.000000 0 0 1
4.766791 14.778906 19.857711 25.208471 1.258791 0.663665 0.069171 -0.032283 -768366.000000 0 0 1
6.148091 14.754606 19.808011 25.452990 1.175986 0.678971 0.079747 -0.034018 -842873.000000 0 0 1
6.678491 15.927306 18.941211 25.633002 1.173754 0.739303 0.087900 -0.031735 -90922.500000 0 0 1
6.410191 15.578306 17.589511 24.354980 1.180431 0.763798 0.076792 -0.037805 183255.000000 0 1 0
6.747991 16.591506 16.639611 24.447701 1.184516 0.822187 0.075149 -0.034844 -223119.000000 0 1 0
6.872891 16.005606 15.210711 23.125349 1.165200 0.852968 0.074320 -0.034931 260507.000000 0 1 0
8.023691 15.214206 14.916511 22.767388 1.085484 0.856389 0.062402 -0.024140 444394.000000 0 1 0
8.158391 14.025906 15.663211 22.552639 1.043967 0.803047 0.062102 -0.020737 -868141.000000 0 1 0
9.189491 13.119206 15.016011 21.955429 0.959761 0.817658 0.059880 -0.026659 -788011.000000 0 1 0
10.441191 13.722206 14.961311 22.828890 0.920357 0.856127 0.059725 -0.035386 -695874.000000 0 1 0
11.421391 12.876606 14.410911 22.448374 0.845217 0.873747 0.068805 -0.023068 -645396.000000 0 1 0
12.767291 13.550306 14.289411 23.469166 0.815142 0.916175 0.072609 -0.017797 -1075650.000000 0 1 0
13.564891 13.635506 15.457211 24.675061 0.787994 0.893831 0.081468 -0.025067 1217430.000000 0 1 0
14.937991 14.056006 15.432511 25.668605 0.754988 0.925768 0.083979 -0.026821 1282890.000000 0 0 1
15.908091 13.254106 14.525411 25.292810 0.694640 0.959060 0.085108 -0.030501 -43736.600000 0 0 1
17.289691 13.639806 14.593111 26.418490 0.667935 0.985577 0.110600 -0.044256 700562.000000 0 0 1
18.024691 12.643106 13.978711 26.079531 0.611687 1.005101 0.124364 -0.050279 -640112.000000 0 0 1
19.400591 13.085606 13.447411 26.989792 0.593403 1.049228 0.127363 -0.057897 -38013.600000 0 0 1
20.328991 13.078106 14.513211 28.194645 0.571667 1.030080 0.109454 -0.045132 337038.000000 0 0 1
21.662191 13.384106 14.105211 29.109136 0.553445 1.064933 0.149655 -0.057731 1250180.000000 0 0 1
22.698291 13.507006 15.299511 30.524198 0.536784 1.045782 0.164764 -0.040195 534273.000000 0 0 1
22.825091 12.254506 15.967811 30.432362 0.492720 1.018436 0.156640 -0.035451 778360.000000 0 0 1
23.918091 12.229506 16.906911 31.740818 0.472653 1.009062 0.133060 -0.037421 200355.000000 0 0 1
24.509991 10.820306 17.022711 31.742580 0.415734 1.004780 0.154657 -0.026109 -489963.000000 0 0 1
23.721991 9.900006 17.747011 31.236187 0.395360 0.966534 0.121392 -0.014877 329095.000000 0 0 1
23.449791 8.673106 17.015511 30.243066 0.354255 0.973238 0.105262 -0.011888 -190304.000000 0 0 1
22.506091 7.733606 17.759911 29.694229 0.330982 0.929677 0.151174 -0.018558 -152138.000000 0 0 1
22.523291 6.451006 17.108911 29.010842 0.278947 0.940057 0.168105 -0.032029 252745.000000 0 0 1
21.502391 5.692506 17.708911 28.431725 0.258801 0.898406 0.178636 -0.030952 -256591.000000 0 0 1
21.341891 4.249806 17.112311 27.683359 0.196559 0.904417 0.231518 -0.029155 -647351.000000 0 0 1
20.745291 4.258306 15.813911 26.430665 0.202454 0.929398 0.248629 -0.042812 718463.000000 0 0 1
20.474591 3.039406 15.113711 25.629497 0.147371 0.940109 0.207597 -0.044112 -167395.000000 0 0 1
19.451491 2.113806 15.827611 25.166286 0.108246 0.890631 0.222278 -0.045539 -462106.000000 0 0 1
19.928991 1.322806 16.883211 26.152577 0.066279 0.869032 0.226092 -0.055880 238327.000000 0 0 1
18.850491 0.534906 17.319611 25.604610 0.028369 0.827898 0.218764 -0.053482 77330.900000 0 0 1
19.219691 -0.242094 18.624411 26.764226 -0.012595 0.801166 0.196786 -0.045323 -47884.200000 0 0 1
19.989991 -1.405094 18.327411 27.156362 -0.070174 0.829988 0.197348 -0.040995 68558.900000 0 0 1
19.472791 -2.517394 19.053211 27.359673 -0.128564 0.800431 0.127111 -0.014897 86363.700000 0 0 1
19.411491 -3.801794 18.228411 26.898598 -0.193405 0.826205 0.119529 -0.015138 -35382.700000 0 0 1
18.544991 -3.694094 17.108811 25.500479 -0.196623 0.835346 0.153270 -0.035788 343277.000000 0 0 1
18.391791 -4.895294 16.394411 25.119685 -0.260136 0.859717 0.164187 -0.039638 -152699.000000 0 0 1
17.636991 -4.809494 15.051111 23.679751 -0.266221 0.881997 0.135259 -0.040466 170169.000000 0 1 0
16.220491 -4.721994 15.050611 22.625703 -0.283284 0.843035 0.136197 -0.038012 409440.000000 0 1 0
15.612791 -4.406594 13.798811 21.297523 -0.275087 0.865963 0.128885 -0.039108 152067.000000 0 1 0
15.832691 -3.027894 13.205411 20.838069 -0.188962 0.884449 0.124898 -0.033305 -445762.000000 0 1 0
15.003391 -1.966094 13.596311 20.342737 -0.130301 0.838792 0.120143 -0.024401 -42625.600000 0 1 0
15.555391 -0.764094 13.104511 20.353924 -0.049081 0.871300 0.139317 -0.028507 -38862.800000 0 1 0
14.667991 0.502706 13.188711 19.731821 0.034259 0.838743 0.148825 -0.021303 -414843.000000 0 1 0
15.247291 1.720206 12.772611 19.964433 0.112345 0.876600 0.164032 -0.018091 234335.000000 0 1 0
16.062691 2.398606 13.724111 21.262986 0.148232 0.869189 0.187613 -0.027828 175044.000000 0 1 0
16.397891 3.803906 13.135611 21.351927 0.227944 0.908162 0.176726 -0.031180 -569938.000000 0 1 0
15.293091 4.618606 13.160111 20.697794 0.293296 0.881723 0.150874 -0.026746 -91299.200000 0 1 0
15.543091 5.703906 12.290411 20.619806 0.351715 0.932225 0.176989 -0.037684 920342.000000 0 1 0
14.419391 6.782506 12.599111 20.314005 0.439667 0.901776 0.136925 -0.028585 712257.000000 0 1 0
14.580191 7.959106 11.816611 20.385329 0.499678 0.952482 0.111751 -0.037633 66625.300000 0 1 0
13.673091 9.029206 11.993211 20.305592 0.583626 0.938950 0.082823 -0.025429 -363378.000000 0 1 0
13.743391 9.797006 13.341911 21.514384 0.619300 0.901876 0.073627 -0.030029 -81523.100000 0 1 0
13.321291 9.072106 14.489911 21.672965 0.597876 0.838511 0.094317 -0.035248 270352.000000 0 1 0
13.857291 9.681906 15.627711 23.021493 0.609844 0.824626 0.132968 -0.043249 -59889.000000 0 1 0
13.543891 9.039806 17.007211 23.545706 0.588541 0.763665 0.136100 -0.048393 516053.000000 0 1 0
12.203291 9.206706 17.491111 23.229780 0.646340 0.718247 0.095678 -0.049111 584789.000000 0 1 0
11.898191 8.475106 18.662911 23.700182 0.618935 0.664122 0.142626 -0.040594 -321371.000000 0 1 0
12.506891 8.980906 19.967711 25.214846 0.622755 0.656877 0.168268 -0.038712 359052.000000 0 0 1
13.862891 8.524806 20.063711 25.834174 0.551330 0.681491 0.200909 -0.049063 242266.000000 0 0 1
14.519591 9.070006 21.116611 27.184458 0.558365 0.681244 0.185944 -0.030123 -622462.000000 0 0 1
16.020291 8.804606 21.246711 28.028441 0.502529 0.710492 0.181283 -0.036063 77277.200000 0 0 1
16.839591 9.715406 20.517611 28.265408 0.523290 0.758467 0.178685 -0.032045 1014420.000000 0 0 1
17.699991 9.065706 19.503611 27.854399 0.473350 0.795121 0.144686 -0.025263 595342.000000 0 0 1
18.508491 9.995106 18.620911 28.092787 0.495155 0.846196 0.158934 -0.031470 190270.000000 0 0 1
19.516191 10.698606 19.364211 29.501094 0.501453 0.854773 0.146245 -0.028725 544539.000000 0 0 1
20.247191 11.582906 18.506511 29.775886 0.519633 0.900106 0.136542 -0.024678 375778.000000 0 0 1
21.294691 12.421306 19.287211 31.300946 0.528054 0.906905 0.124142 -0.017720 -639748.000000 0 0 1
20.663891 13.314306 20.210811 31.823639 0.572377 0.882674 0.095879 -0.016439 343698.000000 0 0 1
21.520891 14.122706 20.979111 33.207268 0.580744 0.886971 0.085675 -0.005745 41994.300000 0 0 1
22.750291 14.893106 20.407111 33.997507 0.579626 0.926979 0.063958 0.001324 90135.900000 0 0 1
23.843491 14.057706 20.111511 34.214091 0.532724 0.942443 0.049064 0.004189 -346373.000000 0 0 1
25.036891 14.768506 20.308711 35.459814 0.532938 0.960971 0.045268 -0.001266 138917.000000 0 0 1
26.379991 14.002606 20.369811 36.151156 0.487986 0.972226 0.058047 -0.014970 370887.000000 0 0 1
26.941591 13.603506 19.123011 35.729459 0.467581 1.006032 0.098463 -0.032207 77574.800000 0 0 1
27.979891 12.678006 19.319811 36.288582 0.425438 1.009371 0.136085 -0.042366 -46226.400000 0 0 1
28.152791 11.812306 18.061511 35.472925 0.397270 1.036584 0.176141 -0.046484 180563.000000 0 0 1
28.873991 12.483906 17.005711 35.759606 0.408087 1.075200 0.182754 -0.054944 468507.000000 0 0 1
29.177591 11.744206 15.844811 35.218123 0.382666 1.104137 0.214314 -0.063828 966381.000000 0 0 1
27.930191 11.514706 14.854411 33.665079 0.391037 1.113815 0.190163 -0.066939 1032530.000000 0 0 1
27.449491 12.720006 14.322811 33.472616 0.433939 1.128632 0.222911 -0.064812 377985.000000 0 0 1
26.439291 12.473406 13.336211 32.132172 0.440814 1.142807 0.222070 -0.062398 338224.000000 0 0 1
26.156691 13.764506 12.502211 32.092669 0.484413 1.170636 0.211585 -0.064468 -126819.000000 0 0 1
25.293191 14.645806 13.166011 32.056029 0.524866 1.147554 0.193901 -0.061497 87455.400000 0 0 1
25.066791 15.748906 12.343711 32.073965 0.560953 1.175749 0.178253 -0.052895 -329936.000000 0 0 1
23.983291 16.734606 12.807411 31.926087 0.609222 1.158015 0.173306 -0.049580 -602364.000000 0 0 1
22.699091 16.168406 12.750811 30.647174 0.618929 1.141697 0.182518 -0.060673 606411.000000 0 0 1
21.689591 17.135606 13.210011 30.636118 0.668637 1.124984 0.157141 -0.055287 691399.000000 0 0 1
20.877891 17.851306 12.055411 29.998139 0.707409 1.157236 0.179928 -0.053869 807160.000000 0 0 1
19.738991 17.158506 11.480511 28.562987 0.715575 1.157165 0.143864 -0.057293 2361510.000000 0 0 1
18.546391 17.346406 12.355511 28.240486 0.751978 1.117968 0.114387 -0.051670 1291680.000000 0 0 1
17.186291 16.964706 11.724911 26.844801 0.778910 1.118795 0.107058 -0.037268 34206.200000 0 0 1
17.089591 15.569706 11.619511 25.874367 0.738894 1.105067 0.114480 -0.033651 219730.000000 0 0 1
15.847391 15.188506 11.066211 24.582342 0.764172 1.103842 0.110340 -0.029334 34984.600000 0 1 0
15.835491 13.892606 10.244611 23.424759 0.720136 1.118156 0.119974 -0.035679 -138712.000000 0 1 0
16.100791 12.723806 11.039811 23.302535 0.668773 1.077241 0.107957 -0.026200 396525.000000 0 1 0
16.376291 11.626506 10.153711 22.504586 0.617379 1.102705 0.107319 -0.026491 -543315.000000 0 1 0
17.056091 10.563006 10.945011 22.853459 0.554497 1.071371 0.143479 -0.035752 -1183560.000000 0 1 0
17.536491 9.611806 10.042411 22.377787 0.501386 1.105411 0.142433 -0.040499 529410.000000 0 1 0
18.166791 8.418506 10.563211 22.638131 0.433942 1.085341 0.158602 -0.041736 -280457.000000 0 1 0
19.468391 8.525606 11.322311 24.081091 0.412763 1.081308 0.171679 -0.046981 -1119560.000000 0 1 0
19.276791 9.159806 12.552811 24.760246 0.443589 1.039125 0.163646 -0.050091 923781.000000 0 1 0
20.446591 9.154106 13.418611 26.113595 0.420946 1.031123 0.173388 -0.054577 219549.000000 0 0 1
20.039291 9.408006 14.892911 26.681127 0.438933 0.978604 0.135757 -0.032695 325520.000000 0 0 1
19.344591 8.333406 15.555011 26.184293 0.406762 0.934701 0.142183 -0.036532 1671960.000000 0 0 1
18.019191 7.962706 15.093211 24.817352 0.416099 0.917041 0.160328 -0.042578 746917.000000 0 1 0
17.514991 6.689806 15.801811 24.519903 0.364848 0.870495 0.191836 -0.048271 -109212.000000 0 1 0
16.684791 6.862106 16.924711 24.736948 0.390192 0.817307 0.216194 -0.046599 -66468.800000 0 1 0
16.159691 5.610606 17.238411 24.285331 0.334176 0.781542 0.214062 -0.029358 -124087.000000 0 1 0
14.795591 5.695606 18.040911 24.017158 0.367468 0.720967 0.196771 -0.034761 959166.000000 0 1 0
14.195091 4.379706 18.193511 23.488003 0.299270 0.684734 0.203029 -0.035014 829615.000000 0 1 0
13.620391 3.882106 16.945411 22.084672 0.277659 0.696187 0.182972 -0.034670 -567010.000000 0 1 0
13.191691 2.394206 16.972611 21.629204 0.179539 0.668571 0.167395 -0.033834 684365.000000 0 1 0
14.346691 1.530706 17.100311 22.373896 0.106292 0.700845 0.191244 -0.031944 839925.000000 0 1 0
14.178091 0.154406 16.712011 21.916510 0.010890 0.703581 0.179257 -0.027957 -23725.600000 0 1 0
13.365991 -0.636494 17.797211 22.266467 -0.047584 0.644695 0.165918 -0.032874 1476060.000000 0 1 0
11.942491 -0.729294 17.539611 21.231884 -0.060991 0.598649 0.152413 -0.019739 775442.000000 0 1 0
11.308391 -1.512994 18.493411 21.729590 -0.133004 0.552776 0.147926 -0.026435 59809.200000 0 1 0
-27.241069 14.344106 28.308121 41.823186 -0.484671 0.827318 0.057668 -0.004528 233959.000000 0 0 1
-26.111589 14.130606 29.169041 41.621173 -0.496033 0.794247 0.060606 -0.003672 858112.000000 0 0 1
-25.610759 12.814506 29.270121 40.949512 -0.463933 0.774479 0.070611 -0.000381 487238.000000 0 0 1
-24.311309 12.767606 30.143671 40.776125 -0.483581 0.738843 0.066822 -0.008498 510242.000000 0 0 1
-24.665309 12.988506 31.503995 42.066381 -0.484693 0.724378 0.068707 -0.015356 493767.000000 0 0 1
-23.520609 12.796306 32.348862 41.993015 -0.498261 0.691424 0.070889 -0.013426 225587.000000 0 0 1
-23.693309 13.011206 -33.451159 43.007492 -0.502191 2.461952 0.073801 -0.008387 -368123.000000 0 0 1
-24.554909 12.112506 -32.833799 42.751780 -0.458259 2.446525 0.060952 -0.009347 -58554.500000 0 0 1
-24.674209 12.452106 -31.469379 41.883091 -0.467369 2.420921 0.040034 -0.008165 76437.900000 0 0 1
-25.422679 11.358106 -30.658159 41.415479 -0.420165 2.404251 0.041942 -0.012197 52969.700000 0 0 1
-24.591509 10.335906 -30.141579 40.250317 -0.397886 2.417126 0.055891 -0.020975 350115.000000 0 0 1
-24.204509 9.239706 -31.043569 40.434312 -0.364662 2.446123 0.050655 -0.027025 243046.000000 0 0 1
-23.507109 8.137906 -30.145149 39.083752 -0.333276 2.451671 0.066475 -0.019411 -59561.200000 0 0 1
-24.342109 7.500906 -29.219519 38.763154 -0.298913 2.424617 0.061623 -0.015340 -56772.100000 0 0 1
-23.579709 6.624306 -28.474789 37.559256 -0.273873 2.431237 0.060414 -0.006162 -542754.000000 0 0 1
-24.404009 5.772206 -27.531179 37.240298 -0.232258 2.402804 0.056812 -0.003965 -417688.000000 0 0 1
-25.099539 4.733106 -28.174529 38.028847 -0.186385 2.405165 0.076702 -0.016876 52732.300000 0 0 1
-25.520009 3.816706 -27.186429 37.482530 -0.148457 2.382280 0.097534 -0.008814 -826439.000000 0 0 1
-26.411639 2.716906 -27.705709 38.373983 -0.102507 2.377473 0.112332 -0.011179 555729.000000 0 0 1
-27.783449 3.048406 -27.979969 39.548596 -0.109283 2.356727 0.147701 -0.027731 1012980.000000 0 0 1
-28.073459 3.908606 -29.111449 40.630934 -0.138338 2.369547 0.148762 -0.021128 -786842.000000 0 0 1
-29.508139 3.667506 -29.598769 41.955548 -0.123654 2.353895 0.174458 -0.033844 -445938.000000 0 0 1
-30.531819 4.193206 -28.749349 42.146174 -0.136485 2.321474 0.159332 -0.024996 142293.000000 0 0 1
-31.781849 4.070506 -29.384439 43.475283 -0.127383 2.312966 0.158598 -0.035377 -104149.000000 0 0 1
-32.209669 5.385606 -30.182379 44.468455 -0.165672 2.316838 0.162600 -0.049138 -577940.000000 0 0 1
-31.309969 5.655206 -31.244629 44.592851 -0.178693 2.347125 0.176690 -0.048913 451271.000000 0 0 1
-31.472299 6.980806 -31.820729 45.296755 -0.218274 2.349693 0.169296 -0.045638 -447781.000000 0 0 1
-31.041279 8.158406 -30.870169 44.531875 -0.257012 2.336737 0.129967 -0.042875 776380.000000 0 0 1
-29.636409 8.277506 -30.538469 43.352415 -0.272361 2.352407 0.078061 -0.044565 1528070.000000 0 0 1
-29.078849 7.486106 -29.462189 42.067111 -0.251970 2.346700 0.068466 -0.034998 -384325.000000 0 0 1
-29.125569 8.148006 -28.078539 41.268549 -0.272781 2.319085 0.050365 -0.020932 139845.000000 0 0 1
-30.431869 8.426906 -27.594999 41.935610 -0.270142 2.288999 0.071574 -0.026027 512773.000000 0 0 1
-31.073289 7.322306 -26.943179 41.774398 -0.231424 2.271779 0.071634 -0.017060 1248340.000000 0 0 1
-32.511689 7.652206 -26.314459 42.520782 -0.231161 2.238088 0.070675 -0.016751 1457730.000000 0 0 1
-32.497899 8.403506 -25.102439 41.914971 -0.253043 2.212910 0.036847 -0.006269 -110502.000000 0 0 1
-32.322129 7.584706 -23.944389 40.933868 -0.230490 2.195618 0.044474 -0.009546 12670.400000 0 0 1
-31.898229 8.349906 -22.648989 40.002433 -0.256023 2.172673 0.040512 0.001221 171477.000000 0 0 1
-32.808889 9.408906 -22.351989 40.799046 -0.279284 2.150595 0.047252 0.002985 394530.000000 0 0 1
-32.136309 10.353606 -21.518989 40.037562 -0.311677 2.138230 0.058562 -0.003809 70151.400000 0 0 1
-33.033759 11.255806 -20.655189 40.553165 -0.328398 2.105209 0.049479 0.005058 -120931.000000 0 0 1
-33.553239 10.704506 -19.451089 40.233707 -0.308823 2.075391 0.063827 -0.017175 466120.000000 0 0 1
-34.313568 11.679406 -18.691389 40.782318 -0.328073 2.046901 0.054086 -0.009694 407396.000000 0 0 1
-33.429199 12.591206 -17.823889 39.921684 -0.360219 2.033614 0.064007 -0.013809 -268876.000000 0 0 1
-32.893749 12.011806 -16.645589 38.773159 -0.350125 2.014522 0.126729 -0.021722 26260.600000 0 0 1
-33.779809 11.605906 -15.604189 38.977728 -0.330940 1.982680 0.129524 -0.026530 291440.000000 0 0 1
-34.517736 12.718806 -14.698189 39.614125 -0.353035 1.950919 0.098436 -0.025742 421808.000000 0 0 1
-35.347704 13.510006 -15.528389 40.903683 -0.365071 1.960196 0.067994 -0.018094 205325.000000 0 0 1
-35.988489 14.512206 -14.677089 41.487256 -0.383301 1.932399 0.044376 -0.012861 456936.000000 0 0 1
-36.636879 15.669706 -15.526489 42.765318 -0.404158 1.942349 0.028623 -0.008548 138016.000000 0 0 1
-37.527319 15.145706 -16.483389 43.696615 -0.383599 1.957593 0.027505 -0.016714 111842.000000 0 0 1
38.011913 16.197506 -17.112389 44.722461 0.402816 1.963443 0.023768 -0.014555 -950210.000000 0 0 1
37.542963 15.947106 -18.514189 44.794636 0.401675 1.996885 0.038780 -0.015876 -22310.000000 0 0 1
36.466013 15.076306 -18.788389 43.704332 0.392034 2.015176 0.066685 -0.024032 -265819.000000 0 0 1
35.234963 15.640906 -18.393089 42.713537 0.417772 2.015970 0.116106 -0.040251 -1133550.000000 0 0 1
34.163653 14.544806 -18.542189 41.503245 0.402497 2.033942 0.145905 -0.045521 -461716.000000 0 0 1
33.808833 14.345906 -19.894189 41.768660 0.401298 2.067232 0.151539 -0.044937 -26138.300000 0 0 1
32.784453 13.423206 -20.155089 40.758194 0.388616 2.088060 0.131071 -0.036733 4069.810000 0 0 1
33.176323 11.940606 -19.957189 40.515871 0.345479 2.085845 0.125642 -0.013086 -29466.900000 0 0 1
33.502843 11.654906 -18.581589 40.044385 0.334783 2.053330 0.130124 -0.013326 -158503.000000 0 0 1
34.013073 10.361706 -18.445389 40.056041 0.295707 2.049343 0.101774 -0.002471 -193732.000000 0 0 1
34.397733 10.117906 -16.986889 39.675313 0.286076 2.013238 0.070678 0.004093 239316.000000 0 0 1
33.246003 10.216006 -16.150789 38.347248 0.298127 2.005534 0.102664 -0.000171 143302.000000 0 0 1
33.531173 9.877606 -14.823289 37.968889 0.286477 1.971869 0.072577 -0.008186 -140455.000000 0 0 1
32.812363 10.816006 -13.801389 37.203702 0.318416 1.950848 0.088688 -0.016080 377917.000000 0 0 1
31.392683 10.734306 -13.851389 35.952563 0.329473 1.966295 0.091894 -0.006122 492770.000000 0 0 1
30.756563 11.621006 -12.905089 35.320748 0.361257 1.944825 0.091568 -0.010645 385348.000000 0 0 1
29.215463 11.659206 -12.979389 34.028589 0.379710 1.962135 0.131241 -0.008138 -213509.000000 0 0 1
28.553263 10.641906 -12.204589 32.825157 0.356756 1.951750 0.133804 -0.019807 532053.000000 0 0 1
27.151763 10.527306 -12.412589 31.656196 0.369876 1.973716 0.156593 -0.010303 376453.000000 0 0 1
26.718263 9.916406 -13.813489 31.670383 0.355389 2.022128 0.129135 -0.027930 -719454.000000 0 0 1
26.996363 8.513806 -13.974289 31.568485 0.305496 2.029366 0.126498 -0.020661 270197.000000 0 0 1
28.378663 8.225006 -14.059689 32.721156 0.282101 2.014937 0.124065 -0.034011 -182401.000000 0 0 1
28.944263 7.114606 -13.121189 32.566141 0.241025 1.985489 0.120052 -0.031335 -182745.000000 0 0 1
28.489163 5.798006 -13.240489 31.946202 0.200774 1.998148 0.130193 -0.039531 -360819.000000 0 0 1
27.333163 5.490206 -12.536689 30.568165 0.198225 1.993385 0.162526 -0.041641 -738779.000000 0 0 1
27.050363 3.975806 -12.562389 30.088914 0.145933 2.001498 0.170422 -0.041841 -420571.000000 0 0 1
26.349363 3.651106 -11.403089 28.942182 0.137688 1.975771 0.207317 -0.043343 272864.000000 0 0 1
25.932263 2.324306 -11.292389 28.379618 0.089391 1.980028 0.223923 -0.056582 -110867.000000 0 0 1
25.708263 1.926006 -9.823289 27.588426 0.074778 1.934850 0.262716 -0.060625 -618846.000000 0 0 1
26.899463 1.720706 -9.141089 28.462281 0.063881 1.897756 0.294242 -0.044166 -273334.000000 0 0 1
26.765463 0.677306 -8.199989 28.001581 0.025300 1.867992 0.338086 -0.032797 2781.190000 0 0 1
28.086363 0.183706 -7.531289 29.079165 0.006541 1.832775 0.412369 -0.019688 -183921.000000 0 0 1
28.049363 -0.742194 -6.460689 28.793369 -0.026454 1.797104 0.362207 -0.035679 -121130.000000 0 0 1
27.449063 -1.967194 -6.731689 28.330841 -0.071545 1.810701 0.262670 -0.031823 -286977.000000 0 0 1
27.886963 -3.041494 -5.694789 28.624535 -0.108636 1.771080 0.221113 -0.038564 639253.000000 0 0 1
29.260363 -3.451194 -5.781289 30.025037 -0.117405 1.764555 0.212586 -0.039449 892830.000000 0 0 1
29.534163 -4.615194 -5.075089 30.320345 -0.155013 1.738970 0.235868 -0.068604 -1035390.000000 0 0 1
31.005863 -4.941794 -5.073689 31.804515 -0.158053 1.731008 0.219362 -0.059226 -997130.000000 0 0 1
31.585393 -5.218894 -6.322589 32.632024 -0.163752 1.765784 0.160709 -0.043722 -454278.000000 0 0 1
32.964923 -5.370194 -6.175089 33.965524 -0.161488 1.753618 0.177263 -0.039068 -181964.000000 0 0 1
33.734553 -5.872394 -7.447989 35.042511 -0.172350 1.784972 0.187079 -0.056973 46979.700000 0 0 1
33.295083 -7.178094 -7.808389 34.943648 -0.212340 1.796156 0.206020 -0.066713 96140.400000 0 0 1
33.417653 -7.527794 -9.181789 35.464242 -0.221566 1.832682 0.206512 -0.045709 621664.000000 0 0 1
32.062193 -8.017994 -9.841689 34.483783 -0.245050 1.860221 0.177065 -0.050128 1481760.000000 0 0 1
31.043863 -7.018094 -9.963989 33.350504 -0.222333 1.874195 0.143386 -0.061014 942809.000000 0 0 1
30.176963 -6.659994 -8.877989 32.153123 -0.217216 1.850547 0.170695 -0.049018 -495056.000000 0 0 1
29.084463 -5.665594 -9.259289 31.044152 -0.192389 1.873668 0.164911 -0.051556 -545388.000000 0 0 1
27.947263 -6.342794 -9.724189 30.262855 -0.223175 1.897924 0.154741 -0.046695 -217583.000000 0 0 1
26.837363 -5.484294 -9.802089 29.092997 -0.201578 1.914443 0.186240 -0.050848 195341.000000 0 0 1
25.433863 -6.137694 -9.795289 27.937436 -0.236793 1.929024 0.232272 -0.052078 -41973.000000 0 0 1
25.096763 -6.682094 -8.466489 27.316283 -0.260216 1.885929 0.227442 -0.063086 915344.000000 0 0 1
23.756363 -7.018394 -8.124689 26.069776 -0.287261 1.887727 0.204902 -0.064342 472838.000000 0 0 1
22.785963 -5.866894 -7.790389 24.785292 -0.252005 1.890531 0.201784 -0.049719 -281725.000000 0 1 0
22.477163 -5.031894 -8.858789 24.678350 -0.220236 1.937961 0.234023 -0.045441 304577.000000 0 1 0
22.188963 -3.699594 -8.380489 24.005617 -0.165212 1.927413 0.232227 -0.049362 -118133.000000 0 1 0
22.363263 -2.543894 -9.401789 24.392223 -0.113266 1.966483 0.257531 -0.041673 -8269.160000 0 1 0
23.748963 -2.357594 -9.601889 25.724847 -0.098947 1.953310 0.255066 -0.052527 450496.000000 0 0 1
24.000563 -1.894794 -10.924789 26.438008 -0.078785 1.996787 0.274564 -0.048364 377501.000000 0 0 1
25.476163 -2.230894 -11.304189 27.960623 -0.087345 1.986998 0.215323 -0.045380 314248.000000 0 0 1
26.465763 -1.339994 -10.865189 28.640609 -0.050588 1.959904 0.210392 -0.045527 -127947.000000 0 0 1
27.683363 -1.606094 -11.507589 30.022870 -0.057952 1.964156 0.176711 -0.038761 -266817.000000 0 0 1
28.809563 -0.620794 -11.148689 30.897727 -0.021545 1.939949 0.146569 -0.023103 310795.000000 0 0 1
30.096563 -0.966694 -11.677689 32.297152 -0.032109 1.940748 0.112540 -0.022698 756903.000000 0 0 1
31.116563 -0.004594 -11.476489 33.165499 -0.000148 1.924140 0.106841 -0.017802 34028.000000 0 0 1
31.156363 1.376106 -12.103189 33.452949 0.044139 1.940991 0.103777 -0.018854 -538895.000000 0 0 1
31.302463 1.139306 -13.477289 34.099553 0.036381 1.977118 0.103298 -0.024971 290340.000000 0 0 1
31.421833 2.291406 -14.233289 34.571211 0.072795 1.995125 0.122146 -0.029929 -124768.000000 0 0 1
31.570443 2.054306 -15.776989 35.352884 0.064979 2.033391 0.126997 -0.029079 101375.000000 0 0 1
30.422163 1.460506 -16.349489 34.568003 0.047971 2.063450 0.126365 -0.024285 198084.000000 0 0 1
30.690663 1.433806 -17.735489 35.475627 0.046684 2.094319 0.100229 -0.020198 676833.000000 0 0 1
29.377663 1.059006 -18.510789 34.739284 0.036032 2.132760 0.072697 -0.013072 424597.000000 0 0 1
29.106063 -0.319294 -18.364089 34.416633 -0.010970 2.133626 0.092218 -0.020418 273279.000000 0 0 1
29.040463 -0.982494 -19.649689 35.077401 -0.033819 2.165400 0.068337 -0.016556 -119836.000000 0 0 1
28.987963 -2.557694 -19.553289 35.059591 -0.088005 2.162428 0.081506 -0.022891 4607.610000 0 0 1
27.736163 -2.924394 -19.011289 33.753161 -0.105048 2.169104 0.084556 -0.019842 295893.000000 0 0 1
27.376763 -4.311394 -19.176789 33.701995 -0.156201 2.176098 0.089493 -0.021215 67390.500000 0 0 1
28.100863 -5.324594 -18.207389 33.904554 -0.187261 2.137696 0.080671 -0.015690 -553450.000000 0 0 1
29.485363 -5.334794 -18.409989 35.167803 -0.178994 2.121738 0.085547 -0.012366 -433873.000000 0 0 1
30.093063 -5.811694 -17.182589 35.137011 -0.190775 2.081759 0.085542 -0.019691 519084.000000 0 0 1
31.615703 -5.445294 -17.129589 36.367935 -0.170560 2.061229 0.124423 -0.012777 273292.000000 0 0 1
32.274953 -6.258194 -18.063089 37.511502 -0.191526 2.073201 0.095104 -0.016847 -257012.000000 0 0 1
33.596413 -5.780694 -18.187789 38.638466 -0.170394 2.060900 0.121011 -0.017184 -453429.000000 0 0 1
34.525923 -6.668894 -19.002589 39.970137 -0.190806 2.066237 0.120701 -0.016835 -477193.000000 0 0 1
34.937233 -7.715894 -18.195189 40.139882 -0.217361 2.041254 0.134170 -0.033483 111613.000000 0 0 1
35.569553 -8.766094 -18.953889 41.246665 -0.241634 2.048257 0.123014 -0.030344 76685.700000 0 0 1
36.702843 -9.454994 -18.167689 42.030471 -0.252127 2.017783 0.128426 -0.031310 -551592.000000 0 0 1
36.191833 -10.134994 -17.031489 41.263040 -0.273042 1.996272 0.120016 -0.035559 804121.000000 0 0 1
37.124013 -11.003894 -16.343489 42.028415 -0.288159 1.970198 0.140224 -0.047316 -373707.000000 0 0 1
-37.974779 -10.305394 -15.598189 42.327160 0.264993 1.948207 0.152872 -0.047650 -641844.000000 0 0 1
-37.387429 -10.975894 -14.517289 41.581748 0.285549 1.927435 0.145835 -0.050688 185435.000000 0 0 1
-36.834729 -12.237894 -14.771889 41.530375 0.320764 1.934447 0.118966 -0.041111 97084.500000 0 0 1
-35.354693 -12.170794 -15.328489 40.410953 0.331542 1.959852 0.117409 -0.042707 479847.000000 0 0 1
-35.277982 -11.714594 -16.653089 40.731967 0.320609 1.991985 0.137127 -0.039325 242815.000000 0 0 1
-33.909229 -11.747494 -17.044289 39.728418 0.333499 2.014204 0.161089 -0.038994 277313.000000 0 0 1
-33.525089 -11.069794 -18.408289 39.816291 0.318923 2.051418 0.190804 -0.041638 -30459.000000 0 0 1
-33.699269 -9.670794 -18.442189 39.614130 0.279463 2.055047 0.199622 -0.041387 -166095.000000 0 0 1
-35.021874 -9.340394 -18.786489 40.825321 0.260635 2.048980 0.182696 -0.040317 -222305.000000 0 0 1
-35.427253 -7.939394 -18.237189 40.629045 0.220462 2.036298 0.195935 -0.045527 773133.000000 0 0 1
-36.655839 -7.475894 -18.848389 41.890349 0.201189 2.037501 0.182572 -0.033880 882454.000000 0 0 1
-37.216489 -6.351494 -18.243089 41.931120 0.169035 2.020915 0.169549 -0.036693 -114718.000000 0 0 1
25.971791 27.311606 -26.126789 45.859207 0.810538 2.176958 0.066734 -0.012142 184156.000000 0 0 1
26.515191 26.309606 -25.286189 45.107007 0.781506 2.165885 0.086738 -0.023654 490023.000000 0 0 1
27.703491 25.744706 -25.854009 45.811604 0.748766 2.170448 0.099213 -0.025521 283204.000000 0 0 1
28.440891 24.725106 -24.967389 45.206035 0.715621 2.155920 0.101358 -0.030621 -106373.000000 0 0 1
29.197591 25.352706 -23.940989 45.479995 0.715031 2.125165 0.106374 -0.025267 118651.000000 0 0 1
29.595791 24.354906 -22.977589 44.688274 0.688560 2.110842 0.101073 -0.022937 229744.000000 0 0 1
30.248891 25.012106 -21.737189 44.867652 0.690916 2.076558 0.094927 -0.019442 -263619.000000 0 0 1
29.341091 25.806206 -21.056589 44.387383 0.721387 2.065059 0.109353 -0.025131 -390648.000000 0 0 1
29.919991 26.557206 -19.986489 44.720809 0.725926 2.034112 0.094341 -0.021163 -131760.000000 0 0 1
28.955191 27.545406 -19.335689 44.396186 0.760452 2.021419 0.109015 -0.014453 -131133.000000 0 0 1
28.054491 26.984006 -18.418889 43.063285 0.765951 2.012762 0.122606 -0.016565 85857.400000 0 0 1
27.320891 28.007206 -17.699489 42.943062 0.797802 1.995622 0.120020 -0.024693 143571.000000 0 0 1
26.160491 27.504206 -16.827289 41.521203 0.810432 1.988070 0.102332 -0.018916 -140687.000000 0 0 1
25.058191 27.062306 -17.581789 40.858299 0.823831 2.015634 0.112961 -0.014795 12719.500000 0 0 1
23.883891 26.970806 -16.798089 39.749722 0.846024 2.007105 0.087345 -0.009223 261495.000000 0 0 1
22.911591 25.815706 -17.102489 38.521251 0.844927 2.030827 0.097487 -0.014039 -30582.400000 0 0 1
22.282891 26.069906 -18.336789 38.889652 0.863559 2.061797 0.089163 -0.020913 48078.100000 0 0 1
21.286191 25.112506 -18.682989 37.852265 0.867678 2.086994 0.094086 -0.012136 482748.000000 0 0 1
20.517491 25.344906 -20.006489 38.256911 0.890271 2.121106 0.089567 -0.011523 281405.000000 0 0 1
19.594291 26.384706 -19.828989 38.383300 0.932023 2.113677 0.070498 -0.008058 -443139.000000 0 0 1
18.537291 26.350006 -20.773389 38.333897 0.957724 2.143500 0.076046 -0.021481 46795.400000 0 0 1
17.476491 27.430306 -20.506389 38.449465 1.003526 2.133333 0.072392 -0.016220 -161089.000000 0 0 1
16.607091 27.070306 -19.445589 37.238795 1.020524 2.120209 0.086471 -0.007081 -300293.000000 0 0 1
15.752591 28.173906 -19.211789 37.563359 1.060978 2.107668 0.079872 -0.015683 -10899.200000 0 0 1
15.030691 27.960506 -17.857489 36.422540 1.077547 2.083215 0.076835 -0.007753 -175231.000000 0 0 1
14.089091 26.930506 -17.847289 35.245997 1.088789 2.101759 0.084832 -0.006313 -381870.000000 0 0 1
13.436791 26.956606 -16.583189 34.383253 1.108381 2.074080 0.100407 -0.011955 -315622.000000 0 0 1
12.751291 25.619606 -16.281289 32.924762 1.108977 2.088056 0.104901 -0.012713 -125894.000000 0 0 1
13.520991 24.447006 -16.257889 32.323246 1.065596 2.097837 0.102387 -0.014472 -254322.000000 0 0 1
12.729091 23.360306 -15.811889 30.947528 1.071875 2.107058 0.122920 -0.016817 797754.000000 0 0 1
13.569491 22.031706 -15.931789 30.386659 1.018762 2.122692 0.106420 -0.025686 670509.000000 0 0 1
13.820991 21.715306 -17.318389 31.024198 1.003996 2.163038 0.103164 -0.015696 -644419.000000 0 0 1
14.592691 20.582006 -17.509089 30.710483 0.954054 2.177465 0.109225 -0.011971 -54301.000000 0 0 1
13.821491 19.203706 -17.495289 29.426197 0.946951 2.207500 0.102399 -0.026437 208544.000000 0 0 1
13.464591 18.797506 -16.192689 28.228436 0.949217 2.181727 0.115444 -0.036819 -347980.000000 0 0 1
13.074891 17.438706 -16.177389 27.143492 0.927447 2.209301 0.103963 -0.038384 -164593.000000 0 0 1
14.195691 16.356606 -16.295289 27.103369 0.856009 2.215833 0.138795 -0.039106 -268619.000000 0 0 1
15.017891 16.281506 -15.172889 26.848483 0.825748 2.171387 0.158130 -0.050993 5891.540000 0 0 1
15.973391 15.244806 -15.349389 26.891580 0.762064 2.178261 0.155776 -0.052424 -913876.000000 0 0 1
16.615191 14.833506 -13.991589 26.303270 0.728805 2.131679 0.241091 -0.064887 -719259.000000 0 0 1
17.614591 15.676306 -13.437189 27.139978 0.727241 2.088754 0.202776 -0.055057 1344490.000000 0 0 1
18.807791 15.928206 -14.205489 28.447085 0.702688 2.093662 0.162509 -0.046290 -295951.000000 0 0 1
19.670691 14.724006 -14.627889 28.595586 0.642556 2.107777 0.155233 -0.050793 -883906.000000 0 0 1
20.304691 13.831006 -13.687289 28.123283 0.597978 2.079092 0.207712 -0.061621 160256.000000 0 0 1
21.128491 14.399006 -12.752689 28.572287 0.598200 2.033457 0.188649 -0.050371 -1387190.000000 0 0 1
22.032191 13.376006 -12.112289 28.478808 0.545632 2.010099 0.218622 -0.058003 -632968.000000 0 0 1
21.388591 12.634806 -11.084989 27.202704 0.533573 1.990507 0.298029 -0.063445 316654.000000 0 0 1
22.130991 11.504606 -10.660189 27.125197 0.479394 1.974688 0.315961 -0.031680 -250391.000000 0 0 1
22.150991 10.242706 -11.586789 27.015423 0.433121 2.014066 0.265530 -0.030362 -698306.000000 0 0 1
23.143691 10.227606 -12.566289 28.251477 0.416112 2.031749 0.226547 -0.025462 -23811.800000 0 0 1
23.228791 9.028306 -13.288589 28.243116 0.370700 2.060662 0.193666 -0.030210 -102950.000000 0 0 1
23.585991 7.652206 -12.636489 27.830488 0.313724 2.042104 0.216547 -0.013727 559685.000000 0 0 1
22.409991 7.222706 -11.919689 26.390418 0.311787 2.039430 0.232158 -0.037535 1189040.000000 0 0 1
22.661691 6.108606 -11.019489 25.928680 0.263298 2.009750 0.233443 -0.021326 -522910.000000 0 0 1
22.717291 4.634706 -11.506689 25.883580 0.201255 2.031474 0.256647 -0.036007 316796.000000 0 0 1
21.485491 4.089406 -11.984189 24.939333 0.188084 2.072059 0.228106 -0.051096 716728.000000 0 1 0
21.016991 4.564606 -13.225189 25.247874 0.213865 2.122118 0.178873 -0.053586 -567664.000000 0 0 1
19.939491 3.605106 -13.772589 24.500292 0.178870 2.167767 0.166907 -0.059164 -244143.000000 0 1 0
20.402291 2.336106 -14.127889 24.926053 0.114006 2.173403 0.170036 -0.074148 140849.000000 0 1 0
20.232391 1.430706 -13.056189 24.121787 0.070596 2.142733 0.205460 -0.079822 -180482.000000 0 1 0
21.126491 0.147206 -13.091089 24.854112 0.006968 2.125530 0.212433 -0.078211 1101700.000000 0 1 0
22.555291 0.382706 -13.038889 26.055714 0.016966 2.094884 0.271866 -0.057916 1533780.000000 0 0 1
23.325691 0.569506 -14.226589 27.327789 0.024411 2.118339 0.188119 -0.055234 246895.000000 0 0 1
23.522691 -0.696394 -15.151189 27.988578 -0.029597 2.142820 0.158721 -0.038898 288802.000000 0 0 1
22.330891 -1.201594 -15.780489 27.370355 -0.053757 2.185301 0.151416 -0.044318 644590.000000 0 0 1
22.681591 -2.135894 -16.783889 28.296918 -0.093892 2.205743 0.122209 -0.028359 722144.000000 0 0 1
21.436391 -2.635794 -17.629289 27.879349 -0.122345 2.255369 0.105925 -0.037749 533365.000000 0 0 1
20.761191 -3.624994 -16.907389 27.019020 -0.172862 2.246900 0.143781 -0.035743 -56745.700000 0 0 1
19.875091 -4.359594 -17.716589 26.979674 -0.215930 2.287184 0.105861 -0.024240 -219867.000000 0 0 1
19.338791 -5.583094 -16.934589 26.304754 -0.281057 2.270230 0.109787 -0.033860 -496401.000000 0 0 1
20.332991 -6.513894 -16.636889 27.067460 -0.310030 2.232733 0.116347 -0.028358 33855.100000 0 0 1
19.884591 -7.456294 -15.642889 26.375998 -0.358752 2.205666 0.130767 -0.029033 -136065.000000 0 0 1
21.012691 -8.323794 -15.074289 27.167129 -0.377167 2.159006 0.183167 -0.028175 -247355.000000 0 0 1
21.341991 -9.372294 -15.934489 28.235234 -0.413793 2.170439 0.149349 -0.030862 838442.000000 0 0 1
22.470191 -10.126594 -15.439289 29.083140 -0.423409 2.130420 0.135061 -0.025777 288488.000000 0 0 1
23.083091 -11.116194 -16.417189 30.428982 -0.448798 2.140669 0.109794 -0.020793 -99989.300000 0 0 1
23.874391 -10.428994 -17.391289 31.324230 -0.411846 2.159403 0.098375 -0.013463 181841.000000 0 0 1
24.285891 -11.240194 -18.485589 32.524813 -0.433470 2.175300 0.086965 -0.008805 -203178.000000 0 0 1
23.357091 -11.113194 -19.754389 32.546777 -0.444097 2.223018 0.086724 -0.002628 1070700.000000 0 0 1
22.070391 -11.733494 -19.658889 31.800141 -0.488638 2.237249 0.106962 -0.018022 578556.000000 0 0 1
22.097891 -13.124694 -19.512689 32.269481 -0.535947 2.220160 0.086888 -0.009758 -200961.000000 0 0 1
20.633591 -13.666194 -19.509589 31.514029 -0.584993 2.238362 0.085868 -0.010038 636537.000000 0 0 1
19.915391 -13.279894 -20.668889 31.625644 -0.588106 2.283059 0.077750 -0.000230 -738748.000000 0 0 1
18.556991 -13.553394 -20.535789 30.818420 -0.630816 2.300096 0.100191 -0.007533 -141544.000000 0 0 1
17.734191 -12.892094 -21.732789 30.871050 -0.628593 2.351791 0.090981 -0.008408 222876.000000 0 0 1
17.990491 -13.484194 -23.038589 32.190959 -0.643192 2.368401 0.075882 -0.002571 485761.000000 0 0 1
17.136691 -12.903994 -24.020889 32.205316 -0.645421 2.412632 0.087567 -0.016621 110734.000000 0 0 1
17.013091 -13.779694 -25.277309 33.440508 -0.680777 2.427807 0.075575 -0.025103 -504690.000000 0 0 1
16.316091 -14.963394 -25.078289 33.452034 -0.742180 2.418373 0.086135 -0.024338 -64040.400000 0 0 1
16.296191 -15.848994 -26.206049 34.691692 -0.771487 2.427058 0.098041 -0.021667 -24122.600000 0 0 1
17.301891 -17.021994 -26.359049 35.831595 -0.777244 2.397403 0.104635 -0.021683 -131805.000000 0 0 1
18.637191 -16.649894 -26.580479 36.484048 -0.729140 2.387000 0.091073 -0.012952 -302738.000000 0 0 1
19.384891 -17.731694 -27.116539 37.755710 -0.740887 2.372023 0.099383 -0.014133 -559345.000000 0 0 1
20.874891 -17.470994 -27.045579 38.372647 -0.696862 2.352957 0.072711 -0.006467 -567311.000000 0 0 1
21.347191 -17.280794 -25.706419 37.618458 -0.680514 2.323132 0.070547 -0.011134 6935.170000 0 0 1
22.728091 -16.954894 -25.749619 38.302447 -0.640929 2.308068 0.070675 -0.007044 378180.000000 0 0 1
23.307391 -16.290594 -24.441689 37.496854 -0.610018 2.280795 0.086234 -0.011753 189468.000000 0 0 1
22.962191 -14.910894 -24.255789 36.577866 -0.575930 2.295786 0.095621 -0.018254 -540671.000000 0 0 1
21.639191 -14.616994 -23.919089 35.412341 -0.594084 2.312364 0.098122 -0.017173 -355301.000000 0 0 1
21.417591 -13.205194 -23.314889 34.302688 -0.552506 2.318124 0.093543 -0.005240 31425.400000 0 0 1
21.873091 -12.106294 -24.144589 34.755656 -0.505510 2.338792 0.098833 -0.019137 268305.000000 0 0 1
21.787591 -10.843694 -23.435789 33.786403 -0.461806 2.337334 0.106246 -0.019207 80355.000000 0 0 1
22.070191 -9.614894 -24.290989 34.199293 -0.410857 2.360689 0.097521 -0.022280 31409.400000 0 0 1
21.738791 -8.424494 -23.568489 33.151483 -0.369713 2.361621 0.103027 -0.018651 36862.900000 0 0 1
21.792691 -7.310394 -24.392789 33.516733 -0.323656 2.385875 0.075997 -0.020419 -380743.000000 0 0 1
21.121391 -6.063794 -23.789989 32.385897 -0.279573 2.395842 0.077692 -0.025215 -751989.000000 0 0 1
19.749091 -6.268494 -23.664889 31.453896 -0.307349 2.422445 0.090841 -0.026835 -300462.000000 0 0 1
19.038091 -5.358594 -22.737489 30.135641 -0.274369 2.425696 0.089125 -0.023628 555235.000000 0 0 1
19.385591 -5.371294 -21.237389 29.251985 -0.270296 2.383306 0.083050 -0.020786 -605014.000000 0 0 1
19.044491 -6.508394 -20.520489 28.742691 -0.329303 2.365902 0.089758 -0.029339 200883.000000 0 0 1
19.665191 -7.768594 -20.831889 29.682291 -0.376226 2.348758 0.089776 -0.019026 -129697.000000 0 0 1
19.570391 -8.695594 -19.621089 29.044805 -0.418124 2.312501 0.101012 -0.020537 485613.000000 0 0 1
18.194791 -9.024394 -19.465189 28.131543 -0.460433 2.334962 0.115755 -0.029463 305984.000000 0 0 1
17.992891 -10.099494 -18.571789 27.760678 -0.511481 2.303654 0.131661 -0.031275 118582.000000 0 0 1
16.520891 -10.511794 -18.323489 26.817679 -0.566665 2.323016 0.153637 -0.037439 346219.000000 0 0 1
15.917291 -9.481194 -17.455689 25.454946 -0.537218 2.326428 0.171374 -0.034271 675216.000000 0 0 1
14.494691 -9.570594 -17.555789 24.696114 -0.583570 2.361534 0.134080 -0.051635 479390.000000 0 1 0
13.822091 -8.310294 -16.946489 23.394330 -0.541325 2.380937 0.170921 -0.045220 75223.500000 0 1 0
12.652491 -7.902494 -17.632089 23.096006 -0.558297 2.439397 0.157674 -0.047694 -51223.500000 0 1 0
12.160191 -6.639794 -17.206089 22.090872 -0.499788 2.463671 0.159640 -0.045082 1010820.000000 0 1 0
10.600091 -6.502594 -17.349389 21.345889 -0.550248 2.519695 0.144385 -0.040755 1023770.000000 0 1 0
10.103991 -6.525394 -18.706089 22.239361 -0.573434 2.570157 0.126653 -0.047326 -453636.000000 0 1 0
8.708191 -6.557694 -18.725089 21.667139 -0.645450 2.614386 0.111064 -0.056560 -397047.000000 0 1 0
8.084691 -5.963294 -20.014989 22.394707 -0.635520 2.676405 0.120333 -0.065864 52326.800000 0 1 0
8.409691 -6.741994 -21.175789 23.761133 -0.675773 2.670768 0.120421 -0.056302 165205.000000 0 1 0
7.801691 -6.148294 -22.306489 24.418177 -0.667425 2.722651 0.130569 -0.053137 133159.000000 0 1 0
7.599191 -7.257294 -23.432689 25.680867 -0.762389 2.720046 0.111707 -0.046488 155454.000000 0 0 1
6.849591 -8.417394 -23.076989 25.501311 -0.887732 2.702020 0.117146 -0.047252 145663.000000 0 0 1
7.039591 -9.326594 -24.090789 26.775125 -0.924239 2.689982 0.106852 -0.031868 -216369.000000 0 0 1
6.121991 -10.542394 -24.002389 26.920912 -1.044687 2.671638 0.098877 -0.031011 -17408.500000 0 0 1
6.599691 -11.556394 -23.164989 26.715593 -1.051909 2.620139 0.088374 -0.038315 -53110.400000 0 0 1
5.755291 -12.661394 -23.412289 27.231775 -1.144162 2.605560 0.113029 -0.044176 -831831.000000 0 0 1
6.154991 -13.985294 -22.726989 27.385916 -1.156202 2.549687 0.120392 -0.035948 331273.000000 0 0 1
7.386491 -14.596094 -23.181589 28.372386 -1.102313 2.527068 0.097599 -0.025603 1035900.000000 0 0 1
8.612191 -13.889094 -23.073389 28.274689 -1.015751 2.525329 0.100982 -0.032454 -340025.000000 0 0 1
9.036691 -13.425494 -21.667789 27.044385 -0.978354 2.500084 0.111970 -0.028412 -1034020.000000 0 0 1
9.466991 -14.513694 -20.855989 27.115374 -0.992820 2.448318 0.107551 -0.021228 476037.000000 0 0 1
8.416691 -15.304894 -20.296789 26.777605 -1.068003 2.431001 0.117878 -0.021645 92716.500000 0 0 1
8.822991 -15.808894 -18.894989 26.168434 -1.061753 2.377561 0.117599 -0.019985 334896.000000 0 0 1
9.911791 -16.725994 -19.009089 27.190953 -1.035837 2.344929 0.116483 -0.024669 171668.000000 0 0 1
10.501991 -17.034394 -17.722789 26.731249 -1.018321 2.295614 0.125692 -0.021531 -209920.000000 0 0 1
9.677791 -17.845794 -16.658789 26.261136 -1.073883 2.257966 0.090523 -0.030175 -372915.000000 0 0 1
9.352191 -19.225594 -16.897789 27.251096 -1.118052 2.239638 0.102065 -0.035825 382844.000000 0 0 1
8.593791 -19.524294 -18.097389 27.974395 -1.156156 2.274344 0.109776 -0.024873 202427.000000 0 0 1
7.062391 -19.379394 -17.901489 27.311199 -1.221326 2.285592 0.121179 -0.023228 -288671.000000 0 0 1
6.669691 -18.023194 -17.663089 26.101820 -1.216362 2.314067 0.128812 -0.029463 624023.000000 0 0 1
5.240791 -17.884294 -17.717989 25.714607 -1.285738 2.330938 0.116033 -0.025155 1162630.000000 0 0 1
4.716491 -16.397194 -17.432089 24.392437 -1.290717 2.366922 0.087927 -0.013414 334293.000000 0 1 0
5.077591 -16.066394 -16.059689 23.277125 -1.264691 2.332195 0.054663 -0.014486 303670.000000 0 1 0
4.914091 -14.695194 -15.806589 22.134708 -1.248085 2.366146 0.041636 -0.005362 -169050.000000 0 1 0
11.179291 29.168406 -17.983989 36.044366 1.204798 2.093172 0.085903 -0.025449 -574051.000000 0 0 1
10.089491 28.962806 -18.813589 35.980454 1.235583 2.121027 0.124075 -0.025847 -684490.000000 0 0 1
9.053291 28.256606 -18.183589 34.800011 1.260735 2.120596 0.109785 -0.026423 645296.000000 0 0 1
8.025991 27.550706 -19.187889 34.520038 1.287324 2.160179 0.124108 -0.025110 1190220.000000 0 0 1
7.140791 28.601606 -19.691589 35.451395 1.326134 2.159704 0.120002 -0.031561 -13167.400000 0 0 1
6.357891 28.141006 -20.760689 35.543567 1.348597 2.194556 0.112835 -0.038831 -142300.000000 0 0 1
5.512591 29.277206 -21.324789 36.637277 1.384686 2.192046 0.092472 -0.035077 851188.000000 0 0 1
4.300691 29.652006 -20.637389 36.381853 1.426762 2.173952 0.097091 -0.031838 570693.000000 0 0 1
3.382291 30.364006 -21.424889 37.315394 1.459862 2.182370 0.116254 -0.052693 -1295940.000000 0 0 1
1.980291 30.301006 -20.831189 36.824054 1.505535 2.172072 0.136033 -0.049630 -501163.000000 0 0 1
1.317591 29.060706 -21.069689 35.919249 1.525488 2.197632 0.141031 -0.061832 65535.400000 0 0 1
0.778891 28.963706 -22.369189 36.604420 1.543911 2.228254 0.186403 -0.083564 -605863.000000 0 0 1
0.049291 27.559906 -22.566989 35.620497 1.569008 2.256916 0.162213 -0.072066 253015.000000 0 0 1
-1.061509 27.380506 -21.728789 34.970833 -1.532047 2.241248 0.174448 -0.067232 -92146.500000 0 0 1
-1.640009 26.067706 -21.835189 34.043948 -1.507966 2.267095 0.170865 -0.072908 841900.000000 0 0 1
-2.878309 25.849406 -20.900889 33.366504 -1.459904 2.247727 0.157380 -0.064560 1640640.000000 0 0 1
-4.092409 26.640806 -21.075089 34.214613 -1.418373 2.234410 0.156920 -0.062441 954581.000000 0 0 1
-5.049109 26.148306 -20.188389 33.418534 -1.380049 2.219442 0.157618 -0.057848 -267658.000000 0 0 1
-6.304009 27.012806 -19.998089 34.195844 -1.341529 2.195443 0.169847 -0.069512 860967.000000 0 0 1
-7.423409 26.312206 -19.387889 33.516107 -1.295815 2.187642 0.151807 -0.049940 870733.000000 0 0 1
-8.184909 27.212606 -18.558089 33.939966 -1.278627 2.149324 0.149270 -0.062390 -160241.000000 0 0 1
-9.481509 26.589506 -18.066189 33.515489 -1.228264 2.140093 0.186915 -0.055603 -614237.000000 0 0 1
-9.346809 25.695006 -16.978689 32.184966 -1.221916 2.126492 0.185177 -0.066910 682486.000000 0 0 1
-10.568909 24.966506 -16.672989 31.827925 -1.170347 2.122158 0.165217 -0.054233 935094.000000 0 0 1
-10.612209 24.142206 -15.371189 30.524392 -1.156649 2.098523 0.150120 -0.042482 -406582.000000 0 0 1
-9.709109 23.086106 -15.327989 29.362941 -1.172692 2.120012 0.166467 -0.039766 -455346.000000 0 0 1
-9.703309 22.537906 -14.042389 28.271896 -1.164249 2.090578 0.150911 -0.034663 24348.700000 0 0 1
-9.134009 21.054006 -14.027189 26.897273 -1.161464 2.119416 0.127704 -0.012611 98583.900000 0 0 1
-9.858609 19.904506 -14.469389 26.509333 -1.110920 2.148167 0.131035 -0.007741 -336801.000000 0 0 1
-10.292909 19.753206 -15.853489 27.339828 -1.090431 2.189363 0.145706 0.000802 -246175.000000 0 0 1
-9.291409 19.822406 -17.001589 27.718443 -1.132474 2.231114 0.155849 -0.010719 -438259.000000 0 0 1
-8.536409 18.646506 -17.007989 26.642713 -1.141473 2.263179 0.136807 -0.007937 -78908.700000 0 0 1
-7.609109 18.549506 -18.090589 27.004668 -1.181523 2.304878 0.121155 -0.013674 315952.000000 0 0 1
-6.912509 17.180906 -18.124989 25.912961 -1.188277 2.345433 0.080025 -0.008585 272717.000000 0 0 1
-7.806709 16.087406 -18.409289 25.664202 -1.119003 2.370736 0.089718 -0.021433 224756.000000 0 0 1
-7.548909 15.328406 -19.618089 26.015677 -1.113184 2.425059 0.081117 -0.028783 201543.000000 0 0 1
-6.249709 14.477806 -19.595889 25.152825 -1.163285 2.463982 0.048026 -0.017444 -42729.500000 0 0 1
-6.358309 13.336806 -18.763089 23.882043 -1.125922 2.474553 0.037329 -0.015048 -290464.000000 0 1 0
-5.138009 12.733706 -18.456189 23.003854 -1.187279 2.501949 0.035667 -0.005118 -384783.000000 0 1 0
-4.434209 13.320306 -17.240589 22.233548 -1.249444 2.458194 0.014113 0.007483 -406313.000000 0 1 0
-3.932309 14.597806 -17.434089 23.076101 -1.307666 2.427220 0.027334 -0.003220 -584128.000000 0 1 0
-3.513409 15.233306 -16.266289 22.560802 -1.344120 2.376038 0.032174 0.003011 125144.000000 0 1 0
-2.675009 16.543706 -16.509889 23.525014 -1.410490 2.348719 0.061118 -0.004931 331758.000000 0 1 0
-3.334809 17.615806 -17.117089 24.787745 -1.383703 2.333041 0.053170 -0.007340 38562.300000 0 1 0
-2.404909 18.697906 -17.075589 25.435625 -1.442879 2.306792 0.074720 -0.015269 432925.000000 0 0 1
-2.968809 20.069006 -17.533689 26.814344 -1.423931 2.283514 0.072457 -0.015949 262608.000000 0 0 1
-3.306309 20.140506 -18.943789 27.846702 -1.408085 2.318952 0.072000 -0.004801 -123097.000000 0 0 1
-3.710509 21.410706 -19.424989 29.146464 -1.399199 2.300248 0.103394 -0.017025 270552.000000 0 0 1
-2.535409 22.433306 -19.553489 29.866711 -1.458254 2.284571 0.089005 -0.040344 300357.000000 0 0 1
-1.478709 22.051106 -20.459189 30.116710 -1.503838 2.317646 0.121304 -0.035533 645830.000000 0 0 1
-0.304209 22.841306 -20.292389 30.554850 -1.557479 2.297126 0.123947 -0.046567 780255.000000 0 0 1
0.606991 22.364406 -19.097589 29.415183 1.543662 2.277384 0.116374 -0.044490 -464364.000000 0 0 1
0.022891 22.474506 -17.829889 28.688131 1.569778 2.241462 0.102918 -0.039558 -93991.600000 0 0 1
0.834191 21.753706 -16.859189 27.534557 1.532468 2.229753 0.117252 -0.042060 411102.000000 0 0 1
0.410191 21.849606 -15.371489 26.718087 1.552025 2.183793 0.111134 -0.040630 -50072.600000 0 0 1
-0.620209 20.970306 -14.990389 25.784688 -1.541229 2.191205 0.086280 -0.027818 -47502.500000 0 0 1
-0.542809 20.905006 -13.598489 24.944595 -1.544837 2.147362 0.107433 -0.026288 89807.000000 0 1 0
-1.590409 19.943406 -13.019189 23.869816 -1.491219 2.147692 0.067931 -0.020936 -263272.000000 0 1 0
-1.187009 18.545406 -13.122289 22.749407 -1.506878 2.185625 0.055526 -0.017911 -58233.400000 0 1 0
-2.056909 17.710406 -12.439689 21.740175 -1.455173 2.179980 0.049037 -0.016788 -385317.000000 0 1 0
-1.613209 16.249406 -12.649689 20.655756 -1.471843 2.229896 0.029494 -0.011349 -1237010.000000 0 1 0
-0.443509 15.967906 -11.955189 19.952375 -1.543028 2.213281 0.023797 -0.007664 -231194.000000 0 1 0
0.007691 14.595706 -12.017889 18.906727 1.570269 2.259635 0.022564 -0.004891 -33792.600000 0 1 0
0.641991 14.181206 -13.312489 19.461272 1.525557 2.324097 0.017102 0.001346 -758833.000000 0 1 0
-0.244509 13.801806 -14.325889 19.894238 -1.553082 2.374746 0.024191 -0.010328 -244617.000000 0 1 0
0.458391 13.117806 -15.312189 20.168046 1.535866 2.432926 0.023307 -0.005766 -17032.300000 0 1 0
-0.245709 12.940206 -16.732389 21.153774 -1.551811 2.483219 0.025195 0.004416 109080.000000 0 1 0
-0.164309 14.074606 -17.593889 22.531455 -1.559123 2.466836 0.034080 0.001558 -41265.300000 0 1 0
-0.680009 13.745106 -18.834389 23.326477 -1.521364 2.510571 0.031352 -0.009634 -7796.140000 0 1 0
-1.390109 14.996806 -19.457589 24.605576 -1.478367 2.482878 0.029588 -0.007874 -25361.300000 0 1 0
-0.500009 16.071906 -19.697989 25.427680 -1.539696 2.456985 0.051130 -0.012577 254283.000000 0 0 1
-1.147809 17.316606 -20.017489 26.493059 -1.504609 2.427328 0.068606 -0.025631 122371.000000 0 0 1
-0.048809 18.390406 -20.203089 27.319850 -1.568142 2.403127 0.098172 -0.034465 386069.000000 0 0 1
0.693791 18.068506 -21.392389 28.010472 1.532417 2.439865 0.145207 -0.049681 154079.000000 0 0 1
1.644291 19.106406 -21.622689 28.901542 1.484948 2.416066 0.142893 -0.047414 59548.700000 0 0 1
2.265591 19.009606 -22.988889 29.916334 1.452174 2.447195 0.152606 -0.055111 -193996.000000 0 0 1
3.188091 17.952206 -23.108289 29.435330 1.395041 2.473578 0.149850 -0.049389 -329294.000000 0 0 1
3.698491 17.897506 -24.415389 30.497717 1.367016 2.499033 0.143337 -0.057619 208308.000000 0 0 1
4.801691 16.864106 -24.675989 30.271418 1.293408 2.523798 0.129194 -0.049012 134846.000000 0 0 1
6.092791 17.080206 -24.112789 30.170882 1.228151 2.496772 0.119906 -0.037547 468379.000000 0 0 1
7.022391 16.058506 -24.443289 30.077632 1.158553 2.519522 0.112456 -0.035967 595035.000000 0 0 1
7.703191 16.183706 -25.881399 31.481714 1.126545 2.535902 0.116639 -0.048214 -845289.000000 0 0 1
8.865991 16.959406 -26.078309 32.346645 1.089093 2.508520 0.106722 -0.039003 44292.500000 0 0 1
9.313691 16.981906 -27.406649 33.559713 1.069146 2.526384 0.125961 -0.049851 37540.100000 0 0 1
9.912291 15.665006 -27.973439 33.558296 1.006632 2.556349 0.131908 -0.055727 -14929.500000 0 0 1
11.126591 15.232306 -27.341329 33.217050 0.939919 2.537665 0.139480 -0.048832 445439.000000 0 0 1
11.394691 13.899806 -27.637889 32.968113 0.884114 2.564994 0.120144 -0.044833 187800.000000 0 0 1
10.645391 12.790506 -26.744579 31.499109 0.876675 2.584996 0.107709 -0.037496 1165860.000000 0 0 1
9.223291 12.825606 -26.964769 31.251624 0.947346 2.611634 0.121908 -0.043651 656634.000000 0 0 1
8.602291 11.723406 -26.249159 30.007599 0.937763 2.635717 0.119807 -0.042258 -193986.000000 0 0 1
7.096791 11.950606 -26.187959 29.647776 1.034916 2.653657 0.107839 -0.042717 -1283420.000000 0 0 1
6.542391 12.840206 -25.231989 29.057306 1.099559 2.622667 0.131625 -0.040838 -1313180.000000 0 0 1
5.171591 12.830706 -25.225559 28.769796 1.187652 2.639977 0.133176 -0.052787 -691501.000000 0 0 1
4.384891 13.493606 -26.436799 30.003483 1.256600 2.649031 0.157599 -0.050323 -489818.000000 0 0 1
4.543291 12.901906 -27.685899 30.880571 1.232215 2.682709 0.162337 -0.065804 310688.000000 0 0 1
3.770191 13.658906 -28.619169 31.934885 1.301478 2.681863 0.158821 -0.080104 89612.500000 0 0 1
4.012591 13.239406 -30.071109 33.100670 1.276517 2.710415 0.201177 -0.074565 -970487.000000 0 0 1
5.219691 13.651406 -30.589869 33.902008 1.205593 2.695877 0.177915 -0.065650 -615804.000000 0 0 1
5.372691 13.165006 -31.870439 34.898539 1.183323 2.721942 0.173649 -0.065836 100221.000000 0 0 1
6.481791 12.048006 -32.016449 34.816965 1.077215 2.737767 0.177846 -0.059714 1285020.000000 0 0 1
7.860491 12.453806 -31.851159 35.091038 1.007771 2.708500 0.185907 -0.056941 1420640.000000 0 0 1
8.341791 12.551106 -30.474599 33.997307 0.984208 2.682337 0.169666 -0.054935 -101654.000000 0 0 1
8.558091 11.213106 -29.755809 32.929968 0.918887 2.698917 0.157311 -0.047971 138681.000000 0 0 1
9.655091 10.386606 -30.181229 33.346798 0.821882 2.702344 0.118329 -0.046123 361438.000000 0 0 1
9.531191 9.091906 -29.622049 32.418700 0.761814 2.723176 0.106889 -0.044291 -216135.000000 0 0 1
10.653991 8.103906 -29.921999 32.779671 0.650279 2.720938 0.078911 -0.030552 91288.900000 0 0 1
11.920191 8.328606 -29.329019 32.736035 0.609851 2.681305 0.073007 -0.029233 7738.970000 0 0 1
12.699691 7.185606 -29.292699 32.725789 0.514900 2.679441 0.050351 -0.019666 -1247220.000000 0 0 1
13.993091 7.303506 -28.506959 32.585188 0.481042 2.635910 0.054916 -0.008916 -386307.000000 0 0 1
14.653091 6.056306 -28.341999 32.475542 0.391930 2.631539 0.051816 -0.011317 -205428.000000 0 0 1
15.691391 5.849606 -29.236739 33.693093 0.356832 2.621427 0.052495 -0.010751 -1489260.000000 0 0 1
16.478191 4.588806 -28.948589 33.624525 0.271596 2.607905 0.066284 -0.020049 -215375.000000 0 0 1
17.194491 4.707306 -27.729399 32.965570 0.267221 2.570225 0.043220 -0.010207 235674.000000 0 0 1
18.011291 3.592806 -27.413349 32.997069 0.196891 2.551306 0.055388 -0.016660 260377.000000 0 0 1
18.802191 3.793806 -26.056489 32.355154 0.199101 2.507024 0.050440 -0.008942 -256330.000000 0 0 1
19.859391 4.689506 -26.199829 33.208702 0.231888 2.479886 0.078947 -0.014365 -138205.000000 0 0 1
20.500591 4.892806 -24.932589 32.647324 0.234284 2.439813 0.090208 -0.015440 320886.000000 0 0 1
21.617491 5.955506 -25.070689 33.635151 0.268826 2.411889 0.088622 -0.008525 -1136.240000 0 0 1
21.027491 7.202806 -25.299839 33.676663 0.330016 2.420761 0.093289 -0.006090 203152.000000 0 0 1
21.964691 8.078106 -25.865379 34.881532 0.352423 2.406130 0.096759 -0.023937 -614750.000000 0 0 1
22.078091 8.207406 -27.462149 36.179735 0.355913 2.432646 0.144857 -0.028505 1470490.000000 0 0 1
20.840991 8.622506 -28.142299 36.064990 0.392285 2.465977 0.120382 -0.024648 2006620.000000 0 0 1
19.793091 7.638306 -28.158379 35.256268 0.368299 2.495890 0.118730 -0.020709 482117.000000 0 0 1
18.402691 8.021206 -28.727359 35.046539 0.411043 2.531669 0.097123 -0.013721 51942.100000 0 0 1
18.425891 7.934006 -30.145209 36.210434 0.406596 2.554402 0.090383 -0.013207 426513.000000 0 0 1
17.427391 8.777106 -30.696819 36.373702 0.466554 2.575362 0.063345 -0.009615 -528864.000000 0 0 1
17.075991 8.582006 -32.204759 37.448455 0.465707 2.606018 0.041550 -0.004577 230369.000000 0 0 1
16.255691 7.409706 -32.448679 37.041436 0.427685 2.638323 0.045560 -0.002052 648724.000000 0 0 1
14.888891 7.758306 -32.369919 36.464805 0.480369 2.663128 0.044490 -0.013987 -693354.000000 0 0 1
13.897791 6.721306 -32.858009 36.303902 0.450461 2.702369 0.057810 -0.022366 -268389.000000 0 0 1
13.715091 5.658506 -31.920759 35.200245 0.391300 2.706506 0.054993 -0.019304 106129.000000 0 0 1
12.840191 4.609106 -32.282319 35.046576 0.344634 2.741760 0.052584 -0.023968 -86169.800000 0 0 1
12.708991 3.412506 -31.318419 33.970679 0.262324 2.743817 0.067469 -0.022692 -368954.000000 0 0 1
13.830091 2.595406 -31.140449 34.172139 0.185506 2.717183 0.073615 -0.030307 -215331.000000 0 0 1
13.666291 1.604406 -30.107329 33.102762 0.116864 2.712903 0.087957 -0.026237 -401166.000000 0 0 1
12.890991 0.382106 -30.591179 33.198552 0.029633 2.742622 0.098037 -0.027664 100438.000000 0 0 1
13.600691 -0.604294 -31.389619 34.214794 -0.044402 2.732365 0.100749 -0.029638 490189.000000 0 0 1
14.721491 -1.172394 -30.717009 34.082715 -0.079471 2.693440 0.118726 -0.029799 360083.000000 0 0 1
15.129191 -2.560694 -31.321449 34.878113 -0.167666 2.686058 0.127802 -0.031023 -3009.860000 0 0 1
14.203691 -3.560894 -30.979529 34.265960 -0.245639 2.700043 0.123476 -0.028263 113355.000000 0 0 1
14.433691 -4.699494 -31.726269 35.170624 -0.314767 2.695332 0.152272 -0.026999 458868.000000 0 0 1
13.471191 -5.922394 -31.398539 34.675870 -0.414200 2.703321 0.140713 -0.026346 194837.000000 0 0 1
13.784191 -6.495494 -30.163099 33.793607 -0.440366 2.673805 0.150808 -0.016248 314683.000000 0 0 1
13.220091 -7.821994 -30.067969 33.764436 -0.534276 2.669287 0.164351 -0.028309 22536.400000 0 0 1
13.583791 -8.584794 -28.818629 32.995931 -0.563609 2.632936 0.129000 -0.023290 858734.000000 0 0 1
15.014391 -8.756194 -28.642209 33.503418 -0.527965 2.596162 0.129509 -0.023670 1276600.000000 0 0 1
15.396991 -9.504294 -27.557859 32.967174 -0.553030 2.560600 0.129672 -0.033758 -276875.000000 0 0 1
15.162791 -11.086394 -27.745599 33.505770 -0.631333 2.546478 0.106530 -0.023655 -510389.000000 0 0 1
13.826991 -11.485294 -27.656189 32.984276 -0.693148 2.565258 0.084522 -0.028440 -437888.000000 0 0 1
13.731391 -12.874294 -27.792809 33.566930 -0.753195 2.546295 0.076019 -0.035486 -97732.800000 0 0 1
-9.749809 -3.311394 -17.687489 20.466347 0.327413 2.614400 0.026757 -0.012072 21271.200000 0 1 0
-10.607509 -2.921794 -18.737289 21.728832 0.268781 2.610637 0.050343 -0.021548 56534.700000 0 1 0
-11.596209 -3.842194 -19.145189 22.710631 0.319948 2.573643 0.067470 -0.026198 201355.000000 0 1 0
-12.617209 -3.357494 -20.196189 24.048966 0.260077 2.567701 0.100317 -0.045930 437259.000000 0 1 0
-13.500109 -2.342694 -19.679589 23.979729 0.171820 2.533390 0.115673 -0.040355 765408.000000 0 1 0
-14.533909 -1.928494 -20.585289 25.272668 0.131919 2.522711 0.116490 -0.035343 866057.000000 0 0 1
-15.364609 -0.695394 -20.029889 25.253737 0.045229 2.486753 0.125453 -0.032177 583393.000000 0 0 1
-14.733309 0.558206 -20.295289 25.085469 -0.037869 2.513323 0.127834 -0.038571 208579.000000 0 0 1
-15.663809 1.574606 -19.950189 25.413468 -0.100189 2.473532 0.131183 -0.038201 239232.000000 0 0 1
-15.503609 2.913806 -20.753689 26.068520 -0.185777 2.491654 0.170299 -0.046344 1036500.000000 0 0 1
-14.218509 3.543706 -20.517989 25.213324 -0.244256 2.521416 0.167572 -0.042399 1053450.000000 0 0 1
-14.081309 4.811906 -21.084789 25.807093 -0.329282 2.527012 0.180380 -0.047111 -451639.000000 0 0 1
-12.737809 5.459206 -20.761989 24.962269 -0.404901 2.553022 0.156702 -0.040691 -466315.000000 0 1 0
-12.599309 5.917406 -19.455589 23.922337 -0.439083 2.520566 0.148514 -0.049205 1272150.000000 0 1 0
-11.222509 6.275506 -19.179689 23.090846 -0.509871 2.551014 0.105041 -0.030260 939325.000000 0 1 0
-11.044109 6.878506 -17.738689 21.998802 -0.557031 2.508747 0.093498 -0.036712 -478062.000000 0 1 0
-11.598909 8.160106 -17.563389 22.574203 -0.613087 2.462319 0.108884 -0.049530 700731.000000 0 1 0
-12.869209 8.033106 -16.873489 22.690570 -0.558032 2.409286 0.136183 -0.045561 613787.000000 0 1 0
-13.622309 9.390006 -16.777889 23.563469 -0.603516 2.363181 0.154309 -0.050734 184577.000000 0 1 0
-12.918309 10.362906 -15.995689 23.024652 -0.676073 2.338827 0.100997 -0.042912 752749.000000 0 1 0
-13.560109 11.652506 -16.248989 24.159617 -0.709881 2.308470 0.115599 -0.040099 651211.000000 0 1 0
-12.774209 12.765206 -15.434489 23.756143 -0.785046 2.277993 0.119003 -0.034362 -102727.000000 0 1 0
-12.999709 12.816706 -14.048989 23.035505 -0.778310 2.226711 0.118537 -0.038779 22565.300000 0 1 0
-12.404809 14.006006 -13.509189 23.076951 -0.845951 2.196167 0.101826 -0.036820 -738494.000000 0 1 0
-12.976109 14.405806 -12.134289 22.872420 -0.837564 2.130011 0.080159 -0.044160 563171.000000 0 1 0
-14.297709 14.936206 -12.163189 23.988703 -0.807236 2.102541 0.076276 -0.035014 644848.000000 0 1 0
-15.320409 13.958606 -12.287689 24.094499 -0.738920 2.105957 0.076130 -0.031302 -1145740.000000 0 1 0
-16.705309 14.463306 -11.911589 25.102600 -0.713590 2.065211 0.035871 -0.014137 -799325.000000 0 0 1
-17.695509 13.487206 -12.011289 25.284517 -0.651252 2.065812 0.037390 -0.015911 294210.000000 0 0 1
-18.716609 13.633706 -11.003189 25.637074 -0.629552 2.014393 0.130939 -0.021761 708131.000000 0 0 1
-20.124909 13.148706 -11.442589 26.623923 -0.578730 2.015052 0.112662 -0.033942 2366.530000 0 0 1
-20.223809 11.749506 -11.421989 26.029121 -0.526312 2.025077 0.121934 -0.034649 150936.000000 0 0 1
-21.465409 11.170306 -11.739989 26.895480 -0.479823 2.022506 0.170172 -0.034985 -257991.000000 0 0 1
-21.633109 9.796006 -11.158289 26.238532 -0.425200 2.010049 0.153941 -0.032767 253511.000000 0 0 1
-20.760309 8.820506 -11.777089 25.445856 -0.401764 2.051981 0.118078 -0.037053 811107.000000 0 0 1
-21.089309 7.610906 -11.119289 25.026455 -0.346343 2.031191 0.092166 -0.030699 -371112.000000 0 0 1
-20.241609 6.361706 -11.418889 24.095333 -0.304513 2.064516 0.110385 -0.025691 -425160.000000 0 1 0
-20.394909 5.812606 -12.661489 24.699231 -0.277642 2.109038 0.126821 -0.032991 282085.000000 0 1 0
-19.535909 4.722406 -12.843389 23.851740 -0.237180 2.139414 0.148238 -0.034310 -410340.000000 0 1 0
-20.154109 3.670506 -13.771489 24.684299 -0.180148 2.162655 0.196272 -0.054168 30446.900000 0 1 0
-21.183309 2.952206 -13.097289 25.079615 -0.138473 2.120258 0.199747 -0.056281 426023.000000 0 0 1
-21.877009 2.173206 -14.023089 26.076299 -0.099013 2.138588 0.189750 -0.057405 203099.000000 0 0 1
-23.022909 1.230406 -13.496789 26.715755 -0.053392 2.100410 0.265202 -0.055304 -13437.600000 0 0 1
-23.884909 0.869906 -14.509289 27.960062 -0.036405 2.116394 0.167394 -0.043703 -195200.000000 0 0 1
-24.424409 -0.435794 -14.181889 28.246551 0.017841 2.096793 0.164553 -0.052988 -122699.000000 0 0 1
-25.726959 -0.767294 -14.977689 29.779126 0.029816 2.097816 0.132458 -0.037856 -407915.000000 0 0 1
-26.741499 -0.094094 -14.314389 30.331804 0.003519 2.062271 0.165079 -0.049449 -1022660.000000 0 0 1
-28.015049 -0.504194 -14.722489 31.651996 0.017995 2.054585 0.138027 -0.024918 -436991.000000 0 0 1
-29.122519 -0.007794 -13.793589 32.223970 0.000268 2.013134 0.143063 -0.020088 -419476.000000 0 0 1
-29.260909 -0.721994 -12.547689 31.845982 0.024669 1.975789 0.160424 -0.027329 -986055.000000 0 0 1
-30.360879 -0.244494 -11.908289 32.613649 0.008053 1.944571 0.193841 -0.027483 -935367.000000 0 0 1
-30.706659 -1.102394 -10.706389 32.538300 0.035885 1.906083 0.196882 -0.049342 -203100.000000 0 0 1
-31.100299 -2.473694 -10.919889 33.054375 0.079372 1.907483 0.224814 -0.038702 522067.000000 0 0 1
-30.094009 -3.335294 -11.441489 32.367904 0.110379 1.932088 0.212419 -0.038902 -78731.900000 0 0 1
-30.263839 -4.736894 -11.001489 32.547978 0.155260 1.915596 0.216726 -0.043833 -556704.000000 0 0 1
-31.096149 -5.519894 -11.772989 33.705237 0.175681 1.927612 0.209999 -0.040870 -308382.000000 0 0 1
-31.256309 -6.805494 -11.255889 33.911158 0.214386 1.909138 0.204110 -0.039248 649054.000000 0 0 1
-30.168219 -7.927794 -11.608289 33.282484 0.256976 1.927066 0.203547 -0.048660 1235840.000000 0 0 1
-28.848579 -7.678894 -11.118189 31.856240 0.260147 1.927312 0.146852 -0.045607 826353.000000 0 0 1
-27.965759 -8.649794 -11.705889 31.526663 0.299966 1.951206 0.141176 -0.050833 -653647.000000 0 0 1
-26.542619 -8.600694 -11.199689 30.065189 0.313357 1.952512 0.159696 -0.055169 -1004520.000000 0 0 1
-25.908099 -7.370294 -11.598689 29.327128 0.277157 1.977401 0.147827 -0.041908 884244.000000 0 0 1
-24.521009 -7.241794 -11.284889 27.947669 0.287167 1.986448 0.161245 -0.049777 384253.000000 0 0 1
-24.157609 -7.077794 -9.805089 27.015274 0.285008 1.942224 0.146087 -0.053048 -724649.000000 0 0 1
-24.552509 -5.876394 -9.145789 26.851502 0.234921 1.918358 0.154639 -0.043731 1372220.000000 0 0 1
-25.940269 -5.916594 -8.743489 28.006289 0.224249 1.888301 0.166932 -0.053708 675011.000000 0 0 1
-26.379879 -4.579494 -8.050189 27.958457 0.171885 1.862865 0.183690 -0.060016 -179692.000000 0 0 1
-25.802149 -4.388094 -6.763689 27.032457 0.168455 1.823690 0.173684 -0.057910 577587.000000 0 0 1
-26.058099 -3.035794 -6.240889 26.966447 0.115978 1.804345 0.229335 -0.064048 -51839.900000 0 0 1
-25.726699 -2.749094 -4.722089 26.300545 0.106454 1.751319 0.211094 -0.054741 -445060.000000 0 0 1
-24.350009 -2.695594 -4.511989 24.910785 0.110253 1.752928 0.146901 -0.047961 -343166.000000 0 1 0
-24.058709 -2.423094 -3.162589 24.386366 0.100377 1.700849 0.111227 -0.038366 -663879.000000 0 1 0
-22.710609 -2.948994 -2.725589 23.062896 0.129128 1.689254 0.097364 -0.026605 -754501.000000 0 1 0
-22.712809 -4.340994 -2.635989 23.273684 0.188848 1.684300 0.114674 -0.021710 655315.000000 0 1 0
-21.420409 -4.814494 -2.300589 22.075008 0.221088 1.675203 0.086749 -0.017320 -177203.000000 0 1 0
-21.479109 -6.348294 -2.476289 22.534085 0.287375 1.680910 0.099868 -0.014376 -215419.000000 0 1 0
-22.107609 -6.931594 -1.374789 23.209555 0.303831 1.630065 0.110794 -0.009448 400941.000000 0 1 0
-22.681909 -8.168494 -1.810089 24.175809 0.345673 1.645738 0.112487 -0.011104 149210.000000 0 1 0
-22.955509 -9.011194 -0.574189 24.667523 0.374068 1.594076 0.128908 -0.017877 257881.000000 0 1 0
-21.751609 -9.685394 -0.240989 23.811708 0.418916 1.580917 0.082292 -0.001147 463933.000000 0 1 0
-21.916509 -10.562094 0.852411 24.343743 0.449083 1.535774 0.054206 0.006307 296656.000000 0 1 0
-20.633509 -11.123294 1.563511 23.492849 0.494428 1.504194 0.064250 0.000086 138412.000000 0 1 0
-19.824009 -11.858794 0.677911 23.110212 0.539098 1.541458 0.056626 0.001271 -217244.000000 0 1 0
-18.849409 -12.552094 1.361111 22.687175 0.587482 1.510766 0.034876 -0.014524 -603758.000000 0 1 0
-18.357909 -13.714794 0.515511 22.921042 0.641629 1.548304 0.048478 -0.011478 -170123.000000 0 1 0
-19.385209 -14.686394 0.612811 24.328010 0.648353 1.545604 0.089707 -0.014590 511893.000000 0 1 0
-18.990409 -16.002694 0.289611 24.835574 0.700225 1.559135 0.095679 -0.024635 -526499.000000 0 1 0
-18.057709 -16.722794 1.248211 24.643270 0.747036 1.520123 0.100396 -0.017946 1521.740000 0 1 0
-16.722709 -16.235794 1.109411 23.334113 0.770626 1.523234 0.110574 -0.011552 660130.000000 0 1 0
-15.702509 -16.932594 1.812811 23.163934 0.823072 1.492456 0.115766 -0.008907 558467.000000 0 1 0
-15.626409 -16.661494 3.352711 23.087458 0.817445 1.425063 0.128001 -0.022826 -353236.000000 0 1 0
-15.328009 -15.295794 3.602511 21.951931 0.784346 1.405942 0.094812 -0.015056 137451.000000 0 1 0
-14.505409 -15.130894 4.764611 21.495404 0.806500 1.347283 0.077257 -0.018250 -71989.700000 0 1 0
-15.025509 -15.416894 6.172211 22.395150 0.798254 1.291578 0.109532 -0.021291 -516788.000000 0 1 0
-15.986009 -14.503094 6.713911 22.604620 0.736799 1.269231 0.097833 -0.018697 474305.000000 0 1 0
-16.244909 -14.602194 8.087211 23.292147 0.732195 1.216204 0.112493 -0.017245 55376.600000 0 1 0
-17.212109 -15.781994 8.497911 24.850403 0.742081 1.221792 0.105082 -0.013639 -297348.000000 0 1 0
-16.765909 -17.084594 8.257511 25.321247 0.794812 1.238611 0.115033 -0.015151 -328026.000000 0 0 1
-17.418309 -18.172394 8.865311 26.687584 0.806583 1.232173 0.131672 -0.028407 -249106.000000 0 0 1
-16.928909 -18.515094 10.295111 27.118001 0.830120 1.181388 0.143605 -0.023568 118353.000000 0 0 1
-15.594509 -18.973794 10.356411 26.654246 0.882845 1.171743 0.094284 -0.022086 -5183.270000 0 0 1
-15.170509 -19.278494 11.631911 27.149697 0.904086 1.128035 0.104823 -0.030164 -133023.000000 0 0 1
-13.896909 -20.132494 11.792411 27.156995 0.966629 1.121612 0.096057 -0.021619 622254.000000 0 0 1
-12.694209 -19.439894 11.418011 25.873218 0.992317 1.113743 0.088047 -0.027934 587391.000000 0 0 1
-11.577109 -20.312794 11.663311 26.127991 1.052772 1.108068 0.096554 -0.025756 1189340.000000 0 0 1
-10.309809 -19.535094 12.207411 25.237531 1.085189 1.065918 0.096489 -0.020898 746163.000000 0 0 1
-9.711309 -18.736794 11.225411 23.903699 1.092615 1.081948 0.085214 -0.027271 -650818.000000 0 1 0
-8.611209 -17.990694 11.606511 23.076592 1.124376 1.043781 0.075162 -0.022775 -522516.000000 0 1 0
-7.766809 -17.390094 10.482211 21.739721 1.150755 1.067668 0.052473 -0.018922 297281.000000 0 1 0
-6.633309 -18.227894 10.206411 21.918662 1.221784 1.086428 0.055237 -0.020755 261759.000000 0 1 0
-5.954409 -17.614694 9.115311 20.708002 1.244819 1.114994 0.046349 -0.009654 -104534.000000 0 1 0
-4.720109 -18.327294 8.550311 20.767209 1.318729 1.146454 0.041271 -0.016071 201199.000000 0 1 0
-3.556509 -18.273094 9.356211 20.834909 1.378569 1.105079 0.051261 -0.021686 242500.000000 0 1 0
-2.471009 -18.848794 8.647311 20.884418 1.440443 1.143891 0.056569 -0.017478 -408761.000000 0 1 0
-1.137909 -19.072394 9.317911 21.257341 1.511204 1.117047 0.062905 -0.022014 -682164.000000 0 1 0
-0.350009 -19.880294 8.466911 21.611043 1.553192 1.168224 0.070478 -0.010508 -95532.700000 0 1 0
0.952991 -19.999494 9.032111 21.965131 -1.523182 1.147024 0.086330 -0.027055 70985.400000 0 1 0
2.022091 -20.441194 8.032411 22.055632 -1.472195 1.198035 0.095842 -0.040181 -109918.000000 0 1 0
2.021591 -21.855394 7.689811 23.256790 -1.478560 1.233806 0.105891 -0.037933 -40498.400000 0 1 0
2.626391 -22.670094 8.701211 24.424213 -1.455458 1.206541 0.128792 -0.047679 30711.700000 0 1 0
2.752391 -24.186894 8.307011 25.721352 -1.457487 1.241939 0.141229 -0.054133 -4744.430000 0 0 1
2.586691 -25.009994 9.468011 26.866969 -1.467736 1.210658 0.148606 -0.061496 -29275.400000 0 0 1
2.372791 -26.295774 9.015711 27.899479 -1.480805 1.241740 0.153930 -0.061542 -897614.000000 0 0 1
2.152991 -27.298034 10.197211 29.219876 -1.492089 1.214312 0.177414 -0.068519 500560.000000 0 0 1
0.984691 -27.149694 11.003811 29.311421 -1.534543 1.185957 0.180582 -0.072442 130681.000000 0 0 1
-0.205609 -27.453744 10.320411 29.330210 1.563307 1.211229 0.171646 -0.062561 -331434.000000 0 0 1
-1.486809 -27.592204 11.186511 29.810709 1.516963 1.186128 0.167393 -0.063926 419418.000000 0 0 1
-1.496709 -28.661644 12.137511 31.161662 1.518624 1.170706 0.188641 -0.071186 -233076.000000 0 0 1
-1.216109 -28.163074 13.450311 31.233773 1.527642 1.125602 0.160251 -0.064585 114149.000000 0 0 1
-1.137009 -29.311444 14.526111 32.733186 1.532025 1.110992 0.140883 -0.056607 135954.000000 0 0 1
-1.299909 -28.770214 15.791211 32.844746 1.525645 1.069248 0.139561 -0.056289 -70162.900000 0 0 1
-0.996609 -29.716064 16.811111 34.156276 1.537271 1.056201 0.161464 -0.059452 -64071.900000 0 0 1
-1.372609 -29.283064 18.263011 34.538667 1.523957 1.013646 0.153329 -0.054600 64846.700000 0 0 1
-2.784909 -29.370684 18.428911 34.785307 1.476260 1.012443 0.141027 -0.053315 345004.000000 0 0 1
-3.163809 -29.204794 19.764411 35.405673 1.462885 0.978549 0.139959 -0.052227 -372707.000000 0 0 1
-4.631309 -29.322984 20.174311 35.892747 1.414149 0.973907 0.155900 -0.048768 -426221.000000 0 0 1
-5.462809 -28.342414 19.595711 34.887342 1.380388 0.974375 0.126968 -0.048254 663389.000000 0 0 1
-6.585609 -27.897914 20.386111 35.174670 1.338979 0.952598 0.131202 -0.048811 694282.000000 0 0 1
-6.217309 -26.916984 21.552911 35.038649 1.343797 0.908260 0.176746 -0.057997 -504818.000000 0 0 1
-5.477809 -27.507414 22.602611 36.021414 1.374228 0.892488 0.205332 -0.059449 93236.800000 0 0 1
-5.276509 -26.583864 23.648711 35.969500 1.374858 0.853346 0.219562 -0.065448 -367212.000000 0 0 1
-4.256709 -27.101494 24.691311 36.908961 1.415004 0.837962 0.260092 -0.061837 -6908.980000 0 0 1
-4.572209 -28.217694 25.526611 38.324291 1.410159 0.841871 0.246303 -0.055923 150177.000000 0 0 1
-3.748409 -29.301344 25.108411 38.769210 1.443561 0.866316 0.238843 -0.049498 294107.000000 0 0 1
-3.957109 -30.506094 25.969211 40.257675 1.441801 0.869675 0.225346 -0.033823 -22807.500000 0 0 1
-3.376709 -30.382464 27.234711 40.941737 1.460111 0.843026 0.226506 -0.049554 -63647.300000 0 0 1
-3.611609 -31.445894 28.133611 42.348413 1.456446 0.844190 0.209266 -0.054751 -297716.000000 0 0 1
-2.818009 -31.190024 29.444011 42.984981 1.480691 0.816215 0.236937 -0.048848 -177893.000000 0 0 1
-1.473809 -31.564354 29.269011 43.071517 1.524138 0.823655 0.231028 -0.046391 -164904.000000 0 0 1
-0.780309 -31.317164 30.487211 43.713198 1.545885 0.798981 0.225475 -0.054147 -160226.000000 0 0 1
-29.590369 3.017206 -9.701989 31.286132 -0.101615 1.886100 0.222883 -0.045760 138650.000000 0 0 1
-30.566649 2.659706 -10.661389 32.481676 -0.086795 1.905223 0.192485 -0.051048 -150711.000000 0 0 1
-31.281579 3.773606 -11.070489 33.396602 -0.120053 1.908674 0.170593 -0.044225 -151.231000 0 0 1
-32.058359 3.607206 -12.422089 34.569620 -0.112049 1.938352 0.173448 -0.038622 767198.000000 0 0 1
-33.230519 2.788706 -12.232089 35.519970 -0.083724 1.922366 0.181571 -0.040315 616932.000000 0 0 1
-33.979161 2.675306 -13.438789 36.637982 -0.078572 1.946363 0.178358 -0.027311 256592.000000 0 0 1
-35.317732 1.937306 -13.169689 37.743027 -0.054799 1.927226 0.155723 -0.028274 72216.500000 0 0 1
-35.087839 0.620806 -12.826889 37.364033 -0.017691 1.921219 0.167612 -0.020075 -29127.800000 0 0 1
-36.250799 -0.177594 -12.838989 38.457660 0.004899 1.911179 0.165561 -0.025620 -29742.100000 0 0 1
-36.029459 -1.606794 -12.354089 38.122529 0.044567 1.900817 0.179077 -0.033051 513.670000 0 0 1
-35.440550 -2.469294 -13.276889 37.926320 0.069562 1.928443 0.172999 -0.026472 87923.200000 0 0 1
-35.147572 -3.791094 -12.808189 37.600185 0.107447 1.918396 0.186344 -0.037763 175886.000000 0 0 1
-35.116250 -4.869194 -13.913089 38.084565 0.137781 1.944774 0.195995 -0.038427 54842.800000 0 0 1
-34.850604 -6.133194 -13.344089 37.818585 0.174202 1.931406 0.201646 -0.046892 -14182.900000 0 0 1
-35.410690 -7.153994 -14.087989 38.775869 0.199346 1.942624 0.196078 -0.041832 -670413.000000 0 0 1
-35.158376 -8.590494 -13.513489 38.633177 0.239642 1.928143 0.177912 -0.048976 227071.000000 0 0 1
-33.839539 -9.120294 -13.389689 37.517702 0.263261 1.935733 0.163317 -0.047463 311315.000000 0 0 1
-33.196039 -9.339294 -14.602089 37.448904 0.274249 1.971341 0.159510 -0.049427 -1263730.000000 0 0 1
-31.896059 -10.067094 -14.350189 36.395507 0.305726 1.976086 0.133307 -0.044822 -846289.000000 0 0 1
-32.195449 -11.353894 -13.827789 36.832942 0.339038 1.955645 0.114129 -0.038621 145600.000000 0 0 1
-31.074779 -12.194994 -13.719789 36.091445 0.373972 1.960744 0.118865 -0.039543 -386911.000000 0 0 1
-31.269659 -13.563794 -14.427589 37.012477 0.409274 1.971214 0.118669 -0.032648 -143182.000000 0 0 1
-31.256899 -13.417494 -15.819989 37.513930 0.405478 2.006126 0.126067 -0.050112 113731.000000 0 0 1
-31.576929 -14.654994 -16.463589 38.508714 0.434521 2.012554 0.137095 -0.053814 171122.000000 0 0 1
-30.768799 -16.019294 -16.127389 38.254797 0.480019 2.005981 0.118589 -0.036147 457042.000000 0 0 1
-29.384059 -15.776794 -16.293189 37.118704 0.492743 2.025224 0.135066 -0.043939 -282897.000000 0 0 1
-28.718829 -17.041894 -16.201089 37.117012 0.535556 2.022487 0.137088 -0.042386 676908.000000 0 0 1
-27.174429 -16.890394 -16.378389 35.944216 0.556118 2.043911 0.154919 -0.061436 515039.000000 0 0 1
-26.872929 -16.248294 -17.594689 35.996312 0.543820 2.081500 0.156826 -0.052192 1029410.000000 0 0 1
-25.425029 -16.163094 -17.696089 34.940368 0.566268 2.101877 0.115622 -0.035855 1147650.000000 0 0 1
-25.223649 -15.480094 -19.092289 35.219047 0.550442 2.143732 0.128775 -0.022499 -57119.900000 0 0 1
-25.680489 -16.259894 -20.188189 36.488829 0.564447 2.157082 0.129383 -0.038204 -313701.000000 0 0 1
-27.014559 -15.979494 -20.520789 37.499779 0.534157 2.149841 0.136437 -0.042624 -245267.000000 0 0 1
-27.626099 -17.225894 -21.272689 38.890360 0.557547 2.149562 0.153840 -0.049020 38262.900000 0 0 1
-27.143869 -17.292094 -22.633489 39.345660 0.567220 2.183703 0.144447 -0.025554 240181.000000 0 0 1
-27.793519 -18.306594 -23.388889 40.677404 0.582442 2.183382 0.148212 -0.024244 -201501.000000 0 0 1
-27.128799 -18.666994 -24.721089 41.177186 0.602686 2.214746 0.121230 -0.024025 1172070.000000 0 0 1
-25.792219 -19.223794 -24.591089 40.490919 0.640508 2.223484 0.113198 -0.027368 982293.000000 0 0 1
-25.729429 -20.602394 -24.386989 41.002285 0.675188 2.207778 0.100002 -0.031264 -1836040.000000 0 0 1
-24.372509 -21.172494 -24.164589 40.326431 0.715253 2.213329 0.086723 -0.011649 -1122260.000000 0 0 1
-23.610509 -21.106494 -25.324409 40.549549 0.729460 2.245326 0.096369 -0.019619 -349604.000000 0 0 1
-22.209109 -21.156594 -25.165729 39.675684 0.761132 2.257881 0.073065 -0.024267 64897.500000 0 0 1
-21.440509 -20.993994 -26.451749 40.001728 0.774876 2.293300 0.061159 -0.027772 -418571.000000 0 0 1
-21.635909 -22.080194 -27.353019 41.277539 0.795561 2.295163 0.092137 -0.019498 -42952.400000 0 0 1
-22.440209 -21.925094 -28.549149 42.418471 0.773788 2.309102 0.115098 -0.021777 177513.000000 0 0 1
-21.715609 -21.920294 -29.922339 42.981547 0.790089 2.340841 0.107815 -0.030199 -16916.800000 0 0 1
-21.193309 -23.167494 -30.319419 43.648096 0.829872 2.338706 0.103939 -0.034794 102699.000000 0 0 1
-20.641709 -23.111894 -31.635189 44.283462 0.841795 2.366533 0.099437 -0.031159 233444.000000 0 0 1
-20.097609 -24.498094 -32.084149 45.093937 0.883755 2.362421 0.118512 -0.029100 313628.000000 0 0 1
-19.340909 -24.470694 -33.301309 45.627435 0.901955 2.388903 0.111745 -0.030156 384639.000000 0 0 1
-20.155809 -24.476294 32.837324 45.646856 0.881900 0.767891 0.111884 -0.025448 -181777.000000 0 0 1
-19.319609 -24.324794 31.551333 44.276738 0.899580 0.777608 0.110328 -0.030825 -199739.000000 0 0 1
-18.841409 -23.057894 31.208771 43.135282 0.885694 0.761924 0.099084 -0.031349 -265881.000000 0 0 1
-18.225509 -23.140194 29.928651 41.992403 0.903654 0.777434 0.093777 -0.028593 260934.000000 0 0 1
-17.205309 -21.992494 29.720341 40.779788 0.906925 0.754227 0.063922 -0.022916 101015.000000 0 0 1
-17.916009 -20.769994 29.579981 40.340443 0.859038 0.747694 0.057113 -0.024736 197318.000000 0 0 1
-17.113409 -19.594294 29.413231 39.267586 0.852880 0.724175 0.064156 -0.028257 -42849.800000 0 0 1
-16.651309 -18.959594 30.718981 39.754095 0.850127 0.687673 0.076734 -0.034285 67020.500000 0 0 1
-16.177109 -17.665194 30.405541 38.707297 0.829341 0.667253 0.085503 -0.038860 -271871.000000 0 0 1
-15.584009 -17.036494 31.487510 39.045701 0.829896 0.632712 0.088357 -0.039122 -133903.000000 0 0 1
-15.040709 -15.623494 31.197911 37.995081 0.804401 0.607454 0.103263 -0.033339 8679.010000 0 0 1
-13.844509 -15.597394 30.411191 36.875326 0.844865 0.601120 0.133344 -0.043518 484075.000000 0 0 1
-13.507809 -14.282294 29.986081 35.855402 0.813260 0.580286 0.110697 -0.039513 1166360.000000 0 0 1
-11.948109 -14.235394 29.702641 35.037846 0.872533 0.559105 0.132171 -0.047428 1256330.000000 0 0 1
-11.434509 -12.945294 29.457581 34.147880 0.847288 0.530316 0.147017 -0.048458 -16263.600000 0 0 1
-10.071709 -12.816994 29.797891 33.965114 0.904769 0.500571 0.139825 -0.045622 154835.000000 0 0 1
-9.574909 -11.355294 29.846071 33.337809 0.870257 0.461778 0.120508 -0.028952 31768.300000 0 0 1
-10.248509 -10.587294 30.843721 34.182713 0.801656 0.445676 0.120280 -0.023325 249765.000000 0 0 1
-9.840109 -9.256294 30.802441 33.634760 0.754836 0.413321 0.085504 -0.008864 -265557.000000 0 0 1
-10.643809 -8.343794 31.733324 34.495122 0.664853 0.402878 0.079118 -0.014659 337774.000000 0 0 1
-11.992009 -8.116094 31.312799 34.498850 0.594980 0.433151 0.095564 -0.022581 657324.000000 0 0 1
-12.884909 -7.529294 32.246019 35.531914 0.528833 0.433449 0.073847 -0.023030 83573.800000 0 0 1
-12.635509 -6.079494 32.784804 35.657534 0.448449 0.404154 0.056865 -0.012326 -446816.000000 0 0 1
-12.699109 -5.029594 31.801748 34.610914 0.377104 0.405676 0.076622 -0.021696 332640.000000 0 0 1
-12.909609 -3.777094 32.410462 35.090775 0.284636 0.393383 0.079764 -0.029092 -302449.000000 0 0 1
-12.346309 -2.578594 31.563134 33.989880 0.205896 0.380164 0.078627 -0.023280 -113683.000000 0 0 1
-10.945909 -2.458594 31.594869 33.527501 0.220946 0.341191 0.077936 -0.020087 26124.000000 0 0 1
-10.465909 -1.482694 30.621251 32.394361 0.140732 0.332391 0.080411 -0.011019 -544468.000000 0 0 1
-8.978809 -1.193294 30.648571 31.959003 0.132127 0.287356 0.081484 -0.012319 -469860.000000 0 0 1
-8.545409 -0.497094 31.848805 32.979046 0.058105 0.262561 0.088199 -0.028461 1875330.000000 0 0 1
-7.117209 -0.168994 31.945078 32.728752 0.023740 0.219275 0.121749 -0.025927 1838650.000000 0 0 1
-6.792909 0.402006 33.357881 34.044874 -0.059111 0.201233 0.147015 -0.045253 -249285.000000 0 0 1
-7.361509 1.659106 -33.570109 34.407799 -0.221672 2.920480 0.147703 -0.036290 463672.000000 0 0 1
-6.690109 2.776106 33.100707 33.883936 -0.393333 0.215428 0.166214 -0.039971 902195.000000 0 0 1
-7.613209 4.045906 33.275941 34.374679 -0.488476 0.253517 0.161417 -0.046434 816349.000000 0 0 1
-8.843809 4.001606 32.575467 33.990982 -0.424911 0.289607 0.106694 -0.025238 491683.000000 0 0 1
-9.693209 5.092906 32.914043 34.687609 -0.483768 0.321159 0.093114 -0.013724 196775.000000 0 0 1
-10.935209 5.245906 32.010684 34.231304 -0.447297 0.362173 0.074218 0.001121 44955.600000 0 0 1
-11.879809 6.168706 32.488212 35.137824 -0.478936 0.390829 0.078518 -0.000078 -128353.000000 0 0 1
-12.900109 6.370206 31.561379 34.685919 -0.458684 0.427707 0.054004 0.003873 91186.700000 0 0 1
-13.826109 7.621606 31.741449 35.450948 -0.503800 0.461552 0.071944 -0.011679 436659.000000 0 0 1
-14.472409 7.702406 33.020416 36.866320 -0.489085 0.460839 0.065708 -0.014626 304755.000000 0 0 1
-15.218609 8.907206 33.038537 37.449824 -0.529528 0.490265 0.067432 -0.005541 209444.000000 0 0 1
-16.020909 9.207806 -32.937919 37.767178 -0.521636 2.630337 0.053274 0.003211 1070550.000000 0 0 1
-15.241609 9.376006 -31.693799 36.396607 -0.551491 2.627603 0.054981 -0.000414 996896.000000 0 0 1
-16.125909 10.070706 -30.784869 36.182485 -0.558243 2.588345 0.068882 -0.007573 134483.000000 0 0 1
-15.354109 10.549406 -29.449849 34.847270 -0.601998 2.577571 0.088986 -0.008249 844674.000000 0 0 1
-14.428109 11.624206 -29.520579 34.853365 -0.678185 2.581101 0.096739 -0.014269 355535.000000 0 0 1
-13.288609 11.245106 -30.288669 34.934839 -0.702296 2.619956 0.090412 -0.026600 -361407.000000 0 0 1
-12.321509 12.397806 -30.731169 35.354348 -0.788485 2.624445 0.094854 -0.025742 322589.000000 0 0 1
-12.859709 13.249806 -31.781739 36.756066 -0.800338 2.615282 0.093106 -0.026596 207574.000000 0 0 1
-12.204309 14.505406 -31.870369 37.081968 -0.871338 2.605003 0.089617 -0.038282 -154968.000000 0 0 1
-12.342009 15.595806 -30.744839 36.616929 -0.901341 2.567406 0.104197 -0.038591 207523.000000 0 0 1
-13.561209 16.313906 -30.883729 37.468048 -0.877279 2.539705 0.101533 -0.034147 341419.000000 0 0 1
-13.785009 17.251106 -29.840209 37.122300 -0.896617 2.504511 0.095597 -0.026846 -667039.000000 0 0 1
-15.240409 17.703006 -29.776439 37.845776 -0.860012 2.476377 0.079952 -0.033670 -800269.000000 0 0 1
-15.662609 18.345406 -30.965819 39.252429 -0.864122 2.479796 0.075219 -0.034632 1449210.000000 0 0 1
-17.065809 18.753606 -30.946829 40.008071 -0.832483 2.455164 0.063696 -0.032533 1629650.000000 0 0 1
-17.412909 20.017806 -30.165929 40.173439 -0.854879 2.420209 0.039569 -0.024351 -443197.000000 0 0 1
-16.933409 21.249006 -30.732269 41.021128 -0.897946 2.417622 0.040558 -0.020564 373272.000000 0 0 1
-17.406809 22.360406 -29.989699 41.259748 -0.909325 2.384522 0.025454 -0.014029 644478.000000 0 0 1
-18.754809 22.983706 -30.534119 42.571422 -0.886372 2.370636 0.031237 -0.012269 1298350.000000 0 0 1
-19.922809 22.362506 -29.969729 42.369619 -0.843030 2.356524 0.042396 -0.020309 442746.000000 0 0 1
-20.797809 21.913506 -30.972999 43.267508 -0.811514 2.368635 0.080617 -0.023756 -24972.400000 0 0 1
-22.152809 21.371706 -30.342189 43.222045 -0.767454 2.349008 0.092277 -0.031853 500083.000000 0 0 1
-22.957009 22.384506 -29.787569 43.765164 -0.772772 2.319409 0.140230 -0.034596 331932.000000 0 0 1
-23.635109 23.297206 -30.675539 45.192553 -0.778198 2.316888 0.139841 -0.034201 -459116.000000 0 0 1
-25.005379 22.769506 -31.149819 45.978588 -0.738632 2.315135 0.148087 -0.044720 -571450.000000 0 0 1
-25.060079 21.820106 -32.201249 46.271428 -0.716396 2.340498 0.137917 -0.041657 454031.000000 0 0 1
-26.397349 21.715106 -32.667999 47.281751 -0.688385 2.333560 0.138538 -0.035158 203853.000000 0 0 1
-26.539899 20.726506 33.439891 47.457145 -0.663021 0.788890 0.118875 -0.022800 -15732.800000 0 0 1
-26.137269 19.388006 -33.605639 46.780237 -0.638217 2.372256 0.110292 -0.023496 319049.000000 0 0 1
-26.084529 18.711506 32.468682 45.658936 -0.622270 0.779716 0.086866 -0.028777 -782410.000000 0 0 1
-25.893629 17.180906 32.299376 44.820902 -0.585820 0.766083 0.082962 -0.004438 -281282.000000 0 0 1
-26.847999 16.282406 32.824998 45.424798 -0.545161 0.763207 0.078070 -0.005032 189392.000000 0 0 1
-26.748739 15.035106 32.168503 44.456293 -0.512075 0.761795 0.072892 -0.007320 -839123.000000 0 0 1
-27.582699 13.883206 32.679451 44.961041 -0.466308 0.757088 0.051091 0.003189 355266.000000 0 0 1
-28.996759 14.164806 32.748797 45.977575 -0.454402 0.778059 0.050794 0.005826 942664.000000 0 0 1
-29.913469 13.129906 32.535388 46.105981 -0.413610 0.787435 0.049084 0.013801 -34081.600000 0 0 1
-29.976179 12.003006 33.598911 46.599681 -0.380867 0.765535 0.048411 0.003758 -658551.000000 0 0 1
-28.809359 11.227306 -33.617529 45.674608 -0.371605 2.397972 0.045364 -0.008224 -110714.000000 0 0 1
-29.103109 9.886906 -33.296969 45.314788 -0.327487 2.396157 0.071756 -0.005957 -448827.000000 0 0 1
-27.805569 9.069206 -33.283189 44.307684 -0.315285 2.420649 0.070702 -0.017769 -72938.700000 0 0 1
-27.104669 8.848006 32.833536 43.485531 -0.315532 0.715073 0.066176 -0.012609 666722.000000 0 0 1
-26.060099 9.808406 32.554024 42.838044 -0.359977 0.707587 0.058755 -0.009027 472511.000000 0 0 1
-24.867409 9.124206 31.814776 41.398299 -0.351663 0.694296 0.057465 -0.011937 -71912.600000 0 0 1
-25.016019 8.968806 30.409551 40.385412 -0.344247 0.718212 0.058465 -0.014710 796830.000000 0 0 1
-23.861509 8.470606 29.699901 39.028283 -0.341114 0.705968 0.077652 -0.018580 837166.000000 0 0 1
-24.198909 8.527306 28.182841 38.112657 -0.338797 0.738526 0.110120 -0.023684 -36185.000000 0 0 1
-24.416209 9.834806 27.716131 38.223796 -0.382916 0.759615 0.069589 -0.014248 319366.000000 0 0 1
-24.448109 9.903506 26.290291 37.242031 -0.384880 0.787060 0.074831 -0.016066 -712625.000000 0 0 1
-24.650609 11.342706 25.743241 37.403529 -0.431253 0.811713 0.069687 -0.014780 763775.000000 0 0 1
-25.886819 11.998506 26.085951 38.659648 -0.434023 0.830158 0.065691 -0.006943 873338.000000 0 0 1
-26.959869 11.566006 25.251631 38.707259 -0.405261 0.860083 0.070097 -0.010824 -517194.000000 0 0 1
-28.266059 12.291606 25.541081 40.029995 -0.410187 0.878835 0.065450 -0.005881 -561327.000000 0 0 1
-28.240849 13.656706 25.158901 40.212205 -0.450425 0.894828 0.073531 -0.005329 690919.000000 0 0 1
-29.492879 14.353306 25.330561 41.442546 -0.452927 0.913194 0.063337 -0.013570 776077.000000 0 0 1
-29.387839 15.730006 24.724981 41.501841 -0.491453 0.932589 0.078105 -0.018927 -74578.600000 0 0 1
-28.665319 16.678806 25.450921 41.804694 -0.526964 0.916243 0.086608 -0.023461 10733.000000 0 0 1
-28.451739 17.793606 24.590531 41.602981 -0.558884 0.938404 0.073684 -0.027510 -108591.000000 0 0 1
-23.875409 -9.082594 30.838601 40.044325 0.363511 0.691780 0.080049 -0.031769 -465201.000000 0 0 1
-22.808309 -8.654794 30.052581 38.707648 0.362673 0.681864 0.085613 -0.029870 -291582.000000 0 0 1
-23.101909 -8.967094 28.713771 37.928718 0.370253 0.712017 0.081576 -0.024227 663106.000000 0 0 1
-21.937409 -8.527694 27.754571 36.390764 0.370752 0.703347 0.119001 -0.035646 229120.000000 0 0 1
-21.646409 -7.146094 27.679421 35.857831 0.318863 0.688939 0.128423 -0.037978 1427860.000000 0 0 1
-20.372109 -6.769394 28.291201 35.513935 0.320809 0.649109 0.114927 -0.036919 964270.000000 0 0 1
-19.014609 -7.003294 27.629601 34.263630 0.352894 0.632786 0.111173 -0.024894 -611874.000000 0 0 1
-18.552409 -8.376894 27.535041 34.242411 0.424122 0.636601 0.111268 -0.031063 187511.000000 0 0 1
-18.125209 -9.004194 28.728881 35.141817 0.461066 0.613718 0.098079 -0.028416 -228461.000000 0 0 1
-16.771609 -8.478694 29.319021 34.824993 0.468069 0.570009 0.096539 -0.022853 -304037.000000 0 0 1
-15.711509 -9.169894 28.751421 34.023267 0.528305 0.564134 0.084599 -0.018091 -1633650.000000 0 0 1
-14.469509 -8.736994 29.177961 33.720249 0.543224 0.525058 0.100058 -0.030263 -894378.000000 0 0 1
-13.368809 -9.722694 28.855471 33.254985 0.628793 0.520233 0.107143 -0.026401 -541552.000000 0 0 1
-13.076109 -9.704894 27.436211 31.904784 0.638481 0.535644 0.105937 -0.019295 496395.000000 0 0 1
-11.963609 -10.581194 27.150641 31.499951 0.724156 0.531739 0.133670 -0.029515 765735.000000 0 0 1
-11.356109 -10.263794 25.697601 29.911091 0.734918 0.537224 0.116540 -0.026732 -32461.900000 0 0 1
-12.155509 -10.781694 24.699001 29.564201 0.725575 0.581871 0.094728 -0.032649 -517974.000000 0 0 1
-11.588109 -10.621394 23.433011 28.217092 0.741899 0.590873 0.088276 -0.038076 408118.000000 0 0 1
-12.554109 -11.045794 22.264311 27.844475 0.721573 0.644175 0.098906 -0.052409 -333471.000000 0 0 1
-12.830509 -12.410094 22.179211 28.470156 0.768743 0.677673 0.095551 -0.046544 255647.000000 0 0 1
-14.053609 -12.806094 21.581811 28.762381 0.738986 0.722207 0.099905 -0.043179 595943.000000 0 0 1
-15.298209 -12.497094 22.489211 29.932878 0.684961 0.720734 0.103662 -0.040185 -912718.000000 0 0 1
-16.513209 -12.979494 22.050711 30.453033 0.666150 0.761083 0.077270 -0.025924 -286385.000000 0 0 1
-17.576809 -12.816294 22.985201 31.646818 0.630029 0.757867 0.070285 -0.017420 830891.000000 0 0 1
-18.939109 -13.449794 22.545981 32.371408 0.617512 0.800318 0.096439 -0.022861 53056.400000 0 0 1
-18.894009 -14.904094 22.570721 32.993227 0.667891 0.817425 0.088800 -0.028433 1238770.000000 0 0 1
-20.224209 -15.487894 22.577491 34.038751 0.653543 0.845593 0.081511 -0.020813 1236730.000000 0 0 1
-21.007409 -15.359194 23.904071 35.335827 0.631316 0.827820 0.083400 -0.021571 -451753.000000 0 0 1
-20.484709 -16.086094 24.993091 36.097650 0.665696 0.806022 0.070174 -0.017882 -277780.000000 0 0 1
-21.463909 -16.300894 25.954941 37.417610 0.649526 0.804244 0.065227 -0.024233 -527899.000000 0 0 1
-21.092609 -17.171794 27.186011 38.455791 0.683288 0.785631 0.063043 -0.025491 -198388.000000 0 0 1
-21.153509 -18.544294 26.936321 38.947749 0.719766 0.807092 0.069372 -0.017855 130543.000000 0 0 1
-20.707209 -19.287994 28.050981 39.845612 0.749928 0.789794 0.060250 -0.025900 -162400.000000 0 0 1
-20.802709 -20.842994 27.803411 40.499540 0.786365 0.814116 0.065458 -0.014768 641284.000000 0 0 1
-22.134309 -21.294894 27.507411 41.231757 0.766072 0.840432 0.073316 -0.014256 522087.000000 0 0 1
-22.103709 -22.426694 26.661121 41.259495 0.792651 0.868226 0.083393 -0.010685 -409090.000000 0 0 1
-23.507609 -22.950894 26.388611 42.139174 0.773416 0.894094 0.087301 -0.003255 -417871.000000 0 0 1
-24.144109 -23.374794 27.571511 43.468462 0.769210 0.883710 0.076947 -0.008296 246003.000000 0 0 1
-25.462679 -23.842694 27.290711 44.290010 0.752554 0.906910 0.056462 -0.002809 562231.000000 0 0 1
-26.025509 -24.898194 28.291881 45.800412 0.763264 0.904955 0.039865 -0.003843 -61540.500000 0 0 1
-26.698139 -24.320994 29.382881 46.558083 0.738839 0.887824 0.033422 0.006492 192157.000000 0 0 1
-27.417079 -25.308114 30.115441 47.949313 0.745420 0.891728 0.022428 0.016373 610645.000000 0 0 1
-28.673599 -24.803094 30.900191 48.910025 0.713147 0.886954 0.035411 0.007547 432563.000000 0 0 1
-29.715539 -24.353394 30.066621 48.786297 0.686549 0.906770 0.041314 0.002102 -267069.000000 0 0 1
-30.777039 -23.802694 30.795961 49.620415 0.658304 0.901249 0.059494 -0.012895 -567987.000000 0 0 1
-31.931419 -23.393394 29.874681 49.591965 0.632281 0.924280 0.063858 -0.017446 -260290.000000 0 0 1
-32.848089 -24.470394 29.713841 50.603453 0.640265 0.943213 0.061584 -0.021762 274664.000000 0 0 1
-33.840159 -24.246494 28.723521 50.577559 0.621715 0.966831 0.064099 -0.025272 904539.000000 0 0 1
-35.305498 -24.590694 29.149451 51.969904 0.608381 0.975335 0.071120 -0.019686 486343.000000 0 0 1
-35.308704 -25.924494 29.510071 52.816932 0.633328 0.977950 0.074974 -0.027730 367194.000000 0 0 1
-36.452739 -26.306494 30.278791 54.199991 0.625116 0.978040 0.072254 -0.023810 416982.000000 0 0 1
-36.490449 -27.861084 30.519911 55.129464 0.652096 0.984110 0.074193 -0.031911 -281340.000000 0 0 1
-35.374019 -28.315524 31.219423 55.024926 0.675022 0.967489 0.059945 -0.028994 -406665.000000 0 0 1
-35.319298 -29.693244 31.405238 55.816042 0.699075 0.973201 0.065329 -0.037611 -114467.000000 0 0 1
-34.182261 -30.148484 32.322026 55.875499 0.722776 0.953951 0.061078 -0.031099 -81425.600000 0 0 1
-34.587695 -29.855004 -33.644119 56.741137 0.712089 2.205502 0.058561 -0.026781 -188783.000000 0 0 1
-33.636859 -30.172584 -32.670589 55.760116 0.731160 2.196803 0.053750 -0.028424 -324238.000000 0 0 1
-34.055454 -29.689414 -31.263799 54.942337 0.717013 2.176121 0.063621 -0.035735 -89240.600000 0 0 1
-33.953784 -28.307054 -30.897619 53.933400 0.694951 2.180817 0.051798 -0.026519 90551.900000 0 0 1
-32.626259 -27.821884 -30.746729 52.762594 0.706086 2.192889 0.060811 -0.022570 85997.900000 0 0 1
-32.633479 -26.279104 -30.625359 51.898438 0.677952 2.201981 0.051423 -0.017710 98139.500000 0 0 1
-33.407389 -25.845534 -29.498169 51.518805 0.658464 2.180435 0.044475 -0.023900 146405.000000 0 0 1
-33.504589 -24.473294 -29.462419 50.887462 0.630869 2.188264 0.050419 -0.014318 502772.000000 0 0 1
-32.221779 -23.778494 -28.879229 49.372763 0.635753 2.195581 0.071056 -0.016698 304849.000000 0 0 1
-32.245549 -22.326594 -28.826739 48.674769 0.605602 2.204622 0.070385 -0.012372 -56512.400000 0 0 1
-31.075329 -21.794094 -28.255309 47.318296 0.611619 2.210718 0.097167 -0.010160 -106019.000000 0 0 1
-30.970689 -20.271194 -28.460739 46.691740 0.579552 2.226283 0.106260 -0.019079 -169436.000000 0 0 1
-30.529379 -19.980394 -29.763449 47.086325 0.579507 2.255062 0.108389 -0.005812 279240.000000 0 0 1
-30.220789 -18.612094 -29.828869 46.362351 0.552007 2.269709 0.095182 -0.015703 -368267.000000 0 0 1
-29.769329 -18.142294 -31.198039 46.783260 0.547324 2.300788 0.114014 -0.013954 215006.000000 0 0 1
-30.730719 -17.957794 -32.250919 48.031045 0.528840 2.306973 0.105945 -0.018449 278829.000000 0 0 1
-31.484439 -16.781694 -32.111239 48.000280 0.489710 2.303632 0.085696 -0.015286 -877073.000000 0 0 1
-32.170499 -16.348194 -33.419409 49.183954 0.470165 2.317847 0.085055 -0.032311 -12959.300000 0 0 1
-33.257899 -17.092294 33.398181 50.136542 0.474731 0.841769 0.086657 -0.035096 469800.000000 0 0 1
-34.504831 -16.819694 -33.284429 50.806876 0.453565 2.285133 0.075253 -0.033230 325450.000000 0 0 1
-35.720564 -17.464794 33.283211 51.853157 0.454751 0.873856 0.090787 -0.034909 -201698.000000 0 0 1
-35.759779 -18.886394 33.268071 52.366232 0.485910 0.882404 0.060159 -0.032222 -54359.200000 0 0 1
-36.528139 -19.473794 32.253007 52.476567 0.489789 0.908896 0.061586 -0.026711 -270588.000000 0 0 1
-36.802929 -20.947394 32.362703 53.297218 0.517447 0.918250 0.054761 -0.027488 403676.000000 0 0 1
-35.607281 -21.706894 32.252800 52.719170 0.547463 0.912481 0.069358 -0.035424 204921.000000 0 0 1
-35.900378 -22.973394 32.864566 53.820941 0.569257 0.913943 0.072459 -0.037217 -422267.000000 0 0 1
-34.657325 -23.898894 33.180760 53.602707 0.603696 0.903311 0.059000 -0.029937 901191.000000 0 0 1
-33.884779 -23.424194 -32.999039 52.780751 0.604856 2.246197 0.037782 -0.033648 74628.200000 0 0 1
-33.187759 -22.231194 -33.232199 51.961836 0.590211 2.264709 0.049912 -0.034243 -1555100.000000 0 0 1
-31.850129 -22.245994 -32.453309 50.621460 0.609691 2.266724 0.052322 -0.019406 -629760.000000 0 0 1
-30.974979 -23.261394 -32.988089 50.879817 0.644124 2.276216 0.059281 -0.015746 948234.000000 0 0 1
-29.612689 -22.992594 -32.607319 49.687101 0.660212 2.286639 0.070572 -0.013181 958218.000000 0 0 1
-29.382439 -23.550894 -31.163849 48.879012 0.675673 2.262138 0.072778 -0.001764 -1054920.000000 0 0 1
-29.414629 -24.950594 -31.014869 49.494188 0.703470 2.248026 0.066555 -0.007947 -133568.000000 0 0 1
-28.793749 -25.311664 -29.831809 48.576714 0.721129 2.232064 0.066893 -0.010093 -151432.000000 0 0 1
-28.336759 -26.793434 -29.710429 49.026214 0.757411 2.221833 0.071409 -0.008352 -382219.000000 0 0 1
-29.397079 -27.690974 -29.591479 50.066295 0.755522 2.203151 0.060091 -0.005465 -297188.000000 0 0 1
-29.035109 -28.997564 -29.145119 50.332239 0.784751 2.188365 0.065187 -0.011804 273350.000000 0 0 1
-30.048499 -30.171364 -29.469049 51.784634 0.787438 2.176170 0.075908 -0.001396 270862.000000 0 0 1
-29.829459 -30.576784 -30.794339 52.659545 0.797769 2.195407 0.079667 -0.022826 447197.000000 0 0 1
-30.091859 -31.962274 -31.074749 53.784263 0.815531 2.186786 0.101932 -0.015085 -214740.000000 0 0 1
-29.843139 -32.332334 -32.506819 54.705448 0.825412 2.207086 0.081755 -0.035202 373041.000000 0 0 1
-28.441609 -32.259054 -32.741229 54.051455 0.848205 2.221494 0.099576 -0.037417 297514.000000 0 0 1
-27.994899 -32.578604 33.251291 54.320605 0.860926 0.912044 0.098890 -0.045795 292387.000000 0 0 1
-26.434969 -32.624474 33.246191 53.558128 0.889818 0.901098 0.107792 -0.036949 449040.000000 0 0 1
-26.009659 -33.434044 32.162059 53.185860 0.909652 0.921394 0.100408 -0.034624 -111871.000000 0 0 1
-24.924659 33.187161 32.489991 52.708877 -0.926634 0.906628 0.105075 -0.031324 -115550.000000 0 0 1
-24.694509 32.141467 31.419059 51.284012 -0.915681 0.911389 0.107304 -0.034501 -41169.000000 0 0 1
-25.865109 31.369855 31.228462 51.266836 -0.881281 0.915826 0.138528 -0.052911 138952.000000 0 0 1
-25.716739 30.369405 30.221831 49.970096 -0.868164 0.921284 0.127995 -0.043332 -886821.000000 0 0 1
-27.018749 29.882965 29.626351 50.007250 -0.835692 0.936711 0.134645 -0.035128 -640764.000000 0 0 1
-27.703479 28.965905 30.480181 50.354223 -0.807672 0.920634 0.143056 -0.038820 254314.000000 0 0 1
-28.940019 28.582155 29.902671 50.483997 -0.779177 0.936861 0.136904 -0.041434 427749.000000 0 0 1
-29.526529 27.410035 30.803401 50.714647 -0.748242 0.918030 0.126728 -0.056525 -281226.000000 0 0 1
-28.739709 26.312465 30.574621 49.529023 -0.741337 0.905481 0.129895 -0.051322 -399603.000000 0 0 1
-29.169169 25.106215 31.219665 49.556331 -0.710679 0.889265 0.136176 -0.051006 555661.000000 0 0 1
-30.171719 24.318865 30.314101 49.200452 -0.678398 0.906971 0.139236 -0.044673 806975.000000 0 0 1
-29.499609 24.099395 29.062441 47.912767 -0.684985 0.919057 0.119092 -0.034559 -66444.300000 0 0 1
-30.372579 23.562155 28.119321 47.627354 -0.659791 0.939239 0.120676 -0.026508 6063.820000 0 0 1
-29.670659 23.496855 26.761221 46.353135 -0.669796 0.955337 0.122470 -0.038107 629511.000000 0 0 1
-28.477939 22.701395 26.724331 45.172294 -0.673005 0.937743 0.122164 -0.040186 473603.000000 0 0 1
-27.906119 22.628005 25.442351 44.023758 -0.681329 0.954615 0.106154 -0.035628 659177.000000 0 0 1
-26.505699 21.909235 25.493011 42.807245 -0.690743 0.932871 0.093688 -0.034100 467051.000000 0 0 1
-26.568749 20.571835 25.929831 42.443550 -0.658864 0.913568 0.114130 -0.041691 -867767.000000 0 0 1
-25.342609 20.023635 26.173781 41.572354 -0.668686 0.889763 0.096560 -0.032007 -1100260.000000 0 0 1
-25.507649 18.716035 27.044361 41.621239 -0.633015 0.863510 0.105287 -0.033901 -83798.600000 0 0 1
-24.248109 18.168435 27.345941 40.814989 -0.643035 0.836591 0.099205 -0.021897 16619.800000 0 0 1
-24.388109 17.044035 28.241711 41.022838 -0.609965 0.811462 0.090785 -0.016420 -177022.000000 0 0 1
-23.133809 16.229735 28.593211 40.201357 -0.611772 0.779522 0.097143 -0.019491 -275166.000000 0 0 1
-22.234009 16.758235 29.523441 40.581069 -0.645878 0.756100 0.122822 -0.019586 485940.000000 0 0 1
-21.014109 15.991235 29.427331 39.538338 -0.650489 0.731350 0.115101 -0.018696 505776.000000 0 0 1
-19.895909 16.509935 30.335771 39.858301 -0.692659 0.705804 0.107507 -0.029415 -439690.000000 0 0 1
-20.047209 16.143935 31.704938 40.837731 -0.677962 0.681920 0.095594 -0.026640 398533.000000 0 0 1
-19.144309 16.773235 32.615788 41.371918 -0.719479 0.662665 0.091600 -0.032805 -765794.000000 0 0 1
-19.308509 16.289835 -33.220829 41.734886 -0.700802 2.491449 0.082765 -0.036099 585792.000000 0 0 1
-20.442509 16.854335 -32.547009 41.967518 -0.689487 2.458348 0.084716 -0.030292 241132.000000 0 0 1
-21.688509 16.323935 -32.910979 42.661397 -0.645197 2.451907 0.091565 -0.017188 -956305.000000 0 0 1
-22.765109 17.062435 -32.082479 42.879626 -0.643181 2.416139 0.103260 -0.030881 -288461.000000 0 0 1
-22.663009 16.884235 -30.667699 41.703682 -0.640302 2.397011 0.102245 -0.030037 -90639.700000 0 0 1
-23.494909 17.824035 -30.086799 42.129828 -0.649004 2.366198 0.100499 -0.026578 -849647.000000 0 0 1
-23.681009 17.617035 -28.569629 41.077656 -0.639606 2.339916 0.101014 -0.026632 471545.000000 0 0 1
-24.433209 16.469635 -28.128699 40.736400 -0.593109 2.332984 0.078995 -0.019180 1586930.000000 0 0 1
-25.811699 16.346835 -28.590119 41.843252 -0.564553 2.323024 0.091750 -0.020675 859843.000000 0 0 1
-26.594629 15.336035 -27.736859 41.373924 -0.523080 2.305537 0.086459 -0.013977 -48536.300000 0 0 1
-26.409479 13.936735 -28.073749 40.985711 -0.485575 2.325351 0.066948 -0.007066 198222.000000 0 0 1
-27.287829 13.166935 -27.274169 40.766090 -0.449566 2.303713 0.041409 0.000470 119099.000000 0 0 1
-26.837299 11.712135 -27.358199 40.073505 -0.411497 2.322248 0.056845 -0.004706 295067.000000 0 0 1
-25.728519 11.377835 -26.540559 38.675743 -0.416371 2.327093 0.053208 -0.002472 -94067.000000 0 0 1
-25.132009 10.191035 -27.006309 38.272912 -0.385239 2.354101 0.046000 0.000244 -224599.000000 0 0 1
-24.014409 9.606535 -26.168389 36.793504 -0.380534 2.362033 0.091840 -0.000232 -144722.000000 0 0 1
-24.545609 8.812835 -25.106339 36.200569 -0.344705 2.337180 0.066316 -0.000063 714947.000000 0 0 1
-23.469409 8.138935 -24.408089 34.825425 -0.333811 2.347413 0.114244 0.005151 647418.000000 0 0 1
-23.898409 7.088535 -23.346689 34.153318 -0.288345 2.323459 0.092780 0.003449 -44963.700000 0 0 1
-24.481009 5.947735 -23.904689 34.729375 -0.238335 2.329958 0.093316 -0.016964 184445.000000 0 0 1
-24.904209 5.100635 -22.821789 34.162408 -0.202016 2.302365 0.085167 -0.016966 -136125.000000 0 0 1
37.285793 24.958606 -10.281689 46.031244 0.589883 1.796060 0.061805 -0.015995 -255312.000000 0 0 1
-38.031559 24.365006 -9.468689 46.148771 -0.569776 1.777441 0.077216 -0.017176 -474713.000000 0 0 1
-37.536759 23.150906 -10.015689 45.224846 -0.552647 1.794112 0.099617 -0.027561 114508.000000 0 0 1
-36.601369 22.421606 -9.044689 43.865647 -0.549625 1.778477 0.113526 -0.024921 72672.600000 0 0 1
-37.294389 21.759406 -8.019089 43.916386 -0.528161 1.754426 0.085046 -0.015157 1205860.000000 0 0 1
-36.233589 21.165006 -7.209089 42.577006 -0.528666 1.740935 0.119042 -0.014897 1194710.000000 0 0 1
-36.793319 20.229606 -6.096389 42.428189 -0.502703 1.714983 0.111068 0.001228 -160633.000000 0 0 1
-37.379739 19.036706 -6.469989 42.444102 -0.471043 1.723828 0.097953 0.006699 -35025.400000 0 0 1
-37.939969 18.349106 -5.424289 42.491809 -0.450470 1.698801 0.102849 0.000078 -443434.000000 0 0 1
37.678883 17.069506 -6.021189 41.800968 0.425367 1.715343 0.105281 0.009248 -151180.000000 0 0 1
36.641293 17.422406 -6.909689 41.156632 0.443844 1.739483 0.098003 0.003067 44750.700000 0 0 1
35.933123 16.251306 -7.337289 40.113963 0.424736 1.754743 0.110600 0.006780 339270.000000 0 0 1
34.795403 16.563806 -8.352989 39.431613 0.444292 1.784248 0.075460 -0.002388 24512.600000 0 0 1
34.415763 15.412406 -9.094589 38.790444 0.421048 1.807454 0.083063 -0.003534 54938.900000 0 0 1
33.699563 15.756206 -10.251789 38.587792 0.437352 1.839700 0.065564 0.001298 -603647.000000 0 0 1
33.076163 14.510806 -10.910989 37.731230 0.413425 1.864163 0.058840 -0.004380 -36489.100000 0 0 1
31.925253 13.851806 -10.408889 36.324086 0.409370 1.861427 0.063605 -0.003597 290505.000000 0 0 1
31.929233 13.383506 -9.052189 35.784581 0.396915 1.826538 0.070379 -0.001264 -441329.000000 0 0 1
30.866863 12.275306 -8.802289 34.364613 0.378510 1.829827 0.085910 0.005399 184474.000000 0 0 1
31.244863 11.003606 -9.414589 34.437701 0.338610 1.847702 0.094143 -0.007474 -453048.000000 0 0 1
30.398463 9.976606 -9.147589 33.275781 0.317118 1.849284 0.150664 -0.010998 -1084890.000000 0 0 1
30.996863 8.600606 -9.462789 33.530886 0.270658 1.856894 0.149464 -0.010299 118380.000000 0 0 1
32.158723 8.252106 -8.690289 34.319117 0.251186 1.826804 0.130155 -0.017129 608102.000000 0 0 1
32.276643 6.844906 -8.529389 34.079097 0.208974 1.823768 0.145264 -0.020229 -403982.000000 0 0 1
33.537823 6.482606 -7.733989 35.023197 0.190938 1.793456 0.158720 -0.022872 -854245.000000 0 0 1
34.704763 6.905606 -8.348789 36.356708 0.196416 1.802499 0.131100 -0.024689 -1001780.000000 0 0 1
35.787423 6.376106 -7.624489 37.141987 0.176316 1.777546 0.129594 -0.014981 -422530.000000 0 0 1
37.135613 6.806006 -8.226689 38.640055 0.181263 1.785344 0.148805 -0.015884 -168109.000000 0 0 1
37.326313 6.249706 -9.530189 39.027387 0.165895 1.817483 0.155902 -0.023857 -557573.000000 0 0 1
-37.604089 6.198306 -9.909889 39.378832 -0.163362 1.825186 0.159816 -0.030658 -2116710.000000 0 0 1
-37.336619 5.544806 -11.250789 39.387158 -0.147431 1.860477 0.167975 -0.027509 119776.000000 0 0 1
-35.990759 5.466106 -11.697989 38.236841 -0.150723 1.881717 0.181211 -0.039454 1033660.000000 0 0 1
-35.211838 6.665506 -11.956189 37.779002 -0.187084 1.892810 0.173052 -0.040063 -28474.700000 0 0 1
-34.518027 7.471406 -10.782089 36.926542 -0.213161 1.867101 0.170229 -0.035505 -1199470.000000 0 0 1
-35.337934 8.080406 -9.828289 37.558725 -0.224796 1.835557 0.186193 -0.035306 -594268.000000 0 0 1
-35.858774 9.252506 -10.346389 38.451376 -0.252518 1.843231 0.167208 -0.039217 -31361.500000 0 0 1
-36.832889 10.049206 -9.411389 39.322036 -0.266350 1.812484 0.135525 -0.030744 432775.000000 0 0 1
-36.162249 10.493306 -8.258689 38.548977 -0.282417 1.786709 0.152630 -0.026077 42461.000000 0 0 1
-36.894119 11.540606 -7.667989 39.410147 -0.303161 1.766614 0.132803 -0.024788 77442.000000 0 0 1
-35.997709 12.429406 -6.751489 38.676967 -0.332467 1.746256 0.162440 -0.023376 565471.000000 0 0 1
-35.013964 13.092406 -7.538789 38.134264 -0.357823 1.769798 0.157625 -0.029536 41997.900000 0 0 1
-34.283523 14.057106 -6.793089 37.671053 -0.389119 1.752115 0.181908 -0.025394 540995.000000 0 0 1
-33.236389 14.817606 -7.705189 37.196625 -0.419376 1.779455 0.140985 -0.021270 383524.000000 0 0 1
-33.793599 15.591406 -8.775289 38.237481 -0.432270 1.802355 0.123255 -0.017229 -227213.000000 0 0 1
-33.897429 16.987006 -8.438489 38.843303 -0.464551 1.789787 0.089136 -0.000860 145182.000000 0 0 1
-34.652292 17.892006 -9.432789 40.123344 -0.476626 1.808112 0.061915 -0.005602 328546.000000 0 0 1
-33.934750 18.001106 -10.667289 39.867256 -0.487719 1.841667 0.049655 -0.001122 267143.000000 0 0 1
-34.841342 18.421206 -11.658589 41.099667 -0.486356 1.858412 0.047840 -0.005980 68533.100000 0 0 1
-34.278372 18.449206 -13.096089 41.071736 -0.493752 1.895322 0.024280 -0.000920 428104.000000 0 0 1
-33.379019 19.576006 -13.270889 40.908378 -0.530416 1.901179 0.028241 -0.008823 507893.000000 0 0 1
-33.183649 19.839006 -14.645989 41.343025 -0.538841 1.932914 0.009361 -0.007782 -250785.000000 0 0 1
-32.224859 21.030406 -14.818489 41.234780 -0.578211 1.938388 0.007107 -0.006150 -500071.000000 0 0 1
-30.882019 20.810906 -14.442889 39.942333 -0.592983 1.940773 0.014933 -0.002710 420316.000000 0 0 1
-30.147539 22.057806 -14.343189 40.014347 -0.631661 1.937405 0.018966 -0.004999 331174.000000 0 0 1
-29.522759 22.644206 -15.640589 40.360641 -0.654298 1.968737 0.009784 -0.008323 -922053.000000 0 0 1
-30.461529 23.057606 -16.596289 41.653268 -0.647929 1.980611 0.022748 0.001000 -121835.000000 0 0 1
-29.897629 23.727106 -17.716289 42.079813 -0.670833 2.005362 0.033903 -0.003273 -911424.000000 0 0 1
-29.236509 25.096106 -17.504389 42.320109 -0.709340 1.997221 0.039373 -0.001995 587495.000000 0 0 1
-30.166999 26.130406 -17.069289 43.407448 -0.713819 1.974943 0.056962 -0.012084 471237.000000 0 0 1
-29.594059 27.397406 -17.231889 43.856176 -0.746874 1.974599 0.055061 -0.010990 -31159.800000 0 0 1
-30.410609 28.565006 -16.649789 44.921934 -0.754114 1.950492 0.071847 -0.015795 -129916.000000 0 0 1
-30.330799 28.673306 -15.269889 44.444182 -0.757314 1.921517 0.071149 -0.021544 471612.000000 0 0 1
-29.192949 29.440106 -14.880089 44.049576 -0.789613 1.915378 0.067137 -0.021123 128403.000000 0 0 1
-29.231959 29.982006 -13.382889 43.960548 -0.798064 1.880136 0.097880 -0.027662 566003.000000 0 0 1
-30.345869 30.874906 -13.203989 45.260103 -0.794039 1.866837 0.090457 -0.028746 615116.000000 0 0 1
-30.296479 31.540706 -11.923289 45.330537 -0.805516 1.836958 0.091006 -0.037969 -155918.000000 0 0 1
-29.274489 32.669506 -11.878589 45.446597 -0.840151 1.835242 0.079922 -0.041312 10774.700000 0 0 1
-29.718989 -33.653323 -12.636389 46.641642 0.847401 1.845150 0.069425 -0.038681 -87185.500000 0 0 1
-28.672929 -32.754923 -12.945689 45.415996 0.851752 1.859852 0.101058 -0.043798 70563.200000 0 0 1
-28.859119 -31.994623 -14.248089 45.381854 0.836878 1.890157 0.079163 -0.035157 -342190.000000 0 0 1
-28.220319 -32.576223 -15.316389 45.740447 0.856923 1.912247 0.068712 -0.025829 -428852.000000 0 0 1
-28.457999 -31.855623 -16.509689 45.795287 0.841671 1.939612 0.058778 -0.009548 -24081.600000 0 0 1
-27.781339 -32.473723 -17.735989 46.269977 0.863117 1.964179 0.062812 -0.008061 -112798.000000 0 0 1
-28.232219 33.712906 -18.190489 47.586890 -0.873645 1.963035 0.061428 0.002723 -327203.000000 0 0 1
-27.645139 32.596306 -17.594789 46.220660 -0.867403 1.961316 0.064974 -0.015086 -571551.000000 0 0 1
-27.962869 31.413706 -18.493389 45.942882 -0.843451 1.985075 0.079467 -0.017818 467261.000000 0 0 1
-29.330429 31.062806 -18.650889 46.615744 -0.814075 1.982421 0.075935 -0.012917 -110498.000000 0 0 1
-29.903449 31.602706 -19.755189 47.782997 -0.813019 1.997020 0.074077 -0.002553 106622.000000 0 0 1
-31.428229 31.286806 -19.906989 48.609526 -0.783143 1.992734 0.064354 -0.012478 574111.000000 0 0 1
-31.675649 29.942306 -20.344789 48.101963 -0.757275 2.007496 0.069165 -0.026606 -768195.000000 0 0 1
-33.005549 29.797206 -20.664589 49.033305 -0.734357 2.005829 0.083690 -0.030974 -1331380.000000 0 0 1
-33.360409 28.385006 -21.012389 48.581333 -0.704993 2.018082 0.081740 -0.031334 -1302000.000000 0 0 1
-34.722585 28.196806 -20.879589 49.362688 -0.682051 2.007531 0.095291 -0.032955 -766254.000000 0 0 1
-34.997580 26.896106 -21.266389 48.994799 -0.655245 2.019784 0.095597 -0.031017 -155854.000000 0 0 1
-36.478179 26.475006 -21.084189 49.760692 -0.627817 2.008335 0.096753 -0.017490 -88908.500000 0 0 1
-37.303949 27.042606 -22.051489 51.079891 -0.627260 2.017179 0.101705 -0.024081 12806.900000 0 0 1
38.061153 26.055006 -22.603789 51.365805 0.600286 2.026456 0.106762 -0.030638 527857.000000 0 0 1
37.151253 26.569106 -23.741289 51.476031 0.620828 2.050155 0.112023 -0.040158 274816.000000 0 0 1
37.872173 26.849806 -24.927089 52.693200 0.616713 2.063558 0.121553 -0.036099 406141.000000 0 0 1
36.900273 27.120206 -25.943339 52.632618 0.633805 2.086232 0.130913 -0.037519 832127.000000 0 0 1
37.555943 27.540806 -27.318559 53.993041 0.632745 2.101296 0.115935 -0.037376 252198.000000 0 0 1
-38.127379 26.468206 -28.063709 54.238683 -0.606826 2.114619 0.093673 -0.023685 -185801.000000 0 0 1
-37.353859 26.926406 -29.131159 54.488224 -0.624580 2.134869 0.062977 -0.016861 -984551.000000 0 0 1
-36.624679 25.742006 -29.815249 53.786309 -0.612643 2.158351 0.057925 -0.021234 590638.000000 0 0 1
-35.673140 24.929306 -29.118329 52.363349 -0.609937 2.160461 0.058539 -0.021971 -6419.040000 0 0 1
-34.473962 25.593906 -28.840379 51.723008 -0.638627 2.162280 0.052873 -0.012224 -802743.000000 0 0 1
-33.382239 24.711606 -28.243129 50.226603 -0.637240 2.167978 0.066398 -0.023155 -711406.000000 0 0 1
-33.140989 23.526606 -28.952939 49.900892 -0.617336 2.189781 0.076337 -0.023511 20864.000000 0 0 1
-33.666269 22.374806 -28.308729 49.350114 -0.586575 2.181728 0.043435 -0.012378 -99547.500000 0 0 1
-33.210349 21.040006 -28.925979 48.809030 -0.564715 2.205124 0.050777 -0.015287 -425779.000000 0 0 1
-31.836459 20.845606 -28.743839 47.689702 -0.579722 2.217710 0.091970 -0.015205 -314974.000000 0 0 1
-31.420699 19.567506 -29.199179 47.145940 -0.556986 2.238693 0.071628 -0.013868 -684129.000000 0 0 1
-29.950939 19.177306 -29.177459 46.001651 -0.569519 2.257860 0.091656 -0.014580 -893438.000000 0 0 1
-29.318639 19.566206 -30.366669 46.524763 -0.588485 2.281938 0.110590 -0.023494 -276885.000000 0 0 1
-28.121679 18.868106 -30.598629 45.641104 -0.590959 2.305569 0.112556 -0.027639 -293789.000000 0 0 1
-28.230429 17.561706 -31.347459 45.695009 -0.556500 2.326794 0.090469 -0.021825 -347953.000000 0 0 1
-28.811109 16.493006 -30.561359 45.123119 -0.519918 2.314867 0.057573 -0.012040 461282.000000 0 0 1
-28.813009 15.291706 -31.332399 45.229912 -0.487922 2.336073 0.028007 0.000939 -61375.100000 0 0 1
-29.087089 14.009106 -30.488689 44.405787 -0.448841 2.327588 0.045181 0.001750 -273259.000000 0 0 1
-30.372329 14.049906 -29.927829 44.894912 -0.433273 2.300461 0.039671 0.000418 119428.000000 0 0 1
-31.098939 12.817406 -29.853659 44.974113 -0.390936 2.296680 0.051394 0.003279 227487.000000 0 0 1
-30.573289 11.796306 -28.815669 43.637388 -0.368238 2.292073 0.034702 -0.010723 -460813.000000 0 0 1
-30.820599 12.270906 -27.530779 43.109491 -0.378902 2.263506 0.023281 -0.000190 250744.000000 0 0 1
-30.979079 11.280906 -26.529869 42.317799 -0.349221 2.248390 0.031780 -0.002352 11910.800000 0 0 1
-31.011889 11.837706 -25.097049 41.614065 -0.364645 2.218166 0.019454 0.004043 18202.600000 0 0 1
-29.731739 12.334006 -24.778589 40.621207 -0.393236 2.226846 0.014976 0.005817 -133208.000000 0 0 1
-29.801759 13.173506 -23.650989 40.262332 -0.416213 2.198666 0.011147 0.013181 -852381.000000 0 0 1
-28.484389 13.762706 -23.233789 39.250241 -0.450090 2.204260 0.028723 0.019596 -1372490.000000 0 0 1
-27.988129 14.756806 -24.210189 39.840079 -0.485211 2.223938 0.034712 0.004181 894144.000000 0 0 1
-26.575019 14.990106 -24.144689 38.908880 -0.513579 2.240233 0.060807 -0.003893 934688.000000 0 0 1
-25.959139 15.454906 -22.786189 37.841002 -0.536997 2.216995 0.077180 0.000665 -839900.000000 0 0 1
-26.321789 16.784606 -22.424889 38.437419 -0.567658 2.193721 0.101917 -0.000461 47752.400000 0 0 1
-26.482069 16.914506 -21.001789 37.795180 -0.568401 2.159969 0.100824 -0.001263 21620.900000 0 0 1
-27.916399 16.867406 -20.453089 38.498877 -0.543510 2.130889 0.083911 0.001082 -302555.000000 0 0 1
-28.726179 15.734306 -20.552189 38.667224 -0.501102 2.131184 0.078239 0.006807 321380.000000 0 0 1
-29.859029 15.958506 -19.700289 39.170613 -0.490835 2.097788 0.064952 0.009382 -472984.000000 0 0 1
-30.877969 14.822106 -19.815989 39.570408 -0.447538 2.095294 0.033163 0.007220 36534.100000 0 0 1
-31.610769 14.619306 -21.026189 40.682495 -0.433183 2.113948 0.021709 0.011749 732241.000000 0 0 1
-32.417889 15.722206 -21.478289 41.945491 -0.451564 2.108369 0.020822 0.005371 -283014.000000 0 0 1
-32.724189 15.633906 -23.003789 42.947245 -0.445688 2.136049 0.006758 0.014980 -272594.000000 0 0 1
-33.744419 14.725406 -23.329589 43.586616 -0.411470 2.135596 0.024153 0.003546 6837.880000 0 0 1
-33.926041 14.843506 -24.731389 44.530299 -0.412432 2.159620 0.040513 0.001982 850929.000000 0 0 1
-35.168394 14.021706 -25.322139 45.548160 -0.379387 2.160292 0.037753 -0.003458 992456.000000 0 0 1
-35.034217 12.587306 -25.439069 45.088611 -0.344923 2.170262 0.057400 -0.002641 -18610.300000 0 0 1
-35.057641 11.851706 -24.176089 44.203896 -0.326002 2.149480 0.056507 -0.005976 -437372.000000 0 0 1
-35.386035 10.366006 -24.244889 44.129811 -0.284968 2.152442 0.065286 -0.005350 387243.000000 0 0 1
-36.676059 10.081806 -24.777489 45.394934 -0.268262 2.148164 0.089699 -0.007496 218336.000000 0 0 1
-36.603189 9.166806 -25.888989 45.760939 -0.245390 2.172132 0.081789 -0.009235 -888980.000000 0 0 1
-37.943539 8.720306 -26.412109 47.046311 -0.225900 2.166881 0.122673 -0.008982 -825792.000000 0 0 1
37.566763 8.007106 -25.472219 46.089146 0.210001 2.156364 0.104443 -0.006800 -162481.000000 0 0 1
36.541093 7.245106 -26.061389 45.463601 0.195734 2.181246 0.124921 -0.015892 111504.000000 0 0 1
35.541453 6.535106 -25.106169 44.002525 0.181842 2.177986 0.130228 -0.016781 462982.000000 0 0 1
36.086793 5.385606 -24.425489 43.907469 0.148147 2.160716 0.116699 -0.024597 425314.000000 0 0 1
35.054523 4.786906 -23.689289 42.578356 0.135717 2.160806 0.116578 -0.016700 455121.000000 0 0 1
35.726223 3.746206 -22.731089 42.509992 0.104477 2.134977 0.101933 -0.016009 316480.000000 0 0 1
36.349863 2.703006 -23.404589 43.317358 0.074224 2.141596 0.112287 -0.029003 -115902.000000 0 0 1
37.437283 2.215606 -22.657989 43.816019 0.059113 2.114275 0.146055 -0.025220 -70566.400000 0 0 1
38.129713 1.015006 -23.410989 44.754660 0.026614 2.121276 0.162977 -0.030449 47386.400000 0 0 1
37.535203 -0.244894 -23.398489 44.231671 -0.006524 2.128216 0.131112 -0.029244 52090.100000 0 0 1
-37.785629 -1.170794 -23.904189 44.727338 0.030975 2.134644 0.145755 -0.031327 419489.000000 0 0 1
-24.142009 29.200206 26.816971 46.418084 -0.879941 0.954855 0.094480 -0.022116 648481.000000 0 0 1
-25.583849 29.387006 26.763741 47.269729 -0.854473 0.968918 0.082231 -0.019400 1713100.000000 0 0 1
-26.032599 29.018606 25.460021 46.561662 -0.839586 0.992256 0.074709 -0.022038 -154903.000000 0 0 1
-26.246909 27.502106 25.199351 45.610013 -0.808747 0.985440 0.078566 -0.021841 -120634.000000 0 0 1
-27.370839 26.862306 25.809721 46.226486 -0.776022 0.978423 0.105752 -0.018239 524874.000000 0 0 1
-27.260899 26.582806 27.245161 46.819878 -0.772805 0.949716 0.111565 -0.019014 -702496.000000 0 0 1
-26.332519 25.433506 27.618361 45.858899 -0.768033 0.924484 0.098323 -0.016856 1436740.000000 0 0 1
-24.904009 25.694006 27.678271 45.238018 -0.801010 0.912416 0.087008 -0.021033 1225830.000000 0 0 1
-24.437309 26.194306 28.928681 46.045546 -0.820086 0.891479 0.081738 -0.025532 253693.000000 0 0 1
-23.008109 25.702706 29.289121 45.253229 -0.840660 0.866855 0.070819 -0.021983 525598.000000 0 0 1
-21.938309 26.351606 28.583081 44.639546 -0.876537 0.875896 0.085423 -0.028904 1579730.000000 0 0 1
-20.604609 26.248506 29.132951 44.297435 -0.905280 0.853079 0.110543 -0.038378 811756.000000 0 0 1
-19.907809 24.915506 28.874321 43.021270 -0.896658 0.835019 0.097773 -0.028997 -789980.000000 0 0 1
-19.482209 24.780906 27.519391 41.844553 -0.904540 0.853091 0.101964 -0.025349 -95146.000000 0 0 1
-20.309309 23.978406 26.705531 41.238542 -0.868056 0.866383 0.093128 -0.024683 -120672.000000 0 0 1
-20.289009 22.441706 26.999141 40.549077 -0.835734 0.842179 0.081835 -0.015367 508199.000000 0 0 1
-21.144709 21.953606 28.072581 41.438259 -0.804165 0.826498 0.078467 -0.012355 508721.000000 0 0 1
-21.044609 20.584206 28.204341 40.768492 -0.774339 0.806794 0.093271 -0.005903 209779.000000 0 0 1
-21.560809 20.095706 29.603021 41.773732 -0.750242 0.783211 0.095628 -0.012609 62580.600000 0 0 1
-20.695209 20.398406 30.673511 42.252229 -0.778176 0.758364 0.091967 -0.019363 -51307.100000 0 0 1
-21.184709 19.942106 31.891012 43.168462 -0.755193 0.739572 0.088943 -0.012165 -283301.000000 0 0 1
-20.250409 20.369806 33.038201 43.778200 -0.788337 0.715642 0.092897 -0.012723 -29483.200000 0 0 1
-20.128109 21.806706 33.236461 44.557104 -0.825406 0.728867 0.069312 -0.009920 101900.000000 0 0 1
-19.226709 22.517806 32.422382 43.908186 -0.864074 0.740082 0.086114 -0.012981 276373.000000 0 0 1
-17.730109 22.629906 32.807468 43.621088 -0.906209 0.719552 0.078111 -0.009391 686898.000000 0 0 1
-16.942709 21.447806 32.806946 42.700813 -0.902213 0.694619 0.093524 -0.028363 1001800.000000 0 0 1
-15.549409 21.690006 33.068046 42.493954 -0.948823 0.679030 0.079453 -0.031733 132300.000000 0 0 1
-14.615509 20.467906 32.926009 41.432720 -0.950690 0.652306 0.078676 -0.041414 587036.000000 0 0 1
-13.303709 20.575306 33.497031 41.501602 -0.996825 0.631528 0.065943 -0.039856 748448.000000 0 0 1
-13.311409 20.813606 -32.418599 40.759850 -1.001800 2.490391 0.073931 -0.039289 -1563830.000000 0 0 1
-11.916009 20.770406 -31.845879 39.844209 -1.049939 2.496859 0.076071 -0.036053 -791375.000000 0 0 1
-11.086809 21.894406 -32.159849 40.454150 -1.102061 2.489755 0.073700 -0.036863 -38577.800000 0 0 1
-9.849109 21.486506 -31.596989 39.459404 -1.140991 2.499337 0.071488 -0.034921 -136464.000000 0 0 1
-8.797609 22.654106 -31.624599 39.883852 -1.200378 2.486378 0.084652 -0.030534 262745.000000 0 0 1
-8.835609 23.548206 -30.551679 39.572605 -1.211838 2.452843 0.087513 -0.030621 -76732.200000 0 0 1
-8.086009 23.073106 -29.474869 38.295165 -1.233719 2.449130 0.070323 -0.026965 -255320.000000 0 0 1
-7.580409 24.237506 -28.528679 38.194303 -1.267679 2.414237 0.091112 -0.029126 1320240.000000 0 0 1
-6.303309 24.810506 -28.922659 38.623996 -1.322002 2.417086 0.101295 -0.024390 1147730.000000 0 0 1
-5.884809 25.790806 -27.976899 38.503292 -1.346462 2.384172 0.137577 -0.025069 -461213.000000 0 0 1
-4.713109 26.647206 -28.435289 39.253696 -1.395736 2.380957 0.120391 -0.035479 -491782.000000 0 0 1
-3.495809 25.953006 -28.223969 38.501579 -1.436905 2.393606 0.120890 -0.016064 686432.000000 0 0 1
-2.461409 26.198106 -29.204939 39.310657 -1.477118 2.408229 0.134867 -0.015707 486616.000000 0 0 1
-1.541709 27.382806 -29.000859 39.915470 -1.514554 2.384094 0.146124 -0.033638 -546376.000000 0 0 1
-0.796609 27.329006 -27.782349 38.979072 -1.541656 2.364208 0.148765 -0.048704 480473.000000 0 0 1
-0.059809 28.542706 -27.652249 39.740867 -1.568701 2.340349 0.150472 -0.055497 -726564.000000 0 0 1
0.410491 28.790806 -26.153009 38.898057 1.556540 2.308172 0.161064 -0.068324 -496342.000000 0 0 1
1.522291 28.134906 -25.665559 38.113137 1.516742 2.309601 0.194591 -0.070354 -112466.000000 0 0 1
2.751191 28.479906 -26.292109 38.858063 1.474494 2.313958 0.177045 -0.066938 -57687.900000 0 0 1
4.008791 28.379906 -25.387919 38.288848 1.430470 2.295700 0.162275 -0.072674 188353.000000 0 0 1
4.404391 27.101006 -24.999189 37.132501 1.409687 2.309382 0.159536 -0.057197 -90588.700000 0 0 1
5.660191 27.106206 -24.373189 36.889517 1.364939 2.292558 0.117541 -0.046422 -78551.700000 0 0 1
6.245591 25.773206 -23.925789 35.717067 1.333051 2.304830 0.127663 -0.048377 505152.000000 0 0 1
7.586491 25.817506 -23.439789 35.686442 1.284991 2.287398 0.114532 -0.047129 117451.000000 0 0 1
8.045791 24.649706 -22.762189 34.503043 1.255294 2.291236 0.132804 -0.036303 518033.000000 0 0 1
9.536591 24.815706 -22.377089 34.749100 1.203900 2.270462 0.129754 -0.014696 -269588.000000 0 0 1
9.652991 25.640306 -21.236889 34.664261 1.210731 2.230199 0.131663 -0.020819 1293990.000000 0 0 1
11.020191 25.976306 -20.860389 35.090866 1.169569 2.207400 0.125283 -0.021571 1747390.000000 0 0 1
11.980391 24.899106 -20.262889 34.264849 1.122336 2.203542 0.104867 -0.012079 149449.000000 0 0 1
12.236291 23.830406 -21.068589 34.080794 1.096428 2.237241 0.101888 -0.018804 -251146.000000 0 0 1
12.923891 22.750006 -20.493689 33.235237 1.054176 2.235245 0.088172 -0.006870 -63086.800000 0 0 1
12.834791 21.537406 -21.484889 33.018058 1.033375 2.279304 0.101794 -0.016673 738717.000000 0 0 1
11.474091 21.183906 -21.779689 32.477184 1.074393 2.305834 0.115352 -0.029855 537065.000000 0 0 1
11.345091 20.055406 -22.585989 32.265419 1.055989 2.346202 0.152789 -0.028805 -13963.000000 0 0 1
10.768091 20.329606 -24.008389 33.251276 1.083691 2.377527 0.155415 -0.032606 -144271.000000 0 0 1
9.443491 20.794406 -24.018089 33.142954 1.144508 2.381369 0.126294 -0.035832 -467625.000000 0 0 1
8.873191 20.708306 -25.321539 33.893182 1.165978 2.414482 0.133592 -0.043991 425941.000000 0 0 1
7.411191 20.146806 -25.197319 33.101728 1.218301 2.435971 0.120647 -0.048115 688478.000000 0 0 1
6.441891 21.113106 -24.820589 33.216304 1.274655 2.414697 0.134416 -0.048484 -97615.200000 0 0 1
6.378591 21.451306 -23.434489 32.404015 1.281771 2.379217 0.131043 -0.046130 -721431.000000 0 0 1
4.960891 21.770106 -22.949089 32.018879 1.346746 2.369907 0.147612 -0.048603 12490.200000 0 0 1
4.417991 23.014406 -23.475689 33.170612 1.381137 2.357070 0.143678 -0.052301 -818937.000000 0 0 1
3.100691 23.184906 -23.083889 32.863659 1.437848 2.349580 0.156282 -0.046239 -1011730.000000 0 0 1
2.443491 24.266106 -23.905289 34.150803 1.470439 2.346183 0.146673 -0.035728 -1136880.000000 0 0 1
1.062591 24.155406 -23.870489 33.976653 1.526835 2.349779 0.171396 -0.057265 -977963.000000 0 0 1
0.710791 24.674906 -25.176539 35.259244 1.541998 2.366049 0.165370 -0.045196 2132380.000000 0 0 1
-0.881809 24.767206 -25.466119 35.534705 -1.535207 2.369790 0.173647 -0.040840 1900080.000000 0 0 1
-1.389109 23.521806 -25.747639 34.901947 -1.511809 2.400474 0.168701 -0.040485 -929373.000000 0 0 1
-2.579709 23.720806 -26.425589 35.603978 -1.462469 2.407157 0.166355 -0.030651 -541828.000000 0 0 1
-3.372209 22.492606 -26.927359 35.247294 -1.421980 2.440217 0.166339 -0.040475 -15708.300000 0 0 1
-2.677909 21.794606 -27.969429 35.559316 -1.448539 2.476010 0.194799 -0.050595 -55351.800000 0 0 1
-3.315309 20.671206 -28.437639 35.312736 -1.411768 2.506992 0.144854 -0.050564 -399232.000000 0 0 1
-4.510309 20.756406 -29.391989 36.263760 -1.356825 2.515812 0.123869 -0.041235 -39529.100000 0 0 1
-4.145809 20.974306 -30.754519 37.455970 -1.375651 2.534105 0.126103 -0.043614 78135.700000 0 0 1
-3.741209 22.271506 -31.167879 38.489652 -1.404368 2.514561 0.149040 -0.044176 -26319.600000 0 0 1
-3.214909 22.468206 -32.621409 39.740561 -1.428674 2.533710 0.116215 -0.035465 533927.000000 0 0 1
-2.013009 21.699606 -32.801939 39.381370 -1.478294 2.555179 0.103886 -0.027823 860595.000000 0 0 1
-1.416909 21.919106 33.249841 39.849802 -1.506243 0.583791 0.104104 -0.011886 -406391.000000 0 0 1
-0.346109 20.994006 32.742828 38.896797 -1.554312 0.570211 0.124960 -0.015024 -501539.000000 0 0 1
-0.819509 19.711206 32.392560 37.927314 -1.529244 0.547037 0.102146 -0.007026 -250321.000000 0 0 1
0.189091 18.851206 31.959505 37.105440 1.560766 0.532942 0.111354 -0.015280 -299983.000000 0 0 1
-0.351809 17.415006 31.673327 36.147003 -1.550598 0.502800 0.096344 -0.004340 281358.000000 0 0 1
-1.101809 17.318206 30.465421 35.061034 -1.507261 0.517769 0.073046 -0.001140 -47228.500000 0 0 1
-1.827109 16.149106 30.387871 34.460915 -1.458135 0.491116 0.070557 0.002461 -4251.470000 0 0 1
-2.909209 16.004206 29.278281 33.493519 -1.390982 0.507118 0.067336 0.004765 701022.000000 0 0 1
-4.176509 16.621406 29.459181 34.081633 -1.324620 0.526898 0.040560 -0.000210 271856.000000 0 0 1
-4.258709 17.972606 29.089601 34.458033 -1.338132 0.565718 0.042904 -0.002106 190236.000000 0 0 1
-5.698809 18.455006 29.448021 35.217177 -1.271291 0.580509 0.032203 -0.008493 434839.000000 0 0 1
-6.680409 17.764606 28.733961 34.436167 -1.211104 0.583731 0.011743 0.000499 -794572.000000 0 0 1
-7.959909 18.247206 29.050421 35.217149 -1.159456 0.600781 0.021760 -0.015303 226243.000000 0 0 1
-9.081309 17.762506 28.034681 34.408140 -1.098179 0.618466 0.025617 -0.016967 899473.000000 0 0 1
-9.569409 16.387206 28.112781 33.918174 -1.042257 0.593763 0.044943 -0.024313 106093.000000 0 0 1
-10.236709 16.061006 29.299691 34.945930 -1.003355 0.576402 0.047788 -0.035560 -810575.000000 0 0 1
-10.749309 14.591406 29.309821 34.460446 -0.935870 0.553794 0.053366 -0.033793 48537.100000 0 0 1
-9.754209 13.558006 29.282371 33.710849 -0.947140 0.518359 0.054206 -0.022007 1200040.000000 0 0 1
-8.828309 13.511706 30.421541 34.437993 -0.992047 0.487789 0.042460 -0.025643 260668.000000 0 0 1
-9.467009 13.183906 31.748503 35.656795 -0.948043 0.472592 0.075724 -0.034390 -537919.000000 0 0 1
-10.042809 11.897406 31.889764 35.487509 -0.869727 0.454184 0.089747 -0.025476 605991.000000 0 0 1
-10.685509 11.761606 33.171140 36.780973 -0.833301 0.446750 0.090781 -0.015117 21253.500000 0 0 1
-11.220709 10.332506 33.388751 36.707951 -0.744212 0.428529 0.095176 -0.020426 22378.600000 0 0 1
-10.162109 9.377106 33.382731 36.133161 -0.745244 0.392696 0.104146 -0.027003 476409.000000 0 0 1
-10.268609 8.591006 -32.741989 35.373543 -0.696680 2.753432 0.150789 -0.039281 609630.000000 0 0 1
-9.232709 9.027806 -31.621709 34.156649 -0.774178 2.753903 0.129207 -0.038933 473738.000000 0 0 1
-9.704309 10.245506 -31.038529 34.095957 -0.812519 2.714874 0.117793 -0.033023 320986.000000 0 0 1
-8.749609 10.912306 -30.238299 33.316494 -0.894952 2.708346 0.111729 -0.033873 5469.240000 0 0 1
-7.804409 11.858406 -30.996869 34.093056 -0.988725 2.712117 0.078209 -0.032369 -327817.000000 0 0 1
-8.494709 12.950006 -31.492949 35.095136 -0.990241 2.684545 0.079541 -0.029448 77085.500000 0 0 1
-7.599309 13.932306 -31.991979 35.711978 -1.071457 2.681099 0.050772 -0.025591 -70495.400000 0 0 1
-8.273509 15.339006 -32.015569 36.451786 -1.076145 2.643089 0.054109 -0.023688 -194308.000000 0 0 1
-9.152809 15.474206 -33.087669 37.656590 -1.036659 2.643863 0.077382 -0.032388 -232243.000000 0 0 1
-9.432109 16.799106 -33.293449 38.465938 -1.059193 2.617005 0.093354 -0.039402 -1906470.000000 0 0 1
-9.952909 17.235906 32.659126 38.245985 -1.047121 0.547319 0.066756 -0.040698 833482.000000 0 0 1
-11.301809 16.940606 32.288673 38.174250 -0.982464 0.562690 0.069044 -0.043189 552432.000000 0 0 1
-12.284009 17.253606 33.247831 39.420833 -0.952083 0.567202 0.074454 -0.061992 -1094520.000000 0 0 1
-13.698709 16.798806 32.754993 39.277781 -0.886701 0.584602 0.088324 -0.058400 221558.000000 0 0 1
-13.921509 15.435206 32.655565 38.709687 -0.836915 0.566840 0.082878 -0.055432 729581.000000 0 0 1
-15.321309 15.199906 32.482201 38.998372 -0.781421 0.586448 0.089674 -0.041062 479652.000000 0 0 1
-15.707409 13.681406 32.265280 38.405102 -0.716569 0.573273 0.088424 -0.026495 -201654.000000 0 0 1
-15.216009 13.065806 31.103761 37.009271 -0.709516 0.572717 0.069759 -0.032173 104565.000000 0 0 1
-13.912709 12.536306 31.244215 36.426960 -0.733405 0.539974 0.068579 -0.015273 -87916.000000 0 0 1
-13.379509 11.635006 30.080931 34.917718 -0.715771 0.532618 0.084473 -0.012616 -149492.000000 0 0 1
-14.206809 10.553506 29.753831 34.619364 -0.638908 0.536591 0.072853 -0.001487 170350.000000 0 0 1
-13.957809 10.197806 28.407271 33.253401 -0.630980 0.546658 0.069293 -0.005208 432582.000000 0 0 1
-14.879009 8.950306 28.102301 33.033804 -0.541550 0.553455 0.089294 -0.000817 514703.000000 0 0 1
-14.266709 7.700506 28.459891 32.753659 -0.494942 0.517806 0.057283 -0.002559 80150.800000 0 0 1
-15.043809 6.534206 28.226871 32.646107 -0.409759 0.526379 0.078881 0.000597 -124603.000000 0 0 1
-14.268909 5.218706 28.065751 31.914308 -0.350627 0.496176 0.077782 -0.004882 123693.000000 0 0 1
-13.520809 4.905206 26.853171 30.462536 -0.348023 0.491736 0.078639 -0.013650 36652.500000 0 0 1
-14.216409 4.440406 25.744971 29.742680 -0.302742 0.524469 0.081256 -0.008609 -548477.000000 0 0 1
-13.338809 4.150906 24.498511 28.201611 -0.301691 0.518241 0.075273 -0.003303 -106946.000000 0 0 1
-12.417209 3.097406 24.727821 27.843242 -0.244456 0.477583 0.061745 -0.013903 -97456.400000 0 0 1
-11.779109 2.764806 23.536851 26.464597 -0.230548 0.474828 0.049832 -0.015638 -64421.800000 0 0 1
-10.718509 1.643806 23.775451 26.131601 -0.152176 0.427910 0.041643 -0.012387 413865.000000 0 0 1
-9.442409 2.076106 24.227051 26.084848 -0.216427 0.379692 0.030965 -0.018225 465343.000000 0 0 1
-8.695409 0.987006 24.751171 26.252710 -0.113025 0.339851 0.036633 -0.002669 -382472.000000 0 0 1
-7.187009 1.233106 24.742941 25.795092 -0.169920 0.286598 0.061741 -0.013651 -1020570.000000 0 0 1
-6.713909 0.948006 23.448951 24.409600 -0.140273 0.281483 0.057146 -0.013207 185747.000000 0 1 0
-5.344909 1.204506 23.181321 23.820003 -0.221653 0.232093 0.050659 -0.011825 182591.000000 0 1 0
-4.733909 2.618306 23.349541 23.968030 -0.505217 0.227669 0.071338 -0.022467 -690884.000000 0 1 0
-4.395209 2.862206 24.662141 25.213712 -0.577226 0.209552 0.075068 -0.023764 -70964.700000 0 0 1
-4.285209 4.216206 24.940761 25.655038 -0.777282 0.236524 0.074496 -0.029006 16676.000000 0 0 1
5.699091 -23.373294 13.022011 27.356230 -1.331634 1.074677 0.179515 -0.056500 430582.000000 0 0 1
5.015091 -24.599094 13.256511 28.390169 -1.369680 1.084969 0.214941 -0.067534 -503354.000000 0 0 1
3.638891 -24.560294 13.029511 28.039575 -1.423705 1.087520 0.214310 -0.065009 -538375.000000 0 0 1
2.831891 -25.752334 13.526211 29.226028 -1.461270 1.089629 0.187642 -0.069197 -177494.000000 0 0 1
2.549891 -25.785734 14.899411 29.889772 -1.472229 1.048953 0.202798 -0.061378 -69980.600000 0 0 1
1.930891 -27.012674 15.238811 31.074657 -1.499437 1.058255 0.203635 -0.059677 -199271.000000 0 0 1
1.517791 -26.919104 16.734711 31.733144 -1.514473 1.015309 0.188440 -0.063336 -258250.000000 0 0 1
2.559391 -26.792174 17.689911 32.207205 -1.475558 0.989326 0.216503 -0.056284 -45959.700000 0 0 1
2.187791 -26.346334 18.953411 32.529180 -1.487947 0.948800 0.200500 -0.058189 577215.000000 0 0 1
3.466591 -25.813634 19.691811 32.651622 -1.437302 0.923429 0.164244 -0.052723 732881.000000 0 0 1
3.117691 -24.759494 20.591311 32.353588 -1.445537 0.880915 0.156156 -0.042462 300211.000000 0 0 1
4.260791 -24.144794 21.159411 32.385894 -1.396126 0.858792 0.128937 -0.033374 151921.000000 0 0 1
3.891191 -22.951794 22.120811 32.113183 -1.402856 0.810910 0.133486 -0.039986 13844.200000 0 0 1
3.310091 -21.792594 21.487711 30.783041 -1.420058 0.798143 0.154089 -0.040700 610923.000000 0 0 1
4.212491 -20.989794 20.723511 29.795645 -1.372735 0.801651 0.139420 -0.026193 445210.000000 0 0 1
3.372191 -19.976794 19.892811 28.393096 -1.403567 0.794528 0.094521 -0.023686 326137.000000 0 0 1
2.832391 -18.910594 20.692511 28.174688 -1.422124 0.745961 0.051869 -0.026023 757505.000000 0 0 1
1.862191 -18.212794 19.852411 27.005404 -1.468904 0.744942 0.047222 -0.029736 334771.000000 0 0 1
1.665491 -16.845794 20.555611 26.628702 -1.472250 0.688918 0.059639 -0.034928 -162909.000000 0 0 1
2.599391 -15.864794 20.202211 25.818169 -1.408393 0.672157 0.011030 -0.021425 -391424.000000 0 0 1
2.157591 -14.621794 20.627911 25.376422 -1.424294 0.621721 0.032435 -0.024080 154125.000000 0 0 1
3.230191 -13.471694 20.593911 24.819949 -1.335463 0.592169 -0.023301 -0.000406 -545431.000000 0 1 0
3.768191 -13.133194 19.323611 23.666052 -1.291381 0.615453 -0.043797 -0.003815 220951.000000 0 1 0
2.806691 -12.634694 18.368011 22.469910 -1.352204 0.613828 -0.016736 -0.015394 818300.000000 0 1 0
1.774291 -11.532594 18.841211 22.161680 -1.418143 0.554487 0.000247 -0.019670 -688829.000000 0 1 0
2.229891 -10.199494 18.928711 21.617081 -1.355555 0.504044 0.007592 -0.009736 -346563.000000 0 1 0
1.734291 -9.345894 19.974311 22.120728 -1.387316 0.444169 0.023856 -0.019309 97878.500000 0 1 0
0.196991 -9.126794 19.985711 21.971933 -1.549216 0.428472 0.035496 -0.023512 211169.000000 0 1 0
-0.257709 -8.269794 21.025511 22.594867 1.539644 0.374902 0.041404 -0.031086 -781405.000000 0 1 0
-1.633409 -8.071094 20.918511 22.480985 1.371116 0.375026 0.042822 -0.026687 -456223.000000 0 1 0
-2.168309 -7.428294 22.205411 23.515131 1.286788 0.335326 0.037568 -0.017115 -140365.000000 0 1 0
-2.462709 -8.337394 23.216311 24.790607 1.283582 0.358294 0.040554 -0.010759 119377.000000 0 1 0
-2.343309 -7.751894 24.532111 25.834230 1.277241 0.318848 0.036214 -0.004231 49203.900000 0 0 1
-2.697009 -8.732594 25.652811 27.232311 1.271246 0.342259 0.036408 -0.008863 262403.000000 0 0 1
-1.636809 -9.662294 25.903811 27.695604 1.402988 0.361679 0.035669 -0.007956 239161.000000 0 0 1
-1.958209 -10.709194 26.775511 28.904142 1.389941 0.386178 0.057260 -0.029039 -1107830.000000 0 0 1
-0.880109 -11.752294 26.937511 29.402730 1.496048 0.412412 0.057856 -0.038314 -1100580.000000 0 0 1
0.207091 -11.170494 27.588411 29.764799 -1.552259 0.384781 0.055049 -0.031844 -711018.000000 0 0 1
1.260991 -12.094194 27.734711 30.283227 -1.466908 0.413192 0.084580 -0.047750 254302.000000 0 0 1
2.556991 -11.511594 28.361011 30.714849 -1.352222 0.394042 0.119620 -0.059654 138168.000000 0 0 1
2.280691 -11.187494 29.714611 31.832683 -1.369691 0.366848 0.127101 -0.064793 120725.000000 0 0 1
3.439591 -10.709294 30.364911 32.381285 -1.260025 0.354759 0.173020 -0.047015 -175182.000000 0 0 1
3.088791 -9.958394 31.696911 33.367715 -1.270036 0.317792 0.175508 -0.053910 -408230.000000 0 0 1
2.265791 -10.755294 32.505611 34.313626 -1.363165 0.326068 0.187638 -0.058226 -181033.000000 0 0 1
2.174791 -10.347794 -33.442689 35.074492 -1.363642 2.835360 0.172053 -0.063677 -473741.000000 0 0 1
3.355291 -10.636294 -32.505689 34.365805 -1.265220 2.811071 0.148997 -0.038420 177470.000000 0 0 1
4.528791 -9.862594 -32.796489 34.545483 -1.140327 2.822025 0.136187 -0.052304 503792.000000 0 0 1
5.054191 -9.131494 -31.685689 33.360334 -1.065278 2.823396 0.134155 -0.050534 -324189.000000 0 0 1
4.276591 -7.944694 -31.035089 32.320027 -1.076984 2.858669 0.139230 -0.038107 -271700.000000 0 0 1
4.297791 -6.811194 -31.875389 32.877101 -1.007902 2.894108 0.151070 -0.047095 155096.000000 0 0 1
3.646291 -5.705894 -31.284389 32.008837 -1.002165 2.928432 0.144529 -0.037935 59919.400000 0 0 1
3.582791 -4.367994 -32.123889 32.616867 -0.883837 2.967510 0.146376 -0.039005 -313647.000000 0 0 1
2.669991 -4.406794 -33.153889 33.551886 -1.026064 2.987413 0.157113 -0.049449 -501964.000000 0 0 1
2.806591 -3.271394 33.339911 33.617386 -0.861723 0.128571 0.151695 -0.027128 260812.000000 0 0 1
2.135491 -3.517094 31.983811 32.247394 -1.025118 0.127945 0.169770 -0.028860 333175.000000 0 0 1
0.725791 -3.490094 31.954211 32.152436 -1.365761 0.111099 0.166915 -0.026073 -100127.000000 0 0 1
0.244691 -3.869494 30.661311 30.905483 -1.507645 0.125786 0.155986 -0.021691 104085.000000 0 0 1
-1.270909 -4.160794 30.541211 30.849522 1.274348 0.141497 0.128854 -0.019808 263019.000000 0 0 1
-2.110309 -3.014794 30.396811 30.618761 0.960081 0.120479 0.119854 -0.018092 330846.000000 0 0 1
-3.397109 -3.542394 30.103611 30.501087 0.806331 0.161616 0.080927 -0.014193 -360557.000000 0 0 1
-4.510609 -2.653694 29.631211 30.089805 0.531789 0.174813 0.060269 -0.010252 -667610.000000 0 0 1
-4.527009 -2.331994 28.248511 28.703839 0.475678 0.178354 0.056776 -0.017133 53039.400000 0 0 1
-5.623109 -1.557594 27.795611 28.401434 0.270224 0.206915 0.040924 -0.019263 64684.900000 0 0 1
-5.730409 -0.058994 28.219611 28.795616 0.010295 0.200351 0.076729 -0.026640 173184.000000 0 0 1
-7.017409 0.531006 28.329811 29.190824 -0.075526 0.243484 0.062897 -0.023249 18649.100000 0 0 1
-6.976409 1.922506 28.480911 29.385857 -0.268898 0.248816 0.083253 -0.022122 515641.000000 0 0 1
-8.335009 2.435806 29.076511 30.345494 -0.284320 0.290216 0.067642 -0.023849 821940.000000 0 0 1
-9.426909 2.104906 28.211911 29.819610 -0.219683 0.329866 0.067551 -0.016277 -193061.000000 0 0 1
-10.579909 2.739106 28.701411 30.711694 -0.253335 0.363823 0.074289 -0.013111 -272452.000000 0 0 1
-11.835409 2.150106 28.003211 30.477528 -0.179707 0.405729 0.074614 -0.007512 -174058.000000 0 0 1
-12.080109 0.785906 28.248711 30.733310 -0.064966 0.404864 0.075154 -0.008788 18133.900000 0 0 1
-12.416609 0.046406 27.100811 29.809869 -0.003737 0.429625 0.072320 -0.002370 -686485.000000 0 0 1
-12.591809 -1.499094 27.389911 30.182912 0.118495 0.433588 0.076956 -0.004938 252117.000000 0 0 1
-11.406809 -2.157794 27.806711 30.132782 0.186958 0.395495 0.073660 -0.006709 1042550.000000 0 0 1
-10.195909 -2.136794 27.032511 28.970314 0.206584 0.367828 0.056776 -0.004672 338309.000000 0 0 1
-10.165709 -2.864894 25.656611 27.745467 0.274695 0.390514 0.060620 -0.005226 -346254.000000 0 0 1
-10.978209 -2.203294 24.665011 27.087605 0.198066 0.426149 0.040563 -0.008801 483846.000000 0 0 1
-10.887309 -2.721694 23.333011 25.891515 0.244967 0.448304 0.037172 -0.008662 -317041.000000 0 0 1
-9.694609 -2.218894 22.521511 24.619655 0.225004 0.415839 0.035476 -0.012144 103160.000000 0 1 0
-8.438809 -2.342094 23.164611 24.764856 0.270725 0.361457 0.038499 -0.012814 -164151.000000 0 1 0
-7.408509 -2.183794 22.204011 23.509000 0.286650 0.334758 0.032444 -0.009261 40570.500000 0 1 0
-6.019409 -2.464694 22.821911 23.730732 0.388633 0.277648 0.033056 -0.002072 -80903.900000 0 1 0
-5.541009 -3.814694 22.858511 23.827845 0.602931 0.286215 0.036331 -0.001677 239507.000000 0 1 0
-6.330409 -4.777394 23.585311 24.883016 0.646486 0.324382 0.043257 -0.003787 18732.000000 0 1 0
-6.051709 -6.232094 23.158011 24.733695 0.800082 0.358871 0.061330 -0.007827 -317419.000000 0 1 0
-6.652309 -6.663694 21.975211 23.907487 0.786253 0.404811 0.057731 -0.016050 132800.000000 0 1 0
-6.102409 -6.080294 20.776811 22.491893 0.783583 0.393046 0.043568 -0.017162 209296.000000 0 1 0
-7.218909 -6.136494 19.690611 21.851530 0.704528 0.448476 0.039871 -0.020324 430909.000000 0 1 0
-8.255509 -5.227194 20.012311 22.270375 0.564457 0.454212 0.043861 -0.017073 -982633.000000 0 1 0
-9.173909 -5.123494 19.008911 21.719795 0.509335 0.504971 0.045478 -0.017821 -475207.000000 0 1 0
-9.949709 -3.790294 19.166711 21.925461 0.363973 0.507060 0.042949 -0.016205 -65656.500000 0 1 0
-9.195609 -2.725894 18.597711 20.925214 0.288182 0.476141 0.039871 -0.021137 278315.000000 0 1 0
-9.744209 -1.409494 18.707411 21.140093 0.143653 0.484462 0.037580 -0.015663 -545885.000000 0 1 0
-8.739209 -0.344094 18.268211 20.253881 0.039353 0.446507 0.027695 -0.012100 338766.000000 0 1 0
-7.651409 -0.130794 19.203411 20.672014 0.017092 0.379211 0.030604 -0.001988 884309.000000 0 1 0
-7.944009 0.720706 20.302011 21.812802 -0.090475 0.374370 0.041703 -0.003605 -316709.000000 0 1 0
-7.744509 2.228506 20.000211 21.562748 -0.280183 0.383033 0.031977 -0.014704 -439278.000000 0 1 0
-8.557109 2.638606 18.952311 20.961308 -0.299102 0.441394 0.021546 -0.026909 -110820.000000 0 1 0
-8.305209 3.965506 18.693011 20.835796 -0.445463 0.457502 0.013734 -0.021363 -388584.000000 0 1 0
-9.159609 4.559906 17.572911 20.334660 -0.461908 0.527268 0.010955 -0.014070 -1036870.000000 0 1 0
-10.419009 4.954606 17.992211 21.373430 -0.443885 0.570182 0.017318 -0.007152 -610079.000000 0 1 0
-11.268009 5.373806 16.932111 21.036687 -0.445004 0.635315 0.019722 0.002440 67821.000000 0 1 0
-11.288709 6.896106 16.731311 21.329041 -0.548385 0.669007 0.022965 -0.000633 445385.000000 0 1 0
-9.949109 7.378706 16.504311 20.635463 -0.638132 0.643829 0.001970 -0.006096 974017.000000 0 1 0
-9.843209 8.752206 16.270711 20.933846 -0.726795 0.680522 -0.004922 -0.012011 -322649.000000 0 1 0
-8.468809 9.303006 16.650611 20.868864 -0.832303 0.647045 -0.008868 -0.009930 -545133.000000 0 1 0
-8.422109 9.713306 18.027311 22.141910 -0.856476 0.619496 0.010005 0.006083 77527.600000 0 1 0
-7.612209 10.859206 18.211911 22.528688 -0.959405 0.629389 0.017671 -0.001749 -209865.000000 0 1 0
-8.465409 12.119606 17.956711 23.259223 -0.961085 0.688775 0.032336 -0.008114 199166.000000 0 1 0
-8.488509 12.408906 16.591611 22.390116 -0.970845 0.736202 0.030066 -0.014312 34831.900000 0 1 0
-9.292209 13.557106 16.295811 23.145058 -0.969928 0.789679 0.047127 -0.021503 207037.000000 0 1 0
-9.028309 14.075906 14.865511 22.374649 -1.000489 0.844118 0.050585 -0.022613 549478.000000 0 1 0
-7.835909 14.844106 14.754211 22.348058 -1.085094 0.849710 0.052275 -0.015955 153196.000000 0 1 0
-7.815309 15.486606 13.497011 21.979156 -1.103436 0.909574 0.040415 -0.013827 -595335.000000 0 1 0
-6.783909 16.560906 13.572011 22.460732 -1.182013 0.921966 0.014239 -0.007917 -89499.700000 0 1 0
-5.452909 16.238706 13.973411 22.106243 -1.246830 0.886533 0.020021 -0.012931 -502479.000000 0 1 0
-4.734509 17.391906 13.839211 22.724826 -1.305012 0.916009 0.027322 -0.013312 275589.000000 0 1 0
-3.221009 17.120306 13.448211 22.007593 -1.384830 0.913383 0.025274 -0.019521 1024010.000000 0 1 0
-2.377909 16.778006 14.531411 22.323034 -1.430006 0.861947 0.038672 -0.023445 -347803.000000 0 1 0
-2.643109 15.466006 15.073511 21.757621 -1.401534 0.805442 0.028312 -0.012120 -366741.000000 0 1 0
-1.589109 14.989206 16.134811 22.080165 -1.465174 0.751394 0.032474 -0.008639 542419.000000 0 1 0
-0.427309 14.348806 15.542511 21.157516 -1.541025 0.745705 0.051875 -0.026886 962383.000000 0 1 0
0.532791 13.890606 16.521111 21.591200 1.532459 0.699479 0.056871 -0.010012 659267.000000 0 1 0
1.416391 14.977806 17.133311 22.801122 1.476511 0.720579 0.051123 -0.017711 -734932.000000 0 1 0
0.667991 15.834806 17.979611 23.967764 1.528636 0.722495 0.047296 -0.026353 -216148.000000 0 1 0
1.444591 16.918806 18.439011 25.066511 1.485619 0.744239 0.070767 -0.029293 -587211.000000 0 0 1
0.586691 18.097206 18.868611 26.151052 1.538389 0.764795 0.087914 -0.032858 7174.030000 0 0 1
0.222891 19.040006 17.823311 26.081448 1.559090 0.818426 0.069866 -0.032559 82862.600000 0 0 1
-0.963509 18.570406 17.201111 25.331138 -1.518959 0.824328 0.073904 -0.033693 -411030.000000 0 0 1
-1.761909 19.715306 16.529711 25.788155 -1.481666 0.875021 0.068887 -0.022788 -175218.000000 0 0 1
-2.226309 20.624406 17.510811 27.146843 -1.463267 0.869720 0.067906 -0.027869 63529.900000 0 0 1
-2.891809 21.710506 16.891611 27.659269 -1.438377 0.913848 0.080971 -0.032580 -189377.000000 0 0 1
-3.923309 22.406106 17.795911 28.881142 -1.397454 0.906916 0.073608 -0.028488 172425.000000 0 0 1
-5.122409 21.788906 18.211111 28.855503 -1.339897 0.887808 0.094361 -0.029818 -34598.800000 0 0 1
-5.865809 22.661606 18.980211 30.136431 -1.317512 0.889488 0.095228 -0.020751 -167863.000000 0 0 1
-6.998909 22.059706 19.844111 30.486129 -1.263571 0.861997 0.075773 -0.026423 408154.000000 0 0 1
-8.285209 22.413306 19.352611 30.749382 -1.216719 0.890059 0.076110 -0.024140 -98667.100000 0 0 1
-9.334309 21.914806 20.141711 31.194175 -1.168133 0.868872 0.035014 -0.020394 -253788.000000 0 0 1
-10.704909 22.392706 19.660211 31.663105 -1.124860 0.900882 0.050514 -0.023490 -446608.000000 0 0 1
-11.016409 23.782906 19.905311 32.912145 -1.137014 0.921280 0.071187 -0.023636 563287.000000 0 0 1
-12.101909 24.209506 19.058811 33.102789 -1.107243 0.957280 0.061273 -0.024935 379746.000000 0 0 1
-12.627509 25.602306 19.401111 34.515723 -1.112589 0.973880 0.075634 -0.026628 -167702.000000 0 0 1
-13.361109 25.735206 20.599511 35.569086 -1.091926 0.953122 0.079436 -0.030372 418332.000000 0 0 1
-13.997309 27.036806 20.771111 36.855835 -1.093079 0.972086 0.086278 -0.035693 -368452.000000 0 0 1
-14.907309 27.100806 21.974211 37.941369 -1.067900 0.953096 0.101935 -0.051101 -840084.000000 0 0 1
-16.098909 26.405306 21.760211 37.814307 -1.023286 0.957643 0.085249 -0.046569 -576238.000000 0 0 1
-16.972209 26.577006 22.833211 38.932617 -1.002473 0.944090 0.070552 -0.039126 632806.000000 0 0 1
-18.436509 26.058806 22.623211 39.125131 -0.955057 0.954242 0.084562 -0.034680 557567.000000 0 0 1
-18.467909 24.637106 22.644411 38.220675 -0.927553 0.936681 0.100845 -0.032248 590879.000000 0 0 1
-19.845909 24.247406 22.581811 38.622985 -0.884891 0.946320 0.102096 -0.019722 631122.000000 0 0 1
29.342491 24.576406 23.494321 44.910629 0.697234 1.020271 0.097124 -0.018829 153794.000000 0 0 1
28.833491 23.661706 24.450451 44.599003 0.687196 0.990552 0.088685 -0.027420 56604.600000 0 0 1
28.402591 22.482006 23.779301 43.331315 0.669566 0.989894 0.095282 -0.020102 -65873.500000 0 0 1
28.165391 21.346906 24.777551 43.161402 0.648546 0.959332 0.114083 -0.023008 541880.000000 0 0 1
26.941291 21.567606 25.487541 42.902325 0.675071 0.934671 0.104953 -0.025510 527738.000000 0 0 1
26.914791 20.907506 26.737621 43.317781 0.660436 0.905562 0.105966 -0.031499 -69644.600000 0 0 1
25.589891 21.168506 27.473941 43.101805 0.691120 0.879651 0.119109 -0.037150 -64966.200000 0 0 1
25.469091 22.482406 27.947851 43.991085 0.723193 0.882390 0.116758 -0.045614 -158670.000000 0 0 1
24.369791 22.554306 28.815361 43.964855 0.746728 0.856060 0.138680 -0.042679 -443692.000000 0 0 1
24.237691 23.936206 29.548431 45.094538 0.779140 0.856276 0.137080 -0.046138 -336117.000000 0 0 1
23.797191 25.059906 28.822021 45.000156 0.811237 0.875664 0.146161 -0.050708 32975.000000 0 0 1
23.447191 26.158906 29.609501 45.943244 0.840009 0.870453 0.147399 -0.050925 226102.000000 0 0 1
22.007291 26.150606 30.185881 45.600027 0.871223 0.847351 0.172531 -0.043101 308719.000000 0 0 1
20.926891 26.436006 29.277421 44.653830 0.901195 0.855749 0.162110 -0.048177 1847070.000000 0 0 1
19.652491 26.733406 29.917821 44.676296 0.936881 0.837049 0.153887 -0.045413 1711610.000000 0 0 1
18.760491 25.514606 30.351351 43.865198 0.936780 0.806647 0.162073 -0.037202 -28991.700000 0 0 1
19.125291 25.014506 31.600822 44.610696 0.918037 0.783612 0.142461 -0.040888 -803639.000000 0 0 1
18.129991 24.296306 32.192794 44.219713 0.929729 0.755368 0.171246 -0.043666 -572215.000000 0 0 1
18.554691 23.842106 33.609261 45.191868 0.909470 0.732206 0.179431 -0.046426 -3181.930000 0 0 1
18.747591 24.989606 -32.822589 45.313076 0.927157 2.380889 0.155726 -0.039580 130036.000000 0 0 1
18.918091 24.606806 -31.456029 44.191298 0.915362 2.362875 0.109662 -0.022314 -169735.000000 0 0 1
19.156891 25.770506 -30.478469 44.272367 0.931555 2.330120 0.066335 -0.005937 -432950.000000 0 0 1
18.060091 26.490806 -29.990429 43.901657 0.972424 2.322833 0.102631 -0.028539 -14610.600000 0 0 1
18.511291 27.726206 -29.341219 44.410781 0.982116 2.292518 0.089049 -0.025693 129937.000000 0 0 1
18.047591 28.003706 -27.885089 43.445382 0.998317 2.267695 0.100829 -0.025707 -14258.500000 0 0 1
18.574691 27.062306 -26.959389 42.475831 0.969278 2.258416 0.055366 -0.011147 300627.000000 0 0 1
17.977991 27.361106 -25.690749 41.615536 0.989471 2.236148 0.077218 -0.019074 7996.750000 0 0 1
18.693491 26.656806 -24.538689 40.769831 0.959222 2.216654 0.078549 -0.032541 1065230.000000 0 0 1
20.094691 26.971806 -24.494589 41.608410 0.930486 2.200238 0.061671 -0.018196 634257.000000 0 0 1
20.899591 26.296906 -23.527789 41.010694 0.899262 2.181811 0.061717 -0.017349 917259.000000 0 0 1
22.438591 26.505906 -23.700289 42.044703 0.868308 2.169646 0.070901 -0.020285 524970.000000 0 0 1
23.121191 25.959306 -22.615989 41.472376 0.843160 2.147575 0.078533 -0.019023 -1592490.000000 0 0 1
24.483091 26.115306 -22.774689 42.427790 0.817645 2.137421 0.099595 -0.018582 -920985.000000 0 0 1
25.135191 25.836706 -21.392289 41.915906 0.799160 2.106402 0.114286 -0.020751 44414.600000 0 0 1
24.915991 24.487806 -21.034389 40.778729 0.776731 2.112758 0.126761 -0.023204 -214462.000000 0 0 1
25.360191 24.342406 -19.736289 40.313932 0.764924 2.082387 0.126627 -0.025377 -330340.000000 0 0 1
24.913691 23.171906 -18.821489 38.882871 0.749191 2.076080 0.122331 -0.022176 -380093.000000 0 0 1
25.471791 21.945006 -19.214489 38.724566 0.711156 2.089994 0.134709 -0.014227 43181.200000 0 0 1
25.169191 21.062806 -18.200289 37.528396 0.696809 2.077130 0.150346 -0.015075 -518371.000000 0 0 1
25.151191 19.562906 -18.524889 36.857309 0.661065 2.097413 0.171805 -0.023979 699836.000000 0 0 1
24.195891 19.066906 -19.483089 36.449675 0.667395 2.134736 0.137512 -0.027702 -466698.000000 0 0 1
22.867091 19.105306 -19.113289 35.401050 0.696012 2.141123 0.143073 -0.037743 -842849.000000 0 0 1
21.815191 18.842206 -20.243689 35.224114 0.712405 2.183047 0.120387 -0.017245 497718.000000 0 0 1
21.842991 19.811306 -21.267389 36.358024 0.736662 2.195607 0.108091 -0.016088 -235255.000000 0 0 1
21.475091 21.136706 -20.883489 36.661423 0.777457 2.176853 0.107458 -0.017986 -84688.600000 0 0 1
21.310591 22.116306 -22.112389 37.844815 0.803949 2.194803 0.091996 -0.010450 2523160.000000 0 0 1
19.957891 22.010906 -22.737289 37.413656 0.834277 2.223992 0.111384 -0.012934 1964030.000000 0 0 1
19.870991 22.793306 -23.870089 38.524956 0.853787 2.239030 0.100469 -0.017599 922942.000000 0 0 1
18.354291 22.906406 -24.252289 38.075674 0.895279 2.261331 0.104004 -0.018439 818014.000000 0 0 1
17.460491 23.575706 -23.387889 37.519008 0.933330 2.243830 0.112458 -0.031500 439459.000000 0 0 1
16.124791 23.349206 -23.841389 37.062192 0.966412 2.269572 0.125164 -0.028680 548287.000000 0 0 1
15.092491 24.316306 -23.241989 36.868090 1.015314 2.252877 0.115965 -0.027959 -3934.760000 0 0 1
15.433991 25.669706 -23.499589 38.070626 1.029456 2.236055 0.108845 -0.033857 153738.000000 0 0 1
14.385091 26.551006 -23.143889 38.046371 1.074278 2.224723 0.130090 -0.034004 310842.000000 0 0 1
14.606391 27.966806 -23.769989 39.503180 1.089487 2.216453 0.120425 -0.038313 110418.000000 0 0 1
14.552991 27.907306 -25.198949 40.318659 1.090116 2.245921 0.122012 -0.048270 -9142.360000 0 0 1
14.032191 29.080906 -25.888189 41.385985 1.121228 2.246607 0.130609 -0.045435 207316.000000 0 0 1
14.771191 30.448006 -25.673649 42.478293 1.119117 2.219802 0.118068 -0.042060 -925799.000000 0 0 1
16.038991 30.395306 -26.175359 43.200385 1.085251 2.221700 0.097489 -0.036428 -1387410.000000 0 0 1
16.697491 31.612706 -26.416059 44.451969 1.084852 2.207142 0.095830 -0.037065 343632.000000 0 0 1
18.152691 31.421106 -26.902959 45.172727 1.046918 2.208756 0.099742 -0.025192 -76149.900000 0 0 1
19.063291 30.866706 -26.019309 44.644899 1.017536 2.192974 0.061369 -0.025254 141834.000000 0 0 1
20.367191 30.779406 -26.596559 45.492540 0.986230 2.195227 0.081594 -0.021916 143848.000000 0 0 1
21.390391 30.090906 -25.682829 44.973538 0.952820 2.178599 0.048723 -0.017523 -1158900.000000 0 0 1
21.784791 30.745806 -24.465189 44.926909 0.954358 2.146655 0.059191 -0.026519 -20671.000000 0 0 1
22.637791 31.868306 -24.502889 46.135128 0.953155 2.130708 0.077871 -0.034580 -904045.000000 0 0 1
24.020391 31.672306 -25.071389 46.996688 0.921939 2.133496 0.071022 -0.031172 -1417990.000000 0 0 1
23.985791 31.279206 -26.425539 47.455410 0.916612 2.161385 0.061668 -0.023948 -297502.000000 0 0 1
25.237891 31.491006 -27.042949 48.579375 0.895183 2.161175 0.072260 -0.016257 -217666.000000 0 0 1
25.241591 30.968006 -28.483409 49.065873 0.886924 2.190156 0.053979 -0.008499 289438.000000 0 0 1
24.346991 31.673706 -29.351569 49.573321 0.915446 2.204439 0.081583 -0.021960 1139400.000000 0 0 1
23.085091 30.992206 -29.500519 48.618092 0.930588 2.222801 0.074674 -0.016702 608175.000000 0 0 1
22.038091 31.650306 -30.427709 49.124991 0.962558 2.238766 0.078854 -0.016062 -476075.000000 0 0 1
21.564791 32.882506 -29.875529 49.384680 0.990345 2.220506 0.100634 -0.025362 -392725.000000 0 0 1
20.664691 33.552306 -30.673369 49.936382 1.018771 2.232230 0.116646 -0.034777 -725550.000000 0 0 1
19.200791 33.256706 -30.312549 48.923711 1.047197 2.239014 0.109484 -0.036096 -516955.000000 0 0 1
18.632191 31.931306 -30.442899 47.890885 1.042591 2.259675 0.109716 -0.029597 336244.000000 0 0 1
18.678491 31.191606 -31.676839 48.220581 1.031237 2.287516 0.115326 -0.030648 -668053.000000 0 0 1
18.070391 31.778106 -32.978389 49.233740 1.053753 2.304780 0.124741 -0.039400 -295138.000000 0 0 1
18.791991 32.846706 -33.623949 50.622277 1.051135 2.297236 0.124402 -0.036072 171091.000000 0 0 1
18.458091 33.180806 32.311522 49.856809 1.063138 0.865727 0.113348 -0.039778 340790.000000 0 0 1
16.997391 33.624006 31.993254 49.427253 1.102748 0.866786 0.119175 -0.042870 -1548630.000000 0 0 1
16.044491 32.614506 32.014780 48.436327 1.113615 0.848691 0.117401 -0.036360 -449113.000000 0 0 1
14.732891 33.078706 32.267489 48.502058 1.151784 0.842926 0.097142 -0.033662 62159.500000 0 0 1
14.129591 -33.488723 31.167371 47.880528 -1.171537 0.861974 0.103240 -0.034777 -2051260.000000 0 0 1
14.767791 -32.281023 30.828511 47.016478 -1.141743 0.855692 0.123955 -0.025049 122014.000000 0 0 1
14.070191 -31.711123 29.704051 45.671613 -1.153195 0.862708 0.121395 -0.032821 -19317.000000 0 0 1
14.695691 -30.412323 29.250511 44.681821 -1.120667 0.857090 0.124512 -0.028443 -201108.000000 0 0 1
14.403591 -29.424723 30.170091 44.536638 -1.115579 0.826544 0.128358 -0.030233 318407.000000 0 0 1
14.772291 -28.149423 29.694141 43.501179 -1.087521 0.819474 0.148982 -0.040385 -546135.000000 0 0 1
14.308291 -27.132623 30.728791 43.418487 -1.085512 0.784509 0.129633 -0.035664 600970.000000 0 0 1
12.922391 -26.784623 30.670311 42.720864 -1.121283 0.769982 0.107572 -0.033505 491532.000000 0 0 1
12.553491 -25.889723 29.604901 41.283387 -1.119315 0.771144 0.104656 -0.033421 -440239.000000 0 0 1
12.798891 -24.354723 29.883581 40.620100 -1.086942 0.744120 0.115522 -0.031638 437115.000000 0 0 1
11.913191 -23.907823 30.933471 40.870377 -1.108512 0.712289 0.108925 -0.030602 742113.000000 0 0 1
12.407191 -22.664623 31.409697 40.671767 -1.069932 0.688385 0.114552 -0.030471 532557.000000 0 0 1
11.414691 -22.062923 32.447274 40.864328 -1.093350 0.653395 0.101411 -0.027585 147795.000000 0 0 1
11.203491 -22.729523 -33.606619 42.089836 -1.112841 2.495512 0.104670 -0.029930 1007520.000000 0 0 1
12.399491 -22.812223 -32.788589 41.823874 -1.072922 2.471829 0.121702 -0.024339 1035510.000000 0 0 1
13.018591 -21.566923 -32.144679 40.839886 -1.027707 2.476874 0.123920 -0.023625 -219418.000000 0 0 1
13.582491 -20.699923 -33.076839 41.316439 -0.990102 2.499048 0.104312 -0.027078 288021.000000 0 0 1
14.505491 -19.804523 -32.422489 40.667508 -0.938633 2.493535 0.118709 -0.035353 219136.000000 0 0 1
14.840191 -18.600523 -33.331259 40.953432 -0.897376 2.521599 0.099436 -0.031075 -955555.000000 0 0 1
15.592091 -19.046623 32.860678 41.057415 -0.884800 0.642902 0.143188 -0.026678 289564.000000 0 0 1
15.894691 -18.083723 31.876098 39.946813 -0.849733 0.646888 0.114991 -0.022691 228824.000000 0 0 1
17.087091 -17.147723 32.220045 40.300675 -0.787169 0.644348 0.110836 -0.020992 -966642.000000 0 0 1
16.790791 -16.127023 33.156689 40.513918 -0.765237 0.612171 0.098890 -0.017662 233342.000000 0 0 1
17.583991 -14.938523 33.127383 40.370530 -0.704234 0.608365 0.107871 -0.012936 410516.000000 0 0 1
19.075291 -15.128523 33.544911 41.448763 -0.670517 0.627819 0.109460 -0.009366 203910.000000 0 0 1
19.852891 -15.737423 32.508287 41.213984 -0.670275 0.661994 0.110862 -0.008766 284915.000000 0 0 1
21.231791 -15.521723 32.829369 42.065191 -0.631269 0.675427 0.104062 -0.008875 593329.000000 0 0 1
22.172691 -16.330023 31.900640 42.142006 -0.634800 0.712118 0.107266 -0.016480 -278762.000000 0 0 1
22.196791 -15.821923 30.576901 40.963126 -0.619267 0.728086 0.096002 -0.001230 -142901.000000 0 0 1
23.232491 -16.290523 29.788251 41.139636 -0.611528 0.761102 0.078428 -0.013994 -609852.000000 0 0 1
23.254091 -15.484523 28.469891 39.888067 -0.587460 0.775966 0.057608 -0.001596 47025.400000 0 0 1
23.870791 -14.194923 28.573361 39.846549 -0.536481 0.771185 0.039978 -0.000918 309508.000000 0 0 1
23.673491 -13.525423 27.328641 38.603444 -0.519073 0.784229 0.037618 -0.008291 35935.800000 0 0 1
24.425191 -12.176823 27.231671 38.554233 -0.462475 0.786509 0.019527 -0.000938 78192.600000 0 0 1
24.093191 -11.259923 28.303231 38.837361 -0.437187 0.754283 0.041645 -0.008576 215943.000000 0 0 1
24.699491 -9.977123 28.134831 38.745020 -0.383899 0.758086 0.040772 -0.007006 -295211.000000 0 0 1
23.694591 -8.863323 27.933851 37.686764 -0.357951 0.735923 0.062036 -0.005678 245004.000000 0 0 1
22.977591 -8.486423 29.160381 38.083026 -0.353795 0.698659 0.069152 0.000920 359003.000000 0 0 1
21.961991 -7.519923 28.894081 37.064082 -0.329894 0.676816 0.086942 -0.008474 500182.000000 0 0 1
20.868991 -7.478623 30.003151 37.304606 -0.344103 0.636342 0.073173 0.006355 66135.500000 0 0 1
21.380891 -7.048623 31.227824 38.496787 -0.318449 0.624629 0.092136 -0.001876 68380.900000 0 0 1
21.647191 -8.150723 32.035619 39.513492 -0.360108 0.625362 0.108161 -0.008231 -321047.000000 0 0 1
21.781491 -7.837723 33.531901 40.746185 -0.345409 0.604219 0.122404 -0.014700 323265.000000 0 0 1
20.571991 -7.417923 -33.127519 39.694646 -0.346072 2.558128 0.110627 -0.025505 472360.000000 0 0 1
20.673491 -7.143323 -31.764869 38.567178 -0.332688 2.538569 0.121937 -0.040029 -1130500.000000 0 0 1
19.349191 -6.735823 -31.200749 37.326254 -0.334998 2.560554 0.134562 -0.039673 -679506.000000 0 0 1
19.563591 -5.998023 -30.008499 36.321074 -0.297493 2.543127 0.120631 -0.043575 776793.000000 0 0 1
18.294191 -5.412423 -29.710689 35.308594 -0.287649 2.570772 0.135138 -0.033501 661289.000000 0 0 1
18.392491 -4.349323 -28.545439 34.235105 -0.232207 2.556763 0.124893 -0.031118 -427012.000000 0 0 1
18.772791 -4.762623 -27.217809 33.405230 -0.248456 2.523141 0.113937 -0.033054 -146424.000000 0 0 1
18.101591 -5.795723 -26.513259 32.622246 -0.309864 2.519628 0.107958 -0.033914 329972.000000 0 0 1
16.616491 -5.524223 -26.122199 31.448276 -0.320959 2.551053 0.123068 -0.034340 457963.000000 0 0 1
16.547591 -4.548023 -25.110429 30.414485 -0.268222 2.542074 0.113182 -0.034524 -619937.000000 0 0 1
15.248491 -4.504123 -24.608789 29.298397 -0.287214 2.567962 0.118454 -0.033719 -421837.000000 0 0 1
14.999491 -3.492123 -23.508289 28.103724 -0.228741 2.561630 0.129654 -0.028489 53380.400000 0 0 1
15.205491 -2.161523 -23.943989 28.446331 -0.141208 2.571267 0.122605 -0.033576 172330.000000 0 0 1
14.828691 -1.245523 -22.937389 27.341639 -0.083797 2.566088 0.125527 -0.030649 127866.000000 0 0 1
15.180691 0.217477 -23.352589 27.853978 0.014325 2.565125 0.093399 -0.034689 213161.000000 0 0 1
14.360991 0.625477 -24.450489 28.362928 0.043526 2.610113 0.110661 -0.035121 484845.000000 0 0 1
14.823391 1.883477 -24.803589 28.956837 0.126384 2.599384 0.095751 -0.016552 29106.800000 0 0 1
14.058391 2.512477 -26.014709 29.676859 0.176850 2.639545 0.070472 -0.009218 732082.000000 0 0 1
12.690791 2.908477 -25.887689 28.977368 0.225290 2.675600 0.079157 -0.028805 654285.000000 0 0 1
12.364791 3.612477 -27.068539 29.977389 0.284247 2.697417 0.071717 -0.028794 -573323.000000 0 0 1
10.938891 4.130477 -27.235689 29.639550 0.361044 2.736071 0.080174 -0.033450 -552021.000000 0 0 1
10.706191 5.211477 -26.346289 28.912090 0.453010 2.717118 0.066906 -0.030421 44669.400000 0 0 1
9.795891 6.099477 -26.945569 29.312570 0.556912 2.736966 0.077930 -0.039493 -423036.000000 0 0 1
9.032191 5.254306 -31.401739 33.094673 0.526878 2.820356 0.077067 -0.044004 -186595.000000 0 0 1
8.923991 4.413406 -30.262149 31.857706 0.459282 2.823764 0.074906 -0.017735 457106.000000 0 0 1
8.530891 3.110306 -30.636689 31.953980 0.349616 2.853457 0.062891 -0.017151 -92290.400000 0 0 1
8.269291 2.146506 -29.447799 30.662053 0.253970 2.859226 0.068789 -0.021658 -80948.700000 0 0 1
9.461191 1.615606 -28.905229 30.457127 0.169130 2.820993 0.094954 -0.025833 736481.000000 0 0 1
9.067391 0.881306 -27.689439 29.149602 0.096891 2.823738 0.102364 -0.024476 262528.000000 0 0 1
10.332091 0.526706 -26.891429 28.812818 0.050934 2.774333 0.101968 -0.034158 -263626.000000 0 0 1
11.162291 -0.352294 -27.572769 29.748587 -0.031551 2.756756 0.123063 -0.026547 -81960.000000 0 0 1
12.127791 -0.928794 -26.676989 29.319067 -0.076435 2.713804 0.115846 -0.024186 316124.000000 0 0 1
12.781591 -2.157994 -27.304039 30.224767 -0.167259 2.698352 0.117760 -0.027931 515184.000000 0 0 1
11.874191 -3.285694 -27.325649 29.974711 -0.269954 2.718013 0.127608 -0.025800 463347.000000 0 0 1
12.578391 -4.450594 -27.657969 30.708093 -0.340082 2.692114 0.138273 -0.031257 -54153.100000 0 0 1
12.071691 -5.681394 -26.928579 30.052493 -0.439883 2.681590 0.107845 -0.028369 -36707.700000 0 0 1
12.237991 -5.588194 -25.493529 28.825620 -0.428351 2.656014 0.130693 -0.026365 11314.200000 0 0 1
11.724691 -6.736594 -24.885489 28.322035 -0.521507 2.643848 0.121388 -0.030312 -49186.400000 0 0 1
11.671791 -6.629594 -23.318689 26.906198 -0.516559 2.619277 0.129988 -0.034029 273107.000000 0 0 1
12.940191 -6.564594 -22.677489 26.922313 -0.469473 2.572389 0.118528 -0.035294 181595.000000 0 0 1
12.789191 -6.532594 -21.240989 25.640160 -0.472243 2.547089 0.142084 -0.048757 501295.000000 0 0 1
14.142391 -6.360194 -20.482589 25.690382 -0.422626 2.493582 0.149750 -0.047858 567036.000000 0 0 1
14.748491 -5.108394 -20.513089 25.775967 -0.333435 2.491161 0.132319 -0.045679 -442519.000000 0 0 1
15.765091 -5.018194 -19.559089 25.617930 -0.308170 2.439500 0.119837 -0.042231 -282111.000000 0 0 1
16.324991 -3.658794 -19.300289 25.541990 -0.220479 2.427411 0.129221 -0.034150 -447432.000000 0 0 1
17.148391 -3.067194 -20.279289 26.734333 -0.176990 2.431879 0.105332 -0.029534 156971.000000 0 0 1
17.540191 -1.781694 -19.786289 26.501509 -0.101231 2.413748 0.110717 -0.024459 -115193.000000 0 0 1
18.648491 -1.155594 -20.650989 27.848967 -0.061888 2.406152 0.066275 -0.025226 -497816.000000 0 0 1
19.861191 -1.829094 -20.599489 28.673183 -0.091835 2.372330 0.095113 -0.035068 -1096900.000000 0 0 1
20.795791 -1.215894 -21.399789 29.864599 -0.058402 2.369655 0.097226 -0.025365 122017.000000 0 0 1
22.186391 -1.928094 -21.491689 30.949090 -0.086687 2.338411 0.070898 -0.022994 -502068.000000 0 0 1
23.036491 -1.652194 -20.406089 30.819119 -0.071598 2.294446 0.075960 -0.023791 -70560.800000 0 0 1
24.334391 -2.193794 -20.454589 31.864801 -0.089909 2.267793 0.058976 -0.023543 543133.000000 0 0 1
25.270791 -1.585394 -21.573589 33.264788 -0.062654 2.276463 0.071870 -0.022954 -1149770.000000 0 0 1
24.957391 -1.926294 -22.898189 33.925050 -0.077031 2.311712 0.066112 -0.026499 146221.000000 0 0 1
25.714691 -1.234694 -23.918389 35.140562 -0.047978 2.319444 0.075102 -0.019738 -445277.000000 0 0 1
27.031291 -1.869794 -24.286089 36.386824 -0.069061 2.301564 0.076965 -0.024391 -1121110.000000 0 0 1
28.034791 -1.851294 -23.235189 36.458892 -0.065940 2.261784 0.081249 -0.017514 677060.000000 0 0 1
29.138391 -2.646294 -23.645589 37.618647 -0.090570 2.250497 0.073451 -0.011343 738891.000000 0 0 1
30.201891 -1.949294 -24.592489 38.996724 -0.064453 2.253161 0.086295 -0.012792 -564486.000000 0 0 1
29.719291 -1.742094 -25.844209 39.423271 -0.058551 2.285717 0.075902 -0.017025 107263.000000 0 0 1
30.397091 -0.694894 -26.569659 40.378370 -0.022857 2.288979 0.079822 -0.026850 -574877.000000 0 0 1
29.794691 -0.445594 -27.971539 40.869661 -0.014954 2.324588 0.062106 -0.030397 1494430.000000 0 0 1
28.378991 -0.111394 -28.073889 39.918953 -0.003925 2.350786 0.055961 -0.019310 1460600.000000 0 0 1
27.995291 1.076506 -27.436969 39.213294 0.038434 2.345753 0.063882 -0.020486 -676445.000000 0 0 1
26.506391 1.439006 -27.605629 38.297914 0.054236 2.375771 0.064918 -0.023328 -90651.900000 0 0 1
25.576091 0.767906 -26.795349 37.050193 0.030015 2.379246 0.057734 -0.016672 -559297.000000 0 0 1
24.297391 1.244406 -27.072259 36.398063 0.051171 2.409509 0.066435 -0.015849 -497636.000000 0 0 1
23.288491 1.050906 -25.913399 34.856312 0.045095 2.408988 0.074829 -0.016126 -39085.300000 0 0 1
23.439991 1.925306 -24.802889 34.180744 0.081954 2.382759 0.083241 -0.020610 338716.000000 0 0 1
22.568391 1.508106 -23.758289 32.803398 0.066725 2.380761 0.071322 -0.012695 -35668.300000 0 0 1
22.629591 2.230306 -22.374689 31.901401 0.098240 2.348114 0.079365 -0.019557 -261512.000000 0 0 1
22.180291 3.578106 -22.330989 31.677140 0.159941 2.353157 0.080351 -0.022618 429177.000000 0 0 1
22.306491 3.953306 -20.977289 30.874825 0.175405 2.317782 0.083525 -0.026204 -190437.000000 0 0 1
21.876591 5.381606 -20.683289 30.583416 0.241209 2.313512 0.102790 -0.022534 248978.000000 0 0 1
22.911691 6.270706 -21.135889 31.796118 0.267148 2.297931 0.094471 -0.011579 860391.000000 0 0 1
22.643591 7.628406 -20.831489 31.699775 0.324948 2.287827 0.095458 -0.010265 -542934.000000 0 0 1
23.070291 8.003206 -19.416389 31.197528 0.333915 2.242563 0.109296 -0.022842 13460.700000 0 0 1
24.457391 8.124506 -19.106689 32.081726 0.320721 2.208763 0.086468 -0.010996 652302.000000 0 0 1
24.666791 8.246206 -17.685889 31.452204 0.322624 2.167973 0.105566 -0.033278 -109502.000000 0 0 1
24.400891 9.697506 -17.116689 31.343678 0.378284 2.148494 0.121273 -0.043425 61192.600000 0 0 1
23.040391 9.992406 -16.860789 30.248868 0.409209 2.162050 0.113710 -0.050654 93059.500000 0 0 1
22.932791 11.362906 -16.795489 30.612366 0.460031 2.151546 0.094102 -0.051047 -565000.000000 0 0 1
21.475191 11.826006 -16.619389 29.618277 0.503367 2.166534 0.106971 -0.058094 32647.600000 0 0 1
20.699391 11.643306 -17.803989 29.681869 0.512386 2.214081 0.100494 -0.059752 503062.000000 0 0 1
20.070991 10.347806 -17.954089 28.849109 0.476018 2.242531 0.100870 -0.061095 -333846.000000 0 0 1
19.371291 10.097706 -19.289689 29.142798 0.480520 2.294150 0.093014 -0.039094 -674487.000000 0 0 1
20.241091 9.857606 -20.331289 30.335383 0.453201 2.305297 0.091423 -0.034397 -408907.000000 0 0 1
19.632491 9.629306 -21.578089 30.720875 0.456001 2.349548 0.071678 -0.031223 -390270.000000 0 0 1
20.605291 9.815906 -22.773189 32.242025 0.444572 2.355083 0.093883 -0.019192 -152702.000000 0 0 1
20.788891 11.193406 -23.054389 32.999624 0.493919 2.344271 0.078522 -0.020029 162010.000000 0 0 1
21.444591 11.435006 -24.291089 34.361124 0.489881 2.355952 0.097009 -0.018555 69768.800000 0 0 1
21.678291 12.906606 -24.528589 35.187788 0.537008 2.342109 0.112041 -0.028487 14508.700000 0 0 1
22.421091 13.203006 -25.693739 36.567648 0.532192 2.349891 0.107929 -0.027077 41262.500000 0 0 1
22.417691 14.598506 -25.910099 37.242482 0.577222 2.340209 0.109807 -0.020552 -21248.600000 0 0 1
21.228291 15.198706 -26.699429 37.343011 0.621360 2.367389 0.091464 -0.021149 463354.000000 0 0 1
20.007191 15.025406 -26.004739 36.087352 0.644141 2.375471 0.104239 -0.023046 298835.000000 0 0 1
18.831291 15.237206 -26.788769 36.116867 0.680291 2.406434 0.117726 -0.031170 1076130.000000 0 0 1
17.480091 14.813806 -26.138499 34.759510 0.703022 2.421859 0.125987 -0.043446 381363.000000 0 0 1
17.235291 13.451706 -26.103089 34.049595 0.662721 2.444356 0.118748 -0.029724 749131.000000 0 0 1
15.858891 13.176306 -25.793329 33.021437 0.693269 2.467236 0.090321 -0.032773 730923.000000 0 0 1
15.555591 11.740306 -25.382089 32.000963 0.646523 2.486787 0.079570 -0.023664 -218025.000000 0 0 1
14.193191 11.408106 -25.488799 31.325236 0.677037 2.521256 0.079955 -0.025553 -116618.000000 0 0 1
14.055691 10.000206 -25.278889 30.603738 0.618383 2.542782 0.078242 -0.027881 733739.000000 0 0 1
12.539391 9.579706 -25.224359 29.753577 0.652381 2.582573 0.092175 -0.038341 952843.000000 0 0 1
11.925991 9.951206 -24.001389 28.588851 0.695375 2.567226 0.114671 -0.043446 175779.000000 0 0 1
10.721191 9.217206 -23.765789 27.653454 0.710109 2.604920 0.110421 -0.040497 336599.000000 0 0 1
9.809391 9.856306 -22.711289 26.630313 0.787784 2.592189 0.113591 -0.043112 -131406.000000 0 0 1
9.370391 11.150706 -23.115189 27.321318 0.871937 2.579327 0.116193 -0.047185 216075.000000 0 0 1
8.606991 11.814306 -22.088989 26.487385 0.941183 2.557012 0.118282 -0.041767 904625.000000 0 0 1
9.511891 12.590106 -21.027989 26.289982 0.923781 2.497838 0.118407 -0.048994 698691.000000 0 0 1
10.393491 11.732406 -20.317689 25.660913 0.845838 2.484507 0.140205 -0.055632 457422.000000 0 0 1
11.280891 12.479406 -19.482789 25.740496 0.835797 2.429341 0.170915 -0.061407 -94241.400000 0 0 1
12.234391 11.632406 -18.586489 25.108778 0.760181 2.404222 0.176009 -0.067725 186218.000000 0 0 1
13.409591 11.037706 -19.085189 25.804893 0.688681 2.403266 0.152443 -0.065083 -53443.700000 0 0 1
13.225791 10.157206 -20.156789 26.160782 0.654912 2.450416 0.145553 -0.056251 -342899.000000 0 0 1
14.511891 9.512306 -20.768489 27.063057 0.580220 2.445590 0.165130 -0.057062 360982.000000 0 0 1
15.135391 8.610406 -19.882789 26.429991 0.517232 2.422314 0.180194 -0.066975 243504.000000 0 0 1
16.066991 7.757906 -20.534289 27.202763 0.449832 2.426238 0.132307 -0.059730 -101716.000000 0 0 1
16.597791 6.732506 -19.585389 26.540549 0.385347 2.400812 0.199188 -0.071636 -1130140.000000 0 0 1
17.566391 7.169506 -18.740289 26.667927 0.387502 2.350020 0.139787 -0.053781 -955181.000000 0 0 1
17.912991 6.218606 -17.808189 26.013033 0.334139 2.324834 0.140072 -0.065973 -855659.000000 0 0 1
19.106391 6.762006 -17.046189 26.483041 0.340157 2.270073 0.212587 -0.052869 -817849.000000 0 0 1
20.317591 6.209906 -17.475289 27.509147 0.296625 2.259133 0.154662 -0.062798 482129.000000 0 0 1
21.374291 6.440306 -16.518189 27.770279 0.292659 2.207832 0.157372 -0.077132 205477.000000 0 0 1
22.546691 5.444206 -16.530289 28.482330 0.236928 2.189979 0.138990 -0.066407 -1361660.000000 0 0 1
23.418591 5.771606 -15.467489 28.652837 0.241638 2.141024 0.117972 -0.063256 -3034.610000 0 0 1
24.216691 4.723206 -15.049589 28.900639 0.192621 2.118509 0.197839 -0.079001 -594897.000000 0 0 1
25.149991 3.934906 -15.980189 30.056147 0.155199 2.131377 0.075449 -0.019920 -823542.000000 0 0 1
25.784791 2.879306 -15.244789 30.092348 0.111206 2.102033 0.088918 -0.032634 3275.330000 0 0 1
26.881991 2.304906 -15.890489 31.312324 0.085532 2.103058 0.074630 -0.034353 -48604.000000 0 0 1
27.538691 1.156906 -15.058989 31.408456 0.041986 2.070832 0.101987 -0.044780 407701.000000 0 0 1
26.775091 -0.048194 -15.193689 30.785646 -0.001800 2.086942 0.114140 -0.041372 445638.000000 0 0 1
27.698491 -1.107194 -15.182489 31.606016 -0.039952 2.071869 0.120914 -0.033366 181402.000000 0 0 1
27.048791 -2.479394 -15.542089 31.294425 -0.091408 2.090521 0.103514 -0.030931 52883.600000 0 0 1
26.581491 -3.159694 -14.387289 30.390022 -0.118313 2.063967 0.115057 -0.034301 260880.000000 0 0 1
26.165491 -4.455194 -14.733489 30.357163 -0.168652 2.077546 0.106058 -0.027671 -650084.000000 0 0 1
25.416891 -5.252394 -13.621389 29.311230 -0.203781 2.054110 0.123505 -0.037048 1120760.000000 0 0 1
24.112391 -4.848494 -13.184989 27.906258 -0.198433 2.062892 0.165848 -0.033534 1640630.000000 0 0 1
23.054991 -4.912394 -14.174889 27.506212 -0.209934 2.112194 0.173340 -0.044043 -110537.000000 0 0 1
21.651491 -4.532594 -13.704989 26.022263 -0.206363 2.125468 0.184622 -0.038597 -733392.000000 0 0 1
20.882591 -5.475194 -13.015489 25.208398 -0.256418 2.113339 0.192264 -0.042103 166726.000000 0 0 1
21.259691 -5.806594 -11.686689 24.945334 -0.266624 2.058379 0.225490 -0.038093 -515020.000000 0 1 0
20.837091 -7.205194 -11.281189 24.766195 -0.332917 2.043739 0.193099 -0.038589 -888966.000000 0 1 0
19.492391 -7.401094 -11.041289 23.593210 -0.362877 2.057807 0.171529 -0.034096 -623136.000000 0 1 0
19.164491 -8.660594 -11.574689 24.005354 -0.424440 2.073928 0.163595 -0.043481 -528494.000000 0 1 0
17.720691 -9.127894 -11.341889 22.934249 -0.475653 2.088101 0.154127 -0.050822 -30288.300000 0 1 0
16.793291 -8.257794 -11.961689 22.210083 -0.457011 2.139536 0.134287 -0.033510 -32217.900000 0 1 0
15.467491 -8.720494 -12.027389 21.446407 -0.513373 2.166162 0.133212 -0.033820 386685.000000 0 1 0
14.458091 -7.679394 -12.638889 20.682142 -0.488255 2.228248 0.100370 -0.021270 262866.000000 0 1 0
14.665891 -7.257094 -14.006089 21.538902 -0.459502 2.278735 0.104463 -0.018052 827475.000000 0 1 0
15.842291 -6.472294 -14.326189 22.318344 -0.387851 2.267772 0.107599 -0.007022 789405.000000 0 1 0
15.480791 -5.175294 -15.100589 22.236599 -0.322624 2.317315 0.092589 -0.018955 318377.000000 0 1 0
14.674491 -4.215194 -14.395789 20.984453 -0.279716 2.326803 0.100700 -0.020203 518071.000000 0 1 0
14.198991 -3.101794 -15.131889 20.981099 -0.215073 2.376351 0.092903 -0.029760 114704.000000 0 1 0
15.215191 -1.976694 -15.401589 21.739786 -0.129192 2.358098 0.106728 -0.031585 214119.000000 0 1 0
16.347491 -2.211694 -16.257189 23.160921 -0.134476 2.348890 0.112145 -0.028523 548182.000000 0 1 0
17.449991 -1.377994 -16.076989 23.767007 -0.078805 2.313716 0.142431 -0.041109 399267.000000 0 1 0
18.440091 -1.857194 -14.931089 23.799654 -0.100377 2.248962 0.165394 -0.043736 -120183.000000 0 1 0
17.952591 -1.794494 -13.616189 22.603458 -0.099626 2.217293 0.146111 -0.034485 -175217.000000 0 1 0
18.812191 -2.591794 -12.880489 22.946087 -0.136910 2.166797 0.159001 -0.034136 -627686.000000 0 1 0
18.378391 -2.814394 -11.460189 21.840833 -0.151956 2.123175 0.162815 -0.031000 -206087.000000 0 1 0
18.319491 -1.634394 -10.668889 21.262648 -0.088981 2.096436 0.172428 -0.029905 379838.000000 0 1 0
17.696291 -1.923694 -9.471589 20.163589 -0.108281 2.059789 0.150163 -0.026024 -1043460.000000 0 1 0
17.749091 -0.735694 -8.455289 19.673927 -0.041426 2.015036 0.145265 -0.024209 183614.000000 0 1 0
19.027991 -0.391294 -7.903089 20.607677 -0.020561 1.964382 0.184620 -0.026220 845233.000000 0 1 0
19.922191 0.257206 -8.798089 21.779950 0.012910 1.986631 0.193550 -0.025239 -634293.000000 0 1 0
19.607591 1.488506 -9.619889 21.890992 0.075769 2.025777 0.203538 -0.025894 -782456.000000 0 1 0
19.458891 2.665906 -8.846589 21.541068 0.136154 1.994001 0.174811 -0.015349 493197.000000 0 1 0
19.025691 3.803606 -9.606489 21.650149 0.197318 2.030536 0.171147 -0.024962 -37079.800000 0 1 0
19.065891 5.183406 -8.879989 21.661720 0.265452 1.993184 0.177564 -0.010510 -29055.700000 0 1 0
18.463191 6.163206 -9.686889 21.741903 0.322180 2.032574 0.153055 -0.014878 394218.000000 0 1 0
18.792791 7.476906 -9.256989 22.243313 0.378660 2.000025 0.175389 -0.014952 -199446.000000 0 1 0
-28.530059 -28.953074 5.282711 40.989655 0.792757 1.441558 0.123810 -0.024727 -278178.000000 0 0 1
-28.374409 -27.852734 6.163511 40.235193 0.776120 1.417004 0.085644 -0.018553 -709511.000000 0 0 1
-27.243349 -27.118424 5.845911 38.881663 0.783100 1.419873 0.128539 -0.029600 -978134.000000 0 0 1
-27.153119 -25.738614 6.559911 37.984215 0.758661 1.397225 0.090508 -0.025593 107023.000000 0 0 1
-28.254489 -24.842394 6.311611 38.148357 0.721225 1.404583 0.084728 -0.032926 1617840.000000 0 0 1
-29.448819 -25.165594 7.120211 39.385752 0.707132 1.389015 0.069339 -0.027859 1138010.000000 0 0 1
-29.361529 -24.960194 8.655411 39.497175 0.704551 1.349863 0.086790 -0.024854 -435436.000000 0 0 1
-28.450209 -25.766594 9.400611 39.518392 0.735941 1.330614 0.072148 -0.027115 -97833.100000 0 0 1
-28.849529 -26.024344 10.684311 40.295364 0.733959 1.302437 0.059402 -0.031935 579772.000000 0 0 1
-27.643649 -26.744694 11.453011 40.132549 0.768871 1.281394 0.033830 -0.028674 801577.000000 0 0 1
-26.565559 -25.920504 11.743811 38.929662 0.773109 1.264355 0.029020 -0.009862 -618141.000000 0 0 1
-26.725179 -25.050134 12.844711 38.816633 0.753057 1.233531 0.051800 -0.007909 -936030.000000 0 0 1
-25.369369 -24.740794 13.480311 37.913462 0.772855 1.207289 0.064744 -0.015420 -51343.700000 0 0 1
-24.710309 -25.954824 13.966211 38.461765 0.809957 1.199183 0.052397 -0.011415 72805.200000 0 0 1
-23.591209 -25.572804 14.747511 37.788921 0.825682 1.169882 0.056860 -0.017539 260579.000000 0 0 1
-22.846109 -26.834364 15.318711 38.427734 0.865505 1.160766 0.053458 -0.019701 83321.600000 0 0 1
-23.616209 -27.500004 16.312911 39.750304 0.861232 1.147921 0.049399 -0.015591 532750.000000 0 0 1
-22.961309 -28.716334 16.682011 40.374981 0.896305 1.144856 0.045740 -0.012689 -19229.400000 0 0 1
-23.858609 -29.647264 17.506111 41.888631 0.893166 1.139641 0.071033 -0.022818 -363712.000000 0 0 1
-24.889509 -30.215524 16.744311 42.577430 0.881751 1.166614 0.060323 -0.019836 -63000.400000 0 0 1
-25.501829 -31.173344 17.570011 43.941165 0.885137 1.159440 0.090011 -0.014712 -408059.000000 0 0 1
-26.384519 -32.192844 16.859111 44.908259 0.884232 1.185955 0.077950 -0.017055 -270110.000000 0 0 1
-25.651209 -33.095974 16.075111 44.852394 0.911452 1.204243 0.076580 -0.021975 102039.000000 0 0 1
-26.491459 33.450766 15.431611 45.374946 -0.900981 1.223783 0.070772 -0.026408 -655905.000000 0 0 1
-25.740389 32.780520 14.281411 44.057789 -0.905124 1.240681 0.081458 -0.031183 542528.000000 0 0 1
-24.575809 32.000099 14.587511 42.904221 -0.915880 1.223878 0.074221 -0.032689 624231.000000 0 0 1
-23.424209 32.818361 14.492811 42.846003 -0.950900 1.225736 0.072892 -0.033227 -292615.000000 0 0 1
-22.083809 32.031024 14.446511 41.501600 -0.967186 1.215258 0.061425 -0.037746 147634.000000 0 0 1
-21.879609 31.343225 13.236311 40.451390 -0.961370 1.237441 0.037949 -0.027690 -805847.000000 0 0 1
-20.727909 30.594325 13.222611 39.249157 -0.975325 1.227185 0.038247 -0.030157 -652583.000000 0 0 1
-20.660309 29.738295 11.923211 38.123188 -0.963611 1.252704 0.032093 -0.035300 156450.000000 0 0 1
-20.345309 30.510825 10.780011 38.223692 -0.982686 1.284893 0.024600 -0.025350 -159515.000000 0 0 1
-21.008609 29.981195 9.678911 37.867070 -0.959583 1.312326 0.044927 -0.033356 -113424.000000 0 0 1
-20.638909 30.753565 8.418311 37.981762 -0.979726 1.347299 0.042382 -0.028809 -255991.000000 0 0 1
-19.307109 30.471085 8.090811 36.969077 -1.006022 1.350157 0.045071 -0.032922 -669721.000000 0 0 1
-18.937409 31.031875 6.866311 36.996607 -1.022869 1.384121 0.082551 -0.032848 -147267.000000 0 0 1
-18.050309 30.027815 6.132011 35.568032 -1.029554 1.397528 0.096027 -0.039039 -304457.000000 0 0 1
-18.690709 28.809895 5.745611 34.819028 -0.995293 1.405025 0.070697 -0.022991 120624.000000 0 0 1
-18.985609 27.857515 6.786111 34.388163 -0.972577 1.372154 0.041484 -0.022065 -228400.000000 0 0 1
-19.973409 26.738885 6.373611 33.978345 -0.929231 1.382100 0.028860 -0.007213 -81097.300000 0 0 1
-19.645309 25.929955 5.240811 32.950976 -0.922430 1.411069 0.039518 -0.012261 -171936.000000 0 0 1
-20.810309 25.466105 4.631511 33.212081 -0.885669 1.430888 0.033288 -0.009733 -930678.000000 0 0 1
-20.470509 24.664495 3.359711 32.228352 -0.878053 1.466360 0.063099 -0.023349 -1280060.000000 0 0 1
-20.222709 25.343675 2.144011 32.493947 -0.897313 1.504766 0.089204 -0.026400 -58728.200000 0 0 1
-19.064209 26.126215 1.966411 32.402005 -0.940417 1.510071 0.099901 -0.025830 -745245.000000 0 0 1
-17.777009 25.293825 2.042711 30.983419 -0.958180 1.504819 0.098897 -0.032685 -1520110.000000 0 0 1
-17.695409 24.176115 1.162011 29.982700 -0.938956 1.532031 0.155254 -0.044311 146690.000000 0 0 1
-17.266409 24.495485 -0.133089 29.969574 -0.956802 1.575237 0.144301 -0.042915 -651059.000000 0 0 1
-16.740309 23.266215 -0.843189 28.675175 -0.947095 1.600205 0.150127 -0.051591 -437522.000000 0 0 1
-17.683209 22.305735 -1.276089 28.493334 -0.900482 1.615597 0.162801 -0.065102 82698.500000 0 0 1
-17.213409 21.355535 -2.208489 27.517953 -0.892383 1.651139 0.166853 -0.054962 213986.000000 0 0 1
-16.167909 20.268935 -1.747889 25.986268 -0.897478 1.638109 0.148643 -0.052879 298082.000000 0 0 1
-16.660009 19.371635 -0.820989 25.563453 -0.860513 1.602918 0.164931 -0.061039 -321606.000000 0 0 1
-15.628009 18.655835 -0.195289 24.337481 -0.873486 1.578821 0.159186 -0.049888 -233929.000000 0 1 0
-16.000909 17.580135 0.835111 23.786291 -0.832391 1.535680 0.126437 -0.040599 -227113.000000 0 1 0
-16.696409 16.503335 0.336311 23.478570 -0.779583 1.556472 0.112969 -0.041601 76916.300000 0 1 0
-17.130909 15.576835 1.345511 23.193021 -0.737920 1.512750 0.139998 -0.066005 42984.900000 0 1 0
-17.702409 14.310735 0.669811 22.773253 -0.679846 1.541380 0.121379 -0.061492 245182.000000 0 1 0
-18.930809 14.572635 -0.028889 23.890124 -0.656043 1.572006 0.196787 -0.075881 895256.000000 0 1 0
-19.621309 13.381535 -0.404989 23.753426 -0.598536 1.587847 0.206231 -0.069933 15330.400000 0 1 0
-20.980309 13.588635 -1.119289 25.021534 -0.574746 1.615544 0.215722 -0.067572 -586110.000000 0 0 1
-21.727609 12.463735 -1.382689 25.086760 -0.520808 1.625941 0.212433 -0.074825 252830.000000 0 0 1
-22.537609 11.964435 -0.331689 25.518651 -0.488034 1.583795 0.227639 -0.076310 -950064.000000 0 0 1
-23.937409 12.552835 -0.214389 27.029968 -0.482978 1.578728 0.269920 -0.080367 -893884.000000 0 0 1
-23.970109 13.904335 0.103911 27.711143 -0.525636 1.567047 0.287016 -0.084756 624814.000000 0 0 1
-25.299169 14.423535 -0.036089 29.121944 -0.518158 1.572036 0.264875 -0.070096 518261.000000 0 0 1
-25.574359 15.869535 0.383411 30.100448 -0.555375 1.558058 0.257010 -0.069651 -256442.000000 0 0 1
-25.611159 15.962235 1.831011 30.233706 -0.557342 1.510197 0.250113 -0.059802 -150106.000000 0 0 1
-25.735569 17.312235 2.341911 31.104944 -0.592166 1.495434 0.207242 -0.049618 20702.000000 0 0 1
-27.110339 17.982735 2.507511 32.628773 -0.585680 1.493871 0.239337 -0.040848 -693197.000000 0 0 1
-27.957799 17.501935 3.556711 33.175389 -0.559327 1.463381 0.243096 -0.051988 -210348.000000 0 0 1
-29.161719 18.174835 3.629111 34.552871 -0.557335 1.465572 0.229833 -0.050163 -138133.000000 0 0 1
-30.240179 18.128435 2.495911 35.345978 -0.540038 1.500124 0.188584 -0.056908 -471934.000000 0 0 1
-31.407799 18.896435 2.752111 36.757301 -0.541630 1.495854 0.163620 -0.048483 49035.900000 0 0 1
-32.264219 18.646735 1.687111 37.303175 -0.524040 1.525554 0.128074 -0.043041 -358359.000000 0 0 1
-33.573589 19.454435 1.580611 38.835026 -0.525177 1.530084 0.132342 -0.041208 95638.800000 0 0 1
-34.729930 19.000635 2.254411 39.651917 -0.500612 1.513911 0.132785 -0.037162 534361.000000 0 0 1
-35.804369 19.932935 2.229911 41.039581 -0.507986 1.516434 0.151346 -0.032640 184157.000000 0 0 1
-35.923729 20.626935 3.581411 41.578976 -0.521223 1.484554 0.126090 -0.039104 -535911.000000 0 0 1
-34.854635 21.467635 3.934711 41.124043 -0.552043 1.474971 0.143007 -0.043218 171002.000000 0 0 1
-35.133513 22.118235 5.169311 41.836609 -0.561863 1.446920 0.139111 -0.034215 -847293.000000 0 0 1
-33.927639 22.854705 5.694311 41.301905 -0.592808 1.432485 0.172749 -0.044281 -889574.000000 0 0 1
-33.565059 23.947595 4.878011 41.519820 -0.619708 1.453038 0.165454 -0.040782 -119938.000000 0 0 1
-32.682189 24.736695 5.594511 41.368201 -0.647894 1.435144 0.170269 -0.045320 -417413.000000 0 0 1
-33.070469 26.260125 5.491911 42.584166 -0.671112 1.441470 0.171892 -0.044338 -340762.000000 0 0 1
-34.174236 26.570175 6.275111 43.740480 -0.660865 1.426837 0.168568 -0.032543 -226120.000000 0 0 1
-34.624109 27.893885 6.147011 44.885226 -0.678159 1.433415 0.148277 -0.029330 16016.700000 0 0 1
-35.564825 28.319865 7.292711 46.044057 -0.672474 1.411741 0.136492 -0.017052 -669945.000000 0 0 1
-34.919625 28.478215 8.531011 45.860300 -0.684143 1.383685 0.143865 -0.019555 338495.000000 0 0 1
-35.738708 29.065995 9.535811 47.042736 -0.682793 1.366677 0.152493 -0.011579 622489.000000 0 0 1
-37.082909 28.353805 9.903911 47.719680 -0.652783 1.361733 0.140812 -0.012602 215745.000000 0 0 1
-36.771549 27.244775 10.668711 46.991978 -0.637665 1.341767 0.153115 -0.020735 -667675.000000 0 0 1
-37.886689 26.708895 11.239311 47.697886 -0.614052 1.332924 0.152645 -0.027960 -996798.000000 0 0 1
-37.554909 25.563045 12.205811 47.040645 -0.597645 1.308319 0.161902 -0.018627 -204714.000000 0 0 1
-36.574029 25.902875 13.142411 46.704834 -0.616229 1.285551 0.194067 -0.033988 -129268.000000 0 0 1
-36.092159 24.821985 13.923111 45.963332 -0.602450 1.263044 0.183172 -0.031705 -24194.400000 0 0 1
-34.875505 25.216805 14.796011 45.509450 -0.626030 1.239658 0.188910 -0.027994 -24384.600000 0 0 1
-35.047273 26.137375 15.861911 46.508859 -0.640792 1.222761 0.173929 -0.032439 -242403.000000 0 0 1
-33.769839 26.463985 16.362511 45.918148 -0.664696 1.206448 0.187291 -0.020483 42782.900000 0 0 1
-33.764769 27.729435 17.240311 46.970304 -0.687567 1.194964 0.187292 -0.033100 -297723.000000 0 0 1
-33.612409 28.894125 16.444511 47.276701 -0.710056 1.215535 0.198188 -0.031145 50449.400000 0 0 1
-33.760229 30.015055 17.311011 48.376933 -0.726741 1.204847 0.167786 -0.026169 -6389.440000 0 0 1
-33.309649 31.285295 16.565211 48.607701 -0.754069 1.223035 0.140658 -0.028713 1082000.000000 0 0 1
-31.889089 31.439685 16.371611 47.680157 -0.778302 1.220301 0.123467 -0.016883 755285.000000 0 0 1
-31.716999 32.598537 15.557911 48.069546 -0.799104 1.241207 0.097974 -0.007450 -641196.000000 0 0 1
-30.453309 32.632258 14.709511 46.996149 -0.819924 1.252453 0.120746 -0.012572 -442149.000000 0 0 1
-30.217079 31.705644 13.662211 45.880014 -0.809433 1.268429 0.113559 -0.013706 -94470.700000 0 0 1
-30.042079 30.362815 14.066211 44.969827 -0.790708 1.252665 0.132349 -0.020120 -622633.000000 0 0 1
-31.015109 29.346695 13.490111 44.778885 -0.757765 1.264782 0.171002 -0.020935 -224145.000000 0 0 1
-30.996759 29.096825 12.091511 44.199875 -0.753792 1.293700 0.181182 -0.029515 -491388.000000 0 0 1
-31.904249 28.130285 11.691711 44.112245 -0.722618 1.302546 0.175811 -0.025518 -305312.000000 0 0 1
-31.951439 27.858575 10.142811 43.587513 -0.717074 1.335943 0.178244 -0.013316 191812.000000 0 0 1
-30.768269 27.223415 9.693211 42.210888 -0.724347 1.339091 0.164805 -0.012328 135828.000000 0 0 1
-30.761389 27.249975 8.264211 41.918031 -0.724942 1.372345 0.173131 -0.020756 356180.000000 0 0 1
-29.504529 26.543285 7.689111 40.425062 -0.732613 1.379424 0.202650 -0.032358 403774.000000 0 0 1
-29.387679 26.780275 6.265811 40.250207 -0.739010 1.414489 0.198964 -0.046329 -83588.800000 0 0 1
-28.154219 26.274715 5.796411 38.943794 -0.750881 1.421401 0.163062 -0.035679 -153113.000000 0 0 1
-27.824999 26.804155 4.409011 38.886150 -0.766714 1.457169 0.162772 -0.031326 -585225.000000 0 0 1
-27.048359 27.935095 4.389211 39.131169 -0.801524 1.458393 0.116785 -0.025528 -256389.000000 0 0 1
-26.865539 28.432945 3.079111 39.238635 -0.813735 1.492244 0.110980 -0.025053 -195506.000000 0 0 1
-25.818269 29.586905 2.971711 39.380185 -0.853313 1.495262 0.083061 -0.023532 -656297.000000 0 0 1
-24.565909 29.018545 2.797411 38.123291 -0.868303 1.497352 0.047993 -0.009788 -1321650.000000 0 0 1
-23.637609 30.038425 2.595411 38.311613 -0.904087 1.503000 0.048941 0.000462 765086.000000 0 0 1
-22.162509 29.476785 2.414811 36.957935 -0.926104 1.505410 0.037362 -0.005509 1024880.000000 0 0 1
-21.213209 30.513835 2.378411 37.239108 -0.963299 1.506884 0.063234 -0.010303 -995637.000000 0 0 1
-19.941209 29.967085 2.507211 36.082739 -0.983645 1.501255 0.088377 -0.026131 -139808.000000 0 0 1
-18.794309 31.006545 2.302411 36.330882 -1.025874 1.507380 0.108991 -0.026321 228738.000000 0 0 1
-18.876909 32.095850 3.185911 37.371530 -1.039142 1.485443 0.127461 -0.027351 638953.000000 0 0 1
-17.743009 32.976203 3.066711 37.571918 -1.077170 1.489083 0.164630 -0.035502 408805.000000 0 0 1
-17.747409 -33.256204 4.014111 37.908558 1.080587 1.464708 0.165561 -0.036716 72555.800000 0 0 1
-18.620509 -32.157454 3.758311 37.349031 1.045930 1.469999 0.176186 -0.035635 212109.000000 0 0 1
-18.347909 -31.185984 4.734611 36.491478 1.038996 1.440684 0.162302 -0.060695 99040.500000 0 0 1
-19.460209 -30.118064 4.976111 36.201647 0.997146 1.432904 0.182221 -0.052975 130432.000000 0 0 1
-19.549009 -29.162184 3.930611 35.327701 0.980245 1.459304 0.213950 -0.050667 -160566.000000 0 0 1
-20.633109 -28.310044 4.138411 35.274782 0.940985 1.453206 0.213128 -0.058570 -475848.000000 0 0 1
-20.949209 -27.365054 2.962111 34.590312 0.917420 1.485057 0.200794 -0.072034 -557672.000000 0 0 1
-19.943009 -26.436454 2.750711 33.229146 0.924501 1.487921 0.218976 -0.078448 -373166.000000 0 0 1
-20.204809 -25.621154 1.638311 32.670505 0.903046 1.520629 0.183123 -0.070108 -6041.900000 0 0 1
-19.079909 -24.585794 1.465411 31.155283 0.910828 1.523743 0.135801 -0.047550 1029530.000000 0 0 1
-17.877709 -25.100294 0.866211 30.828357 0.951895 1.542695 0.202350 -0.060711 100366.000000 0 0 1
-16.756409 -24.278294 1.083311 29.519254 0.966691 1.534090 0.169484 -0.051941 -355549.000000 0 0 1
-15.514909 -24.807094 0.365411 29.261542 1.011893 1.558308 0.134568 -0.046443 -779989.000000 0 0 1
-15.459209 -24.743694 -1.058989 29.195188 1.012360 1.607077 0.115930 -0.037386 -139808.000000 0 0 1
-15.629809 -23.437094 -1.537989 28.212652 0.982644 1.625338 0.114990 -0.039440 -368810.000000 0 0 1
-15.583609 -23.347094 -3.075789 28.238204 0.982234 1.679936 0.063850 -0.019225 217779.000000 0 0 1
-14.338709 -23.761694 -3.620189 27.987899 1.027853 1.700508 0.095352 -0.015887 241340.000000 0 0 1
-14.406809 -23.689194 -5.056389 28.183349 1.024399 1.751184 0.077048 -0.007682 229224.000000 0 0 1
-13.136109 -24.232294 -5.758989 28.158967 1.074046 1.776767 0.100641 -0.016673 181813.000000 0 0 1
-13.010209 -25.644604 -5.723589 29.320142 1.101304 1.767268 0.092592 -0.017651 58537.800000 0 0 1
-12.025709 -26.094774 -6.652589 29.492573 1.138958 1.798323 0.112866 -0.019515 318437.000000 0 0 1
24.802291 13.138406 27.750961 39.470079 0.487144 0.791065 0.091169 -0.020841 104267.000000 0 0 1
25.610991 12.019006 28.199691 39.944986 0.438780 0.787014 0.115032 -0.028864 581835.000000 0 0 1
24.955891 10.967706 28.921471 39.743409 0.414074 0.755827 0.117791 -0.028565 -133226.000000 0 0 1
24.809591 11.241306 30.416021 40.829120 0.425432 0.730323 0.131305 -0.045766 4028.350000 0 0 1
23.885191 12.268406 30.647761 40.746796 0.474501 0.719476 0.102615 -0.035913 -169633.000000 0 0 1
24.072891 12.734206 31.922712 41.960977 0.486566 0.706295 0.114259 -0.042075 -739435.000000 0 0 1
23.121291 13.819006 32.469709 42.188162 0.538708 0.692519 0.093338 -0.036403 -263739.000000 0 0 1
21.834091 13.232506 32.559668 41.375823 0.544855 0.664987 0.096006 -0.030000 -53402.600000 0 0 1
21.046091 13.887106 33.529441 41.952509 0.583263 0.644794 0.093813 -0.024281 -177795.000000 0 0 1
19.923691 13.094906 -33.121929 40.810442 0.581457 2.517689 0.094737 -0.019880 74157.000000 0 0 1
18.789691 12.826206 33.365611 40.383512 0.598966 0.598434 0.090967 -0.014738 418543.000000 0 0 1
17.773391 12.240206 -33.145989 39.552151 0.603089 2.564464 0.082337 -0.019907 919011.000000 0 0 1
16.311891 12.279006 33.593131 39.310943 0.645268 0.546114 0.074959 -0.016045 870270.000000 0 0 1
16.217191 11.358806 32.585765 38.129409 0.611006 0.545997 0.071899 -0.012300 -237310.000000 0 0 1
14.885391 11.088006 32.224894 37.188204 0.640224 0.522578 0.080382 -0.010402 -650344.000000 0 0 1
14.832791 10.001006 31.136361 35.909675 0.593234 0.521497 0.079907 -0.010906 -267082.000000 0 0 1
15.442191 8.807006 31.522123 36.189347 0.518311 0.513495 0.063135 -0.016124 122636.000000 0 0 1
16.007691 8.185006 30.365851 35.289168 0.472660 0.534573 0.071992 -0.027041 133839.000000 0 0 1
16.398991 6.726906 30.691711 35.442337 0.389271 0.523726 0.096358 -0.033427 163727.000000 0 0 1
15.270791 5.911206 30.904821 34.974953 0.369330 0.487243 0.095297 -0.033563 179098.000000 0 0 1
15.727591 4.614206 31.143131 35.192934 0.285375 0.484462 0.106083 -0.047996 221762.000000 0 0 1
14.546391 3.671706 31.479544 34.871774 0.247249 0.444740 0.086295 -0.039133 105079.000000 0 0 1
14.962091 2.428606 31.987473 35.397185 0.160914 0.442526 0.091856 -0.041021 -213187.000000 0 0 1
13.856491 1.643406 32.374108 35.253170 0.118050 0.406951 0.090691 -0.035893 -387159.000000 0 0 1
14.175191 0.242506 32.879170 35.805512 0.017106 0.407104 0.065301 -0.040226 -475404.000000 0 0 1
14.723991 -0.636994 31.887116 35.128191 -0.043235 0.432941 0.060558 -0.028324 206289.000000 0 0 1
15.146491 -1.874094 32.436280 35.847464 -0.123106 0.439789 0.123400 -0.035169 -149024.000000 0 0 1
15.444491 -2.954594 31.395933 35.113623 -0.189020 0.464325 0.132706 -0.032822 -1055190.000000 0 0 1
15.717191 -4.291394 31.883540 35.805115 -0.266541 0.472410 0.144761 -0.033810 359313.000000 0 0 1
17.005891 -4.651694 32.350915 36.843185 -0.267003 0.498981 0.118312 -0.028704 470379.000000 0 0 1
18.261691 -4.300694 31.513042 36.675021 -0.231289 0.536993 0.123081 -0.032908 -464675.000000 0 0 1
18.552491 -2.934494 31.484841 36.661988 -0.156873 0.537899 0.126542 -0.035558 -165826.000000 0 0 1
19.758191 -2.663694 30.807321 36.695673 -0.134007 0.574369 0.154428 -0.045397 27185.300000 0 0 1
20.007991 -1.170594 30.662671 36.631808 -0.058440 0.578927 0.150811 -0.051972 -462916.000000 0 0 1
20.201591 -0.470094 31.836405 37.707850 -0.023266 0.565555 0.132485 -0.051494 126405.000000 0 0 1
20.191691 0.947006 31.625773 37.533861 0.046866 0.568716 0.122224 -0.045792 300421.000000 0 0 1
21.490891 1.596206 31.050171 37.795759 0.074137 0.606715 0.127078 -0.036267 44200.800000 0 0 1
21.539791 1.588506 29.588501 36.632845 0.073614 0.630549 0.120230 -0.037477 776958.000000 0 0 1
22.623091 2.474606 29.187751 37.011521 0.108951 0.662247 0.095629 -0.025810 660011.000000 0 0 1
22.200191 3.985506 29.077361 36.799805 0.177634 0.659743 0.097061 -0.022710 8720.130000 0 0 1
21.912191 4.574306 30.384531 37.739742 0.205801 0.634940 0.100303 -0.031054 251713.000000 0 0 1
21.013191 5.656106 30.310611 37.313253 0.262937 0.622663 0.112670 -0.033860 -483666.000000 0 0 1
20.544091 6.065206 31.651334 38.218495 0.287074 0.594965 0.117499 -0.030698 -341091.000000 0 0 1
19.583191 5.183006 32.190994 38.034524 0.258734 0.561678 0.108348 -0.024594 23190.900000 0 0 1
19.284891 5.567206 33.506761 39.058979 0.281041 0.539724 0.099323 -0.025375 -644216.000000 0 0 1
18.155591 4.706506 -33.252859 38.177602 0.253648 2.628039 0.106308 -0.032015 -528062.000000 0 0 1
18.339491 3.282006 -33.124499 38.004485 0.177084 2.629242 0.114061 -0.028533 244969.000000 0 0 1
17.094091 2.687706 -32.802769 37.087105 0.155953 2.656173 0.102091 -0.027557 213382.000000 0 0 1
17.164291 1.172106 -33.034809 37.246279 0.068182 2.661450 0.096161 -0.043631 -645042.000000 0 0 1
18.266791 0.668506 -32.320119 37.131020 0.036580 2.626880 0.104884 -0.042397 145379.000000 0 0 1
18.495391 -0.724994 -32.546149 37.441380 -0.039179 2.624492 0.115922 -0.040217 -413744.000000 0 0 1
19.715391 -1.279994 -31.788109 37.427515 -0.064833 2.585501 0.119377 -0.043122 -344404.000000 0 0 1
19.621391 -1.462194 -30.355119 36.174165 -0.074383 2.566493 0.107875 -0.037776 247279.000000 0 0 1
19.686191 -0.181294 -29.724499 35.652837 -0.009209 2.556608 0.093943 -0.029975 -431315.000000 0 0 1
19.283491 -0.161794 -28.232599 34.190040 -0.008390 2.542336 0.081962 -0.019404 71735.500000 0 0 1
17.927691 -0.479094 -27.957449 33.215216 -0.026717 2.571232 0.095435 -0.029050 198763.000000 0 0 1
17.565591 -0.622194 -26.579469 31.865425 -0.035406 2.557325 0.088236 -0.024448 -167758.000000 0 0 1
18.248391 -1.601294 -25.618409 31.493980 -0.087526 2.520835 0.093754 -0.020351 -670405.000000 0 0 1
19.594291 -1.300194 -25.319229 32.042005 -0.066259 2.481913 0.079221 -0.020303 -105142.000000 0 0 1
20.408791 -2.443294 -25.097619 32.440390 -0.119151 2.455383 0.056414 -0.017196 102337.000000 0 0 1
21.064491 -2.881594 -26.375059 33.877132 -0.135955 2.463149 0.072106 -0.033365 -1337690.000000 0 0 1
22.119191 -2.063794 -26.777039 34.792638 -0.093034 2.449039 0.070786 -0.021944 -652735.000000 0 0 1
22.454591 -2.352094 -28.107439 36.052311 -0.104368 2.464870 0.075031 -0.028899 105416.000000 0 0 1
23.906591 -1.993294 -28.510659 37.260649 -0.083186 2.442099 0.050199 -0.028877 98089.400000 0 0 1
24.865691 -2.852194 -27.956369 37.523275 -0.114205 2.411392 0.045180 -0.037288 -295943.000000 0 0 1
26.153491 -2.351594 -28.253909 38.572250 -0.089674 2.392773 0.041064 -0.030646 -108024.000000 0 0 1
27.378691 -3.190694 -27.888729 39.211662 -0.116016 2.362051 0.069672 -0.026744 -280231.000000 0 0 1
27.543291 -4.357994 -28.665819 39.991926 -0.156923 2.369984 0.100632 -0.046093 1172440.000000 0 0 1
28.752691 -5.128894 -28.372299 40.718671 -0.176523 2.341707 0.103151 -0.048170 1022570.000000 0 0 1
28.737691 -6.207294 -27.250539 40.087121 -0.212730 2.318263 0.104661 -0.042247 -308866.000000 0 0 1
28.771691 -5.748294 -25.920799 39.150235 -0.197194 2.294394 0.088085 -0.022170 224392.000000 0 0 1
28.758791 -6.842894 -25.016789 38.726386 -0.233597 2.273113 0.068286 -0.015684 -145219.000000 0 0 1
28.925291 -6.341594 -23.584789 37.856711 -0.215826 2.243370 0.047368 -0.002344 -829432.000000 0 0 1
30.160091 -5.814594 -23.268989 38.534224 -0.190454 2.219122 0.054183 0.000053 -701394.000000 0 0 1
30.311991 -5.570394 -21.900989 37.808721 -0.181741 2.188614 0.057475 -0.006660 -1099920.000000 0 0 1
31.729291 -5.292594 -21.484989 38.682867 -0.165283 2.159657 0.077894 -0.008351 -1168200.000000 0 0 1
32.249191 -4.127394 -21.984689 39.247576 -0.127292 2.165368 0.091632 -0.014175 -28161.600000 0 0 1
33.579191 -3.840194 -21.595689 40.108390 -0.113868 2.139373 0.111859 -0.011566 352963.000000 0 0 1
34.098391 -2.519694 -22.206389 40.769754 -0.073761 2.146801 0.122752 -0.021962 -60799.700000 0 0 1
33.337891 -1.414694 -21.784189 39.849306 -0.042410 2.149172 0.104385 -0.018781 143337.000000 0 0 1
33.802491 -0.183794 -22.315789 40.504773 -0.005437 2.154289 0.105755 -0.017753 132565.000000 0 0 1
32.748391 0.927606 -22.102389 39.520035 0.028318 2.164302 0.097970 -0.016228 66027.400000 0 0 1
31.655691 0.887206 -23.005689 39.142453 0.028019 2.199062 0.092856 -0.012693 -495968.000000 0 0 1
30.564291 1.417406 -22.337589 37.883411 0.046341 2.201410 0.086320 -0.010873 -795653.000000 0 0 1
29.468991 1.668706 -23.413789 37.675078 0.056565 2.241409 0.071707 -0.010305 507522.000000 0 0 1
28.223691 2.136606 -22.840789 36.370915 0.075558 2.249772 0.072435 -0.007862 633129.000000 0 0 1
27.341191 2.380706 -23.873389 36.375090 0.086855 2.286716 0.090681 -0.017732 -354602.000000 0 0 1
26.157591 3.305006 -23.559889 35.358323 0.125684 2.300056 0.090240 -0.011541 -164274.000000 0 0 1
26.621691 4.644306 -23.363989 35.723381 0.172717 2.283690 0.084468 0.000365 292358.000000 0 0 1
25.570891 5.572306 -23.181089 34.961178 0.214562 2.295685 0.089947 -0.005162 -47783.400000 0 0 1
26.051591 6.979406 -22.773389 35.299076 0.261760 2.272023 0.101397 0.000232 52341.200000 0 0 1
26.861991 7.636606 -23.750689 36.660326 0.276983 2.275566 0.107267 0.000189 384429.000000 0 0 1
27.128691 8.928406 -23.232289 36.816050 0.317947 2.253686 0.126379 -0.007078 359055.000000 0 0 1
28.235791 9.747806 -24.015589 38.327903 0.332418 2.247957 0.157672 -0.009185 203227.000000 0 0 1
28.009791 10.192606 -25.348219 39.127609 0.348999 2.275535 0.163583 -0.024967 76676.700000 0 0 1
26.959891 11.134106 -25.464869 38.720325 0.391652 2.288507 0.158282 -0.024997 38262.500000 0 0 1
26.708691 11.692306 -26.859199 39.641906 0.412638 2.315217 0.142705 -0.019346 -569635.000000 0 0 1
26.176291 10.859806 -27.853759 39.736199 0.393261 2.347549 0.128512 -0.024852 53670.000000 0 0 1
27.020391 9.844006 -28.360299 40.389510 0.349373 2.349237 0.132103 -0.034154 121598.000000 0 0 1
28.073291 10.352506 -29.404239 41.951082 0.353295 2.347479 0.138456 -0.033650 -496366.000000 0 0 1
29.047491 11.269306 -28.859629 42.469191 0.370085 2.317935 0.136974 -0.028592 918377.000000 0 0 1
29.959191 11.754206 -29.839029 43.887152 0.373886 2.318427 0.145931 -0.028316 706787.000000 0 0 1
30.952991 10.786706 -30.564469 44.817713 0.335326 2.321253 0.124550 -0.035771 -91027.200000 0 0 1
30.230391 9.883806 -31.431119 44.715561 0.315994 2.350280 0.112159 -0.040081 687996.000000 0 0 1
30.961991 8.670106 -31.541369 45.040799 0.273031 2.346592 0.103244 -0.036718 115733.000000 0 0 1
30.089691 7.700206 -32.339849 44.839140 0.250532 2.376389 0.107344 -0.043167 -7524.040000 0 0 1
29.036391 7.171006 -31.563169 43.482973 0.242121 2.383101 0.123246 -0.041405 51979.800000 0 0 1
28.056291 6.652606 -32.479029 43.431555 0.232817 2.415570 0.103083 -0.033935 -861010.000000 0 0 1
26.789091 6.380806 -31.721239 42.007226 0.233830 2.426660 0.101421 -0.023736 -1552490.000000 0 0 1
26.142391 7.592706 -31.360909 41.528068 0.282660 2.426716 0.142619 -0.028815 665933.000000 0 0 1
24.990191 7.426606 -30.520989 40.139692 0.288868 2.434678 0.139792 -0.032735 1106710.000000 0 0 1
23.622191 7.059206 -31.180759 39.750220 0.290390 2.472552 0.137449 -0.034826 352090.000000 0 0 1
22.986691 8.188506 -31.851339 40.124150 0.342212 2.487861 0.131014 -0.033496 -127828.000000 0 0 1
21.671191 7.855006 -32.179689 39.583759 0.347734 2.520000 0.122950 -0.029890 -287749.000000 0 0 1
20.902591 8.916606 -33.010189 40.076137 0.403207 2.538679 0.121751 -0.028487 -144617.000000 0 0 1
21.349491 8.906106 32.964830 40.271572 0.395209 0.611891 0.113875 -0.036383 40572.300000 0 0 1
20.947291 10.026806 32.181859 39.686243 0.446437 0.625096 0.095184 -0.029566 549330.000000 0 0 1
19.765791 9.734206 31.185621 38.183559 0.457611 0.615077 0.086442 -0.025259 548375.000000 0 0 1
20.036991 8.779306 30.162271 37.260164 0.412960 0.627489 0.085230 -0.027872 835037.000000 0 0 1
21.030191 9.154606 29.123951 37.071286 0.410569 0.667098 0.102688 -0.025316 332513.000000 0 0 1
20.569191 10.127806 28.003831 36.192245 0.457531 0.686053 0.082103 -0.020134 457953.000000 0 0 1
19.544391 9.667306 27.096621 34.780266 0.459345 0.677599 0.098028 -0.016695 568519.000000 0 0 1
18.266091 10.060706 27.562091 34.562071 0.503446 0.647712 0.097630 -0.030759 -258713.000000 0 0 1
17.113191 9.296106 26.883121 33.196100 0.497617 0.626938 0.109973 -0.025613 -249142.000000 0 0 1
16.871391 9.580106 25.446791 31.999397 0.516430 0.651414 0.125834 -0.019549 886776.000000 0 0 1
15.624291 9.067906 24.939311 30.794717 0.525862 0.626888 0.145329 -0.020965 770339.000000 0 0 1
15.438291 7.563606 24.613571 30.022938 0.455555 0.609690 0.159672 -0.026364 -130272.000000 0 0 1
15.627391 6.807506 25.766721 30.894682 0.410826 0.584446 0.136339 -0.028332 63729.500000 0 0 1
15.805991 5.436306 25.428531 30.430132 0.331266 0.581506 0.155470 -0.034697 89464.500000 0 0 1
16.311791 4.710306 26.722121 31.659647 0.281120 0.566017 0.099717 -0.027152 696119.000000 0 0 1
17.715691 4.692106 27.039031 32.664518 0.258911 0.595657 0.112461 -0.026927 861898.000000 0 0 1
18.117391 3.991806 28.241641 33.790008 0.216865 0.581211 0.107281 -0.025945 -121319.000000 0 0 1
17.852291 2.429806 28.237941 33.496112 0.135275 0.567920 0.115835 -0.023072 -302541.000000 0 0 1
16.499691 2.014906 28.203341 32.737258 0.121516 0.532568 0.094339 -0.030796 190925.000000 0 0 1
16.151591 1.194306 29.301211 33.479265 0.073809 0.504937 0.100039 -0.032235 -37117.000000 0 0 1
16.733691 -0.273794 29.246021 33.696010 -0.016360 0.519762 0.112333 -0.032980 -424353.000000 0 0 1
16.167091 -1.164494 28.282171 32.597731 -0.071905 0.520418 0.111995 -0.024339 200960.000000 0 0 1
16.718791 -1.100494 26.967271 31.748429 -0.065729 0.555940 0.131015 -0.016911 645882.000000 0 0 1
18.139391 -1.732094 26.671741 32.302003 -0.095199 0.599356 0.106351 -0.015705 1100120.000000 0 0 1
19.225791 -1.185994 27.400891 33.493976 -0.061610 0.612725 0.119764 -0.023399 16793.200000 0 0 1
19.861691 -0.112994 26.648991 33.236550 -0.005689 0.640499 0.114093 -0.016746 881524.000000 0 0 1
21.425191 -0.165594 26.971721 34.446189 -0.007729 0.671306 0.099249 -0.010959 1152550.000000 0 0 1
22.032691 -1.205294 26.275271 34.311544 -0.054650 0.698535 0.085230 -0.010042 -1237040.000000 0 0 1
23.408491 -1.131394 26.417811 35.314844 -0.048295 0.725654 0.082936 -0.008865 -820370.000000 0 0 1
24.149891 -1.772894 25.239891 34.977314 -0.073281 0.764675 0.083986 -0.003488 -206601.000000 0 0 1
24.123691 -0.939594 24.083681 34.100718 -0.038929 0.786607 0.095720 0.010823 143140.000000 0 0 1
24.285791 -1.728094 22.883781 33.413371 -0.071037 0.816372 0.087244 0.010308 2359.700000 0 0 1
24.104291 -0.817094 21.635311 32.400172 -0.033885 0.839610 0.090401 -0.004462 893520.000000 0 0 1
22.806291 -0.192194 21.561511 31.385707 -0.008427 0.813464 0.063738 0.002964 659480.000000 0 0 1
22.435591 0.504206 20.433511 30.350261 0.022470 0.832192 0.072469 0.006795 -3657.000000 0 0 1
-31.995539 -26.711223 -9.672789 42.787461 0.695628 1.798834 0.079092 -0.007780 -49821.700000 0 0 1
-31.908509 -25.496123 -8.955489 41.813945 0.674154 1.786643 0.082720 -0.004474 -231291.000000 0 0 1
-32.268609 -25.657023 -7.563189 41.913575 0.671751 1.752237 0.106818 -0.016326 -558291.000000 0 0 1
-32.233089 -24.283723 -6.782989 40.922857 0.645660 1.737315 0.139938 -0.025796 -76413.900000 0 0 1
-30.991369 -23.721323 -6.430789 39.554029 0.653295 1.734104 0.143703 -0.027826 -407250.000000 0 0 1
-30.267559 -24.617423 -5.545689 39.406818 0.682815 1.711994 0.146683 -0.035417 -571753.000000 0 0 1
-29.048009 -23.820323 -5.046889 37.903374 0.686837 1.704344 0.127401 -0.031703 -645689.000000 0 0 1
-29.264369 -22.749323 -4.068689 37.289264 0.660791 1.680126 0.145685 -0.021547 -55753.900000 0 0 1
-29.934659 -21.650923 -4.581089 37.226774 0.626175 1.694168 0.150265 -0.022049 -309176.000000 0 0 1
-30.134489 -20.378923 -3.683989 36.564460 0.594619 1.671721 0.146748 -0.026886 245631.000000 0 0 1
-28.925439 -19.638123 -3.572489 35.143984 0.596439 1.672625 0.162374 -0.034099 397420.000000 0 0 1
-29.072879 -18.522823 -2.718989 34.579187 0.567265 1.649508 0.169719 -0.023685 646952.000000 0 0 1
-27.890489 -17.463623 -2.754689 33.021899 0.559426 1.654313 0.166324 -0.019053 755475.000000 0 0 1
-27.925509 -16.799023 -3.973689 32.830343 0.541570 1.692131 0.159901 -0.027874 330613.000000 0 0 1
-26.986479 -15.723123 -4.014689 31.489751 0.527549 1.698636 0.137756 -0.026314 305532.000000 0 0 1
-27.368219 -14.882923 -5.215589 31.586757 0.498073 1.736675 0.152722 -0.031337 424232.000000 0 0 1
-28.582199 -14.173923 -4.992289 32.291874 0.460363 1.726018 0.120149 -0.012545 236725.000000 0 0 1
-28.882019 -13.338723 -6.110289 32.394879 0.432652 1.760552 0.142820 -0.033409 -458851.000000 0 0 1
-30.225879 -12.630923 -5.997089 33.303289 0.395828 1.751859 0.128506 -0.026570 309229.000000 0 0 1
-31.329969 -13.434223 -6.455589 34.694667 0.405083 1.757956 0.108336 -0.020794 592796.000000 0 0 1
-32.595269 -12.844923 -6.230689 35.584619 0.375387 1.746799 0.120242 -0.022563 301629.000000 0 0 1
-33.658019 -13.465523 -7.190489 36.957891 0.380566 1.766604 0.078727 -0.018090 -79036.300000 0 0 1
-34.387580 -14.571723 -6.701589 37.944065 0.400811 1.748345 0.068675 -0.009240 41025.600000 0 0 1
-34.827999 -15.341523 -7.751889 38.838687 0.414921 1.771738 0.071200 -0.006314 -1082610.000000 0 0 1
-35.725954 -16.540723 -7.269489 40.034795 0.433603 1.753389 0.082545 -0.014588 925536.000000 0 0 1
-37.066299 -16.100523 -6.952189 41.005735 0.409781 1.741161 0.105259 -0.029418 894071.000000 0 0 1
-37.279759 -15.244423 -5.842389 40.697744 0.388172 1.714850 0.127986 -0.028669 -581644.000000 0 0 1
37.489423 -14.895623 -5.579489 40.724282 -0.378201 1.708235 0.213210 -0.037348 -335584.000000 0 0 1
36.958493 -14.258623 -6.729189 40.181096 -0.368206 1.739061 0.211873 -0.038369 1866980.000000 0 0 1
35.506253 -14.291623 -6.876489 38.887409 -0.382668 1.748562 0.237048 -0.033059 2159860.000000 0 0 1
34.536093 -13.700623 -5.805189 37.605172 -0.377662 1.725788 0.259651 -0.046811 -327035.000000 0 0 1
34.549693 -14.437523 -4.575589 37.723459 -0.395822 1.692389 0.251344 -0.053756 638777.000000 0 0 1
33.539143 -13.905023 -3.702789 36.495677 -0.393021 1.672429 0.307201 -0.053693 -121012.000000 0 0 1
33.370073 -14.747823 -2.418489 36.563768 -0.416137 1.636989 0.300153 -0.053672 -440370.000000 0 0 1
34.399213 -14.863023 -1.433689 37.500277 -0.407848 1.609037 0.315896 -0.049579 628362.000000 0 0 1
35.561163 -15.615723 -1.800689 38.880453 -0.413772 1.617126 0.268433 -0.048715 178642.000000 0 0 1
35.339613 -17.126023 -2.124789 39.328153 -0.451262 1.624850 0.237442 -0.047366 -856139.000000 0 0 1
35.520513 -18.061523 -1.050789 39.862634 -0.470410 1.597160 0.208808 -0.046083 249173.000000 0 0 1
35.278793 -19.424023 -1.365889 40.295801 -0.503293 1.604699 0.167411 -0.033679 671271.000000 0 0 1
36.516153 -20.128623 -2.057789 41.747160 -0.503783 1.620108 0.137868 -0.044765 592231.000000 0 0 1
36.973403 -19.467223 -3.175189 41.905693 -0.484638 1.646639 0.098881 -0.048625 -587340.000000 0 0 1
37.893583 -20.147323 -3.933789 43.096554 -0.488671 1.662202 0.120540 -0.037309 -441418.000000 0 0 1
38.061103 -19.395423 -5.304689 43.046135 -0.471287 1.694343 0.158170 -0.043405 951842.000000 0 0 1
36.761203 -19.524123 -5.915289 42.042455 -0.488222 1.711963 0.136114 -0.054279 1054670.000000 0 0 1
36.570003 -18.500723 -6.931389 41.565443 -0.468356 1.738337 0.152431 -0.046831 319449.000000 0 0 1
35.273583 -18.586323 -7.793089 40.625230 -0.484950 1.763822 0.180396 -0.053400 267569.000000 0 0 1
35.321973 -19.722223 -8.667189 41.373035 -0.509236 1.781848 0.182021 -0.054665 715706.000000 0 0 1
34.316633 -19.662823 -9.706789 40.724436 -0.520317 1.811466 0.165370 -0.063634 342719.000000 0 0 1
34.234103 -20.876023 -10.610789 41.477355 -0.547596 1.829493 0.151375 -0.046379 -13237.000000 0 0 1
33.746243 -22.058323 -9.946189 41.524754 -0.578939 1.812672 0.137353 -0.047951 164823.000000 0 0 1
33.453043 -23.076923 -10.862189 42.067061 -0.603868 1.831967 0.105649 -0.038727 -341517.000000 0 0 1
32.794993 -24.251223 -10.139689 42.029117 -0.636734 1.814454 0.105223 -0.027081 -397211.000000 0 0 1
31.455333 -24.007523 -9.813389 40.768882 -0.651912 1.813891 0.102462 -0.033579 -680944.000000 0 0 1
30.833363 -25.190823 -9.432289 40.917501 -0.685021 1.803408 0.051766 -0.017458 -143901.000000 0 0 1
29.421363 -24.944723 -8.863789 39.578057 -0.703241 1.796669 0.038816 -0.014855 -87562.500000 0 0 1
28.469163 -24.524623 -9.790989 38.830579 -0.711101 1.825694 0.042686 -0.017175 -797372.000000 0 0 1
27.262263 -24.233323 -9.148689 37.605630 -0.726646 1.816542 0.066231 -0.027659 -307249.000000 0 0 1
26.242563 -23.577323 -10.106989 36.697595 -0.731952 1.849815 0.131619 -0.038743 -356897.000000 0 0 1
25.689663 -24.474523 -11.047389 37.161887 -0.761180 1.872636 0.101625 -0.028604 202865.000000 0 0 1
25.231063 -23.859423 -12.258289 36.825864 -0.757464 1.910144 0.111579 -0.026254 355166.000000 0 0 1
24.264363 -24.832323 -12.996789 37.071824 -0.796966 1.928991 0.112054 -0.040243 256712.000000 0 0 1
24.990463 -25.751223 -13.785389 38.440677 -0.800390 1.937580 0.133801 -0.034142 184103.000000 0 0 1
24.332563 -27.020023 -13.856989 38.912356 -0.837684 1.934896 0.130055 -0.021217 210875.000000 0 0 1
25.092463 -28.254623 -14.515089 40.480158 -0.844604 1.937535 0.128161 -0.026864 43805.900000 0 0 1
25.275963 -28.087723 -15.931389 41.007361 -0.838040 1.969800 0.143201 -0.021281 321140.000000 0 0 1
25.895963 -29.229523 -16.468489 42.381329 -0.845797 1.969885 0.137035 -0.021564 -174509.000000 0 0 1
25.725263 -29.287523 -18.003789 42.938148 -0.850061 2.003466 0.144491 -0.028893 -938810.000000 0 0 1
24.424163 -29.537723 -18.375789 42.505134 -0.879878 2.017860 0.150774 -0.024964 -1016790.000000 0 0 1
24.193663 -29.368223 -19.721089 42.857289 -0.881708 2.048969 0.142784 -0.020007 1672540.000000 0 0 1
22.664863 -29.579023 -20.165889 42.370717 -0.916977 2.066828 0.127574 -0.020496 1666130.000000 0 0 1
22.431963 -29.391123 -21.558289 42.799426 -0.918886 2.098679 0.100681 -0.016548 -206610.000000 0 0 1
21.068263 -29.447423 -21.892589 42.312030 -0.949774 2.114616 0.103483 -0.029690 -296874.000000 0 0 1
20.914463 -29.780523 -23.389089 43.259031 -0.958537 2.142036 0.101815 -0.026197 -280482.000000 0 0 1
21.402663 -28.769823 -24.246889 43.286122 -0.931193 2.165368 0.102421 -0.032344 301394.000000 0 0 1
21.210463 -29.132623 -25.574609 44.188846 -0.941482 2.188000 0.109686 -0.026935 -379380.000000 0 0 1
21.667663 -28.029923 -26.560819 44.279130 -0.912725 2.214109 0.119819 -0.036131 -26440.400000 0 0 1
20.864563 -26.864223 -26.549329 43.149546 -0.910445 2.233546 0.112127 -0.041237 95111.400000 0 0 1
19.765963 -27.085723 -27.438409 43.326620 -0.940378 2.256596 0.122934 -0.044920 -307145.000000 0 0 1
19.120463 -25.749523 -27.756239 42.415078 -0.932076 2.284179 0.114827 -0.039775 -154804.000000 0 0 1
18.127263 -25.456623 -26.762669 41.144596 -0.952006 2.278978 0.084160 -0.025101 293718.000000 0 0 1
17.479063 -24.228723 -27.107569 40.340661 -0.945839 2.307657 0.075091 -0.012407 656397.000000 0 0 1
16.270563 -23.844423 -26.198929 38.982966 -0.972005 2.307785 0.072844 -0.009385 -12425.700000 0 0 1
15.181463 -24.708823 -26.164649 39.058822 -1.019845 2.304841 0.110306 -0.029851 -640568.000000 0 0 1
14.175063 -24.246523 -25.277779 37.786140 -1.041761 2.303618 0.090353 -0.023508 168247.000000 0 0 1
14.249463 -24.521423 -23.744189 36.988294 -1.044388 2.267819 0.078812 -0.021183 135789.000000 0 0 1
15.441763 -23.959123 -23.201789 36.753376 -0.998294 2.254003 0.046635 -0.010255 2059.650000 0 0 1
15.601863 -24.197723 -21.805189 36.116675 -0.998110 2.218984 0.049132 -0.029522 428517.000000 0 0 1
16.848563 -23.453823 -21.271589 35.866926 -0.947846 2.205662 0.053721 -0.037229 192698.000000 0 0 1
16.599763 -22.100623 -21.037889 34.735896 -0.926592 2.221382 0.038466 -0.036265 32898.700000 0 0 1
17.756963 -21.422123 -20.595689 34.617907 -0.878676 2.207991 0.042969 -0.032401 -403830.000000 0 0 1
17.496963 -19.990223 -20.167189 33.353684 -0.851810 2.220118 0.062236 -0.024892 61642.000000 0 0 1
16.820963 -19.854423 -18.928389 32.178049 -0.867921 2.199676 0.061487 -0.022538 913313.000000 0 0 1
15.408063 -19.711323 -19.099189 31.475763 -0.907323 2.222813 0.075314 -0.029923 374162.000000 0 0 1
14.394763 -19.647023 -17.933489 30.246070 -0.938480 2.205476 0.080702 -0.030148 53194.800000 0 0 1
14.612663 -18.586323 -16.976989 29.106691 -0.904524 2.193542 0.108766 -0.031983 392444.000000 0 0 1
13.674763 -18.458823 -15.884689 27.929387 -0.933193 2.175775 0.114031 -0.042216 198247.000000 0 0 1
13.623663 -17.100723 -15.144689 26.597002 -0.898088 2.176588 0.119156 -0.041261 154630.000000 0 0 1
12.321963 -16.536923 -15.071389 25.543049 -0.930427 2.201903 0.113333 -0.051971 283374.000000 0 0 1
12.460763 -15.287223 -14.418789 24.430949 -0.886910 2.202085 0.102305 -0.052140 -952981.000000 0 1 0
11.197463 -14.609823 -13.948889 23.095489 -0.916860 2.219264 0.114850 -0.046575 -817785.000000 0 1 0
10.395363 -14.287223 -15.068889 23.221967 -0.941787 2.276943 0.145716 -0.039395 -105178.000000 0 1 0
9.114763 -13.744423 -14.870689 22.206428 -0.985225 2.304543 0.144380 -0.036709 -39633.400000 0 1 0
8.428163 -13.351623 -16.176189 22.604620 -1.007718 2.368299 0.115619 -0.019259 -180970.000000 0 1 0
8.982763 -12.189923 -16.823189 22.634132 -0.935732 2.408736 0.105970 -0.018669 739123.000000 0 1 0
10.209963 -12.487623 -17.516789 23.812223 -0.885412 2.397380 0.140405 -0.023051 418062.000000 0 1 0
10.661763 -11.261023 -18.316889 23.999839 -0.812726 2.439061 0.141188 -0.026585 -241511.000000 0 1 0
9.770763 -10.855923 -19.326789 24.224856 -0.837959 2.494447 0.141213 -0.032635 25745.900000 0 1 0
10.133963 -9.627623 -19.840589 24.270091 -0.759781 2.527838 0.130900 -0.044962 -35503.700000 0 1 0
10.145163 -9.568123 -21.354689 25.504824 -0.756135 2.563087 0.127064 -0.041393 -60203.800000 0 0 1
11.152263 -10.346323 -21.954589 26.709986 -0.747928 2.535643 0.095163 -0.034663 -838468.000000 0 0 1
11.064963 -10.367723 -23.375189 27.862565 -0.752878 2.566140 0.082411 -0.029033 58619.700000 0 0 1
12.197963 -11.104323 -24.120789 29.221717 -0.738500 2.541778 0.124537 -0.027607 -93387.600000 0 0 1
11.964963 -12.489223 -23.998889 29.581881 -0.806833 2.517117 0.107086 -0.025881 -382408.000000 0 0 1
13.005063 -13.300723 -24.436789 30.711521 -0.796637 2.490939 0.081787 -0.027222 -430732.000000 0 0 1
12.675863 -14.786123 -24.263789 31.113315 -0.862090 2.465226 0.072489 -0.026577 91880.700000 0 0 1
11.725263 -15.371223 -25.132109 31.707715 -0.919150 2.485887 0.076894 -0.026042 -300815.000000 0 0 1
11.377263 -16.554123 -24.477289 31.664156 -0.968661 2.454397 0.070904 -0.033150 -64694.200000 0 0 1
10.164263 -17.295523 -25.058889 32.099771 -1.039484 2.466512 0.085443 -0.032851 -84272.100000 0 0 1
10.418263 -17.937623 -26.269629 33.472256 -1.044610 2.473199 0.077493 -0.041616 -230930.000000 0 0 1
9.331063 -18.725223 -26.671209 33.897730 -1.108497 2.476426 0.092724 -0.041304 -568795.000000 0 0 1
9.683963 -19.610823 -27.908179 35.457439 -1.112115 2.476873 0.091628 -0.038106 -333437.000000 0 0 1
10.503963 -20.714623 -27.643319 36.105151 -1.101501 2.442822 0.080986 -0.038868 -261802.000000 0 0 1
10.605063 -21.538323 -28.800909 37.494787 -1.113262 2.446713 0.086410 -0.032698 128558.000000 0 0 1
11.756963 -22.549523 -28.534759 38.222240 -1.090188 2.413656 0.073312 -0.023179 275768.000000 0 0 1
11.699463 -23.602223 -29.520689 39.565306 -1.110600 2.413020 0.082082 -0.019673 -220654.000000 0 0 1
12.453663 -24.631823 -29.006399 40.039875 -1.102685 2.381015 0.101664 -0.028026 -144546.000000 0 0 1
11.576463 -25.642523 -28.224979 39.852264 -1.146733 2.357799 0.089137 -0.026076 263303.000000 0 0 1
10.948263 -24.996723 -27.159529 38.501177 -1.157976 2.353813 0.095831 -0.029003 -764655.000000 0 0 1
10.462363 -25.865023 -26.214859 38.284191 -1.186418 2.325048 0.090379 -0.026851 55144.200000 0 0 1
9.861963 -25.178123 -24.930889 36.779688 -1.197476 2.315622 0.071205 -0.025238 546283.000000 0 0 1
10.746263 -24.218323 -24.353489 35.987522 -1.153173 2.314095 0.071942 -0.026782 232775.000000 0 0 1
10.123363 -22.955923 -24.552089 35.103589 -1.155459 2.345379 0.069911 -0.024908 151193.000000 0 0 1
11.123763 -21.800723 -24.500689 34.630816 -1.098984 2.356726 0.097081 -0.024107 -279774.000000 0 0 1
11.708063 -21.680523 -23.243089 33.872777 -1.075642 2.327032 0.092001 -0.026566 -284038.000000 0 0 1
12.551463 -20.551223 -23.242589 33.468044 -1.022517 2.338481 0.094023 -0.031647 -105726.000000 0 0 1
13.257963 -20.349223 -21.877489 32.687750 -0.993352 2.304045 0.077624 -0.026468 383612.000000 0 0 1
12.319663 -19.960923 -20.851789 31.384863 -1.017834 2.297474 0.066599 -0.023424 461890.000000 0 0 1
11.809163 -18.609623 -20.883789 30.362922 -1.005343 2.329258 0.080128 -0.022309 259749.000000 0 0 1
12.888963 -17.500823 -20.694889 30.011375 -0.936006 2.331689 0.092311 -0.027738 -15904.900000 0 0 1
13.930663 -17.505623 -21.616889 31.109486 -0.898633 2.339028 0.079492 -0.020742 -771259.000000 0 0 1
14.869363 -16.508123 -21.269289 30.757092 -0.837578 2.334394 0.087979 -0.022738 -237874.000000 0 0 1
16.077163 -16.445023 -22.186889 31.955782 -0.796709 2.338243 0.066545 -0.012214 -246855.000000 0 0 1
17.198963 -17.282523 -21.967789 32.818801 -0.787822 2.304151 0.057518 -0.010182 166446.000000 0 0 1
18.276763 -16.813823 -22.728189 33.664748 -0.743732 2.311942 0.058780 -0.001813 219492.000000 0 0 1
19.671863 -17.059923 -22.071289 34.134513 -0.714409 2.273912 0.047005 -0.004182 306383.000000 0 0 1
20.095763 -18.403723 -22.029789 35.040667 -0.741477 2.250666 0.048007 -0.017286 -263573.000000 0 0 1
21.397063 -18.537623 -21.518389 35.560074 -0.713917 2.220723 0.038013 -0.021712 -37012.500000 0 0 1
21.835563 -19.994223 -21.484689 36.580768 -0.741407 2.198542 0.064444 -0.037475 -124138.000000 0 0 1
21.300263 -20.632223 -20.345989 35.963163 -0.769468 2.172133 0.058065 -0.038742 195539.000000 0 0 1
21.690163 -21.987723 -20.336189 36.979504 -0.792211 2.153078 0.093120 -0.044780 -326480.000000 0 0 1
-17.379409 13.210206 28.484191 35.887359 -0.649938 0.653911 0.118075 -0.033564 124820.000000 0 0 1
-18.659109 13.709306 28.139111 36.440595 -0.633653 0.688514 0.121311 -0.040990 40925.400000 0 0 1
-18.895609 13.449006 26.782301 35.428963 -0.618570 0.713702 0.132132 -0.045065 -772754.000000 0 0 1
-20.171909 14.023306 26.232351 35.940162 -0.607490 0.752636 0.163997 -0.044371 -758997.000000 0 0 1
-20.135109 15.448706 26.269881 36.526590 -0.654451 0.768148 0.152310 -0.039791 -466555.000000 0 0 1
-20.941209 16.079706 25.340191 36.595306 -0.654828 0.805926 0.146699 -0.041656 -985031.000000 0 0 1
-20.873409 17.615006 25.321491 37.244671 -0.700940 0.823213 0.131738 -0.024879 264878.000000 0 0 1
-19.647909 18.296806 25.056311 36.723727 -0.749806 0.819903 0.102723 -0.029521 465429.000000 0 0 1
-18.699009 18.188606 26.139211 36.928805 -0.771562 0.784379 0.103625 -0.016007 -96608.800000 0 0 1
-17.553509 19.171706 25.819441 36.637733 -0.829432 0.788764 0.095531 -0.022553 -71867.700000 0 0 1
-17.965409 20.529606 25.657961 37.450655 -0.851911 0.816036 0.100426 -0.019481 387696.000000 0 0 1
-16.845809 21.288206 25.157191 37.011528 -0.901370 0.823426 0.111299 -0.024921 656780.000000 0 0 1
-16.886709 22.814306 24.995761 37.821179 -0.933609 0.848788 0.113321 -0.027507 -167701.000000 0 0 1
-16.462509 23.444506 26.182041 38.809255 -0.958602 0.830328 0.103190 -0.028228 -110392.000000 0 0 1
-16.406209 24.867406 25.971211 39.522846 -0.987599 0.853806 0.097736 -0.034593 46549.200000 0 0 1
-15.797909 25.830906 27.053151 40.603973 -1.021899 0.841603 0.084849 -0.027775 618077.000000 0 0 1
-14.378209 25.786106 27.176771 40.127709 -1.062141 0.826768 0.083790 -0.038121 61406.300000 0 0 1
-13.955809 26.878006 27.881661 41.165262 -1.091885 0.826696 0.100387 -0.027329 514976.000000 0 0 1
-12.403309 26.817706 28.009211 40.712987 -1.137592 0.812112 0.104650 -0.036220 809403.000000 0 0 1
-11.586609 27.070706 26.907131 39.888172 -1.166377 0.830422 0.095311 -0.032560 312391.000000 0 0 1
-10.182209 27.105906 27.101731 39.659946 -1.211460 0.818451 0.084609 -0.015084 -90325.900000 0 0 1
-9.475909 27.974906 26.090501 39.409421 -1.244198 0.847263 0.091592 -0.027026 -642577.000000 0 0 1
-8.078109 27.894806 26.239101 39.139065 -1.288915 0.836039 0.080177 -0.024606 -48338.700000 0 0 1
-7.506409 28.603906 25.124641 38.804345 -1.314157 0.866537 0.107240 -0.032825 303888.000000 0 0 1
-5.965009 28.383706 25.091151 38.350775 -1.363655 0.857600 0.094990 -0.024595 140614.000000 0 0 1
-5.288209 29.289906 25.959001 39.493461 -1.392173 0.853568 0.104531 -0.026109 1209570.000000 0 0 1
-3.855709 29.196906 26.048891 39.317560 -1.439497 0.846611 0.115887 -0.025521 1055390.000000 0 0 1
-3.040909 29.891006 24.937081 39.045836 -1.469412 0.878039 0.126880 -0.018031 -418823.000000 0 0 1
-3.041509 29.193506 23.704401 37.728108 -1.466986 0.891436 0.133877 -0.012840 72382.500000 0 0 1
-2.445109 29.980806 22.680671 37.672803 -1.489421 0.924738 0.135849 -0.024369 -384379.000000 0 0 1
-2.792209 29.481606 21.259911 36.454702 -1.476368 0.948150 0.146641 -0.014617 -360959.000000 0 0 1
-4.110509 29.668306 20.879711 36.511190 -1.433124 0.962011 0.145948 -0.013069 -386114.000000 0 0 1
-5.050409 28.676906 21.276111 36.063062 -1.396470 0.939775 0.139089 -0.010698 342390.000000 0 0 1
-6.511409 28.911506 20.767511 36.187886 -1.349274 0.959560 0.119467 -0.025505 437012.000000 0 0 1
-6.680409 28.651806 19.383711 35.231833 -1.341730 0.988221 0.101635 -0.019341 217134.000000 0 0 1
-7.417409 27.434706 19.179611 34.286127 -1.306743 0.977136 0.073678 -0.019191 -962880.000000 0 0 1
-6.606009 26.126206 19.171411 33.072057 -1.323137 0.952453 0.058536 -0.017857 413437.000000 0 0 1
-5.816809 26.030106 17.948011 32.148604 -1.350944 0.978482 0.069016 -0.020821 337270.000000 0 0 1
-4.567009 26.684206 18.028011 32.525583 -1.401288 0.983309 0.093721 -0.013993 -718853.000000 0 0 1
-3.883109 26.738306 16.646711 31.735288 -1.426578 1.018611 0.087062 -0.018323 -228520.000000 0 0 1
-3.267909 25.522606 16.305911 30.462524 -1.443449 1.005960 0.093675 -0.024804 -313847.000000 0 0 1
-2.748009 25.747506 14.998211 29.923769 -1.464470 1.045795 0.099227 -0.034135 -459772.000000 0 0 1
-2.003909 24.494906 14.622811 28.597948 -1.489169 1.034072 0.094964 -0.037622 -820953.000000 0 0 1
-0.877709 24.239206 15.404111 28.733188 -1.534602 1.004976 0.097434 -0.036942 -309112.000000 0 0 1
-0.146309 23.181106 14.816711 27.512179 -1.564485 1.002080 0.084952 -0.044737 184654.000000 0 0 1
1.174791 22.708306 15.508511 27.523829 1.519108 0.972231 0.069026 -0.042828 788705.000000 0 0 1
2.189291 23.710906 15.306211 28.306892 1.478725 0.999499 0.071280 -0.042629 274434.000000 0 0 1
3.425691 23.205306 15.786211 28.274123 1.424230 0.978428 0.079748 -0.039669 -357722.000000 0 0 1
4.606791 24.032306 15.277911 28.847683 1.381402 1.012660 0.103747 -0.049122 364196.000000 0 0 1
5.855791 23.401206 15.628111 28.742731 1.325597 0.995928 0.102905 -0.043846 284534.000000 0 0 1
6.913291 24.329006 15.590611 29.711298 1.293936 1.018390 0.121380 -0.046119 -16346.000000 0 0 1
8.296891 23.619606 15.719711 29.560675 1.232989 1.010098 0.135901 -0.044920 258999.000000 0 0 1
8.745091 22.853506 14.617011 28.502918 1.205328 1.032324 0.109775 -0.040539 143170.000000 0 0 1
9.170891 23.614506 13.439911 28.677192 1.200366 1.083021 0.120129 -0.044914 -244716.000000 0 0 1
9.697191 22.751606 12.243711 27.596730 1.167893 1.111112 0.087517 -0.033293 483458.000000 0 0 1
10.922391 22.059206 12.570711 27.639283 1.111044 1.098634 0.077727 -0.024662 613100.000000 0 0 1
11.361091 21.437606 11.400511 26.807032 1.083468 1.131524 0.063617 -0.028801 -748358.000000 0 0 1
12.732691 20.808706 11.506911 26.972813 1.021678 1.130053 0.096180 -0.039296 -516446.000000 0 0 1
12.763991 19.877106 12.563711 26.755665 0.999963 1.081990 0.088764 -0.030742 -614015.000000 0 0 1
14.047391 19.356906 12.702711 27.080950 0.943027 1.082565 0.079418 -0.033161 -1165240.000000 0 0 1
14.283791 18.627206 13.996411 27.329453 0.916614 1.033126 0.097108 -0.037604 -81902.600000 0 0 1
15.545291 18.016506 14.204511 27.713150 0.858897 1.032639 0.098639 -0.044819 98016.600000 0 0 1
15.829491 17.701606 15.533411 28.376160 0.841172 0.991529 0.103923 -0.041659 -148970.000000 0 0 1
17.286091 17.212306 15.579611 28.944718 0.783259 1.002432 0.090780 -0.038922 -354426.000000 0 0 1
17.858891 16.969806 16.849811 29.846782 0.759876 0.970916 0.094946 -0.043146 632857.000000 0 0 1
19.051591 16.183106 16.669411 30.045387 0.704166 0.982665 0.099947 -0.039941 483709.000000 0 0 1
19.682591 15.750806 17.967511 30.956804 0.674888 0.951569 0.106116 -0.033680 -317706.000000 0 0 1
20.356891 16.711806 18.782711 32.349307 0.687380 0.951304 0.112195 -0.023883 -212465.000000 0 0 1
19.579791 17.622306 19.439011 32.738189 0.732829 0.935058 0.089615 -0.010862 -626924.000000 0 0 1
20.394491 18.716806 20.201311 34.268747 0.742529 0.940361 0.066748 -0.000813 135932.000000 0 0 1
19.574291 19.725006 20.795311 34.708409 0.789233 0.928366 0.109904 -0.017460 644446.000000 0 0 1
20.372691 20.538006 21.681211 36.151502 0.789439 0.927630 0.096320 -0.007921 768900.000000 0 0 1
19.496891 21.682906 22.331181 36.728174 0.838433 0.917242 0.131727 -0.016714 397782.000000 0 0 1
18.617191 21.199106 23.319431 36.603248 0.850153 0.880084 0.133146 -0.019941 -142840.000000 0 0 1
17.920591 22.281706 23.879371 37.253810 0.893455 0.875007 0.123333 -0.028790 4965.240000 0 0 1
17.184191 21.869106 25.173541 37.513482 0.904790 0.835168 0.154182 -0.030787 1164400.000000 0 0 1
16.000791 21.022006 25.139471 36.468384 0.920201 0.810205 0.150806 -0.029271 736577.000000 0 0 1
15.448591 20.838406 26.445341 37.043949 0.932853 0.775757 0.155010 -0.031326 128349.000000 0 0 1
14.243691 19.879206 26.436471 36.013227 0.949074 0.746490 0.177682 -0.023548 143201.000000 0 0 1
14.645691 18.478306 26.376511 35.378869 0.900591 0.729445 0.144336 -0.020910 2759.790000 0 0 1
15.045491 18.083706 25.064581 34.374706 0.876850 0.753706 0.154782 -0.030545 301547.000000 0 0 1
13.905591 17.767506 24.028631 32.960959 0.906730 0.753932 0.172655 -0.027197 199177.000000 0 0 1
13.591091 18.897606 23.160371 32.836565 0.947303 0.787918 0.171387 -0.025188 654007.000000 0 0 1
14.622791 19.322206 22.221821 32.878305 0.922966 0.828637 0.163121 -0.025473 899866.000000 0 0 1
15.150391 18.304706 21.160411 31.817599 0.879405 0.843231 0.157311 -0.024064 281043.000000 0 0 1
14.090091 17.909606 20.307411 30.523361 0.904197 0.842891 0.144354 -0.020333 262122.000000 0 0 1
14.573291 16.947006 19.393611 29.592126 0.860564 0.856132 0.114701 -0.025668 119925.000000 0 0 1
13.483391 16.225206 18.584611 28.114887 0.877428 0.848614 0.110141 -0.020544 -56105.700000 0 0 1
12.739791 16.999106 17.672011 27.632804 0.927654 0.876909 0.120940 -0.031048 285149.000000 0 0 1
11.700991 16.196306 17.103311 26.301269 0.945163 0.862837 0.087877 -0.026101 448645.000000 0 0 1
11.065491 16.805106 15.807811 25.587957 0.988497 0.904876 0.081087 -0.026472 -458769.000000 0 0 1
10.301491 17.909606 15.920011 26.082972 1.048817 0.914281 0.083268 -0.036007 -371041.000000 0 0 1
10.013091 18.384306 14.568211 25.504459 1.072067 0.962826 0.071746 -0.020235 191061.000000 0 0 1
9.053391 19.643506 14.567311 26.077533 1.138928 0.978081 0.075300 -0.022518 436185.000000 0 0 1
7.704491 19.244406 14.720411 25.424335 1.189989 0.953308 0.063585 -0.025038 -38062.100000 0 0 1
6.864491 20.399706 14.781811 26.110748 1.246199 0.969005 0.075138 -0.023889 79189.100000 0 0 1
5.520291 20.147006 15.479211 25.999643 1.303360 0.933080 0.066606 -0.029539 -508386.000000 0 0 1
4.635591 19.308806 14.810411 24.772302 1.335179 0.929965 0.068150 -0.039751 -518031.000000 0 1 0
3.549391 19.077006 15.692511 24.955665 1.386844 0.890767 0.062421 -0.036722 -99854.600000 0 1 0
2.318191 18.454406 15.043711 23.921796 1.445834 0.890697 0.052906 -0.032425 28320.000000 0 1 0
1.624491 19.342806 14.159411 24.026486 1.487009 0.940573 0.059448 -0.041640 665254.000000 0 1 0
0.430991 18.808206 13.586111 23.205964 1.547885 0.945352 0.053780 -0.039057 1000640.000000 0 1 0
-0.576309 19.611706 12.711011 23.377787 -1.541419 0.995931 0.055975 -0.046902 157007.000000 0 1 0
-1.517709 20.425906 13.348011 24.447709 -1.496629 0.993235 0.066259 -0.041688 -730810.000000 0 1 0
-2.508909 20.753206 12.441011 24.326301 -1.450488 1.033957 0.060139 -0.037776 -1021130.000000 0 1 0
-3.659509 21.501306 13.057311 25.420297 -1.402212 1.031355 0.058752 -0.036011 -497487.000000 0 0 1
-4.459009 20.705306 13.928811 25.349639 -1.358680 0.989069 0.069222 -0.036244 -191301.000000 0 0 1
-5.604309 21.454206 14.243111 26.354457 -1.315284 0.999831 0.079789 -0.027186 -175369.000000 0 0 1
-6.533209 20.907206 15.344211 26.743950 -1.267924 0.959725 0.071793 -0.025646 -1032500.000000 0 0 1
-7.477709 19.940506 14.901011 25.991922 -1.212025 0.960276 0.063050 -0.021131 213661.000000 0 0 1
-8.273509 19.436706 15.953611 26.471762 -1.168363 0.923959 0.051051 -0.005388 415690.000000 0 0 1
-9.201109 20.507306 16.700511 28.002090 -1.149045 0.931785 0.046090 0.005470 388423.000000 0 0 1
-10.437809 20.860606 16.048211 28.313562 -1.106861 0.968176 0.030690 0.001050 1488460.000000 0 0 1
-11.593509 20.142006 16.507611 28.506334 -1.048520 0.953190 0.018392 0.012331 1415740.000000 0 0 1
-12.808209 19.955706 15.515011 28.337183 -1.000185 0.991406 0.028264 0.000634 785888.000000 0 0 1
-13.639809 21.068306 15.245811 29.365841 -0.996245 1.024919 0.018765 0.003323 -38889.000000 0 0 1
-14.553209 20.675906 14.246811 29.021726 -0.957476 1.057672 0.017876 -0.000070 -209830.000000 0 0 1
-15.596509 21.827006 14.036111 30.276751 -0.950371 1.088750 0.020257 -0.004834 -140973.000000 0 0 1
-16.777809 21.532806 14.730811 31.018597 -0.908884 1.075943 0.021446 -0.012591 -326269.000000 0 0 1
-17.777909 22.500906 14.541911 32.152947 -0.902123 1.101484 0.049515 -0.024396 716187.000000 0 0 1
-19.085809 22.363306 15.400711 33.189870 -0.864307 1.088270 0.105470 -0.033547 -472793.000000 0 0 1
-19.851809 21.230606 15.051911 32.732140 -0.818947 1.092969 0.096069 -0.028026 350694.000000 0 0 1
-21.061309 21.121806 15.809911 33.758891 -0.786832 1.083410 0.111230 -0.035181 667699.000000 0 0 1
-22.153809 22.173606 15.530211 34.980673 -0.785845 1.110777 0.113254 -0.040018 -1203760.000000 0 0 1
-22.917409 22.052606 14.336911 34.886560 -0.766170 1.147292 0.126440 -0.036208 767247.000000 0 0 1
-23.825909 23.163306 14.110111 36.101356 -0.771298 1.169245 0.154468 -0.046400 231576.000000 0 0 1
-23.300609 24.416606 13.439311 36.327732 -0.808782 1.191845 0.133505 -0.043876 -331164.000000 0 0 1
-22.230809 24.984906 14.175511 36.323539 -0.843662 1.169886 0.095053 -0.040284 145342.000000 0 0 1
-21.667209 26.059606 13.489111 36.476391 -0.877172 1.191998 0.066562 -0.035420 -467729.000000 0 0 1
-20.299509 26.606806 13.959911 36.261154 -0.919062 1.175607 0.041263 -0.026542 -129410.000000 0 0 1
-19.288209 25.766806 13.449211 34.883299 -0.928212 1.174994 0.041333 -0.016611 -794117.000000 0 0 1
-18.027409 26.332006 13.677911 34.719551 -0.970467 1.165867 0.010920 -0.018695 -540641.000000 0 0 1
-17.029109 25.895106 12.593711 33.453678 -0.989084 1.184833 0.024448 -0.018071 -867828.000000 0 0 1
-15.816009 26.557306 12.690411 33.413817 -1.033661 1.181221 0.024066 -0.014271 -309667.000000 0 0 1
-14.861409 26.028606 11.784211 32.205860 -1.052000 1.196194 0.027993 -0.003472 229334.000000 0 0 1
-13.429709 26.597806 11.908111 32.087434 -1.103222 1.190587 0.047431 0.002221 -750922.000000 0 0 1
-12.443709 25.749706 11.326311 30.760015 -1.120633 1.193708 0.064988 0.000233 811383.000000 0 0 1
-11.088309 26.038806 11.674411 30.614733 -1.168216 1.179558 0.084400 -0.008971 692144.000000 0 0 1
-10.579009 27.400906 11.144711 31.415436 -1.202345 1.208147 0.101639 -0.015908 -1522300.000000 0 0 1
-9.356309 27.827306 11.677411 31.595275 -1.246443 1.192225 0.119643 -0.022571 -128892.000000 0 0 1
-9.056509 29.025106 10.992711 32.331359 -1.268346 1.223878 0.122380 -0.029022 -514192.000000 0 0 1
-7.741809 29.577406 11.534911 32.677403 -1.314792 1.210028 0.104546 -0.029905 -815085.000000 0 0 1
-6.613409 28.991406 10.971611 31.695663 -1.346518 1.217327 0.101642 -0.026567 -433840.000000 0 0 1
-5.473909 29.365006 11.740511 32.095277 -1.386502 1.196302 0.146597 -0.033876 489195.000000 0 0 1
-4.093909 28.978406 11.149411 31.318005 -1.430451 1.206806 0.147336 -0.039278 119110.000000 0 0 1
-3.767909 29.725806 9.978011 31.581345 -1.444713 1.249342 0.127360 -0.043024 -70102.400000 0 0 1
-2.426909 29.433206 9.665011 31.074361 -1.488528 1.254521 0.131465 -0.045772 -53036.500000 0 0 1
-1.851409 30.333906 8.562011 31.573431 -1.509838 1.296180 0.131615 -0.050982 19175.000000 0 0 1
-2.330409 30.001806 7.283811 30.961154 -1.493276 1.333314 0.133183 -0.039031 39405.200000 0 0 1
-1.938809 31.002406 6.347611 31.704894 -1.508340 1.369225 0.146223 -0.030083 20868.400000 0 0 1
11.860291 -33.601323 -25.907459 44.055781 -1.231477 2.199455 0.149144 -0.046016 -274851.000000 0 0 1
12.496691 -33.360123 -24.671689 43.333098 -1.212377 2.176511 0.128466 -0.039842 -760751.000000 0 0 1
13.665991 -32.658623 -24.946589 43.309090 -1.174487 2.184639 0.124365 -0.038724 -502770.000000 0 0 1
14.562991 -32.658323 -23.678289 42.887156 -1.151341 2.155685 0.100844 -0.033292 -638184.000000 0 0 1
13.948291 -31.939223 -22.614789 41.546329 -1.159046 2.146383 0.106384 -0.035058 255495.000000 0 0 1
14.575991 -31.940623 -21.343789 41.087958 -1.142677 2.117022 0.090978 -0.027151 728970.000000 0 0 1
16.099091 -31.546723 -21.248689 41.302340 -1.098923 2.111182 0.064483 -0.022580 984995.000000 0 0 1
16.982491 -32.622723 -21.588589 42.646386 -1.090827 2.101596 0.080805 -0.022208 147347.000000 0 0 1
18.306391 -32.284523 -21.227289 42.755259 -1.054970 2.090340 0.075088 -0.029369 218743.000000 0 0 1
19.372691 -33.387923 -21.363789 44.118772 -1.045040 2.076283 0.055928 -0.019008 678220.000000 0 0 1
20.696991 -33.164823 -20.866689 44.313538 -1.012870 2.061093 0.077216 -0.013555 868924.000000 0 0 1
21.422191 33.072506 -20.981689 44.642269 0.996016 2.060083 0.069328 -0.015219 607828.000000 0 0 1
22.947491 33.122306 -20.651489 45.278676 0.964912 2.044401 0.107521 -0.017695 800791.000000 0 0 1
23.822791 -33.681123 -21.582489 46.559073 -0.955185 2.052795 0.102369 -0.020646 978629.000000 0 0 1
25.124691 -33.553023 -20.980189 46.874554 -0.928060 2.034855 0.107275 -0.024587 1134610.000000 0 0 1
26.228591 -32.974923 -21.938489 47.503493 -0.898860 2.050852 0.126505 -0.027195 327621.000000 0 0 1
26.119891 -31.591823 -22.281689 46.655821 -0.879930 2.068690 0.132237 -0.024135 189439.000000 0 0 1
25.096791 -31.305823 -23.245989 46.371106 -0.895041 2.095901 0.112018 -0.023239 400009.000000 0 0 1
24.784291 -29.867123 -23.599489 45.422924 -0.878136 2.117121 0.115632 -0.033043 -108318.000000 0 0 1
25.825691 -29.235823 -24.318989 45.968608 -0.847252 2.128259 0.115465 -0.038399 -30846.300000 0 0 1
25.825591 -27.886423 -23.885189 44.890044 -0.823748 2.131854 0.131308 -0.038846 353191.000000 0 0 1
26.460991 -26.825623 -24.813289 45.116487 -0.792241 2.153140 0.109527 -0.046062 565920.000000 0 0 1
25.685291 -26.640223 -25.984399 45.217526 -0.803646 2.182977 0.111785 -0.039285 60871.900000 0 0 1
26.411091 -25.692223 -26.753189 45.534264 -0.771602 2.198811 0.091025 -0.031416 -710707.000000 0 0 1
25.664291 -25.215923 -27.969519 45.571840 -0.776586 2.231593 0.097364 -0.024046 406897.000000 0 0 1
24.638391 -24.252023 -27.683439 44.289770 -0.777496 2.245995 0.104785 -0.024008 -380874.000000 0 0 1
23.419091 -24.791323 -27.290039 43.678482 -0.813854 2.245664 0.086236 -0.020795 -434009.000000 0 0 1
22.287691 -23.678123 -27.207759 42.398783 -0.815638 2.267523 0.079920 -0.018388 440858.000000 0 0 1
21.974791 -22.997523 -28.396699 42.639770 -0.808136 2.299586 0.104478 -0.029020 122497.000000 0 0 1
21.401391 -21.709123 -28.122589 41.475120 -0.792536 2.315915 0.089420 -0.014077 -10141.900000 0 0 1
20.673791 -21.068823 -29.319759 41.604678 -0.794861 2.352828 0.132024 -0.030142 368340.000000 0 0 1
19.443891 -21.730523 -29.588369 41.542173 -0.840876 2.363493 0.120445 -0.037415 375816.000000 0 0 1
18.633491 -21.183423 -30.629259 41.642477 -0.849352 2.397244 0.106601 -0.045540 281160.000000 0 0 1
17.291691 -21.966923 -30.633629 41.472491 -0.903928 2.401861 0.109460 -0.045443 -96759.300000 0 0 1
17.324191 -23.256523 -31.183079 42.583775 -0.930556 2.392454 0.106244 -0.022471 -981372.000000 0 0 1
16.366191 -24.037123 -30.636579 42.240212 -0.973024 2.382258 0.103049 -0.032133 -964965.000000 0 0 1
16.503991 -25.561123 -30.956549 43.405768 -0.997473 2.364835 0.127328 -0.032999 389739.000000 0 0 1
15.588591 -26.452223 -30.285119 43.126705 -1.038273 2.349329 0.117014 -0.026849 422853.000000 0 0 1
15.953291 -27.774423 -30.564029 44.272858 -1.049422 2.332777 0.147096 -0.038610 3185.350000 0 0 1
15.117091 -28.791723 -29.770389 44.088160 -1.087310 2.312096 0.140394 -0.042775 -100743.000000 0 0 1
15.490991 -29.052523 -28.406239 43.484875 -1.080938 2.282658 0.155008 -0.054373 -116989.000000 0 0 1
15.223791 -28.003923 -27.503039 42.099889 -1.072856 2.282706 0.123169 -0.044047 -411560.000000 0 0 1
16.013891 -28.066223 -26.203709 41.602788 -1.052294 2.252162 0.105148 -0.035526 -256768.000000 0 0 1
15.739591 -29.130323 -25.330499 41.688663 -1.075418 2.223846 0.100427 -0.033677 196184.000000 0 0 1
16.544791 -29.020923 -24.154289 41.223461 -1.052653 2.196830 0.099064 -0.041485 -650776.000000 0 0 1
16.068091 -27.991623 -23.122089 39.703218 -1.049690 2.192441 0.081910 -0.036914 1399260.000000 0 0 1
14.894191 -28.274423 -22.300389 38.969055 -1.085961 2.180054 0.091917 -0.039556 642563.000000 0 0 1
13.691391 -28.477023 -22.973489 39.066306 -1.122637 2.199459 0.090311 -0.035616 -1301610.000000 0 0 1
12.463491 -28.173323 -22.116089 37.923557 -1.154292 2.193429 0.066232 -0.028627 -313685.000000 0 0 1
12.332791 -26.787023 -21.865889 36.711843 -1.139326 2.208819 0.054025 -0.031571 13382.600000 0 0 1
11.098091 -26.420723 -21.289589 35.699704 -1.173124 2.209745 0.054138 -0.030439 -8299.370000 0 0 1
10.830391 -24.937223 -21.311789 34.544968 -1.161070 2.235631 0.065351 -0.030776 -132048.000000 0 0 1
11.514791 -24.363323 -20.253589 33.710085 -1.129285 2.215319 0.063067 -0.031076 -30822.300000 0 0 1
11.261291 -22.978923 -20.281889 32.652758 -1.115124 2.240991 0.069902 -0.036726 -148179.000000 0 0 1
11.686991 -22.245523 -19.000989 31.503756 -1.087064 2.218221 0.079416 -0.037512 -209503.000000 0 0 1
11.004591 -22.713823 -17.886589 30.934590 -1.119635 2.187325 0.092852 -0.041533 -35073.700000 0 0 1
11.351191 -21.859823 -16.781489 29.804694 -1.091850 2.168866 0.089161 -0.042073 149941.000000 0 0 1
10.555191 -22.228023 -15.499589 29.081512 -1.127463 2.132904 0.075405 -0.033717 94636.700000 0 0 1
11.041591 -23.373623 -14.846489 29.810422 -1.129475 2.092122 0.082069 -0.026618 -192157.000000 0 0 1
10.366191 -23.665923 -13.649789 29.220722 -1.157948 2.056835 0.087127 -0.022077 -27343.800000 0 0 1
10.303491 -25.145423 -13.313189 30.260457 -1.181908 2.026343 0.095926 -0.021545 829797.000000 0 0 1
11.581591 -25.650023 -12.886889 30.953657 -1.146676 2.000200 0.076828 -0.025248 473733.000000 0 0 1
11.805391 -27.036123 -13.118189 32.286314 -1.159097 1.989206 0.074942 -0.028355 280886.000000 0 0 1
13.205291 -27.439623 -12.531989 32.929673 -1.122262 1.961207 0.069999 -0.032360 1452410.000000 0 0 1
14.402691 -26.971623 -13.170289 33.292078 -1.080325 1.977516 0.077698 -0.027322 646543.000000 0 0 1
14.643191 -27.460023 -14.492589 34.329449 -1.080900 2.006625 0.075125 -0.030729 -891981.000000 0 0 1
15.910191 -26.968623 -15.223489 34.816597 -1.037798 2.023333 0.059511 -0.028388 -396037.000000 0 0 1
17.018891 -27.636423 -14.684389 35.623669 -1.018830 1.995673 0.092189 -0.025376 -749188.000000 0 0 1
18.207291 -27.037623 -15.153789 35.946847 -0.978143 2.005962 0.114169 -0.030733 257118.000000 0 0 1
19.470591 -27.802523 -14.686689 36.983551 -0.959857 1.979167 0.118543 -0.032954 141319.000000 0 0 1
19.726791 -28.943423 -15.522089 38.311921 -0.972551 1.987940 0.107952 -0.025203 501667.000000 0 0 1
21.092891 -29.372523 -15.576689 39.373702 -0.948015 1.977530 0.126248 -0.020180 781453.000000 0 0 1
21.420591 -30.526223 -16.588389 40.815030 -0.958923 1.989338 0.106350 -0.022383 258148.000000 0 0 1
20.951891 -31.891223 -16.373889 41.522718 -0.989530 1.976141 0.086823 -0.009584 294059.000000 0 0 1
21.560191 -32.772123 -17.339389 42.889490 -0.988900 1.986988 0.079851 -0.012073 417857.000000 0 0 1
21.267791 33.208206 -17.030489 42.955109 1.001173 1.978467 0.063675 -0.007817 114508.000000 0 0 1
22.219091 32.730506 -16.077189 42.701874 0.974407 1.956810 0.078027 -0.012594 328912.000000 0 0 1
22.052491 31.418206 -15.549289 41.414930 0.958795 1.955680 0.071156 -0.016612 -569346.000000 0 0 1
22.987891 31.106006 -14.398389 41.271544 0.934361 1.927161 0.062268 -0.025037 1477960.000000 0 0 1
24.412591 30.874206 -14.674989 42.006505 0.901745 1.927674 0.068409 -0.020747 1725180.000000 0 0 1
25.177491 30.397006 -13.605989 41.749335 0.879043 1.902757 0.074123 -0.011566 80102.300000 0 0 1
24.807491 29.003206 -12.981589 40.312767 0.863212 1.898661 0.069901 -0.013275 -898936.000000 0 0 1
25.056991 27.892206 -13.871589 39.978105 0.838893 1.925145 0.082188 -0.008049 -26389.000000 0 0 1
24.812391 26.604606 -13.243189 38.714879 0.820241 1.919915 0.055892 -0.007989 810300.000000 0 0 1
23.381591 26.196806 -12.711789 37.343821 0.842120 1.918137 0.052562 -0.007291 455120.000000 0 0 1
22.435191 26.023206 -13.756289 37.010546 0.859306 1.951620 0.071005 -0.011423 -244163.000000 0 0 1
21.116091 26.067406 -13.279689 36.079760 0.889953 1.947723 0.078317 -0.008690 -155370.000000 0 0 1
20.409091 27.436806 -13.431389 36.738420 0.931238 1.945068 0.072564 -0.016333 -258170.000000 0 0 1
20.288791 28.026806 -14.698589 37.592358 0.944205 1.972513 0.075047 -0.014357 -25852.700000 0 0 1
19.576091 27.355806 -15.704989 37.124252 0.949670 2.007592 0.064969 -0.007309 -530186.000000 0 0 1
19.623191 28.165206 -16.994189 38.303406 0.962277 2.030489 0.063025 -0.010639 -59469.500000 0 0 1
18.884591 29.356506 -16.930489 38.795279 0.999156 2.022397 0.060209 -0.012992 -161491.000000 0 0 1
19.136391 30.141806 -18.089189 40.024351 1.005125 2.039752 0.058774 -0.014979 721401.000000 0 0 1
17.991791 31.190706 -18.488589 40.477062 1.047586 2.045154 0.051049 -0.010914 803433.000000 0 0 1
17.841691 32.359606 -17.734389 40.987542 1.066912 2.018257 0.066220 -0.023341 -30489.600000 0 0 1
16.844991 33.288706 -18.157189 41.491868 1.102339 2.023733 0.059955 -0.017719 -5861.670000 0 0 1
16.766891 -32.772023 -17.454689 40.740647 -1.097894 2.013556 0.076789 -0.019248 268026.000000 0 0 1
15.826191 -31.874123 -18.070089 39.911855 -1.109935 2.040643 0.064354 -0.020341 371567.000000 0 0 1
15.400191 -30.867023 -17.112089 38.506657 -1.108013 2.031293 0.075151 -0.027094 -185544.000000 0 0 1
14.179191 -30.034223 -17.481389 37.532692 -1.129716 2.055294 0.060663 -0.024548 462091.000000 0 0 1
12.903491 -30.685723 -17.314989 37.522294 -1.172739 2.050435 0.064300 -0.021601 562336.000000 0 0 1
11.878291 -29.738423 -17.540289 36.512044 -1.190785 2.071904 0.041319 -0.014526 -37147.300000 0 0 1
10.521191 -30.391123 -17.832589 36.773864 -1.237517 2.077074 0.049575 -0.021625 -628437.000000 0 0 1
9.857591 -31.049423 -16.746489 36.629001 -1.263380 2.045632 0.057845 -0.022509 945823.000000 0 0 1
8.791991 -31.945223 -17.155789 37.311091 -1.302225 2.048571 0.079443 -0.014840 1747980.000000 0 0 1
7.439591 -31.387623 -17.771489 36.828742 -1.338068 2.074353 0.080451 -0.007306 328278.000000 0 0 1
7.367391 -30.766523 -19.068889 36.938868 -1.335761 2.113238 0.069867 -0.003616 -246257.000000 0 0 1
7.421391 -31.663023 -20.160689 38.263265 -1.340566 2.125738 0.074704 -0.013917 -823807.000000 0 0 1
7.713591 -30.984923 -21.537689 38.515413 -1.326809 2.164213 0.066762 -0.008471 92543.800000 0 0 1
9.040291 -30.553723 -21.801389 38.607738 -1.283122 2.170853 0.061422 -0.017700 578838.000000 0 0 1
10.082691 -31.503023 -22.030889 39.742436 -1.261044 2.158368 0.071458 -0.021224 252164.000000 0 0 1
9.883991 -32.627123 -23.106389 41.184071 -1.276646 2.166452 0.096089 -0.031551 -1450960.000000 0 0 1
8.805291 -33.435723 -22.803289 41.418242 -1.313293 2.153833 0.102440 -0.041208 -814723.000000 0 0 1
8.571291 32.975506 -23.713189 41.511039 1.316495 2.178825 0.119558 -0.048721 219707.000000 0 0 1
7.415691 31.946806 -23.360689 40.265527 1.342709 2.189729 0.124428 -0.054564 782958.000000 0 0 1
6.098691 32.345906 -23.656489 40.534937 1.384438 2.193960 0.116628 -0.055674 -15184.400000 0 0 1
5.566391 33.107006 -22.565989 40.450987 1.404221 2.162601 0.088151 -0.049752 -486794.000000 0 0 1
4.254691 -33.593623 -22.865389 40.859025 -1.444815 2.164719 0.092682 -0.052642 -523404.000000 0 0 1
3.109891 33.127206 -22.666289 40.259705 1.477193 2.168810 0.102192 -0.060846 -153952.000000 0 0 1
1.921291 -33.570323 -22.919389 40.693444 -1.513627 2.169075 0.113926 -0.062704 727033.000000 0 0 1
0.583791 33.289706 -22.422689 40.141279 1.553261 2.163486 0.112499 -0.069387 67282.700000 0 0 1
0.386391 33.639606 -21.046389 39.682778 1.559311 2.129828 0.109005 -0.061671 -324037.000000 0 0 1
-0.753009 33.061406 -20.469889 38.892672 -1.548024 2.125060 0.135185 -0.067673 -282005.000000 0 0 1
-0.931009 33.167206 -18.990289 38.230372 -1.542734 2.090627 0.149883 -0.056256 185045.000000 0 0 1
0.065591 32.549306 -18.196989 37.290642 1.568781 2.080567 0.149783 -0.056148 52496.600000 0 0 1
-0.454109 32.299106 -16.907589 36.459635 -1.556738 2.053002 0.122598 -0.040433 434421.000000 0 0 1
0.496891 31.344906 -16.147989 35.263402 1.554945 2.046456 0.077154 -0.028642 1376240.000000 0 0 1
1.705891 31.921206 -15.600989 35.570554 1.517406 2.024829 0.087955 -0.024130 904895.000000 0 0 1
2.363591 31.076006 -14.663789 34.443162 1.494884 2.010575 0.105512 -0.011341 899086.000000 0 0 1
3.408991 31.775406 -13.683589 34.764036 1.463921 1.975355 0.119972 -0.026105 1105600.000000 0 0 1
4.669391 32.039906 -14.294489 35.393378 1.426078 1.986545 0.094854 -0.032291 607632.000000 0 0 1
5.509891 32.930306 -13.533689 36.026722 1.405012 1.955902 0.103944 -0.042510 452208.000000 0 0 1
6.876691 33.175806 -14.194589 36.734307 1.366410 1.967535 0.084142 -0.048892 166087.000000 0 0 1
7.836491 32.138606 -14.112489 35.964745 1.331629 1.974033 0.077409 -0.038905 -73212.400000 0 0 1
8.859591 32.349406 -15.075689 36.772990 1.303479 1.993214 0.075468 -0.024547 254180.000000 0 0 1
9.852891 31.168306 -15.158089 36.032075 1.264618 2.004995 0.065488 -0.032211 -15535.800000 0 0 1
10.560791 31.032506 -13.957989 35.628250 1.242777 1.973348 0.072366 -0.040962 -55648.500000 0 0 1
11.488691 29.944006 -13.923989 34.964424 1.204444 1.980386 0.087594 -0.035243 472540.000000 0 0 1
10.862491 28.522306 -13.688589 33.449859 1.206914 1.992403 0.087257 -0.034714 61094.000000 0 0 1
9.974791 28.106706 -14.720989 33.259448 1.229772 2.029304 0.102508 -0.036491 98922.800000 0 0 1
9.383591 26.903906 -14.324389 31.891379 1.235207 2.036623 0.091419 -0.030833 -97178.100000 0 0 1
8.476691 26.131806 -15.336789 31.463354 1.257123 2.079962 0.095958 -0.023594 363089.000000 0 0 1
9.136991 25.396606 -16.371389 31.567302 1.225442 2.116031 0.108943 -0.023781 206479.000000 0 0 1
8.268891 24.388606 -16.877989 30.790342 1.243912 2.150957 0.104769 -0.022332 -6027.280000 0 0 1
9.075291 23.488806 -17.743689 30.804600 1.202098 2.184633 0.117168 -0.019241 -315221.000000 0 0 1
8.382691 22.494006 -18.420889 30.258535 1.214076 2.225322 0.123494 -0.028591 -174702.000000 0 0 1
9.264191 21.887406 -19.354189 30.650749 1.170395 2.254209 0.123796 -0.031501 475399.000000 0 0 1
8.584591 20.736506 -20.194689 30.191445 1.178293 2.303508 0.108548 -0.038458 187633.000000 0 0 1
7.950291 19.709006 -19.501689 28.843854 1.187376 2.313270 0.120448 -0.045039 -145231.000000 0 0 1
7.175791 18.900106 -20.344789 28.681290 1.207938 2.359358 0.122202 -0.053533 -53138.000000 0 0 1
26.494291 -12.862094 -9.533089 30.955786 -0.451953 1.883843 0.159110 -0.032221 35736.500000 0 0 1
26.688891 -11.861994 -8.505389 30.419491 -0.418233 1.854177 0.181611 -0.048938 474423.000000 0 0 1
25.429691 -11.649494 -7.901689 29.065729 -0.429574 1.846117 0.160597 -0.040275 -500460.000000 0 0 1
25.441091 -10.827294 -6.521189 28.407839 -0.402364 1.802418 0.140548 -0.055882 -352675.000000 0 0 1
25.909491 -9.486294 -6.571889 28.363378 -0.350973 1.804625 0.181300 -0.071275 170857.000000 0 0 1
27.261291 -9.320394 -6.895489 29.624238 -0.329433 1.805716 0.162440 -0.069338 -1145890.000000 0 0 1
27.819891 -7.969494 -6.374089 29.632553 -0.278996 1.787595 0.224817 -0.067008 -40720.700000 0 0 1
28.228891 -7.913794 -4.989389 29.738736 -0.273327 1.739368 0.221286 -0.085345 438059.000000 0 0 1
29.174591 -8.844094 -4.495089 30.815265 -0.294338 1.717191 0.202009 -0.087692 -406484.000000 0 0 1
29.509091 -8.492294 -3.060589 30.858916 -0.280214 1.670140 0.204618 -0.090791 -392610.000000 0 0 1
30.321491 -7.352994 -2.858689 31.330998 -0.237909 1.662165 0.218731 -0.072838 131658.000000 0 0 1
30.953091 -7.438894 -1.620289 31.875638 -0.235855 1.621650 0.240280 -0.064191 -232985.000000 0 0 1
31.837491 -6.243994 -1.333389 32.471391 -0.193663 1.611871 0.218822 -0.069721 -336374.000000 0 0 1
31.008191 -5.100194 -1.102589 31.444166 -0.163019 1.605868 0.272822 -0.062199 268058.000000 0 0 1
31.759091 -3.927494 -0.852289 32.012364 -0.123041 1.597423 0.253039 -0.036564 -87310.300000 0 0 1
32.517691 -3.818294 0.481611 32.744641 -0.116887 1.556088 0.219064 -0.046813 -160082.000000 0 0 1
31.594791 -3.759194 1.542711 31.855020 -0.118425 1.522348 0.282988 -0.079170 155550.000000 0 0 1
32.198191 -3.509594 2.794511 32.509230 -0.108571 1.484730 0.193037 -0.062941 -510125.000000 0 0 1
31.387591 -4.014294 3.970511 31.891384 -0.127204 1.445971 0.219062 -0.065646 -438771.000000 0 0 1
31.459291 -5.421494 4.135611 32.189794 -0.170657 1.441964 0.191421 -0.058525 -35926.100000 0 0 1
31.429291 -5.824394 5.469811 32.429042 -0.183239 1.401316 0.172728 -0.058795 -96754.100000 0 0 1
32.031891 -7.253694 5.614611 33.319393 -0.222696 1.401480 0.141711 -0.051856 -246058.000000 0 0 1
33.402191 -7.184394 5.286311 34.572633 -0.211860 1.417290 0.149680 -0.064357 -350163.000000 0 0 1
33.934891 -8.480594 5.484111 35.405830 -0.244892 1.415277 0.141715 -0.061490 -371835.000000 0 0 1
35.448091 -8.451094 5.696311 36.884090 -0.234039 1.415738 0.208432 -0.078919 7721.040000 0 0 1
36.292391 -8.037994 4.606311 37.456176 -0.217960 1.447506 0.208432 -0.076936 -169748.000000 0 0 1
37.630491 -8.008594 5.014911 38.798721 -0.209693 1.441179 0.221126 -0.069188 -67621.000000 0 0 1
-37.570381 -7.924894 3.899211 38.594576 0.207887 1.469594 0.231101 -0.058078 56089.500000 0 0 1
-37.330381 -9.087694 3.110111 38.546288 0.238795 1.490023 0.295355 -0.072353 79530.300000 0 0 1
-36.356581 -8.857194 2.117611 37.479796 0.238965 1.514266 0.326931 -0.076227 -63113.700000 0 0 1
-35.926381 -10.150194 1.363811 37.357613 0.275351 1.534281 0.315476 -0.057962 -64836.100000 0 0 1
-35.166281 -11.032694 2.168811 36.920068 0.304004 1.512019 0.303622 -0.057761 35672.600000 0 0 1
-34.441181 -11.932594 1.350411 36.474722 0.333520 1.533765 0.299865 -0.056075 -194134.000000 0 0 1
-33.441281 -12.808194 2.155611 35.875002 0.365771 1.510673 0.191801 -0.059445 -159279.000000 0 0 1
-32.184481 -12.254294 2.439211 34.524749 0.363804 1.500086 0.213910 -0.044865 -134943.000000 0 0 1
-31.201081 -12.532994 1.490011 33.657147 0.381958 1.526512 0.232277 -0.039019 -1434430.000000 0 0 1
-29.866881 -12.943594 2.063011 32.616303 0.408944 1.507503 0.229878 -0.037111 -1004840.000000 0 0 1
-29.170681 -11.883294 2.657611 31.610191 0.386845 1.486622 0.230726 -0.037852 273797.000000 0 0 1
-27.880781 -12.293994 3.083911 30.626635 0.415301 1.469932 0.224550 -0.019499 113599.000000 0 0 1
-27.144581 -11.339194 4.017311 29.690813 0.395700 1.435075 0.225689 -0.021601 -814643.000000 0 0 1
-25.890481 -11.842594 4.323811 28.796864 0.429000 1.420078 0.195224 -0.009625 -734876.000000 0 0 1
-25.221881 -10.908894 5.138011 27.956151 0.408220 1.385957 0.185764 -0.000302 595941.000000 0 0 1
-23.703481 -11.200094 5.410511 26.768839 0.441413 1.367274 0.156142 0.008223 671789.000000 0 0 1
-23.520881 -12.370294 6.207711 27.290872 0.484174 1.341323 0.159808 -0.008789 -234452.000000 0 0 1
-22.205381 -12.555994 6.671511 26.367423 0.514626 1.314995 0.119393 0.001225 -151238.000000 0 0 1
-21.872681 -11.945394 8.054811 26.191346 0.499870 1.258193 0.148639 -0.015076 -978707.000000 0 0 1
-21.718481 -10.553594 8.089811 25.465973 0.452326 1.247524 0.131944 -0.006674 571686.000000 0 0 1
-22.841981 -9.743694 8.454911 26.233208 0.403199 1.242640 0.163691 -0.017728 -119278.000000 0 0 1
-23.374081 -9.927994 9.899811 27.256540 0.401654 1.199087 0.145522 -0.008922 -267907.000000 0 0 1
-24.014081 -11.163594 10.290911 28.411349 0.435157 1.200157 0.125788 -0.022830 1131300.000000 0 0 1
-25.349581 -11.464594 9.871111 29.520789 0.424732 1.229851 0.134656 -0.026986 757462.000000 0 0 1
-26.470081 -10.796594 10.713311 30.528784 0.387280 1.212238 0.147379 -0.028803 -407067.000000 0 0 1
-26.680481 -11.395794 11.973511 31.385939 0.403666 1.179386 0.127333 -0.027597 154215.000000 0 0 1
-27.907381 -11.079894 12.588911 32.558665 0.377938 1.173797 0.134146 -0.034274 -127558.000000 0 0 1
-28.139981 -11.778594 13.952711 33.545073 0.396413 1.141821 0.128279 -0.027026 -151701.000000 0 0 1
-28.307481 -13.160294 13.821311 34.139939 0.435180 1.153989 0.121684 -0.028781 503499.000000 0 0 1
-27.804381 -13.787694 15.025811 34.481286 0.460348 1.119906 0.092258 -0.023817 -612317.000000 0 0 1
-27.766081 -15.326494 14.888411 35.036002 0.504367 1.131894 0.100129 -0.017114 734801.000000 0 0 1
-28.972881 -16.048994 15.254611 36.465068 0.505857 1.139185 0.116123 -0.017964 888247.000000 0 0 1
-28.792881 -17.437994 15.143311 36.911157 0.544553 1.148053 0.092378 -0.014322 115037.000000 0 0 1
-29.863981 -18.362294 15.819811 38.461638 0.551277 1.146901 0.070629 -0.007770 173674.000000 0 0 1
-30.098081 -18.074294 17.208411 39.098644 0.540797 1.115055 0.075316 -0.004046 129499.000000 0 0 1
-30.662881 -19.191794 17.889911 40.355745 0.559244 1.111514 0.083610 -0.002660 386624.000000 0 0 1
-29.658581 -20.399894 18.139211 40.309032 0.602508 1.104027 0.055067 -0.001860 -312929.000000 0 0 1
-28.686981 -20.069294 19.059911 39.862259 0.610455 1.072256 0.071919 -0.008767 -525047.000000 0 0 1
-27.861081 -21.200394 19.231211 39.944161 0.650461 1.068485 0.065054 -0.002218 -100896.000000 0 0 1
-26.445581 -20.983694 19.814911 39.144794 0.670745 1.040029 0.085898 -0.004837 -101303.000000 0 0 1
-25.452681 -20.660194 18.888611 37.834670 0.681840 1.048074 0.085052 -0.012713 -491363.000000 0 0 1
-24.199981 -20.780394 19.495611 37.383723 0.709520 1.022188 0.090280 -0.013934 331625.000000 0 0 1
-22.916781 -20.612394 18.606011 36.003240 0.732509 1.027702 0.101747 -0.018879 601878.000000 0 0 1
-22.671081 -21.585094 17.598711 35.911124 0.760864 1.058634 0.094919 -0.020756 -546485.000000 0 0 1
-21.462581 -21.341794 16.976211 34.703117 0.782576 1.059642 0.097784 -0.020194 -668789.000000 0 0 1
-21.186081 -22.169494 15.675311 34.439104 0.808077 1.098244 0.089921 -0.010847 -107381.000000 0 0 1
-21.076681 -23.555694 15.747511 35.314039 0.840884 1.108586 0.083007 -0.017935 302971.000000 0 0 1
-20.044881 -24.224494 16.445811 35.483631 0.879532 1.088882 0.100648 -0.027260 317246.000000 0 0 1
-18.584681 -24.376994 15.947711 34.553693 0.919415 1.091072 0.107439 -0.036923 433693.000000 0 0 1
-17.824081 -23.199894 15.876111 33.286391 0.915697 1.073609 0.120490 -0.041552 898586.000000 0 0 1
-16.481981 -23.557494 15.456611 32.642274 0.960306 1.077519 0.134320 -0.039402 1349340.000000 0 0 1
-15.500981 -22.340794 15.252811 31.177552 0.964215 1.059596 0.129223 -0.033772 16776.100000 0 0 1
-15.844081 -21.325494 14.346111 30.193087 0.931813 1.075667 0.131802 -0.033865 302288.000000 0 0 1
-16.930781 -20.436994 14.659011 30.318454 0.878954 1.066146 0.116531 -0.031036 256852.000000 0 0 1
-16.595081 -19.299794 15.625611 29.867013 0.860607 1.020227 0.117725 -0.028855 -429583.000000 0 0 1
-16.028681 -18.192694 15.031611 28.527917 0.848550 1.015837 0.116517 -0.035093 -71555.600000 0 0 1
-15.942381 -17.058594 15.891911 28.243725 0.819209 0.973184 0.109356 -0.035855 -46584.300000 0 0 1
-15.254781 -15.808494 15.239311 26.736743 0.803222 0.964319 0.103845 -0.033652 143649.000000 0 0 1
-16.071581 -15.076394 14.364411 26.304556 0.753459 0.993118 0.098406 -0.038722 69884.500000 0 0 1
-16.051381 -15.664694 13.045911 25.946585 0.773207 1.043963 0.117211 -0.037091 -218322.000000 0 0 1
-16.993581 -14.903294 12.104511 25.639991 0.719959 1.079131 0.102157 -0.028739 256671.000000 0 0 1
-18.370381 -15.097494 12.400511 26.817492 0.687916 1.090092 0.091620 -0.030991 443549.000000 0 0 1
-19.199181 -14.171394 11.697711 26.575805 0.635858 1.115015 0.122099 -0.036503 -631686.000000 0 0 1
-20.685181 -14.404394 11.994111 27.914548 0.608281 1.126666 0.116824 -0.040337 -493556.000000 0 0 1
-21.221081 -15.552194 11.386411 28.668020 0.632444 1.162353 0.144789 -0.041264 45531.800000 0 0 1
-21.468381 -15.514694 9.959311 28.298145 0.625784 1.211151 0.169957 -0.037928 -546351.000000 0 0 1
-22.293981 -16.779094 9.598511 29.507474 0.645181 1.239477 0.170478 -0.025656 -270983.000000 0 0 1
-21.631981 -18.007594 9.515111 29.711166 0.694218 1.244799 0.173486 -0.012584 -192694.000000 0 0 1
-22.420481 -18.976794 8.802711 30.664057 0.702403 1.279630 0.173213 -0.022652 428462.000000 0 0 1
-21.758981 -20.353194 8.661211 31.027767 0.752029 1.287894 0.174197 -0.021707 -23772.600000 0 0 1
-20.566881 -20.440894 7.935611 30.063278 0.782326 1.303667 0.193850 -0.022116 -325913.000000 0 0 1
-20.083381 -21.790794 7.865711 30.660240 0.826150 1.311351 0.176959 -0.023094 191914.000000 0 0 1
-18.664781 -21.923794 7.266111 29.695508 0.865520 1.323599 0.173831 -0.036638 -222568.000000 0 0 1
-17.642381 -21.431394 8.081711 28.911457 0.882067 1.287488 0.139948 -0.040519 -354892.000000 0 0 1
-16.431781 -21.637494 7.366911 28.150594 0.921298 1.306017 0.163141 -0.044851 -218625.000000 0 0 1
-15.171081 -21.371694 8.224111 27.469019 0.953478 1.266737 0.096269 -0.031366 -293479.000000 0 0 1
-14.022481 -21.798194 7.547311 26.995428 0.999155 1.287442 0.117509 -0.022970 88175.900000 0 0 1
-12.814481 -21.617594 8.303111 26.466450 1.035702 1.251686 0.103124 -0.018218 722804.000000 0 0 1
-11.586181 -22.101894 7.509511 26.060048 1.087964 1.278490 0.106207 -0.017556 29845.600000 0 0 1
-11.427381 -23.536894 7.348111 27.176555 1.118808 1.297004 0.096700 -0.018756 -219846.000000 0 0 1
-10.065681 -23.883394 7.177211 26.893249 1.171936 1.300644 0.128228 -0.032428 397402.000000 0 0 1
-9.976681 -25.394394 7.151411 28.205533 1.196452 1.314452 0.134972 -0.028000 322020.000000 0 0 1
-10.537681 -25.955654 5.936611 28.635329 1.185139 1.361964 0.132775 -0.032613 50808.200000 0 0 1
-10.652681 -27.423354 6.096411 30.044737 1.200284 1.366466 0.159474 -0.028078 -372843.000000 0 0 1
-9.605681 -28.121474 5.248211 30.176649 1.241644 1.395991 0.191562 -0.033801 -228953.000000 0 0 1
-8.262681 -27.777864 5.578211 29.512677 1.281675 1.380642 0.189112 -0.036249 1036020.000000 0 0 1
-7.242681 -28.802544 5.324411 30.172709 1.324444 1.393403 0.200656 -0.036700 1133960.000000 0 0 1
-7.446681 -30.154114 6.031211 31.640151 1.328686 1.379004 0.224965 -0.046953 -685181.000000 0 0 1
-7.402681 -30.048584 7.451211 31.831394 1.329249 1.334520 0.217168 -0.042300 98450.200000 0 0 1
-7.319681 -31.268844 8.128211 33.126820 1.340848 1.322899 0.247534 -0.050251 -261048.000000 0 0 1
-7.556681 -31.260474 9.671211 33.583523 1.333614 1.278685 0.192332 -0.047019 533484.000000 0 0 1
-6.532681 -30.816744 10.611411 33.240784 1.361904 1.245881 0.198475 -0.044323 995242.000000 0 0 1
-7.071681 -30.837284 11.918811 33.808355 1.345372 1.210512 0.172345 -0.037290 153385.000000 0 0 1
-6.182681 -29.987274 12.878411 33.216195 1.367469 1.172645 0.146701 -0.034426 278166.000000 0 0 1
-6.225681 -28.572094 12.775511 31.911399 1.356256 1.158905 0.146388 -0.025635 -132128.000000 0 0 1
-5.378681 -27.986244 13.739811 31.637675 1.380921 1.121550 0.133314 -0.034488 407969.000000 0 0 1
-6.169681 -27.403564 15.005911 31.846470 1.349347 1.080151 0.121266 -0.027927 446151.000000 0 0 1
-6.994681 -28.311744 15.729611 33.134591 1.328587 1.076152 0.102560 -0.028193 -210598.000000 0 0 1
-6.365681 -29.401044 16.323911 34.225917 1.357575 1.073620 0.075924 -0.038749 -217490.000000 0 0 1
-7.328681 -30.509174 16.898711 35.638262 1.335051 1.076772 0.075969 -0.029473 -26041.900000 0 0 1
-7.935681 -31.145384 15.792911 35.810977 1.321310 1.114075 0.098937 -0.028111 15761.700000 0 0 1
-8.339681 -32.508014 16.002711 37.180748 1.319670 1.125857 0.104248 -0.029239 -295289.000000 0 0 1
-7.212681 -33.493944 15.666611 37.673728 1.358693 1.141919 0.116970 -0.036406 -158097.000000 0 0 1
-6.608681 -33.293684 14.424611 36.881072 1.374847 1.168957 0.111745 -0.035667 -265659.000000 0 0 1
-5.500681 33.338996 14.229211 36.663559 -1.407277 1.172225 0.142840 -0.045044 -181510.000000 0 0 1
-4.405681 -33.680014 13.240211 36.456228 1.440725 1.199117 0.181156 -0.056960 -37585.800000 0 0 1
-4.769681 33.680075 11.887811 36.033558 -1.430115 1.234589 0.181471 -0.058173 -100819.000000 0 0 1
-3.743681 -33.277774 11.052911 35.264603 1.458769 1.251996 0.214517 -0.063365 -448464.000000 0 0 1
-4.110681 -32.937004 9.550711 34.539254 1.446634 1.290628 0.211437 -0.066537 -809358.000000 0 0 1
-4.321681 33.396630 8.649411 34.768148 -1.442107 1.319382 0.207456 -0.066619 473322.000000 0 0 1
-5.198681 32.316988 8.979311 33.941744 -1.411298 1.303058 0.212653 -0.067368 -698042.000000 0 0 1
-6.663681 32.616686 9.202411 34.538923 -1.369267 1.301103 0.206532 -0.057178 -982230.000000 0 0 1
-7.477681 32.789798 8.056911 34.583238 -1.346582 1.335664 0.196912 -0.048310 266062.000000 0 0 1
-8.845681 32.859121 8.478711 35.069309 -1.307830 1.326607 0.166073 -0.049806 903680.000000 0 0 1
-9.885681 33.215302 7.377411 35.431753 -1.281520 1.361047 0.187441 -0.063970 45290.900000 0 0 1
-10.037681 -32.896834 7.042811 35.107804 1.274643 1.368821 0.195040 -0.056768 -107059.000000 0 0 1
-10.782681 -32.942064 5.841511 35.150662 1.254465 1.403837 0.189998 -0.053700 115275.000000 0 0 1
-11.194881 -31.582824 5.246311 33.916426 1.230153 1.415489 0.180750 -0.054930 -99376.100000 0 0 1
-12.261781 -30.939804 5.881711 33.796705 1.193474 1.395874 0.182741 -0.053475 -389638.000000 0 0 1
-12.916181 -30.020924 5.032911 33.066808 1.164496 1.417998 0.181942 -0.051571 -29671.800000 0 0 1
-14.070781 -29.273034 5.748411 32.983960 1.122729 1.395623 0.161423 -0.052823 -94628.000000 0 0 1
-15.133781 -30.092254 6.144611 34.239324 1.104821 1.390358 0.151345 -0.040003 -208935.000000 0 0 1
-16.065781 -29.459514 6.972811 34.272327 1.071529 1.365913 0.139576 -0.045239 -115165.000000 0 0 1
35.799773 -12.316794 -12.976689 40.021514 -0.331361 1.901008 0.163789 -0.046466 250121.000000 0 0 1
34.614293 -12.668894 -12.252689 38.842998 -0.350859 1.891718 0.199962 -0.051501 618960.000000 0 0 1
34.489223 -14.032594 -11.755389 39.046246 -0.386414 1.876604 0.202187 -0.056795 -153589.000000 0 0 1
35.559513 -14.417794 -10.723289 39.841444 -0.385200 1.843306 0.179150 -0.045847 358805.000000 0 0 1
36.866803 -14.638294 -11.224889 41.224252 -0.377968 1.846567 0.182993 -0.046886 17897.200000 0 0 1
37.753373 -14.991294 -10.198589 41.881586 -0.377991 1.816780 0.146160 -0.036542 -456746.000000 0 0 1
-37.101919 -15.296694 -10.705089 41.534807 0.391055 1.831476 0.096205 -0.038054 -262566.000000 0 0 1
-36.347309 -14.170894 -11.161289 40.577278 0.371747 1.849451 0.096092 -0.046270 -461525.000000 0 0 1
-35.010616 -14.460794 -11.365089 39.547731 0.391697 1.862283 0.077640 -0.036665 -635795.000000 0 0 1
-34.125730 -13.198894 -11.518989 38.359658 0.369052 1.875792 0.078604 -0.046555 -201369.000000 0 0 1
-34.098878 -12.346794 -10.445089 37.739591 0.347403 1.851225 0.094029 -0.038102 417365.000000 0 0 1
-33.431639 -11.161494 -10.871189 36.884091 0.322225 1.869979 0.112041 -0.036421 -190787.000000 0 0 1
-33.856819 -9.908094 -10.104189 36.695356 0.284697 1.849754 0.132910 -0.038958 -58449.400000 0 0 1
-33.237369 -9.859994 -8.836289 35.777398 0.288384 1.820358 0.152792 -0.039157 119242.000000 0 0 1
-33.881309 -8.873794 -8.105589 35.949797 0.256155 1.798221 0.210512 -0.055099 -210129.000000 0 0 1
-33.517829 -8.587094 -6.587189 35.221785 0.250801 1.758924 0.198907 -0.050280 -274021.000000 0 0 1
-32.305239 -7.852594 -6.423389 33.860768 0.238450 1.761653 0.193916 -0.057595 611973.000000 0 0 1
-32.053399 -7.468194 -5.084489 33.302347 0.228908 1.724072 0.212730 -0.048842 -53167.900000 0 0 1
-31.416739 -8.549694 -4.219289 32.831557 0.265704 1.699666 0.181983 -0.038321 -459678.000000 0 0 1
-32.316209 -9.611794 -4.024589 33.954694 0.289097 1.689604 0.182545 -0.031234 176955.000000 0 0 1
-32.255809 -9.925494 -2.634689 33.851060 0.298517 1.648707 0.192327 -0.032856 435993.000000 0 0 1
-33.014909 -11.288394 -2.361189 34.971235 0.329457 1.638366 0.190150 -0.031313 315951.000000 0 0 1
-34.372287 -11.363594 -2.727089 36.304578 0.319292 1.645984 0.206705 -0.044440 47150.700000 0 0 1
-34.859970 -12.671594 -2.485489 37.174783 0.348650 1.637706 0.207451 -0.049038 221257.000000 0 0 1
-36.415399 -12.766194 -2.485589 38.668271 0.337184 1.635120 0.205055 -0.042689 53567.000000 0 0 1
-36.951949 -12.120294 -1.377689 38.913315 0.316944 1.606208 0.237194 -0.055668 955493.000000 0 0 1
38.000453 -12.647194 -1.096989 40.064814 -0.321286 1.598180 0.307829 -0.065236 884431.000000 0 0 1
37.097063 -11.937594 -0.054789 38.970517 -0.311329 1.572202 0.287606 -0.076399 115843.000000 0 0 1
37.530183 -12.095494 1.251111 39.450993 -0.311776 1.539078 0.308430 -0.071860 21173.700000 0 0 1
36.550203 -11.640794 2.138511 38.418728 -0.308331 1.515104 0.307163 -0.069960 13993.100000 0 0 1
37.018083 -11.872594 3.550711 39.037219 -0.310360 1.479713 0.288047 -0.079741 -104328.000000 0 0 1
35.922233 -12.043394 4.408811 38.142991 -0.323486 1.454951 0.254492 -0.085421 -27437.500000 0 0 1
36.357573 -12.388394 5.715311 38.833107 -0.328400 1.423084 0.241950 -0.075047 3113.670000 0 0 1
35.184983 -12.546894 6.716711 37.954206 -0.342541 1.392891 0.185630 -0.066599 453113.000000 0 0 1
34.517603 -11.331294 7.071311 37.011709 -0.317192 1.378558 0.169843 -0.058990 241048.000000 0 0 1
33.509273 -11.594894 8.039511 36.358585 -0.333125 1.347836 0.157961 -0.050010 349512.000000 0 0 1
32.931953 -10.280394 8.708511 35.581430 -0.302585 1.323536 0.141973 -0.048452 -64460.900000 0 0 1
32.022163 -9.639494 7.830511 34.346116 -0.292398 1.340785 0.151086 -0.046744 457432.000000 0 0 1
31.026363 -8.986294 8.624211 33.433003 -0.281920 1.309891 0.161416 -0.034095 -135918.000000 0 0 1
29.575263 -9.086694 8.151111 31.995387 -0.298085 1.313198 0.135804 -0.017048 -423893.000000 0 0 1
29.368263 -8.455494 6.882311 31.326609 -0.280331 1.349294 0.158256 -0.026775 1418.810000 0 0 1
28.261063 -9.143094 6.316611 30.367473 -0.312895 1.361261 0.190196 -0.038052 163796.000000 0 0 1
27.523563 -8.252994 5.267711 29.213134 -0.291321 1.389485 0.205176 -0.038227 480006.000000 0 0 1
26.647663 -7.240994 5.815811 28.219737 -0.265324 1.363219 0.228635 -0.043753 947986.000000 0 0 1
25.775963 -6.587894 4.868311 27.046276 -0.250226 1.389811 0.275435 -0.045098 636554.000000 0 0 1
26.461263 -5.391694 4.144711 27.321190 -0.201006 1.418505 0.289864 -0.060268 -3231.400000 0 0 1
27.399163 -5.739494 3.163611 28.172049 -0.206491 1.458263 0.283913 -0.062933 68411.300000 0 0 1
27.993563 -4.560194 2.589511 28.480528 -0.161483 1.479748 0.296633 -0.075441 178687.000000 0 0 1
28.510763 -4.830094 1.122511 28.938788 -0.167820 1.531997 0.289995 -0.088018 -373346.000000 0 0 1
27.422063 -4.944194 0.280811 27.865632 -0.178383 1.560719 0.302620 -0.087340 -144192.000000 0 0 1
27.855963 -4.783694 -1.077089 28.284245 -0.170071 1.608886 0.295829 -0.088191 160120.000000 0 0 1
26.779463 -5.381794 -2.021189 27.389570 -0.198325 1.644658 0.290359 -0.075178 514367.000000 0 0 1
25.565263 -4.656594 -2.033789 26.065357 -0.180170 1.648902 0.326765 -0.067896 -263499.000000 0 0 1
24.610963 -5.191094 -2.871689 25.315875 -0.207879 1.684475 0.297705 -0.065922 870615.000000 0 0 1
23.178463 -4.473894 -2.770589 23.768320 -0.190675 1.687628 0.238635 -0.051189 1289680.000000 0 1 0
22.870963 -3.144894 -3.221489 23.309854 -0.136649 1.709443 0.247700 -0.055125 128363.000000 0 1 0
23.147063 -2.933094 -4.595189 23.780356 -0.126044 1.765254 0.254515 -0.051067 50447.700000 0 1 0
22.200463 -1.860794 -5.247689 22.888017 -0.083622 1.802131 0.214901 -0.038520 252408.000000 0 1 0
22.264663 -0.559394 -4.658689 22.753714 -0.025119 1.776999 0.226455 -0.025079 367986.000000 0 1 0
21.420163 0.325606 -5.378989 22.087619 0.015200 1.816800 0.228530 -0.015680 -274528.000000 0 1 0
21.414163 1.792406 -4.836889 22.026679 0.083507 1.792193 0.206334 -0.001940 -384522.000000 0 1 0
22.623963 2.476306 -4.969289 23.295270 0.109021 1.785766 0.267735 -0.006842 698828.000000 0 1 0
23.508663 2.346606 -3.793289 23.928076 0.099489 1.729997 0.288599 -0.005218 493988.000000 0 1 0
24.629463 3.373306 -3.741389 25.139364 0.136115 1.720177 0.308595 -0.022335 -66043.500000 0 0 1
24.032963 4.645506 -3.789589 24.769437 0.190942 1.724394 0.252120 -0.008507 1105040.000000 0 1 0
25.049063 5.596406 -3.451789 25.897686 0.219808 1.704480 0.246307 -0.017342 559483.000000 0 0 1
24.520163 7.074106 -3.497589 25.758775 0.280875 1.706999 0.214206 -0.019057 -681.705000 0 0 1
23.558963 7.349006 -2.493489 24.804235 0.302375 1.671493 0.239269 -0.032118 870244.000000 0 1 0
22.897763 8.597206 -2.789289 24.617059 0.359174 1.684347 0.218626 -0.028793 474458.000000 0 1 0
21.700663 9.060506 -1.887789 23.591848 0.395520 1.650901 0.162396 -0.026985 95887.100000 0 1 0
22.101063 9.367806 -0.572689 24.011262 0.400907 1.594649 0.127720 -0.030739 1117850.000000 0 1 0
21.051163 9.921206 0.257511 23.273334 0.440417 1.559731 0.084992 -0.026105 472076.000000 0 1 0
21.641263 10.364606 1.640911 24.051235 0.446648 1.502518 0.106910 -0.032298 183020.000000 0 1 0
22.540163 11.459106 1.637811 25.338754 0.470334 1.506115 0.119888 -0.037594 754558.000000 0 0 1
21.919563 12.748506 1.428711 25.397497 0.526783 1.514513 0.120146 -0.029569 239028.000000 0 0 1
20.976063 13.336006 2.533011 24.985204 0.566308 1.469241 0.116747 -0.019862 569678.000000 0 1 0
19.606363 12.887506 2.424511 23.587614 0.581499 1.467827 0.124773 -0.018110 1233210.000000 0 1 0
18.715763 13.539606 3.325911 23.338003 0.626280 1.427799 0.131160 -0.024744 255523.000000 0 1 0
19.013663 13.415406 4.856411 23.771353 0.614452 1.365051 0.150485 -0.025868 -619596.000000 0 1 0
18.748863 12.075206 5.290911 22.919952 0.572181 1.337852 0.141068 -0.019068 495075.000000 0 1 0
19.009163 12.028306 6.698711 23.471283 0.564163 1.281372 0.156307 -0.029121 22261.200000 0 1 0
18.838463 10.613506 7.325211 22.829649 0.513069 1.244155 0.120251 -0.027754 -218122.000000 0 1 0
19.714863 9.759506 6.665211 22.985839 0.459666 1.276601 0.105636 -0.045700 100614.000000 0 1 0
20.160763 8.634406 7.392011 23.144138 0.404644 1.245710 0.154960 -0.039280 477200.000000 0 1 0
21.107463 7.735106 6.526511 23.408379 0.351265 1.288241 0.169290 -0.039938 411571.000000 0 1 0
20.396863 7.175306 5.433511 22.294395 0.338264 1.324600 0.128025 -0.037745 86170.700000 0 1 0
21.281863 6.636506 4.516211 22.745484 0.302282 1.370914 0.137360 -0.038395 -65572.100000 0 1 0
20.750263 6.671306 3.032811 22.006310 0.311067 1.432541 0.120792 -0.022133 183248.000000 0 1 0
21.661763 5.920306 2.239811 22.567648 0.266791 1.471384 0.127341 -0.027506 518176.000000 0 1 0
21.294463 5.784506 0.883211 22.083811 0.265243 1.530792 0.122044 -0.011227 -184864.000000 0 1 0
22.261563 4.920206 0.052311 22.798867 0.217521 1.568502 0.194812 -0.020617 -52593.200000 0 1 0
22.138463 3.541606 0.459011 22.424656 0.158631 1.550326 0.171256 -0.016702 342946.000000 0 1 0
23.201763 2.764106 -0.027389 23.365847 0.118575 1.571969 0.222000 -0.021789 -131478.000000 0 1 0
23.048863 1.233306 0.258511 23.083283 0.053457 1.559597 0.263382 -0.028573 -194048.000000 0 1 0
22.045063 0.638406 -0.540989 22.060939 0.028951 1.595321 0.174371 -0.030465 355238.000000 0 1 0
22.276863 -0.671794 -1.013189 22.310008 -0.030147 1.616226 0.237334 -0.044964 -993504.000000 0 1 0
22.292563 -1.868894 0.037911 22.370797 -0.083639 1.569102 0.263710 -0.042136 924822.000000 0 1 0
23.390163 -1.961494 0.992111 23.493221 -0.083664 1.528554 0.267311 -0.045380 87272.100000 0 1 0
24.604563 -2.343894 0.442011 24.719905 -0.094976 1.552915 0.295318 -0.062200 -1174930.000000 0 1 0
25.646863 -2.105094 1.561511 25.780444 -0.081896 1.510190 0.296915 -0.055961 -597687.000000 0 0 1
25.741563 -0.775694 2.019411 25.832301 -0.030125 1.492543 0.283155 -0.053986 409049.000000 0 0 1
26.802463 -0.593794 2.940811 26.969853 -0.022151 1.461538 0.278588 -0.055834 -258421.000000 0 0 1
26.797363 0.846306 3.556811 27.045624 0.031571 1.438903 0.262536 -0.049414 58803.100000 0 0 1
27.338163 1.833106 2.707511 27.532999 0.066953 1.472300 0.299973 -0.035237 50076.100000 0 0 1
28.745863 1.789806 2.546911 28.913920 0.062183 1.482596 0.275760 -0.036847 24739.000000 0 0 1
29.176163 2.901406 1.601511 29.363778 0.099119 1.516229 0.298345 -0.044413 -267911.000000 0 0 1
28.630063 2.571006 0.318511 28.747035 0.089561 1.559716 0.339778 -0.032797 123221.000000 0 0 1
28.951363 3.400806 -0.729489 29.159544 0.116930 1.595816 0.318764 -0.027272 -607683.000000 0 0 1
30.394663 3.350006 -1.203789 30.602405 0.109774 1.610143 0.276590 -0.025878 -342170.000000 0 0 1
31.409483 3.877906 -0.319689 31.649581 0.122841 1.580897 0.224468 -0.024316 1010910.000000 0 0 1
32.687403 3.534906 -0.881089 32.889788 0.107724 1.597589 0.164796 -0.022875 1139160.000000 0 0 1
33.902913 4.025106 0.000111 34.141016 0.118171 1.570793 0.089868 -0.014425 488353.000000 0 0 1
34.072553 3.301406 1.193311 34.252914 0.096592 1.535951 0.113032 -0.015357 -193442.000000 0 0 1
33.260123 3.672106 2.253611 33.538021 0.109960 1.503550 0.121720 -0.010601 -419084.000000 0 0 1
33.452093 2.758106 3.489411 33.746491 0.082263 1.467210 0.154692 -0.015530 -131111.000000 0 0 1
32.775323 1.504106 3.407111 32.986247 0.045859 1.467323 0.190316 -0.020412 225862.000000 0 0 1
33.125813 0.554406 4.411911 33.422923 0.016735 1.438407 0.177028 -0.023618 485212.000000 0 0 1
34.483613 -0.179294 4.191911 34.737930 -0.005199 1.449829 0.164114 -0.024342 125949.000000 0 0 1
35.653013 0.501306 4.544711 35.945000 0.014060 1.444022 0.157220 -0.025515 -362467.000000 0 0 1
36.742193 -0.355694 4.330511 36.998224 -0.009681 1.453481 0.124614 -0.027313 667897.000000 0 0 1
-38.074889 0.212906 4.660211 38.359615 -0.005592 1.449008 0.159874 -0.044711 1084330.000000 0 0 1
-37.509979 0.966606 3.652311 37.699764 -0.025764 1.473765 0.152751 -0.038497 144889.000000 0 0 1
-36.801619 0.307306 2.601711 36.894749 -0.008350 1.500221 0.159953 -0.035723 -21867.700000 0 0 1
-36.395119 1.281106 1.458511 36.446854 -0.035185 1.530768 0.171455 -0.038818 9121.110000 0 0 1
-35.499365 2.262206 1.945011 35.624508 -0.063639 1.516172 0.205524 -0.061932 94685.100000 0 0 1
-34.896737 2.944506 0.859811 35.031295 -0.084178 1.546250 0.258722 -0.043784 -295667.000000 0 0 1
-33.762609 3.846306 1.375111 34.008804 -0.113433 1.530351 0.286510 -0.055223 691639.000000 0 0 1
-32.665859 3.092806 1.994411 32.872503 -0.094399 1.510088 0.289399 -0.069122 1056380.000000 0 0 1
-31.868849 3.820606 2.901411 32.227919 -0.119316 1.480646 0.306673 -0.052969 -346980.000000 0 0 1
-32.376979 3.819206 4.380411 32.894424 -0.117418 1.437234 0.311963 -0.053229 -1127820.000000 0 0 1
-33.490059 4.601206 4.619411 34.118823 -0.136535 1.434987 0.294893 -0.027841 673265.000000 0 0 1
-34.739351 3.842006 4.690511 35.264492 -0.110148 1.437392 0.272892 -0.027340 1057570.000000 0 0 1
-34.962880 2.978806 5.983611 35.596065 -0.084994 1.401897 0.214581 -0.021079 -819850.000000 0 0 1
-34.986673 3.764906 7.190911 35.915888 -0.107197 1.369219 0.210184 -0.027400 350630.000000 0 0 1
-34.720468 2.886606 8.318211 35.819492 -0.082948 1.336431 0.160070 -0.027765 524359.000000 0 0 1
-35.926519 2.004806 8.852211 37.055305 -0.055745 1.329572 0.156582 -0.022769 443157.000000 0 0 1
-36.101989 0.831506 8.088711 37.006381 -0.023028 1.350441 0.158841 -0.023865 36877.100000 0 0 1
-36.946569 -0.141994 8.673311 37.951225 0.003843 1.340220 0.157073 -0.025191 -388950.000000 0 0 1
-36.410059 -1.038594 9.803011 37.720950 0.028517 1.307896 0.171804 -0.028180 -1055520.000000 0 0 1
-35.399825 -1.844494 9.356311 36.661838 0.052058 1.312736 0.161799 -0.031877 -595529.000000 0 0 1
-34.932456 -2.683094 10.411111 36.549510 0.076658 1.281947 0.152034 -0.021183 727830.000000 0 0 1
-33.632619 -3.523694 10.060711 35.281545 0.104389 1.281628 0.176248 -0.018923 720737.000000 0 0 1
-33.874909 -4.487894 9.084311 35.357819 0.131717 1.310957 0.195282 -0.049890 673238.000000 0 0 1
-32.758349 -5.367694 8.869011 34.359583 0.162414 1.309717 0.220512 -0.069341 504179.000000 0 0 1
-33.145839 -6.406594 7.806211 34.650080 0.190931 1.343559 0.234906 -0.054669 663545.000000 0 0 1
-34.156030 -7.278394 8.345011 35.906108 0.209952 1.336239 0.236082 -0.064157 451144.000000 0 0 1
-34.650992 -8.213294 7.354911 36.362676 0.232734 1.367126 0.241105 -0.074727 133586.000000 0 0 1
-35.625815 -9.188394 8.012111 37.653940 0.252413 1.356374 0.241676 -0.075144 -733356.000000 0 0 1
-36.779009 -8.674494 8.559511 38.745420 0.231622 1.348042 0.220477 -0.079962 -499302.000000 0 0 1
-37.783739 -9.673194 8.617111 39.942912 0.250632 1.353351 0.212250 -0.084412 131725.000000 0 0 1
8.736491 -23.597894 10.631111 27.316797 -1.216220 1.171057 0.167801 -0.056892 -153612.000000 0 0 1
7.961591 -24.081894 9.557111 27.104666 -1.251503 1.210448 0.153072 -0.053547 -188681.000000 0 0 1
6.849391 -24.834494 10.002411 27.635385 -1.301685 1.200446 0.164172 -0.057193 344240.000000 0 0 1
6.427191 -25.848114 8.924811 28.090676 -1.327087 1.247478 0.137075 -0.046887 -300085.000000 0 0 1
5.989891 -25.214684 7.777011 27.058104 -1.337564 1.279265 0.121374 -0.043562 -218750.000000 0 0 1
5.710191 -26.169284 6.752611 27.623097 -1.355962 1.323838 0.092225 -0.036051 -366649.000000 0 0 1
5.094891 -25.606584 5.428611 26.666925 -1.374393 1.365792 0.081783 -0.029956 1043120.000000 0 0 1
3.685291 -25.360764 5.553811 26.222024 -1.426492 1.357380 0.099463 -0.043381 840368.000000 0 0 1
2.857491 -26.429094 5.100711 27.068054 -1.463096 1.381223 0.095130 -0.040846 1356940.000000 0 0 1
1.282091 -26.279014 5.053211 26.791142 -1.522047 1.381045 0.132828 -0.054604 829706.000000 0 0 1
0.702691 -26.073704 6.297111 26.832544 -1.543853 1.333905 0.135644 -0.057531 -194534.000000 0 0 1
-0.706209 -26.094804 6.394411 26.876124 1.543740 1.330571 0.156551 -0.055282 507790.000000 0 0 1
-1.418809 -27.450494 6.230311 28.184383 1.519156 1.347900 0.179709 -0.050837 -497520.000000 0 0 1
-1.187909 -28.297734 7.321511 29.253674 1.528842 1.317830 0.171959 -0.055766 -5223.230000 0 0 1
-1.713109 -29.608894 7.197111 30.519171 1.513003 1.332731 0.202922 -0.057654 -305165.000000 0 0 1
-1.622809 -30.394624 8.541411 31.613643 1.517456 1.297215 0.202442 -0.059897 447228.000000 0 0 1
-0.297709 -30.787364 8.896311 32.048320 1.561127 1.289511 0.191529 -0.046958 413814.000000 0 0 1
-0.257509 -31.073704 10.280411 32.731151 1.562509 1.251302 0.193571 -0.038204 1116080.000000 0 0 1
1.223891 -31.042644 10.832811 32.901269 -1.531391 1.235285 0.151790 -0.048525 915973.000000 0 0 1
2.060391 -32.111074 10.494411 33.845221 -1.506720 1.255529 0.155519 -0.045091 -781558.000000 0 0 1
3.267391 -32.180664 11.178211 34.223141 -1.469610 1.238063 0.143099 -0.039717 -377236.000000 0 0 1
3.373691 -32.853684 12.601611 35.348932 -1.468467 1.206286 0.161970 -0.038803 -483736.000000 0 0 1
2.767791 -32.188924 13.659911 35.076783 -1.485021 1.170785 0.164362 -0.048722 17292.800000 0 0 1
3.432191 -32.448764 14.910911 35.875305 -1.465416 1.142159 0.165356 -0.054917 -181375.000000 0 0 1
3.122391 -31.311564 15.865411 35.240242 -1.471405 1.103799 0.191669 -0.064754 98347.200000 0 0 1
3.762091 -30.054824 15.648411 34.092793 -1.446270 1.093933 0.200472 -0.061384 288310.000000 0 0 1
5.129591 -30.052674 16.015711 34.438045 -1.401739 1.087095 0.181177 -0.052963 192547.000000 0 0 1
6.004591 -28.942534 15.360511 33.311720 -1.366232 1.091546 0.191853 -0.047526 144953.000000 0 0 1
6.300691 -29.198944 13.998211 32.988285 -1.358270 1.132565 0.172446 -0.045799 37890.400000 0 0 1
5.267391 -28.900964 13.072711 32.154423 -1.390518 1.152110 0.162481 -0.042338 -315031.000000 0 0 1
5.877691 -28.783374 11.659611 31.606588 -1.369361 1.192973 0.130709 -0.034057 465434.000000 0 0 1
6.384591 -30.084114 11.211211 32.733900 -1.361674 1.221225 0.121361 -0.034165 -123615.000000 0 0 1
7.691491 -30.416064 11.578311 33.441790 -1.323113 1.217254 0.123637 -0.025669 -714951.000000 0 0 1
8.080791 -31.866364 11.120911 34.705029 -1.322448 1.244601 0.118799 -0.025027 124895.000000 0 0 1
7.460191 -32.886704 11.913211 35.764708 -1.347726 1.231207 0.109090 -0.047994 241803.000000 0 0 1
7.541791 33.258482 11.285311 35.921629 1.347805 1.251220 0.113263 -0.035555 242167.000000 0 0 1
7.028291 32.133967 12.264111 35.105514 1.355469 1.213919 0.108266 -0.033094 728719.000000 0 0 1
5.635891 32.116044 12.591711 34.953608 1.397080 1.202270 0.150254 -0.033657 384157.000000 0 0 1
5.290991 30.909805 13.166511 34.011287 1.401264 1.173288 0.158688 -0.029267 386252.000000 0 0 1
4.398991 30.995945 14.439211 34.475941 1.429816 1.138651 0.171732 -0.046382 -81824.000000 0 0 1
5.073291 31.711905 15.403411 35.618089 1.412160 1.123577 0.147392 -0.051597 -325592.000000 0 0 1
4.448891 31.798362 16.650111 36.168420 1.431789 1.092408 0.168890 -0.053072 -462937.000000 0 0 1
5.287691 32.535480 17.704111 37.415942 1.409684 1.077910 0.196452 -0.046504 -534271.000000 0 0 1
5.189191 -33.516194 17.623911 38.221267 -1.417190 1.091559 0.231695 -0.049927 4945.480000 0 0 1
5.695391 -33.004104 18.827111 38.420938 -1.399913 1.058681 0.201029 -0.047055 -339762.000000 0 0 1
5.161191 -31.604094 19.217111 37.346406 -1.408918 1.030297 0.185569 -0.065323 -13359.600000 0 0 1
3.768891 -31.736664 19.400111 37.386959 -1.452595 1.025232 0.202533 -0.067777 -201914.000000 0 0 1
3.156191 -30.612454 20.024211 36.715840 -1.468058 0.993950 0.172472 -0.058116 368707.000000 0 0 1
1.667791 -30.456274 19.555911 36.232580 -1.516091 1.000677 0.183831 -0.059191 524918.000000 0 0 1
0.667891 -31.388904 19.910211 37.176954 -1.549522 1.005634 0.208891 -0.058328 270115.000000 0 0 1
0.272591 -31.252124 21.302911 37.823057 -1.562074 0.972512 0.171699 -0.049158 -27533.700000 0 0 1
-0.745109 -32.343674 21.860611 39.045547 1.547763 0.976562 0.204311 -0.046968 702004.000000 0 0 1
-2.066809 -32.159304 21.354111 38.658642 1.506617 0.985584 0.198695 -0.042510 282350.000000 0 0 1
-2.964209 -33.148044 21.801311 39.785381 1.481610 0.990857 0.195280 -0.032589 986521.000000 0 0 1
-4.261509 -32.674164 22.543611 39.924627 1.441104 0.970782 0.200541 -0.026076 448505.000000 0 0 1
-5.342209 -32.250044 21.798811 39.291128 1.406637 0.982671 0.181592 -0.030376 -625417.000000 0 0 1
-6.501409 -31.996394 22.542511 39.676219 1.370333 0.966526 0.168145 -0.026315 554377.000000 0 0 1
-7.794109 -31.577544 21.745611 39.124941 1.328809 0.981472 0.118886 -0.022936 654185.000000 0 0 1
-8.345109 -32.655674 21.031211 39.728400 1.320602 1.012933 0.093047 -0.018197 508218.000000 0 0 1
-9.508809 -32.131454 20.354611 39.206607 1.283073 1.024925 0.087381 -0.025377 1098370.000000 0 0 1
-10.658509 -33.166894 20.054811 40.197539 1.259860 1.048460 0.086311 -0.024520 583122.000000 0 0 1
-11.254809 -33.471914 21.275311 41.227159 1.246426 1.028562 0.085500 -0.030407 93512.900000 0 0 1
-12.607409 33.555315 21.365111 41.729772 -1.211394 1.033300 0.081002 -0.027896 536285.000000 0 0 1
-13.025709 33.244742 22.805111 42.366910 -1.197368 1.002406 0.085184 -0.034080 -566548.000000 0 0 1
-13.117009 -33.096074 23.764311 42.803604 1.193457 0.982200 0.094631 -0.035192 162838.000000 0 0 1
-11.923509 -32.386114 24.052411 42.066007 1.218029 0.962125 0.103180 -0.033140 -235813.000000 0 0 1
-12.088209 -30.943794 24.634511 41.358220 1.198376 0.932737 0.109046 -0.040327 -57080.300000 0 0 1
-12.673709 -30.885454 25.933311 42.273760 1.181403 0.910360 0.115522 -0.042210 141008.000000 0 0 1
-13.940509 -30.260734 25.894011 42.196560 1.139097 0.910119 0.135001 -0.045762 220911.000000 0 0 1
-14.633309 -30.190524 27.322311 43.267889 1.119464 0.887351 0.149410 -0.047120 524817.000000 0 0 1
-13.775109 -29.608614 28.329311 43.231627 1.135341 0.856228 0.134244 -0.039953 984350.000000 0 0 1
-14.548309 -29.258594 29.501811 44.023579 1.109366 0.836404 0.143520 -0.035130 516289.000000 0 0 1
-13.690909 -28.696824 30.673911 44.179605 1.125646 0.803349 0.121285 -0.031842 -337148.000000 0 0 1
-14.459609 -28.194814 31.719011 44.834401 1.096924 0.784884 0.116710 -0.030923 84443.600000 0 0 1
-13.772609 -27.855364 32.911711 45.263526 1.111612 0.756689 0.105548 -0.029256 -475394.000000 0 0 1
-13.066109 -28.918764 -33.580689 46.202606 1.146429 2.384468 0.109829 -0.027065 119682.000000 0 0 1
-11.728509 -29.169544 33.305511 45.800407 1.188498 0.756580 0.118320 -0.032903 338735.000000 0 0 1
-11.280909 -30.314524 -33.277389 46.407046 1.214545 2.370395 0.109267 -0.025667 -132024.000000 0 0 1
-9.785809 -30.649754 -33.426789 46.395255 1.261748 2.375289 0.113712 -0.024057 -47783.300000 0 0 1
-8.974009 -29.959644 -32.487689 45.095045 1.279765 2.375214 0.150645 -0.037354 1323370.000000 0 0 1
-7.642009 -30.562824 -32.422989 45.207707 1.325778 2.370573 0.176719 -0.051464 1153300.000000 0 0 1
-6.737509 -29.882244 -31.421889 43.882544 1.349036 2.368917 0.199185 -0.051444 -564993.000000 0 0 1
-7.282109 -29.953604 -30.158189 43.124980 1.332310 2.345243 0.210468 -0.065024 214250.000000 0 0 1
-6.377709 -29.329124 -29.242189 41.904395 1.356677 2.343161 0.207840 -0.067798 455219.000000 0 0 1
-6.857409 -29.426974 -27.804589 41.061734 1.341851 2.314667 0.208691 -0.065298 -57048.600000 0 0 1
-6.579609 -30.684394 -27.203289 41.531220 1.359566 2.284990 0.199450 -0.070937 444463.000000 0 0 1
-7.513409 -31.115874 -26.198089 41.364100 1.333866 2.256675 0.209014 -0.072845 640635.000000 0 0 1
-6.771209 -32.081774 -25.260289 41.390478 1.362788 2.227226 0.194879 -0.081390 532115.000000 0 0 1
-5.875609 -31.488684 -24.344489 40.233247 1.386323 2.220668 0.200399 -0.084507 158121.000000 0 0 1
-4.874109 -32.377764 -23.877889 40.524439 1.421379 2.200892 0.198127 -0.093954 312173.000000 0 0 1
-4.082109 -31.916834 -22.612789 39.327931 1.443589 2.183376 0.219812 -0.107095 236071.000000 0 0 1
-4.930309 -31.782984 -21.483389 38.678185 1.416899 2.159688 0.221163 -0.093039 108659.000000 0 0 1
-4.961709 -30.393784 -21.079689 37.319619 1.408976 2.171038 0.192943 -0.073041 -408823.000000 0 0 1
-5.893709 -30.033884 -19.919189 36.517723 1.377023 2.147742 0.215308 -0.080142 1394480.000000 0 0 1
-7.338509 -30.175564 -20.075389 36.978908 1.332234 2.144668 0.234689 -0.082470 1792080.000000 0 0 1
-8.084109 -29.016214 -20.403289 36.381145 1.299080 2.166173 0.222607 -0.073418 176195.000000 0 0 1
-8.119409 -28.674934 -21.917589 36.994018 1.294866 2.204909 0.242723 -0.083021 -90720.300000 0 0 1
-6.844409 -28.231484 -22.394489 36.679364 1.332947 2.227548 0.247204 -0.058454 254652.000000 0 0 1
-6.746009 -28.059704 -23.794289 37.403527 1.334858 2.260296 0.288522 -0.059010 310397.000000 0 0 1
-5.270409 -27.900364 -24.313589 37.381254 1.384095 2.278936 0.283560 -0.059355 878369.000000 0 0 1
-4.499309 -26.765934 -23.949589 36.197263 1.404255 2.293801 0.256716 -0.063075 92714.000000 0 0 1
-4.090609 -26.701944 -22.600089 35.220604 1.418783 2.267473 0.196102 -0.055813 141427.000000 0 0 1
-2.520409 -26.714604 -22.442389 34.981186 1.476729 2.267321 0.169640 -0.044471 654997.000000 0 0 1
-1.908409 -25.545234 -22.777589 34.278558 1.496228 2.297601 0.159408 -0.044649 -324351.000000 0 0 1
-1.907109 -24.491894 -21.827089 32.862011 1.493086 2.297225 0.163958 -0.051297 -669330.000000 0 0 1
-1.376209 -23.101094 -22.352289 32.174203 1.511293 2.338837 0.153558 -0.047117 48967.300000 0 0 1
-2.116909 -22.484094 -23.396789 32.518080 1.476922 2.373880 0.201099 -0.055736 -482671.000000 0 0 1
-3.427609 -22.170494 -23.022189 32.144992 1.417408 2.369136 0.211254 -0.062799 -333944.000000 0 0 1
-4.426109 -21.884194 -24.217889 32.939559 1.371237 2.396790 0.191873 -0.065792 495910.000000 0 0 1
-4.204909 -20.581394 -24.828989 32.523126 1.369264 2.439397 0.185731 -0.044365 285259.000000 0 0 1
-4.914209 -20.465394 -26.080889 33.514095 1.335135 2.462601 0.242524 -0.051634 457264.000000 0 0 1
-4.258609 -21.234894 -27.309489 34.854909 1.372874 2.471106 0.202202 -0.045809 311456.000000 0 0 1
-5.020309 -21.081394 -28.485589 35.791863 1.337011 2.491236 0.207858 -0.044955 107347.000000 0 0 1
-4.401309 -21.943494 -29.442089 36.982767 1.372848 2.491624 0.212774 -0.042908 515450.000000 0 0 1
-5.288309 -22.503194 -30.626989 38.371505 1.339982 2.495048 0.242684 -0.065248 10734.500000 0 0 1
-5.464809 -21.536594 -31.663989 38.682001 1.322296 2.529716 0.264634 -0.069301 -406575.000000 0 0 1
-6.201809 -22.119494 -32.671389 39.939380 1.297438 2.528764 0.260209 -0.067946 -324061.000000 0 0 1
-6.195009 -21.287194 33.308611 40.012328 1.287598 0.587266 0.222138 -0.052021 -433074.000000 0 0 1
-4.992209 -21.448794 32.638411 39.373072 1.342118 0.593564 0.224526 -0.067745 -780053.000000 0 0 1
-5.075209 -21.145694 31.291611 38.105945 1.335241 0.607331 0.223766 -0.067199 593875.000000 0 0 1
-3.668209 -21.200594 30.608711 37.414090 1.399469 0.612686 0.175780 -0.072063 -614351.000000 0 0 1
-3.160009 -22.521794 30.480511 38.029968 1.431397 0.641019 0.232079 -0.070230 589127.000000 0 0 1
-1.798409 -22.628294 30.061811 37.669437 1.491487 0.646757 0.212157 -0.059654 1097220.000000 0 0 1
-0.710409 -21.974794 30.993111 37.999595 1.538479 0.617002 0.152072 -0.062516 -658409.000000 0 0 1
-0.547709 -20.591694 30.754911 37.015975 1.544204 0.590154 0.129272 -0.060509 -207455.000000 0 0 1
0.203791 -19.938794 31.749811 37.491967 -1.560576 0.560775 0.131121 -0.059871 -89376.900000 0 0 1
-0.544109 -19.839994 33.106111 38.599689 1.543378 0.540059 0.125017 -0.056432 112720.000000 0 0 1
-1.746309 -19.154594 32.865011 38.079614 1.479878 0.529498 0.138625 -0.052063 -454273.000000 0 0 1
-2.527909 -18.827794 -33.323289 38.357760 1.437330 2.623468 0.152249 -0.060929 -312778.000000 0 0 1
-3.698009 -17.922994 33.650111 38.304556 1.367324 0.498107 0.185356 -0.063993 -441960.000000 0 0 1
-3.431609 -16.536694 33.391111 37.419307 1.366186 0.468271 0.144204 -0.044239 285989.000000 0 0 1
-4.531309 -15.720094 -33.501389 37.282666 1.290154 2.687315 0.186253 -0.054106 517262.000000 0 0 1
-4.156109 -14.186894 -33.509789 36.625772 1.285816 2.726115 0.164394 -0.056875 -82885.200000 0 0 1
-3.118109 -13.773394 -32.613889 35.540044 1.348163 2.732962 0.145681 -0.053391 361297.000000 0 0 1
-2.648809 -12.440894 -32.767389 35.149592 1.361017 2.771314 0.144883 -0.049292 -16064.400000 0 0 1
-1.849309 -12.160994 33.250511 35.452873 1.419884 0.354330 0.143404 -0.054667 -662767.000000 0 0 1
-2.700109 -11.964694 32.138111 34.399167 1.348841 0.364590 0.136324 -0.040298 270443.000000 0 0 1
-1.983909 -11.592194 30.952111 33.111147 1.401297 0.363117 0.128971 -0.032314 749772.000000 0 0 1
-0.890009 -12.569094 30.398411 32.906499 1.500105 0.392955 0.108572 -0.043230 497567.000000 0 0 1
-1.575709 -13.766194 30.075811 33.114127 1.456830 0.431721 0.130421 -0.059155 92139.300000 0 0 1
-0.683809 -14.821494 30.211211 33.658009 1.524693 0.456517 0.113345 -0.059891 -221956.000000 0 0 1
-1.359809 -16.194694 30.306411 34.388890 1.487026 0.492222 0.106536 -0.058597 -266615.000000 0 0 1
-1.831109 -16.680594 29.140311 33.626670 1.461459 0.522482 0.129282 -0.058202 120716.000000 0 0 1
-2.256409 -18.071394 29.371911 34.559743 1.446578 0.555024 0.156104 -0.056558 -257535.000000 0 0 1
-2.581409 -18.906694 28.097711 33.964807 1.435101 0.596584 0.166804 -0.058013 364748.000000 0 0 1
-4.005309 -19.011794 28.026511 34.102436 1.363158 0.606175 0.182310 -0.061194 568929.000000 0 0 1
-4.564209 -19.971194 27.141211 34.004793 1.346115 0.646564 0.194561 -0.068920 271298.000000 0 0 1
-4.354409 -19.706794 25.627111 32.620047 1.353331 0.667091 0.177108 -0.069958 -310403.000000 0 0 1
-5.196809 -20.435794 24.719711 32.491424 1.321775 0.706240 0.206098 -0.065924 -139825.000000 0 0 1
-4.750909 -21.710894 24.357711 32.973204 1.355366 0.739638 0.224742 -0.075201 -278448.000000 0 0 1
-31.688989 -32.898823 -0.512889 45.681371 0.804128 1.582024 0.091633 -0.021300 -583540.000000 0 0 1
-30.926989 -31.850123 -0.112889 44.395065 0.800102 1.573339 0.088310 -0.024193 -354663.000000 0 0 1
-31.203889 -31.500823 1.250511 44.357055 0.790134 1.542601 0.054084 -0.009185 -31720.100000 0 0 1
-30.760599 -30.087923 1.650711 43.060683 0.774344 1.532452 0.063552 -0.015423 497036.000000 0 0 1
-29.351749 -29.898023 1.602411 41.928328 0.794618 1.532569 0.101576 -0.024402 86691.300000 0 0 1
-29.025609 -28.540123 1.674211 40.740982 0.776965 1.529691 0.109890 -0.028975 -371877.000000 0 0 1
-27.539469 -28.220523 1.563511 39.462195 0.797612 1.531165 0.153771 -0.035833 -205091.000000 0 0 1
-26.723699 -28.645723 2.647711 39.265047 0.820097 1.503313 0.126649 -0.019275 -256404.000000 0 0 1
-25.386359 -28.293523 2.470511 38.093229 0.839503 1.505896 0.150474 -0.023427 -555202.000000 0 0 1
-24.341209 -29.000823 3.319811 38.007412 0.872531 1.483338 0.134230 -0.033346 -541248.000000 0 0 1
-24.413909 -28.791023 4.747711 38.046061 0.867482 1.445682 0.106106 -0.014459 -11961.300000 0 0 1
-23.755109 -29.733423 5.620111 38.470343 0.896704 1.424182 0.091991 -0.020479 -47913.500000 0 0 1
-24.195709 -29.852523 7.055411 39.068969 0.889681 1.389211 0.077824 -0.007097 -96705.100000 0 0 1
-23.755609 -28.783023 7.844711 38.135690 0.880798 1.363612 0.091557 -0.031747 -66903.200000 0 0 1
-24.269009 -28.807323 9.141411 38.760961 0.870696 1.332713 0.046914 -0.028959 -114658.000000 0 0 1
-23.846409 -27.535123 9.984711 37.769415 0.857066 1.303256 0.070128 -0.025718 179942.000000 0 0 1
-22.519509 -27.572223 10.456511 37.103833 0.885927 1.285108 0.071122 -0.039551 -348120.000000 0 0 1
-22.336009 -26.416823 11.212611 36.365760 0.868908 1.257361 0.092128 -0.035366 475287.000000 0 0 1
-20.937509 -26.370923 11.889211 35.709358 0.899748 1.231372 0.082387 -0.036837 249282.000000 0 0 1
-20.704109 -27.322123 12.924511 36.636069 0.922336 1.210255 0.063678 -0.024048 -619588.000000 0 0 1
-19.400509 -27.240623 13.416111 36.033642 0.951936 1.189287 0.080793 -0.031757 -272333.000000 0 0 1
-19.035409 -28.382823 14.435011 37.098531 0.980030 1.171143 0.083865 -0.032090 -59039.100000 0 0 1
-19.139609 -29.714423 13.973111 38.006834 0.998567 1.194318 0.076906 -0.024989 190103.000000 0 0 1
-18.717909 -30.579323 15.020711 38.872573 1.021520 1.174061 0.083575 -0.020556 114597.000000 0 0 1
-19.055609 -32.003523 14.567011 39.994244 1.033750 1.197993 0.065085 -0.024357 27217.000000 0 0 1
-18.573709 -32.893023 15.515511 40.837051 1.056760 1.181068 0.080259 -0.017063 152515.000000 0 0 1
-18.471209 33.303006 14.967311 40.918164 -1.064397 1.196319 0.061852 -0.013998 -34012.900000 0 0 1
-18.104509 32.111606 15.851311 40.127204 -1.057420 1.164700 0.071411 -0.015700 10664.700000 0 0 1
-19.234209 31.729106 16.614311 40.653736 -1.025830 1.149791 0.081598 -0.029513 208068.000000 0 0 1
-19.079009 30.529306 17.392811 39.981958 -1.012240 1.120740 0.050627 -0.017020 2589.140000 0 0 1
-19.717609 30.533806 18.830511 40.935138 -0.997405 1.092792 0.058012 -0.025839 32298.500000 0 0 1
-19.178809 31.433806 19.749711 41.784709 -1.022959 1.078496 0.062126 -0.027658 -323216.000000 0 0 1
-20.071109 31.656606 20.802911 42.869001 -1.005733 1.064128 0.074742 -0.018395 -189422.000000 0 0 1
-19.663109 32.717006 21.815511 43.965405 -1.029638 1.051583 0.073858 -0.018832 -554035.000000 0 0 1
-18.534609 32.508906 22.604211 43.718543 -1.052623 1.027408 0.064175 -0.028306 -525576.000000 0 0 1
-18.523609 33.242506 23.811211 44.890556 -1.062422 1.011691 0.063919 -0.030488 -343199.000000 0 0 1
-19.351409 32.780706 25.041211 45.564393 -1.037518 0.988937 0.070276 -0.031156 -915903.000000 0 0 1
-20.698209 32.888906 24.752211 46.073506 -1.009084 1.003643 0.068788 -0.035072 -792132.000000 0 0 1
-21.486109 31.837606 25.354611 46.023280 -0.977139 0.987344 0.066171 -0.027401 -97333.600000 0 0 1
-22.953309 31.967706 24.938111 46.590750 -0.948081 1.005982 0.106575 -0.038637 -454420.000000 0 0 1
-23.146409 31.604606 23.587411 45.727162 -0.938671 1.028821 0.099696 -0.016497 1093230.000000 0 0 1
-24.488709 31.987206 23.202311 46.488982 -0.917399 1.048245 0.099103 -0.022405 970420.000000 0 0 1
-24.838309 31.661606 21.737411 45.737445 -0.905583 1.075531 0.099428 -0.025884 -164310.000000 0 0 1
-24.307409 32.575506 20.825711 45.669727 -0.929740 1.097293 0.100136 -0.020823 -16039.400000 0 0 1
-24.217309 31.967806 19.542511 44.613097 -0.922479 1.117374 0.068030 -0.006054 -147133.000000 0 0 1
-23.627309 32.874406 18.524611 44.521203 -0.947620 1.141660 0.064817 -0.004267 1338170.000000 0 0 1
-22.259109 33.347106 18.743411 44.258478 -0.982219 1.133492 0.053312 -0.006882 1494780.000000 0 0 1
-21.809309 -33.206723 17.697311 43.491692 0.989674 1.151725 0.070499 -0.003662 -268826.000000 0 0 1
-20.499409 -32.592623 18.135411 42.560522 1.009355 1.130609 0.072507 -0.012950 -618614.000000 0 0 1
-20.779009 -31.667823 19.180711 42.456071 0.990106 1.102039 0.074507 -0.023297 331954.000000 0 0 1
-19.612109 -31.046123 19.651911 41.649660 1.007387 1.079422 0.061801 -0.028224 -507728.000000 0 0 1
-20.009809 -29.914723 20.711011 41.523838 0.981253 1.048613 0.062905 -0.023710 75667.800000 0 0 1
-20.679609 -28.803423 20.111511 40.764645 0.948120 1.054852 0.069997 -0.025112 343466.000000 0 0 1
-21.045109 -27.932823 21.150711 40.871651 0.925111 1.026880 0.079205 -0.018757 -371090.000000 0 0 1
-21.879809 -26.701123 20.764111 40.284294 0.884317 1.029276 0.067127 -0.026468 -652692.000000 0 0 1
-21.165809 -25.714723 20.057811 38.878712 0.882127 1.028730 0.069460 -0.014799 4794.810000 0 0 1
-21.807309 -24.456223 19.874511 38.323123 0.842593 1.025579 0.064166 -0.000202 -1059350.000000 0 0 1
-22.854809 -24.507123 18.780111 38.413981 0.820271 1.059982 0.069620 -0.008421 -648954.000000 0 0 1
-24.083809 -24.965523 19.337611 39.714612 0.803372 1.062243 0.063226 -0.002967 134811.000000 0 0 1
-25.084279 -24.808623 18.335911 39.760464 0.779873 1.091495 0.053298 0.000684 832431.000000 0 0 1
-26.571619 -24.980823 18.845011 41.051515 0.754550 1.093862 0.061423 -0.009497 1374580.000000 0 0 1
-27.175799 -26.302123 18.986211 42.317868 0.769062 1.105534 0.043980 -0.009649 238388.000000 0 0 1
-27.076689 -27.163523 17.838011 42.298921 0.786999 1.135462 0.051238 -0.014066 -525797.000000 0 0 1
-28.107999 -28.307323 17.858311 43.706789 0.788931 1.149884 0.075437 -0.021964 -1243620.000000 0 0 1
-29.386109 -27.842723 17.788911 44.217711 0.758436 1.156765 0.061614 -0.029393 -984869.000000 0 0 1
-30.293679 -28.868223 17.247811 45.261112 0.761309 1.179839 0.061933 -0.015850 1356730.000000 0 0 1
-31.781029 -28.513623 17.590811 46.178969 0.731260 1.179998 0.063773 -0.021418 568145.000000 0 0 1
-32.272239 -27.284923 17.070411 45.578102 0.701853 1.186905 0.073211 -0.021901 -815421.000000 0 0 1
-33.609649 -27.189623 17.435111 46.614024 0.680194 1.187444 0.092308 -0.014251 -815774.000000 0 0 1
-34.255447 -25.926823 16.860311 46.150904 0.647882 1.196809 0.116738 -0.036549 -268832.000000 0 0 1
-34.169579 -25.984223 15.450911 45.623137 0.650155 1.225300 0.123263 -0.050365 -70899.200000 0 0 1
-34.957899 -25.032323 14.791611 45.469370 0.621430 1.239457 0.116737 -0.039594 -380125.000000 0 0 1
-34.371311 -23.643823 14.539011 44.179183 0.602555 1.235455 0.120101 -0.040287 -27322.600000 0 0 1
-34.027030 -22.969823 15.782311 43.983325 0.593782 1.203788 0.101976 -0.028909 315175.000000 0 0 1
-33.390739 -21.725223 15.513511 42.750390 0.576822 1.199433 0.102361 -0.015577 -30743.600000 0 0 1
-34.271880 -20.450623 15.685611 42.881560 0.538002 1.196316 0.114232 -0.023088 -141882.000000 0 0 1
-34.619060 -20.327123 17.050011 43.616214 0.530929 1.169176 0.110241 -0.017216 222828.000000 0 0 1
-35.479412 -19.227723 17.184311 43.861083 0.496634 1.168221 0.112991 -0.016478 -49777.800000 0 0 1
-36.033059 -18.975823 18.650211 44.791669 0.484718 1.141340 0.085264 -0.007401 399239.000000 0 0 1
-37.139919 -19.746823 19.127311 46.207842 0.488675 1.144017 0.093809 -0.002179 571640.000000 0 0 1
-37.304939 -19.550223 20.488111 46.836230 0.482714 1.118045 0.096886 -0.002589 -953359.000000 0 0 1
37.591563 -19.849723 21.090811 47.454814 -0.485825 1.110247 0.109277 -0.002391 -427482.000000 0 0 1
37.109633 -21.218723 21.140211 47.689282 -0.519415 1.111530 0.119589 -0.011934 -53662.900000 0 0 1
37.825693 -22.090323 21.946811 48.994162 -0.528574 1.106328 0.098596 -0.001006 -364029.000000 0 0 1
36.894423 -23.225523 22.412411 49.019787 -0.561838 1.095939 0.103631 0.004625 -83292.300000 0 0 1
35.900713 -22.862723 23.317111 48.530948 -0.567063 1.069619 0.114750 -0.008424 -172902.000000 0 0 1
35.781053 -23.951023 24.213711 49.398776 -0.589877 1.058514 0.108390 -0.020968 114858.000000 0 0 1
34.636383 -23.798123 25.285111 49.044536 -0.602005 1.029142 0.118368 -0.023288 1166950.000000 0 0 1
33.328533 -24.058523 24.752911 47.982395 -0.625247 1.028768 0.112309 -0.018857 76666.300000 0 0 1
32.383793 -23.912123 25.752811 47.788147 -0.636034 1.001671 0.068430 -0.015784 -251779.000000 0 0 1
31.058163 -24.642723 25.391211 47.080642 -0.670727 1.001175 0.071851 -0.022529 163602.000000 0 0 1
30.259263 -23.977323 24.424211 45.684539 -0.670087 1.006729 0.081043 -0.016305 56706.000000 0 0 1
28.948663 -24.513523 24.448611 45.129508 -0.702629 0.998287 0.080406 -0.014357 1063590.000000 0 0 1
27.752763 -23.479223 24.296011 43.723974 -0.702175 0.981630 0.082697 -0.011060 396623.000000 0 0 1
27.721863 -22.697023 23.145811 42.654251 -0.686064 0.997222 0.078023 -0.008691 279000.000000 0 0 1
28.845463 -21.905423 22.726611 42.759878 -0.649494 1.010433 0.081906 -0.003825 217921.000000 0 0 1
28.522463 -21.068723 21.463911 41.450229 -0.636211 1.026491 0.080642 -0.006344 329424.000000 0 0 1
27.832063 -19.847523 21.802211 40.544843 -0.619475 1.003053 0.070961 -0.013107 255313.000000 0 0 1
27.563763 -19.225523 20.524611 39.378185 -0.609041 1.022519 0.042249 -0.008367 -42327.100000 0 0 1
26.688063 -17.955423 20.411911 38.095879 -0.592229 1.005337 0.041325 -0.003651 -27545.400000 0 0 1
27.218163 -16.764823 20.977411 38.235317 -0.552060 0.990060 0.062134 -0.022255 -113553.000000 0 0 1
27.255663 -16.761623 22.375711 39.044790 -0.551360 0.960539 0.069221 -0.013928 -468704.000000 0 0 1
27.126263 -15.342723 22.958711 38.708341 -0.514744 0.935867 0.082575 -0.007628 -409933.000000 0 0 1
25.876563 -14.781623 22.692811 37.457397 -0.519001 0.919988 0.036566 -0.017304 -696799.000000 0 0 1
25.814263 -13.573023 23.413411 37.400414 -0.484070 0.894357 0.039898 -0.025989 654381.000000 0 0 1
24.403063 -12.964323 23.106711 36.020872 -0.488340 0.874369 0.017742 -0.026907 246194.000000 0 0 1
23.363863 -13.659323 23.696511 35.971820 -0.529045 0.851637 0.038571 -0.022192 -392014.000000 0 0 1
22.144063 -12.940123 23.617811 34.865560 -0.528841 0.826579 0.057157 -0.021562 32019.700000 0 0 1
20.841463 -13.674423 23.880211 34.519862 -0.580663 0.806843 0.070412 -0.022294 -430239.000000 0 0 1
20.345763 -14.534623 22.895211 33.902744 -0.620312 0.829397 0.092091 -0.031331 -34993.500000 0 0 1
19.060763 -15.013423 23.237511 33.596093 -0.667172 0.806993 0.121134 -0.033478 -49000.300000 0 0 1
18.809363 -16.331023 22.519111 33.579827 -0.714988 0.835760 0.132959 -0.039905 48103.400000 0 0 1
19.633963 -17.432323 22.888211 34.831718 -0.726071 0.853820 0.110962 -0.029959 310042.000000 0 0 1
19.201363 -18.544023 22.135911 34.678115 -0.767985 0.878476 0.133337 -0.035781 22165.900000 0 0 1
19.676163 -19.913223 22.641411 36.004463 -0.791386 0.890723 0.105788 -0.026529 -141830.000000 0 0 1
19.155563 -20.299123 23.935311 36.768045 -0.814374 0.861920 0.128637 -0.026175 313641.000000 0 0 1
19.390663 -21.652223 24.305011 37.888654 -0.840445 0.874364 0.119867 -0.023795 -325914.000000 0 0 1
18.822563 -22.810723 23.389711 37.705392 -0.880899 0.901635 0.112688 -0.029017 -45466.500000 0 0 1
19.438063 -23.130523 22.120711 37.445764 -0.871923 0.938821 0.103146 -0.021018 192729.000000 0 0 1
20.659463 -23.825823 22.322411 38.636424 -0.856456 0.954820 0.095577 -0.019031 -382713.000000 0 0 1
21.561963 -23.867823 21.101811 38.469178 -0.836111 0.990181 0.073825 -0.006475 -113606.000000 0 0 1
20.978563 -24.643023 20.040911 38.065953 -0.865549 1.016343 0.075417 -0.024086 716469.000000 0 0 1
22.027963 -25.180323 19.252911 38.599928 -0.852075 1.048605 0.069640 -0.020060 351365.000000 0 0 1
21.503463 -25.668023 17.902111 37.970145 -0.873455 1.079830 0.075159 -0.025541 -75117.900000 0 0 1
20.799963 -26.845323 18.058311 38.463131 -0.911606 1.082076 0.093580 -0.029709 5678.380000 0 0 1
19.924363 -27.171523 16.976611 37.728997 -0.938082 1.104074 0.096752 -0.032963 -44550.800000 0 0 1
18.930263 -28.256923 17.380111 38.195246 -0.980535 1.098387 0.104089 -0.032240 -703070.000000 0 0 1
17.943063 -27.838123 18.261711 37.820691 -0.998262 1.066890 0.104639 -0.038137 -222506.000000 0 0 1
17.216463 -28.977723 18.755011 38.572859 -1.034706 1.063034 0.118356 -0.032713 714136.000000 0 0 1
15.841363 -28.610023 19.407711 38.028167 -1.065117 1.035203 0.106504 -0.026094 918824.000000 0 0 1
14.945063 -27.976623 18.466311 36.702193 -1.080166 1.043569 0.098599 -0.032789 299402.000000 0 0 1
13.652463 -27.800623 19.032811 36.352611 -1.114306 1.019771 0.075872 -0.029846 456225.000000 0 0 1
12.638863 -27.581423 17.862411 35.207123 -1.141113 1.038687 0.096652 -0.034452 -64180.500000 0 0 1
12.427963 -28.706923 17.106811 35.653677 -1.162232 1.070364 0.088067 -0.033644 226157.000000 0 0 1
11.807363 -28.328823 15.841311 34.538141 -1.175894 1.094308 0.131800 -0.036925 212882.000000 0 0 1
11.390963 -29.513023 14.933911 34.982771 -1.202448 1.129742 0.125335 -0.035121 248149.000000 0 0 1
10.248563 -30.173423 15.465111 35.420872 -1.243367 1.118969 0.158566 -0.042369 145804.000000 0 0 1
9.878963 -31.218023 14.583311 35.844551 -1.264316 1.151795 0.134583 -0.032796 280818.000000 0 0 1
8.846763 -32.304623 14.963111 36.684446 -1.303495 1.150658 0.143708 -0.041721 516088.000000 0 0 1
9.404163 -33.363123 15.740511 38.069673 -1.296052 1.144539 0.152147 -0.045689 438680.000000 0 0 1
8.370963 33.117306 15.991711 37.716890 1.323215 1.132946 0.151703 -0.032968 492428.000000 0 0 1
8.825763 31.880106 16.808611 37.104779 1.300718 1.100664 0.156918 -0.040739 -368212.000000 0 0 1
9.809263 31.114306 16.173411 36.412922 1.265394 1.110552 0.132958 -0.038357 -322235.000000 0 0 1
10.362163 30.158706 17.108411 36.188668 1.239845 1.078381 0.154894 -0.037056 -820206.000000 0 0 1
11.707663 29.592706 16.715311 35.947173 1.194066 1.087166 0.081150 -0.048167 -808111.000000 0 0 1
11.694663 28.762306 15.564511 34.731677 1.184616 1.106117 0.142112 -0.035575 -173031.000000 0 0 1
12.982163 28.346106 15.159011 34.667476 1.141320 1.118237 0.104304 -0.046604 47572.600000 0 0 1
12.951163 27.342506 13.973011 33.325520 1.128439 1.138135 0.092120 -0.038744 -206788.000000 0 0 1
12.255063 26.139906 14.177111 32.163204 1.132398 1.114321 0.122276 -0.036356 85340.900000 0 0 1
12.823263 25.033706 13.508811 31.202732 1.097405 1.123048 0.114513 -0.035245 -147778.000000 0 0 1
-9.304409 -9.354694 19.034711 23.160366 0.788093 0.606118 0.069165 -0.042029 -16053.000000 0 1 0
-9.668309 -9.376694 17.688211 22.232215 0.770087 0.650780 0.073152 -0.045374 53159.700000 0 1 0
-9.505909 -10.649294 17.096411 22.272338 0.842066 0.695697 0.084703 -0.057630 -95812.400000 0 1 0
-9.810209 -10.717394 15.605811 21.322384 0.829563 0.749693 0.081004 -0.054630 210204.000000 0 1 0
-11.187409 -10.419294 15.341611 21.658367 0.749863 0.783645 0.092862 -0.063396 842852.000000 0 1 0
-11.745609 -11.182294 14.269811 21.601633 0.760834 0.849193 0.103221 -0.056353 575.622000 0 1 0
-11.765309 -12.710894 14.370211 22.505384 0.824012 0.878218 0.085252 -0.042450 -716884.000000 0 1 0
-10.516509 -13.300594 14.041911 22.015404 0.901764 0.879129 0.093936 -0.037761 326247.000000 0 1 0
-10.484109 -14.734594 14.226611 23.009156 0.952374 0.904216 0.106610 -0.037981 22235.500000 0 1 0
-10.408409 -15.222994 15.723411 24.234277 0.971074 0.864778 0.127317 -0.039967 -460276.000000 0 1 0
-11.491909 -14.840894 16.489111 24.984133 0.911898 0.850000 0.133808 -0.045264 -585764.000000 0 1 0
-11.097709 -14.745794 17.855011 25.678766 0.925632 0.801928 0.154473 -0.043929 402534.000000 0 0 1
-12.250609 -14.103494 18.719511 26.446286 0.855590 0.784373 0.115498 -0.051050 290163.000000 0 0 1
-12.694909 -12.841694 18.200211 25.638204 0.791146 0.781460 0.119152 -0.047507 494975.000000 0 0 1
-13.796909 -12.879394 17.301611 25.604282 0.751017 0.828840 0.132549 -0.061019 -245833.000000 0 0 1
-15.227709 -13.166694 17.756511 26.842851 0.712940 0.847981 0.092161 -0.052240 -606665.000000 0 0 1
-15.583809 -14.427794 18.242211 27.996332 0.746898 0.861114 0.104469 -0.038648 -536987.000000 0 0 1
-16.634109 -14.310994 19.142111 29.119041 0.710467 0.853467 0.102390 -0.033939 -551227.000000 0 0 1
-17.165909 -15.705294 19.637611 30.446025 0.740993 0.869776 0.098424 -0.026951 46381.200000 0 0 1
-18.228309 -16.144994 18.810211 30.769402 0.724864 0.913058 0.089030 -0.022820 16285.900000 0 0 1
-18.430109 -17.508994 19.033611 31.757080 0.759774 0.928107 0.085140 -0.025240 -199231.000000 0 0 1
-19.737809 -18.053894 18.413911 32.474549 0.740870 0.967906 0.091415 -0.022491 -90243.400000 0 0 1
-19.718809 -18.324794 16.988511 31.831416 0.748772 1.007823 0.102610 -0.027105 75179.200000 0 0 1
-20.004409 -17.156594 16.241111 30.956401 0.708913 1.018499 0.095905 -0.031313 -294868.000000 0 0 1
-19.718909 -17.339494 14.703711 30.094726 0.721279 1.060334 0.112450 -0.047093 -8782.260000 0 0 1
-20.503109 -18.331394 14.082211 30.898643 0.729534 1.097576 0.119845 -0.044998 133054.000000 0 0 1
-20.131409 -18.299994 12.731911 30.037726 0.737780 1.133089 0.143554 -0.046550 69816.300000 0 0 1
-20.305409 -19.682394 12.052811 30.740471 0.769819 1.167902 0.162922 -0.044961 178258.000000 0 0 1
-19.283009 -20.596294 12.434711 30.832837 0.818318 1.155682 0.155439 -0.044000 336969.000000 0 0 1
-19.399209 -21.776994 11.628211 31.397167 0.843081 1.191401 0.130923 -0.035045 -17809.200000 0 0 1
-18.469709 -22.922294 12.099811 31.827145 0.892557 1.180813 0.120326 -0.032721 -5508.920000 0 0 1
-18.552909 -24.185094 11.407311 32.546213 0.916427 1.212696 0.133790 -0.053867 129021.000000 0 0 1
-17.908909 -24.237694 10.120211 31.790148 0.934446 1.246814 0.130174 -0.042879 -176084.000000 0 0 1
-18.406209 -25.441664 9.262811 32.739372 0.944494 1.283953 0.148065 -0.050297 -450535.000000 0 0 1
-19.764809 -25.286384 9.020911 33.338052 0.907352 1.296792 0.122631 -0.047539 -972604.000000 0 0 1
-20.269709 -26.203904 8.068411 34.096993 0.912400 1.331899 0.147598 -0.051693 200497.000000 0 0 1
-21.548309 -25.733344 7.347411 34.358683 0.873681 1.355288 0.149457 -0.052491 63234.300000 0 0 1
-21.340009 -24.640194 6.446811 33.227948 0.857049 1.375540 0.175578 -0.058176 -505901.000000 0 0 1
-22.249509 -24.681094 5.408111 33.666671 0.837164 1.409460 0.181339 -0.052077 -349656.000000 0 0 1
-22.434309 -23.251294 4.776611 32.660939 0.803279 1.424021 0.191813 -0.049531 18075.600000 0 0 1
-23.052809 -23.250494 3.492311 32.927401 0.789667 1.464536 0.196111 -0.057675 207974.000000 0 0 1
-23.042109 -21.944894 2.909911 31.952852 0.761013 1.479601 0.181012 -0.036837 74190.300000 0 0 1
-23.480009 -22.059394 1.442111 32.249146 0.754213 1.526064 0.160624 -0.038680 -229514.000000 0 0 1
-22.567509 -22.768994 0.668911 32.065043 0.789842 1.549934 0.167059 -0.050002 -200850.000000 0 0 1
-22.879109 -22.732894 -0.711589 32.260572 0.782193 1.592856 0.161304 -0.047261 -367608.000000 0 0 1
-22.033009 -23.585094 -1.648489 32.317606 0.819408 1.621827 0.177909 -0.047710 604990.000000 0 0 1
-20.623209 -23.257694 -1.728289 31.132364 0.845363 1.626339 0.173428 -0.050169 1322640.000000 0 0 1
-19.927109 -23.767694 -2.868189 31.148346 0.873069 1.663009 0.155864 -0.042430 33666.300000 0 0 1
-19.675909 -25.255044 -2.954689 32.151032 0.908937 1.662826 0.165277 -0.036061 -670190.000000 0 0 1
-20.813609 -26.062864 -3.142689 33.501578 0.896914 1.664742 0.225631 -0.051802 -124940.000000 0 0 1
-20.414009 -27.415294 -3.365989 34.346179 0.930747 1.668956 0.212311 -0.041423 828920.000000 0 0 1
-21.645609 -28.242694 -3.903289 35.796897 0.916872 1.680053 0.211265 -0.050309 753122.000000 0 0 1
-22.210309 -27.895544 -5.170989 36.030520 0.898379 1.714811 0.189059 -0.040999 2664.890000 0 0 1
-22.746609 -29.031824 -5.782489 37.332188 0.906194 1.726315 0.193923 -0.066934 -334180.000000 0 0 1
-23.410509 -28.609454 -7.099789 37.642527 0.885009 1.760544 0.180830 -0.021288 -96425.800000 0 0 1
-22.506809 -28.078464 -8.058389 36.876744 0.895100 1.791096 0.208595 -0.021141 332932.000000 0 0 1
-23.079309 -27.933014 -9.360189 37.423535 0.880260 1.823595 0.200567 -0.014917 -102892.000000 0 0 1
-23.913509 -26.717514 -9.714089 37.148957 0.840723 1.835362 0.172481 -0.004566 -424420.000000 0 0 1
-23.213909 -25.548904 -10.131489 35.976092 0.833246 1.856276 0.172060 -0.005531 241046.000000 0 0 1
-22.765209 -24.666894 -9.121089 34.783684 0.825469 1.836122 0.165850 -0.007291 40493.700000 0 0 1
-22.536609 -23.213094 -9.648889 33.761629 0.800184 1.860632 0.148393 -0.016893 -67694.300000 0 0 1
-23.733709 -22.618294 -10.078689 34.299507 0.761339 1.869042 0.155373 -0.012917 -178507.000000 0 0 1
-23.606809 -21.202394 -10.210089 33.332700 0.731791 1.882109 0.155533 -0.014886 349111.000000 0 0 1
-24.926769 -20.425494 -10.484189 33.888978 0.686471 1.885325 0.177539 -0.013427 -172439.000000 0 0 1
-25.588969 -20.707594 -11.748989 34.951946 0.680349 1.913619 0.151101 -0.003645 1126140.000000 0 0 1
-26.881039 -20.075294 -11.814589 35.569541 0.641463 1.909383 0.136800 -0.002238 702999.000000 0 0 1
-26.845999 -18.551594 -11.874289 34.725611 0.604686 1.919783 0.135833 -0.019325 -1480610.000000 0 0 1
-26.207399 -18.064094 -13.038089 34.396672 0.603491 1.959567 0.148568 -0.014708 389409.000000 0 0 1
-25.973819 -16.672094 -13.066989 33.516328 0.570646 1.971286 0.156437 -0.029881 352715.000000 0 0 1
-24.988189 -16.098094 -11.957089 32.039510 0.572307 1.953250 0.158047 -0.023151 -408698.000000 0 0 1
-25.560079 -16.131094 -10.707289 32.065182 0.562977 1.911258 0.174922 -0.024404 -81030.400000 0 0 1
-24.657609 -16.144294 -9.637889 31.008464 0.579699 1.886846 0.187303 -0.026738 -288732.000000 0 0 1
-25.369319 -16.576194 -8.354089 31.435066 0.578758 1.839785 0.169659 -0.037315 264072.000000 0 0 1
-25.910449 -17.899394 -8.449389 32.605703 0.604537 1.832926 0.161641 -0.026974 575570.000000 0 0 1
-26.884189 -18.125994 -7.416989 33.261434 0.593217 1.795678 0.155718 -0.028792 576548.000000 0 0 1
-27.447289 -19.543294 -7.194889 34.453744 0.618754 1.781172 0.151255 -0.025461 472121.000000 0 0 1
-28.235189 -20.031194 -8.310089 35.602419 0.617034 1.806383 0.137019 -0.025625 299385.000000 0 0 1
-28.557439 -21.419794 -8.204289 36.628476 0.643540 1.796699 0.130874 -0.014096 122343.000000 0 0 1
-27.432929 -22.470094 -8.430589 36.449219 0.686275 1.804207 0.114624 -0.000353 297616.000000 0 0 1
-27.912319 -23.826894 -8.263689 37.617908 0.706600 1.792277 0.135048 -0.007786 -883464.000000 0 0 1
-26.906589 -24.733094 -8.384589 37.496558 0.743333 1.796313 0.123052 0.003911 -861549.000000 0 0 1
-27.384429 -26.158894 -8.175689 38.743214 0.762514 1.783417 0.134382 -0.028064 -49886.600000 0 0 1
-27.233749 -26.564984 -6.788789 38.645351 0.772968 1.747382 0.173300 -0.055397 5182.020000 0 0 1
-27.550689 -27.905654 -6.606489 39.766968 0.791799 1.737700 0.164649 -0.053995 -70667.300000 0 0 1
-27.792739 -28.387284 -5.133689 40.057821 0.795981 1.699307 0.194233 -0.067566 -388157.000000 0 0 1
-28.873159 -27.670124 -4.595089 40.254316 0.764125 1.685197 0.169208 -0.060177 -124972.000000 0 0 1
-29.072989 -28.018244 -3.186989 40.502069 0.766926 1.649565 0.169763 -0.060292 140043.000000 0 0 1
-29.646289 -29.432704 -2.765989 41.866899 0.781783 1.636911 0.138174 -0.037835 -291414.000000 0 0 1
-28.818249 -30.502684 -3.244689 42.088398 0.813786 1.647965 0.207001 -0.073002 463827.000000 0 0 1
-28.285819 -31.461434 -2.278089 42.368610 0.838499 1.624591 0.190909 -0.072225 119047.000000 0 0 1
-27.391029 -30.977594 -1.125189 41.365999 0.846768 1.598001 0.198868 -0.072821 -689343.000000 0 0 1
-26.189519 -30.489934 -1.662989 40.228007 0.861126 1.612147 0.208141 -0.080808 -577189.000000 0 0 1
-25.252369 -30.379694 -0.623789 39.509456 0.877303 1.586585 0.268710 -0.061479 -2948.800000 0 0 1
-24.067209 -29.429214 -0.946089 38.028993 0.885296 1.595677 0.272037 -0.053386 113793.000000 0 0 1
-24.286809 -28.072444 -0.891389 37.130928 0.857574 1.594805 0.227668 -0.071026 -254256.000000 0 0 1
-24.841409 -27.509314 -2.064289 37.123029 0.836316 1.626432 0.264112 -0.088102 -91813.800000 0 0 1
-25.470969 -26.101964 -1.883189 36.518888 0.797633 1.622387 0.167652 -0.060042 145846.000000 0 0 1
-26.709769 -26.270034 -1.218789 37.483489 0.777098 1.603317 0.182780 -0.063657 -30132.300000 0 0 1
-27.456639 -25.079614 -1.035389 37.201157 0.740184 1.598632 0.176487 -0.076775 35211.600000 0 0 1
-27.134349 -24.309894 0.268311 36.432346 0.730550 1.563432 0.182832 -0.057979 -152013.000000 0 0 1
-27.341819 -25.014444 1.516411 37.089041 0.740975 1.529899 0.148086 -0.059878 -226539.000000 0 0 1
-26.755869 -24.481894 2.682711 36.365322 0.741046 1.496958 0.166575 -0.047675 -108196.000000 0 0 1
-27.375449 -23.231094 3.317111 36.056930 0.703687 1.478670 0.168056 -0.050303 -80898.900000 0 0 1
-27.226169 -22.051894 2.517811 35.126766 0.680780 1.499057 0.158359 -0.045628 52769.300000 0 0 1
-28.007659 -20.966894 2.972811 35.112352 0.642613 1.486029 0.139685 -0.039297 -705.316000 0 0 1
-27.884289 -19.702394 2.105511 34.207471 0.615126 1.509206 0.147105 -0.028379 -869712.000000 0 0 1
-26.684319 -19.047994 2.163211 32.856635 0.619946 1.504911 0.153215 -0.026866 -1176730.000000 0 0 1
-26.421849 -18.198494 1.088811 32.101165 0.603147 1.536872 0.123281 -0.029861 328779.000000 0 0 1
-25.065119 -17.498494 1.411011 30.601445 0.609464 1.524671 0.144844 -0.031346 -315684.000000 0 0 1
-24.004109 -18.300594 1.076411 30.203769 0.651386 1.535150 0.155783 -0.039028 -924738.000000 0 0 1
-22.759609 -17.868894 1.548411 28.977487 0.665598 1.517336 0.145638 -0.029325 -137819.000000 0 0 1
-21.608909 -18.848694 1.281011 28.702948 0.717279 1.526152 0.125625 -0.036357 -285223.000000 0 0 1
-21.283209 -19.024994 -0.076689 28.547001 0.729433 1.573483 0.072860 -0.034970 379803.000000 0 0 1
-20.167709 -19.921194 -0.104989 28.347866 0.779249 1.574500 0.124207 -0.033892 499467.000000 0 0 1
-19.592409 -20.200894 -1.533589 28.183160 0.800688 1.625238 0.127627 -0.036709 306645.000000 0 0 1
-18.714709 -19.356194 -2.264089 27.019043 0.802246 1.654691 0.123866 -0.039608 457476.000000 0 0 1
-18.311109 -19.896794 -3.572089 27.275244 0.826876 1.702138 0.127291 -0.034350 388974.000000 0 0 1
-17.383309 -18.943594 -4.378989 26.080927 0.828323 1.739495 0.131323 -0.024432 -1019880.000000 0 0 1
-16.041509 -19.020094 -4.116389 25.219807 0.870148 1.734750 0.149998 -0.032636 -853330.000000 0 0 1
-15.352909 -18.105594 -5.011389 24.261871 0.867485 1.778848 0.140294 -0.030594 -341383.000000 0 1 0
-13.826809 -18.106394 -5.048889 23.334812 0.918621 1.788888 0.139187 -0.032176 -683950.000000 0 1 0
-13.296109 -19.273794 -5.575389 24.069704 0.966912 1.804555 0.110295 -0.026063 -533249.000000 0 1 0
-11.918809 -19.037594 -5.747589 23.184538 1.011430 1.821315 0.108303 -0.031285 -302942.000000 0 1 0
-11.080009 -20.307094 -5.831389 23.856860 1.071320 1.817731 0.104343 -0.033880 -46862.800000 0 1 0
-11.241809 -21.101894 -7.018589 24.918443 1.081302 1.856323 0.095909 -0.033816 403269.000000 0 1 0
-10.157309 -22.061894 -7.071489 25.296325 1.139327 1.854118 0.105461 -0.029363 695559.000000 0 0 1
-10.350809 -23.228294 -8.106689 26.691034 1.151597 1.879394 0.108004 -0.023838 -144364.000000 0 0 1
-10.226509 -22.744994 -9.417789 26.657288 1.148262 1.931883 0.102429 -0.021183 -69009.400000 0 0 1
-10.308509 -23.843294 -10.303489 27.945124 1.162722 1.948411 0.137446 -0.021235 -100990.000000 0 0 1
-11.076209 -23.491094 -11.589489 28.439940 1.130202 1.990519 0.178952 -0.037066 315936.000000 0 0 1
-10.376509 -22.582094 -12.487589 27.812997 1.140069 2.036424 0.158602 -0.026412 189382.000000 0 0 1
-11.333609 -22.060694 -13.382089 28.181647 1.096212 2.065591 0.157496 -0.035739 -118153.000000 0 0 1
-10.900309 -20.839694 -14.200689 27.473063 1.088875 2.114016 0.126673 -0.019279 -153364.000000 0 0 1
-10.849409 -19.701094 -13.392689 26.176457 1.067415 2.107878 0.130361 -0.021076 116267.000000 0 0 1
-10.817009 -18.517794 -14.178489 25.708869 1.042119 2.154960 0.108086 -0.002808 -224482.000000 0 0 1
-10.670809 -17.238194 -13.278289 24.234985 1.016508 2.150645 0.107907 -0.008392 12481.100000 0 1 0
-11.820209 -16.695194 -12.614689 24.032837 0.954721 2.123387 0.140148 -0.016966 444607.000000 0 1 0
-11.464909 -15.681894 -11.693289 22.673751 0.939507 2.112643 0.124502 -0.020720 158342.000000 0 1 0
-10.885509 -14.343494 -12.255589 21.781405 0.921613 2.168400 0.120418 -0.012067 134182.000000 0 1 0
-11.868209 -13.485094 -12.806589 22.061525 0.849086 2.190132 0.112805 -0.014528 86570.700000 0 1 0
-12.086809 -13.621794 -14.203989 23.095401 0.845034 2.233200 0.123883 -0.014655 -227729.000000 0 1 0
-13.348609 -12.895094 -14.715089 23.685495 0.768119 2.241159 0.138896 -0.016799 -108388.000000 0 1 0
-13.196609 -11.525094 -14.514289 22.751767 0.717888 2.262618 0.102992 -0.014595 121806.000000 0 1 0
-14.225609 -10.793994 -15.151989 23.419245 0.649092 2.274425 0.100110 -0.028369 81849.500000 0 1 0
-14.253609 -9.341794 -14.576889 22.425882 0.580161 2.278385 0.088912 -0.034437 487063.000000 0 1 0
-12.985209 -8.708294 -14.730289 21.480956 0.590743 2.326412 0.071811 -0.025766 485678.000000 0 1 0
-12.939809 -7.751994 -15.795289 21.840862 0.539744 2.379219 0.080053 -0.031489 -670227.000000 0 1 0
-11.730309 -6.857294 -15.732189 20.787602 0.529003 2.429210 0.047374 -0.023596 -643068.000000 0 1 0
-10.502309 -7.522994 -15.887889 20.477279 0.621594 2.458903 0.045749 -0.022025 181277.000000 0 1 0
-9.414709 -6.642194 -15.594889 19.389586 0.614416 2.505279 0.022423 -0.011039 128258.000000 0 1 0
11.845991 21.805806 15.819411 29.429142 1.073151 1.003276 0.128026 -0.036127 -77229.400000 0 0 1
12.877591 21.719406 16.768611 30.310910 1.035608 0.984571 0.145200 -0.039350 103995.000000 0 0 1
13.452391 20.432006 16.962611 29.768504 0.988540 0.964513 0.136565 -0.037801 335345.000000 0 0 1
14.600691 20.344606 18.002911 30.841335 0.948310 0.947485 0.147913 -0.038035 1152840.000000 0 0 1
15.850891 20.927106 17.562911 31.585603 0.922555 0.981181 0.129837 -0.035775 -138952.000000 0 0 1
16.895891 20.626706 18.402711 32.397405 0.884501 0.966686 0.138791 -0.039546 -668689.000000 0 0 1
18.236591 21.050906 17.800011 33.053809 0.856910 1.002121 0.108257 -0.028744 -691284.000000 0 0 1
18.502591 22.474706 17.934711 34.192282 0.882031 1.018639 0.110557 -0.029611 -394606.000000 0 0 1
19.659291 23.016206 17.379811 34.904029 0.863898 1.049585 0.098910 -0.027107 317575.000000 0 0 1
21.068391 22.719606 17.975911 35.821655 0.823090 1.045098 0.095976 -0.028008 221498.000000 0 0 1
21.500691 21.398206 17.815011 35.178652 0.783009 1.039774 0.110926 -0.023459 90854.400000 0 0 1
22.835991 21.277906 18.283711 36.173552 0.750093 1.040900 0.123664 -0.025309 383588.000000 0 0 1
23.375791 19.822606 18.310911 35.702279 0.703330 1.032262 0.121486 -0.025787 -122914.000000 0 0 1
23.375791 19.326506 17.008511 34.773997 0.690855 1.059721 0.113865 -0.028696 -105336.000000 0 0 1
23.311191 17.905506 17.024711 33.968508 0.654990 1.045822 0.111657 -0.022897 504.584000 0 0 1
24.526391 17.014206 17.425011 34.563826 0.606492 1.042410 0.114164 -0.028647 164424.000000 0 0 1
25.563291 17.054106 16.450211 34.855900 0.588325 1.079296 0.143968 -0.044502 -67900.500000 0 0 1
26.341491 15.896806 16.595811 34.957167 0.542981 1.076120 0.121705 -0.024935 -311291.000000 0 0 1
27.662091 15.980006 15.777511 35.629787 0.523851 1.112057 0.246498 -0.055865 -425907.000000 0 0 1
28.714191 16.795606 16.233211 37.015055 0.529260 1.116804 0.211995 -0.049436 226390.000000 0 0 1
29.608391 16.180906 17.151711 37.850491 0.500150 1.100508 0.217785 -0.053943 -16157.800000 0 0 1
30.624691 15.193606 16.461111 37.943188 0.460541 1.122051 0.191329 -0.059046 -1515250.000000 0 0 1
31.765691 15.905806 16.117311 39.010530 0.464226 1.144883 0.242214 -0.045736 -60144.200000 0 0 1
32.717691 15.195606 15.282611 39.177952 0.434802 1.170076 0.226033 -0.049422 631018.000000 0 0 1
32.182891 14.646506 13.941611 38.008251 0.427089 1.195224 0.212720 -0.052532 -720532.000000 0 0 1
31.767491 15.791306 13.247411 37.868624 0.461317 1.213411 0.218682 -0.036667 59880.800000 0 0 1
31.077091 15.438206 12.043811 36.731147 0.461061 1.236726 0.222082 -0.044706 790592.000000 0 0 1
29.766591 16.309906 11.884911 35.962676 0.501250 1.233985 0.209420 -0.057005 441176.000000 0 0 1
29.967791 17.698806 11.550711 36.670630 0.533475 1.250355 0.218059 -0.050081 206753.000000 0 0 1
30.552691 18.536106 12.564311 37.880286 0.545326 1.232708 0.247365 -0.048979 174448.000000 0 0 1
29.569891 18.929106 13.697511 37.687018 0.569418 1.198823 0.241770 -0.047436 144051.000000 0 0 1
28.506791 19.851406 13.371711 37.222548 0.608289 1.203346 0.261530 -0.056033 643828.000000 0 0 1
27.465491 19.632206 14.301311 36.664754 0.620587 1.170104 0.218305 -0.053717 -380910.000000 0 0 1
27.702191 20.173906 15.776911 37.726765 0.629430 1.139346 0.189920 -0.044248 -560442.000000 0 0 1
27.724791 21.608306 15.895411 38.577804 0.662044 1.146110 0.160361 -0.038016 171346.000000 0 0 1
26.451891 22.213706 16.016111 38.074494 0.698529 1.136632 0.146584 -0.039923 -12829.100000 0 0 1
26.333291 23.747506 15.566511 38.725992 0.733812 1.157134 0.138769 -0.029877 -206248.000000 0 0 1
26.363191 23.895906 14.184411 38.304434 0.736346 1.191457 0.172501 -0.047215 32347.500000 0 0 1
26.097591 25.261206 13.876011 38.881312 0.769114 1.205869 0.160792 -0.052587 -353161.000000 0 0 1
25.673491 25.363206 12.393211 38.157725 0.779319 1.240008 0.147366 -0.050834 2023860.000000 0 0 1
24.299791 24.903706 12.086011 36.834034 0.797671 1.236483 0.135568 -0.035030 2156860.000000 0 0 1
23.901591 25.029506 10.729911 36.233868 0.808445 1.270159 0.101934 -0.043577 39310.100000 0 0 1
23.083691 23.818306 10.186811 34.697833 0.801060 1.272820 0.115340 -0.045658 429284.000000 0 0 1
21.698591 23.819106 10.558811 33.906742 0.831951 1.254123 0.107681 -0.032710 379438.000000 0 0 1
21.156691 22.561006 10.805411 32.762195 0.817509 1.234690 0.137357 -0.039230 -111273.000000 0 0 1
21.038091 21.448906 9.720011 31.577451 0.795067 1.257901 0.147895 -0.051753 -292664.000000 0 0 1
20.039991 21.643106 8.705711 30.754100 0.823839 1.283798 0.133856 -0.046570 267143.000000 0 0 1
20.318591 22.666106 7.785411 31.419900 0.839957 1.320402 0.118710 -0.032487 -249075.000000 0 0 1
19.129291 22.951106 6.830811 30.648703 0.875971 1.346034 0.113782 -0.030239 -437754.000000 0 0 1
18.938091 21.893706 5.915211 29.546156 0.857657 1.369232 0.113892 -0.022487 161713.000000 0 0 1
18.251991 22.183106 4.729911 29.113526 0.882314 1.407609 0.144817 -0.036377 982883.000000 0 0 1
16.759891 22.721406 4.751311 28.630948 0.935262 1.404075 0.108665 -0.022004 747933.000000 0 0 1
16.566991 24.090206 4.933411 29.650324 0.968369 1.403632 0.118993 -0.021203 -450795.000000 0 0 1
15.228591 24.462906 5.034411 29.252163 1.013984 1.397831 0.121609 -0.024849 -582859.000000 0 0 1
15.139291 26.010006 4.996311 30.507075 1.043675 1.406280 0.115741 -0.029444 -232559.000000 0 0 1
15.154391 26.468906 3.675611 30.720818 1.050816 1.450863 0.100146 -0.027352 287602.000000 0 0 1
14.904991 27.872306 3.629711 31.815075 1.079729 1.456460 0.100547 -0.031795 -332406.000000 0 0 1
14.199091 28.350706 2.321811 31.792570 1.106479 1.497701 0.100455 -0.033547 -349703.000000 0 0 1
14.733091 28.131306 0.994111 31.771411 1.088349 1.539502 0.135354 -0.035292 -90274.900000 0 0 1
14.627391 26.780006 0.627711 30.520866 1.070871 1.550228 0.109846 -0.027691 4980.270000 0 0 1
15.781291 26.258506 -0.256289 30.636970 1.029644 1.579162 0.112845 -0.031258 79725.900000 0 0 1
15.741291 26.963706 -1.487889 31.257695 1.042377 1.618415 0.106449 -0.016525 -307006.000000 0 0 1
16.810791 26.534606 -2.276889 31.494003 1.006078 1.643155 0.109232 -0.012117 -205504.000000 0 0 1
16.837691 27.077106 -3.701789 32.099544 1.014471 1.686376 0.129254 -0.028413 -396027.000000 0 0 1
15.776091 26.645406 -4.497989 31.290487 1.036224 1.715045 0.156510 -0.031986 -489664.000000 0 0 1
15.987891 27.002406 -5.854889 31.922129 1.036212 1.755252 0.148766 -0.026772 323531.000000 0 0 1
14.762791 26.738206 -6.767089 31.283624 1.066324 1.788834 0.159374 -0.046245 331744.000000 0 0 1
14.458891 25.385906 -7.021889 30.046808 1.053057 1.806676 0.149604 -0.042855 -479328.000000 0 0 1
13.201691 25.407206 -7.630589 29.631683 1.091589 1.831245 0.125399 -0.050110 -462091.000000 0 0 1
12.801491 24.062306 -8.219989 28.468244 1.081866 1.863709 0.136791 -0.038278 7584.480000 0 0 1
13.616591 23.633806 -9.290589 28.814638 1.048099 1.899088 0.131580 -0.040056 161366.000000 0 0 1
13.228591 22.314306 -9.694689 27.693155 1.035666 1.928448 0.135466 -0.026527 82054.000000 0 0 1
13.464491 21.834206 -11.146689 27.969157 1.018210 1.980715 0.134535 -0.027345 168537.000000 0 0 1
12.905091 20.520706 -11.327889 26.757463 1.009411 2.007941 0.158752 -0.033041 37532.000000 0 0 1
12.958491 20.160506 -12.693589 27.120024 0.999523 2.057882 0.139891 -0.040815 -49563.600000 0 0 1
14.186291 19.325006 -13.131989 27.334151 0.937556 2.071935 0.154788 -0.039457 -457124.000000 0 0 1
15.378091 20.003706 -12.911889 28.343444 0.915395 2.043788 0.119768 -0.026938 -1173850.000000 0 0 1
16.447691 19.147906 -13.238489 28.503095 0.861111 2.053819 0.114457 -0.027627 293941.000000 0 0 1
17.805091 19.916806 -13.101789 29.754954 0.841321 2.026755 0.136045 -0.016705 13662.700000 0 0 1
18.177291 20.946606 -13.949289 31.044434 0.856064 2.036815 0.121729 -0.021026 178574.000000 0 0 1
17.462291 22.186906 -13.806489 31.429437 0.903999 2.025599 0.111045 -0.021724 52144.600000 0 0 1
18.235991 23.449206 -14.325889 32.979504 0.909814 2.020155 0.109544 -0.025841 23668.900000 0 0 1
18.260791 23.671006 -15.742289 33.787463 0.913713 2.055472 0.098776 -0.015716 -182694.000000 0 0 1
17.016191 23.866006 -16.399089 33.586710 0.951406 2.080893 0.112709 -0.011607 165451.000000 0 0 1
16.987791 24.007006 -17.933189 34.445909 0.954976 2.118372 0.097204 -0.007877 157071.000000 0 0 1
17.395391 22.806306 -18.557589 34.163011 0.919188 2.145049 0.104389 -0.006623 -229944.000000 0 0 1
17.195091 22.895506 -19.958489 34.902960 0.926640 2.179529 0.106085 -0.004227 -352.853000 0 0 1
17.432691 21.575806 -20.788789 34.663927 0.891212 2.213952 0.114138 -0.001225 48236.300000 0 0 1
16.446891 20.559606 -20.626589 33.446282 0.896079 2.235350 0.108762 -0.001107 140800.000000 0 0 1
16.623591 19.514706 -21.565689 33.499947 0.865230 2.270189 0.116384 0.002321 1056230.000000 0 0 1
15.442591 18.445106 -21.399089 32.196530 0.873769 2.297808 0.099701 -0.006001 563725.000000 0 0 1
15.454391 17.744106 -20.191489 31.006253 0.854260 2.279970 0.096373 -0.016240 349206.000000 0 0 1
14.661791 16.516606 -20.197389 29.928263 0.844819 2.311571 0.082050 -0.022237 1216320.000000 0 0 1
13.103491 16.592606 -20.344889 29.341618 0.902356 2.336965 0.092993 -0.028612 313640.000000 0 0 1
12.329891 16.782206 -19.178889 28.310748 0.937159 2.315076 0.080302 -0.033546 482870.000000 0 0 1
10.966791 16.934106 -19.618289 28.140926 0.996099 2.342203 0.100632 -0.034140 508990.000000 0 0 1
9.973691 16.580306 -18.526989 26.788624 1.029246 2.334497 0.130225 -0.047402 -1308330.000000 0 0 1
9.914191 15.175106 -18.385789 25.818835 0.992091 2.363292 0.147241 -0.067841 97878.300000 0 0 1
8.635591 14.604206 -18.186389 24.871691 1.036792 2.390888 0.167948 -0.057626 85892.900000 0 1 0
7.844991 15.041106 -16.952189 23.982399 1.090042 2.355845 0.156426 -0.062819 -409283.000000 0 1 0
7.485091 16.442606 -16.880589 24.725294 1.143606 2.322283 0.170267 -0.055192 -179441.000000 0 1 0
6.650091 16.714106 -15.758789 23.914942 1.192125 2.290220 0.148314 -0.058893 -79335.400000 0 1 0
6.343891 18.189306 -15.543089 24.752443 1.235217 2.249702 0.135772 -0.044631 421412.000000 0 1 0
7.450991 19.060906 -15.254089 25.524941 1.198156 2.211320 0.130055 -0.040934 920014.000000 0 0 1
8.380691 19.445006 -16.295089 26.718424 1.163859 2.226708 0.138550 -0.034544 848906.000000 0 0 1
9.724091 20.032506 -15.754089 27.277290 1.118884 2.186525 0.130699 -0.023350 530997.000000 0 0 1
9.649791 21.305306 -15.145189 27.864157 1.145509 2.145441 0.119691 -0.033796 -105239.000000 0 0 1
9.477091 21.246506 -13.762689 27.030369 1.151229 2.105001 0.138197 -0.040571 -197150.000000 0 0 1
9.154391 22.564706 -13.018089 27.612306 1.185390 2.061742 0.126238 -0.034666 422865.000000 0 0 1
7.874391 23.127306 -13.384489 27.857187 1.242627 2.071985 0.117603 -0.033433 980294.000000 0 0 1
7.292991 24.111406 -12.497589 28.120052 1.277074 2.031342 0.100579 -0.036980 323124.000000 0 0 1
6.749691 23.475906 -11.212089 26.877266 1.290832 2.001113 0.067841 -0.032142 -482453.000000 0 0 1
7.708191 23.411006 -10.177889 26.666099 1.252721 1.962408 0.069130 -0.030635 -140345.000000 0 0 1
7.175591 22.820206 -9.017589 25.564972 1.266145 1.931286 0.066872 -0.034670 216537.000000 0 0 1
8.092091 23.007406 -7.772689 25.597604 1.232593 1.879317 0.066072 -0.033071 184487.000000 0 0 1
8.029291 24.249106 -7.154889 26.526988 1.251042 1.843900 0.054822 -0.035376 78852.100000 0 0 1
8.860591 24.289406 -6.016689 26.545920 1.221005 1.799435 0.069663 -0.037478 -79409.400000 0 0 1
9.052191 25.705506 -5.474789 27.797275 1.232208 1.769047 0.052003 -0.034829 -231808.000000 0 0 1
9.763891 26.513206 -6.368789 28.962823 1.217943 1.792503 0.084860 -0.040242 -106917.000000 0 0 1
9.989391 27.791206 -5.936589 30.122784 1.225733 1.769175 0.073985 -0.039702 144548.000000 0 0 1
10.398491 28.685306 -7.103189 31.327794 1.223027 1.799523 0.078632 -0.031524 685327.000000 0 0 1
11.738291 28.529006 -7.573989 31.765657 1.180457 1.811549 0.096052 -0.038764 245239.000000 0 0 1
12.005791 29.573206 -8.507389 33.031639 1.185155 1.831285 0.100826 -0.035358 177203.000000 0 0 1
13.443291 29.536506 -9.073189 33.696439 1.143675 1.843424 0.121633 -0.038723 1108880.000000 0 0 1
14.484891 29.741906 -8.061489 34.049679 1.117587 1.809823 0.108001 -0.026025 -223410.000000 0 0 1
15.621691 30.157606 -8.706989 35.061804 1.092851 1.821755 0.101112 -0.022704 -680079.000000 0 0 1
16.853191 30.644706 -7.902489 35.854949 1.067988 1.793023 0.092073 -0.018602 723628.000000 0 0 1
17.672391 29.466606 -7.656889 35.202588 1.030566 1.790058 0.092232 -0.014718 781487.000000 0 0 1
18.853191 29.810006 -6.893989 35.938925 1.006861 1.763818 0.078374 -0.010916 1176500.000000 0 0 1
19.845491 28.631306 -6.647589 35.465273 0.964690 1.759351 0.073701 -0.009216 -330292.000000 0 0 1
19.503091 27.809106 -5.609489 34.426491 0.959185 1.734467 0.100069 -0.017818 298423.000000 0 0 1
20.513091 26.867206 -5.205589 34.201342 0.918712 1.723594 0.088299 -0.019189 175456.000000 0 0 1
20.849891 25.695606 -6.169889 33.660803 0.889132 1.755135 0.101244 -0.022726 -87751.800000 0 0 1
21.473891 26.113006 -7.376789 34.603960 0.882578 1.785622 0.071120 -0.014417 275545.000000 0 0 1
21.722391 24.941306 -8.186089 34.072614 0.854270 1.813424 0.076551 -0.027821 -1179360.000000 0 0 1
22.460891 25.238806 -9.499389 35.095973 0.843570 1.844884 0.080347 -0.021963 -400975.000000 0 0 1
23.847691 25.389806 -9.405489 36.080713 0.816708 1.834522 0.057542 -0.016119 -364860.000000 0 0 1
24.486591 24.129406 -9.266889 35.604727 0.778051 1.834100 0.083770 -0.016490 -1734930.000000 0 0 1
25.997091 24.245906 -9.217289 36.724258 0.750558 1.824495 0.027815 -0.010228 -821458.000000 0 0 1
26.553491 24.755806 -10.408489 37.766049 0.750376 1.850015 0.041876 -0.007283 -408934.000000 0 0 1
27.912891 25.037806 -10.228089 38.866888 0.731154 1.837089 0.043800 -0.004117 -195510.000000 0 0 1
28.717691 25.158606 -11.552889 39.888977 0.719434 1.864633 0.059469 -0.005944 114485.000000 0 0 1
28.295291 26.117406 -12.518589 40.490214 0.745394 1.885122 0.046789 0.000531 214498.000000 0 0 1
29.344091 26.075606 -13.470689 41.502679 0.726489 1.901358 0.061981 -0.001342 503384.000000 0 0 1
29.305491 27.156706 -14.612589 42.542052 0.747359 1.921422 0.080194 -0.011717 -96108.800000 0 0 1
29.634691 28.439906 -14.139789 43.439346 0.764828 1.902344 0.067626 -0.014402 -28814.600000 0 0 1
29.722391 29.324506 -15.225189 44.442699 0.778660 1.920458 0.085558 -0.010885 -248729.000000 0 0 1
29.884791 30.856006 -14.832689 45.444499 0.801386 1.903280 0.077977 -0.017655 329187.000000 0 0 1
31.177791 31.168106 -14.338789 46.358455 0.785243 1.885256 0.079007 -0.025025 270088.000000 0 0 1
31.492491 32.545506 -14.485189 47.547951 0.801840 1.880361 0.061034 -0.030224 -74475.300000 0 0 1
16.555791 -32.057323 -28.058179 45.705881 -1.094081 2.231770 0.106938 -0.042995 304145.000000 0 0 1
17.642191 -32.706423 -27.386339 46.162415 -1.076120 2.205899 0.093979 -0.039732 494128.000000 0 0 1
18.016891 -31.966423 -26.259269 45.122165 -1.057557 2.191932 0.093128 -0.047669 -905335.000000 0 0 1
19.120291 -32.590823 -25.352239 45.502564 -1.040231 2.161759 0.054017 -0.039049 815862.000000 0 0 1
20.478791 -32.363523 -25.709519 46.127626 -1.006626 2.161994 0.103709 -0.047415 517902.000000 0 0 1
20.894691 -32.654623 -27.040049 47.266021 -1.001576 2.179839 0.106652 -0.044427 -723199.000000 0 0 1
22.439691 -32.531323 -27.197679 47.974373 -0.966958 2.173560 0.122043 -0.042807 544968.000000 0 0 1
22.971791 -31.182623 -27.190669 47.322211 -0.935871 2.182894 0.118197 -0.047109 468868.000000 0 0 1
24.383891 -31.220823 -27.066879 47.978431 -0.907740 2.170196 0.093019 -0.036694 -60743.800000 0 0 1
25.120791 -30.033923 -27.574949 47.890171 -0.874243 2.184373 0.081714 -0.033045 -443752.000000 0 0 1
25.516391 -30.081623 -28.902649 48.901466 -0.867326 2.203142 0.091358 -0.034721 26979.900000 0 0 1
26.158591 -28.854623 -29.264959 48.716517 -0.834366 2.215197 0.080149 -0.031094 227697.000000 0 0 1
26.512291 -28.720023 -30.788499 49.756135 -0.825349 2.237995 0.083237 -0.040712 560015.000000 0 0 1
27.612391 -29.519323 -31.234549 51.082596 -0.818764 2.228690 0.082102 -0.037614 321140.000000 0 0 1
27.690591 -29.511223 -32.632469 51.986144 -0.817216 2.249410 0.075955 -0.038744 -133117.000000 0 0 1
28.770191 -30.437223 -33.219159 53.457095 -0.813547 2.241347 0.058179 -0.032446 1485830.000000 0 0 1
30.117891 -29.892323 -33.125049 53.832214 -0.781639 2.233612 0.048897 -0.031712 741146.000000 0 0 1
31.096491 -30.745223 -33.620869 55.159979 -0.779718 2.226246 0.045304 -0.027109 -248777.000000 0 0 1
32.465691 -30.096423 33.474071 55.500714 -0.747546 0.923379 0.053965 -0.033838 -308544.000000 0 0 1
32.568691 -29.215323 32.372086 54.426158 -0.731176 0.933793 0.068377 -0.032417 -512909.000000 0 0 1
33.898691 -28.872823 32.124089 54.906450 -0.705503 0.945831 0.061234 -0.038504 -587256.000000 0 0 1
33.970891 -27.544523 31.379198 53.827282 -0.681308 0.948428 0.064349 -0.037778 -133223.000000 0 0 1
35.230791 -27.116423 30.875371 54.127605 -0.655978 0.963781 0.064141 -0.041608 418794.000000 0 0 1
35.192391 -26.026023 29.958721 53.041335 -0.636770 0.970583 0.065630 -0.039849 -104575.000000 0 0 1
36.062791 -26.471423 28.738611 53.171128 -0.633206 0.999774 0.073144 -0.030846 132672.000000 0 0 1
35.474791 -27.448623 27.892451 52.819282 -0.658529 1.014466 0.060584 -0.030388 1218820.000000 0 0 1
34.233791 -27.088423 27.244641 51.458776 -0.669400 1.012849 0.066714 -0.028508 586967.000000 0 0 1
33.634491 -28.144623 26.315651 51.145990 -0.696768 1.030348 0.046513 -0.022728 418813.000000 0 0 1
32.281091 -27.861223 25.953031 49.918698 -0.712040 1.024055 0.054125 -0.015432 670224.000000 0 0 1
31.668791 -28.863723 25.173031 49.696160 -0.739091 1.039631 0.051967 -0.009169 330770.000000 0 0 1
30.284191 -28.418123 24.644211 48.291398 -0.753620 1.035236 0.052088 -0.003739 866590.000000 0 0 1
29.163391 -28.303323 25.557451 48.007966 -0.770433 1.009412 0.062362 -0.012759 879015.000000 0 0 1
28.040591 -27.941623 24.739721 46.680433 -0.783630 1.012219 0.074430 -0.005552 305845.000000 0 0 1
26.762691 -27.929023 25.602761 46.387211 -0.806721 0.986112 0.099132 -0.010813 -148668.000000 0 0 1
26.726891 -26.767023 26.430661 46.145206 -0.786148 0.960913 0.091849 -0.019306 553776.000000 0 0 1
25.539791 -26.754923 27.230941 45.930719 -0.808630 0.936178 0.103900 -0.023827 335792.000000 0 0 1
25.431991 -25.450123 28.099781 45.651863 -0.785755 0.907747 0.101634 -0.018550 -368976.000000 0 0 1
24.276491 -25.433223 28.901841 45.513880 -0.808664 0.882773 0.115125 -0.016600 22160.300000 0 0 1
24.096991 -24.307323 29.717981 45.328460 -0.789743 0.855801 0.113398 -0.014300 -225111.000000 0 0 1
23.620691 -22.946023 29.191611 44.006899 -0.770911 0.845521 0.114081 -0.017628 -40886.500000 0 0 1
24.507891 -22.321623 28.235831 43.544847 -0.738746 0.865275 0.125646 -0.023112 499535.000000 0 0 1
24.271991 -20.904523 28.036541 42.569664 -0.710996 0.851835 0.128282 -0.014761 28924.900000 0 0 1
25.103191 -19.947623 28.936581 43.190318 -0.671455 0.836617 0.110946 -0.013764 29225.800000 0 0 1
24.774391 -20.038023 30.320291 43.984234 -0.680096 0.810212 0.115675 -0.014789 42165.800000 0 0 1
25.480391 -19.092923 31.074731 44.490774 -0.643065 0.797562 0.090710 -0.020651 -309405.000000 0 0 1
24.927291 -18.871923 32.500422 45.097636 -0.648016 0.766031 0.112296 -0.010997 -97334.400000 0 0 1
25.171791 -19.866223 33.446261 46.335065 -0.668137 0.764347 0.099704 -0.011662 194530.000000 0 0 1
24.227891 -19.708623 -32.830899 45.313226 -0.682900 2.381152 0.107885 -0.015313 -219548.000000 0 0 1
24.381791 -20.909023 -31.873749 45.250358 -0.708871 2.352355 0.082844 -0.005480 -101847.000000 0 0 1
25.659891 -21.020223 -31.307529 45.611853 -0.686331 2.327310 0.066706 -0.004815 -324471.000000 0 0 1
25.598091 -22.049323 -30.329019 45.401369 -0.711056 2.302341 0.072510 -0.011556 -193504.000000 0 0 1
26.882291 -22.306723 -29.546129 45.751734 -0.692645 2.272857 0.066830 -0.004071 -737753.000000 0 0 1
27.880191 -22.964423 -30.251069 47.114721 -0.689016 2.267995 0.068850 -0.000583 -928060.000000 0 0 1
28.866291 -23.305923 -29.304709 47.277847 -0.679222 2.239335 0.077666 -0.014782 5149.660000 0 0 1
29.977591 -24.209023 -29.972309 48.816719 -0.679340 2.231885 0.069874 -0.020329 692714.000000 0 0 1
30.970091 -23.425723 -30.677489 49.487568 -0.647583 2.239415 0.064707 -0.013742 341263.000000 0 0 1
30.737291 -23.241623 -32.051759 50.122543 -0.647418 2.264602 0.057449 -0.011049 -78107.900000 0 0 1
31.005191 -24.397923 -33.008619 51.440737 -0.666701 2.267486 0.056745 -0.014201 617838.000000 0 0 1
30.086391 -25.524023 -32.789629 51.301330 -0.703540 2.264199 0.078225 -0.019860 691250.000000 0 0 1
30.495091 -26.781623 -33.317559 52.509672 -0.720655 2.258162 0.069520 -0.026285 -196115.000000 0 0 1
30.089791 -27.031823 32.511526 51.895224 -0.731915 0.893762 0.067447 -0.025154 -251710.000000 0 0 1
30.755691 -26.298223 31.488228 51.273946 -0.707429 0.909529 0.049617 -0.030605 13699.200000 0 0 1
30.311291 -26.523723 30.174491 50.326754 -0.718855 0.927831 0.051613 -0.022580 1534.470000 0 0 1
31.323791 -25.812723 29.184741 49.992256 -0.689241 0.947413 0.058572 -0.028046 263416.000000 0 0 1
31.355491 -24.381823 29.107621 49.243210 -0.660928 0.938375 0.046096 -0.029134 124053.000000 0 0 1
31.722791 -23.783223 30.339231 49.924404 -0.643322 0.917631 0.044234 -0.022290 -1134180.000000 0 0 1
32.104591 -22.249423 30.253781 49.406810 -0.606032 0.911779 0.034167 -0.009358 364349.000000 0 0 1
33.422291 -21.960123 29.837981 49.895908 -0.581315 0.929787 0.053250 -0.014467 661550.000000 0 0 1
34.464191 -22.301723 30.772731 51.304077 -0.574333 0.927532 0.047072 -0.022049 -475539.000000 0 0 1
35.850091 -21.747823 30.495321 51.847482 -0.545282 0.941998 0.056192 -0.026693 -605840.000000 0 0 1
36.339591 -22.220823 29.228451 51.658815 -0.548816 0.969396 0.072619 -0.028278 379677.000000 0 0 1
37.629291 -21.655323 29.024471 52.223907 -0.522203 0.981508 0.074023 -0.027662 93385.500000 0 0 1
38.106591 -21.804223 27.612911 51.865299 -0.519720 1.009367 0.095755 -0.033185 -75610.000000 0 0 1
-37.510081 -23.080223 27.466831 51.905006 0.551599 1.013168 0.094415 -0.030448 229234.000000 0 0 1
-37.158381 -23.300623 26.125691 51.051112 0.560081 1.033569 0.083885 -0.011916 -261850.000000 0 0 1
-36.948981 -24.747223 25.654231 51.339963 0.590146 1.047552 0.081214 -0.022385 129389.000000 0 0 1
-38.080181 -25.611123 25.798741 52.646033 0.592070 1.058659 0.082388 -0.016141 296311.000000 0 0 1
-37.920481 -26.944423 25.236001 52.922779 0.617772 1.073734 0.072930 -0.011970 189217.000000 0 0 1
-37.173881 -27.891023 26.242001 53.370865 0.643684 1.056765 0.068514 -0.021096 -469177.000000 0 0 1
-36.881081 -29.135223 25.645451 53.542175 0.668600 1.071308 0.065761 -0.021005 -141791.000000 0 0 1
-35.940481 -29.883323 26.363481 53.663435 0.693636 1.057244 0.068040 -0.034023 417052.000000 0 0 1
-34.459981 -29.437123 26.127141 52.313115 0.706951 1.047847 0.074940 -0.034778 -370759.000000 0 0 1
-34.126781 -29.487723 24.730491 51.436953 0.712602 1.069238 0.074568 -0.028669 -145223.000000 0 0 1
-32.828881 -29.000623 24.499901 50.189807 0.723561 1.060833 0.051543 -0.020054 -32409.200000 0 0 1
-32.368781 -28.974223 22.996001 49.153430 0.730117 1.083950 0.057749 -0.021119 -4713.800000 0 0 1
-32.343981 -30.258323 22.392111 49.629687 0.752094 1.102705 0.068976 -0.021230 276865.000000 0 0 1
-31.884881 -30.121423 21.098011 48.673112 0.756966 1.122464 0.059356 -0.021143 -595902.000000 0 0 1
-31.629881 -31.438623 20.414311 49.046717 0.782366 1.141510 0.079736 -0.016820 -313218.000000 0 0 1
-30.620881 -32.268323 20.933711 49.164045 0.811588 1.130958 0.098476 -0.021259 689902.000000 0 0 1
-29.341681 -31.993923 20.340311 47.940313 0.828613 1.132625 0.112922 -0.019514 1222120.000000 0 0 1
-28.196181 -33.091023 20.386911 48.017357 0.865096 1.132305 0.113467 -0.008987 775427.000000 0 0 1
-28.279481 33.267506 19.411811 47.783620 -0.866266 1.152456 0.103374 -0.006119 528683.000000 0 0 1
-29.337181 32.279006 19.529011 47.791073 -0.833106 1.149840 0.108905 -0.006212 648320.000000 0 0 1
-29.171281 31.245106 20.697011 47.493015 -0.819710 1.119880 0.109070 -0.002071 -79257.800000 0 0 1
-28.153181 30.299706 20.474611 46.150660 -0.822104 1.111132 0.100985 -0.006598 -118282.000000 0 0 1
-28.056281 29.387106 21.571311 46.000851 -0.808562 1.082714 0.101794 -0.011062 -217908.000000 0 0 1
-27.189881 28.170606 21.283411 44.562947 -0.803112 1.072872 0.096419 -0.007963 477053.000000 0 0 1
-25.799681 28.503706 21.276411 43.940533 -0.835152 1.065337 0.096458 -0.006623 372931.000000 0 0 1
-25.044781 27.544506 20.574311 42.535198 -0.832895 1.065918 0.084150 -0.007531 -671692.000000 0 0 1
-23.550181 27.829806 20.541811 41.845849 -0.868500 1.057683 0.067370 -0.000561 -798651.000000 0 0 1
-23.128081 27.938706 21.873811 42.354964 -0.879324 1.028108 0.075799 -0.010939 118335.000000 0 0 1
-21.758681 28.286706 21.892811 41.867327 -0.915108 1.020536 0.078282 -0.020135 -15733.300000 0 0 1
-21.161681 28.557606 23.305941 42.503182 -0.933069 0.990426 0.077557 -0.017010 -407902.000000 0 0 1
-21.085981 27.319006 24.064591 42.071976 -0.913462 0.961871 0.079315 -0.033287 148078.000000 0 0 1
-20.873181 27.469606 25.428751 42.858958 -0.921012 0.935629 0.084487 -0.031939 -524468.000000 0 0 1
-19.441681 27.788606 25.849711 42.642621 -0.960320 0.919530 0.105918 -0.034782 -937088.000000 0 0 1
-19.069481 29.161906 25.649171 43.265943 -0.991672 0.936233 0.082058 -0.033387 444060.000000 0 0 1
-17.769281 29.519706 26.102541 43.226184 -1.028947 0.922462 0.099799 -0.034879 183121.000000 0 0 1
-17.518781 29.688406 27.545311 44.125426 -1.037697 0.896625 0.099302 -0.030655 -366129.000000 0 0 1
-17.680881 28.466106 28.262531 43.837237 -1.014992 0.870146 0.097667 -0.029060 177366.000000 0 0 1
-17.759981 28.648606 29.666961 44.903097 -1.015855 0.849061 0.089654 -0.021196 -242731.000000 0 0 1
-17.448281 27.369906 30.380891 44.458439 -1.003260 0.818448 0.078193 -0.016972 -606949.000000 0 0 1
-16.066881 27.144306 30.553781 43.914593 -1.036349 0.801326 0.083612 -0.010590 53988.800000 0 0 1
-15.792881 26.147606 31.488766 43.870887 -1.027448 0.770216 0.091084 -0.016063 -397850.000000 0 0 1
-16.260581 26.358306 32.948818 45.219369 -1.018039 0.754456 0.081130 -0.005656 -508832.000000 0 0 1
-17.635481 26.086206 33.024755 45.630415 -0.976328 0.761583 0.068897 -0.006065 -562175.000000 0 0 1
-18.175881 26.763706 -33.176839 46.339629 -0.974219 2.368780 0.064714 -0.003525 71828.700000 0 0 1
-19.459181 26.151606 -32.582109 46.088610 -0.931088 2.355966 0.054057 -0.003188 950243.000000 0 0 1
-20.667681 26.420606 -33.339389 47.293935 -0.906969 2.353135 0.068624 -0.009327 165186.000000 0 0 1
-21.758281 25.942906 -32.655239 47.040639 -0.872900 2.338093 0.092507 -0.016654 -1602680.000000 0 0 1
-23.045581 25.877706 -33.430219 48.149081 -0.843223 2.338252 0.121911 -0.036848 -1079220.000000 0 0 1
-23.109981 25.089406 32.646780 47.216117 -0.826443 0.807326 0.112809 -0.033861 -51800.000000 0 0 1
-23.198281 23.689006 32.854234 46.676867 -0.795864 0.789972 0.099793 -0.025512 -198920.000000 0 0 1
-23.441681 22.858106 31.612516 45.512158 -0.772795 0.802940 0.092363 -0.023892 430621.000000 0 0 1
-24.824681 22.702406 31.308924 45.955551 -0.740774 0.821277 0.109490 -0.036588 280127.000000 0 0 1
-25.032781 22.378506 29.934711 44.983603 -0.729473 0.842689 0.121335 -0.030742 628801.000000 0 0 1
-26.505381 21.990106 29.595611 45.409252 -0.692559 0.860903 0.116772 -0.035335 529936.000000 0 0 1
-26.998381 20.709006 30.008041 45.368028 -0.654322 0.848065 0.117493 -0.040718 318353.000000 0 0 1
-28.281981 20.479206 29.441911 45.673783 -0.626723 0.870279 0.112844 -0.041945 147755.000000 0 0 1
-28.950181 19.213006 30.020641 45.918313 -0.585916 0.858222 0.119479 -0.044720 -308746.000000 0 0 1
-29.400381 19.364906 31.414448 47.183148 -0.582440 0.842233 0.123033 -0.039681 132380.000000 0 0 1
-29.567481 18.199106 32.205423 47.356442 -0.551747 0.822946 0.093848 -0.023619 -352756.000000 0 0 1
-30.383481 16.963206 31.631814 47.026353 -0.509196 0.833025 0.075176 -0.021645 248510.000000 0 0 1
-31.760681 17.195506 31.466585 47.901693 -0.496223 0.854098 0.058780 -0.027759 140971.000000 0 0 1
-32.513581 16.046106 31.004931 47.706563 -0.458450 0.863331 0.058254 -0.013793 1765540.000000 0 0 1
-34.066381 16.388206 30.878371 48.811529 -0.448387 0.885885 0.085805 -0.013836 1302530.000000 0 0 1
-34.659781 16.525606 32.171195 50.093730 -0.444912 0.873405 0.081041 -0.016389 415844.000000 0 0 1
-36.066181 16.348606 32.088929 50.968085 -0.425590 0.889773 0.115386 -0.023717 -33401.900000 0 0 1
-36.654881 16.888606 33.390521 52.380647 -0.431755 0.879600 0.113935 -0.018021 -64797.700000 0 0 1
-38.067681 16.831006 33.511311 53.436308 -0.416293 0.892938 0.106751 -0.025787 232860.000000 0 0 1
37.748291 17.468506 -32.630609 52.866235 0.433417 2.236013 0.106897 -0.030364 -100696.000000 0 0 1
36.246791 17.802406 -32.659059 51.936207 0.456538 2.250844 0.106364 -0.030247 -8863.340000 0 0 1
35.436791 16.648806 -32.590269 50.941874 0.439211 2.264975 0.110383 -0.015073 112284.000000 0 0 1
34.155891 16.931206 -32.059709 49.810797 0.460205 2.270028 0.108615 -0.017170 201540.000000 0 0 1
33.178991 15.728906 -31.940839 48.666838 0.442683 2.286722 0.114736 -0.013200 240318.000000 0 0 1
32.435191 15.549406 -33.140039 48.908975 0.447032 2.315272 0.107135 -0.025636 68026.000000 0 0 1
31.675591 14.339106 -33.253959 48.112148 0.425086 2.333911 0.105750 -0.034093 297355.000000 0 0 1
32.383591 12.975506 -33.647789 48.468901 0.381094 2.338124 0.110343 -0.031458 45461.700000 0 0 1
33.315991 12.512606 -32.712669 48.338797 0.359273 2.314118 0.109405 -0.020481 38599.900000 0 0 1
34.065191 11.391206 -33.188949 48.905042 0.322705 2.316707 0.112871 -0.020761 185250.000000 0 0 1
18.750591 -21.101794 9.303411 29.722447 -0.844328 1.252436 0.036586 -0.007191 -114775.000000 0 0 1
18.514791 -22.277494 10.058611 30.663658 -0.877378 1.236579 0.028095 -0.011259 -477525.000000 0 0 1
19.692091 -22.893594 10.456911 31.956879 -0.860435 1.237437 0.023073 -0.014611 -957466.000000 0 0 1
19.574391 -24.153894 11.309811 33.082914 -0.889744 1.221898 0.032148 -0.015640 489361.000000 0 0 1
18.703591 -25.215104 10.823911 33.208175 -0.932589 1.238789 0.028724 -0.021598 542142.000000 0 0 1
17.340691 -25.025174 11.115011 32.411455 -0.964831 1.220757 0.038497 -0.021255 -208340.000000 0 0 1
16.316891 -25.965424 10.456111 32.400223 -1.009750 1.242197 0.055406 -0.018538 -25028.000000 0 0 1
16.344491 -25.750524 9.050211 31.814120 -1.005235 1.282341 0.060375 -0.030507 -86673.000000 0 0 1
15.366291 -26.479774 8.378711 31.741206 -1.044986 1.303661 0.071128 -0.023019 -423572.000000 0 0 1
15.150191 -25.995484 6.950811 30.880532 -1.043119 1.343764 0.073489 -0.029263 -167693.000000 0 0 1
14.415191 -24.779594 6.912111 29.489037 -1.043914 1.334199 0.071333 -0.033486 164686.000000 0 0 1
14.055991 -24.368394 5.614311 28.686408 -1.047601 1.373812 0.080962 -0.017027 -6939.100000 0 0 1
13.376691 -23.007694 5.760211 27.229945 -1.044165 1.357646 0.096159 -0.020692 -346550.000000 0 0 1
12.796891 -22.328894 4.696211 26.160932 -1.050384 1.390306 0.097621 -0.013744 74760.700000 0 0 1
12.072391 -21.197494 5.214611 24.945311 -1.053090 1.360201 0.115227 -0.016805 775194.000000 0 1 0
10.996991 -20.599194 4.231111 23.731054 -1.080433 1.391544 0.096821 -0.016833 835222.000000 0 1 0
11.642191 -20.003694 3.068711 23.347492 -1.043716 1.438978 0.077693 -0.013332 -78896.000000 0 1 0
10.701291 -19.602894 2.124711 22.434471 -1.071104 1.475947 0.056222 0.003814 -553266.000000 0 1 0
11.268891 -19.136694 0.817811 22.223181 -1.038606 1.533988 0.045276 0.005136 126976.000000 0 1 0
12.043791 -17.921694 0.862311 21.609804 -0.979095 1.530882 0.038562 0.001363 -164578.000000 0 1 0
12.799391 -17.838394 -0.304289 21.957352 -0.948409 1.584655 0.045626 -0.006514 -567608.000000 0 1 0
13.934691 -16.821594 -0.113489 21.843867 -0.878988 1.575992 0.035758 0.006851 64845.300000 0 1 0
15.020791 -17.343394 0.653111 22.953084 -0.857040 1.542338 0.044447 -0.006707 -467444.000000 0 1 0
16.129891 -16.516594 0.503411 23.091659 -0.797243 1.548994 0.058701 -0.018221 -262398.000000 0 1 0
17.354791 -17.076994 1.271011 24.380894 -0.777330 1.518641 0.049068 -0.010873 91836.200000 0 1 0
17.888691 -18.297194 0.694811 25.598347 -0.796687 1.543650 0.064926 -0.017462 240817.000000 0 0 1
19.152991 -18.625994 1.248211 26.745519 -0.771450 1.524109 0.081674 -0.015774 631199.000000 0 0 1
19.835291 -19.943694 0.709811 28.137049 -0.788123 1.545567 0.059917 -0.021585 138772.000000 0 0 1
19.135891 -21.067694 1.130511 28.483471 -0.833412 1.531096 0.057610 -0.011387 -222018.000000 0 0 1
19.192191 -22.197994 0.272811 29.345623 -0.857892 1.561500 0.067077 -0.018200 -157217.000000 0 0 1
18.034991 -23.194994 0.492511 29.385562 -0.909903 1.554035 0.060759 -0.014105 -179904.000000 0 0 1
18.078491 -23.813494 1.764811 29.950441 -0.921452 1.511838 0.045001 -0.004279 -375653.000000 0 0 1
17.101391 -24.802094 1.823211 30.181543 -0.967143 1.510351 0.038906 -0.003330 -717943.000000 0 0 1
17.227791 -25.804804 2.967711 31.168767 -0.982134 1.475438 0.037205 -0.009418 140546.000000 0 0 1
18.356491 -26.643794 3.015411 32.495311 -0.967519 1.477867 0.045733 -0.012379 -527316.000000 0 0 1
19.507691 -26.060154 3.524411 32.742986 -0.928215 1.462949 0.041695 -0.006317 -1107470.000000 0 0 1
20.727591 -26.964054 3.653011 34.205814 -0.915427 1.463797 0.050169 -0.000239 -164916.000000 0 0 1
21.196991 -27.502384 2.392011 34.805392 -0.914158 1.502017 0.060879 0.000559 -91806.700000 0 0 1
22.211191 -28.486514 2.455311 36.205622 -0.908551 1.502928 0.084237 -0.001381 -30973.300000 0 0 1
21.816191 -29.953524 2.815111 37.162947 -0.941306 1.494973 0.071745 -0.003946 -245675.000000 0 0 1
21.453491 -30.255954 4.145211 37.321010 -0.954011 1.459498 0.087987 -0.012909 151343.000000 0 0 1
20.946791 -31.627204 4.250011 38.172119 -0.985821 1.459227 0.059986 -0.023877 -6587.740000 0 0 1
20.585491 -31.950984 5.728611 38.437544 -0.998450 1.421202 0.071422 -0.033409 512531.000000 0 0 1
21.764691 -32.275064 6.474111 39.462586 -0.977493 1.405994 0.057953 -0.039368 668416.000000 0 0 1
21.403091 -32.739424 7.767611 39.878541 -0.991796 1.374761 0.051318 -0.041435 935450.000000 0 0 1
22.475191 -33.706374 8.442611 41.382745 -0.982706 1.365341 0.057885 -0.042509 1202960.000000 0 0 1
23.698891 -33.118104 8.864911 41.677727 -0.949686 1.356458 0.057663 -0.040403 707748.000000 0 0 1
24.738991 33.391523 9.128911 42.548190 0.933160 1.354561 0.094005 -0.047841 326772.000000 0 0 1
25.867191 -33.529624 10.011611 43.515280 -0.913694 1.338646 0.101714 -0.041308 -212336.000000 0 0 1
26.636091 -32.499564 9.426811 43.064693 -0.884228 1.350111 0.083444 -0.032827 177090.000000 0 0 1
27.536991 -31.825944 10.307711 43.329269 -0.857523 1.330601 0.092168 -0.030420 580719.000000 0 0 1
28.359591 -30.773394 9.472811 42.906903 -0.826195 1.348186 0.100827 -0.029203 248558.000000 0 0 1
27.546491 -29.673234 9.081611 41.494405 -0.822549 1.350147 0.074996 -0.031611 531772.000000 0 0 1
28.122091 -28.953474 7.952611 41.138786 -0.799963 1.376260 0.104358 -0.032990 367677.000000 0 0 1
27.502891 -27.516774 7.859711 39.690766 -0.785650 1.371455 0.096161 -0.031860 104099.000000 0 0 1
28.031691 -26.632574 8.828311 39.661175 -0.759809 1.346323 0.076100 -0.027324 -167457.000000 0 0 1
27.421391 -25.349314 8.812611 38.369031 -0.746153 1.339047 0.078193 -0.023396 -228063.000000 0 0 1
28.055991 -24.322394 9.742011 38.387814 -0.714237 1.314211 0.099308 -0.039934 -154433.000000 0 0 1
29.390591 -24.068494 9.373611 39.127533 -0.686171 1.328878 0.105811 -0.029189 -833346.000000 0 0 1
30.076391 -23.457294 10.413711 39.538327 -0.662379 1.304269 0.082589 -0.032011 -665467.000000 0 0 1
31.533191 -23.313394 9.980411 40.465604 -0.636636 1.321585 0.087069 -0.030630 -444122.000000 0 0 1
31.707191 -22.214894 9.085311 39.766699 -0.611146 1.340295 0.099999 -0.030070 424837.000000 0 0 1
33.087791 -22.101994 8.729911 40.737101 -0.588912 1.354822 0.101550 -0.031049 613724.000000 0 0 1
33.252091 -21.490094 7.276511 40.255103 -0.573754 1.389037 0.096438 -0.005377 -208187.000000 0 0 1
32.822991 -20.143994 7.214111 39.181279 -0.550444 1.385618 0.107163 -0.004999 50639.300000 0 0 1
33.137591 -19.398294 5.979611 38.860642 -0.529605 1.416309 0.100612 -0.009596 13354.500000 0 0 1
32.585791 -17.987994 6.028911 37.706093 -0.504392 1.410215 0.117927 -0.009318 -30926.200000 0 0 1
33.134791 -17.322194 7.127111 38.062692 -0.481705 1.382438 0.126410 -0.015746 -58356.000000 0 0 1
32.694991 -15.989994 7.300411 37.120592 -0.454862 1.372839 0.133380 -0.020371 48211.400000 0 0 1
33.282191 -15.358094 8.618611 37.654425 -0.432336 1.339862 0.129409 -0.052637 -1055830.000000 0 0 1
34.648491 -15.255294 8.555711 38.812912 -0.414748 1.348536 0.120384 -0.043396 -1350440.000000 0 0 1
35.207091 -14.644794 9.689611 39.343333 -0.394190 1.321953 0.102108 -0.047885 1232620.000000 0 0 1
36.780891 -14.675194 9.846111 40.806141 -0.379635 1.327101 0.094052 -0.054259 1108090.000000 0 0 1
37.441791 -13.791394 8.991111 40.901471 -0.352921 1.349163 0.147147 -0.052624 -224999.000000 0 0 1
-37.422381 -13.937494 9.036611 40.943237 0.356522 1.348253 0.122276 -0.050611 174924.000000 0 0 1
-36.625781 -13.105794 8.035111 39.721187 0.343633 1.367103 0.147070 -0.066487 -293730.000000 0 0 1
-36.907781 -13.474294 6.681011 39.854445 0.350045 1.402366 0.218359 -0.080493 225682.000000 0 0 1
-36.125881 -12.766994 5.716811 38.739609 0.339703 1.422685 0.229669 -0.070111 350896.000000 0 0 1
-34.762381 -13.420294 5.341311 37.643818 0.368430 1.428425 0.195213 -0.055288 224050.000000 0 0 1
-33.858781 -13.531894 6.405711 37.021107 0.380211 1.396892 0.185094 -0.050577 -659260.000000 0 0 1
-32.832581 -14.408494 6.123211 36.374122 0.413541 1.401651 0.179609 -0.026277 -543273.000000 0 0 1
-32.321581 -15.294394 7.260711 36.487272 0.441974 1.370466 0.142028 -0.034597 -26759.600000 0 0 1
-33.233381 -16.283894 7.633811 37.787536 0.455604 1.367377 0.107913 -0.041089 -127449.000000 0 0 1
-32.754181 -16.925394 8.811611 37.907121 0.476950 1.336198 0.111295 -0.034574 -264973.000000 0 0 1
-33.851881 -17.678594 9.538711 39.363302 0.481276 1.326035 0.061431 -0.031457 -1280020.000000 0 0 1
-34.860881 -16.814294 9.972811 39.968218 0.449408 1.318613 0.074663 -0.027043 -88249.700000 0 0 1
-35.917481 -17.326694 10.731911 41.297139 0.449471 1.307908 0.083659 -0.026618 463810.000000 0 0 1
-36.770381 -18.577194 10.281411 42.460340 0.467816 1.326224 0.077761 -0.021163 -496733.000000 0 0 1
-36.152281 -19.838994 10.474111 42.547387 0.501892 1.322064 0.086616 -0.014609 -29757.600000 0 0 1
-35.710481 -20.194794 11.828911 42.696502 0.514676 1.290078 0.108193 -0.030234 313075.000000 0 0 1
-36.729681 -20.946494 12.746611 44.162214 0.518286 1.277999 0.104374 -0.053599 134791.000000 0 0 1
-36.912281 -22.207294 12.128011 44.752308 0.541612 1.296361 0.140068 -0.057951 547331.000000 0 0 1
37.988191 -22.612594 12.030111 45.816543 -0.536922 1.305110 0.142363 -0.040394 405483.000000 0 0 1
37.809691 -24.113594 11.754611 46.359563 -0.567724 1.314445 0.144367 -0.042744 -617971.000000 0 0 1
-37.894781 -24.929194 12.736611 47.113697 0.581876 1.297052 0.148579 -0.041500 306609.000000 0 0 1
37.789291 -26.243954 12.804811 47.757082 -0.607013 1.299351 0.139330 -0.046481 398857.000000 0 0 1
36.342891 -26.316774 13.372711 46.821018 -0.626734 1.281150 0.130545 -0.049954 65332.000000 0 0 1
35.294791 -25.942644 12.481811 45.547104 -0.633850 1.293203 0.125421 -0.036847 265590.000000 0 0 1
34.186091 -25.437784 13.218311 44.614946 -0.639713 1.270006 0.113176 -0.013005 52205.300000 0 0 1
34.174491 -23.892894 13.539811 43.841678 -0.610151 1.256829 0.123803 -0.023099 -667651.000000 0 0 1
35.092691 -23.509994 14.517711 44.665207 -0.590265 1.239749 0.136353 -0.033974 -301822.000000 0 0 1
35.015391 -22.135694 14.917311 44.029453 -0.563739 1.225152 0.131793 -0.041208 20043.900000 0 0 1
36.279391 -21.675394 15.686511 45.078638 -0.538548 1.215380 0.110427 -0.027302 50361.200000 0 0 1
36.373491 -20.240594 16.026611 44.604538 -0.507794 1.203274 0.126133 -0.007964 119411.000000 0 0 1
35.963291 -20.068794 17.389511 44.704697 -0.508992 1.171265 0.122039 -0.009123 20798.700000 0 0 1
36.178091 -18.641494 17.916611 44.467567 -0.475789 1.156098 0.106181 0.001076 -557177.000000 0 0 1
35.479291 -17.589894 17.296811 43.213009 -0.460265 1.158986 0.104759 -0.011920 -109466.000000 0 0 1
35.697291 -16.266894 17.804511 43.080263 -0.427576 1.144736 0.096775 -0.008494 -198219.000000 0 0 1
37.119791 -15.672094 17.897811 44.088832 -0.399499 1.152779 0.082444 -0.016929 -408481.000000 0 0 1
37.848491 -16.216194 18.930611 45.319325 -0.404789 1.139866 0.094197 -0.006173 275000.000000 0 0 1
-37.276581 -15.389994 19.220111 44.674468 0.391543 1.126053 0.071789 -0.010298 496945.000000 0 0 1
-36.715981 -15.484094 20.666911 44.888101 0.399095 1.092340 0.067405 -0.009607 -104896.000000 0 0 1
-35.944981 -16.610594 20.990311 44.816812 0.432880 1.083365 0.082600 -0.005903 77403.200000 0 0 1
-35.463881 -16.513394 22.297011 45.028166 0.435784 1.052755 0.077260 -0.007663 78807.900000 0 0 1
-34.607381 -17.760794 22.709811 45.042781 0.474158 1.042360 0.078166 -0.009149 -449933.000000 0 0 1
-35.353081 -18.965894 22.720811 46.106190 0.492397 1.055500 0.078918 -0.010047 570093.000000 0 0 1
-34.518181 -20.084094 22.984911 46.077997 0.526960 1.048552 0.059495 0.000028 712693.000000 0 0 1
-33.265481 -20.470194 22.114311 44.885007 0.551636 1.055620 0.056098 0.001192 387314.000000 0 0 1
-32.156981 -19.613894 22.245411 43.745109 0.547698 1.037327 0.058855 0.005267 -633694.000000 0 0 1
-31.023781 -20.289494 21.789411 42.999035 0.579181 1.039395 0.064057 0.002036 -299505.000000 0 0 1
-29.779581 -19.355594 21.781511 41.664094 0.576348 1.020677 0.074157 -0.001443 -161046.000000 0 0 1
-29.284681 -19.108794 23.087711 41.902040 0.578144 0.987243 0.059410 -0.004390 569806.000000 0 0 1
-28.201981 -18.161394 23.004711 40.674374 0.572129 0.969657 0.079488 -0.008069 129440.000000 0 0 1
-27.634181 -17.835894 24.359811 40.928810 0.573155 0.933313 0.070172 -0.019931 -791108.000000 0 0 1
-26.704981 -16.769294 24.223311 39.763476 0.560715 0.915764 0.081069 -0.024805 72026.500000 0 0 1
-26.362981 -16.138794 25.455911 40.043362 0.549325 0.881870 0.082760 -0.036653 550003.000000 0 0 1
-25.260981 -16.875194 26.305811 40.185632 0.588949 0.857133 0.068147 -0.026943 41988.400000 0 0 1
-25.627781 -18.220794 26.719711 41.264070 0.618056 0.866458 0.081925 -0.030513 908067.000000 0 0 1
-24.583481 -18.738194 27.612711 41.447910 0.651281 0.841691 0.072601 -0.028674 1012380.000000 0 0 1
-25.106981 -20.076894 28.266611 42.807049 0.674530 0.849543 0.059229 -0.015706 52699.800000 0 0 1
-26.188481 -19.865894 29.139611 43.927295 0.648966 0.845496 0.063510 -0.024439 -73376.600000 0 0 1
-26.622381 -21.081094 29.770311 45.160105 0.669755 0.851019 0.053634 -0.015883 94431.800000 0 0 1
-27.989781 -20.954694 30.483711 46.387322 0.642640 0.853757 0.074806 -0.019470 -413213.000000 0 0 1
-27.763681 -20.246394 31.670611 46.730783 0.630082 0.826132 0.083411 -0.030685 1214280.000000 0 0 1
-28.947681 -20.139194 32.509511 47.962732 0.607841 0.826020 0.086351 -0.031339 1244140.000000 0 0 1
-30.127081 -19.245794 32.002211 47.981070 0.568476 0.840654 0.074731 -0.033873 -50298.500000 0 0 1
-30.907981 -19.923794 30.998111 48.095153 0.572581 0.870406 0.086780 -0.034218 -377403.000000 0 0 1
-32.188281 -19.377094 31.154711 48.807512 0.541883 0.878485 0.097123 -0.040010 -502662.000000 0 0 1
-33.143881 -19.964194 30.080411 49.009356 0.542145 0.909971 0.093709 -0.020333 -129953.000000 0 0 1
-33.229181 -19.207394 28.930411 48.063199 0.524107 0.924888 0.082130 -0.028070 633557.000000 0 0 1
-34.382481 -19.715594 28.260411 48.677618 0.520646 0.951377 0.085363 -0.023596 332519.000000 0 0 1
-34.912681 -18.761894 27.174211 48.055611 0.493114 0.969788 0.081757 -0.015868 -127190.000000 0 0 1
-36.063881 -19.284194 26.564611 48.766405 0.491039 0.994727 0.069681 -0.015926 101890.000000 0 0 1
-36.918881 -18.288194 26.021511 48.729671 0.459930 1.007475 0.099593 -0.011774 -262741.000000 0 0 1
-38.039881 -18.878094 25.189411 49.375312 0.460660 1.035423 0.098150 -0.011014 -702448.000000 0 0 1
37.162591 -19.435794 25.899911 49.291111 -0.481873 1.017555 0.096078 -0.006853 -71566.700000 0 0 1
35.975791 -19.359694 25.101511 47.949360 -0.493685 1.019842 0.120638 -0.015163 202698.000000 0 0 1
34.822791 -20.098994 25.785811 47.765096 -0.523471 1.000542 0.095653 -0.016100 -547529.000000 0 0 1
34.220691 -19.462694 26.846711 47.650793 -0.517117 0.972295 0.093573 -0.010615 -130723.000000 0 0 1
33.093191 -20.195394 27.259211 47.392804 -0.547928 0.957977 0.072639 -0.012240 -134745.000000 0 0 1
-30.102369 -5.033894 33.403231 45.246752 0.165693 0.740330 0.077520 -0.039876 -72618.500000 0 0 1
-31.010969 -5.315794 32.346294 45.124501 0.169767 0.771561 0.096500 -0.031164 429807.000000 0 0 1
-31.127909 -4.214294 31.459170 44.456567 0.134568 0.784646 0.098216 -0.031381 -263971.000000 0 0 1
-32.172409 -4.278394 30.321981 44.416113 0.132208 0.819373 0.095054 -0.036436 6154.150000 0 0 1
-31.871119 -5.147994 29.177091 43.515201 0.160142 0.835909 0.091754 -0.034691 769214.000000 0 0 1
-30.593299 -4.929894 28.544861 42.131495 0.159769 0.826413 0.080462 -0.031218 654699.000000 0 0 1
-30.420609 -5.920594 27.373421 41.349378 0.192221 0.847308 0.077505 -0.030230 -365003.000000 0 0 1
-31.014229 -5.612294 26.176191 40.970394 0.179021 0.877722 0.088034 -0.029059 -435427.000000 0 0 1
-30.815039 -6.615694 25.183131 40.342584 0.211480 0.896648 0.103112 -0.027159 -54584.400000 0 0 1
-31.444629 -6.312994 23.805521 39.941475 0.198131 0.932273 0.111422 -0.026465 190988.000000 0 0 1
-30.893169 -5.170394 23.114151 38.927944 0.165827 0.935063 0.115632 -0.026195 304273.000000 0 0 1
-31.625399 -4.875794 21.940211 38.798352 0.152969 0.969765 0.118789 -0.025356 323102.000000 0 0 1
-31.020649 -3.572794 21.309111 37.803753 0.114669 0.971965 0.112363 -0.027772 845910.000000 0 0 1
-29.744399 -3.809394 20.702711 36.439580 0.127378 0.966555 0.140649 -0.030534 463934.000000 0 0 1
-29.144419 -2.563194 20.357811 35.642778 0.087722 0.962875 0.153964 -0.032399 499370.000000 0 0 1
-27.679489 -2.711994 19.847611 34.167773 0.097667 0.950979 0.160295 -0.035529 272216.000000 0 0 1
-27.444689 -3.364894 18.600011 33.324073 0.121998 0.978635 0.185981 -0.046285 507606.000000 0 0 1
-26.153809 -2.953194 18.125411 31.957372 0.112440 0.967725 0.172450 -0.041249 231388.000000 0 0 1
-26.007879 -3.478594 16.649111 31.075767 0.132962 1.005390 0.175922 -0.047111 -297070.000000 0 0 1
-26.932099 -2.942994 15.752811 31.339276 0.108843 1.044130 0.177782 -0.045878 8080.210000 0 0 1
-26.654139 -3.472594 14.512911 30.547121 0.129554 1.075720 0.175813 -0.046874 826306.000000 0 0 1
-27.993069 -3.714994 13.702711 31.387535 0.131940 1.119019 0.199110 -0.046922 798062.000000 0 0 1
-28.541539 -2.566494 13.153311 31.531190 0.089680 1.140487 0.207284 -0.048001 -516465.000000 0 0 1
-29.836859 -2.823594 12.702711 32.551032 0.094353 1.169904 0.206985 -0.043664 -344134.000000 0 0 1
-30.456979 -1.593194 11.990611 32.771033 0.052262 1.196207 0.201571 -0.036976 -193615.000000 0 0 1
-29.787849 -1.367694 10.767511 31.703719 0.045882 1.224274 0.237668 -0.042234 274638.000000 0 0 1
-30.149649 -0.133094 10.072011 31.787804 0.004414 1.248388 0.227312 -0.033956 26334.700000 0 0 1
-31.457109 -0.080094 9.254811 32.790359 0.002546 1.284666 0.216611 -0.021467 -7056.170000 0 0 1
-31.506259 -0.898594 8.108711 32.545399 0.028513 1.318993 0.219770 -0.035357 -299440.000000 0 0 1
-32.785879 -0.944094 7.532711 33.653334 0.028788 1.345051 0.203794 -0.042539 -128019.000000 0 0 1
-32.853679 -2.010694 6.387511 33.529202 0.061125 1.379119 0.246419 -0.052830 159858.000000 0 0 1
-32.223049 -1.447494 5.215011 32.674401 0.044891 1.410505 0.252208 -0.067649 935584.000000 0 0 1
-33.118409 -0.632594 4.424811 33.418680 0.019099 1.438001 0.228903 -0.046735 322716.000000 0 0 1
-32.464769 -0.217194 3.085111 32.611751 0.006690 1.476053 0.228299 -0.045098 -147881.000000 0 0 1
-32.482419 -1.311194 2.223211 32.584804 0.040344 1.502515 0.204930 -0.064868 246957.000000 0 0 1
-32.204289 -1.021294 0.887011 32.232686 0.031702 1.543274 0.212562 -0.075532 -624807.000000 0 0 1
-33.058569 -1.863194 -0.006389 33.111033 0.056301 1.570989 0.188250 -0.070526 764955.000000 0 0 1
-34.447981 -1.479794 0.061711 34.479806 0.042931 1.569007 0.198662 -0.059753 1086500.000000 0 0 1
-35.261997 -2.002894 -0.980089 35.332430 0.056739 1.598539 0.202650 -0.063085 266706.000000 0 0 1
-36.750549 -1.590594 -0.979989 36.798006 0.043254 1.597431 0.190096 -0.049416 208096.000000 0 0 1
-37.523299 -2.240394 0.025411 37.590131 0.059636 1.570120 0.182867 -0.050480 211006.000000 0 0 1
37.354153 -2.013194 -0.095489 37.408486 -0.053843 1.573349 0.153367 -0.039119 362437.000000 0 0 1
36.443783 -3.041394 0.688911 36.576960 -0.083261 1.551961 0.179271 -0.049997 98223.300000 0 0 1
36.441753 -3.081594 2.095411 36.631794 -0.084361 1.513563 0.179461 -0.055157 17836.600000 0 0 1
35.940753 -4.316494 2.535711 36.287734 -0.119528 1.500861 0.167094 -0.047939 -162852.000000 0 0 1
35.931823 -4.467894 4.084911 36.438228 -0.123709 1.458455 0.145321 -0.036859 -55666.900000 0 0 1
35.152833 -3.549994 4.797411 35.655845 -0.100646 1.435839 0.164302 -0.037490 -6271.740000 0 0 1
35.040263 -4.002894 6.102211 35.792180 -0.113744 1.399469 0.155712 -0.046317 -126103.000000 0 0 1
34.367413 -2.969094 7.015211 35.201531 -0.086179 1.370166 0.176351 -0.041514 960087.000000 0 0 1
32.951093 -2.779394 6.821311 33.764328 -0.084150 1.367369 0.194053 -0.050371 1079780.000000 0 0 1
32.387543 -1.727894 7.598911 33.311890 -0.053300 1.340656 0.204672 -0.041181 -811148.000000 0 0 1
30.888263 -1.668394 7.584511 31.849539 -0.053961 1.330350 0.205988 -0.052706 -1315740.000000 0 0 1
30.236663 -0.838594 6.566211 30.952773 -0.027727 1.357036 0.246151 -0.056859 2441010.000000 0 0 1
28.779363 -0.718094 6.676911 29.552471 -0.024947 1.342895 0.223566 -0.042574 2294150.000000 0 0 1
27.888663 -2.012394 6.600111 28.729579 -0.072033 1.338994 0.269683 -0.062013 -577929.000000 0 0 1
27.906163 -2.854094 7.713311 29.092867 -0.101920 1.302460 0.224740 -0.063360 549591.000000 0 0 1
27.057363 -3.989994 7.531511 28.368020 -0.146409 1.302081 0.227193 -0.071156 -63313.900000 0 0 1
27.367263 -5.156194 8.492611 29.114908 -0.186224 1.274800 0.203430 -0.036463 -128816.000000 0 0 1
26.944363 -4.976794 9.829111 29.109768 -0.182648 1.226370 0.196722 -0.038051 386738.000000 0 0 1
27.232163 -6.182094 10.536111 29.846585 -0.223231 1.210011 0.173240 -0.024289 -318893.000000 0 0 1
26.573063 -6.169994 11.924911 29.772470 -0.228147 1.158696 0.157929 -0.015827 41892.900000 0 0 1
25.208663 -6.408594 11.626511 28.490744 -0.248948 1.150446 0.193609 -0.021229 -163074.000000 0 0 1
24.395763 -6.293994 12.778811 28.250055 -0.252489 1.101402 0.207553 -0.030059 241089.000000 0 0 1
23.263563 -7.338994 12.903911 27.596469 -0.305590 1.084231 0.195652 -0.033431 -104253.000000 0 0 1
23.676263 -8.623194 13.291411 28.488357 -0.349280 1.085403 0.176390 -0.034789 677949.000000 0 0 1
22.584763 -9.571894 13.291511 27.899049 -0.400872 1.074224 0.236166 -0.070612 608428.000000 0 0 1
23.039363 -10.792594 14.112811 29.094050 -0.438084 1.064347 0.170902 -0.059483 -35837.900000 0 0 1
23.106163 -10.566094 15.520911 29.773071 -0.428895 1.022415 0.137315 -0.050187 302947.000000 0 0 1
23.439063 -11.793594 16.162111 30.817079 -0.466172 1.018724 0.122224 -0.052163 -144371.000000 0 0 1
23.326563 -11.760994 17.675711 31.541723 -0.466993 0.975938 0.129927 -0.060815 -427646.000000 0 0 1
21.984263 -11.759594 18.080311 30.797622 -0.491184 0.943364 0.118374 -0.055217 -299187.000000 0 0 1
21.836463 -12.142294 19.465211 31.672715 -0.507481 0.908951 0.135408 -0.049596 111458.000000 0 0 1
22.121763 -11.003394 20.480311 32.091902 -0.461567 0.878668 0.111939 -0.051945 -563873.000000 0 0 1
21.173063 -9.997094 20.584711 31.176446 -0.441129 0.849625 0.101318 -0.052169 -501078.000000 0 0 1
21.251363 -8.963594 19.620411 30.280802 -0.399148 0.865908 0.115990 -0.048965 -1403690.000000 0 0 1
22.018563 -7.717894 20.108311 30.801415 -0.337136 0.859472 0.112341 -0.031838 -271718.000000 0 0 1
23.394863 -7.865894 20.280811 31.945315 -0.324349 0.882969 0.149571 -0.043483 -375018.000000 0 0 1
24.126863 -8.054394 19.082311 31.798009 -0.322202 0.927157 0.161620 -0.049092 -1441190.000000 0 0 1
25.575463 -8.498194 19.303811 33.150576 -0.320802 0.949233 0.187671 -0.054754 -397740.000000 0 0 1
25.738063 -9.824994 19.812111 33.933731 -0.364658 0.947337 0.152501 -0.059043 -449417.000000 0 0 1
26.976363 -10.383294 19.486711 34.860706 -0.367425 0.977632 0.146125 -0.057997 -351063.000000 0 0 1
27.051663 -11.875994 19.881411 35.610423 -0.413679 0.978457 0.112809 -0.051429 44359.200000 0 0 1
26.188663 -12.612294 19.049011 34.753141 -0.448814 0.990677 0.122137 -0.053506 -2627.030000 0 0 1
26.078563 -13.969094 19.456911 35.409016 -0.491763 0.989042 0.077168 -0.045182 -167286.000000 0 0 1
25.182663 -14.777394 18.515211 34.573847 -0.530663 1.005665 0.091634 -0.040347 -349042.000000 0 0 1
25.648463 -14.896694 17.178511 34.276178 -0.526184 1.045835 0.104098 -0.041432 -122368.000000 0 0 1
24.744563 -15.469794 16.279611 33.416069 -0.558728 1.061940 0.079327 -0.036543 -321483.000000 0 0 1
24.407663 -16.992794 16.417711 33.971021 -0.608176 1.066392 0.050466 -0.024329 550096.000000 0 0 1
25.567863 -17.793094 16.107911 35.068142 -0.607980 1.093554 0.077066 -0.023451 954974.000000 0 0 1
25.233063 -19.127394 16.392811 35.655139 -0.648620 1.093071 0.046558 -0.003728 72236.200000 0 0 1
26.462863 -19.940994 15.959111 36.777977 -0.645767 1.121945 0.055112 0.004566 43462.600000 0 0 1
26.793463 -19.776994 14.613311 36.367128 -0.635859 1.157285 0.064156 -0.008910 26966.700000 0 0 1
27.559363 -20.921794 14.229311 37.412742 -0.649334 1.180640 0.080991 -0.012683 119793.000000 0 0 1
28.074463 -20.921094 12.773211 37.269593 -0.640422 1.220981 0.076146 -0.033630 -40269.900000 0 0 1
27.016763 -21.137094 11.848211 36.291353 -0.663898 1.238225 0.080970 -0.029144 253155.000000 0 0 1
27.330763 -20.770294 10.567711 35.917297 -0.649845 1.272153 0.104903 -0.029218 79487.000000 0 0 1
26.097263 -20.781494 9.625411 34.721552 -0.672486 1.289900 0.072717 -0.023857 546647.000000 0 0 1
25.503763 -22.071594 9.335711 34.996467 -0.713381 1.300765 0.060431 -0.026040 294936.000000 0 0 1
24.095063 -21.987194 9.222611 33.897866 -0.739689 1.295252 0.040108 -0.012394 426169.000000 0 0 1
23.487463 -23.066294 8.257911 33.939769 -0.776351 1.325019 0.046875 -0.016599 -103009.000000 0 0 1
23.704663 -24.342094 8.711011 35.076065 -0.798664 1.319824 0.045400 -0.017363 -4010.680000 0 0 1
23.490263 -25.166824 7.585511 35.251971 -0.819841 1.353920 0.046384 -0.009752 -605207.000000 0 0 1
22.138863 -25.857424 7.406011 34.836542 -0.862720 1.356568 0.046879 -0.014945 -852147.000000 0 0 1
21.126363 -24.925994 7.175511 33.453196 -0.867718 1.354623 0.034179 -0.012462 -605780.000000 0 0 1
19.882263 -25.598344 7.308611 33.226426 -0.910424 1.349019 0.043262 -0.028014 -436409.000000 0 0 1
18.702963 -24.673894 7.151011 31.776388 -0.922191 1.343811 0.049816 -0.031461 -1050420.000000 0 0 1
18.511863 -23.990394 5.925711 30.876239 -0.913591 1.377680 0.057205 -0.031339 -171164.000000 0 0 1
17.626963 -22.934294 6.142511 29.570629 -0.915506 1.361549 0.068169 -0.009003 -454876.000000 0 0 1
17.334663 -22.147894 4.850811 28.540324 -0.906707 1.400004 0.076270 -0.005545 -172073.000000 0 0 1
16.414663 -21.075794 5.034211 27.184068 -0.909092 1.384531 0.099295 -0.003475 229224.000000 0 0 1
16.085863 -20.476694 3.799711 26.315163 -0.904917 1.425897 0.100338 -0.006993 120297.000000 0 0 1
15.106963 -19.289894 3.868211 24.804907 -0.906412 1.414212 0.092486 0.000766 -280637.000000 0 1 0
15.697663 -18.134394 4.303211 24.367817 -0.857298 1.393271 0.071292 0.002468 76791.100000 0 1 0
14.774863 -17.049294 4.324011 22.971114 -0.856746 1.381430 0.041712 0.011804 417067.000000 0 1 0
15.474663 -15.684694 4.654911 22.519836 -0.792139 1.362593 0.032660 0.002514 -287424.000000 0 1 0
16.145263 -15.751194 5.911611 23.317735 -0.773044 1.314475 0.060703 -0.006142 957978.000000 0 1 0
17.118363 -14.677094 6.150411 23.372698 -0.708768 1.304516 0.065966 -0.005332 2067590.000000 0 1 0
18.487063 -14.888494 5.360011 24.334512 -0.677993 1.348711 0.088798 -0.033277 200416.000000 0 1 0
19.443463 -13.889294 5.522011 24.524546 -0.620287 1.343686 0.136932 -0.031328 -109478.000000 0 1 0
20.714263 -14.411794 5.193811 25.763466 -0.607863 1.367809 0.168762 -0.030012 1096440.000000 0 0 1
21.881663 -13.328694 4.991511 26.103188 -0.547103 1.378389 0.154690 -0.026323 1062170.000000 0 0 1
22.160363 -12.619194 6.216211 26.248181 -0.517652 1.331700 0.181297 -0.031270 555409.000000 0 0 1
23.146963 -11.606794 5.978711 26.575262 -0.464798 1.343881 0.189633 -0.030083 111898.000000 0 0 1
23.507363 -10.825894 7.252111 26.877299 -0.431578 1.297587 0.210038 -0.033256 -278627.000000 0 0 1
24.239063 -11.667994 8.109311 28.096889 -0.448634 1.278012 0.209382 -0.016259 419179.000000 0 0 1
24.653163 -10.960194 9.326011 28.546081 -0.418334 1.237986 0.244231 -0.043044 92641.400000 0 0 1
25.317363 -11.959294 10.271911 29.824583 -0.441305 1.219185 0.198913 -0.034124 -349132.000000 0 0 1
24.371263 -12.815794 10.832311 29.589559 -0.484118 1.195997 0.206832 -0.037992 -89002.000000 0 0 1
24.898263 -13.613094 11.871911 30.760073 -0.500344 1.174557 0.202524 -0.046471 -140665.000000 0 0 1
23.921063 -14.634394 12.512311 30.707339 -0.549035 1.151115 0.146454 -0.050287 -257075.000000 0 0 1
22.978963 -14.035194 13.338911 30.049059 -0.548312 1.110845 0.135467 -0.056157 -89847.000000 0 0 1
21.763163 -14.774894 13.377411 29.510809 -0.596420 1.100326 0.102563 -0.050552 521020.000000 0 0 1
20.540463 -13.976494 13.883811 28.460731 -0.597476 1.061202 0.092127 -0.050718 -1058210.000000 0 0 1
20.652263 -13.717494 15.284611 29.125675 -0.586302 1.018338 0.100922 -0.052078 -117932.000000 0 0 1
19.799763 -12.733794 15.824111 28.365165 -0.571530 0.978978 0.139590 -0.065830 -81452.900000 0 0 1
18.275563 -12.978494 15.821911 27.436661 -0.617509 0.956149 0.176939 -0.066405 -218086.000000 0 0 1
17.773663 -13.080994 14.433111 26.369114 -0.634465 0.991603 0.197975 -0.074841 -214038.000000 0 0 1
16.373663 -12.960294 14.320111 25.320577 -0.669557 0.969694 0.251656 -0.079958 -135972.000000 0 0 1
15.895963 -11.543094 13.995411 24.120452 -0.628071 0.951785 0.203345 -0.071521 -471478.000000 0 1 0
15.973763 -10.580194 15.017411 24.343875 -0.585007 0.906016 0.168010 -0.054639 142036.000000 0 1 0
15.497963 -9.309794 14.686111 23.292509 -0.540942 0.888589 0.150061 -0.039207 -508155.000000 0 1 0
16.024163 -8.163694 15.675811 23.856880 -0.471188 0.853862 0.165722 -0.037882 -48703.700000 0 1 0
17.418063 -8.001394 15.555211 24.685538 -0.430621 0.889070 0.159911 -0.048163 -2048.980000 0 1 0
18.037963 -8.833594 16.579311 26.043695 -0.455392 0.880720 0.161389 -0.049713 658250.000000 0 0 1
19.612063 -8.872294 16.437911 27.084230 -0.424839 0.918619 0.131228 -0.044419 1193710.000000 0 0 1
20.183163 -7.583894 16.705411 27.275378 -0.359431 0.911612 0.110723 -0.047454 555504.000000 0 0 1
21.502563 -7.477194 16.172211 27.925061 -0.334656 0.953137 0.117180 -0.033794 452040.000000 0 0 1
22.256363 -6.137194 16.324211 28.275266 -0.269063 0.955339 0.098409 -0.025096 84964.400000 0 0 1
22.900763 -5.877194 17.573511 29.458694 -0.251216 0.931604 0.134247 -0.034988 318425.000000 0 0 1
23.136863 -4.458994 17.683611 29.460264 -0.190388 0.926979 0.136285 -0.021283 -74939.400000 0 0 1
-5.671109 -33.078723 -6.251389 34.138589 1.401004 1.754953 0.084622 -0.034480 -423181.000000 0 0 1
-6.253909 -31.835323 -6.340489 33.057541 1.376821 1.763794 0.075638 -0.030091 -283345.000000 0 0 1
-5.765209 -30.959623 -5.388889 31.949586 1.386688 1.740275 0.096174 -0.038988 -900232.000000 0 0 1
-6.390209 -29.524323 -5.357689 30.679395 1.357645 1.746331 0.092087 -0.035354 200139.000000 0 0 1
-7.749809 -29.395323 -5.009789 30.809780 1.313021 1.734125 0.081506 -0.030097 -139242.000000 0 0 1
-8.607309 -29.746023 -6.073489 31.556282 1.289129 1.764470 0.083021 -0.025348 642339.000000 0 0 1
-10.148609 -29.580123 -5.707789 31.789256 1.240292 1.751326 0.139655 -0.013389 1284700.000000 0 0 1
-10.989609 -30.118423 -6.696489 32.752617 1.220927 1.776705 0.112433 -0.014074 562563.000000 0 0 1
-12.363109 -29.901123 -6.299989 32.963821 1.178735 1.763098 0.103222 -0.011172 1460890.000000 0 0 1
-13.440909 -30.482423 -7.276889 34.099696 1.155502 1.785851 0.119060 -0.020094 368444.000000 0 0 1
-13.510209 -29.789323 -8.508589 33.798308 1.145015 1.825280 0.148505 -0.034389 248438.000000 0 0 1
-14.528709 -30.325423 -9.345689 34.900667 1.124013 1.841884 0.144929 -0.031092 247749.000000 0 0 1
-14.876009 -29.346523 -10.482289 34.531036 1.101637 1.879225 0.192916 -0.027658 -180517.000000 0 0 1
-15.502709 -28.114223 -10.135389 33.667041 1.066865 1.876588 0.200735 -0.029510 513029.000000 0 0 1
-14.572609 -27.118423 -9.727789 32.286215 1.077702 1.876850 0.176747 -0.027884 214923.000000 0 0 1
-15.264509 -25.744823 -9.428189 31.379801 1.035602 1.875965 0.166441 -0.020252 211137.000000 0 0 1
-15.732409 -25.026523 -10.591589 31.400913 1.009591 1.914846 0.188855 -0.033861 194392.000000 0 0 1
-16.158409 -23.742423 -10.309889 30.513778 0.973229 1.915456 0.132217 -0.011971 -508765.000000 0 0 1
-16.694609 -22.968423 -11.502089 30.635869 0.942276 1.955673 0.159632 -0.015210 -540474.000000 0 0 1
-17.890009 -23.603623 -11.885789 31.913249 0.922236 1.952434 0.171134 -0.024648 -556670.000000 0 0 1
-18.339109 -23.022323 -13.105189 32.219501 0.898145 1.989687 0.196283 -0.033765 854312.000000 0 0 1
-19.895809 -23.216223 -13.399889 33.382529 0.862265 1.983846 0.169613 -0.015090 1493770.000000 0 0 1
-20.306009 -24.578523 -13.554389 34.643315 0.880301 1.972792 0.201033 -0.022433 21853.800000 0 0 1
-20.282509 -25.277023 -12.296389 34.662794 0.894588 1.933436 0.216520 -0.030716 -1667430.000000 0 0 1
-20.381209 -26.807523 -12.527689 35.930210 0.920749 1.926945 0.216613 -0.038788 844950.000000 0 0 1
-19.326109 -27.508823 -13.227489 36.127556 0.958366 1.945646 0.204627 -0.039549 1141190.000000 0 0 1
-17.971209 -27.221423 -12.849189 35.058122 0.987294 1.946053 0.223877 -0.040853 480692.000000 0 0 1
-17.014409 -28.367323 -13.308689 35.655523 1.030532 1.953314 0.196920 -0.032840 -72396.100000 0 0 1
-16.901809 -28.532923 -14.714389 36.281016 1.036012 1.988396 0.193891 -0.041281 244237.000000 0 0 1
-16.052209 -29.580423 -15.247089 36.947917 1.073603 1.996173 0.199879 -0.040441 465070.000000 0 0 1
-16.581609 -30.996723 -14.996789 38.218455 1.079583 1.974032 0.186727 -0.043249 36650.600000 0 0 1
-16.588509 -31.459123 -13.653989 38.095754 1.085545 1.937363 0.182690 -0.036478 -68433.900000 0 0 1
-16.992309 -32.805923 -13.559589 39.355173 1.092880 1.922549 0.171936 -0.032344 -404165.000000 0 0 1
-17.514609 -33.055123 -12.120489 39.323135 1.083547 1.884126 0.194061 -0.038753 193186.000000 0 0 1
-18.867309 -32.714623 -11.848889 39.580527 1.047667 1.874820 0.227986 -0.038265 508524.000000 0 0 1
-19.256809 -31.316823 -11.739089 38.592413 1.019491 1.879875 0.228255 -0.046606 -142026.000000 0 0 1
-18.580709 -30.509023 -10.581589 37.256050 1.023768 1.858784 0.227622 -0.042428 -538630.000000 0 0 1
-19.089509 -30.713823 -9.346889 37.351207 1.014697 1.823728 0.236703 -0.052218 -226683.000000 0 0 1
-18.548809 -29.831123 -8.377189 36.112761 1.014506 1.804902 0.214842 -0.035958 109235.000000 0 0 1
-19.079909 -29.954523 -6.920989 36.183097 1.003641 1.763259 0.242909 -0.045183 -120713.000000 0 0 1
-18.378609 -30.984623 -6.292289 36.570658 1.035427 1.743715 0.231321 -0.040563 106251.000000 0 0 1
-18.639809 -30.997223 -4.908289 36.501529 1.029394 1.705673 0.243391 -0.056776 -801109.000000 0 0 1
-18.078109 -32.260323 -4.184189 37.216313 1.060017 1.683463 0.219166 -0.042660 651817.000000 0 0 1
-16.674009 -32.231823 -3.907189 36.499029 1.093393 1.678051 0.196588 -0.035543 608454.000000 0 0 1
-16.407709 -31.333823 -2.844989 35.484016 1.088414 1.651059 0.191338 -0.040111 -183837.000000 0 0 1
-14.959809 -30.768323 -2.718789 34.320219 1.118243 1.650098 0.183584 -0.037948 -442236.000000 0 0 1
-13.963509 -31.683523 -2.564089 34.718868 1.155688 1.644717 0.137495 -0.025877 -569053.000000 0 0 1
-12.738709 -30.944223 -2.552789 33.560936 1.180273 1.646934 0.137055 -0.024392 -85955.600000 0 0 1
-11.482009 -31.750423 -2.286089 33.840096 1.223796 1.638403 0.139173 -0.033862 -698259.000000 0 0 1
-11.274809 -32.286723 -1.006189 34.213539 1.234827 1.600210 0.160241 -0.027396 -148591.000000 0 0 1
-10.214709 -33.237523 -1.005789 34.786274 1.272633 1.599714 0.169293 -0.040605 28139.100000 0 0 1
-8.950109 -32.640823 -0.354389 33.847502 1.303174 1.581267 0.180942 -0.053701 -422328.000000 0 0 1
-9.041809 -32.623623 1.063911 33.870149 1.300427 1.539380 0.192847 -0.051798 -48617.800000 0 0 1
-7.907409 -32.051023 1.712911 33.056456 1.328914 1.518955 0.203929 -0.055303 747762.000000 0 0 1
-6.958809 -33.131823 2.287611 33.931930 1.363772 1.503327 0.201175 -0.060178 24335.100000 0 0 1
-7.672909 33.588706 3.282011 34.609916 -1.346213 1.475825 0.222318 -0.067930 29929.400000 0 0 1
-6.913209 32.570106 3.892711 33.522492 -1.361644 1.454411 0.185747 -0.058564 755876.000000 0 0 1
-5.920309 33.161006 5.013611 34.056404 -1.394125 1.423044 0.184434 -0.052784 1142850.000000 0 0 1
-4.777609 -33.593023 4.514711 34.230095 1.429523 1.438518 0.187316 -0.052583 287216.000000 0 0 1
-3.942909 -33.197023 5.633311 33.901668 1.452577 1.403856 0.177082 -0.049399 980058.000000 0 0 1
-2.619709 -32.542123 5.090511 33.041882 1.490467 1.416118 0.215428 -0.048895 549627.000000 0 0 1
-2.799209 -31.254623 4.544811 31.707134 1.481473 1.426964 0.222740 -0.050823 111101.000000 0 0 1
-3.500809 -31.272523 3.295911 31.639997 1.459315 1.466438 0.207039 -0.056141 27856.500000 0 0 1
-3.618509 -29.920323 2.539911 30.245173 1.450443 1.486720 0.198514 -0.054901 725411.000000 0 0 1
-2.301209 -29.472323 2.179411 29.642254 1.492874 1.497206 0.159386 -0.054658 594381.000000 0 0 1
-2.285109 -28.266923 1.441811 28.395766 1.490131 1.519999 0.161642 -0.051611 35368.800000 0 0 1
-2.282209 -26.933323 2.299911 27.127513 1.486263 1.485913 0.168778 -0.052604 -165978.000000 0 0 1
-2.514909 -25.814423 1.505911 25.980319 1.473680 1.512800 0.167379 -0.059499 -241889.000000 0 0 1
-2.726909 -24.593323 2.221011 24.843520 1.460367 1.481277 0.137866 -0.055462 456379.000000 0 1 0
-4.082409 -24.411223 2.980111 24.928998 1.405095 1.450966 0.129597 -0.043765 79703.600000 0 1 0
-4.307609 -25.260723 4.133111 25.956545 1.401895 1.410884 0.162490 -0.043616 41351.600000 0 0 1
-5.059209 -24.466523 5.044811 25.488360 1.366889 1.371555 0.132473 -0.039099 234258.000000 0 0 1
-5.954509 -25.214623 6.036511 26.602122 1.338892 1.341884 0.165833 -0.038644 -73257.600000 0 0 1
-5.150309 -25.795123 7.039911 27.230028 1.373726 1.309291 0.161217 -0.038168 59360.900000 0 0 1
-5.848809 -26.599623 7.981411 28.380477 1.354357 1.285722 0.164007 -0.040324 199087.000000 0 0 1
-4.989309 -27.023123 9.213611 28.983323 1.388221 1.247289 0.153659 -0.040264 324753.000000 0 0 1
-4.616109 -26.038623 10.190011 28.339984 1.395340 1.202997 0.137464 -0.045799 608958.000000 0 0 1
-5.745909 -25.325923 10.717411 28.094141 1.347695 1.179397 0.130584 -0.036841 601172.000000 0 0 1
-5.315409 -24.325323 11.852211 27.576255 1.355664 1.126528 0.111488 -0.039687 108457.000000 0 0 1
-4.553109 -24.889223 12.871111 28.387845 1.389862 1.100218 0.113792 -0.043875 -488839.000000 0 0 1
-3.730009 -23.948623 13.487611 27.737433 1.416287 1.062991 0.096439 -0.046477 -290627.000000 0 0 1
-2.793909 -24.576823 14.523611 28.683819 1.457602 1.039867 0.099157 -0.049991 -451993.000000 0 0 1
-3.352409 -24.932523 15.783911 29.698505 1.437139 1.010459 0.096368 -0.050043 173623.000000 0 0 1
-2.471209 -25.667023 16.668711 30.704216 1.474813 0.996933 0.124972 -0.046372 209650.000000 0 0 1
-2.932609 -25.941823 18.146611 31.794306 1.458229 0.963377 0.139040 -0.041304 -70956.800000 0 0 1
-2.518809 -24.990123 19.120611 31.566571 1.470343 0.920122 0.129172 -0.028181 201530.000000 0 0 1
-3.313009 -25.168623 20.259011 32.478657 1.439916 0.897247 0.163173 -0.038299 -139666.000000 0 0 1
-2.731709 -24.310523 21.444111 32.531733 1.458898 0.851075 0.142982 -0.042943 107877.000000 0 0 1
-1.409809 -24.732723 21.782611 32.987533 1.513856 0.849540 0.094208 -0.062711 438005.000000 0 0 1
-0.677609 -23.712723 22.434311 32.650432 1.542228 0.813298 0.121094 -0.066603 200880.000000 0 0 1
-0.238409 -22.405623 21.699011 31.191599 1.560156 0.801446 0.119030 -0.071735 -88112.600000 0 0 1
-1.293709 -21.471923 21.557611 30.454027 1.510618 0.784313 0.156600 -0.058407 107506.000000 0 0 1
-0.763809 -20.345423 20.843211 29.136903 1.533272 0.773665 0.172518 -0.050168 -453435.000000 0 0 1
-1.769109 -19.260123 20.470011 28.162092 1.479200 0.757052 0.145564 -0.027067 -988815.000000 0 0 1
-2.288609 -18.573723 21.594411 28.575156 1.448197 0.714065 0.154089 -0.054235 666833.000000 0 0 1
-3.550509 -19.082923 22.051911 29.377727 1.386843 0.721776 0.187086 -0.065981 261256.000000 0 0 1
-4.813209 -18.681723 21.248411 28.699630 1.318638 0.737172 0.164095 -0.063801 -601717.000000 0 0 1
-5.129809 -19.408823 20.054411 28.375989 1.312402 0.785919 0.160489 -0.063313 -399495.000000 0 0 1
-5.696209 -20.634323 20.241311 29.460699 1.301450 0.813359 0.163101 -0.060551 -423995.000000 0 0 1
-5.752409 -21.451623 18.970611 29.208671 1.308803 0.863889 0.118545 -0.060593 147440.000000 0 0 1
-6.070909 -22.836623 19.160311 30.421782 1.310965 0.889472 0.117278 -0.060075 -76853.400000 0 0 1
-6.127909 -23.503223 17.932111 30.191280 1.315748 0.934836 0.102249 -0.052388 15326.400000 0 0 1
-6.737509 -24.924923 18.047311 31.501607 1.306794 0.960755 0.096729 -0.044835 -762367.000000 0 0 1
-8.117009 -24.877723 18.115411 31.826955 1.255411 0.965283 0.122046 -0.052738 -1160560.000000 0 0 1
-8.712309 -26.181023 17.928011 32.905378 1.249551 0.994604 0.134650 -0.046919 -619505.000000 0 0 1
-10.192709 -26.192623 18.224111 33.497210 1.199683 0.995541 0.100338 -0.047970 -1269290.000000 0 0 1
-10.903109 -25.385323 17.315511 32.605511 1.165117 1.010944 0.109394 -0.045366 46827.900000 0 0 1
-12.292709 -25.684223 17.362211 33.350208 1.124407 1.023240 0.116336 -0.043284 597472.000000 0 0 1
-13.188809 -24.827223 18.288611 33.538172 1.082483 0.994041 0.128918 -0.054932 -470227.000000 0 0 1
-13.293809 -23.511323 17.765311 32.328222 1.056190 0.988995 0.123109 -0.045543 -51965.400000 0 0 1
-13.326209 -22.419923 18.663211 32.071113 1.034511 0.949694 0.125359 -0.049084 1142160.000000 0 0 1
-11.919509 -22.059823 19.320911 31.654512 1.075410 0.914271 0.133486 -0.050057 1040780.000000 0 0 1
-11.347109 -23.001723 20.164311 32.625689 1.112511 0.904536 0.139340 -0.058398 -489070.000000 0 0 1
-9.954709 -22.911323 20.127511 32.080238 1.160916 0.892572 0.149602 -0.067209 102208.000000 0 0 1
-9.107309 -23.850023 21.070811 33.102051 1.206027 0.880791 0.156313 -0.074810 514819.000000 0 0 1
-9.307809 -23.589123 22.459511 33.874942 1.194971 0.845961 0.168886 -0.076221 613148.000000 0 0 1
-8.171609 -24.106923 23.153411 34.409292 1.243978 0.832698 0.185551 -0.085963 408430.000000 0 0 1
-8.259909 -23.957923 24.757611 35.428061 1.238791 0.797059 0.216258 -0.084859 1083490.000000 0 0 1
-7.055809 -24.439023 25.418111 35.960126 1.289729 0.785773 0.233220 -0.075872 809841.000000 0 0 1
-6.943709 -23.749623 26.616511 36.341414 1.286353 0.748954 0.240865 -0.078352 -108568.000000 0 0 1
-5.637809 -24.128923 27.350511 36.905830 1.341261 0.736105 0.243725 -0.075075 -48091.500000 0 0 1
-4.514009 -24.008123 26.530111 36.064013 1.384946 0.744186 0.243677 -0.066023 296634.000000 0 0 1
-3.282409 -24.026323 27.306011 36.519264 1.435020 0.726182 0.219162 -0.057951 855520.000000 0 0 1
-2.069609 -23.706823 26.419911 35.557115 1.483717 0.733214 0.183242 -0.050998 -503494.000000 0 0 1
-1.991409 -22.352823 26.163011 34.469081 1.481941 0.708977 0.189005 -0.056449 1117190.000000 0 0 1
-0.683309 -22.007323 25.650311 33.804255 1.539757 0.709344 0.166001 -0.064719 1399280.000000 0 0 1
0.460791 -21.689723 26.637111 34.353924 -1.549555 0.683491 0.122384 -0.037502 -47059.300000 0 0 1
0.901791 -22.736523 27.484211 35.681152 -1.531154 0.691528 0.114724 -0.038097 473253.000000 0 0 1
2.109291 -22.332123 28.120811 35.971556 -1.476625 0.673327 0.090669 -0.052832 304441.000000 0 0 1
2.772791 -23.301723 29.153811 37.424636 -1.452358 0.677726 0.086820 -0.053554 -114510.000000 0 0 1
3.441891 -24.425423 28.549011 37.729219 -1.430804 0.712574 0.072707 -0.050208 495462.000000 0 0 1
3.969991 -25.462923 29.360711 39.066260 -1.416129 0.720370 0.085199 -0.037406 -483171.000000 0 0 1
5.020891 -25.028623 30.458211 39.740961 -1.372818 0.697549 0.052382 -0.040769 618445.000000 0 0 1
6.309891 -24.582923 30.031211 39.319314 -1.319543 0.701651 0.064944 -0.037503 291974.000000 0 0 1
7.064591 -25.541423 29.410511 39.588520 -1.300949 0.733397 0.056829 -0.038434 -851069.000000 0 0 1
8.388391 -24.980823 28.770011 39.014359 -1.246834 0.741552 0.062830 -0.025485 677659.000000 0 0 1
8.256191 -24.252923 27.544411 37.617331 -1.242681 0.749211 0.059559 -0.041059 134467.000000 0 0 1
9.526691 -24.184223 26.904011 37.409361 -1.195541 0.768177 0.073722 -0.020124 281254.000000 0 0 1
9.700391 -23.155823 25.732211 35.950472 -1.174088 0.773073 0.087460 -0.021087 -191166.000000 0 0 1
8.919291 -23.343823 24.571911 35.046635 -1.205830 0.793829 0.081916 -0.020293 -192030.000000 0 0 1
9.015091 -22.273223 23.688911 33.742152 -1.186202 0.792515 0.084921 -0.026919 42121.600000 0 0 1
8.323791 -22.281423 22.302811 32.606176 -1.213275 0.817556 0.089586 -0.013591 74443.300000 0 0 1
8.975991 -23.124323 21.364811 32.737714 -1.200536 0.859778 0.092100 -0.017455 490675.000000 0 0 1
8.414791 -22.885023 20.039611 31.561353 -1.218442 0.882864 0.115871 -0.007026 517964.000000 0 0 1
9.263191 -23.618723 18.963311 31.674248 -1.197035 0.928922 0.153087 -0.025182 465113.000000 0 0 1
10.545491 -23.111923 18.667111 31.525060 -1.142733 0.937090 0.146143 -0.024907 -45018.800000 0 0 1
11.306591 -23.946223 17.840811 31.930474 -1.129663 0.977931 0.168776 -0.031089 669313.000000 0 0 1
12.621691 -23.330323 17.253511 31.643241 -1.074890 0.994108 0.148777 -0.034099 634901.000000 0 0 1
12.296491 -22.274323 16.381611 30.260640 -1.066382 0.998754 0.148602 -0.024398 270106.000000 0 0 1
13.474691 -21.940423 15.661311 30.136790 -1.020038 1.024327 0.138897 -0.032111 406056.000000 0 0 1
-12.826809 22.247106 11.120411 27.984358 -1.047790 1.162137 0.046671 0.001100 -168284.000000 0 0 1
-13.918809 21.410906 10.849211 27.746450 -0.994365 1.169065 0.019734 -0.007938 83853.200000 0 0 1
-13.447409 20.186806 10.333511 26.365155 -0.983153 1.168059 0.060311 -0.017643 562890.000000 0 0 1
-14.434709 19.615006 9.245511 26.049736 -0.936380 1.207970 0.073487 -0.022970 77723.300000 0 0 1
-14.634709 20.510606 8.127811 26.474912 -0.951055 1.258757 0.081651 -0.025435 779140.000000 0 0 1
-15.484709 20.087206 6.985211 26.307132 -0.914069 1.302048 0.091473 -0.020461 182335.000000 0 0 1
-16.974809 19.898906 7.196811 27.127563 -0.864533 1.302286 0.068792 -0.020555 -917629.000000 0 0 1
-17.326809 18.853606 8.089111 26.853500 -0.827573 1.264813 0.054255 -0.026679 -105061.000000 0 0 1
-18.674609 18.977906 8.476311 27.941900 -0.793453 1.262585 0.069338 -0.019404 -218410.000000 0 0 1
-19.220509 17.896606 9.371211 27.884334 -0.749745 1.228051 0.071730 -0.022927 -189820.000000 0 0 1
-19.230309 16.672706 8.647511 26.880538 -0.714282 1.243270 0.080854 -0.029194 32834.200000 0 0 1
-19.637409 15.592306 9.455911 26.798546 -0.671078 1.210179 0.089254 -0.035953 -868483.000000 0 0 1
-18.733709 15.112906 10.589811 26.296309 -0.678827 1.156320 0.082026 -0.022427 168649.000000 0 0 1
-17.565209 14.493806 10.018411 24.879219 -0.689885 1.156351 0.048530 -0.006809 634683.000000 0 1 0
-16.730709 13.692806 10.820311 24.176201 -0.685874 1.106761 0.054579 -0.018137 -55252.800000 0 1 0
-17.425209 12.557806 11.598811 24.410424 -0.624463 1.075653 0.059045 -0.018588 -973811.000000 0 1 0
-18.071809 11.661106 10.805511 24.069290 -0.573039 1.105225 0.036912 -0.024389 -414067.000000 0 1 0
-18.888209 10.911906 11.660211 24.734483 -0.523868 1.079902 0.067754 -0.027868 102583.000000 0 1 0
-20.041009 10.045906 11.081911 25.007419 -0.464661 1.111692 0.080375 -0.031316 196764.000000 0 0 1
-19.574509 8.838106 10.468711 23.892832 -0.424110 1.117254 0.063196 -0.027803 384326.000000 0 1 0
-18.947409 8.999206 9.194711 22.902679 -0.443413 1.157676 0.064032 -0.026832 -199925.000000 0 1 0
-19.829709 9.463906 7.975311 23.374954 -0.445290 1.222613 0.066782 -0.025753 9525.490000 0 1 0
-20.525709 8.312306 7.548511 23.396136 -0.384784 1.242280 0.058374 -0.026400 85121.700000 0 1 0
-21.228009 8.519806 6.363711 23.742626 -0.381667 1.299450 0.076698 -0.032644 -104600.000000 0 1 0
-21.349609 7.256706 5.475111 23.204362 -0.327648 1.332598 0.088167 -0.037824 170038.000000 0 1 0
-22.146309 6.203406 6.052511 23.781803 -0.273111 1.313464 0.131000 -0.042065 673922.000000 0 1 0
-22.226609 5.115806 5.167511 23.385825 -0.226226 1.347990 0.155938 -0.043407 28805.600000 0 1 0
-23.304009 4.065906 5.578411 24.304878 -0.172734 1.339214 0.172995 -0.044171 355379.000000 0 1 0
-24.610209 4.422106 5.146711 25.528534 -0.177789 1.367799 0.234849 -0.046026 371058.000000 0 0 1
-25.501859 3.329206 5.396911 26.278415 -0.129813 1.363950 0.255716 -0.054602 495359.000000 0 0 1
-26.781049 3.502106 4.507511 27.382604 -0.130030 1.405431 0.275078 -0.053926 205825.000000 0 0 1
-26.579539 3.223106 3.132011 26.956814 -0.120673 1.454347 0.291317 -0.054226 1015520.000000 0 0 1
-27.842029 3.446206 2.482411 28.164113 -0.123151 1.482541 0.301462 -0.049236 596369.000000 0 0 1
-27.827759 3.301606 0.917311 28.037943 -0.118092 1.538074 0.325264 -0.062060 -166288.000000 0 0 1
-27.225669 4.415606 0.279011 27.582829 -0.160785 1.560681 0.321819 -0.063249 276041.000000 0 0 1
-27.332209 4.362706 -1.152389 27.702181 -0.158283 1.612408 0.361279 -0.058815 993170.000000 0 0 1
-28.709269 4.850006 -1.781689 29.170518 -0.167355 1.631913 0.335237 -0.063922 1791170.000000 0 0 1
-29.820649 3.959106 -1.643789 30.127192 -0.131992 1.625385 0.294510 -0.067987 949785.000000 0 0 1
-31.111739 4.468206 -1.905789 31.488684 -0.142643 1.631356 0.252788 -0.034265 620997.000000 0 0 1
-32.223289 3.378306 -2.108189 32.468412 -0.104459 1.635772 0.212272 -0.027240 128530.000000 0 0 1
-32.215649 2.766006 -3.400489 32.512492 -0.085649 1.675578 0.197798 -0.037936 307105.000000 0 0 1
-33.076319 1.665606 -3.434689 33.295859 -0.050314 1.674137 0.191059 -0.039632 -175378.000000 0 0 1
-33.280469 1.095606 -4.881789 33.654447 -0.032908 1.716366 0.202801 -0.053244 160723.000000 0 0 1
-32.122379 0.331906 -5.207189 32.543390 -0.010332 1.731495 0.230804 -0.059715 531863.000000 0 0 1
-32.144449 -0.343894 -6.478589 32.792621 0.010698 1.769667 0.248056 -0.055612 -311679.000000 0 0 1
-32.431399 0.364806 -7.824289 33.363876 -0.011248 1.807515 0.215539 -0.042281 -496983.000000 0 0 1
-33.815709 0.553806 -7.966989 34.745961 -0.016376 1.802147 0.220092 -0.034540 -30195.100000 0 0 1
-34.106288 1.428206 -9.034689 35.311532 -0.041851 1.829530 0.201886 -0.031782 -168389.000000 0 0 1
-35.620409 1.689506 -9.077689 36.797723 -0.047395 1.820061 0.204541 -0.025469 -145933.000000 0 0 1
-36.170559 2.432906 -8.034789 37.132011 -0.067161 1.788906 0.168647 -0.021112 13677.800000 0 0 1
-37.574089 2.399406 -7.956589 38.482160 -0.063771 1.779059 0.152683 -0.018825 -233563.000000 0 0 1
-38.096999 3.121106 -6.735389 38.813504 -0.081743 1.745211 0.164113 -0.016503 -76598.100000 0 0 1
36.777633 3.037806 -6.503389 37.471544 0.082412 1.745235 0.160772 -0.015256 491799.000000 0 0 1
36.294553 3.643906 -5.272389 36.856081 0.100063 1.714342 0.157680 -0.018614 -124711.000000 0 0 1
34.838773 3.303506 -4.941189 35.342164 0.094540 1.711066 0.167067 -0.021812 -286616.000000 0 0 1
34.759843 2.062206 -4.363489 35.093296 0.059258 1.695459 0.154636 -0.020856 252585.000000 0 0 1
33.438263 1.575606 -4.195489 33.737250 0.047085 1.695477 0.162733 -0.022273 162969.000000 0 0 1
33.420563 0.320306 -3.350789 33.589647 0.009584 1.670719 0.225473 -0.026735 -409294.000000 0 0 1
34.034353 -0.767294 -3.907789 34.266554 -0.022541 1.685086 0.124801 -0.025596 -62008.200000 0 0 1
33.966823 -1.774994 -2.911589 34.137560 -0.052209 1.656190 0.167961 -0.034830 -210375.000000 0 0 1
34.925813 -2.934194 -3.179789 35.192797 -0.083815 1.661273 0.125287 -0.028334 -116296.000000 0 0 1
34.672893 -4.072594 -2.363589 34.991171 -0.116922 1.638396 0.121523 -0.039385 619706.000000 0 0 1
35.656003 -5.087894 -2.678389 36.116630 -0.141737 1.645024 0.175685 -0.042766 606165.000000 0 0 1
35.468883 -6.416494 -1.889589 36.094093 -0.178969 1.623172 0.205757 -0.055635 -237169.000000 0 0 1
35.862103 -6.420894 -0.502389 36.435843 -0.177167 1.584585 0.182317 -0.065917 60394.700000 0 0 1
35.925813 -7.728494 0.040911 36.747725 -0.211894 1.569683 0.226063 -0.071691 -459890.000000 0 0 1
34.942173 -7.956794 1.174911 35.855912 -0.223895 1.538023 0.214429 -0.052699 -1595390.000000 0 0 1
33.656043 -7.819694 0.716911 34.559959 -0.228291 1.550051 0.180702 -0.053989 -870029.000000 0 0 1
32.719673 -7.729694 1.809311 33.668958 -0.231987 1.517032 0.230779 -0.082160 -386486.000000 0 0 1
32.063243 -9.006694 2.340511 33.386375 -0.273847 1.500635 0.218923 -0.072787 120187.000000 0 0 1
30.954263 -9.498094 1.557211 32.416124 -0.297723 1.522740 0.207365 -0.075066 127036.000000 0 0 1
29.754263 -8.879294 1.910911 31.109638 -0.290007 1.509333 0.217713 -0.072493 -1569220.000000 0 0 1
28.600163 -9.758294 1.379911 30.250583 -0.328811 1.525164 0.206764 -0.066482 -1758530.000000 0 0 1
27.355163 -9.539594 1.909011 29.033655 -0.335544 1.504997 0.208058 -0.070842 -540446.000000 0 0 1
26.502263 -8.578594 1.346811 27.888638 -0.313049 1.522485 0.225256 -0.073091 -179237.000000 0 0 1
25.750263 -9.041694 0.055911 27.291599 -0.337681 1.568748 0.189580 -0.063901 -337198.000000 0 0 1
26.582863 -9.064294 -1.132489 28.108585 -0.328619 1.611097 0.195650 -0.079988 725531.000000 0 0 1
25.940863 -9.263394 -2.398589 27.649450 -0.342983 1.657655 0.188412 -0.081571 -712664.000000 0 0 1
25.373963 -10.669094 -2.659589 27.653950 -0.398031 1.667119 0.162873 -0.054709 -1047020.000000 0 0 1
24.087463 -10.711194 -2.166589 26.450513 -0.418420 1.652799 0.147960 -0.029511 -1057750.000000 0 0 1
23.699863 -12.021094 -1.985389 26.648301 -0.469409 1.645369 0.132712 -0.027561 491122.000000 0 0 1
22.170163 -12.156794 -1.682089 25.340347 -0.501568 1.637225 0.129403 -0.024310 402792.000000 0 0 1
21.304163 -12.068094 -2.771589 24.641184 -0.515397 1.683513 0.123155 -0.017780 570487.000000 0 1 0
19.944663 -12.177894 -2.337989 23.485248 -0.548166 1.670513 0.122278 -0.022031 820003.000000 0 1 0
18.828163 -11.635494 -3.261889 22.372402 -0.553538 1.717118 0.096493 -0.015768 169856.000000 0 1 0
18.671163 -12.281294 -4.531589 22.803022 -0.581817 1.770856 0.096698 -0.018897 473590.000000 0 1 0
17.843963 -11.573094 -5.449189 21.955345 -0.575371 1.821612 0.081807 -0.024530 -297706.000000 0 1 0
17.889963 -12.257394 -6.853489 22.743456 -0.600693 1.876893 0.098983 -0.031227 -175440.000000 0 1 0
17.068463 -13.412094 -7.048989 22.823342 -0.666011 1.884780 0.074310 -0.030487 686839.000000 0 1 0
17.707763 -14.152694 -8.023489 24.046621 -0.674275 1.910984 0.097856 -0.038505 139423.000000 0 1 0
16.762363 -15.309494 -8.571089 24.265634 -0.740129 1.931806 0.088120 -0.034108 867237.000000 0 1 0
15.757363 -14.834794 -9.474689 23.624888 -0.755250 1.983456 0.111583 -0.021097 501800.000000 0 1 0
15.345763 -15.847294 -10.339589 24.362600 -0.801475 2.009100 0.111522 -0.016805 37978.100000 0 1 0
14.632763 -15.372194 -11.662389 24.216387 -0.810037 2.073265 0.113913 -0.043371 837324.000000 0 1 0
13.401463 -14.605394 -11.510289 22.921682 -0.828359 2.096888 0.099595 -0.044187 1210260.000000 0 1 0
13.596363 -13.183194 -11.282989 22.044581 -0.769971 2.108105 0.087920 -0.030230 -195107.000000 0 1 0
13.919363 -12.223494 -12.471089 22.331380 -0.720620 2.163319 0.115252 -0.034001 46783.300000 0 1 0
15.228863 -12.253994 -13.008989 23.480043 -0.677573 2.158011 0.140183 -0.039699 137832.000000 0 1 0
15.319663 -11.431294 -14.154889 23.785025 -0.641055 2.208208 0.167904 -0.039374 -672727.000000 0 1 0
16.768663 -11.107094 -14.475989 24.781240 -0.585024 2.194630 0.178387 -0.055584 -778727.000000 0 1 0
17.494463 -12.296494 -14.690689 25.943715 -0.612656 2.172748 0.175982 -0.051532 165404.000000 0 0 1
18.722063 -12.012194 -15.348289 27.025514 -0.570452 2.174771 0.168279 -0.042600 -134284.000000 0 0 1
19.724063 -13.139994 -15.484289 28.310092 -0.587673 2.149517 0.150398 -0.030030 -894186.000000 0 0 1
20.464563 -13.301294 -14.323689 28.300015 -0.576352 2.101496 0.130267 -0.049742 223918.000000 0 0 1
21.438763 -14.368994 -14.576689 29.640655 -0.590468 2.084929 0.088896 -0.026547 -25420.600000 0 0 1
22.634163 -14.192294 -13.653289 30.002314 -0.560058 2.043252 0.074509 -0.026758 -621530.000000 0 0 1
23.421163 -13.056094 -13.964989 30.232985 -0.508544 2.050946 0.111382 -0.030583 14066.000000 0 0 1
24.486963 -12.942594 -13.030989 30.609292 -0.486226 2.010554 0.115619 -0.033622 423449.000000 0 0 1
25.366363 -11.714994 -13.340789 30.962398 -0.432650 2.016254 0.123917 -0.034116 -12717.400000 0 0 1
24.641363 -10.564394 -12.829889 29.722201 -0.405022 2.017129 0.133825 -0.032936 794212.000000 0 0 1
25.387563 -9.349994 -12.669989 29.874393 -0.352875 2.008774 0.161067 -0.041208 591382.000000 0 0 1
26.547263 -9.323794 -11.589589 30.430394 -0.337757 1.961518 0.185259 -0.042782 -264127.000000 0 0 1
27.669463 -10.012994 -12.018089 31.785117 -0.347218 1.958544 0.163715 -0.043662 -1159820.000000 0 0 1
28.628763 -9.833594 -11.027889 32.216765 -0.330860 1.920163 0.185972 -0.048525 -982793.000000 0 0 1
29.924563 -10.563594 -11.409189 33.722968 -0.339352 1.915928 0.190038 -0.048388 -603782.000000 0 0 1
30.561563 -9.886494 -12.475789 34.458630 -0.312870 1.941264 0.163381 -0.048350 -843738.000000 0 0 1
31.635803 -10.683094 -12.834889 35.772712 -0.325666 1.937768 0.158593 -0.047077 -752981.000000 0 0 1
32.381523 -10.185994 -14.072889 36.747295 -0.304762 1.963799 0.122004 -0.040712 298403.000000 0 0 1
31.697853 -10.509194 -15.320589 36.741223 -0.320138 2.000923 0.106915 -0.033056 964167.000000 0 0 1
32.471653 -9.908694 -16.379889 37.694711 -0.296174 2.020325 0.090676 -0.033776 388314.000000 0 0 1
32.157203 -10.521694 -17.776189 38.220212 -0.316216 2.054543 0.064858 -0.021441 1315890.000000 0 0 1
30.826363 -10.301194 -18.334589 37.316704 -0.322502 2.084405 0.060750 -0.013710 1478610.000000 0 0 1
30.702663 -9.105894 -19.039689 37.256953 -0.288319 2.107187 0.049960 -0.009011 -45675.600000 0 0 1
29.303163 -8.762194 -19.618789 36.336597 -0.290556 2.141136 0.019366 -0.007734 129945.000000 0 0 1
28.889063 -9.485494 -20.768389 36.822256 -0.317252 2.170039 0.026678 -0.005924 845792.000000 0 0 1
27.462363 -9.408294 -20.833889 35.731615 -0.330057 2.193294 0.055093 -0.001003 572025.000000 0 0 1
26.848963 -9.660494 -22.207589 36.157557 -0.345386 2.232155 0.073738 -0.014934 -2168.080000 0 0 1
27.046663 -11.024894 -22.488189 36.861754 -0.387062 2.226943 0.076772 -0.015578 -106720.000000 0 0 1
26.217363 -11.436194 -23.543589 37.046420 -0.411325 2.259473 0.094843 -0.024751 -1128180.000000 0 0 1
26.464163 -12.881094 -24.138189 38.064769 -0.452981 2.257685 0.100617 -0.018959 886916.000000 0 0 1
27.759763 -13.092994 -24.727489 39.414206 -0.440715 2.248974 0.102395 -0.020214 346259.000000 0 0 1
28.786963 -13.052794 -23.777289 39.552802 -0.425700 2.215740 0.085123 -0.016476 -1035430.000000 0 0 1
30.136763 -13.655194 -24.251089 41.021995 -0.425435 2.203309 0.091005 -0.016420 280497.000000 0 0 1
30.780263 -12.911794 -25.288579 41.876619 -0.397188 2.219160 0.110308 -0.040102 -187967.000000 0 0 1
32.130923 -13.277094 -25.317319 43.007488 -0.391850 2.200212 0.080426 -0.037812 -333075.000000 0 0 1
33.007243 -12.783394 -26.472709 44.200651 -0.369502 2.212950 0.105269 -0.037492 -152808.000000 0 0 1
32.936273 -13.465194 -27.657789 45.067314 -0.388091 2.231534 0.105574 -0.042168 -95977.900000 0 0 1
33.806743 -13.001694 -28.655499 46.185252 -0.367151 2.240109 0.097470 -0.036974 -41292.100000 0 0 1
33.581643 -13.664894 -30.048159 47.088724 -0.386454 2.262848 0.092182 -0.041346 129099.000000 0 0 1
33.946563 -15.086994 -29.989609 47.742677 -0.418215 2.249971 0.114911 -0.039786 49673.400000 0 0 1
34.027683 -15.779894 -31.250039 48.820623 -0.434219 2.265424 0.066481 -0.035704 -249730.000000 0 0 1
32.732953 -16.352394 -31.839859 48.503851 -0.463303 2.286886 0.065025 -0.030109 -156459.000000 0 0 1
31.955813 -15.442394 -32.585089 48.181216 -0.450152 2.313528 0.078323 -0.035799 167115.000000 0 0 1
30.828563 -16.113094 -33.118039 48.029539 -0.481617 2.331643 0.067305 -0.018756 -68854.400000 0 0 1
29.919663 -15.360694 33.210801 47.266208 -0.474308 0.791705 0.076339 -0.011896 -225945.000000 0 0 1
29.140463 -14.327794 -33.489699 46.647746 -0.456970 2.371617 0.082594 -0.016264 -195027.000000 0 0 1
29.779563 -13.094294 -33.382079 46.611652 -0.414262 2.369102 0.112941 -0.021502 -307575.000000 0 0 1
28.917863 -11.910594 -32.830189 45.342324 -0.390703 2.380455 0.122055 -0.022153 23258.600000 0 0 1
27.937463 -11.440094 33.601951 45.171547 -0.388660 0.731948 0.098764 -0.012840 -2493.380000 0 0 1
27.169463 -10.337894 -33.204259 44.131333 -0.363581 2.422489 0.062448 -0.020639 341312.000000 0 0 1
21.741391 -29.100823 9.170111 37.465143 -0.929150 1.323520 0.040647 -0.028699 -45313.800000 0 0 1
22.268391 -28.823323 7.849411 37.259609 -0.912998 1.358538 0.045928 -0.030138 1269780.000000 0 0 1
23.656891 -29.229523 7.848711 38.413745 -0.890381 1.365027 0.064649 -0.028365 1012020.000000 0 0 1
24.338691 -29.180623 6.490411 38.548750 -0.875623 1.401622 0.064753 -0.023618 -142762.000000 0 0 1
24.387791 -27.844723 5.990411 37.496373 -0.851485 1.410349 0.072069 -0.024379 -212455.000000 0 0 1
25.074691 -27.806823 4.787011 37.747517 -0.837017 1.443637 0.080759 -0.009839 -183691.000000 0 0 1
25.327891 -26.282023 4.401011 36.764327 -0.803883 1.450800 0.093007 -0.015921 88913.700000 0 0 1
26.225691 -25.579323 5.225411 37.005318 -0.772922 1.429116 0.090370 -0.012707 -109268.000000 0 0 1
26.041591 -24.183723 5.040011 35.894549 -0.748424 1.429919 0.090279 -0.010899 183256.000000 0 0 1
26.969791 -23.264823 5.887311 36.100998 -0.711778 1.406986 0.089484 -0.007571 227144.000000 0 0 1
28.253191 -23.025323 5.344711 36.837131 -0.683799 1.425192 0.091329 -0.004597 271749.000000 0 0 1
29.183491 -22.345723 6.200011 37.275295 -0.653472 1.403689 0.087836 -0.010122 486242.000000 0 0 1
28.883791 -20.872623 6.661811 36.253545 -0.625760 1.385990 0.083021 -0.004509 -307237.000000 0 0 1
29.135991 -19.898023 5.665211 35.734184 -0.599182 1.411587 0.085149 0.012429 -284039.000000 0 0 1
28.291391 -18.788423 5.740211 34.443543 -0.586226 1.403359 0.114145 -0.003988 -316075.000000 0 0 1
28.368691 -17.674123 4.656711 33.746736 -0.557171 1.432365 0.131448 0.005175 -160366.000000 0 0 1
29.531291 -16.895223 4.709111 34.347073 -0.519662 1.433259 0.155923 0.014839 -284582.000000 0 0 1
29.685191 -16.277023 3.441211 34.029311 -0.501553 1.469498 0.163133 0.023202 117023.000000 0 0 1
30.689791 -15.123723 3.473911 34.389800 -0.457866 1.469608 0.189524 -0.013978 -54244.800000 0 0 1
30.056291 -13.937323 3.917011 33.361244 -0.434194 1.453113 0.181379 -0.027288 225643.000000 0 0 1
30.926991 -12.827023 4.050711 33.725651 -0.393158 1.450398 0.185495 -0.047552 6749.470000 0 0 1
30.410691 -11.776823 5.111311 33.009532 -0.369475 1.415327 0.189943 -0.047909 41898.300000 0 0 1
30.325191 -12.135523 6.486811 33.301154 -0.380661 1.374751 0.170946 -0.046077 491126.000000 0 0 1
29.182991 -12.930123 6.838211 32.643471 -0.417076 1.359751 0.175862 -0.035601 105831.000000 0 0 1
29.137991 -13.202323 8.331011 33.056461 -0.425426 1.316025 0.166147 -0.039698 301893.000000 0 0 1
30.150491 -14.012723 8.924611 34.424660 -0.435060 1.308550 0.111278 -0.029247 196619.000000 0 0 1
29.964491 -13.955723 10.302111 34.623206 -0.435868 1.268672 0.157258 -0.017155 -169470.000000 0 0 1
30.664091 -14.970223 11.240011 35.926758 -0.454163 1.252595 0.146051 -0.024806 811653.000000 0 0 1
31.797391 -14.377023 11.944311 36.884135 -0.424636 1.241018 0.117999 -0.017705 746666.000000 0 0 1
32.301791 -15.349123 12.789311 37.981150 -0.443594 1.227357 0.124031 -0.016377 -68098.300000 0 0 1
33.300291 -14.818023 13.847411 38.990178 -0.418673 1.207720 0.115664 -0.019553 179640.000000 0 0 1
34.527991 -14.432923 13.272211 39.706964 -0.395932 1.229983 0.089977 -0.024162 -37283.900000 0 0 1
35.518491 -14.153523 14.234711 40.798437 -0.379198 1.214396 0.065225 -0.023903 173112.000000 0 0 1
36.964691 -14.036623 13.693811 41.844183 -0.362912 1.237397 0.087390 -0.014991 35774.500000 0 0 1
37.219391 -12.748223 13.210211 41.500722 -0.329992 1.246847 0.101400 -0.023777 -355560.000000 0 0 1
-37.823481 -12.636423 12.567311 41.811867 0.322431 1.265508 0.107969 -0.023084 -711235.000000 0 0 1
-37.376881 -11.197323 12.220311 40.887006 0.291070 1.267277 0.118407 -0.031408 -633668.000000 0 0 1
-36.165581 -11.067223 11.539111 39.542177 0.296966 1.274670 0.129672 -0.036114 -727186.000000 0 0 1
-35.434381 -10.026223 12.090511 38.759527 0.275744 1.253566 0.137311 -0.048370 276463.000000 0 0 1
-34.079581 -9.784623 11.328711 37.222256 0.279591 1.261537 0.168386 -0.042361 893849.000000 0 0 1
-33.077481 -10.788023 11.314011 36.585626 0.315266 1.256395 0.153439 -0.042847 329520.000000 0 0 1
-33.391781 -11.864723 10.497311 36.959116 0.341405 1.282807 0.140741 -0.036073 -789890.000000 0 0 1
-32.783881 -13.170323 11.053611 37.019219 0.381998 1.267580 0.112452 -0.036280 -359459.000000 0 0 1
-31.407381 -13.228123 10.866911 35.770051 0.398630 1.262119 0.149539 -0.038903 -684401.000000 0 0 1
-30.808481 -14.425923 11.289411 35.842999 0.437923 1.250373 0.138122 -0.030510 -97123.700000 0 0 1
-29.340281 -14.673723 10.929411 34.577771 0.463745 1.249199 0.148944 -0.020939 -166131.000000 0 0 1
-29.232081 -14.840823 9.543211 34.144362 0.469780 1.287527 0.150566 -0.030626 663393.000000 0 0 1
-27.858181 -14.814923 9.158311 32.854754 0.488761 1.288303 0.137185 -0.026807 499889.000000 0 0 1
-27.685681 -14.567023 7.591111 32.191925 0.484354 1.332746 0.191235 -0.020821 42890.600000 0 0 1
-28.279081 -15.529623 6.739511 32.959014 0.502195 1.364862 0.194803 -0.010376 155432.000000 0 0 1
-28.253381 -15.206423 5.392611 32.535659 0.493751 1.404283 0.213184 -0.010675 101739.000000 0 0 1
-28.979681 -16.182023 4.374211 33.478553 0.509263 1.439765 0.176031 -0.012764 -565978.000000 0 0 1
-30.332181 -16.341823 4.616711 34.762198 0.494174 1.437594 0.115426 -0.026816 -958164.000000 0 0 1
-30.752281 -17.376623 3.783611 35.524154 0.514326 1.464086 0.115879 -0.021499 239129.000000 0 0 1
-32.294481 -17.621023 3.841811 36.989099 0.499486 1.466745 0.127570 -0.033073 297852.000000 0 0 1
-33.007581 -16.586923 3.241211 37.082770 0.465660 1.483280 0.169316 -0.041314 -830207.000000 0 0 1
-34.374181 -16.763623 3.471711 38.401252 0.453744 1.480267 0.174628 -0.035714 -447964.000000 0 0 1
-35.224881 -15.842423 2.571211 38.708988 0.422647 1.504323 0.149291 -0.044437 -123883.000000 0 0 1
-35.312181 -16.228023 1.207611 38.881322 0.430775 1.539732 0.142379 -0.042235 20596.200000 0 0 1
-36.369281 -15.469223 0.652611 39.527805 0.402157 1.554285 0.189632 -0.044055 -94546.200000 0 0 1
-36.709881 -16.202423 -0.622589 40.131303 0.415649 1.586311 0.146057 -0.039545 -518512.000000 0 0 1
-35.604181 -16.271923 -1.476489 39.174139 0.428679 1.608496 0.148070 -0.035334 221585.000000 0 0 1
-35.903981 -17.131223 -2.626889 39.868223 0.445193 1.636733 0.120706 -0.024147 544130.000000 0 0 1
-34.580681 -17.745423 -3.174189 38.997423 0.474120 1.652281 0.101968 -0.013492 350893.000000 0 0 1
-34.897781 -18.593223 -4.246289 39.769260 0.489535 1.677773 0.111328 -0.023864 764615.000000 0 0 1
-33.815981 -19.474423 -4.603089 39.293284 0.522506 1.688213 0.102104 -0.021973 99271.800000 0 0 1
-34.138981 -20.505823 -5.700189 40.229976 0.540903 1.712965 0.090036 -0.027187 -82937.400000 0 0 1
-35.158181 -21.376723 -5.248889 41.480270 0.546293 1.697676 0.104818 -0.034755 170149.000000 0 0 1
-35.524681 -22.337823 -6.237189 42.425038 0.561325 1.718348 0.123137 -0.033759 -666216.000000 0 0 1
-36.536881 -23.309923 -5.761589 43.720614 0.567881 1.702963 0.138181 -0.034366 -729377.000000 0 0 1
-35.974281 -24.250923 -4.877789 43.658321 0.593144 1.682757 0.157048 -0.034841 -215383.000000 0 0 1
-36.673481 -25.459023 -4.919289 44.914424 0.606828 1.680542 0.133196 -0.025421 70948.000000 0 0 1
-35.835281 -26.718723 -4.545289 44.930137 0.640678 1.672133 0.100135 -0.024668 -319744.000000 0 0 1
-34.932781 -27.202523 -5.546689 44.621096 0.661624 1.695425 0.081619 -0.027880 312731.000000 0 0 1
-34.168181 -28.300723 -5.148089 44.664285 0.691747 1.686315 0.075515 -0.023688 986589.000000 0 0 1
-33.040681 -28.054223 -3.999889 43.528441 0.703960 1.662818 0.095055 -0.044067 356040.000000 0 0 1
-33.601081 -27.833323 -2.704189 43.715434 0.691788 1.632695 0.053774 -0.027565 189341.000000 0 0 1
-32.651381 -27.820723 -1.637089 42.927676 0.705685 1.608942 0.084048 -0.026003 -279131.000000 0 0 1
-33.273481 -27.616523 -0.248889 43.241864 0.692760 1.576552 0.052914 -0.013705 -291224.000000 0 0 1
-33.914381 -28.704123 0.286511 44.431903 0.702383 1.564348 0.040102 -0.003631 -397332.000000 0 0 1
-34.479381 -28.474623 1.547511 44.744013 0.690303 1.536204 0.043813 0.003204 -66817.000000 0 0 1
-35.095081 -29.778323 2.124711 46.075239 0.703625 1.524666 0.032734 0.004766 -632628.000000 0 0 1
-35.733981 -29.727223 3.399711 46.606686 0.693894 1.497787 0.029831 0.004494 367305.000000 0 0 1
-36.185981 -31.017723 3.814811 47.812939 0.708645 1.490925 0.035426 0.006955 555660.000000 0 0 1
-37.320281 -31.722823 2.955411 49.070106 0.704503 1.510532 0.026450 0.009234 -83328.300000 0 0 1
-37.936881 -32.822123 3.579611 50.292269 0.713239 1.499560 0.055104 -0.001133 -305152.000000 0 0 1
37.242391 -33.230423 2.810811 49.991573 -0.728530 1.514541 0.065666 -0.007641 -1292420.000000 0 0 1
36.163291 33.427006 3.551711 49.373707 0.746098 1.498799 0.076072 -0.012470 -241442.000000 0 0 1
35.236891 -33.339523 4.405811 48.709070 -0.757737 1.480221 0.072701 -0.011481 1016960.000000 0 0 1
34.501391 -32.217023 3.861611 47.362375 -0.751173 1.489172 0.076963 -0.007390 -447194.000000 0 0 1
33.371991 -32.528123 2.874211 46.690788 -0.772594 1.509199 0.088433 -0.005981 -667914.000000 0 0 1
33.830991 -33.035223 1.605211 47.312140 -0.773498 1.536862 0.082616 -0.001190 80287.100000 0 0 1
32.921291 -32.826823 0.522511 46.493922 -0.783961 1.559558 0.084770 0.003298 -857121.000000 0 0 1
33.450891 -33.394123 -0.802889 47.273399 -0.784549 1.587781 0.066623 -0.000141 321049.000000 0 0 1
34.525591 -32.790023 -1.484389 47.638277 -0.759621 1.601961 0.049080 0.003814 -664960.000000 0 0 1
35.735991 -32.679323 -0.811389 48.431989 -0.740750 1.587550 0.045349 -0.001440 -956437.000000 0 0 1
36.931991 -32.465923 -1.777189 49.205351 -0.721132 1.606922 0.030315 0.005197 -150680.000000 0 0 1
37.350091 -33.583723 -2.473989 50.289327 -0.732351 1.620011 0.040510 -0.007641 270.370000 0 0 1
38.092591 -33.229323 -3.616789 50.678542 -0.717316 1.642224 0.042069 -0.004470 -607751.000000 0 0 1
-37.413281 33.013306 -4.221589 50.074482 -0.723003 1.655203 0.038483 -0.013371 -32.425700 0 0 1
-36.229981 32.655106 -3.531589 48.902347 -0.733548 1.643076 0.057234 -0.016111 240666.000000 0 0 1
-35.451081 31.749606 -4.309189 47.784785 -0.730373 1.661098 0.094358 -0.023601 642061.000000 0 0 1
-34.173581 31.165206 -3.605789 46.390790 -0.739388 1.648601 0.118093 -0.030313 643694.000000 0 0 1
-33.061681 32.076706 -3.602389 46.205703 -0.770278 1.648840 0.107075 -0.033708 321267.000000 0 0 1
-31.853281 31.412006 -3.289589 44.857184 -0.778423 1.644197 0.147101 -0.036008 337472.000000 0 0 1
-31.479081 31.308406 -1.786389 44.433546 -0.782680 1.611011 0.142026 -0.027206 -202876.000000 0 0 1
-32.449581 30.555306 -1.065789 44.584054 -0.755342 1.594704 0.115411 -0.025082 -44758.000000 0 0 1
-32.144381 30.298606 0.315111 44.174269 -0.755847 1.563663 0.126097 -0.030505 -529544.000000 0 0 1
-33.237881 29.482506 0.981911 44.440286 -0.725595 1.548699 0.125276 -0.040531 -388727.000000 0 0 1
-33.459581 28.188706 0.489211 43.753697 -0.700106 1.559615 0.136728 -0.042643 -25179.600000 0 0 1
-34.386081 28.111606 -0.580989 44.418492 -0.685338 1.583877 0.112008 -0.033609 -145503.000000 0 0 1
-34.643381 26.654906 -1.083189 43.724377 -0.655807 1.595572 0.118737 -0.027953 38762.600000 0 0 1
-35.193781 25.766106 -0.130389 43.617788 -0.631960 1.573786 0.109690 -0.036279 -134663.000000 0 0 1
-35.581181 24.551506 -0.729289 43.235734 -0.603992 1.587665 0.116763 -0.024477 -17606.500000 0 0 1
-35.527481 23.289906 0.226511 42.481442 -0.580264 1.565464 0.114662 -0.029294 1229000.000000 0 0 1
-34.157081 22.896706 0.489011 41.124256 -0.590538 1.558905 0.147669 -0.037291 1048250.000000 0 0 1
-33.711981 23.444206 1.693811 41.097414 -0.607650 1.529570 0.154172 -0.044490 -1269000.000000 0 0 1
-32.218481 23.392806 2.006711 39.865784 -0.628008 1.520438 0.144030 -0.051310 -523756.000000 0 0 1
-31.449581 24.281706 1.249211 39.752206 -0.657485 1.539366 0.162582 -0.041877 -283651.000000 0 0 1
-31.367781 25.577806 1.812511 40.514775 -0.684071 1.526044 0.154039 -0.047327 -232710.000000 0 0 1
-30.634781 26.599806 0.920311 40.581848 -0.715016 1.548116 0.146925 -0.036587 -1089360.000000 0 0 1
-29.357981 26.294806 0.598711 39.416574 -0.730413 1.555606 0.143995 -0.031957 -1361380.000000 0 0 1
-28.511081 27.280206 -0.022689 39.460003 -0.763340 1.571371 0.121970 -0.019176 1393060.000000 0 0 1
-27.201981 26.610706 -0.592989 38.058232 -0.774411 1.586378 0.113149 -0.019812 214984.000000 0 0 1
-27.476281 25.733306 -1.676889 37.682370 -0.752653 1.615312 0.130731 -0.016501 -109985.000000 0 0 1
-26.439581 25.124906 -2.453989 36.555908 -0.759908 1.637977 0.129521 -0.001822 335174.000000 0 0 1
-25.583881 24.081306 -1.706489 35.176076 -0.755153 1.619328 0.116509 -0.010727 -280085.000000 0 0 1
-26.157181 22.809306 -1.616589 34.742998 -0.717134 1.617343 0.116814 -0.015323 236583.000000 0 0 1
-25.287781 21.884606 -0.885989 33.454339 -0.713380 1.597283 0.125932 -0.033712 89407.400000 0 0 1
-25.945281 20.513006 -0.566089 33.079623 -0.668999 1.587910 0.167094 -0.044549 -104190.000000 0 0 1
-26.882881 20.494306 0.499911 33.807629 -0.651362 1.556009 0.156274 -0.044283 1149540.000000 0 0 1
-28.174381 21.137406 0.381211 35.224011 -0.643651 1.559974 0.152052 -0.047893 934367.000000 0 0 1
-29.125981 20.522406 -0.672489 35.636275 -0.613812 1.589668 0.149641 -0.052197 -820170.000000 0 0 1
-29.428581 19.184806 -0.434489 35.132420 -0.577717 1.583164 0.183188 -0.064396 819889.000000 0 0 1
-30.344581 18.692306 -1.462989 35.669822 -0.552102 1.611823 0.163850 -0.053452 575453.000000 0 0 1
-30.643381 17.175706 -1.437089 35.158027 -0.510871 1.611683 0.180242 -0.048879 -86415.600000 0 0 1
-31.346581 16.667106 -0.321089 35.503572 -0.488688 1.579840 0.174983 -0.056474 257176.000000 0 0 1
-31.286981 15.253406 -0.251589 34.808115 -0.453624 1.578024 0.182195 -0.057481 -215456.000000 0 0 1
-29.966581 14.667306 0.280211 33.364717 -0.455176 1.562398 0.255199 -0.064768 -275405.000000 0 0 1
-29.878281 14.660206 1.677011 33.323350 -0.456151 1.520450 0.276899 -0.063559 634005.000000 0 0 1
-28.584281 14.334606 2.201411 32.052897 -0.464835 1.502062 0.319457 -0.075589 490852.000000 0 0 1
-28.301281 12.794006 2.325011 31.145702 -0.424569 1.496077 0.342503 -0.077791 -115054.000000 0 0 1
-28.195881 12.049706 1.141111 30.683957 -0.403865 1.533599 0.334745 -0.081423 278113.000000 0 0 1
-28.024481 10.631506 1.376711 30.004929 -0.362592 1.524897 0.381630 -0.082132 -147985.000000 0 0 1
-28.077281 9.925906 0.014511 29.780153 -0.339808 1.570309 0.366022 -0.072594 -561122.000000 0 0 1
-29.343581 9.803106 -0.558089 30.942819 -0.322422 1.588833 0.347793 -0.064932 -291886.000000 0 0 1
-29.297381 8.914506 -1.628789 30.666886 -0.295376 1.623934 0.348895 -0.055940 -693951.000000 0 0 1
-30.607581 8.506406 -2.275989 31.849067 -0.271077 1.642319 0.324498 -0.054264 -809098.000000 0 0 1
-30.438281 7.597906 -3.414189 31.557468 -0.244618 1.679198 0.343938 -0.048750 693700.000000 0 0 1
-31.614181 7.439906 -4.221789 32.751063 -0.231129 1.700061 0.311450 -0.039602 353184.000000 0 0 1
-11.803009 17.790406 -20.929689 29.897515 -0.985025 2.346261 0.177531 -0.009632 278304.000000 0 0 1
-11.940709 16.454106 -21.400289 29.517630 -0.943031 2.381831 0.178435 -0.043848 -123192.000000 0 0 1
-10.680809 15.997806 -21.826289 29.092892 -0.982119 2.419202 0.174598 -0.049327 -55962.700000 0 0 1
-10.783409 14.536606 -22.361389 28.768499 -0.932557 2.461139 0.160239 -0.032207 -152236.000000 0 0 1
-9.523509 13.914706 -22.302589 27.959287 -0.970603 2.494236 0.194381 -0.054928 -101321.000000 0 0 1
-9.652609 12.573606 -22.767489 27.742152 -0.916071 2.533400 0.174336 -0.056560 770915.000000 0 0 1
-8.447309 11.667106 -22.309989 26.555865 -0.944126 2.568292 0.160998 -0.053584 1449530.000000 0 0 1
-7.151409 12.014406 -22.850889 26.789022 -1.033887 2.592492 0.095675 -0.036524 462491.000000 0 0 1
-6.242509 11.166806 -22.169889 25.596297 -1.061052 2.618216 0.080949 -0.035765 -331718.000000 0 0 1
-4.779809 11.508906 -22.482989 25.705763 -1.177158 2.635465 0.031772 -0.021601 -134072.000000 0 0 1
-4.365909 11.292506 -23.827089 26.726616 -1.201877 2.671468 0.024014 -0.029289 -906651.000000 0 0 1
-2.990909 11.420206 -23.965289 26.715196 -1.314653 2.683880 0.022675 -0.020641 -821604.000000 0 0 1
-2.502009 11.107706 -25.402409 27.837449 -1.349244 2.720215 0.061262 -0.037442 -791520.000000 0 0 1
-2.650409 9.692306 -25.701859 27.596214 -1.303867 2.768912 0.067404 -0.038340 152483.000000 0 0 1
-2.099109 9.178906 -26.886079 28.487187 -1.345974 2.804728 0.086022 -0.040056 -397961.000000 0 0 1
-2.077309 7.613806 -26.854839 27.990492 -1.304444 2.855760 0.103944 -0.020058 233550.000000 0 0 1
-1.037109 6.931406 -26.143209 27.066351 -1.422274 2.879668 0.104422 -0.027651 385160.000000 0 0 1
-0.990009 7.140006 -24.744289 25.772847 -1.433018 2.858125 0.113840 -0.044129 -75583.600000 0 0 1
-0.097909 6.152006 -23.950989 24.728660 -1.554883 2.890139 0.043109 -0.032824 -71726.000000 0 1 0
1.288891 6.400806 -24.037789 24.908771 1.372090 2.876366 0.064390 -0.010515 203787.000000 0 1 0
2.173991 5.819606 -23.094389 23.915368 1.213286 2.878812 0.066445 0.001337 560846.000000 0 1 0
2.021991 6.361506 -21.656589 22.661974 1.263047 2.842607 0.059063 -0.011948 92712.400000 0 1 0
2.724791 7.646106 -21.565989 23.042988 1.228464 2.781609 0.064122 -0.028829 532260.000000 0 1 0
2.474791 8.336406 -20.383689 22.161115 1.282218 2.738355 0.074821 -0.025520 -39904.300000 0 1 0
3.102291 9.740206 -20.366789 22.788197 1.262451 2.676417 0.069598 -0.027603 -189404.000000 0 1 0
2.785591 10.454906 -19.182589 22.023539 1.310407 2.628038 0.081642 -0.031433 323640.000000 0 1 0
3.494091 11.701706 -19.137089 22.701691 1.280627 2.573597 0.085957 -0.033929 1039160.000000 0 1 0
4.814091 11.758906 -18.260189 22.245940 1.182213 2.533663 0.099396 -0.047293 833097.000000 0 1 0
5.810191 10.901906 -18.757589 22.460120 1.081136 2.559203 0.100294 -0.046252 -773400.000000 0 1 0
6.783391 10.569906 -17.833989 21.812576 1.000232 2.528029 0.094038 -0.045151 -628292.000000 0 1 0
7.876391 9.701706 -18.497289 22.322865 0.888868 2.547444 0.126326 -0.050234 -107627.000000 0 1 0
7.587791 8.320506 -18.651489 21.787231 0.831424 2.598422 0.116472 -0.046789 13991.700000 0 1 0
6.970591 7.997106 -19.894289 22.546077 0.853873 2.651701 0.091011 -0.034053 26355.400000 0 1 0
6.674591 6.501306 -19.990189 22.055040 0.772247 2.705425 0.100674 -0.032526 -24043.100000 0 1 0
7.791791 5.629906 -20.076089 22.258868 0.625696 2.695029 0.094687 -0.024183 218958.000000 0 1 0
7.436591 4.365206 -20.584589 22.317778 0.530799 2.744891 0.078450 -0.013986 36254.400000 0 1 0
7.981891 4.202206 -22.032889 23.807925 0.484597 2.753001 0.095176 -0.023207 -141138.000000 0 1 0
7.282091 5.039006 -22.947889 24.597277 0.605318 2.773302 0.100989 -0.015008 34884.400000 0 1 0
7.640391 4.839706 -24.279689 25.909489 0.564643 2.785013 0.094013 -0.011745 -133772.000000 0 0 1
6.629191 5.588306 -25.187759 26.638291 0.700407 2.810068 0.082176 -0.014561 -50968.800000 0 0 1
6.642891 7.009806 -25.209709 26.996200 0.812267 2.775755 0.062410 -0.029071 189102.000000 0 0 1
6.188191 7.691106 -24.017689 25.967214 0.893263 2.751631 0.104486 -0.035768 -912741.000000 0 0 1
5.986791 9.213906 -24.191089 26.569654 0.994593 2.715235 0.111781 -0.050166 -623873.000000 0 0 1
4.818191 9.405006 -24.891789 27.042009 1.097357 2.740119 0.100295 -0.048890 -210005.000000 0 0 1
3.635391 9.449706 -24.077789 26.119972 1.203541 2.743534 0.107491 -0.050073 251905.000000 0 0 1
2.334091 9.632306 -24.919589 26.818188 1.333060 2.763052 0.123000 -0.041467 167288.000000 0 0 1
2.095891 11.023206 -25.255139 27.635591 1.382905 2.723495 0.128596 -0.053974 63554.300000 0 0 1
1.069591 11.028906 -26.229959 28.474401 1.474118 2.741890 0.145604 -0.059836 -79447.700000 0 0 1
0.607791 12.474606 -26.642919 29.424995 1.522113 2.703240 0.115939 -0.059008 -153168.000000 0 0 1
-0.005809 13.222206 -25.618559 28.829452 -1.570357 2.665134 0.105721 -0.054350 -93995.000000 0 0 1
-0.681309 14.313706 -26.197009 29.860168 -1.523234 2.641051 0.098322 -0.051604 -231388.000000 0 0 1
-1.050609 15.322006 -25.159489 29.476559 -1.502335 2.593543 0.101882 -0.054354 -441996.000000 0 0 1
-2.254209 14.982406 -24.526589 28.828935 -1.421459 2.588232 0.076001 -0.034271 -537058.000000 0 0 1
-2.388109 15.618606 -23.263889 28.122099 -1.419070 2.544984 0.063623 -0.038540 201306.000000 0 0 1
-3.593809 15.029006 -22.418889 27.228534 -1.336079 2.538103 0.050561 -0.036535 1340980.000000 0 0 1
-4.915909 15.334206 -22.848989 27.953181 -1.260563 2.527683 0.044961 -0.031037 218052.000000 0 0 1
-5.294309 14.770906 -24.101889 28.759527 -1.226633 2.564493 0.057459 -0.040306 -1668800.000000 0 0 1
-6.781409 14.929506 -24.320489 29.331959 -1.144431 2.548375 0.049600 -0.035711 -779055.000000 0 0 1
-7.253109 16.245306 -24.565489 30.331185 -1.150878 2.514793 0.058991 -0.031333 -28277.700000 0 0 1
-8.634009 16.137406 -24.868289 30.877075 -1.079518 2.507140 0.102061 -0.034242 -314767.000000 0 0 1
-9.377009 17.364906 -25.197199 32.005735 -1.075665 2.477168 0.120167 -0.034772 -442438.000000 0 0 1
-9.603009 18.230906 -24.078389 31.691521 -1.085984 2.433762 0.128545 -0.034993 596486.000000 0 0 1
-10.635009 19.209406 -24.393989 32.820289 -1.065166 2.408726 0.114743 -0.022051 918231.000000 0 0 1
-10.897209 20.379506 -23.472589 32.939882 -1.079765 2.363978 0.106067 -0.027644 -16660.300000 0 0 1
-10.076609 21.510406 -23.737589 33.581375 -1.132703 2.355856 0.144169 -0.020251 48236.100000 0 0 1
-10.762509 22.716406 -23.942089 34.714411 -1.128346 2.331853 0.125589 -0.027133 -329218.000000 0 0 1
-11.003009 22.982706 -25.400299 35.978412 -1.124291 2.354612 0.098112 -0.021406 -114029.000000 0 0 1
-11.789309 22.080406 -26.132489 36.186173 -1.080377 2.377727 0.105818 -0.026695 -1853.190000 0 0 1
-11.992609 22.603806 -27.386619 37.480416 -1.083003 2.390131 0.096596 -0.017821 -225098.000000 0 0 1
-12.554809 21.706006 -28.447479 37.921405 -1.046409 2.419115 0.095926 -0.013624 -79354.700000 0 0 1
-11.657209 20.738806 -28.974009 37.489756 -1.058713 2.454119 0.096449 -0.024461 108622.000000 0 0 1
-11.372909 19.596906 -28.135329 36.124486 -1.044957 2.463617 0.094307 -0.024285 -838128.000000 0 0 1
-10.281609 18.741206 -28.658599 35.752756 -1.069021 2.500725 0.076753 -0.028430 -1097190.000000 0 0 1
-8.966409 19.292606 -28.581939 35.630441 -1.135737 2.501730 0.066787 -0.031684 628750.000000 0 0 1
-8.011209 18.630406 -29.419199 35.731789 -1.164692 2.538057 0.054854 -0.028292 411285.000000 0 0 1
-7.531009 17.265506 -28.937729 34.528335 -1.159488 2.564562 0.070162 -0.039782 -1130350.000000 0 0 1
-8.537109 16.274806 -28.958299 34.297735 -1.087694 2.576093 0.054166 -0.029413 -142290.000000 0 0 1
-8.238609 15.115206 -28.165729 33.009883 -1.071758 2.592985 0.054811 -0.034451 -449879.000000 0 0 1
-9.380109 14.120006 -27.989159 32.722378 -0.984425 2.597027 0.064372 -0.020677 314800.000000 0 0 1
-10.353409 14.533206 -26.999659 32.363386 -0.951799 2.557596 0.095526 -0.029364 895522.000000 0 0 1
-11.573409 13.774106 -27.116139 32.541585 -0.872002 2.555804 0.146416 -0.035912 817943.000000 0 0 1
-12.578809 14.161206 -26.009639 32.175573 -0.844506 2.512167 0.152641 -0.034316 -105173.000000 0 0 1
-13.140109 15.434506 -26.153119 33.088851 -0.865521 2.482243 0.132266 -0.035430 -571060.000000 0 0 1
-14.047609 15.648906 -25.117109 32.758094 -0.839268 2.444552 0.138552 -0.037225 -324749.000000 0 0 1
-15.098209 16.727606 -25.308659 33.886530 -0.836551 2.414131 0.117904 -0.029096 -288178.000000 0 0 1
-14.641409 18.029606 -25.569939 34.543586 -0.888735 2.404198 0.110559 -0.022394 -84877.000000 0 0 1
-15.737009 18.880206 -25.853129 35.672116 -0.875949 2.381458 0.082408 -0.017541 204482.000000 0 0 1
-15.237209 20.304206 -26.011159 36.345752 -0.927010 2.368363 0.077961 -0.022478 380400.000000 0 0 1
-16.325209 21.165606 -26.363209 37.543496 -0.913797 2.349285 0.037707 -0.009633 370775.000000 0 0 1
-16.022309 22.501706 -26.625559 38.366151 -0.952030 2.337806 0.048530 -0.012429 -280759.000000 0 0 1
-15.502809 23.352106 -25.456049 37.863813 -0.984731 2.308115 0.025581 -0.010318 29525.900000 0 0 1
-15.302409 24.665006 -25.868909 38.880929 -1.015505 2.298741 0.049267 -0.014407 141402.000000 0 0 1
-14.494509 25.279306 -24.871689 38.311030 -1.050185 2.277334 0.060197 -0.020898 -111910.000000 0 0 1
-14.065509 26.680506 -25.222239 39.317290 -1.085640 2.267255 0.068152 -0.026583 -697770.000000 0 0 1
-15.100309 27.586606 -25.416849 40.435830 -1.069968 2.250513 0.085049 -0.026764 -550112.000000 0 0 1
-15.584109 28.188406 -24.247489 40.316143 -1.065764 2.216091 0.085794 -0.033972 -1189870.000000 0 0 1
-16.850109 28.974506 -24.315189 41.408653 -1.044054 2.198392 0.069851 -0.030960 -980450.000000 0 0 1
-17.993109 28.153106 -24.342889 41.339153 -1.002110 2.200441 0.046312 -0.028644 -837298.000000 0 0 1
-19.091409 28.876906 -24.776989 42.570609 -0.986636 2.192008 0.044698 -0.023437 -1423790.000000 0 0 1
-20.329709 28.068706 -25.001589 42.734398 -0.943958 2.195733 0.049232 -0.013547 -985037.000000 0 0 1
-20.876409 27.683506 -23.744089 42.023597 -0.924670 2.171251 0.052086 -0.017817 -224398.000000 0 0 1
-21.864309 26.725106 -24.034589 42.070664 -0.885105 2.178874 0.046711 -0.033490 -397388.000000 0 0 1
-22.571109 26.171206 -22.767289 41.385220 -0.859124 2.153317 0.050712 -0.026418 -122382.000000 0 0 1
-23.562909 27.023306 -22.229289 42.185436 -0.853698 2.125795 0.053381 -0.024226 63420.400000 0 0 1
-23.636309 26.875906 -20.858489 41.425427 -0.849445 2.098463 0.042161 -0.008413 264789.000000 0 0 1
-24.781709 27.747106 -20.209189 42.337292 -0.841791 2.068419 0.031337 -0.001101 894325.000000 0 0 1
-26.077069 27.182506 -20.395189 42.835334 -0.806151 2.067045 0.047678 -0.007900 61777.400000 0 0 1
-26.977349 28.180006 -20.792789 44.206675 -0.807199 2.060488 0.047155 -0.006813 -37471.900000 0 0 1
-28.453449 27.715906 -20.830689 44.851843 -0.772268 2.053791 0.049880 -0.014333 137312.000000 0 0 1
-28.786199 27.004106 -21.972889 45.173829 -0.753466 2.078770 0.062302 -0.019280 -582915.000000 0 0 1
-30.170289 27.063106 -22.164589 46.194448 -0.731162 2.071235 0.074938 -0.024963 -596295.000000 0 0 1
-30.551989 26.743106 -23.633089 46.980215 -0.719017 2.097913 0.073447 -0.025327 5161.010000 0 0 1
-30.520649 25.364106 -23.907889 46.329634 -0.693388 2.113016 0.084006 -0.015793 -163346.000000 0 0 1
-30.724419 25.219206 -25.269359 47.101367 -0.687308 2.137067 0.092665 -0.024226 -52121.200000 0 0 1
-30.786539 23.774506 -25.807459 46.680435 -0.657582 2.156582 0.093915 -0.023341 291253.000000 0 0 1
-29.559399 23.066606 -25.641419 45.423658 -0.662642 2.170617 0.121220 -0.035844 369706.000000 0 0 1
-29.639939 21.853906 -26.339569 45.275734 -0.635332 2.191686 0.112131 -0.026459 15789.500000 0 0 1
-28.498569 20.916306 -25.900139 43.823253 -0.633145 2.203111 0.128031 -0.023919 -56867.200000 0 0 1
-28.543989 20.393106 -24.546889 42.815743 -0.620355 2.181342 0.115044 -0.013395 -220090.000000 0 0 1
-27.951759 19.168206 -24.389389 41.755996 -0.601105 2.194559 0.107294 -0.009063 -511317.000000 0 0 1
-28.923059 17.988006 -24.565389 41.994881 -0.556386 2.195629 0.082769 -0.001255 -475885.000000 0 0 1
-29.519479 17.818606 -25.838049 43.087204 -0.543078 2.213883 0.071739 -0.010337 103184.000000 0 0 1
-30.000549 16.499306 -25.800159 42.870832 -0.502818 2.216564 0.047717 -0.001414 -235748.000000 0 0 1
-30.886939 16.076006 -27.002939 44.063587 -0.479896 2.230418 0.041690 -0.000651 459740.000000 0 0 1
-32.187889 16.631806 -27.170419 45.286961 -0.476926 2.214249 0.033139 -0.008767 397080.000000 0 0 1
-32.786509 15.940406 -28.262639 46.128391 -0.452537 2.230263 0.040624 -0.005466 543799.000000 0 0 1
-34.201385 16.490606 -28.591599 47.530562 -0.449276 2.216226 0.057020 -0.013881 833816.000000 0 0 1
-35.274018 16.442006 -27.640509 47.734617 -0.436180 2.188354 0.040537 -0.010740 919064.000000 0 0 1
-36.503669 16.611006 -28.346699 49.111900 -0.427046 2.186075 0.070873 -0.015513 557824.000000 0 0 1
-37.802809 16.206306 -27.620079 49.543571 -0.405006 2.162156 0.083926 -0.013167 183338.000000 0 0 1
37.990623 17.211406 -26.725139 49.535371 0.425382 2.140659 0.089178 -0.023055 -139802.000000 0 0 1
36.960873 16.771606 -25.881519 48.137780 0.425982 2.138450 0.105643 -0.019713 -76678.300000 0 0 1
36.305753 17.859806 -25.007889 47.565480 0.457169 2.124401 0.116955 -0.020236 100423.000000 0 0 1
35.515113 18.806106 -25.718339 47.711904 0.486987 2.140086 0.120507 -0.037836 54345.600000 0 0 1
35.089063 19.797806 -24.798489 47.309201 0.513692 2.122547 0.140361 -0.033136 -62868.200000 0 0 1
34.267993 20.960206 -25.402539 47.528039 0.548946 2.134683 0.142946 -0.048629 932947.000000 0 0 1
32.977933 20.605906 -25.926619 46.736891 0.558484 2.158842 0.149423 -0.048862 625862.000000 0 0 1
31.898583 21.197106 -25.244899 45.870925 0.586512 2.153575 0.137114 -0.038415 571797.000000 0 0 1
30.489063 21.171506 -25.911379 45.268258 0.606955 2.180221 0.100633 -0.033932 817862.000000 0 0 1
29.853563 19.921906 -25.846779 44.228650 0.588455 2.194924 0.126065 -0.052635 -235606.000000 0 0 1
28.580963 19.790306 -26.436239 43.673818 0.605627 2.220953 0.115601 -0.048514 122425.000000 0 0 1
27.902563 18.394606 -26.201619 42.466921 0.582846 2.235707 0.126286 -0.038071 26802.700000 0 0 1
28.575863 17.354406 -26.909879 42.917326 0.545777 2.248514 0.126238 -0.033160 1153540.000000 0 0 1
29.816063 16.880006 -26.334459 43.213839 0.515149 2.226098 0.142083 -0.039305 765469.000000 0 0 1
30.694363 15.995606 -27.249479 44.051531 0.480405 2.237733 0.119784 -0.024584 -171475.000000 0 0 1
30.281963 14.711306 -27.671439 43.578989 0.452232 2.258769 0.126303 -0.024271 -237938.000000 0 0 1
29.934063 13.666906 -26.723269 42.390630 0.428302 2.252871 0.139917 -0.019955 -298947.000000 0 0 1
31.000663 13.036406 -25.801569 42.387615 0.398070 2.225224 0.139169 -0.019639 -38953.000000 0 0 1
31.062363 13.917106 -24.712389 42.062553 0.421221 2.198781 0.143413 -0.030082 -454201.000000 0 0 1
32.115363 13.537406 -23.894689 42.256526 0.398923 2.171796 0.128167 -0.027054 -283948.000000 0 0 1
-15.535809 -30.862123 -24.117089 42.136279 1.104437 2.180176 0.119334 -0.028158 -201023.000000 0 0 1
-14.580809 -29.939823 -24.554689 41.375425 1.117600 2.206148 0.115744 -0.028187 -125571.000000 0 0 1
-15.006309 -29.447023 -25.813079 41.936041 1.099495 2.233860 0.087525 -0.022174 -43281.200000 0 0 1
-14.359909 -28.157323 -26.276919 41.103751 1.099190 2.264361 0.109757 -0.022572 -270010.000000 0 0 1
-14.824909 -26.952423 -25.604169 40.022300 1.067922 2.264966 0.108171 -0.017066 -161814.000000 0 0 1
-14.380909 -25.779123 -26.186639 39.460281 1.061945 2.296444 0.109819 -0.015177 -358786.000000 0 0 1
-14.874809 -24.449323 -25.600229 38.397931 1.024228 2.300580 0.054961 -0.017896 135510.000000 0 0 1
-14.334109 -24.195123 -24.286889 37.158090 1.035956 2.283141 0.099056 -0.028663 315275.000000 0 0 1
-14.863109 -22.965123 -23.848189 36.291115 0.996389 2.287809 0.063837 -0.027780 -376401.000000 0 0 1
-14.273409 -22.386323 -22.550289 34.833794 1.003191 2.274923 0.096274 -0.027039 561200.000000 0 0 1
-12.897609 -22.046223 -22.774089 34.220512 1.041460 2.298973 0.135875 -0.040742 505135.000000 0 0 1
-12.196109 -21.851423 -21.567189 33.035941 1.061727 2.282124 0.107211 -0.041522 213671.000000 0 0 1
-10.680509 -21.621723 -21.733989 32.464419 1.111983 2.304293 0.124977 -0.049571 40082.300000 0 0 1
-10.288109 -20.492323 -22.468089 32.102890 1.105512 2.346022 0.139637 -0.054414 -900378.000000 0 0 1
-8.955109 -20.603023 -22.826689 32.027118 1.160780 2.364179 0.179246 -0.058212 -580338.000000 0 0 1
-8.299809 -19.375223 -23.569289 31.619574 1.166073 2.411934 0.207662 -0.053151 40354.000000 0 0 1
-8.181109 -18.262323 -22.755889 30.303028 1.149626 2.420287 0.146695 -0.049744 -303858.000000 0 0 1
-8.207809 -16.993223 -23.435189 30.088966 1.120837 2.463648 0.132118 -0.048255 -123939.000000 0 0 1
-7.054209 -16.608823 -24.384089 30.334777 1.169157 2.504507 0.176172 -0.059836 -63539.200000 0 0 1
-6.898909 -17.276123 -25.642829 31.679868 1.190866 2.513987 0.186407 -0.058042 164291.000000 0 0 1
-5.777709 -16.708523 -26.317589 31.704450 1.237873 2.550068 0.168538 -0.057649 365794.000000 0 0 1
-5.344709 -17.409323 -27.627449 33.089672 1.272927 2.558796 0.163157 -0.042182 213757.000000 0 0 1
-6.333509 -17.315923 -28.651829 34.071716 1.220149 2.569790 0.189135 -0.041499 162577.000000 0 0 1
-5.941809 -18.035523 -29.758719 35.301084 1.252545 2.573628 0.184823 -0.046423 250146.000000 0 0 1
-7.128409 -18.103023 -30.790279 36.422177 1.195673 2.578057 0.197968 -0.047204 679047.000000 0 0 1
-7.340809 -16.934523 -31.564699 36.564953 1.161763 2.612470 0.170525 -0.044392 -118852.000000 0 0 1
-7.748009 -15.716623 -30.880459 35.505586 1.112779 2.625462 0.141122 -0.029853 -350181.000000 0 0 1
-8.274309 -14.699223 -31.942119 36.122435 1.058097 2.655733 0.121039 -0.034806 -49764.400000 0 0 1
-7.426609 -14.256123 -32.990089 36.697923 1.090536 2.688193 0.148434 -0.045319 -363594.000000 0 0 1
-8.135509 -13.580923 33.290581 36.863136 1.031083 0.443895 0.143834 -0.039145 23079.300000 0 0 1
-8.432309 -12.067223 33.538401 36.627122 0.960891 0.413622 0.111011 -0.030946 486390.000000 0 0 1
-7.204009 -11.364723 -33.609359 36.202813 1.005828 2.760781 0.106404 -0.028481 193050.000000 0 0 1
-6.751409 -10.843823 32.466116 34.888662 1.013922 0.374847 0.085314 -0.030672 35108.400000 0 0 1
-5.397409 -10.088323 32.532017 34.485336 1.079530 0.338186 0.106598 -0.031516 92620.000000 0 0 1
-5.043809 -9.416323 31.347984 33.118020 1.079041 0.328418 0.077610 -0.018948 336950.000000 0 0 1
-4.022509 -8.463423 31.672820 33.029951 1.127118 0.287654 0.074914 -0.030093 -213969.000000 0 0 1
-4.147909 -7.327023 30.619291 31.755809 1.055668 0.268346 0.058056 -0.017990 1258930.000000 0 0 1
-5.250009 -6.356923 30.767231 31.852717 0.880477 0.261815 0.051822 -0.011304 -34099.600000 0 0 1
-6.428809 -6.832323 30.265661 31.686282 0.815817 0.300576 0.059994 -0.008568 -1140390.000000 0 0 1
-7.497609 -5.672823 30.192511 31.622504 0.647723 0.301880 0.054354 -0.006642 321144.000000 0 0 1
-8.688009 -6.214623 29.676101 31.540038 0.620928 0.345511 0.076442 -0.004702 -806893.000000 0 0 1
-9.706509 -5.312523 29.447071 31.457419 0.500780 0.359443 0.063196 -0.005548 -323654.000000 0 0 1
-10.861609 -5.864923 28.603221 31.153108 0.495109 0.407411 0.083769 -0.002091 -82345.300000 0 0 1
-10.441809 -6.257723 27.266241 29.860314 0.539901 0.419908 0.072962 -0.004169 1180740.000000 0 0 1
-11.592009 -6.686023 26.495541 29.683182 0.523170 0.467692 0.071918 -0.009401 885505.000000 0 0 1
-11.323209 -6.584723 24.953431 28.182394 0.526724 0.483386 0.045213 -0.007649 20295.800000 0 0 1
-10.342209 -7.460523 24.442891 27.569469 0.624922 0.480870 0.040885 -0.000527 -24385.800000 0 0 1
-9.673009 -6.960823 23.294571 26.165955 0.623768 0.472875 0.040132 -0.009019 -198047.000000 0 0 1
-10.450909 -6.942223 21.930611 25.265939 0.586341 0.519654 0.047178 -0.016043 59567.200000 0 0 1
-11.533009 -6.047123 21.915011 25.492071 0.482923 0.536154 0.032762 -0.012209 39634.100000 0 0 1
-12.301009 -5.989923 20.708311 24.819914 0.453150 0.583857 0.036319 -0.022604 211042.000000 0 1 0
-13.492409 -4.981123 20.799611 25.287952 0.353658 0.604985 0.038509 -0.015408 201130.000000 0 0 1
-13.177609 -3.593523 20.658211 24.765388 0.266226 0.584195 0.028803 -0.012160 -233428.000000 0 1 0
-14.318909 -2.817523 20.914211 25.502428 0.194287 0.609233 0.054262 -0.010528 -29491.400000 0 0 1
-14.276309 -1.341523 20.482011 25.002509 0.093693 0.610785 0.043271 -0.008591 487162.000000 0 0 1
-13.240209 -0.569523 21.150311 24.959230 0.042988 0.559738 0.037471 -0.005952 677323.000000 0 1 0
-13.259809 0.843477 20.818911 24.697389 -0.063526 0.568035 0.046374 -0.016542 -556341.000000 0 1 0
-12.735609 1.189477 19.431111 23.263247 -0.093128 0.582171 0.048791 -0.024895 371654.000000 0 1 0
-13.573709 0.810477 18.292211 22.792706 -0.059638 0.639245 0.054836 -0.023494 379423.000000 0 1 0
-14.845709 1.406477 18.234611 23.555770 -0.094458 0.685498 0.045951 -0.017673 -92759.600000 0 1 0
-15.818009 0.674477 17.254411 23.417494 -0.042614 0.742446 0.072347 -0.021409 37210.500000 0 1 0
-16.120909 -0.553523 17.817211 24.034207 0.034322 0.735751 0.056415 -0.025065 111376.000000 0 1 0
-16.998909 -1.228523 16.942711 24.031805 0.072145 0.788356 0.077305 -0.025365 -26143.300000 0 1 0
-17.148309 -2.736823 17.327611 24.531629 0.158263 0.786485 0.066248 -0.017322 -42317.900000 0 1 0
-17.743409 -2.907523 18.572811 25.850175 0.162421 0.769183 0.094406 -0.019907 -281182.000000 0 0 1
-17.594409 -4.280023 18.881411 26.160839 0.238626 0.764479 0.111735 -0.016353 -199689.000000 0 0 1
-18.293309 -4.661423 20.187111 27.638623 0.249506 0.751896 0.123237 -0.014172 38298.600000 0 0 1
-17.632709 -4.224023 21.402911 28.050658 0.235125 0.702840 0.113573 -0.008866 554715.000000 0 0 1
-18.394009 -4.410923 22.624861 29.490340 0.235358 0.696339 0.108548 -0.012628 -271605.000000 0 0 1
-18.337009 -5.871823 23.206011 30.153659 0.309900 0.692595 0.138308 -0.006184 341246.000000 0 0 1
-17.083109 -6.354823 23.681201 29.883368 0.356133 0.655974 0.065524 -0.015909 580677.000000 0 0 1
-16.220509 -6.803823 22.621591 28.655424 0.397167 0.660909 0.101005 -0.013882 933830.000000 0 0 1
-14.900609 -7.526223 23.156281 28.546200 0.467715 0.624619 0.112004 -0.011160 850943.000000 0 0 1
-15.096309 -8.820923 23.709891 29.459568 0.528803 0.635410 0.106659 -0.021319 -29700.900000 0 0 1
-15.240509 -8.849623 25.111631 30.678705 0.526081 0.611938 0.105737 -0.019379 -200747.000000 0 0 1
-16.439909 -9.679523 25.588651 31.917751 0.532130 0.640652 0.076701 -0.014918 -384222.000000 0 0 1
-16.401209 -11.105123 25.379431 32.193772 0.595185 0.662701 0.078981 -0.027750 51617.500000 0 0 1
-15.669109 -11.802623 26.393631 32.885356 0.645572 0.639163 0.070656 -0.023977 106093.000000 0 0 1
-15.919109 -13.299123 26.199071 33.416703 0.695968 0.669695 0.048630 -0.029419 97744.800000 0 0 1
-17.078609 -13.766723 26.868821 34.686238 0.678437 0.684675 0.066991 -0.034518 1139.030000 0 0 1
-17.340209 -15.159723 26.864151 35.386193 0.718407 0.708759 0.080669 -0.028659 -223618.000000 0 0 1
-16.384709 -16.107323 27.620161 35.927397 0.776861 0.693870 0.068413 -0.029560 -3257.410000 0 0 1
-15.145109 -16.262223 26.968871 34.945017 0.820952 0.689205 0.098409 -0.036035 -131373.000000 0 0 1
-14.307209 -17.220623 27.547171 35.497785 0.877544 0.682458 0.114258 -0.034533 427577.000000 0 0 1
-12.988909 -17.379323 26.703701 34.406980 0.928976 0.682318 0.115555 -0.048333 410698.000000 0 0 1
-11.909109 -17.851323 27.468491 34.857060 0.982475 0.663190 0.162943 -0.055623 -29438.100000 0 0 1
-10.804809 -18.220423 26.671511 34.060200 1.035536 0.671210 0.157803 -0.060944 -18846.700000 0 0 1
-9.617209 -18.868123 27.385141 34.618532 1.099414 0.658266 0.209889 -0.073086 -168888.000000 0 0 1
-9.959309 -20.130823 27.951961 35.857356 1.111374 0.676878 0.218990 -0.062014 406846.000000 0 0 1
-8.903409 -20.685723 28.732571 36.506581 1.164350 0.664781 0.236334 -0.065894 242123.000000 0 0 1
-9.255009 -21.992223 29.464561 37.914027 1.172462 0.680686 0.216920 -0.069452 -86562.100000 0 0 1
-9.300209 -23.108223 28.590931 37.919984 1.188168 0.716695 0.252143 -0.072707 10808.800000 0 0 1
-9.685209 -24.296223 29.231911 39.225175 1.191471 0.729912 0.201996 -0.068804 -228135.000000 0 0 1
-9.829709 -25.528423 28.337371 39.386929 1.203244 0.767770 0.204640 -0.058223 379502.000000 0 0 1
-11.065309 -25.570723 27.616321 39.229633 1.162394 0.789830 0.177548 -0.058677 441546.000000 0 0 1
-11.242209 -26.839523 26.986551 39.686537 1.174131 0.823044 0.169645 -0.055268 692032.000000 0 0 1
-12.669309 -26.828423 26.302671 39.649794 1.129607 0.845477 0.150336 -0.053083 757757.000000 0 0 1
-13.013409 -26.210023 25.074341 38.536174 1.109949 0.862330 0.155170 -0.063589 111238.000000 0 0 1
-12.758609 -24.815923 25.095781 37.528794 1.095909 0.838327 0.133169 -0.047511 -348929.000000 0 0 1
-12.864609 -24.258923 23.681181 36.260059 1.083200 0.859135 0.117665 -0.068477 -542432.000000 0 0 1
-14.158309 -24.450423 23.215761 36.568463 1.045915 0.882972 0.101480 -0.057256 -394338.000000 0 0 1
-14.213509 -23.974823 21.864111 35.423937 1.035650 0.905601 0.104320 -0.055658 -285021.000000 0 0 1
-15.596709 -24.124823 21.232111 35.722080 0.996885 0.934315 0.093921 -0.054893 -596391.000000 0 0 1
-16.015909 -25.412423 20.865811 36.574344 1.008438 0.963677 0.108864 -0.048539 168815.000000 0 0 1
-17.207009 -25.433223 20.112311 36.707425 0.975978 0.990934 0.100757 -0.042872 337328.000000 0 0 1
-17.760609 -26.843523 19.724811 37.750260 0.986285 1.021007 0.088304 -0.040193 -109573.000000 0 0 1
-16.796609 -27.378023 18.874711 37.255026 1.020504 1.039519 0.088607 -0.039013 -34794.000000 0 0 1
-17.046209 -28.694023 18.536811 38.177658 1.034750 1.063815 0.092293 -0.030855 -344871.000000 0 0 1
-16.089109 -29.069723 17.412211 37.511243 1.065296 1.088080 0.104238 -0.034437 -76775.000000 0 0 1
-16.255309 -28.437423 16.173611 36.530916 1.051508 1.112147 0.106546 -0.038342 395082.000000 0 0 1
-15.002409 -28.381423 15.487411 35.643195 1.084532 1.121299 0.106698 -0.039511 427884.000000 0 0 1
-15.183209 -27.845923 13.998911 34.668354 1.071601 1.155135 0.116259 -0.031460 -136969.000000 0 0 1
-15.433709 -26.458523 13.863911 33.622327 1.042734 1.145773 0.125148 -0.043396 -64366.400000 0 0 1
-15.650609 -25.979923 12.517511 32.811371 1.028605 1.179379 0.140068 -0.052146 105215.000000 0 0 1
-14.471309 -26.069323 11.495211 31.955724 1.064039 1.202825 0.122247 -0.046495 271395.000000 0 0 1
-14.806509 -25.580123 10.215611 31.271938 1.046089 1.238018 0.114643 -0.036446 280535.000000 0 0 1
-13.777909 -25.892123 9.272811 30.760654 1.081778 1.264583 0.122783 -0.030164 443915.000000 0 0 1
-14.111109 -25.355723 7.841511 30.058699 1.062957 1.306870 0.134540 -0.041767 382130.000000 0 0 1
-15.290409 -25.886523 7.243611 30.925371 1.037265 1.334371 0.132935 -0.049230 369186.000000 0 0 1
-15.629509 -25.113823 6.104511 30.203489 1.014107 1.367282 0.125265 -0.046352 513737.000000 0 0 1
-16.623709 -25.762523 5.081011 31.078481 0.997755 1.406569 0.131708 -0.058287 879820.000000 0 0 1
-15.913609 -26.776323 4.343011 31.449582 1.034566 1.432259 0.135782 -0.050337 220509.000000 0 0 1
-16.675709 -27.222723 3.270911 32.091351 1.021188 1.468694 0.181373 -0.052668 -241335.000000 0 0 1
-16.084909 -28.503723 2.617211 32.833464 1.057034 1.491000 0.183972 -0.052232 -34734.400000 0 0 1
-14.826409 -28.268023 2.019611 31.984096 1.087746 1.507610 0.141179 -0.038691 -162232.000000 0 0 1
-14.578609 -29.510723 1.401511 32.945149 1.111952 1.528243 0.143839 -0.042292 879830.000000 0 0 1
-13.156109 -29.450723 0.692111 32.263095 1.150677 1.549343 0.119349 -0.036465 1075800.000000 0 0 1
-13.079509 -28.654623 -0.485689 31.502332 1.142588 1.586215 0.130558 -0.030454 492.487000 0 0 1
-12.858309 -27.261423 -0.215789 30.142460 1.130071 1.577955 0.110566 -0.040592 -322783.000000 0 0 1
-12.533609 -26.348323 -1.450689 29.213524 1.126786 1.620475 0.107829 -0.034013 651380.000000 0 0 1
-11.315309 -26.767523 -2.081089 29.135330 1.170854 1.642286 0.121972 -0.037665 136144.000000 0 0 1
-10.858209 -25.858223 -3.038389 28.209577 1.173242 1.678713 0.124543 -0.035901 -572671.000000 0 0 1
-9.580209 -26.293223 -3.691289 28.226576 1.221386 1.701946 0.119843 -0.037634 -699713.000000 0 0 1
-9.085609 -25.472823 -4.763189 27.460899 1.228184 1.745132 0.108835 -0.038651 1215460.000000 0 0 1
-7.711409 -25.973623 -4.926189 27.538378 1.282192 1.750649 0.119438 -0.029212 1673950.000000 0 0 1
-6.733309 -24.922623 -5.467889 26.388869 1.306927 1.779513 0.082174 -0.028480 -347026.000000 0 0 1
-6.975109 -24.673723 -6.867989 26.544567 1.295291 1.832508 0.093345 -0.026953 -183900.000000 0 0 1
-6.366609 -23.528823 -7.380689 25.467898 1.306537 1.864818 0.082017 -0.026337 -774574.000000 0 0 1
-6.324109 -23.417623 -8.950889 25.855325 1.307031 1.924305 0.084049 -0.023455 194808.000000 0 0 1
-5.355609 -24.319823 -9.489589 26.649365 1.354040 1.934877 0.057994 -0.028418 235904.000000 0 0 1
-5.207209 -24.204323 -10.893889 27.048865 1.358891 1.985314 0.043154 -0.013855 1146930.000000 0 0 1
-6.389909 -24.954823 -11.709189 28.296276 1.320123 1.997428 0.087168 -0.019834 1320600.000000 0 0 1
-6.401709 -24.800423 -13.099789 28.768861 1.318182 2.043557 0.112792 -0.021260 -1211410.000000 0 0 1
-7.592709 -25.301223 -13.518089 29.673892 1.279255 2.043792 0.165064 -0.027431 -1502200.000000 0 0 1
-7.966409 -25.008823 -14.985389 30.223613 1.262415 2.089572 0.163599 -0.031320 232657.000000 0 0 1
-7.180009 -25.559723 -16.084289 31.041204 1.296943 2.115494 0.138010 -0.046675 7125.190000 0 0 1
-5.920609 -24.971823 -16.201989 30.350453 1.338003 2.133920 0.132145 -0.036209 -550714.000000 0 0 1
-4.891409 -25.827323 -16.988589 31.298381 1.383624 2.144557 0.121500 -0.027944 -171902.000000 0 0 1
-4.852309 -25.711123 -18.412489 31.994164 1.384266 2.184006 0.205848 -0.043023 638314.000000 0 0 1
-3.929309 -26.689223 -18.961189 32.973941 1.424622 2.183444 0.191003 -0.047908 586254.000000 0 0 1
-26.389729 14.378806 -3.803189 30.292443 -0.498891 1.696678 0.212135 -0.060446 -22479.100000 0 0 1
-25.953789 13.056306 -3.452789 29.257273 -0.466092 1.689087 0.213312 -0.058867 381430.000000 0 0 1
-24.644109 12.840806 -3.950389 28.068202 -0.480345 1.712008 0.242294 -0.052789 -15063.600000 0 0 1
-24.230309 11.358006 -3.824089 27.032126 -0.438338 1.712737 0.238632 -0.059821 -25298.100000 0 0 1
-24.757409 10.542006 -4.870789 27.345708 -0.402558 1.749871 0.220106 -0.031198 1403490.000000 0 0 1
-26.165049 10.199306 -4.817089 28.492806 -0.371688 1.740676 0.223008 -0.032474 1156100.000000 0 0 1
-26.702029 9.481106 -6.128389 28.990462 -0.341185 1.783797 0.237627 -0.028700 13773.000000 0 0 1
-26.773439 10.409706 -7.202089 29.615015 -0.370820 1.816450 0.282223 -0.024107 18371.100000 0 0 1
-26.810999 9.743706 -8.443289 29.749934 -0.348582 1.858560 0.246842 -0.030278 -435731.000000 0 0 1
-27.118499 10.527006 -9.751989 30.681136 -0.370280 1.894257 0.240153 -0.033480 -329352.000000 0 0 1
-26.195979 11.537206 -10.021389 30.327622 -0.414858 1.907564 0.213823 -0.026732 69236.000000 0 0 1
-26.543199 12.182406 -11.234889 31.291775 -0.430284 1.938032 0.209913 -0.040339 170683.000000 0 0 1
-25.492589 13.251306 -11.697689 31.021043 -0.479370 1.957447 0.162993 -0.027445 256663.000000 0 0 1
-25.503589 14.487706 -11.001989 31.326832 -0.516607 1.929649 0.158333 -0.023798 766219.000000 0 0 1
-24.513909 15.386606 -11.567389 31.168636 -0.560516 1.951014 0.135560 -0.020915 594950.000000 0 0 1
-24.552909 16.766906 -10.852089 31.650313 -0.599149 1.920772 0.145985 -0.025828 -89439.800000 0 0 1
-23.671009 16.850906 -9.762189 30.652406 -0.618654 1.894922 0.136398 -0.017644 -40259.200000 0 0 1
-23.672109 18.191806 -9.317189 31.274919 -0.655231 1.873301 0.092730 -0.007274 284299.000000 0 0 1
-22.669809 18.486406 -8.144289 30.364401 -0.684099 1.842339 0.109281 -0.013657 30938.600000 0 0 1
-22.849209 17.697206 -6.983389 29.732897 -0.659011 1.807882 0.141420 -0.028843 -145435.000000 0 0 1
-24.043209 17.944306 -6.292789 30.654089 -0.641152 1.777550 0.148498 -0.033063 -258968.000000 0 0 1
-24.258109 17.108606 -5.015389 30.105056 -0.614257 1.738173 0.162476 -0.022633 349673.000000 0 0 1
-23.257209 17.463506 -4.041889 29.363390 -0.644068 1.708885 0.164864 -0.047813 827307.000000 0 0 1
-23.499609 16.875906 -2.745089 29.061372 -0.622794 1.665396 0.167064 -0.050247 -425022.000000 0 0 1
-22.181809 16.711106 -1.977689 27.842503 -0.645654 1.641887 0.183393 -0.068244 -362431.000000 0 0 1
-21.727709 17.966006 -1.496489 28.233140 -0.690912 1.623826 0.177562 -0.058235 -144105.000000 0 0 1
-20.533909 17.803706 -0.781689 27.188681 -0.714303 1.599551 0.232624 -0.080767 -129924.000000 0 0 1
-19.941909 19.161106 -0.303389 27.657183 -0.765433 1.581766 0.176009 -0.062205 142362.000000 0 0 1
-20.677209 19.616606 0.846711 28.514472 -0.759082 1.541098 0.157734 -0.052786 388338.000000 0 0 1
-20.795209 21.064406 0.869111 29.612586 -0.791829 1.541443 0.167894 -0.048262 209327.000000 0 0 1
-21.992809 21.572306 1.724311 30.854842 -0.775746 1.514883 0.125491 -0.035302 114925.000000 0 0 1
-21.860709 21.203506 3.086611 30.610561 -0.770138 1.469790 0.137928 -0.029432 156761.000000 0 0 1
-23.053109 21.139706 3.833111 31.512311 -0.742128 1.448856 0.119663 -0.011188 -129173.000000 0 0 1
-22.719209 20.812406 5.245611 31.254362 -0.741623 1.402162 0.117923 -0.005371 113845.000000 0 0 1
-21.972309 21.888006 5.835611 31.558224 -0.783476 1.384810 0.097591 0.002156 300937.000000 0 0 1
-21.308209 21.631506 7.051811 31.171940 -0.792927 1.342598 0.082170 -0.001298 303835.000000 0 0 1
-22.177609 21.770006 8.370211 32.184467 -0.776124 1.307702 0.075348 -0.017773 -145316.000000 0 0 1
-23.125409 20.750006 8.570511 32.230435 -0.731311 1.301645 0.118201 -0.022953 216763.000000 0 0 1
-23.419609 20.317506 9.922211 32.553485 -0.714591 1.261071 0.148398 -0.026424 -62643.100000 0 0 1
-24.118909 21.346106 10.853011 33.987731 -0.724486 1.245783 0.161737 -0.019122 -215914.000000 0 0 1
-25.409619 21.698106 10.390511 34.991703 -0.706773 1.269308 0.193757 -0.019324 273625.000000 0 0 1
-26.035359 22.726906 11.160111 36.316666 -0.717653 1.258442 0.195622 -0.022887 -491507.000000 0 0 1
-27.428829 22.984406 10.563311 37.312292 -0.697466 1.283766 0.197845 -0.029066 87808.500000 0 0 1
-28.331739 23.668806 11.440811 38.649605 -0.695966 1.270280 0.192211 -0.030339 548114.000000 0 0 1
-28.168139 25.062106 11.344111 39.373113 -0.727113 1.278535 0.178237 -0.028731 -266221.000000 0 0 1
-28.548479 25.754706 12.667511 40.481926 -0.733996 1.252533 0.173886 -0.025222 550315.000000 0 0 1
-27.504129 25.644906 13.645311 40.004160 -0.750431 1.222712 0.138462 -0.023014 662663.000000 0 0 1
-28.059519 25.963106 14.925111 41.038743 -0.746611 1.198577 0.137722 -0.020451 -48144.500000 0 0 1
-27.093629 25.864706 16.090911 40.767207 -0.762197 1.165052 0.113121 -0.028185 -355257.000000 0 0 1
-26.851259 24.553106 16.563211 39.977307 -0.740721 1.143606 0.118959 -0.030030 -126665.000000 0 0 1
-25.955569 24.690406 17.635511 39.928924 -0.760423 1.113334 0.106343 -0.028484 -433821.000000 0 0 1
-25.174039 23.417406 17.846811 38.737783 -0.749263 1.092003 0.102111 -0.021353 -313059.000000 0 0 1
-24.300909 23.434806 18.977111 38.727962 -0.767256 1.058694 0.097372 -0.032653 457996.000000 0 0 1
-23.710309 22.220506 19.301711 37.795313 -0.752974 1.034808 0.104947 -0.033942 -572810.000000 0 0 1
-22.269509 22.273506 19.807911 37.207438 -0.785488 1.009405 0.100749 -0.037391 -689008.000000 0 0 1
-21.372009 22.634806 18.757311 36.344655 -0.814086 1.028510 0.121456 -0.045551 2150020.000000 0 0 1
-19.943009 22.517206 19.090811 35.625935 -0.845950 1.005260 0.095201 -0.044108 2112030.000000 0 0 1
-19.329909 21.103706 19.159911 34.440005 -0.829239 0.980837 0.102786 -0.036144 -785954.000000 0 0 1
-19.771209 20.311606 20.246711 34.833767 -0.798879 0.950547 0.110936 -0.038268 159340.000000 0 0 1
-19.038209 20.403806 21.460911 35.204252 -0.820007 0.915226 0.112230 -0.031162 -1161480.000000 0 0 1
-19.932109 20.128506 22.567711 36.218052 -0.790301 0.898088 0.105727 -0.031013 -687090.000000 0 0 1
-20.967309 21.102106 22.629911 37.376995 -0.788602 0.920465 0.087992 -0.036546 192596.000000 0 0 1
-21.796609 20.911506 23.777211 38.441371 -0.764677 0.903923 0.093370 -0.025957 385635.000000 0 0 1
-22.912909 22.006006 23.806511 39.699064 -0.765211 0.927702 0.087980 -0.023259 -333582.000000 0 0 1
-22.481609 23.315006 24.155111 40.403980 -0.803594 0.929993 0.090845 -0.028240 1095890.000000 0 0 1
-23.571709 24.289006 24.255811 41.640433 -0.800384 0.948988 0.083288 -0.028273 1344450.000000 0 0 1
-24.559209 24.553106 23.074811 41.694804 -0.785274 0.984329 0.082717 -0.033866 552156.000000 0 0 1
-25.560849 23.570806 22.782111 41.568792 -0.744916 0.990756 0.085259 -0.035337 301294.000000 0 0 1
-26.346399 24.030306 21.723911 41.755438 -0.739455 1.023635 0.079348 -0.026789 32651.500000 0 0 1
-27.498879 23.146506 21.172011 41.715742 -0.699671 1.038480 0.089465 -0.026227 -212736.000000 0 0 1
-28.656149 23.182106 21.941311 42.895291 -0.680190 1.033857 0.084585 -0.028140 -456152.000000 0 0 1
-29.584599 22.254706 21.419711 42.770603 -0.644933 1.046268 0.093937 -0.029181 -508861.000000 0 0 1
-30.974359 22.250006 22.031911 44.044055 -0.622926 1.046938 0.104322 -0.025445 -933128.000000 0 0 1
-31.653029 23.511906 21.736711 45.024533 -0.638878 1.066976 0.133802 -0.027085 435319.000000 0 0 1
-33.044509 23.532606 21.971011 46.135111 -0.618833 1.074432 0.132112 -0.031033 400042.000000 0 0 1
-33.954628 22.711006 20.997111 45.930221 -0.589522 1.096006 0.148841 -0.038973 -972788.000000 0 0 1
-33.798209 21.311506 21.080011 45.175946 -0.562581 1.085331 0.134723 -0.031504 297768.000000 0 0 1
-34.566338 20.608806 20.097811 44.983070 -0.537628 1.107627 0.129537 -0.023976 -54437.400000 0 0 1
-36.078669 20.528306 20.327211 46.219879 -0.517304 1.115427 0.171074 -0.024806 -689715.000000 0 0 1
-36.811279 20.024206 19.267011 46.122194 -0.498201 1.139842 0.153511 -0.020768 984413.000000 0 0 1
38.025773 19.981606 19.513711 47.180598 0.483820 1.144396 0.191142 -0.027994 1432250.000000 0 0 1
37.178923 19.309906 18.414011 45.762655 0.479029 1.156680 0.195561 -0.029367 27562.600000 0 0 1
37.513893 17.923406 18.362911 45.450381 0.445715 1.154888 0.196918 -0.035269 240270.000000 0 0 1
36.754723 17.211706 17.399611 44.157660 0.437956 1.165780 0.216974 -0.049170 58925.000000 0 0 1
37.170973 15.755206 17.333711 43.935922 0.400903 1.165248 0.224509 -0.067074 -345818.000000 0 0 1
36.339563 14.902406 16.624711 42.650047 0.389172 1.170389 0.253147 -0.066458 -141702.000000 0 0 1
36.869723 13.574406 16.611311 42.656495 0.352771 1.170794 0.230568 -0.058394 528906.000000 0 0 1
35.942243 12.652006 15.754411 41.232506 0.338464 1.178743 0.223779 -0.070461 320965.000000 0 0 1
35.925913 13.033506 14.380811 40.833212 0.348022 1.210893 0.207960 -0.060559 111627.000000 0 0 1
35.072933 12.197806 13.645711 39.561376 0.334699 1.218637 0.203279 -0.046507 -299973.000000 0 0 1
35.008573 12.517906 12.144611 39.112526 0.343400 1.255073 0.215109 -0.046267 49831.000000 0 0 1
36.206863 12.203006 11.450711 39.886953 0.325079 1.279620 0.187546 -0.037653 373791.000000 0 0 1
36.038743 12.287506 10.059511 39.382325 0.328592 1.312502 0.176206 -0.034966 -209559.000000 0 0 1
37.385713 12.291506 9.323111 40.443702 0.317643 1.338184 0.115916 -0.009857 -422522.000000 0 0 1
-38.116479 11.125706 9.504511 40.828704 -0.283997 1.335851 0.161431 -0.028393 716084.000000 0 0 1
-36.795929 11.071506 8.945011 39.452907 -0.292273 1.342081 0.197815 -0.029150 880961.000000 0 0 1
-36.709489 10.926906 7.404111 39.010315 -0.289308 1.379839 0.148491 -0.036495 -335386.000000 0 0 1
-37.180309 12.052006 6.670811 39.650043 -0.313463 1.401750 0.149581 -0.045433 106611.000000 0 0 1
-36.845389 11.947506 5.279811 39.092224 -0.313563 1.435322 0.190446 -0.059324 -218825.000000 0 0 1
-37.667049 12.915706 4.384611 40.060540 -0.330328 1.461127 0.192769 -0.064845 885017.000000 0 0 1
37.253033 12.358206 4.427711 39.498333 0.320313 1.458462 0.178393 -0.059855 1409600.000000 0 0 1
36.181653 13.319706 4.303511 38.794932 0.352738 1.459638 0.143236 -0.052054 831655.000000 0 0 1
35.881353 14.139206 5.587211 38.969290 0.375370 1.426926 0.134216 -0.033844 -874654.000000 0 0 1
35.000673 15.248306 5.450411 38.565073 0.410863 1.428991 0.127713 -0.027830 245906.000000 0 0 1
34.457873 15.689406 6.684011 38.447086 0.427270 1.396059 0.110718 -0.019768 673171.000000 0 0 1
33.190203 14.914706 7.206811 37.094152 0.422331 1.375269 0.172544 -0.028151 236181.000000 0 0 1
33.583453 13.697406 7.731211 37.084213 0.387265 1.360779 0.205100 -0.039520 227589.000000 0 0 1
32.499783 12.828206 8.051311 35.855576 0.375943 1.344317 0.219027 -0.046425 131214.000000 0 0 1
32.488813 11.513006 7.157011 35.203623 0.340561 1.366066 0.205944 -0.042233 110232.000000 0 0 1
31.902993 11.729306 5.865511 34.493213 0.352316 1.399918 0.171361 -0.047782 358075.000000 0 0 1
32.103663 10.649706 4.984111 34.189220 0.320306 1.424495 0.180349 -0.054402 -728838.000000 0 0 1
31.502603 10.864506 3.630811 33.520654 0.332103 1.462268 0.155107 -0.061841 -171649.000000 0 0 1
30.105763 10.639106 3.635411 32.136642 0.339693 1.457430 0.146115 -0.053787 250961.000000 0 0 1
29.496863 11.044506 2.410211 31.588845 0.358271 1.494423 0.169415 -0.055063 317750.000000 0 0 1
28.013663 10.608506 2.235411 30.038355 0.362002 1.496309 0.185840 -0.039184 145681.000000 0 0 1
27.903863 9.265006 1.809511 29.457431 0.320580 1.509330 0.182694 -0.046512 -92785.000000 0 0 1
26.604963 8.718606 1.762711 28.052545 0.316677 1.507919 0.192395 -0.050217 -567149.000000 0 0 1
26.560063 7.223806 1.327911 27.556916 0.265556 1.522590 0.217239 -0.049259 157195.000000 0 0 1
27.076763 6.412806 2.382611 27.927621 0.232553 1.485379 0.232669 -0.034401 450453.000000 0 0 1
28.494363 6.409606 2.421711 29.306594 0.221260 1.488068 0.242876 -0.049991 -512231.000000 0 0 1
29.067363 5.989906 3.788811 29.918984 0.203225 1.443820 0.240149 -0.051038 -166902.000000 0 0 1
30.469563 6.082306 3.923311 31.317424 0.197029 1.445191 0.257689 -0.050281 252474.000000 0 0 1
30.837063 5.394306 5.112111 31.719972 0.173177 1.408927 0.238991 -0.043999 -742711.000000 0 0 1
32.307773 5.464506 5.464011 33.219097 0.167553 1.405561 0.196590 -0.044825 -723446.000000 0 0 1
32.827363 6.632406 6.023311 34.028001 0.199355 1.392848 0.199735 -0.051662 -27352.600000 0 0 1
34.171343 6.468606 6.429211 35.367475 0.187085 1.387997 0.178572 -0.039603 12532.500000 0 0 1
34.736723 7.580006 7.270711 36.289938 0.214845 1.369081 0.156571 -0.041445 120471.000000 0 0 1
34.059323 7.675706 8.516411 35.937212 0.221660 1.331540 0.166403 -0.043216 654907.000000 0 0 1
34.804713 8.575806 9.348411 37.044639 0.241586 1.315683 0.186001 -0.044887 352335.000000 0 0 1
34.205353 8.578006 10.778811 36.875074 0.245712 1.274159 0.202108 -0.049455 -604412.000000 0 0 1
32.906983 9.071006 10.880011 35.826349 0.268976 1.262236 0.214757 -0.052985 -287807.000000 0 0 1
32.419533 8.908506 12.187611 35.762067 0.268169 1.223032 0.211017 -0.054053 605715.000000 0 0 1
30.935763 9.370506 12.449111 34.638247 0.294117 1.203168 0.191194 -0.057325 323789.000000 0 0 1
30.627263 10.767306 12.532111 34.799682 0.338063 1.202398 0.249322 -0.072463 312963.000000 0 0 1
30.510463 11.552106 11.361811 34.546060 0.361947 1.235670 0.247426 -0.072300 89333.300000 0 0 1
29.437963 11.094906 10.315111 33.107282 0.360428 1.253955 0.199714 -0.062096 10605.600000 0 0 1
29.225163 12.054106 9.328511 32.961079 0.391198 1.283859 0.182236 -0.037947 -288892.000000 0 0 1
28.073363 11.934706 8.563311 31.684084 0.401977 1.297121 0.162468 -0.043354 -759154.000000 0 0 1
27.789063 13.221406 7.710611 31.725244 0.444082 1.325294 0.159170 -0.039068 -162432.000000 0 0 1
27.265163 14.289106 8.440711 31.918854 0.482725 1.303170 0.152762 -0.033563 149765.000000 0 0 1
27.591263 15.561606 7.944211 32.658105 0.513532 1.325077 0.137527 -0.034320 -549613.000000 0 0 1
26.923263 16.709006 8.840111 32.896816 0.555441 1.298730 0.163057 -0.041206 744752.000000 0 0 1
25.617363 17.196706 8.591211 32.027876 0.591197 1.299229 0.182390 -0.047174 195011.000000 0 0 1
24.567963 16.241106 8.657311 30.697025 0.584117 1.284893 0.198717 -0.043947 -854589.000000 0 0 1
23.219663 16.939506 8.795311 30.057563 0.630273 1.273835 0.194932 -0.056729 -922485.000000 0 0 1
22.937063 17.703806 7.679611 29.975156 0.657335 1.311708 0.190884 -0.054664 -310050.000000 0 0 1
21.850363 18.558706 7.868211 29.728314 0.704119 1.302934 0.201416 -0.058442 -440963.000000 0 0 1
21.328163 19.183906 6.580611 29.431568 0.732519 1.345300 0.186374 -0.051496 -581014.000000 0 0 1
22.349563 19.828006 5.901011 30.454469 0.725685 1.375798 0.134062 -0.035458 -490018.000000 0 0 1
21.948263 20.419106 4.717411 30.346665 0.749321 1.414713 0.160714 -0.036631 -128228.000000 0 0 1
20.500591 17.521206 32.196904 41.998899 0.707198 0.697247 0.118901 -0.043736 656770.000000 0 0 1
19.224391 18.153306 31.957854 41.477996 0.756750 0.691207 0.140079 -0.045561 1111590.000000 0 0 1
18.319091 17.199706 31.398455 40.215444 0.753893 0.674921 0.151603 -0.046524 610745.000000 0 0 1
17.551391 17.782606 30.111481 39.127659 0.791942 0.692628 0.164707 -0.048555 443608.000000 0 0 1
18.434391 18.069106 29.032811 38.848725 0.775392 0.726762 0.163027 -0.037826 -219454.000000 0 0 1
17.795791 18.424406 27.863891 37.848980 0.802752 0.743379 0.169757 -0.033658 -261851.000000 0 0 1
18.793191 18.702706 26.711621 37.636231 0.782985 0.781679 0.151251 -0.027358 76673.100000 0 0 1
19.527891 19.881306 26.878721 38.717831 0.794366 0.803460 0.165596 -0.036310 -290355.000000 0 0 1
20.514091 20.051906 25.903631 38.651066 0.774005 0.836329 0.126308 -0.024420 -208718.000000 0 0 1
21.356591 21.320006 26.184081 39.953131 0.784541 0.856124 0.126517 -0.027272 133464.000000 0 0 1
20.545391 22.491706 26.091451 40.109272 0.830591 0.862542 0.136763 -0.031640 92350.300000 0 0 1
21.227291 23.663706 26.404851 41.325355 0.839619 0.877663 0.137171 -0.033519 -381452.000000 0 0 1
20.418791 24.947006 26.239381 41.566636 0.884884 0.887619 0.159630 -0.037781 -178493.000000 0 0 1
20.182191 25.211506 24.879231 40.766616 0.895741 0.914377 0.161936 -0.041374 -321636.000000 0 0 1
19.240891 26.210006 24.706941 40.836371 0.937546 0.921002 0.167982 -0.045599 -674744.000000 0 0 1
19.411491 27.072606 23.393361 40.706035 0.948741 0.958571 0.138499 -0.043945 383796.000000 0 0 1
20.641691 27.780606 23.245421 41.691618 0.931774 0.979357 0.148297 -0.044140 249229.000000 0 0 1
20.548391 28.535406 22.072911 41.517697 0.946706 1.010248 0.134132 -0.044181 297405.000000 0 0 1
21.783691 29.397206 21.719711 42.549627 0.933072 1.035081 0.129718 -0.037978 174183.000000 0 0 1
22.942091 28.763606 21.229911 42.478155 0.897515 1.047447 0.133794 -0.037085 1005550.000000 0 0 1
24.103191 29.626906 21.063211 43.616238 0.887843 1.066809 0.142617 -0.048701 1123500.000000 0 0 1
24.415291 29.954106 19.556811 43.310781 0.886922 1.102299 0.138627 -0.044648 662515.000000 0 0 1
23.390791 30.770406 18.915511 43.031889 0.920817 1.115677 0.116708 -0.033505 643929.000000 0 0 1
23.441491 30.575506 17.524811 42.325926 0.916708 1.143904 0.117437 -0.021941 -127338.000000 0 0 1
22.981991 31.782906 16.686911 42.623679 0.944739 1.168542 0.135663 -0.034696 -373560.000000 0 0 1
23.855491 32.836006 16.994011 44.000956 0.942503 1.174267 0.142707 -0.034922 28569.300000 0 0 1
24.027091 -33.596823 15.993111 44.292519 -0.949968 1.201371 0.130848 -0.034136 27888.400000 0 0 1
25.043891 33.512706 14.860211 44.397340 0.929028 1.229499 0.105473 -0.035017 -62798.900000 0 0 1
24.699091 32.423106 13.990111 43.093225 0.919802 1.240157 0.132750 -0.043193 -461313.000000 0 0 1
23.709291 32.772106 13.079611 42.511382 0.944499 1.258050 0.091688 -0.039899 -125730.000000 0 0 1
23.066091 31.630406 12.220611 41.010614 0.940716 1.268214 0.073102 -0.039683 322946.000000 0 0 1
24.078891 31.043806 11.413611 40.911873 0.911085 1.288064 0.094501 -0.052509 98198.300000 0 0 1
23.595191 29.931506 10.722911 39.593041 0.903227 1.296543 0.077296 -0.045556 -772176.000000 0 0 1
24.637591 29.329306 9.724711 39.519477 0.872117 1.322169 0.088159 -0.044800 57687.000000 0 0 1
25.629891 28.651006 10.436511 39.833305 0.840998 1.305698 0.120921 -0.051931 23922.900000 0 0 1
26.731791 29.507306 10.784811 41.250235 0.834710 1.306274 0.120699 -0.062748 -945451.000000 0 0 1
28.026891 28.727906 10.916811 41.592979 0.797749 1.305218 0.148221 -0.073278 -580927.000000 0 0 1
28.207291 28.096606 12.198311 41.639756 0.783432 1.273487 0.151815 -0.058375 -972930.000000 0 0 1
29.538691 27.996806 12.558011 42.591772 0.758606 1.271502 0.133440 -0.044055 -737725.000000 0 0 1
29.792691 26.868106 13.551811 42.345615 0.733828 1.245037 0.123672 -0.055967 274552.000000 0 0 1
30.984791 27.129306 14.281611 43.589229 0.719152 1.236991 0.106580 -0.060482 193290.000000 0 0 1
31.283691 25.996406 15.092711 43.385163 0.693353 1.215490 0.119061 -0.051756 448097.000000 0 0 1
32.402591 26.225706 16.171211 44.712678 0.680429 1.200738 0.112526 -0.062346 664435.000000 0 0 1
33.691591 26.436306 15.608911 45.581133 0.665315 1.221281 0.136914 -0.049113 374171.000000 0 0 1
34.662891 26.269706 16.654511 46.572376 0.648514 1.205094 0.109249 -0.045036 188261.000000 0 0 1
36.117091 26.197306 16.184611 47.462456 0.627533 1.222818 0.129328 -0.047545 -21896.400000 0 0 1
36.584691 27.480706 15.747011 48.390052 0.644239 1.239342 0.148758 -0.042313 -17726.100000 0 0 1
37.995491 27.615106 15.706211 49.527128 0.628487 1.248102 0.167304 -0.035737 462034.000000 0 0 1
-37.697081 28.719306 14.776411 49.640817 -0.651038 1.268549 0.136565 -0.033314 184702.000000 0 0 1
-38.002681 29.991006 15.336511 50.782603 -0.668109 1.264003 0.133049 -0.039702 -38146.900000 0 0 1
-38.047681 30.955806 14.269311 51.083277 -0.682982 1.287696 0.110339 -0.016307 -265437.000000 0 0 1
37.170191 32.028506 14.492611 51.161353 0.711231 1.283592 0.100896 -0.027490 -656646.000000 0 0 1
37.073591 33.007806 13.505111 51.442729 0.727448 1.305156 0.064011 -0.031414 385871.000000 0 0 1
36.045691 -33.493323 13.720811 51.081848 -0.748711 1.298852 0.059195 -0.026816 1855250.000000 0 0 1
34.572191 33.665006 13.154111 50.015994 0.772104 1.304668 0.111912 -0.027408 1618070.000000 0 0 1
33.944991 32.586006 13.836011 49.046359 0.764975 1.284813 0.109959 -0.045165 -204967.000000 0 0 1
32.920991 32.049006 13.035211 47.758215 0.771978 1.294347 0.132703 -0.046482 -213801.000000 0 0 1
32.170191 30.841006 13.713911 46.627890 0.764307 1.272268 0.154666 -0.058487 -159247.000000 0 0 1
31.455091 31.312706 14.828911 46.795351 0.783130 1.248349 0.139176 -0.046661 -112580.000000 0 0 1
30.986391 30.251006 15.596911 46.027637 0.773390 1.225092 0.132517 -0.053231 152122.000000 0 0 1
29.836591 30.510706 16.628511 45.799920 0.796568 1.199237 0.113206 -0.047636 205589.000000 0 0 1
29.647791 29.457506 17.557211 45.332017 0.782179 1.173092 0.096669 -0.042574 -95619.900000 0 0 1
30.523591 29.444006 18.694211 46.347736 0.767397 1.155625 0.089160 -0.034943 -17343.500000 0 0 1
30.271991 28.472006 19.834611 46.048456 0.754767 1.125491 0.090575 -0.034286 -180049.000000 0 0 1
29.134691 28.666706 20.643011 45.790219 0.777302 1.103116 0.101345 -0.043203 -80822.700000 0 0 1
29.253791 27.888606 21.817111 45.929783 0.761512 1.075821 0.068748 -0.032475 -478385.000000 0 0 1
28.029391 28.009206 22.722891 45.678136 0.785038 1.050132 0.085366 -0.029676 -568038.000000 0 0 1
26.999691 27.235306 22.151811 44.288237 0.789742 1.046997 0.133725 -0.034664 -473030.000000 0 0 1
25.782591 27.244806 22.848071 43.921017 0.812966 1.023702 0.135583 -0.039418 -110879.000000 0 0 1
25.553791 26.084106 23.845371 43.611679 0.795668 0.992300 0.113509 -0.040385 210328.000000 0 0 1
26.537991 26.138606 24.908211 44.809716 0.777816 0.981392 0.069510 -0.035490 578758.000000 0 0 1
26.187591 25.275206 25.919091 44.681374 0.767671 0.951961 0.094539 -0.037874 -539531.000000 0 0 1
27.311291 25.019606 26.954271 45.808514 0.741634 0.941703 0.075011 -0.037089 -70200.100000 0 0 1
27.676391 26.078906 27.731311 47.065035 0.755689 0.940712 0.083906 -0.038653 209872.000000 0 0 1
28.695691 26.829306 27.076101 47.711315 0.751797 0.967332 0.049425 -0.020683 -563654.000000 0 0 1
28.815491 28.217206 27.743691 48.951564 0.774908 0.968231 0.030558 -0.021015 -784313.000000 0 0 1
29.749591 28.085906 28.771161 50.016357 0.756640 0.957905 0.035463 -0.022510 -397443.000000 0 0 1
29.945691 29.239606 29.524351 51.219003 0.773469 0.956439 0.047774 -0.027198 497017.000000 0 0 1
31.455091 29.353606 29.913881 52.401309 0.750853 0.963242 0.028007 -0.023066 674497.000000 0 0 1
32.237991 29.366406 28.718341 52.215103 0.738819 0.988431 0.006405 -0.024567 -30559.400000 0 0 1
33.622491 29.429706 29.046111 53.294052 0.718999 0.994388 0.037429 -0.032939 187580.000000 0 0 1
34.466691 29.926306 27.888871 53.491361 0.715004 1.022339 0.033316 -0.027592 -999813.000000 0 0 1
34.072991 31.168606 27.382441 53.686579 0.740910 1.035562 0.013929 -0.029607 -139280.000000 0 0 1
34.457091 31.374006 26.048951 53.386957 0.738599 1.061083 0.031744 -0.033724 -297683.000000 0 0 1
34.194891 32.846206 25.678611 53.921747 0.765284 1.074445 0.026100 -0.039830 -402306.000000 0 0 1
35.079591 -33.603523 26.097371 55.143878 -0.763910 1.077809 0.042441 -0.035545 53496.700000 0 0 1
34.606591 -32.279023 25.814891 53.906958 -0.750613 1.071419 0.045508 -0.026253 -472724.000000 0 0 1
35.462691 -31.177223 26.448041 54.121350 -0.721179 1.060220 0.044241 -0.024131 -196742.000000 0 0 1
35.590791 -31.315323 27.883871 54.998765 -0.721582 1.039106 0.043199 -0.032412 504172.000000 0 0 1
36.743391 -30.640823 28.357201 55.615355 -0.695081 1.035750 0.048404 -0.040947 94187.200000 0 0 1
36.536491 -30.184723 29.841691 56.004993 -0.690486 1.008843 0.052363 -0.035972 -224802.000000 0 0 1
36.640891 -31.169923 30.895731 57.172241 -0.704893 0.999887 0.048992 -0.034457 -9181.650000 0 0 1
35.537991 -32.020623 31.043241 57.025888 -0.733381 0.995157 0.044116 -0.041207 -581856.000000 0 0 1
35.592591 -32.882723 32.294765 58.232790 -0.745844 0.982938 0.054747 -0.035034 -361438.000000 0 0 1
35.343091 -32.212623 33.506381 58.390622 -0.739092 0.959620 0.045394 -0.033043 349282.000000 0 0 1
35.668191 -32.942023 -32.576009 58.468736 -0.745685 2.161749 0.046979 -0.032907 -19522.200000 0 0 1
34.897791 33.170306 -32.353329 58.007438 0.760025 2.162462 0.058844 -0.031109 205521.000000 0 0 1
35.085691 32.175606 -33.366819 58.134498 0.742160 2.182129 0.059080 -0.039197 653278.000000 0 0 1
34.016891 31.236106 -33.212309 56.884977 0.742808 2.194259 0.082705 -0.028683 575493.000000 0 0 1
34.258891 30.137306 33.034090 56.330985 0.721482 0.944154 0.060032 -0.028442 296539.000000 0 0 1
35.476291 29.421806 33.140958 56.767358 0.692375 0.947391 0.049328 -0.032114 126051.000000 0 0 1
35.765891 28.715106 31.948964 55.897160 0.676484 0.962382 0.046021 -0.036356 749207.000000 0 0 1
37.126191 27.923706 32.086880 56.459324 0.644863 0.966335 0.055858 -0.031818 791080.000000 0 0 1
36.978291 26.838606 32.986775 56.354521 0.627828 0.945492 0.054212 -0.027818 845544.000000 0 0 1
-37.992981 26.323406 33.341731 56.991748 -0.605911 0.945883 0.055730 -0.030386 806516.000000 0 0 1
-38.125981 25.027206 -33.160789 56.387848 -0.580885 2.199484 0.047348 -0.029480 60905.600000 0 0 1
37.739191 24.004906 33.248991 55.731297 0.566523 0.931545 0.063091 -0.025176 -68428.500000 0 0 1
37.473191 22.839406 -33.371019 55.131691 0.547366 2.220935 0.064989 -0.036771 -458754.000000 0 0 1
37.203991 21.795006 32.823463 54.189842 0.529931 0.920135 0.065420 -0.039550 164118.000000 0 0 1
-37.904481 21.353606 32.117977 54.076710 -0.513037 0.934857 0.083178 -0.032155 238541.000000 0 0 1
38.018091 20.321306 31.259277 53.249160 0.490878 0.943401 0.085834 -0.026905 -125513.000000 0 0 1
-37.100581 19.581806 30.531531 51.885206 -0.485642 0.941663 0.093534 -0.044406 -268240.000000 0 0 1
-36.570581 20.404506 29.495021 51.222139 -0.508925 0.957183 0.098734 -0.033131 -380874.000000 0 0 1
-35.402881 19.779306 29.024201 49.869722 -0.509492 0.949610 0.094437 -0.037169 -287592.000000 0 0 1
-35.571481 18.697606 27.914071 48.929807 -0.483944 0.963691 0.107875 -0.032018 -452634.000000 0 0 1
-36.211881 17.506206 28.358581 49.213582 -0.450311 0.956682 0.088675 -0.028962 120625.000000 0 0 1
-36.696381 16.860606 27.228631 48.706290 -0.430695 0.977572 0.102861 -0.038882 -129618.000000 0 0 1
-37.286881 15.508706 27.669611 48.953435 -0.394163 0.970093 0.099755 -0.037826 -268145.000000 0 0 1
-36.304181 14.578706 28.011121 48.116059 -0.381860 0.949417 0.078113 -0.026452 -208800.000000 0 0 1
-36.841981 13.602406 28.822041 48.714136 -0.353684 0.937684 0.081134 -0.030426 2864.070000 0 0 1
-35.777581 12.592306 29.308001 47.932873 -0.338421 0.912919 0.080246 -0.022071 -94283.000000 0 0 1
-34.768181 13.100306 30.155451 47.851809 -0.360339 0.889006 0.086274 -0.015901 413092.000000 0 0 1
-33.952281 12.006606 30.577891 47.243236 -0.339907 0.866833 0.083779 -0.013043 -1306790.000000 0 0 1
-32.498681 12.120106 30.272461 46.037844 -0.356965 0.853226 0.084029 -0.008698 -2483360.000000 0 0 1
-32.186581 12.127106 28.901491 44.925926 -0.360326 0.871977 0.065196 -0.003640 -293819.000000 0 0 1
-30.892181 12.513306 28.560771 43.893363 -0.384864 0.862310 0.042077 0.005002 132206.000000 0 0 1
-29.668481 11.626206 28.982971 43.074354 -0.373479 0.832729 0.043455 0.003114 -156354.000000 0 0 1
-29.517481 10.409106 28.256621 42.167141 -0.339027 0.836439 0.041506 -0.010342 489291.000000 0 0 1
-28.378481 9.657006 28.709811 41.507218 -0.328001 0.806980 0.048434 -0.008515 316976.000000 0 0 1
-28.035281 8.433106 27.844241 40.402921 -0.292194 0.810462 0.042851 -0.016443 -36882.400000 0 0 1
-28.791481 7.233706 28.020841 40.822094 -0.246150 0.814251 0.053324 -0.020151 -986920.000000 0 0 1
-30.031981 7.298506 27.456121 41.340375 -0.238403 0.844443 0.058750 -0.013726 -1575630.000000 0 0 1
-30.883581 6.055406 27.587701 41.851460 -0.193616 0.851067 0.067975 -0.027418 -550277.000000 0 0 1
-31.399481 5.821206 28.890381 43.063534 -0.183311 0.835404 0.077711 -0.028488 417222.000000 0 0 1
-32.001181 4.517006 29.055561 43.459228 -0.140225 0.838511 0.106403 -0.031990 516267.000000 0 0 1
-32.907081 4.340606 30.357071 44.980758 -0.131148 0.829980 0.119346 -0.033144 841038.000000 0 0 1
-34.159681 5.020506 30.351921 45.970951 -0.145927 0.849656 0.124623 -0.033414 690724.000000 0 0 1
-34.935181 4.708406 31.552034 47.309267 -0.133968 0.840713 0.153976 -0.040567 996747.000000 0 0 1
-36.455981 5.018606 31.478977 48.426758 -0.136802 0.863169 0.163827 -0.036054 369727.000000 0 0 1
-36.793081 6.388106 31.523703 48.870058 -0.171909 0.869706 0.150453 -0.036278 -394056.000000 0 0 1
38.095791 6.638306 31.511619 49.883249 0.172521 0.887043 0.159117 -0.036406 -232622.000000 0 0 1
37.796391 8.100606 31.903296 50.119929 0.211128 0.880794 0.135255 -0.038629 -185816.000000 0 0 1
37.882391 8.237906 33.236931 51.064980 0.214126 0.862060 0.127688 -0.037655 245695.000000 0 0 1
37.736791 9.608006 33.548731 51.399382 0.249309 0.859644 0.128441 -0.034544 -3627.490000 0 0 1
37.849891 9.861306 -32.272339 50.708613 0.254871 2.260654 0.119848 -0.027573 553873.000000 0 0 1
36.666991 9.340506 -31.637939 49.322129 0.249434 2.267190 0.122657 -0.025800 687921.000000 0 0 1
36.568391 9.485806 -30.223609 48.380722 0.253805 2.245548 0.115231 -0.011418 80172.700000 0 0 1
35.268491 8.839706 -29.703339 46.949922 0.245581 2.255780 0.119143 -0.008764 -80144.900000 0 0 1
35.420091 7.456106 -29.434459 46.653657 0.207476 2.253527 0.105337 -0.019289 1271620.000000 0 0 1
34.165191 6.757006 -29.124679 45.400048 0.195255 2.267264 0.121018 -0.021453 1194020.000000 0 0 1
37.336623 5.735406 -18.809289 42.198431 0.152422 2.032791 0.115845 -0.023241 -271275.000000 0 0 1
36.829833 6.940406 -18.171789 41.651167 0.186261 2.022262 0.099744 -0.007115 397175.000000 0 0 1
37.379723 8.202806 -18.565489 42.534775 0.216021 2.022477 0.071570 -0.013690 819509.000000 0 0 1
-37.333609 8.429606 -18.368889 42.453182 -0.222068 2.018266 0.099458 -0.021664 1115920.000000 0 0 1
-36.448659 7.735406 -19.218189 41.924695 -0.209125 2.046988 0.120091 -0.034745 7149.900000 0 0 1
-36.031189 8.410306 -20.389189 42.245696 -0.229312 2.074455 0.105906 -0.023495 -493041.000000 0 0 1
-35.184675 7.488906 -21.289289 41.800465 -0.209716 2.105176 0.100410 -0.025167 -661702.000000 0 0 1
-35.748370 6.352906 -21.877889 42.390416 -0.175876 2.113093 0.097095 -0.021503 138807.000000 0 0 1
-36.670189 6.523006 -22.943689 43.745460 -0.176042 2.122902 0.087062 -0.014008 317715.000000 0 0 1
-36.437999 5.321006 -23.921489 43.912168 -0.145004 2.146896 0.112531 -0.023916 -286708.000000 0 0 1
-35.255480 5.279706 -24.650489 43.341329 -0.148651 2.175785 0.123689 -0.027064 -481564.000000 0 0 1
-35.021991 3.938406 -25.056889 43.242324 -0.111985 2.188854 0.129775 -0.028430 -199685.000000 0 0 1
-33.659749 3.769306 -25.755239 42.550190 -0.111518 2.220927 0.137144 -0.028102 -298898.000000 0 0 1
-32.545359 3.978206 -24.938789 41.194292 -0.121632 2.221057 0.121783 -0.027150 -379610.000000 0 0 1
-31.376059 3.877806 -25.727159 40.760044 -0.122968 2.253877 0.132757 -0.026034 -391762.000000 0 0 1
-30.068309 4.175306 -25.020989 39.339373 -0.137978 2.260138 0.115275 -0.028877 -598022.000000 0 0 1
-29.838529 5.519306 -24.611789 39.070970 -0.182905 2.252253 0.086211 -0.014518 209650.000000 0 0 1
-28.478909 5.700706 -24.243689 37.832562 -0.197562 2.266356 0.083932 -0.014015 195359.000000 0 0 1
-28.059929 7.166206 -24.356489 37.841151 -0.250044 2.270055 0.061749 -0.009758 -112297.000000 0 0 1
-28.516139 8.068806 -23.352189 37.730631 -0.275747 2.238161 0.055991 -0.000031 -71863.200000 0 0 1
-28.337009 9.429906 -23.742189 38.152336 -0.321250 2.242474 0.036235 0.000605 139829.000000 0 0 1
-26.982429 9.985606 -23.244789 36.987620 -0.354449 2.250352 0.070069 0.009581 146405.000000 0 0 1
-26.979129 10.379606 -21.850189 36.235899 -0.367271 2.218051 0.054633 0.009827 46419.100000 0 0 1
-25.634829 10.508306 -21.437889 35.030730 -0.389031 2.229350 0.097027 -0.000469 -194550.000000 0 0 1
-25.472059 10.607806 -19.909489 34.025565 -0.394605 2.195841 0.124216 -0.011622 -1107120.000000 0 0 1
-25.847399 11.877606 -19.412689 34.438613 -0.430749 2.169642 0.120244 -0.013619 1199130.000000 0 0 1
-27.246729 12.216906 -19.322089 35.566559 -0.421506 2.145118 0.101952 0.009073 845071.000000 0 0 1
-28.167489 11.333206 -18.456089 35.531341 -0.382531 2.116982 0.096318 -0.007247 -572641.000000 0 0 1
-27.721529 11.391106 -17.136589 34.523950 -0.389878 2.090206 0.117481 -0.024033 -75631.100000 0 0 1
-28.645439 10.822506 -16.269989 34.675645 -0.361231 2.059187 0.135999 -0.035621 -749383.000000 0 0 1
-28.112249 10.729206 -14.783689 33.525690 -0.364593 2.027471 0.175315 -0.051014 177746.000000 0 0 1
-27.154959 9.739306 -14.481989 32.279620 -0.344366 2.036041 0.193063 -0.048606 837123.000000 0 0 1
-25.836139 10.089606 -14.939789 31.504024 -0.372310 2.064872 0.156347 -0.037552 118495.000000 0 0 1
-24.970639 8.777606 -14.869189 30.359051 -0.338026 2.082631 0.112430 -0.028017 837138.000000 0 0 1
-23.553509 8.958206 -15.015589 29.334027 -0.363439 2.108172 0.099259 -0.016610 866559.000000 0 0 1
-22.838209 7.749706 -14.855589 28.325435 -0.327138 2.122878 0.100704 -0.022072 1145940.000000 0 0 1
-21.279909 7.975906 -14.841789 27.142739 -0.358603 2.149340 0.166850 -0.044995 1064720.000000 0 0 1
-20.585109 8.278306 -16.059889 27.389726 -0.382359 2.197338 0.177503 -0.054001 -168117.000000 0 0 1
-19.212209 8.370006 -15.852589 26.276806 -0.410866 2.218419 0.191384 -0.052712 -755241.000000 0 0 1
-18.428709 8.923706 -17.078189 26.662978 -0.450951 2.265972 0.143348 -0.042653 -55404.200000 0 0 1
-18.353909 7.998606 -18.144789 27.019938 -0.410981 2.307073 0.215056 -0.059657 358998.000000 0 0 1
-17.451709 6.892006 -18.058989 26.042062 -0.376118 2.337069 0.237158 -0.062730 -458938.000000 0 0 1
-17.128309 6.267306 -19.472989 26.680618 -0.350772 2.388906 0.206700 -0.057247 548571.000000 0 0 1
-18.188009 5.596706 -20.201789 27.753181 -0.298519 2.386064 0.205944 -0.047162 538052.000000 0 0 1
-19.155709 6.493106 -20.754289 28.980030 -0.326810 2.369079 0.177888 -0.043261 -392745.000000 0 0 1
-20.059609 5.574306 -21.582589 29.987813 -0.271048 2.374184 0.145451 -0.023386 -639691.000000 0 0 1
-20.825609 4.773706 -20.713389 29.758003 -0.225330 2.340693 0.133423 -0.025718 242536.000000 0 0 1
-21.561709 3.747106 -21.411289 30.616848 -0.172067 2.345256 0.097025 -0.010829 20036.400000 0 0 1
-22.547909 3.029406 -20.448489 30.589642 -0.133554 2.302956 0.098080 -0.019588 -338435.000000 0 0 1
-22.939409 1.752406 -20.849289 31.048032 -0.076245 2.307051 0.104390 -0.011257 54709.000000 0 0 1
-23.661409 1.247306 -19.744089 30.842294 -0.052666 2.265506 0.103106 -0.015442 -456580.000000 0 0 1
-24.317409 -0.095794 -20.138689 31.573919 0.003939 2.262469 0.106549 -0.001683 -244715.000000 0 0 1
-23.345109 -1.094394 -20.383589 31.011006 0.046845 2.288029 0.107721 -0.019207 227213.000000 0 0 1
-23.890609 -2.388394 -20.669689 31.681251 0.099641 2.281578 0.125733 -0.024221 -242215.000000 0 0 1
-24.508909 -2.591494 -22.083789 33.092238 0.105345 2.301428 0.119995 -0.021647 211518.000000 0 0 1
-23.636809 -2.514994 -23.197889 33.213943 0.106003 2.344009 0.104376 -0.019905 175283.000000 0 0 1
-22.634109 -3.513594 -23.315389 32.684180 0.154005 2.365069 0.101611 -0.030766 258473.000000 0 0 1
-21.760909 -3.326294 -24.580589 32.997072 0.151682 2.411230 0.111510 -0.032821 -331841.000000 0 0 1
-22.465909 -3.579794 -25.771869 34.376172 0.158015 2.418407 0.106784 -0.033493 200030.000000 0 0 1
-21.661109 -3.669094 -26.925179 34.750988 0.167794 2.457200 0.111877 -0.033263 -236694.000000 0 0 1
-22.555109 -4.040094 -28.108039 36.264544 0.177241 2.457643 0.104941 -0.033715 -21019.900000 0 0 1
-23.270609 -5.219394 -27.863139 36.675848 0.220640 2.433669 0.114061 -0.043599 144295.000000 0 0 1
-23.888409 -5.802994 -29.038469 38.046859 0.238305 2.439092 0.077782 -0.035619 -371228.000000 0 0 1
-23.094909 -6.857694 -29.867099 38.372469 0.288643 2.462825 0.080561 -0.039809 302076.000000 0 0 1
-21.927409 -6.474594 -30.588659 38.188973 0.287115 2.499729 0.080283 -0.045136 263528.000000 0 0 1
-21.260509 -7.628294 -31.010599 38.364793 0.344494 2.512070 0.078822 -0.040519 -247324.000000 0 0 1
-19.914309 -7.365494 -31.736709 38.184407 0.354256 2.551957 0.095629 -0.039008 -170902.000000 0 0 1
-19.945809 -6.598794 -32.963809 39.089539 0.319501 2.574171 0.101241 -0.048165 328350.000000 0 0 1
-20.445509 -7.317494 33.208918 39.678669 0.343697 0.579117 0.094037 -0.041654 -488234.000000 0 0 1
-20.245709 -6.601494 31.850819 38.313746 0.315198 0.589326 0.096944 -0.036207 628719.000000 0 0 1
-18.914109 -6.436194 31.304527 37.136795 0.327994 0.568050 0.115134 -0.038734 1109850.000000 0 0 1
-18.177209 -5.381694 31.896461 37.104687 0.287846 0.536243 0.116652 -0.043693 138431.000000 0 0 1
-16.739709 -5.221094 31.335284 35.907906 0.302337 0.510179 0.111263 -0.038903 260592.000000 0 0 1
-16.772009 -4.740894 29.949851 34.652127 0.275480 0.527038 0.109410 -0.034749 1292820.000000 0 0 1
-15.424509 -4.603694 29.437291 33.550910 0.290049 0.500398 0.087600 -0.019296 1207360.000000 0 0 1
-15.462309 -4.589094 27.882091 32.211082 0.288511 0.524438 0.087742 -0.015777 249847.000000 0 0 1
-16.382009 -3.662094 27.324051 32.068441 0.219928 0.550899 0.086148 -0.024010 255323.000000 0 0 1
-16.601609 -3.818194 25.907541 31.006333 0.226058 0.581652 0.093665 -0.021011 -286915.000000 0 0 1
-15.533509 -3.190294 25.021221 29.623122 0.202565 0.564882 0.105358 -0.014274 -218437.000000 0 0 1
-15.531109 -1.784694 25.118621 29.586240 0.114409 0.556713 0.095116 -0.016034 231711.000000 0 0 1
-14.523809 -1.199894 24.311441 28.344787 0.082428 0.540009 0.085933 -0.021236 101975.000000 0 0 1
-14.824809 0.326906 24.159651 28.347320 -0.022048 0.550481 0.068707 -0.003190 -88838.200000 0 0 1
-15.888709 0.671306 23.301451 28.210979 -0.042225 0.598874 0.063958 -0.013457 -97814.100000 0 0 1
-16.280009 1.957006 23.655791 28.783068 -0.119635 0.606120 0.052217 -0.010870 -176039.000000 0 0 1
-16.739409 2.767306 22.442371 28.134068 -0.163835 0.647335 0.062926 -0.014713 189453.000000 0 0 1
-15.594609 3.292706 21.782711 26.991114 -0.208087 0.631687 0.063880 -0.009855 518659.000000 0 0 1
-15.955909 4.183306 20.808811 26.553676 -0.256408 0.670275 0.075617 -0.013069 411171.000000 0 0 1
-14.768409 4.839606 20.009711 25.336066 -0.316672 0.660359 0.081058 -0.008346 324242.000000 0 0 1
-13.953709 5.723606 20.719211 25.627161 -0.389256 0.629221 0.058039 -0.010739 -923648.000000 0 0 1
-12.692809 5.696706 20.157111 24.492223 -0.421867 0.604123 0.043532 -0.012573 -836171.000000 0 1 0
-11.861209 6.947506 20.579611 24.748262 -0.529863 0.588890 0.052268 -0.009430 -195726.000000 0 1 0
-12.384109 8.170006 20.115511 24.994978 -0.583176 0.635488 0.071437 -0.014134 130112.000000 0 1 0
-11.687709 9.237906 20.693111 25.497966 -0.668857 0.623980 0.054111 -0.007479 83481.200000 0 0 1
-12.527809 10.564406 20.638011 26.352991 -0.700578 0.671101 0.060573 -0.000708 221335.000000 0 0 1
-12.717809 11.089306 19.351811 25.675045 -0.717100 0.717091 0.068344 -0.007350 423238.000000 0 0 1
-13.404409 12.346906 19.340911 26.574331 -0.744355 0.755682 0.063295 -0.006602 -219068.000000 0 0 1
-13.605409 13.029506 18.040711 26.083374 -0.763779 0.807017 0.069186 -0.000827 -7570.660000 0 0 1
-12.525009 13.717006 17.412711 25.460452 -0.830790 0.817685 0.057212 -0.006549 254145.000000 0 0 1
-12.398609 15.058506 17.821811 26.421602 -0.881971 0.830487 0.069207 -0.012853 -214255.000000 0 0 1
-13.407409 16.107706 17.253311 27.145783 -0.876633 0.882037 0.065293 -0.002671 41694.600000 0 0 1
-13.377409 16.348106 15.832011 26.398261 -0.885005 0.927624 0.037727 -0.014466 266837.000000 0 0 1
-14.030209 15.392406 14.975811 25.652443 -0.831663 0.947399 0.071128 -0.013656 18470.500000 0 0 1
-14.479809 15.952406 13.595511 25.475126 -0.833750 1.007853 0.051780 -0.015220 163705.000000 0 0 1
-15.488909 16.954506 13.725611 26.753578 -0.830541 1.032076 0.044868 -0.007635 197423.000000 0 0 1
-15.966809 17.346606 12.462011 26.667310 -0.826793 1.084546 0.035268 -0.003585 235623.000000 0 0 1
-17.200109 18.294406 12.570311 28.080985 -0.816218 1.106666 0.055110 -0.014498 68268.000000 0 0 1
-18.412609 17.645706 12.906911 28.582922 -0.764133 1.102283 0.075091 -0.020224 -875258.000000 0 0 1
-19.327509 18.660806 13.068611 29.875858 -0.767850 1.118057 0.099374 -0.027635 -817800.000000 0 0 1
-20.749809 18.145806 13.360811 30.632272 -0.718549 1.119461 0.109823 -0.023323 18725.800000 0 0 1
-21.184409 17.292306 12.310611 29.989234 -0.684586 1.147793 0.110208 -0.027758 -542825.000000 0 0 1
-22.386309 16.648606 12.611811 30.616673 -0.639454 1.146229 0.162485 -0.044595 189690.000000 0 0 1
-23.239809 16.084806 11.414511 30.481154 -0.605420 1.186963 0.158390 -0.029660 282664.000000 0 0 1
-22.633309 15.005706 10.799211 29.224319 -0.585454 1.192295 0.127743 -0.028990 176429.000000 0 0 1
-23.477109 14.590906 9.717411 29.300124 -0.556075 1.232743 0.158772 -0.030644 327280.000000 0 0 1
-22.977509 13.372506 8.878111 28.028747 -0.527066 1.248495 0.153762 -0.029104 -396356.000000 0 0 1
-22.941509 12.067806 9.462111 27.594860 -0.484250 1.220800 0.156133 -0.034763 861018.000000 0 0 1
-24.218609 11.530406 9.873811 28.582922 -0.444343 1.218084 0.209553 -0.044436 973107.000000 0 0 1
-25.075389 10.891706 8.748011 28.704217 -0.409771 1.261106 0.234028 -0.040769 -98490.100000 0 0 1
-25.525369 11.939006 7.865911 29.256741 -0.437501 1.298589 0.239805 -0.042495 150043.000000 0 0 1
-26.510879 11.344606 7.026711 29.679984 -0.404344 1.331778 0.313633 -0.054690 -461038.000000 0 0 1
-26.870489 12.243106 5.871811 30.106394 -0.427529 1.374503 0.304137 -0.054469 324713.000000 0 0 1
-25.900089 12.388406 4.806011 29.109877 -0.446150 1.404938 0.299088 -0.061617 984557.000000 0 0 1
-24.585109 12.850106 5.022711 28.191850 -0.481625 1.391678 0.281129 -0.060961 -279981.000000 0 0 1
-24.502409 14.401206 5.302411 28.911561 -0.531361 1.386351 0.253407 -0.050969 470878.000000 0 0 1
-23.153209 14.875506 5.532611 28.070653 -0.571072 1.372401 0.180535 -0.052034 1295170.000000 0 0 1
-23.157009 16.200006 6.053311 28.902073 -0.610439 1.359792 0.179974 -0.044893 -40967.600000 0 0 1
-21.708109 16.690506 6.243511 28.085519 -0.655463 1.346620 0.137354 -0.032158 -111646.000000 0 0 1
-21.321909 17.374806 5.086511 27.971061 -0.683749 1.387930 0.148287 -0.045901 -80345.500000 0 0 1
-19.945309 17.633406 5.019611 27.091490 -0.723954 1.384436 0.139871 -0.032428 -549146.000000 0 0 1
-19.550209 18.684306 4.039811 27.342897 -0.762755 1.422507 0.139459 -0.025643 123008.000000 0 0 1
-18.176909 19.020706 4.262011 26.652430 -0.808078 1.410196 0.120585 -0.027532 613963.000000 0 0 1
-17.723209 20.040706 3.381211 26.966175 -0.846689 1.445078 0.130603 -0.031417 -22085.100000 0 0 1
-18.014509 21.490306 3.803711 28.298834 -0.873156 1.435976 0.113178 -0.034518 -220730.000000 0 0 1
-17.208709 22.022406 4.832511 28.363342 -0.907489 1.399582 0.097365 -0.032736 30857.000000 0 0 1
-17.539109 23.359406 5.120411 29.656378 -0.926760 1.397269 0.073645 -0.025242 -203894.000000 0 0 1
-16.733909 23.826006 6.342211 29.798085 -0.958503 1.356316 0.057725 -0.015939 26446.100000 0 0 1
-17.229209 23.247406 7.541511 29.902540 -0.933000 1.315840 0.055158 -0.015621 381786.000000 0 0 1
-16.352009 23.410106 8.646611 29.835970 -0.961076 1.276773 0.052594 -0.017826 301141.000000 0 0 1
-17.065209 22.692306 9.807311 30.039065 -0.926000 1.238214 0.029816 -0.010133 56890.000000 0 0 1
-18.137209 23.434706 10.304411 31.373949 -0.912145 1.236147 0.032547 -0.017597 -508589.000000 0 0 1
-19.045409 22.612806 11.011811 31.548797 -0.870825 1.214249 0.034352 -0.008139 -44411.100000 0 0 1
-20.229009 23.412406 11.577811 33.036332 -0.858214 1.212737 0.063185 -0.023813 22811.200000 0 0 1
-21.126409 24.051206 10.646011 33.736082 -0.850048 1.249742 0.089232 -0.016278 673347.000000 0 0 1
-20.609409 25.237906 10.092411 34.110942 -0.886012 1.270430 0.028102 -0.022685 -43216.700000 0 0 1
-21.797409 26.059106 9.501411 35.277200 -0.874215 1.298093 0.044070 -0.024128 71636.900000 0 0 1
-22.590409 26.531706 10.521011 36.399858 -0.865461 1.277573 0.080053 -0.036980 -439502.000000 0 0 1
-23.734509 27.191206 10.017511 37.457164 -0.853171 1.300062 0.099515 -0.030237 -195650.000000 0 0 1
-24.672309 27.669106 11.115811 38.702241 -0.842591 1.279480 0.115659 -0.040691 -106186.000000 0 0 1
-24.059409 28.732706 11.842111 39.302152 -0.873691 1.264731 0.119275 -0.039394 662426.000000 0 0 1
-25.056689 29.437706 12.552411 40.644547 -0.865620 1.256830 0.114943 -0.036460 263628.000000 0 0 1
10.409491 -31.938923 27.065651 43.139330 -1.255734 0.892585 0.067015 -0.048807 163694.000000 0 0 1
11.823991 -32.130923 27.037021 43.625721 -1.218182 0.902373 0.071082 -0.050385 640818.000000 0 0 1
12.274891 -31.795423 25.758821 42.721643 -1.202366 0.923608 0.085542 -0.045322 481848.000000 0 0 1
13.826391 -31.999923 25.683511 43.299041 -1.162948 0.935811 0.038855 -0.030848 423656.000000 0 0 1
14.107791 -33.372423 25.537531 44.327349 -1.170843 0.956832 0.073662 -0.043155 -188405.000000 0 0 1
15.486591 -33.584423 25.718541 45.046546 -1.138730 0.963155 0.089803 -0.031128 -114072.000000 0 0 1
15.992491 32.484506 25.310711 44.177313 1.113319 0.960714 0.118199 -0.031270 -31416.100000 0 0 1
16.079991 32.254206 23.927891 43.260188 1.108318 0.984697 0.096675 -0.033162 311395.000000 0 0 1
16.862491 31.077206 23.700501 42.565832 1.073652 0.980272 0.107472 -0.035524 -11406.100000 0 0 1
16.864691 30.567006 22.168711 41.354702 1.066627 1.005030 0.109042 -0.048650 -289480.000000 0 0 1
15.715791 29.854306 21.797511 40.167115 1.086240 0.997183 0.096543 -0.034703 -397840.000000 0 0 1
15.751491 28.474106 22.060411 39.313431 1.065510 0.975032 0.104938 -0.036064 -200948.000000 0 0 1
15.367991 27.974306 23.489701 39.629572 1.068444 0.936350 0.137504 -0.046007 -358706.000000 0 0 1
16.400091 28.119806 24.435401 40.703504 1.042805 0.926887 0.133879 -0.039040 -397454.000000 0 0 1
16.025391 27.817806 25.754311 41.157356 1.048148 0.894701 0.139638 -0.039726 -165775.000000 0 0 1
17.081991 28.204106 26.831721 42.511260 1.026228 0.887739 0.150354 -0.040882 210625.000000 0 0 1
17.332591 29.609606 26.971951 43.642108 1.041203 0.904567 0.152955 -0.042713 153682.000000 0 0 1
18.237991 29.805706 28.053121 44.810512 1.021676 0.894333 0.153112 -0.046720 120968.000000 0 0 1
18.248591 31.199506 28.581511 46.079529 1.041554 0.901716 0.142453 -0.049736 -49359.600000 0 0 1
18.804991 32.212606 27.749791 46.490112 1.042391 0.931169 0.126513 -0.042863 38992.400000 0 0 1
18.379791 33.513406 28.123711 47.454275 1.069159 0.936453 0.130137 -0.030496 -35178.200000 0 0 1
19.123891 -32.825823 27.341661 46.806242 -1.043279 0.946969 0.108264 -0.022664 -705847.000000 0 0 1
18.957191 -32.759623 25.956081 45.894293 -1.046204 0.969681 0.118442 -0.021401 222042.000000 0 0 1
19.526291 -31.574423 25.337471 44.946720 -1.016942 0.971911 0.134271 -0.021368 423463.000000 0 0 1
21.043591 -31.260023 25.485051 45.491863 -0.978299 0.976156 0.132597 -0.018558 -8367.810000 0 0 1
21.301091 -30.667623 26.730931 45.921479 -0.963718 0.949486 0.123359 -0.017170 432837.000000 0 0 1
22.143191 -29.484323 26.646491 45.493755 -0.926645 0.945031 0.125656 -0.014060 358733.000000 0 0 1
22.209291 -28.567023 27.916261 45.701696 -0.909961 0.913680 0.122252 -0.012458 -47468.000000 0 0 1
20.928891 -28.048823 28.224001 44.959417 -0.929758 0.892116 0.129569 -0.018969 243246.000000 0 0 1
21.042291 -26.956323 29.225861 44.984134 -0.907993 0.863616 0.135686 -0.019154 -476674.000000 0 0 1
19.651891 -26.496923 29.615991 44.332727 -0.932650 0.839226 0.148207 -0.024418 -649814.000000 0 0 1
19.009091 -25.697323 28.663301 42.933469 -0.933900 0.839787 0.145861 -0.025473 -453814.000000 0 0 1
17.787591 -25.268223 29.184211 42.504114 -0.957424 0.813966 0.149195 -0.020029 -292134.000000 0 0 1
16.817291 -24.790323 28.034441 41.028177 -0.974727 0.818527 0.144641 -0.026874 72275.800000 0 0 1
16.157391 -25.806123 27.248811 40.859699 -1.011401 0.840773 0.135816 -0.024994 540846.000000 0 0 1
15.642091 -25.302323 26.018881 39.520434 -1.017096 0.852151 0.136609 -0.039813 2918160.000000 0 0 1
14.080191 -24.746123 26.124091 38.640530 -1.053494 0.828367 0.092124 -0.031793 3996990.000000 0 0 1
12.991791 -25.682023 26.383051 39.043800 -1.102463 0.828842 0.079798 -0.028956 1090280.000000 0 0 1
12.715991 -26.632523 25.364851 38.914822 -1.125342 0.860835 0.063577 -0.030747 -131492.000000 0 0 1
11.648091 -27.687123 25.732371 39.552620 -1.172570 0.862441 0.079696 -0.028423 -559039.000000 0 0 1
10.342491 -27.273823 25.880401 38.995175 -1.208340 0.845066 0.056212 -0.040882 -1331560.000000 0 0 1
9.521491 -28.342123 26.220461 39.767415 -1.246694 0.850849 0.040661 -0.043167 -635613.000000 0 0 1
8.025391 -28.020123 26.374471 39.308357 -1.291849 0.835289 0.057312 -0.053943 -216136.000000 0 0 1
7.209791 -28.029523 25.236621 38.399509 -1.319033 0.853683 0.096584 -0.050370 101408.000000 0 0 1
7.536891 -26.912723 24.368071 37.079675 -1.297742 0.853723 0.096516 -0.041849 -20046.800000 0 0 1
6.335891 -26.593023 23.379921 35.971560 -1.336903 0.863270 0.110741 -0.030805 386122.000000 0 0 1
6.006291 -27.570323 22.405871 36.030838 -1.356294 0.899690 0.118115 -0.033125 -125636.000000 0 0 1
5.551891 -28.828123 22.752171 37.142233 -1.380540 0.911490 0.120193 -0.038648 -1375730.000000 0 0 1
4.170891 -28.862723 23.386911 37.381824 -1.427282 0.894867 0.146405 -0.043393 -1239000.000000 0 0 1
3.212791 -28.509323 22.350551 36.368265 -1.458577 0.908966 0.165830 -0.042083 -390654.000000 0 0 1
1.967491 -28.382223 22.954761 36.556021 -1.501586 0.891901 0.184773 -0.032155 -755728.000000 0 0 1
1.642591 -26.926623 23.430201 35.731155 -1.509869 0.855639 0.167258 -0.040411 -1075000.000000 0 0 1
2.365691 -26.504123 24.490961 36.164516 -1.481775 0.826833 0.126436 -0.037539 -491485.000000 0 0 1
2.271291 -25.083523 24.644761 35.237851 -1.480493 0.796262 0.105383 -0.033706 229098.000000 0 0 1
3.381191 -24.464723 25.571381 35.550677 -1.433460 0.768011 0.089241 -0.026746 971077.000000 0 0 1
4.687791 -24.397023 24.963481 35.218823 -1.380964 0.782985 0.093641 -0.030521 1373910.000000 0 0 1
5.717891 -23.652723 25.661151 35.364393 -1.333604 0.758860 0.070176 -0.026673 622488.000000 0 0 1
5.417291 -22.193223 26.101901 34.687108 -1.331381 0.718953 0.055797 -0.017200 -1003650.000000 0 0 1
5.365191 -21.256623 25.006261 33.255712 -1.323559 0.719798 0.066663 -0.015211 265839.000000 0 0 1
4.678691 -20.048223 25.312541 32.627383 -1.341528 0.682804 0.077475 -0.033221 -153104.000000 0 0 1
4.334091 -19.019023 24.181751 31.068709 -1.346741 0.678793 0.086566 -0.033646 65584.900000 0 0 1
5.552091 -18.518523 23.684501 30.573142 -1.279511 0.684582 0.063168 -0.020202 -144147.000000 0 0 1
5.442391 -17.638623 22.625661 29.200363 -1.271514 0.684332 0.071005 -0.013865 -296972.000000 0 0 1
6.796691 -17.089323 22.146711 28.787441 -1.192261 0.693023 0.065894 -0.012147 117258.000000 0 0 1
7.581091 -18.231423 21.674311 29.319507 -1.176722 0.738847 0.075882 -0.011785 914054.000000 0 0 1
8.856491 -17.852423 21.120311 29.038147 -1.110278 0.756373 0.086506 -0.014418 1022950.000000 0 0 1
10.062691 -17.833123 22.082211 30.114815 -1.057064 0.747681 0.111962 -0.017407 -243687.000000 0 0 1
10.059191 -16.836123 23.021261 30.242699 -1.032234 0.705608 0.122142 -0.005775 -464870.000000 0 0 1
11.210191 -16.927323 23.790871 31.276320 -0.985855 0.706456 0.135977 -0.010414 -515588.000000 0 0 1
11.255091 -16.029823 25.026431 31.779782 -0.958639 0.664062 0.166467 -0.031340 -121551.000000 0 0 1
11.405491 -14.674423 24.712551 30.921418 -0.910091 0.644825 0.203749 -0.039106 177538.000000 0 0 1
11.366191 -13.956323 25.913601 31.551291 -0.887329 0.607081 0.192167 -0.038187 -73144.600000 0 0 1
11.440491 -12.399923 25.771911 30.803154 -0.825620 0.579631 0.197552 -0.041788 451969.000000 0 0 1
10.239591 -11.773923 25.321441 29.743064 -0.854985 0.552263 0.214568 -0.039385 420346.000000 0 0 1
10.471091 -10.385023 25.053181 29.071538 -0.781271 0.532034 0.199004 -0.038446 -816026.000000 0 0 1
9.299791 -9.739823 24.375111 27.847734 -0.808505 0.504741 0.192824 -0.034834 -1271170.000000 0 0 1
8.227191 -9.531823 25.229611 28.197085 -0.858730 0.462904 0.160723 -0.037590 -882329.000000 0 0 1
7.196591 -9.046523 24.395701 26.995939 -0.898800 0.442508 0.148976 -0.032950 -160335.000000 0 0 1
5.780891 -9.265123 24.975161 27.258391 -1.012959 0.412210 0.110921 -0.032941 -806437.000000 0 0 1
5.396591 -8.392723 26.032441 27.879185 -0.999352 0.366020 0.116272 -0.033387 1150350.000000 0 0 1
4.072091 -8.629423 26.577051 28.238068 -1.129893 0.344696 0.097435 -0.032210 2167040.000000 0 0 1
2.807291 -8.579223 25.638311 27.181003 -1.254558 0.338530 0.071275 -0.031536 -9930.630000 0 0 1
2.703691 -7.325623 24.945921 26.139504 -1.217232 0.303361 0.086579 -0.030677 201980.000000 0 0 1
1.674791 -7.346523 23.956771 25.113805 -1.346656 0.304729 0.074235 -0.025973 397553.000000 0 0 1
1.534491 -5.969423 23.262281 24.064962 -1.319185 0.259005 0.063298 -0.025949 -45815.300000 0 1 0
1.172891 -4.914623 24.092101 24.616225 -1.336525 0.206726 0.060726 -0.022252 -232363.000000 0 1 0
1.707491 -3.716623 23.639171 23.990398 -1.140136 0.171325 0.067933 -0.015802 -1409940.000000 0 1 0
0.969091 -2.957323 22.513971 22.728040 -1.254132 0.137357 0.044823 -0.020449 -133609.000000 0 1 0
-0.061509 -2.080523 22.827051 22.921750 1.541241 0.090931 0.043276 -0.021175 -200794.000000 0 1 0
-1.151509 -2.640323 23.534991 23.710611 1.159541 0.121787 0.042160 -0.017349 -301128.000000 0 1 0
-2.223009 -1.567523 23.958551 24.112467 0.614165 0.113049 0.047019 -0.019393 235339.000000 0 1 0
-1.651309 -0.715523 24.857951 24.923012 0.408885 0.072272 0.068299 -0.020218 171246.000000 0 1 0
-2.559909 0.273477 25.351271 25.481657 -0.106427 0.101205 0.057904 -0.017285 -193153.000000 0 0 1
-2.079509 1.018477 26.604431 26.705007 -0.455428 0.086817 0.112587 -0.028559 -282515.000000 0 0 1
-2.116109 0.289477 27.819671 27.901538 -0.135953 0.076623 0.136333 -0.026397 155359.000000 0 0 1
-1.380609 -0.945523 27.996871 28.046834 0.600492 0.059698 0.133360 -0.025213 -43648.800000 0 0 1
0.041191 -0.643523 28.580541 28.587814 -1.506875 0.022558 0.154368 -0.018607 -91362.600000 0 0 1
0.956691 0.069477 27.736941 27.753522 0.072495 0.034569 0.110381 -0.020549 388616.000000 0 0 1
1.587391 -0.766523 26.765021 26.823007 -0.449860 0.065766 0.096825 -0.019861 -365174.000000 0 0 1
2.673291 -1.697523 27.323371 27.506266 -0.565754 0.115383 0.117706 -0.024337 -1177930.000000 0 0 1
2.165491 -2.882123 27.819301 28.051907 -0.926430 0.128868 0.127304 -0.030136 -357451.000000 0 0 1
3.111691 -3.727923 28.405451 28.817524 -0.875253 0.169314 0.155943 -0.032041 -79556.800000 0 0 1
3.900791 -4.665223 27.414901 28.081262 -0.874403 0.218285 0.137209 -0.029491 1221400.000000 0 0 1
4.942491 -4.036123 26.596341 27.351122 -0.684792 0.235473 0.134943 -0.026079 496711.000000 0 0 1
5.492791 -4.946823 25.756371 26.796128 -0.733148 0.279485 0.130788 -0.033567 -826674.000000 0 0 1
6.706991 -4.326823 25.041361 26.282597 -0.572938 0.308555 0.135262 -0.039375 184252.000000 0 0 1
7.918591 -4.253523 25.827661 27.347113 -0.492929 0.334915 0.139441 -0.040040 713106.000000 0 0 1
8.713491 -5.428923 25.811911 27.778641 -0.557194 0.378554 0.177612 -0.032099 -409523.000000 0 0 1
9.625491 -5.574423 24.587631 26.986587 -0.524934 0.424838 0.152317 -0.028803 -755463.000000 0 0 1
8.964391 -6.029323 23.449851 25.818764 -0.592089 0.431718 0.160737 -0.032243 179796.000000 0 0 1
9.718791 -5.785723 22.228391 24.940546 -0.536966 0.470691 0.161045 -0.032666 413673.000000 0 1 0
9.606291 -4.370823 21.634211 24.071228 -0.427001 0.453868 0.170166 -0.031276 1165830.000000 0 1 0
8.263691 -4.031123 21.222811 23.128905 -0.453849 0.408826 0.144244 -0.030315 799768.000000 0 1 0
8.340291 -2.823423 20.474911 22.287982 -0.326419 0.406140 0.130836 -0.028400 271857.000000 0 1 0
6.996691 -2.089523 20.205211 21.484188 -0.290213 0.346789 0.124118 -0.022058 401392.000000 0 1 0
6.434891 -1.537523 21.414711 22.413425 -0.234538 0.299645 0.131191 -0.022877 872431.000000 0 1 0
5.204291 -0.825523 21.197711 21.842827 -0.157313 0.243643 0.058205 -0.011048 648804.000000 0 1 0
4.573891 -0.340523 22.580781 23.041877 -0.074312 0.200391 0.056269 -0.015818 61116.700000 0 1 0
3.348691 0.290477 22.281881 22.533981 0.086527 0.149723 0.050421 -0.017761 -628627.000000 0 1 0
2.658991 0.511477 23.435581 23.591488 0.190036 0.115030 0.069123 -0.019397 493179.000000 0 1 0
1.183691 1.029477 23.237681 23.290572 0.715830 0.067406 0.065799 -0.029602 822463.000000 0 1 0
1.090891 2.331477 22.744991 22.890182 1.133159 0.112691 0.065318 -0.029342 530034.000000 0 1 0
-0.294409 2.691477 22.771691 22.932087 -1.461844 0.118343 0.037185 -0.024073 728900.000000 0 1 0
-0.735009 4.138477 22.408671 22.799468 -1.395025 0.185418 0.041792 -0.016780 -39831.700000 0 1 0
-0.189309 5.177477 23.232421 23.803098 -1.534249 0.219414 0.062545 -0.019616 461355.000000 0 1 0
-1.111209 6.289477 23.240331 24.101977 -1.395923 0.268198 0.050772 -0.018493 359223.000000 0 1 0
-0.784209 7.402477 24.221421 25.339473 -1.465251 0.298165 0.061898 -0.014988 171447.000000 0 0 1
0.299591 8.258477 23.854411 25.245299 1.534535 0.333492 0.055116 -0.014839 201293.000000 0 0 1
0.104791 9.581477 24.359671 26.176502 1.559860 0.374767 0.087517 -0.026100 -947332.000000 0 0 1
0.592791 10.676477 23.393251 25.721251 1.515330 0.428738 0.089544 -0.034904 1139680.000000 0 0 1
2.023891 10.813477 23.321951 25.786446 1.385773 0.440762 0.076052 -0.032292 465299.000000 0 0 1
2.648491 11.295477 24.445341 27.058769 1.340483 0.443124 0.106688 -0.036172 -559726.000000 0 0 1
4.019991 12.055477 24.247051 27.375433 1.248934 0.482747 0.104567 -0.040528 817387.000000 0 0 1
5.155791 11.285477 23.930251 26.955539 1.142259 0.478324 0.101673 -0.029583 24254.600000 0 0 1
5.089791 10.430477 22.725611 25.517723 1.116817 0.472174 0.083972 -0.034255 -379553.000000 0 0 1
6.520091 10.000477 22.258661 25.258050 0.993032 0.492296 0.098166 -0.032901 539997.000000 0 0 1
7.329891 11.013477 21.758611 25.464900 0.983575 0.546295 0.084791 -0.033701 -37316.800000 0 0 1
8.605891 10.563477 21.351711 25.328718 0.887166 0.567989 0.093798 -0.035292 581404.000000 0 0 1
9.485191 11.692477 20.689311 25.587701 0.889250 0.629088 0.078999 -0.037142 136690.000000 0 0 1
8.910291 12.166477 19.490011 24.642990 0.938678 0.658527 0.074962 -0.041493 445778.000000 0 1 0
9.669691 13.242477 18.933211 25.046608 0.940086 0.713739 0.086363 -0.039951 423317.000000 0 0 1
11.020791 12.972477 18.208111 24.925455 0.866563 0.751739 0.083354 -0.040188 407317.000000 0 1 0
12.093891 12.828477 19.144111 26.025545 0.814865 0.744260 0.097413 -0.040029 571281.000000 0 0 1
13.300891 12.590477 18.409211 25.967920 0.757967 0.782829 0.099493 -0.040993 1261060.000000 0 0 1
14.597691 12.311477 19.271711 27.130497 0.700641 0.780824 0.123205 -0.029786 821877.000000 0 0 1
15.104491 13.434477 19.981111 28.423153 0.726948 0.791207 0.126069 -0.028752 281850.000000 0 0 1
16.293391 12.945477 20.622611 29.297645 0.671392 0.789923 0.127966 -0.024218 583964.000000 0 0 1
17.170591 14.098477 21.204011 30.711664 0.687465 0.808724 0.117952 -0.017999 126993.000000 0 0 1
16.700891 14.791477 22.332411 31.566503 0.724841 0.784882 0.132693 -0.015782 -357908.000000 0 0 1
17.630391 15.773477 22.620391 32.730954 0.729866 0.807785 0.124262 -0.005281 -182563.000000 0 0 1
-22.291609 12.698506 -24.577289 35.527609 -0.517807 2.334747 0.092462 -0.004662 118253.000000 0 0 1
-22.421809 12.332006 -25.925919 36.427588 -0.502844 2.362727 0.102814 -0.016077 -91699.800000 0 0 1
-22.952309 13.419206 -26.709389 37.686536 -0.529061 2.358486 0.079356 -0.008241 65463.400000 0 0 1
-22.610809 13.312706 -28.209849 38.526256 -0.532126 2.392378 0.094276 -0.016278 236638.000000 0 0 1
-21.224309 13.442706 -28.468879 37.969128 -0.564591 2.418541 0.103273 -0.018716 -13509.000000 0 0 1
-21.009809 14.036306 -29.750739 39.032505 -0.588983 2.437508 0.102162 -0.030381 -273608.000000 0 0 1
-19.653609 14.735506 -29.830849 38.642969 -0.643348 2.452716 0.090510 -0.029385 -1064830.000000 0 0 1
-18.582709 13.917206 -30.139789 38.044876 -0.642818 2.485229 0.091248 -0.026513 -230235.000000 0 0 1
-17.314609 14.573706 -29.978389 37.561847 -0.699656 2.494944 0.093367 -0.021742 706966.000000 0 0 1
-16.666509 14.013606 -28.703849 36.028664 -0.699143 2.492603 0.129476 -0.020024 -648783.000000 0 0 1
-17.184809 14.457806 -27.449649 35.465885 -0.699429 2.455888 0.138605 -0.023000 -65640.200000 0 0 1
-17.556309 13.267706 -26.758609 34.645045 -0.647154 2.453352 0.157162 -0.020140 -98286.600000 0 0 1
-18.396709 13.505106 -25.512429 34.230262 -0.633250 2.411808 0.156223 -0.023041 -305744.000000 0 0 1
-17.620809 13.941706 -24.407089 33.174841 -0.669356 2.397512 0.225275 -0.040755 498050.000000 0 0 1
-18.363809 14.272206 -23.201889 32.851986 -0.660678 2.354991 0.195245 -0.035731 739600.000000 0 0 1
-17.407909 14.855406 -22.078289 31.798887 -0.706448 2.338257 0.212735 -0.036198 514306.000000 0 0 1
-16.940109 16.138706 -22.377989 32.375909 -0.761176 2.333934 0.176144 -0.034092 -59705.200000 0 0 1
-15.943309 16.596706 -21.476189 31.478031 -0.805475 2.321645 0.167850 -0.033015 -301550.000000 0 0 1
-15.620709 18.097706 -21.826589 32.371801 -0.858728 2.310741 0.150453 -0.030087 -107744.000000 0 0 1
-16.630009 19.085506 -21.706589 33.346510 -0.854042 2.279619 0.098060 -0.022753 520759.000000 0 0 1
-17.734909 18.900906 -22.597889 34.386564 -0.817214 2.287857 0.080069 -0.028276 365495.000000 0 0 1
-18.985109 19.795306 -22.374289 35.396289 -0.806287 2.255067 0.055596 -0.022650 166779.000000 0 0 1
-18.963609 21.098406 -22.858189 36.431552 -0.838635 2.249043 0.045590 -0.021101 342035.000000 0 0 1
-20.240009 21.734306 -22.742689 37.406790 -0.820983 2.224314 0.051213 -0.037285 276283.000000 0 0 1
-20.244209 23.229706 -23.179389 38.558155 -0.853964 2.215741 0.039714 -0.034289 -155380.000000 0 0 1
-19.510509 24.096206 -22.319289 38.202588 -0.890173 2.194733 0.040973 -0.028779 -295247.000000 0 0 1
-18.802409 25.019906 -23.091389 38.893939 -0.926337 2.206447 0.046807 -0.019378 201883.000000 0 0 1
-17.394209 25.288406 -22.412289 38.004903 -0.968283 2.201510 0.062103 -0.027284 1002100.000000 0 0 1
-16.399109 24.266806 -22.431889 36.891710 -0.976509 2.224394 0.090700 -0.038114 309580.000000 0 0 1
-16.715409 23.137006 -21.593389 35.791066 -0.945159 2.218451 0.091253 -0.027876 -704432.000000 0 0 1
-15.551409 22.132306 -21.334889 34.450875 -0.958290 2.238627 0.143780 -0.025678 359808.000000 0 0 1
-14.634509 22.522206 -20.320189 33.679796 -0.994575 2.218472 0.177795 -0.036653 221131.000000 0 0 1
-13.768309 21.419106 -20.039789 32.402740 -0.999496 2.237577 0.173506 -0.032551 304921.000000 0 0 1
-12.808709 21.654506 -18.817189 31.417626 -1.036648 2.212970 0.161754 -0.028811 363013.000000 0 0 1
-13.362909 21.714106 -17.486289 30.916663 -1.019129 2.171950 0.172379 -0.026665 79460.500000 0 0 1
-14.198109 22.808506 -17.165789 31.882261 -1.014003 2.139348 0.172457 -0.032976 4042.540000 0 0 1
-14.627809 22.910706 -15.649689 31.365363 -1.002569 2.093181 0.171235 -0.038315 421107.000000 0 0 1
-13.569309 23.172806 -14.721189 30.623822 -1.041054 2.072261 0.168391 -0.047257 431389.000000 0 0 1
-14.040509 23.055606 -13.389489 30.132628 -1.023797 2.031247 0.170068 -0.041965 267973.000000 0 0 1
-13.015009 23.660606 -12.379989 29.706545 -1.067899 2.000656 0.212857 -0.049743 91519.200000 0 0 1
-12.984209 25.054006 -12.489889 30.859200 -1.092656 1.987489 0.187645 -0.054448 1402510.000000 0 0 1
-12.002409 25.673206 -11.556189 30.605830 -1.133479 1.957979 0.149938 -0.049544 1132650.000000 0 0 1
-11.921609 27.178006 -11.721489 31.908652 -1.157422 1.946949 0.154155 -0.042868 -11573.000000 0 0 1
-11.559309 27.465306 -13.065289 32.537093 -1.172429 1.984006 0.143375 -0.043641 64898.800000 0 0 1
-11.333709 28.871906 -13.223889 33.718113 -1.196728 1.973807 0.132462 -0.039258 -740517.000000 0 0 1
-10.625409 29.292206 -14.536089 34.383579 -1.222819 2.007288 0.157195 -0.059953 647974.000000 0 0 1
-9.228809 29.032306 -14.649789 33.803284 -1.263017 2.019040 0.159356 -0.060339 307097.000000 0 0 1
-8.801409 27.675206 -14.530189 32.473192 -1.262886 2.034710 0.158654 -0.053782 -1752270.000000 0 0 1
-7.390709 27.545906 -15.004689 32.226390 -1.308665 2.055112 0.175793 -0.061103 -80408.600000 0 0 1
-6.335409 28.321806 -14.365989 32.382769 -1.350726 2.030442 0.162428 -0.051622 100025.000000 0 0 1
-5.096909 27.987806 -14.919989 32.123229 -1.390659 2.053822 0.148814 -0.052250 -272577.000000 0 0 1
-3.900109 28.719706 -14.293889 32.316367 -1.435823 2.028970 0.150361 -0.041793 -114265.000000 0 0 1
-3.769209 30.119206 -14.431489 33.610138 -1.446300 2.014601 0.138126 -0.037746 579958.000000 0 0 1
-4.665109 30.896506 -13.550589 34.058417 -1.420937 1.979983 0.140870 -0.043250 712076.000000 0 0 1
-4.519909 32.442406 -13.725389 35.515146 -1.432366 1.967593 0.126509 -0.053716 -568571.000000 0 0 1
-3.320009 33.021906 -13.355389 35.774783 -1.470593 1.953380 0.102634 -0.044482 -661911.000000 0 0 1
-3.406309 -33.050923 -13.496389 35.862501 1.468096 1.956636 0.107142 -0.042777 -9592.760000 0 0 1
-2.588209 -32.310223 -12.432089 34.716080 1.490862 1.937037 0.096337 -0.046897 -173460.000000 0 0 1
-2.999509 -32.392923 -11.051789 34.357540 1.478462 1.898289 0.081287 -0.050525 126349.000000 0 0 1
-2.189809 -31.623323 -10.180489 33.293726 1.501660 1.881552 0.065112 -0.041241 -152871.000000 0 0 1
-2.705809 -31.709723 -8.736389 33.002310 1.485672 1.838710 0.060759 -0.038165 -650921.000000 0 0 1
-1.968809 -30.822223 -8.015489 31.908208 1.507007 1.824721 0.093662 -0.043192 -376234.000000 0 0 1
-2.166409 -30.946823 -6.614089 31.719795 1.500906 1.780854 0.083240 -0.044935 432763.000000 0 0 1
-0.905409 -30.391323 -5.842589 30.961075 1.541013 1.760642 0.103466 -0.044686 862458.000000 0 0 1
-1.032609 -30.364223 -4.457389 30.707013 1.536802 1.716470 0.103532 -0.054811 -559292.000000 0 0 1
0.184991 -29.909823 -3.961889 30.171648 -1.564611 1.702488 0.098940 -0.047535 -378060.000000 0 0 1
0.466591 -30.049823 -2.460589 30.154006 -1.555270 1.652488 0.102469 -0.044954 -574240.000000 0 0 1
0.524791 -31.339623 -1.913189 31.402352 -1.554053 1.631759 0.104369 -0.042745 635473.000000 0 0 1
1.668591 -32.168723 -2.230789 32.289122 -1.518973 1.639939 0.092104 -0.039470 580925.000000 0 0 1
3.016491 -31.710023 -1.641889 31.895464 -1.475954 1.622296 0.090577 -0.028912 -1203100.000000 0 0 1
3.183291 -31.903023 -0.269889 32.062581 -1.471345 1.579214 0.083306 -0.024031 1163260.000000 0 0 1
4.539991 -31.750623 0.228911 32.074382 -1.428770 1.563659 0.073031 -0.014183 1365020.000000 0 0 1
5.094591 -30.320123 0.321511 30.746839 -1.404325 1.560339 0.048886 -0.021075 -417064.000000 0 0 1
5.129091 -29.651023 -0.922489 30.105510 -1.399509 1.601443 0.065029 -0.024799 -87786.200000 0 0 1
5.180291 -28.236223 -0.759989 28.717544 -1.389351 1.597264 0.067361 -0.027121 -420927.000000 0 0 1
4.634791 -27.391323 -1.902889 27.845769 -1.403177 1.639186 0.071772 -0.027152 -71997.300000 0 0 1
3.251491 -27.541423 -2.158589 27.816572 -1.453282 1.648475 0.091271 -0.037346 -198090.000000 0 0 1
2.632991 -26.776223 -3.173589 27.091889 -1.472778 1.688208 0.099819 -0.041962 126961.000000 0 0 1
3.044091 -26.839623 -4.685089 27.414995 -1.457861 1.742534 0.094784 -0.035158 -29645.900000 0 0 1
2.650691 -28.068623 -5.308889 28.688989 -1.476639 1.756919 0.102170 -0.038488 247523.000000 0 0 1
3.330891 -28.152123 -6.567089 29.099202 -1.453026 1.798437 0.106666 -0.049403 238504.000000 0 0 1
2.587191 -29.001523 -7.635789 30.101282 -1.481823 1.827269 0.102616 -0.042197 -945444.000000 0 0 1
1.360391 -28.484923 -7.978489 29.612460 -1.523074 1.843598 0.099402 -0.035932 -1166200.000000 0 0 1
1.012791 -28.635823 -9.310889 30.128538 -1.535443 1.884979 0.095955 -0.032115 -198519.000000 0 0 1
-0.433809 -28.189923 -9.559189 29.769751 1.555409 1.897691 0.074414 -0.029313 -887622.000000 0 0 1
-0.695209 -26.798523 -9.611689 28.478566 1.544860 1.915063 0.077382 -0.028075 -86192.900000 0 0 1
-2.053609 -26.407823 -9.537589 28.152372 1.493187 1.916421 0.079628 -0.025691 578387.000000 0 0 1
-2.873509 -26.799623 -8.244889 28.186079 1.463982 1.867654 0.080874 -0.021267 -390283.000000 0 0 1
-2.529609 -26.258923 -6.997689 27.292813 1.474759 1.830085 0.106104 -0.032349 359960.000000 0 0 1
-1.354209 -26.828423 -6.378089 27.609386 1.520362 1.803914 0.103838 -0.037306 870628.000000 0 0 1
-1.209709 -26.387223 -4.890789 26.863893 1.524984 1.753875 0.127587 -0.041285 206361.000000 0 0 1
-2.185509 -26.980423 -4.044889 27.369341 1.489969 1.719129 0.142142 -0.043705 80549.600000 0 0 1
-2.066809 -26.444823 -2.728289 26.665407 1.492799 1.673291 0.147538 -0.046861 -595700.000000 0 0 1
-3.229409 -26.744623 -1.830789 27.001032 1.450628 1.638653 0.152893 -0.046259 -93768.900000 0 0 1
-4.466409 -26.094323 -2.107089 26.557529 1.401275 1.650220 0.158006 -0.040954 580385.000000 0 0 1
-5.359609 -26.109923 -0.987289 26.672612 1.368338 1.607820 0.180720 -0.049262 839961.000000 0 0 1
-6.351909 -24.880523 -0.935589 25.695574 1.320839 1.607215 0.153365 -0.051786 281069.000000 0 0 1
-5.772109 -23.669523 -0.531489 24.368957 1.331602 1.592608 0.138146 -0.045475 -178741.000000 0 1 0
-6.657609 -22.888223 0.251211 23.838155 1.287732 1.560258 0.140746 -0.047680 236459.000000 0 1 0
-5.967209 -21.578023 0.713511 22.399281 1.300998 1.538937 0.098088 -0.043156 739696.000000 0 1 0
-4.822309 -21.731623 1.556211 22.314567 1.352432 1.501000 0.095222 -0.039733 127784.000000 0 1 0
-4.147509 -20.510223 1.663011 20.991348 1.371270 1.491490 0.060995 -0.030908 -172632.000000 0 1 0
-3.100409 -20.373423 2.792211 20.796282 1.419776 1.436125 0.058506 -0.024327 -385505.000000 0 1 0
-3.652309 -20.439523 4.075011 21.159376 1.393974 1.376999 0.040889 -0.007949 -137875.000000 0 1 0
-2.754509 -20.285423 5.158111 21.111415 1.435834 1.323970 0.045726 -0.009108 279224.000000 0 1 0
-1.721709 -21.413623 5.447211 22.162573 1.490566 1.322468 0.067467 -0.030004 86701.200000 0 1 0
-0.911109 -21.665623 4.331011 22.113051 1.528768 1.373664 0.086064 -0.033594 -494441.000000 0 1 0
-0.032309 -22.743023 4.633711 23.210287 1.569376 1.369805 0.103392 -0.038837 -500468.000000 0 1 0
0.856591 -23.199723 3.410311 23.464678 -1.533891 1.424942 0.111982 -0.045159 1074280.000000 0 1 0
2.002291 -22.379923 3.095911 22.681596 -1.481566 1.433874 0.079238 -0.040425 631118.000000 0 1 0
3.022091 -22.602023 4.035011 23.157414 -1.437876 1.395660 0.097667 -0.046136 -1075060.000000 0 1 0
4.215491 -21.642423 4.125411 22.431760 -1.378426 1.385834 0.099874 -0.037862 187460.000000 0 1 0
5.084491 -21.686323 3.016011 22.477655 -1.340500 1.436212 0.067283 -0.024103 54179.800000 0 1 0
6.338191 -21.097823 3.328411 22.279343 -1.278955 1.420840 0.081098 -0.018644 298352.000000 0 1 0
7.181091 -20.690123 2.140911 22.005290 -1.236727 1.473351 0.080830 -0.014120 -215054.000000 0 1 0
7.855891 -21.721123 1.460711 23.144241 -1.223763 1.507641 0.078067 -0.009435 -235055.000000 0 1 0
7.589091 -21.614023 0.093411 22.907838 -1.233125 1.566719 0.069756 -0.022434 59514.200000 0 1 0
8.575591 -22.461723 -0.752289 24.054848 -1.206089 1.602075 0.066073 -0.012650 -984429.000000 0 1 0
9.767991 -21.794923 -0.849389 23.898824 -1.149459 1.606345 0.055118 -0.005802 -2027870.000000 0 1 0
10.593091 -22.605123 -1.638589 25.017797 -1.132571 1.636340 0.053313 -0.006722 -531939.000000 0 0 1
11.911091 -21.891023 -1.933989 24.996626 -1.072488 1.648244 0.057099 -0.006104 -396403.000000 0 1 0
11.875191 -20.866823 -2.911189 24.185109 -1.053412 1.691460 0.061867 0.002525 331468.000000 0 1 0
13.152291 -20.908723 -3.550489 24.955229 -1.009302 1.713555 0.065246 0.002771 524584.000000 0 1 0
13.292091 -19.700623 -4.469989 24.182122 -0.977250 1.756712 0.068238 -0.007549 -80252.500000 0 1 0
13.361791 -18.508423 -3.694589 23.124644 -0.945503 1.731252 0.087351 -0.011231 71287.300000 0 1 0
13.437991 -17.396523 -4.528189 22.443777 -0.913080 1.773948 0.089959 -0.019117 -505799.000000 0 1 0
13.847491 -16.040323 -3.845889 21.536848 -0.858636 1.750332 0.097822 -0.015350 302932.000000 0 1 0
15.161791 -15.854123 -3.390089 22.197429 -0.807716 1.724121 0.088373 -0.013948 1545370.000000 0 1 0
16.265791 -15.890523 -4.377089 23.156934 -0.773729 1.760959 0.096244 -0.017179 1125630.000000 0 1 0
17.677891 -15.407123 -3.999589 23.788316 -0.716871 1.739731 0.096915 -0.014137 -36177.600000 0 1 0
18.396391 -16.319523 -3.253089 24.805980 -0.725645 1.702316 0.112279 -0.020237 -581409.000000 0 1 0
19.763191 -16.039623 -3.268689 25.661987 -0.681769 1.698518 0.074158 -0.008122 -704255.000000 0 0 1
20.551791 -17.041223 -2.422189 26.807581 -0.692285 1.661274 0.094235 -0.024461 -619096.000000 0 0 1
21.928991 -16.824823 -2.586589 27.760507 -0.654444 1.664107 0.101033 -0.020541 -669961.000000 0 0 1
22.558991 -17.644323 -1.641289 28.686653 -0.663756 1.628042 0.096760 -0.013141 -674225.000000 0 0 1
24.077291 -17.443123 -1.805789 29.786564 -0.626957 1.631458 0.111403 -0.014938 -422962.000000 0 0 1
24.488091 -16.164723 -1.367089 29.374033 -0.583446 1.617354 0.117119 -0.019938 21485.900000 0 0 1
25.862091 -16.247123 -1.041689 30.559808 -0.560913 1.604890 0.166060 -0.015074 199349.000000 0 0 1
26.531091 -14.979323 -0.468589 30.471273 -0.513980 1.586175 0.157806 -0.018975 -284389.000000 0 0 1
25.851991 -14.386623 0.591411 29.591386 -0.507820 1.550809 0.142886 -0.025164 -700954.000000 0 0 1
26.530591 -13.343023 1.146011 29.719049 -0.465989 1.532225 0.133578 -0.028576 -492122.000000 0 0 1
25.839291 -12.506123 2.231511 28.793258 -0.450763 1.493217 0.152109 -0.032243 -339639.000000 0 0 1
25.479591 -13.232523 3.424911 28.914343 -0.478998 1.452067 0.171363 -0.020182 500589.000000 0 0 1
26.519991 -13.675223 4.305211 30.147247 -0.476095 1.427500 0.173003 -0.011254 363588.000000 0 0 1
25.881791 -14.425223 5.508811 30.138035 -0.508469 1.386977 0.153761 -0.008244 298813.000000 0 0 1
25.300291 -15.684023 5.218311 30.221252 -0.554934 1.397256 0.172807 -0.020765 170747.000000 0 0 1
24.642991 -16.230923 6.359611 30.185502 -0.582427 1.358521 0.150589 -0.023062 327739.000000 0 0 1
24.051091 -17.723723 6.246511 30.522193 -0.635077 1.364685 0.143722 -0.024262 163292.000000 0 0 1
25.024291 -18.676923 5.929311 31.783633 -0.641162 1.383145 0.137563 -0.024463 -249924.000000 0 0 1
24.467691 -19.996623 6.017211 32.167370 -0.685181 1.382628 0.096660 -0.014489 300904.000000 0 0 1
2.025791 24.553606 -2.772589 24.792552 1.488478 1.682862 0.044999 -0.012839 150899.000000 0 1 0
3.303591 25.124006 -2.556989 25.468953 1.440055 1.671362 0.049697 -0.024467 142375.000000 0 0 1
4.043091 25.050306 -3.783789 25.655047 1.410777 1.718823 0.068501 -0.031851 160078.000000 0 0 1
5.448891 25.701506 -3.735489 26.536987 1.361883 1.712031 0.056269 -0.023782 107766.000000 0 0 1
6.309391 25.126206 -2.790089 26.056078 1.324775 1.678082 0.026546 -0.036163 -396706.000000 0 0 1
6.849491 26.038906 -1.884589 26.990587 1.313575 1.640677 0.034093 -0.030029 -218131.000000 0 0 1
7.938791 25.360206 -1.004089 26.592718 1.267418 1.608563 0.016723 -0.031704 -291683.000000 0 0 1
9.063891 25.214906 -1.831689 26.857041 1.225714 1.639051 0.022186 -0.041556 -638350.000000 0 0 1
9.844491 24.120906 -1.344489 26.087157 1.183300 1.622358 0.024662 -0.038058 172732.000000 0 0 1
11.039991 23.870606 -2.294289 26.399829 1.137602 1.657812 0.064024 -0.037928 -435356.000000 0 0 1
11.992191 24.942006 -2.378889 27.777246 1.122624 1.656543 0.072863 -0.033643 1097010.000000 0 0 1
12.867491 24.897506 -3.577289 28.253409 1.093785 1.697752 0.110754 -0.036360 1087540.000000 0 0 1
13.886591 23.727606 -3.641789 27.732640 1.041293 1.702494 0.107523 -0.035463 -693406.000000 0 0 1
13.407591 22.377106 -3.863989 26.370983 1.030991 1.717850 0.114219 -0.035765 -39086.900000 0 0 1
12.954691 22.157306 -5.208389 26.189645 1.041726 1.771003 0.147744 -0.044083 307699.000000 0 0 1
11.938691 20.956506 -5.371089 24.709433 1.052963 1.789916 0.147720 -0.045749 1697210.000000 0 1 0
10.573691 21.375706 -5.086489 24.384341 1.111430 1.780936 0.096251 -0.040724 1205620.000000 0 1 0
9.666091 20.290806 -5.134189 23.054501 1.126224 1.795377 0.079048 -0.031583 -727918.000000 0 1 0
8.221291 20.685706 -4.936689 22.800415 1.192500 1.789042 0.059561 -0.023622 -886304.000000 0 1 0
7.899691 21.015606 -3.628889 22.742683 1.211240 1.731044 0.052368 -0.028189 72343.900000 0 1 0
6.591091 21.557206 -3.624389 22.831815 1.274074 1.730214 0.045801 -0.017610 127643.000000 0 1 0
6.136891 22.105506 -2.292689 23.055829 1.299998 1.670402 0.028564 -0.027210 -23459.100000 0 1 0
5.828591 21.191306 -1.278889 22.015437 1.302387 1.628920 0.020088 -0.035171 -61102.100000 0 1 0
5.190891 21.916306 -0.258389 22.524133 1.338231 1.582268 0.030768 -0.028175 -94682.500000 0 1 0
4.835891 21.082006 0.977711 21.651622 1.345312 1.525624 0.023796 -0.031169 -443687.000000 0 1 0
4.119491 21.836006 1.947011 22.306326 1.384332 1.483400 0.042416 -0.024790 157508.000000 0 1 0
3.665391 20.868406 2.903811 21.385920 1.396927 1.434594 0.050889 -0.027979 382898.000000 0 1 0
2.595591 21.287506 3.974311 21.810322 1.449465 1.387551 0.045406 -0.028616 84379.600000 0 1 0
1.309491 21.500606 3.475411 21.819012 1.509967 1.410831 0.030268 -0.020528 -600332.000000 0 1 0
0.402691 21.786506 4.505111 22.251068 1.552315 1.366920 0.039009 -0.030534 -226821.000000 0 1 0
-0.953109 22.232606 3.972811 22.604876 -1.527953 1.394129 0.036680 -0.015648 -251682.000000 0 1 0
-2.009709 22.433706 4.881911 23.046543 -1.481450 1.357351 0.056611 -0.025144 196659.000000 0 1 0
-3.227309 22.657906 4.189111 23.266819 -1.429312 1.389763 0.076321 -0.023911 167024.000000 0 1 0
-4.512109 22.796206 5.006911 23.771733 -1.375390 1.358583 0.083966 -0.037589 -114294.000000 0 1 0
-4.795309 24.061606 5.604911 25.166861 -1.374081 1.346203 0.121349 -0.030474 334222.000000 0 0 1
-6.024909 23.968806 6.324011 25.510709 -1.324534 1.320288 0.132955 -0.029529 462449.000000 0 0 1
-6.521309 25.350306 6.804911 27.045744 -1.319008 1.316456 0.154615 -0.033885 -239311.000000 0 0 1
-5.787709 25.852206 7.882911 27.640087 -1.350551 1.281583 0.128008 -0.041279 104046.000000 0 0 1
-6.450609 26.915906 8.641711 28.995784 -1.335575 1.268165 0.160869 -0.029573 227318.000000 0 0 1
-6.484609 28.248206 7.906111 30.041935 -1.345148 1.304491 0.183919 -0.027763 576037.000000 0 0 1
-7.549209 28.188706 6.959711 30.000521 -1.309127 1.336677 0.177134 -0.047814 -7215.330000 0 0 1
-7.398909 29.304706 6.143311 30.842339 -1.323483 1.370271 0.187940 -0.054716 -526781.000000 0 0 1
-8.645309 29.753006 5.371311 31.445726 -1.288014 1.399142 0.179525 -0.062385 211032.000000 0 0 1
-9.681209 30.332106 6.148611 32.427887 -1.261843 1.380033 0.172266 -0.052929 -60326.200000 0 0 1
-10.680909 29.422606 6.552011 31.979687 -1.222572 1.364455 0.161179 -0.043006 55283.900000 0 0 1
-11.833709 30.026606 7.395311 33.110789 -1.195380 1.345546 0.126401 -0.046117 430998.000000 0 0 1
-11.373409 30.560206 8.699911 33.748616 -1.214514 1.310067 0.125098 -0.032184 476747.000000 0 0 1
-12.522409 30.953706 9.443611 34.700496 -1.186371 1.295174 0.138384 -0.015353 574751.000000 0 0 1
-12.110309 31.473306 10.839011 35.421924 -1.203479 1.259811 0.113978 -0.024057 -61178.700000 0 0 1
-11.547909 32.771606 10.839811 36.398267 -1.232007 1.268397 0.103154 -0.019485 244082.000000 0 0 1
-10.802109 32.874706 12.054911 36.643590 -1.253326 1.235576 0.093409 -0.032691 245752.000000 0 0 1
-10.371909 -33.099723 12.259111 36.789319 1.267134 1.231075 0.094793 -0.028502 221769.000000 0 0 1
-11.310209 -32.428323 13.079211 36.750275 1.235213 1.206926 0.099218 -0.016805 236761.000000 0 0 1
-11.005609 -31.031223 13.095411 35.433742 1.229974 1.192245 0.085025 -0.015402 355574.000000 0 0 1
-12.086809 -30.220023 13.877411 35.382528 1.190324 1.167763 0.080198 -0.015673 78833.000000 0 0 1
-12.126709 -30.153823 15.334711 35.936938 1.188428 1.129943 0.078736 -0.022988 189308.000000 0 0 1
-10.948209 -29.646623 15.960311 35.405043 1.217041 1.103144 0.104788 -0.025801 275732.000000 0 0 1
-11.021909 -29.905123 17.526111 36.372565 1.217681 1.068032 0.100180 -0.035020 -181017.000000 0 0 1
-11.852909 -28.990923 18.198911 36.223824 1.182685 1.044422 0.099284 -0.044332 66548.900000 0 0 1
-12.427509 -29.607723 19.320711 37.474660 1.173390 1.029127 0.089318 -0.054594 -67309.900000 0 0 1
-12.525509 -28.639523 20.526411 37.395778 1.158511 0.989753 0.113543 -0.069131 184362.000000 0 0 1
-11.287709 -28.484723 21.188611 37.252504 1.193508 0.965770 0.121009 -0.065491 193013.000000 0 0 1
-11.509009 -27.678223 22.313811 37.369071 1.176731 0.930891 0.139330 -0.065985 -348712.000000 0 0 1
-10.333209 -27.486623 23.249611 37.454427 1.211205 0.901105 0.171900 -0.071717 -509318.000000 0 0 1
-10.035809 -28.624723 24.029511 38.697670 1.233588 0.900836 0.151438 -0.052238 1261330.000000 0 0 1
-8.644809 -28.519323 24.462711 38.555269 1.276479 0.883455 0.174105 -0.047087 1580420.000000 0 0 1
-8.264109 -29.650023 25.473611 39.954027 1.298973 0.879452 0.172760 -0.043890 45889.700000 0 0 1
-8.322009 -30.939323 24.910411 40.583570 1.308037 0.909925 0.160337 -0.023480 124865.000000 0 0 1
-8.105809 -31.875623 25.926811 41.880294 1.321779 0.903239 0.160254 -0.023112 -343401.000000 0 0 1
-8.429609 -33.331623 25.520411 42.817599 1.323089 0.932253 0.142563 -0.019248 -542074.000000 0 0 1
-7.328909 33.375406 25.041611 42.364052 -1.354637 0.938368 0.149039 -0.018040 257394.000000 0 0 1
-7.599009 32.097506 24.478911 41.075685 -1.338329 0.932353 0.119637 -0.017932 -47807.800000 0 0 1
-8.432509 31.970506 23.161511 40.369246 -1.312911 0.959730 0.108080 -0.012191 -111153.000000 0 0 1
-9.194809 30.827806 23.222611 39.676035 -1.280933 0.945539 0.112277 -0.021621 -116684.000000 0 0 1
-9.912609 30.562706 22.029511 38.956876 -1.257164 0.969776 0.097975 -0.025997 -10773.100000 0 0 1
-10.651109 29.201506 22.151211 38.168707 -1.221046 0.951638 0.100082 -0.033177 -103884.000000 0 0 1
-9.842209 28.060306 21.971211 36.972746 -1.233452 0.934458 0.088545 -0.027806 340075.000000 0 0 1
-10.389309 26.915606 22.643611 36.675887 -1.202421 0.905366 0.079327 -0.031669 141408.000000 0 0 1
-9.497409 25.671406 22.434511 35.391088 -1.216451 0.884207 0.077955 -0.031630 -281690.000000 0 0 1
-8.297409 25.623106 23.149211 35.514455 -1.257627 0.860808 0.063059 -0.036762 -308882.000000 0 0 1
-7.724409 24.366306 22.743811 34.214972 -1.263806 0.843660 0.063210 -0.035233 153682.000000 0 0 1
-6.345809 24.070706 23.405611 34.168564 -1.313029 0.816187 0.060639 -0.029902 428655.000000 0 0 1
-5.371009 24.925306 22.848211 34.236813 -1.358557 0.840141 0.075453 -0.027177 -642726.000000 0 0 1
-4.159309 24.987406 23.538211 34.579151 -1.405852 0.822071 0.097919 -0.029523 -1857.780000 0 0 1
-3.047209 25.668206 22.698811 34.400266 -1.452634 0.850185 0.113106 -0.017478 42764.600000 0 0 1
-2.532209 24.912906 21.609111 33.075952 -1.469502 0.858838 0.096285 -0.018258 41226.700000 0 0 1
-1.701409 25.655006 20.752211 33.041313 -1.504575 0.891728 0.102163 -0.007404 98337.300000 0 0 1
-1.093009 24.802506 19.610311 31.637371 -1.526756 0.902249 0.081638 -0.017359 326210.000000 0 0 1
-0.144309 23.765806 19.897811 30.996084 -1.564724 0.873763 0.088071 -0.019374 185798.000000 0 0 1
0.073391 22.872606 18.865511 29.649097 1.567588 0.881113 0.086610 -0.020952 186855.000000 0 0 1
1.195191 21.818806 19.210611 29.095298 1.516073 0.849625 0.086652 -0.016503 1991620.000000 0 0 1
2.541391 22.355306 19.044111 29.477051 1.457601 0.868378 0.079155 -0.024163 1568940.000000 0 0 1
3.571291 21.352706 19.290211 28.996627 1.405078 0.842958 0.083979 -0.024553 390839.000000 0 0 1
4.947191 22.039306 19.327411 29.728009 1.349985 0.863026 0.069939 -0.020975 -197698.000000 0 0 1
5.853491 20.969506 19.045311 28.925895 1.298582 0.852082 0.080729 -0.022149 -129352.000000 0 0 1
7.145491 21.434206 18.726711 29.345748 1.249014 0.878716 0.105987 -0.028078 548002.000000 0 0 1
8.236891 20.330106 18.424011 28.646182 1.185852 0.872181 0.103004 -0.018961 380978.000000 0 0 1
8.844991 19.785706 19.569511 29.200578 1.150407 0.836351 0.120591 -0.025422 170431.000000 0 0 1
9.823891 18.846206 19.100011 28.574442 1.090281 0.838701 0.104852 -0.024705 334584.000000 0 0 1
10.526591 18.050606 20.191211 29.057159 1.042843 0.802545 0.134219 -0.018971 483349.000000 0 0 1
9.640691 16.999906 20.686211 28.458022 1.054917 0.756995 0.125286 -0.023486 674354.000000 0 0 1
10.149491 16.313106 21.860111 29.103162 1.014236 0.721032 0.121753 -0.032762 61927.600000 0 0 1
9.380591 14.986906 22.177111 28.362424 1.011536 0.673058 0.111432 -0.025437 -821089.000000 0 0 1
8.114691 15.309006 22.611811 28.486977 1.083391 0.653831 0.127625 -0.009450 -474574.000000 0 0 1
7.269991 14.243706 23.137411 28.126068 1.098863 0.604771 0.130720 -0.008822 633532.000000 0 0 1
7.830891 13.481306 24.382511 28.940893 1.044562 0.568901 0.138615 -0.021903 -376633.000000 0 0 1
7.948191 14.279806 25.512511 30.298099 1.062897 0.569724 0.154209 -0.038154 126363.000000 0 0 1
8.261691 13.413406 26.614011 30.927020 1.018747 0.534463 0.165966 -0.040644 -558161.000000 0 0 1
9.223591 13.940506 27.709911 32.361265 0.986282 0.542796 0.137705 -0.036562 -719530.000000 0 0 1
10.554291 13.926506 27.346011 32.452195 0.922286 0.568601 0.156959 -0.032215 -854851.000000 0 0 1
11.009191 15.030906 26.605711 32.480675 0.938631 0.610914 0.141696 -0.024761 155958.000000 0 0 1
12.260091 14.670306 25.698111 32.029995 0.874658 0.639635 0.148420 -0.028072 838619.000000 0 0 1
12.041091 13.729006 24.750311 30.757948 0.850804 0.635660 0.143761 -0.035370 -305171.000000 0 0 1
13.244791 13.486306 24.077011 30.610576 0.794433 0.665580 0.158349 -0.033319 -453926.000000 0 0 1
13.095491 12.397106 23.001511 29.227549 0.758009 0.664897 0.124950 -0.030536 23772.500000 0 0 1
12.942291 11.071506 23.504411 29.026513 0.707651 0.627059 0.121192 -0.023712 263464.000000 0 0 1
11.633191 10.785306 23.965311 28.740043 0.747595 0.584723 0.132930 -0.028856 -162078.000000 0 0 1
11.494291 9.332206 24.348711 28.496816 0.681955 0.546332 0.119932 -0.027520 -152761.000000 0 0 1
11.576091 8.430006 23.300611 27.349394 0.629419 0.551078 0.136738 -0.022240 320760.000000 0 0 1
11.303091 7.060906 23.756211 27.239196 0.558375 0.511251 0.153064 -0.026663 21458.600000 0 0 1
11.604191 5.920406 22.717711 26.187838 0.471771 0.520660 0.180758 -0.051254 712455.000000 0 0 1
12.980591 5.756606 22.324011 26.457432 0.417417 0.566525 0.202330 -0.049388 948251.000000 0 0 1
13.339191 4.642606 21.534411 25.753032 0.334930 0.580499 0.232252 -0.053203 -44026.100000 0 0 1
13.154191 3.268306 22.235111 26.040636 0.243530 0.547436 0.214081 -0.057488 -242104.000000 0 0 1
14.057591 3.061906 23.304611 27.387881 0.214462 0.553082 0.221077 -0.049950 106763.000000 0 0 1
14.010991 1.803906 23.912711 27.773723 0.128045 0.533597 0.221838 -0.042391 466984.000000 0 0 1
15.411291 1.522806 24.549411 29.025858 0.098491 0.562776 0.181386 -0.022391 923868.000000 0 0 1
16.421491 1.164106 23.608811 28.781877 0.070771 0.608919 0.182998 -0.031616 1374870.000000 0 0 1
17.770291 1.424006 24.093811 29.972033 0.079963 0.637012 0.158463 -0.023081 1177770.000000 0 0 1
18.798091 0.689906 23.198411 29.866544 0.036684 0.681330 0.129883 -0.022980 -220264.000000 0 0 1
18.876391 -0.681894 23.528311 30.172248 -0.036108 0.676450 0.107655 -0.014797 -325287.000000 0 0 1
19.783391 -1.390294 22.755511 30.184909 -0.070160 0.716863 0.088721 -0.000848 -202181.000000 0 0 1
19.900791 -2.912994 23.096611 30.626467 -0.145344 0.716454 0.066169 0.003079 -341902.000000 0 0 1
18.766291 -3.581894 22.638511 29.622725 -0.188600 0.700953 0.066288 0.007232 -259453.000000 0 0 1
18.762191 -4.933994 22.929711 30.035575 -0.257153 0.702207 0.080201 -0.002085 -608287.000000 0 0 1
17.583791 -5.761794 22.474011 29.111323 -0.316651 0.688811 0.093219 -0.011070 -643075.000000 0 0 1
17.579091 -6.062094 21.088311 28.115659 -0.332077 0.722650 0.093164 -0.009937 1003950.000000 0 0 1
16.527191 -6.955394 20.617211 27.323890 -0.398347 0.715830 0.110606 -0.024628 780501.000000 0 0 1
17.068091 -8.375594 20.594511 28.028632 -0.456193 0.745473 0.120796 -0.032358 155184.000000 0 0 1
17.443791 -8.885894 21.873811 29.354873 -0.471141 0.730035 0.108658 -0.029926 43719.900000 0 0 1
18.116291 -10.097294 21.711311 30.025595 -0.508476 0.762526 0.089785 -0.037385 -218380.000000 0 0 1
17.992291 -10.969994 23.027011 31.213884 -0.547525 0.741114 0.106692 -0.035579 1144330.000000 0 0 1
16.772291 -11.783294 22.916611 30.746168 -0.612432 0.729739 0.148177 -0.046552 1349650.000000 0 0 1
16.537191 -12.553094 24.092711 31.804364 -0.649289 0.711278 0.158289 -0.039890 -642346.000000 0 0 1
15.302191 -13.406194 23.939611 31.416366 -0.719451 0.704384 0.197462 -0.043998 -497065.000000 0 0 1
15.487191 -14.275394 22.824811 31.058203 -0.744705 0.745271 0.204217 -0.056165 855822.000000 0 0 1
14.272691 -14.997294 22.575011 30.631025 -0.810149 0.742178 0.228995 -0.058185 397026.000000 0 0 1
14.422391 -16.079494 21.460911 30.448747 -0.839673 0.788626 0.220290 -0.061367 -258411.000000 0 0 1
15.288591 -17.115494 21.816511 31.664512 -0.841717 0.810703 0.219246 -0.063236 40257.100000 0 0 1
15.616591 -17.832794 20.662611 31.445667 -0.851557 0.853845 0.183161 -0.044304 -214628.000000 0 0 1
-25.135519 -32.058023 25.124011 47.861541 0.905849 1.018162 0.097117 -0.041016 -575030.000000 0 0 1
-25.691219 -33.358523 25.183611 49.061635 0.914521 1.031764 0.094482 -0.032486 -90759.000000 0 0 1
-26.895699 -33.440423 25.904091 50.126465 0.893447 1.027717 0.086875 -0.041209 -207763.000000 0 0 1
-26.838529 -33.476623 27.424961 50.922681 0.895014 1.002068 0.079163 -0.038210 -971635.000000 0 0 1
-28.084749 -33.489323 28.037671 51.926861 0.872947 1.000424 0.097891 -0.043966 -327502.000000 0 0 1
-28.001369 -33.582823 29.430601 52.707143 0.875783 0.978365 0.082107 -0.042859 -61111.800000 0 0 1
-29.252219 -33.019623 30.136211 53.424517 0.845824 0.971466 0.067978 -0.049619 -208010.000000 0 0 1
-29.337529 -31.610823 29.915721 52.487000 0.822680 0.964334 0.054669 -0.037672 -105342.000000 0 0 1
-30.258669 -31.044823 30.786011 53.170918 0.798221 0.953294 0.046160 -0.016457 -701332.000000 0 0 1
-30.376299 -29.496423 30.576151 52.227000 0.770703 0.945365 0.033752 -0.021058 -73464.100000 0 0 1
-30.934509 -29.125023 29.308481 51.615869 0.755279 0.966942 0.017737 -0.007506 314677.000000 0 0 1
-31.318339 -27.759123 29.253091 51.060265 0.725224 0.960741 0.031104 -0.002731 -316415.000000 0 0 1
-32.045629 -27.425623 27.970511 50.610638 0.707869 0.985243 0.027005 -0.015676 -529380.000000 0 0 1
-31.277709 -27.437123 26.798881 49.490108 0.720080 0.998576 0.045882 -0.016720 -189671.000000 0 0 1
-30.434389 -26.338323 26.636571 48.264544 0.713374 0.986171 0.040651 -0.011298 -302836.000000 0 0 1
-29.462359 -26.353623 25.454001 47.015425 0.729759 0.998699 0.036150 0.003641 159967.000000 0 0 1
-30.057769 -26.085223 24.159361 46.557310 0.714758 1.025213 0.031125 -0.005617 -14115.700000 0 0 1
-29.065279 -25.588323 23.309431 45.198256 0.721866 1.028954 0.050675 0.005757 -402197.000000 0 0 1
-29.279349 -25.738123 21.794811 44.662569 0.721121 1.061013 0.046075 0.002451 -104858.000000 0 0 1
-30.286819 -24.915023 21.240211 44.600408 0.688392 1.074430 0.037772 -0.003583 162019.000000 0 0 1
-30.644549 -25.333723 19.947711 44.483672 0.690808 1.105791 0.037462 -0.000172 133519.000000 0 0 1
-31.443729 -24.287123 19.107811 44.087196 0.657683 1.122524 0.051430 -0.004871 567200.000000 0 0 1
-32.773349 -24.074723 19.567211 45.128267 0.633561 1.122322 0.087118 -0.016776 284587.000000 0 0 1
-33.431129 -23.038923 18.900911 44.784783 0.603404 1.135103 0.101363 -0.015848 6278.330000 0 0 1
-34.930123 -22.905823 19.237711 45.987822 0.580415 1.139199 0.105717 -0.006658 -409313.000000 0 0 1
-35.813184 -23.848723 18.755711 46.937431 0.587486 1.159727 0.101540 -0.018795 -396299.000000 0 0 1
-37.096109 -23.274623 18.642711 47.596009 0.560333 1.168333 0.099671 -0.021183 -463943.000000 0 0 1
-37.905979 -23.922823 17.553211 48.138134 0.562981 1.197547 0.114874 -0.020250 -532492.000000 0 0 1
37.959543 -25.192723 17.957011 48.969934 -0.585927 1.195343 0.099917 -0.016003 -116972.000000 0 0 1
36.969493 -25.706923 17.081111 48.159668 -0.607602 1.208228 0.102559 -0.014157 331504.000000 0 0 1
36.369043 -27.076523 17.597411 48.636553 -0.639968 1.200583 0.096883 0.001556 -14134.800000 0 0 1
35.378123 -27.076323 18.598611 48.276777 -0.653247 1.175318 0.088886 -0.006172 -181879.000000 0 0 1
35.701433 -26.418923 19.821511 48.635831 -0.637068 1.151027 0.097046 -0.003697 -335333.000000 0 0 1
34.568793 -26.377923 20.885811 48.239127 -0.651805 1.123018 0.081279 -0.003088 321043.000000 0 0 1
33.507243 -25.533523 20.433211 46.821066 -0.651156 1.119191 0.085777 -0.004053 -377865.000000 0 0 1
32.551963 -25.400723 21.432511 46.520743 -0.662621 1.092003 0.096202 -0.007616 -491783.000000 0 0 1
31.483643 -24.355923 21.075911 45.040257 -0.658438 1.083844 0.100977 0.000167 -150294.000000 0 0 1
32.010193 -23.061423 20.782211 44.591277 -0.624313 1.085964 0.085560 0.005441 345621.000000 0 0 1
32.740813 -22.379123 21.833211 45.271128 -0.599582 1.067545 0.106391 -0.003221 111484.000000 0 0 1
33.403493 -21.055623 21.382211 44.903580 -0.562432 1.074490 0.109405 -0.008170 -401366.000000 0 0 1
32.623303 -20.043623 20.858511 43.601654 -0.550938 1.071978 0.104801 -0.012075 -71916.400000 0 0 1
33.463243 -18.903423 20.575011 43.594255 -0.514212 1.079277 0.116296 -0.005789 -471817.000000 0 0 1
32.739063 -17.558523 20.480111 42.421491 -0.492278 1.066974 0.103094 0.004125 -129363.000000 0 0 1
32.293283 -17.106123 21.760811 42.532440 -0.487133 1.033717 0.118798 -0.014804 365698.000000 0 0 1
31.006463 -17.625823 22.065211 41.939765 -0.516903 1.016769 0.113513 -0.018918 -506690.000000 0 0 1
30.689263 -17.496423 23.566251 42.465561 -0.518156 0.982494 0.100823 -0.011553 -248027.000000 0 0 1
30.371563 -16.169223 23.989651 41.944951 -0.489215 0.961937 0.115706 -0.016043 158598.000000 0 0 1
30.315463 -16.019223 25.389101 42.664379 -0.486122 0.933420 0.113646 -0.015768 -24661.800000 0 0 1
30.014963 -14.566723 25.861941 42.212882 -0.451831 0.911381 0.089964 -0.026082 140696.000000 0 0 1
28.717963 -14.097323 25.535981 40.933388 -0.456332 0.897147 0.111868 -0.032172 84908.100000 0 0 1
28.400163 -12.770523 25.894691 40.499266 -0.422574 0.877096 0.097278 -0.029057 -11791.200000 0 0 1
29.238563 -11.602023 25.277481 40.354077 -0.377749 0.893880 0.125747 -0.039434 -243257.000000 0 0 1
29.127563 -11.667623 23.907251 39.447497 -0.380998 0.919708 0.132967 -0.046066 298506.000000 0 0 1
29.929163 -10.617223 23.341051 39.411735 -0.340896 0.936965 0.154007 -0.048550 -322987.000000 0 0 1
30.923563 -11.080923 22.286761 39.695759 -0.344079 0.974672 0.157868 -0.059267 -539122.000000 0 0 1
30.350563 -11.950423 21.333911 38.975698 -0.375104 0.991585 0.149064 -0.050360 127421.000000 0 0 1
30.580363 -13.336823 21.672911 39.783722 -0.411255 0.994684 0.141347 -0.045502 -120727.000000 0 0 1
30.010463 -14.354223 20.646811 39.153064 -0.446143 1.015334 0.127844 -0.032829 -54762.200000 0 0 1
30.647263 -14.433823 19.372611 39.024198 -0.440152 1.051320 0.126732 -0.028543 -323983.000000 0 0 1
29.940063 -15.223223 18.471911 38.332302 -0.470390 1.067987 0.129958 -0.030745 -262185.000000 0 0 1
30.564363 -15.373323 17.035611 38.219516 -0.466030 1.108806 0.138935 -0.031326 330915.000000 0 0 1
29.955663 -16.386823 16.174311 37.781980 -0.500565 1.128412 0.123319 -0.036131 841183.000000 0 0 1
28.558363 -16.284023 15.868011 36.504017 -0.518221 1.121100 0.109116 -0.033541 416034.000000 0 0 1
28.209263 -15.440123 14.642211 35.334887 -0.500800 1.143531 0.144754 -0.033746 -336216.000000 0 0 1
28.274563 -16.075623 13.370411 35.165956 -0.516977 1.180774 0.136214 -0.036174 99867.600000 0 0 1
27.055563 -16.726323 13.070511 34.389121 -0.553710 1.180917 0.130248 -0.041676 -110687.000000 0 0 1
27.034063 -17.281523 11.656311 34.137387 -0.568781 1.222334 0.138621 -0.034919 -469241.000000 0 0 1
26.911163 -16.226323 10.641111 33.177364 -0.542592 1.244292 0.154191 -0.030392 -212066.000000 0 0 1
27.068163 -16.643723 9.311511 33.111980 -0.551290 1.285739 0.130491 -0.038889 1193330.000000 0 0 1
28.561363 -16.966523 8.892911 34.390380 -0.536024 1.309237 0.125099 -0.030807 883628.000000 0 0 1
29.119163 -18.036923 9.622411 35.578744 -0.554575 1.296932 0.111647 -0.032517 -568161.000000 0 0 1
30.467063 -18.232823 9.261011 36.693924 -0.539274 1.315652 0.122695 -0.014922 7078.590000 0 0 1
31.214163 -19.167523 10.260911 38.039508 -0.550697 1.297670 0.123716 -0.036465 -8158.990000 0 0 1
31.339063 -18.555723 11.541911 38.205594 -0.534587 1.263901 0.110901 -0.039369 27357.700000 0 0 1
31.589453 -19.586623 12.483211 39.209181 -0.555022 1.246782 0.089599 -0.031308 -42768.500000 0 0 1
31.515513 -19.055923 13.905511 39.366470 -0.543833 1.209772 0.106504 -0.019232 141270.000000 0 0 1
31.615073 -20.064623 14.912811 40.305010 -0.565511 1.191788 0.115008 -0.016946 29997.300000 0 0 1
31.244263 -19.561623 16.165211 40.251399 -0.559381 1.157526 0.121486 -0.027006 102161.000000 0 0 1
30.938863 -20.597623 17.288811 40.992417 -0.587369 1.135415 0.112492 -0.014935 757109.000000 0 0 1
29.671863 -21.244723 17.100711 40.301266 -0.621376 1.132583 0.049596 -0.000879 466850.000000 0 0 1
29.564563 -22.238523 18.045211 41.161207 -0.644909 1.116975 0.075323 -0.009740 344179.000000 0 0 1
28.201463 -22.975823 17.874711 40.530436 -0.683642 1.114062 0.069191 0.003225 843770.000000 0 0 1
27.137863 -22.174123 18.426211 39.593946 -0.685076 1.086733 0.075051 0.005550 104736.000000 0 0 1
25.882063 -22.778623 18.214511 38.993785 -0.721707 1.084773 0.075245 -0.008046 457841.000000 0 0 1
24.737563 -22.067623 19.014511 38.216209 -0.728416 1.050023 0.049711 -0.004360 172587.000000 0 0 1
24.186263 -20.890223 18.505211 36.929928 -0.712407 1.045939 0.039240 -0.003173 -543207.000000 0 0 1
23.063663 -20.330823 19.103811 36.197106 -0.722505 1.014821 0.053618 -0.004592 -258790.000000 0 0 1
23.216563 -19.854023 20.612211 36.851788 -0.707486 0.977222 0.038052 -0.006520 -316257.000000 0 0 1
23.395663 -20.963323 21.460911 38.044561 -0.730620 0.971454 0.060190 -0.013255 -117588.000000 0 0 1
24.089863 -20.697423 22.655561 39.012553 -0.709797 0.951177 0.047393 -0.010690 164987.000000 0 0 1
24.365363 -22.027423 23.416521 40.338713 -0.735046 0.951457 0.072715 -0.011734 -466203.000000 0 0 1
23.210163 -22.534223 24.009291 40.285840 -0.770623 0.932319 0.095936 -0.017088 -296116.000000 0 0 1
23.459163 -23.611723 24.900061 41.567521 -0.788639 0.928511 0.101799 -0.013710 -240336.000000 0 0 1
22.202363 -24.151223 25.613801 41.620828 -0.827417 0.907893 0.116984 -0.020035 -390807.000000 0 0 1
21.558363 -25.151423 24.897871 41.439849 -0.862170 0.926270 0.121539 -0.019268 -18754.200000 0 0 1
20.464263 -25.562423 25.713881 41.634447 -0.895714 0.905095 0.130208 -0.017144 185952.000000 0 0 1
19.478463 -26.555223 25.030201 41.365461 -0.937934 0.920906 0.134174 -0.023448 300552.000000 0 0 1
18.812863 -25.952423 23.887951 39.976071 -0.943555 0.930346 0.135377 -0.027354 258075.000000 0 0 1
18.219763 -26.905723 23.057351 39.843684 -0.975557 0.953668 0.119275 -0.028568 171680.000000 0 0 1
17.277163 -26.211323 21.970011 38.317296 -0.988016 0.960182 0.111841 -0.025692 132265.000000 0 0 1
16.124663 -25.675223 22.564731 37.794033 -1.010025 0.930984 0.093532 -0.023923 -562430.000000 0 0 1
15.578463 -24.854223 21.572511 36.411456 -1.010908 0.936681 0.072574 -0.026871 -377960.000000 0 0 1
14.115363 -24.424123 21.766711 35.631039 -1.046765 0.913610 0.075568 -0.026256 158920.000000 0 0 1
13.172263 -25.513123 21.719511 36.002293 -1.094199 0.923187 0.070664 -0.023482 -660371.000000 0 0 1
11.913863 -24.931023 21.786111 35.187081 -1.125006 0.903135 0.087172 -0.022965 -1168420.000000 0 0 1
10.806263 -25.946723 21.956511 35.666457 -1.176165 0.907641 0.084233 -0.022288 -595471.000000 0 0 1
10.419163 -26.489723 20.739011 35.218901 -1.196054 0.941148 0.113468 -0.034800 -1472780.000000 0 0 1
9.135663 -26.917423 20.844211 35.248959 -1.243599 0.938074 0.126421 -0.041424 -1429250.000000 0 0 1
8.701263 -27.879723 19.672711 35.213726 -1.268276 0.978020 0.155791 -0.047584 -77421.100000 0 0 1
9.158063 -29.182423 19.720311 36.391958 -1.266708 0.998116 0.152820 -0.048780 1080.550000 0 0 1
8.720663 -29.930723 18.614511 36.309753 -1.287283 1.032518 0.161991 -0.052453 -1558.700000 0 0 1
9.482063 -31.289523 18.617711 37.623968 -1.276550 1.053150 0.144495 -0.040299 204962.000000 0 0 1
8.974963 -32.257423 19.554111 38.774406 -1.299430 1.042220 0.135495 -0.048704 506736.000000 0 0 1
9.802163 -33.424423 19.542611 39.939806 -1.285531 1.059508 0.116028 -0.042457 119433.000000 0 0 1
9.333963 32.967306 20.526611 39.941305 1.294890 1.031049 0.123631 -0.056810 -428477.000000 0 0 1
8.224863 32.243806 20.118011 38.885032 1.321039 1.027020 0.122516 -0.059677 -532650.000000 0 0 1
8.216063 31.095506 20.910011 38.362256 1.312479 0.994327 0.128839 -0.061065 -298859.000000 0 0 1
7.192963 30.047606 20.502111 37.080101 1.335832 0.984939 0.127695 -0.051657 765233.000000 0 0 1
5.852563 30.427906 20.908111 37.379928 1.380775 0.977206 0.160817 -0.060315 755930.000000 0 0 1
4.952663 29.396106 20.582911 36.225904 1.403884 0.966501 0.179187 -0.039166 4414.410000 0 0 1
3.493563 29.588506 21.041511 36.475058 1.453269 0.955900 0.174538 -0.032198 -14539.600000 0 0 1
3.167163 29.263106 22.389541 36.981777 1.462985 0.920502 0.140573 -0.038358 163562.000000 0 0 1
1.785263 28.959006 22.394031 36.651109 1.509226 0.913466 0.131488 -0.023150 -2563.820000 0 0 1
1.280263 28.226206 23.627231 36.832103 1.525470 0.874364 0.133004 -0.015513 -116812.000000 0 0 1
1.281863 29.081006 24.761531 38.216246 1.526746 0.865930 0.146049 -0.028710 147958.000000 0 0 1
0.772963 28.349606 25.855581 38.377189 1.543538 0.831562 0.148682 -0.033556 315997.000000 0 0 1
1.866863 27.564506 26.666161 38.397543 1.503173 0.803105 0.132202 -0.023412 371418.000000 0 0 1
2.448263 26.449806 26.020931 37.184339 1.478497 0.795704 0.130036 -0.027081 160992.000000 0 0 1
3.387763 25.825506 26.860821 37.415737 1.440362 0.770013 0.109496 -0.011367 -294187.000000 0 0 1
3.971163 24.525106 26.389891 36.244686 1.410267 0.755245 0.107049 -0.007360 -148564.000000 0 0 1
3.029463 23.488406 26.185311 35.306562 1.442528 0.735261 0.118540 -0.008283 -25395.700000 0 0 1
3.605063 22.179506 26.231131 34.539820 1.409665 0.708335 0.117056 -0.002381 3445.660000 0 0 1
2.540263 21.080006 26.124651 33.664773 1.450869 0.682460 0.113217 -0.002944 111236.000000 0 0 1
3.069163 19.758406 26.292861 33.032240 1.416693 0.650179 0.134875 -0.003366 13400.400000 0 0 1
3.682563 19.182206 25.133781 31.831199 1.381126 0.660646 0.131532 -0.008294 -113601.000000 0 0 1
4.267963 17.809506 25.586061 31.464909 1.335587 0.621232 0.134920 -0.018334 -217759.000000 0 0 1
5.419863 17.935806 26.370801 32.349454 1.277340 0.617747 0.135040 -0.020320 -846530.000000 0 0 1
6.511063 17.495606 25.629751 31.707638 1.214523 0.629512 0.143302 -0.011356 -748040.000000 0 0 1
7.828463 17.227906 26.420261 32.497934 1.144284 0.621540 0.121263 -0.019435 458037.000000 0 0 1
8.451763 18.338306 27.037071 33.745058 1.138931 0.641472 0.117744 -0.009929 141278.000000 0 0 1
9.123463 19.257806 26.186981 33.761792 1.128365 0.683069 0.103167 -0.020779 -302064.000000 0 0 1
9.535263 20.525406 26.963521 35.202911 1.135901 0.698285 0.098890 -0.018874 302360.000000 0 0 1
10.581063 20.221306 27.874001 36.025269 1.088712 0.686081 0.108430 -0.041500 43186.100000 0 0 1
10.975763 21.358106 28.609811 37.351805 1.096097 0.698270 0.155825 -0.046320 -173636.000000 0 0 1
11.930863 21.114506 29.771211 38.399125 1.056468 0.683591 0.193670 -0.049620 413271.000000 0 0 1
13.286463 20.896106 29.377021 38.421175 1.004444 0.700368 0.192707 -0.052237 538302.000000 0 0 1
14.102663 20.841706 30.568031 39.593766 0.975910 0.688749 0.195614 -0.031110 2278410.000000 0 0 1
15.691663 20.796206 30.327431 39.980789 0.924393 0.709711 0.155842 -0.042955 1846760.000000 0 0 1
16.154763 22.032906 29.835611 40.454777 0.938127 0.741427 0.127556 -0.062509 212799.000000 0 0 1
17.495963 21.829406 29.388341 40.574699 0.895150 0.760775 0.216210 -0.040817 504763.000000 0 0 1
-8.576409 16.668106 4.519011 19.282168 -1.095584 1.334234 0.032984 -0.020547 -201486.000000 0 1 0
-8.578709 17.936506 5.079011 20.520937 -1.124674 1.320693 0.048444 -0.024362 629921.000000 0 1 0
-7.213309 18.279006 5.361911 20.369192 -1.194934 1.304421 0.043803 -0.016520 584148.000000 0 1 0
-7.007809 19.767306 5.881711 21.781880 -1.230105 1.297375 0.054392 -0.015287 -239808.000000 0 1 0
-7.074309 20.693406 4.787511 22.387120 -1.241389 1.355281 0.068438 -0.030674 808395.000000 0 1 0
-8.414209 21.097606 4.430411 23.141660 -1.191305 1.378160 0.071780 -0.029337 920812.000000 0 1 0
-8.545609 22.216906 3.418211 24.047921 -1.203597 1.428172 0.135352 -0.037242 83511.200000 0 1 0
-7.931009 22.081106 2.145511 23.560122 -1.225970 1.479605 0.104655 -0.034453 72517.100000 0 1 0
-8.406809 20.976006 1.330211 22.637065 -1.189616 1.512000 0.113155 -0.034011 -467216.000000 0 1 0
-7.862909 20.959106 -0.138989 22.385905 -1.211890 1.577005 0.080146 -0.016012 1132200.000000 0 1 0
-6.494809 20.575406 -0.351389 21.579002 -1.265036 1.587081 0.059668 -0.011170 717911.000000 0 1 0
-5.564809 21.597706 0.012311 22.303097 -1.318624 1.570244 0.069000 -0.016824 -52970.400000 0 1 0
-4.133609 21.341506 -0.514689 21.744229 -1.379477 1.594469 0.064085 -0.015882 30899.000000 0 1 0
-3.953909 21.532006 -1.923789 21.976388 -1.389190 1.658447 0.064231 -0.019470 371187.000000 0 1 0
-2.622109 21.323306 -2.389189 21.616361 -1.448441 1.681549 0.054865 -0.017020 375683.000000 0 1 0
-2.422309 21.534906 -3.875089 22.014451 -1.458784 1.747743 0.060627 -0.014897 700236.000000 0 1 0
-1.078309 21.962106 -4.153989 22.377499 -1.521737 1.757512 0.064885 -0.020010 739177.000000 0 1 0
-0.809709 22.403606 -5.487589 23.080095 -1.534670 1.810858 0.072895 -0.021589 -339136.000000 0 1 0
0.616891 22.875506 -5.723789 23.588791 1.543836 1.815892 0.077274 -0.028725 14110.900000 0 1 0
1.653491 21.912206 -5.498789 22.652052 1.495479 1.815996 0.060320 -0.032657 621095.000000 0 1 0
2.883791 22.426106 -6.007589 23.395247 1.442907 1.830492 0.054397 -0.019163 -34217.800000 0 1 0
3.862291 21.358906 -6.446689 22.642437 1.391901 1.859508 0.070382 -0.019274 -470681.000000 0 1 0
3.478591 20.780906 -7.675989 22.424706 1.404940 1.920161 0.064342 -0.019741 149026.000000 0 1 0
3.970491 19.490406 -7.820689 21.372971 1.369831 1.945412 0.049693 -0.021083 -16889.800000 0 1 0
3.432791 18.895006 -9.119589 21.259638 1.391079 2.014140 0.050884 -0.014618 -179733.000000 0 1 0
4.143391 19.370506 -10.284689 22.319476 1.360070 2.049686 0.055288 -0.015899 375718.000000 0 1 0
3.517491 18.909206 -11.461589 22.389703 1.386878 2.108207 0.059525 -0.015601 -218240.000000 0 1 0
4.170191 19.341206 -12.746289 23.535943 1.358436 2.143096 0.068226 -0.013214 -114459.000000 0 1 0
3.858291 20.662706 -13.111189 24.773718 1.386195 2.128498 0.101583 -0.023661 -64793.500000 0 1 0
4.492591 20.944906 -14.343489 25.779995 1.359502 2.160820 0.129272 -0.036954 313075.000000 0 0 1
4.791991 22.465406 -14.658289 27.249276 1.360641 2.138780 0.124099 -0.039395 181486.000000 0 0 1
3.605291 23.180906 -14.916689 27.800362 1.416504 2.137157 0.129524 -0.040997 -78602.100000 0 0 1
3.861291 24.527506 -15.260889 29.144516 1.414651 2.121900 0.123456 -0.036822 12475.000000 0 0 1
2.570091 25.253606 -15.678789 29.835790 1.469374 2.124102 0.120643 -0.035344 268486.000000 0 0 1
1.636391 25.591306 -14.670989 29.543707 1.506940 2.090457 0.140874 -0.040862 43518.300000 0 0 1
1.804591 26.872706 -14.180489 30.438218 1.503744 2.055423 0.130282 -0.037154 -959938.000000 0 0 1
1.088591 27.166906 -12.845089 30.070286 1.530747 2.012156 0.137551 -0.047698 635810.000000 0 0 1
-0.337309 27.319006 -12.902389 30.214458 -1.558450 2.011999 0.133187 -0.045270 1069660.000000 0 0 1
-1.157409 26.212306 -13.297389 29.415049 -1.526670 2.039871 0.123292 -0.046082 -386967.000000 0 0 1
-1.153609 24.955106 -12.440089 27.907775 -1.524602 2.032816 0.137951 -0.045634 -605808.000000 0 0 1
-1.734909 25.178006 -11.174689 27.601006 -1.501999 1.987628 0.116033 -0.039719 -58954.700000 0 0 1
-2.042609 23.906406 -10.637589 26.245891 -1.485561 1.988109 0.123275 -0.038026 72119.000000 0 0 1
-3.095709 23.937806 -9.468989 25.928049 -1.442187 1.944647 0.105392 -0.029602 253104.000000 0 0 1
-2.771709 24.541006 -8.214689 26.027379 -1.458331 1.891903 0.118884 -0.030687 -190832.000000 0 0 1
-2.313309 25.883206 -8.250689 27.264732 -1.481658 1.878230 0.118642 -0.036935 -1654.290000 0 0 1
-2.124609 26.488406 -6.854389 27.443255 -1.490759 1.823235 0.112039 -0.039421 -740018.000000 0 0 1
-1.153109 25.955006 -6.074389 26.681270 -1.526398 1.800475 0.111343 -0.034790 -934501.000000 0 0 1
-1.068409 26.523706 -4.740189 26.965123 -1.530537 1.747504 0.104987 -0.040523 -192925.000000 0 0 1
-1.793309 25.760206 -3.575189 26.068873 -1.501293 1.708374 0.101599 -0.030815 -287960.000000 0 0 1
-3.179309 25.946706 -3.642689 26.393346 -1.448872 1.709254 0.108047 -0.031176 -294220.000000 0 0 1
-3.831309 25.213406 -2.564289 25.631432 -1.419995 1.671009 0.105598 -0.028972 -354260.000000 0 0 1
-5.015209 24.443206 -3.099089 25.144124 -1.368427 1.694364 0.112035 -0.022913 -1013800.000000 0 0 1
-6.132109 25.191906 -3.486089 26.160804 -1.332024 1.704450 0.122088 -0.017864 -832888.000000 0 0 1
-7.209609 24.299806 -3.589189 25.599635 -1.282375 1.711464 0.092854 -0.020490 -289599.000000 0 0 1
-8.542909 25.002806 -3.881789 26.705615 -1.241554 1.716668 0.089402 -0.014897 199752.000000 0 0 1
-9.173709 25.502306 -2.664489 27.232775 -1.225488 1.668794 0.130139 -0.032247 -28429.500000 0 0 1
-10.359709 26.233706 -2.946989 28.358696 -1.194694 1.674903 0.146963 -0.035308 674549.000000 0 0 1
-11.359409 26.352806 -1.717189 28.748135 -1.163811 1.630564 0.158369 -0.035895 352298.000000 0 0 1
-11.893609 25.099806 -1.234489 27.802556 -1.128285 1.615213 0.154554 -0.035219 -291968.000000 0 0 1
-11.051409 24.084006 -0.778389 26.509977 -1.140591 1.600163 0.179083 -0.040612 -428603.000000 0 0 1
-11.808909 22.760906 -0.359689 25.644464 -1.092203 1.584823 0.152343 -0.031183 386003.000000 0 0 1
-12.770009 22.979606 0.667911 26.297937 -1.063579 1.545396 0.170684 -0.039185 340746.000000 0 0 1
-13.326309 21.694806 0.981611 25.479770 -1.019956 1.532262 0.151643 -0.040292 259531.000000 0 0 1
-14.288209 21.696806 2.203811 26.072228 -0.988441 1.486168 0.156875 -0.047452 282669.000000 0 0 1
-13.580909 21.655006 3.435511 25.791144 -1.010653 1.437194 0.151150 -0.042707 187100.000000 0 0 1
-13.240209 22.945106 3.869311 26.772235 -1.047431 1.425761 0.163737 -0.044280 -33134.900000 0 0 1
-12.936609 22.850006 5.379711 26.803356 -1.055636 1.368713 0.151562 -0.041728 130761.000000 0 0 1
-11.905309 21.945506 5.767911 25.624410 -1.073734 1.343756 0.137536 -0.036153 196780.000000 0 0 1
-11.919209 21.795806 7.138011 25.847164 -1.070369 1.290998 0.105341 -0.033710 -585691.000000 0 0 1
-10.554409 21.453106 7.731111 25.127701 -1.113589 1.258050 0.086181 -0.025183 -564762.000000 0 0 1
-9.761709 22.570806 8.040911 25.872543 -1.162596 1.254773 0.104502 -0.027989 834329.000000 0 0 1
-8.582109 22.241806 8.826311 25.421532 -1.202543 1.216214 0.109062 -0.030796 813337.000000 0 0 1
-8.805009 22.179906 10.363711 26.016973 -1.192895 1.161085 0.095270 -0.033327 -400064.000000 0 0 1
-9.642209 21.168706 10.839611 25.662881 -1.143383 1.134722 0.094060 -0.022265 -260491.000000 0 0 1
-9.318409 20.746306 12.121711 25.771648 -1.148641 1.081108 0.071297 -0.016063 53205.900000 0 0 1
-10.276709 19.627006 12.621711 25.497798 -1.088447 1.052948 0.059854 -0.010356 -51278.900000 0 0 1
-10.343709 18.458506 11.844011 24.248492 -1.060022 1.060492 0.077152 -0.029629 67006.300000 0 1 0
-10.853009 17.318306 12.526611 23.971389 -1.010991 1.020940 0.077452 -0.027452 -338735.000000 0 1 0
-11.144909 16.111306 11.618611 22.776639 -0.965632 1.035483 0.072881 -0.035520 -100543.000000 0 1 0
-11.616709 14.994506 12.381511 22.651378 -0.911654 0.992484 0.070674 -0.023184 160103.000000 0 1 0
-11.774009 13.928306 11.461611 21.540509 -0.869020 1.009723 0.050231 -0.014799 -12484.700000 0 1 0
-12.227309 12.609006 12.136911 21.349443 -0.800765 0.966129 0.036349 -0.021913 268891.000000 0 1 0
-13.508509 12.749806 12.723911 22.515223 -0.756512 0.970212 0.072782 -0.019176 91012.400000 0 1 0
-13.955809 11.581906 13.334011 22.510020 -0.692708 0.936813 0.053543 -0.010931 181087.000000 0 1 0
-14.836509 11.731406 14.610211 23.899919 -0.669052 0.913084 0.084059 -0.016155 729557.000000 0 1 0
-16.147109 12.230106 14.328711 24.811622 -0.648232 0.955133 0.103670 -0.024136 403280.000000 0 1 0
-16.755509 12.666706 15.560811 26.140607 -0.647313 0.933190 0.087937 -0.010220 -20822.700000 0 0 1
-17.973609 13.555706 15.254311 27.193782 -0.646184 0.975265 0.076662 -0.013352 -168083.000000 0 0 1
-18.994509 12.880306 14.550211 27.173559 -0.595881 1.005750 0.096072 -0.021148 -372556.000000 0 0 1
-19.961809 13.825406 14.216811 28.137757 -0.605737 1.041116 0.139210 -0.029539 97825.100000 0 0 1
-21.194109 13.280206 13.403311 28.376097 -0.559748 1.078847 0.115871 -0.037640 400441.000000 0 0 1
-22.081609 12.499806 14.170111 29.062599 -0.515100 1.061490 0.130608 -0.027189 -329232.000000 0 0 1
-23.268909 12.297206 13.444311 29.553560 -0.486173 1.098521 0.109264 -0.031465 -435514.000000 0 0 1
-24.240609 11.433706 14.244311 30.351889 -0.440732 1.082292 0.139348 -0.039781 -545185.000000 0 0 1
-24.717109 12.063306 15.396411 31.519967 -0.454046 1.060466 0.124662 -0.033807 87331.800000 0 0 1
-25.590579 11.194306 16.091511 32.235492 -0.412359 1.048137 0.113600 -0.028091 -240901.000000 0 0 1
-26.618829 11.871206 16.968311 33.725527 -0.419498 1.043580 0.093885 -0.026533 -47428.900000 0 0 1
-27.688499 12.556106 16.334511 34.512679 -0.425742 1.077774 0.095590 -0.013029 392337.000000 0 0 1
-28.580189 13.106606 17.267811 35.871822 -0.429975 1.068573 0.076866 -0.001775 214234.000000 0 0 1
-29.573169 14.200806 16.755011 36.837014 -0.447676 1.098602 0.074682 -0.001988 286047.000000 0 0 1
-28.951009 15.376406 16.370711 36.641438 -0.488231 1.107632 0.090849 -0.010951 -616805.000000 0 0 1
-29.906439 16.379606 16.206711 37.753729 -0.501072 1.127107 0.098599 -0.004001 -210096.000000 0 0 1
-29.480579 17.833006 16.503411 38.203183 -0.544020 1.124098 0.097599 -0.006156 -233760.000000 0 0 1
-29.038509 18.244306 17.783311 38.630763 -0.560954 1.092417 0.090003 -0.002845 762671.000000 0 0 1
-30.121999 18.439806 18.721911 39.973381 -0.549321 1.083363 0.090797 -0.018146 129571.000000 0 0 1
-29.507309 18.949606 20.091711 40.415909 -0.570873 1.050516 0.071686 -0.023219 749436.000000 0 0 1
-28.952499 17.868706 20.912411 39.935783 -0.552951 1.019665 0.070752 -0.021404 611839.000000 0 0 1
-27.768489 17.275606 20.362111 38.524682 -0.556533 1.013908 0.079236 -0.011434 -400386.000000 0 0 1
-27.296709 15.988706 21.072111 38.010300 -0.529866 0.983180 0.072885 -0.015680 603356.000000 0 0 1
-28.282429 14.899806 21.019411 38.258537 -0.484874 0.989145 0.053453 -0.002281 882377.000000 0 0 1
-27.806629 13.630006 21.440511 37.665384 -0.455754 0.965219 0.046998 0.007313 -585157.000000 0 0 1
-28.921259 12.604106 21.597711 38.233020 -0.410989 0.970488 0.065606 -0.002489 -543955.000000 0 0 1
-29.541049 12.450606 20.346111 37.969137 -0.398875 1.005271 0.076599 -0.006527 -106510.000000 0 0 1
-30.718529 11.690406 20.512211 38.743314 -0.363641 1.012858 0.103899 -0.014554 -178739.000000 0 0 1
-31.614339 11.596906 19.242011 38.784142 -0.351584 1.051659 0.120449 -0.020357 -520745.000000 0 0 1
-31.185569 10.907006 18.063011 37.653351 -0.336448 1.070462 0.146298 -0.029518 77112.900000 0 0 1
-30.844429 9.560906 18.252611 37.093767 -0.300580 1.056334 0.164082 -0.033785 -108865.000000 0 0 1
-30.136889 8.964806 16.988411 35.738018 -0.289134 1.075424 0.168325 -0.053292 161377.000000 0 0 1
-30.919509 8.858606 15.762911 35.818435 -0.279031 1.115111 0.176542 -0.046785 762109.000000 0 0 1
-31.437689 10.054106 15.130811 36.309156 -0.309531 1.140960 0.168911 -0.040927 607552.000000 0 0 1
-30.356049 10.973306 14.409011 35.348589 -0.346871 1.150943 0.155728 -0.027870 442435.000000 0 0 1
-29.680029 10.468906 13.283011 34.160511 -0.339101 1.171423 0.171735 -0.048496 -47938.600000 0 0 1
-28.610169 11.369606 13.098411 33.457108 -0.378261 1.168537 0.143882 -0.036584 -326354.000000 0 0 1
-27.935449 11.158006 11.757511 32.297515 -0.380007 1.198197 0.198099 -0.035990 -451096.000000 0 0 1
-27.277829 9.965606 11.476911 31.226795 -0.350272 1.194440 0.216185 -0.041096 143821.000000 0 0 1
-28.119729 8.907306 11.168711 31.540440 -0.306764 1.208837 0.230910 -0.037711 -463771.000000 0 0 1
-27.256759 7.812606 10.546511 30.252217 -0.279146 1.214699 0.252112 -0.041540 -52196.500000 0 0 1
-26.936659 8.055906 9.197111 29.581549 -0.290602 1.254649 0.258989 -0.035448 297769.000000 0 0 1
-26.325809 6.922706 8.554811 28.533434 -0.257141 1.266295 0.284121 -0.049237 -169133.000000 0 0 1
-25.534229 7.320506 7.272511 27.540444 -0.279205 1.303560 0.278315 -0.039945 -323835.000000 0 0 1
-26.243719 7.893606 6.195211 28.096662 -0.292173 1.348473 0.291673 -0.046843 -19822.000000 0 0 1
-25.431679 8.099106 5.051111 27.163938 -0.308310 1.383759 0.285096 -0.050826 -211214.000000 0 0 1
-26.177259 8.784506 3.882511 27.883513 -0.323769 1.431102 0.278701 -0.054776 -638724.000000 0 0 1
-27.065539 7.973306 3.167011 28.392727 -0.286488 1.459021 0.338141 -0.058835 -313626.000000 0 0 1
-26.611299 6.931106 2.393411 27.603077 -0.254796 1.483979 0.322647 -0.057177 -678369.000000 0 0 1
-25.686019 7.156106 1.181011 26.690377 -0.271709 1.526533 0.313944 -0.053826 -354808.000000 0 0 1
-24.499209 7.822806 1.526911 25.763132 -0.309076 1.511494 0.264947 -0.055748 -568172.000000 0 0 1
-23.622209 7.785506 0.433511 24.875908 -0.318373 1.553368 0.260860 -0.037124 -705709.000000 0 1 0
-22.255109 8.197206 1.012611 23.738354 -0.352909 1.528126 0.174642 -0.042197 -670046.000000 0 1 0
-22.327209 9.423606 1.659411 24.291197 -0.399385 1.502430 0.180329 -0.058364 -27358.100000 0 1 0
-21.444409 9.607806 2.724311 23.655749 -0.421217 1.455375 0.152659 -0.056934 -390228.000000 0 1 0
-21.390609 11.059406 3.267011 24.301069 -0.477172 1.435949 0.126780 -0.070158 -607436.000000 0 1 0
-20.990009 12.135006 2.449311 24.368791 -0.524185 1.470116 0.182257 -0.061131 107802.000000 0 1 0
-21.278709 13.355806 3.132811 25.317494 -0.560510 1.446737 0.183222 -0.067684 332830.000000 0 0 1
-20.081409 13.937606 3.971511 24.764748 -0.606725 1.409731 0.137441 -0.051103 78114.600000 0 1 0
-19.576109 13.166006 4.965611 24.108609 -0.592068 1.363343 0.123989 -0.055655 -45651.900000 0 1 0
-18.969109 13.983906 5.940211 24.303556 -0.635255 1.323878 0.113782 -0.043954 -201387.000000 0 1 0
-18.278109 13.303906 7.134211 23.706120 -0.629180 1.265114 0.071752 -0.035899 -130668.000000 0 1 0
-17.341409 12.335906 6.739911 22.323204 -0.618306 1.264086 0.060277 -0.028208 126214.000000 0 1 0
-16.688809 11.694006 7.795411 21.818216 -0.611202 1.205433 0.043531 -0.024939 -354816.000000 0 1 0
11.599191 -32.165523 -14.225989 37.034320 -1.224701 1.965062 0.058219 -0.029808 -414278.000000 0 0 1
12.872991 -32.222323 -13.647189 37.285893 -1.190716 1.945519 0.052139 -0.031838 -52710.700000 0 0 1
13.551391 -30.996123 -13.590689 36.456915 -1.158641 1.952808 0.050912 -0.040456 710656.000000 0 0 1
14.994891 -30.924623 -12.991589 36.741808 -1.119314 1.932204 0.079602 -0.036892 530648.000000 0 0 1
15.998691 -31.457423 -13.792089 37.891283 -1.100306 1.943346 0.078731 -0.033850 -511330.000000 0 0 1
17.240991 -30.790523 -13.722989 37.863287 -1.060350 1.941676 0.096684 -0.035915 72971.700000 0 0 1
18.356291 -31.807623 -14.065889 39.325915 -1.047383 1.936573 0.103535 -0.028209 -116076.000000 0 0 1
18.676891 -32.880823 -13.172189 40.043493 -1.054225 1.905985 0.098133 -0.038378 -398111.000000 0 0 1
19.394191 33.610506 -13.880189 41.212381 1.047440 1.914309 0.087151 -0.018942 -157915.000000 0 0 1
19.389891 32.221306 -13.260489 39.875067 1.029075 1.909803 0.083572 -0.029501 -386988.000000 0 0 1
20.132791 32.085206 -12.091389 39.761682 1.010416 1.879786 0.068248 -0.030485 -158980.000000 0 0 1
19.820691 30.836606 -11.478189 38.412301 0.999524 1.874247 0.059036 -0.025562 435347.000000 0 0 1
20.726891 30.448806 -10.244789 38.232048 0.973132 1.842075 0.054409 -0.023399 377348.000000 0 0 1
21.978691 29.882206 -10.547989 38.565129 0.936633 1.847838 0.051797 -0.029405 76573.200000 0 0 1
22.629391 29.539906 -9.324389 38.361955 0.917095 1.816319 0.036874 -0.023127 1009690.000000 0 0 1
24.004691 28.771606 -9.375189 38.625440 0.875477 1.815966 0.035415 -0.018360 880907.000000 0 0 1
25.118191 29.397006 -9.949589 39.926204 0.863726 1.822650 0.045605 -0.025566 -295786.000000 0 0 1
26.278791 28.631506 -9.826789 40.086204 0.828218 1.818462 0.047621 -0.014959 298731.000000 0 0 1
27.481391 29.010606 -10.769189 41.386200 0.812461 1.834038 0.034579 -0.016380 226422.000000 0 0 1
28.085691 30.237506 -10.354789 42.548025 0.822276 1.816632 0.047269 -0.024772 -168232.000000 0 0 1
29.062091 30.535306 -11.323189 43.648879 0.810113 1.833213 0.049852 -0.020823 -130800.000000 0 0 1
29.567091 31.974206 -11.037689 44.926532 0.824492 1.819021 0.040141 -0.023999 -211982.000000 0 0 1
28.795991 33.004506 -11.666389 45.327818 0.853392 1.831104 0.053567 -0.015847 130794.000000 0 0 1
29.390891 -33.196323 -11.430589 45.787321 -0.846125 1.823110 0.044578 -0.015096 375071.000000 0 0 1
28.473191 -32.028823 -11.944189 44.488558 -0.844099 1.842609 0.047668 -0.008698 423860.000000 0 0 1
27.240191 -32.041623 -11.247589 43.533917 -0.866215 1.832124 0.068288 -0.025259 351373.000000 0 0 1
26.301191 -30.991823 -11.631189 42.279195 -0.867087 1.849495 0.078341 -0.028371 549070.000000 0 0 1
26.582291 -29.542823 -11.247289 41.302519 -0.838098 1.846594 0.058138 -0.016731 -704306.000000 0 0 1
27.638691 -28.971823 -11.943889 41.784211 -0.808943 1.860686 0.048203 -0.011156 -521691.000000 0 0 1
28.098391 -27.776623 -11.370389 41.113819 -0.779640 1.851008 0.042676 -0.006307 -194447.000000 0 0 1
28.978391 -26.903923 -12.260589 41.399158 -0.748293 1.871461 0.079670 -0.012326 601414.000000 0 0 1
30.266691 -27.437623 -12.601389 42.751500 -0.736410 1.870000 0.054603 -0.001461 469572.000000 0 0 1
30.195591 -28.369723 -13.689189 43.634949 -0.754232 1.889905 0.078652 -0.010052 -308278.000000 0 0 1
31.494291 -29.150923 -13.947889 45.124387 -0.746777 1.885041 0.062510 -0.003131 198990.000000 0 0 1
32.056191 -29.931923 -12.879789 45.710047 -0.751143 1.856436 0.068406 -0.006542 124171.000000 0 0 1
33.205391 -30.635923 -13.306889 47.098101 -0.745172 1.857233 0.062579 -0.011046 -103434.000000 0 0 1
33.811591 -31.591723 -12.279489 47.875323 -0.751470 1.830184 0.066571 -0.011612 170656.000000 0 0 1
34.734191 -32.454623 -12.975089 49.275953 -0.751483 1.837253 0.066317 -0.021505 77959.200000 0 0 1
35.388691 -33.394723 -12.165989 50.155541 -0.756417 1.815805 0.075383 -0.018111 -267864.000000 0 0 1
34.591491 32.811306 -11.722289 49.097506 0.758993 1.811880 0.077500 -0.027467 185540.000000 0 0 1
33.760991 33.149606 -10.598189 48.487343 0.776261 1.791152 0.062332 -0.025984 172819.000000 0 0 1
33.066191 32.040106 -10.049389 47.126761 0.769639 1.785688 0.057747 -0.025868 -305103.000000 0 0 1
32.523291 32.304306 -8.640189 46.647460 0.782020 1.757095 0.036709 -0.022741 -255835.000000 0 0 1
31.589891 33.332406 -8.723389 46.744711 0.812232 1.758515 0.029284 -0.019049 -612854.000000 0 0 1
30.813391 33.548006 -7.546389 46.172305 0.827861 1.734973 0.020673 -0.013157 1516390.000000 0 0 1
29.705991 -32.751323 -7.671289 44.876985 -0.834118 1.742580 0.017358 -0.015994 1030140.000000 0 0 1
30.288191 -31.460123 -7.788689 44.359639 -0.804375 1.747292 0.001685 -0.014729 305020.000000 0 0 1
29.358691 -30.477723 -8.287389 43.121980 -0.804098 1.764184 0.000895 -0.002082 810305.000000 0 0 1
28.321991 -29.830323 -7.286789 41.774163 -0.811330 1.746126 0.006469 -0.003969 901901.000000 0 0 1
27.457191 -28.865623 -7.828289 40.600538 -0.810399 1.764824 0.007511 -0.012548 -9726.320000 0 0 1
26.361791 -28.471323 -7.030489 39.433337 -0.823851 1.750043 0.027618 -0.025345 366627.000000 0 0 1
25.401291 -27.506923 -7.785089 38.242176 -0.825175 1.775803 0.083865 -0.034336 -207113.000000 0 0 1
24.656291 -28.097323 -8.826989 38.409738 -0.850534 1.802680 0.108030 -0.040363 122403.000000 0 0 1
23.763191 -27.116323 -9.344189 37.246451 -0.851206 1.824380 0.126202 -0.045090 -220410.000000 0 0 1
22.557891 -27.806723 -9.978689 37.170506 -0.889240 1.842587 0.115490 -0.039449 -565643.000000 0 0 1
22.924491 -28.442323 -11.146189 38.193397 -0.892408 1.866942 0.125911 -0.034339 384611.000000 0 0 1
21.854191 -29.252123 -11.652089 38.328365 -0.929155 1.879692 0.118359 -0.037693 548757.000000 0 0 1
21.506691 -30.585723 -10.908089 38.948821 -0.957952 1.854655 0.109708 -0.046896 -774250.000000 0 0 1
22.463091 -31.543723 -10.922889 40.235636 -0.951979 1.845720 0.090072 -0.039686 -1105240.000000 0 0 1
21.980891 -32.777023 -10.481289 40.833200 -0.980063 1.830388 0.073755 -0.039237 161477.000000 0 0 1
23.066991 33.599406 -10.622489 42.117020 0.969168 1.825764 0.067708 -0.034743 479208.000000 0 0 1
24.097391 33.663906 -9.635989 42.506412 0.949530 1.799479 0.064149 -0.028277 89367.100000 0 0 1
25.153391 32.775406 -10.000889 42.508094 0.916222 1.808293 0.055222 -0.026408 1274170.000000 0 0 1
26.488191 33.092506 -9.180489 43.370722 0.895794 1.784085 0.052919 -0.022667 699602.000000 0 0 1
26.451291 32.692506 -7.789889 42.768599 0.890535 1.753959 0.039137 -0.023848 29939.300000 0 0 1
26.495591 31.284906 -7.626989 41.700511 0.868097 1.754731 0.038241 -0.021241 -490912.000000 0 0 1
26.465891 30.995606 -6.106289 41.212349 0.864066 1.719510 0.039582 -0.014775 -359515.000000 0 0 1
27.608891 31.498406 -5.420689 42.234870 0.851108 1.699498 0.045627 -0.012750 125061.000000 0 0 1
28.618691 30.538106 -5.187589 42.172461 0.817833 1.694118 0.052933 -0.011479 -80303.400000 0 0 1
28.280091 29.469606 -4.119089 41.051043 0.805993 1.671306 0.059860 -0.009254 -817385.000000 0 0 1
28.240591 30.035906 -2.811189 41.322989 0.816195 1.638879 0.062009 -0.004521 -53138.100000 0 0 1
28.084091 29.066306 -1.804089 40.457645 0.802583 1.615403 0.054649 0.001514 -427297.000000 0 0 1
26.748491 28.291306 -1.749489 38.973587 0.813422 1.615701 0.056774 0.006912 -549146.000000 0 0 1
25.658091 29.074406 -1.384389 38.801743 0.847736 1.606482 0.055859 0.001777 -926988.000000 0 0 1
24.461991 28.416506 -1.660389 37.531902 0.860044 1.615050 0.066141 0.000830 121928.000000 0 0 1
23.143491 28.986906 -1.067189 37.107961 0.897024 1.599559 0.086791 -0.004612 435391.000000 0 0 1
23.000091 28.736606 0.321511 36.808967 0.895826 1.562062 0.092814 -0.014586 455704.000000 0 0 1
21.806491 29.323506 0.838511 36.552621 0.931370 1.547854 0.079170 -0.018577 457974.000000 0 0 1
21.007491 28.515306 1.922111 35.470154 0.935856 1.516580 0.087871 -0.032405 40994.600000 0 0 1
20.196091 27.493106 1.354811 34.140716 0.937232 1.531103 0.114393 -0.024850 98212.200000 0 0 1
19.721591 26.787406 2.496411 33.357733 0.936169 1.495889 0.140719 -0.027668 -150950.000000 0 0 1
19.114991 25.379606 2.277911 31.854295 0.925274 1.499225 0.158725 -0.020780 33672.200000 0 0 1
19.969691 24.420906 1.687411 31.591400 0.885338 1.517357 0.167986 -0.021627 442782.000000 0 0 1
20.888891 23.794606 2.617711 31.770764 0.850336 1.488309 0.143346 -0.009400 216296.000000 0 0 1
22.045291 23.137906 1.862311 32.012899 0.809575 1.512590 0.141298 -0.020291 -181767.000000 0 0 1
21.604191 21.898906 1.344911 30.791426 0.792173 1.527104 0.145779 -0.019870 1074890.000000 0 0 1
22.774691 21.154306 0.954411 31.098265 0.748528 1.540101 0.102129 -0.018441 697652.000000 0 0 1
22.681291 20.168606 -0.237789 30.352432 0.726826 1.578631 0.112660 -0.019000 -353212.000000 0 0 1
22.565191 20.804306 -1.466889 30.727166 0.744819 1.618554 0.091279 -0.009729 385619.000000 0 0 1
22.947091 19.841106 -2.467489 30.435620 0.712935 1.651958 0.100781 -0.007558 178653.000000 0 0 1
22.794991 20.450306 -3.857589 30.865962 0.731233 1.696103 0.093843 -0.014639 -625968.000000 0 0 1
23.701591 21.459406 -4.041189 32.227360 0.735790 1.696524 0.098565 -0.016637 -355423.000000 0 0 1
23.572791 22.136006 -5.271189 32.763770 0.753975 1.732383 0.079028 -0.017556 310889.000000 0 0 1
24.673291 23.265906 -5.472489 34.351445 0.756049 1.730787 0.067157 -0.009357 406098.000000 0 0 1
24.551591 24.436406 -4.690489 34.955961 0.783047 1.705385 0.049747 -0.006609 -14159.800000 0 0 1
24.759691 24.394406 -3.326189 34.916942 0.777967 1.666201 0.062503 -0.011071 5149.900000 0 0 1
23.508891 24.311706 -2.384789 33.903012 0.802185 1.641196 0.072652 -0.010555 344893.000000 0 0 1
22.619191 25.469206 -2.411789 34.148572 0.844595 1.641482 0.102246 -0.019576 1864290.000000 0 0 1
21.410191 25.407706 -1.633589 33.265844 0.870576 1.619923 0.130146 -0.014553 1209940.000000 0 0 1
20.327091 24.299406 -1.893689 31.737010 0.874177 1.630500 0.160739 -0.034260 -320345.000000 0 0 1
19.737891 24.441006 -3.187689 31.577024 0.891455 1.671918 0.139757 -0.030343 -363663.000000 0 0 1
18.994291 23.334806 -3.458789 30.286292 0.887583 1.685249 0.162582 -0.034018 -885917.000000 0 0 1
18.095391 23.622006 -4.641889 30.116266 0.917109 1.725546 0.150289 -0.036507 -383319.000000 0 0 1
17.421091 22.492806 -5.201189 28.921844 0.911787 1.751616 0.165446 -0.045895 367406.000000 0 0 1
16.865191 22.854106 -6.478389 29.132702 0.935052 1.795046 0.156040 -0.050651 418589.000000 0 0 1
16.139191 21.692006 -7.266789 27.996836 0.931136 1.833360 0.167007 -0.047852 33267.400000 0 0 1
17.091891 20.829406 -7.821389 28.056568 0.883641 1.853312 0.175566 -0.049632 262750.000000 0 0 1
16.432391 19.944406 -8.664289 27.255691 0.881645 1.894299 0.220128 -0.059678 -433974.000000 0 0 1
17.158091 18.630906 -8.920389 26.853009 0.826528 1.909424 0.210671 -0.057508 -45053.200000 0 0 1
18.314691 18.737106 -9.737489 27.952204 0.796798 1.926620 0.184504 -0.053869 467948.000000 0 0 1
18.799591 17.440806 -10.103589 27.562453 0.747922 1.946117 0.186459 -0.054267 -1187380.000000 0 0 1
20.287491 17.325206 -10.233889 28.574071 0.706803 1.937085 0.155458 -0.053324 -1320950.000000 0 0 1
20.817691 17.954906 -11.399489 29.760767 0.711697 1.963879 0.168661 -0.054454 290079.000000 0 0 1
22.224191 17.771106 -11.325389 30.626644 0.674515 1.949578 0.169488 -0.040903 224867.000000 0 0 1
22.930091 18.083406 -12.685689 31.839054 0.667771 1.980603 0.166339 -0.046027 29516.800000 0 0 1
22.707891 17.176506 -13.792089 31.637041 0.647592 2.021887 0.154102 -0.044552 47420.400000 0 0 1
23.434791 17.567206 -14.943889 32.880328 0.643258 2.042600 0.159799 -0.044707 66032.500000 0 0 1
23.176991 16.734306 -16.203289 32.859648 0.625354 2.086453 0.142386 -0.039687 414737.000000 0 0 1
24.061091 15.581906 -16.211689 32.932518 0.574685 2.085492 0.165296 -0.040292 520011.000000 0 0 1
24.092691 14.914506 -17.409589 33.256488 0.554307 2.121744 0.171379 -0.046276 -236186.000000 0 0 1
24.864891 15.524806 -18.606389 34.720024 0.558144 2.136367 0.175256 -0.044833 -404750.000000 0 0 1
26.261791 15.567106 -18.479089 35.686036 0.535084 2.115102 0.183919 -0.038808 -289662.000000 0 0 1
26.833891 16.123106 -19.633989 36.952750 0.541043 2.130962 0.177913 -0.042092 1013950.000000 0 0 1
28.400391 16.279106 -19.475989 38.090755 0.520481 2.107499 0.158292 -0.043032 1137720.000000 0 0 1
28.791891 17.279906 -18.581689 38.377693 0.540541 2.076221 0.150668 -0.040816 617190.000000 0 0 1
30.219491 17.344206 -18.447589 39.425279 0.521038 2.057724 0.113944 -0.041611 947067.000000 0 0 1
30.650991 18.539806 -17.477089 39.857951 0.543991 2.024708 0.114008 -0.036536 527993.000000 0 0 1
30.009991 18.495306 -16.173789 38.784885 0.552322 2.000952 0.112049 -0.041996 795096.000000 0 0 1
28.781891 19.234806 -16.077389 38.168802 0.589129 2.005584 0.127049 -0.037209 714824.000000 0 0 1
27.821491 18.793506 -14.936189 36.746713 0.594095 1.989376 0.127998 -0.031646 -55209.600000 0 0 1
28.199891 19.143306 -13.619489 36.704093 0.596385 1.950949 0.100776 -0.036047 11266.100000 0 0 1
27.224691 18.822006 -12.662589 35.437168 0.604902 1.936199 0.108796 -0.035300 -95180.800000 0 0 1
27.716491 19.239806 -11.265789 35.570943 0.606799 1.893059 0.086705 -0.026931 -48409.500000 0 0 1
27.602991 20.627406 -11.008989 36.174754 0.641764 1.880029 0.091519 -0.025723 -64499.000000 0 0 1
28.066591 21.082906 -9.753889 36.432963 0.644252 1.841824 0.075322 -0.016836 -43646.000000 0 0 1
27.113891 20.880906 -8.555389 35.275629 0.656253 1.815769 0.082942 -0.018362 -564872.000000 0 0 1
26.986891 19.541906 -8.159089 34.303777 0.626735 1.810946 0.091232 -0.026911 67603.100000 0 0 1
26.246891 19.435606 -6.951689 33.391137 0.637388 1.780520 0.099500 -0.031576 -353733.000000 0 0 1
24.755091 19.170106 -7.197889 32.126579 0.658929 1.796762 0.138655 -0.033398 -666550.000000 0 0 1
24.080091 20.274406 -7.766789 32.422605 0.699806 1.812697 0.112316 -0.031771 -924868.000000 0 0 1
22.837591 19.876006 -8.207289 31.368308 0.716173 1.835520 0.088460 -0.037542 -739067.000000 0 0 1
21.827591 21.060906 -8.383789 31.468927 0.767524 1.840468 0.125978 -0.038761 -443729.000000 0 0 1
22.036691 21.882706 -9.497289 32.475638 0.781892 1.867577 0.136305 -0.037931 81467.100000 0 0 1
21.244991 21.525606 -10.624989 32.056072 0.791959 1.908636 0.156923 -0.036260 312023.000000 0 0 1
19.740591 21.888806 -10.510789 31.293568 0.836956 1.913332 0.144990 -0.035624 -469871.000000 0 0 1
19.494391 23.255006 -10.471289 32.101004 0.873141 1.903075 0.128246 -0.038772 -406331.000000 0 0 1
18.125391 23.442906 -10.293089 31.369528 0.912630 1.905113 0.124017 -0.034408 -490155.000000 0 0 1
17.777491 24.851106 -9.736489 32.068923 0.949836 1.879277 0.118393 -0.040218 540.128000 0 0 1
18.165191 25.873506 -10.617689 33.348880 0.958678 1.894819 0.133098 -0.032423 134058.000000 0 0 1
18.376991 27.128906 -9.946089 34.243481 0.975403 1.865496 0.147520 -0.040645 153240.000000 0 0 1
21.150191 28.547206 33.086167 48.548614 0.933155 0.820978 0.085037 -0.013965 201680.000000 0 0 1
19.820191 28.968006 32.878935 48.093759 0.970747 0.818054 0.111144 -0.028710 93460.100000 0 0 1
18.881691 27.986106 33.342961 47.449904 0.977266 0.791614 0.117162 -0.027501 -29971.100000 0 0 1
17.443791 28.492706 33.289491 47.162594 1.021440 0.787181 0.143691 -0.038756 -469103.000000 0 0 1
16.985991 28.612806 31.971308 46.145217 1.035059 0.805375 0.151216 -0.037919 457286.000000 0 0 1
15.668491 29.200506 31.890847 45.991274 1.078313 0.804584 0.162805 -0.038156 784875.000000 0 0 1
15.118191 28.925506 30.474321 44.653430 1.089186 0.819669 0.168801 -0.039847 367593.000000 0 0 1
14.477491 27.623906 30.216401 43.424749 1.088061 0.801216 0.166500 -0.043682 179005.000000 0 0 1
13.092791 27.633806 30.453271 43.156113 1.128331 0.787451 0.163617 -0.028199 -103103.000000 0 0 1
12.393191 26.218506 30.541151 42.116067 1.129236 0.759521 0.150167 -0.028997 89481.800000 0 0 1
12.359291 25.377706 29.342801 40.715844 1.117592 0.766024 0.148475 -0.027394 1852940.000000 0 0 1
13.666291 24.756306 29.030231 40.526491 1.066394 0.772272 0.126872 -0.025860 1805300.000000 0 0 1
13.685891 24.050206 27.666441 39.129886 1.053441 0.785491 0.153938 -0.036328 -269620.000000 0 0 1
13.444091 24.942006 26.553181 38.831928 1.076427 0.817842 0.136509 -0.035135 275780.000000 0 0 1
13.466391 24.463706 25.242081 37.642784 1.067597 0.835821 0.134989 -0.044146 -15607.200000 0 0 1
12.308591 23.489506 24.921541 36.391503 1.088131 0.816443 0.133520 -0.036747 -352778.000000 0 0 1
12.257891 23.047406 23.619461 35.203945 1.081990 0.835331 0.151137 -0.039656 -175407.000000 0 0 1
11.152191 22.207406 23.411691 34.141580 1.105404 0.815199 0.153848 -0.037419 -268554.000000 0 0 1
11.111791 21.791306 21.920111 32.845459 1.099245 0.840123 0.169145 -0.050215 39325.400000 0 0 1
10.849791 22.943306 21.088411 32.997489 1.129066 0.877480 0.169970 -0.049423 27031.400000 0 0 1
10.786391 22.720906 19.737511 31.971161 1.127565 0.905422 0.172192 -0.040551 -280193.000000 0 0 1
10.473791 23.915506 18.886011 32.223177 1.158008 0.944559 0.136132 -0.039306 -29492.400000 0 0 1
9.164891 24.434906 18.813911 32.171775 1.211961 0.946168 0.135165 -0.045141 -214711.000000 0 0 1
8.897691 25.446906 19.737311 33.410707 1.234427 0.938811 0.130599 -0.051696 -1004670.000000 0 0 1
7.482191 25.955406 19.631811 33.392728 1.290135 0.942328 0.130696 -0.048625 -758461.000000 0 0 1
7.291491 26.876906 18.591111 33.483777 1.305881 0.982160 0.125867 -0.043255 -676912.000000 0 0 1
5.982991 26.875006 18.117611 32.959216 1.351746 0.988794 0.125258 -0.050665 -720635.000000 0 0 1
5.678491 27.958806 17.033411 33.227656 1.370420 1.032554 0.141921 -0.053682 736052.000000 0 0 1
6.477491 27.823406 15.808911 32.649984 1.342063 1.065355 0.132232 -0.044014 253870.000000 0 0 1
7.565891 28.701506 15.640811 33.550769 1.313054 1.085825 0.142992 -0.049933 87468.300000 0 0 1
8.510591 28.251006 14.472611 32.863444 1.278194 1.114767 0.118990 -0.043585 97876.200000 0 0 1
7.901591 28.378406 13.212811 32.285406 1.299238 1.149164 0.135871 -0.046694 -232606.000000 0 0 1
7.537591 27.044406 12.726511 30.824977 1.298983 1.145200 0.120384 -0.047885 -15718.700000 0 0 1
6.694691 27.192606 11.454411 30.256573 1.329402 1.182539 0.109425 -0.050419 -471478.000000 0 0 1
7.310091 27.603006 10.243611 30.336363 1.311910 1.226358 0.093185 -0.043305 -156682.000000 0 0 1
7.549891 28.972106 10.164311 31.617985 1.315874 1.243512 0.110956 -0.046765 -32779.600000 0 0 1
7.582391 29.443406 8.675911 31.617688 1.318749 1.292830 0.104207 -0.032234 -529635.000000 0 0 1
6.336091 29.349106 8.070111 31.090879 1.358172 1.308224 0.088047 -0.027828 -797424.000000 0 0 1
6.164391 28.185106 7.261211 29.751052 1.355476 1.324240 0.075476 -0.020087 -632792.000000 0 0 1
4.702091 27.872306 6.936511 29.104815 1.403669 1.330152 0.087111 -0.025348 -605938.000000 0 0 1
4.101291 28.866506 6.197411 29.807778 1.429663 1.361356 0.088262 -0.016671 868514.000000 0 0 1
2.678891 28.838806 6.503011 29.684041 1.478170 1.349931 0.085149 -0.005825 1729330.000000 0 0 1
1.756891 29.799106 5.652611 30.381333 1.511907 1.383650 0.096797 -0.010685 230647.000000 0 0 1
1.497091 29.267906 4.388411 29.632916 1.519690 1.422157 0.106816 -0.013164 -112736.000000 0 0 1
0.656891 30.016006 3.548511 30.232169 1.548915 1.453150 0.112453 -0.018818 43609.100000 0 0 1
-0.114709 29.118506 2.572811 29.232172 -1.566857 1.482669 0.093987 -0.026088 498105.000000 0 0 1
0.839091 28.520506 1.692711 28.583012 1.541384 1.511541 0.096358 -0.024075 336496.000000 0 0 1
0.211191 27.529806 0.942711 27.546751 1.563125 1.536567 0.101999 -0.033607 -17640.900000 0 0 1
-0.033509 27.995206 -0.540089 28.000435 -1.569599 1.590086 0.089721 -0.034306 -728141.000000 0 0 1
-1.088009 28.906706 -0.650289 28.934482 -1.533175 1.593273 0.101117 -0.035512 -439901.000000 0 0 1
-1.130409 29.534406 -1.892689 29.616570 -1.532541 1.634746 0.095770 -0.033870 259932.000000 0 0 1
-2.413109 30.408606 -2.154489 30.580193 -1.491606 1.641308 0.128908 -0.032914 394969.000000 0 0 1
-3.607909 29.849406 -2.652389 30.183426 -1.450509 1.658786 0.116874 -0.037243 48369.500000 0 0 1
-3.499909 29.184706 -3.896389 29.650940 -1.451444 1.702586 0.100528 -0.037723 -377118.000000 0 0 1
-4.869309 28.788006 -4.532489 29.546622 -1.403239 1.724806 0.119672 -0.027450 657750.000000 0 0 1
-5.623709 29.883006 -5.090589 30.830735 -1.384781 1.736670 0.118509 -0.033021 164420.000000 0 0 1
-6.627909 29.407906 -5.947189 30.726587 -1.349122 1.765578 0.113071 -0.033513 -173812.000000 0 0 1
-7.268209 30.550406 -6.791589 32.129112 -1.337230 1.783787 0.116419 -0.029109 364975.000000 0 0 1
-8.283009 31.229906 -6.034089 32.868305 -1.311539 1.755427 0.100900 -0.020041 199949.000000 0 0 1
-8.769809 32.317506 -6.797689 34.169274 -1.305814 1.771074 0.092247 -0.036719 -167308.000000 0 0 1
-9.812809 33.229506 -6.127089 35.185686 -1.283653 1.745824 0.103290 -0.030475 498396.000000 0 0 1
-11.127709 32.691506 -6.193889 35.084537 -1.242712 1.748268 0.115273 -0.032904 -412134.000000 0 0 1
-12.046209 33.576406 -5.628289 36.113208 -1.226330 1.727286 0.125061 -0.027542 533880.000000 0 0 1
-13.531909 33.089106 -5.727389 36.205034 -1.182595 1.729657 0.147190 -0.034368 647098.000000 0 0 1
-14.082709 33.393706 -6.988389 36.909346 -1.171709 1.761286 0.131064 -0.031672 -689099.000000 0 0 1
-15.468009 33.262706 -6.921489 37.330603 -1.135518 1.757286 0.147606 -0.040763 -706565.000000 0 0 1
-16.203309 33.158206 -8.306989 37.828824 -1.116256 1.792195 0.180588 -0.043378 70297.900000 0 0 1
-17.550609 32.772006 -8.177589 38.064435 -1.079125 1.787320 0.227455 -0.037330 -59555.000000 0 0 1
-18.403409 -33.583823 -8.449689 39.216781 1.069502 1.787960 0.238083 -0.045466 -31809.900000 0 0 1
-19.904209 33.456206 -8.625889 39.873565 -1.034111 1.788851 0.235176 -0.048973 865140.000000 0 0 1
-20.586309 32.953406 -7.429889 39.559150 -1.012406 1.759736 0.217322 -0.044337 340719.000000 0 0 1
-20.749909 -33.626223 -6.339689 40.018412 1.017916 1.729886 0.185909 -0.051445 -747376.000000 0 0 1
-21.492809 33.348706 -5.122189 40.003923 -0.998306 1.699191 0.188382 -0.046246 -642649.000000 0 0 1
-21.214709 -33.401623 -3.925989 39.763623 1.004938 1.669691 0.173201 -0.051860 782854.000000 0 0 1
-22.282609 -33.440123 -2.939389 40.291395 0.983017 1.643814 0.179985 -0.042635 1535050.000000 0 0 1
-23.506909 -32.463923 -3.204289 40.208812 0.944083 1.650572 0.218164 -0.061884 933922.000000 0 0 1
-24.144709 -32.740623 -4.455989 40.923969 0.935373 1.679897 0.227097 -0.069208 -377407.000000 0 0 1
-25.338109 -32.054523 -4.699989 41.129091 0.901894 1.685321 0.227158 -0.082149 105371.000000 0 0 1
-26.036309 -32.347323 -6.081789 41.966974 0.893076 1.716227 0.266923 -0.073808 456285.000000 0 0 1
-25.195389 -32.000023 -7.206089 41.361055 0.903813 1.745914 0.273246 -0.060629 276702.000000 0 0 1
-25.568289 -32.600823 -8.443989 42.282999 0.905712 1.771850 0.219411 -0.055257 201546.000000 0 0 1
-26.894999 -32.249523 -9.162489 42.980506 0.875685 1.785623 0.184055 -0.035027 -1545550.000000 0 0 1
-28.074189 -32.601123 -8.592889 43.872897 0.859869 1.767929 0.212908 -0.032796 -880206.000000 0 0 1
-29.199909 -31.935823 -9.164889 44.232643 0.830120 1.779506 0.105377 -0.029652 154042.000000 0 0 1
-29.359359 -30.395123 -8.847689 43.175422 0.802730 1.777183 0.083123 -0.012770 -897150.000000 0 0 1
-28.414789 -29.528123 -9.439689 42.052563 0.804610 1.797199 0.107119 -0.012840 -56768.800000 0 0 1
-28.741579 -29.326423 -10.813089 42.462223 0.795470 1.828284 0.094661 0.004466 -247780.000000 0 0 1
-27.711109 -28.442523 -11.497489 41.340960 0.798423 1.852626 0.147577 0.005048 -433158.000000 0 0 1
-26.440029 -28.988223 -11.713689 40.946340 0.831339 1.860924 0.139959 -0.005588 -619805.000000 0 0 1
-25.684699 -28.025623 -12.408589 39.988904 0.828955 1.886306 0.134420 -0.017208 -189820.000000 0 0 1
-24.333409 -28.589123 -12.926589 39.705786 0.865640 1.902400 0.154156 -0.023533 55070.700000 0 0 1
-24.392309 -29.649623 -13.852089 40.816238 0.882375 1.917051 0.171313 -0.033140 -234246.000000 0 0 1
-24.618809 -30.877123 -13.191389 41.635265 0.897694 1.893184 0.156845 -0.037788 -149551.000000 0 0 1
-24.755409 -32.120423 -14.125589 42.942801 0.914174 1.905977 0.172183 -0.033745 124145.000000 0 0 1
-24.974439 -33.277023 -13.315589 43.685098 0.926975 1.880534 0.147907 -0.043285 -56419.100000 0 0 1
-24.837509 33.010106 -14.095189 43.649093 -0.925747 1.899610 0.153145 -0.039690 -19260.600000 0 0 1
-24.765109 31.736006 -13.178189 42.357400 -0.908154 1.887166 0.109327 -0.046946 -6110.740000 0 0 1
-23.823209 31.644006 -12.116689 41.421040 -0.925473 1.867663 0.104815 -0.048698 201388.000000 0 0 1
-24.063009 32.605606 -11.066889 42.007499 -0.935018 1.837393 0.183339 -0.048025 80770.500000 0 0 1
-23.319109 32.212306 -9.789989 40.954333 -0.944197 1.812180 0.180585 -0.047001 -502494.000000 0 0 1
-24.109009 31.308706 -9.111789 40.552485 -0.914591 1.797423 0.165078 -0.046116 -274682.000000 0 0 1
-23.465709 30.434106 -8.220889 39.299584 -0.913969 1.781538 0.155421 -0.043927 -121902.000000 0 0 1
-24.488009 29.530806 -7.489589 39.087402 -0.878481 1.763600 0.144013 -0.037038 100254.000000 0 0 1
-25.276789 28.664106 -8.312989 39.110776 -0.848113 1.784980 0.132376 -0.008882 -242506.000000 0 0 1
-25.783879 27.608506 -7.631589 38.539320 -0.819559 1.770135 0.132467 0.000091 -444245.000000 0 0 1
-24.757809 26.506006 -7.234389 36.984508 -0.819487 1.767672 0.129811 -0.007221 -10583.100000 0 0 1
-23.929809 26.866906 -6.164489 36.502977 -0.843154 1.740486 0.147598 -0.007102 -11234.900000 0 0 1
-23.048009 25.834606 -5.720589 35.090778 -0.842342 1.734550 0.127042 -0.024973 235281.000000 0 0 1
-21.705809 26.370706 -5.181589 34.545696 -0.882126 1.721357 0.109253 -0.035965 -351586.000000 0 0 1
-20.749309 26.654806 -6.149289 34.334039 -0.909337 1.750870 0.118695 -0.032645 -1213880.000000 0 0 1
-19.689909 27.383306 -5.633689 34.194684 -0.947401 1.736304 0.132615 -0.036913 -107618.000000 0 0 1
-18.481009 27.268106 -6.630989 33.601597 -0.975159 1.769442 0.144458 -0.039898 38479.600000 0 0 1
-18.682709 27.891106 -7.880589 34.482765 -0.980597 1.801371 0.141638 -0.044834 71194.200000 0 0 1
-18.735909 29.326706 -7.862589 35.677868 -1.002286 1.792998 0.156856 -0.046686 -248260.000000 0 0 1
-18.745809 29.986206 -9.246689 36.552416 -1.012091 1.826546 0.160902 -0.040952 -118380.000000 0 0 1
-17.484009 30.006506 -9.884189 36.107868 -1.043214 1.848076 0.148569 -0.046986 222801.000000 0 0 1
-17.524809 30.509606 -11.201489 36.924630 -1.049411 1.879014 0.148150 -0.041909 -601365.000000 0 0 1
-16.155509 31.094106 -11.565589 36.899956 -1.091617 1.889600 0.140941 -0.043864 -139956.000000 0 0 1
-15.841309 31.465306 -12.893389 37.513358 -1.104390 1.921652 0.137142 -0.036790 -137793.000000 0 0 1
-15.786709 30.426406 -13.811789 36.956080 -1.092184 1.953829 0.134758 -0.046409 -160047.000000 0 0 1
-15.658309 30.791606 -15.300589 37.781128 -1.100352 1.987753 0.165364 -0.041144 56233.700000 0 0 1
-14.386909 31.257706 -15.675989 37.812220 -1.139437 1.998272 0.169957 -0.061096 -286312.000000 0 0 1
-14.163709 31.172106 -17.087889 38.266262 -1.144313 2.033705 0.148932 -0.064866 108060.000000 0 0 1
-12.709509 31.605206 -17.387589 38.245900 -1.188452 2.042749 0.176344 -0.069603 -479493.000000 0 0 1
-11.803109 30.545006 -17.251989 37.012726 -1.202054 2.055685 0.192947 -0.074190 31366.800000 0 0 1
-10.464709 30.947206 -17.545989 37.082360 -1.244720 2.063674 0.194826 -0.069073 624120.000000 0 0 1
-10.114309 30.885406 -19.068889 37.680632 -1.254324 2.101414 0.188385 -0.075441 -615743.000000 0 0 1
-10.106209 29.580206 -19.579289 36.884585 -1.241576 2.130371 0.181618 -0.068577 -15590.700000 0 0 1
-10.403109 29.483206 -20.935189 37.626669 -1.231586 2.160834 0.180084 -0.075678 1058090.000000 0 0 1
-11.918109 29.356706 -21.371089 38.217548 -1.185149 2.164212 0.158960 -0.061764 937393.000000 0 0 1
-12.738009 30.519606 -21.332789 39.354683 -1.175405 2.143689 0.155173 -0.052801 -1459460.000000 0 0 1
-13.996609 30.071506 -21.088789 39.305694 -1.135173 2.137119 0.145419 -0.053251 -1441000.000000 0 0 1
-15.092309 31.156106 -21.169489 40.578664 -1.119699 2.119627 0.179498 -0.060674 -61467.000000 0 0 1
-15.232709 31.577506 -22.512489 41.665171 -1.121335 2.141613 0.121440 -0.049254 -378016.000000 0 0 1
-15.750509 32.852406 -22.568789 42.856847 -1.123738 2.125403 0.105736 -0.053561 -268873.000000 0 0 1
-16.418209 32.957306 -23.940489 43.919114 -1.108617 2.147310 0.089622 -0.037425 -104414.000000 0 0 1
-15.495409 32.886606 -25.023989 44.134301 -1.130472 2.173651 0.108310 -0.043543 189167.000000 0 0 1
-16.056809 32.725606 -26.351489 44.979855 -1.114657 2.196726 0.106733 -0.029620 207050.000000 0 0 1
-16.816209 -33.540923 -26.988189 46.218403 1.106058 2.194354 0.089334 -0.020678 1011840.000000 0 0 1
-18.003209 -33.074623 -26.299289 45.931458 1.072324 2.180442 0.091685 -0.023642 613246.000000 0 0 1
-18.568309 -32.082923 -27.143789 45.944329 1.046141 2.202843 0.084890 -0.010839 -328528.000000 0 0 1
-20.014809 -31.760923 -26.766089 46.106099 1.008487 2.190179 0.093827 -0.027179 -57216.700000 0 0 1
-21.000009 -32.716623 -27.144089 47.414970 1.000154 2.180323 0.102648 -0.023406 -738775.000000 0 0 1
-22.262709 -32.105423 -27.078889 47.535804 0.964497 2.176879 0.089126 -0.022957 -46548.200000 0 0 1
-23.334709 -33.223423 -27.188489 48.862240 0.958490 2.160881 0.074409 -0.017094 -63321.500000 0 0 1
-23.518209 33.476306 -26.002989 48.476021 -0.958372 2.136973 0.101548 -0.020339 214169.000000 0 0 1
-24.566709 32.496906 -26.185489 48.427801 -0.923485 2.142080 0.075262 -0.012820 739758.000000 0 0 1
-24.165509 31.178806 -26.942689 47.770265 -0.911447 2.170025 0.079446 -0.013335 22787.700000 0 0 1
-23.361109 30.284806 -26.229789 46.377933 -0.913752 2.171916 0.079957 -0.032550 103772.000000 0 0 1
-24.209409 29.364306 -25.540489 45.833116 -0.881323 2.161866 0.062980 -0.026357 40951.300000 0 0 1
33.394113 9.547306 -26.168149 43.486663 0.278469 2.216488 0.097791 -0.016009 109762.000000 0 0 1
32.813063 8.252506 -26.119179 42.743566 0.246391 2.228204 0.081990 -0.008363 -234291.000000 0 0 1
31.431523 8.227706 -26.358079 41.837592 0.256022 2.252362 0.097276 -0.016635 -180526.000000 0 0 1
30.878063 6.871506 -25.883899 40.873568 0.218969 2.256564 0.082480 -0.013584 -199973.000000 0 0 1
30.933663 6.687706 -24.481889 40.012245 0.212918 2.229206 0.075142 0.009547 84129.000000 0 0 1
30.162163 5.588106 -24.111289 39.017140 0.183192 2.236950 0.084088 0.008214 -79743.700000 0 0 1
30.324963 5.442606 -22.569189 38.191538 0.177585 2.203029 0.091994 0.006032 400523.000000 0 0 1
31.523533 4.881706 -22.034889 38.769840 0.153639 2.175297 0.100989 -0.009564 484906.000000 0 0 1
31.400933 4.759906 -20.638389 37.876356 0.150440 2.147052 0.096354 -0.009156 452085.000000 0 0 1
32.705633 4.506806 -19.791889 38.492708 0.136937 2.110839 0.094400 -0.012682 507866.000000 0 0 1
33.253443 3.217206 -19.819389 38.845206 0.096448 2.106231 0.109161 -0.010965 -62746.400000 0 0 1
34.354663 3.130006 -18.963589 39.365689 0.090858 2.073423 0.114337 -0.014631 -439239.000000 0 0 1
34.899333 1.732706 -18.713889 39.638054 0.049608 2.062490 0.126883 -0.024028 -139700.000000 0 0 1
33.968673 0.836406 -18.151489 38.523329 0.024618 2.061426 0.117769 -0.018417 -9721.740000 0 0 1
34.396493 -0.468794 -18.424089 39.022885 -0.013628 2.062508 0.126196 -0.018047 -393514.000000 0 0 1
33.323003 -1.528294 -18.220389 38.009746 -0.045831 2.070723 0.116713 -0.013902 -244359.000000 0 0 1
33.180473 -1.854794 -16.837189 37.254194 -0.055842 2.039751 0.132804 -0.021589 -64947.800000 0 0 1
31.858863 -1.709394 -16.375189 35.861623 -0.053604 2.044990 0.127228 -0.028096 -141309.000000 0 0 1
31.618863 -2.062994 -14.858389 34.996859 -0.065153 2.009276 0.143051 -0.028149 -127711.000000 0 0 1
31.517913 -3.502694 -14.653889 34.933997 -0.110679 2.003662 0.131824 -0.033158 71335.200000 0 0 1
30.745063 -3.800194 -13.535289 33.806869 -0.122980 1.982718 0.129844 -0.029586 -306666.000000 0 0 1
30.631763 -5.301794 -13.137189 33.749069 -0.171384 1.970625 0.129717 -0.029366 284215.000000 0 0 1
29.953463 -6.081994 -14.157089 33.684177 -0.200325 2.004560 0.107309 -0.032860 769832.000000 0 0 1
29.528863 -7.393494 -13.730489 33.393769 -0.245338 1.994533 0.115787 -0.035761 -241943.000000 0 0 1
28.760963 -8.226894 -14.768889 33.361577 -0.278604 2.029395 0.085260 -0.025754 -928919.000000 0 0 1
27.521563 -7.682994 -15.057589 32.298542 -0.272232 2.055787 0.101845 -0.021922 -591265.000000 0 0 1
26.969363 -8.419594 -16.157189 32.546749 -0.302603 2.090278 0.093234 -0.020819 -15169.000000 0 0 1
25.561063 -8.001694 -16.605789 31.514239 -0.303379 2.125780 0.079861 -0.020337 -339616.000000 0 0 1
25.540063 -6.745594 -17.242289 31.545116 -0.258222 2.149085 0.067290 -0.017093 -110097.000000 0 0 1
24.210063 -6.335494 -17.501789 30.538144 -0.255949 2.181095 0.101017 -0.022793 246827.000000 0 0 1
23.733863 -6.595894 -18.978389 31.096323 -0.271070 2.227248 0.063245 -0.010008 -79719.600000 0 0 1
24.396463 -5.860594 -19.982489 32.075440 -0.235756 2.243348 0.056396 -0.017230 63487.900000 0 0 1
24.109163 -6.397094 -21.286789 32.791797 -0.259362 2.277263 0.077958 -0.014943 281956.000000 0 0 1
24.840263 -5.585094 -22.448689 33.943712 -0.221163 2.293414 0.074764 -0.017550 213338.000000 0 0 1
24.822263 -6.137394 -23.724489 34.880707 -0.242392 2.318778 0.088564 -0.030419 7019.930000 0 0 1
25.068363 -5.146694 -24.711189 35.574628 -0.202493 2.338701 0.071330 -0.030377 -162933.000000 0 0 1
25.025663 -5.733894 -26.167729 36.659397 -0.225233 2.365715 0.082772 -0.040873 204928.000000 0 0 1
23.718263 -6.156994 -26.533409 36.117674 -0.253983 2.395929 0.084535 -0.037337 -46747.400000 0 0 1
23.470563 -5.939394 -27.919689 36.954739 -0.247854 2.427229 0.083552 -0.043233 464226.000000 0 0 1
22.099363 -6.626194 -28.171549 36.413246 -0.291307 2.455397 0.086730 -0.044609 214130.000000 0 0 1
22.212263 -8.084794 -28.084789 36.708363 -0.349073 2.441960 0.080211 -0.040299 730872.000000 0 0 1
20.918763 -8.680394 -27.931439 35.959827 -0.393334 2.460270 0.093674 -0.042861 466524.000000 0 0 1
21.000163 -10.192594 -27.802129 36.302261 -0.451865 2.443160 0.108610 -0.031117 -38265.400000 0 0 1
19.713063 -10.723294 -27.504809 35.498006 -0.498201 2.457238 0.114933 -0.033268 588943.000000 0 0 1
19.719763 -12.053894 -26.939919 35.495417 -0.548658 2.432524 0.116222 -0.035609 -444350.000000 0 0 1
19.923963 -13.240894 -27.920249 36.767185 -0.586551 2.433155 0.103381 -0.023872 -103024.000000 0 0 1
18.797963 -13.545194 -28.719099 36.900167 -0.624396 2.462737 0.094565 -0.022842 152161.000000 0 0 1
18.987663 -14.623494 -29.577419 38.068381 -0.656278 2.460611 0.085776 -0.023594 -505115.000000 0 0 1
17.748663 -14.988694 -30.376419 38.241376 -0.701291 2.488707 0.090322 -0.024395 -454203.000000 0 0 1
16.774963 -15.765494 -29.714659 37.588710 -0.754386 2.482455 0.101991 -0.030552 415208.000000 0 0 1
15.640563 -15.912894 -30.563289 37.841274 -0.794029 2.510987 0.100090 -0.035240 41960.400000 0 0 1
14.354263 -16.359594 -29.847399 36.939794 -0.850596 2.511548 0.105956 -0.043305 -87118.300000 0 0 1
14.321163 -17.666894 -29.426629 37.190608 -0.889612 2.483627 0.100675 -0.037408 -475024.000000 0 0 1
13.370763 -17.912494 -28.437179 36.170539 -0.929572 2.475427 0.095503 -0.035291 -244496.000000 0 0 1
13.617263 -19.184494 -27.610399 36.274079 -0.953520 2.435897 0.084756 -0.034015 -753432.000000 0 0 1
14.777163 -19.101494 -26.884319 36.138597 -0.912353 2.409717 0.101618 -0.026875 -996770.000000 0 0 1
14.863763 -20.329494 -26.126339 36.287813 -0.939473 2.374563 0.080106 -0.023688 -189879.000000 0 0 1
15.930963 -20.365594 -25.029989 35.986850 -0.906973 2.339956 0.066911 -0.018534 68915.100000 0 0 1
17.278363 -20.351894 -25.477559 36.903217 -0.866894 2.332822 0.084241 -0.018813 323900.000000 0 0 1
18.161963 -20.290294 -24.369989 36.543800 -0.840692 2.300798 0.080138 -0.014242 391027.000000 0 0 1
19.644563 -20.585394 -24.803889 37.747850 -0.808780 2.287754 0.050439 -0.008164 649138.000000 0 0 1
20.114963 -21.905194 -24.894089 38.783565 -0.827977 2.267734 0.073743 -0.020098 270463.000000 0 0 1
19.902063 -22.678094 -23.697289 38.365995 -0.850501 2.236565 0.071159 -0.028968 -611681.000000 0 0 1
20.400363 -24.135894 -23.874389 39.606851 -0.869078 2.217782 0.076592 -0.033646 -210681.000000 0 0 1
21.793963 -24.290294 -23.725289 40.347051 -0.839514 2.199418 0.094899 -0.039161 -72384.000000 0 0 1
22.146663 -25.616664 -23.372689 41.145726 -0.857921 2.174927 0.113291 -0.054810 274.326000 0 0 1
22.051663 -25.908774 -21.858689 40.439371 -0.865648 2.141863 0.130635 -0.052441 -771471.000000 0 0 1
20.728663 -25.999254 -21.409589 39.547556 -0.897717 2.142854 0.101889 -0.039417 -297140.000000 0 0 1
20.680663 -26.104754 -19.985789 38.840440 -0.900818 2.111292 0.101596 -0.041544 -857862.000000 0 0 1
19.356563 -26.526754 -19.386089 38.133524 -0.940415 2.104092 0.091953 -0.034877 -1159920.000000 0 0 1
19.065163 -27.877714 -19.623889 39.060778 -0.970968 2.097161 0.098613 -0.034837 -111600.000000 0 0 1
17.931363 -28.407594 -18.988889 38.588899 -1.007739 2.085276 0.093298 -0.029859 -444785.000000 0 0 1
16.557663 -28.017554 -19.494989 37.936712 -1.037040 2.110500 0.071913 -0.031003 -723680.000000 0 0 1
15.885163 -27.020484 -18.694789 36.495755 -1.039326 2.108594 0.070207 -0.032081 468876.000000 0 0 1
14.580763 -26.725874 -19.214689 36.001045 -1.071363 2.133797 0.062174 -0.022869 526086.000000 0 0 1
13.877263 -25.730224 -18.308589 34.493873 -1.076177 2.130315 0.056962 -0.030375 -771837.000000 0 0 1
13.304363 -26.339304 -17.185989 34.148547 -1.103066 2.098177 0.060488 -0.024351 67294.900000 0 0 1
12.198263 -25.587804 -16.682389 32.891267 -1.125944 2.102727 0.074674 -0.034214 263368.000000 0 0 1
10.820463 -25.886624 -17.313189 32.968868 -1.174874 2.123673 0.082052 -0.030115 -1180080.000000 0 0 1
10.215363 -26.974424 -16.676289 33.317740 -1.208781 2.094999 0.081236 -0.012975 -1165740.000000 0 0 1
8.908763 -26.612084 -16.345789 32.476975 -1.247759 2.098214 0.075480 -0.008440 -754435.000000 0 0 1
7.965863 -27.349844 -17.295689 33.325813 -1.287379 2.116463 0.074073 -0.003023 -740313.000000 0 0 1
7.964863 -26.783254 -18.599189 33.566525 -1.281743 2.158077 0.081594 -0.006587 -331890.000000 0 0 1
7.308663 -27.645184 -19.497589 34.609663 -1.312336 2.169239 0.078674 -0.001118 -147948.000000 0 0 1
7.273663 -27.180224 -20.972689 35.093083 -1.309315 2.211339 0.070419 -0.009322 226739.000000 0 0 1
6.427863 -26.034394 -21.213089 34.192137 -1.328738 2.240060 0.095214 -0.015789 260295.000000 0 0 1
6.520863 -25.611614 -22.530589 34.729006 -1.321488 2.276743 0.082676 -0.014338 -665472.000000 0 0 1
5.384463 -24.712994 -22.987689 34.178332 -1.356269 2.308487 0.064551 -0.015259 -481436.000000 0 0 1
4.223663 -25.460874 -23.266789 34.748222 -1.406405 2.304442 0.061132 -0.001968 -529737.000000 0 0 1
3.250263 -24.701794 -23.925889 34.542597 -1.439968 2.335951 0.069906 -0.004053 463114.000000 0 0 1
2.155263 -25.683714 -24.515889 35.571437 -1.487077 2.331183 0.046531 -0.008552 281760.000000 0 0 1
2.662263 -26.481344 -25.564159 36.903597 -1.470599 2.336061 0.053359 -0.009381 13669.300000 0 0 1
1.738763 -27.345574 -26.172069 37.891700 -1.507297 2.333263 0.074378 -0.023863 -300765.000000 0 0 1
2.490963 -28.203704 -27.179359 39.247565 -1.482704 2.335760 0.064336 -0.031135 -866431.000000 0 0 1
2.842263 -27.493424 -28.375279 39.612161 -1.467783 2.369321 0.050779 -0.029340 -103292.000000 0 0 1
3.267763 -28.408474 -29.343159 40.972438 -1.456272 2.369093 0.077519 -0.039274 268297.000000 0 0 1
4.667263 -29.065074 -29.155989 41.432277 -1.411576 2.351391 0.069773 -0.034744 -563488.000000 0 0 1
4.864463 -29.871594 -28.058729 41.270660 -1.409368 2.318383 0.057581 -0.045200 -246942.000000 0 0 1
6.037863 -30.632614 -28.288249 42.131198 -1.376185 2.306936 0.077232 -0.043378 -280473.000000 0 0 1
6.334263 -31.702544 -27.235219 42.272111 -1.373590 2.270882 0.101012 -0.057465 53612.100000 0 0 1
5.273163 -32.660344 -27.199759 42.829093 -1.410723 2.258904 0.093145 -0.070143 251461.000000 0 0 1
5.638263 33.516815 -26.766849 43.262352 1.404135 2.237896 0.106576 -0.069901 -532312.000000 0 0 1
4.408063 32.639603 -26.601879 42.337154 1.436556 2.250206 0.130188 -0.064102 -501926.000000 0 0 1
3.561063 32.546282 -27.708209 42.891566 1.461815 2.273137 0.117231 -0.072451 364335.000000 0 0 1
2.297363 32.010263 -27.302849 42.135263 1.499150 2.275727 0.065582 -0.072647 324939.000000 0 0 1
1.167063 32.352152 -28.292649 42.994159 1.534738 2.289033 0.094139 -0.068151 -611700.000000 0 0 1
1.097463 31.485649 -29.360389 43.064869 1.535954 2.320977 0.126575 -0.069223 76047.800000 0 0 1
-0.021037 31.627514 -30.205349 43.734005 -1.570131 2.333198 0.136415 -0.058523 50944.300000 0 0 1
-0.019537 30.454085 -31.212769 43.608355 -1.570155 2.368497 0.124407 -0.044585 58227.100000 0 0 1
1.069363 30.449165 -32.113339 44.266937 1.535691 2.382481 0.133919 -0.038748 190657.000000 0 0 1
0.889663 29.454105 -33.075549 44.298168 1.540600 2.413819 0.151710 -0.036441 526155.000000 0 0 1
2.268963 29.209565 33.548951 44.540756 1.493273 0.717854 0.142314 -0.027719 556585.000000 0 0 1
2.715063 30.171475 32.558670 44.471973 1.481050 0.749372 0.141087 -0.021145 -190971.000000 0 0 1
3.842563 29.824755 31.814340 43.777089 1.442664 0.757240 0.132119 -0.023201 -295461.000000 0 0 1
3.461363 28.838655 30.694881 42.259020 1.451343 0.757798 0.131774 -0.010695 109229.000000 0 0 1
3.032763 27.524175 31.080851 41.626880 1.461054 0.727779 0.138660 -0.013742 360274.000000 0 0 1
4.039163 26.599915 30.691111 40.814392 1.420099 0.719754 0.134920 -0.016847 287876.000000 0 0 1
3.619863 25.162735 31.028641 40.112880 1.427918 0.686399 0.136980 -0.025595 244585.000000 0 0 1
2.524463 24.666085 30.289121 39.143575 1.468806 0.685985 0.132003 -0.013456 69847.700000 0 0 1
2.562163 23.251885 30.359531 38.326439 1.461047 0.656505 0.122643 -0.002418 227000.000000 0 0 1
1.583463 22.470265 29.428011 37.059789 1.500443 0.653323 0.122085 0.004502 490779.000000 0 0 1
0.253463 22.407735 29.932411 37.391443 1.559485 0.642642 0.096866 -0.000846 156570.000000 0 0 1
-0.540137 21.782635 28.923141 36.212194 -1.546005 0.645643 0.115617 0.004250 1516250.000000 0 0 1
-2.019737 21.385535 29.389951 36.403154 -1.476632 0.631155 0.100312 0.001617 1416350.000000 0 0 1
-2.816537 22.526665 29.699161 37.382130 -1.446411 0.652654 0.103791 -0.003791 -90490.700000 0 0 1
-4.093337 22.093035 30.098371 37.560212 -1.387596 0.641270 0.068250 -0.007096 124813.000000 0 0 1
-5.027837 23.268765 30.531021 38.715085 -1.357991 0.662255 0.040484 -0.019162 139425.000000 0 0 1
-4.840037 23.610925 31.865942 39.954223 -1.368606 0.647555 0.055625 -0.012809 178702.000000 0 0 1
-5.631237 24.753685 32.132492 40.950614 -1.347112 0.668642 0.051078 -0.017168 17038.200000 0 0 1
-5.737137 25.179645 33.608471 42.384650 -1.346773 0.655178 0.086470 -0.010702 -164366.000000 0 0 1
-6.799237 26.080715 -33.511829 43.005534 -1.315773 2.464256 0.072530 -0.007464 -110328.000000 0 0 1
-6.968237 26.402945 -32.168649 42.195898 -1.312761 2.437755 0.084043 -0.005836 149053.000000 0 0 1
-8.383137 26.890795 -31.771819 42.459867 -1.268597 2.416260 0.097300 -0.005684 -39899.200000 0 0 1
-8.824137 28.086215 -32.409959 43.784772 -1.266381 2.404180 0.096815 -0.011855 172829.000000 0 0 1
-10.061137 28.640865 -31.982599 44.095490 -1.232976 2.382271 0.085517 -0.013635 336979.000000 0 0 1
-10.227437 29.070745 -30.466679 43.335057 -1.232508 2.350473 0.080283 -0.008217 -154120.000000 0 0 1
-9.404337 30.211545 -30.183989 43.729306 -1.269021 2.332626 0.102854 -0.009234 471341.000000 0 0 1
-9.333137 30.354175 -28.806959 42.875684 -1.272496 2.307529 0.113189 -0.017131 -320795.000000 0 0 1
-8.677737 31.600550 -28.265079 43.276004 -1.302795 2.282514 0.096437 -0.033875 594181.000000 0 0 1
-7.250137 31.532140 -28.277189 42.970219 -1.344796 2.289042 0.106849 -0.043070 306053.000000 0 0 1
-6.578637 32.694366 -27.936839 43.504793 -1.372232 2.268103 0.130396 -0.042950 277722.000000 0 0 1
-5.094137 32.368324 -27.548229 42.808452 -1.414696 2.269889 0.153880 -0.050267 1203640.000000 0 0 1
-4.180137 33.467555 -27.244029 43.356521 -1.446539 2.250255 0.180109 -0.066117 688460.000000 0 0 1
-3.973837 -32.925484 -28.224509 43.548844 1.450685 2.275898 0.192458 -0.069322 108400.000000 0 0 1
-2.941237 -33.221004 -29.398819 44.458706 1.482491 2.293295 0.172683 -0.054900 354764.000000 0 0 1
-3.411337 33.208439 -30.275559 45.067140 -1.468430 2.307416 0.153666 -0.051974 253098.000000 0 0 1
-4.496337 33.463133 -31.163989 45.947715 -1.437229 2.316173 0.163420 -0.037912 249091.000000 0 0 1
-4.212937 -33.113464 -32.376299 46.502420 1.444249 2.340926 0.121650 -0.039432 -157676.000000 0 0 1
-4.101037 -31.690354 -32.118719 45.306834 1.442102 2.358756 0.125428 -0.057067 112926.000000 0 0 1
-3.560737 -30.893024 -33.163559 45.462946 1.456042 2.388334 0.101797 -0.064783 -8258.450000 0 0 1
35.169713 17.363006 12.843411 41.271490 0.458588 1.254348 0.102999 -0.041311 65303.100000 0 0 1
36.570473 17.329706 13.008211 42.508019 0.442527 1.259789 0.101369 -0.048148 -196304.000000 0 0 1
36.940513 16.148706 13.700811 42.580446 0.412120 1.243205 0.126613 -0.016774 857018.000000 0 0 1
-37.784869 15.846906 13.893911 43.265015 -0.397116 1.243869 0.081840 -0.033306 1451760.000000 0 0 1
-36.967359 15.204206 12.909211 42.004776 -0.390199 1.258413 0.080750 -0.015173 375295.000000 0 0 1
-37.507949 14.002006 12.400911 41.912826 -0.357286 1.270426 0.136246 -0.030468 -172133.000000 0 0 1
-36.321309 13.065306 11.988611 40.418640 -0.345303 1.269654 0.154124 -0.019705 526014.000000 0 0 1
-35.591207 12.644706 13.109011 39.980855 -0.341367 1.236735 0.121374 -0.022361 14524.100000 0 0 1
-36.176529 11.441606 13.693011 40.337949 -0.306317 1.224456 0.126089 -0.026814 626509.000000 0 0 1
-35.323510 10.926706 14.945211 39.881106 -0.299996 1.186676 0.152386 -0.048769 367357.000000 0 0 1
-35.400798 11.838206 15.999511 40.612116 -0.322715 1.165861 0.147220 -0.030730 191624.000000 0 0 1
-34.955031 11.318606 17.261111 40.594470 -0.313150 1.131604 0.145091 -0.022543 -107324.000000 0 0 1
-35.160501 12.296806 18.423611 41.556007 -0.336437 1.111470 0.147410 -0.019326 -789682.000000 0 0 1
-36.498479 12.518706 18.705011 42.880466 -0.330418 1.119411 0.173908 -0.032336 -593749.000000 0 0 1
-36.523239 13.564906 19.712911 43.664087 -0.355615 1.102387 0.187530 -0.030220 173199.000000 0 0 1
-37.835779 13.511406 20.524611 45.115008 -0.342992 1.098492 0.208039 -0.049331 76995.900000 0 0 1
-37.915239 12.253206 21.155511 45.113879 -0.312579 1.082711 0.171856 -0.038595 590775.000000 0 0 1
37.197883 12.093106 22.000611 44.877083 0.314324 1.058429 0.193024 -0.049108 555519.000000 0 0 1
37.176353 10.752606 22.733281 44.883202 0.281549 1.039677 0.155583 -0.047472 -235302.000000 0 0 1
-38.097399 10.544306 23.713701 46.097004 -0.270013 1.030453 0.138887 -0.033011 -141049.000000 0 0 1
38.077103 11.131606 24.987261 46.884343 0.284418 1.008707 0.147442 -0.031295 -478121.000000 0 0 1
-36.825849 10.995106 25.723031 46.246187 -0.290145 0.980967 0.120840 -0.031826 1603050.000000 0 0 1
-35.836015 12.074106 25.452351 45.583179 -0.324981 0.978375 0.099053 -0.028347 1306360.000000 0 0 1
-35.112990 12.034706 24.238421 44.331222 -0.330195 0.992310 0.106837 -0.032914 77853.000000 0 0 1
-34.305517 13.354806 23.861441 43.870123 -0.371240 0.995706 0.110345 -0.024703 291878.000000 0 0 1
-33.369619 13.846206 24.775301 43.807127 -0.393314 0.969691 0.070094 -0.025896 -433455.000000 0 0 1
-33.895959 14.400306 25.951421 45.053092 -0.401734 0.956947 0.063376 -0.022440 -983522.000000 0 0 1
-32.976059 15.014206 27.008641 45.191963 -0.427258 0.930239 0.064335 -0.014457 -471595.000000 0 0 1
-32.322579 16.201406 26.592771 44.882180 -0.464640 0.936635 0.077821 -0.025649 -63518.500000 0 0 1
-32.075079 17.040706 27.646891 45.645886 -0.488354 0.920174 0.084643 -0.028134 -40625.300000 0 0 1
-31.454409 18.399206 27.234461 45.493148 -0.529279 0.928982 0.082817 -0.029594 -247351.000000 0 0 1
-32.360729 19.157206 26.492051 46.000479 -0.534508 0.957082 0.079669 -0.048751 -86393.100000 0 0 1
-31.778889 20.279306 25.905921 45.741281 -0.567991 0.968717 0.090582 -0.053237 -880509.000000 0 0 1
-32.766609 21.099806 25.131241 46.372748 -0.572105 0.998053 0.106786 -0.034009 -1150550.000000 0 0 1
-33.598849 21.695706 26.052051 47.731495 -0.573366 0.993448 0.114837 -0.040488 -310425.000000 0 0 1
-34.676462 22.342906 25.410931 48.449746 -0.572375 1.018692 0.121468 -0.034752 -383420.000000 0 0 1
-34.582687 23.887806 25.535781 49.179931 -0.604487 1.024845 0.121052 -0.033399 -129176.000000 0 0 1
-35.533019 24.443206 24.656531 49.679073 -0.602560 1.051446 0.125874 -0.030698 -141725.000000 0 0 1
-35.468318 25.853806 24.584231 50.307109 -0.629877 1.060217 0.122938 -0.028855 -270452.000000 0 0 1
-36.441819 26.424206 23.580391 50.816136 -0.627378 1.088253 0.125968 -0.029670 -280927.000000 0 0 1
-36.166989 26.144906 22.234111 49.859431 -0.625927 1.108577 0.142344 -0.031781 20716.100000 0 0 1
-37.297579 26.567406 21.501011 50.588832 -0.618939 1.131818 0.145442 -0.039165 327992.000000 0 0 1
-37.070189 26.377606 19.997511 49.697861 -0.618441 1.156679 0.175585 -0.051943 125581.000000 0 0 1
-37.141909 25.017706 19.588411 48.878552 -0.592767 1.158454 0.169312 -0.049079 123122.000000 0 0 1
-36.537739 24.846706 18.318211 47.832228 -0.597196 1.177789 0.179384 -0.055757 -247932.000000 0 0 1
-36.715199 23.522206 17.536111 46.998034 -0.569786 1.188422 0.179340 -0.041291 641456.000000 0 0 1
-38.084429 23.470706 17.121311 47.900282 -0.552305 1.205275 0.166853 -0.043076 546129.000000 0 0 1
38.103483 22.440706 16.155811 47.079410 0.532248 1.220516 0.144161 -0.038587 -553022.000000 0 0 1
36.765193 22.435406 15.464811 45.762290 0.547911 1.226071 0.137544 -0.031324 176959.000000 0 0 1
35.723813 21.537706 15.911111 44.645571 0.542545 1.206398 0.146013 -0.036698 -34279.300000 0 0 1
34.701023 21.395506 14.992911 43.436344 0.552512 1.218377 0.127360 -0.033176 -331751.000000 0 0 1
33.542953 20.481406 15.585411 42.279105 0.548179 1.193260 0.141435 -0.040772 1299350.000000 0 0 1
32.623063 21.019606 16.553811 42.191429 0.572370 1.167611 0.132816 -0.037586 652289.000000 0 0 1
31.847233 22.137806 16.145111 42.011823 0.607447 1.176348 0.135711 -0.029456 -200127.000000 0 0 1
30.880363 22.790206 17.156011 42.039493 0.635787 1.150432 0.118583 -0.028703 410516.000000 0 0 1
31.556893 23.376606 18.252211 43.306424 0.637572 1.135734 0.066031 -0.016004 -384377.000000 0 0 1
30.672663 24.137506 18.973211 43.398320 0.666726 1.118327 0.054454 -0.004092 32915.700000 0 0 1
31.459913 24.764706 20.167311 44.830092 0.666877 1.104187 0.062954 -0.013555 816465.000000 0 0 1
32.429343 25.733406 19.772211 45.878217 0.670779 1.125227 0.080284 -0.024653 592628.000000 0 0 1
33.237703 26.189906 20.878011 47.186305 0.667355 1.112457 0.084030 -0.028360 70999.600000 0 0 1
34.545473 26.908306 20.541811 48.367474 0.661757 1.132163 0.102372 -0.039818 558114.000000 0 0 1
35.476973 27.319606 21.583211 49.707257 0.656220 1.121639 0.100313 -0.032852 895933.000000 0 0 1
35.012353 28.417506 22.347291 50.327139 0.681800 1.110693 0.059062 -0.020968 -184049.000000 0 0 1
35.905863 28.658906 23.612721 51.653891 0.673623 1.096027 0.059939 -0.027051 642225.000000 0 0 1
37.158573 29.215706 23.233211 52.669717 0.666297 1.113960 0.101518 -0.038006 125238.000000 0 0 1
37.873623 29.596506 24.420931 53.914250 0.663330 1.100715 0.098801 -0.030144 199231.000000 0 0 1
-37.171539 30.517806 24.216251 53.846881 -0.687415 1.104340 0.097346 -0.036965 -94471.200000 0 0 1
-36.057009 29.842506 23.681891 52.454885 -0.691374 1.102382 0.111199 -0.034300 -622779.000000 0 0 1
-34.941138 30.635706 23.992891 52.298072 -0.719837 1.094184 0.110839 -0.027128 16035.500000 0 0 1
-33.533069 29.995906 23.818791 50.907326 -0.729778 1.083900 0.138572 -0.030893 171397.000000 0 0 1
-33.115699 29.795206 22.469941 49.892906 -0.732666 1.103624 0.123618 -0.020765 431083.000000 0 0 1
-33.718619 28.675006 21.760111 49.322446 -0.704738 1.113882 0.130637 -0.024828 64704.000000 0 0 1
-32.995179 27.390106 22.235641 48.304487 -0.692842 1.092438 0.131182 -0.021595 -48422.200000 0 0 1
-31.610249 27.406106 21.882911 47.214026 -0.714281 1.088874 0.113527 -0.019563 701791.000000 0 0 1
-30.848619 26.353406 22.464741 46.376760 -0.706974 1.065123 0.112287 -0.023840 71135.200000 0 0 1
-30.489629 26.603406 23.964801 47.028399 -0.717435 1.036098 0.135769 -0.015980 -305439.000000 0 0 1
-31.647909 26.620206 24.791831 48.216806 -0.699326 1.030752 0.120503 -0.018794 118109.000000 0 0 1
-31.357599 27.077006 26.086401 48.958795 -0.712274 1.008863 0.135628 -0.033175 -395436.000000 0 0 1
-32.509059 27.351806 27.050231 50.365417 -0.699456 1.003825 0.132998 -0.030728 -104841.000000 0 0 1
-33.235439 26.278006 27.675231 50.606782 -0.669021 0.992178 0.123064 -0.029907 403610.000000 0 0 1
-34.175706 26.758206 28.626051 51.994531 -0.664264 0.987763 0.114349 -0.023416 130815.000000 0 0 1
-34.923287 25.533606 29.193491 52.190621 -0.631317 0.977179 0.105727 -0.025003 12716.000000 0 0 1
-34.182389 24.807506 30.157891 51.897461 -0.627793 0.950710 0.115273 -0.034113 187674.000000 0 0 1
-34.814338 23.563906 30.461241 51.915152 -0.595016 0.943756 0.103338 -0.039012 93597.300000 0 0 1
-33.892519 22.649506 31.292569 51.389958 -0.589115 0.916093 0.105532 -0.055328 -576337.000000 0 0 1
-32.854259 22.070006 30.509651 49.973256 -0.591517 0.914080 0.111159 -0.048216 346982.000000 0 0 1
-32.178059 21.126806 31.362964 49.652844 -0.580973 0.887123 0.107053 -0.048455 -162581.000000 0 0 1
-31.241369 21.470206 32.498295 49.931273 -0.602108 0.862079 0.111303 -0.054823 -1295590.000000 0 0 1
-31.943279 21.961606 33.625971 51.316577 -0.602300 0.856263 0.135318 -0.056723 159797.000000 0 0 1
-31.438299 21.611206 -32.374769 50.035353 -0.602231 2.274489 0.120764 -0.047161 325364.000000 0 0 1
-30.138139 22.349006 -31.901959 49.249573 -0.638073 2.275438 0.123778 -0.044703 362243.000000 0 0 1
-30.368259 23.725606 -31.631059 49.856388 -0.663211 2.258085 0.117105 -0.048705 -29617.200000 0 0 1
-29.668929 24.067706 -30.463909 48.862558 -0.681538 2.243958 0.147228 -0.038755 -264939.000000 0 0 1
-30.196009 25.293306 -29.714309 49.340556 -0.697273 2.217086 0.115836 -0.035636 -551629.000000 0 0 1
-29.998859 26.552406 -30.227329 50.186185 -0.724530 2.217180 0.127955 -0.038895 -140109.000000 0 0 1
-30.967509 26.941806 -31.161059 51.535028 -0.715992 2.220133 0.102437 -0.035932 -429899.000000 0 0 1
-30.792479 28.379006 -31.661719 52.497706 -0.744633 2.218187 0.120823 -0.030534 3443.230000 0 0 1
-31.101699 29.325006 -30.663039 52.606973 -0.756004 2.193053 0.091579 -0.040158 49877.100000 0 0 1
-30.917149 30.681906 -31.101179 53.521330 -0.781579 2.190874 0.118110 -0.057556 -337194.000000 0 0 1
-30.860609 31.788006 -30.024599 53.519445 -0.800200 2.166394 0.112177 -0.044287 -298820.000000 0 0 1
-29.667329 31.997706 -29.323869 52.572739 -0.823171 2.162501 0.090365 -0.031125 -373446.000000 0 0 1
-29.810159 33.013306 -28.315149 52.728281 -0.836341 2.137675 0.058682 -0.026575 -288270.000000 0 0 1
-28.844519 32.912706 -27.103279 51.476599 -0.851177 2.125294 0.059398 -0.015326 1042690.000000 0 0 1
-27.537379 33.501806 -27.256989 51.221301 -0.882804 2.131924 0.042648 -0.014146 729455.000000 0 0 1
-27.395569 -32.523723 -27.408229 50.591707 0.870774 2.143318 0.048375 -0.001831 -594415.000000 0 0 1
-27.987929 -31.548623 -26.307509 49.706386 0.845134 2.128522 0.052505 0.003879 550867.000000 0 0 1
-29.397309 -31.360223 -26.346529 50.416317 0.817694 2.120670 0.044453 -0.004713 27326.900000 0 0 1
-29.758069 -30.505923 -25.249579 49.534788 0.797807 2.105672 0.034974 0.001756 1126560.000000 0 0 1
-31.334259 -30.388523 -25.202799 50.403167 0.770077 2.094423 0.019727 0.000055 1157340.000000 0 0 1
-31.835339 -29.443723 -26.149119 50.637911 0.746390 2.113431 0.031718 -0.006797 -366757.000000 0 0 1
-33.232149 -29.447623 -26.101509 51.505602 0.725093 2.102231 0.047626 -0.011997 -311698.000000 0 0 1
-33.893049 -28.590323 -27.253359 52.047007 0.700735 2.121902 0.056107 -0.024094 52358.000000 0 0 1
-35.299619 -28.570123 -27.141069 52.905129 0.680423 2.109489 0.061205 -0.026909 59219.900000 0 0 1
-35.865612 -27.611523 -28.072239 53.261515 0.656091 2.125939 0.063915 -0.035712 1236780.000000 0 0 1
-37.370509 -27.942223 -28.413499 54.631948 0.642033 2.117752 0.064115 -0.039082 794490.000000 0 0 1
37.959903 -27.509823 -27.475369 54.338205 -0.627116 2.100916 0.070296 -0.027116 -1220330.000000 0 0 1
36.699473 -27.927823 -27.889689 53.894799 -0.650496 2.114704 0.077228 -0.031327 -957342.000000 0 0 1
35.538603 -27.381323 -27.078789 52.402194 -0.656472 2.113846 0.090176 -0.022547 -466392.000000 0 0 1
35.472433 -27.811723 -25.744579 51.909236 -0.664932 2.089729 0.077842 -0.026508 -100542.000000 0 0 1
34.504383 -27.076623 -25.053789 50.511269 -0.665360 2.089787 0.088426 -0.014914 -153984.000000 0 0 1
34.222443 -27.601123 -23.598589 49.898808 -0.678705 2.063408 0.070341 -0.013214 113615.000000 0 0 1
33.648953 -28.898223 -23.564689 50.226028 -0.709589 2.059150 0.094380 -0.022695 -263093.000000 0 0 1
33.160513 -29.334423 -22.320289 49.581481 -0.724252 2.037756 0.103766 -0.017740 -474335.000000 0 0 1
34.072073 -29.503923 -21.078289 49.756225 -0.713668 2.008247 0.087176 -0.014174 -802554.000000 0 0 1
35.201413 -30.300323 -21.290689 51.093468 -0.710714 2.000609 0.065082 -0.016006 -183995.000000 0 0 1
36.028753 -30.533923 -20.175289 51.355952 -0.703034 1.974527 0.029238 0.003338 -267192.000000 0 0 1
37.118853 -29.507623 -19.926089 51.434989 -0.671654 1.968610 0.031026 0.003402 -887875.000000 0 0 1
36.716843 -28.158123 -19.568289 50.238674 -0.654229 1.970892 0.032251 0.013492 -141346.000000 0 0 1
37.099023 -27.143423 -20.470489 50.320412 -0.631652 1.989748 0.020962 0.008945 -182146.000000 0 0 1
36.351593 -25.845223 -20.186989 48.958435 -0.618057 1.995805 0.030186 0.009561 16602.500000 0 0 1
35.066983 -25.869523 -20.764189 48.270872 -0.635594 2.015466 0.053483 0.002821 -367209.000000 0 0 1
34.292163 -24.770523 -20.345489 46.941135 -0.625561 2.019087 0.080625 -0.008639 -279283.000000 0 0 1
32.925113 -24.744023 -21.043389 46.250989 -0.644476 2.043149 0.102437 -0.017754 -599723.000000 0 0 1
32.179013 -25.874423 -20.827589 46.246763 -0.677222 2.037962 0.124039 -0.022374 -1190300.000000 0 0 1
30.924463 -25.663723 -21.395989 45.527326 -0.692699 2.060041 0.126458 -0.038751 -400375.000000 0 0 1
30.273863 -26.904123 -22.016989 46.098660 -0.726532 2.068724 0.127716 -0.043743 -7891.020000 0 0 1
29.615663 -27.787723 -21.117489 45.773282 -0.753565 2.050312 0.136121 -0.041246 64642.000000 0 0 1
29.101163 -28.946623 -21.763589 46.458998 -0.782736 2.058329 0.134901 -0.036395 102047.000000 0 0 1
28.314163 -29.790223 -20.718489 46.026134 -0.810796 2.037725 0.140247 -0.028023 -61190.100000 0 0 1
29.105963 -30.216123 -19.632589 46.320727 -0.804110 2.008477 0.146641 -0.029740 21066.900000 0 0 1
29.972963 -31.299323 -19.949989 47.707737 -0.807042 2.002227 0.146075 -0.026876 834390.000000 0 0 1
31.072463 -31.678423 -18.874589 48.221059 -0.795054 1.972968 0.113935 -0.024760 412851.000000 0 0 1
30.682163 -32.330423 -17.745889 47.974660 -0.811550 1.949699 0.118677 -0.022003 -585329.000000 0 0 1
29.960063 -31.512923 -16.863889 46.637543 -0.810654 1.940774 0.103222 -0.025078 -127851.000000 0 0 1
29.295663 -32.359823 -15.767189 46.411187 -0.835055 1.917424 0.097266 -0.017311 254942.000000 0 0 1
28.006163 -32.862923 -16.126989 46.091178 -0.865020 1.928253 0.124092 -0.024257 314069.000000 0 0 1
27.467463 -33.542323 -15.018989 45.881576 -0.884643 1.904286 0.109940 -0.015526 -909668.000000 0 0 1
25.955163 -33.518723 -14.939589 44.948488 -0.911894 1.909613 0.104923 -0.018146 -739330.000000 0 0 1
25.469763 -32.230523 -14.629389 43.606587 -0.902037 1.912917 0.090297 -0.011166 -136533.000000 0 0 1
24.140563 -32.300223 -14.163789 42.739725 -0.928974 1.908579 0.105389 -0.018672 -55920.900000 0 0 1
0.403691 -6.838894 -28.499549 29.311393 -1.511836 2.905686 0.165951 -0.038250 -78630.500000 0 0 1
0.567191 -8.278094 -28.387769 29.575564 -1.502386 2.857223 0.159577 -0.035976 -131077.000000 0 0 1
0.240191 -8.984994 -29.559409 30.895735 -1.544070 2.846404 0.183261 -0.045251 -116270.000000 0 0 1
0.469091 -10.498194 -29.503569 31.319207 -1.526143 2.799420 0.209274 -0.038045 3786.730000 0 0 1
1.847791 -10.750394 -29.383229 31.342614 -1.400578 2.786128 0.121375 -0.039146 -253478.000000 0 0 1
2.005391 -12.066494 -28.947879 31.426129 -1.406107 2.741797 0.148659 -0.037822 204589.000000 0 0 1
3.445091 -12.370294 -28.473579 31.235197 -1.299182 2.717923 0.119339 -0.031511 341218.000000 0 0 1
4.462191 -12.200094 -29.495899 32.229823 -1.220159 2.726736 0.129215 -0.032504 2197660.000000 0 0 1
5.839691 -12.328594 -29.012709 32.059843 -1.128433 2.702070 0.112520 -0.035672 2074650.000000 0 0 1
6.337391 -13.788094 -28.594959 32.371990 -1.139965 2.653703 0.107951 -0.039873 -713942.000000 0 0 1
5.779191 -14.215194 -27.359799 31.369243 -1.184656 2.630449 0.111395 -0.033035 147084.000000 0 0 1
6.369991 -15.406794 -26.783099 31.548066 -1.178746 2.584814 0.116971 -0.031931 106117.000000 0 0 1
5.910291 -16.764694 -27.410149 32.669600 -1.231857 2.566259 0.084398 -0.037549 -36763.400000 0 0 1
6.499191 -17.113194 -28.655039 34.003120 -1.207845 2.573108 0.101590 -0.054039 163867.000000 0 0 1
6.143691 -18.460294 -28.975589 34.901464 -1.249521 2.550283 0.089168 -0.048179 -184284.000000 0 0 1
6.471191 -18.951894 -30.402379 36.405429 -1.241755 2.559121 0.088602 -0.056854 -373300.000000 0 0 1
7.842891 -19.104794 -30.629659 36.941577 -1.181254 2.548360 0.080678 -0.049733 -418780.000000 0 0 1
8.122091 -19.598994 -31.925359 38.331677 -1.177926 2.555072 0.082816 -0.046527 421752.000000 0 0 1
9.632191 -19.664494 -32.307379 39.028684 -1.115321 2.545945 0.091710 -0.040322 548615.000000 0 0 1
10.149791 -18.389094 -32.707189 38.870776 -1.066460 2.570728 0.104968 -0.045541 261721.000000 0 0 1
11.280091 -18.360694 -33.564429 39.886419 -1.019884 2.570850 0.105844 -0.042771 -428140.000000 0 0 1
11.516591 -16.940494 33.169490 38.984962 -0.973739 0.553238 0.112573 -0.035393 19107.800000 0 0 1
10.492491 -16.433694 32.315837 37.742178 -1.002566 0.542877 0.116605 -0.035149 425798.000000 0 0 1
10.935291 -15.212194 31.734657 36.852135 -0.947531 0.533299 0.123338 -0.030514 341009.000000 0 0 1
9.912991 -14.719994 30.674011 35.437841 -0.978121 0.524504 0.167174 -0.045039 358873.000000 0 0 1
9.677591 -15.569394 29.585331 34.804506 -1.014662 0.554729 0.171236 -0.045318 251402.000000 0 0 1
8.614691 -14.994294 28.823951 33.613419 -1.049314 0.540380 0.154268 -0.043589 161535.000000 0 0 1
8.381691 -15.795394 27.544661 32.839847 -1.082937 0.575799 0.128297 -0.028531 -830925.000000 0 0 1
7.825391 -17.039094 27.762421 33.501037 -1.140268 0.594009 0.119066 -0.031675 84014.500000 0 0 1
8.053391 -17.841194 26.619811 33.042089 -1.146785 0.634052 0.096945 -0.027159 -73369.400000 0 0 1
7.699891 -19.388594 26.846861 33.999410 -1.192762 0.660595 0.100615 -0.034965 -412073.000000 0 0 1
8.654891 -20.086694 27.627421 35.237151 -1.163959 0.669644 0.102144 -0.034330 502997.000000 0 0 1
8.038691 -21.172694 28.324511 36.265431 -1.207935 0.674478 0.088408 -0.037150 -316968.000000 0 0 1
8.509791 -21.317094 29.756021 37.579992 -1.190980 0.657038 0.089645 -0.042085 -138891.000000 0 0 1
7.922391 -20.461294 30.746621 37.772788 -1.201382 0.619810 0.106331 -0.048602 168876.000000 0 0 1
8.150391 -19.028594 30.656651 36.991168 -1.166114 0.593915 0.108238 -0.044488 -246190.000000 0 0 1
7.712091 -18.239794 31.918023 37.562303 -1.170776 0.555313 0.109674 -0.039748 -511313.000000 0 0 1
6.349291 -18.451294 32.144727 37.603819 -1.239378 0.545581 0.138601 -0.051247 -784550.000000 0 0 1
5.949891 -17.539594 33.129201 37.955007 -1.243752 0.509775 0.158332 -0.045242 -1197220.000000 0 0 1
4.481291 -17.514594 33.428481 38.004030 -1.320310 0.495768 0.174688 -0.053834 -1155850.000000 0 0 1
4.022691 -18.676394 -33.198829 38.303420 -1.358648 2.619410 0.137468 -0.056249 106485.000000 0 0 1
2.809691 -18.295094 -32.565039 37.457798 -1.418411 2.624741 0.147403 -0.073069 -63228.500000 0 0 1
2.456091 -19.211794 -31.379689 36.875606 -1.443643 2.588608 0.096715 -0.040210 -288866.000000 0 0 1
1.565191 -20.224694 -31.808439 37.726183 -1.493560 2.573892 0.076584 -0.038358 424649.000000 0 0 1
0.869391 -21.081994 -30.855089 37.379712 -1.529581 2.541796 0.082413 -0.045868 714061.000000 0 0 1
-0.116709 -20.368294 -29.898529 36.177383 1.565066 2.543556 0.099221 -0.044226 179862.000000 0 0 1
-1.276809 -19.798394 -30.540169 36.418520 1.506395 2.565484 0.115190 -0.047166 707921.000000 0 0 1
-1.958809 -18.889594 -29.663529 35.221849 1.467468 2.572131 0.152404 -0.035486 333300.000000 0 0 1
-1.588509 -17.404594 -29.968979 34.692693 1.479779 2.613642 0.148512 -0.032845 116312.000000 0 0 1
-2.436809 -16.544694 -29.243639 33.687614 1.424561 2.622123 0.175223 -0.035329 46206.600000 0 0 1
-2.099509 -15.210994 -29.582299 33.330087 1.433637 2.662808 0.192885 -0.037957 656457.000000 0 0 1
-3.231409 -14.252794 -29.083459 32.548913 1.347844 2.675945 0.181201 -0.026976 563571.000000 0 0 1
-3.140609 -13.911594 -27.709679 31.164438 1.348764 2.666268 0.156244 -0.033356 473530.000000 0 0 1
-4.364809 -13.269394 -27.324969 30.688472 1.253007 2.669016 0.149070 -0.035969 536869.000000 0 0 1
-4.545609 -12.814094 -25.871779 29.226914 1.229909 2.657728 0.148570 -0.040437 -513838.000000 0 0 1
-4.796409 -13.871694 -24.983889 28.976269 1.237895 2.610431 0.145708 -0.038734 163023.000000 0 0 1
-4.983209 -13.488894 -23.653689 27.681757 1.216917 2.595358 0.114243 -0.032704 215860.000000 0 0 1
-6.188909 -12.545694 -23.288089 27.166747 1.112516 2.600658 0.100013 -0.029935 393990.000000 0 0 1
-7.422009 -13.121494 -23.699389 28.087735 1.056027 2.575052 0.098149 -0.029730 -176076.000000 0 0 1
-8.477309 -12.202194 -23.560489 27.854173 0.963612 2.578955 0.089140 -0.028149 -575319.000000 0 0 1
-9.843309 -12.746094 -23.927089 28.841970 0.913200 2.549174 0.125603 -0.039843 -464232.000000 0 0 1
-10.318109 -13.753694 -23.061589 28.765680 0.927163 2.500939 0.089669 -0.039496 -116691.000000 0 0 1
-11.566409 -14.300894 -23.425589 29.783479 0.890719 2.475966 0.077746 -0.029026 -80132.000000 0 0 1
-12.112909 -15.368294 -22.530989 29.842126 0.903307 2.426460 0.067651 -0.030624 -746301.000000 0 0 1
-11.321909 -16.503294 -22.579489 30.172465 0.969502 2.416364 0.071683 -0.028080 -552001.000000 0 0 1
-11.959309 -17.655894 -22.045989 30.672158 0.975431 2.372817 0.077699 -0.032409 274622.000000 0 0 1
-12.973409 -18.340494 -22.990689 32.144282 0.955145 2.367755 0.072694 -0.026158 -680031.000000 0 0 1
-14.129109 -17.659194 -23.266089 32.446722 0.895995 2.370364 0.057469 -0.019964 -1292730.000000 0 0 1
-14.939309 -18.489894 -24.057889 33.820721 0.891214 2.362193 0.037163 -0.026001 -483889.000000 0 0 1
-16.147409 -17.814494 -24.679389 34.455294 0.834446 2.369243 0.063806 -0.034023 -857174.000000 0 0 1
-17.063509 -17.352194 -23.721489 33.984865 0.793786 2.343399 0.070141 -0.029108 -974125.000000 0 0 1
-18.111709 -16.910894 -24.520789 34.860887 0.751125 2.350951 0.058735 -0.025684 -798810.000000 0 0 1
-18.790909 -15.651494 -23.990789 34.258218 0.694500 2.346604 0.068666 -0.018829 -436522.000000 0 0 1
-19.624909 -15.826094 -22.899289 34.058475 0.678649 2.308178 0.067993 -0.013497 -273727.000000 0 0 1
-20.283809 -14.622194 -22.592789 33.699786 0.624602 2.305562 0.081437 -0.015032 239123.000000 0 0 1
-20.952909 -14.611194 -21.205589 33.199223 0.608935 2.263653 0.074203 -0.016359 -586883.000000 0 0 1
-19.998809 -14.463994 -20.213389 31.902047 0.626155 2.257004 0.092881 -0.013229 -237110.000000 0 0 1
-20.491909 -14.159494 -18.911189 31.273674 0.604646 2.220185 0.103989 -0.017352 111044.000000 0 0 1
-21.349609 -12.882694 -18.608589 31.113489 0.542927 2.211909 0.099484 -0.028115 74378.400000 0 0 1
-22.628809 -12.883994 -19.201089 32.353394 0.517587 2.206172 0.097946 -0.033545 -88640.500000 0 0 1
-23.432009 -11.926794 -18.585789 32.198432 0.470818 2.186124 0.106342 -0.032468 276624.000000 0 0 1
-24.887809 -11.673694 -19.089189 33.467526 0.438585 2.177764 0.124572 -0.032622 650633.000000 0 0 1
-25.073329 -10.967294 -20.348389 34.102937 0.412334 2.210148 0.106330 -0.032629 327982.000000 0 0 1
-26.441809 -10.604894 -20.474789 35.083472 0.381424 2.193954 0.110467 -0.033145 115495.000000 0 0 1
-26.843289 -9.622794 -21.640489 35.797641 0.344210 2.219963 0.104811 -0.021771 -80535.200000 0 0 1
-26.719749 -10.034394 -22.968289 36.635725 0.359246 2.248412 0.095181 -0.018711 290582.000000 0 0 1
-27.405379 -9.135894 -23.832989 37.450377 0.321776 2.260604 0.077478 -0.023515 -305610.000000 0 0 1
-27.391169 -9.404794 -25.339549 38.481412 0.330739 2.289604 0.067386 -0.015585 -652766.000000 0 0 1
-26.190119 -9.243394 -25.981479 38.031565 0.339287 2.322871 0.056145 -0.027018 -449406.000000 0 0 1
-25.237689 -10.308794 -25.923039 37.619359 0.387785 2.331026 0.055560 -0.007601 440888.000000 0 0 1
-24.313509 -10.499094 -27.185059 37.952670 0.407634 2.369265 0.068563 -0.023150 397766.000000 0 0 1
-24.881109 -11.050394 -28.390159 39.334234 0.417960 2.377148 0.066118 -0.013394 352220.000000 0 0 1
-23.962009 -10.913094 -29.461809 39.512931 0.427363 2.412268 0.072651 -0.012120 390975.000000 0 0 1
-24.651609 -11.211994 -30.818689 41.026848 0.426853 2.420649 0.073483 -0.015480 735980.000000 0 0 1
-25.639459 -10.294794 -31.303249 41.752342 0.381817 2.418460 0.064696 -0.021460 530741.000000 0 0 1
-24.995779 -9.283194 -32.032029 41.677542 0.355602 2.447396 0.057155 -0.023639 -350012.000000 0 0 1
-25.976229 -8.177494 -32.501979 42.403001 0.304985 2.444173 0.053571 -0.024773 144461.000000 0 0 1
-26.948339 -8.423294 -33.513599 43.821526 0.302950 2.441488 0.062142 -0.025889 1607830.000000 0 0 1
-28.077209 -9.242594 -33.100899 44.378201 0.318012 2.412654 0.060335 -0.029762 753182.000000 0 0 1
-29.324469 -8.448394 -32.585609 44.644392 0.280504 2.388961 0.066881 -0.015288 282686.000000 0 0 1
-30.482619 -9.220794 -32.293419 45.355022 0.293743 2.363159 0.075397 -0.021230 365442.000000 0 0 1
-31.191649 -8.672794 -31.234349 44.985785 0.271198 2.338265 0.081124 -0.020377 694874.000000 0 0 1
-32.740479 -8.952494 -31.116059 46.046664 0.266914 2.312779 0.076527 -0.028729 986279.000000 0 0 1
-33.063839 -10.315894 -30.930359 46.436217 0.302429 2.299741 0.069167 -0.024856 598455.000000 0 0 1
-34.470286 -10.378194 -30.674589 47.295221 0.292444 2.276510 0.057630 -0.025075 373931.000000 0 0 1
-35.067014 -11.773994 -30.962029 48.238674 0.323930 2.267706 0.065016 -0.025445 -862355.000000 0 0 1
-36.381629 -11.929694 -30.536789 48.973830 0.316857 2.244050 0.043670 -0.017892 -436355.000000 0 0 1
-36.821419 -13.261194 -30.937059 49.887652 0.345687 2.239711 0.038935 -0.026390 744306.000000 0 0 1
38.072633 -13.648094 -30.279939 50.523960 -0.344205 2.213446 0.053694 -0.028136 638897.000000 0 0 1
-38.086329 -14.019894 -28.944229 49.848714 0.352715 2.190313 0.063195 -0.029104 -16001.300000 0 0 1
38.118773 -15.428294 -28.827679 50.220595 -0.384588 2.182204 0.063879 -0.033861 7602.590000 0 0 1
-37.823819 -15.861894 -27.355569 49.300792 0.397086 2.159004 0.098238 -0.030153 150051.000000 0 0 1
-36.517189 -15.507994 -26.950449 47.961752 0.401597 2.167496 0.078057 -0.032855 1104.790000 0 0 1
-36.328399 -15.687794 -25.538549 47.096464 0.407644 2.143921 0.118866 -0.034198 -563289.000000 0 0 1
-34.964872 -15.137494 -25.204959 45.683432 0.408572 2.155234 0.134967 -0.036351 -617304.000000 0 0 1
-33.824799 -15.937394 -25.411759 45.209236 0.440323 2.167710 0.128819 -0.029849 -464934.000000 0 0 1
-32.726289 -15.354394 -24.760289 43.815971 0.438686 2.171348 0.144755 -0.021439 636225.000000 0 0 1
-31.399529 -16.184094 -25.004989 43.279381 0.475911 2.186775 0.122748 -0.018149 548236.000000 0 0 1
-31.281869 -17.452594 -24.383889 43.332695 0.508899 2.168461 0.140434 -0.030412 -34810.300000 0 0 1
-32.073129 -18.513994 -24.896689 44.623970 0.523518 2.162676 0.128003 -0.033742 -91132.700000 0 0 1
-31.944749 -19.880794 -24.180189 44.725770 0.556691 2.141985 0.128679 -0.037203 425727.000000 0 0 1
-30.671029 -20.515294 -24.274589 44.168371 0.589535 2.152672 0.129454 -0.027033 322081.000000 0 0 1
-30.650109 -21.721094 -23.520889 44.322312 0.616527 2.130197 0.123223 -0.030731 -844124.000000 0 0 1
-29.272379 -22.348294 -23.569889 43.724800 0.652060 2.140106 0.114227 -0.032270 -880001.000000 0 0 1
-28.194799 -21.664094 -23.019189 42.357558 0.655156 2.145337 0.115619 -0.034730 -640539.000000 0 0 1
-28.100299 -21.575794 -21.587489 41.486882 0.654805 2.118051 0.122365 -0.046117 -551146.000000 0 0 1
-28.004979 -22.933894 -20.778189 41.736980 0.686173 2.091899 0.100762 -0.041425 -335344.000000 0 0 1
-28.039199 -22.649094 -19.424089 40.944760 0.679458 2.065076 0.100555 -0.036309 70829.200000 0 0 1
-28.146439 -23.803594 -18.660189 41.316290 0.701996 2.039402 0.094715 0.001491 -27449.800000 0 0 1
-28.343189 -23.435094 -17.165489 40.585638 0.690890 2.007489 0.086742 0.002427 -349989.000000 0 0 1
-29.566359 -22.832394 -16.900289 41.001312 0.657585 1.995652 0.098231 -0.000514 -672269.000000 0 0 1
-29.501419 -22.043394 -15.683389 40.027661 0.641705 1.973398 0.091207 -0.013933 -962684.000000 0 0 1
-30.829719 -21.459694 -15.348989 40.578092 0.608085 1.958710 0.096958 -0.000263 -895160.000000 0 0 1
-31.409399 -20.612594 -16.339089 40.968222 0.580760 1.981030 0.118034 -0.016417 753861.000000 0 0 1
-32.465419 -19.742394 -15.838189 41.165687 0.546358 1.965725 0.117627 -0.016395 637171.000000 0 0 1
-33.229129 -19.052294 -16.983189 41.899805 0.520602 1.988135 0.138138 -0.042423 -252521.000000 0 0 1
-34.266053 -19.824394 -17.553789 43.304786 0.524493 1.988163 0.096085 -0.032345 -262016.000000 0 0 1
-34.734892 -19.162294 -18.713289 43.862210 0.504127 2.011569 0.094239 -0.023778 -65852.200000 0 0 1
-36.129649 -19.705094 -19.178289 45.403183 0.499304 2.006887 0.075133 -0.023781 1555150.000000 0 0 1
-37.359609 -19.592394 -18.449589 46.043345 0.482998 1.983078 0.066192 -0.019304 819246.000000 0 0 1
-37.319409 -20.222494 -17.191589 45.795614 0.496585 1.955623 0.085450 -0.023989 -665478.000000 0 0 1
-37.752269 -21.708294 -17.122189 46.793731 0.521849 1.945404 0.069761 0.009519 159139.000000 0 0 1
37.145183 -22.016494 -17.318489 46.523335 -0.535045 1.952233 0.066350 -0.018599 44380.800000 0 0 1
36.891183 -23.399494 -17.307389 46.989801 -0.565248 1.948000 0.063562 -0.013570 -307032.000000 0 0 1
35.528043 -23.590994 -16.638889 45.778046 -0.586161 1.942785 0.050140 -0.015581 -331554.000000 0 0 1
34.425123 -23.210294 -17.402089 45.018213 -0.593217 1.967691 0.069653 -0.020951 -271456.000000 0 0 1
33.193303 -23.358494 -16.735389 43.903164 -0.613212 1.961878 0.095760 -0.021391 626282.000000 0 0 1
31.896733 -23.571894 -17.561989 43.375791 -0.636428 1.987644 0.102190 -0.036395 510575.000000 0 0 1
31.352663 -22.349594 -18.095389 42.543353 -0.619295 2.010134 0.081016 -0.033215 454222.000000 0 0 1
29.988763 -22.608394 -18.417289 41.828960 -0.645990 2.026729 0.131609 -0.043344 277470.000000 0 0 1
36.772933 29.096106 -17.484189 50.045268 0.669375 1.927692 0.092481 -0.027604 486856.000000 0 0 1
35.918953 29.089706 -18.650689 49.842054 0.680731 1.954326 0.095912 -0.031695 365523.000000 0 0 1
36.587813 28.546706 -19.764789 50.440354 0.662566 1.973432 0.105573 -0.033621 -298845.000000 0 0 1
35.872963 28.652406 -21.107989 50.530951 0.673959 2.001735 0.116275 -0.039046 -225476.000000 0 0 1
34.621993 28.004006 -21.207689 49.322133 0.680114 2.015271 0.107808 -0.031640 112789.000000 0 0 1
33.976173 28.217406 -22.452089 49.544915 0.693067 2.041110 0.112425 -0.024645 527613.000000 0 0 1
32.694613 29.104006 -22.429589 49.184015 0.727362 2.044330 0.115774 -0.027986 82482.100000 0 0 1
33.017663 30.443506 -22.098389 50.053091 0.744858 2.028065 0.113663 -0.031858 253212.000000 0 0 1
31.919373 31.368106 -22.171489 49.943762 0.776688 2.030775 0.129323 -0.029067 -172702.000000 0 0 1
32.210063 32.913806 -22.019389 51.045668 0.796204 2.016803 0.124815 -0.031631 9684.390000 0 0 1
32.743033 33.382406 -20.818689 51.185047 0.795067 1.989672 0.120468 -0.030842 937261.000000 0 0 1
34.137433 33.040306 -20.638589 51.797466 0.769068 1.980620 0.112572 -0.024792 745386.000000 0 0 1
34.589203 33.017806 -19.130389 51.503012 0.762159 1.951358 0.089413 -0.025989 -299646.000000 0 0 1
34.549423 -33.134223 -18.564089 51.343595 -0.764492 1.940743 0.089842 -0.021332 86181.300000 0 0 1
34.460563 -33.154723 -17.142489 50.799911 -0.766088 1.915004 0.067282 -0.028222 -520825.000000 0 0 1
34.463863 -31.679123 -16.651989 49.685143 -0.743321 1.912561 0.069481 -0.007300 262942.000000 0 0 1
35.729483 -31.099423 -16.922589 50.300538 -0.716226 1.913919 0.065467 -0.016324 -306384.000000 0 0 1
36.624973 -31.347323 -15.881689 50.756983 -0.707910 1.889038 0.064814 -0.017827 -121332.000000 0 0 1
37.956553 -30.533823 -16.098289 51.304670 -0.677443 1.889966 0.058812 -0.000527 102921.000000 0 0 1
-37.516529 -31.092323 -17.065589 51.628063 0.692035 1.907681 0.062827 -0.008010 -59095.600000 0 0 1
-36.278349 -30.327023 -17.098989 50.281432 0.696283 1.917783 0.058046 0.003704 934002.000000 0 0 1
-35.265698 -30.945123 -18.088889 50.283974 0.720236 1.938780 0.063302 -0.001623 -1081910.000000 0 0 1
-34.798439 -32.111423 -17.502189 50.481695 0.745261 1.924851 0.065687 -0.013083 118290.000000 0 0 1
-33.915119 -32.880923 -18.333989 50.670757 0.769917 1.941022 0.076543 -0.010868 1298370.000000 0 0 1
-32.487519 -32.273723 -18.630189 49.438002 0.782097 1.957178 0.059684 -0.010575 -355850.000000 0 0 1
-32.466149 -31.187723 -19.490789 49.057270 0.765317 1.979377 0.061272 -0.005240 553571.000000 0 0 1
-31.190109 -30.704323 -19.949789 48.099610 0.777550 1.998475 0.059863 0.002496 803175.000000 0 0 1
-30.298369 -31.629923 -20.844189 48.506942 0.806896 2.014974 0.055957 0.007080 -382466.000000 0 0 1
-30.863479 -32.075123 -22.001189 49.652998 0.804647 2.029849 0.052186 0.012326 39814.000000 0 0 1
-30.199629 -33.331923 -22.397389 50.246171 0.834661 2.032812 0.051694 0.014659 -27180.600000 0 0 1
-30.883659 33.439606 -23.553689 51.252160 -0.825113 2.048301 0.049998 -0.001883 -1204400.000000 0 0 1
-32.137019 32.983406 -23.197689 51.563803 -0.798395 2.037431 0.058866 -0.012945 -911593.000000 0 0 1
-32.617809 32.009606 -24.102689 51.666971 -0.775988 2.056127 0.051960 -0.017104 474875.000000 0 0 1
-33.439319 32.582206 -25.355959 53.129209 -0.772417 2.068320 0.063479 -0.029835 -122562.000000 0 0 1
-32.735249 33.362606 -26.288109 53.625783 -0.794889 2.083132 0.051676 -0.030687 -652425.000000 0 0 1
-33.605969 -33.268923 -26.993959 54.450493 0.780358 2.089497 0.059299 -0.028857 -307868.000000 0 0 1
-33.039769 -32.581823 -28.234779 54.317624 0.778420 2.117423 0.048702 -0.029139 -265267.000000 0 0 1
-33.090449 -33.397723 -29.377279 55.438346 0.790020 2.129290 0.058064 -0.032462 -535553.000000 0 0 1
-34.221364 -33.221523 -30.159679 56.430290 0.770574 2.134664 0.064042 -0.033619 -677339.000000 0 0 1
-34.333998 33.382206 -31.418579 57.274097 -0.771343 2.151444 0.083659 -0.040900 -61355.700000 0 0 1
-33.336719 33.671306 -32.364339 57.380694 -0.790391 2.170052 0.078738 -0.047321 -92457.500000 0 0 1
-33.564089 32.840206 -33.514519 57.690989 -0.774497 2.190669 0.066629 -0.052571 -131988.000000 0 0 1
-32.650239 33.203706 32.545849 56.813347 -0.793802 0.960811 0.094613 -0.055113 1568810.000000 0 0 1
-31.254389 32.837606 32.653190 55.869276 -0.810095 0.946586 0.099849 -0.051946 1078490.000000 0 0 1
-30.999619 31.493106 32.351722 54.767016 -0.793295 0.938851 0.116484 -0.059962 153804.000000 0 0 1
-29.475939 31.164606 32.489375 53.810994 -0.813238 0.922576 0.122444 -0.054843 406841.000000 0 0 1
-29.088289 30.960406 -33.482179 54.090032 -0.816565 2.238276 0.128824 -0.063100 137191.000000 0 0 1
-27.693359 30.742006 -33.366889 53.153949 -0.837522 2.249444 0.135710 -0.056403 260464.000000 0 0 1
-27.027159 29.364806 33.638871 52.195141 -0.826828 0.870450 0.167292 -0.059711 -265959.000000 0 0 1
-27.113629 28.483606 -32.538519 51.041355 -0.810034 2.262037 0.157931 -0.058725 94071.700000 0 0 1
-26.699079 27.248706 -32.961539 50.416226 -0.795586 2.283377 0.157086 -0.052243 -442685.000000 0 0 1
-26.489859 26.240306 -31.783839 48.994680 -0.780666 2.276698 0.161279 -0.052568 176844.000000 0 0 1
-25.308709 26.283406 -30.993859 47.874497 -0.804288 2.274962 0.154798 -0.047277 197077.000000 0 0 1
-25.259989 27.415706 -30.151959 47.946101 -0.826300 2.250898 0.132592 -0.050449 561624.000000 0 0 1
-24.006009 27.458806 -29.175789 46.706543 -0.852388 2.245495 0.151516 -0.044461 982343.000000 0 0 1
-22.827109 27.837706 -29.883759 46.787325 -0.883975 2.263623 0.148318 -0.040492 539872.000000 0 0 1
-21.638709 27.816406 -29.088639 45.696117 -0.909670 2.260835 0.094796 -0.038033 546273.000000 0 0 1
-21.295309 29.103506 -28.309039 45.846547 -0.939104 2.236323 0.072179 -0.024020 -546924.000000 0 0 1
-20.758909 30.161506 -29.089509 46.763749 -0.967994 2.242158 0.074132 -0.016094 235631.000000 0 0 1
-20.509709 31.294506 -28.237259 46.875762 -0.990650 2.217282 0.088999 -0.020988 -64154.000000 0 0 1
-20.166609 32.525106 -29.116429 48.086807 -1.015777 2.221187 0.106468 -0.015968 -473845.000000 0 0 1
-18.869209 32.601506 -29.621019 47.919829 -1.046123 2.237167 0.094407 -0.013144 -649532.000000 0 0 1
-18.678109 33.551406 -30.661879 49.139794 -1.062823 2.244612 0.099780 -0.009134 40501.500000 0 0 1
-17.216509 -33.570523 -31.042539 48.857215 1.096925 2.259287 0.074547 -0.003860 -123130.000000 0 0 1
-16.525109 -32.858623 -29.972619 47.446035 1.104819 2.254567 0.080782 -0.022411 1298650.000000 0 0 1
-15.128709 -32.569623 -30.170189 46.903076 1.135947 2.269526 0.114736 -0.019753 1380220.000000 0 0 1
-14.129209 33.722206 -30.391719 47.544487 -1.174029 2.264289 0.112053 -0.022605 -607912.000000 0 0 1
-14.078709 32.806406 -29.319859 46.196585 -1.165420 2.258385 0.100605 -0.026682 148535.000000 0 0 1
-13.316109 31.615806 -29.553759 45.280267 -1.172161 2.281920 0.087049 -0.022601 160515.000000 0 0 1
-13.278209 30.632306 -28.310419 43.773609 -1.161773 2.274107 0.057500 -0.025298 22959.700000 0 0 1
-12.549409 31.253606 -27.251019 43.323130 -1.188968 2.251085 0.087551 -0.029333 135338.000000 0 0 1
-12.643509 30.493006 -26.069249 42.062899 -1.177736 2.239244 0.064151 -0.035758 -423660.000000 0 0 1
-11.680109 30.847106 -24.942389 41.353254 -1.208834 2.218246 0.101232 -0.040037 559238.000000 0 0 1
-10.361609 30.403306 -25.278969 40.874811 -1.242336 2.237563 0.120851 -0.031527 307914.000000 0 0 1
-9.348109 30.913806 -24.453489 40.509550 -1.277146 2.218865 0.136243 -0.042799 791785.000000 0 0 1
-7.866109 30.639006 -24.872189 40.239907 -1.319489 2.237117 0.146659 -0.052523 410978.000000 0 0 1
-7.498409 29.280306 -24.622589 38.985053 -1.320094 2.254399 0.127032 -0.064040 -390387.000000 0 0 1
-6.197109 29.046506 -25.057489 38.858479 -1.360597 2.271610 0.114719 -0.073306 -607260.000000 0 0 1
-5.432509 27.870506 -24.441589 37.465564 -1.378290 2.281510 0.128372 -0.040999 -91817.900000 0 0 1
-6.048909 26.590606 -24.606189 36.730289 -1.347120 2.304891 0.146111 -0.039219 248336.000000 0 0 1
-5.280609 25.536006 -24.017889 35.451818 -1.366880 2.315127 0.133618 -0.047790 14814.400000 0 0 1
-6.004609 24.181606 -23.943489 34.555695 -1.327406 2.336294 0.142175 -0.042988 -82748.000000 0 0 1
-6.188209 23.481706 -25.129259 34.945158 -1.313122 2.373311 0.129877 -0.041446 -42657.300000 0 0 1
-6.882109 22.291706 -24.952989 34.160434 -1.271350 2.389798 0.113023 -0.048883 13739.000000 0 0 1
-7.277109 21.388006 -26.195359 34.591906 -1.242840 2.429917 0.082951 -0.031860 371632.000000 0 0 1
-6.178309 20.574906 -26.556689 34.157810 -1.279079 2.461430 0.098718 -0.050891 -94851.500000 0 0 1
-6.225009 19.379906 -25.739169 32.815184 -1.259997 2.472472 0.079174 -0.040839 -128856.000000 0 0 1
-5.009509 18.471706 -25.943779 32.239398 -1.305967 2.506005 0.080579 -0.050405 -106572.000000 0 0 1
-4.900309 17.820106 -27.226359 32.906592 -1.302442 2.545229 0.097555 -0.057948 -204604.000000 0 0 1
-3.734909 17.009406 -27.161679 32.264938 -1.354648 2.571466 0.090328 -0.056476 91182.800000 0 0 1
-3.275509 16.682506 -28.592109 33.264751 -1.376919 2.605149 0.099982 -0.047414 -257310.000000 0 0 1
-2.621809 17.689706 -29.310639 34.335304 -1.423656 2.593767 0.118822 -0.054450 -65146.800000 0 0 1
-2.504809 17.464406 -30.703859 35.411954 -1.428344 2.620042 0.120848 -0.054639 -146867.000000 0 0 1
-1.530209 18.531306 -31.274369 36.384571 -1.488409 2.605185 0.132447 -0.046517 -468671.000000 0 0 1
-0.189909 18.268406 -30.921309 35.915151 -1.560401 2.607939 0.156001 -0.057948 280762.000000 0 0 1
0.680091 19.340606 -31.427189 36.907855 1.535647 2.589643 0.167292 -0.041463 853851.000000 0 0 1
0.644691 20.658206 -30.605289 36.930486 1.539599 2.547625 0.148398 -0.036113 -190566.000000 0 0 1
1.302291 20.544006 -29.339819 35.840998 1.507491 2.529784 0.162823 -0.058560 -258227.000000 0 0 1
1.273791 21.853206 -28.788259 36.165577 1.512574 2.491475 0.152126 -0.054689 -180883.000000 0 0 1
2.282791 22.140806 -27.673199 35.513833 1.468056 2.464222 0.168487 -0.057005 588019.000000 0 0 1
3.607191 22.041506 -28.238759 36.003712 1.408580 2.472410 0.148495 -0.051503 553741.000000 0 0 1
4.652191 22.390106 -27.342269 35.644907 1.365932 2.445064 0.142006 -0.053524 253539.000000 0 0 1
5.060991 23.873706 -27.240369 36.573285 1.361899 2.411055 0.153336 -0.055363 -564438.000000 0 0 1
5.844491 24.264506 -28.337749 37.761784 1.334433 2.419516 0.137573 -0.054815 109394.000000 0 0 1
6.227691 25.634106 -28.152379 38.580409 1.332468 2.388689 0.146767 -0.060116 734516.000000 0 0 1
7.277791 26.323306 -29.146719 39.942632 1.301057 2.388701 0.181855 -0.055760 1534590.000000 0 0 1
8.636091 25.839306 -29.075229 39.844959 1.248245 2.388693 0.183450 -0.054424 605226.000000 0 0 1
9.384091 26.654506 -29.918309 41.153725 1.232284 2.384723 0.195517 -0.045468 -35953.200000 0 0 1
10.804091 26.844606 -29.328039 41.200669 1.188164 2.362902 0.172988 -0.044132 -197830.000000 0 0 1
11.808791 27.436806 -30.076869 42.389195 1.164361 2.359643 0.169063 -0.035978 -230925.000000 0 0 1
12.908091 27.811606 -29.274789 42.392422 1.136257 2.333068 0.146991 -0.036233 569498.000000 0 0 1
13.953691 28.725506 -30.004249 43.819118 1.118606 2.325029 0.134424 -0.034155 532873.000000 0 0 1
13.421991 30.066906 -30.073329 44.593427 1.150937 2.310934 0.130700 -0.030173 724795.000000 0 0 1
14.257891 30.929806 -30.862389 45.961151 1.138853 2.307012 0.137240 -0.034645 258936.000000 0 0 1
13.681791 32.345706 -31.097579 46.909439 1.170633 2.295519 0.136996 -0.046797 908664.000000 0 0 1
12.564491 32.506306 -32.015299 47.323416 1.201960 2.313825 0.117789 -0.041179 991380.000000 0 0 1
12.125091 -33.601523 -31.983539 47.948170 -1.224489 2.301030 0.109478 -0.043539 199908.000000 0 0 1
10.960191 -33.210323 -32.932569 48.037542 -1.252027 2.326168 0.077424 -0.035959 205402.000000 0 0 1
11.342291 -33.075823 33.038649 48.106236 -1.240445 0.813739 0.066718 -0.026271 790128.000000 0 0 1
10.183291 -32.707023 32.258783 47.053989 -1.268961 0.815411 0.071995 -0.028783 798692.000000 0 0 1
10.565991 -31.807123 31.035661 45.678720 -1.250076 0.823806 0.085754 -0.032692 -92383.300000 0 0 1
10.394791 -30.439423 31.384464 44.939901 -1.241722 0.797685 0.074065 -0.036581 138354.000000 0 0 1
10.673091 -29.577123 30.248261 43.631163 -1.224483 0.804777 0.095387 -0.036941 -142168.000000 0 0 1
9.938291 -28.213123 30.440721 42.677716 -1.232112 0.776644 0.096643 -0.042163 -528703.000000 0 0 1
8.544591 -28.245423 30.431161 42.389498 -1.277036 0.770024 0.052380 -0.039879 -740725.000000 0 0 1
8.090991 -28.183723 31.780009 43.240668 -1.291234 0.745194 0.055006 -0.035467 396748.000000 0 0 1
6.518291 -28.212023 31.803473 43.010083 -1.343734 0.738555 0.059444 -0.040513 668784.000000 0 0 1
5.794291 -29.407023 31.633586 43.577868 -1.376251 0.758441 0.081652 -0.052308 -120034.000000 0 0 1
5.895491 -30.142223 30.449631 43.249167 -1.377646 0.789710 0.081845 -0.046381 -946608.000000 0 0 1
5.694491 -29.491923 29.098461 41.820105 -1.380057 0.801262 0.069708 -0.052411 106894.000000 0 0 1
4.347191 -29.214023 28.731691 41.205185 -1.423075 0.799196 0.120363 -0.053134 431855.000000 0 0 1
4.268591 -28.666823 27.437561 39.910241 -1.422979 0.812781 0.130548 -0.050922 -1071540.000000 0 0 1
2.863191 -28.530623 26.876721 39.300795 -1.470776 0.817740 0.122446 -0.046895 92594.500000 0 0 1
2.103891 -29.744823 26.497331 39.890969 -1.500183 0.844315 0.157685 -0.059272 922054.000000 0 0 1
1.797391 -30.695923 27.503701 41.254380 -1.512308 0.841043 0.197100 -0.061583 -573418.000000 0 0 1
2.347391 -32.095623 27.019111 42.019896 -1.497789 0.872377 0.208203 -0.055333 440954.000000 0 0 1
3.758091 -32.206523 26.913671 42.139400 -1.454634 0.878012 0.170110 -0.053511 381651.000000 0 0 1
4.289391 -31.982223 25.624531 41.205316 -1.437474 0.899662 0.162124 -0.065578 -290004.000000 0 0 1
5.797491 -31.698023 25.687021 41.209206 -1.389898 0.897800 0.170018 -0.048400 -307959.000000 0 0 1
6.395991 -31.529323 24.433291 40.397929 -1.370654 0.921262 0.143437 -0.059640 782868.000000 0 0 1
7.805191 -31.308023 24.623571 40.588589 -1.326474 0.918941 0.115737 -0.056430 384702.000000 0 0 1
8.605891 -31.277523 23.306541 39.944207 -1.302294 0.947792 0.106188 -0.043739 -626537.000000 0 0 1
9.939291 -30.917523 23.499061 40.086015 -1.259754 0.944416 0.103435 -0.016681 -597302.000000 0 0 1
10.553391 -30.678423 22.269971 39.350874 -1.239476 0.969231 0.109061 -0.033521 -182667.000000 0 0 1
11.677691 -29.637123 22.397361 38.940587 -1.195454 0.957987 0.065340 -0.026401 76555.600000 0 0 1
12.871891 -30.091423 22.991571 39.997396 -1.166591 0.958404 0.077222 -0.018590 280959.000000 0 0 1
13.976891 -29.237423 22.695781 39.563605 -1.124864 0.959838 0.081888 -0.022119 832056.000000 0 0 1
15.314291 -29.563123 23.416051 40.704020 -1.092837 0.957855 0.096646 -0.012352 274214.000000 0 0 1
15.222191 -29.288223 24.796971 41.284439 -1.091484 0.926498 0.092738 -0.015394 466268.000000 0 0 1
16.500691 -29.382623 25.405291 42.202371 -1.059106 0.924809 0.107711 -0.027269 63351.300000 0 0 1
-11.375209 -14.056594 25.337291 31.128147 0.890444 0.619847 0.135345 -0.054367 -179085.000000 0 0 1
-9.981209 -13.936294 25.218911 30.493250 0.949279 0.596988 0.146626 -0.048428 -990542.000000 0 0 1
-9.408609 -14.503294 26.359351 31.522735 0.995320 0.580477 0.157941 -0.053332 1109400.000000 0 0 1
-7.822809 -14.425494 26.211271 30.924456 1.073891 0.559369 0.178069 -0.046489 1234840.000000 0 0 1
-7.267609 -15.308194 25.290521 30.442888 1.127550 0.590337 0.173612 -0.056531 -88378.700000 0 0 1
-7.414609 -14.910094 23.965791 29.182983 1.109321 0.607242 0.183496 -0.063493 -428529.000000 0 0 1
-6.588609 -15.908294 23.018501 28.746043 1.178141 0.642244 0.170130 -0.070701 173674.000000 0 0 1
-7.072009 -17.232894 22.777861 29.424767 1.181375 0.685496 0.199174 -0.069340 -334065.000000 0 0 1
-7.236309 -18.033094 24.012591 30.889500 1.189188 0.680321 0.205714 -0.072197 -242087.000000 0 0 1
-7.985009 -19.376394 23.751351 31.675412 1.179903 0.722983 0.192315 -0.073568 1227150.000000 0 0 1
-9.383309 -19.247094 23.383391 31.706152 1.117184 0.741430 0.166921 -0.065142 836149.000000 0 0 1
-9.927809 -20.514894 23.188251 32.513340 1.120086 0.776755 0.152861 -0.063814 -429380.000000 0 0 1
-11.446609 -20.599994 23.035161 32.954564 1.063617 0.796802 0.114175 -0.054787 -398626.000000 0 0 1
-12.110509 -20.399294 24.275511 33.942541 1.035042 0.773894 0.113190 -0.050194 572697.000000 0 0 1
-13.516109 -20.560894 24.062561 34.415729 0.989258 0.796556 0.091593 -0.035220 797405.000000 0 0 1
-14.499509 -20.191994 25.205361 35.401449 0.948038 0.778473 0.082836 -0.041665 -722339.000000 0 0 1
-14.541809 -21.193694 26.205211 36.706266 0.969434 0.775721 0.073490 -0.035928 149702.000000 0 0 1
-13.620009 -20.921394 27.260751 36.964279 0.993712 0.741452 0.102639 -0.041371 239473.000000 0 0 1
-13.076909 -22.132494 28.050001 38.048067 1.037134 0.741842 0.138115 -0.044612 13388.900000 0 0 1
-14.103109 -22.911194 28.631051 39.288135 1.019017 0.754308 0.081851 -0.039111 -43007.100000 0 0 1
-13.609309 -24.117594 29.205681 40.247279 1.057048 0.758809 0.119692 -0.040057 -413253.000000 0 0 1
-14.530309 -24.713194 30.263271 41.686178 1.039279 0.758340 0.105983 -0.035922 -199604.000000 0 0 1
-14.586609 -24.046294 31.502159 42.230078 1.025534 0.728814 0.144822 -0.040137 -67724.100000 0 0 1
-15.468209 -24.668994 32.399440 43.560859 1.010738 0.732097 0.109664 -0.039673 -181795.000000 0 0 1
-15.238109 -24.072994 -33.490639 43.969670 1.006468 2.436692 0.115597 -0.045477 91028.600000 0 0 1
-15.341909 -22.632794 -33.328889 43.109539 0.975083 2.454543 0.127017 -0.049781 651150.000000 0 0 1
-16.690809 -22.162094 -33.473469 43.476599 0.925299 2.449511 0.113647 -0.046713 640004.000000 0 0 1
-16.919409 -20.649494 -33.212069 42.611143 0.884360 2.464539 0.106964 -0.050443 -29383.800000 0 0 1
-16.818209 -20.244394 -31.848629 41.316133 0.877579 2.450974 0.104274 -0.052465 127276.000000 0 0 1
-17.200809 -18.885094 -31.769369 40.765272 0.832039 2.464383 0.091361 -0.049820 -97793.900000 0 0 1
-17.160509 -18.426594 -30.340109 39.427714 0.820960 2.448873 0.090323 -0.040611 458849.000000 0 0 1
-18.211809 -19.056894 -29.573389 39.615913 0.808070 2.413587 0.086442 -0.037413 616999.000000 0 0 1
-18.173109 -18.752794 -28.192199 38.428235 0.801095 2.394448 0.070299 -0.038619 61324.600000 0 0 1
-17.288609 -19.799994 -27.483329 38.029846 0.853008 2.378465 0.070225 -0.029573 -149122.000000 0 0 1
-15.907109 -19.732794 -27.700399 37.546390 0.892331 2.400549 0.069057 -0.036479 -454354.000000 0 0 1
-15.258809 -20.858494 -27.127139 37.467182 0.939215 2.380415 0.060954 -0.031927 563628.000000 0 0 1
-13.718909 -20.873094 -27.345559 37.036119 0.989339 2.401414 0.155933 -0.037727 176736.000000 0 0 1
-12.982409 -19.880294 -26.624999 35.674355 0.992295 2.413334 0.152694 -0.050853 969279.000000 0 0 1
-11.565309 -20.025494 -26.812089 35.407131 1.047063 2.429890 0.142724 -0.064724 783174.000000 0 0 1
-10.808509 -21.016994 -25.941079 35.092414 1.095794 2.402711 0.182883 -0.064933 -853717.000000 0 0 1
-10.928909 -22.361794 -26.332759 36.234032 1.116204 2.384362 0.202440 -0.061495 123512.000000 0 0 1
-10.487609 -23.182594 -25.247179 35.844702 1.145955 2.352302 0.241916 -0.059901 168196.000000 0 0 1
-10.518009 -24.687494 -25.554579 37.055869 1.168040 2.331765 0.226032 -0.052557 203109.000000 0 0 1
-9.601009 -25.036674 -26.588939 37.762231 1.204614 2.351972 0.236021 -0.050961 210711.000000 0 0 1
-9.866109 -26.331394 -27.156069 39.091361 1.212298 2.338774 0.236360 -0.046178 -85686.800000 0 0 1
-9.804309 -27.607924 -26.204059 39.306166 1.229562 2.300522 0.258519 -0.043578 1492.140000 0 0 1
-10.876809 -27.747294 -25.286079 39.084564 1.197210 2.274385 0.200551 -0.042463 143140.000000 0 0 1
-10.772509 -28.984034 -24.572889 39.496178 1.214948 2.242293 0.195432 -0.049710 174182.000000 0 0 1
-11.783909 -28.951604 -23.384789 39.037216 1.184252 2.213096 0.176752 -0.052507 105145.000000 0 0 1
-11.475809 -27.981534 -22.390689 37.629821 1.181596 2.208093 0.191943 -0.056954 159194.000000 0 0 1
-12.240009 -26.789664 -22.577689 37.111400 1.142225 2.224809 0.155093 -0.045419 -25113.000000 0 0 1
-11.939909 -25.665494 -21.632589 35.626506 1.135364 2.223334 0.191018 -0.050508 -102621.000000 0 0 1
-12.256909 -25.945024 -20.270789 35.132335 1.129456 2.185827 0.140578 -0.039975 94595.800000 0 0 1
-12.565109 -24.892194 -19.420989 33.980555 1.103331 2.179168 0.136800 -0.029329 -460059.000000 0 0 1
-13.171009 -25.324334 -18.111689 33.805779 1.091204 2.136201 0.170891 -0.037476 404184.000000 0 0 1
-14.560509 -25.635864 -18.262889 34.680529 1.054258 2.125397 0.189416 -0.044103 593697.000000 0 0 1
-15.109909 -26.104614 -17.028689 34.637213 1.046095 2.084757 0.180323 -0.041041 351427.000000 0 0 1
-16.655809 -26.087914 -17.005089 35.315270 1.002584 2.073187 0.180070 -0.046636 -344674.000000 0 0 1
-17.376309 -24.836594 -16.959889 34.733707 0.960322 2.080918 0.159120 -0.041121 1539030.000000 0 0 1
-18.772009 -24.916894 -16.568189 35.323432 0.925132 2.059003 0.168853 -0.036735 1886510.000000 0 0 1
-19.760309 -25.700094 -17.528689 36.854031 0.915321 2.066470 0.149851 -0.030848 -514456.000000 0 0 1
-19.584209 -27.132544 -17.641989 37.827979 0.945590 2.055984 0.149306 -0.035325 -200733.000000 0 0 1
-19.799709 -27.922794 -16.478689 37.990237 0.953997 2.019459 0.148628 -0.034570 -541522.000000 0 0 1
-21.241909 -28.259764 -16.049689 38.825578 0.926230 1.996958 0.146668 -0.022302 -66687.800000 0 0 1
-21.797509 -29.045034 -17.080889 40.131063 0.926993 2.010452 0.119144 -0.022229 -22211.900000 0 0 1
-23.125809 -29.389664 -16.703989 40.958255 0.904114 1.990872 0.125855 -0.016852 780217.000000 0 0 1
-23.969509 -30.270374 -17.723989 42.484970 0.901046 2.001139 0.092135 -0.022701 385056.000000 0 0 1
-23.579509 -31.635894 -17.698189 43.244063 0.930284 1.992442 0.098610 -0.025502 -170936.000000 0 0 1
-24.009209 -32.305314 -18.856089 44.448032 0.931663 2.008905 0.060378 0.002959 -30532.700000 0 0 1
-23.562009 33.702925 -18.991289 45.295965 -0.960669 2.003439 0.049647 -0.000286 159873.000000 0 0 1
-24.212209 32.765807 -18.162689 44.606193 -0.934406 1.990159 0.051070 0.000232 791010.000000 0 0 1
-23.213709 31.780070 -17.776089 43.183775 -0.939926 1.995047 0.057211 -0.006031 882630.000000 0 0 1
-23.896809 30.415875 -17.526989 42.466201 -0.904855 1.996243 0.067597 -0.016710 740450.000000 0 0 1
-24.583909 30.388105 -16.210089 42.315156 -0.890593 1.963925 0.067071 -0.020325 375056.000000 0 0 1
-25.302469 29.200275 -15.984989 41.813764 -0.856792 1.963070 0.066840 -0.016151 -51710.200000 0 0 1
-24.428409 27.949015 -15.724789 40.313318 -0.852513 1.971498 0.056834 -0.024136 249982.000000 0 0 1
-23.775909 27.342325 -16.863389 39.965866 -0.855053 2.006386 0.036046 -0.012324 99156.700000 0 0 1
-23.207109 26.072965 -16.547089 38.628688 -0.843487 2.013476 0.038251 -0.014475 140054.000000 0 0 1
-22.384909 25.608205 -17.798789 38.388295 -0.852459 2.052908 0.045824 -0.011735 -527439.000000 0 0 1
-22.158909 24.221255 -17.859089 37.371560 -0.829835 2.069035 0.066481 -0.023504 111241.000000 0 0 1
-21.553709 23.659725 -19.045789 37.243617 -0.831944 2.107591 0.061796 -0.020145 -974372.000000 0 0 1
-20.146709 24.115105 -19.319089 36.887062 -0.874816 2.122027 0.054821 -0.029514 -2125570.000000 0 0 1
-19.315309 23.562345 -18.309189 35.545628 -0.884126 2.111909 0.087588 -0.036193 -729969.000000 0 0 1
-18.055209 24.137735 -18.345389 35.287025 -0.928572 2.117519 0.110913 -0.048509 -738202.000000 0 0 1
-17.952409 25.373975 -17.436689 35.639384 -0.955046 2.082030 0.138148 -0.043194 -611212.000000 0 0 1
-18.710609 26.483325 -17.830489 37.005131 -0.955718 2.073548 0.100721 -0.037374 -48427.900000 0 0 1
-18.376009 27.642485 -17.059989 37.320609 -0.984105 2.045550 0.115444 -0.040546 350536.000000 0 0 1
-19.469809 28.779345 -17.223489 38.781087 -0.976003 2.030989 0.077239 -0.027593 626196.000000 0 0 1
-19.566009 29.393465 -18.474889 39.851298 -0.983492 2.052845 0.082548 -0.029375 165499.000000 0 0 1
-20.145409 28.628395 -19.510389 40.075900 -0.957601 2.079260 0.060904 -0.019621 -398178.000000 0 0 1
-20.312109 29.361435 -20.859489 41.349654 -0.965598 2.099560 0.062778 -0.023061 -108699.000000 0 0 1
-21.256909 30.395425 -20.856589 42.552736 -0.960510 2.083041 0.068047 -0.019127 25258.300000 0 0 1
-21.864109 30.601465 -22.097089 43.620755 -0.950419 2.102002 0.070904 -0.023729 4349.370000 0 0 1
-22.831209 31.770928 -22.183789 44.975287 -0.947683 2.086611 0.070360 -0.026036 -185891.000000 0 0 1
-22.020609 32.938577 -22.090289 45.363398 -0.981501 2.079405 0.047342 -0.023757 445589.000000 0 0 1
-22.147309 -33.568884 -23.201489 46.429327 0.987593 2.094067 0.080599 -0.012116 -1086510.000000 0 0 1
-21.006809 -32.588374 -23.411789 45.292384 0.998219 2.114026 0.088083 -0.015626 -460736.000000 0 0 1
-20.807609 -31.841884 -22.266089 44.075400 0.991988 2.100389 0.098528 -0.019260 -167631.000000 0 0 1
-19.640309 -32.318404 -21.652489 43.578105 1.024725 2.090780 0.112392 -0.031646 -690451.000000 0 0 1
-19.373309 -31.532344 -20.323189 42.221391 1.019860 2.072988 0.132472 -0.035842 -257723.000000 0 0 1
-18.806609 -30.280354 -20.545789 41.142652 1.015019 2.093679 0.145400 -0.038613 -76755.900000 0 0 1
-18.408009 -29.723684 -19.302589 39.936727 1.016303 2.075250 0.131908 -0.031008 554363.000000 0 0 1
-17.062009 -28.949644 -19.397589 38.800264 1.038231 2.094319 0.135000 -0.032305 869203.000000 0 0 1
-15.837809 -29.605074 -19.690389 38.923104 1.079566 2.101197 0.137001 -0.037737 513261.000000 0 0 1
-14.759109 -28.665524 -19.788389 37.830199 1.095321 2.121262 0.130198 -0.042062 -364126.000000 0 0 1
-13.430809 -29.373474 -20.022289 38.001048 1.141936 2.125731 0.206755 -0.057327 -140064.000000 0 0 1
-12.737309 -30.117234 -18.965389 37.801757 1.170685 2.096367 0.207707 -0.055432 620681.000000 0 0 1
-12.112709 -29.228554 -18.042689 36.422036 1.177927 2.089067 0.165647 -0.044836 -698403.000000 0 0 1
-11.339209 -30.051044 -17.021889 36.350896 1.209983 2.058124 0.168599 -0.032189 -474184.000000 0 0 1
-12.059709 -30.744124 -16.018689 36.704716 1.196980 2.022413 0.200125 -0.042317 -48997.900000 0 0 1
-12.162809 -32.129394 -16.262089 38.009044 1.208911 2.012907 0.215254 -0.036115 -172739.000000 0 0 1
-12.977109 -32.848724 -15.191789 38.447815 1.194559 1.977003 0.196742 -0.038344 -35180.900000 0 0 1
-12.289609 -32.951424 -13.953289 37.835501 1.213814 1.948501 0.187219 -0.043163 93504.100000 0 0 1
-13.108509 -33.532064 -12.974289 38.269629 1.198138 1.916675 0.171343 -0.042844 136959.000000 0 0 1
-12.286909 33.594595 -11.678589 37.629169 -1.220168 1.886368 0.151847 -0.032366 226604.000000 0 0 1
-11.896709 -32.650094 -11.141189 36.492279 1.221378 1.881053 0.135692 -0.027430 -41524.000000 0 0 1
-11.382709 -32.745974 -9.831489 36.035026 1.236256 1.847131 0.150082 -0.032205 -263078.000000 0 0 1
-10.031609 -32.054564 -9.590689 34.930067 1.267498 1.848937 0.131231 -0.030839 309514.000000 0 0 1
-8.967609 -32.827034 -10.134489 35.506902 1.304125 1.860244 0.086306 -0.038227 -490603.000000 0 0 1
-7.698209 -32.313834 -9.868489 34.653043 1.336923 1.859573 0.066308 -0.036232 454481.000000 0 0 1
-6.533709 -33.230014 -10.448589 35.441448 1.376652 1.870056 0.062675 -0.051055 954636.000000 0 0 1
-6.078009 33.113846 -9.626089 35.016147 -1.389268 1.849286 0.061079 -0.026174 313023.000000 0 0 1
-4.904809 32.526954 -10.178189 34.433348 -1.421132 1.870870 0.079315 -0.024900 210747.000000 0 0 1
-4.115109 31.697389 -9.184189 33.256697 -1.441694 1.850593 0.089449 -0.032691 -376649.000000 0 0 1
-3.596809 32.392625 -8.126689 33.589615 -1.460211 1.815162 0.103142 -0.037011 -206604.000000 0 0 1
-3.215909 31.457115 -7.083589 32.404774 -1.468919 1.791173 0.100133 -0.048177 125090.000000 0 0 1
-2.784409 32.163089 -5.779789 32.796694 -1.484440 1.747952 0.109253 -0.044424 488379.000000 0 0 1
-1.545709 32.895384 -5.896589 33.455422 -1.523842 1.747974 0.088563 -0.045186 619216.000000 0 0 1
-1.262909 33.335792 -4.577089 33.672239 -1.532930 1.707149 0.095408 -0.046505 -313007.000000 0 0 1
-0.132309 32.635746 -3.823789 32.859257 -1.566742 1.687429 0.090734 -0.043704 -756242.000000 0 0 1
1.133391 32.927915 -4.370689 33.236051 1.536390 1.702683 0.087606 -0.040099 -296872.000000 0 0 1
2.116391 32.188776 -3.673189 32.466732 1.505141 1.684176 0.087492 -0.032526 531988.000000 0 0 1
3.557491 32.353191 -4.255689 32.825228 1.461278 1.700809 0.092437 -0.023651 468631.000000 0 0 1
4.180591 33.565485 -3.932689 34.052682 1.446884 1.686543 0.089211 -0.028402 -1503900.000000 0 0 1
5.545591 33.452727 -3.956489 34.139307 1.406516 1.686950 0.087814 -0.023162 -1029380.000000 0 0 1
6.212091 -32.749284 -3.328989 33.499073 -1.383337 1.670336 0.087400 -0.023774 -50948.300000 0 0 1
6.270291 -31.615594 -4.224689 32.507082 -1.375008 1.701127 0.092993 -0.027640 -229091.000000 0 0 1
6.780291 -30.463874 -3.618289 31.418339 -1.351798 1.686217 0.076888 -0.029439 3951.730000 0 0 1
6.744291 -29.216924 -4.477989 30.317759 -1.343935 1.719041 0.080323 -0.029827 -277785.000000 0 0 1
7.688791 -29.185734 -5.508489 30.680092 -1.313206 1.751321 0.097603 -0.035720 -404595.000000 0 0 1
7.482991 -28.131814 -6.470289 29.820442 -1.310819 1.789511 0.086906 -0.029085 71708.800000 0 0 1
7.936091 -26.703024 -5.998489 28.495875 -1.281912 1.782887 0.080398 -0.023880 122374.000000 0 0 1
7.088191 -26.147424 -5.010389 27.550576 -1.306073 1.753676 0.066516 -0.025008 -338989.000000 0 0 1
7.415591 -24.863994 -4.563789 26.344589 -1.280949 1.744909 0.056284 -0.030070 84933.500000 0 0 1
6.585691 -24.387194 -3.294389 25.474685 -1.307041 1.700480 0.058042 -0.030409 59526.200000 0 0 1
5.280991 -24.061994 -3.663689 24.905643 -1.354747 1.718435 0.063466 -0.037685 -834925.000000 0 1 0
4.562891 -23.503894 -2.589089 24.082284 -1.379048 1.678515 0.079833 -0.040540 -242314.000000 0 1 0
3.259691 -22.837994 -3.022889 23.266659 -1.429023 1.701088 0.091593 -0.043912 -237794.000000 0 1 0
2.286491 -23.750194 -3.498989 24.115196 -1.474820 1.716405 0.099141 -0.035092 -238928.000000 0 1 0
1.154491 -23.052394 -3.986089 23.422951 -1.520757 1.741807 0.109320 -0.035571 468015.000000 0 1 0
-15.700809 23.247206 17.904311 33.279308 -0.976782 1.002732 0.027851 -0.019712 -139514.000000 0 0 1
-15.791709 22.685106 19.211111 33.660940 -0.962675 0.963409 0.043597 -0.022146 350918.000000 0 0 1
-15.668309 23.608606 20.203511 34.800058 -0.984872 0.951380 0.061739 -0.028139 -1129710.000000 0 0 1
-15.763209 22.973206 21.623911 35.268122 -0.969422 0.910781 0.078748 -0.025712 20865.900000 0 0 1
-14.735509 22.061806 22.044411 34.493688 -0.981927 0.877488 0.068790 -0.019778 -104767.000000 0 0 1
-13.441209 22.560206 22.120711 34.335912 -1.033476 0.870762 0.059085 -0.026732 -1193980.000000 0 0 1
-13.049209 23.598406 23.204031 35.575183 -1.065676 0.860243 0.078860 -0.033649 -638936.000000 0 0 1
-12.784509 22.987306 24.446291 35.909345 -1.063240 0.821972 0.064337 -0.024325 82686.400000 0 0 1
-12.520609 23.932406 25.483591 37.134069 -1.088789 0.814463 0.093646 -0.038280 -13661.600000 0 0 1
-11.913809 23.313606 26.798161 37.464710 -1.098369 0.773756 0.088827 -0.034269 1147770.000000 0 0 1
-10.501509 23.049706 26.646211 36.763993 -1.143293 0.760065 0.054456 -0.028817 513281.000000 0 0 1
-10.030909 22.400706 27.755441 37.050982 -1.149778 0.724071 0.040757 -0.030225 -1362950.000000 0 0 1
-8.532009 22.190106 27.745911 36.538083 -1.203726 0.708453 0.036044 -0.032259 -789899.000000 0 0 1
-7.723809 23.298806 28.025631 37.254900 -1.250687 0.719300 0.037008 -0.028144 -227251.000000 0 0 1
-7.692209 24.398506 27.081101 37.253767 -1.265386 0.756947 0.041841 -0.025510 -667498.000000 0 0 1
-6.576809 25.449906 27.363531 37.943576 -1.317907 0.765316 0.037910 -0.027503 670592.000000 0 0 1
-5.279709 24.849206 27.402081 37.366193 -1.361440 0.747576 0.036315 -0.020785 86465.900000 0 0 1
-4.263009 25.815406 27.511581 37.967032 -1.407139 0.760317 0.054555 -0.014539 -132194.000000 0 0 1
-2.847909 25.240506 27.576981 37.492447 -1.458441 0.744341 0.059541 -0.017720 -410115.000000 0 0 1
-2.261409 24.897406 26.361101 36.330461 -1.480216 0.758902 0.070590 -0.022940 -86729.000000 0 0 1
-0.898909 24.531806 26.508271 36.129018 -1.534170 0.747028 0.107364 -0.015327 438845.000000 0 0 1
-0.285909 24.228706 25.100091 34.887340 -1.558996 0.767770 0.115065 -0.024478 -63583.600000 0 0 1
-0.754909 23.067006 24.489961 33.651372 -1.538081 0.755753 0.105782 -0.022095 15183.000000 0 0 1
-0.112009 22.882906 23.211511 32.594695 -1.565901 0.778275 0.105664 -0.026454 317368.000000 0 0 1
-0.548409 21.589006 22.550391 31.223485 -1.545400 0.763782 0.090483 -0.024945 9538.640000 0 0 1
0.090691 20.472806 23.114321 30.877432 1.566367 0.724874 0.103898 -0.025437 -254642.000000 0 0 1
-0.107309 19.283906 22.410231 29.565165 -1.565232 0.710564 0.100018 -0.025348 -570225.000000 0 0 1
0.991991 18.266906 22.593461 29.071091 1.516544 0.680625 0.112528 -0.016068 -390325.000000 0 0 1
2.226291 18.654106 22.020611 28.945454 1.452012 0.706309 0.108800 -0.022677 175646.000000 0 0 1
3.106591 17.501706 21.985211 28.272073 1.395124 0.679909 0.101552 -0.025698 668506.000000 0 0 1
4.501191 17.822906 21.383411 28.198705 1.323418 0.710077 0.101351 -0.026035 745285.000000 0 0 1
5.434391 18.463106 22.272231 29.435882 1.284542 0.712645 0.104641 -0.015635 192432.000000 0 0 1
6.710691 18.688506 21.722711 29.430763 1.226054 0.740553 0.117310 -0.026019 97788.000000 0 0 1
7.825591 19.066106 22.735241 30.686274 1.181318 0.736398 0.136035 -0.031702 -311983.000000 0 0 1
7.683591 20.223206 23.572511 31.994982 1.207702 0.742536 0.125246 -0.027568 31575.500000 0 0 1
7.417691 21.446006 22.873351 32.220234 1.237799 0.781431 0.132107 -0.032119 -621662.000000 0 0 1
6.046591 22.032306 23.207851 32.566672 1.302949 0.777562 0.102607 -0.018499 -455586.000000 0 0 1
5.777491 23.084506 22.345161 32.643223 1.325558 0.816842 0.094538 -0.023400 -400058.000000 0 0 1
4.596991 23.751806 22.679681 33.160949 1.379617 0.817664 0.079469 -0.024982 -523965.000000 0 0 1
4.525891 25.235706 22.107311 33.853474 1.393338 0.859219 0.084234 -0.018403 -29492.200000 0 0 1
4.235991 25.419106 20.773411 33.099987 1.405668 0.892335 0.091013 -0.017875 -5797.570000 0 0 1
2.866891 25.223906 20.475911 32.614834 1.457624 0.892060 0.099322 -0.026972 -133227.000000 0 0 1
2.618691 25.646606 18.994011 32.021530 1.469042 0.935813 0.101380 -0.026913 -400275.000000 0 0 1
2.257591 27.019806 18.810511 33.000029 1.487437 0.964272 0.124385 -0.032922 114332.000000 0 0 1
1.615091 27.233406 17.604911 32.468443 1.511560 0.997724 0.131915 -0.027090 525557.000000 0 0 1
0.627691 28.492906 17.708911 33.553617 1.548770 1.014812 0.132966 -0.011866 999963.000000 0 0 1
1.333391 29.741406 17.729211 34.650455 1.525994 1.033682 0.154022 -0.022592 85111.000000 0 0 1
0.421191 30.750406 17.950711 35.608887 1.557100 1.042448 0.130236 -0.023004 -33717.900000 0 0 1
1.122391 32.040706 18.486011 37.008096 1.535780 1.047760 0.149709 -0.018997 -73809.000000 0 0 1
1.596291 31.915706 19.780211 37.582139 1.520822 1.016530 0.177810 -0.025299 -14379.300000 0 0 1
2.242491 33.148706 20.120411 38.841941 1.503250 1.026277 0.199416 -0.029495 -95305.400000 0 0 1
2.617291 33.128106 21.628611 39.649948 1.491955 0.993824 0.196594 -0.053038 -11383.200000 0 0 1
1.474691 33.238106 22.456931 40.140505 1.526458 0.977064 0.203186 -0.038634 -98480.600000 0 0 1
1.743591 32.913306 23.831041 40.672402 1.517871 0.944773 0.200343 -0.055984 111365.000000 0 0 1
0.464091 32.554306 24.627351 40.822844 1.556541 0.923197 0.195085 -0.029346 909984.000000 0 0 1
-0.558909 33.575806 24.860361 41.781391 -1.554152 0.933518 0.202315 -0.030480 1180110.000000 0 0 1
-1.501909 33.228006 25.864961 42.134930 -1.525627 0.909855 0.215222 -0.034548 -30638.200000 0 0 1
-1.044509 33.388806 27.330661 43.160959 -1.539523 0.885081 0.222441 -0.044377 -243473.000000 0 0 1
-0.022109 32.476006 27.732641 42.705864 -1.570116 0.864018 0.209590 -0.050285 396412.000000 0 0 1
0.308391 32.722906 29.098461 43.790456 1.561372 0.843981 0.198861 -0.056242 -1364440.000000 0 0 1
1.376291 31.843606 29.671551 43.546645 1.527603 0.821158 0.162061 -0.048431 -603323.000000 0 0 1
2.635891 31.967906 29.037181 43.267225 1.488528 0.835088 0.134319 -0.047495 209627.000000 0 0 1
2.862791 31.256906 27.816331 41.939695 1.479462 0.845649 0.139607 -0.049850 -505308.000000 0 0 1
4.373891 31.127506 27.528001 41.783290 1.431195 0.851537 0.115460 -0.044028 81186.000000 0 0 1
5.110291 30.195906 28.274401 41.681525 1.403147 0.825290 0.112939 -0.034534 -842532.000000 0 0 1
6.440991 30.223206 27.883411 41.622267 1.360823 0.836701 0.117334 -0.040780 -1033050.000000 0 0 1
7.270391 29.168506 28.605861 41.496453 1.326519 0.810196 0.123621 -0.023197 -222611.000000 0 0 1
7.387191 29.306606 29.962001 42.557834 1.323874 0.789740 0.132037 -0.035921 -8074.730000 0 0 1
7.968591 28.179406 30.555231 42.322565 1.295211 0.764164 0.124588 -0.030278 -3975.090000 0 0 1
7.945191 28.277006 32.105327 43.513988 1.296882 0.740967 0.145850 -0.039249 106891.000000 0 0 1
6.616591 28.211506 32.604637 43.620301 1.340425 0.726559 0.159767 -0.040970 82249.500000 0 0 1
6.316891 28.118506 -33.290639 44.032035 1.349813 2.428061 0.173242 -0.037540 -69479.600000 0 0 1
6.402291 26.638306 -32.925579 42.833193 1.334928 2.447592 0.174673 -0.035811 -335781.000000 0 0 1
7.663991 26.048206 -33.076119 42.793404 1.284648 2.454236 0.156767 -0.037522 -248035.000000 0 0 1
7.560891 24.684806 -32.685679 41.651654 1.273572 2.473071 0.160284 -0.039482 856000.000000 0 0 1
8.991591 24.050306 -32.638939 41.527897 1.213020 2.475031 0.176164 -0.039169 779932.000000 0 0 1
9.767591 23.945706 33.464671 42.292870 1.183493 0.657929 0.147258 -0.022591 2049290.000000 0 0 1
11.082891 23.293106 33.532211 42.306127 1.126694 0.655720 0.154172 -0.039296 1594780.000000 0 0 1
11.081591 21.782306 -33.433579 41.413460 1.100179 2.510379 0.165728 -0.044057 -663101.000000 0 0 1
10.560491 20.970206 32.797801 40.335707 1.104277 0.621303 0.156820 -0.045655 275179.000000 0 0 1
10.254891 19.633806 33.163900 39.880990 1.089462 0.588865 0.155192 -0.043129 660886.000000 0 0 1
8.847691 19.396806 -33.494389 39.703801 1.142847 2.574761 0.173211 -0.047703 429148.000000 0 0 1
8.815291 20.022106 -32.235999 38.958358 1.156057 2.545343 0.186827 -0.050744 682145.000000 0 0 1
7.467191 20.384406 -31.903089 38.588729 1.219658 2.544096 0.201411 -0.055803 586580.000000 0 0 1
7.352091 20.938606 -30.461409 37.687874 1.233119 2.511979 0.213120 -0.063945 -85648.900000 0 0 1
8.352591 21.907206 -30.298589 38.310520 1.206539 2.483023 0.217633 -0.056339 -95795.700000 0 0 1
8.470391 22.370106 -28.982459 37.578612 1.208831 2.451597 0.181939 -0.053627 -379692.000000 0 0 1
9.924291 22.639506 -28.573279 37.781888 1.157663 2.428388 0.195896 -0.058046 -207062.000000 0 0 1
10.662991 21.507206 -28.313529 37.120280 1.110525 2.438353 0.206258 -0.054271 -746699.000000 0 0 1
12.056391 21.647206 -28.275509 37.596043 1.062634 2.422020 0.217429 -0.056862 157835.000000 0 0 1
12.787491 20.312206 -27.958979 36.848475 1.008934 2.432197 0.216977 -0.058585 10657.500000 0 0 1
12.822191 19.340106 -28.993979 37.136223 0.985347 2.466656 0.219004 -0.059827 -710769.000000 0 0 1
11.613791 18.793506 -29.402299 36.777319 1.017269 2.497206 0.225379 -0.057213 -966750.000000 0 0 1
11.688991 17.881206 -30.670769 37.377347 0.991823 2.533206 0.220168 -0.061801 -141816.000000 0 0 1
12.323091 16.611306 -30.451219 36.811286 0.932532 2.544947 0.205889 -0.058628 317020.000000 0 0 1
12.327391 15.580006 -31.469689 37.216159 0.901425 2.578470 0.191514 -0.055355 605277.000000 0 0 1
13.611291 15.645306 -32.401239 38.469249 0.854810 2.572265 0.164476 -0.042063 686825.000000 0 0 1
13.746191 16.929306 -32.967689 39.527556 0.888795 2.557193 0.165668 -0.052337 -72493.400000 0 0 1
14.417891 16.923106 33.083436 39.859513 0.865163 0.591687 0.165108 -0.051571 93234.300000 0 0 1
13.583991 16.450806 31.856448 38.340411 0.880560 0.590101 0.164998 -0.045925 -313108.000000 0 0 1
13.939991 17.110906 30.619301 37.744510 0.887165 0.624552 0.161923 -0.050736 -64130.100000 0 0 1
13.165691 16.836806 29.480971 36.413474 0.907153 0.627297 0.151956 -0.042969 511304.000000 0 0 1
11.677491 17.293706 29.431321 36.078230 0.976878 0.616747 0.136866 -0.040955 297392.000000 0 0 1
10.769991 16.628106 30.263871 36.171653 0.996041 0.579615 0.137722 -0.037938 -405688.000000 0 0 1
9.513491 17.270706 30.182221 36.052049 1.067304 0.578681 0.140724 -0.037669 363776.000000 0 0 1
8.427391 16.533406 31.025961 36.152243 1.099404 0.539038 0.164133 -0.047380 252790.000000 0 0 1
8.769491 16.477406 32.420776 37.410100 1.081712 0.522385 0.171626 -0.044392 132187.000000 0 0 1
8.115091 15.420206 33.122093 37.426067 1.086359 0.484301 0.188027 -0.055098 -9953.550000 0 0 1
8.004191 15.774406 -32.633329 37.119174 1.101233 2.644872 0.180362 -0.055908 543510.000000 0 0 1
6.869891 16.589506 -32.278519 36.936566 1.178185 2.633945 0.172411 -0.059431 569792.000000 0 0 1
6.868291 16.774006 -30.865249 35.793914 1.182161 2.610599 0.181141 -0.067515 -289146.000000 0 0 1
5.694891 17.549006 -30.258989 35.440172 1.257004 2.594047 0.170772 -0.068771 -1284120.000000 0 0 1
5.720391 17.704806 -28.831509 34.313830 1.258285 2.568504 0.162231 -0.076140 424283.000000 0 0 1
4.731291 18.632306 -28.349099 34.252290 1.322123 2.545714 0.161685 -0.074387 752613.000000 0 0 1
3.261491 18.182306 -28.498849 33.962007 1.393307 2.566495 0.169523 -0.072113 -1306990.000000 0 0 1
2.712791 17.322906 -27.520929 32.631945 1.415457 2.574328 0.175051 -0.068017 239387.000000 0 0 1
1.358091 16.927706 -27.673759 32.468886 1.490739 2.591194 0.162131 -0.065055 755489.000000 0 0 1
0.276691 18.047806 -27.527369 32.917410 1.555467 2.561215 0.149451 -0.065002 -471814.000000 0 0 1
-0.186409 18.330106 -26.178129 31.958128 -1.560627 2.530704 0.141233 -0.060112 -46454.700000 0 0 1
-0.769409 19.584006 -26.076139 32.620397 -1.531529 2.497061 0.140255 -0.051116 -257652.000000 0 0 1
-1.165609 20.046506 -24.694789 31.828503 -1.512716 2.458890 0.134230 -0.059776 35203.500000 0 0 1
-2.282309 19.416206 -24.102789 31.034536 -1.453787 2.460117 0.113282 -0.047649 -9505.050000 0 0 1
-2.607709 19.789406 -22.768089 30.278814 -1.439778 2.421808 0.096874 -0.043742 -303416.000000 0 0 1
-3.764609 18.994106 -22.192589 29.452663 -1.375133 2.424166 0.069121 -0.030543 943295.000000 0 0 1
-5.098709 19.393606 -22.628389 30.234959 -1.313708 2.416470 0.086349 -0.025695 1109020.000000 0 0 1
-6.064309 18.500406 -22.079189 29.436906 -1.254040 2.418936 0.080962 -0.026315 46842.000000 0 0 1
-7.478609 19.070206 -21.936089 30.013236 -1.197065 2.390407 0.135862 -0.023348 -372017.000000 0 0 1
-7.622709 20.044706 -20.930789 29.966545 -1.207400 2.344056 0.103008 -0.020646 35451.400000 0 0 1
-7.264709 21.329106 -21.422289 31.090532 -1.242519 2.330945 0.128957 -0.029027 -256356.000000 0 0 1
-7.510509 22.477206 -20.443089 31.297802 -1.248321 2.282572 0.142681 -0.035448 -125862.000000 0 0 1
-6.777709 22.458706 -19.228089 30.332329 -1.277702 2.257400 0.139369 -0.034538 -142463.000000 0 0 1
-7.178509 23.388906 -18.246289 30.520468 -1.273004 2.211597 0.150471 -0.045312 -133773.000000 0 0 1
-6.242809 23.397106 -17.011589 29.593773 -1.310051 2.183201 0.143679 -0.043541 -749756.000000 0 0 1
-4.960209 23.817406 -17.264989 29.832069 -1.365471 2.187978 0.129756 -0.047554 -1510820.000000 0 0 1
-4.194509 23.684006 -16.086389 28.936101 -1.395511 2.160275 0.113826 -0.043657 66768.300000 0 0 1
-2.724409 24.107706 -16.313089 29.235607 -1.458264 2.162754 0.113151 -0.045602 163613.000000 0 0 1
-2.683809 25.461406 -16.526489 30.473117 -1.465777 2.144004 0.121467 -0.047793 -325116.000000 0 0 1
-1.407709 25.813006 -16.997789 30.938936 -1.516315 2.152440 0.122003 -0.050363 81833.000000 0 0 1
-1.044409 27.293406 -17.205289 32.280687 -1.532549 2.132927 0.134320 -0.052410 -557287.000000 0 0 1
-1.890709 27.838406 -18.126889 33.273649 -1.502983 2.146926 0.139713 -0.051984 -752525.000000 0 0 1
-1.336009 28.875806 -18.915389 34.545463 -1.524562 2.150231 0.159997 -0.068463 -1068300.000000 0 0 1
-2.299909 29.615206 -19.844189 35.723127 -1.493292 2.159760 0.207611 -0.067020 74974.900000 0 0 1
-3.139309 30.566206 -19.218989 36.242485 -1.468450 2.129738 0.193674 -0.068966 442464.000000 0 0 1
-4.208309 30.073306 -18.402889 35.507463 -1.431764 2.115638 0.148285 -0.060133 -120328.000000 0 0 1
-4.945609 31.046506 -17.496489 35.978767 -1.412827 2.078647 0.178101 -0.058849 -26003.200000 0 0 1
-5.905709 31.901906 -18.037689 37.120981 -1.387748 2.078208 0.214519 -0.069695 -152146.000000 0 0 1
-6.427909 32.694106 -16.956989 37.386656 -1.376665 2.041549 0.217920 -0.077258 11399.500000 0 0 1
-7.227609 -33.479823 -17.364289 38.401243 1.358180 2.040005 0.224565 -0.060158 761425.000000 0 0 1
-8.513509 33.575806 -17.873689 38.977985 -1.322469 2.047169 0.198104 -0.076123 381079.000000 0 0 1
-9.201109 -32.794423 -18.379289 38.703138 1.297260 2.065622 0.222085 -0.064777 -324399.000000 0 0 1
29.851491 -20.101594 -26.628689 44.769104 -0.592640 2.207814 0.121435 -0.027814 201021.000000 0 0 1
29.696291 -21.466894 -26.269549 45.086433 -0.625918 2.192780 0.111635 -0.035849 298252.000000 0 0 1
28.426791 -21.712694 -25.656349 44.020129 -0.652282 2.193006 0.094427 -0.034311 377017.000000 0 0 1
28.471491 -22.902594 -24.661389 44.083316 -0.677421 2.164490 0.102607 -0.028444 252196.000000 0 0 1
28.823691 -24.185394 -25.213069 45.292795 -0.698120 2.161166 0.118193 -0.014193 161370.000000 0 0 1
30.221391 -24.368294 -25.436009 46.412679 -0.678586 2.150816 0.109271 -0.014477 291276.000000 0 0 1
30.598691 -25.704614 -26.067379 47.712842 -0.698693 2.148783 0.101966 -0.021551 -132416.000000 0 0 1
30.401391 -26.748504 -25.155749 47.671152 -0.721567 2.126679 0.117764 -0.024993 -265382.000000 0 0 1
30.451591 -28.054784 -25.776579 48.772967 -0.744454 2.127631 0.099014 -0.018866 905988.000000 0 0 1
29.333891 -28.490914 -26.841289 48.914866 -0.770821 2.151646 0.108284 -0.024968 405692.000000 0 0 1
29.313891 -27.768204 -28.098269 49.192378 -0.758326 2.178753 0.085360 -0.024961 307225.000000 0 0 1
30.379791 -27.978824 -29.045849 50.491659 -0.744280 2.183719 0.057780 -0.025921 350410.000000 0 0 1
30.680091 -29.435564 -29.569839 51.788954 -0.764699 2.178481 0.061545 -0.024369 -467211.000000 0 0 1
31.312791 -30.286224 -28.650389 52.140110 -0.768734 2.152548 0.074924 -0.026196 468389.000000 0 0 1
32.716791 -30.183044 -28.402299 52.802416 -0.745138 2.138738 0.080644 -0.026590 1588780.000000 0 0 1
33.767391 -30.314414 -29.613259 54.186211 -0.731566 2.148986 0.066659 -0.027362 334250.000000 0 0 1
33.869991 -29.079534 -30.249639 53.924357 -0.709445 2.166347 0.074003 -0.033683 320715.000000 0 0 1
35.060091 -28.924894 -31.026619 55.031905 -0.689805 2.169768 0.064596 -0.040761 317810.000000 0 0 1
35.018391 -27.547454 -31.794209 54.735927 -0.666552 2.190588 0.060994 -0.031920 117618.000000 0 0 1
35.086591 -26.322214 -30.999539 53.711258 -0.643634 2.186033 0.066942 -0.023049 295805.000000 0 0 1
33.787091 -25.942854 -30.554309 52.422943 -0.654817 2.193018 0.087416 -0.028112 305687.000000 0 0 1
33.772391 -24.627494 -29.765069 51.313226 -0.630069 2.189606 0.076900 -0.029653 -490873.000000 0 0 1
34.431191 -24.475394 -28.531929 50.976689 -0.617970 2.164827 0.083974 -0.023392 -26889.100000 0 0 1
34.199791 -23.226994 -27.989809 49.925428 -0.596599 2.165946 0.078699 -0.024723 -99903.900000 0 0 1
35.109491 -22.970894 -26.775979 49.772396 -0.579367 2.138822 0.081338 -0.026536 -370521.000000 0 0 1
34.929291 -23.758594 -25.640769 49.416346 -0.597307 2.116327 0.090332 -0.030106 1223840.000000 0 0 1
33.852891 -23.230494 -24.761989 47.946118 -0.601417 2.113502 0.101103 -0.017507 1099360.000000 0 0 1
34.077191 -21.912194 -24.016489 47.097675 -0.571450 2.105899 0.109563 -0.013525 -548902.000000 0 0 1
34.236191 -20.830194 -24.878389 47.169354 -0.546592 2.126365 0.111752 -0.030785 22216.500000 0 0 1
34.592991 -19.666894 -24.173789 46.560002 -0.516953 2.116707 0.093682 -0.043008 146992.000000 0 0 1
34.869891 -18.497794 -25.160969 46.809743 -0.487734 2.138284 0.082610 -0.054519 533124.000000 0 0 1
33.652991 -18.136594 -25.823969 46.133905 -0.494304 2.164894 0.102191 -0.042352 596244.000000 0 0 1
33.760291 -17.000494 -26.694109 46.274718 -0.466495 2.185678 0.095998 -0.026197 1097060.000000 0 0 1
32.479891 -16.819694 -27.643079 45.847413 -0.477825 2.217973 0.102786 -0.019977 1952290.000000 0 0 1
31.293391 -16.306794 -26.986999 44.423935 -0.480380 2.223690 0.108663 -0.028445 577714.000000 0 0 1
30.249891 -16.134894 -27.926639 44.218637 -0.489999 2.254358 0.081671 -0.030938 -379157.000000 0 0 1
28.934991 -15.888294 -27.205239 42.776122 -0.502154 2.260089 0.072499 -0.023247 -417223.000000 0 0 1
28.548791 -16.969694 -26.341459 42.389579 -0.536299 2.241342 0.084501 -0.017717 221589.000000 0 0 1
27.416691 -16.645494 -25.525089 40.991189 -0.545646 2.242981 0.109001 -0.025014 507852.000000 0 0 1
27.154791 -17.786994 -24.503889 40.671863 -0.579898 2.217398 0.101514 -0.021952 -68570.300000 0 0 1
26.398991 -17.323894 -23.409189 39.306668 -0.580745 2.208750 0.099048 -0.013278 -105071.000000 0 0 1
26.171891 -18.354594 -22.411689 39.040272 -0.611604 2.182259 0.115632 -0.016556 104071.000000 0 0 1
26.426791 -17.751794 -20.951689 38.111347 -0.591503 2.152860 0.110244 -0.020442 418245.000000 0 0 1
25.531891 -16.717794 -20.475889 36.750839 -0.579729 2.161751 0.111224 -0.017104 366171.000000 0 0 1
25.561691 -15.391594 -21.070689 36.527731 -0.541988 2.185652 0.103136 -0.005539 158367.000000 0 0 1
26.916291 -14.650394 -20.914089 37.101481 -0.498452 2.169654 0.104509 -0.014384 354029.000000 0 0 1
26.909391 -13.894594 -19.762789 36.162728 -0.476640 2.148971 0.096787 -0.023857 1030650.000000 0 0 1
28.259091 -13.475794 -19.488489 36.877831 -0.444970 2.127583 0.083704 -0.020321 698665.000000 0 0 1
28.461991 -12.628394 -18.206889 36.070099 -0.417597 2.099905 0.090015 -0.008084 -166391.000000 0 0 1
28.672291 -13.269994 -16.984889 35.870315 -0.433460 2.064066 0.092538 -0.014497 272414.000000 0 0 1
28.866891 -12.306294 -15.980789 35.215450 -0.402981 2.041822 0.076414 -0.020485 -138887.000000 0 0 1
29.164491 -12.784394 -14.531889 35.002629 -0.413128 1.998921 0.107866 -0.029874 531349.000000 0 0 1
28.180891 -13.716094 -13.985489 34.320369 -0.452964 1.990509 0.148573 -0.035269 1242420.000000 0 0 1
28.760991 -14.284894 -12.816589 34.576260 -0.460985 1.950533 0.155126 -0.045561 843828.000000 0 0 1
27.867491 -15.430894 -12.118789 34.081881 -0.505698 1.934329 0.167755 -0.067344 -239153.000000 0 0 1
26.600091 -15.129294 -11.662489 32.748649 -0.517139 1.934910 0.146423 -0.064325 -443265.000000 0 0 1
26.005591 -16.352194 -11.196089 32.696138 -0.561324 1.920297 0.128839 -0.055031 787541.000000 0 0 1
24.493591 -16.164794 -10.799189 31.270738 -0.583345 1.923403 0.127964 -0.055768 502696.000000 0 0 1
24.310191 -15.492494 -9.606989 30.385803 -0.567384 1.892483 0.110559 -0.048417 743831.000000 0 0 1
22.909591 -15.455694 -9.316789 29.163854 -0.593501 1.895960 0.111849 -0.048555 247829.000000 0 0 1
22.600891 -15.032894 -7.829689 28.250526 -0.586949 1.851625 0.090609 -0.035897 -386934.000000 0 0 1
22.816691 -13.658694 -7.483589 27.625449 -0.539410 1.845119 0.127645 -0.038766 305749.000000 0 0 1
22.513591 -13.259694 -6.134089 26.838560 -0.532265 1.801390 0.126117 -0.032384 -212946.000000 0 0 1
23.411491 -13.802994 -4.991089 27.632074 -0.532724 1.752420 0.125162 -0.033621 -632553.000000 0 0 1
24.688791 -13.251394 -4.842989 28.435724 -0.492604 1.741944 0.154130 -0.051711 -181546.000000 0 0 1
25.419991 -14.285694 -4.165389 29.455177 -0.511999 1.712686 0.162486 -0.051085 -2477.450000 0 0 1
26.956591 -14.116394 -4.231189 30.721871 -0.482405 1.708961 0.167061 -0.050064 -72922.400000 0 0 1
27.544191 -13.135894 -3.413989 30.706506 -0.444999 1.682208 0.183627 -0.048214 -278290.000000 0 0 1
28.924091 -13.181594 -3.661489 31.996312 -0.427609 1.685482 0.196848 -0.070622 -461826.000000 0 0 1
29.733491 -12.097794 -2.955989 32.236237 -0.386418 1.662623 0.247640 -0.074733 -1613920.000000 0 0 1
29.997791 -12.499194 -1.625489 32.538278 -0.394794 1.620773 0.253737 -0.070605 212830.000000 0 0 1
30.681791 -11.512594 -0.871389 32.782182 -0.358968 1.597381 0.258316 -0.063157 313486.000000 0 0 1
32.104491 -11.123894 -1.377689 34.004961 -0.333545 1.611322 0.262953 -0.071468 -845490.000000 0 0 1
32.135691 -10.357694 -2.557089 33.860348 -0.311798 1.646387 0.270715 -0.078965 -2566.810000 0 0 1
33.362291 -10.418194 -3.270789 35.103836 -0.302679 1.664106 0.300037 -0.071814 9984.620000 0 0 1
33.303091 -10.012594 -4.757189 35.099555 -0.292054 1.706749 0.282301 -0.068300 -232308.000000 0 0 1
32.581191 -10.985994 -5.465889 34.815256 -0.325216 1.728445 0.278220 -0.072482 222325.000000 0 0 1
32.194991 -10.563694 -6.766389 34.552758 -0.317048 1.767898 0.262658 -0.068252 -706146.000000 0 0 1
31.015391 -11.326594 -7.314889 33.819430 -0.350145 1.788812 0.249160 -0.063645 -898975.000000 0 0 1
31.208891 -12.719894 -7.457789 34.516796 -0.387018 1.788576 0.240161 -0.060058 88443.700000 0 0 1
30.055391 -13.413094 -7.891989 33.845548 -0.419755 1.806139 0.223193 -0.055738 21096.500000 0 0 1
30.272991 -14.922294 -8.080289 34.704754 -0.457971 1.805782 0.232760 -0.049610 -161902.000000 0 0 1
30.649991 -15.303094 -9.329189 35.505498 -0.463076 1.836671 0.245234 -0.057584 56774.500000 0 0 1
30.891191 -16.673794 -9.322089 36.320551 -0.494947 1.830363 0.233547 -0.055977 -90528.700000 0 0 1
31.183391 -17.251294 -10.698589 37.208478 -0.505312 1.862444 0.202304 -0.062775 -907947.000000 0 0 1
32.415191 -16.832994 -11.161689 38.192638 -0.478963 1.867372 0.219666 -0.055124 -511209.000000 0 0 1
32.780991 -17.353494 -12.436789 39.120466 -0.486872 1.894321 0.190789 -0.045488 -209291.000000 0 0 1
32.230291 -16.729194 -13.695389 38.810067 -0.478773 1.931446 0.170646 -0.042520 -682466.000000 0 0 1
33.024191 -15.694094 -14.204389 39.225839 -0.443636 1.941336 0.152335 -0.039685 -285666.000000 0 0 1
32.423791 -14.762994 -15.081889 38.687357 -0.427264 1.971254 0.128523 -0.036048 -1159560.000000 0 0 1
33.338991 -13.695294 -15.751289 39.333860 -0.389773 1.982805 0.120939 -0.038640 216765.000000 0 0 1
34.336091 -14.269294 -16.602689 40.721360 -0.393862 1.990746 0.083476 -0.037783 232636.000000 0 0 1
35.510891 -14.534494 -15.871389 41.523197 -0.388495 1.963004 0.103742 -0.045466 -863644.000000 0 0 1
36.671091 -14.914994 -16.823189 43.014482 -0.386289 1.972629 0.104224 -0.046837 666728.000000 0 0 1
37.951491 -15.256894 -16.250589 44.013295 -0.382238 1.948966 0.115722 -0.052552 1299810.000000 0 0 1
-37.483581 -15.845794 -17.260989 44.204635 0.399955 1.971948 0.118115 -0.055302 529353.000000 0 0 1
-35.931881 -15.714594 -17.058989 42.767483 0.412280 1.981089 0.135692 -0.054667 675287.000000 0 0 1
-35.501381 -16.610894 -16.072289 42.362582 0.437635 1.959942 0.121511 -0.052323 144693.000000 0 0 1
-35.700781 -16.187894 -14.759189 41.885885 0.425705 1.930895 0.100697 -0.048816 -563323.000000 0 0 1
-35.039281 -17.229094 -13.774689 41.404528 0.456992 1.909946 0.090507 -0.034639 -151076.000000 0 0 1
-33.651081 -17.020094 -13.697089 40.120931 0.468262 1.919197 0.088281 -0.038938 -153433.000000 0 0 1
-33.112481 -17.684594 -12.543689 39.579356 0.490536 1.893282 0.065285 -0.015193 -213271.000000 0 0 1
-31.583281 -17.616094 -12.463789 38.251489 0.508786 1.902694 0.087259 -0.017671 -554294.000000 0 0 1
-31.114881 -16.324094 -12.336489 37.239775 0.483164 1.908448 0.096041 -0.036015 -237347.000000 0 0 1
-29.861381 -16.287694 -11.712089 35.974492 0.499338 1.902407 0.129560 -0.031224 -249279.000000 0 0 1
-30.066681 -15.955994 -10.195489 35.532338 0.487895 1.861823 0.129779 -0.033703 160663.000000 0 0 1
-30.766281 -17.015294 -9.521989 36.424615 0.505182 1.835286 0.094008 -0.025092 170676.000000 0 0 1
-31.221681 -16.537294 -8.264489 36.284669 0.487104 1.800581 0.121586 -0.025730 62685.000000 0 0 1
-31.958181 -17.719094 -7.531189 37.309656 0.506250 1.774049 0.113385 -0.020238 -39632.800000 0 0 1
-33.136281 -18.297894 -8.038689 38.696855 0.504532 1.780055 0.073898 -0.020052 -169036.000000 0 0 1
-33.048781 -19.134694 -9.141489 39.267356 0.524823 1.805753 0.078308 -0.017412 -335435.000000 0 0 1
-34.379381 -19.839194 -9.477689 40.808848 0.523386 1.805182 0.068519 -0.018478 -35579.400000 0 0 1
-35.350581 -18.998794 -10.069789 41.376544 0.493149 1.816635 0.081345 -0.016111 -79965.300000 0 0 1
-36.551081 -19.715594 -10.117189 42.743931 0.494667 1.809757 0.090587 -0.027433 -49397.300000 0 0 1
-37.803581 -19.022594 -10.718689 43.656158 0.466201 1.818858 0.106580 -0.045941 276058.000000 0 0 1
-37.677481 -18.887294 -12.117989 43.853941 0.464678 1.850766 0.088314 -0.042899 565862.000000 0 0 1
37.569191 -17.991894 -12.563489 43.508547 -0.446626 1.863727 0.131812 -0.051142 62311.600000 0 0 1
37.117691 -18.125994 -13.984189 43.610001 -0.454275 1.897228 0.122791 -0.049885 -317216.000000 0 0 1
36.332891 -19.220094 -14.305289 43.521630 -0.486577 1.905716 0.089876 -0.039956 128733.000000 0 0 1
35.413691 -19.000694 -15.356789 43.023097 -0.492447 1.935789 0.076862 -0.040829 505220.000000 0 0 1
34.194791 -19.945894 -15.556789 42.533941 -0.528051 1.945235 0.109100 -0.043870 -434072.000000 0 0 1
33.212391 -19.804994 -14.566589 41.321740 -0.537704 1.931055 0.146044 -0.045204 -489642.000000 0 0 1
32.024191 -20.459394 -14.859889 40.803822 -0.568513 1.943547 0.169289 -0.043776 -542301.000000 0 0 1
31.072191 -20.046794 -15.967789 40.278099 -0.572971 1.978431 0.172178 -0.043589 -867944.000000 0 0 1
30.379391 -18.808094 -15.727689 39.038596 -0.554350 1.985453 0.158373 -0.041255 387817.000000 0 0 1
29.656191 -18.429894 -16.876989 38.781225 -0.556044 2.021040 0.145562 -0.038018 253561.000000 0 0 1
28.756191 -17.144494 -16.799489 37.457643 -0.537622 2.035875 0.136291 -0.027881 166388.000000 0 0 1
27.616991 -17.297794 -15.984089 36.296046 -0.559567 2.026819 0.146191 -0.027721 73550.600000 0 0 1
26.887791 -16.079494 -16.084789 35.216812 -0.538964 2.045119 0.115147 -0.020362 -1169960.000000 0 0 1
25.480691 -16.150094 -15.438789 33.888750 -0.564915 2.043812 0.091324 -0.023341 -68724.700000 0 0 1
24.578291 -16.864294 -16.240989 33.945052 -0.601367 2.069684 0.083841 -0.020969 -188109.000000 0 0 1
24.052391 -16.165694 -17.318689 33.760690 -0.591757 2.109454 0.084062 -0.008130 -1211420.000000 0 0 1
22.888291 -16.803594 -18.053989 33.647900 -0.633284 2.137147 0.065772 -0.007540 413698.000000 0 0 1
21.547291 -16.623694 -17.591189 32.404982 -0.657119 2.144629 0.056952 -0.012284 283075.000000 0 0 1
20.703491 -17.446994 -18.354489 32.709623 -0.700245 2.166552 0.049061 -0.017849 455583.000000 0 0 1
19.271791 -17.620194 -17.735489 31.566133 -0.740660 2.167419 0.062056 -0.012312 410985.000000 0 0 1
18.665891 -16.374694 -17.755789 30.525631 -0.720104 2.191574 0.080011 -0.012893 1019550.000000 0 0 1
17.339591 -16.424594 -17.158989 29.408496 -0.758305 2.193792 0.098629 -0.028783 1300910.000000 0 0 1
16.530191 -15.097294 -16.995589 28.107393 -0.740124 2.220143 0.125135 -0.037479 123777.000000 0 0 1
15.908791 -14.643694 -18.176589 28.247403 -0.744014 2.269830 0.127084 -0.030639 215637.000000 0 0 1
14.555791 -14.290194 -18.004589 27.207461 -0.776191 2.293949 0.147142 -0.028653 318244.000000 0 0 1
13.743191 -13.880594 -19.252289 27.426207 -0.790372 2.348952 0.139003 -0.029040 46015.100000 0 0 1
14.202391 -12.669294 -19.713589 27.401542 -0.728407 2.373783 0.138957 -0.034629 -186558.000000 0 0 1
13.661691 -12.274894 -20.942389 27.854954 -0.731980 2.421640 0.125235 -0.027029 -40733.900000 0 0 1
14.037691 -10.823994 -21.270089 27.688126 -0.656848 2.446825 0.124493 -0.027357 -523822.000000 0 0 1
15.221991 -10.693294 -22.029789 28.833438 -0.612395 2.440342 0.108591 -0.021191 -172614.000000 0 0 1
15.510891 -9.307894 -22.291389 28.707676 -0.540484 2.459882 0.107604 -0.024484 502550.000000 0 0 1
16.811491 -8.977894 -23.092089 29.941165 -0.490502 2.451597 0.086315 -0.021425 520942.000000 0 0 1
16.717991 -9.406994 -24.416389 31.050649 -0.512531 2.475660 0.108741 -0.020246 259751.000000 0 0 1
17.946591 -9.114794 -25.057389 32.140821 -0.469935 2.464843 0.100294 -0.026999 -5868.620000 0 0 1
22.598791 4.931706 -6.990289 24.163841 0.214860 1.864278 0.269210 0.001295 -133893.000000 0 1 0
22.148891 6.249206 -7.299389 24.143467 0.274997 1.877937 0.256707 -0.005452 634708.000000 0 1 0
21.589391 6.845106 -6.142789 23.466809 0.307033 1.835647 0.242144 -0.007097 -238687.000000 0 1 0
21.536391 8.396906 -6.221589 23.938094 0.371764 1.833718 0.203455 0.000796 880712.000000 0 1 0
20.360091 8.729106 -7.052389 23.247941 0.405031 1.879008 0.116326 -0.014119 1665420.000000 0 1 0
19.976791 10.111906 -6.941089 23.441449 0.468582 1.871407 0.105671 -0.012702 267308.000000 0 1 0
19.395291 10.629806 -5.549989 22.802905 0.501353 1.816655 0.126126 -0.020936 95939.600000 0 1 0
20.426991 11.006306 -4.633489 23.661571 0.494213 1.767893 0.136059 -0.014840 574763.000000 0 1 0
20.851491 12.332506 -4.736289 24.684161 0.534105 1.763869 0.192873 -0.023297 -197552.000000 0 1 0
21.823891 12.823906 -3.686389 25.579762 0.531258 1.715413 0.172772 -0.036509 615954.000000 0 0 1
23.097291 12.181006 -3.565989 26.354848 0.485309 1.706519 0.140265 -0.050580 944744.000000 0 0 1
23.970591 12.725806 -2.612089 27.264599 0.488055 1.666749 0.118966 -0.053049 -52189.200000 0 0 1
24.681991 11.715106 -1.691289 27.373433 0.443156 1.632621 0.138396 -0.054908 -150987.000000 0 0 1
25.856491 11.242506 -2.322389 28.290379 0.410145 1.652980 0.138736 -0.037044 210981.000000 0 0 1
26.478291 10.134206 -1.673889 28.400773 0.365536 1.629769 0.167289 -0.046318 241560.000000 0 0 1
27.944291 9.840506 -2.075889 29.698961 0.338586 1.640751 0.192836 -0.040645 316805.000000 0 0 1
28.780591 10.925806 -1.678289 30.830379 0.362818 1.625259 0.151920 -0.048874 807471.000000 0 0 1
30.164691 10.667306 -1.939189 32.054024 0.339910 1.631331 0.121041 -0.035023 1404920.000000 0 0 1
31.177791 11.829606 -1.496989 33.380162 0.362644 1.615658 0.096765 -0.026060 -129987.000000 0 0 1
31.259691 11.879306 -0.068589 33.440857 0.363164 1.572847 0.140157 -0.044594 494647.000000 0 0 1
32.216791 12.830606 0.405111 34.680112 0.379004 1.559115 0.134192 -0.035233 482714.000000 0 0 1
33.716191 12.520706 0.116511 35.966139 0.355572 1.567557 0.147403 -0.033117 -636755.000000 0 0 1
34.505391 13.578006 0.600811 37.085647 0.374894 1.554595 0.145583 -0.044093 383295.000000 0 0 1
35.595091 13.936606 -0.246089 38.226954 0.373185 1.577234 0.164588 -0.023601 266744.000000 0 0 1
35.186191 15.082906 -1.206189 38.301657 0.404966 1.602293 0.119058 0.004450 -152406.000000 0 0 1
34.122891 14.773306 -2.071089 37.241263 0.408580 1.626438 0.127792 0.011347 -128637.000000 0 0 1
33.745491 15.918106 -2.814989 37.417488 0.440761 1.646099 0.097564 0.029430 321925.000000 0 0 1
32.362291 15.694606 -3.490489 36.136160 0.451548 1.667540 0.093917 0.007392 -267433.000000 0 0 1
32.402991 14.794106 -4.587789 35.914721 0.428301 1.698887 0.066327 0.008352 807606.000000 0 0 1
31.128791 14.634906 -5.235989 34.793644 0.439476 1.721857 0.050699 0.002953 818720.000000 0 0 1
30.121791 13.684406 -4.513589 33.390983 0.426426 1.706385 0.075465 -0.020651 -304538.000000 0 0 1
28.962191 13.578606 -5.284489 32.420871 0.438410 1.734523 0.110247 -0.032629 41647.700000 0 0 1
27.870391 12.835006 -4.789489 31.055358 0.431572 1.725639 0.120995 -0.013395 76213.500000 0 0 1
26.888791 12.454906 -5.898889 30.214709 0.433777 1.767291 0.118424 -0.022378 -496178.000000 0 0 1
27.448391 11.601406 -6.872489 30.581659 0.399889 1.797458 0.116042 -0.014939 482819.000000 0 0 1
26.613591 11.293006 -8.009189 29.999372 0.401305 1.841053 0.147497 -0.015544 159434.000000 0 0 1
26.208291 12.357906 -9.063689 30.360217 0.440611 1.873957 0.172790 -0.014140 66094.100000 0 0 1
25.469991 13.414906 -8.485189 30.011307 0.484774 1.857439 0.151644 -0.026573 -306844.000000 0 0 1
25.502291 14.571106 -9.256689 30.795621 0.519098 1.876102 0.147913 -0.038280 -646183.000000 0 0 1
24.391691 15.585006 -8.843089 30.266272 0.568566 1.867298 0.128763 -0.031488 530426.000000 0 0 1
23.047291 15.188906 -9.020689 29.038824 0.582699 1.886665 0.185935 -0.048183 193275.000000 0 0 1
22.620691 14.152206 -8.161789 27.903322 0.559053 1.867639 0.217257 -0.048550 -481375.000000 0 0 1
21.073491 13.845506 -8.252389 26.530962 0.581288 1.887091 0.247482 -0.042254 918674.000000 0 0 1
20.257191 14.922106 -7.814589 26.345603 0.634891 1.871946 0.307504 -0.068666 -809855.000000 0 0 1
18.937191 14.525506 -7.952689 25.156565 0.654315 1.892441 0.316465 -0.061532 -928585.000000 0 0 1
17.994691 15.029506 -6.819989 24.417354 0.695850 1.853871 0.291052 -0.044438 -113226.000000 0 1 0
18.223191 14.404206 -5.585789 23.890728 0.668880 1.806786 0.295229 -0.043395 329896.000000 0 1 0
17.438291 14.988306 -4.570589 23.444265 0.709987 1.767008 0.248550 -0.024594 -312629.000000 0 1 0
17.177391 14.005306 -3.395589 22.421895 0.684021 1.722822 0.173329 -0.000230 -1179140.000000 0 1 0
18.258591 13.507306 -2.721289 22.874196 0.636927 1.690046 0.175180 -0.006668 -789778.000000 0 1 0
17.919891 12.570806 -1.744189 21.958821 0.611732 1.650310 0.158043 -0.018065 -193704.000000 0 1 0
17.521891 13.228806 -0.426489 21.959049 0.646685 1.590220 0.160842 -0.029475 -128093.000000 0 1 0
16.327491 13.970806 -0.475889 21.494112 0.707772 1.592939 0.140772 -0.035384 26593.700000 0 1 0
16.047691 14.597106 0.748711 21.706323 0.738098 1.536297 0.118425 -0.031594 181970.000000 0 1 0
14.786991 15.492006 0.952111 21.437440 0.808678 1.526368 0.132098 -0.027524 -37358.100000 0 1 0
14.827391 16.671006 0.122111 22.311182 0.843862 1.565323 0.143160 -0.025510 490863.000000 0 1 0
13.935191 17.605106 0.758911 22.465646 0.901234 1.537009 0.120851 -0.030929 357296.000000 0 1 0
13.843391 18.960906 0.047511 23.476747 0.940152 1.568773 0.127426 -0.034618 160340.000000 0 1 0
13.195591 18.903406 -1.244489 23.087034 0.961378 1.624727 0.129959 -0.050788 141087.000000 0 1 0
12.790091 20.167806 -1.704089 23.942237 1.005620 1.642032 0.122812 -0.048833 -580541.000000 0 1 0
11.276991 20.301706 -1.638589 23.281210 1.063763 1.641237 0.089027 -0.045681 -388782.000000 0 1 0
10.708191 20.460506 -0.322289 23.095487 1.088637 1.584751 0.066860 -0.039395 -1050450.000000 0 1 0
9.335191 20.386606 -0.363789 22.425250 1.141386 1.587019 0.045150 -0.036309 -704087.000000 0 1 0
8.658991 20.598206 1.055211 22.369123 1.172849 1.523606 0.023914 -0.029468 103175.000000 0 1 0
8.698291 21.914906 1.609811 23.632919 1.192955 1.502626 0.021457 -0.026178 218110.000000 0 1 0
7.802891 21.926806 2.702411 23.430172 1.228910 1.455200 0.032846 -0.030329 -145567.000000 0 1 0
7.480191 23.343906 3.252911 24.727972 1.260699 1.438866 0.030785 -0.020680 28854.400000 0 1 0
8.002391 23.561006 4.525211 25.291042 1.243376 1.390902 0.034072 -0.026916 34949.400000 0 0 1
7.617191 24.852506 5.036411 26.477048 1.273391 1.379412 0.042782 -0.023933 91698.800000 0 0 1
8.083291 25.123606 6.475011 27.174637 1.259515 1.330208 0.049481 -0.031639 492842.000000 0 0 1
7.250191 24.389406 7.392111 26.496258 1.281848 1.288057 0.045464 -0.026122 356835.000000 0 0 1
7.828191 24.612506 8.617211 27.227051 1.262856 1.248765 0.056542 -0.024411 -101915.000000 0 0 1
7.484591 23.644006 9.731411 26.641292 1.264223 1.196868 0.064985 -0.026013 -27229.000000 0 0 1
6.201991 23.960506 10.254911 26.790553 1.317513 1.177992 0.068606 -0.026119 329862.000000 0 0 1
5.839991 23.007106 11.246211 26.266132 1.322212 1.128336 0.066921 -0.027282 -726937.000000 0 0 1
4.515791 23.249506 11.951911 26.528853 1.378953 1.103443 0.070710 -0.032286 -379889.000000 0 0 1
3.438291 23.227506 11.028311 25.941521 1.423837 1.131700 0.066166 -0.031502 247458.000000 0 0 1
2.200091 23.058506 11.724711 25.961586 1.475671 1.102219 0.074985 -0.039491 424694.000000 0 0 1
1.001691 23.344406 10.784511 25.734614 1.527913 1.138380 0.093776 -0.029433 -236979.000000 0 0 1
0.900691 24.706206 10.431511 26.833268 1.534356 1.171519 0.087061 -0.030018 -72803.100000 0 0 1
0.050591 24.935606 9.337211 26.626500 1.568767 1.212506 0.083034 -0.032055 458557.000000 0 0 1
-1.323709 25.557406 9.722311 27.376204 -1.519049 1.207735 0.098486 -0.046968 379479.000000 0 0 1
-2.192209 24.818806 10.555511 27.059152 -1.482696 1.170067 0.099432 -0.041835 726748.000000 0 0 1
-3.526609 25.259006 10.295611 27.503708 -1.432075 1.187116 0.108710 -0.045448 849572.000000 0 0 1
-4.774909 24.475306 10.824111 27.184586 -1.378125 1.161274 0.104087 -0.041222 586983.000000 0 0 1
-5.073509 24.452906 12.180511 27.785787 -1.366218 1.117010 0.093085 -0.033154 26508.800000 0 0 1
-5.910109 25.511706 12.604011 29.062650 -1.343149 1.122219 0.091659 -0.022886 -280350.000000 0 0 1
-6.542309 25.468706 13.963111 29.772894 -1.319356 1.082652 0.082375 -0.029063 82276.900000 0 0 1
-7.766809 24.745806 14.010211 29.478199 -1.266670 1.075521 0.080796 -0.025824 303765.000000 0 0 1
-8.198809 24.550306 15.356811 30.096007 -1.248482 1.035308 0.067600 -0.012704 20321.100000 0 0 1
-9.568109 23.887706 15.546911 30.064558 -1.189820 1.027316 0.063762 -0.017086 -217646.000000 0 0 1
-10.718709 24.640506 15.288611 30.915803 -1.160483 1.053509 0.072453 -0.013952 7182.340000 0 0 1
-11.865809 23.801506 15.288011 30.676251 -1.108324 1.049083 0.061849 -0.007199 409211.000000 0 0 1
-13.213709 24.546506 15.111611 31.709523 -1.076970 1.074054 0.059161 -0.004326 4729.930000 0 0 1
-13.591009 25.366106 16.194311 33.021365 -1.078925 1.058226 0.059972 -0.017208 -199756.000000 0 0 1
-14.358409 26.441106 15.767011 33.969024 -1.073317 1.088112 0.046776 -0.010937 -47473.700000 0 0 1
-15.313409 27.092706 16.826411 35.378571 -1.056341 1.075139 0.050862 -0.007919 597757.000000 0 0 1
-16.466709 26.312406 17.150311 35.463056 -1.011611 1.066021 0.047177 -0.021073 429031.000000 0 0 1
-17.045109 26.838306 18.345911 36.706986 -1.004964 1.047436 0.074112 -0.030095 129070.000000 0 0 1
-18.435609 26.304006 18.777911 37.207289 -0.959489 1.041781 0.063866 -0.040091 142094.000000 0 0 1
-19.483309 26.830406 17.998911 37.728382 -0.942725 1.073484 0.058394 -0.027454 178136.000000 0 0 1
-20.683209 26.113906 18.290311 38.003509 -0.900929 1.068682 0.076149 -0.034150 14233.800000 0 0 1
-21.863809 26.433806 17.395711 38.462748 -0.879739 1.101483 0.071482 -0.032377 -816845.000000 0 0 1
-22.591709 27.588806 17.522811 39.731303 -0.884653 1.114047 0.065994 -0.029467 312507.000000 0 0 1
-23.434709 27.727806 16.361911 39.821212 -0.869113 1.147373 0.066064 -0.033665 -314955.000000 0 0 1
-24.342309 28.925106 16.386911 41.203648 -0.871221 1.161782 0.065754 -0.026849 704876.000000 0 0 1
-25.637599 28.670906 16.988511 42.046603 -0.841193 1.154867 0.085911 -0.030027 909928.000000 0 0 1
-26.541419 29.717006 16.869211 43.267975 -0.841785 1.170298 0.080661 -0.028682 -530399.000000 0 0 1
-27.925869 29.575206 17.473111 44.270267 -0.814074 1.165064 0.101368 -0.020416 -175935.000000 0 0 1
-28.855119 28.755206 16.722211 44.035350 -0.783664 1.181276 0.125357 -0.014048 137859.000000 0 0 1
-30.065989 28.676806 17.436811 45.059575 -0.761754 1.173450 0.150902 -0.022612 -272835.000000 0 0 1
-30.256449 27.426506 18.357211 44.773353 -0.736377 1.148339 0.141927 -0.023345 -529623.000000 0 0 1
-30.321019 26.205706 17.645611 43.788935 -0.712723 1.156037 0.135902 -0.021587 214005.000000 0 0 1
-30.598309 25.102106 18.482411 43.680336 -0.687042 1.133901 0.129609 -0.017684 -59584.500000 0 0 1
-30.733289 23.731606 17.778211 42.705842 -0.657545 1.141430 0.130708 -0.021976 526040.000000 0 0 1
-31.756039 23.667206 16.750311 43.001809 -0.640475 1.170680 0.159796 -0.027449 636772.000000 0 0 1
-31.633299 22.610006 15.819111 41.977640 -0.620559 1.184407 0.156680 -0.030031 -357668.000000 0 0 1
-32.129759 21.247206 16.273211 41.816056 -0.584274 1.171075 0.139318 -0.027293 376558.000000 0 0 1
-33.545909 21.092206 16.250911 42.828743 -0.561296 1.181606 0.151811 -0.021642 382841.000000 0 0 1
-33.957087 19.758606 16.345311 42.551797 -0.526982 1.176534 0.121468 -0.014588 402227.000000 0 0 1
-35.462491 19.539006 16.022111 43.543875 -0.503593 1.193989 0.122733 -0.024905 282815.000000 0 0 1
-35.718614 19.666206 14.625611 43.318443 -0.503294 1.226398 0.107953 -0.016593 -407771.000000 0 0 1
-37.054549 19.502206 14.247111 44.230711 -0.484474 1.242840 0.127225 -0.021647 -253477.000000 0 0 1
-37.320359 19.959006 12.779911 44.209696 -0.491100 1.277536 0.106534 -0.020874 -150135.000000 0 0 1
-37.182819 21.378306 12.608111 44.705240 -0.521798 1.284889 0.103629 -0.027139 -32906.100000 0 0 1
-37.254889 21.853106 11.289611 44.642360 -0.530496 1.315130 0.059148 -0.014892 -510131.000000 0 0 1
-36.139329 21.500306 10.321511 43.299513 -0.536682 1.330104 0.106059 -0.019072 -763063.000000 0 0 1
-36.259659 20.228006 9.794711 42.659951 -0.508862 1.339130 0.113910 -0.013601 38022.600000 0 0 1
-35.088355 19.798306 9.119111 41.307672 -0.513711 1.348202 0.134243 -0.010450 76124.100000 0 0 1
-34.467036 18.593706 9.867311 40.386462 -0.494718 1.323976 0.103906 -0.011509 -81859.700000 0 0 1
-33.869639 18.919006 11.108211 40.354350 -0.509409 1.291929 0.124313 -0.017414 101769.000000 0 0 1
-33.446559 17.835706 11.869311 39.719835 -0.489900 1.267334 0.148973 -0.032150 -172203.000000 0 0 1
-32.747299 18.236906 13.197011 39.738287 -0.508124 1.232269 0.106352 -0.006128 -49390.200000 0 0 1
-31.496469 18.868506 13.208011 39.019221 -0.539733 1.225474 0.154149 -0.008689 -268644.000000 0 0 1
-31.479219 20.168406 12.607011 39.454310 -0.569802 1.245558 0.158335 -0.007229 -637751.000000 0 0 1
-30.032309 20.647606 12.723511 38.602473 -0.602296 1.234913 0.177860 -0.028992 -155712.000000 0 0 1
-29.566239 20.818906 14.076111 38.803688 -0.613502 1.199577 0.147167 -0.016671 -284180.000000 0 0 1
-28.448599 21.674706 14.097611 38.442922 -0.651067 1.195320 0.173479 -0.022438 -466647.000000 0 0 1
-27.676419 21.636906 15.416511 38.364159 -0.663533 1.157264 0.140403 -0.025819 -302006.000000 0 0 1
-27.021099 20.388306 15.622911 37.281338 -0.646396 1.138393 0.159072 -0.037736 76317.200000 0 0 1
-26.627489 20.193306 16.942911 37.468053 -0.648832 1.101570 0.126170 -0.028331 -517748.000000 0 0 1
-25.790329 18.983506 17.292911 36.394496 -0.634527 1.075660 0.133320 -0.033400 -253445.000000 0 0 1
-25.233869 19.119706 18.591511 36.714514 -0.648411 1.039814 0.120445 -0.040436 440213.000000 0 0 1
-24.297809 18.058006 18.821711 35.647327 -0.639132 1.014555 0.105436 -0.032747 554046.000000 0 0 1
-23.489009 18.155706 20.140611 35.874885 -0.658025 0.974705 0.095679 -0.034174 743687.000000 0 0 1
-24.344909 17.611006 21.184911 36.764420 -0.626256 0.956683 0.085693 -0.022561 931900.000000 0 0 1
-23.857809 17.904106 22.498611 37.362274 -0.643789 0.924574 0.111533 -0.033938 10919.500000 0 0 1
-24.677009 17.170006 23.583211 38.209053 -0.607895 0.905598 0.103798 -0.030752 -97540.900000 0 0 1
-24.476709 15.756906 23.608711 37.480136 -0.571970 0.889373 0.101529 -0.034092 -220317.000000 0 0 1
-25.270889 15.116706 24.552711 38.340165 -0.539085 0.875789 0.093718 -0.036269 -178296.000000 0 0 1
22.210091 24.844506 33.403291 47.183868 0.841326 0.784221 0.075279 -0.018983 734564.000000 0 0 1
23.275691 24.182306 32.676890 46.843578 0.804499 0.798789 0.096629 -0.031691 525375.000000 0 0 1
23.584091 22.864206 33.129361 46.653358 0.769901 0.781131 0.097671 -0.041250 151782.000000 0 0 1
22.627691 21.713606 32.644749 45.267789 0.764786 0.765339 0.089058 -0.053051 110396.000000 0 0 1
22.650791 21.427206 31.265663 44.155692 0.757646 0.784024 0.103029 -0.046452 -458884.000000 0 0 1
21.585691 20.638506 30.852301 42.938962 0.762970 0.769131 0.160646 -0.044757 -555491.000000 0 0 1
21.773891 20.014006 29.497531 41.770409 0.743308 0.786704 0.143085 -0.036071 -385597.000000 0 0 1
22.842591 19.117006 29.479781 41.908249 0.696841 0.790576 0.126015 -0.037479 -466078.000000 0 0 1
22.920891 18.322406 28.331641 40.789210 0.674360 0.802951 0.114552 -0.030817 -1058240.000000 0 0 1
24.101691 17.425006 28.367561 41.100375 0.625982 0.809028 0.125682 -0.036297 -238136.000000 0 0 1
25.355291 18.099206 28.179851 42.006857 0.619943 0.835456 0.107383 -0.032756 143974.000000 0 0 1
26.402191 17.245806 28.544961 42.535965 0.578619 0.835134 0.091626 -0.024141 508609.000000 0 0 1
27.822291 17.898506 28.619851 43.743939 0.571662 0.857594 0.085931 -0.022475 603195.000000 0 0 1
28.566191 18.095206 27.403931 43.525155 0.564651 0.889743 0.096998 -0.018873 316308.000000 0 0 1
29.878791 18.443606 27.829651 44.803998 0.553029 0.900597 0.104308 -0.010401 216382.000000 0 0 1
30.998591 17.973306 26.904281 44.808400 0.525442 0.926758 0.107039 0.003858 -172527.000000 0 0 1
30.835291 18.653506 25.705901 44.266938 0.544044 0.951206 0.116627 -0.000084 71244.400000 0 0 1
31.904491 18.503106 24.793651 44.440821 0.525549 0.978940 0.123610 0.006263 54270.000000 0 0 1
32.214291 19.759406 23.934551 44.733180 0.550195 1.006228 0.141516 -0.005034 -282278.000000 0 0 1
31.169891 20.046706 23.058951 43.647998 0.571540 1.014207 0.121602 -0.006659 -137606.000000 0 0 1
31.528391 20.975306 22.022911 43.806523 0.587044 1.044041 0.111586 -0.015159 -300518.000000 0 0 1
32.141491 20.389906 20.807711 43.379540 0.565316 1.070522 0.145884 -0.008795 -386650.000000 0 0 1
31.278591 19.476506 20.108311 41.976525 0.556928 1.071239 0.142070 -0.021494 361070.000000 0 0 1
31.796891 18.795106 18.958611 41.517794 0.533849 1.096584 0.165117 -0.028104 -514625.000000 0 0 1
32.899691 17.772006 19.122611 41.998906 0.495279 1.098074 0.196396 -0.041938 -409098.000000 0 0 1
32.427191 16.526706 19.626411 41.350341 0.471342 1.076245 0.211754 -0.041124 -214317.000000 0 0 1
33.417991 15.557406 19.770211 41.828892 0.435701 1.078507 0.214750 -0.045183 -767692.000000 0 0 1
32.869191 14.133506 20.270711 41.122274 0.406092 1.055334 0.223517 -0.042698 211408.000000 0 0 1
32.408691 14.004706 21.607011 41.392245 0.407893 1.021595 0.193983 -0.041674 -919653.000000 0 0 1
31.208791 14.658006 21.757211 40.770357 0.439095 1.007882 0.199756 -0.027151 -1438480.000000 0 0 1
30.405791 14.020206 22.931601 40.582467 0.432049 0.970288 0.158319 -0.021601 44930.400000 0 0 1
30.061391 12.683706 22.615461 39.699152 0.399265 0.964691 0.158621 -0.020180 262272.000000 0 0 1
29.261091 12.036506 23.619901 39.484030 0.390251 0.929526 0.146922 -0.019059 303505.000000 0 0 1
28.664991 10.693406 23.175621 38.381506 0.357058 0.922508 0.160629 -0.022522 -60116.700000 0 0 1
27.505591 10.737106 22.375361 37.047264 0.372169 0.922326 0.134927 -0.011107 -9615.750000 0 0 1
27.042291 9.455706 22.014211 36.129231 0.336375 0.915595 0.136111 -0.005039 101078.000000 0 0 1
25.778791 9.366706 21.129111 34.622544 0.348517 0.914395 0.121435 -0.007262 532239.000000 0 0 1
24.532591 9.566806 21.803711 34.187331 0.371824 0.879195 0.114909 -0.010963 258403.000000 0 0 1
23.501691 9.318706 20.889411 32.795354 0.377496 0.880245 0.103386 -0.000516 496368.000000 0 0 1
22.046891 9.393806 21.475711 32.179421 0.402788 0.840119 0.106874 -0.013192 808182.000000 0 0 1
21.640691 8.460106 22.477491 32.328478 0.372667 0.801981 0.120261 -0.013510 268196.000000 0 0 1
20.249891 8.512006 22.742071 31.618256 0.397924 0.768045 0.099934 -0.013815 275586.000000 0 0 1
19.957991 7.778306 24.075381 32.224950 0.371625 0.727102 0.095776 -0.013041 -25501.500000 0 0 1
19.998191 6.391206 23.947271 31.847244 0.309330 0.719794 0.089084 -0.008957 107730.000000 0 0 1
20.081291 5.873406 25.254081 32.795179 0.284545 0.691869 0.099810 -0.020683 -150243.000000 0 0 1
20.372491 4.347706 25.241071 32.726940 0.210256 0.689974 0.095759 -0.023510 -1099270.000000 0 0 1
21.574191 4.054006 24.660691 33.015608 0.185744 0.727348 0.091647 -0.011815 -1072720.000000 0 0 1
21.891691 2.681906 24.758641 33.157639 0.121901 0.727717 0.065025 -0.004022 547008.000000 0 0 1
23.399091 2.480406 24.322321 33.841471 0.105610 0.768846 0.063891 -0.001136 812325.000000 0 0 1
24.157991 2.899306 25.451081 35.210396 0.119443 0.762909 0.070970 -0.013705 42066.000000 0 0 1
25.541091 2.882106 25.132201 35.948315 0.112367 0.796630 0.083349 -0.007616 514359.000000 0 0 1
26.515391 3.455406 26.192041 37.430319 0.129587 0.795742 0.084232 -0.012034 -313938.000000 0 0 1
26.508291 2.721406 27.373421 38.202090 0.102304 0.771963 0.085822 -0.011676 345991.000000 0 0 1
27.238891 3.354006 28.432401 39.517186 0.122516 0.767722 0.092212 -0.013437 -28043.600000 0 0 1
28.768691 3.365706 28.423091 40.581247 0.116463 0.794839 0.080386 -0.008475 -977142.000000 0 0 1
29.274691 4.346206 27.557701 40.439138 0.147386 0.821039 0.105615 -0.015966 1683810.000000 0 0 1
30.721991 4.279606 27.345511 41.351333 0.138410 0.848250 0.116076 -0.015788 1676540.000000 0 0 1
31.288591 3.220506 26.376621 41.049649 0.102568 0.872969 0.127493 -0.013809 -510574.000000 0 0 1
31.110991 3.438606 25.032431 40.079176 0.110080 0.896210 0.124819 -0.011358 77334.200000 0 0 1
31.772291 2.427906 24.286741 40.065184 0.076268 0.919547 0.118322 0.010146 -121771.000000 0 0 1
31.461891 2.496406 22.751131 38.906254 0.079181 0.946202 0.138677 -0.005305 332858.000000 0 0 1
32.106991 3.548806 22.000911 39.083155 0.110084 0.972875 0.125794 -0.012712 -363704.000000 0 0 1
33.476491 3.336706 21.786811 40.080846 0.099345 0.996110 0.121187 -0.011634 -182580.000000 0 0 1
34.249391 4.574406 21.271111 40.575930 0.132776 1.018986 0.129885 -0.031971 -490111.000000 0 0 1
34.007591 4.859006 19.933611 39.717440 0.141919 1.045019 0.123195 -0.031051 348085.000000 0 0 1
34.696591 6.089706 19.522711 40.274982 0.173743 1.064736 0.119624 -0.030298 1988630.000000 0 0 1
36.298291 6.205906 19.471311 41.655866 0.169332 1.084412 0.099051 -0.024544 1396440.000000 0 0 1
36.929991 6.079006 20.695511 42.767777 0.163146 1.065686 0.098384 -0.028810 -201524.000000 0 0 1
36.750691 7.224506 21.536411 43.204441 0.194106 1.048956 0.112601 -0.034015 -486704.000000 0 0 1
37.409891 6.924706 22.914611 44.413184 0.183032 1.028690 0.127015 -0.031064 191401.000000 0 0 1
36.731691 5.900706 23.633031 44.074432 0.159283 1.004859 0.133879 -0.022785 453432.000000 0 0 1
37.576591 5.235706 24.538021 45.183263 0.138443 0.996698 0.143027 -0.030746 92453.500000 0 0 1
36.656091 4.222506 25.216861 44.692154 0.114687 0.971290 0.151025 -0.025287 207661.000000 0 0 1
36.296591 3.143806 24.404501 43.850949 0.086399 0.980589 0.155262 -0.027972 56368.900000 0 0 1
35.734691 2.120906 25.203161 43.779741 0.059282 0.957360 0.156812 -0.029844 -51162.900000 0 0 1
35.646091 0.687206 24.601511 43.316860 0.019276 0.966792 0.143283 -0.028906 -468645.000000 0 0 1
34.698291 0.565506 23.604731 41.969924 0.016296 0.973486 0.141035 -0.017679 -543519.000000 0 0 1
34.623691 -0.807494 23.273291 41.726467 -0.023318 0.979114 0.140224 -0.021469 136794.000000 0 0 1
33.414091 -1.312694 22.411461 40.255412 -0.039265 0.980350 0.139451 -0.006427 10517.100000 0 0 1
32.233591 -1.120294 23.169551 39.712561 -0.034742 0.947849 0.128490 0.001198 -965846.000000 0 0 1
31.271791 -1.803294 22.420261 38.520707 -0.057601 0.949572 0.132175 0.000129 -651260.000000 0 0 1
29.814191 -1.509294 22.791181 37.557980 -0.050580 0.918734 0.126362 0.003354 -284694.000000 0 0 1
29.454391 -0.173894 22.482891 37.054983 -0.005904 0.918838 0.109911 0.010880 -837185.000000 0 0 1
28.070591 -0.077394 22.519411 35.987330 -0.002757 0.894692 0.096767 0.001042 -587872.000000 0 0 1
27.598691 1.410706 22.211011 35.454292 0.051070 0.893782 0.075515 0.020726 19989.100000 0 0 1
27.626391 1.698706 20.834511 34.643613 0.061411 0.925550 0.085943 0.002301 73091.600000 0 0 1
26.976291 2.915606 20.561311 34.043921 0.107662 0.922331 0.096822 0.002490 -392101.000000 0 0 1
27.341991 3.613606 19.249511 33.633113 0.131402 0.961442 0.115586 -0.016023 -427834.000000 0 0 1
26.812591 3.156306 18.055011 32.478619 0.117178 0.981346 0.095032 -0.015242 -280655.000000 0 0 1
25.627791 3.763706 17.625611 31.330677 0.145818 0.973309 0.126609 -0.027447 -198525.000000 0 0 1
25.123291 3.290506 16.260611 30.106721 0.130233 1.000242 0.131393 -0.033487 515875.000000 0 0 1
26.135591 3.571206 15.260811 30.474825 0.135800 1.046311 0.118996 -0.023962 774286.000000 0 0 1
25.615391 3.744806 13.917211 29.391505 0.145165 1.077523 0.096180 -0.036630 -402927.000000 0 0 1
25.047091 2.607206 13.102411 28.387100 0.103719 1.091041 0.124038 -0.027825 -174489.000000 0 0 1
23.729491 2.254306 13.450711 27.369550 0.094716 1.057045 0.159487 -0.027056 91495.800000 0 0 1
23.442291 1.084006 12.819111 26.740338 0.046209 1.070834 0.159762 -0.029010 -1328820.000000 0 0 1
22.119591 0.511206 13.262111 25.795760 0.023107 1.030815 0.225357 -0.041805 -172695.000000 0 0 1
20.866991 1.054006 12.791211 24.498108 0.050468 1.021449 0.264175 -0.040387 1302660.000000 0 1 0
20.529391 0.914306 11.419411 23.509462 0.044507 1.063590 0.241246 -0.036058 -918502.000000 0 1 0
20.194591 -0.537494 10.963911 22.985164 -0.026609 1.073559 0.227691 -0.028684 -435897.000000 0 1 0
21.290591 -1.418294 10.924611 23.971816 -0.066518 1.097607 0.223093 -0.053876 1027590.000000 0 1 0
22.266391 -1.072094 9.871011 24.379877 -0.048111 1.153945 0.222873 -0.054822 1236740.000000 0 1 0
23.671891 -1.756594 10.036411 25.771565 -0.074070 1.170776 0.236196 -0.066302 728702.000000 0 0 1
24.449891 -1.484894 11.165211 26.919584 -0.060658 1.143115 0.208258 -0.062828 -255544.000000 0 0 1
25.491591 -2.391094 11.376411 28.017160 -0.093526 1.152667 0.125250 -0.051158 -180432.000000 0 0 1
26.084291 -2.157094 12.784611 29.128844 -0.082509 1.116424 0.146569 -0.037455 -108311.000000 0 0 1
26.801691 -0.971794 12.973411 29.792355 -0.036243 1.120246 0.110806 -0.035491 -162667.000000 0 0 1
26.856091 -0.726494 14.337711 30.452379 -0.027045 1.080572 0.098290 -0.026514 -60775.300000 0 0 1
27.901591 0.257406 14.888011 31.626222 0.009225 1.080657 0.173682 -0.030175 614509.000000 0 0 1
29.252791 -0.200394 14.987511 32.869308 -0.006850 1.097331 0.191135 -0.029496 410993.000000 0 0 1
30.188791 0.842306 14.934711 33.691515 0.027894 1.111544 0.174540 -0.030748 356855.000000 0 0 1
31.628791 0.311106 15.221811 35.102432 0.009836 1.122268 0.185931 -0.035574 392782.000000 0 0 1
32.184291 -0.535694 14.232011 35.194683 -0.016643 1.154496 0.220896 -0.040626 -135827.000000 0 0 1
33.396491 -1.124094 14.623211 36.475026 -0.033646 1.158286 0.210837 -0.038442 10289.200000 0 0 1
34.076291 -1.983394 13.515211 36.712237 -0.058139 1.193790 0.182744 -0.050340 72699.700000 0 0 1
34.494891 -1.169494 12.418111 36.680713 -0.033890 1.225425 0.204052 -0.049799 496191.000000 0 0 1
35.447691 -1.900294 11.640811 37.358512 -0.053557 1.253923 0.192664 -0.056644 183243.000000 0 0 1
35.607091 -1.592894 10.154711 37.061036 -0.044706 1.293247 0.234667 -0.048326 -120540.000000 0 0 1
36.270391 -0.374594 9.861211 37.588895 -0.010327 1.305346 0.183190 -0.035691 416320.000000 0 0 1
35.385791 0.737306 9.905511 36.753462 0.020833 1.297910 0.192800 -0.038640 -210987.000000 0 0 1
35.910891 2.064106 9.289011 37.150213 0.057415 1.318076 0.196028 -0.040219 -168906.000000 0 0 1
35.952991 2.099306 7.858611 36.861666 0.058324 1.355955 0.168531 -0.037291 193625.000000 0 0 1
36.451691 3.308406 7.398611 37.341810 0.090513 1.371344 0.165186 -0.032106 -304209.000000 0 0 1
36.574691 3.325406 5.881711 37.193559 0.090672 1.411992 0.144186 -0.021055 -120770.000000 0 0 1
36.812491 4.634406 5.370611 37.489741 0.125233 1.427046 0.123050 -0.008972 226382.000000 0 0 1
36.913591 4.767106 3.937511 37.427830 0.128431 1.465399 0.134359 -0.023907 -123775.000000 0 0 1
37.252491 6.182106 3.498011 37.923642 0.164453 1.478427 0.174183 -0.036460 -67332.400000 0 0 1
36.247991 7.147706 3.795011 37.140391 0.194691 1.468438 0.143994 -0.036139 -57475.000000 0 0 1
36.532591 8.495806 3.430111 37.663969 0.228493 1.479599 0.142633 -0.040528 -1122960.000000 0 0 1
35.274691 9.349806 3.617911 36.671678 0.259099 1.471979 0.161916 -0.053821 44846.300000 0 0 1
34.266391 9.200406 2.627311 35.577181 0.262310 1.496881 0.162839 -0.056532 237811.000000 0 0 1
33.555991 7.979606 2.631211 34.591934 0.233464 1.494658 0.180152 -0.044718 -1663870.000000 0 0 1
32.423591 7.989406 1.632511 33.433291 0.241594 1.521948 0.201618 -0.048537 -571191.000000 0 0 1
32.778191 7.667306 0.288911 33.664237 0.229783 1.562214 0.210845 -0.043525 422072.000000 0 0 1
31.630191 7.482006 -0.515689 32.507158 0.232277 1.586661 0.221159 -0.041505 -144094.000000 0 0 1
32.090091 7.121906 -1.927289 32.927343 0.218395 1.629361 0.187680 -0.030216 -657531.000000 0 0 1
31.137491 6.636306 -2.827589 31.962152 0.209987 1.659379 0.247013 -0.034941 136112.000000 0 0 1
31.672991 6.210106 -4.086289 32.533698 0.193613 1.696731 0.198690 -0.031561 -213543.000000 0 0 1
30.734591 5.341906 -4.992689 31.592372 0.172088 1.729496 0.256252 -0.026923 -207179.000000 0 0 1
30.375191 4.152606 -4.347989 30.964518 0.135868 1.711680 0.253325 -0.030296 926972.000000 0 0 1
29.364991 3.398806 -5.017889 29.983892 0.115231 1.738940 0.277740 -0.028444 105349.000000 0 0 1
29.413891 1.881106 -4.732789 29.851547 0.063866 1.730012 0.317766 -0.018144 -297771.000000 0 0 1
29.218091 1.462706 -3.380289 29.449324 0.050020 1.685833 0.355676 -0.028816 493406.000000 0 0 1
29.085091 0.065906 -3.375989 29.280440 0.002266 1.686352 0.318574 -0.036812 -165502.000000 0 0 1
29.402091 -0.384194 -1.935789 29.468251 -0.013066 1.636534 0.326239 -0.039094 199921.000000 0 0 1
30.751291 -0.287194 -1.511389 30.789749 -0.009339 1.619903 0.275248 -0.040110 405581.000000 0 0 1
30.800991 -0.420694 -0.129489 30.804136 -0.013658 1.575000 0.298721 -0.040529 285308.000000 0 0 1
32.130691 0.186506 0.416811 32.133936 0.005805 1.557825 0.323446 -0.034033 497710.000000 0 0 1
33.311791 -0.526894 0.110111 33.316140 -0.015816 1.567491 0.247743 -0.028416 157634.000000 0 0 1
34.440791 0.176806 0.568311 34.445933 0.005134 1.554297 0.161595 -0.031285 -231788.000000 0 0 1
-3.164909 -21.354494 -8.266589 23.116392 1.423659 1.936501 0.072087 -0.005838 -93183.200000 0 1 0
-3.591809 -21.738594 -7.011889 23.122157 1.407048 1.878902 0.076236 -0.017761 141035.000000 0 1 0
-2.950009 -22.972694 -6.560189 24.072460 1.443082 1.846806 0.076877 -0.017824 1823.130000 0 1 0
-3.526609 -23.406794 -5.199689 24.235341 1.421255 1.787027 0.087077 -0.021770 -564627.000000 0 1 0
-3.189309 -22.554994 -4.083089 23.142409 1.430326 1.748158 0.108028 -0.029625 -6516.040000 0 1 0
-3.576909 -23.018994 -2.784589 23.461081 1.416640 1.689766 0.111920 -0.043437 -342956.000000 0 1 0
-2.847809 -22.336494 -1.613289 22.575024 1.443985 1.642321 0.117092 -0.062159 411805.000000 0 1 0
-1.440609 -22.554294 -1.672489 22.662056 1.507010 1.644665 0.112644 -0.048306 -226005.000000 0 1 0
-0.902109 -22.530994 -0.406989 22.552719 1.530779 1.588843 0.101514 -0.050118 -1421630.000000 0 1 0
0.581591 -22.593994 -0.334089 22.603948 -1.545061 1.585577 0.093971 -0.045067 -817841.000000 0 1 0
1.305991 -21.365094 -0.770389 21.418832 -1.509745 1.606772 0.065578 -0.039777 390308.000000 0 1 0
2.505291 -21.210694 -0.043689 21.358182 -1.453227 1.572842 0.050257 -0.034040 159627.000000 0 1 0
3.418191 -20.017894 -0.449589 20.312613 -1.401671 1.592932 0.052586 -0.029705 941707.000000 0 1 0
4.133791 -20.442894 -1.663489 20.922891 -1.371275 1.650386 0.051445 -0.030990 70825.800000 0 1 0
5.086191 -19.497994 -2.114989 20.261153 -1.315626 1.675373 0.056007 -0.023954 2099.530000 0 1 0
5.772591 -19.936494 -3.441289 21.038752 -1.288955 1.735104 0.055681 -0.017436 -1377950.000000 0 1 0
6.814191 -20.762494 -3.109589 22.072243 -1.253675 1.712149 0.059796 -0.028829 -1082610.000000 0 1 0
7.498591 -21.262994 -4.236289 22.941010 -1.231754 1.756522 0.057194 -0.023301 -175156.000000 0 1 0
8.699591 -20.452794 -4.732389 22.724330 -1.168629 1.780584 0.072726 -0.021272 -707014.000000 0 1 0
8.497691 -19.325394 -5.512089 21.818908 -1.156527 1.826193 0.059415 -0.025874 726693.000000 0 1 0
9.780591 -18.822394 -5.975989 22.037580 -1.091572 1.845407 0.081207 -0.026400 919395.000000 0 1 0
9.697791 -17.771494 -7.062789 21.441925 -1.071265 1.906455 0.073376 -0.017891 -959903.000000 0 1 0
10.906591 -17.136794 -7.277489 21.577426 -1.004011 1.914815 0.089727 -0.032362 -410030.000000 0 1 0
10.860491 -16.240994 -8.375589 21.257249 -0.981381 1.975788 0.088879 -0.020781 -161139.000000 0 1 0
11.192091 -16.845394 -9.789089 22.469011 -0.984364 2.021580 0.084095 -0.009297 551989.000000 0 1 0
10.086391 -17.486894 -10.477489 22.744330 -1.047612 2.049539 0.081756 -0.021279 845888.000000 0 1 0
9.286391 -16.497794 -11.106789 21.949374 -1.058113 2.101359 0.061363 -0.032985 -172169.000000 0 1 0
8.704791 -16.821194 -12.501889 22.694122 -1.093255 2.154223 0.071277 -0.043479 258071.000000 0 1 0
7.636891 -17.773194 -12.398589 22.976805 -1.164963 2.140774 0.063690 -0.033853 328730.000000 0 1 0
6.923291 -17.918494 -13.587189 23.529048 -1.202089 2.186416 0.064908 -0.030848 -474253.000000 0 1 0
5.780491 -18.914594 -13.465389 23.926819 -1.274201 2.168534 0.066959 -0.021206 -227622.000000 0 1 0
6.198891 -20.281194 -13.246289 25.004345 -1.274167 2.129113 0.077153 -0.016949 305580.000000 0 0 1
5.072391 -21.060894 -12.832289 25.178524 -1.334453 2.105577 0.117417 -0.026846 442116.000000 0 0 1
5.345391 -22.519694 -12.474989 26.293254 -1.337744 2.065142 0.076276 -0.026258 -300006.000000 0 0 1
5.672891 -23.317594 -13.571089 27.569301 -1.332145 2.085473 0.104598 -0.028162 -197129.000000 0 0 1
5.383991 -24.693094 -13.375789 28.594545 -1.356120 2.057567 0.075047 -0.024566 -107451.000000 0 0 1
3.944491 -25.187224 -13.545789 28.869425 -1.415451 2.059191 0.096115 -0.030586 -650681.000000 0 0 1
3.020191 -24.604394 -12.686089 27.846627 -1.448657 2.043809 0.117567 -0.032001 -34650.900000 0 0 1
1.626691 -24.802194 -12.907489 28.007111 -1.505304 2.049766 0.099578 -0.042112 625204.000000 0 0 1
1.002691 -26.195784 -12.595589 29.083902 -1.532538 2.018701 0.075624 -0.022169 -616054.000000 0 0 1
1.339491 -27.135664 -13.605489 30.384994 -1.521474 2.035066 0.095131 -0.018318 65497.400000 0 0 1
0.842291 -28.421154 -13.301989 31.391311 -1.541169 2.008375 0.077165 -0.016679 1369150.000000 0 0 1
-0.680809 -28.721374 -13.621989 31.795274 1.547097 2.013549 0.047004 -0.016766 908222.000000 0 0 1
-1.678109 -28.148404 -12.834789 30.981939 1.511250 1.997933 0.052737 -0.024414 -1336950.000000 0 0 1
-2.895709 -28.633234 -13.242389 31.679774 1.470008 2.002047 0.067739 -0.020207 -692571.000000 0 0 1
-4.131409 -27.823064 -12.686089 30.856576 1.423385 1.994491 0.049259 -0.021045 523948.000000 0 0 1
-4.551209 -28.058384 -11.328789 30.599475 1.409992 1.950051 0.034269 -0.026024 65051.500000 0 0 1
-5.034009 -29.367114 -11.035989 31.773601 1.401030 1.925521 0.053354 -0.028998 -895745.000000 0 0 1
-5.468709 -29.536414 -9.564489 31.524372 1.387718 1.879055 0.039265 -0.023590 216468.000000 0 0 1
-6.733609 -28.980354 -9.186589 31.138334 1.342496 1.870278 0.056569 -0.020078 342600.000000 0 0 1
-6.770409 -27.565004 -9.212489 29.841881 1.329948 1.884633 0.065671 -0.023022 -1670210.000000 0 0 1
-8.142809 -26.977064 -8.827689 29.529569 1.277651 1.874382 0.072855 -0.025830 230359.000000 0 0 1
-9.078809 -26.970584 -9.902889 30.131452 1.246092 1.905677 0.124766 -0.034021 167616.000000 0 0 1
-9.578409 -28.290644 -10.193689 31.559749 1.244339 1.899690 0.117361 -0.037046 -610880.000000 0 0 1
-10.949209 -28.359094 -10.954589 32.312945 1.202337 1.916667 0.149694 -0.041065 432439.000000 0 0 1
-10.972809 -27.889574 -12.267489 32.383980 1.195960 1.959310 0.169034 -0.044928 194487.000000 0 0 1
-11.946209 -28.566024 -13.053889 33.602584 1.174702 1.969776 0.180349 -0.052407 -81088.600000 0 0 1
-12.500309 -27.882374 -14.322689 33.746466 1.149338 2.009118 0.188720 -0.046157 298209.000000 0 0 1
-13.598209 -26.971564 -14.207189 33.379946 1.103820 2.010444 0.185125 -0.057146 205600.000000 0 0 1
-13.562309 -25.908724 -13.280889 32.118223 1.088553 1.997091 0.192538 -0.044571 -486530.000000 0 0 1
-14.427409 -24.704394 -13.628589 31.689047 1.042223 2.015369 0.203727 -0.047758 -129671.000000 0 0 1
-13.914509 -23.938594 -14.708689 31.353076 1.044271 2.059102 0.204449 -0.050182 245715.000000 0 0 1
-14.796809 -22.852894 -14.918389 31.044463 0.996194 2.072077 0.218117 -0.048442 -25012.900000 0 0 1
-14.594809 -22.174294 -16.299589 31.150993 0.988688 2.121450 0.191599 -0.041519 -1019.410000 0 0 1
-13.317309 -21.579194 -16.374189 30.184871 1.017872 2.144163 0.167747 -0.035504 22784.500000 0 0 1
-13.215109 -20.745794 -17.524589 30.201628 1.003613 2.189836 0.110592 -0.029228 -259166.000000 0 0 1
-13.444709 -19.201394 -17.416689 29.202651 0.959940 2.209815 0.101453 -0.020227 506794.000000 0 0 1
-12.315209 -18.337394 -17.166389 27.975155 0.979393 2.231446 0.085177 -0.006128 568157.000000 0 0 1
-12.716409 -16.980794 -17.214989 27.320510 0.928019 2.252494 0.083114 -0.000410 618525.000000 0 0 1
-11.485409 -16.039794 -17.390889 26.298910 0.949375 2.293317 0.080689 -0.006065 819979.000000 0 0 1
-10.582909 -16.021694 -16.294989 25.183711 0.987050 2.274498 0.094215 -0.009701 363036.000000 0 0 1
-9.323009 -15.423594 -16.524789 24.451471 1.027101 2.312873 0.071675 -0.003672 -91838.900000 0 1 0
-8.687709 -14.766794 -15.266889 22.948037 1.039004 2.298666 0.056341 -0.004341 21266.400000 0 1 0
-8.210009 -15.684394 -14.227589 22.711864 1.088565 2.247772 0.052727 -0.001808 868346.000000 0 1 0
-7.040809 -16.451694 -14.572089 23.077630 1.166414 2.254202 0.045523 0.000602 221256.000000 0 1 0
-6.437109 -17.366494 -13.467189 22.899709 1.215834 2.199497 0.042429 0.001981 -241924.000000 0 1 0
-5.823809 -16.633894 -12.389289 21.542926 1.234017 2.183520 0.044985 -0.005633 372265.000000 0 1 0
-5.521109 -17.414494 -11.253389 21.456608 1.263780 2.122891 0.041893 -0.015172 -403393.000000 0 1 0
-4.499209 -18.545994 -11.384189 22.221533 1.332797 2.108662 0.052184 -0.014026 73926.100000 0 1 0
-3.144609 -18.087094 -11.508189 21.667256 1.398658 2.130733 0.057530 -0.006750 659822.000000 0 1 0
-2.236309 -19.190694 -11.621189 22.546305 1.454789 2.112313 0.047195 -0.000690 543605.000000 0 1 0
-0.821109 -18.919394 -12.149889 22.499722 1.527423 2.141235 0.050977 0.005082 -445688.000000 0 1 0
-0.788209 -18.613194 -13.549889 23.036314 1.528475 2.199624 0.058191 0.004744 306175.000000 0 1 0
0.360691 -17.896694 -14.027989 22.742169 -1.550645 2.235502 0.060635 -0.008837 1322360.000000 0 1 0
1.790491 -18.545294 -14.014289 23.313818 -1.474548 2.215692 0.078338 -0.021240 497070.000000 0 1 0
1.996591 -19.582094 -14.956289 24.721152 -1.469187 2.220562 0.105530 -0.017063 -175502.000000 0 1 0
1.381191 -20.793694 -14.576489 25.431466 -1.504470 2.181162 0.113717 -0.023010 -925750.000000 0 0 1
1.513391 -21.859694 -15.656489 26.930693 -1.501675 2.191198 0.132826 -0.021492 1287600.000000 0 0 1
2.778691 -22.355094 -16.170689 27.730174 -1.447133 2.193390 0.135881 -0.027720 833786.000000 0 0 1
3.779791 -21.400094 -16.482989 27.275260 -1.395974 2.219709 0.126221 -0.029042 253014.000000 0 0 1
5.207291 -22.029194 -16.635889 28.091886 -1.338676 2.204577 0.125459 -0.026201 462410.000000 0 0 1
5.523291 -22.479394 -17.945389 29.289365 -1.329864 2.230260 0.120514 -0.018086 -653901.000000 0 0 1
6.682891 -23.230994 -18.016289 30.148413 -1.290688 2.211284 0.119141 -0.024510 -635996.000000 0 0 1
7.165091 -23.260594 -19.445989 31.153495 -1.271984 2.244903 0.108297 -0.017999 -119662.000000 0 0 1
7.364391 -21.933694 -19.897889 30.516343 -1.246866 2.281069 0.129266 -0.032577 61240.300000 0 0 1
7.816091 -21.928794 -21.271689 31.534870 -1.228404 2.311145 0.105903 -0.030851 210587.000000 0 0 1
8.168991 -20.496794 -21.755389 30.986254 -1.191541 2.349136 0.095156 -0.034768 -30955.500000 0 0 1
6.968791 -19.871194 -22.113889 30.536085 -1.233500 2.380654 0.131461 -0.039540 -54885.000000 0 0 1
7.086891 -18.462494 -22.293989 29.801169 -1.204286 2.415977 0.136078 -0.039454 36490.500000 0 0 1
5.701691 -17.803194 -22.496489 29.249872 -1.260856 2.448250 0.135936 -0.037460 -517831.000000 0 0 1
5.098591 -18.067694 -23.746589 30.271070 -1.295754 2.472629 0.127750 -0.036806 -431041.000000 0 0 1
4.093791 -17.190594 -24.116089 29.897515 -1.337010 2.509216 0.139556 -0.035040 414888.000000 0 0 1
2.727591 -17.182194 -23.348989 29.117741 -1.413365 2.501235 0.137985 -0.027528 -10106.400000 0 0 1
2.727891 -16.621194 -22.064789 27.758970 -1.408125 2.489591 0.146891 -0.028950 -233054.000000 0 0 1
1.453691 -16.119894 -21.700489 27.071672 -1.480860 2.500753 0.155509 -0.028804 389656.000000 0 0 1
1.519991 -15.222294 -20.421089 25.515671 -1.471273 2.498650 0.144407 -0.035095 102507.000000 0 0 1
2.218491 -14.011594 -20.664889 25.065596 -1.413767 2.539995 0.125072 -0.027743 -183455.000000 0 0 1
2.477091 -13.379394 -19.442489 23.730878 -1.387727 2.530969 0.120920 -0.029719 -32450.300000 0 1 0
3.612291 -12.342594 -19.572389 23.419366 -1.286079 2.560267 0.112864 -0.029616 -697620.000000 0 1 0
4.885291 -12.960294 -19.590489 23.992135 -1.210323 2.526185 0.106380 -0.020435 -378292.000000 0 1 0
5.960791 -12.060494 -19.526089 23.711911 -1.111767 2.538300 0.095675 -0.024200 199299.000000 0 1 0
6.139391 -11.191794 -18.272689 22.289898 -1.069058 2.531813 0.105741 -0.023675 -941300.000000 0 1 0
5.375591 -9.999694 -18.239489 21.484176 -1.077542 2.584835 0.060849 -0.013071 21877.200000 0 1 0
5.851191 -8.855394 -19.049189 21.806560 -0.986902 2.633252 0.078252 -0.021569 -105536.000000 0 1 0
5.262391 -8.806194 -20.479189 22.904999 -1.032159 2.677197 0.102790 -0.032573 -1554130.000000 0 1 0
3.922291 -8.578294 -20.481589 22.549213 -1.141943 2.710013 0.088720 -0.026919 -1836660.000000 0 1 0
3.413191 -8.945894 -21.736189 23.751649 -1.206307 2.726662 0.092612 -0.031233 281220.000000 0 1 0
1.876391 -8.871194 -21.930489 23.731104 -1.362354 2.749534 0.076591 -0.025756 413984.000000 0 1 0
1.347891 -7.577294 -21.975689 23.284396 -1.394752 2.804725 0.062932 -0.023150 -1150750.000000 0 1 0
-0.033709 -7.548694 -22.052289 23.308526 1.566331 2.811783 0.063237 -0.023703 -698327.000000 0 1 0
-0.413709 -6.387294 -22.990789 23.865143 1.506116 2.870067 0.066112 -0.017626 -69234.200000 0 1 0
-0.206609 -6.666194 -24.334589 25.231985 1.539813 2.874091 0.067063 -0.016967 -432380.000000 0 0 1
-1.080209 -6.040094 -25.245769 25.980732 1.393827 2.903168 0.097248 -0.031567 -42522.600000 0 0 1
-0.662709 -4.576394 -25.576429 25.991081 1.426986 2.962728 0.099159 -0.034122 300057.000000 0 0 1
-1.317209 -4.142294 -26.775399 27.125922 1.262918 2.980658 0.103293 -0.034153 203679.000000 0 0 1
-0.905209 -2.834794 -27.184149 27.346543 1.261710 3.032558 0.092666 -0.032119 -641253.000000 0 0 1
-1.239509 -1.649494 -26.212889 26.293968 0.926369 3.063041 0.085471 -0.035245 -178105.000000 0 0 1
-2.606309 -1.374694 -26.065189 26.231216 0.485365 3.029022 0.077364 -0.033962 -543831.000000 0 0 1
-3.214709 -0.775094 -27.172869 27.373343 0.236593 3.020492 0.094336 -0.028291 -502024.000000 0 0 1
-4.740109 -0.987094 -27.038709 27.468796 0.205309 2.964402 0.094945 -0.031726 -97007.200000 0 0 1
-5.409009 -0.179494 -26.098499 26.653729 0.033172 2.937123 0.092227 -0.027543 -402014.000000 0 0 1
-6.756909 -0.588794 -26.101319 26.968154 0.086920 2.887362 0.113325 -0.041234 -342116.000000 0 0 1
-7.640509 0.385606 -25.267539 26.400276 -0.050426 2.847597 0.127676 -0.035693 -387666.000000 0 0 1
-7.908409 1.724606 -25.786319 27.026865 -0.214711 2.837435 0.147318 -0.042323 883617.000000 0 0 1
-8.954009 1.880806 -26.786719 28.306183 -0.207042 2.812452 0.161372 -0.045581 1547370.000000 0 0 1
-10.440009 1.524906 -26.407239 28.436972 -0.145038 2.761482 0.157941 -0.043080 -24989.000000 0 0 1
-11.366109 2.177406 -27.225559 29.583113 -0.189277 2.739662 0.157238 -0.050731 -236750.000000 0 0 1
-12.634609 1.649906 -26.856159 29.725558 -0.129851 2.698594 0.108654 -0.029444 -62852.600000 0 0 1
-13.760309 2.206106 -27.738049 31.042106 -0.158971 2.676014 0.089724 -0.023367 511226.000000 0 0 1
-15.079909 1.754106 -27.371879 31.300165 -0.115800 2.635193 0.077307 -0.022353 1200780.000000 0 0 1
-16.150709 2.157906 -28.213939 32.581104 -0.132824 2.617863 0.067138 -0.022761 661935.000000 0 0 1
-16.939309 3.395606 -27.581869 32.545811 -0.197835 2.582013 0.078712 -0.010227 -216997.000000 0 0 1
-16.324609 4.662706 -27.553789 32.364254 -0.278216 2.589378 0.091971 -0.010293 -117866.000000 0 0 1
-16.051209 5.292506 -28.792539 33.386558 -0.318501 2.610786 0.080915 -0.013433 165115.000000 0 0 1
-17.282009 5.770606 -29.633539 34.786698 -0.322268 2.590330 0.081044 -0.010782 552486.000000 0 0 1
-18.001209 6.871906 -29.094049 34.895993 -0.364673 2.556636 0.083931 -0.004843 219541.000000 0 0 1
-18.980209 7.400006 -29.981699 36.247906 -0.371752 2.544776 0.073420 -0.008912 115609.000000 0 0 1
-19.820009 8.537606 -29.317379 36.403738 -0.406737 2.507045 0.075434 -0.009707 -403275.000000 0 0 1
-19.078309 9.474606 -28.576919 35.642535 -0.460937 2.501038 0.075119 -0.006584 49321.800000 0 0 1
-19.875509 10.586706 -28.202289 36.089933 -0.489426 2.467774 0.099050 -0.004946 78795.000000 0 0 1
-9.022809 24.854006 30.692781 40.511473 -1.222559 0.711119 0.064087 -0.020939 -717193.000000 0 0 1
-9.802409 25.992106 30.516431 41.266564 -1.210159 0.738476 0.069833 -0.022082 -129914.000000 0 0 1
-9.657209 26.990706 31.459673 42.561378 -1.227192 0.738974 0.080965 -0.022136 -571745.000000 0 0 1
-8.321009 27.719306 31.413185 42.712847 -1.279167 0.744465 0.071935 -0.020564 -499480.000000 0 0 1
-8.187109 28.601606 30.307321 42.468980 -1.292005 0.776124 0.088128 -0.015961 685677.000000 0 0 1
-6.836609 28.723406 29.846521 41.983188 -1.337129 0.779996 0.094486 -0.009804 599648.000000 0 0 1
-6.665609 29.844106 28.832661 42.028839 -1.351055 0.814790 0.120807 -0.017681 -169662.000000 0 0 1
-6.736509 31.156006 29.368401 43.342591 -1.357856 0.826319 0.127793 -0.020904 213081.000000 0 0 1
-6.392809 32.069906 28.408451 43.317282 -1.374036 0.855525 0.145995 -0.023824 -194662.000000 0 0 1
-6.443109 33.394506 29.121021 44.774329 -1.380199 0.862691 0.163231 -0.033116 233689.000000 0 0 1
-5.490309 33.534006 30.189371 45.454055 -1.408513 0.844409 0.179648 -0.035411 279687.000000 0 0 1
-5.874709 -32.977923 31.160551 45.749706 1.394505 0.821520 0.186980 -0.032933 817648.000000 0 0 1
-7.182009 -33.280323 32.014807 46.734452 1.358252 0.816142 0.144768 -0.027779 905384.000000 0 0 1
-7.090709 33.256706 33.090490 47.447520 -1.360730 0.799016 0.140644 -0.027894 -32021.900000 0 0 1
-7.120109 31.863306 32.764142 46.254245 -1.350950 0.783640 0.128428 -0.017963 -55368.100000 0 0 1
-7.126209 30.874506 -33.331609 45.989283 -1.343957 2.381495 0.112669 -0.013779 568019.000000 0 0 1
-5.816209 30.826406 -32.753439 45.352876 -1.384312 2.377761 0.109811 -0.009767 467856.000000 0 0 1
-5.882109 30.063406 -31.528839 43.959928 -1.377580 2.370598 0.118234 -0.017045 -603702.000000 0 0 1
-4.581309 29.663806 -30.812489 43.015570 -1.417566 2.369296 0.128725 -0.027219 195178.000000 0 0 1
-3.771009 28.612106 -31.296139 42.571368 -1.439754 2.396677 0.130623 -0.014785 438304.000000 0 0 1
-3.298709 28.653606 -32.638329 43.556528 -1.456177 2.417850 0.112945 -0.018066 -472413.000000 0 0 1
-2.616109 27.335806 -33.108969 43.015045 -1.475384 2.449178 0.113984 -0.028568 -798019.000000 0 0 1
-1.449309 26.994206 -32.423849 42.214851 -1.517158 2.446614 0.127643 -0.020673 -162345.000000 0 0 1
-0.955209 25.677506 -32.581979 41.494964 -1.533613 2.473821 0.141580 -0.019237 428411.000000 0 0 1
-0.348709 25.334106 33.309711 41.850631 -1.557033 0.650272 0.120681 -0.010181 111929.000000 0 0 1
-1.425509 25.308906 32.378736 41.121227 -1.514531 0.664221 0.123252 -0.004737 319214.000000 0 0 1
-1.024709 25.172206 30.991131 39.939206 -1.530111 0.682565 0.150326 -0.010703 270553.000000 0 0 1
-0.453209 26.436206 30.274421 40.194762 -1.553655 0.717893 0.129850 -0.013714 948320.000000 0 0 1
-1.491909 27.376806 29.930281 40.589863 -1.516355 0.741608 0.109384 -0.017437 943503.000000 0 0 1
-0.884309 28.612906 29.506841 41.111240 -1.539900 0.770257 0.115892 -0.016060 741011.000000 0 0 1
-1.940809 29.772806 29.603991 42.030738 -1.505701 0.789301 0.122634 -0.014770 420574.000000 0 0 1
-2.238809 30.120806 30.932161 43.232786 -1.496605 0.773486 0.136738 -0.027285 -186733.000000 0 0 1
-2.846209 31.388606 30.977241 44.192023 -1.480367 0.794041 0.146891 -0.024747 3555.060000 0 0 1
-2.422409 32.310106 32.214611 45.690176 -1.495963 0.788279 0.158424 -0.009991 -523825.000000 0 0 1
-1.186009 32.870006 31.956579 45.859206 -1.534730 0.799813 0.201398 -0.033592 -846811.000000 0 0 1
-0.461809 33.058706 33.174869 46.836558 -1.556828 0.783693 0.155960 -0.027350 571126.000000 0 0 1
1.059591 33.331306 32.984674 46.905089 1.539017 0.790878 0.167342 -0.047312 279589.000000 0 0 1
1.317791 -32.819023 32.492960 46.201919 -1.530665 0.790793 0.209069 -0.060874 -39180.300000 0 0 1
2.668891 -32.497823 32.281237 45.883654 -1.488855 0.790422 0.152955 -0.062181 -220778.000000 0 0 1
2.800391 -30.988423 31.768142 44.467285 -1.480672 0.775007 0.159197 -0.057465 -647198.000000 0 0 1
2.354391 -30.143423 32.824332 44.627412 -1.492848 0.744363 0.156427 -0.053538 203965.000000 0 0 1
2.723891 -28.769423 32.734940 43.665497 -1.476398 0.723225 0.121560 -0.059921 -255054.000000 0 0 1
2.159291 -28.016923 -33.378489 43.631801 -1.493877 2.441843 0.122428 -0.053315 -213682.000000 0 0 1
0.754791 -28.048723 -33.309369 43.552436 -1.543893 2.441544 0.131684 -0.055567 -127664.000000 0 0 1
0.320191 -27.510823 -32.063839 42.249706 -1.559158 2.432438 0.121335 -0.050938 130914.000000 0 0 1
-1.224709 -27.424623 -32.017599 42.175070 1.526169 2.432817 0.171679 -0.059944 251907.000000 0 0 1
-1.749609 -26.962123 -30.754269 40.937053 1.505996 2.420762 0.174754 -0.057822 -477942.000000 0 0 1
-3.093409 -26.623123 -30.866889 40.879392 1.455122 2.426560 0.189372 -0.056970 -636068.000000 0 0 1
-3.465009 -25.850823 -29.567299 39.427104 1.437552 2.418742 0.203285 -0.061134 -234715.000000 0 0 1
-3.713609 -26.628223 -28.418519 39.121163 1.432229 2.383899 0.219579 -0.062966 82090.400000 0 0 1
-3.844009 -25.910723 -27.197259 37.760202 1.423515 2.374977 0.231819 -0.053687 -950140.000000 0 0 1
-2.554409 -25.445623 -26.602679 36.901318 1.470745 2.375917 0.210748 -0.050218 -1124410.000000 0 0 1
-1.831209 -24.471923 -27.302739 36.710597 1.496107 2.409428 0.195588 -0.048092 264216.000000 0 0 1
-0.661409 -24.178623 -26.542909 35.910574 1.543448 2.402588 0.152695 -0.040877 -767247.000000 0 0 1
0.128791 -23.000323 -27.110919 35.553247 -1.565197 2.438033 0.097311 -0.028340 131570.000000 0 0 1
0.838891 -23.208923 -28.327289 36.630495 -1.534667 2.454866 0.064843 -0.036140 734873.000000 0 0 1
1.883691 -24.214823 -28.299499 37.292997 -1.493162 2.432330 0.058078 -0.026632 136706.000000 0 0 1
2.697391 -24.466023 -29.591359 38.490398 -1.460989 2.447756 0.041463 -0.033550 212162.000000 0 0 1
3.583091 -23.379523 -29.807579 38.051707 -1.418722 2.470824 0.054226 -0.029402 -186115.000000 0 0 1
4.550891 -23.741623 -30.762279 39.124073 -1.381409 2.475553 0.065358 -0.030677 -676369.000000 0 0 1
5.591091 -22.587023 -30.949579 38.720929 -1.328139 2.496923 0.079512 -0.043082 950228.000000 0 0 1
6.763291 -22.618123 -30.055219 38.218291 -1.280238 2.475771 0.052671 -0.036280 1970050.000000 0 0 1
7.738791 -23.658423 -30.210649 39.144517 -1.254662 2.452420 0.061400 -0.026618 33256.300000 0 0 1
8.308891 -24.021623 -31.607089 40.559637 -1.237786 2.464304 0.078821 -0.021666 -1353190.000000 0 0 1
7.473891 -24.746023 -32.417169 41.462001 -1.277484 2.468428 0.053464 -0.027384 -579286.000000 0 0 1
7.673691 -24.595423 33.499451 42.261491 -1.268370 0.655619 0.064400 -0.025485 56539.600000 0 0 1
7.230291 -23.194923 32.885624 40.886989 -1.268623 0.636291 0.077134 -0.027199 331428.000000 0 0 1
5.850591 -22.937523 33.100334 40.693875 -1.321055 0.620826 0.076862 -0.034092 178193.000000 0 0 1
5.365391 -21.772723 32.398166 39.401523 -1.329183 0.605431 0.096857 -0.050313 393336.000000 0 0 1
3.928691 -21.464923 32.911052 39.488161 -1.389772 0.585491 0.091540 -0.052289 780020.000000 0 0 1
2.890991 -22.378023 32.552402 39.607987 -1.442319 0.606120 0.078273 -0.053281 275555.000000 0 0 1
2.681091 -23.478523 33.466961 40.969095 -1.457096 0.614810 0.076745 -0.042246 -545890.000000 0 0 1
1.326691 -24.152023 33.231871 41.102769 -1.515921 0.629186 0.092466 -0.052681 -204402.000000 0 0 1
1.214791 -24.829323 31.981291 40.506468 -1.521910 0.660745 0.095661 -0.048569 61759.500000 0 0 1
-0.013709 -25.521223 31.921647 40.869604 1.570259 0.674434 0.145036 -0.052139 -177804.000000 0 0 1
-0.369509 -26.303723 30.661581 40.399937 1.556749 0.709095 0.146743 -0.058246 -508243.000000 0 0 1
-1.729709 -26.461423 30.407261 40.346008 1.505522 0.717180 0.182482 -0.054719 -490420.000000 0 0 1
-1.944609 -27.527323 29.463481 40.368698 1.500271 0.752680 0.196405 -0.061947 589895.000000 0 0 1
-3.376009 -27.461223 28.844841 39.969252 1.448473 0.764576 0.233554 -0.064590 -135995.000000 0 0 1
-4.457109 -27.763723 29.646651 40.860911 1.411617 0.758962 0.248598 -0.064117 -591027.000000 0 0 1
-5.538309 -28.039423 28.784831 40.564130 1.375788 0.781848 0.241087 -0.051878 -877826.000000 0 0 1
-6.856109 -28.371323 29.395931 41.425342 1.333686 0.781849 0.192738 -0.042570 -390371.000000 0 0 1
-8.021209 -28.639323 28.603571 41.263966 1.297716 0.804897 0.190668 -0.044856 885811.000000 0 0 1
-9.211809 -28.984623 29.280831 42.217684 1.263075 0.804366 0.169014 -0.041525 96524.200000 0 0 1
-9.334609 -30.260523 30.189311 43.751899 1.271583 0.809291 0.118321 -0.029124 -596019.000000 0 0 1
-9.388609 -31.585123 29.577461 44.278575 1.281866 0.839297 0.126624 -0.032029 1005970.000000 0 0 1
-10.608109 -31.855523 28.856241 44.271763 1.249340 0.860844 0.123668 -0.031092 590000.000000 0 0 1
-10.566109 -33.295923 28.328781 44.975338 1.263509 0.889406 0.116630 -0.025202 -432684.000000 0 0 1
-10.691509 33.152206 29.302671 45.519486 -1.258829 0.871422 0.120532 -0.020742 277164.000000 0 0 1
-10.497109 31.916606 28.708291 44.193042 -1.253048 0.863724 0.116264 -0.031433 -272379.000000 0 0 1
-10.988309 30.752206 29.569231 44.054290 -1.227617 0.834970 0.099791 -0.009327 323027.000000 0 0 1
-12.396609 30.716606 29.758961 44.528435 -1.187208 0.838857 0.100218 -0.002922 80903.200000 0 0 1
-12.890409 29.553106 30.325371 44.262589 -1.159496 0.816022 0.086357 -0.008150 25110.500000 0 0 1
-12.761309 29.335606 31.831295 45.129371 -1.160477 0.787902 0.095131 -0.020133 -389704.000000 0 0 1
-13.797109 30.074906 32.421664 46.325203 -1.140683 0.795580 0.092900 -0.013225 180384.000000 0 0 1
-13.954109 29.700006 -33.497109 46.892044 -1.131570 2.366484 0.098711 -0.014861 215181.000000 0 0 1
-15.337309 30.121706 -32.923519 47.185891 -1.099833 2.343035 0.088321 -0.014653 247447.000000 0 0 1
-15.530009 29.633806 -31.594339 46.016800 -1.088083 2.327575 0.058141 -0.007722 309719.000000 0 0 1
-16.834809 29.882206 -31.081549 46.286280 -1.057744 2.307037 0.078240 -0.013943 412694.000000 0 0 1
-17.058409 29.537806 -29.572279 45.144113 -1.047077 2.285064 0.082291 -0.019356 30789.000000 0 0 1
-16.953009 28.134606 -29.393539 44.078801 -1.028491 2.300758 0.065935 -0.017595 99235.600000 0 0 1
-17.138109 27.925806 -28.044019 43.128093 -1.020363 2.278709 0.054252 -0.013464 -86342.200000 0 0 1
-17.650309 26.541006 -27.636679 42.187017 -0.983934 2.285110 0.045097 -0.022847 514290.000000 0 0 1
-19.047809 26.303206 -27.776229 42.734021 -0.944037 2.278354 0.044529 -0.018671 401528.000000 0 0 1
-19.482909 25.062806 -27.186899 41.795400 -0.910011 2.279007 0.031264 -0.022542 927571.000000 0 0 1
-20.931309 24.566806 -27.525979 42.418477 -0.865133 2.276954 0.050298 -0.024869 190183.000000 0 0 1
-22.017609 25.183906 -26.935029 42.947642 -0.852378 2.248698 0.057677 -0.031389 -256095.000000 0 0 1
-23.198909 24.481106 -27.281799 43.379839 -0.812283 2.250940 0.106035 -0.035921 172340.000000 0 0 1
-24.274209 24.406806 -26.181439 43.248088 -0.788122 2.221037 0.120628 -0.039843 3549.830000 0 0 1
-24.925359 25.654306 -25.985259 44.211431 -0.799809 2.199071 0.088335 -0.027723 176762.000000 0 0 1
-26.137309 25.707806 -25.246069 44.513079 -0.777114 2.173851 0.086543 -0.034084 446111.000000 0 0 1
-26.102099 25.393906 -23.704089 43.451742 -0.771647 2.147814 0.068805 -0.023578 -580268.000000 0 0 1
-26.159609 23.979606 -23.356989 42.484062 -0.741947 2.152900 0.089015 -0.020640 1095660.000000 0 0 1
-27.482999 23.403606 -23.122289 42.868219 -0.705403 2.140498 0.086415 -0.020259 1083800.000000 0 0 1
-28.178939 23.696406 -21.784389 42.780040 -0.699203 2.105073 0.075289 -0.016163 -277823.000000 0 0 1
-27.587579 23.230506 -20.586089 41.527316 -0.699869 2.089465 0.066490 -0.013116 825110.000000 0 0 1
-26.370909 23.950606 -20.244289 40.974231 -0.737338 2.087565 0.052242 -0.005436 898159.000000 0 0 1
-25.672219 23.395306 -18.956289 39.569484 -0.739028 2.070384 0.043427 -0.003826 -43103.600000 0 0 1
-26.313899 23.618706 -17.708889 39.545787 -0.731474 2.035108 0.032185 0.006871 -223147.000000 0 0 1
-25.465339 23.329406 -16.623289 38.328558 -0.741652 2.019397 0.061714 -0.012370 -467136.000000 0 0 1
-25.971999 23.561206 -15.192189 38.216197 -0.736766 1.979623 0.059785 -0.015061 -349049.000000 0 0 1
-26.137229 24.927506 -14.793889 39.030686 -0.761713 1.959547 0.060294 -0.017178 58786.100000 0 0 1
-26.628469 24.963906 -13.448989 38.899193 -0.753146 1.923823 0.042984 -0.030113 243913.000000 0 0 1
-26.739539 26.359706 -12.748889 39.653136 -0.778245 1.898120 0.053051 -0.025163 -29974.300000 0 0 1
-25.462269 26.920006 -12.596989 39.136913 -0.813220 1.898500 0.072034 -0.036096 -304485.000000 0 0 1
-25.351519 27.730106 -11.458089 39.280352 -0.830178 1.866800 0.080480 -0.035481 642836.000000 0 0 1
-23.830809 27.999406 -11.181489 38.430455 -0.865653 1.866020 0.096294 -0.037759 722098.000000 0 0 1
-23.222609 26.915806 -10.427889 37.047146 -0.858925 1.856128 0.093963 -0.037331 -56623.100000 0 0 1
-21.996609 27.391806 -9.913589 36.502617 -0.894207 1.845837 0.090122 -0.038717 -299411.000000 0 0 1
-21.111509 26.287406 -9.352789 34.988543 -0.894166 1.841397 0.160968 -0.042075 -352538.000000 0 0 1
-20.341409 25.667006 -10.351289 34.347013 -0.900638 1.876929 0.144483 -0.041536 96287.300000 0 0 1
-19.689209 24.500206 -9.851889 32.939107 -0.893843 1.874539 0.161793 -0.045986 -412665.000000 0 0 1
-18.956309 23.715306 -10.903289 32.258938 -0.896465 1.915580 0.145243 -0.041949 -546446.000000 0 0 1
-18.158909 22.704306 -10.370889 30.867245 -0.896177 1.913446 0.108404 -0.032260 -28821.600000 0 0 1
-17.769709 21.839106 -11.349689 30.356623 -0.887779 1.953984 0.132515 -0.025834 167534.000000 0 0 1
-17.293209 20.432606 -10.809189 28.868409 -0.868423 1.954578 0.118021 -0.021403 253688.000000 0 0 1
-18.409109 19.620406 -10.544389 28.897054 -0.817239 1.944316 0.123708 -0.018203 276511.000000 0 0 1
-17.934809 18.320706 -10.381389 27.660059 -0.796042 1.955539 0.148510 -0.037227 281578.000000 0 0 1
-19.147709 17.287706 -10.352689 27.797081 -0.734393 1.952431 0.130252 -0.019158 950460.000000 0 0 1
-19.664109 16.863706 -11.582989 28.376529 -0.708883 1.991266 0.119384 -0.014173 118300.000000 0 0 1
-20.536309 17.813206 -12.175789 29.787583 -0.714510 1.991885 0.126183 -0.015911 -268584.000000 0 0 1
-21.364209 17.193706 -13.394989 30.520135 -0.677655 2.025160 0.120739 -0.012349 123521.000000 0 0 1
-20.617709 16.853006 -14.529989 30.335364 -0.685264 2.070287 0.117517 -0.010624 387482.000000 0 0 1
-21.442509 16.297406 -15.567389 31.108363 -0.649903 2.094885 0.127809 -0.013001 512724.000000 0 0 1
-20.567109 16.108006 -16.823389 31.072500 -0.664408 2.142926 0.139378 -0.023571 304019.000000 0 0 1
-19.967309 17.325706 -17.297789 31.592515 -0.714683 2.150204 0.119841 -0.023847 511405.000000 0 0 1
-19.134609 17.137106 -18.437889 31.619130 -0.730383 2.193366 0.117866 -0.020175 112574.000000 0 0 1
-18.208809 18.365306 -18.782989 31.963195 -0.789677 2.198941 0.101263 -0.016393 760937.000000 0 0 1
-17.185909 18.519006 -17.761089 30.883091 -0.822717 2.183532 0.134068 -0.022849 572075.000000 0 0 1
-16.431709 19.665906 -17.982789 31.307022 -0.874755 2.182669 0.150954 -0.014014 -274788.000000 0 0 1
34.321153 30.770606 1.879711 46.133556 0.730905 1.530040 0.117915 -0.012003 -656479.000000 0 0 1
35.501733 30.550006 1.201711 46.852107 0.710571 1.545144 0.124855 -0.016698 -846018.000000 0 0 1
35.680863 31.377606 0.098711 47.515133 0.721314 1.568719 0.102825 -0.013414 135773.000000 0 0 1
37.123383 31.157006 -0.402789 48.467172 0.698239 1.579107 0.066801 -0.017464 178422.000000 0 0 1
-38.069469 31.719206 0.327811 49.553001 -0.694655 1.564181 0.056419 -0.016830 -39161.900000 0 0 1
-36.883479 31.459706 -0.376089 48.479331 -0.706203 1.578554 0.061207 -0.010921 -55918.800000 0 0 1
-35.750889 32.512706 -0.234189 48.324496 -0.737997 1.575643 0.051223 -0.012367 285842.000000 0 0 1
-35.179004 32.477506 1.084711 47.890785 -0.745490 1.548145 0.045451 -0.018618 81959.200000 0 0 1
-34.590704 33.678806 1.495211 48.301288 -0.772042 1.539835 0.035199 -0.009638 -509746.000000 0 0 1
-33.955607 33.544606 2.877411 47.817395 -0.779309 1.510585 0.049122 -0.007173 -527985.000000 0 0 1
-33.438269 -32.677323 3.401511 46.877453 0.773889 1.498171 0.041984 -0.000420 108761.000000 0 0 1
-32.877629 -33.003123 4.650511 46.816364 0.787303 1.471297 0.065543 -0.008967 -399964.000000 0 0 1
-32.541319 -31.764623 5.539111 45.810594 0.773321 1.449586 0.078210 -0.007339 146044.000000 0 0 1
-33.648639 -31.180423 6.183711 46.289178 0.747344 1.436807 0.062826 -0.004713 327307.000000 0 0 1
-34.268249 -31.950223 7.229911 47.406764 0.750407 1.417691 0.059192 -0.023718 -1705200.000000 0 0 1
-35.350816 -31.229723 8.088111 47.858054 0.723581 1.400979 0.076690 -0.019831 1929890.000000 0 0 1
-36.708649 -31.141323 7.537411 48.724937 0.703528 1.415480 0.058884 -0.011652 1618460.000000 0 0 1
-37.247689 -32.332723 7.012311 49.819352 0.714878 1.429573 0.065089 -0.013426 -455294.000000 0 0 1
37.462233 -32.237023 6.703611 49.875675 -0.710570 1.435982 0.077166 -0.011740 1438060.000000 0 0 1
36.668403 -32.271623 7.914811 49.484075 -0.721708 1.410160 0.075074 -0.012220 594021.000000 0 0 1
35.311513 -31.993923 7.594911 48.251391 -0.736146 1.412736 0.068026 -0.002555 181425.000000 0 0 1
34.387323 -32.397323 8.789411 48.055471 -0.755610 1.386860 0.072075 -0.018840 1319930.000000 0 0 1
32.966463 -32.192323 8.446811 46.845298 -0.773518 1.389492 0.088764 -0.019228 2122170.000000 0 0 1
32.148023 -32.309623 9.614011 46.581502 -0.787905 1.362911 0.103979 -0.032783 53348.600000 0 0 1
32.322503 -31.122623 10.671511 46.122045 -0.766488 1.337305 0.095873 -0.023109 -769504.000000 0 0 1
31.865163 -29.799323 10.403311 44.851055 -0.751909 1.336712 0.088939 -0.029319 159406.000000 0 0 1
32.252143 -29.221223 9.180911 44.478868 -0.736133 1.362891 0.090881 -0.028648 -63666.200000 0 0 1
31.600663 -27.822123 8.959311 43.045809 -0.721896 1.361129 0.089649 -0.029877 82539.900000 0 0 1
31.796423 -27.279523 7.646611 42.587035 -0.709087 1.390265 0.092829 -0.033368 75637.800000 0 0 1
31.161563 -26.000623 7.570311 41.284198 -0.695356 1.386382 0.080423 -0.028628 123472.000000 0 0 1
31.284263 -25.453323 6.118911 40.792375 -0.682987 1.420227 0.066653 -0.008539 467638.000000 0 0 1
32.641293 -25.092623 5.939511 41.597735 -0.655386 1.427522 0.076860 -0.007056 -67124.800000 0 0 1
32.773083 -24.513823 4.603211 41.184852 -0.642211 1.458793 0.073663 0.000795 -297638.000000 0 0 1
34.065303 -23.765423 4.218411 41.749673 -0.609142 1.469583 0.091155 -0.005589 235230.000000 0 0 1
35.058653 -24.783123 4.132811 43.132267 -0.615345 1.474832 0.075757 -0.001718 -570349.000000 0 0 1
36.353333 -24.355523 3.844811 43.926517 -0.590284 1.483156 0.076090 -0.001323 15366.700000 0 0 1
37.383543 -25.503723 3.703811 45.405808 -0.598692 1.489134 0.063944 0.002070 167423.000000 0 0 1
37.359313 -26.341323 4.814011 45.964750 -0.614128 1.465871 0.044208 0.009773 -118362.000000 0 0 1
37.993693 -27.578523 4.572611 47.169952 -0.627879 1.473705 0.042535 0.004595 -885451.000000 0 0 1
37.537783 -28.697423 5.535611 47.573840 -0.652713 1.454174 0.055073 0.002982 132259.000000 0 0 1
36.249643 -29.265423 5.515511 46.913990 -0.679194 1.452957 0.044794 0.007943 399403.000000 0 0 1
35.168773 -28.326123 5.661411 45.511135 -0.678046 1.446077 0.056583 0.007969 121082.000000 0 0 1
33.770163 -28.969723 5.428411 44.823391 -0.709034 1.449392 0.085597 -0.002217 -126618.000000 0 0 1
33.318173 -28.973623 4.105511 44.344410 -0.715766 1.478081 0.072269 -0.003899 899086.000000 0 0 1
31.983233 -28.480323 3.893411 43.002496 -0.727529 1.480133 0.072949 -0.006724 820060.000000 0 0 1
30.815663 -29.430123 4.172611 42.815277 -0.762404 1.473185 0.074253 -0.014440 -388998.000000 0 0 1
30.650063 -30.514123 3.283411 43.374173 -0.783176 1.495024 0.079800 -0.007753 989618.000000 0 0 1
29.259863 -30.936623 3.299511 42.709495 -0.813246 1.493465 0.088096 -0.007558 1441340.000000 0 0 1
29.062763 -32.352223 2.753911 43.576307 -0.838908 1.507557 0.087093 -0.003840 -116402.000000 0 0 1
29.172263 -32.357623 1.329311 43.586738 -0.837121 1.540294 0.083177 0.005279 107984.000000 0 0 1
29.048063 -33.673123 0.814011 44.478442 -0.859005 1.552494 0.077046 0.004558 -76920.600000 0 0 1
28.702663 -33.579523 -0.685089 44.180274 -0.863541 1.586304 0.072018 0.002750 148096.000000 0 0 1
29.813263 -33.250123 -1.522889 44.684679 -0.839843 1.604884 0.071274 -0.002990 301426.000000 0 0 1
29.625063 -33.438323 -2.887889 44.767239 -0.845792 1.635350 0.062823 -0.004043 -345464.000000 0 0 1
30.771063 -32.936323 -3.770289 45.231347 -0.819373 1.654249 0.036582 -0.004052 -175362.000000 0 0 1
30.810163 -31.583623 -3.758789 44.282275 -0.797794 1.655781 0.028117 -0.001330 555049.000000 0 0 1
31.833653 -30.955623 -4.559789 44.636574 -0.771415 1.673128 0.023815 0.000013 247900.000000 0 0 1
31.852663 -29.449223 -4.456389 43.608580 -0.746212 1.673166 0.025889 0.005642 -757651.000000 0 0 1
30.708063 -28.837123 -4.945089 42.414841 -0.753988 1.687651 0.013501 -0.010588 -451363.000000 0 0 1
30.826663 -27.411223 -4.857489 41.536171 -0.726819 1.688011 0.018341 -0.009754 -199058.000000 0 0 1
31.747333 -26.690123 -5.842889 41.885501 -0.699073 1.710749 0.053653 -0.010828 435152.000000 0 0 1
33.147153 -26.874323 -5.591289 43.037489 -0.681266 1.701081 0.063000 -0.007501 794515.000000 0 0 1
34.010053 -26.544823 -6.691689 43.658791 -0.662737 1.724675 0.087270 -0.011935 433918.000000 0 0 1
34.084143 -27.573323 -7.838889 44.536110 -0.680191 1.747730 0.097164 -0.004565 -532085.000000 0 0 1
32.931973 -27.600623 -8.666389 43.833954 -0.697551 1.769817 0.089153 -0.001725 19465.500000 0 0 1
32.785473 -28.747723 -9.569589 44.641862 -0.719873 1.786837 0.080455 0.005476 70548.200000 0 0 1
32.868953 -30.249123 -8.981189 45.563574 -0.743915 1.769209 0.081321 0.013398 257968.000000 0 0 1
34.230493 -30.652323 -8.790789 46.782150 -0.730306 1.759829 0.076522 0.007124 198497.000000 0 0 1
34.128293 -31.833123 -8.033089 47.356294 -0.750617 1.741251 0.091218 -0.007619 -246987.000000 0 0 1
35.408853 -32.582323 -7.701689 48.731003 -0.743850 1.729507 0.079602 -0.016988 -331469.000000 0 0 1
35.223083 -33.716723 -6.947589 49.251924 -0.763551 1.712331 0.070039 -0.013019 -267618.000000 0 0 1
35.051273 -33.606823 -5.534889 48.873769 -0.764363 1.684288 0.065925 -0.010478 -262855.000000 0 0 1
34.918503 32.386306 -4.956389 47.882569 0.747793 1.674493 0.044111 -0.008031 73797.000000 0 0 1
33.788743 31.691606 -5.473589 46.647585 0.753382 1.688406 0.069659 -0.019825 348416.000000 0 0 1
33.826513 30.298206 -5.068189 45.693553 0.730431 1.681942 0.072877 -0.004546 587528.000000 0 0 1
32.558293 29.496906 -5.524589 44.279012 0.736105 1.695890 0.077496 -0.009491 569686.000000 0 0 1
32.571223 29.188906 -6.925689 44.281395 0.730687 1.727843 0.066075 -0.009268 480633.000000 0 0 1
31.356203 28.520606 -7.288989 43.008903 0.738076 1.741095 0.069142 -0.015097 518342.000000 0 0 1
31.342763 28.170906 -8.778289 43.046801 0.732152 1.776161 0.070843 -0.016529 30298.700000 0 0 1
32.139923 27.075106 -9.228689 43.025628 0.700073 1.786969 0.084244 -0.010570 212162.000000 0 0 1
32.502123 27.122706 -10.625989 43.645627 0.695421 1.816729 0.081804 -0.017760 743761.000000 0 0 1
33.715283 27.991106 -11.115589 45.208170 0.692898 1.819219 0.106039 -0.019333 -875115.000000 0 0 1
34.980963 27.546306 -10.776589 45.810496 0.667051 1.808265 0.100852 -0.024491 -183763.000000 0 0 1
36.004833 28.460406 -11.186989 47.238664 0.668897 1.809886 0.116371 -0.029097 169467.000000 0 0 1
36.120243 29.803906 -10.438489 47.978191 0.689878 1.790118 0.111334 -0.031624 -1098170.000000 0 0 1
36.774203 29.848306 -9.171889 48.242998 0.681813 1.762079 0.082112 -0.018189 231848.000000 0 0 1
36.695113 31.054606 -8.491689 48.816274 0.702335 1.745638 0.078798 -0.023863 -673022.000000 0 0 1
37.603743 31.146706 -7.210689 49.357398 0.691753 1.717412 0.058466 -0.014381 509432.000000 0 0 1
-37.274899 31.335206 -7.398189 49.254913 -0.699042 1.721569 0.078021 -0.015302 335758.000000 0 0 1
-36.564549 30.244906 -8.007989 48.123263 -0.691087 1.737980 0.084071 -0.023993 -1805540.000000 0 0 1
-35.179410 30.562706 -8.456289 47.362207 -0.715289 1.750304 0.146318 -0.030059 -1427870.000000 0 0 1
-34.300459 30.823606 -7.359789 46.698851 -0.732061 1.729057 0.111216 -0.033306 2422960.000000 0 0 1
-32.873889 31.062406 -7.665489 45.872926 -0.757073 1.738687 0.153214 -0.044473 2281570.000000 0 0 1
-32.513209 32.252406 -8.582989 46.593928 -0.781371 1.756063 0.123157 -0.045368 -608974.000000 0 0 1
-32.755919 33.632106 -8.181089 47.654999 -0.798595 1.743324 0.095353 -0.039836 -208153.000000 0 0 1
-31.845599 -33.385323 -7.204789 46.697227 0.808998 1.725702 0.143178 -0.053244 -261711.000000 0 0 1
-32.102569 -31.928423 -6.683389 45.767530 0.782678 1.717349 0.101481 -0.046836 -493047.000000 0 0 1
-33.087819 -31.637923 -5.732689 46.137032 0.763001 1.695372 0.097860 -0.050028 -470058.000000 0 0 1
-32.860449 -32.248123 -4.440489 46.254389 0.775994 1.666946 0.109340 -0.049569 -294661.000000 0 0 1
-34.128446 -32.422723 -3.595089 47.211317 0.759774 1.647019 0.068036 -0.035146 -450546.000000 0 0 1
-34.670568 -31.193623 -3.191989 46.746970 0.732658 1.639132 0.024128 -0.021280 147398.000000 0 0 1
-35.624088 -31.270523 -2.128289 47.449456 0.720409 1.615665 0.029100 -0.015680 4114.680000 0 0 1
-36.169729 -29.862123 -1.827289 46.939692 0.690163 1.609735 0.055537 -0.007866 -400729.000000 0 0 1
-37.062549 -29.884523 -0.757689 47.616083 0.678587 1.586709 0.039782 0.006978 -477249.000000 0 0 1
-37.609549 -28.558523 -0.671989 47.228371 0.649453 1.585025 0.056398 0.004036 -321036.000000 0 0 1
37.669753 -28.550423 0.513211 47.269444 -0.648547 1.559939 0.054059 0.011620 -847544.000000 0 0 1
36.481193 -29.223823 0.155811 46.743273 -0.675390 1.567463 0.038608 0.004977 -143585.000000 0 0 1
35.522143 -29.262323 1.200911 46.038553 -0.689072 1.544708 0.046164 -0.004045 202055.000000 0 0 1
34.621363 -28.006123 1.215511 44.547269 -0.680160 1.543507 0.042506 0.010643 -1332070.000000 0 0 1
33.541963 -28.080823 0.340111 43.745989 -0.697007 1.563022 0.042431 0.003367 -580206.000000 0 0 1
33.080223 -26.829023 0.005011 42.592225 -0.681430 1.570679 0.050437 -0.001029 -555041.000000 0 0 1
31.825723 -26.819023 -0.931389 41.629366 -0.700231 1.593172 0.044985 0.001463 787382.000000 0 0 1
30.614563 -27.148123 -0.235889 40.918550 -0.725458 1.576561 0.053597 0.005395 479106.000000 0 0 1
30.418863 -28.553023 -0.026189 41.720295 -0.753769 1.571424 0.058453 0.002250 -797615.000000 0 0 1
29.830063 -29.359523 -1.206189 41.872057 -0.777449 1.599607 0.045941 -0.003557 -713021.000000 0 0 1
28.480863 -29.081923 -1.428789 40.730323 -0.795840 1.605883 0.053432 -0.001375 -573730.000000 0 0 1
28.226763 -29.502623 -2.763789 40.924240 -0.807495 1.638382 0.043010 0.000742 -225069.000000 0 0 1
26.776263 -29.829523 -3.136089 40.207011 -0.839285 1.648874 0.055993 -0.006672 214731.000000 0 0 1
25.791863 -28.780623 -3.158989 38.775297 -0.840110 1.652356 0.074494 -0.010823 -272322.000000 0 0 1
24.635163 -29.391423 -3.660289 38.524599 -0.873207 1.665952 0.048962 -0.005984 -224077.000000 0 0 1
23.437063 -28.388423 -3.579289 36.986616 -0.880648 1.667721 0.045900 -0.002887 87785.000000 0 0 1
23.412363 -27.525723 -4.675289 36.437103 -0.865975 1.699462 0.053579 -0.011839 81859.400000 0 0 1
22.885263 -26.202523 -4.410789 35.067970 -0.852874 1.696909 0.076224 -0.020230 10828.200000 0 0 1
22.561263 -25.515523 -5.734689 34.538951 -0.846770 1.737604 0.076045 -0.031791 -388049.000000 0 0 1
21.356863 -26.079923 -6.162189 34.267340 -0.884636 1.751607 0.084532 -0.030912 -801875.000000 0 0 1
20.930463 -25.394123 -7.302289 33.708592 -0.881458 1.789157 0.094255 -0.035600 2643940.000000 0 0 1
19.333863 -25.535923 -7.633289 32.926414 -0.922751 1.804754 0.084426 -0.032591 2861150.000000 0 0 1
18.505163 -24.966323 -6.638889 31.777873 -0.932948 1.781262 0.081982 -0.029887 -261507.000000 0 0 1
17.132463 -25.174723 -6.854489 31.213330 -0.973249 1.792202 0.082852 -0.032632 3791.410000 0 0 1
16.249963 -24.349423 -5.890689 29.860608 -0.982310 1.769372 0.077918 -0.021535 -150384.000000 0 0 1
16.225363 -24.772923 -4.574689 29.964778 -0.990940 1.724065 0.066558 -0.014920 217883.000000 0 0 1
15.481863 -23.907223 -3.703689 28.722129 -0.996124 1.700105 0.076850 -0.013363 240559.000000 0 0 1
15.308063 -24.399423 -2.231989 28.890317 -1.010477 1.648131 0.065829 -0.009618 137741.000000 0 0 1
14.597163 -25.644323 -2.201189 29.589757 -1.053320 1.645255 0.064107 -0.006402 451368.000000 0 0 1
15.411463 -26.791923 -1.934989 30.968767 -1.048791 1.633319 0.063661 -0.005936 215816.000000 0 0 1
14.596863 -28.106723 -2.113689 31.741518 -1.091799 1.637436 0.071552 -0.003538 102149.000000 0 0 1
13.681863 -28.345223 -1.087389 31.493292 -1.121095 1.605331 0.076413 -0.016014 -322527.000000 0 0 1
12.902463 -29.510023 -1.225089 32.230667 -1.158618 1.608816 0.081134 -0.017985 169513.000000 0 0 1
13.682363 -30.802323 -0.755189 33.712913 -1.152777 1.593199 0.078904 -0.017230 -13352.600000 0 0 1
14.754163 -31.069923 -1.617089 34.433130 -1.127454 1.617777 0.092498 -0.012981 -581695.000000 0 0 1
15.425663 -32.247023 -1.219289 35.767419 -1.124611 1.604892 0.087779 -0.016426 -219141.000000 0 0 1
16.863563 -32.230123 -1.769989 36.418312 -1.088743 1.619417 0.073517 -0.008056 312658.000000 0 0 1
17.749963 -31.291523 -1.130589 35.993039 -1.054810 1.602213 0.066347 -0.006437 -103723.000000 0 0 1
19.065263 -31.313023 -1.607289 36.695682 -1.023887 1.614611 0.051953 -0.006266 -626902.000000 0 0 1
19.808063 -30.173823 -0.972189 36.107674 -0.989890 1.597724 0.046223 -0.006334 -445477.000000 0 0 1
19.276263 -28.934823 -1.410989 34.796396 -0.983120 1.611357 0.056260 -0.006196 212947.000000 0 0 1
19.697063 -27.865723 -0.580789 34.129315 -0.955484 1.587814 0.052773 0.001344 -225293.000000 0 0 1
19.277263 -26.451823 -1.044389 32.747558 -0.941022 1.602694 0.049695 -0.002422 -334729.000000 0 0 1
19.719763 -25.766623 -2.228389 32.523125 -0.917561 1.639367 0.061994 -0.004441 -80766.400000 0 0 1
19.175563 -26.203223 -3.433489 32.651186 -0.939044 1.676148 0.070379 -0.005190 -205071.000000 0 0 1
34.877983 -29.574623 13.327611 47.631473 -0.703300 1.287203 0.099191 -0.040609 109126.000000 0 0 1
35.525933 -29.732823 14.573511 48.564595 -0.696859 1.266014 0.092039 -0.036228 388081.000000 0 0 1
34.687253 -30.417223 15.500211 48.668979 -0.719905 1.246668 0.074122 -0.027292 -117181.000000 0 0 1
35.451173 -30.702823 16.785511 49.811669 -0.713744 1.227089 0.073150 -0.021732 -601873.000000 0 0 1
34.739573 -31.223123 17.913711 50.026217 -0.732139 1.204579 0.060827 -0.021528 -104222.000000 0 0 1
35.426463 -31.834923 18.993911 51.276362 -0.732052 1.191333 0.045069 -0.026345 -542612.000000 0 0 1
36.178303 -33.136223 18.744011 52.518728 -0.741538 1.205848 0.044314 -0.014747 432034.000000 0 0 1
37.307383 -32.874023 17.876011 52.840269 -0.722312 1.225684 0.053074 -0.006752 460572.000000 0 0 1
-38.040299 33.525406 17.971211 53.795740 -0.722394 1.230184 0.059264 -0.011472 444261.000000 0 0 1
-36.816599 33.584606 16.976911 52.646018 -0.739522 1.242456 0.067217 -0.011744 503894.000000 0 0 1
-35.849023 -32.889023 17.311211 51.638342 0.742363 1.228937 0.076160 -0.013350 226387.000000 0 0 1
-35.095818 -32.562523 16.151311 50.526223 0.747973 1.245424 0.088335 -0.005198 510709.000000 0 0 1
-33.836869 -31.664323 16.496311 49.190358 0.752242 1.228813 0.080679 -0.006633 1462220.000000 0 0 1
-32.748709 -31.715623 15.529711 48.161506 0.769374 1.242479 0.095010 -0.012707 855392.000000 0 0 1
-32.792439 -30.600323 14.609511 47.171619 0.750832 1.255909 0.093838 -0.016786 -170872.000000 0 0 1
-31.629729 -30.552523 13.582311 46.025815 0.768077 1.271234 0.092483 -0.023369 1112620.000000 0 0 1
-30.367239 -30.325023 14.255611 45.221662 0.784703 1.250088 0.073822 -0.027506 472997.000000 0 0 1
-29.290619 -30.382023 13.346411 44.262110 0.803686 1.264498 0.067798 -0.016858 273821.000000 0 0 1
-27.969599 -29.892123 13.983811 43.259502 0.818612 1.241630 0.068273 -0.024658 620410.000000 0 0 1
-26.828999 -29.858523 13.120511 42.231202 0.838790 1.254885 0.054956 -0.015833 -98669.300000 0 0 1
-25.787049 -29.192023 13.812411 41.327096 0.847251 1.230017 0.042716 -0.016590 2584.740000 0 0 1
-24.457509 -29.331223 13.032111 40.352526 0.875760 1.241945 0.047974 -0.018335 -38538.500000 0 0 1
-24.088709 -30.652023 12.768811 41.022615 0.904727 1.254275 0.069171 -0.022867 597462.000000 0 0 1
-22.705509 -30.724823 12.405311 40.167732 0.934375 1.256826 0.054873 -0.031960 633745.000000 0 0 1
-22.292309 -32.145323 11.980211 40.912031 0.964456 1.273613 0.049616 -0.026650 73661.800000 0 0 1
-22.956809 -32.740823 10.840211 41.430505 0.959287 1.306067 0.054343 -0.030621 140925.000000 0 0 1
-22.974009 33.343306 10.868711 41.925052 -0.967482 1.308560 0.063565 -0.018636 -162900.000000 0 0 1
-23.930409 32.687406 9.876111 41.697344 -0.938851 1.331672 0.074000 -0.009006 -42197.300000 0 0 1
-23.560609 32.954806 8.534011 41.399890 -0.950116 1.363172 0.076633 -0.007719 327036.000000 0 0 1
-24.757809 33.023906 7.772011 41.999186 -0.927491 1.384672 0.075215 -0.011504 -103644.000000 0 0 1
-24.553909 33.563906 6.338511 42.066696 -0.939204 1.419543 0.088867 -0.015674 -778740.000000 0 0 1
-23.958809 32.647606 5.416011 40.856136 -0.937704 1.437842 0.071159 -0.007047 297005.000000 0 0 1
-22.564609 32.462606 5.499711 39.915275 -0.963370 1.432572 0.078125 -0.017899 -104617.000000 0 0 1
-21.561509 33.635706 5.199911 40.290178 -1.000753 1.441374 0.105772 -0.019088 -463555.000000 0 0 1
-21.498609 -32.797523 6.173311 39.698583 0.990568 1.414658 0.113165 -0.029810 125400.000000 0 0 1
-20.933409 -33.103223 7.424211 39.864143 1.006916 1.383465 0.094844 -0.035985 -548329.000000 0 0 1
-20.950909 -31.857123 8.375711 39.038051 0.989060 1.354563 0.094021 -0.039255 -36950.500000 0 0 1
-19.988009 -30.885123 7.991111 37.646636 0.996411 1.356903 0.128404 -0.052417 6711.320000 0 0 1
-19.916109 -29.689723 8.785711 36.814668 0.979932 1.329824 0.116218 -0.054352 43425.400000 0 0 1
-19.249309 -29.789223 10.188411 36.901727 0.997109 1.291067 0.087635 -0.038442 -370405.000000 0 0 1
-17.863909 -29.817523 10.010911 36.172120 1.031033 1.290378 0.085486 -0.042122 -683266.000000 0 0 1
-17.168109 -29.738323 11.244311 36.132345 1.047231 1.254343 0.092677 -0.037307 241341.000000 0 0 1
-15.834109 -30.523923 11.256911 36.182136 1.092266 1.254427 0.092866 -0.027606 -235383.000000 0 0 1
-14.836809 -29.952523 10.503411 35.037212 1.110880 1.266336 0.117767 -0.034838 -1007310.000000 0 0 1
-13.765109 -30.802623 10.245611 35.259784 1.150539 1.275969 0.111814 -0.025859 231889.000000 0 0 1
-12.580609 -30.136923 9.454311 33.998380 1.175339 1.289000 0.120476 -0.016990 548820.000000 0 0 1
-11.748609 -29.399423 10.334811 33.304117 1.190617 1.255271 0.110137 -0.019524 -611931.000000 0 0 1
-10.688709 -28.789923 9.637911 32.186915 1.215304 1.266695 0.142726 -0.026184 -525090.000000 0 0 1
-9.632009 -28.377523 10.618511 31.793273 1.243574 1.230267 0.150456 -0.020238 -630113.000000 0 0 1
-10.010509 -27.245623 11.432411 31.196703 1.218690 1.195593 0.124452 -0.027929 -340159.000000 0 0 1
-9.170909 -27.099523 12.561811 31.245621 1.244478 1.157059 0.121103 -0.017493 143737.000000 0 0 1
-9.356809 -25.703023 13.291811 30.411635 1.221673 1.118465 0.105612 -0.028879 27906.300000 0 0 1
-8.887509 -24.572723 12.623611 29.020029 1.223753 1.120762 0.091913 -0.025689 -67633.500000 0 0 1
-9.673409 -24.094823 11.516011 28.403413 1.189021 1.153331 0.093042 -0.022611 159087.000000 0 0 1
-9.074809 -22.853823 10.858311 26.880333 1.192809 1.154966 0.096684 -0.030060 443899.000000 0 0 1
-7.905509 -23.085023 10.046311 26.388326 1.240862 1.180232 0.079826 -0.034893 306771.000000 0 0 1
-7.462209 -21.873423 9.542211 25.003700 1.242024 1.179235 0.086770 -0.026086 720769.000000 0 0 1
-6.147709 -22.050523 8.681211 24.482307 1.298900 1.208319 0.092502 -0.032261 1448470.000000 0 1 0
-4.923309 -22.293823 9.382411 24.683662 1.353447 1.180885 0.087592 -0.041160 756183.000000 0 1 0
-3.912509 -22.666923 8.437711 24.500859 1.399872 1.219213 0.090374 -0.041331 -40458.000000 0 1 0
-2.772409 -23.519123 8.943611 25.314494 1.453459 1.209700 0.120270 -0.046698 -253556.000000 0 0 1
-1.993109 -22.936823 9.978211 25.092530 1.484118 1.161835 0.105849 -0.040577 -389230.000000 0 0 1
-0.992809 -23.814423 10.438311 26.020584 1.529131 1.158018 0.124798 -0.059667 249924.000000 0 0 1
0.011991 -23.151723 11.372311 25.794028 -1.570278 1.114207 0.119854 -0.058731 -611226.000000 0 0 1
-0.491709 -23.142823 12.643511 26.375944 1.549553 1.070874 0.117063 -0.047975 70345.000000 0 0 1
0.449491 -22.833023 13.690111 26.626456 -1.551113 1.030775 0.147080 -0.046801 45959.500000 0 0 1
1.195091 -21.476623 13.683511 25.493373 -1.515208 1.004218 0.119048 -0.042033 -527028.000000 0 0 1
2.158991 -21.408423 12.684011 24.977309 -1.470288 1.038142 0.126353 -0.051450 -593006.000000 0 1 0
2.633591 -20.049923 12.577211 23.814312 -1.440192 1.014392 0.104865 -0.046956 183222.000000 0 1 0
4.156691 -19.976823 12.333111 23.842340 -1.365648 1.027129 0.114082 -0.040838 -6325.470000 0 1 0
4.503691 -20.491223 11.082011 23.727293 -1.354450 1.084836 0.110480 -0.025709 -522550.000000 0 1 0
5.904491 -20.368923 10.989611 23.885720 -1.288652 1.092698 0.154700 -0.035259 36449.700000 0 1 0
6.477291 -21.034223 9.753311 24.073241 -1.272071 1.153652 0.153818 -0.045373 -578411.000000 0 1 0
6.415191 -20.342023 8.510911 22.964934 -1.265302 1.191136 0.134318 -0.040006 -288310.000000 0 1 0
6.761991 -21.193723 7.431311 23.454697 -1.261950 1.248404 0.128412 -0.045264 889655.000000 0 1 0
8.301091 -21.540323 7.277811 24.204549 -1.202961 1.265391 0.116022 -0.028661 630354.000000 0 1 0
9.131691 -20.491723 6.814611 23.446480 -1.151584 1.275895 0.123625 -0.035634 -203079.000000 0 1 0
9.411291 -19.381223 7.613511 22.851034 -1.118745 1.231122 0.127076 -0.027850 203162.000000 0 1 0
10.447191 -19.656123 8.780311 23.929080 -1.082269 1.195089 0.119353 -0.019662 510260.000000 0 1 0
9.842991 -20.100723 9.959311 24.497172 -1.115436 1.152122 0.154041 -0.027810 -202729.000000 0 1 0
10.675291 -19.710423 11.051911 24.992146 -1.074420 1.112729 0.147125 -0.017220 412744.000000 0 1 0
9.978491 -19.838823 12.427211 25.447687 -1.104769 1.060606 0.179583 -0.035664 138371.000000 0 0 1
9.906391 -21.174023 12.849811 26.675710 -1.133193 1.068198 0.139831 -0.035459 211735.000000 0 0 1
9.236991 -21.346723 14.122011 27.210950 -1.162411 1.025136 0.176654 -0.044111 429892.000000 0 0 1
9.547191 -22.784523 14.694311 28.743802 -1.174001 1.034196 0.164200 -0.038607 22999.600000 0 0 1
9.090291 -23.829523 13.822111 29.009142 -1.206364 1.074156 0.181183 -0.044901 -16300.600000 0 0 1
9.197691 -25.074523 14.460611 30.371673 -1.219221 1.074557 0.194198 -0.049981 141466.000000 0 0 1
9.120491 -26.283023 13.478411 30.913561 -1.236787 1.119644 0.205280 -0.058070 254618.000000 0 0 1
10.381391 -26.648123 12.943111 31.391398 -1.199311 1.145804 0.159050 -0.039870 17010.800000 0 0 1
10.332491 -27.575823 11.858411 31.745997 -1.212294 1.187974 0.153226 -0.048508 985.780000 0 0 1
11.711391 -27.889423 11.223711 32.263730 -1.173234 1.215494 0.110769 -0.039299 242111.000000 0 0 1
12.562291 -28.644223 12.077911 33.528773 -1.157494 1.202287 0.098812 -0.034437 -262469.000000 0 0 1
13.783891 -28.848023 11.420911 33.950572 -1.125057 1.227707 0.133534 -0.033161 289266.000000 0 0 1
14.918191 -29.568923 12.251511 35.312507 -1.103537 1.216484 0.106045 -0.036747 -152700.000000 0 0 1
15.363991 -28.773523 13.335111 35.239084 -1.080349 1.182710 0.086872 -0.034614 35547.100000 0 0 1
16.368291 -29.281323 14.161611 36.412471 -1.061069 1.171335 0.085002 -0.028822 -633408.000000 0 0 1
17.748791 -29.552423 13.628511 37.068877 -1.029946 1.194312 0.087842 -0.030168 -784655.000000 0 0 1
18.619791 -28.401523 13.408611 36.512108 -0.990501 1.194759 0.077202 -0.035819 1184570.000000 0 0 1
19.802491 -28.651623 12.643511 37.052834 -0.966037 1.222572 0.057509 -0.031874 -243122.000000 0 0 1
20.700291 -27.470323 12.748311 36.682968 -0.925026 1.215864 0.040828 -0.028677 -1285760.000000 0 0 1
21.892191 -27.659623 12.072711 37.283685 -0.901269 1.241046 0.047673 -0.031972 -407981.000000 0 0 1
22.693891 -26.500323 12.020111 36.902072 -0.862620 1.239013 0.044541 -0.023154 481793.000000 0 0 1
24.114791 -26.549823 11.383111 37.629662 -0.833423 1.263478 0.061014 -0.023745 1196670.000000 0 0 1
25.062291 -27.289823 12.187411 39.004947 -0.827922 1.253017 0.064223 -0.022087 406339.000000 0 0 1
26.288491 -27.571523 11.575211 39.815313 -0.809215 1.275814 0.060912 -0.027850 -629051.000000 0 0 1
27.285891 -28.528823 12.295111 41.347108 -0.807663 1.268867 0.084062 -0.026677 666325.000000 0 0 1
28.379391 -27.913423 12.984211 41.870500 -0.777121 1.255494 0.075547 -0.021494 895078.000000 0 0 1
29.424091 -27.555423 12.048111 42.074166 -0.752614 1.280377 0.058356 -0.021776 154261.000000 0 0 1
30.652991 -26.856623 12.730411 42.695989 -0.719481 1.268028 0.078371 -0.034099 210327.000000 0 0 1
30.530091 -25.484323 13.062411 41.858855 -0.695561 1.253437 0.089184 -0.031422 -171891.000000 0 0 1
29.641391 -25.173723 14.073611 41.356921 -0.704074 1.223564 0.096026 -0.023177 -407968.000000 0 0 1
30.371391 -25.063723 15.422911 42.290398 -0.689944 1.197496 0.088440 -0.011156 160307.000000 0 0 1
30.945791 -26.249523 15.966411 43.607405 -0.703473 1.195939 0.087072 -0.012074 236015.000000 0 0 1
31.677591 -25.943023 17.139011 44.387565 -0.686202 1.174373 0.097729 0.002699 -22158.600000 0 0 1
32.169791 -27.213523 17.795611 45.740082 -0.702129 1.171186 0.083116 0.013157 -361558.000000 0 0 1
31.125491 -27.932923 18.400311 45.690435 -0.731393 1.156313 0.073342 0.000567 -138870.000000 0 0 1
31.549891 -28.883823 19.400011 46.968407 -0.741311 1.145003 0.080919 -0.005164 -501705.000000 0 0 1
30.448291 -29.713723 19.999211 47.010342 -0.773189 1.131369 0.075444 -0.006249 -458944.000000 0 0 1
29.387691 -29.021723 20.689911 46.194905 -0.779133 1.106400 0.072612 -0.002325 1520700.000000 0 0 1
28.255991 -29.819723 21.128211 46.195435 -0.812317 1.095766 0.078551 -0.009804 1396260.000000 0 0 1
27.285991 -30.331223 20.018811 45.445145 -0.838202 1.114635 0.114875 -0.011900 -361525.000000 0 0 1
27.804991 -31.467023 19.309511 46.218484 -0.847103 1.139787 0.106714 -0.016815 -191477.000000 0 0 1
27.201391 -31.685523 18.071611 45.502431 -0.861400 1.162379 0.121884 -0.015980 -186426.000000 0 0 1
27.715891 -30.823923 16.842311 44.743137 -0.838441 1.184865 0.119842 -0.010483 756525.000000 0 0 1
29.094691 -31.044323 16.510811 45.638338 -0.817806 1.200625 0.100451 -0.023441 440540.000000 0 0 1
29.472791 -30.029423 15.657811 44.895197 -0.794753 1.214545 0.106183 -0.033391 331556.000000 0 0 1
30.889491 -30.338123 15.057111 45.839710 -0.776393 1.236110 0.107992 -0.036606 255965.000000 0 0 1
31.083791 -31.425423 14.102311 46.396492 -0.790863 1.261958 0.145101 -0.029206 120426.000000 0 0 1
30.813791 -32.720723 14.509011 47.229724 -0.815403 1.258546 0.140919 -0.036287 224394.000000 0 0 1
29.429891 -33.287423 14.041211 46.597496 -0.846827 1.264709 0.141723 -0.048758 630885.000000 0 0 1
29.505891 -33.507923 12.638411 46.401594 -0.848823 1.294941 0.139283 -0.041895 94856.900000 0 0 1
29.008291 32.690006 12.306111 45.404381 0.845000 1.296330 0.130695 -0.048419 -205044.000000 0 0 1
29.297491 32.331106 10.826211 44.953868 0.834583 1.327576 0.122209 -0.046721 -298798.000000 0 0 1
30.664491 32.072206 10.626011 45.627289 0.807833 1.335751 0.140696 -0.047832 -2679.320000 0 0 1
30.891991 31.345606 9.417111 45.006045 0.792686 1.359998 0.142366 -0.048499 1607000.000000 0 0 1
32.440791 30.944906 9.317611 45.790938 0.761803 1.365884 0.139357 -0.043797 1697460.000000 0 0 1
32.883991 30.079806 10.360411 45.754668 0.740891 1.342381 0.131390 -0.040013 670202.000000 0 0 1
34.290791 29.822106 10.303511 46.598054 0.715810 1.347839 0.144981 -0.037686 777353.000000 0 0 1
34.804691 28.958506 11.495611 46.713067 0.693968 1.322152 0.135475 -0.040759 52412.500000 0 0 1
34.306091 27.630906 11.440811 45.511174 0.678039 1.316686 0.127355 -0.052889 248550.000000 0 0 1
34.610691 26.918106 12.641811 45.632222 0.661019 1.290087 0.131038 -0.050624 11650.000000 0 0 1
34.507291 25.386006 12.538111 44.636382 0.634267 1.286070 0.111384 -0.046069 814810.000000 0 0 1
35.556691 24.751606 11.734211 44.884429 0.608115 1.306291 0.109370 -0.031226 680532.000000 0 0 1
35.602291 23.341706 11.859711 44.192885 0.580318 1.299104 0.108778 -0.032617 429983.000000 0 0 1
34.431191 22.485706 11.201011 42.621315 0.578525 1.304870 0.095225 -0.034962 711731.000000 0 0 1
33.212891 22.645406 11.877511 41.916414 0.598424 1.283499 0.132473 -0.049598 -315412.000000 0 0 1
32.106491 22.425806 11.025911 40.685553 0.609706 1.296361 0.147958 -0.047939 332102.000000 0 0 1
30.747191 22.247006 11.753311 39.729829 0.626354 1.270471 0.171566 -0.045207 254057.000000 0 0 1
30.332291 23.462506 12.337311 40.283325 0.658382 1.259531 0.178261 -0.044284 -1259810.000000 0 0 1
29.227791 23.313506 13.102211 39.616300 0.673305 1.233722 0.224626 -0.033145 -1533420.000000 0 0 1
26.138691 9.599606 25.590061 37.818445 0.351965 0.827585 0.125618 -0.015482 -147238.000000 0 0 1
25.521291 8.502306 26.227761 37.570213 0.321582 0.798056 0.109775 -0.024099 -649674.000000 0 0 1
24.182791 8.416606 25.856251 36.389454 0.334929 0.780528 0.100008 -0.018068 -346896.000000 0 0 1
23.431791 7.382006 26.772221 36.335859 0.305199 0.742473 0.109255 -0.033123 -35820.400000 0 0 1
23.485491 7.651906 28.144411 37.446332 0.314968 0.720322 0.107526 -0.027021 -450541.000000 0 0 1
24.669791 7.149606 28.690071 38.507605 0.282084 0.730187 0.094123 -0.027045 -397638.000000 0 0 1
24.656191 7.060306 30.255531 39.663243 0.278887 0.703148 0.096310 -0.038348 -126581.000000 0 0 1
24.912891 8.242906 31.049961 40.653385 0.319531 0.701658 0.127361 -0.043259 132914.000000 0 0 1
25.149991 7.941806 32.407960 41.783611 0.305868 0.683109 0.137117 -0.047694 40256.500000 0 0 1
25.329791 9.220506 33.222911 42.782915 0.349108 0.681631 0.165437 -0.053152 -716507.000000 0 0 1
26.486991 9.931206 33.021767 43.481336 0.358724 0.708334 0.134339 -0.055355 -947889.000000 0 0 1
26.835191 10.797606 -33.224349 44.051937 0.382546 2.425244 0.141864 -0.048925 117189.000000 0 0 1
28.161991 11.577506 -33.439559 45.225441 0.390042 2.402971 0.118172 -0.052393 36534.700000 0 0 1
28.113491 12.613906 32.889820 45.069050 0.421754 0.752818 0.117006 -0.050349 373230.000000 0 0 1
27.401991 13.789306 33.255071 45.242831 0.466222 0.745078 0.101015 -0.046412 -556037.000000 0 0 1
27.019191 14.829306 32.206549 44.578098 0.501955 0.763421 0.084540 -0.041136 -102590.000000 0 0 1
28.030391 15.717106 31.641106 45.098667 0.511034 0.793160 0.090673 -0.024239 866652.000000 0 0 1
28.338191 16.968506 32.303770 46.200831 0.539526 0.796514 0.072566 -0.037641 -166882.000000 0 0 1
28.903791 16.932306 -33.565379 47.421164 0.529925 2.357196 0.071099 -0.032841 -527923.000000 0 0 1
27.957291 16.636906 -32.547299 46.018729 0.536796 2.356414 0.055053 -0.028043 263509.000000 0 0 1
28.571591 16.208606 -31.347729 45.406330 0.516027 2.332814 0.075389 -0.040564 -189183.000000 0 0 1
27.618991 15.802006 -30.183369 43.858269 0.519684 2.329805 0.068189 -0.032074 -218892.000000 0 0 1
26.987191 14.599106 -30.524249 43.280159 0.495880 2.353602 0.080023 -0.025841 14250.300000 0 0 1
25.977991 14.295306 -29.579619 41.882761 0.503062 2.354981 0.106311 -0.032346 59498.300000 0 0 1
25.271891 12.968806 -29.990069 41.306932 0.474129 2.383327 0.104582 -0.028465 -634502.000000 0 0 1
24.498191 13.099306 -31.158299 41.744374 0.491025 2.413443 0.111668 -0.036105 261481.000000 0 0 1
23.714291 12.000806 -31.547749 41.251029 0.468482 2.441488 0.116611 -0.039131 661405.000000 0 0 1
22.595191 11.411706 -30.590679 39.705910 0.467680 2.450314 0.114159 -0.036995 429226.000000 0 0 1
21.462291 12.282606 -30.390459 39.179999 0.519794 2.458561 0.134807 -0.029505 480366.000000 0 0 1
20.596391 11.484106 -29.608989 37.852189 0.508643 2.469028 0.125938 -0.023841 -50748.000000 0 0 1
19.358691 12.198406 -29.019899 36.955575 0.562277 2.473919 0.119765 -0.014430 578215.000000 0 0 1
18.243691 12.365506 -29.893019 37.139340 0.595668 2.506283 0.094410 -0.018479 352991.000000 0 0 1
17.163791 12.963806 -29.224749 36.286939 0.646884 2.507111 0.093125 -0.021080 -689066.000000 0 0 1
15.842591 13.129706 -29.968719 36.352455 0.692033 2.539926 0.102037 -0.033479 -417994.000000 0 0 1
15.215591 11.872206 -30.065679 35.726860 0.662592 2.570929 0.098355 -0.023138 -1683940.000000 0 0 1
13.909091 11.970306 -29.725859 34.933905 0.710622 2.588525 0.094807 -0.032582 -2059940.000000 0 0 1
12.917391 11.304306 -30.642769 35.123007 0.718900 2.630972 0.099785 -0.035231 -395692.000000 0 0 1
12.875191 11.969206 -31.917959 36.438833 0.748948 2.638162 0.115685 -0.036797 353717.000000 0 0 1
11.830291 11.349006 -32.680379 36.561768 0.764638 2.676634 0.114898 -0.035668 464292.000000 0 0 1
11.263791 12.232806 33.478181 37.380518 0.826615 0.461007 0.138400 -0.043245 740427.000000 0 0 1
12.238891 12.595006 32.465198 36.910888 0.799737 0.495868 0.112450 -0.032053 258279.000000 0 0 1
11.512791 13.057306 31.413207 35.914164 0.848177 0.506032 0.133313 -0.044540 -601910.000000 0 0 1
12.299691 13.058906 30.118731 35.056460 0.815328 0.537192 0.128273 -0.033945 -411657.000000 0 0 1
12.708191 11.785506 29.749141 34.429749 0.747746 0.527529 0.099260 -0.032660 -136395.000000 0 0 1
12.826291 11.734106 28.376351 33.277925 0.740958 0.549649 0.117054 -0.025142 -71870.500000 0 0 1
13.393091 10.430506 27.790121 32.564722 0.661678 0.548359 0.115853 -0.025900 -292887.000000 0 0 1
12.500491 9.369606 27.956711 32.025450 0.643206 0.509573 0.125313 -0.030522 -147793.000000 0 0 1
13.020491 8.104506 27.568541 31.547435 0.556758 0.507678 0.102619 -0.031073 -383159.000000 0 0 1
12.157791 6.823506 27.791681 31.092598 0.511436 0.464968 0.099954 -0.027708 -230856.000000 0 0 1
10.963391 6.891106 27.044061 29.984404 0.561152 0.446561 0.109152 -0.032932 -673867.000000 0 0 1
10.120391 5.805206 27.282261 29.672285 0.520793 0.404110 0.115407 -0.040707 -405644.000000 0 0 1
10.412391 4.435806 26.752721 29.048276 0.402728 0.400222 0.126046 -0.034888 -445936.000000 0 0 1
11.283691 3.632506 27.525751 29.969714 0.311448 0.406647 0.119408 -0.029798 57956.100000 0 0 1
11.648191 2.438806 26.870551 29.388001 0.206391 0.416928 0.138235 -0.028906 203369.000000 0 0 1
12.384291 1.515006 27.907721 30.569704 0.121728 0.420412 0.099258 -0.021737 587113.000000 0 0 1
11.437991 1.199206 28.933831 31.135708 0.104462 0.378334 0.072937 -0.016375 527825.000000 0 0 1
11.833391 0.096706 29.721061 31.990310 0.008172 0.378921 0.070367 -0.016081 450404.000000 0 0 1
10.729291 -0.120394 30.800351 32.615852 -0.011221 0.335223 0.074199 -0.009956 393956.000000 0 0 1
10.683591 0.955906 31.728351 33.492404 0.089237 0.326004 0.038524 -0.017712 -304697.000000 0 0 1
9.389591 1.263006 32.181730 33.547330 0.133709 0.286307 0.051773 -0.020855 -393025.000000 0 0 1
9.302691 2.634806 32.951842 34.341027 0.276002 0.285406 0.043983 -0.027713 -192780.000000 0 0 1
9.339691 3.857006 32.171714 33.721292 0.391637 0.304331 0.040252 -0.033347 -299419.000000 0 0 1
10.597491 4.070706 31.614239 33.590736 0.366742 0.344752 0.053015 -0.029015 -601539.000000 0 0 1
10.648091 5.464306 30.946321 33.180043 0.474130 0.369027 0.067583 -0.037222 92163.900000 0 0 1
10.745291 6.562206 31.863456 34.260818 0.548254 0.376312 0.078194 -0.039729 -32541.200000 0 0 1
11.021391 7.723506 31.164171 33.945974 0.611245 0.407657 0.085073 -0.036885 -310545.000000 0 0 1
11.018691 9.006706 31.973376 34.997558 0.685263 0.418773 0.099245 -0.045691 -71724.300000 0 0 1
9.754291 9.390306 32.460309 35.170949 0.766388 0.395174 0.114668 -0.051466 -284617.000000 0 0 1
9.334991 8.649606 33.614761 35.943148 0.747307 0.361916 0.105990 -0.048292 480132.000000 0 0 1
7.867891 9.070606 -33.282819 35.382561 0.856284 2.795355 0.106602 -0.050716 722897.000000 0 0 1
7.504491 8.342106 -32.131169 34.034102 0.838207 2.805612 0.111891 -0.043200 772834.000000 0 0 1
6.095891 8.468306 -31.851819 33.517316 0.946874 2.825024 0.108720 -0.042296 1011540.000000 0 0 1
5.618891 7.719706 -30.596909 32.052092 0.941614 2.839108 0.094487 -0.031982 -191854.000000 0 0 1
5.986291 8.418706 -29.414549 31.175727 0.952679 2.803859 0.109262 -0.041848 285203.000000 0 0 1
5.600191 7.725406 -28.210089 29.780080 0.943550 2.815435 0.093832 -0.032613 -171583.000000 0 0 1
4.138491 7.810006 -27.754389 29.127811 1.083519 2.833285 0.087876 -0.027001 -112158.000000 0 0 1
3.178291 7.193306 -28.591669 29.653477 1.154749 2.873179 0.088195 -0.023534 -1340690.000000 0 0 1
1.950491 7.175106 -28.006399 28.976627 1.305369 2.882087 0.114608 -0.016808 -874382.000000 0 0 1
0.899491 6.413606 -28.894329 29.611242 1.431458 2.921097 0.120864 -0.033934 16395.800000 0 0 1
0.628291 7.147006 -30.092709 30.936153 1.483112 2.907546 0.107204 -0.033098 -40778.200000 0 0 1
0.204791 6.357206 -31.165529 31.807958 1.538593 2.940270 0.127526 -0.036778 -594724.000000 0 0 1
0.191891 7.123606 -32.477499 33.250121 1.543866 2.925596 0.140946 -0.045433 -471506.000000 0 0 1
1.355391 7.709806 -33.004659 33.920284 1.396774 2.908716 0.099770 -0.031887 108969.000000 0 0 1
2.295491 6.781606 -33.588079 34.342663 1.244414 2.931578 0.110127 -0.041269 223914.000000 0 0 1
2.045391 6.459406 32.208752 32.913694 1.264132 0.207339 0.127711 -0.047781 -87360.800000 0 0 1
0.899691 5.649006 31.988934 32.496347 1.412857 0.176948 0.143579 -0.048751 106749.000000 0 0 1
0.565991 5.555806 30.591691 31.097249 1.469273 0.180563 0.174135 -0.053300 280381.000000 0 0 1
1.367191 4.485706 29.782611 30.149539 1.274952 0.156173 0.176179 -0.048531 306630.000000 0 0 1
0.933791 4.445206 28.448841 28.809172 1.363740 0.158327 0.150460 -0.040344 245131.000000 0 0 1
1.872791 3.674906 27.729711 28.034784 1.099485 0.147660 0.118788 -0.030900 226150.000000 0 0 1
1.955991 4.177406 26.252421 26.654572 1.132885 0.173929 0.120733 -0.030737 -97907.200000 0 0 1
2.519491 5.418706 26.116681 26.791626 1.135570 0.224939 0.110638 -0.029551 -225000.000000 0 0 1
2.518891 5.824706 24.721141 25.522673 1.162633 0.251279 0.090723 -0.029016 -582820.000000 0 0 1
3.206791 7.268806 24.485181 25.741855 1.155308 0.313754 0.100716 -0.032271 382148.000000 0 0 1
4.613791 7.299306 24.639171 26.108536 1.007117 0.337091 0.087393 -0.025118 82764.600000 0 0 1
5.281691 6.827006 23.484551 25.020559 0.912332 0.352217 0.071119 -0.022517 418416.000000 0 0 1
6.815791 6.461706 23.607081 25.406749 0.758736 0.378647 0.104520 -0.028498 1076700.000000 0 0 1
7.183791 5.408606 24.502231 26.100176 0.645348 0.351735 0.120829 -0.032724 -195072.000000 0 0 1
6.527291 4.167806 24.423331 25.621772 0.568263 0.307062 0.121006 -0.031540 -794385.000000 0 0 1
6.622091 3.332306 23.096251 24.256817 0.466213 0.310585 0.144795 -0.033461 477340.000000 0 1 0
5.798091 3.729106 21.983511 23.039072 0.571552 0.303876 0.070153 -0.020708 890498.000000 0 1 0
4.402491 3.411006 22.113111 22.803652 0.659179 0.246723 0.074691 -0.022724 772837.000000 0 1 0
3.444391 3.973306 21.029911 21.677365 0.856582 0.245021 0.023179 -0.017799 202392.000000 0 1 0
3.300191 5.361706 21.095411 22.014893 1.019049 0.290036 0.017920 -0.022923 71622.300000 0 1 0
1.976791 5.770706 20.815611 21.690975 1.240768 0.285063 0.015193 -0.004735 -130584.000000 0 1 0
1.848191 7.307306 20.915211 22.231927 1.323068 0.345891 0.023488 0.005474 -108243.000000 0 1 0
2.408391 8.062706 19.871911 21.580093 1.280526 0.400555 0.016110 -0.010040 -196157.000000 0 1 0
2.142391 9.468206 20.036611 22.264378 1.348271 0.451164 0.039234 -0.013583 271441.000000 0 1 0
3.180791 10.407106 19.341911 22.193125 1.274177 0.512488 0.059427 -0.026823 -756669.000000 0 1 0
2.995191 10.637106 17.928511 21.060643 1.296324 0.552376 0.037450 -0.021049 132545.000000 0 1 0
3.889891 11.566006 17.239311 21.121022 1.246359 0.615966 0.039834 -0.025217 1605940.000000 0 1 0
5.424891 11.228106 17.471511 21.465169 1.120717 0.619882 0.051926 -0.028239 422543.000000 0 1 0
5.665891 9.890406 17.244811 20.671380 1.050566 0.584050 0.043019 -0.015035 190955.000000 0 1 0
7.023191 9.621206 17.582611 21.237726 0.940238 0.595452 0.044839 -0.009697 314813.000000 0 1 0
7.174191 8.121106 17.982011 20.994620 0.847228 0.542335 0.058625 -0.015232 -216636.000000 0 1 0
6.689691 7.828606 19.261911 21.841709 0.863685 0.490947 0.070122 -0.020511 -146901.000000 0 1 0
6.727091 6.459306 19.613511 21.717877 0.765093 0.443852 0.070964 -0.033967 -499133.000000 0 1 0
8.070991 5.878106 20.061611 22.408955 0.629468 0.461805 0.132236 -0.030158 -350320.000000 0 1 0
9.054291 6.000906 19.055411 21.933986 0.585300 0.518100 0.122458 -0.027309 -516659.000000 0 1 0
10.250091 5.285206 19.207011 22.403282 0.476070 0.540736 0.157176 -0.035583 -198145.000000 0 1 0
10.298691 3.737506 19.159611 22.070856 0.348130 0.519444 0.164668 -0.036840 -700030.000000 0 1 0
9.744991 3.148506 20.283811 22.722476 0.312503 0.467548 0.198288 -0.043293 -33848.400000 0 1 0
9.941191 1.762606 20.136311 22.525654 0.175480 0.464763 0.201096 -0.052570 268076.000000 0 1 0
9.187491 0.811406 21.093511 23.021828 0.088088 0.412205 0.197581 -0.051045 40784.000000 0 1 0
9.850591 0.908906 22.325881 24.419361 0.092009 0.417095 0.220105 -0.043691 496293.000000 0 1 0
9.259691 -0.037394 23.231471 25.008889 -0.004038 0.379288 0.215121 -0.042051 -224545.000000 0 0 1
9.975491 -0.022194 24.612691 26.557399 -0.002225 0.385067 0.204897 -0.029263 -250840.000000 0 0 1
11.267391 -0.565894 24.653021 27.111728 -0.050182 0.429169 0.204775 -0.031944 -4890.280000 0 0 1
11.309691 -2.004494 24.552671 27.106471 -0.175415 0.437565 0.201881 -0.026035 -1085330.000000 0 0 1
12.722991 -2.474694 24.287431 27.529582 -0.192107 0.490218 0.175498 -0.024548 -653734.000000 0 0 1
12.882391 -3.818494 24.571941 28.005663 -0.288162 0.500398 0.163217 -0.018652 -386820.000000 0 0 1
14.230291 -4.164694 24.601541 28.724235 -0.284713 0.542398 0.144970 -0.008397 -549897.000000 0 0 1
14.317091 -5.646494 24.970071 29.332004 -0.375659 0.552355 0.142730 -0.016650 -99503.600000 0 0 1
14.277791 -6.542594 23.898011 28.596779 -0.429682 0.581410 0.171244 -0.020635 366724.000000 0 0 1
13.264491 -7.533894 24.014511 28.450009 -0.516539 0.565921 0.155053 -0.036140 125849.000000 0 0 1
13.417491 -8.496294 22.844571 27.822482 -0.564492 0.607490 0.174790 -0.043360 410113.000000 0 0 1
12.717291 -9.766494 22.962581 28.007035 -0.654903 0.609584 0.184263 -0.034153 -107224.000000 0 0 1
12.942791 -10.570394 21.884211 27.534846 -0.684842 0.652147 0.170251 -0.036435 37713.000000 0 0 1
12.157191 -11.896394 21.798511 27.649531 -0.774556 0.662615 0.196703 -0.032379 459126.000000 0 0 1
10.753991 -11.732494 21.655111 26.874590 -0.828886 0.633798 0.196657 -0.029052 -4934.560000 0 0 1
10.066691 -12.912094 21.966111 27.396541 -0.908598 0.640522 0.175012 -0.034899 -640451.000000 0 0 1
8.556591 -12.776994 22.045111 26.878500 -0.980705 0.609077 0.122959 -0.031223 -793710.000000 0 0 1
7.909891 -12.397894 20.874911 25.534997 -1.002901 0.613736 0.106406 -0.035581 -609551.000000 0 0 1
6.536391 -12.310994 21.152211 25.331818 -1.082705 0.582653 0.051597 -0.030577 -379449.000000 0 0 1
5.858591 -11.015794 20.568611 24.056986 -1.082006 0.545254 0.033584 -0.031556 17607.000000 0 1 0
6.263391 -9.807394 21.233211 24.212895 -1.002449 0.501343 0.069477 -0.027433 331954.000000 0 1 0
5.334091 -8.789594 20.857511 23.253930 -1.025345 0.457984 0.048621 -0.020413 171229.000000 0 1 0
5.591891 -7.350394 21.390811 23.299449 -0.920444 0.407581 0.070299 -0.029354 433223.000000 0 1 0
4.518291 -6.401194 21.247311 22.645937 -0.956154 0.353290 0.053772 -0.020098 307960.000000 0 1 0
4.894391 -5.132894 21.667511 22.798743 -0.809179 0.316335 0.097653 -0.037540 41129.700000 0 1 0
-9.369809 -15.368494 -20.434889 27.231758 1.023292 2.419473 0.076628 -0.010208 -568878.000000 0 0 1
-8.677409 -14.721894 -19.389189 25.845159 1.038191 2.419170 0.074269 -0.005719 -90303.900000 0 0 1
-7.772009 -13.769294 -19.882089 25.402658 1.056931 2.469752 0.070263 -0.013575 10502.700000 0 0 1
-6.848309 -13.199494 -18.783889 23.957472 1.092198 2.471963 0.043108 -0.007521 438159.000000 0 1 0
-5.945009 -14.156694 -18.174289 23.792013 1.173217 2.440103 0.055122 -0.007039 17974.000000 0 1 0
-5.281509 -13.571094 -17.140689 22.491602 1.199658 2.437336 0.068148 -0.006094 19836.200000 0 1 0
-4.210509 -14.532694 -16.497689 22.385293 1.288791 2.399399 0.055034 -0.002436 457764.000000 0 1 0
-2.948609 -14.451294 -17.132389 22.606480 1.369521 2.430812 0.055044 -0.012000 -475302.000000 0 1 0
-2.017609 -15.190394 -16.408989 22.451587 1.438748 2.390379 0.063740 -0.014465 -106308.000000 0 1 0
-0.626809 -15.273894 -17.107389 22.942264 1.529781 2.412338 0.076895 -0.016401 314616.000000 0 1 0
-0.484809 -16.160794 -18.196789 24.341928 1.540806 2.415161 0.134677 -0.037910 -179019.000000 0 1 0
-0.605209 -17.555494 -17.890789 25.072734 1.536336 2.365357 0.129957 -0.033010 -398139.000000 0 0 1
-0.801309 -18.480494 -19.082389 26.576462 1.527464 2.371747 0.159064 -0.050724 -206698.000000 0 0 1
-2.143609 -18.524494 -19.486989 26.972109 1.455591 2.378189 0.144369 -0.042030 -281877.000000 0 0 1
-2.218709 -18.901294 -20.824189 28.210431 1.453947 2.401155 0.145466 -0.044495 88307.700000 0 0 1
-3.557109 -18.529294 -21.525989 28.624395 1.381132 2.421911 0.144276 -0.043072 391696.000000 0 0 1
-3.827609 -17.184894 -21.938089 28.129183 1.351643 2.465310 0.132877 -0.053305 -223223.000000 0 0 1
-4.193909 -16.346694 -20.842889 26.818451 1.319653 2.460976 0.091745 -0.036646 307530.000000 0 0 1
-3.073609 -15.366194 -20.311089 25.653603 1.373378 2.484455 0.103561 -0.017875 489130.000000 0 0 1
-2.764109 -14.334094 -21.228889 25.763779 1.380300 2.539199 0.093393 -0.017418 -24362.600000 0 0 1
-1.985809 -13.341194 -20.578289 24.604814 1.423033 2.561391 0.089294 -0.016263 316105.000000 0 1 0
-1.392709 -12.290594 -21.648089 24.932671 1.457963 2.622484 0.085814 -0.024410 327606.000000 0 1 0
-2.249309 -11.212794 -21.963989 24.762935 1.372822 2.661539 0.067937 -0.028697 78320.900000 0 1 0
-2.100309 -10.828994 -23.320289 25.797564 1.379223 2.699767 0.079755 -0.020345 -231074.000000 0 0 1
-2.910609 -9.596194 -23.826689 25.850913 1.276307 2.743227 0.050659 -0.015241 -894288.000000 0 0 1
-4.220009 -9.923294 -24.129789 26.429661 1.168703 2.721329 0.108213 -0.027521 -907865.000000 0 0 1
-4.919509 -8.743394 -24.399089 26.381131 1.058290 2.751487 0.060976 -0.019007 -1368680.000000 0 0 1
-6.383209 -8.866094 -23.978789 26.350243 0.946801 2.714087 0.075051 -0.034904 -623437.000000 0 0 1
-7.293909 -9.484694 -24.865389 27.594349 0.915234 2.693106 0.119690 -0.045887 345867.000000 0 0 1
-7.789909 -8.472594 -25.736409 28.192735 0.827353 2.721065 0.116543 -0.046005 -734510.000000 0 0 1
-9.140209 -8.812094 -26.399599 29.293946 0.767123 2.693318 0.084871 -0.034613 71940.000000 0 0 1
-9.821509 -7.629094 -26.814709 29.558311 0.660418 2.707329 0.113493 -0.047373 15703.800000 0 0 1
-10.958409 -7.899494 -27.600399 30.728989 0.624590 2.686426 0.099672 -0.041378 -428053.000000 0 0 1
-11.649309 -6.668594 -28.095379 31.137226 0.519912 2.695891 0.077083 -0.036800 -338893.000000 0 0 1
-11.003809 -5.876994 -29.098669 31.659997 0.490544 2.736584 0.052525 -0.025247 -229375.000000 0 0 1
-11.859209 -5.515494 -30.157879 32.871860 0.435324 2.732388 0.086048 -0.014556 -112364.000000 0 0 1
-11.351109 -4.274294 -30.882859 33.179335 0.360132 2.767353 0.056128 -0.008133 587926.000000 0 0 1
-10.333009 -4.534894 -31.873249 33.811837 0.413564 2.801325 0.051739 -0.012885 593952.000000 0 0 1
-9.926709 -3.326994 -32.527329 34.170683 0.323390 2.830199 0.049403 -0.008329 -333620.000000 0 0 1
-8.823509 -3.578194 -33.553119 34.877924 0.385264 2.865090 0.041818 -0.008357 1323880.000000 0 0 1
-7.477909 -3.724794 -32.980399 34.022051 0.462132 2.893502 0.057193 -0.008764 1456410.000000 0 0 1
-6.593409 -4.193694 33.322881 34.226810 0.566501 0.230335 0.060953 -0.009792 318191.000000 0 0 1
-5.087009 -3.929794 33.569651 34.179561 0.657756 0.189196 0.108231 -0.020015 254560.000000 0 0 1
-4.860509 -2.539894 33.587361 34.032138 0.481530 0.161851 0.132210 -0.031926 -223885.000000 0 0 1
-3.490509 -2.225494 -33.649559 33.903234 0.567598 3.019186 0.138295 -0.035200 -90567.000000 0 0 1
-3.180309 -0.752294 -33.211239 33.371645 0.232278 3.043506 0.144753 -0.041155 -109252.000000 0 0 1
-3.557309 -0.534994 -31.844449 32.046990 0.149274 3.029104 0.149369 -0.045738 77503.000000 0 0 1
-3.786409 0.850506 -31.639409 31.876519 -0.220953 3.019547 0.173268 -0.045947 -546332.000000 0 0 1
-4.340109 0.963406 -30.177019 30.502740 -0.218436 2.995322 0.166843 -0.057274 937992.000000 0 0 1
-5.499509 0.129506 -29.924799 30.426222 -0.023544 2.959794 0.136161 -0.053213 1168300.000000 0 0 1
-6.732609 0.772806 -30.302089 31.050634 -0.114285 2.921571 0.135433 -0.052636 586279.000000 0 0 1
-7.919509 -0.242394 -30.179389 31.202130 0.030598 2.884849 0.112275 -0.049100 263119.000000 0 0 1
-8.338409 -0.588194 -28.876459 30.062018 0.070424 2.859816 0.108841 -0.039386 21193.000000 0 0 1
-9.278909 -1.643394 -28.985499 30.478813 0.175293 2.827266 0.066827 -0.023195 96570.400000 0 0 1
-9.600709 -2.403994 -27.669669 29.386449 0.245353 2.798085 0.075215 -0.026721 -341316.000000 0 0 1
-10.464909 -1.797594 -26.760889 28.790464 0.170113 2.763866 0.083267 -0.024976 -74501.900000 0 0 1
-10.523609 -2.498294 -25.554259 27.749017 0.233084 2.741197 0.081070 -0.031186 664839.000000 0 0 1
-11.598209 -1.817694 -24.613889 27.270240 0.155457 2.696548 0.108102 -0.033582 657559.000000 0 0 1
-11.072009 -0.640894 -24.055989 26.489446 0.057820 2.709604 0.102658 -0.033509 203562.000000 0 0 1
-11.979909 -0.025594 -23.145289 26.061912 0.002136 2.663967 0.123810 -0.041597 125437.000000 0 0 1
-11.459209 1.235306 -22.509989 25.289109 -0.107386 2.668374 0.131419 -0.042211 -82468.500000 0 0 1
-11.285709 2.336106 -23.402889 26.086775 -0.204114 2.683996 0.109029 -0.037069 -386149.000000 0 0 1
-10.396809 3.248706 -22.862889 25.325075 -0.302859 2.696979 0.109983 -0.035925 -494933.000000 0 0 1
-10.282409 4.439606 -23.833489 26.333880 -0.407588 2.702295 0.154267 -0.042891 11055.300000 0 0 1
-11.449909 5.223406 -23.911489 27.021171 -0.427995 2.657112 0.160345 -0.042993 337726.000000 0 0 1
-12.325809 4.793406 -24.964689 28.251336 -0.370894 2.654429 0.141972 -0.040392 486095.000000 0 0 1
-13.727209 5.414806 -25.195559 29.198845 -0.375720 2.611768 0.124271 -0.024943 472805.000000 0 0 1
-13.660809 6.797306 -25.580769 29.785849 -0.461707 2.603764 0.128474 -0.028561 69410.300000 0 0 1
-14.986309 7.276106 -25.636619 30.573966 -0.451994 2.565342 0.132793 -0.023903 106677.000000 0 0 1
-15.022909 8.805706 -25.812419 31.136943 -0.530175 2.548107 0.154629 -0.022381 21477.300000 0 0 1
-14.722909 9.530006 -24.610489 30.220212 -0.574468 2.522442 0.209434 -0.038581 204821.000000 0 0 1
-15.188209 10.875206 -24.601789 30.890125 -0.621403 2.492163 0.196749 -0.028698 106736.000000 0 0 1
-14.883209 11.542906 -23.266789 29.934797 -0.659663 2.461078 0.206811 -0.043131 424197.000000 0 0 1
-15.840209 11.177006 -22.270789 29.526695 -0.614481 2.425322 0.228135 -0.047368 222674.000000 0 0 1
-15.511309 11.695506 -20.978089 28.591358 -0.646055 2.394579 0.216241 -0.042048 -160957.000000 0 0 1
-16.648909 11.534906 -19.957689 28.435006 -0.605899 2.348816 0.210505 -0.046583 -345350.000000 0 0 1
-17.789909 12.252306 -20.366689 29.688413 -0.603117 2.326794 0.189936 -0.038535 -422010.000000 0 0 1
-18.572609 12.448806 -19.203889 29.473784 -0.590498 2.280433 0.167998 -0.027368 -995689.000000 0 0 1
-19.993609 12.848106 -19.543689 30.769693 -0.571163 2.259012 0.135411 -0.019414 -840766.000000 0 0 1
-20.149109 14.145806 -20.166089 31.823915 -0.612105 2.257094 0.117847 -0.020330 -107162.000000 0 0 1
-21.531109 14.385906 -20.256689 32.876684 -0.589025 2.234631 0.086335 -0.016304 -18171.100000 0 0 1
-21.947109 15.783106 -20.887289 34.162272 -0.623458 2.228642 0.089343 -0.013559 25863.800000 0 0 1
-21.813609 15.860806 -22.296189 34.993124 -0.628687 2.261603 0.099672 -0.014153 122491.000000 0 0 1
-22.152209 17.118106 -22.871989 36.150765 -0.657902 2.255810 0.091043 -0.003020 -21517.300000 0 0 1
-22.014209 17.087606 -24.435889 37.063787 -0.660064 2.290674 0.087447 -0.001392 -295217.000000 0 0 1
-20.676809 17.026906 -24.842589 36.532180 -0.688894 2.318585 0.093347 -0.014782 -229113.000000 0 0 1
-20.563409 16.520106 -26.153639 37.145397 -0.676795 2.351935 0.086574 -0.020228 221895.000000 0 0 1
-19.520309 17.321606 -26.968299 37.528251 -0.725789 2.372602 0.052791 -0.009101 168081.000000 0 0 1
-20.083009 18.616906 -27.245369 38.629348 -0.747532 2.353646 0.037348 -0.015517 536748.000000 0 0 1
-19.318809 19.742706 -26.810799 38.494282 -0.796250 2.341288 0.009056 -0.018787 -954540.000000 0 0 1
-20.037309 21.103006 -26.818549 39.573541 -0.811296 2.315412 0.062709 -0.019451 926911.000000 0 0 1
-21.193109 21.343906 -25.989349 39.751182 -0.788943 2.283393 0.089440 -0.024408 1432420.000000 0 0 1
-22.397509 20.614206 -26.247099 40.193334 -0.743961 2.282363 0.137025 -0.026457 531857.000000 0 0 1
-23.506309 20.882006 -25.165789 40.273088 -0.726345 2.245772 0.141819 -0.014415 541122.000000 0 0 1
-23.099409 20.513206 -23.815789 39.007257 -0.726168 2.227548 0.102312 -0.014715 218298.000000 0 0 1
-24.101509 20.872906 -22.865489 39.235080 -0.713734 2.192944 0.087632 -0.023168 324482.000000 0 0 1
-23.848609 20.284906 -21.427689 37.939154 -0.704825 2.170976 0.083675 -0.011690 417011.000000 0 0 1
-22.815309 20.976906 -20.722489 37.282576 -0.743443 2.160148 0.076633 -0.014351 443030.000000 0 0 1
-22.013109 20.208806 -19.794689 35.844142 -0.742690 2.155849 0.071060 -0.013553 113921.000000 0 0 1
-22.619009 19.605206 -18.529289 35.203952 -0.714143 2.125088 0.088030 -0.012677 -740935.000000 0 0 1
-23.425709 18.413606 -18.747989 35.203861 -0.666172 2.132413 0.111905 -0.016990 432603.000000 0 0 1
-24.187409 18.000506 -17.652989 34.938188 -0.639785 2.100484 0.114153 -0.012652 -261925.000000 0 0 1
-25.291899 18.928006 -17.140789 35.941010 -0.642465 2.067937 0.080621 -0.015876 -1682910.000000 0 0 1
-26.315549 19.054106 -18.072289 37.177610 -0.626694 2.078426 0.078064 -0.007830 -661027.000000 0 0 1
-27.262899 19.956806 -17.605189 38.098326 -0.631890 2.051157 0.059882 -0.010498 24573.100000 0 0 1
-28.735679 19.830706 -18.180589 39.364069 -0.604056 2.050885 0.035774 0.005921 1273360.000000 0 0 1
-29.548709 18.736706 -17.772289 39.243402 -0.565113 2.040782 0.034537 0.003314 341457.000000 0 0 1
-29.773689 18.635006 -16.389989 38.760389 -0.559238 2.007389 0.043899 -0.008127 -919895.000000 0 0 1
-30.868959 17.611006 -16.002689 38.975970 -0.518452 1.993885 0.044475 -0.011161 -236293.000000 0 0 1
-30.410069 16.282106 -16.010389 38.029092 -0.491579 2.005348 0.070985 -0.025533 168344.000000 0 0 1
-31.331209 15.359506 -15.437889 38.156094 -0.455801 1.987336 0.075561 -0.026750 197308.000000 0 0 1
-30.680349 13.973806 -15.273089 37.011057 -0.427389 1.996172 0.138325 -0.021951 58147.400000 0 0 1
-29.792089 13.758806 -14.197989 35.755506 -0.432646 1.979135 0.146461 -0.022488 -24814.300000 0 0 1
-30.439619 13.821406 -12.966089 35.856954 -0.426225 1.940786 0.099589 -0.010179 -182142.000000 0 0 1
-29.529449 14.415806 -11.882089 34.942637 -0.454150 1.917762 0.126791 -0.028903 -96736.000000 0 0 1
-29.460879 15.820006 -12.054789 35.546222 -0.492795 1.916788 0.109530 -0.015898 1047040.000000 0 0 1
-30.562829 16.655306 -11.524189 36.664597 -0.498960 1.890530 0.074845 -0.013089 1231720.000000 0 0 1
-30.393039 18.190106 -11.762789 37.322647 -0.539313 1.891427 0.123276 -0.001133 137934.000000 0 0 1
-29.384679 18.766406 -10.946789 36.544077 -0.568352 1.875018 0.069736 -0.029263 110855.000000 0 0 1
-29.479149 20.130606 -11.033989 37.363223 -0.599141 1.870583 0.027227 -0.026413 271896.000000 0 0 1
-28.401459 20.751606 -10.085689 36.592255 -0.631003 1.850035 0.090270 -0.018265 473599.000000 0 0 1
-28.381849 22.133406 -9.951089 37.342217 -0.662329 1.840539 0.078062 -0.021542 85180.700000 0 0 1
-27.069949 22.640106 -10.135489 36.716272 -0.696519 1.850477 0.083651 -0.015087 29373.400000 0 0 1
-26.909509 24.112606 -9.689089 37.408794 -0.730635 1.832789 0.119714 -0.004794 -29526.800000 0 0 1
-27.102449 24.363006 -8.343089 37.385905 -0.732220 1.795853 0.101749 -0.014270 -475351.000000 0 0 1
-28.449239 24.307706 -7.978689 38.260727 -0.707057 1.780873 0.134388 -0.016728 -758293.000000 0 0 1
-28.802889 24.057206 -6.537989 38.093318 -0.695860 1.743281 0.132412 -0.008896 -253047.000000 0 0 1
-28.632939 22.694806 -6.247889 37.066636 -0.670220 1.740163 0.136585 -0.019020 179485.000000 0 0 1
-28.980319 22.396006 -4.921289 36.954824 -0.657934 1.704364 0.145525 -0.018318 -279343.000000 0 0 1
-29.370849 20.902306 -4.606989 36.342503 -0.618514 1.697904 0.147833 -0.020429 -115792.000000 0 0 1
-28.331369 19.964106 -4.577489 34.959768 -0.613850 1.702109 0.153355 -0.016888 -500446.000000 0 0 1
-27.557039 19.801006 -5.729789 34.413670 -0.623065 1.738073 0.123799 -0.008030 -868903.000000 0 0 1
-28.056029 19.090006 -6.966289 34.642434 -0.597467 1.773268 0.137116 -0.021575 -595017.000000 0 0 1
-28.016509 17.702906 -6.800489 33.831410 -0.563527 1.773186 0.136814 -0.022141 332890.000000 0 0 1
-28.228669 17.076206 -8.096689 33.970736 -0.544032 1.811456 0.096097 -0.020580 -2919.020000 0 0 1
-27.808109 15.595706 -8.291489 32.943372 -0.511122 1.825222 0.164587 -0.025159 264010.000000 0 0 1
-28.582529 14.724106 -7.459989 33.006237 -0.475689 1.798784 0.153293 -0.022086 188159.000000 0 0 1
-28.499859 13.363106 -7.738189 32.414412 -0.438446 1.811851 0.176891 -0.032853 89664.400000 0 0 1
-29.315669 12.391706 -6.822789 32.550165 -0.399920 1.781971 0.175618 -0.032409 326390.000000 0 0 1
-30.724699 12.437106 -7.056389 33.889251 -0.384630 1.780550 0.191023 -0.032078 260507.000000 0 0 1
-31.374619 11.347606 -6.442489 33.980002 -0.347043 1.761547 0.220402 -0.039040 -13282.400000 0 0 1
-31.596789 10.102006 -7.282089 33.962279 -0.309445 1.786891 0.178119 -0.029611 -436629.000000 0 0 1
-30.436809 9.423806 -7.690489 32.777295 -0.300258 1.807633 0.192187 -0.024908 -278687.000000 0 0 1
-30.729559 8.088606 -8.091089 32.790198 -0.257381 1.820125 0.172709 -0.017907 -375006.000000 0 0 1
-29.491009 7.279306 -8.484689 31.538831 -0.241994 1.843175 0.242550 -0.025168 -466800.000000 0 0 1
-28.953739 7.757806 -9.705689 31.507189 -0.261789 1.883936 0.258772 -0.040777 425175.000000 0 0 1
-28.323549 6.681306 -10.475489 30.928937 -0.231657 1.916326 0.250046 -0.047532 -508257.000000 0 0 1
-27.177709 7.087206 -11.382789 30.305515 -0.255092 1.955842 0.185670 -0.037897 -1161280.000000 0 0 1
-26.086149 7.440106 -10.609289 29.127296 -0.277836 1.943612 0.234154 -0.054397 -710167.000000 0 0 1
-24.946299 7.606106 -11.398689 28.462270 -0.295945 1.982842 0.187147 -0.030344 -516691.000000 0 0 1
-33.380499 24.962406 -32.976089 53.148865 -0.642101 2.240110 0.065980 -0.024797 56177.500000 0 0 1
-34.183897 26.086606 -33.297909 54.385665 -0.651849 2.229706 0.070317 -0.031392 596191.000000 0 0 1
-33.575019 26.838006 32.937074 54.151743 -0.674341 0.916959 0.073749 -0.041575 -141721.000000 0 0 1
-34.451640 28.000606 32.508745 55.025157 -0.682468 0.938749 0.079191 -0.049631 -374529.000000 0 0 1
-33.996485 28.781206 31.407750 54.502895 -0.702513 0.956653 0.110231 -0.040653 35096.900000 0 0 1
-34.494473 30.110306 31.358370 55.496365 -0.717641 0.970299 0.114800 -0.043551 -333291.000000 0 0 1
-34.255832 30.812106 29.995831 54.978157 -0.732522 0.993697 0.127776 -0.037635 523832.000000 0 0 1
-32.862499 30.864006 29.690851 53.982194 -0.754048 0.988418 0.116361 -0.036591 530603.000000 0 0 1
-32.760069 31.505106 28.398831 53.593725 -0.765873 1.012324 0.129167 -0.030960 -484208.000000 0 0 1
-31.376779 31.491706 27.771391 52.416409 -0.787226 1.012405 0.141446 -0.030027 -573152.000000 0 0 1
-31.103699 30.286106 27.048791 51.150028 -0.772081 1.013595 0.146075 -0.034021 1187060.000000 0 0 1
-29.869719 30.308206 26.271031 50.009544 -0.792685 1.017705 0.124988 -0.019065 873656.000000 0 0 1
-29.923889 30.861706 24.819521 49.637613 -0.800825 1.047181 0.135438 -0.018196 -373025.000000 0 0 1
-29.834299 32.262006 24.805921 50.460441 -0.824474 1.056880 0.119620 -0.024990 169946.000000 0 0 1
-30.899039 32.845406 24.079101 51.121174 -0.815923 1.080349 0.129647 -0.024391 38254.200000 0 0 1
-31.235179 -33.153423 24.446761 51.695551 0.815181 1.078219 0.118755 -0.026046 -446827.000000 0 0 1
-31.700319 -33.203723 25.768961 52.644438 0.808558 1.059291 0.119571 -0.042168 36916.400000 0 0 1
-31.654139 -31.970323 26.440771 52.184293 0.790368 1.039466 0.091562 -0.039127 -265239.000000 0 0 1
-32.063039 -31.966923 27.945801 53.206113 0.783897 1.017803 0.103483 -0.050880 215981.000000 0 0 1
-33.465779 -32.184923 28.101181 54.272498 0.765890 1.026543 0.086780 -0.051385 481570.000000 0 0 1
-33.768309 -32.503123 29.464281 55.361499 0.766310 1.009580 0.076252 -0.043264 -2277.230000 0 0 1
-35.220140 -32.942323 29.739931 56.657907 0.751993 1.018195 0.081990 -0.045840 -22942.500000 0 0 1
-35.430885 -33.240223 31.106281 57.687614 0.753508 1.001286 0.071134 -0.046676 -767555.000000 0 0 1
-36.775869 -33.492423 31.338520 58.790389 0.738705 1.008589 0.061660 -0.045356 -774503.000000 0 0 1
-36.977009 33.499706 32.855462 59.741199 -0.736098 0.988476 0.050967 -0.036608 -274880.000000 0 0 1
-36.655529 32.169806 33.060690 58.919720 -0.720315 0.975065 0.018872 -0.035367 84220.800000 0 0 1
-37.635279 31.595306 -33.397609 59.414458 -0.698374 2.167734 0.034708 -0.034781 512751.000000 0 0 1
-37.084419 30.260606 -32.803099 58.025871 -0.684417 2.171616 0.029071 -0.033862 575067.000000 0 0 1
-36.060529 30.437006 -31.828399 56.919417 -0.701032 2.164197 0.030967 -0.037992 -159280.000000 0 0 1
-35.506967 29.158406 -31.507019 55.710408 -0.687536 2.171896 0.038273 -0.038476 260026.000000 0 0 1
-34.516622 29.367706 -30.309299 54.520757 -0.704975 2.160268 0.041521 -0.035488 -138859.000000 0 0 1
-35.012593 29.622906 -29.023559 54.274904 -0.702205 2.135009 0.060338 -0.039564 -406117.000000 0 0 1
-35.671960 30.874406 -28.856539 55.302961 -0.713429 2.119744 0.036850 -0.029566 179890.000000 0 0 1
-36.621379 30.985106 -27.645519 55.366749 -0.702222 2.093606 0.040024 -0.018940 508411.000000 0 0 1
-36.027959 30.792206 -26.370309 54.236214 -0.707202 2.078546 0.030245 -0.029817 797948.000000 0 0 1
-37.201289 30.610406 -25.558199 54.535808 -0.688509 2.058558 0.073471 -0.031730 740357.000000 0 0 1
-36.947529 30.336806 -24.021689 53.502180 -0.687462 2.036426 0.071445 -0.038001 -360163.000000 0 0 1
-36.489259 31.503106 -23.407389 53.589342 -0.712195 2.022826 0.073696 -0.033479 9026.870000 0 0 1
-36.256109 31.367706 -22.042389 52.766517 -0.713235 2.001747 0.071691 -0.034256 1011790.000000 0 0 1
-37.572579 31.152006 -21.136489 53.187379 -0.692244 1.979474 0.057842 -0.031163 831272.000000 0 0 1
37.811483 32.247006 -21.084789 53.982830 0.706138 1.972061 0.068001 -0.030347 -259329.000000 0 0 1
-38.087169 33.430406 -20.356089 54.613138 -0.720376 1.952748 0.065395 -0.025078 -398897.000000 0 0 1
-37.912409 33.263906 -18.837289 53.839406 -0.720181 1.928238 0.073649 -0.025425 414208.000000 0 0 1
-36.923339 32.266306 -18.498089 52.408270 -0.718191 1.931531 0.066026 -0.027163 445910.000000 0 0 1
-36.640089 32.158906 -17.089989 51.660033 -0.720356 1.907965 0.077903 -0.021423 410669.000000 0 0 1
-35.420816 31.222806 -16.794489 50.115393 -0.722489 1.912525 0.080355 -0.024122 377622.000000 0 0 1
-34.963964 31.236106 -15.467689 49.370259 -0.729146 1.889462 0.084877 -0.016824 -255898.000000 0 0 1
-33.915109 30.301806 -15.394189 48.014738 -0.729190 1.897174 0.089188 -0.016403 -202231.000000 0 0 1
-33.493549 29.984706 -13.945689 47.067851 -0.730178 1.871601 0.112405 -0.019630 58506.400000 0 0 1
-34.439801 29.162606 -13.277789 47.041016 -0.702616 1.856945 0.106188 -0.018688 36889.600000 0 0 1
-33.965199 28.709006 -12.037089 46.073129 -0.701729 1.835124 0.128683 -0.024029 41443.800000 0 0 1
-34.919064 27.787006 -11.213789 46.013126 -0.672147 1.816984 0.118009 -0.029044 240905.000000 0 0 1
-34.341232 27.261706 -10.015289 44.975847 -0.670978 1.795360 0.138591 -0.029230 -17063.100000 0 0 1
-35.299821 26.511606 -9.337189 45.123450 -0.644167 1.779228 0.136173 -0.028005 -559619.000000 0 0 1
-34.851582 25.894906 -8.031789 44.155277 -0.639009 1.753713 0.132756 -0.033017 -65653.600000 0 0 1
-34.521370 26.731206 -6.896289 44.202275 -0.658896 1.727453 0.144316 -0.027131 988290.000000 0 0 1
-33.348729 27.568206 -7.038689 43.837049 -0.690790 1.732059 0.130844 -0.025802 300917.000000 0 0 1
-32.965649 28.046406 -5.606389 43.643630 -0.704945 1.699611 0.145389 -0.023627 -414051.000000 0 0 1
-32.165459 27.105106 -4.983089 42.357227 -0.700228 1.688714 0.154741 -0.024490 -166808.000000 0 0 1
-32.051749 27.340006 -3.582489 42.280312 -0.706231 1.655630 0.161868 -0.028488 -59604.100000 0 0 1
-31.171629 26.370006 -2.761789 40.922795 -0.702145 1.638335 0.164532 -0.019193 153452.000000 0 0 1
-31.832859 25.118606 -2.607689 40.633426 -0.668046 1.635016 0.139639 -0.018536 326624.000000 0 0 1
-30.979529 24.143106 -2.038789 39.329091 -0.662006 1.622659 0.150770 -0.029071 165371.000000 0 0 1
-31.782519 22.908206 -1.691989 39.214503 -0.624537 1.613957 0.147980 -0.031927 -195200.000000 0 0 1
-32.139169 22.132706 -2.798889 39.123096 -0.603069 1.642398 0.131571 -0.027409 328331.000000 0 0 1
-33.216269 21.239806 -2.526889 39.507405 -0.568916 1.634800 0.121555 -0.030330 309017.000000 0 0 1
-33.512959 20.288706 -3.721789 39.352277 -0.544380 1.665514 0.148128 -0.018556 -419598.000000 0 0 1
-32.674899 19.195206 -3.771989 38.083236 -0.531148 1.670005 0.146914 -0.024457 -203056.000000 0 0 1
-32.812109 18.549506 -5.052489 38.029545 -0.514533 1.704047 0.153652 -0.022440 35107.600000 0 0 1
-31.708059 17.491006 -5.232289 36.588429 -0.504091 1.714292 0.142417 -0.020814 -27030.300000 0 0 1
-31.894539 16.362806 -4.462089 36.123583 -0.474016 1.694635 0.172404 -0.025076 -121696.000000 0 0 1
-30.922099 15.386606 -4.725989 34.860562 -0.461720 1.706783 0.181140 -0.029095 -339261.000000 0 0 1
-30.844569 14.255606 -3.632889 34.173200 -0.432933 1.677306 0.203726 -0.044459 -741155.000000 0 0 1
-32.033809 13.613306 -3.338689 34.966182 -0.401843 1.666425 0.187965 -0.035502 -515584.000000 0 0 1
-31.790049 12.344806 -2.817589 34.219004 -0.370400 1.653230 0.194799 -0.047573 -969493.000000 0 0 1
-33.015709 11.608806 -2.361789 35.076765 -0.338112 1.638179 0.195104 -0.042139 -943858.000000 0 0 1
-33.769569 11.209206 -3.490689 35.752133 -0.320489 1.668588 0.209140 -0.024781 -84807.300000 0 0 1
-34.855579 10.437406 -3.065489 36.513670 -0.290950 1.654850 0.191569 -0.028633 -677312.000000 0 0 1
-35.612669 9.702206 -4.135389 37.141573 -0.265982 1.682369 0.139100 -0.021337 -346162.000000 0 0 1
-34.804422 8.811106 -4.898189 36.235006 -0.247951 1.706390 0.135601 -0.013752 157671.000000 0 0 1
-35.456152 8.223106 -5.971489 36.883829 -0.227894 1.733412 0.139918 -0.016733 -276546.000000 0 0 1
-34.499371 7.386506 -6.871189 35.944128 -0.210921 1.763143 0.157451 -0.021800 -149468.000000 0 0 1
-34.034026 6.197406 -6.274689 35.158135 -0.180121 1.750228 0.152537 -0.016680 441832.000000 0 0 1
-33.502819 5.332006 -7.306889 34.702447 -0.157827 1.782942 0.160067 -0.018571 470779.000000 0 0 1
-32.440339 4.276606 -6.814589 33.423099 -0.131074 1.776125 0.192164 -0.031968 1083220.000000 0 0 1
-31.071059 4.674406 -6.683289 32.123623 -0.149323 1.780376 0.200167 -0.033008 642260.000000 0 0 1
-30.390729 3.677606 -5.958089 31.186857 -0.120425 1.763023 0.214742 -0.039075 -411487.000000 0 0 1
-28.928719 4.011906 -5.616789 29.740788 -0.137803 1.760796 0.255084 -0.043119 340745.000000 0 0 1
-28.129929 4.163506 -6.807189 29.239793 -0.146943 1.805758 0.252637 -0.033478 -13324.900000 0 0 1
-26.741049 4.120606 -6.608789 27.852095 -0.152890 1.810363 0.266721 -0.051775 -131360.000000 0 0 1
-26.008059 4.304306 -7.948689 27.534121 -0.164012 1.863649 0.238670 -0.039753 -304817.000000 0 0 1
-26.319809 3.377406 -8.944389 28.002523 -0.127624 1.895907 0.224450 -0.059087 469224.000000 0 0 1
-25.350579 3.283706 -10.003789 27.450143 -0.128815 1.943822 0.215937 -0.055272 -79312.500000 0 0 1
-25.887159 2.668306 -11.300089 28.371762 -0.102712 1.980444 0.183832 -0.056323 876.432000 0 0 1
-26.738729 3.607406 -11.975189 29.519115 -0.134103 1.988514 0.184913 -0.037843 398711.000000 0 0 1
-27.331269 3.092906 -13.103389 30.467411 -0.112684 2.015376 0.179078 -0.043769 -647002.000000 0 0 1
-28.120699 4.091106 -13.890289 31.629907 -0.144470 2.025449 0.170460 -0.041089 -627844.000000 0 0 1
-27.325899 5.075606 -14.556889 31.374664 -0.183650 2.053267 0.130719 -0.030399 129323.000000 0 0 1
-27.950649 5.995106 -15.399489 32.470361 -0.211288 2.064923 0.163755 -0.041022 46047.500000 0 0 1
-28.766179 5.376806 -16.645489 33.667126 -0.184782 2.087957 0.105502 -0.019539 954697.000000 0 0 1
-30.063769 4.897006 -16.276589 34.536042 -0.161469 2.061552 0.138930 -0.030861 229046.000000 0 0 1
-30.714159 4.364306 -17.385789 35.562233 -0.141149 2.081606 0.146568 -0.014295 -235451.000000 0 0 1
-32.190189 3.972006 -17.211089 36.717934 -0.122771 2.058658 0.149650 -0.019913 8092.450000 0 0 1
-32.539509 2.778406 -16.460189 36.571533 -0.085179 2.037654 0.154780 -0.028395 139811.000000 0 0 1
-31.955429 1.574106 -16.916289 36.190995 -0.049220 2.057163 0.188156 -0.023328 -207270.000000 0 0 1
-32.278859 0.377206 -16.014089 36.034956 -0.011685 2.031305 0.170282 -0.021113 -72219.800000 0 0 1
-31.860279 -0.902794 -16.516089 35.898100 0.028328 2.048884 0.180054 -0.010550 357589.000000 0 0 1
-32.283319 -1.950894 -15.662289 35.935024 0.060357 2.021779 0.171473 -0.016712 -50617.200000 0 0 1
-32.387119 -3.322894 -16.441089 36.472956 0.102242 2.038429 0.168519 -0.011928 -47708.700000 0 0 1
-33.280829 -3.356294 -17.536089 37.767615 0.100508 2.053658 0.185529 -0.017770 310447.000000 0 0 1
-33.251189 -4.643094 -18.156089 38.168619 0.138740 2.066534 0.180840 -0.020480 -187347.000000 0 0 1
-34.016028 -4.672094 -19.486789 39.479787 0.136496 2.087008 0.203381 -0.024858 -152578.000000 0 0 1
-33.750729 -5.795294 -20.319289 39.819225 0.170050 2.106316 0.199182 -0.026196 314470.000000 0 0 1
-34.397372 -5.673794 -21.592289 41.007293 0.163476 2.125331 0.195674 -0.032407 -199182.000000 0 0 1
-34.200756 -6.888394 -22.522389 41.525892 0.198752 2.144052 0.187629 -0.028628 111735.000000 0 0 1
-32.852449 -6.865094 -22.951989 40.659645 0.206003 2.170612 0.179559 -0.030183 149762.000000 0 0 1
-32.589969 -7.866694 -23.890589 41.167356 0.236853 2.189928 0.151880 -0.030285 -233490.000000 0 0 1
-31.177949 -7.838994 -24.497789 40.418511 0.246322 2.221948 0.138463 -0.018149 -447143.000000 0 0 1
-30.941109 -6.696494 -25.395399 40.584745 0.213140 2.246873 0.132573 -0.016150 122100.000000 0 0 1
-30.984499 -6.971994 -26.801929 41.557085 0.221329 2.271744 0.102191 -0.023450 1067710.000000 0 0 1
-32.427889 -7.090994 -27.474629 43.089505 0.215281 2.262198 0.110855 -0.014047 1407110.000000 0 0 1
-33.179129 -8.175594 -26.918679 43.500692 0.241595 2.238024 0.113224 -0.024845 193904.000000 0 0 1
-34.544096 -8.111394 -27.336649 44.792652 0.230635 2.227227 0.115445 -0.029783 325931.000000 0 0 1
-35.425268 -9.016994 -26.532879 45.169121 0.249243 2.198653 0.106819 -0.025099 -856207.000000 0 0 1
-35.189056 -10.409594 -26.791489 45.435814 0.287617 2.201429 0.110039 -0.023449 410309.000000 0 0 1
-36.298389 -11.236794 -26.418569 46.279362 0.300211 2.178337 0.093920 -0.029319 640815.000000 0 0 1
-37.436759 -11.273094 -27.472679 47.784325 0.292487 2.183316 0.082515 -0.020837 -236102.000000 0 0 1
38.064033 -10.099194 -27.528209 48.048586 -0.259346 2.180866 0.077121 -0.032978 259097.000000 0 0 1
37.160313 -10.021894 -28.637019 47.972972 -0.263426 2.210479 0.077408 -0.039933 55973.300000 0 0 1
35.992213 -9.057894 -28.576069 46.840971 -0.246543 2.226940 0.088266 -0.032176 809290.000000 0 0 1
34.901793 -9.469694 -27.688589 45.546330 -0.264945 2.224236 0.081682 -0.033419 1466090.000000 0 0 1
33.839813 -8.521094 -27.515839 44.439435 -0.246678 2.238489 0.067126 -0.017353 1445110.000000 0 0 1
32.551843 -9.050794 -26.765359 43.103640 -0.271193 2.240755 0.066863 -0.018645 835835.000000 0 0 1
32.757593 -9.161694 -25.337949 42.414717 -0.272713 2.211034 0.046259 -0.001061 -165754.000000 0 0 1
31.624133 -9.663194 -24.683989 41.264542 -0.296553 2.212035 0.025468 -0.005767 -191365.000000 0 0 1
31.908853 -9.787894 -23.179989 40.636063 -0.297634 2.177824 0.014138 -0.004415 612009.000000 0 0 1
32.796003 -10.877194 -22.803989 41.399433 -0.320246 2.154153 0.006029 -0.006283 570098.000000 0 0 1
32.914023 -10.975794 -21.422689 40.776618 -0.321872 2.123943 0.012665 -0.011552 -37988.300000 0 0 1
33.697883 -12.122694 -20.764089 41.396309 -0.345331 2.096235 0.050205 -0.013590 269131.000000 0 0 1
35.077063 -12.198794 -21.088589 42.707605 -0.334688 2.087239 0.069245 -0.016308 701844.000000 0 0 1
35.882603 -12.816094 -20.049889 43.055911 -0.343046 2.055189 0.110839 -0.019322 1234580.000000 0 0 1
37.435113 -12.631694 -20.250089 44.396097 -0.325432 2.044430 0.138875 -0.035174 415416.000000 0 0 1
37.934893 -11.297194 -20.257189 44.463877 -0.289442 2.043828 0.165681 -0.042097 267753.000000 0 0 1
37.732773 -10.595094 -21.511789 44.707664 -0.273744 2.072780 0.173136 -0.027320 -491301.000000 0 0 1
-37.689459 -11.058094 -22.749089 45.390504 0.285391 2.095765 0.134174 -0.025484 107572.000000 0 0 1
-38.125149 -12.226494 -23.457589 46.403369 0.310332 2.100775 0.127337 -0.023550 639355.000000 0 0 1
36.819963 -12.210194 -24.014089 45.623185 -0.320207 2.125107 0.137790 -0.025312 245259.000000 0 0 1
36.492633 -13.523194 -24.798789 46.147253 -0.354884 2.138128 0.095892 -0.041735 -123980.000000 0 0 1
36.359913 -14.702294 -24.035389 45.998920 -0.384255 2.120601 0.091382 -0.046798 855646.000000 0 0 1
35.240673 -14.724294 -23.126889 44.649332 -0.395774 2.115269 0.066450 -0.031824 136922.000000 0 0 1
-30.967849 8.058406 -18.674189 37.049574 -0.254573 2.099058 0.087662 -0.007382 -728445.000000 0 0 1
-29.740799 7.449406 -18.686789 35.905499 -0.245428 2.118167 0.087683 -0.004322 -912919.000000 0 0 1
-28.907619 7.870006 -19.750989 35.884384 -0.265805 2.153647 0.096648 -0.021897 -38158.800000 0 0 1
-27.594469 7.096806 -19.864789 34.733690 -0.251727 2.179637 0.084248 -0.015380 -846319.000000 0 0 1
-26.572679 7.499606 -19.034489 33.535997 -0.275075 2.174364 0.084837 -0.022423 -993322.000000 0 0 1
-25.469939 6.674206 -19.201889 32.587963 -0.256280 2.200905 0.093437 -0.027793 486253.000000 0 0 1
-24.104709 7.358306 -18.786789 31.434457 -0.296279 2.211363 0.076597 -0.027712 678323.000000 0 0 1
-23.578009 8.286106 -19.680889 31.810681 -0.337951 2.237868 0.082033 -0.015001 563264.000000 0 0 1
-22.229709 8.601806 -19.270289 30.651184 -0.369207 2.250672 0.091417 -0.014998 991238.000000 0 0 1
-21.555409 9.627806 -20.236289 31.094014 -0.420068 2.279447 0.108649 -0.008062 -113600.000000 0 0 1
-21.222009 9.053406 -21.483789 31.526037 -0.403229 2.320554 0.142869 -0.016300 87319.600000 0 0 1
-20.431009 9.920806 -22.273689 31.811409 -0.452042 2.346445 0.134102 -0.010880 -207636.000000 0 0 1
-19.489109 9.179406 -23.205589 31.663642 -0.440181 2.393339 0.160616 -0.017075 -155869.000000 0 0 1
-20.123509 8.289606 -24.123189 32.490020 -0.390754 2.407561 0.145875 -0.012257 -149686.000000 0 0 1
-19.149409 7.600706 -24.840689 32.272750 -0.377845 2.449185 0.125697 -0.008511 -331028.000000 0 0 1
-19.716809 6.659906 -25.888739 33.216467 -0.325745 2.464495 0.100043 -0.001740 30216.600000 0 0 1
-20.409409 5.545206 -25.330369 32.998801 -0.265294 2.445908 0.112814 0.000661 207492.000000 0 0 1
-20.633709 4.563706 -26.349719 33.776990 -0.217673 2.465636 0.101376 -0.001766 -494637.000000 0 0 1
-20.892209 3.217806 -25.617469 33.212850 -0.152819 2.451696 0.106592 -0.005295 608696.000000 0 0 1
-19.783609 2.526206 -25.010789 31.989255 -0.127005 2.468423 0.105951 -0.000195 663803.000000 0 0 1
-18.970909 3.210306 -24.078289 30.821510 -0.167634 2.467409 0.108447 -0.010324 -349790.000000 0 0 1
-18.051209 2.233306 -23.287089 29.548643 -0.123095 2.478502 0.111403 -0.022965 -93585.600000 0 0 1
-18.569109 1.471206 -22.194789 28.975592 -0.079064 2.443364 0.127910 -0.020636 193347.000000 0 0 1
-19.686409 0.655906 -22.530789 29.926934 -0.033305 2.423193 0.121890 -0.014708 121419.000000 0 0 1
-20.101809 -0.265594 -21.403789 29.364527 0.013212 2.387509 0.136028 -0.023674 -244579.000000 0 0 1
-19.196809 -1.305294 -21.132189 28.579550 0.067891 2.402999 0.148044 -0.030209 138353.000000 0 0 1
-19.764209 -2.137894 -20.161389 28.313886 0.107751 2.363234 0.150498 -0.034344 -38775.600000 0 0 1
-19.141109 -3.535494 -20.141789 28.010238 0.182648 2.373283 0.126943 -0.049193 -58954.100000 0 0 1
-19.440809 -4.302394 -21.308789 29.163678 0.217797 2.390087 0.127536 -0.048978 423360.000000 0 0 1
-19.649309 -5.656494 -20.909089 29.245192 0.280294 2.367361 0.134943 -0.039816 -205487.000000 0 0 1
-19.557509 -6.575094 -22.163189 30.280934 0.324322 2.391930 0.114903 -0.050699 -561145.000000 0 0 1
-18.262509 -6.928894 -22.546189 29.830512 0.362627 2.427686 0.113620 -0.045425 -348776.000000 0 0 1
-18.349809 -7.612294 -23.801389 31.002720 0.393236 2.446071 0.122997 -0.048084 519001.000000 0 0 1
-16.939609 -7.786294 -24.447789 30.745262 0.430850 2.490088 0.135075 -0.050610 -400437.000000 0 0 1
-16.908209 -8.281594 -25.788179 31.929649 0.455452 2.510963 0.142376 -0.069896 1221170.000000 0 0 1
-15.583509 -8.502994 -26.350419 31.772492 0.499490 2.548734 0.150074 -0.067158 1426750.000000 0 0 1
-14.555009 -9.406394 -25.605949 30.919139 0.573745 2.546611 0.121692 -0.061324 -507403.000000 0 0 1
-13.952109 -8.804894 -24.480189 29.520623 0.562959 2.548574 0.131533 -0.053705 -252193.000000 0 0 1
-12.921109 -9.622894 -24.039489 28.938766 0.640128 2.551164 0.116786 -0.049067 -337095.000000 0 0 1
-12.008909 -9.075294 -22.919489 27.420391 0.647148 2.560486 0.130238 -0.048791 336033.000000 0 0 1
-12.702009 -8.835194 -21.690289 26.643392 0.607750 2.521968 0.134173 -0.051712 769516.000000 0 0 1
-11.793009 -8.117194 -20.841589 25.285089 0.602834 2.539697 0.124883 -0.045509 -407692.000000 0 0 1
-12.403509 -7.816794 -19.443189 24.351322 0.562336 2.495504 0.117898 -0.042833 -19418.800000 0 1 0
-13.461209 -6.894994 -19.497389 24.675763 0.473370 2.481839 0.109854 -0.040003 59905.800000 0 1 0
-14.713609 -7.488594 -19.822089 25.796987 0.470788 2.447114 0.130036 -0.057420 -655976.000000 0 0 1
-15.845009 -6.465794 -19.638689 26.048971 0.387440 2.424796 0.139534 -0.040842 -342825.000000 0 0 1
-16.024509 -6.034894 -18.302089 25.063346 0.360176 2.389460 0.120822 -0.040118 73442.500000 0 0 1
-15.595309 -4.718794 -18.028889 24.300649 0.293820 2.406711 0.129900 -0.037540 -150293.000000 0 1 0
-15.271309 -4.522594 -16.491489 22.926752 0.287921 2.373608 0.134237 -0.027227 490579.000000 0 1 0
-16.430709 -4.119194 -15.753589 23.132478 0.245638 2.319946 0.175864 -0.036917 409141.000000 0 1 0
-16.681809 -2.735794 -15.866089 23.184048 0.162552 2.324513 0.128122 -0.041321 -105142.000000 0 1 0
-17.896909 -2.376994 -15.002089 23.473648 0.132043 2.264128 0.115845 -0.040297 -120425.000000 0 1 0
-17.619909 -2.617794 -13.636989 22.433937 0.147491 2.224176 0.129843 -0.033927 84836.200000 0 1 0
-18.523009 -1.981994 -12.792789 22.598354 0.106596 2.172556 0.134307 -0.039113 -284503.000000 0 1 0
-17.956609 -0.675294 -12.126789 21.678442 0.037589 2.164451 0.114675 -0.034066 56416.700000 0 1 0
-17.575609 0.248206 -13.104089 21.924434 -0.014121 2.211417 0.130563 -0.035694 220978.000000 0 1 0
-16.782009 1.254106 -12.557789 20.997778 -0.074591 2.211866 0.111563 -0.021466 -687545.000000 0 1 0
-16.277709 2.290406 -13.576189 21.319537 -0.139790 2.261132 0.114443 -0.018193 704381.000000 0 1 0
-15.430009 1.912706 -14.690889 21.390789 -0.123331 2.327854 0.107634 -0.032980 1751310.000000 0 1 0
-14.127309 1.359906 -14.399989 20.218553 -0.095965 2.363447 0.109755 -0.023380 658753.000000 0 1 0
-13.569409 0.307006 -15.441989 20.559138 -0.022621 2.420525 0.101765 -0.025144 190802.000000 0 1 0
-13.055109 0.939206 -16.607589 21.145448 -0.071818 2.474135 0.114613 -0.032919 2376.400000 0 1 0
-12.674709 -0.035594 -17.535589 21.636691 0.002808 2.515727 0.070927 -0.021256 -212287.000000 0 1 0
-11.984309 0.540606 -18.792189 22.294894 -0.045079 2.573432 0.082524 -0.031100 -1135580.000000 0 1 0
-10.723909 1.003206 -18.503989 21.410424 -0.093277 2.614457 0.039694 -0.015165 -1617490.000000 0 1 0
-10.326209 2.014606 -19.356389 22.030865 -0.192676 2.643726 0.043378 -0.023633 301051.000000 0 1 0
-8.907209 2.525006 -18.990389 21.126971 -0.276232 2.687979 0.015391 -0.024393 -128165.000000 0 1 0
-7.888709 1.565806 -19.268289 20.879426 -0.195940 2.746176 0.016621 -0.015603 364254.000000 0 1 0
-6.553809 2.021106 -19.103489 20.297304 -0.299133 2.796912 0.023731 -0.011453 608273.000000 0 1 0
-6.090109 3.082406 -20.154889 21.279337 -0.468542 2.815052 0.037228 -0.007035 -1076370.000000 0 1 0
-6.259009 2.526806 -21.455289 22.491984 -0.383698 2.836797 0.045152 -0.013082 180361.000000 0 1 0
-6.083009 3.507706 -22.438689 23.511737 -0.523066 2.838310 0.066278 -0.003804 -69498.400000 0 1 0
-5.379809 2.906306 -23.710189 24.485955 -0.495307 2.889201 0.092872 -0.024541 430508.000000 0 1 0
-4.014809 2.593206 -23.481789 23.963260 -0.573495 2.940796 0.094453 -0.029269 -242618.000000 0 1 0
-3.423909 1.988506 -24.583889 24.900701 -0.526160 2.981905 0.123820 -0.037532 109797.000000 0 1 0
-1.958209 1.580506 -24.345389 24.475100 -0.679066 3.038593 0.103718 -0.030261 -549716.000000 0 1 0
-0.983409 2.621906 -24.233889 24.395140 -1.211961 3.026551 0.102954 -0.032016 759076.000000 0 1 0
0.359991 2.151206 -24.264289 24.362122 1.404989 3.051944 0.096441 -0.025961 547058.000000 0 1 0
0.909291 1.111806 -23.271889 23.316169 0.885265 3.079953 0.088780 -0.031054 -1248890.000000 0 1 0
0.452591 -0.195794 -23.494589 23.499763 -0.408297 3.120607 0.082302 -0.030638 -123552.000000 0 1 0
0.919191 -1.060194 -22.510989 22.554679 -0.856514 3.079340 0.075967 -0.028191 -276014.000000 0 1 0
0.160791 -2.398394 -22.483689 22.611820 -1.503855 3.035085 0.078517 -0.038025 996764.000000 0 1 0
-1.137209 -2.275694 -21.881989 22.029377 1.107373 3.025851 0.057610 -0.030861 963377.000000 0 1 0
-2.272909 -2.756994 -22.610289 22.890878 0.881344 2.984858 0.074421 -0.034781 -7718.880000 0 1 0
-3.360609 -1.732494 -22.736489 23.048713 0.475994 2.976808 0.101088 -0.032828 -1796810.000000 0 1 0
-3.759509 -1.317994 -21.433789 21.800879 0.337188 2.957822 0.069521 -0.029493 274399.000000 0 1 0
-4.780109 -0.328394 -21.434189 21.963191 0.068592 2.921669 0.044988 -0.030495 358890.000000 0 1 0
-6.152209 -0.685194 -22.020689 22.874219 0.110917 2.867554 0.062968 -0.025836 -952339.000000 0 1 0
-6.844809 -1.811294 -21.539889 22.673752 0.258694 2.824007 0.071300 -0.010729 -589416.000000 0 1 0
-8.191209 -1.774194 -21.878789 23.429150 0.213302 2.775764 0.063335 -0.005310 -405121.000000 0 1 0
-8.858709 -3.159194 -21.625189 23.581900 0.342560 2.731352 0.055251 -0.015510 -88515.100000 0 1 0
-8.453009 -4.162894 -22.583489 24.470329 0.457609 2.746323 0.068292 -0.011195 219536.000000 0 1 0
-9.215309 -5.334894 -22.428489 24.827810 0.524773 2.698340 0.074215 -0.001809 -326207.000000 0 1 0
-10.484809 -5.587294 -23.221689 26.084400 0.489615 2.668694 0.101246 -0.026563 -571629.000000 0 0 1
-11.679409 -5.171194 -22.594089 25.954628 0.416818 2.627059 0.110070 -0.041049 53689.600000 0 0 1
-12.701509 -5.582194 -23.527389 27.313500 0.414080 2.608783 0.112376 -0.052632 134978.000000 0 0 1
-14.139209 -5.320694 -23.047789 27.557714 0.359917 2.561380 0.129634 -0.053266 -156682.000000 0 0 1
-14.637309 -4.029294 -23.256589 27.773278 0.268622 2.563256 0.134299 -0.044580 1120770.000000 0 0 1
-16.081909 -3.954094 -23.233689 28.531859 0.241090 2.522330 0.137153 -0.048315 1476590.000000 0 0 1
-16.602609 -2.529594 -23.714389 29.058866 0.151198 2.525394 0.124819 -0.041243 37766.300000 0 0 1
-16.374309 -2.284994 -25.113459 30.067009 0.138652 2.559383 0.116583 -0.035234 606117.000000 0 0 1
-17.091709 -1.122294 -25.621229 30.819368 0.065569 2.552302 0.106020 -0.026902 832186.000000 0 0 1
-18.586909 -1.193194 -26.064129 32.034914 0.064107 2.521142 0.121538 -0.020265 534142.000000 0 0 1
-18.899009 -1.962194 -27.239959 33.212018 0.103455 2.532529 0.136852 -0.032807 -19227.500000 0 0 1
-18.690409 -1.135694 -28.374999 33.996496 0.060689 2.558284 0.105433 -0.031939 -215921.000000 0 0 1
-18.841609 -1.809194 -29.737199 35.250254 0.095728 2.574753 0.104365 -0.031174 -100149.000000 0 0 1
-20.092209 -2.359894 -30.073859 36.245040 0.116918 2.549433 0.111878 -0.042742 -73855.400000 0 0 1
-20.095509 -2.939594 -31.370789 37.371073 0.145251 2.567049 0.113939 -0.050622 -770006.000000 0 0 1
-21.402409 -3.541994 -31.945559 38.615121 0.164009 2.545047 0.079679 -0.043231 506027.000000 0 0 1
-22.359909 -2.531694 -32.334409 39.394023 0.112745 2.533597 0.066370 -0.041592 534112.000000 0 0 1
-23.226109 -2.140194 -31.305759 39.039507 0.091887 2.501264 0.063981 -0.027105 -867794.000000 0 0 1
-24.138009 -0.989894 -31.780439 39.920166 0.040987 2.491619 0.061125 -0.020230 -295918.000000 0 0 1
-23.534609 0.241206 -31.896229 39.639695 -0.010249 2.505888 0.062707 -0.028233 14217.800000 0 0 1
-24.522809 1.157306 -32.296559 40.568155 -0.047158 2.491630 0.057731 -0.034444 53983.500000 0 0 1
-23.970109 2.470206 -32.903329 40.783540 -0.102691 2.509478 0.069032 -0.035543 -574978.000000 0 0 1
-23.450009 3.514006 -32.084689 39.895845 -0.148744 2.505144 0.058597 -0.028892 162667.000000 0 0 1
-24.314309 4.188606 -31.205179 39.780564 -0.170595 2.472577 0.065529 -0.028387 -242201.000000 0 0 1
-25.529099 4.975806 -31.801629 41.083295 -0.192494 2.456052 0.053813 -0.033395 -55519.500000 0 0 1
-26.608949 4.166706 -32.190749 41.971918 -0.155329 2.444885 0.077930 -0.042486 221141.000000 0 0 1
-27.566849 4.976606 -32.875209 43.191170 -0.178605 2.435890 0.104795 -0.048288 -279400.000000 0 0 1
-28.833249 4.269406 -33.335389 44.281285 -0.147004 2.423117 0.124697 -0.048772 -609614.000000 0 0 1
-28.643489 3.227306 33.031386 43.839907 -0.112198 0.717496 0.128824 -0.047061 121891.000000 0 0 1
-29.794979 3.011006 32.248154 44.008526 -0.100716 0.748412 0.130712 -0.046602 -139118.000000 0 0 1
-30.170769 1.551606 31.979886 43.993135 -0.051382 0.756957 0.135340 -0.029378 -82515.500000 0 0 1
-30.442509 0.759106 33.113007 44.986596 -0.024931 0.743559 0.146199 -0.032824 167757.000000 0 0 1
-30.634059 -0.635094 32.717032 44.824693 0.020729 0.752637 0.135274 -0.027833 -767651.000000 0 0 1
-30.444929 -1.437394 -33.257979 45.111561 0.047178 2.399770 0.102176 -0.022974 -418937.000000 0 0 1
-29.116629 -1.728894 -32.918069 43.981433 0.059309 2.416524 0.108852 -0.026831 216336.000000 0 0 1
-28.357129 -0.598394 -32.478399 43.119963 0.021099 2.423725 0.107198 -0.023864 -647147.000000 0 0 1
-28.639159 -0.085294 -31.030939 42.227099 0.002978 2.396254 0.127083 -0.023323 -620633.000000 0 0 1
-27.859989 -0.836194 -30.155799 41.063980 0.030005 2.395522 0.100116 -0.026198 339003.000000 0 0 1
-28.102419 -0.490794 -28.806899 40.247040 0.017463 2.368497 0.113877 -0.028825 -452584.000000 0 0 1
-27.099589 -1.074494 -27.812839 38.847088 0.039629 2.368790 0.112718 -0.024778 -316339.000000 0 0 1
-27.153229 -2.469294 -27.520809 38.740033 0.090690 2.360859 0.100231 -0.014369 187338.000000 0 0 1
-26.119479 -2.834094 -26.632009 37.410201 0.108082 2.362984 0.112181 -0.019656 -72498.800000 0 0 1
-26.405219 -4.167394 -25.897219 37.219198 0.156533 2.340333 0.102670 -0.019996 835095.000000 0 0 1
-27.578859 -4.159294 -25.053689 37.491073 0.149687 2.302660 0.108162 -0.018882 646566.000000 0 0 1
-27.664759 -5.403294 -24.305989 37.219828 0.192885 2.282386 0.094483 -0.020184 249353.000000 0 0 1
-28.832439 -5.294394 -23.293589 37.442375 0.181603 2.242242 0.122033 -0.023157 97244.700000 0 0 1
-28.866319 -6.297394 -22.287289 37.008712 0.214792 2.217072 0.117805 -0.025897 18860.400000 0 0 1
-29.931839 -6.088194 -21.377789 37.282583 0.200665 2.181445 0.155175 -0.021909 61403.600000 0 0 1
-30.216389 -7.321094 -20.559889 37.273820 0.237708 2.155066 0.167820 -0.034498 403607.000000 0 0 1
-29.237929 -7.665894 -19.553389 35.999409 0.256418 2.144991 0.155014 -0.039017 598248.000000 0 0 1
-29.739379 -8.612794 -18.674989 36.157518 0.281897 2.113543 0.170575 -0.038384 219393.000000 0 0 1
-30.614909 -7.955994 -17.572289 36.185022 0.254249 2.077872 0.173032 -0.045553 466516.000000 0 0 1
-29.744759 -7.472094 -16.544689 34.846946 0.246114 2.065512 0.150962 -0.039460 511627.000000 0 0 1
-30.303349 -6.456694 -15.775889 34.768672 0.209929 2.041753 0.155411 -0.034548 -401010.000000 0 0 1
-29.345219 -5.927494 -14.690489 33.347976 0.199310 2.026975 0.159614 -0.029957 -341631.000000 0 0 1
-28.293419 -5.155994 -15.207789 32.532732 0.180255 2.057213 0.164344 -0.018504 82911.200000 0 0 1
-27.575969 -4.681694 -14.060789 31.305880 0.168171 2.036601 0.159440 -0.031655 -116569.000000 0 0 1
-14.177809 20.675006 -5.082789 25.579306 -0.969701 1.770835 0.118216 -0.042559 -64223.600000 0 0 1
-14.492109 20.375106 -6.452989 25.822611 -0.952550 1.823370 0.147868 -0.038760 187231.000000 0 0 1
-15.341409 19.252906 -6.476289 25.455363 -0.897988 1.828042 0.131926 -0.056462 -179704.000000 0 0 1
-15.577609 18.645506 -7.867189 25.538392 -0.874803 1.883943 0.151326 -0.064479 -474389.000000 0 0 1
-14.417009 18.070206 -8.458089 24.615478 -0.897378 1.921553 0.119373 -0.052231 227091.000000 0 1 0
-14.520109 16.823406 -9.110289 24.017866 -0.858752 1.959850 0.109557 -0.058811 -568332.000000 0 1 0
-15.040009 15.619306 -8.309589 23.220979 -0.804291 1.936759 0.109392 -0.063312 -1449160.000000 0 1 0
-16.396309 15.647906 -8.201289 24.103050 -0.762047 1.917989 0.122468 -0.055810 -1213530.000000 0 1 0
-16.957509 14.932706 -7.074989 23.676957 -0.721990 1.874245 0.125822 -0.035734 170406.000000 0 1 0
-18.408709 15.335406 -6.767089 24.896761 -0.694572 1.846066 0.152188 -0.030864 -319549.000000 0 1 0
-19.373409 14.920706 -7.692589 25.634593 -0.656282 1.875579 0.146389 -0.035793 -29692.400000 0 0 1
-20.631209 15.426306 -7.258489 26.763844 -0.642038 1.845441 0.141784 -0.034491 1173380.000000 0 0 1
-21.897109 14.746406 -7.963089 27.574456 -0.592678 1.863754 0.138655 -0.018842 971959.000000 0 0 1
-22.207309 13.450306 -7.380389 26.991581 -0.544578 1.847757 0.192146 -0.036904 96853.500000 0 0 1
-23.076009 12.740106 -8.229389 27.614042 -0.504449 1.873408 0.191504 -0.040095 87514.500000 0 0 1
-23.325709 11.304006 -7.774689 27.061320 -0.451265 1.862202 0.182977 -0.027641 799536.000000 0 0 1
-22.107109 10.537606 -7.893889 25.730894 -0.444803 1.882611 0.177040 -0.015680 927505.000000 0 0 1
-22.368209 9.234706 -7.448189 25.319796 -0.391534 1.869378 0.206564 -0.031859 -217047.000000 0 0 1
-21.053609 8.506106 -7.171689 23.812631 -0.383968 1.876717 0.160063 -0.014350 -476019.000000 0 1 0
-20.738109 7.353606 -7.906689 23.380770 -0.340761 1.915769 0.129638 -0.017679 -139903.000000 0 1 0
-19.686409 6.658806 -7.321189 22.033933 -0.326163 1.909504 0.093183 -0.014550 -783596.000000 0 1 0
-19.361909 5.326206 -8.064089 21.639813 -0.268447 1.952660 0.078704 -0.029530 -1102380.000000 0 1 0
-20.414209 4.466206 -8.266489 22.472689 -0.215386 1.947488 0.126079 -0.033178 -456940.000000 0 1 0
-20.060809 3.430906 -9.175089 22.324637 -0.169386 1.994330 0.123856 -0.036751 -154429.000000 0 1 0
-21.211109 2.385206 -9.380189 23.314980 -0.111980 1.984851 0.135074 -0.039814 396106.000000 0 1 0
-21.352909 1.485406 -8.293189 22.954959 -0.069453 1.940438 0.154233 -0.044395 296596.000000 0 1 0
-22.289109 0.444706 -8.592489 23.892112 -0.019949 1.938675 0.164870 -0.041477 54387.000000 0 1 0
-21.831209 -0.728494 -9.505989 23.822179 0.033357 1.981265 0.128298 -0.057956 -180767.000000 0 1 0
-20.793209 -1.505794 -8.952289 22.688509 0.072291 1.976400 0.101040 -0.040176 212768.000000 0 1 0
-20.863809 -2.898794 -9.284489 23.019628 0.138055 1.985949 0.093794 -0.027806 82188.000000 0 1 0
-21.725209 -3.794694 -8.326489 23.573605 0.172923 1.931799 0.098587 -0.030767 237377.000000 0 1 0
-21.203909 -3.908194 -7.003189 22.669901 0.182269 1.884854 0.085591 -0.035507 1115570.000000 0 1 0
-22.148009 -4.568694 -6.097089 23.421822 0.203427 1.834146 0.102632 -0.042326 280241.000000 0 1 0
-22.592409 -6.033394 -6.317489 24.222499 0.260964 1.834658 0.116755 -0.040162 -301515.000000 0 1 0
-21.548609 -6.865494 -5.888989 23.370018 0.308437 1.825531 0.102416 -0.038084 224121.000000 0 1 0
-21.640009 -8.223794 -6.250289 23.978884 0.363171 1.834500 0.109541 -0.038234 -730546.000000 0 1 0
-20.659509 -9.138594 -5.562589 23.265245 0.416468 1.812229 0.107376 -0.044931 -125957.000000 0 1 0
-19.466609 -9.389594 -6.314489 22.516352 0.449423 1.855049 0.105081 -0.036942 310036.000000 0 1 0
-18.714609 -10.293494 -5.611589 22.083536 0.502862 1.827721 0.110724 -0.022458 -373215.000000 0 1 0
-18.003609 -11.429094 -6.457289 22.281174 0.565631 1.864824 0.110967 -0.024091 -518869.000000 0 1 0
-16.889109 -11.079994 -7.195189 21.442458 0.580612 1.912994 0.116278 -0.034665 -228032.000000 0 1 0
-17.167009 -10.435294 -8.431289 21.787340 0.546186 1.968152 0.110917 -0.040492 745140.000000 0 1 0
-16.001209 -10.656394 -9.524589 21.454958 0.587523 2.030781 0.093984 -0.029007 1148810.000000 0 1 0
-15.932709 -12.005994 -9.939289 22.288665 0.645765 2.033015 0.098274 -0.032067 381547.000000 0 1 0
-14.913709 -12.274794 -10.909489 22.183468 0.688641 2.084935 0.095524 -0.014774 398996.000000 0 1 0
-15.093109 -13.649594 -11.568689 23.408288 0.735218 2.087726 0.113408 -0.017963 -210329.000000 0 1 0
-16.110709 -13.578394 -12.528289 24.512971 0.700310 2.107247 0.128221 -0.021322 -100597.000000 0 1 0
-16.249309 -14.797694 -13.279389 25.677889 0.738677 2.114317 0.118768 -0.016503 325327.000000 0 0 1
-17.385809 -14.771494 -14.362289 26.958092 0.704279 2.132659 0.160327 -0.020069 332967.000000 0 0 1
-17.341509 -15.965994 -15.169089 28.031093 0.744124 2.142603 0.139536 -0.011556 8893.240000 0 0 1
-18.055809 -15.722094 -16.355589 28.994858 0.716418 2.170122 0.135024 -0.009269 -231441.000000 0 0 1
-18.221309 -16.933394 -17.302889 30.300923 0.748779 2.178562 0.132530 -0.026134 764188.000000 0 0 1
-19.345709 -17.821894 -17.038789 31.340018 0.744423 2.145606 0.109201 -0.021042 201810.000000 0 0 1
-20.225509 -17.848894 -18.108789 32.489729 0.723059 2.162011 0.110078 -0.019635 490636.000000 0 0 1
-21.719109 -17.712894 -17.646389 33.118897 0.684148 2.132725 0.102022 -0.025370 606062.000000 0 0 1
-22.053509 -16.477694 -17.017889 32.364799 0.641687 2.124469 0.094136 -0.012050 221754.000000 0 0 1
-22.131309 -16.542494 -15.621989 31.741070 0.641880 2.085377 0.109863 -0.009826 -225664.000000 0 0 1
-22.117209 -15.078294 -15.056389 30.711899 0.598369 2.083168 0.104714 -0.020566 -113614.000000 0 0 1
-23.361509 -14.416094 -15.073589 31.317678 0.552889 2.072948 0.114463 -0.023379 315021.000000 0 0 1
-23.232509 -13.048594 -14.627689 30.397115 0.511745 2.072842 0.119710 -0.025260 -359598.000000 0 0 1
-24.602809 -12.375594 -14.487589 31.118223 0.466057 2.055070 0.141536 -0.035425 78447.900000 0 0 1
-25.394399 -13.044294 -13.471189 31.567421 0.474522 2.011685 0.156087 -0.032657 1440530.000000 0 0 1
-26.644519 -12.363994 -13.203589 32.204557 0.434464 1.993241 0.146349 -0.035403 358105.000000 0 0 1
-27.276709 -12.882794 -11.926889 32.438186 0.441243 1.947310 0.156364 -0.038164 168313.000000 0 0 1
-28.271969 -11.930994 -11.452589 32.753849 0.399334 1.928001 0.154520 -0.045427 763575.000000 0 0 1
-28.856589 -12.394094 -10.256689 33.038099 0.405682 1.886463 0.145433 -0.034167 167595.000000 0 0 1
-29.646169 -11.204194 -9.598289 33.114294 0.361337 1.864870 0.135130 -0.036638 226308.000000 0 0 1
-28.803859 -10.442294 -8.760889 31.866236 0.347794 1.849310 0.154449 -0.039167 48376.800000 0 0 1
-29.544009 -9.514094 -8.031489 32.060432 0.311544 1.824004 0.196030 -0.044800 -5277.360000 0 0 1
-28.710199 -8.325794 -7.437889 30.804489 0.282252 1.814661 0.195345 -0.043073 243167.000000 0 0 1
-27.884949 -8.776694 -6.349889 29.915244 0.304930 1.784686 0.183482 -0.038742 285935.000000 0 0 1
-27.085689 -7.740794 -5.799689 28.760926 0.278369 1.773840 0.173852 -0.040538 -431366.000000 0 0 1
-27.756969 -6.573994 -5.138089 28.983904 0.232556 1.749012 0.186300 -0.047318 -1016690.000000 0 0 1
-28.539309 -6.839094 -4.017489 29.621033 0.235202 1.706845 0.205752 -0.047997 353895.000000 0 0 1
-27.819679 -7.161894 -2.806089 28.863496 0.251969 1.668169 0.223267 -0.033696 261663.000000 0 0 1
-27.079989 -5.937794 -2.140089 27.805812 0.215853 1.647838 0.245168 -0.037566 509773.000000 0 0 1
-27.999769 -4.886894 -1.763189 28.477669 0.172793 1.632751 0.272159 -0.056931 348668.000000 0 0 1
-27.462309 -3.771594 -1.129289 27.743083 0.136483 1.611513 0.223849 -0.057723 5708.360000 0 0 1
-28.550259 -2.801494 -0.532789 28.692325 0.097812 1.589366 0.251694 -0.063372 819583.000000 0 0 1
-29.454469 -3.156494 0.546311 29.628157 0.106758 1.552356 0.250850 -0.050879 435685.000000 0 0 1
-28.919139 -3.445694 1.815711 29.180237 0.118590 1.508532 0.243623 -0.056455 -134854.000000 0 0 1
-29.922719 -3.522894 3.047011 30.283067 0.117194 1.470008 0.238293 -0.051725 -397233.000000 0 0 1
-30.687399 -4.627194 2.984511 31.177471 0.149657 1.474923 0.257423 -0.054050 -294072.000000 0 0 1
-31.735419 -4.479494 3.947611 32.292202 0.140225 1.448243 0.284069 -0.064263 -172576.000000 0 0 1
-32.820739 -5.531494 3.908011 33.512250 0.166967 1.453916 0.276137 -0.063431 -576649.000000 0 0 1
-32.338399 -6.818994 4.315111 33.330030 0.207819 1.440966 0.286141 -0.055626 -20228.500000 0 0 1
-33.192989 -7.898394 4.062611 34.360791 0.233609 1.452285 0.288636 -0.066494 -142760.000000 0 0 1
-32.389519 -9.236794 4.004311 33.918046 0.277804 1.452462 0.255047 -0.055217 336658.000000 0 0 1
-32.042699 -9.670094 5.308511 33.888428 0.293096 1.413502 0.238415 -0.051107 -196728.000000 0 0 1
-31.327769 -10.845294 5.346511 33.580273 0.333275 1.410900 0.231307 -0.043811 -310345.000000 0 0 1
-30.995169 -11.396594 6.771011 33.710969 0.352346 1.368566 0.206140 -0.049188 -565999.000000 0 0 1
-29.872009 -10.868094 7.387811 32.634830 0.348935 1.342439 0.188942 -0.039853 -238682.000000 0 0 1
-29.853249 -11.195894 8.774311 33.068914 0.358798 1.302246 0.213943 -0.048403 -239872.000000 0 0 1
-30.176389 -9.988594 9.764611 33.252580 0.319655 1.272754 0.209223 -0.058269 -325188.000000 0 0 1
-29.173349 -9.025294 9.932711 32.112287 0.300029 1.256327 0.184632 -0.043643 214245.000000 0 0 1
-29.772919 -7.949694 10.634211 32.599245 0.260924 1.238504 0.186144 -0.044208 600650.000000 0 0 1
-28.741979 -6.786094 10.869211 31.468908 0.231858 1.218136 0.203855 -0.035542 222711.000000 0 0 1
-28.510589 -5.955994 9.759611 30.717708 0.205943 1.247473 0.230279 -0.037297 179629.000000 0 0 1
-28.039609 -4.697894 10.168811 30.194281 0.166003 1.227302 0.212293 -0.042381 -280882.000000 0 0 1
-28.149359 -3.654394 9.019811 29.784191 0.129100 1.263126 0.234522 -0.050226 118387.000000 0 0 1
-27.324489 -3.989094 7.907311 28.723965 0.144966 1.291909 0.222673 -0.044989 464327.000000 0 0 1
-27.381659 -2.906694 6.959111 28.401291 0.105759 1.323248 0.238876 -0.061488 307054.000000 0 0 1
-26.485059 -3.189394 5.688911 27.276259 0.119845 1.360687 0.217530 -0.039417 410665.000000 0 0 1
-25.078569 -3.222594 5.866411 25.956396 0.127800 1.342816 0.230264 -0.063920 327008.000000 0 0 1
-24.554609 -3.508994 4.608711 25.228597 0.141945 1.387087 0.230759 -0.037383 1578500.000000 0 0 1
-22.955009 -3.433094 4.493111 23.641206 0.148457 1.379579 0.207111 -0.038098 2073130.000000 0 1 0
-22.367309 -2.148794 4.528211 22.922010 0.095775 1.371940 0.169927 -0.043140 1328790.000000 0 1 0
-20.928909 -2.091494 4.385511 21.485490 0.099603 1.365237 0.132025 -0.034448 833935.000000 0 1 0
-20.413309 -0.704594 4.738711 20.967952 0.034503 1.342829 0.101526 -0.043202 -795754.000000 0 1 0
-20.576009 0.399806 3.857511 20.938299 -0.019428 1.385506 0.116666 -0.041413 1328940.000000 0 1 0
-21.962409 0.721306 3.617411 22.270010 -0.032831 1.407639 0.127267 -0.056488 658673.000000 0 1 0
-22.193709 1.669006 2.466111 22.392588 -0.075060 1.460442 0.166251 -0.047185 -221683.000000 0 1 0
-21.785309 3.008806 2.833611 22.173903 -0.137243 1.442656 0.143352 -0.044350 507270.000000 0 1 0
-21.947209 3.927206 1.762211 22.365337 -0.177065 1.491923 0.173653 -0.038299 499237.000000 0 1 0
-20.575409 4.265106 1.095311 21.041347 -0.204397 1.518718 0.109634 -0.021665 27768.600000 0 1 0
-20.649609 5.072606 -0.107789 21.263803 -0.240882 1.575865 0.118877 -0.014270 884626.000000 0 1 0
-21.629909 4.692806 -1.101589 22.160525 -0.213648 1.620526 0.171870 -0.028316 207679.000000 0 1 0
-21.438809 3.439606 -1.923289 21.797992 -0.159083 1.659144 0.164681 -0.025832 -331669.000000 0 1 0
-21.599409 2.227406 -1.214689 21.747903 -0.102760 1.626679 0.150225 -0.023321 522240.000000 0 1 0
-21.187509 1.114006 -1.967589 21.307814 -0.052530 1.663269 0.137211 -0.020813 87540.400000 0 1 0
-20.220509 0.180706 -1.181089 20.255780 -0.008937 1.629138 0.118974 -0.021746 529288.000000 0 1 0
-20.962609 -0.661494 -0.276889 20.974871 0.031545 1.583998 0.139174 -0.029364 1190050.000000 0 1 0
-20.092409 -1.216494 0.709811 20.141713 0.060471 1.535548 0.111112 -0.025015 111693.000000 0 1 0
-19.444209 -2.562494 0.292711 19.614518 0.131032 1.555873 0.083173 -0.020680 -25801.000000 0 1 0
-18.440609 -2.977494 1.208511 18.718494 0.160082 1.506189 0.056084 -0.015939 832520.000000 0 1 0
-17.548909 -4.014894 0.877511 18.023696 0.224912 1.522091 0.029252 -0.008715 -243098.000000 0 1 0
-18.215509 -5.364894 0.499311 18.995688 0.286425 1.544508 0.013895 -0.012677 -674794.000000 0 1 0
-19.007309 -5.746194 1.584411 19.920013 0.293579 1.491174 0.046821 -0.014085 79536.800000 0 1 0
-19.880409 -6.786294 1.221911 21.042279 0.328953 1.512694 0.060270 -0.015037 -284585.000000 0 1 0
-20.795409 -7.141394 2.420911 22.120338 0.330794 1.461134 0.103610 -0.016641 -323832.000000 0 1 0
-20.096909 -7.843094 3.408411 21.840722 0.372085 1.414098 0.094087 -0.010327 615785.000000 0 1 0
-20.911309 -8.303594 4.495511 22.944327 0.377992 1.373589 0.102290 -0.018339 52907.700000 0 1 0
-20.102309 -8.998294 5.643311 22.735855 0.420877 1.319962 0.086658 -0.009809 -126243.000000 0 1 0
-19.527309 -10.136094 5.083911 22.581018 0.478789 1.343709 0.089433 -0.007639 107392.000000 0 1 0
-18.723609 -10.841794 6.006911 22.454421 0.524868 1.299982 0.097713 -0.018508 -186516.000000 0 1 0
-18.233709 -12.205994 5.496811 22.620110 0.589906 1.325333 0.080809 -0.011645 -176585.000000 0 1 0
-19.224309 -13.195494 5.368911 23.927397 0.601537 1.344486 0.129607 -0.017872 -53543.500000 0 1 0
-18.659409 -14.381994 4.786811 24.040151 0.656658 1.370339 0.119665 -0.014741 -181558.000000 0 1 0
-19.614809 -15.559894 4.861011 25.504519 0.670626 1.379029 0.139211 -0.021466 -449032.000000 0 0 1
-19.137109 -16.744294 4.401211 25.806414 0.718810 1.399411 0.142948 -0.032257 -297065.000000 0 0 1
-19.985909 -17.811494 4.769011 27.192450 0.727933 1.394505 0.135402 -0.024399 -55504.700000 0 0 1
-19.341309 -19.197494 4.772911 27.666057 0.781666 1.397410 0.154797 -0.032335 -316908.000000 0 0 1
-18.960209 -19.723694 3.478511 27.579226 0.805132 1.444332 0.152456 -0.036403 148076.000000 0 0 1
-18.276209 -20.928494 3.476111 28.001876 0.852947 1.446337 0.142088 -0.036627 1137970.000000 0 0 1
-16.706809 -20.794794 3.645411 26.922666 0.893978 1.434976 0.148369 -0.038679 1255600.000000 0 0 1
-15.955209 -22.011794 3.590011 27.422180 0.943588 1.439503 0.128060 -0.042396 663305.000000 0 0 1
-14.551309 -21.804694 3.390711 26.432598 0.982323 1.442164 0.137511 -0.039870 636977.000000 0 0 1
-13.754909 -23.032294 3.932111 27.113569 1.032437 1.425259 0.164553 -0.045084 -203060.000000 0 0 1
-13.648009 -24.066294 2.890011 27.817384 1.054919 1.466716 0.157504 -0.053865 -199367.000000 0 0 1
-12.841309 -25.146124 3.220811 28.418311 1.098651 1.457217 0.147046 -0.053317 -112054.000000 0 0 1
19.922391 18.597606 -23.791589 36.177511 0.751020 2.288471 0.129404 -0.026464 -106910.000000 0 0 1
19.159791 19.065906 -24.856989 36.721605 0.782942 2.314344 0.122297 -0.032081 -23470.800000 0 0 1
19.922891 19.073406 -26.044159 37.934346 0.763618 2.327542 0.121273 -0.022567 55622.000000 0 0 1
18.979891 19.318706 -27.236319 38.409188 0.794245 2.359031 0.122215 -0.023980 132172.000000 0 0 1
18.715091 20.679306 -27.321629 39.043050 0.835217 2.345889 0.106913 -0.019492 172945.000000 0 0 1
17.928691 20.944606 -28.464479 39.627529 0.862826 2.372153 0.124610 -0.025123 -63757.400000 0 0 1
17.469091 22.382906 -28.728239 40.391525 0.908081 2.362063 0.146580 -0.026852 233879.000000 0 0 1
16.540091 22.971406 -27.799619 39.674663 0.946754 2.347160 0.146677 -0.029630 563002.000000 0 0 1
16.197291 24.258706 -28.115189 40.512972 0.982086 2.337798 0.137433 -0.022502 369120.000000 0 0 1
15.162691 24.913906 -27.119429 39.825536 1.024075 2.319863 0.147794 -0.035907 1345660.000000 0 0 1
13.824391 24.377306 -27.167549 39.031302 1.054919 2.340671 0.180199 -0.054405 388006.000000 0 0 1
12.987991 25.251806 -26.496169 38.837978 1.095743 2.321595 0.159267 -0.046198 -1596860.000000 0 0 1
11.803591 24.585406 -25.751969 37.509077 1.123191 2.327534 0.183289 -0.045471 345415.000000 0 0 1
11.067191 25.479506 -24.911689 37.313271 1.161027 2.301825 0.149280 -0.047510 -804.007000 0 0 1
10.368591 26.447306 -25.691929 38.301996 1.197165 2.306046 0.148628 -0.055887 -1323590.000000 0 0 1
9.821791 27.577406 -24.832489 38.387933 1.228650 2.274286 0.150377 -0.051248 2453.950000 0 0 1
10.825391 28.430806 -24.300889 38.936268 1.206983 2.244801 0.138027 -0.038491 345462.000000 0 0 1
10.292091 29.140106 -23.176489 38.629296 1.231280 2.214262 0.141596 -0.041644 204528.000000 0 0 1
11.315791 29.263406 -22.031189 38.337545 1.201819 2.182989 0.118006 -0.028915 138348.000000 0 0 1
12.472391 30.024806 -22.308889 39.430141 1.177083 2.172178 0.109364 -0.043081 46097.800000 0 0 1
13.136391 30.365206 -21.119089 39.250814 1.162495 2.138924 0.089312 -0.031999 -536319.000000 0 0 1
14.350591 31.267306 -21.230489 40.426693 1.140512 2.123700 0.085477 -0.028830 -201283.000000 0 0 1
15.476591 30.622406 -21.804389 40.653265 1.102837 2.136903 0.088650 -0.029699 -412483.000000 0 0 1
16.372691 31.607306 -22.264389 41.985590 1.092850 2.129735 0.077170 -0.025430 -481239.000000 0 0 1
17.601791 30.899606 -22.863689 42.277144 1.052996 2.142190 0.048615 -0.016357 -545779.000000 0 0 1
18.393291 30.403206 -21.816189 41.696692 1.026724 2.121411 0.046788 -0.016970 -787803.000000 0 0 1
19.648291 30.186806 -22.400489 42.415569 0.993796 2.127181 0.047792 -0.016815 49841.600000 0 0 1
20.702591 29.331506 -21.588089 41.892482 0.956179 2.112179 0.049455 -0.016928 443113.000000 0 0 1
21.437791 29.936006 -20.565789 42.174577 0.949333 2.080175 0.063099 -0.013868 -498606.000000 0 0 1
22.440291 29.080606 -20.136789 41.889600 0.913577 2.072262 0.074723 -0.006857 -203369.000000 0 0 1
23.295191 29.596506 -18.965789 42.170134 0.903975 2.037276 0.086986 -0.019182 21873.400000 0 0 1
24.269691 30.569406 -19.238289 43.515724 0.899773 2.028735 0.108324 -0.019822 107559.000000 0 0 1
24.948991 31.021706 -18.096389 43.729597 0.893474 1.997448 0.100182 -0.025317 132839.000000 0 0 1
26.185691 31.945206 -18.198489 45.137253 0.884154 1.985787 0.119242 -0.023826 875480.000000 0 0 1
27.392291 31.330106 -18.659089 45.607836 0.852356 1.992286 0.129658 -0.024940 36393.000000 0 0 1
28.478491 32.186306 -18.520889 46.797500 0.846442 1.977699 0.129699 -0.023277 146771.000000 0 0 1
29.859191 31.680606 -19.014489 47.505609 0.814987 1.982594 0.141057 -0.027676 373863.000000 0 0 1
30.393091 30.661606 -18.200989 46.852428 0.789796 1.969772 0.115591 -0.019118 1758290.000000 0 0 1
31.839491 30.597806 -18.501389 47.877764 0.765514 1.967554 0.101731 -0.013434 2197340.000000 0 0 1
32.475791 29.208306 -18.192789 47.315745 0.732476 1.965460 0.111216 -0.020807 87658.900000 0 0 1
32.424591 28.945806 -16.794489 46.596873 0.728774 1.939515 0.089807 -0.011425 -118155.000000 0 0 1
33.102691 27.779306 -16.348989 46.203543 0.698182 1.932477 0.108647 -0.015930 -43190.500000 0 0 1
33.517591 27.844306 -14.843889 46.033415 0.693204 1.899122 0.107573 -0.012016 671310.000000 0 0 1
34.695891 28.600606 -14.533589 47.254891 0.689397 1.883421 0.120162 -0.014493 533823.000000 0 0 1
34.415791 29.989706 -14.464189 47.885717 0.716784 1.877645 0.111909 -0.021529 571751.000000 0 0 1
35.686191 30.912006 -14.650189 49.433636 0.713834 1.871676 0.105238 -0.020698 1102580.000000 0 0 1
36.579291 30.855006 -13.527489 49.729959 0.700714 1.846287 0.104823 -0.029793 254728.000000 0 0 1
37.833191 31.444006 -13.834189 51.102452 0.693432 1.844932 0.107868 -0.035751 320219.000000 0 0 1
-37.548881 31.587106 -12.581389 50.655257 -0.699378 1.821796 0.100762 -0.025584 19253.800000 0 0 1
-37.930181 32.734006 -11.813689 51.475985 -0.711997 1.802359 0.097598 -0.030303 1155230.000000 0 0 1
-36.898981 33.068006 -10.824089 50.716749 -0.730699 1.785873 0.106206 -0.028101 949415.000000 0 0 1
-37.375481 -33.205923 -9.978589 50.981684 0.726392 1.767797 0.101193 -0.019877 257360.000000 0 0 1
-36.342781 -32.602523 -9.215689 49.685523 0.731202 1.757357 0.105489 -0.023979 -11907.100000 0 0 1
-36.017381 -33.228323 -7.963089 49.646591 0.745142 1.731888 0.094544 -0.026217 2193.020000 0 0 1
-35.938181 -32.171623 -6.894689 48.724767 0.730153 1.712776 0.107617 -0.022401 314938.000000 0 0 1
-37.176581 -31.444923 -6.757189 49.158325 0.702066 1.708691 0.092817 -0.013175 461330.000000 0 0 1
-37.094081 -30.310923 -5.879689 48.262756 0.685103 1.692926 0.119282 -0.020544 -558906.000000 0 0 1
37.817791 -29.673523 -5.572789 48.391727 -0.665307 1.686212 0.102842 -0.015633 -512208.000000 0 0 1
37.033491 -30.485423 -4.764589 48.203131 -0.688719 1.669802 0.054425 -0.008769 610036.000000 0 0 1
35.702991 -30.047023 -4.425589 46.873372 -0.699587 1.665353 0.047538 -0.000133 847337.000000 0 0 1
35.669891 -29.075323 -3.206589 46.130226 -0.683894 1.640364 0.038872 0.003608 -455174.000000 0 0 1
36.170391 -27.798323 -3.493589 45.752040 -0.655260 1.647230 0.081642 -0.009129 231153.000000 0 0 1
35.768991 -26.914323 -2.465389 44.831681 -0.645066 1.625816 0.057907 -0.007430 -275712.000000 0 0 1
36.312391 -25.500223 -2.652489 44.450949 -0.612232 1.630504 0.081815 -0.024472 -384786.000000 0 0 1
35.631091 -24.822423 -3.663989 43.579263 -0.608475 1.654972 0.105132 -0.027555 118742.000000 0 0 1
35.975491 -23.489423 -3.807089 43.133315 -0.578431 1.659175 0.113276 -0.039276 -135700.000000 0 0 1
35.488491 -22.929023 -5.148789 42.563871 -0.573627 1.692059 0.118588 -0.040947 346205.000000 0 0 1
36.378791 -23.235623 -6.234989 43.614054 -0.568400 1.714246 0.148475 -0.039325 807903.000000 0 0 1
35.775791 -22.776123 -7.410289 43.053123 -0.566922 1.743777 0.132916 -0.038085 83548.500000 0 0 1
36.887991 -22.456723 -8.427989 44.000674 -0.546851 1.763530 0.135299 -0.039403 -94450.000000 0 0 1
37.593791 -23.613023 -8.827989 45.263687 -0.560832 1.767089 0.127576 -0.022676 -46407.200000 0 0 1
-37.530181 -23.204223 -9.562489 45.148551 0.553754 1.784213 0.123837 -0.021173 649465.000000 0 0 1
-36.642981 -24.294623 -10.266289 45.147906 0.585466 1.800195 0.133366 -0.025312 498863.000000 0 0 1
-35.808281 -25.171123 -9.516189 44.792592 0.612697 1.784878 0.167679 -0.025300 70535.800000 0 0 1
-36.537981 -26.247023 -9.033589 45.886120 0.622935 1.768960 0.132261 -0.022566 -95483.800000 0 0 1
-35.671781 -27.368423 -8.412989 45.741501 0.654437 1.755774 0.120205 -0.015568 -433848.000000 0 0 1
-34.938181 -28.061923 -9.352189 45.777849 0.676682 1.776540 0.131879 -0.027447 -276621.000000 0 0 1
-34.548881 -29.325223 -8.784289 46.160130 0.703799 1.762264 0.151309 -0.038398 -93236.600000 0 0 1
-33.901681 -30.253523 -9.851789 46.493627 0.728595 1.784310 0.139576 -0.033149 17838.200000 0 0 1
-32.596581 -29.879323 -10.259489 45.393481 0.741933 1.798779 0.087712 -0.009809 264311.000000 0 0 1
-32.137381 -30.667023 -11.366489 45.852749 0.761991 1.821299 0.064477 -0.002179 -306996.000000 0 0 1
-32.154981 -30.063823 -12.805589 45.844949 0.751801 1.853886 0.042327 0.006815 -233601.000000 0 0 1
-31.262081 -29.004423 -13.073489 44.603704 0.747954 1.868267 0.029070 0.008701 -338171.000000 0 0 1
-31.317181 -28.586223 -14.389289 44.777110 0.739840 1.897955 0.024285 0.025216 308567.000000 0 0 1
-30.132281 -27.687223 -14.836489 43.527670 0.743136 1.918619 0.040499 0.006629 6086.750000 0 0 1
-28.964081 -28.369123 -15.187589 43.294203 0.775021 1.929221 0.067560 0.003143 -650718.000000 0 0 1
-28.021581 -27.456623 -15.703889 42.257393 0.775215 1.951555 0.091948 0.013034 -227555.000000 0 0 1
-26.763381 -28.099723 -16.294589 42.087844 0.809751 1.968342 0.085726 -0.001299 -581631.000000 0 0 1
-26.922481 -28.933923 -17.411889 43.187565 0.821394 1.985773 0.076225 -0.002186 -396362.000000 0 0 1
-27.262581 -28.275723 -18.641789 43.477363 0.803638 2.013927 0.062073 0.010688 -159267.000000 0 0 1
-26.225181 -27.329223 -19.257689 42.491236 0.806011 2.041166 0.070167 -0.000622 18004.900000 0 0 1
-25.880181 -26.179823 -18.510989 41.204655 0.791154 2.036717 0.083862 -0.000624 -343805.000000 0 0 1
-24.484181 -25.984023 -18.525889 40.222545 0.815108 2.049450 0.095216 -0.021385 190197.000000 0 0 1
-23.939181 -24.836023 -17.647489 38.747210 0.803783 2.043676 0.108442 -0.020140 113739.000000 0 0 1
-24.244181 -25.103023 -16.285589 38.511849 0.802800 2.007409 0.124307 -0.023279 119794.000000 0 0 1
-23.848881 -24.038523 -15.460789 37.224397 0.789358 1.999113 0.145238 -0.023858 6111.300000 0 0 1
-24.264481 -24.278223 -13.984689 37.064386 0.785681 1.957684 0.130368 -0.014878 748516.000000 0 0 1
-25.637681 -23.922823 -13.793189 37.680820 0.750811 1.945561 0.098365 -0.000067 455376.000000 0 0 1
-25.961581 -23.864223 -12.448989 37.396285 0.743329 1.910167 0.099856 0.005730 -576515.000000 0 0 1
-27.449681 -23.725823 -12.140189 38.259428 0.712760 1.893690 0.086292 0.018406 -1185890.000000 0 0 1
-28.045581 -24.995723 -12.210789 39.502458 0.727962 1.885058 0.096415 0.017908 285741.000000 0 0 1
-29.352781 -25.013023 -11.645589 40.284697 0.705742 1.864064 0.073071 0.021566 854100.000000 0 0 1
-30.544281 -24.346023 -12.460489 40.999338 0.672954 1.879600 0.086105 0.010842 -500317.000000 0 0 1
-30.880781 -22.989723 -12.199989 40.385514 0.639951 1.877679 0.081811 0.014375 53586.600000 0 0 1
-31.538881 -22.767523 -10.985389 40.419548 0.625265 1.846043 0.103492 -0.000269 -249822.000000 0 0 1
-32.995181 -23.290223 -10.833489 41.814841 0.614653 1.832868 0.086865 -0.004868 7858.730000 0 0 1
-34.093681 -22.533723 -11.321689 42.406702 0.584024 1.841053 0.113079 -0.022200 364156.000000 0 0 1
-34.250781 -22.587023 -12.740989 42.960708 0.582997 1.871899 0.106630 -0.020569 -666713.000000 0 0 1
-35.461181 -21.809423 -13.287989 43.700308 0.551392 1.879759 0.079494 -0.024147 -785767.000000 0 0 1
-36.665781 -22.407223 -13.043489 44.906522 0.548556 1.865502 0.118641 -0.017116 -1024910.000000 0 0 1
-37.814981 -21.782223 -13.598589 45.709514 0.522601 1.872870 0.119983 -0.031632 502488.000000 0 0 1
37.229891 -22.590323 -13.068489 45.466173 -0.545389 1.862342 0.096248 -0.012033 -113415.000000 0 0 1
37.288691 -23.902923 -13.607789 46.335388 -0.570039 1.868871 0.086437 -0.002609 547725.000000 0 0 1
36.206591 -24.671323 -13.056089 45.717096 -0.598136 1.860412 0.074510 -0.019067 560982.000000 0 0 1
36.070591 -26.080623 -13.629289 46.551519 -0.626025 1.867928 0.061803 -0.016055 184821.000000 0 0 1
35.562391 -26.238023 -14.945689 46.652879 -0.635649 1.896905 0.055725 -0.018129 -148625.000000 0 0 1
35.323491 -27.580323 -15.262089 47.342947 -0.662919 1.899032 0.045468 0.011023 -104352.000000 0 0 1
34.565391 -27.672423 -16.585889 47.282354 -0.675096 1.929204 0.045407 -0.007105 -297577.000000 0 0 1
33.209491 -27.318323 -16.470789 46.048322 -0.688374 1.936584 0.116876 -0.012003 -461415.000000 0 0 1
32.672191 -27.443123 -17.774989 46.222801 -0.698633 1.965517 0.107471 -0.025602 676488.000000 0 0 1
31.120091 -27.623823 -17.819489 45.266653 -0.725951 1.975402 0.121425 -0.038318 1097230.000000 0 0 1
30.374291 -26.436023 -17.442189 43.882694 -0.716186 1.979558 0.117530 -0.036179 278488.000000 0 0 1
28.976591 -26.637923 -17.531289 43.087909 -0.743372 1.989824 0.144711 -0.037462 377120.000000 0 0 1
28.147991 -25.876323 -16.452989 41.624444 -0.743374 1.977161 0.135767 -0.046516 133691.000000 0 0 1
27.886091 -24.523723 -16.724789 40.727947 -0.721331 1.993959 0.146390 -0.054311 -116192.000000 0 0 1
27.372891 -23.924823 -15.543189 39.538122 -0.718282 1.974818 0.132652 -0.050934 -231162.000000 0 0 1
26.824691 -22.520823 -15.544989 38.319684 -0.698399 1.988504 0.122472 -0.049104 -455673.000000 0 0 1
25.536391 -22.273423 -16.017489 37.480296 -0.717255 2.012364 0.128530 -0.054632 -474144.000000 0 0 1
25.372591 -20.883023 -16.020889 36.558691 -0.688641 2.024418 0.119713 -0.053144 440380.000000 0 0 1
23.867791 -20.487123 -16.108889 35.339637 -0.709327 2.044102 0.089183 -0.052252 330733.000000 0 0 1
23.104291 -20.707923 -14.923689 34.428808 -0.730756 2.019131 0.077727 -0.044064 353252.000000 0 0 1
21.820991 -20.101923 -15.041489 33.263935 -0.744416 2.040011 0.069338 -0.041713 313820.000000 0 0 1
21.714591 -18.738123 -14.362089 32.076632 -0.711952 2.035036 0.051648 -0.038773 -358659.000000 0 0 1
21.374291 -18.761423 -13.002389 31.271608 -0.720389 1.999606 0.057401 -0.047727 -1722.750000 0 0 1
21.224191 -17.471323 -12.417689 30.164755 -0.688716 1.995074 0.072406 -0.056017 -250267.000000 0 0 1
20.326091 -17.519023 -11.132989 29.051843 -0.711361 1.964067 0.082566 -0.050167 -165808.000000 0 0 1
20.847191 -18.326323 -10.107989 29.540327 -0.721135 1.920028 0.087666 -0.054099 299275.000000 0 0 1
20.024091 -18.177023 -8.941289 28.483593 -0.737085 1.890105 0.074997 -0.048133 101394.000000 0 0 1
20.584791 -19.029323 -7.778989 29.092292 -0.746153 1.841480 0.071255 -0.036533 -488428.000000 0 0 1
21.518991 -18.210423 -7.157789 29.084711 -0.702312 1.819452 0.070415 -0.039809 -466708.000000 0 0 1
22.122291 -18.865423 -6.071489 29.701228 -0.706105 1.776666 0.073093 -0.027437 -242229.000000 0 0 1
23.429991 -18.163323 -5.637889 30.177087 -0.659446 1.758727 0.084557 -0.029810 763500.000000 0 0 1
24.449991 -18.301623 -6.676489 31.262229 -0.642562 1.786018 0.083391 -0.045836 1099540.000000 0 0 1
25.377291 -17.226323 -6.682389 31.391200 -0.596362 1.785312 0.111683 -0.043026 -287906.000000 0 0 1
26.354291 -17.149123 -7.851289 32.408083 -0.576877 1.815494 0.151321 -0.053806 258858.000000 0 0 1
27.516591 -17.976823 -7.732589 33.765691 -0.578698 1.801854 0.172207 -0.064038 737750.000000 0 0 1
27.364191 -19.174623 -8.491289 34.475602 -0.611209 1.819656 0.159609 -0.067562 -597644.000000 0 0 1
28.412791 -20.207323 -8.122589 35.799428 -0.618207 1.799681 0.159039 -0.069586 197447.000000 0 0 1
29.669091 -19.828123 -8.684689 36.726465 -0.589139 1.809527 0.191032 -0.057408 615156.000000 0 0 1
30.674591 -20.837823 -8.577089 38.061948 -0.596711 1.798094 0.155392 -0.048667 444734.000000 0 0 1
-31.020229 29.163606 4.035011 42.767415 -0.754559 1.476308 0.132687 -0.034730 157514.000000 0 0 1
-30.500249 30.104706 3.133811 42.969516 -0.778872 1.497800 0.128536 -0.030724 -225744.000000 0 0 1
-29.585719 31.024006 3.676111 43.026939 -0.809124 1.485255 0.106124 -0.009988 -88737.200000 0 0 1
-29.276859 32.059906 2.604611 43.494322 -0.830740 1.510877 0.105807 -0.008331 141892.000000 0 0 1
-28.377109 31.630806 1.529511 42.521848 -0.839566 1.534819 0.111050 -0.012804 781356.000000 0 0 1
-28.040679 32.704506 0.661511 43.084823 -0.862025 1.555442 0.138362 -0.035209 -6102.450000 0 0 1
-27.139339 -33.616123 1.222611 43.221317 0.891601 1.542505 0.152840 -0.013964 536558.000000 0 0 1
-25.768379 33.399506 1.324411 42.205336 -0.913664 1.539411 0.126528 -0.018300 599311.000000 0 0 1
-25.002969 -33.134523 2.040311 41.559692 0.924364 1.521683 0.128098 -0.013803 351094.000000 0 0 1
-23.515509 -33.554223 2.238911 41.035080 0.959519 1.516208 0.114841 -0.026293 352860.000000 0 0 1
-22.744209 -33.471723 1.063111 40.481916 0.973958 1.544532 0.168424 -0.036879 51766.900000 0 0 1
-21.386809 33.653606 1.360711 39.897523 -1.004683 1.536685 0.158284 -0.043548 78022.300000 0 0 1
-20.489309 -33.378023 0.165911 39.165441 1.020251 1.566560 0.183244 -0.051631 -288037.000000 0 0 1
-20.401909 -31.950323 -0.116189 37.908766 1.002512 1.573861 0.185665 -0.057444 255679.000000 0 0 1
-19.649509 -31.228323 0.826411 36.905208 1.009168 1.548402 0.199625 -0.049334 -403695.000000 0 0 1
-19.347109 -29.770523 0.492311 35.508267 0.994509 1.556931 0.222918 -0.067715 -440247.000000 0 0 1
-18.350409 -29.516223 -0.448689 34.758399 1.014569 1.583705 0.218257 -0.047149 -104130.000000 0 0 1
-17.994209 -28.124623 -0.497589 33.392119 1.001623 1.585698 0.173862 -0.043196 -427629.000000 0 0 1
-16.837709 -27.669823 -1.369289 32.419169 1.024134 1.613046 0.143398 -0.032611 -528320.000000 0 0 1
-17.092309 -27.844223 -2.723689 32.785153 1.020252 1.653969 0.120469 -0.021568 -32183.900000 0 0 1
-16.284709 -26.975823 -3.507189 31.704687 1.027677 1.681644 0.101192 -0.008659 -21700.300000 0 0 1
-16.582209 -27.057723 -5.021789 32.129557 1.020985 1.727738 0.134099 -0.016264 482235.000000 0 0 1
-17.719809 -26.243723 -5.326889 32.110752 0.976908 1.737458 0.120891 -0.012657 121585.000000 0 0 1
-18.044809 -26.258023 -6.661989 32.549670 0.968705 1.776924 0.148733 -0.018576 182546.000000 0 0 1
-18.505909 -24.908523 -7.301289 31.878081 0.931819 1.801886 0.122919 -0.007753 -26482.400000 0 0 1
-17.472909 -23.972523 -7.172589 30.519346 0.940955 1.808033 0.092132 -0.004153 59490.400000 0 0 1
-17.953709 -22.619623 -7.257489 29.776739 0.899895 1.817006 0.096572 -0.004353 215469.000000 0 0 1
-16.812409 -21.592723 -7.070089 28.264624 0.909232 1.823620 0.107328 0.000519 504742.000000 0 0 1
-15.873909 -21.649923 -8.137389 28.052046 0.938129 1.865109 0.126383 -0.010237 -473614.000000 0 0 1
-14.734909 -20.872123 -7.906589 26.744667 0.956081 1.870914 0.135338 -0.030166 537331.000000 0 0 1
-13.766209 -20.731323 -9.142689 26.511979 0.984622 1.922877 0.107625 -0.015384 762214.000000 0 0 1
-14.460709 -20.035923 -10.192789 26.729072 0.945629 1.962039 0.135031 -0.017808 290591.000000 0 0 1
-13.691109 -19.905023 -11.400589 26.713851 0.968290 2.011711 0.122007 -0.009185 568603.000000 0 0 1
-14.438809 -19.122523 -12.554889 27.051346 0.924059 2.053430 0.157742 -0.010455 381704.000000 0 0 1
-15.533509 -19.732723 -13.200689 28.371261 0.903912 2.054752 0.137636 0.023752 -403949.000000 0 0 1
-16.194609 -18.767523 -13.962689 28.450694 0.858857 2.083767 0.151483 -0.017202 -502504.000000 0 0 1
-17.394909 -19.349523 -14.691589 29.880256 0.838543 2.084817 0.167919 -0.023131 -360864.000000 0 0 1
-18.518809 -19.505423 -13.842989 30.249565 0.811339 2.046120 0.168535 -0.019715 -69161.200000 0 0 1
-19.653609 -19.794723 -14.623089 31.494923 0.788975 2.053640 0.152034 -0.019616 130328.000000 0 0 1
-20.984409 -19.983523 -13.831989 32.109353 0.760972 2.016151 0.139531 -0.013826 713516.000000 0 0 1
-22.057209 -20.250923 -14.719889 33.366083 0.742730 2.027691 0.149235 -0.018073 881728.000000 0 0 1
-23.370809 -19.856423 -14.289889 33.833019 0.704276 2.006849 0.128026 -0.008793 1176750.000000 0 0 1
-24.550509 -20.325823 -15.179889 35.302912 0.691534 2.015278 0.115007 -0.016077 58662.300000 0 0 1
-24.462409 -19.807223 -16.522689 35.549048 0.680628 2.054189 0.111099 -0.029633 213899.000000 0 0 1
-24.812609 -20.794523 -17.455289 36.779952 0.697523 2.065291 0.124208 -0.034515 -398058.000000 0 0 1
-25.155039 -20.236323 -18.843689 37.381404 0.677457 2.099127 0.122777 -0.037256 391357.000000 0 0 1
-23.984509 -19.732623 -19.477989 36.660949 0.688444 2.130932 0.110065 -0.045032 447855.000000 0 0 1
-24.275209 -19.338723 -20.850489 37.390037 0.672692 2.162346 0.114296 -0.044977 208895.000000 0 0 1
-23.050009 -18.616623 -21.449989 36.578458 0.679396 2.197417 0.088060 -0.032089 545679.000000 0 0 1
-21.837209 -19.340123 -21.552789 36.268813 0.724830 2.207131 0.060944 -0.032268 -212236.000000 0 0 1
-20.899109 -18.615323 -22.312389 35.793096 0.727666 2.243843 0.056234 -0.024667 640839.000000 0 0 1
-19.526009 -19.377023 -22.443489 35.502736 0.781569 2.255137 0.066802 -0.020154 563855.000000 0 0 1
-19.600009 -20.449723 -23.326889 36.694622 0.806611 2.259715 0.040182 -0.017488 731170.000000 0 0 1
-18.461809 -21.317823 -23.116689 36.464631 0.857071 2.257444 0.049654 -0.014972 615642.000000 0 0 1
-18.531209 -22.630623 -23.948189 37.802997 0.884663 2.256864 0.056910 -0.020049 -278649.000000 0 0 1
-18.469809 -22.378623 -25.350009 38.529983 0.880798 2.288862 0.048609 -0.018682 186471.000000 0 0 1
-18.827309 -23.548823 -26.074929 39.861216 0.896360 2.283845 0.066473 -0.026554 -127116.000000 0 0 1
-18.705609 -23.440823 -27.634129 40.780107 0.897280 2.315342 0.066167 -0.011043 -211162.000000 0 0 1
-17.362509 -23.210323 -27.964339 40.276297 0.928544 2.338261 0.070069 -0.015726 -277913.000000 0 0 1
-17.338809 -23.114623 -29.370639 41.201390 0.927217 2.364358 0.094172 -0.019540 1043560.000000 0 0 1
-15.886909 -22.974723 -29.987689 40.981621 0.965801 2.391660 0.069680 -0.023669 1489380.000000 0 0 1
-14.999309 -24.102923 -29.725559 41.104003 1.014139 2.379191 0.080333 -0.022635 -396110.000000 0 0 1
-13.778509 -23.841823 -30.298789 40.942600 1.046775 2.403913 0.113144 -0.033897 -784876.000000 0 0 1
-12.665209 -24.835023 -29.970869 40.932125 1.099202 2.392356 0.121106 -0.030053 -365320.000000 0 0 1
-13.171209 -26.078823 -30.454849 42.202886 1.103114 2.376950 0.097440 -0.022170 679158.000000 0 0 1
-12.399109 -27.218323 -30.066749 42.409721 1.143343 2.358817 0.111575 -0.027187 367232.000000 0 0 1
-10.998109 -27.462423 -30.689869 42.626414 1.189878 2.374560 0.150047 -0.045099 173561.000000 0 0 1
-10.019209 -26.612723 -30.129189 41.429333 1.210727 2.385093 0.215528 -0.062724 -626684.000000 0 0 1
-8.810509 -26.710223 -30.818379 41.723298 1.252179 2.401843 0.186408 -0.051674 -1194910.000000 0 0 1
-7.818709 -25.660123 -30.445749 40.577306 1.275031 2.419334 0.248835 -0.060814 -818808.000000 0 0 1
-8.133809 -24.300523 -30.714759 40.000884 1.247801 2.446278 0.264806 -0.064118 -165202.000000 0 0 1
-9.032709 -23.751723 -29.780439 39.148547 1.207390 2.435193 0.232436 -0.058234 -236286.000000 0 0 1
-9.199409 -22.184123 -29.720069 38.210561 1.177695 2.461950 0.245346 -0.060394 441051.000000 0 0 1
-10.004309 -21.658623 -30.814409 38.970629 1.138083 2.482762 0.221098 -0.059411 355851.000000 0 0 1
-10.383109 -20.348123 -30.500029 38.106520 1.098964 2.498740 0.225584 -0.060787 -18816.600000 0 0 1
-11.404309 -19.825623 -31.516739 38.941218 1.048789 2.513826 0.186346 -0.055418 16521.800000 0 0 1
-12.025809 -18.556323 -31.327279 38.345216 0.995779 2.526951 0.178025 -0.055186 -71590.000000 0 0 1
-12.889409 -18.322623 -32.397029 39.388106 0.957746 2.536603 0.158937 -0.047460 -117331.000000 0 0 1
-13.912309 -17.134923 -32.350289 39.162471 0.888825 2.542865 0.166096 -0.045187 238563.000000 0 0 1
-13.454809 -15.748423 -32.351279 38.414190 0.863777 2.572091 0.164281 -0.043980 -172607.000000 0 0 1
-12.539709 -15.353423 -31.341619 37.084619 0.885933 2.577619 0.151828 -0.040612 183842.000000 0 0 1
-12.321609 -13.803823 -31.400229 36.446426 0.842072 2.609101 0.126614 -0.040070 292554.000000 0 0 1
-11.551309 -13.450423 -32.587929 37.098784 0.861212 2.643321 0.131619 -0.040098 225040.000000 0 0 1
-12.214409 -13.519223 33.500071 38.134183 0.836059 0.498127 0.140824 -0.039644 -490849.000000 0 0 1
-12.849009 -12.191223 33.006432 37.458611 0.759135 0.492520 0.124028 -0.025748 -875244.000000 0 0 1
-13.924809 -11.751423 -33.592749 38.216084 0.700954 2.644602 0.104369 -0.020269 -1305870.000000 0 0 1
-14.706709 -10.977023 32.858088 37.635572 0.641190 0.509355 0.085495 -0.023477 26897.200000 0 0 1
-15.791309 -10.158723 33.566161 38.461049 0.571659 0.510027 0.097445 -0.023331 244076.000000 0 0 1
-15.187309 -8.976923 -33.217599 37.611812 0.533835 2.653373 0.105180 -0.029021 256539.000000 0 0 1
-15.938709 -8.446523 -32.126989 36.844669 0.487310 2.629983 0.108314 -0.037894 107820.000000 0 0 1
-15.251609 -7.347123 -31.290049 35.576101 0.448923 2.645658 0.113896 -0.046773 -382893.000000 0 0 1
-15.094609 -6.038623 -31.848099 35.757707 0.380551 2.669600 0.110220 -0.047670 547020.000000 0 0 1
-16.250809 -5.196823 -31.802249 36.089871 0.309511 2.649182 0.129263 -0.041398 447599.000000 0 0 1
-16.543809 -4.628423 -30.402009 34.919938 0.272793 2.627258 0.130624 -0.047021 -292018.000000 0 0 1
-16.863309 -5.635623 -29.425239 34.379880 0.322525 2.598057 0.126171 -0.052935 -40672.800000 0 0 1
-17.090009 -5.204723 -28.087529 33.287638 0.295624 2.575089 0.130374 -0.054270 391478.000000 0 0 1
-15.907209 -4.469423 -27.353589 31.956750 0.273906 2.598194 0.126915 -0.046848 523583.000000 0 0 1
-15.482209 -3.300423 -28.062129 32.219166 0.210031 2.627982 0.120588 -0.039113 -798510.000000 0 0 1
-14.204809 -2.948323 -27.664989 31.238131 0.204652 2.658615 0.113123 -0.036155 -644697.000000 0 0 1
-13.689309 -1.674523 -28.364929 31.539981 0.121719 2.689037 0.082660 -0.020039 25511.400000 0 0 1
-13.599009 -1.869523 -29.767449 32.780012 0.136619 2.709515 0.080731 -0.027928 282351.000000 0 0 1
-13.161209 -0.691523 -30.452209 33.181812 0.052494 2.733144 0.053802 -0.034956 18690.900000 0 0 1
-13.600609 -0.857523 -31.922259 34.709401 0.062967 2.738114 0.066669 -0.039676 -1147940.000000 0 0 1
-14.943109 -1.114523 -32.071869 35.399766 0.074447 2.704511 0.093015 -0.042050 -931715.000000 0 0 1
-15.262309 -1.392523 -33.410159 36.757529 0.090987 2.711516 0.084115 -0.036309 -1159930.000000 0 0 1
-16.727409 -1.702523 -33.577009 37.551569 0.101431 2.677342 0.083112 -0.045969 -969718.000000 0 0 1
-16.968009 -1.627523 32.347331 36.563807 0.095625 0.484986 0.095845 -0.039078 906487.000000 0 0 1
-18.367509 -1.623523 32.010976 36.941898 0.088162 0.522604 0.088035 -0.038657 760264.000000 0 0 1
-18.656709 -1.748523 30.529751 35.821723 0.093448 0.550488 0.107176 -0.026329 -83242.000000 0 0 1
-18.325809 -0.552523 29.853171 35.033589 0.030141 0.550754 0.110233 -0.007737 -155739.000000 0 0 1
-18.505109 -0.652523 28.488591 33.977414 0.035247 0.576351 0.120526 -0.019542 -269785.000000 0 0 1
-17.622509 0.337477 27.705441 32.836842 -0.019148 0.566601 0.085918 -0.018717 -66084.000000 0 0 1
-17.899509 1.708477 27.920531 33.209447 -0.095160 0.572147 0.082579 -0.019338 568811.000000 0 0 1
-19.225409 2.139477 27.588541 33.694529 -0.110828 0.611507 0.098054 -0.023673 542194.000000 0 0 1
-19.309309 2.788477 26.176591 32.647189 -0.143420 0.640491 0.111387 -0.024540 -456075.000000 0 0 1
-18.703009 4.028477 26.270601 32.498856 -0.212151 0.629445 0.108733 -0.020464 87492.900000 0 0 1
-18.861109 4.827477 25.110821 31.774192 -0.250570 0.659514 0.109186 -0.012447 -816805.000000 0 0 1
-18.608609 6.259477 25.519821 32.198177 -0.324486 0.655758 0.107035 -0.012363 1010470.000000 0 0 1
-17.283809 6.827477 25.415011 31.484397 -0.376207 0.631360 0.102061 -0.014517 907699.000000 0 0 1
-16.744209 6.792477 24.093111 30.116179 -0.385377 0.643492 0.083975 -0.011981 -445441.000000 0 0 1
-15.639909 7.845477 23.887011 29.609923 -0.464952 0.632211 0.093860 -0.012356 171428.000000 0 0 1
-14.408909 7.629477 24.547271 29.468527 -0.486966 0.586289 0.086668 -0.013619 303002.000000 0 0 1
-13.333309 7.999477 23.689501 28.336570 -0.540391 0.580835 0.084231 -0.017421 36263.000000 0 0 1
-11.940109 7.965477 24.341721 28.258351 -0.588316 0.532778 0.062772 -0.009042 -147031.000000 0 0 1
-10.941409 8.593477 23.565711 27.366129 -0.665780 0.533314 0.041713 -0.016127 924109.000000 0 0 1
-9.636409 8.747477 24.148631 27.432373 -0.737082 0.494309 0.052843 -0.014623 853020.000000 0 0 1
-9.514309 10.021477 25.009211 28.572936 -0.811353 0.504790 0.060818 -0.024443 -520757.000000 0 0 1
-10.365209 9.929477 26.182421 29.858855 -0.763931 0.501478 0.056444 -0.030101 665518.000000 0 0 1
-10.503509 11.108477 26.966491 30.998606 -0.813383 0.515744 0.054793 -0.029364 -348719.000000 0 0 1
-11.199109 12.248477 26.208831 31.021735 -0.830122 0.564504 0.053469 -0.030209 493218.000000 0 0 1
-12.614409 12.163477 25.951101 31.313465 -0.767201 0.593922 0.076294 -0.033482 1006450.000000 0 0 1
-12.985409 11.650477 24.695481 30.236091 -0.731265 0.615032 0.071801 -0.030668 198169.000000 0 0 1
-14.526709 11.723477 24.507821 30.807442 -0.679012 0.650937 0.085006 -0.027878 -121699.000000 0 0 1
-15.078009 13.033477 24.325181 31.447294 -0.712797 0.686416 0.087192 -0.032353 922219.000000 0 0 1
-16.502909 13.044477 24.127051 32.009670 -0.668881 0.717058 0.103543 -0.014158 862207.000000 0 0 1
-16.982009 12.576477 22.737961 31.041444 -0.637443 0.748804 0.098833 -0.001112 -649896.000000 0 0 1
-16.795009 11.220477 22.482501 30.223075 -0.588983 0.731931 0.103734 -0.001751 -125101.000000 0 0 1
-16.894009 10.955477 21.100911 29.166392 -0.575308 0.761986 0.094289 0.005587 51560.600000 0 0 1
-17.014009 9.522477 20.565811 28.339136 -0.510248 0.758740 0.090388 -0.003559 280841.000000 0 0 1
-18.252909 8.923477 20.906011 29.152331 -0.454712 0.771121 0.089686 0.013813 8925.990000 0 0 1
-18.328709 7.477477 20.833711 28.738437 -0.387354 0.759846 0.083175 0.006742 -86390.800000 0 0 1
-19.823609 7.123477 20.915211 29.684431 -0.344974 0.788958 0.121665 -0.002450 136864.000000 0 0 1
-20.495809 7.586477 22.082911 31.069081 -0.354510 0.780207 0.109259 0.001978 462181.000000 0 0 1
-21.891709 7.780477 21.862811 31.902433 -0.341484 0.815778 0.091137 -0.001173 136703.000000 0 0 1
-22.565409 8.445477 23.040631 33.337583 -0.358127 0.807744 0.088623 -0.005670 -851726.000000 0 0 1
-22.368609 9.868477 23.221271 33.718970 -0.415491 0.811142 0.084132 0.002943 -201210.000000 0 0 1
-21.082209 10.434477 23.276511 33.092806 -0.459593 0.790668 0.101573 0.005389 -195496.000000 0 0 1
-20.233509 10.018477 24.475441 33.298828 -0.459754 0.745094 0.121031 -0.014744 -597303.000000 0 0 1
-20.789509 10.505477 25.669801 34.662767 -0.467899 0.736895 0.121219 -0.016823 82382.800000 0 0 1
-20.500309 9.696477 26.793281 35.102197 -0.441808 0.702400 0.132438 -0.023860 8137.740000 0 0 1
-32.001719 -13.559094 20.090311 40.144485 0.400768 1.046678 0.100568 -0.008531 -14688.500000 0 0 1
-31.605879 -14.913194 20.033711 40.282559 0.440874 1.050278 0.105201 -0.012110 239213.000000 0 0 1
-32.340979 -15.715094 19.103811 40.716811 0.452319 1.082426 0.098871 -0.002633 230738.000000 0 0 1
-32.143139 -15.348994 17.574911 39.719649 0.445502 1.112441 0.113972 -0.000136 131953.000000 0 0 1
-32.811169 -14.162894 17.163311 39.645172 0.407489 1.123063 0.113507 -0.006411 -360251.000000 0 0 1
-32.413959 -13.702294 15.891711 38.613004 0.399945 1.146627 0.115387 -0.007025 -1509370.000000 0 0 1
-33.351539 -12.883494 15.029911 38.784118 0.368635 1.172848 0.117753 -0.013921 456654.000000 0 0 1
-34.638904 -13.494794 14.695711 39.974080 0.371496 1.194336 0.118365 -0.011665 1607310.000000 0 0 1
-35.548610 -13.647394 15.757011 41.209689 0.366557 1.178445 0.114929 -0.008728 -960696.000000 0 0 1
-36.112049 -12.360294 16.454211 41.564384 0.329777 1.163778 0.112282 -0.008669 -646151.000000 0 0 1
-37.186659 -12.581694 17.326611 42.911049 0.326249 1.155152 0.071869 -0.007897 257578.000000 0 0 1
-37.837579 -11.346294 17.730311 43.298784 0.291336 1.148904 0.071702 -0.003978 275050.000000 0 0 1
37.495473 -11.561994 18.929411 43.565041 -0.299106 1.121303 0.080469 -0.002508 -337372.000000 0 0 1
-38.058099 -12.058794 20.074311 44.685695 0.306845 1.104889 0.074531 0.001257 -54069.800000 0 0 1
37.512163 -11.923494 21.275811 44.743627 -0.307758 1.075259 0.072115 -0.010459 -1761320.000000 0 0 1
-37.923959 -12.380494 22.454981 45.779138 0.315548 1.058125 0.064233 -0.014611 -636898.000000 0 0 1
-36.786779 -11.608794 22.694891 44.755886 0.305679 1.039001 0.063125 -0.017867 217695.000000 0 0 1
-35.665506 -12.198194 22.002111 43.645357 0.329545 1.042444 0.068015 -0.019353 -1195230.000000 0 0 1
-34.428201 -11.368394 21.925811 42.370775 0.318933 1.026899 0.099666 -0.019336 -962946.000000 0 0 1
-34.506828 -10.236794 21.096311 41.720109 0.288390 1.040646 0.120640 -0.024090 502871.000000 0 0 1
-33.285139 -9.482394 21.117111 40.543170 0.277532 1.022944 0.149177 -0.029279 301615.000000 0 0 1
-33.414889 -8.117794 20.385011 39.975018 0.238322 1.035677 0.153201 -0.023079 70978.500000 0 0 1
-33.449169 -8.137894 18.953911 39.297875 0.238655 1.067502 0.155756 -0.019277 861245.000000 0 0 1
-34.749470 -8.564894 18.520611 40.297594 0.241659 1.093256 0.140689 -0.021814 306428.000000 0 0 1
-35.072790 -8.373394 17.028311 39.877032 0.234356 1.129601 0.138236 -0.022316 1029910.000000 0 0 1
-36.488129 -8.473594 16.757911 41.036727 0.228184 1.150136 0.061480 -0.014436 1156650.000000 0 0 1
-36.946719 -8.073594 15.505511 40.873755 0.215138 1.181701 0.076848 -0.016969 606793.000000 0 0 1
37.766373 -8.037694 15.308311 41.536103 -0.209698 1.193343 0.090668 -0.032462 652675.000000 0 0 1
37.184543 -9.340894 15.408611 41.320307 -0.246111 1.188657 0.076788 0.001007 -785566.000000 0 0 1
35.814383 -9.166794 15.434911 40.061660 -0.250573 1.175286 0.085713 -0.012213 -579982.000000 0 0 1
34.893623 -10.404994 15.745811 39.670636 -0.289797 1.162645 0.069717 -0.006061 363556.000000 0 0 1
34.925343 -10.911894 17.070611 40.376413 -0.302826 1.134278 0.058423 -0.013997 -470014.000000 0 0 1
33.864753 -11.781194 17.290811 39.806911 -0.334793 1.121461 0.090766 -0.019890 -261320.000000 0 0 1
33.673723 -11.981494 18.830311 40.398718 -0.341843 1.085906 0.094873 -0.029199 -63500.200000 0 0 1
34.360523 -13.133294 19.209111 41.498420 -0.365086 1.089546 0.081752 -0.009314 -234770.000000 0 0 1
34.282463 -13.290894 20.654211 42.172640 -0.369848 1.058989 0.112088 -0.013518 -184444.000000 0 0 1
35.046073 -14.542194 21.156311 43.442975 -0.393323 1.062156 0.098327 -0.009959 85572.600000 0 0 1
35.087663 -14.588994 22.561801 44.192960 -0.394041 1.034996 0.105010 -0.018088 -325921.000000 0 0 1
35.815763 -15.688494 23.016821 45.372588 -0.412858 1.038765 0.094776 -0.011663 39682.500000 0 0 1
36.476373 -15.570094 24.398981 46.564620 -0.403440 1.019278 0.112405 -0.005659 79126.200000 0 0 1
37.594483 -14.713994 24.422941 47.183968 -0.373059 1.026740 0.107722 -0.006450 -163883.000000 0 0 1
37.991433 -14.369794 25.735971 48.085134 -0.361606 1.006032 0.119117 -0.007768 -284581.000000 0 0 1
-37.007719 -13.497794 25.708571 47.039264 0.349736 0.992576 0.090491 -0.017983 229882.000000 0 0 1
-35.858989 -14.224494 25.235611 46.098150 0.377640 0.991504 0.055328 -0.011252 281856.000000 0 0 1
-34.732063 -13.383694 25.336801 45.026581 0.367806 0.973139 0.077934 -0.015050 -43029.200000 0 0 1
-33.414529 -14.091294 24.947991 44.017015 0.399082 0.968203 0.060299 -0.018514 -562180.000000 0 0 1
-33.169379 -14.172394 23.566811 43.086646 0.403795 0.992064 0.073311 -0.010558 450461.000000 0 0 1
-31.849589 -14.673094 23.353301 42.131611 0.431716 0.983282 0.078435 -0.019246 410010.000000 0 0 1
-31.526439 -16.155694 23.676861 42.608879 0.473557 0.981617 0.082494 -0.021634 -922741.000000 0 0 1
-31.372899 -16.347294 25.093471 43.372516 0.480357 0.953838 0.077309 -0.019778 132453.000000 0 0 1
-31.217369 -17.689294 25.449331 43.989814 0.515536 0.953874 0.083440 -0.028827 -368554.000000 0 0 1
-30.853679 -17.765794 26.928281 44.639727 0.522441 0.923244 0.082776 -0.027215 175809.000000 0 0 1
-29.568509 -17.264194 27.273991 43.774647 0.528476 0.898155 0.087263 -0.033544 18176.900000 0 0 1
-29.218389 -17.629494 28.600781 44.525476 0.542894 0.873240 0.096786 -0.038388 289797.000000 0 0 1
-27.876509 -17.025994 29.078711 43.732776 0.548297 0.843412 0.092448 -0.046246 -98467.800000 0 0 1
-27.973649 -15.708594 29.595651 43.648454 0.511667 0.825696 0.104754 -0.046903 285692.000000 0 0 1
-26.805879 -14.927894 29.321231 42.439743 0.508117 0.808076 0.098441 -0.046801 -290629.000000 0 0 1
-26.696589 -13.506894 29.884661 42.287552 0.468389 0.785972 0.097123 -0.038545 -463025.000000 0 0 1
-26.265289 -13.557894 31.208081 42.984023 0.476516 0.758252 0.096862 -0.043578 125200.000000 0 0 1
-25.926029 -12.284494 31.692684 42.749199 0.442492 0.735697 0.086276 -0.033286 -42481.400000 0 0 1
-25.327829 -12.331394 33.158443 43.509132 0.453090 0.704241 0.092009 -0.032503 1153830.000000 0 0 1
-23.952109 -12.776494 33.252471 42.926322 0.490024 0.684650 0.076295 -0.031910 931526.000000 0 0 1
-23.768909 -14.174994 33.427281 43.396712 0.537744 0.691528 0.080608 -0.038442 -88372.600000 0 0 1
-23.905909 -14.708894 -32.415309 42.878856 0.551581 2.427937 0.088188 -0.037175 581558.000000 0 0 1
-22.806309 -14.293694 -31.561129 41.479420 0.559852 2.435474 0.066122 -0.026909 787045.000000 0 0 1
-22.788209 -15.117394 -30.375339 40.871742 0.585728 2.408617 0.079988 -0.025885 -33512.500000 0 0 1
-21.459309 -15.190194 -29.582289 39.577213 0.615982 2.415023 0.079093 -0.022571 81394.000000 0 0 1
-21.078709 -13.992794 -28.980999 38.470879 0.586040 2.423897 0.082236 -0.022264 80420.200000 0 0 1
-21.488609 -13.955694 -27.619219 37.674169 0.575986 2.393676 0.079251 -0.017696 -51835.800000 0 0 1
-21.076109 -12.653394 -26.910949 36.448730 0.540689 2.401377 0.081021 -0.022603 -367451.000000 0 0 1
-19.784709 -12.664994 -26.367149 35.313784 0.569413 2.413813 0.078543 -0.017760 -181117.000000 0 0 1
-19.523509 -11.424494 -25.687699 34.227830 0.529441 2.419602 0.079674 -0.022845 246885.000000 0 0 1
-18.107009 -11.382194 -25.063289 32.948241 0.561189 2.435167 0.089837 -0.018218 -436176.000000 0 0 1
-17.941109 -11.857994 -23.731889 32.026520 0.584027 2.405366 0.098702 -0.018319 1064190.000000 0 0 1
-16.595109 -12.112294 -23.246189 31.024033 0.630494 2.417795 0.101951 -0.030532 1326800.000000 0 0 1
-15.773409 -13.187894 -24.027389 31.623352 0.696359 2.433800 0.082483 -0.030409 118086.000000 0 0 1
-14.845609 -12.635294 -24.985789 31.691204 0.705140 2.479023 0.106124 -0.046380 766135.000000 0 0 1
-14.108209 -13.553194 -25.759189 32.346042 0.765336 2.492054 0.113249 -0.049939 49721.500000 0 0 1
-13.053409 -13.016994 -26.743479 32.481492 0.784001 2.538077 0.125067 -0.049361 605472.000000 0 0 1
-13.803609 -12.275194 -27.690449 33.286348 0.726858 2.553294 0.121035 -0.053946 -186122.000000 0 0 1
-12.898909 -11.552894 -28.395839 33.259208 0.730406 2.593987 0.126410 -0.056181 -377058.000000 0 0 1
-13.553009 -10.568294 -29.418109 34.070486 0.662286 2.612863 0.099745 -0.047869 175310.000000 0 0 1
-12.638309 -9.677294 -30.032049 33.989717 0.653481 2.654212 0.090801 -0.039782 178268.000000 0 0 1
-12.160809 -10.093794 -31.304959 35.068083 0.692784 2.674078 0.107270 -0.032568 141699.000000 0 0 1
-11.368009 -9.026994 -32.121929 35.249632 0.671115 2.717154 0.087673 -0.028976 237449.000000 0 0 1
-10.034909 -8.899994 -31.672449 34.395542 0.725532 2.741000 0.096612 -0.033380 1270.570000 0 0 1
-9.383109 -7.736794 -32.207629 34.427200 0.689529 2.780549 0.073447 -0.026099 -1070930.000000 0 0 1
-7.905809 -7.736794 -31.882589 33.746989 0.774594 2.807638 0.104265 -0.026360 -1134940.000000 0 0 1
-7.620709 -7.671194 -30.496669 32.356904 0.788700 2.800856 0.086060 -0.022714 -88226.200000 0 0 1
-7.992809 -6.453994 -29.842109 31.560902 0.679282 2.810047 0.090521 -0.015786 -940929.000000 0 0 1
-7.347909 -5.156294 -30.266779 31.569876 0.611890 2.853274 0.064915 -0.017019 157522.000000 0 0 1
-6.012609 -5.030894 -29.771629 30.786543 0.696736 2.884109 0.070157 -0.020799 407473.000000 0 0 1
-5.450509 -3.827194 -30.255919 30.980253 0.612182 2.924926 0.104058 -0.035825 -456406.000000 0 0 1
-3.954909 -3.644694 -29.986589 30.465072 0.744601 2.964126 0.129702 -0.037668 -1203390.000000 0 0 1
-3.223209 -4.579494 -30.716229 31.222549 0.957501 2.961257 0.130292 -0.039825 -416453.000000 0 0 1
-1.847809 -4.509694 -30.416769 30.804733 1.181920 2.982716 0.149716 -0.042022 -39527.600000 0 0 1
-1.042509 -3.417394 -31.195709 31.399644 1.274704 3.027559 0.138938 -0.031136 -630206.000000 0 0 1
0.003091 -2.898894 -30.382019 30.520004 -1.569730 3.046466 0.103251 -0.035702 79831.700000 0 0 1
0.452291 -1.778094 -31.115099 31.169144 -1.321711 3.082695 0.099834 -0.019701 -359165.000000 0 0 1
1.276491 -0.799494 -30.336359 30.373727 -0.559549 3.091984 0.092341 -0.035614 -1083780.000000 0 0 1
0.552991 -0.161594 -29.358749 29.364401 -0.284303 3.121972 0.110423 -0.031094 -478753.000000 0 0 1
1.267191 0.922106 -28.774699 28.817345 0.629061 3.087183 0.139785 -0.041461 -65390.800000 0 0 1
0.392191 1.952506 -28.047219 28.117834 1.372569 3.070706 0.121647 -0.039642 205521.000000 0 0 1
-0.628909 2.533606 -28.853879 28.971728 -1.327487 3.051365 0.090751 -0.052544 180915.000000 0 0 1
-1.188109 3.660906 -28.145409 28.407356 -1.256981 3.005686 0.141586 -0.048243 -793937.000000 0 0 1
-2.575809 4.009706 -28.638039 29.031876 -0.999787 2.976690 0.169885 -0.054042 -931369.000000 0 0 1
-2.704609 4.633406 -29.889719 30.367395 -1.042434 2.963990 0.170338 -0.059023 -255646.000000 0 0 1
-4.020809 4.754406 -30.384809 31.016252 -0.868803 2.939464 0.200234 -0.048308 -418938.000000 0 0 1
-4.161009 5.374206 -31.797519 32.515816 -0.911951 2.931010 0.195327 -0.046868 -197381.000000 0 0 1
-3.751209 4.686006 -32.909809 33.452739 -0.895743 2.961183 0.216712 -0.049635 -704011.000000 0 0 1
-2.418109 4.311506 -32.956699 33.325371 -1.059661 2.992708 0.193252 -0.048279 -1148020.000000 0 0 1
-2.026309 3.824506 32.932277 33.215473 -1.083576 0.130676 0.163111 -0.044243 -105374.000000 0 0 1
-2.535909 2.534606 32.635771 32.832128 -0.785141 0.109422 0.157319 -0.049367 54386.900000 0 0 1
-2.211209 1.987406 31.350940 31.491597 -0.732144 0.094550 0.143489 -0.040229 -166190.000000 0 0 1
-2.392909 2.759106 30.003011 30.224482 -0.856357 0.121132 0.143911 -0.035280 436782.000000 0 0 1
-3.667209 3.394206 29.883481 30.298374 -0.746756 0.165680 0.138536 -0.039686 360977.000000 0 0 1
-3.642109 4.334506 28.855301 29.405464 -0.871984 0.193743 0.129059 -0.041648 1108230.000000 0 0 1
-4.854809 5.376206 28.897871 29.791940 -0.836316 0.245608 0.123014 -0.034265 1034550.000000 0 0 1
-5.075009 5.877506 27.594641 28.666444 -0.858538 0.274314 0.115356 -0.027692 129129.000000 0 0 1
-6.223109 6.719506 27.515251 28.999446 -0.823733 0.321318 0.101716 -0.026482 134274.000000 0 0 1
-6.295609 7.466406 26.120801 27.886881 -0.870268 0.357799 0.094144 -0.027780 -336407.000000 0 0 1
-5.287109 8.419606 25.978091 27.815544 -1.010077 0.365510 0.092601 -0.026304 -314922.000000 0 0 1
-5.361909 9.069206 24.756581 26.905183 -1.036857 0.402354 0.080957 -0.021194 56862.800000 0 0 1
-4.457909 10.317906 24.747041 27.179922 -1.162965 0.426329 0.069826 -0.022839 -632247.000000 0 0 1
-4.652309 11.123106 23.631171 26.529223 -1.174651 0.471782 0.074463 -0.028168 91516.000000 0 0 1
-4.235709 12.441306 23.754171 27.147522 -1.242650 0.505354 0.071494 -0.016329 -462030.000000 0 0 1
-2.700509 12.690706 23.812111 27.117584 -1.361129 0.498907 0.069260 -0.017478 32770.500000 0 0 1
-1.967109 12.290106 24.955121 27.886812 -1.412086 0.462652 0.082357 -0.016893 -12202.500000 0 0 1
-2.380909 12.923606 26.131271 29.249472 -1.388610 0.465955 0.093038 -0.016461 -374303.000000 0 0 1
-1.497809 12.530206 27.405261 30.171142 -1.451825 0.431530 0.109002 -0.025379 398207.000000 0 0 1
-0.191009 13.040006 27.327761 30.280105 -1.556149 0.445260 0.121283 -0.029532 -773107.000000 0 0 1
0.516791 12.656806 28.460421 31.152165 1.529988 0.418760 0.132716 -0.035495 -313859.000000 0 0 1
2.027391 12.546806 28.207751 30.938808 1.410595 0.423327 0.119660 -0.030198 80615.400000 0 0 1
2.736991 13.785306 28.362231 31.653466 1.374801 0.460067 0.127349 -0.027819 -16448.500000 0 0 1
4.116591 13.628506 28.094091 31.495403 1.277453 0.469032 0.147854 -0.031748 434037.000000 0 0 1
4.820091 15.057506 28.200631 32.330130 1.260992 0.510969 0.150625 -0.035301 17749.400000 0 0 1
4.940191 15.563706 29.535971 33.749192 1.263438 0.505028 0.163344 -0.027885 231058.000000 0 0 1
3.882691 16.440706 29.887461 34.331216 1.338882 0.514453 0.134956 -0.023480 126589.000000 0 0 1
4.020591 17.933506 29.426921 34.694660 1.350249 0.558278 0.146076 -0.018601 345586.000000 0 0 1
5.201091 18.524606 29.963001 35.608900 1.297077 0.570841 0.167380 -0.015495 374642.000000 0 0 1
5.467891 19.816806 29.376551 35.855060 1.301573 0.610583 0.150995 -0.009906 151729.000000 0 0 1
6.676991 20.572106 29.972411 36.961320 1.256958 0.625086 0.152233 -0.015389 -122007.000000 0 0 1
6.430591 21.431006 31.114321 38.324163 1.279284 0.623445 0.152968 -0.028128 347903.000000 0 0 1
7.594491 22.151206 31.515628 39.263049 1.240507 0.639023 0.132941 -0.021771 324075.000000 0 0 1
7.977791 23.428606 30.707561 39.439815 1.242596 0.678376 0.134998 -0.009533 -34017.400000 0 0 1
8.160891 23.307606 29.290551 38.311630 1.233998 0.700478 0.097634 -0.008197 278200.000000 0 0 1
8.422491 24.593606 28.748601 38.759074 1.240848 0.735157 0.096284 -0.010152 214211.000000 0 0 1
8.989791 24.661406 27.285511 37.861595 1.221237 0.766036 0.116824 -0.016078 -52852.400000 0 0 1
8.010191 24.323406 26.342721 36.738674 1.252662 0.771265 0.112389 -0.013781 377136.000000 0 0 1
8.587291 24.118606 25.068381 35.831165 1.228747 0.795924 0.129890 -0.028881 -353518.000000 0 0 1
31.300463 2.711406 8.033011 32.428382 0.086409 1.320475 0.218539 -0.008510 246905.000000 0 0 1
30.247363 3.561806 7.581811 31.385877 0.117216 1.326815 0.212343 -0.037566 736830.000000 0 0 1
29.190363 3.759606 8.535411 30.644170 0.128091 1.288530 0.203023 -0.035761 254251.000000 0 0 1
29.528763 4.639906 9.795511 31.455184 0.155857 1.254118 0.171475 -0.043462 -448055.000000 0 0 1
29.485963 6.078306 9.739711 31.642215 0.203295 1.257909 0.181727 -0.041084 236382.000000 0 0 1
30.492363 6.628206 8.902411 32.449503 0.214043 1.292886 0.192022 -0.049179 89865.900000 0 0 1
30.228363 8.145906 8.634611 32.475625 0.263226 1.301680 0.214051 -0.056179 546603.000000 0 0 1
28.990363 8.370906 7.968811 31.209216 0.281102 1.312602 0.178069 -0.046590 350296.000000 0 0 1
29.219263 9.118006 6.804611 31.356117 0.302479 1.352045 0.196047 -0.079652 28991.100000 0 0 1
28.027663 9.121006 5.833311 30.046133 0.314620 1.375410 0.175041 -0.067327 862693.000000 0 0 1
26.726563 9.581606 6.233811 29.068483 0.344231 1.354665 0.181731 -0.062257 524433.000000 0 0 1
25.885363 9.505206 5.113311 28.045443 0.351918 1.387448 0.198184 -0.060620 133929.000000 0 0 1
24.420663 9.952606 5.361211 26.910327 0.386997 1.370229 0.147936 -0.059319 193550.000000 0 0 1
24.325363 11.321206 5.552111 27.399250 0.435593 1.366746 0.146698 -0.050482 400667.000000 0 0 1
23.017163 11.806906 5.835011 26.518676 0.473963 1.348947 0.151959 -0.049404 363179.000000 0 0 1
23.075863 13.355406 5.984811 27.325451 0.524656 1.349987 0.144191 -0.035884 -70661.900000 0 0 1
23.082863 14.146306 4.797411 27.494575 0.549814 1.395413 0.137257 -0.044724 242381.000000 0 0 1
23.229863 15.500506 5.061311 28.381492 0.588418 1.391506 0.179488 -0.036555 -191043.000000 0 0 1
22.737263 16.362506 3.867411 28.278465 0.623782 1.433605 0.145856 -0.047652 538647.000000 0 0 1
21.316263 16.366506 3.725711 27.131651 0.654793 1.433041 0.167939 -0.031167 344016.000000 0 0 1
20.869563 17.282806 2.777611 27.238743 0.691662 1.468646 0.151348 -0.029193 509305.000000 0 0 1
19.335163 17.210506 2.466211 26.002543 0.727326 1.475809 0.153574 -0.029699 457068.000000 0 0 1
18.570363 17.591106 3.588911 25.829937 0.758325 1.431401 0.164142 -0.042066 174417.000000 0 0 1
17.184863 17.486606 3.263311 24.733582 0.794101 1.438472 0.152761 -0.049354 -224649.000000 0 1 0
16.385663 18.561406 3.861011 25.058394 0.847576 1.416100 0.150230 -0.052048 -640479.000000 0 0 1
14.993263 18.324706 3.831811 23.984902 0.885056 1.410350 0.140258 -0.057551 126877.000000 0 1 0
14.279563 19.521806 4.093611 24.530888 0.939262 1.403136 0.110006 -0.053579 -513959.000000 0 1 0
12.806463 19.501606 3.729011 23.626757 0.989734 1.412304 0.092618 -0.039691 -476555.000000 0 1 0
11.981863 18.939806 4.760911 22.911734 1.006730 1.361478 0.072595 -0.041272 281138.000000 0 1 0
10.625063 19.090106 4.340811 22.274800 1.062920 1.374666 0.055574 -0.028946 56922.600000 0 1 0
9.686263 18.622006 5.422911 21.679731 1.091158 1.317974 0.044630 -0.024488 -862645.000000 0 1 0
9.867063 19.383406 6.578811 22.723470 1.099937 1.277075 0.064561 -0.028407 98423.400000 0 1 0
9.193863 18.701206 7.659311 22.201965 1.113876 1.218575 0.064075 -0.027697 124417.000000 0 1 0
8.274563 19.580306 8.542211 22.909084 1.170963 1.188691 0.047129 -0.028125 324009.000000 0 1 0
7.051163 19.861606 7.884111 22.502477 1.229661 1.212834 0.053174 -0.028727 104616.000000 0 1 0
7.069463 21.180206 7.308111 23.494401 1.248647 1.254491 0.061969 -0.021881 -1117930.000000 0 1 0
5.889063 21.467106 6.415811 23.166362 1.303053 1.290183 0.063285 -0.019562 82468.400000 0 1 0
4.538363 21.283606 6.841311 22.812105 1.360710 1.266210 0.079382 -0.031988 771829.000000 0 1 0
4.074663 22.194206 7.830111 23.885064 1.389227 1.236796 0.064950 -0.035054 -612686.000000 0 1 0
3.894963 23.714906 7.401511 25.146567 1.408009 1.272037 0.075797 -0.027575 -234620.000000 0 0 1
2.913863 23.819006 6.381711 24.830664 1.449068 1.310870 0.061236 -0.027331 146398.000000 0 1 0
2.920063 25.021506 5.661611 25.819689 1.454620 1.349725 0.064506 -0.022897 -279218.000000 0 0 1
1.763263 25.138306 4.659311 25.627186 1.500769 1.387968 0.065191 -0.023779 -444142.000000 0 0 1
0.539763 25.472506 5.235911 26.010664 1.549609 1.368113 0.071158 -0.025078 -351166.000000 0 0 1
-0.495137 25.731906 4.293811 26.092392 -1.551557 1.405483 0.084012 -0.028331 402419.000000 0 0 1
-1.708537 26.382506 4.997211 26.905907 -1.506126 1.383982 0.096436 -0.019944 22575.600000 0 0 1
-2.680737 26.922606 4.147511 27.371790 -1.471551 1.418685 0.119140 -0.024999 -217236.000000 0 0 1
-3.703437 27.612706 4.835611 28.276494 -1.437471 1.398940 0.122842 -0.031812 -206076.000000 0 0 1
-4.678237 28.270406 3.872211 28.915320 -1.406801 1.436477 0.117666 -0.038004 -569301.000000 0 0 1
-4.057437 29.112106 2.976911 29.543857 -1.432316 1.469863 0.122117 -0.038665 -341098.000000 0 0 1
-4.939837 29.355806 1.935511 29.831385 -1.404084 1.505869 0.144850 -0.045806 -522718.000000 0 0 1
-4.303937 30.255506 0.863711 30.572299 -1.429491 1.542541 0.135734 -0.042836 -47207.500000 0 0 1
-3.920937 31.599006 1.087811 31.859916 -1.447343 1.536646 0.142683 -0.042748 -782917.000000 0 0 1
-2.842637 31.671406 1.927611 31.857090 -1.481282 1.510251 0.143399 -0.040796 -1387100.000000 0 0 1
-2.078637 32.983506 1.793511 33.097569 -1.507859 1.516581 0.138560 -0.043533 -1024170.000000 0 0 1
-1.426537 33.247006 0.610911 33.283203 -1.527915 1.552440 0.099691 -0.036906 547962.000000 0 0 1
-0.512337 -33.065123 0.659311 33.075664 1.555303 1.550862 0.105949 -0.033413 1892940.000000 0 0 1
0.868663 -33.352023 1.396811 33.392561 -1.544757 1.528954 0.091986 -0.017598 363095.000000 0 0 1
0.709163 -33.297723 2.841111 33.426235 -1.549502 1.485697 0.093051 -0.028116 598105.000000 0 0 1
1.910363 -33.720623 3.506411 33.956220 -1.514204 1.467349 0.074570 -0.020935 588568.000000 0 0 1
1.870063 -33.615323 5.068611 34.046702 -1.515222 1.421369 0.087198 -0.032976 532054.000000 0 0 1
0.861463 33.028506 5.698311 33.527527 1.544720 1.400008 0.123168 -0.045840 365656.000000 0 0 1
0.566863 33.431306 7.048511 34.170968 1.553842 1.363033 0.145851 -0.042611 -125414.000000 0 0 1
1.728663 33.415906 8.074911 34.421145 1.519111 1.333998 0.116736 -0.040184 -79.538400 0 0 1
2.153163 32.126706 8.313411 33.254686 1.503875 1.318124 0.125510 -0.044457 175795.000000 0 0 1
3.153363 32.032706 9.328411 33.512045 1.472671 1.288710 0.148404 -0.048715 85383.300000 0 0 1
3.744363 30.651006 9.582711 32.331606 1.449237 1.269887 0.145220 -0.045383 -45139.500000 0 0 1
2.879363 29.722806 10.236111 31.567608 1.474224 1.240567 0.171807 -0.050263 57136.200000 0 0 1
3.446063 28.453106 10.247411 30.437871 1.450270 1.227422 0.126379 -0.049443 -515841.000000 0 0 1
2.784363 27.426906 11.137311 29.732600 1.469624 1.186850 0.124125 -0.048911 -885120.000000 0 0 1
2.831663 27.637906 12.542811 30.482688 1.468697 1.146726 0.145204 -0.050342 213516.000000 0 0 1
2.249963 26.576506 13.329411 29.816877 1.486338 1.107340 0.155101 -0.033638 1713160.000000 0 0 1
0.660563 26.390706 13.202011 29.516077 1.545771 1.107072 0.107477 -0.030476 1085230.000000 0 0 1
-0.112637 27.396406 13.787011 30.670139 -1.566685 1.104562 0.123041 -0.030515 -134466.000000 0 0 1
-0.400937 28.499306 12.963011 31.311513 -1.556729 1.143951 0.152644 -0.043070 -327228.000000 0 0 1
-0.938037 29.717706 13.744711 32.755748 -1.539242 1.137778 0.146117 -0.038036 -209434.000000 0 0 1
-2.137537 29.439506 14.387111 32.836603 -1.498316 1.117265 0.130461 -0.032989 -704553.000000 0 0 1
-2.716437 30.575206 14.998211 34.163849 -1.482185 1.116302 0.153029 -0.028228 761095.000000 0 0 1
-3.963037 30.210206 15.912411 34.373929 -1.440359 1.089509 0.156432 -0.014780 879385.000000 0 0 1
-5.063037 29.803506 15.137211 33.808556 -1.402522 1.106568 0.129098 -0.024729 -267701.000000 0 0 1
-6.218937 29.583306 15.909911 34.160978 -1.363596 1.086333 0.111047 -0.014421 -479603.000000 0 0 1
-7.342537 28.865506 15.141411 33.412462 -1.321708 1.100482 0.102586 -0.021774 -825896.000000 0 0 1
-8.362537 28.609306 16.045411 33.850844 -1.286417 1.076965 0.108737 -0.021266 -1311010.000000 0 0 1
-9.433337 28.008406 15.412611 33.331775 -1.245926 1.090096 0.091007 -0.016323 -640634.000000 0 0 1
-10.588637 27.728906 16.395911 33.909252 -1.206023 1.066121 0.081297 -0.014879 -34037.400000 0 0 1
-11.261137 28.888206 16.877211 35.301302 -1.199098 1.072317 0.067791 -0.021682 206761.000000 0 0 1
-11.788637 28.772206 18.182211 36.019503 -1.181936 1.041660 0.087113 -0.024151 -69367.100000 0 0 1
-12.714937 29.906906 18.707711 37.497614 -1.168798 1.048463 0.080856 -0.019947 162127.000000 0 0 1
-14.039437 29.806206 18.198311 37.638999 -1.130597 1.066152 0.101635 -0.023097 498868.000000 0 0 1
-14.945237 30.851906 18.501811 38.955323 -1.119691 1.075890 0.092047 -0.015174 522328.000000 0 0 1
-15.777637 30.633006 19.793311 39.737766 -1.095179 1.049392 0.089573 -0.028586 28905.200000 0 0 1
-15.002037 30.791606 20.989311 40.171324 -1.117431 1.021022 0.084242 -0.032196 798617.000000 0 0 1
-15.895037 30.828506 22.114111 41.134935 -1.094750 1.003209 0.075096 -0.025972 259591.000000 0 0 1
-15.160637 30.702706 23.454311 41.504286 -1.112130 0.970235 0.069095 -0.021595 -993339.000000 0 0 1
-14.190437 29.672706 23.493111 40.419850 -1.124714 0.950561 0.078511 -0.031862 449683.000000 0 0 1
-13.558737 29.367106 24.706611 40.702369 -1.138257 0.918508 0.075925 -0.030089 307386.000000 0 0 1
-12.964837 30.577806 25.556611 41.907393 -1.169777 0.914943 0.079915 -0.023851 -56732.200000 0 0 1
-14.047037 31.378206 26.040611 43.128001 -1.149883 0.922539 0.087914 -0.029715 843891.000000 0 0 1
-13.533337 32.528106 26.667811 44.185982 -1.176530 0.922868 0.096579 -0.028033 381440.000000 0 0 1
-14.673337 33.434806 27.303711 45.592606 -1.157241 0.928716 0.119293 -0.035626 951731.000000 0 0 1
-15.560737 32.801606 28.211211 45.977759 -1.127846 0.910205 0.124421 -0.038005 589553.000000 0 0 1
-15.019337 32.777006 29.545811 46.614027 -1.141121 0.884289 0.130483 -0.027788 -226179.000000 0 0 1
-15.974737 32.041406 30.459011 47.006332 -1.108297 0.865871 0.119649 -0.024414 -275449.000000 0 0 1
-17.117337 32.742806 30.898211 48.164240 -1.089090 0.874321 0.119523 -0.025502 -306714.000000 0 0 1
-17.722237 32.083506 31.988811 48.648875 -1.066129 0.853241 0.088736 -0.018524 571270.000000 0 0 1
-19.242737 32.437106 32.025111 49.477838 -1.035368 0.866810 0.100091 -0.017522 438290.000000 0 0 1
-19.495937 -33.700523 32.430411 50.670982 1.046332 0.876273 0.124017 -0.021589 -473505.000000 0 0 1
-20.855737 -33.497123 32.710011 51.253916 1.013916 0.878644 0.121224 -0.025684 -163973.000000 0 0 1
-21.299137 -32.030923 33.027011 50.699278 0.983979 0.861329 0.125132 -0.016833 -39644.900000 0 0 1
-20.914337 -31.486223 -33.045989 50.207859 0.984477 2.289200 0.124079 -0.016594 149772.000000 0 0 1
-21.767337 -31.905323 -31.979789 50.144526 0.972084 2.262373 0.114684 -0.015813 245357.000000 0 0 1
-21.631437 -31.114023 -30.635789 48.729386 0.963278 2.250667 0.116348 -0.020574 3377.740000 0 0 1
-21.953437 -29.778223 -30.681789 48.063168 0.935517 2.263167 0.122628 -0.013805 44182.200000 0 0 1
-21.042837 -28.952723 -29.960189 46.676269 0.942309 2.267733 0.111705 -0.015042 280715.000000 0 0 1
-21.415837 -27.464523 -30.015189 45.976621 0.908517 2.282119 0.116424 -0.021601 -696225.000000 0 0 1
-22.518537 -27.149623 -29.262489 45.830992 0.878370 2.263327 0.114482 -0.015553 -910458.000000 0 0 1
-22.720837 -25.769723 -29.166489 45.066608 0.848191 2.274684 0.109917 -0.011448 100608.000000 0 0 1
-23.937737 -25.601523 -28.231589 45.005287 0.818971 2.248871 0.111653 -0.013214 -48541.800000 0 0 1
-23.637937 -25.869423 -26.873289 44.160534 0.830441 2.225011 0.105086 -0.020204 130587.000000 0 0 1
-23.033537 -24.752423 -26.234689 42.795855 0.821353 2.230673 0.103039 -0.038092 40887.500000 0 0 1
-22.975637 -24.796523 -24.721989 41.879878 0.823496 2.202236 0.100692 -0.026489 514524.000000 0 0 1
-24.284137 -24.620923 -24.178989 42.196359 0.792285 2.180972 0.099331 -0.036232 537198.000000 0 0 1
-24.338937 -25.318423 -22.891289 41.921564 0.805120 2.148439 0.092353 -0.026419 -574305.000000 0 0 1
-25.658337 -25.171623 -22.105889 42.197526 0.775823 2.122181 0.095485 -0.029487 1014980.000000 0 0 1
-26.841737 -25.879223 -22.568189 43.583669 0.767143 2.115089 0.092617 -0.022143 800870.000000 0 0 1
-26.694537 -27.309223 -22.723489 44.438147 0.796780 2.107552 0.085163 -0.009375 -498702.000000 0 0 1
-28.046537 -28.109723 -22.827489 45.802391 0.786523 2.092538 0.052925 -0.003073 605941.000000 0 0 1
-28.835137 -27.948723 -21.689989 45.640463 0.769789 2.066029 0.055430 0.003595 -286934.000000 0 0 1
-30.056537 -27.309323 -22.021889 46.196950 0.737545 2.067688 0.058084 0.002079 -9814.340000 0 0 1
-30.577437 -26.453423 -20.885289 45.507786 0.713212 2.047597 0.058235 0.003409 -82286.100000 0 0 1
-30.911137 -27.154023 -19.737189 45.633277 0.720783 2.018079 0.076960 0.014448 458563.000000 0 0 1
-31.657537 -26.243123 -18.860289 45.239493 0.692157 2.000827 0.077381 0.016223 -95948.900000 0 0 1
-32.657637 -26.910123 -17.909389 45.950215 0.689209 1.971163 0.064465 0.007781 -97756.500000 0 0 1
-33.750637 -27.570223 -18.580489 47.375704 0.684949 1.973812 0.064373 0.019921 1302370.000000 0 0 1
-34.904037 -26.721223 -18.785989 47.804069 0.653387 1.974665 0.059477 0.017225 482605.000000 0 0 1
-35.832337 -26.546423 -17.573389 47.932171 0.637620 1.946181 0.067017 0.015530 -584362.000000 0 0 1
-35.541137 -25.353723 -16.865089 46.801869 0.619638 1.939440 0.065488 0.021416 175397.000000 0 0 1
-36.517137 -25.141323 -15.876589 47.091969 0.602953 1.914674 0.061126 0.011975 -111206.000000 0 0 1
-36.067437 -25.606223 -14.466589 46.538381 0.617375 1.886887 0.116459 0.016533 -3537.990000 0 0 1
-36.122337 -26.971923 -14.254689 47.281117 0.641375 1.877049 0.095161 0.016484 43343.800000 0 0 1
-35.884237 -27.285523 -12.923789 46.895656 0.650109 1.849996 0.105936 0.012101 -88316.200000 0 0 1
-36.373837 -28.726323 -12.535489 48.014541 0.668461 1.834934 0.122820 -0.004694 -26134.700000 0 0 1
-35.769137 -29.769623 -13.244889 48.384799 0.694111 1.848076 0.105677 -0.002069 116498.000000 0 0 1
-36.117137 -31.039923 -12.735889 49.296321 0.709940 1.832114 0.094048 -0.014882 -120616.000000 0 0 1
-35.503637 -32.123923 -13.666289 49.791788 0.735464 1.848833 0.090469 -0.014077 -749349.000000 0 0 1
-34.202937 -32.520623 -13.397089 49.060308 0.760190 1.847383 0.055779 -0.010482 -828533.000000 0 0 1
-33.869437 -33.228623 -14.544189 49.626743 0.775848 1.868234 0.076049 -0.020864 -839200.000000 0 0 1
-32.429837 -33.694923 -14.579189 48.985661 0.804528 1.872997 0.096212 -0.017741 -612809.000000 0 0 1
-32.085837 32.972606 -15.746189 48.627524 -0.799028 1.900552 0.091835 -0.017336 -1438400.000000 0 0 1
-30.745637 32.685906 -15.802089 47.574874 -0.815977 1.909380 0.083007 -0.017181 -1553720.000000 0 0 1
10.300391 19.566806 -9.533789 24.080097 1.086235 1.977866 0.113675 -0.032798 955925.000000 0 1 0
8.858491 19.472606 -9.493489 23.404734 1.143858 1.988456 0.096167 -0.033226 1022350.000000 0 1 0
8.090591 19.610706 -10.638289 23.732059 1.179510 2.035622 0.101624 -0.032518 -25707.500000 0 1 0
8.132591 18.471406 -11.644789 23.300922 1.156055 2.094114 0.101060 -0.019027 -425048.000000 0 1 0
9.414091 18.119606 -12.106289 23.738312 1.091629 2.105969 0.141397 -0.036279 -123261.000000 0 1 0
9.207191 17.023106 -12.903489 23.260665 1.074994 2.158840 0.136740 -0.039910 -48159.600000 0 1 0
10.419591 16.510606 -13.700089 23.850795 1.007833 2.182677 0.161694 -0.045263 -189954.000000 0 1 0
10.281091 15.196806 -14.158789 23.175742 0.975996 2.228033 0.162673 -0.062711 293305.000000 0 1 0
11.469191 14.755106 -14.806389 23.842916 0.910049 2.240811 0.189457 -0.071896 -360181.000000 0 1 0
11.499091 13.216006 -15.133589 23.149890 0.854755 2.283289 0.174057 -0.081693 -911946.000000 0 1 0
11.806491 12.389206 -13.996389 22.108472 0.809477 2.256319 0.188505 -0.081873 682353.000000 0 1 0
13.160991 12.319006 -13.583389 22.571620 0.752365 2.216538 0.226722 -0.080063 39827.300000 0 1 0
14.172891 11.567106 -14.488989 23.336657 0.684507 2.240646 0.229497 -0.082682 -298371.000000 0 1 0
14.556591 12.299206 -15.603689 24.630061 0.701539 2.256893 0.183235 -0.074400 557884.000000 0 1 0
15.528691 11.515906 -16.350389 25.319786 0.638096 2.272809 0.181119 -0.081706 488519.000000 0 0 1
16.029591 12.246006 -17.617089 26.781976 0.652377 2.288686 0.127277 -0.066878 -555750.000000 0 0 1
17.113091 13.054606 -17.304689 27.617619 0.651670 2.247955 0.116334 -0.052468 -613410.000000 0 0 1
17.706591 13.626006 -18.423889 28.959128 0.655893 2.260363 0.076008 -0.036943 107217.000000 0 0 1
18.978691 14.483306 -18.184489 30.010540 0.651855 2.221739 0.080867 -0.020769 -130380.000000 0 0 1
18.746291 15.742106 -17.499889 30.091252 0.698510 2.191442 0.100859 -0.032639 375633.000000 0 0 1
17.954991 16.708006 -18.186289 30.533265 0.749439 2.208836 0.089945 -0.023633 -51742.400000 0 0 1
17.746491 18.049906 -17.513089 30.780600 0.793874 2.176043 0.111767 -0.020769 -519341.000000 0 0 1
18.886591 18.811806 -17.657389 31.974533 0.783414 2.155837 0.119337 -0.020333 -439557.000000 0 0 1
18.605491 20.045006 -17.079789 32.244158 0.822625 2.129045 0.088288 -0.012945 -215534.000000 0 0 1
19.678891 21.152506 -17.240189 33.643890 0.821473 2.108810 0.109823 -0.016980 203618.000000 0 0 1
21.008591 20.860906 -16.843289 34.062217 0.781871 2.088040 0.132160 -0.021429 78276.500000 0 0 1
21.276291 20.789706 -15.413989 33.503484 0.773831 2.048872 0.126728 -0.021528 -190202.000000 0 0 1
22.071291 22.007206 -14.795689 34.501759 0.783944 2.014003 0.132164 -0.025044 1013820.000000 0 0 1
23.485991 21.778506 -14.873089 35.314358 0.747694 2.005523 0.139066 -0.037586 333720.000000 0 0 1
24.172891 22.686106 -14.037589 36.000583 0.753680 1.971348 0.122420 -0.040751 507836.000000 0 0 1
25.714191 22.447806 -13.970789 36.882334 0.717681 1.959289 0.103924 -0.028131 576625.000000 0 0 1
26.254491 22.705906 -15.264089 37.918978 0.713046 1.985092 0.111819 -0.019435 -116205.000000 0 0 1
27.620591 23.042906 -15.159689 39.034455 0.695288 1.969655 0.102006 -0.006624 -140573.000000 0 0 1
28.282791 23.602006 -16.400489 40.323033 0.695427 1.989665 0.115849 -0.011137 -368204.000000 0 0 1
28.741891 22.606306 -17.242289 40.428182 0.666472 2.011407 0.119957 -0.020942 -107775.000000 0 0 1
28.564191 22.994906 -18.553489 41.096358 0.677798 2.039201 0.122835 -0.025715 -488182.000000 0 0 1
29.235891 21.980006 -19.509589 41.454578 0.644662 2.060796 0.110373 -0.027826 -749395.000000 0 0 1
30.613291 21.973106 -19.487989 42.423728 0.622549 2.048077 0.093138 -0.016850 -1298880.000000 0 0 1
31.162591 21.150506 -20.493089 42.876773 0.596297 2.069119 0.120355 -0.025260 905635.000000 0 0 1
32.725191 21.261806 -20.573589 44.116608 0.576170 2.055952 0.136123 -0.034219 641426.000000 0 0 1
32.992391 22.463206 -21.309989 45.246095 0.597765 2.061197 0.113892 -0.021252 243175.000000 0 0 1
34.337591 22.936806 -21.231589 46.432183 0.588911 2.045708 0.118099 -0.024692 568328.000000 0 0 1
34.534391 24.391006 -21.711389 47.528199 0.614929 2.045203 0.133965 -0.024025 -129309.000000 0 0 1
34.589691 24.732506 -23.061589 48.373344 0.620739 2.067741 0.114337 -0.020190 226373.000000 0 0 1
33.449791 24.403306 -23.857389 47.786869 0.630284 2.093524 0.111659 -0.025515 7583.540000 0 0 1
33.380991 24.927306 -25.313449 48.748660 0.641419 2.116786 0.129677 -0.031981 -351306.000000 0 0 1
33.301591 26.341306 -25.410679 49.482956 0.669224 2.110083 0.143713 -0.037504 240517.000000 0 0 1
31.997891 26.887406 -25.617379 49.020891 0.698828 2.120672 0.136680 -0.031687 645591.000000 0 0 1
31.369091 26.679806 -27.057229 49.273984 0.704792 2.152105 0.154016 -0.034592 -97043.600000 0 0 1
31.093491 25.335506 -27.373759 48.559404 0.683711 2.169675 0.142649 -0.039175 -70275.200000 0 0 1
30.501891 25.262506 -28.659849 48.887079 0.691717 2.197213 0.135620 -0.041058 -46017.100000 0 0 1
29.765791 23.894006 -28.886549 47.868137 0.676406 2.218631 0.130652 -0.048527 -445481.000000 0 0 1
28.493491 23.945106 -28.347879 46.785140 0.698877 2.221713 0.111871 -0.036501 -451623.000000 0 0 1
27.675391 22.810606 -28.576949 45.857311 0.689336 2.243587 0.098791 -0.039853 470490.000000 0 0 1
26.267591 22.792106 -27.930869 44.604931 0.714674 2.247445 0.074242 -0.027592 265663.000000 0 0 1
26.389791 22.640206 -26.545239 43.745282 0.709071 2.222842 0.073397 -0.018934 496606.000000 0 0 1
25.084091 22.527806 -26.020219 42.588325 0.731760 2.228083 0.056292 -0.022137 41917.100000 0 0 1
25.139391 22.458306 -24.449789 41.643206 0.729130 2.198300 0.074645 -0.020008 107365.000000 0 0 1
25.672191 21.204606 -23.996289 41.042887 0.690380 2.195262 0.074153 -0.013754 291896.000000 0 0 1
25.996291 21.217906 -22.646989 40.483241 0.684535 2.164478 0.095052 -0.022560 -75084.500000 0 0 1
26.665591 19.912206 -22.101189 39.950122 0.641410 2.157020 0.108281 -0.013927 -485031.000000 0 0 1
27.811391 19.677006 -22.858189 41.026270 0.615753 2.161758 0.098324 -0.017180 -429389.000000 0 0 1
28.539291 18.624306 -22.206289 40.675240 0.578190 2.148308 0.140435 -0.032227 231311.000000 0 0 1
29.949491 18.404606 -22.793589 41.895694 0.551029 2.146060 0.171153 -0.049827 70751.300000 0 0 1
30.782291 17.487206 -22.100789 41.734838 0.516628 2.128869 0.181543 -0.050362 703799.000000 0 0 1
32.009391 17.311806 -22.848289 42.969106 0.495780 2.131447 0.165970 -0.043834 1244580.000000 0 0 1
33.277391 17.122406 -21.955189 43.388845 0.475208 2.101349 0.155521 -0.039467 301107.000000 0 0 1
33.798891 18.350006 -21.424689 44.023914 0.497389 2.079059 0.137649 -0.037113 -521502.000000 0 0 1
35.148591 18.106806 -21.160589 44.844736 0.475694 2.062199 0.126607 -0.033383 -378628.000000 0 0 1
35.860691 19.243106 -20.454589 45.548617 0.492503 2.036522 0.092793 -0.035996 -51740.400000 0 0 1
35.398991 19.284306 -19.113189 44.612633 0.498819 2.013546 0.114339 -0.034076 -31700.400000 0 0 1
36.048591 20.276306 -18.382989 45.261062 0.512368 1.989038 0.096381 -0.020964 -291358.000000 0 0 1
35.553191 20.494206 -16.945089 44.397949 0.522914 1.962392 0.090442 -0.025566 -248973.000000 0 0 1
35.582391 19.307306 -16.184989 43.598537 0.497151 1.951127 0.090190 -0.036583 155200.000000 0 0 1
35.162991 19.428606 -14.846289 42.828950 0.504784 1.924784 0.077468 -0.031086 -473271.000000 0 0 1
35.447691 18.088706 -14.106889 42.222558 0.471848 1.911455 0.065710 -0.019508 -592983.000000 0 0 1
36.822191 17.835606 -13.930189 43.220744 0.451067 1.898958 0.055916 -0.020809 -157564.000000 0 0 1
36.968691 16.727006 -13.094389 42.637306 0.424901 1.882952 0.055103 -0.005767 -103825.000000 0 0 1
36.948191 17.021206 -11.594589 42.300411 0.431698 1.848451 0.064095 -0.013921 113920.000000 0 0 1
37.932891 17.980806 -11.138989 43.431448 0.442645 1.830168 0.056464 -0.013363 623147.000000 0 0 1
37.735491 18.389206 -9.820789 43.111229 0.453451 1.800615 0.069699 -0.015136 -109878.000000 0 0 1
36.814491 19.677506 -9.781089 42.874009 0.490869 1.800959 0.076728 -0.016495 1302670.000000 0 0 1
35.443991 19.328706 -10.032889 41.599690 0.499251 1.814375 0.089422 -0.028513 353191.000000 0 0 1
34.508991 20.370206 -10.154789 41.339273 0.533247 1.818981 0.066739 -0.011860 632978.000000 0 0 1
33.088091 19.780906 -10.433289 39.936944 0.538819 1.835107 0.049339 -0.017231 209385.000000 0 0 1
32.941391 19.340906 -11.743389 39.963897 0.530903 1.869048 0.072546 -0.019824 519215.000000 0 0 1
31.662591 18.766106 -12.058189 38.730948 0.535027 1.887391 0.068217 -0.021239 790053.000000 0 0 1
31.704491 18.010806 -13.400089 38.847474 0.516621 1.922972 0.104643 -0.028382 -433052.000000 0 0 1
32.512991 16.886306 -13.389089 39.006533 0.479024 1.921174 0.086036 -0.022212 -459677.000000 0 0 1
32.101391 15.900306 -14.276289 38.563343 0.459893 1.950025 0.065026 -0.026221 -744778.000000 0 0 1
33.238091 15.104806 -14.841889 39.410754 0.426542 1.956914 0.081983 -0.040688 -513686.000000 0 0 1
34.018891 14.325206 -13.960189 39.463696 0.398559 1.932371 0.062105 -0.031011 40707.500000 0 0 1
35.101991 13.699606 -14.609889 40.413832 0.372099 1.940680 0.073614 -0.033258 -15644.300000 0 0 1
35.843891 12.796306 -13.570789 40.406636 0.342898 1.913310 0.056401 -0.043881 -380539.000000 0 0 1
36.728191 13.472906 -12.704589 41.132539 0.351586 1.884801 0.063267 -0.018613 99770.200000 0 0 1
37.285591 12.535706 -11.782289 41.063141 0.324335 1.861818 0.059407 -0.021073 778813.000000 0 0 1
-37.838181 13.142006 -10.854489 41.500122 -0.334286 1.835427 0.087525 -0.016896 460704.000000 0 0 1
-36.618681 13.288206 -11.507989 40.619429 -0.348103 1.858043 0.077861 -0.013123 -324391.000000 0 0 1
-35.572681 13.713606 -10.637789 39.580818 -0.367952 1.842903 0.084284 -0.027708 -789904.000000 0 0 1
-34.217481 13.956806 -11.302689 38.644265 -0.387285 1.867616 0.127944 -0.027338 -126612.000000 0 0 1
-33.416281 12.859506 -11.714589 37.672885 -0.367359 1.886994 0.148203 -0.049262 251740.000000 0 0 1
-33.091481 11.965006 -10.622689 36.756618 -0.346948 1.863979 0.186686 -0.042368 -1071440.000000 0 0 1
-32.057281 10.903506 -10.996889 35.601787 -0.327851 1.884818 0.216257 -0.049919 -86261.100000 0 0 1
-32.507581 10.304306 -12.163189 36.205865 -0.306963 1.913405 0.189876 -0.041952 665400.000000 0 0 1
-31.694481 9.120106 -12.401089 35.234975 -0.280181 1.930454 0.223680 -0.049630 294068.000000 0 0 1
-31.806181 8.519506 -13.857189 35.724457 -0.261713 1.969138 0.214679 -0.052557 -644169.000000 0 0 1
-33.060481 7.967406 -14.053789 36.796521 -0.236485 1.962683 0.173420 -0.047063 -459371.000000 0 0 1
-33.002181 7.298606 -15.277589 37.092025 -0.217652 1.995316 0.183393 -0.053340 -73900.200000 0 0 1
-34.408781 7.171106 -15.902589 38.578249 -0.205468 1.995682 0.185703 -0.052842 -107251.000000 0 0 1
-35.239281 6.336106 -15.140689 38.874074 -0.177901 1.970864 0.194297 -0.048365 -529995.000000 0 0 1
-36.169181 5.616806 -15.855489 39.889280 -0.154062 1.979573 0.138053 -0.045423 -436029.000000 0 0 1
-37.210681 4.995106 -14.892289 40.390173 -0.133441 1.948418 0.122459 -0.038593 -220608.000000 0 0 1
37.961791 4.314006 -15.460889 41.215862 0.113155 1.955322 0.134170 -0.032715 60079.200000 0 0 1
37.167891 3.889306 -14.340989 40.028025 0.104262 1.937215 0.141097 -0.034351 642269.000000 0 0 1
36.105791 2.798706 -14.678989 39.075998 0.077359 1.955897 0.157306 -0.032945 196905.000000 0 0 1
36.787491 1.588806 -14.950389 39.741136 0.043162 1.956482 0.162282 -0.035330 188301.000000 0 0 1
36.014591 0.389706 -15.021289 39.023605 0.010820 1.965926 0.154299 -0.030700 -91625.000000 0 0 1
35.515791 -0.168994 -13.672689 38.057094 -0.004758 1.938280 0.164662 -0.034337 235682.000000 0 0 1
36.542791 -0.657294 -12.790989 38.722306 -0.017985 1.907445 0.171422 -0.029891 417907.000000 0 0 1
36.260591 -0.619494 -11.431489 38.024902 -0.017083 1.876151 0.169907 -0.026302 -302674.000000 0 0 1
36.487991 0.753006 -10.753289 38.046994 0.020634 1.857333 0.148336 -0.026759 -102109.000000 0 0 1
35.429291 1.664106 -10.971489 37.126506 0.046935 1.870792 0.152114 -0.023435 407117.000000 0 0 1
35.732891 2.984606 -10.497189 37.362258 0.083332 1.855587 0.149424 -0.026876 -176432.000000 0 0 1
34.599891 3.969706 -10.827289 36.471101 0.114232 1.872213 0.139040 -0.031025 -46927.800000 0 0 1
34.492791 4.299906 -12.193089 36.836303 0.124021 1.908167 0.133701 -0.026056 -210760.000000 0 0 1
33.334491 5.040106 -12.357889 35.906940 0.150061 1.922145 0.127197 -0.032893 -772266.000000 0 0 1
33.321991 5.833906 -13.735589 36.511039 0.173320 1.956492 0.090324 -0.024627 -126553.000000 0 0 1
32.829491 5.098506 -14.870889 36.399362 0.154072 1.991659 0.098807 -0.020290 459336.000000 0 0 1
33.277991 5.642806 -16.155789 37.420255 0.167968 2.017216 0.090826 -0.016261 -551758.000000 0 0 1
32.262991 6.658806 -16.757689 36.960255 0.203534 2.041370 0.108021 -0.009818 572251.000000 0 0 1
31.120891 6.100106 -17.384289 36.165379 0.193559 2.072236 0.103177 -0.012565 403340.000000 0 0 1
30.155591 5.440406 -16.583889 34.842260 0.178491 2.066864 0.101639 -0.006622 -414263.000000 0 0 1
28.780591 5.393306 -17.329889 34.025508 0.185245 2.105191 0.080758 -0.003247 117418.000000 0 0 1
28.733391 4.666506 -18.548989 34.517373 0.161001 2.138125 0.087127 -0.002735 589360.000000 0 0 1
27.516891 4.904406 -19.267689 33.948142 0.176380 2.174338 0.063625 0.000391 278510.000000 0 0 1
26.910991 3.671306 -19.898689 33.669537 0.135587 2.203094 0.071858 0.003825 -392084.000000 0 0 1
26.221491 2.925706 -18.926689 32.470693 0.111117 2.193071 0.073944 -0.008732 127306.000000 0 0 1
25.704991 1.744806 -19.558689 32.347074 0.067774 2.220124 0.081995 -0.010001 -163413.000000 0 0 1
24.548391 1.103306 -18.779889 30.927739 0.044914 2.223351 0.087353 -0.013934 1369340.000000 0 0 1
23.306091 1.891806 -18.739789 29.965522 0.080995 2.246413 0.085355 -0.028108 1219690.000000 0 0 1
22.240891 1.082306 -18.325689 28.838507 0.048625 2.259399 0.107181 -0.039418 -398706.000000 0 0 1
20.911491 1.798006 -18.091689 27.709790 0.085771 2.282202 0.130203 -0.053963 -1075790.000000 0 0 1
20.323391 2.243706 -19.317789 28.129191 0.109955 2.327808 0.120701 -0.043005 -384681.000000 0 0 1
19.139891 2.935506 -19.169789 27.247632 0.152185 2.351162 0.105993 -0.040221 -293916.000000 0 0 1
17.832791 2.295706 -18.651289 25.906549 0.128031 2.374519 0.147659 -0.051411 -830476.000000 0 0 1
17.933091 2.065506 -17.253089 24.970606 0.114673 2.333579 0.159348 -0.060375 45691.600000 0 1 0
16.734391 2.025206 -16.486989 23.578849 0.120435 2.345113 0.136301 -0.046215 565454.000000 0 1 0
15.927791 3.364806 -16.290789 23.030550 0.208193 2.356546 0.154100 -0.042685 -51751.800000 0 1 0
15.331991 3.743206 -17.482089 23.552175 0.239459 2.407249 0.145458 -0.030617 -560643.000000 0 1 0
14.265191 4.587606 -17.245589 22.846272 0.311149 2.426227 0.148763 -0.043167 -583324.000000 0 1 0
-21.358309 -21.808594 -17.540889 35.206178 0.795829 2.092356 0.141863 -0.030893 -381521.000000 0 0 1
-20.895009 -22.468394 -18.660289 35.911510 0.821666 2.117201 0.129649 -0.038757 348814.000000 0 0 1
-21.640109 -22.053594 -19.798189 36.696371 0.794861 2.140656 0.140151 -0.037722 91825.800000 0 0 1
-21.384709 -23.040294 -20.977589 37.791800 0.822648 2.159259 0.107756 -0.031768 131274.000000 0 0 1
-21.687209 -24.368594 -20.593089 38.577697 0.843553 2.133894 0.092233 -0.033217 70398.700000 0 0 1
-20.825109 -25.250544 -21.247489 39.022185 0.881152 2.146586 0.083811 -0.041701 -240341.000000 0 0 1
-20.932309 -26.702524 -20.728189 39.759831 0.905945 2.119211 0.084180 -0.008151 160456.000000 0 0 1
-22.150309 -27.334494 -21.098989 41.024116 0.889781 2.110996 0.090447 0.000468 234682.000000 0 0 1
-21.982209 -28.721104 -21.325389 41.986802 0.917532 2.103550 0.122038 -0.023328 602677.000000 0 0 1
-23.375809 -29.371854 -21.661289 43.339886 0.898586 2.094165 0.107195 -0.019698 827478.000000 0 0 1
-23.951609 -28.937804 -22.880889 43.984215 0.879396 2.117889 0.077431 -0.018048 238452.000000 0 0 1
-23.306409 -29.451264 -24.075389 44.611546 0.901349 2.140838 0.078364 -0.023032 -150448.000000 0 0 1
-23.871309 -28.783974 -25.278609 45.137176 0.878427 2.165230 0.063702 -0.011535 -204275.000000 0 0 1
-25.097729 -29.270014 -25.772739 46.377406 0.861990 2.160022 0.070756 -0.007008 133705.000000 0 0 1
-25.541699 -28.566994 -26.916989 46.829220 0.841251 2.183144 0.075340 -0.001705 -142044.000000 0 0 1
-24.989779 -29.088404 -28.271699 47.643607 0.861044 2.206072 0.081696 -0.017645 -215066.000000 0 0 1
-25.604409 -30.272064 -28.716129 48.955078 0.868740 2.197627 0.075236 -0.003731 23334.700000 0 0 1
-25.479069 -30.385144 -30.119739 49.795970 0.872995 2.220390 0.125201 -0.002988 127696.000000 0 0 1
-26.045769 -31.754064 -30.648529 51.244854 0.883839 2.211900 0.100457 -0.019792 -216414.000000 0 0 1
-25.261949 -32.866864 -30.350559 51.376583 0.915488 2.202781 0.102809 -0.031032 -228679.000000 0 0 1
-25.898559 33.347460 -30.671609 52.187508 -0.910470 2.199033 0.096819 -0.027770 290436.000000 0 0 1
-24.939249 32.129341 -30.707569 50.962883 -0.910728 2.217486 0.109220 -0.028650 362645.000000 0 0 1
-23.985209 32.095374 -31.756699 51.126228 -0.929019 2.240997 0.120983 -0.048616 -103340.000000 0 0 1
-22.996909 31.130575 -31.454269 49.873255 -0.934551 2.253231 0.122051 -0.042753 622281.000000 0 0 1
-21.773409 31.261065 -32.463589 50.052174 -0.962422 2.276533 0.130997 -0.034395 531866.000000 0 0 1
-22.110409 30.904675 33.524281 50.673923 -0.949784 0.847888 0.125902 -0.029578 105351.000000 0 0 1
-21.965109 29.574615 33.214581 49.601736 -0.931983 0.837092 0.108078 -0.020667 -42927.800000 0 0 1
-22.194709 29.278945 31.722004 48.540161 -0.922167 0.858570 0.091843 -0.019654 -344381.000000 0 0 1
-21.246209 29.960955 30.976461 48.047907 -0.953969 0.870166 0.092266 -0.014253 62869.900000 0 0 1
-21.649209 30.034975 29.624751 47.417442 -0.946247 0.895966 0.093894 -0.019389 -83031.900000 0 0 1
-21.214909 31.301125 28.898811 47.591743 -0.975147 0.918235 0.092038 -0.035049 -99523.300000 0 0 1
-22.056209 32.376167 29.253311 48.892216 -0.972767 0.929390 0.083377 -0.026562 218081.000000 0 0 1
-21.805109 33.511825 28.472971 49.083757 -0.993951 0.951958 0.092570 -0.041783 556646.000000 0 0 1
-22.981309 -32.909074 28.684331 49.334963 0.961194 0.950323 0.115284 -0.051221 582693.000000 0 0 1
-22.959009 -32.190694 29.900341 49.572041 0.951254 0.923327 0.099808 -0.041157 -188141.000000 0 0 1
-24.131609 -31.443924 30.115991 49.779793 0.916221 0.921050 0.102711 -0.041419 -131645.000000 0 0 1
-24.091209 -30.064414 29.405851 48.466065 0.895251 0.918855 0.105412 -0.032806 -831158.000000 0 0 1
-24.114209 -30.185924 28.009651 47.720286 0.896753 0.943504 0.061586 -0.025600 -226164.000000 0 0 1
-24.114509 -28.928714 27.367131 46.554698 0.875910 0.942399 0.057016 -0.035911 -793149.000000 0 0 1
-25.462489 -28.295734 27.056821 46.701804 0.838053 0.952862 0.064778 -0.025431 -871690.000000 0 0 1
-26.465999 -28.325084 28.092391 47.874230 0.819316 0.943700 0.088939 -0.021272 856954.000000 0 0 1
-27.251469 -29.537894 28.187321 49.088235 0.825638 0.959148 0.081291 -0.031669 -408655.000000 0 0 1
-28.258479 -29.688704 27.006871 49.084946 0.810075 0.988184 0.063185 -0.006722 -448868.000000 0 0 1
-27.592659 -29.959504 25.746221 48.185004 0.826500 1.007093 0.066008 -0.009187 -352926.000000 0 0 1
-28.515679 -29.981244 24.743761 48.210711 0.810447 1.031838 0.064632 -0.004643 -624162.000000 0 0 1
-27.861379 -30.012584 23.326061 47.128726 0.822552 1.053026 0.065418 -0.010374 -143687.000000 0 0 1
-27.248969 -28.740594 23.006511 45.802048 0.812033 1.044536 0.046410 -0.016018 395381.000000 0 0 1
-26.599669 -28.660754 21.766011 44.751988 0.822679 1.062866 0.082114 -0.021225 396052.000000 0 0 1
-25.293029 -29.467784 21.476911 44.377307 0.861487 1.065620 0.073226 -0.023283 -225937.000000 0 0 1
-25.458259 -30.807474 21.249811 45.263428 0.880184 1.082106 0.090719 -0.031360 675993.000000 0 0 1
-24.254109 -31.482994 20.871511 44.889428 0.914374 1.087214 0.080701 -0.013017 542982.000000 0 0 1
-23.303609 -32.041534 21.941511 45.289602 0.941986 1.065038 0.074683 -0.023734 -207908.000000 0 0 1
-22.638209 -31.146374 22.778291 44.737408 0.942288 1.036593 0.077900 -0.037469 -518581.000000 0 0 1
-21.736709 -31.878704 23.501431 45.178021 0.972351 1.023716 0.097412 -0.043947 -976288.000000 0 0 1
-21.188209 -31.152794 24.734901 45.069414 0.973525 0.989847 0.087291 -0.038598 -1131530.000000 0 0 1
-20.099709 -30.338494 24.419371 43.826113 0.985673 0.979801 0.100088 -0.041142 -323652.000000 0 0 1
-19.582709 -29.679364 25.540271 43.779591 0.987556 0.947909 0.107418 -0.037078 -2479.420000 0 0 1
-18.566009 -30.511824 26.379831 44.402293 1.024161 0.934638 0.103342 -0.048771 -494362.000000 0 0 1
-19.188709 -31.619044 27.020691 45.804893 1.025339 0.939851 0.126005 -0.052683 -258731.000000 0 0 1
-18.394909 -32.197404 27.983071 46.455331 1.051735 0.924336 0.148477 -0.043295 -455879.000000 0 0 1
-18.661209 -31.641184 29.396331 47.048374 1.037928 0.895907 0.156042 -0.039979 181741.000000 0 0 1
-18.155309 -30.334754 29.576461 46.093162 1.031482 0.874127 0.150245 -0.033078 403536.000000 0 0 1
-18.838409 -29.731444 30.671491 46.686024 1.006023 0.853999 0.145088 -0.032061 202146.000000 0 0 1
-18.405609 -28.212734 30.909801 45.718056 0.992745 0.828345 0.148168 -0.029459 220851.000000 0 0 1
-19.181309 -27.148894 30.312621 44.987110 0.955706 0.831448 0.126813 -0.030442 145918.000000 0 0 1
-19.268409 -27.015004 28.899971 44.003299 0.951234 0.854271 0.116110 -0.032956 97856.600000 0 0 1
-17.940909 -26.976184 28.064061 42.862364 0.983904 0.856947 0.106430 -0.028189 266244.000000 0 0 1
-17.399809 -25.685634 28.199671 41.925250 0.975390 0.833056 0.090594 -0.019591 189796.000000 0 0 1
-16.437309 -25.397224 27.175641 40.665951 0.996386 0.838922 0.083364 -0.021215 28525.000000 0 0 1
-16.508109 -23.988694 26.574531 39.423100 0.968060 0.831071 0.056165 -0.017284 -217707.000000 0 0 1
-17.629109 -23.817194 25.725371 39.240782 0.933607 0.855849 0.069165 -0.024054 -193.565000 0 0 1
-17.591709 -22.696394 24.890421 38.001679 0.911431 0.856637 0.070260 -0.028327 -87572.500000 0 0 1
-17.815409 -21.248394 25.512301 37.679710 0.873054 0.827004 0.070690 -0.017537 -690845.000000 0 0 1
-17.831809 -20.321894 24.457461 36.457101 0.850570 0.835434 0.076104 -0.019740 34032.400000 0 0 1
-17.932409 -18.989794 25.000741 36.155506 0.814029 0.807263 0.082881 -0.013453 -273890.000000 0 0 1
-17.564709 -17.928494 23.970741 34.706575 0.795647 0.808383 0.077874 -0.029112 372243.000000 0 0 1
-16.161309 -17.776594 23.800931 33.818331 0.832958 0.790081 0.075312 -0.031724 215873.000000 0 0 1
-15.909609 -16.608494 23.029821 32.547356 0.806887 0.784730 0.088516 -0.030615 1110440.000000 0 0 1
-14.412809 -16.133894 23.207321 31.727139 0.841681 0.750327 0.103825 -0.043241 1184150.000000 0 0 1
-13.413809 -17.033994 22.748331 31.425687 0.903741 0.761391 0.088394 -0.039467 1007390.000000 0 0 1
-12.052109 -16.661094 23.004891 30.855638 0.944558 0.729414 0.106431 -0.048398 1046210.000000 0 0 1
-11.305009 -15.718694 21.979711 29.291437 0.947295 0.722159 0.127761 -0.051788 -54122.500000 0 0 1
-10.833409 -16.224794 20.780111 28.502977 0.982074 0.753863 0.148411 -0.052739 141415.000000 0 0 1
-9.545509 -16.817794 20.923211 28.490976 1.054553 0.746043 0.139902 -0.050616 -101402.000000 0 0 1
-9.208509 -18.046394 20.077011 28.522892 1.098968 0.789935 0.129281 -0.047554 82032.800000 0 0 1
-9.162609 -17.768994 18.715211 27.385209 1.094706 0.818379 0.117394 -0.045160 -67324.400000 0 0 1
-8.828409 -19.009494 18.064011 27.669662 1.136015 0.859462 0.103753 -0.040623 182520.000000 0 0 1
-8.550109 -18.829994 16.570011 26.499779 1.144564 0.895295 0.099372 -0.044002 -415829.000000 0 0 1
-7.381709 -18.137794 16.286611 25.470039 1.184288 0.877024 0.107004 -0.042533 -698915.000000 0 0 1
-7.136609 -17.976294 14.907111 24.419261 1.192878 0.914148 0.120547 -0.040980 -403690.000000 0 1 0
-6.087809 -16.903594 14.764911 23.255011 1.225109 0.882900 0.098087 -0.043182 -298510.000000 0 1 0
-6.459309 -15.611694 15.234011 22.749127 1.178495 0.837055 0.101015 -0.047990 678181.000000 0 1 0
-5.237309 -14.855194 15.250211 21.924305 1.231845 0.801563 0.074621 -0.031559 587068.000000 0 1 0
-5.038509 -13.867694 16.462011 22.106500 1.222299 0.730759 0.041547 -0.018112 -423187.000000 0 1 0
-4.981909 -14.281694 17.859711 23.404177 1.235163 0.702701 0.072068 -0.020094 579931.000000 0 1 0
-6.045409 -15.088594 18.430011 24.573928 1.189720 0.722761 0.112931 -0.047272 920452.000000 0 1 0
-7.375709 -14.369194 18.758911 24.754223 1.096565 0.710852 0.139725 -0.060984 -182123.000000 0 1 0
-7.251209 -13.553194 19.871311 25.122462 1.079528 0.658391 0.128690 -0.057890 313738.000000 0 0 1
-8.442609 -12.952694 20.388911 25.588232 0.993154 0.648802 0.131528 -0.048153 494104.000000 0 0 1
-8.117909 -12.107494 21.642911 26.094204 0.980154 0.592738 0.127222 -0.036190 -417342.000000 0 0 1
-7.623009 -10.811994 21.244211 25.026506 0.956688 0.556955 0.090498 -0.031581 35814.900000 0 0 1
-7.153309 -10.089494 22.333451 25.529410 0.954065 0.505747 0.080113 -0.026886 59284.300000 0 0 1
-5.788709 -10.473094 22.963351 25.894214 1.065866 0.480392 0.089929 -0.017353 -143706.000000 0 0 1
-5.741309 -11.735694 23.549981 26.931223 1.115812 0.506497 0.109609 -0.022509 -418181.000000 0 0 1
-4.380809 -11.987694 23.780021 26.988622 1.220431 0.492586 0.085890 -0.010660 -252158.000000 0 0 1
-4.248309 -13.152294 24.855331 28.439734 1.258366 0.507494 0.105953 -0.023115 -7790.740000 0 0 1
-2.936409 -13.502094 25.292021 28.820398 1.356653 0.500019 0.078441 -0.021778 314373.000000 0 0 1
-2.920909 -14.619694 26.174401 30.122524 1.373600 0.517758 0.093447 -0.026984 -172594.000000 0 0 1
-2.588409 -15.963694 25.521191 30.213748 1.410052 0.564814 0.113420 -0.052475 -491920.000000 0 0 1
-1.240509 -16.271494 25.320361 30.123431 1.494705 0.572492 0.097029 -0.056039 -335584.000000 0 0 1
-1.139609 -17.458594 24.553141 30.148930 1.505614 0.619110 0.125728 -0.057375 -773194.000000 0 0 1
0.303791 -17.937694 24.581191 30.431696 -1.553862 0.630472 0.120920 -0.056462 -237482.000000 0 0 1
0.865491 -18.490894 25.785061 31.741638 -1.524024 0.622640 0.127753 -0.060829 327665.000000 0 0 1
1.228591 -17.546894 26.796231 32.053719 -1.500893 0.580882 0.120078 -0.061359 -417645.000000 0 0 1
1.701591 -18.182094 28.153151 33.557173 -1.477482 0.575426 0.102703 -0.056292 304584.000000 0 0 1
2.914891 -18.908194 27.839001 33.779082 -1.417840 0.602098 0.103383 -0.049760 491094.000000 0 0 1
3.785591 -19.094994 28.914051 34.856446 -1.375084 0.592552 0.116480 -0.060000 521046.000000 0 0 1
4.762891 -17.872394 29.140641 34.514990 -1.310355 0.565559 0.130158 -0.055557 -527536.000000 0 0 1
4.068191 -16.692894 29.445131 34.091328 -1.331748 0.528205 0.145030 -0.069736 81108.300000 0 0 1
4.893091 -15.581894 29.841091 34.018061 -1.266524 0.500770 0.176590 -0.083675 408203.000000 0 0 1
3.952491 -14.452794 30.373581 33.868272 -1.303848 0.458279 0.193208 -0.074957 495332.000000 0 0 1
3.258091 -14.921794 31.513101 35.019289 -1.355826 0.451306 0.184672 -0.076367 119547.000000 0 0 1
2.483291 -13.846594 32.064390 35.014568 -1.393340 0.413440 0.182243 -0.065453 -193310.000000 0 0 1
1.627591 -14.216294 33.259061 36.206591 -1.456805 0.406295 0.173439 -0.058164 -519105.000000 0 0 1
2.329291 -14.397394 -32.862949 35.953915 -1.410401 2.723906 0.187148 -0.052940 46189.700000 0 0 1
1.551791 -15.102994 -31.865969 35.297995 -1.468408 2.696963 0.193225 -0.064772 133535.000000 0 0 1
2.286691 -15.317194 -30.561959 34.261914 -1.422602 2.672568 0.176353 -0.044887 -285828.000000 0 0 1
1.527891 -15.922194 -29.548329 33.599918 -1.475129 2.645432 0.165994 -0.039376 -416696.000000 0 0 1
2.211091 -16.027994 -28.321329 32.617222 -1.433710 2.622548 0.152191 -0.033185 115043.000000 0 0 1
1.794491 -17.223894 -27.503959 32.501546 -1.466985 2.579676 0.144170 -0.039813 616636.000000 0 0 1
2.675791 -18.288994 -27.900639 33.467788 -1.425521 2.556492 0.113361 -0.035307 689885.000000 0 0 1
2.235491 -19.465294 -27.201329 33.523237 -1.456452 2.517369 0.109851 -0.043425 -1015950.000000 0 0 1
3.129891 -20.622894 -27.452339 34.477977 -1.420178 2.491831 0.084421 -0.036860 330567.000000 0 0 1
4.519391 -20.461894 -27.117759 34.270787 -1.353418 2.483694 0.090087 -0.032244 701126.000000 0 0 1
4.855191 -20.432594 -25.743529 33.223381 -1.337503 2.457293 0.101639 -0.031563 -434194.000000 0 0 1
6.402991 -20.523794 -25.484809 33.342164 -1.268386 2.440816 0.076845 -0.031540 681244.000000 0 0 1
6.996391 -21.817894 -25.561539 34.327282 -1.260484 2.410795 0.061460 -0.019258 223841.000000 0 0 1
6.947891 -22.453794 -26.851679 35.685554 -1.270710 2.422574 0.063250 -0.025209 -382936.000000 0 0 1
6.018591 -23.714494 -26.893399 36.357332 -1.322250 2.403416 0.055213 -0.026257 410999.000000 0 0 1
6.538191 -24.802594 -26.094509 36.590163 -1.313051 2.364787 0.061105 -0.016924 293774.000000 0 0 1
5.903991 -26.002494 -26.512979 37.602192 -1.347527 2.353348 0.064250 -0.015134 51490.400000 0 0 1
6.220091 -27.219374 -25.583219 37.869314 -1.346137 2.312528 0.075552 -0.020518 657448.000000 0 0 1
7.593391 -27.602664 -25.710369 38.478432 -1.302341 2.302551 0.081738 -0.028194 483434.000000 0 0 1
7.966291 -28.599184 -24.779989 38.670699 -1.299133 2.266330 0.089768 -0.042281 1252870.000000 0 0 1
9.495991 -29.012364 -24.886689 39.385764 -1.254478 2.254760 0.095974 -0.049776 1350660.000000 0 0 1
9.950991 -29.596864 -26.111809 40.704093 -1.246452 2.267253 0.106024 -0.049336 -1377590.000000 0 0 1
11.310591 -29.532954 -26.232279 41.088409 -1.205046 2.263260 0.128181 -0.037588 -1147790.000000 0 0 1
11.782191 -29.771634 -27.670979 42.318475 -1.193957 2.283491 0.122806 -0.048071 -55735.500000 0 0 1
11.876491 -31.142584 -28.001729 43.531694 -1.206463 2.269531 0.140061 -0.052831 22642.500000 0 0 1
12.143591 -31.165984 -29.398369 44.531444 -1.199251 2.291843 0.128502 -0.021250 87846.000000 0 0 1
-35.853927 -5.274094 -5.624389 36.673613 0.146052 1.724767 0.264048 -0.055372 91785.600000 0 0 1
-35.391857 -4.672794 -4.401189 35.969279 0.131271 1.693463 0.251236 -0.062693 202255.000000 0 0 1
-34.644053 -3.483294 -4.621589 35.124106 0.100208 1.702758 0.262583 -0.070341 123871.000000 0 0 1
-35.471895 -2.233294 -5.001189 35.892267 0.062877 1.710590 0.245596 -0.048060 431267.000000 0 0 1
-36.405439 -1.671394 -4.047989 36.667912 0.045878 1.681418 0.185612 -0.042864 890346.000000 0 0 1
-37.294079 -0.797794 -4.742189 37.602835 0.021389 1.697246 0.172595 -0.039045 -311444.000000 0 0 1
37.958363 -0.098894 -3.877889 38.156062 -0.002605 1.672604 0.162069 -0.027980 -577788.000000 0 0 1
-37.820809 0.851006 -2.959489 37.945967 -0.022497 1.648868 0.166309 -0.022196 95982.800000 0 0 1
37.381273 1.395206 -2.198389 37.471844 0.037306 1.629498 0.154151 -0.022248 -347354.000000 0 0 1
37.840533 2.607806 -1.367289 37.954921 0.068807 1.606828 0.139869 -0.019312 145607.000000 0 0 1
-37.960779 3.718706 -2.146189 38.202822 -0.097650 1.627005 0.158970 -0.035695 574414.000000 0 0 1
-36.700499 3.586606 -2.796189 36.981199 -0.097417 1.646480 0.146935 -0.007174 -339670.000000 0 0 1
-35.964229 4.923206 -2.964889 36.420520 -0.136046 1.652294 0.134552 -0.011873 -45604.200000 0 0 1
-35.360383 5.379706 -1.747989 35.809962 -0.150982 1.619629 0.162587 -0.023027 483055.000000 0 0 1
-34.795384 6.688206 -1.944889 35.485679 -0.189899 1.625632 0.191917 -0.042034 -93321.000000 0 0 1
-34.303475 7.302806 -0.640889 35.078057 -0.209757 1.589068 0.229043 -0.046955 -630906.000000 0 0 1
-33.074539 6.824906 -0.167289 33.771770 -0.203493 1.575750 0.262639 -0.041442 239888.000000 0 0 1
-32.582049 7.305906 1.122911 33.409985 -0.220582 1.537180 0.310698 -0.064588 531148.000000 0 0 1
-32.188869 8.818406 1.229211 33.397583 -0.267397 1.533983 0.324302 -0.073310 -69124.000000 0 0 1
-33.409999 9.484006 1.455211 34.760495 -0.276591 1.528920 0.268261 -0.063481 390534.000000 0 0 1
-33.212059 10.896606 1.409211 34.982321 -0.317026 1.530502 0.291854 -0.048909 698814.000000 0 0 1
-34.608838 11.604706 1.496411 36.533274 -0.323529 1.529825 0.251913 -0.058445 238348.000000 0 0 1
-35.331187 11.576406 0.266611 37.180331 -0.316630 1.563626 0.189338 -0.047753 358188.000000 0 0 1
-36.553269 12.277806 0.354411 38.561789 -0.324048 1.561605 0.175045 -0.032703 381649.000000 0 0 1
-37.811739 11.463506 0.763611 39.518637 -0.294365 1.551472 0.184557 -0.048307 -140792.000000 0 0 1
38.040633 10.528006 -0.191489 39.471069 0.269999 1.575648 0.183306 -0.036672 380387.000000 0 0 1
36.810693 9.878306 0.148611 38.113385 0.262177 1.566897 0.171055 -0.040565 663891.000000 0 0 1
36.414873 8.816206 -0.853189 37.476611 0.237534 1.593564 0.162396 -0.035348 99148.000000 0 0 1
36.083363 9.304006 -2.162589 37.326269 0.252351 1.628766 0.156823 -0.029797 163580.000000 0 0 1
35.690403 8.198706 -2.975989 36.740715 0.225800 1.651885 0.146954 -0.032645 -318103.000000 0 0 1
35.255423 8.698206 -4.323789 36.569096 0.241889 1.689310 0.119277 -0.027609 147776.000000 0 0 1
33.869903 9.020506 -4.282789 35.311218 0.260286 1.692383 0.156457 -0.032672 376460.000000 0 0 1
33.437333 9.681406 -5.417589 35.229747 0.281832 1.725188 0.128896 -0.018618 643343.000000 0 0 1
31.947463 10.190706 -5.361289 33.959303 0.308780 1.729334 0.178293 -0.029309 852664.000000 0 0 1
30.988163 9.196606 -5.579789 32.802101 0.288498 1.741732 0.203314 -0.021590 -856701.000000 0 0 1
29.661263 9.529206 -5.484189 31.633409 0.310852 1.745044 0.238103 -0.025627 -1098330.000000 0 0 1
28.735263 8.362406 -5.867089 30.497014 0.283194 1.764386 0.267703 -0.016705 -280966.000000 0 0 1
28.911663 7.877706 -7.157589 30.808661 0.266017 1.805263 0.249129 -0.024516 227596.000000 0 0 1
27.910163 6.913806 -7.380889 29.685946 0.242828 1.822064 0.311019 -0.024529 -46050.000000 0 0 1
28.263463 6.012606 -8.594289 30.146916 0.209609 1.859886 0.289161 -0.035226 -927483.000000 0 0 1
29.288863 5.151306 -8.342389 30.886387 0.174099 1.844292 0.250002 -0.033177 -408030.000000 0 0 1
29.415563 4.118106 -9.282089 31.118986 0.139094 1.873684 0.232963 -0.030246 -254931.000000 0 0 1
30.301163 2.987006 -8.733789 31.675886 0.098260 1.850139 0.179020 -0.025975 290273.000000 0 0 1
31.714493 3.277206 -8.768989 33.067269 0.102969 1.839194 0.136135 -0.018657 1285020.000000 0 0 1
32.530333 2.569806 -7.872389 33.567856 0.078833 1.807523 0.119152 -0.016039 -134162.000000 0 0 1
32.532523 1.035306 -7.947489 33.505216 0.031813 1.810280 0.092402 -0.010081 -1087790.000000 0 0 1
31.436373 0.415806 -7.322789 32.280670 0.013226 1.799636 0.166955 -0.019789 53437.100000 0 0 1
31.743483 -0.880994 -6.828889 32.481665 -0.027746 1.782615 0.160988 -0.020150 -144098.000000 0 0 1
31.430383 -2.004194 -7.869589 32.462535 -0.063680 1.815656 0.154634 -0.018969 -46314.400000 0 0 1
32.396123 -2.093494 -8.918489 33.666466 -0.064532 1.838904 0.130607 -0.017381 419498.000000 0 0 1
32.098533 -3.146994 -9.734289 33.689401 -0.097729 1.863918 0.118311 -0.032865 -232354.000000 0 0 1
33.096213 -3.338494 -10.887089 35.000479 -0.100532 1.887100 0.149166 -0.034510 620473.000000 0 0 1
34.450883 -3.658494 -10.533589 36.210556 -0.105798 1.865962 0.167989 -0.027481 889573.000000 0 0 1
35.252113 -4.161894 -11.564089 37.333108 -0.117517 1.885731 0.194008 -0.047251 -129880.000000 0 0 1
36.718953 -4.428594 -11.196089 38.642546 -0.120028 1.864746 0.218682 -0.049731 -270160.000000 0 0 1
36.956243 -5.550694 -10.368489 38.782466 -0.149082 1.841438 0.225287 -0.057501 -129599.000000 0 0 1
-37.964159 -5.762694 -10.064289 39.696044 0.150643 1.827128 0.237877 -0.055121 -360998.000000 0 0 1
-37.816849 -6.851594 -8.995589 39.471243 0.179234 1.800719 0.248679 -0.067518 -323688.000000 0 0 1
37.653113 -6.462094 -7.930389 39.018030 -0.169966 1.775472 0.268073 -0.063077 200348.000000 0 0 1
37.404133 -7.706194 -7.234889 38.868988 -0.203182 1.758024 0.270419 -0.058530 109512.000000 0 0 1
36.656533 -7.527894 -5.867089 37.878666 -0.202547 1.726314 0.246135 -0.055525 545726.000000 0 0 1
37.597793 -6.969694 -4.898789 38.550860 -0.183294 1.698214 0.278378 -0.057279 1392440.000000 0 0 1
-38.059239 -7.843394 -3.924189 39.056674 0.203239 1.671440 0.286306 -0.047574 135631.000000 0 0 1
-37.122869 -9.012794 -4.351489 38.448320 0.238175 1.684217 0.279613 -0.049155 -323772.000000 0 0 1
-37.735389 -9.985994 -5.128889 39.369851 0.258702 1.701442 0.262568 -0.041447 157164.000000 0 0 1
-36.717149 -10.736094 -5.749889 38.684286 0.284470 1.719985 0.210998 -0.032303 -78063.400000 0 0 1
-37.244719 -11.548494 -6.901489 39.600093 0.300670 1.745970 0.215355 -0.030620 -173080.000000 0 0 1
-37.396349 -10.747194 -8.099889 39.744148 0.279845 1.776035 0.200478 -0.045978 266814.000000 0 0 1
-37.772459 -11.517794 -9.255789 40.559683 0.295970 1.801027 0.211608 -0.035871 120214.000000 0 0 1
-37.549149 -10.841794 -10.580489 40.489873 0.281091 1.835177 0.211190 -0.049863 -57109.300000 0 0 1
37.640343 -9.922494 -10.728989 40.377748 -0.257750 1.839742 0.206322 -0.055453 509776.000000 0 0 1
37.645083 -9.246194 -11.948589 40.563692 -0.240847 1.869795 0.194010 -0.054417 -514486.000000 0 0 1
36.330683 -8.563394 -12.355689 39.318104 -0.231482 1.890462 0.199833 -0.054862 -395095.000000 0 0 1
36.446673 -7.745594 -13.499489 39.630675 -0.209403 1.918386 0.205495 -0.051380 -32935.400000 0 0 1
35.243543 -7.135494 -13.847089 38.532641 -0.199762 1.938378 0.168570 -0.048526 -512666.000000 0 0 1
35.379863 -6.089794 -14.941889 38.885477 -0.170456 1.965196 0.162868 -0.044744 -22228.400000 0 0 1
36.233873 -5.012994 -14.573789 39.375360 -0.137478 1.949939 0.149774 -0.026824 352976.000000 0 0 1
36.421843 -4.242294 -15.709589 39.891589 -0.115954 1.975566 0.171962 -0.035635 -322644.000000 0 0 1
37.662553 -3.359594 -15.637189 40.917923 -0.088967 1.962929 0.164471 -0.027265 -318836.000000 0 0 1
-37.931499 -3.131994 -16.896089 41.642356 0.082383 1.988588 0.170840 -0.032033 459480.000000 0 0 1
-36.624209 -2.597394 -16.822489 40.386573 0.070802 2.000429 0.198169 -0.023260 76877.900000 0 0 1
-36.476759 -1.114094 -16.421089 40.018087 0.030533 1.993625 0.180686 -0.016580 -337036.000000 0 0 1
-36.913419 -0.250594 -17.472689 40.840644 0.006789 2.012882 0.163605 -0.021937 234624.000000 0 0 1
-36.931989 1.057706 -16.946189 40.648049 -0.028631 2.000829 0.161523 -0.023521 -86096.400000 0 0 1
-37.174449 2.067006 -18.048089 41.375665 -0.055546 2.022168 0.135486 -0.027524 -186302.000000 0 0 1
-36.097239 2.220006 -18.936089 40.822966 -0.061423 2.053142 0.145272 -0.022277 -82199.700000 0 0 1
-36.130589 3.308706 -19.786689 41.326505 -0.091322 2.070071 0.133884 -0.026984 -268101.000000 0 0 1
-35.024939 3.324506 -20.864289 40.903756 -0.094635 2.106077 0.128483 -0.017634 -602055.000000 0 0 1
-33.774939 3.742706 -20.436789 39.653710 -0.110363 2.112249 0.136672 -0.024877 -450622.000000 0 0 1
-32.910429 4.104806 -21.465989 39.506132 -0.124086 2.145229 0.118622 -0.024374 170158.000000 0 0 1
-31.427329 4.423706 -21.149289 38.138414 -0.139841 2.158607 0.134734 -0.029719 -154940.000000 0 0 1
-30.649399 3.336906 -20.820089 37.202106 -0.108446 2.164757 0.142229 -0.016566 -1341.790000 0 0 1
-29.301189 3.710106 -21.130589 36.315649 -0.125949 2.191809 0.106444 -0.006075 -17713.300000 0 0 1
-28.306089 2.708606 -20.598989 35.112527 -0.095399 2.197720 0.120400 -0.011809 -583350.000000 0 0 1
-28.029009 2.851706 -19.230789 34.111300 -0.101392 2.169735 0.121682 -0.006893 154464.000000 0 0 1
-27.124529 1.857306 -18.760089 33.032266 -0.068367 2.174788 0.110300 -0.011326 -385740.000000 0 0 1
-26.563279 2.181106 -17.373889 31.815358 -0.081926 2.148480 0.096368 -0.015432 -432853.000000 0 0 1
-25.472279 3.038506 -17.510489 31.059407 -0.118726 2.169745 0.080587 -0.019961 -551598.000000 0 0 1
-24.770709 3.271706 -16.338289 29.853505 -0.131320 2.149910 0.103237 -0.031876 34253.600000 0 0 1
-23.559809 4.196406 -16.618389 29.134949 -0.176269 2.177781 0.122972 -0.036152 -164456.000000 0 0 1
-22.480009 3.737606 -17.358089 28.646531 -0.164756 2.221744 0.161463 -0.050417 -765615.000000 0 0 1
-21.420809 4.621106 -17.391189 27.976046 -0.212474 2.241638 0.160023 -0.053014 -801038.000000 0 0 1
-20.117209 3.986406 -17.882189 27.209671 -0.195625 2.287894 0.232939 -0.062568 -854534.000000 0 0 1
-19.514309 3.084606 -17.034389 26.086269 -0.156772 2.282338 0.268157 -0.065095 -32205.000000 0 0 1
-18.651709 2.256906 -17.788289 25.872825 -0.120417 2.328875 0.224648 -0.059761 -567261.000000 0 0 1
-18.448509 0.831206 -17.163589 25.211648 -0.045025 2.319623 0.247397 -0.057955 55445.900000 0 0 1
-19.425209 -0.154694 -17.398989 26.078487 0.007963 2.301210 0.209563 -0.053919 924122.000000 0 0 1
-20.698609 0.051006 -16.747289 26.625302 -0.002464 2.251061 0.195732 -0.055699 470894.000000 0 0 1
-21.794809 -0.913494 -17.188789 27.772336 0.041889 2.238160 0.162724 -0.049717 -441909.000000 0 0 1
-21.486109 -2.231994 -16.732389 27.324120 0.103510 2.229847 0.159298 -0.047003 -77637.100000 0 0 1
-22.418909 -3.143994 -17.156989 28.405184 0.139330 2.219318 0.131339 -0.029293 -616811.000000 0 0 1
-22.663809 -4.111094 -15.976489 28.032080 0.179444 2.177224 0.146323 -0.037951 12726.800000 0 0 1
-23.239609 -3.540794 -14.823289 27.791124 0.151198 2.133390 0.143269 -0.036817 214394.000000 0 0 1
-23.630509 -4.456994 -13.872489 27.761695 0.186422 2.094047 0.155901 -0.047846 -150478.000000 0 0 1
-23.713009 -3.874794 -12.417589 27.046577 0.161972 2.047799 0.170738 -0.053185 328822.000000 0 0 1
-24.808309 -2.989494 -12.150189 27.785182 0.119925 2.023380 0.151920 -0.039481 758399.000000 0 0 1
-25.089089 -2.757994 -10.813389 27.459030 0.109488 1.975559 0.184274 -0.056608 149193.000000 0 0 1
-26.241239 -1.702694 -10.601789 28.353125 0.064795 1.954028 0.199365 -0.060170 377072.000000 0 0 1
-26.430389 -1.328894 -9.213989 28.021938 0.050237 1.905843 0.199526 -0.079169 105379.000000 0 0 1
-27.189039 -0.199594 -9.026289 28.648867 0.007341 1.891323 0.204695 -0.076959 -598626.000000 0 0 1
-27.160829 0.334306 -7.557089 28.194538 -0.012308 1.842148 0.225210 -0.070389 576200.000000 0 0 1
-25.854879 0.866306 -7.296789 26.878772 -0.033494 1.845717 0.219458 -0.064275 819255.000000 0 0 1
-25.511899 0.903306 -5.910589 26.203206 -0.035392 1.798322 0.219034 -0.071357 207093.000000 0 0 1
-24.033409 1.275906 -5.608789 24.712167 -0.053039 1.799756 0.155651 -0.060000 158976.000000 0 1 0
-23.751809 2.618706 -5.963389 24.628602 -0.109809 1.815360 0.202205 -0.051396 105449.000000 0 1 0
-22.447309 2.906706 -5.495889 23.292390 -0.128774 1.808995 0.199198 -0.041047 -107792.000000 0 1 0
-22.148009 4.420606 -5.467989 23.237361 -0.197005 1.808334 0.186007 -0.038509 -246992.000000 0 1 0
-22.696709 5.151406 -4.372489 23.681137 -0.223186 1.756502 0.199963 -0.038525 645812.000000 0 1 0
-22.619609 6.532206 -4.645089 23.997776 -0.281136 1.765589 0.195332 -0.036378 -516770.000000 0 1 0
-23.037209 7.470606 -3.461789 24.464401 -0.313584 1.712776 0.216902 -0.036747 380218.000000 0 1 0
-22.146109 7.570406 -2.334289 23.520419 -0.329386 1.670205 0.177260 -0.041576 2320200.000000 0 1 0
-20.785709 8.101806 -2.295989 22.426692 -0.371663 1.673354 0.183911 -0.040404 1274860.000000 0 1 0
-20.625709 9.631206 -2.617389 22.913549 -0.436861 1.685275 0.185377 -0.043514 -572628.000000 0 1 0
-20.460909 9.895106 -3.979089 23.073688 -0.450450 1.744114 0.149346 -0.031281 542064.000000 0 1 0
-20.192309 11.246306 -4.178889 23.487696 -0.508171 1.749667 0.160968 -0.030456 -244525.000000 0 1 0
-19.950009 11.596806 -5.626789 23.751832 -0.526551 1.809969 0.140563 -0.033556 -516792.000000 0 1 0
-18.745909 11.175006 -6.184589 22.683452 -0.537569 1.846940 0.088081 -0.027045 -444524.000000 0 1 0
-18.819309 11.569106 -7.511989 23.333250 -0.551192 1.898578 0.100745 -0.021875 396820.000000 0 1 0
-17.476709 11.559906 -8.317389 22.544306 -0.584380 1.948660 0.066730 -0.009527 258545.000000 0 1 0
-16.788309 10.297106 -8.456889 21.433541 -0.550178 1.976389 0.020301 -0.003189 782436.000000 0 1 0
-17.465609 9.200306 -9.100389 21.737300 -0.484831 2.002758 0.043548 -0.017609 -505743.000000 0 1 0
-17.740209 9.359006 -10.614789 22.693165 -0.485451 2.057543 0.054288 -0.023497 -145822.000000 0 1 0
-16.577709 9.436706 -11.411689 22.228326 -0.517495 2.109921 0.051443 -0.026358 233944.000000 0 1 0
-16.870109 10.241406 -12.555489 23.390752 -0.545605 2.137402 0.080370 -0.030884 200874.000000 0 1 0
-16.054409 9.866106 -13.826689 23.372236 -0.551043 2.203821 0.064203 -0.016117 -175938.000000 0 1 0
-16.272109 8.560306 -14.375289 23.339008 -0.484287 2.234367 0.107788 -0.036238 197589.000000 0 1 0
-15.750209 7.432306 -13.668489 22.139012 -0.440905 2.236222 0.077337 -0.028095 -278102.000000 0 1 0
-15.836809 6.146506 -14.530889 22.354659 -0.370219 2.278402 0.100723 -0.030978 -204154.000000 0 1 0
-14.955809 6.095406 -15.630189 22.475164 -0.387008 2.339832 0.131996 -0.032629 237460.000000 0 1 0
-14.922309 4.848206 -16.237889 22.579846 -0.314138 2.373349 0.131652 -0.038714 18867.100000 0 1 0
33.628323 -15.788094 27.874011 46.444467 -0.438941 0.927098 0.090402 -0.011885 126404.000000 0 0 1
33.000213 -14.508594 28.045391 45.673376 -0.414215 0.909624 0.116519 -0.005482 409812.000000 0 0 1
31.935903 -14.452394 28.996851 45.492757 -0.424967 0.879684 0.113443 -0.009661 244473.000000 0 0 1
32.326393 -14.549194 30.494331 46.760870 -0.422914 0.860401 0.103563 -0.016651 -419556.000000 0 0 1
33.013993 -13.418494 30.913091 47.176253 -0.386053 0.856259 0.092677 -0.019807 -66115.800000 0 0 1
33.307583 -13.418094 32.289004 48.290994 -0.382964 0.838426 0.076684 -0.024009 -342249.000000 0 0 1
33.917383 -12.082394 32.709587 48.644529 -0.342214 0.833322 0.083802 -0.024708 -109578.000000 0 0 1
33.835393 -11.959694 -33.180759 48.875667 -0.339760 2.317034 0.072646 -0.040595 192470.000000 0 0 1
34.093953 -10.625294 -32.780599 48.475377 -0.302108 2.313432 0.109323 -0.030835 -153633.000000 0 0 1
33.620763 -10.287894 -31.320809 47.087042 -0.296951 2.298516 0.112216 -0.036812 -555199.000000 0 0 1
32.247203 -10.445494 -31.211849 46.077868 -0.313254 2.314980 0.179705 -0.039583 -682190.000000 0 0 1
31.631173 -9.881794 -30.115169 44.778391 -0.302800 2.308429 0.162865 -0.045429 81602.200000 0 0 1
30.428963 -10.716194 -29.584059 43.771853 -0.338607 2.312940 0.153828 -0.043640 98575.100000 0 0 1
29.680563 -10.123994 -28.577259 42.427477 -0.328723 2.309805 0.134857 -0.042593 315863.000000 0 0 1
28.660463 -10.972294 -28.055559 41.580377 -0.365624 2.311396 0.149973 -0.035932 29802.200000 0 0 1
28.111963 -10.486394 -26.686629 40.154988 -0.357036 2.297742 0.140576 -0.035782 -595521.000000 0 0 1
27.362263 -9.283894 -26.651569 39.308908 -0.327107 2.315839 0.119137 -0.032999 837111.000000 0 0 1
26.122463 -9.077194 -27.335099 38.884266 -0.334434 2.350384 0.101976 -0.032637 402764.000000 0 0 1
24.997563 -10.060994 -27.005019 38.149349 -0.382642 2.357283 0.105592 -0.020290 -1077900.000000 0 0 1
25.168063 -11.308894 -27.632409 39.049616 -0.422301 2.356925 0.118193 -0.029993 -52727.800000 0 0 1
24.110563 -12.180194 -27.286959 38.396022 -0.467784 2.361249 0.097899 -0.039809 -226581.000000 0 0 1
24.340363 -13.664594 -27.736379 39.350745 -0.511551 2.353008 0.119734 -0.018791 40354.600000 0 0 1
24.396463 -13.806294 -29.146309 40.438948 -0.514979 2.375678 0.121647 -0.027110 952326.000000 0 0 1
25.763563 -13.763694 -29.591749 41.579707 -0.490656 2.362693 0.105427 -0.016970 632590.000000 0 0 1
26.028763 -13.880894 -31.109299 42.871485 -0.489924 2.382762 0.107706 -0.024667 -198716.000000 0 0 1
25.570463 -15.081994 -31.653449 43.396497 -0.532901 2.388242 0.109023 -0.019200 -75574.700000 0 0 1
26.056463 -15.386894 -32.959639 44.744090 -0.533421 2.398863 0.109259 -0.013653 -260202.000000 0 0 1
25.988863 -14.475294 33.159142 44.547546 -0.508187 0.731229 0.066436 -0.009848 -322687.000000 0 0 1
24.731563 -13.979494 32.770491 43.370284 -0.514475 0.714230 0.076647 -0.004980 -203594.000000 0 0 1
24.829763 -13.062894 31.684044 42.320621 -0.484308 0.724748 0.060863 -0.002984 -731953.000000 0 0 1
23.992263 -11.753694 31.862350 41.581094 -0.455531 0.697781 0.072770 -0.008156 -219433.000000 0 0 1
22.615763 -11.921394 31.985526 40.947115 -0.485113 0.674303 0.067785 -0.003007 -434548.000000 0 0 1
21.935763 -12.229094 30.794861 39.737286 -0.508580 0.684142 0.060789 -0.000211 131451.000000 0 0 1
20.388863 -12.439794 31.016941 39.147220 -0.547833 0.656202 0.081097 0.000167 843567.000000 0 0 1
19.592763 -11.293394 30.806701 38.216095 -0.522891 0.633233 0.084884 -0.000031 -390598.000000 0 0 1
18.650263 -11.321694 31.853304 38.608885 -0.545589 0.600550 0.094127 -0.004053 -36212.900000 0 0 1
17.821963 -10.024994 32.049914 38.017362 -0.512395 0.567898 0.118403 -0.006503 224842.000000 0 0 1
16.766363 -9.864994 31.081101 36.666931 -0.531832 0.559237 0.158778 -0.005419 225897.000000 0 0 1
15.948963 -8.786694 31.407651 36.304489 -0.503554 0.525412 0.158197 -0.008647 73144.900000 0 0 1
14.789863 -8.928494 32.407156 36.724403 -0.543128 0.489768 0.162733 -0.010871 -1078650.000000 0 0 1
13.815663 -9.834794 32.094096 36.299128 -0.618640 0.486112 0.158005 -0.009792 305144.000000 0 0 1
12.582863 -9.742594 32.823756 36.478014 -0.658857 0.451433 0.132085 -0.014998 616731.000000 0 0 1
11.432963 -8.987594 32.153718 35.289532 -0.666215 0.424753 0.132613 -0.018017 -457571.000000 0 0 1
11.555963 -7.558994 32.273074 35.103134 -0.579267 0.404298 0.139274 -0.021282 1186090.000000 0 0 1
10.384763 -6.908894 31.710899 34.075757 -0.587050 0.374748 0.135419 -0.021846 967369.000000 0 0 1
10.639963 -5.378494 31.601613 33.775715 -0.468037 0.360753 0.114115 -0.024495 52776.400000 0 0 1
10.754363 -4.678094 32.844575 34.875593 -0.410306 0.342959 0.087558 -0.023261 260276.000000 0 0 1
11.498863 -3.469094 32.667184 34.805220 -0.293007 0.352329 0.070299 -0.018294 508.477000 0 0 1
11.306663 -2.495794 -33.469709 35.415971 -0.217253 2.808530 0.057673 -0.020933 -659853.000000 0 0 1
9.996763 -2.082794 -33.267019 34.798963 -0.205408 2.843769 0.058360 -0.011556 -851760.000000 0 0 1
9.971463 -1.117594 -32.261589 33.785932 -0.111613 2.840060 0.060389 -0.013788 307676.000000 0 0 1
8.542663 -0.847094 -31.686229 32.828520 -0.098837 2.877020 0.086173 -0.015885 517934.000000 0 0 1
7.805863 -0.155394 -32.687379 33.606850 -0.019905 2.907134 0.078738 -0.017244 775593.000000 0 0 1
6.402363 -0.078994 -32.365219 32.992482 -0.012338 2.946283 0.093077 -0.020217 961441.000000 0 0 1
5.553063 0.916506 -33.164029 33.638212 0.163570 2.973487 0.119798 -0.023799 -444967.000000 0 0 1
5.998363 2.220006 -33.033999 33.647494 0.354470 2.950341 0.089385 -0.022159 204145.000000 0 0 1
5.326963 3.111606 33.358231 33.923888 0.528664 0.182871 0.098178 -0.019771 224774.000000 0 0 1
6.048763 4.490406 33.420001 34.258542 0.638598 0.221709 0.086783 -0.028976 31396.800000 0 0 1
5.653263 5.379906 32.442938 33.368353 0.760627 0.236061 0.097282 -0.042962 -228890.000000 0 0 1
6.562863 6.425506 32.354996 33.633377 0.774823 0.276596 0.097374 -0.047005 -355969.000000 0 0 1
6.030863 7.499706 31.364395 32.807654 0.893532 0.297718 0.129588 -0.048743 -393748.000000 0 0 1
4.899163 8.102606 31.937415 33.311447 1.026972 0.288218 0.140358 -0.054285 -89619.300000 0 0 1
4.407863 9.289906 31.273406 32.920473 1.127773 0.317662 0.164003 -0.059491 195147.000000 0 0 1
4.046163 9.305906 29.756321 31.438988 1.160658 0.328652 0.157676 -0.062216 704442.000000 0 0 1
2.791163 8.656406 29.448731 30.821286 1.258883 0.299557 0.151516 -0.060817 592025.000000 0 0 1
2.501163 8.828406 28.096161 29.556570 1.294722 0.315668 0.125882 -0.045263 136.304000 0 0 1
1.281863 7.992606 27.673211 28.832820 1.411770 0.284573 0.121819 -0.042535 -373185.000000 0 0 1
0.097363 8.357806 28.328701 29.536040 1.559148 0.286909 0.130860 -0.039473 -519982.000000 0 0 1
-0.987237 7.793106 27.581991 28.678796 -1.444787 0.277455 0.122464 -0.039625 905168.000000 0 0 1
-2.372837 8.192606 28.195931 29.457761 -1.288879 0.293750 0.114346 -0.035934 573692.000000 0 0 1
-2.805437 9.533306 28.327931 30.020427 -1.284598 0.337390 0.113481 -0.035946 496438.000000 0 0 1
-4.187937 9.521806 28.711751 30.537980 -1.156435 0.347585 0.095327 -0.019529 120094.000000 0 0 1
-4.596737 10.773506 29.468191 31.710766 -1.167512 0.378337 0.082883 -0.009502 -194512.000000 0 0 1
-4.831437 11.841806 28.612841 31.341120 -1.183414 0.420343 0.064373 -0.012210 2139540.000000 0 0 1
-6.081237 11.768706 27.781231 30.777925 -1.093855 0.444944 0.058991 -0.012837 1864430.000000 0 0 1
-6.576037 13.207606 27.365121 31.089145 -1.108832 0.494482 0.045925 -0.002766 592356.000000 0 0 1
-5.598137 13.838906 26.506791 30.421447 -1.186398 0.512912 0.045746 -0.008519 481878.000000 0 0 1
-6.005237 15.096906 25.982281 30.644059 -1.192206 0.558835 0.029978 -0.004449 -165330.000000 0 0 1
-4.823037 15.949006 25.502401 30.463173 -1.277136 0.578735 0.074922 -0.010891 -191928.000000 0 0 1
-4.465637 15.639906 24.181701 29.142807 -1.292669 0.592109 0.064610 -0.006207 -440239.000000 0 0 1
-3.478237 16.567706 23.825371 29.227304 -1.363861 0.617765 0.085338 -0.010458 -541073.000000 0 0 1
-2.986637 16.462606 22.408361 27.965551 -1.391329 0.641357 0.084197 -0.019240 158316.000000 0 0 1
-2.239937 15.281706 22.011011 26.889263 -1.425256 0.611862 0.069175 -0.018501 406478.000000 0 0 1
-2.288537 15.211906 20.550711 25.670434 -1.421472 0.642568 0.063408 -0.026753 -206803.000000 0 0 1
-1.391337 14.136406 19.967411 24.504515 -1.472690 0.618333 0.064424 -0.023540 -516416.000000 0 1 0
-1.826037 12.840106 20.167611 23.977807 -1.429530 0.571492 0.057719 -0.019334 51923.900000 0 1 0
-1.109537 11.955106 19.282511 22.714992 -1.478253 0.556916 0.044011 -0.014430 -295977.000000 0 1 0
-1.756537 10.629606 18.892711 21.748758 -1.407027 0.518265 0.025404 -0.024145 -808729.000000 0 1 0
-2.024937 9.651106 19.855811 22.169741 -1.363982 0.460958 0.044566 -0.036783 336627.000000 0 1 0
-2.831237 9.955106 21.019411 23.429376 -1.293712 0.457546 0.062383 -0.027540 -400583.000000 0 1 0
-4.326737 9.987206 20.744411 23.426385 -1.161977 0.483195 0.048133 -0.022886 -741712.000000 0 1 0
-5.027537 8.736706 20.838511 23.148427 -1.048624 0.450538 0.038170 -0.021964 -154171.000000 0 1 0
-6.409137 8.982106 20.948611 23.676984 -0.951037 0.484803 0.035881 -0.011850 -280348.000000 0 1 0
-7.217837 7.704006 20.941711 23.452167 -0.817968 0.466931 0.039582 -0.013514 -273938.000000 0 1 0
-7.059837 7.048006 22.180611 24.320674 -0.784560 0.422647 0.047277 -0.020891 87764.600000 0 1 0
-7.757137 5.830506 22.108611 24.144537 -0.644544 0.413606 0.046354 -0.020162 68477.100000 0 1 0
-7.827037 5.093606 23.472601 25.262033 -0.576917 0.378648 0.053523 -0.026297 -225492.000000 0 0 1
-8.711037 5.698706 24.373811 26.503586 -0.579318 0.403628 0.042909 -0.021156 -20236.800000 0 0 1
-8.961237 4.836106 25.479421 27.438888 -0.494877 0.380207 0.040047 -0.008506 112370.000000 0 0 1
-10.011737 5.387706 26.472511 28.810694 -0.493691 0.405657 0.051707 -0.004088 -11081.300000 0 0 1
-9.427537 6.290906 27.333231 29.589854 -0.588434 0.393072 0.047128 -0.017186 175470.000000 0 0 1
-10.426037 6.899406 28.131341 30.784353 -0.584589 0.418205 0.061755 -0.018404 239360.000000 0 0 1
-9.815737 8.035406 28.977191 31.632168 -0.685995 0.412635 0.072960 -0.015362 107838.000000 0 0 1
-8.888637 7.584806 29.938681 32.138167 -0.706415 0.372112 0.087908 -0.018275 194099.000000 0 0 1
-8.411337 8.691006 30.741881 33.035548 -0.801749 0.374830 0.092282 -0.022651 -298077.000000 0 0 1
-7.414537 8.327606 31.815168 33.712450 -0.843335 0.337088 0.128965 -0.027296 207397.000000 0 0 1
-6.131937 7.948906 31.300919 32.871466 -0.913727 0.310367 0.121955 -0.034155 344312.000000 0 0 1
-5.317537 7.463806 32.370143 33.642395 -0.951768 0.275890 0.149688 -0.030598 810429.000000 0 0 1
-3.818337 7.262506 31.954165 32.990792 -1.086753 0.251347 0.116855 -0.027330 858199.000000 0 0 1
-3.157737 8.510806 31.759915 33.031762 -1.215514 0.278401 0.099944 -0.037335 517463.000000 0 0 1
-1.744337 8.447806 32.016398 33.158074 -1.367174 0.263176 0.105059 -0.043291 1093220.000000 0 0 1
-1.087037 9.796406 31.538438 33.042764 -1.460286 0.302907 0.108739 -0.038571 32862.200000 0 0 1
-1.593337 10.850206 32.310024 34.120424 -1.424990 0.327216 0.116426 -0.050732 90769.500000 0 0 1
-1.604837 12.075006 31.633954 33.898205 -1.438665 0.367567 0.107050 -0.043064 -218635.000000 0 0 1
-1.885837 13.299006 32.613396 35.271143 -1.429933 0.390686 0.102160 -0.045059 417497.000000 0 0 1
-0.770437 13.663706 33.446601 36.138145 -1.514470 0.388388 0.165046 -0.051425 224369.000000 0 0 1
-0.990937 14.842806 -33.159399 36.343315 -1.504133 2.719890 0.154272 -0.056881 122503.000000 0 0 1
0.261463 15.330706 -32.390359 35.836214 1.553743 2.699467 0.133355 -0.058142 -345150.000000 0 0 1
1.285563 15.812006 -33.211279 36.805723 1.489672 2.695964 0.159610 -0.059251 -790978.000000 0 0 1
2.396763 15.967006 -32.385439 36.187103 1.421802 2.679103 0.179555 -0.060178 -90961.300000 0 0 1
3.622763 16.643706 -33.083909 37.211321 1.356474 2.666132 0.184205 -0.043949 262950.000000 0 0 1
3.448363 18.001706 -33.386839 38.087185 1.381532 2.639526 0.161306 -0.035814 -375673.000000 0 0 1
4.587263 18.492706 33.280031 38.348189 1.327646 0.519961 0.136046 -0.005599 -147396.000000 0 0 1
4.486963 20.020406 33.042774 38.894400 1.350320 0.555663 0.132646 -0.023227 -191252.000000 0 0 1
4.429263 20.776606 -33.114539 39.342832 1.360756 2.571205 0.154867 -0.047008 101683.000000 0 0 1
4.116363 22.157606 -33.332289 40.236121 1.387114 2.547072 0.127335 -0.034687 -26028.600000 0 0 1
3.684963 22.793206 -32.003159 39.462784 1.410514 2.516605 0.128182 -0.041614 -93236.000000 0 0 1
3.391763 24.145006 -32.013049 40.240783 1.431235 2.490690 0.130998 -0.035976 83017.500000 0 0 1
3.233063 24.597806 -30.696839 39.468983 1.440108 2.461868 0.134167 -0.032408 -136556.000000 0 0 1
2.792963 26.064906 -30.601459 40.294283 1.464049 2.433262 0.143327 -0.042672 244839.000000 0 0 1
3.804863 27.064206 -30.728599 41.124141 1.431125 2.414659 0.157277 -0.040661 249315.000000 0 0 1
3.387163 28.184706 -30.009659 41.308959 1.451193 2.383965 0.143307 -0.037855 -445257.000000 0 0 1
4.394663 29.338506 -29.909969 42.126799 1.422110 2.360293 0.146678 -0.054880 94464.100000 0 0 1
5.494463 29.010906 -29.072749 41.437260 1.383620 2.348449 0.152298 -0.067282 23642.600000 0 0 1
6.267563 30.141506 -28.773489 42.139131 1.365780 2.322413 0.157398 -0.074386 -360262.000000 0 0 1
7.277063 29.891406 -27.627479 41.348874 1.331992 2.302523 0.182778 -0.066139 -76250.000000 0 0 1
8.444363 29.222406 -28.073429 41.392918 1.289490 2.316132 0.194028 -0.063194 1489520.000000 0 0 1
9.705063 29.969906 -28.048879 42.179653 1.257626 2.298271 0.185374 -0.057379 1283510.000000 0 0 1
9.884263 31.363106 -28.778729 43.698493 1.265494 2.289720 0.181048 -0.062572 -904214.000000 0 0 1
9.227563 32.448206 -28.124469 43.920607 1.293732 2.265747 0.176986 -0.065749 213149.000000 0 0 1
9.185963 33.695306 -28.750599 45.236628 1.304646 2.259530 0.161247 -0.060811 -127998.000000 0 0 1
8.140663 -33.569523 -29.876299 45.670302 -1.332887 2.283886 0.130441 -0.043624 -17023.300000 0 0 1
8.391863 33.119206 -31.009619 46.140022 1.322636 2.307806 0.124704 -0.039085 575504.000000 0 0 1
7.135463 32.935906 -31.679579 46.252399 1.357447 2.325302 0.103198 -0.032273 435893.000000 0 0 1
7.182163 32.209706 -33.090169 46.733370 1.351404 2.357548 0.123642 -0.043386 -7999.230000 0 0 1
7.404063 32.970906 33.060206 47.274496 1.349897 0.796345 0.139783 -0.040696 70728.900000 0 0 1
7.162563 32.151206 31.948879 45.888269 1.351598 0.800662 0.122525 -0.039265 -147599.000000 0 0 1
6.991263 32.814406 30.521761 45.356817 1.360880 0.832640 0.114162 -0.051711 -66938.500000 0 0 1
8.065763 33.517906 29.974401 45.683380 1.334646 0.855113 0.110906 -0.049974 -138036.000000 0 0 1
7.598163 -33.571223 28.682391 44.804449 -1.348217 0.876079 0.091998 -0.059255 223672.000000 0 0 1
19.161491 -21.648694 28.338461 40.483294 -0.846269 0.795393 0.148580 -0.017220 665161.000000 0 0 1
18.126491 -20.669194 28.596651 39.668044 -0.850845 0.765698 0.160845 -0.019575 215417.000000 0 0 1
16.865291 -21.129494 28.959931 39.617814 -0.897162 0.751036 0.168206 -0.020071 -252509.000000 0 0 1
16.534991 -21.476094 30.484921 40.791653 -0.914664 0.726758 0.148798 -0.031020 -67539.500000 0 0 1
17.210291 -22.653194 30.979521 42.060576 -0.921098 0.742848 0.159615 -0.031952 282996.000000 0 0 1
17.175891 -22.925394 32.364590 43.220963 -0.927802 0.724521 0.141312 -0.026764 39016.500000 0 0 1
18.177591 -24.001494 32.861603 44.568840 -0.922606 0.741698 0.134090 -0.031492 -101262.000000 0 0 1
17.838791 -25.362034 32.527451 44.938740 -0.957815 0.761477 0.162233 -0.035787 28703.300000 0 0 1
18.484891 -26.245414 33.414361 46.336082 -0.957184 0.765364 0.159697 -0.039072 -70334.800000 0 0 1
18.019291 -27.687834 33.167804 46.812544 -0.993858 0.783392 0.145164 -0.031029 20180.400000 0 0 1
18.670491 -28.338594 32.110603 46.719953 -0.988234 0.813032 0.139711 -0.034470 -245067.000000 0 0 1
18.109791 -29.555874 31.780196 47.026536 -1.021069 0.828757 0.141169 -0.038430 14583.600000 0 0 1
18.894591 -30.352574 30.671171 47.106317 -1.013994 0.861757 0.129736 -0.034954 517629.000000 0 0 1
20.137191 -30.860594 31.132041 48.239887 -0.992651 0.869303 0.149632 -0.041137 100793.000000 0 0 1
20.843991 -31.420364 30.062511 48.223084 -0.985065 0.897706 0.126943 -0.031931 -1362820.000000 0 0 1
22.234191 -31.886464 30.381681 49.337130 -0.961890 0.907399 0.124081 -0.035594 -530321.000000 0 0 1
23.164691 -30.804114 30.493091 49.145956 -0.926017 0.901467 0.109431 -0.036129 -662896.000000 0 0 1
24.463591 -31.074144 30.843501 50.153677 -0.903869 0.908436 0.096143 -0.033347 -1057590.000000 0 0 1
25.334591 -29.845264 30.472951 49.610302 -0.866962 0.909366 0.082606 -0.031613 -508713.000000 0 0 1
26.641391 -30.225654 30.170421 50.334960 -0.848344 0.928054 0.079639 -0.034954 -498295.000000 0 0 1
27.432191 -29.158394 29.688241 49.841034 -0.815892 0.932711 0.066803 -0.028914 460664.000000 0 0 1
28.521891 -29.638694 28.681211 50.145412 -0.804598 0.961902 0.056074 -0.026488 963953.000000 0 0 1
29.623891 -30.390604 29.223501 51.528407 -0.798173 0.967775 0.047418 -0.026542 914543.000000 0 0 1
30.829391 -30.200334 28.502621 51.719541 -0.775091 0.987115 0.037338 -0.037808 670619.000000 0 0 1
32.056491 -31.060114 28.866941 53.156840 -0.769613 0.996729 0.023318 -0.035477 32021.400000 0 0 1
31.711691 -32.419764 28.637871 53.635810 -0.796439 1.007552 0.009322 -0.036197 176172.000000 0 0 1
32.718491 -33.407044 28.740861 54.886860 -0.795811 1.019680 0.029379 -0.034351 -264986.000000 0 0 1
31.958891 32.767000 29.246551 54.317656 0.797883 1.002217 0.019254 -0.027006 -257462.000000 0 0 1
31.588991 32.786531 30.591361 54.851183 0.803998 0.979165 0.039223 -0.027076 1023120.000000 0 0 1
30.511791 33.659785 31.038161 55.021068 0.834415 0.971436 0.040198 -0.024701 333732.000000 0 0 1
29.138691 33.632495 30.379571 53.880667 0.856866 0.971780 0.036404 -0.029475 -706840.000000 0 0 1
28.454491 32.371498 30.486041 52.791766 0.849706 0.955161 0.027232 -0.022226 75279.300000 0 0 1
27.056291 32.593700 30.429791 52.157112 0.877965 0.947856 0.049558 -0.025056 565211.000000 0 0 1
26.263791 31.229375 30.472511 50.927738 0.871553 0.929359 0.068620 -0.032484 207474.000000 0 0 1
26.355591 30.594095 29.200321 49.832465 0.859687 0.944720 0.050504 -0.029473 -126755.000000 0 0 1
25.625791 29.412205 29.167501 48.708337 0.854086 0.928770 0.084991 -0.043385 -292151.000000 0 0 1
25.265291 28.833965 27.785151 47.347091 0.851268 0.943646 0.090000 -0.050533 -548738.000000 0 0 1
24.269991 29.540245 27.087471 46.854985 0.883028 0.954382 0.129814 -0.052979 -173744.000000 0 0 1
23.764691 28.741805 26.038831 45.484861 0.879906 0.961278 0.118362 -0.048384 -341405.000000 0 0 1
22.336791 29.158345 25.682231 44.818727 0.917101 0.960605 0.153895 -0.042457 -428866.000000 0 0 1
22.227591 30.473235 25.236081 45.382195 0.940601 0.981136 0.134753 -0.049482 -592494.000000 0 0 1
20.865791 30.764425 25.130681 44.870727 0.974821 0.976328 0.126576 -0.041372 -504949.000000 0 0 1
20.602891 32.147377 24.487231 45.360307 1.000853 1.000551 0.142126 -0.042544 20572.300000 0 0 1
21.150191 32.285598 23.160711 45.012320 0.990846 1.030323 0.148380 -0.041098 -40017.700000 0 0 1
22.418791 32.883239 23.252411 46.093212 0.972411 1.042034 0.143103 -0.039043 -254920.000000 0 0 1
23.145691 33.077315 21.913411 45.935056 0.960241 1.073499 0.157257 -0.043885 -43290.500000 0 0 1
22.651691 -33.259544 21.201911 45.484255 -0.972896 1.085877 0.151963 -0.024715 99359.600000 0 0 1
23.344591 -33.093374 20.024711 45.178871 -0.956445 1.111596 0.174812 -0.030793 -334350.000000 0 0 1
22.921691 -31.863684 19.294811 43.737719 -0.947190 1.113919 0.147062 -0.030107 -204309.000000 0 0 1
23.143591 -30.640494 19.964211 43.278579 -0.923895 1.091342 0.142461 -0.021134 13845.000000 0 0 1
22.771891 -29.501354 19.185511 41.916259 -0.913430 1.095378 0.134571 -0.024561 -72352.600000 0 0 1
23.715691 -28.999004 18.057311 41.586569 -0.885289 1.121635 0.121930 -0.025042 -19701.800000 0 0 1
23.621291 -29.792184 16.865511 41.593089 -0.900419 1.153283 0.106776 -0.028950 299134.000000 0 0 1
24.397591 -29.204074 15.829711 41.215290 -0.874829 1.176592 0.082711 -0.029809 -85043.000000 0 0 1
23.936091 -29.617274 14.388211 40.707985 -0.891087 1.209540 0.056410 -0.031699 -120620.000000 0 0 1
24.324391 -30.916014 13.991111 41.751971 -0.904163 1.229084 0.114026 -0.039398 19791.000000 0 0 1
24.440691 -31.132194 12.600911 41.537259 -0.905231 1.262575 0.100518 -0.037234 393792.000000 0 0 1
23.067791 -31.094654 11.829411 40.483768 -0.932527 1.274269 0.086261 -0.035566 622995.000000 0 0 1
22.160891 -32.045984 12.377811 40.881052 -0.965775 1.263192 0.078698 -0.038465 309092.000000 0 0 1
20.903891 -32.048254 11.712711 40.015633 -0.992832 1.273744 0.057596 -0.028297 -93467.400000 0 0 1
19.808391 -32.835584 12.385611 40.298279 -1.027983 1.258391 0.057038 -0.022952 -563934.000000 0 0 1
19.314591 -32.297034 13.597211 40.012948 -1.031827 1.224071 0.060189 -0.014830 466417.000000 0 0 1
20.067991 -32.738944 14.747311 41.134486 -1.020895 1.204120 0.068288 -0.020742 -263666.000000 0 0 1
19.787991 -31.761914 15.928911 40.670800 -1.013629 1.168367 0.078660 -0.017403 819198.000000 0 0 1
18.458991 -31.571974 16.443811 40.098913 -1.041730 1.148253 0.093009 -0.024474 929281.000000 0 0 1
17.654991 -32.663374 16.915911 40.801259 -1.075266 1.143301 0.084386 -0.022132 87748.200000 0 0 1
18.103691 -33.329024 18.274111 42.101195 -1.073204 1.121811 0.060586 -0.024993 -145615.000000 0 0 1
18.986991 33.073376 17.996011 42.168832 1.049649 1.129888 0.057691 -0.018290 -202776.000000 0 0 1
19.400091 32.504518 19.249411 42.467011 1.032701 1.100356 0.063506 -0.019401 232094.000000 0 0 1
20.036391 31.107115 19.039311 41.612557 0.998573 1.095572 0.092546 -0.024675 -68007.600000 0 0 1
19.126091 30.046275 18.754211 40.253030 1.003931 1.086136 0.047406 -0.018875 -342664.000000 0 0 1
19.809791 28.888715 18.390911 39.562751 0.969713 1.087326 0.058732 -0.028576 -324042.000000 0 0 1
19.045291 27.556035 18.367711 38.202499 0.966036 1.069231 0.059125 -0.025216 -332076.000000 0 0 1
18.806491 26.982945 19.650411 38.313210 0.962102 1.032250 0.076889 -0.038807 -194401.000000 0 0 1
18.376691 25.677335 19.418811 37.069104 0.949626 1.019427 0.085910 -0.037684 -356719.000000 0 0 1
18.057391 24.794505 20.632911 36.966929 0.941340 0.978648 0.118742 -0.040917 150473.000000 0 0 1
16.818191 25.102555 21.234711 36.931054 0.980504 0.958214 0.121488 -0.040677 74155.600000 0 0 1
15.869791 24.058985 21.114011 35.727951 0.987688 0.938540 0.108157 -0.036903 814986.000000 0 0 1
14.453691 24.319345 21.744911 35.681660 1.034557 0.915475 0.130017 -0.051991 623372.000000 0 0 1
13.775091 25.367375 21.125511 35.770715 1.073325 0.939017 0.114154 -0.046932 -473247.000000 0 0 1
12.580891 25.677955 21.797511 35.955078 1.115222 0.919469 0.118132 -0.044589 -246103.000000 0 0 1
11.891191 26.957005 21.219111 36.308831 1.155354 0.946648 0.098280 -0.047274 -658130.000000 0 0 1
12.420591 28.135345 21.594411 37.579080 1.155068 0.958633 0.082020 -0.047055 -358849.000000 0 0 1
12.254291 28.941165 20.475611 37.510123 1.170264 0.993370 0.084536 -0.048477 -130491.000000 0 0 1
12.799291 30.374365 20.596611 38.867007 1.171992 1.012284 0.072033 -0.044013 -37186.300000 0 0 1
12.034091 31.258855 21.421511 39.759483 1.203303 1.001811 0.075064 -0.044871 51110.500000 0 0 1
12.572791 31.336555 22.734721 40.705310 1.189240 0.978196 0.088305 -0.046587 47513.000000 0 0 1
11.810991 32.330454 23.642411 41.757889 1.220538 0.968934 0.088315 -0.038483 269468.000000 0 0 1
10.539691 31.801620 23.978051 41.199211 1.250769 0.949607 0.067474 -0.041896 -154341.000000 0 0 1
10.324691 32.123038 25.314441 42.181865 1.259814 0.927137 0.069808 -0.041985 -940076.000000 0 0 1
8.945691 31.814862 25.904911 41.991371 1.296694 0.905985 0.171182 -0.055746 -1161790.000000 0 0 1
7.889091 32.660316 25.555831 42.214150 1.333787 0.920546 0.151185 -0.050247 27641.500000 0 0 1
7.301891 32.402792 24.276551 41.141336 1.349151 0.939642 0.153464 -0.061357 -77022.200000 0 0 1
6.263091 31.229605 24.260941 40.038828 1.372872 0.919855 0.142589 -0.046780 -296839.000000 0 0 1
6.902291 29.983745 24.530811 39.350060 1.344537 0.897713 0.121221 -0.041670 -258017.000000 0 0 1
6.084991 28.863065 24.260761 38.192776 1.363016 0.882505 0.119328 -0.034505 -686602.000000 0 0 1
6.829491 27.525845 24.315751 37.357326 1.327595 0.862032 0.116761 -0.037207 776996.000000 0 0 1
7.880691 27.277765 23.338801 36.754338 1.289549 0.882795 0.098651 -0.038681 2461370.000000 0 0 1
9.079191 28.127065 23.350371 37.667005 1.258563 0.902161 0.129748 -0.048357 1174460.000000 0 0 1
10.240291 27.793855 24.351691 38.345362 1.217792 0.882707 0.117907 -0.050730 -121256.000000 0 0 1
9.950691 27.938875 25.740931 39.270759 1.228645 0.855987 0.124777 -0.043701 376053.000000 0 0 1
11.055191 27.533085 26.534381 39.804037 1.188977 0.841124 0.121000 -0.020105 806443.000000 0 0 1
12.294891 28.478765 26.728601 40.946581 1.163246 0.859564 0.115333 -0.025418 178593.000000 0 0 1
12.041291 29.662615 27.422261 42.152625 1.185178 0.862492 0.106353 -0.037318 -138534.000000 0 0 1
13.142091 30.534815 27.493341 43.138999 1.164363 0.879781 0.095592 -0.032218 -344480.000000 0 0 1
12.937591 31.718155 28.496781 44.558828 1.183505 0.876907 0.080655 -0.036578 -60231.100000 0 0 1
12.700891 31.400595 29.829481 45.134332 1.186434 0.848773 0.077151 -0.048788 -399826.000000 0 0 1
11.355191 31.316385 30.180261 44.950022 1.222945 0.834676 0.118436 -0.041719 -625894.000000 0 0 1
11.344991 31.116265 31.683459 45.834183 1.221174 0.807561 0.119112 -0.037193 -68787.300000 0 0 1
11.641591 29.823885 32.186705 45.397960 1.198641 0.782731 0.114443 -0.036446 271710.000000 0 0 1
11.728691 29.724685 33.649921 46.405132 1.194973 0.759568 0.140699 -0.038309 -169077.000000 0 0 1
11.871191 28.293335 -33.095589 45.130433 1.173529 2.394006 0.155125 -0.042599 448160.000000 0 0 1
13.166791 27.737015 -33.354939 45.334957 1.127592 2.397561 0.160245 -0.029895 533039.000000 0 0 1
13.186691 26.350805 -32.985389 44.229963 1.106806 2.412487 0.175844 -0.037601 206303.000000 0 0 1
14.622391 25.798125 -33.202279 44.516838 1.055146 2.412586 0.214538 -0.035189 349674.000000 0 0 1
14.852791 24.406505 -33.184469 43.789175 1.024107 2.430767 0.187732 -0.036685 -104843.000000 0 0 1
14.755891 23.768325 -31.931739 42.453569 1.015207 2.422125 0.194557 -0.035764 -229330.000000 0 0 1
15.027691 22.227935 -32.006239 41.764960 0.976310 2.443924 0.171637 -0.057453 501461.000000 0 0 1
16.363791 21.884235 -32.372829 42.363822 0.928741 2.440538 0.181588 -0.040266 359938.000000 0 0 1
16.529791 20.492835 -32.436419 41.776926 0.892036 2.459761 0.181394 -0.042522 171602.000000 0 0 1
17.996991 20.084535 -32.689029 42.377504 0.840161 2.451798 0.215683 -0.057317 -447540.000000 0 0 1
18.908691 20.363135 -31.693149 42.150344 0.822417 2.421747 0.162621 -0.050156 -680637.000000 0 0 1
20.104391 19.717335 -32.061229 42.671797 0.775679 2.420894 0.166677 -0.050714 387227.000000 0 0 1
21.338291 20.173135 -31.171949 42.824857 0.757337 2.386042 0.116336 -0.035840 679066.000000 0 0 1
21.843591 21.478535 -31.453879 43.906906 0.776972 2.369391 0.067934 -0.034557 143012.000000 0 0 1
22.635691 22.135035 -30.446789 43.924267 0.774216 2.336668 0.022093 -0.015407 408249.000000 0 0 1
22.022091 22.339135 -29.011979 42.728262 0.792545 2.317180 0.029743 -0.019627 306914.000000 0 0 1
21.144591 23.467185 -28.939149 42.840131 0.837414 2.312459 0.024525 -0.004756 226762.000000 0 0 1
20.667091 23.885135 -27.664099 41.987268 0.857504 2.290110 0.041993 0.003706 -9138.690000 0 0 1
21.709091 24.488275 -26.662769 42.212125 0.845485 2.254460 0.035750 -0.009298 293548.000000 0 0 1
22.488491 25.559025 -27.149639 43.544217 0.849218 2.244002 0.039450 -0.003928 -204956.000000 0 0 1
21.742291 26.751985 -27.370129 44.017268 0.888338 2.241841 0.052439 -0.004871 -479699.000000 0 0 1
22.492491 27.794965 -28.220169 45.550523 0.890453 2.238947 0.046459 -0.005244 -434454.000000 0 0 1
22.533091 27.663545 -29.646529 46.388884 0.887252 2.264107 0.054550 -0.005603 219935.000000 0 0 1
23.175591 26.543985 -30.280499 46.460733 0.853043 2.280678 0.044183 -0.002841 1042550.000000 0 0 1
24.632391 26.120765 -29.829489 46.678126 0.814715 2.264054 0.064380 -0.012590 26078.100000 0 0 1
25.548091 27.104385 -30.057549 47.862395 0.814947 2.249776 0.067455 -0.014145 -1041940.000000 0 0 1
26.836991 26.658995 -29.749669 48.124514 0.782071 2.237223 0.103516 -0.025595 -1110650.000000 0 0 1
27.981991 27.552045 -30.075309 49.463433 0.777656 2.224375 0.117352 -0.020800 -1060610.000000 0 0 1
28.191091 28.665765 -29.220269 49.701990 0.793747 2.199268 0.104509 -0.015210 70585.100000 0 0 1
29.228291 29.510955 -29.676589 51.047912 0.790210 2.191180 0.107362 -0.018511 136408.000000 0 0 1
29.429091 30.611785 -28.609619 51.202178 0.805094 2.163684 0.110379 -0.018397 35204.900000 0 0 1
29.866091 30.087375 -27.360889 50.456434 0.789089 2.143930 0.134153 -0.024786 245762.000000 0 0 1
29.067091 30.664095 -26.362419 49.801201 0.812128 2.128634 0.126123 -0.018385 101973.000000 0 0 1
29.715091 30.590225 -24.954189 49.411133 0.799909 2.100215 0.149178 -0.024325 -308807.000000 0 0 1
30.118491 29.315445 -24.430589 48.614529 0.771887 2.097327 0.129906 -0.023507 587765.000000 0 0 1
29.020591 28.514875 -23.967989 47.220306 0.776609 2.103168 0.140898 -0.034022 200440.000000 0 0 1
28.200391 29.017155 -22.800289 46.444704 0.799672 2.083933 0.131377 -0.024771 -231115.000000 0 0 1
27.343891 30.119235 -23.007889 46.735635 0.833658 2.085525 0.163060 -0.032395 -189253.000000 0 0 1
26.237391 30.135225 -22.159889 45.690186 0.854432 2.077163 0.117748 -0.019301 -98911.000000 0 0 1
4.136191 -25.745364 -18.977189 32.250047 -1.411500 2.199923 0.098008 -0.006580 -302875.000000 0 0 1
4.162591 -26.951374 -18.216689 32.795602 -1.417559 2.159714 0.112547 -0.007107 254431.000000 0 0 1
3.490291 -26.839814 -16.958289 31.939651 -1.441480 2.130515 0.109407 -0.012096 -42252.300000 0 0 1
3.655991 -28.111514 -16.069689 32.586169 -1.441469 2.086497 0.095702 -0.008993 1108800.000000 0 0 1
4.983191 -28.276984 -15.514689 32.636262 -1.396360 2.066194 0.081711 -0.015362 909087.000000 0 0 1
4.968291 -29.358954 -14.576289 33.152682 -1.403159 2.026029 0.084384 -0.018564 1236280.000000 0 0 1
6.416591 -29.923854 -14.257389 33.762151 -1.359564 2.006765 0.108072 -0.025169 1177530.000000 0 0 1
7.270591 -29.030704 -13.514789 32.837369 -1.325399 1.994969 0.094308 -0.014341 -86512.200000 0 0 1
8.584591 -29.549994 -13.618589 33.650607 -1.288068 1.987453 0.101666 -0.025068 75866.500000 0 0 1
9.139191 -30.281274 -12.393889 33.971884 -1.277680 1.944244 0.089601 -0.032480 -774844.000000 0 0 1
9.475391 -29.431854 -11.356789 32.939243 -1.259332 1.922801 0.084924 -0.036529 -147074.000000 0 0 1
9.490891 -30.015344 -10.065389 33.050113 -1.264543 1.880262 0.086679 -0.032919 163289.000000 0 0 1
10.686691 -30.930064 -9.685989 34.127593 -1.238126 1.858569 0.083144 -0.029718 856505.000000 0 0 1
11.927591 -30.269434 -9.405889 33.867046 -1.195432 1.852226 0.083620 -0.024359 662925.000000 0 0 1
12.987491 -31.175514 -9.225489 35.009959 -1.176068 1.837456 0.096342 -0.027990 1175400.000000 0 0 1
14.334391 -30.638624 -8.588589 34.899340 -1.133195 1.819447 0.106402 -0.030486 1030110.000000 0 0 1
15.220791 -29.824154 -9.337589 34.761232 -1.098902 1.842757 0.097581 -0.039564 790891.000000 0 0 1
16.364291 -29.588604 -8.489389 34.861802 -1.065606 1.816785 0.096943 -0.036900 438259.000000 0 0 1
17.567491 -28.951444 -9.208489 35.094147 -1.025398 1.836298 0.098073 -0.042770 -69637.200000 0 0 1
17.466191 -27.529184 -9.420689 33.936311 -1.005423 1.852090 0.095693 -0.040437 107265.000000 0 0 1
16.775491 -27.124844 -10.591789 33.605956 -1.016918 1.891438 0.093976 -0.038107 -106579.000000 0 0 1
16.327091 -25.624344 -10.684089 32.207618 -1.003493 1.908928 0.100662 -0.036718 -903974.000000 0 0 1
15.222091 -25.274764 -9.910589 31.124677 -1.028713 1.894854 0.086123 -0.035740 -178586.000000 0 0 1
14.631691 -24.022694 -10.155189 29.904917 -1.023729 1.917269 0.065620 -0.023397 219404.000000 0 0 1
14.068591 -23.668994 -11.553489 29.860168 -1.034513 1.968085 0.058876 -0.019266 144951.000000 0 0 1
15.124391 -23.292694 -12.428989 30.426577 -0.994900 1.991597 0.055859 -0.023100 185185.000000 0 0 1
14.546291 -23.245294 -13.720889 30.662699 -1.011641 2.034740 0.077744 -0.029280 158892.000000 0 0 1
15.284591 -22.568894 -14.880189 31.054689 -0.975508 2.070495 0.055142 -0.039605 369907.000000 0 0 1
16.360091 -23.306894 -15.474689 32.408794 -0.958768 2.068586 0.055723 -0.039532 554141.000000 0 0 1
16.792691 -22.793794 -16.741289 32.891067 -0.935847 2.104810 0.052427 -0.036645 -444710.000000 0 0 1
17.675191 -23.847994 -17.488489 34.452670 -0.932977 2.103204 0.057429 -0.038829 272249.000000 0 0 1
19.003191 -24.067894 -17.108789 35.115459 -0.902450 2.079694 0.089486 -0.047596 -571432.000000 0 0 1
19.911891 -23.024994 -17.354789 35.040298 -0.857776 2.088954 0.097318 -0.053163 252655.000000 0 0 1
21.353291 -23.441094 -16.846589 35.906204 -0.831973 2.059162 0.089813 -0.053170 954473.000000 0 0 1
21.885291 -24.423394 -17.739189 37.284675 -0.840152 2.066643 0.121709 -0.054580 -502418.000000 0 0 1
23.225491 -24.684594 -17.413789 38.105022 -0.815844 2.045410 0.150128 -0.040571 194571.000000 0 0 1
23.962891 -25.658884 -18.417589 39.646010 -0.819563 2.053924 0.178753 -0.037269 -78533.600000 0 0 1
24.431891 -24.978794 -19.534989 40.030904 -0.796466 2.080591 0.183694 -0.037066 8301.370000 0 0 1
25.518591 -25.630754 -20.156689 41.405630 -0.787591 2.079231 0.168778 -0.033218 518410.000000 0 0 1
26.908791 -24.944594 -20.159989 41.865749 -0.747536 2.073206 0.153002 -0.056641 129714.000000 0 0 1
27.104291 -23.788194 -20.988889 41.725942 -0.720331 2.097883 0.150494 -0.048349 -136354.000000 0 0 1
26.765091 -22.573494 -20.365589 40.505431 -0.700646 2.097616 0.151623 -0.037544 -944656.000000 0 0 1
25.337391 -22.092994 -20.548189 39.399389 -0.717101 2.119446 0.184302 -0.048419 -886108.000000 0 0 1
25.108591 -21.574394 -21.869189 39.675651 -0.709836 2.154597 0.158983 -0.043079 -70526.300000 0 0 1
24.665291 -22.524394 -22.779389 40.430502 -0.740061 2.169317 0.116507 -0.038018 -573021.000000 0 0 1
24.210591 -21.992294 -24.147289 40.655938 -0.737423 2.206747 0.089566 -0.035662 254834.000000 0 0 1
25.167991 -21.309694 -24.928289 41.339454 -0.702574 2.218071 0.086017 -0.021559 -27760.700000 0 0 1
24.389891 -20.597294 -25.847769 41.075814 -0.701293 2.251410 0.065353 -0.014847 -44619.700000 0 0 1
25.179091 -19.940794 -26.996139 41.957281 -0.669818 2.269753 0.073082 -0.013578 -358878.000000 0 0 1
24.628991 -18.830294 -27.640399 41.535031 -0.652753 2.298922 0.061875 -0.005764 -371580.000000 0 0 1
25.413891 -18.491294 -28.720649 42.575456 -0.629014 2.311195 0.081122 -0.008720 -314428.000000 0 0 1
24.797491 -17.336694 -29.546599 42.290401 -0.610142 2.344319 0.121704 -0.015659 105687.000000 0 0 1
23.600691 -17.716894 -30.183299 42.212705 -0.643945 2.367462 0.119991 -0.015325 261046.000000 0 0 1
22.719091 -16.697694 -30.664539 41.656741 -0.633808 2.398123 0.135772 -0.020700 -238247.000000 0 0 1
21.397491 -17.345794 -31.017859 41.482970 -0.681199 2.415426 0.109041 -0.021006 -780413.000000 0 0 1
21.476891 -18.106194 -32.226009 42.750518 -0.700448 2.424646 0.107614 -0.019548 688492.000000 0 0 1
20.195391 -18.603294 -32.643329 42.655871 -0.744386 2.442260 0.134480 -0.031063 635197.000000 0 0 1
20.382291 -19.451594 33.374781 43.676977 -0.762038 0.701109 0.148244 -0.027097 -10615.900000 0 0 1
21.083191 -20.665194 33.590351 44.719826 -0.775386 0.721026 0.149619 -0.027626 63977.400000 0 0 1
21.292291 -21.478094 32.490744 44.388271 -0.789742 0.749592 0.144638 -0.030094 273058.000000 0 0 1
22.125191 -22.769194 32.825047 45.666662 -0.799742 0.768726 0.125767 -0.024905 276436.000000 0 0 1
21.408691 -23.695794 33.630401 46.377005 -0.836062 0.759540 0.144300 -0.023623 85138.300000 0 0 1
21.589191 -23.499594 -32.281629 45.391934 -0.827743 2.361965 0.149670 -0.027978 -326393.000000 0 0 1
20.611091 -24.311494 -31.439079 44.769203 -0.867586 2.349346 0.155038 -0.031920 -450085.000000 0 0 1
20.783991 -25.723174 -31.395639 45.599804 -0.891204 2.330220 0.144341 -0.038781 102465.000000 0 0 1
21.888691 -26.156504 -30.616629 45.832908 -0.873995 2.302321 0.121135 -0.045130 134440.000000 0 0 1
21.956291 -27.698424 -30.609409 46.757003 -0.900528 2.284514 0.126954 -0.053540 -655997.000000 0 0 1
20.731291 -28.236654 -30.263929 46.292553 -0.937486 2.283331 0.124482 -0.049204 -839660.000000 0 0 1
20.748091 -29.664924 -30.144549 47.108225 -0.960463 2.265164 0.122242 -0.046956 -824746.000000 0 0 1
19.494691 -30.342204 -29.537539 46.617149 -0.999716 2.257019 0.143335 -0.052054 103916.000000 0 0 1
18.304391 -30.265064 -30.289679 46.567043 -1.026853 2.278977 0.157511 -0.056311 -197855.000000 0 0 1
18.360391 -30.736344 -31.657869 47.791709 -1.032327 2.294832 0.158539 -0.056292 -2010460.000000 0 0 1
17.116691 -31.400544 -32.181759 48.110715 -1.071717 2.303538 0.154237 -0.058618 -1066550.000000 0 0 1
16.084391 -30.494974 -32.385879 47.302180 -1.085435 2.324933 0.153055 -0.053936 -440841.000000 0 0 1
14.962091 -31.119304 -32.991289 47.756679 -1.122628 2.333419 0.117104 -0.042482 287027.000000 0 0 1
13.999991 -30.075924 -33.622909 47.234108 -1.135137 2.362904 0.106898 -0.024244 -3423.400000 0 0 1
13.179891 -29.401804 -32.705229 45.910866 -1.149384 2.363657 0.123751 -0.030106 -556009.000000 0 0 1
12.200191 -28.731554 -33.430709 45.737940 -1.169242 2.390463 0.119448 -0.033573 -283747.000000 0 0 1
11.153391 -28.013614 -32.565089 44.380691 -1.191893 2.394646 0.137674 -0.045106 784177.000000 0 0 1
10.191191 -28.830034 -31.830739 44.138727 -1.231014 2.376260 0.123971 -0.032539 285200.000000 0 0 1
9.452191 -28.064114 -30.914179 42.809168 -1.245923 2.377686 0.085081 -0.036183 210702.000000 0 0 1
8.395891 -29.019124 -30.230919 42.737677 -1.289164 2.356553 0.063643 -0.031325 898532.000000 0 0 1
7.246491 -29.375804 -31.040939 43.347311 -1.328943 2.368993 0.059246 -0.031042 799612.000000 0 0 1
7.518191 -30.406844 -31.949339 44.742146 -1.328405 2.366101 0.065164 -0.029108 117113.000000 0 0 1
6.143991 -31.050294 -32.300839 45.224038 -1.375448 2.366335 0.111801 -0.049409 855101.000000 0 0 1
5.520191 -31.670994 -31.148139 44.763053 -1.398232 2.340392 0.123899 -0.065368 24568.700000 0 0 1
4.292591 -32.291884 -31.439809 45.273101 -1.438640 2.338449 0.154037 -0.085324 -1040350.000000 0 0 1
3.427291 -32.512654 -30.149049 44.472285 -1.465770 2.315738 0.123819 -0.083925 -51870.100000 0 0 1
2.305691 -31.666944 -30.064789 43.726458 -1.498114 2.328927 0.118976 -0.074840 -125270.000000 0 0 1
1.198291 -32.061624 -30.846019 44.506859 -1.533439 2.336525 0.114348 -0.047077 -536372.000000 0 0 1
0.060791 -30.998584 -30.719309 43.641630 -1.568835 2.351669 0.098040 -0.033758 9601.810000 0 0 1
-0.648609 -31.031534 -29.498109 42.819566 1.549898 2.330757 0.081696 -0.042787 -80205.100000 0 0 1
-1.048909 -29.769284 -29.067169 41.619837 1.535576 2.343952 0.154569 -0.043435 394619.000000 0 0 1
-1.870009 -29.729924 -27.751959 40.712855 1.507979 2.320813 0.174317 -0.050875 707098.000000 0 0 1
-0.924409 -29.575714 -26.690569 39.849265 1.539551 2.304720 0.131278 -0.043767 606640.000000 0 0 1
-1.593409 -29.472904 -25.438779 38.965658 1.516785 2.282139 0.166482 -0.057767 293185.000000 0 0 1
-0.646109 -29.780504 -24.250889 38.410956 1.549104 2.254094 0.111949 -0.056651 310186.000000 0 0 1
-1.332709 -29.819614 -23.021989 37.696120 1.526134 2.227773 0.190052 -0.062071 27525.800000 0 0 1
-0.440909 -30.340534 -22.066189 37.518784 1.556265 2.199550 0.146815 -0.057511 324374.000000 0 0 1
-1.030109 -30.289344 -20.605889 36.648440 1.536800 2.167910 0.106478 -0.033812 -23802.400000 0 0 1
-1.087509 -29.028984 -19.937989 35.233337 1.533351 2.172302 0.084631 -0.021690 48192.500000 0 0 1
0.205291 -28.567804 -19.613589 34.653347 -1.563610 2.172435 0.086872 -0.025513 42950.900000 0 0 1
0.259391 -27.195114 -18.943289 33.143472 -1.561258 2.179195 0.088428 -0.023239 -58402.600000 0 0 1
-0.407509 -27.120884 -17.687889 32.381628 1.555772 2.148656 0.081485 -0.020197 216619.000000 0 0 1
-0.213309 -25.883264 -17.058189 30.999527 1.562555 2.153487 0.079684 -0.017038 207571.000000 0 0 1
-1.310409 -25.700834 -15.956889 30.279900 1.519853 2.125839 0.056367 -0.017236 203008.000000 0 0 1
-1.289109 -24.443094 -15.296689 28.863738 1.518106 2.129352 0.036121 -0.016256 -13724.200000 0 0 1
-2.242509 -24.473694 -14.251389 28.409376 1.479422 2.096294 0.046172 -0.013948 58235.400000 0 0 1
-2.154109 -23.276494 -13.306289 26.897820 1.478515 2.088283 0.041562 -0.008804 1201790.000000 0 0 1
-0.950409 -23.295794 -12.480189 26.445272 1.530021 2.062269 0.047989 -0.020313 619909.000000 0 0 1
-1.286309 -22.752694 -11.224889 25.403500 1.514322 2.028472 0.068188 -0.014201 28183.100000 0 0 1
-0.107609 -22.508694 -10.254489 24.734742 1.566016 1.998276 0.065599 -0.025072 -315508.000000 0 1 0
0.621191 -21.386894 -10.629089 23.890640 -1.541759 2.031866 0.067523 -0.014686 -1206940.000000 0 1 0
1.931691 -21.554994 -10.201889 23.925462 -1.481418 2.011309 0.057238 -0.007391 -735698.000000 0 1 0
2.498291 -20.267394 -9.689289 22.602899 -1.448149 2.013822 0.068258 -0.016493 -951845.000000 0 1 0
2.781891 -19.334594 -10.692689 22.268791 -1.427896 2.071639 0.067019 -0.015898 333609.000000 0 1 0
3.453591 -18.118394 -10.258989 21.105695 -1.382443 2.078391 0.044093 -0.020237 -105372.000000 0 1 0
4.921691 -18.230294 -9.848389 21.296888 -1.307109 2.051534 0.068400 -0.040021 -727309.000000 0 1 0
5.042491 -18.899894 -8.616489 21.374672 -1.310070 1.985716 0.064970 -0.029576 888262.000000 0 1 0
6.299191 -19.594994 -8.429689 22.241926 -1.259761 1.959512 0.078385 -0.027721 819415.000000 0 1 0
6.090091 -20.671294 -7.378289 22.777857 -1.284286 1.900670 0.075235 -0.032825 210455.000000 0 1 0
5.085791 -21.605794 -7.783389 23.521411 -1.339615 1.908060 0.087662 -0.038706 553507.000000 0 1 0
5.173891 -22.666894 -6.857789 24.240184 -1.346383 1.857623 0.103355 -0.036929 -252846.000000 0 1 0
4.136191 -23.712994 -7.160489 25.113478 -1.398107 1.859934 0.097503 -0.030802 12358.800000 0 0 1
4.611791 -24.341994 -8.375589 26.152472 -1.383557 1.896800 0.109027 -0.031496 613663.000000 0 0 1
3.671991 -25.308644 -8.801689 27.045900 -1.426713 1.902268 0.100622 -0.028141 288283.000000 0 0 1
4.284291 -26.208974 -9.908489 28.345081 -1.408763 1.927905 0.083345 -0.024330 271402.000000 0 0 1
5.276791 -27.117934 -9.457489 29.200531 -1.378611 1.900625 0.103187 -0.036369 120997.000000 0 0 1
5.920291 -27.757844 -10.544689 30.277685 -1.360661 1.926517 0.126531 -0.031980 117490.000000 0 0 1
5.752591 -29.277004 -10.598689 31.663346 -1.376780 1.912116 0.111294 -0.037446 -474891.000000 0 0 1
4.566091 -29.660894 -11.233889 32.044003 -1.418052 1.928983 0.107461 -0.034510 -359751.000000 0 0 1
4.462691 -31.012794 -11.135189 33.252090 -1.427879 1.912266 0.119359 -0.036633 65879.700000 0 0 1
3.002491 -31.492814 -11.337989 33.605986 -1.475745 1.914929 0.116518 -0.043310 -119633.000000 0 0 1
2.580691 -31.292784 -12.637389 33.846742 -1.488513 1.953436 0.113752 -0.046095 73391.400000 0 0 1
1.633491 -32.317724 -12.871789 34.825085 -1.520295 1.949388 0.111975 -0.038607 -166296.000000 0 0 1
1.191191 -32.461614 -14.385989 35.526497 -1.534117 1.987706 0.119832 -0.025973 146590.000000 0 0 1
0.249291 -31.461934 -14.750889 34.749161 -1.562873 2.009202 0.103218 -0.028726 81208.400000 0 0 1
-0.023809 -31.604004 -16.132589 35.483434 1.570043 2.042777 0.090225 -0.024597 -139560.000000 0 0 1
-1.145709 -30.716364 -16.684589 34.974036 1.533514 2.068099 0.098155 -0.023397 369266.000000 0 0 1
-2.428709 -31.055744 -16.177089 35.100657 1.492750 2.049780 0.118637 -0.031731 316139.000000 0 0 1
-3.494509 -30.533994 -16.948889 35.097026 1.456846 2.074777 0.114265 -0.024998 681584.000000 0 0 1
-4.911609 -30.564704 -16.312589 34.991794 1.411463 2.055768 0.118841 -0.024762 290791.000000 0 0 1
-5.063609 -29.598084 -15.309189 33.705460 1.401358 2.042276 0.101069 -0.021037 194470.000000 0 0 1
-6.358609 -28.998744 -15.430089 33.458134 1.354941 2.050116 0.103901 -0.029201 764700.000000 0 0 1
-7.323609 -29.494834 -14.281989 33.579096 1.327417 2.010116 0.103699 -0.030199 49372.100000 0 0 1
-7.757609 -30.818994 -14.493189 34.929120 1.324204 1.998664 0.120047 -0.036197 -225732.000000 0 0 1
-8.459609 -31.319834 -13.387089 35.095743 1.306988 1.962155 0.113298 -0.033992 3802.250000 0 0 1
-8.905709 -32.791424 -13.633689 36.612384 1.305606 1.952368 0.145128 -0.053154 511146.000000 0 0 1
-7.872109 33.675905 -13.634989 37.174582 -1.341159 1.946345 0.156977 -0.052058 326858.000000 0 0 1
-8.485609 32.512085 -14.078989 36.431568 -1.315493 1.967576 0.186327 -0.057281 -186.371000 0 0 1
-8.529809 -22.226194 -3.107489 24.008704 1.204357 1.700592 0.136391 -0.035629 109752.000000 0 1 0
-8.225409 -21.161194 -3.986389 23.050918 1.200067 1.744609 0.099857 -0.025668 -156871.000000 0 1 0
-6.906009 -21.222694 -4.479289 22.763123 1.256197 1.768867 0.100045 -0.024632 173633.000000 0 1 0
-6.660009 -20.139894 -5.531389 21.921846 1.251429 1.825877 0.096235 -0.028679 130613.000000 0 1 0
-7.540409 -20.186294 -6.632889 22.546385 1.213305 1.869403 0.089664 -0.029009 -5944.110000 0 1 0
-7.072309 -19.250694 -7.624989 21.880294 1.218723 1.926752 0.051353 -0.019910 -12286.900000 0 1 0
-7.753309 -19.334394 -8.980489 22.684395 1.189419 1.977831 0.047522 -0.026753 77460.200000 0 1 0
-7.282009 -20.367394 -9.815489 23.752942 1.227427 1.996797 0.062694 -0.017008 451074.000000 0 1 0
-8.239509 -20.505194 -10.884889 24.633987 1.188717 2.028473 0.086522 -0.014663 692713.000000 0 1 0
-7.633909 -21.361594 -12.014889 25.670057 1.227574 2.057880 0.077167 -0.011986 -323208.000000 0 0 1
-6.588109 -20.765294 -12.731789 25.232897 1.263576 2.099681 0.070204 0.001330 -304380.000000 0 0 1
-6.225109 -21.575794 -13.857589 26.387491 1.289902 2.123697 0.047807 -0.003391 -228591.000000 0 0 1
-5.375009 -20.884994 -14.891789 26.207615 1.318901 2.175142 0.024324 0.009803 -562007.000000 0 0 1
-4.053609 -20.674194 -14.464689 25.555455 1.377182 2.172456 0.026545 -0.002386 -102379.000000 0 0 1
-3.156609 -20.054994 -15.394289 25.478444 1.414679 2.219568 0.059217 -0.001558 507157.000000 0 0 1
-3.466109 -18.521694 -15.637389 24.486629 1.385798 2.263486 0.074154 0.003121 75685.900000 0 1 0
-4.764109 -18.196494 -16.165189 24.801663 1.314729 2.280723 0.068399 0.008039 447003.000000 0 1 0
-4.843509 -18.114094 -17.527289 25.666824 1.309520 2.322490 0.077881 -0.005596 14112.500000 0 0 1
-6.310209 -18.053894 -18.027489 26.282165 1.234549 2.326665 0.062373 0.001383 279124.000000 0 0 1
-7.055309 -19.185094 -17.576389 26.958759 1.218397 2.280980 0.048620 -0.002503 1005670.000000 0 0 1
-8.367009 -19.170294 -18.210789 27.733371 1.159262 2.287149 0.032948 0.003441 1271120.000000 0 0 1
-9.221309 -20.355794 -17.689089 28.500785 1.145445 2.240371 0.072891 -0.017966 -170855.000000 0 0 1
-8.667809 -21.623294 -18.049089 29.469771 1.189553 2.229967 0.094066 -0.016785 288490.000000 0 0 1
-9.556309 -22.694994 -17.867589 30.424276 1.172254 2.198491 0.131384 -0.011767 -12322.700000 0 0 1
-9.051209 -23.984494 -18.580289 31.660820 1.209943 2.197965 0.152524 -0.026053 -451497.000000 0 0 1
-9.117109 -23.915494 -19.998289 32.480827 1.206582 2.234064 0.143321 -0.028369 -158874.000000 0 0 1
-8.332509 -24.777094 -20.735189 33.365898 1.246379 2.241387 0.169502 -0.052769 1384790.000000 0 0 1
-6.744409 -24.577894 -20.811489 32.904073 1.302979 2.255560 0.135653 -0.037662 1263710.000000 0 0 1
-6.306609 -23.406794 -21.439089 32.361797 1.307611 2.294923 0.162212 -0.058982 62284.200000 0 0 1
-6.157109 -22.206694 -20.720589 30.990161 1.300327 2.303145 0.121554 -0.051149 -126166.000000 0 0 1
-5.290209 -22.235694 -19.384189 29.969304 1.337224 2.274179 0.118492 -0.025694 94294.900000 0 0 1
-3.915709 -22.333794 -19.694389 30.033317 1.397234 2.285974 0.123073 -0.039974 -408323.000000 0 0 1
-3.248909 -22.222394 -18.439189 29.058457 1.425625 2.258229 0.071601 -0.037790 880231.000000 0 0 1
-1.784009 -22.807294 -18.509289 29.427014 1.492734 2.251049 0.117248 -0.038536 1541940.000000 0 0 1
-0.894109 -22.008294 -19.337789 29.310656 1.530193 2.291286 0.164469 -0.038640 44094.700000 0 0 1
0.455991 -22.393694 -19.222689 29.516051 -1.550437 2.280043 0.111789 -0.037753 564910.000000 0 0 1
1.445691 -21.477494 -20.023589 29.399267 -1.503586 2.320049 0.120636 -0.035098 403092.000000 0 0 1
1.316391 -21.679794 -21.417589 30.503434 -1.510151 2.349191 0.115556 -0.040994 -11381.500000 0 0 1
2.338291 -21.041594 -22.186089 30.666575 -1.460123 2.379600 0.123556 -0.038820 187029.000000 0 0 1
1.942491 -21.041694 -23.689089 31.744277 -1.478741 2.413203 0.146938 -0.046231 454749.000000 0 0 1
1.154691 -19.958194 -24.190689 31.382356 -1.513005 2.450951 0.144162 -0.050004 896255.000000 0 0 1
-0.253609 -19.977594 -23.868389 31.126654 1.558102 2.444661 0.140141 -0.044860 722957.000000 0 0 1
-1.046409 -18.928394 -24.653889 31.099732 1.515570 2.486081 0.144789 -0.048461 -43868.100000 0 0 1
-0.684309 -17.596594 -24.278389 29.992475 1.531927 2.514067 0.116289 -0.041353 -198545.000000 0 0 1
-1.364109 -16.590394 -25.016589 30.048822 1.488758 2.554458 0.155064 -0.047964 74820.800000 0 0 1
-0.913909 -15.164194 -24.702189 28.999761 1.510602 2.590221 0.139832 -0.035463 -490528.000000 0 0 1
0.424391 -14.946794 -25.010189 29.139257 -1.542411 2.602741 0.138563 -0.039222 -809720.000000 0 0 1
0.998091 -13.728894 -24.510689 28.111432 -1.498224 2.629889 0.126542 -0.038580 466118.000000 0 0 1
0.647991 -12.412794 -25.338769 28.223227 -1.518640 2.685541 0.123389 -0.026366 146319.000000 0 0 1
1.479791 -11.311594 -24.991089 27.471740 -1.440714 2.713362 0.105651 -0.026402 182096.000000 0 0 1
1.104791 -10.192594 -25.724969 27.692663 -1.462826 2.762350 0.098923 -0.025310 -446550.000000 0 0 1
1.857891 -8.871094 -25.423049 26.990359 -1.364348 2.799131 0.105550 -0.026000 720809.000000 0 0 1
3.246891 -8.790894 -25.759519 27.411219 -1.216991 2.792676 0.101410 -0.031852 677715.000000 0 0 1
3.685791 -8.936594 -27.139979 28.810176 -1.179614 2.799419 0.099891 -0.031457 174914.000000 0 0 1
5.170791 -8.723294 -27.551449 29.358394 -1.035720 2.788918 0.103906 -0.031031 -241669.000000 0 0 1
5.352091 -7.395894 -27.921849 29.376415 -0.944369 2.825590 0.098185 -0.034447 134130.000000 0 0 1
6.658291 -6.967894 -28.260669 29.858831 -0.808115 2.812934 0.086982 -0.025031 -386973.000000 0 0 1
7.735891 -6.974194 -27.128919 29.059622 -0.733664 2.775018 0.102543 -0.024071 -44742.800000 0 0 1
8.385891 -8.237894 -26.874179 29.332705 -0.776496 2.729251 0.077755 -0.027998 511450.000000 0 0 1
9.189391 -8.722194 -27.942529 30.680719 -0.759321 2.715898 0.076323 -0.031469 -806162.000000 0 0 1
9.748691 -10.084594 -27.518219 30.886703 -0.802333 2.670209 0.080523 -0.022038 -10179.000000 0 0 1
8.716391 -11.046194 -27.282049 30.696972 -0.902746 2.665416 0.089220 -0.032735 320783.000000 0 0 1
9.038391 -12.085894 -26.406489 30.414865 -0.928675 2.622380 0.093271 -0.032965 341369.000000 0 0 1
10.001691 -13.233294 -26.929099 31.627998 -0.923595 2.589507 0.090547 -0.041154 308147.000000 0 0 1
9.420891 -14.007294 -27.956789 32.657917 -0.978718 2.598374 0.110011 -0.048077 -550838.000000 0 0 1
10.273791 -15.020894 -28.393309 33.724739 -0.970912 2.571616 0.093296 -0.049511 -294640.000000 0 0 1
9.751291 -15.901094 -29.539029 34.935465 -1.020694 2.578356 0.102765 -0.051169 -235860.000000 0 0 1
9.997391 -15.173194 -30.721939 35.693293 -0.988200 2.607479 0.107651 -0.047490 510384.000000 0 0 1
9.199791 -15.595194 -31.830089 36.619678 -1.037828 2.624393 0.126858 -0.045114 -392291.000000 0 0 1
7.742691 -15.160394 -31.986559 36.234331 -1.098611 2.652521 0.143379 -0.047258 -472255.000000 0 0 1
7.645391 -13.946094 -32.760389 36.416873 -1.069328 2.689635 0.151656 -0.042344 101751.000000 0 0 1
6.364791 -13.568494 -33.228089 36.451619 -1.132184 2.717875 0.156862 -0.066835 205815.000000 0 0 1
6.480291 -12.244694 33.354441 36.117107 -1.084037 0.393669 0.182492 -0.052785 -654.778000 0 0 1
7.013291 -12.436194 32.059119 35.094619 -1.057312 0.418978 0.178452 -0.041667 236260.000000 0 0 1
6.964691 -11.159494 31.325487 33.975393 -1.012841 0.397569 0.189829 -0.053359 -186895.000000 0 0 1
7.281191 -11.140194 29.797081 32.634119 -0.991897 0.420058 0.204179 -0.051292 -40707.400000 0 0 1
6.223791 -11.681594 29.052181 31.925295 -1.081265 0.427500 0.181257 -0.037379 415245.000000 0 0 1
6.665291 -11.705594 27.680511 30.784050 -1.053173 0.452896 0.159144 -0.046475 350621.000000 0 0 1
5.672491 -12.564994 26.866651 30.197238 -1.146736 0.474096 0.128046 -0.045975 -455579.000000 0 0 1
5.907091 -13.955294 26.978241 30.943003 -1.170378 0.511791 0.119539 -0.040874 -64740.600000 0 0 1
5.449891 -14.806894 25.932861 30.355538 -1.218120 0.546586 0.054085 -0.030778 -1405980.000000 0 0 1
3.962091 -15.053494 25.897281 30.215476 -1.313433 0.541209 0.058940 -0.042333 -1483080.000000 0 0 1
3.212591 -14.005994 25.400081 29.183090 -1.345324 0.514843 0.055881 -0.045135 -206349.000000 0 0 1
2.050491 -14.514794 24.740871 28.757511 -1.430456 0.534885 0.048320 -0.039493 -34621.000000 0 0 1
1.107391 -13.395694 24.359391 27.821770 -1.488316 0.504220 0.067529 -0.038492 -1052080.000000 0 0 1
1.655891 -12.485594 23.423101 26.594618 -1.438942 0.493361 0.026434 -0.022951 -98591.100000 0 0 1
0.832691 -11.353994 23.144281 25.792718 -1.497588 0.457140 0.025703 -0.017546 30144.100000 0 0 1
-0.495909 -11.684694 22.461001 25.323400 1.528381 0.480062 0.054592 -0.023774 -663930.000000 0 0 1
-0.289709 -12.381294 21.238111 24.585315 1.547402 0.527926 0.059229 -0.021811 -225445.000000 0 1 0
-1.510009 -12.776294 20.662311 24.340191 1.453154 0.556902 0.077804 -0.043202 -54333.700000 0 1 0
-1.327709 -13.376394 19.267611 23.493224 1.471863 0.609150 0.108570 -0.047842 -166501.000000 0 1 0
-0.650109 -14.635294 19.208011 24.157031 1.526405 0.651572 0.127127 -0.055196 -395680.000000 0 1 0
-0.864309 -15.485994 18.069011 23.812858 1.515042 0.709340 0.134962 -0.049349 577397.000000 0 1 0
-2.248109 -16.217694 18.080011 24.391687 1.433053 0.735886 0.130515 -0.062018 584448.000000 0 1 0
-2.318009 -17.179694 17.038311 24.306771 1.436679 0.794040 0.101021 -0.056286 -234918.000000 0 1 0
-3.454909 -17.966394 17.325711 25.197380 1.380817 0.812618 0.114635 -0.044667 38803.100000 0 0 1
-3.381509 -19.326394 16.626211 25.717212 1.397581 0.867807 0.113736 -0.052430 -236180.000000 0 0 1
-2.455109 -20.177794 17.234611 26.649630 1.449718 0.867532 0.130612 -0.053604 -273579.000000 0 0 1
-2.305909 -21.378694 16.548911 27.133600 1.463352 0.914856 0.110788 -0.078229 -7733.400000 0 0 1
-1.198309 -22.230694 17.199811 28.133134 1.516945 0.913003 0.141945 -0.062623 -1402270.000000 0 0 1
0.062391 -21.975394 16.772811 27.645054 -1.567957 0.918868 0.123692 -0.063883 -2112760.000000 0 0 1
0.961591 -22.676294 17.554811 28.693385 -1.528417 0.912453 0.165268 -0.043254 -367180.000000 0 0 1
2.385491 -22.766694 16.990011 28.507427 -1.466397 0.932304 0.172510 -0.054569 -338927.000000 0 0 1
3.129091 -21.589594 17.043911 27.683871 -1.426863 0.907570 0.169197 -0.061718 446459.000000 0 0 1
4.363591 -21.729594 16.318411 27.522840 -1.372619 0.936136 0.176685 -0.056429 369135.000000 0 0 1
5.333891 -20.576094 16.457911 26.882873 -1.317152 0.911946 0.149265 -0.039952 -1408870.000000 0 0 1
6.051391 -20.558394 17.673511 27.778047 -1.284530 0.881181 0.135203 -0.030137 223243.000000 0 0 1
6.679891 -19.319494 18.045911 27.267539 -1.237905 0.847567 0.119716 -0.020724 -512884.000000 0 0 1
7.781391 -18.902694 17.148711 26.682207 -1.180283 0.872776 0.119287 -0.028230 -1556950.000000 0 0 1
7.216891 -18.218694 15.976811 25.283647 -1.193634 0.886790 0.115106 -0.033066 582966.000000 0 0 1
8.133091 -17.462894 15.197611 24.537058 -1.134934 0.902851 0.142848 -0.036442 -167924.000000 0 1 0
7.342191 -16.643494 14.214011 23.085748 -1.155331 0.907516 0.093880 -0.035503 159782.000000 0 1 0
6.392891 -17.359294 13.424311 22.856646 -1.217940 0.943045 0.100478 -0.033671 354392.000000 0 1 0
5.742191 -16.543594 12.461711 21.493197 -1.236712 0.952316 0.066952 -0.023343 -211128.000000 0 1 0
6.315791 -16.665094 11.069311 20.979615 -1.208538 1.014997 0.072469 -0.024973 635463.000000 0 1 0
7.738291 -16.457594 11.158311 21.336388 -1.131275 1.020464 0.100342 -0.016746 527947.000000 0 1 0
8.321991 -16.590894 9.900211 21.036337 -1.105870 1.080798 0.115643 -0.025521 -692886.000000 0 1 0
9.788991 -16.234194 10.034611 21.449168 -1.028184 1.083960 0.097346 -0.010677 -254551.000000 0 1 0
10.605291 -16.220394 8.873211 21.314485 -0.991737 1.141425 0.098321 -0.014781 -1026860.000000 0 1 0
11.871991 -15.724694 9.062811 21.687432 -0.924109 1.139682 0.088707 -0.007280 -406024.000000 0 1 0
12.949791 -16.367994 8.130011 22.398781 -0.901466 1.199347 0.096942 -0.017824 386895.000000 0 1 0
13.517691 -17.601294 8.545111 23.781347 -0.915878 1.203257 0.112774 -0.027299 42642.900000 0 1 0
14.331091 -18.201694 7.559011 24.368432 -0.903817 1.255396 0.098714 -0.021966 21224.100000 0 1 0
15.124291 -19.370094 8.161411 25.895045 -0.907869 1.250158 0.096702 -0.025121 -292619.000000 0 0 1
14.283391 -20.386594 8.641611 26.349685 -0.959650 1.236654 0.093489 -0.024080 747239.000000 0 0 1
15.078991 -21.584894 8.992711 27.823596 -0.961017 1.241683 0.081259 -0.013230 633847.000000 0 0 1
14.221791 -22.700894 9.652511 28.473864 -1.011129 1.224947 0.111695 -0.022084 151102.000000 0 0 1
13.890191 -22.245494 10.933911 28.413902 -1.012625 1.175796 0.118212 -0.029262 695585.000000 0 0 1
12.707991 -22.743994 11.616911 28.526040 -1.061267 1.151368 0.138635 -0.041205 938687.000000 0 0 1
12.729491 -24.193494 12.199211 29.936363 -1.086446 1.151076 0.098180 -0.030995 -86230.300000 0 0 1
13.795291 -24.269894 13.119111 30.845565 -1.053927 1.131485 0.083591 -0.027322 -99678.900000 0 0 1
13.817391 -25.485714 13.866511 32.135993 -1.073991 1.124647 0.089037 -0.040837 -676997.000000 0 0 1
14.998991 -25.776704 14.757311 33.274411 -1.043806 1.111293 0.062047 -0.035700 -721716.000000 0 0 1
15.226991 -24.843594 15.824811 33.158560 -1.020935 1.073278 0.064469 -0.031927 265862.000000 0 0 1
16.115891 -25.496624 16.725911 34.489939 -1.007122 1.064490 0.063466 -0.027378 -246968.000000 0 0 1
16.026991 -24.819594 18.134511 34.666081 -0.997422 1.020289 0.081548 -0.019347 -277006.000000 0 0 1
16.642491 -23.576794 18.288011 34.165613 -0.956132 1.005963 0.072813 -0.027001 -401097.000000 0 0 1
17.857891 -23.721894 18.970311 35.235000 -0.925504 1.002266 0.074286 -0.023376 -487203.000000 0 0 1
18.464191 -22.308694 19.257211 34.777067 -0.879411 0.983956 0.082561 -0.034205 -118167.000000 0 0 1
18.689991 -21.412794 18.142611 33.719102 -0.853190 1.002673 0.087206 -0.030928 -30232.200000 0 0 1
17.529191 -20.686594 17.850511 32.463032 -0.867831 0.988585 0.096434 -0.025491 -894428.000000 0 0 1
17.662491 -19.695494 16.646511 31.256718 -0.839764 1.009158 0.081718 -0.018208 -188300.000000 0 0 1
18.537491 -18.627994 16.867411 31.227397 -0.787833 1.000184 0.080923 -0.025515 -527117.000000 0 0 1
19.877691 -18.958394 16.692111 32.142960 -0.761731 1.024755 0.085951 -0.022332 -545121.000000 0 0 1
20.932191 -17.801794 16.894411 32.256497 -0.704756 1.019547 0.099765 -0.034539 106134.000000 0 0 1
21.097291 -17.453394 18.248811 32.904950 -0.691156 0.982924 0.096762 -0.033411 208577.000000 0 0 1
21.201291 -16.069594 18.524211 32.417171 -0.648572 0.962546 0.086571 -0.036697 -173212.000000 0 0 1
21.475491 -15.918994 20.043511 33.411875 -0.637886 0.927430 0.076344 -0.036654 -953503.000000 0 0 1
22.763491 -16.197594 20.459411 34.628400 -0.618442 0.938712 0.065817 -0.027993 -1011290.000000 0 0 1
22.949391 -16.284294 21.852111 35.628185 -0.617123 0.910517 0.055713 -0.024444 121053.000000 0 0 1
35.883603 -2.336294 -7.704189 36.775613 -0.065016 1.781852 0.142569 -0.014048 379415.000000 0 0 1
37.162283 -1.785594 -8.022289 38.060225 -0.048012 1.783168 0.176284 -0.013717 101065.000000 0 0 1
38.109733 -2.799594 -7.916289 39.023802 -0.073330 1.775072 0.214485 -0.041608 66567.800000 0 0 1
-36.729189 -2.360394 -8.369589 37.744600 0.064177 1.794398 0.198708 -0.037684 858561.000000 0 0 1
-35.694544 -3.316494 -8.135889 36.759928 0.092647 1.793969 0.236197 -0.043416 110059.000000 0 0 1
-34.483777 -2.977294 -8.740289 35.698569 0.086125 1.818147 0.273279 -0.051064 -614079.000000 0 0 1
-33.332419 -3.961494 -8.613289 34.654471 0.118293 1.821977 0.277306 -0.057767 -452884.000000 0 0 1
-32.684329 -3.847294 -7.370989 33.725339 0.117171 1.791134 0.279883 -0.062530 -708722.000000 0 0 1
-31.350399 -4.185694 -7.468389 32.498375 0.132728 1.802677 0.270236 -0.071979 -988923.000000 0 0 1
-30.668479 -4.225394 -6.083989 31.550348 0.136914 1.764846 0.283459 -0.090216 -390465.000000 0 0 1
-30.587509 -2.917794 -5.513489 31.217107 0.095104 1.748345 0.269393 -0.080296 352190.000000 0 0 1
-30.191039 -2.995494 -4.164389 30.623748 0.098894 1.707205 0.272621 -0.077211 -192347.000000 0 0 1
-30.201389 -1.589394 -3.480189 30.442763 0.052578 1.685366 0.280643 -0.073812 -356483.000000 0 0 1
-28.974129 -0.898394 -3.542489 29.203707 0.030997 1.692399 0.230355 -0.063129 267618.000000 0 0 1
-29.056129 0.397306 -2.961089 29.209323 -0.013673 1.672346 0.275282 -0.072085 -136365.000000 0 0 1
-27.653199 0.885506 -2.582389 27.787628 -0.032011 1.663864 0.289856 -0.050116 44084.800000 0 0 1
-26.988669 0.287806 -1.464289 27.029895 -0.010664 1.624996 0.266772 -0.055592 993338.000000 0 0 1
-25.620729 0.691006 -1.341289 25.665118 -0.026964 1.623081 0.240287 -0.048427 430838.000000 0 0 1
-24.902609 0.138306 -0.148189 24.903434 -0.005554 1.576747 0.219756 -0.053981 -348879.000000 0 1 0
-24.841609 -1.246494 -0.146489 24.873294 0.050136 1.576686 0.205027 -0.053415 207119.000000 0 1 0
-24.174809 -1.722194 1.000511 24.256718 0.071119 1.529538 0.191169 -0.042835 -59007.300000 0 1 0
-23.894509 -3.245494 0.913111 24.131195 0.135000 1.532948 0.169179 -0.025219 -233552.000000 0 1 0
-25.008339 -4.003594 1.360011 25.363269 0.158743 1.517149 0.188741 -0.042134 411044.000000 0 0 1
-24.903209 -5.434294 1.223511 25.518588 0.214849 1.522832 0.156973 -0.012897 -128902.000000 0 0 1
-26.125389 -6.156694 1.820011 26.902663 0.231437 1.503093 0.213051 -0.025127 -68509.300000 0 0 1
-26.351879 -6.058794 3.233911 27.232126 0.225991 1.451762 0.213908 -0.035943 432080.000000 0 0 1
-27.565089 -6.638894 3.698611 28.593509 0.236343 1.441081 0.244579 -0.026006 318117.000000 0 0 1
-27.689869 -6.840894 5.216811 28.995548 0.242204 1.389894 0.225728 -0.025547 -395155.000000 0 0 1
-26.863189 -7.869194 5.641011 28.554792 0.284964 1.371938 0.239616 -0.005799 -324968.000000 0 0 1
-26.993759 -8.260594 7.001411 29.084707 0.296969 1.327684 0.213534 -0.031796 358426.000000 0 0 1
-26.175119 -7.349494 8.048611 28.353696 0.273733 1.282974 0.182526 -0.023458 -800377.000000 0 0 1
-24.813509 -7.319794 7.878211 27.043591 0.286856 1.275195 0.198078 -0.021800 -1093830.000000 0 0 1
-24.367409 -5.936194 7.952211 26.310581 0.238957 1.263751 0.200619 -0.041537 983338.000000 0 0 1
-22.910009 -5.719494 7.396111 24.744365 0.244650 1.267256 0.173647 -0.038977 1120230.000000 0 1 0
-21.858709 -6.064994 8.279011 24.148071 0.270655 1.220854 0.161664 -0.052555 718609.000000 0 1 0
-20.569609 -5.780694 7.719611 22.718223 0.273964 1.224094 0.137785 -0.040024 700629.000000 0 1 0
-19.423709 -6.019294 8.734611 22.131557 0.300509 1.165090 0.136462 -0.042000 -113076.000000 0 1 0
-19.272009 -5.068194 9.767911 22.192544 0.257159 1.115037 0.119993 -0.038718 527798.000000 0 1 0
-18.149409 -5.311894 10.601111 21.679502 0.284724 1.059862 0.109838 -0.045650 -151111.000000 0 1 0
-17.804109 -4.303994 11.746511 21.759853 0.237191 1.000567 0.087149 -0.038520 555456.000000 0 1 0
-18.802109 -4.331594 12.791211 23.149451 0.226427 0.985377 0.108682 -0.041545 780187.000000 0 1 0
-19.563409 -3.132794 12.925711 23.656191 0.158787 0.992738 0.145178 -0.041173 -59377.500000 0 1 0
-20.857709 -3.431094 13.680011 25.178545 0.163040 0.996409 0.150966 -0.046117 -386100.000000 0 0 1
-20.531109 -3.834894 14.984411 25.705358 0.184657 0.948467 0.146446 -0.039097 -641796.000000 0 0 1
-21.714309 -3.827094 15.670011 27.050085 0.174456 0.952931 0.141087 -0.034918 -1045180.000000 0 0 1
-21.752409 -4.495594 17.046811 27.999490 0.203802 0.916217 0.129857 -0.016011 -65886.000000 0 0 1
-22.845809 -4.158694 17.879211 29.306858 0.180062 0.914648 0.121009 -0.019083 446910.000000 0 0 1
-22.607909 -4.803494 19.092811 29.978768 0.209356 0.880355 0.124367 -0.000339 82880.600000 0 0 1
-23.655709 -4.474294 20.188211 31.419353 0.186934 0.872987 0.132723 -0.019234 -353177.000000 0 0 1
-23.683209 -3.121294 20.483711 31.467750 0.131038 0.861970 0.160728 -0.030051 291211.000000 0 0 1
-24.258909 -2.839594 21.796011 32.735670 0.116523 0.842206 0.152504 -0.025734 129334.000000 0 0 1
-24.437809 -1.342094 22.030511 32.929488 0.054864 0.837906 0.125205 -0.022262 332794.000000 0 0 1
-25.502649 -0.766894 21.263211 33.212910 0.030062 0.876026 0.142332 -0.033512 555691.000000 0 0 1
-25.180429 0.577006 20.989911 32.786633 -0.022911 0.876041 0.133499 -0.027058 557334.000000 0 0 1
-26.495349 1.337106 20.609511 33.593799 -0.050423 0.910322 0.153624 -0.032987 1034600.000000 0 0 1
-27.422379 1.326306 21.698311 34.993752 -0.048328 0.901974 0.143203 -0.027777 -102062.000000 0 0 1
-28.729059 1.743606 21.404111 35.868300 -0.060617 0.931362 0.121314 -0.025979 72550.400000 0 0 1
-29.623969 1.543906 22.671711 37.335903 -0.052070 0.918219 0.100108 -0.023984 -144197.000000 0 0 1
-29.248229 2.303406 23.801011 37.778998 -0.078591 0.889235 0.086121 -0.021478 -363917.000000 0 0 1
-30.185359 2.159706 24.803411 39.128371 -0.071426 0.884213 0.083268 -0.024429 -542572.000000 0 0 1
-29.899299 2.949806 26.137611 39.822659 -0.098340 0.854825 0.101413 -0.025669 -480038.000000 0 0 1
-28.871489 2.434406 26.921411 39.550621 -0.084120 0.822103 0.081031 -0.029433 593.388000 0 0 1
-28.429859 3.447906 27.849711 39.946857 -0.120688 0.799355 0.073329 -0.026784 -495744.000000 0 0 1
-27.148369 3.046806 28.597311 39.548997 -0.111760 0.762537 0.097241 -0.031375 -383284.000000 0 0 1
-27.320239 2.148006 29.618911 40.352067 -0.078462 0.746585 0.096604 -0.033148 372787.000000 0 0 1
-26.082799 1.774306 30.205611 39.947960 -0.067921 0.713426 0.079060 -0.041119 208386.000000 0 0 1
-26.124119 0.527106 31.175411 40.677435 -0.020174 0.697570 0.083619 -0.040191 -35121.800000 0 0 1
-26.253769 -0.682294 30.469111 40.225522 0.025983 0.711387 0.070882 -0.038856 12949.600000 0 0 1
-26.936459 -1.710494 31.128111 41.200217 0.063416 0.714329 0.081643 -0.038827 -506396.000000 0 0 1
-27.758339 -2.731894 30.227511 41.130172 0.098101 0.745243 0.072711 -0.027808 1065420.000000 0 0 1
-29.098089 -2.257694 29.976611 41.837700 0.077434 0.772028 0.094073 -0.036442 828159.000000 0 0 1
-29.146109 -1.208294 28.987211 41.124373 0.041433 0.788561 0.083975 -0.026865 -504229.000000 0 0 1
-30.618139 -0.937994 28.609111 41.914574 0.030626 0.819540 0.099572 -0.034865 326987.000000 0 0 1
-31.455049 -0.502894 29.680511 43.250500 0.015986 0.814480 0.133980 -0.038087 -402689.000000 0 0 1
-32.741259 -0.372194 29.113711 43.814801 0.011367 0.844009 0.140865 -0.048383 245128.000000 0 0 1
-33.839699 -0.053094 30.195111 45.352759 0.001569 0.842253 0.162697 -0.045652 348867.000000 0 0 1
-34.027608 -1.176494 31.045511 46.076957 0.034561 0.831490 0.174539 -0.049068 -248562.000000 0 0 1
-34.921048 -0.840894 32.057611 47.411783 0.024075 0.828268 0.195936 -0.041019 -205716.000000 0 0 1
-35.438680 -1.987094 32.994011 48.460844 0.056013 0.821889 0.178891 -0.036930 -43169.800000 0 0 1
-36.270359 -2.921394 32.379811 48.708579 0.080371 0.843616 0.161423 -0.034573 -129532.000000 0 0 1
-36.374979 -4.102394 33.110511 49.358633 0.112306 0.835489 0.138453 -0.029177 51775.000000 0 0 1
-37.623389 -4.969394 32.807911 50.165459 0.131322 0.857944 0.131975 -0.031008 1141510.000000 0 0 1
37.424493 -4.559794 33.482911 50.423107 -0.121242 0.844588 0.131672 -0.033107 1577080.000000 0 0 1
36.244503 -5.214594 32.979311 49.279721 -0.142892 0.837629 0.132128 -0.036833 1326140.000000 0 0 1
34.922223 -4.836794 -33.544689 48.664179 -0.137626 2.331332 0.122650 -0.026543 325934.000000 0 0 1
34.815943 -5.410294 -32.242389 47.759740 -0.154164 2.311891 0.106877 -0.033578 442109.000000 0 0 1
34.271483 -6.776894 -32.199589 47.510781 -0.195223 2.315470 0.128883 -0.026865 557408.000000 0 0 1
32.863643 -7.072594 -32.801689 46.967983 -0.211977 2.343934 0.117996 -0.021282 -78078.300000 0 0 1
31.750853 -6.573694 -32.125389 45.643956 -0.204155 2.351565 0.114418 -0.025227 119500.000000 0 0 1
30.529463 -6.954594 -32.751689 45.311010 -0.223977 2.378670 0.106698 -0.020138 432099.000000 0 0 1
29.284363 -6.371194 -32.042889 43.873827 -0.214225 2.389618 0.107107 -0.036909 208531.000000 0 0 1
28.060863 -6.992294 -32.417789 43.442113 -0.244210 2.413176 0.085579 -0.023218 634053.000000 0 0 1
26.965463 -6.433394 -31.675989 42.093859 -0.234201 2.422659 0.086248 -0.028501 8531.580000 0 0 1
25.601763 -6.808694 -32.262589 41.745457 -0.259930 2.454102 0.072389 -0.030958 -176585.000000 0 0 1
25.038363 -8.081894 -31.998789 41.426551 -0.312223 2.453443 0.089983 -0.037027 370392.000000 0 0 1
24.291763 -8.208694 -30.787189 40.066487 -0.325874 2.447137 0.102266 -0.045485 -266755.000000 0 0 1
23.937863 -9.693694 -30.515589 39.977370 -0.384768 2.439236 0.083586 -0.029039 -359424.000000 0 0 1
22.868263 -10.181394 -31.271489 40.056513 -0.418871 2.466556 0.088672 -0.030939 -271475.000000 0 0 1
22.905763 -11.598594 -31.347089 40.519641 -0.468724 2.455342 0.081216 -0.014738 -65208.200000 0 0 1
21.716163 -12.240094 -32.173389 40.700597 -0.513255 2.482404 0.071683 -0.014968 790859.000000 0 0 1
20.411763 -12.196894 -31.670889 39.603655 -0.538611 2.497585 0.081913 -0.013463 -149439.000000 0 0 1
19.798363 -10.917994 -31.524289 38.793795 -0.503963 2.519416 0.092446 -0.022565 -601095.000000 0 0 1
18.355263 -10.987794 -30.975589 37.644845 -0.539403 2.537183 0.114701 -0.020691 39186.400000 0 0 1
17.429363 -11.491894 -31.920289 38.141200 -0.582914 2.562387 0.099190 -0.004846 -393103.000000 0 0 1
16.142563 -11.388594 -31.331289 37.039601 -0.614408 2.579021 0.106664 -0.017334 376991.000000 0 0 1
15.055563 -11.861794 -32.348889 37.600834 -0.667299 2.606701 0.109057 -0.017201 -446105.000000 0 0 1
14.837663 -13.263194 -32.411089 38.033501 -0.729427 2.590919 0.129625 -0.017409 588128.000000 0 0 1
13.600963 -13.563894 -33.074289 38.247536 -0.784034 2.615435 0.112016 -0.022904 754420.000000 0 0 1
12.336063 -13.539094 -32.196889 37.042208 -0.831858 2.624368 0.092631 -0.025846 -686758.000000 0 0 1
11.894463 -12.230294 -32.004989 36.268135 -0.799318 2.651852 0.152968 -0.028677 -604786.000000 0 0 1
10.929663 -12.116594 -31.017089 35.047527 -0.836855 2.657292 0.140678 -0.033338 -220767.000000 0 0 1
9.670863 -11.286094 -31.312589 34.660925 -0.862320 2.698424 0.119473 -0.026280 27236.400000 0 0 1
9.957563 -9.878194 -31.329689 34.326100 -0.781397 2.720658 0.111372 -0.026225 321078.000000 0 0 1
8.828163 -9.142394 -31.749889 34.199054 -0.802882 2.760839 0.095779 -0.021924 -135460.000000 0 0 1
9.184263 -7.698794 -32.061289 34.227888 -0.697638 2.783882 0.102171 -0.021279 -127608.000000 0 0 1
9.425663 -6.855494 -30.985189 33.104725 -0.628829 2.781814 0.114519 -0.025749 275958.000000 0 0 1
9.827563 -5.557394 -31.393789 33.362188 -0.514658 2.796367 0.099208 -0.016192 -325253.000000 0 0 1
9.739563 -4.596494 -30.228189 32.089410 -0.440949 2.799334 0.094676 -0.023358 -306829.000000 0 0 1
8.428863 -4.276294 -29.862789 31.322812 -0.469502 2.835068 0.089478 -0.026656 -369837.000000 0 0 1
8.497363 -3.220394 -28.957389 30.349736 -0.362262 2.837514 0.106038 -0.028086 829727.000000 0 0 1
7.080663 -2.711494 -28.513189 29.504066 -0.365717 2.881692 0.120526 -0.031681 -98436.700000 0 0 1
6.478763 -1.894294 -29.507489 30.269698 -0.284456 2.916706 0.099772 -0.031484 1379500.000000 0 0 1
5.145463 -1.435294 -29.130389 29.616134 -0.272029 2.960229 0.114998 -0.032952 2108360.000000 0 0 1
3.930463 -2.420294 -28.980689 29.345982 -0.551941 2.983645 0.110333 -0.038875 -500223.000000 0 0 1
4.037963 -3.275794 -27.912389 28.392559 -0.681563 2.957420 0.119417 -0.040298 -789962.000000 0 0 1
3.096163 -4.281294 -27.880489 28.376704 -0.944680 2.954307 0.117660 -0.038331 -489134.000000 0 0 1
3.350363 -5.327694 -26.764889 27.494882 -1.009428 2.910645 0.101315 -0.040343 -280276.000000 0 0 1
3.163163 -4.843094 -25.448389 26.097541 -0.992225 2.918085 0.092563 -0.039291 -44501.500000 0 0 1
3.585663 -5.734594 -24.482589 25.399600 -1.012004 2.872064 0.087504 -0.039965 -182506.000000 0 0 1
3.527563 -5.150994 -23.038389 23.869307 -0.970323 2.876961 0.108279 -0.046194 -147617.000000 0 1 0
4.493563 -4.182894 -22.744189 23.558158 -0.749608 2.877955 0.115870 -0.049303 -186231.000000 0 1 0
4.218763 -3.566194 -21.507589 22.205677 -0.701769 2.890183 0.096418 -0.043150 310000.000000 0 1 0
5.281163 -2.466194 -21.235389 22.020775 -0.436884 2.873713 0.103200 -0.035250 -241024.000000 0 1 0
6.479263 -2.879094 -20.682089 21.863642 -0.418150 2.811333 0.099576 -0.046659 -832971.000000 0 1 0
7.254463 -1.778694 -20.297389 21.628106 -0.240443 2.788978 0.110012 -0.038360 258232.000000 0 1 0
8.736863 -2.137394 -19.976689 21.908202 -0.239929 2.718531 0.135058 -0.043851 -434793.000000 0 1 0
9.496763 -2.504094 -21.123389 23.294990 -0.257811 2.706375 0.141603 -0.050983 186630.000000 0 1 0
10.630763 -3.306994 -20.872789 23.656344 -0.301589 2.651594 0.121097 -0.051723 -198055.000000 0 1 0
11.827763 -2.660194 -20.213589 23.570358 -0.221230 2.601352 0.117860 -0.042344 -1266460.000000 0 1 0
11.671763 -2.426594 -18.827089 22.284023 -0.204983 2.577117 0.108445 -0.034811 434493.000000 0 1 0
12.855863 -1.831694 -18.289889 22.430968 -0.141527 2.524191 0.107086 -0.037808 358695.000000 0 1 0
12.963963 -0.293794 -18.235489 22.375962 -0.022659 2.523455 0.091298 -0.044134 -66548.600000 0 1 0
13.300963 0.310606 -19.442589 23.558997 0.023348 2.541481 0.103162 -0.050800 84486.400000 0 1 0
13.350963 1.732806 -19.241589 23.483815 0.129067 2.531082 0.121235 -0.062173 -75093.000000 0 1 0
13.787563 2.576006 -20.429589 24.781057 0.184706 2.539944 0.111092 -0.054739 431608.000000 0 1 0
15.205963 2.668806 -20.598989 25.742225 0.173741 2.498429 0.125103 -0.055559 699092.000000 0 0 1
15.556663 3.572206 -21.628589 26.880593 0.225713 2.505827 0.116770 -0.048930 -931417.000000 0 0 1
17.003563 3.596006 -22.058189 28.082309 0.208414 2.474273 0.094972 -0.037575 -760248.000000 0 0 1
17.296663 2.579806 -23.017889 28.907666 0.148059 2.491876 0.065390 -0.030953 -729377.000000 0 0 1
18.516863 1.961906 -22.773289 29.416763 0.105559 2.456184 0.065227 -0.033590 -637062.000000 0 0 1
10.329791 26.650606 3.192511 28.760241 1.201025 1.459563 0.033336 -0.019499 -36736.800000 0 0 1
10.219791 26.699406 4.584711 28.953790 1.205229 1.411781 0.047807 -0.021969 48812.800000 0 0 1
11.363591 27.312706 5.132311 30.024252 1.176526 1.399014 0.051782 -0.019769 -349122.000000 0 0 1
11.234191 27.887006 6.575511 30.775469 1.187838 1.355476 0.064584 -0.025258 -84663.300000 0 0 1
11.094891 26.896206 7.573711 30.064324 1.179554 1.316136 0.053018 -0.032069 123185.000000 0 0 1
11.039591 27.454606 8.842011 30.883800 1.188478 1.280434 0.066196 -0.027937 -408586.000000 0 0 1
11.225291 26.496306 10.020211 30.470740 1.170066 1.235714 0.081548 -0.022343 -850874.000000 0 0 1
12.474291 25.973106 10.235911 30.577508 1.123051 1.229453 0.061137 -0.017356 -1003780.000000 0 0 1
12.975491 25.027906 9.358811 29.704322 1.092505 1.250271 0.061936 -0.021244 -162386.000000 0 0 1
14.340291 24.492106 9.863311 30.046499 1.041102 1.236327 0.070369 -0.020356 -109251.000000 0 0 1
15.453791 25.330106 9.814311 31.253074 1.022986 1.251365 0.076872 -0.019048 550225.000000 0 0 1
16.576891 24.633806 10.421411 31.467817 0.978468 1.233246 0.071208 -0.019981 758214.000000 0 0 1
17.857891 25.428906 10.657511 32.849902 0.958550 1.240387 0.068572 -0.014422 -1025880.000000 0 0 1
18.479591 25.987306 9.545911 33.286029 0.952659 1.279928 0.052798 -0.012321 792331.000000 0 0 1
19.909691 26.077306 9.653411 34.199562 0.918719 1.284640 0.043667 -0.015142 1055200.000000 0 0 1
20.555691 26.891006 10.860611 35.547370 0.918138 1.260307 0.050375 -0.015752 -898612.000000 0 0 1
20.575991 28.326506 10.723611 36.616365 0.942580 1.273576 0.051264 -0.023193 217623.000000 0 0 1
19.315191 28.962406 10.872411 36.470630 0.982628 1.268080 0.031356 -0.004578 308504.000000 0 0 1
19.576591 30.508106 11.184711 37.935276 1.000289 1.271512 0.030659 -0.012733 -371990.000000 0 0 1
20.107491 31.277606 10.063111 38.520981 0.999448 1.306493 0.052496 -0.037480 -346198.000000 0 0 1
19.358991 31.346006 8.906211 37.903340 1.017543 1.333607 0.060999 -0.037904 -598126.000000 0 0 1
18.044191 32.110806 9.051311 37.929183 1.058836 1.329834 0.063625 -0.032237 -370630.000000 0 0 1
18.232091 33.431606 9.542911 39.257465 1.071526 1.325251 0.048632 -0.032502 -140936.000000 0 0 1
16.962191 -33.431823 9.640911 38.708525 -1.101273 1.319082 0.072523 -0.031008 40906.600000 0 0 1
17.070691 -31.924123 9.828911 37.512206 -1.079755 1.305683 0.091696 -0.035057 7076.530000 0 0 1
17.540591 -31.244223 8.675811 36.866564 -1.059241 1.333238 0.091679 -0.041289 41950.000000 0 0 1
17.686791 -29.892523 8.819011 35.835185 -1.036517 1.322143 0.068624 -0.040118 -22522.400000 0 0 1
18.247991 -29.235323 7.505611 35.270774 -1.012790 1.356357 0.065897 -0.037420 527.009000 0 0 1
17.474091 -29.572223 6.395111 34.939343 -1.037098 1.386724 0.073198 -0.028892 -71668.500000 0 0 1
18.113891 -29.113723 5.209811 34.682331 -1.014230 1.420010 0.053987 -0.019559 100976.000000 0 0 1
17.472491 -29.622723 3.899011 34.612078 -1.037885 1.457908 0.063172 -0.027871 102606.000000 0 0 1
17.822291 -30.957923 3.630411 35.905528 -1.048441 1.469513 0.068470 -0.030289 -114861.000000 0 0 1
17.622791 -31.240923 2.289111 35.941593 -1.057197 1.507063 0.066196 -0.028677 -182536.000000 0 0 1
17.919891 -32.693423 1.896111 37.330653 -1.069398 1.519982 0.073956 -0.025040 -229618.000000 0 0 1
19.293591 -33.009023 1.948911 38.283633 -1.041856 1.519867 0.061442 -0.008975 -123387.000000 0 0 1
19.607691 33.217706 1.409911 38.598774 1.037556 1.534261 0.092556 -0.018494 909583.000000 0 0 1
21.134291 32.923406 1.690911 39.159521 1.000120 1.527603 0.105497 -0.020078 1054810.000000 0 0 1
21.340491 32.629606 3.082011 39.110184 0.991599 1.491911 0.087598 -0.040741 -998711.000000 0 0 1
22.656291 32.392106 3.394211 39.674635 0.960447 1.485140 0.063250 -0.017738 -1033120.000000 0 0 1
23.009791 32.203706 4.942511 39.886809 0.950400 1.446564 0.060762 -0.005988 -134726.000000 0 0 1
22.515391 31.091606 5.649911 38.801447 0.944037 1.424666 0.083100 -0.026182 -332357.000000 0 0 1
23.187191 29.933906 5.360011 38.241525 0.911728 1.430171 0.055242 -0.028734 -262696.000000 0 0 1
22.476791 28.681606 6.015511 36.932736 0.906095 1.407190 0.071154 -0.035678 101211.000000 0 0 1
21.242091 28.429706 5.413411 35.899577 0.929103 1.419426 0.079971 -0.029738 -762916.000000 0 0 1
20.277991 28.013106 6.325211 35.155928 0.944226 1.389892 0.067541 -0.028728 -250998.000000 0 0 1
18.840191 28.480906 6.015411 34.674197 0.986377 1.396430 0.094089 -0.034546 -107850.000000 0 0 1
18.564891 29.875806 6.125411 35.703496 1.014788 1.398380 0.093865 -0.040405 -58398.900000 0 0 1
18.930691 30.615806 4.959411 36.335855 1.017007 1.433881 0.100205 -0.042325 -123058.000000 0 0 1
18.660491 32.161306 5.174111 37.541110 1.045051 1.432531 0.098777 -0.041835 1657370.000000 0 0 1
17.251591 32.478406 5.394011 37.169337 1.082524 1.425162 0.087486 -0.045255 1362630.000000 0 0 1
17.201491 -33.637823 5.641811 38.199797 -1.098091 1.422562 0.085086 -0.040721 -1345790.000000 0 0 1
15.814991 -33.080623 5.701111 37.107199 -1.124843 1.416546 0.093330 -0.047333 -1542400.000000 0 0 1
15.102491 -33.254423 4.543111 36.804643 -1.144497 1.447042 0.089316 -0.044500 -1133090.000000 0 0 1
13.930691 -32.523123 4.714111 35.693705 -1.166107 1.438338 0.083980 -0.040936 -761902.000000 0 0 1
13.097991 -32.418323 3.450111 35.134148 -1.186820 1.472440 0.080927 -0.036932 -648929.000000 0 0 1
11.959691 -31.621423 3.558111 33.994246 -1.209210 1.465936 0.075566 -0.033574 -496621.000000 0 0 1
11.383791 -31.469423 2.267911 33.541895 -1.223700 1.503130 0.076710 -0.021985 -851649.000000 0 0 1
10.381391 -30.289223 2.315811 32.102544 -1.240602 1.498596 0.065549 -0.019849 -78685.500000 0 0 1
9.882491 -29.900023 1.016911 31.507287 -1.251582 1.538515 0.074810 -0.011251 -276710.000000 0 0 1
8.914391 -30.795823 0.568511 32.065126 -1.289030 1.553066 0.064050 -0.014147 -1221890.000000 0 0 1
9.135791 -31.168523 -0.879589 32.491741 -1.285673 1.597871 0.089469 -0.017133 383456.000000 0 0 1
10.374891 -31.879323 -0.971789 33.539141 -1.256164 1.599775 0.084874 -0.025134 275391.000000 0 0 1
10.449191 -32.856523 -1.997789 34.535893 -1.262886 1.628675 0.096445 -0.021847 -1353690.000000 0 0 1
11.718091 -33.620523 -2.021889 35.661482 -1.235423 1.627523 0.089204 -0.019702 -1239060.000000 0 0 1
11.824591 32.943606 -0.942089 35.014135 1.226184 1.597706 0.082148 -0.016754 40594.600000 0 0 1
13.097091 32.346006 -0.945389 34.909764 1.186068 1.597881 0.093793 -0.016550 -309406.000000 0 0 1
13.316091 31.394506 0.294011 34.103075 1.169643 1.562175 0.082666 -0.033671 -607620.000000 0 0 1
13.627691 31.970206 1.530311 34.787208 1.167857 1.526791 0.072566 -0.033186 348694.000000 0 0 1
14.920291 32.512506 1.763011 35.816006 1.140558 1.521552 0.089648 -0.034831 -335988.000000 0 0 1
16.048791 31.499306 1.886111 35.402364 1.099580 1.517495 0.096294 -0.043480 -1210020.000000 0 0 1
16.658391 31.150606 0.694911 35.331928 1.079722 1.551127 0.098087 -0.032854 -140843.000000 0 0 1
17.524691 30.039806 0.795211 34.787025 1.042685 1.547935 0.109288 -0.026616 136245.000000 0 0 1
18.127991 29.580106 -0.567789 34.697681 1.020986 1.587161 0.100910 -0.015956 792803.000000 0 0 1
19.093491 30.431906 -1.231289 35.946882 1.010461 1.605056 0.077752 -0.006519 728795.000000 0 0 1
18.480291 31.525206 -1.850689 36.589408 1.040581 1.621398 0.085712 -0.010495 29687.600000 0 0 1
19.525191 32.305006 -2.667289 37.841259 1.027147 1.641341 0.062034 -0.001036 783431.000000 0 0 1
20.611691 32.889906 -1.953989 38.863939 1.010984 1.621095 0.051891 0.001547 169459.000000 0 0 1
21.608191 33.482606 -2.729189 39.943050 0.997693 1.639177 0.049366 0.010009 -727723.000000 0 0 1
22.588891 -33.129623 -1.848189 40.140326 -0.972367 1.616856 0.051516 0.008128 -96141.900000 0 0 1
23.523191 33.604306 -1.061089 41.033106 0.960067 1.596659 0.043853 0.004107 705422.000000 0 0 1
24.441091 32.695006 -1.672789 40.854970 0.928866 1.611752 0.044653 0.009484 -329263.000000 0 0 1
25.461891 33.141806 -2.709989 41.881156 0.915704 1.635548 0.047596 0.006714 -852829.000000 0 0 1
24.856491 33.637806 -3.886189 42.005352 0.934408 1.663445 0.047571 -0.007677 -249790.000000 0 0 1
25.728491 -33.040123 -4.642789 42.132653 -0.909176 1.681215 0.048260 -0.008796 -357219.000000 0 0 1
25.082391 -32.603323 -5.965989 41.565563 -0.915045 1.714826 0.050265 -0.016314 136451.000000 0 0 1
24.244891 -31.457423 -5.850189 40.144849 -0.914165 1.717044 0.055171 -0.011061 260924.000000 0 0 1
23.565091 -31.209023 -7.077189 39.741707 -0.924056 1.749831 0.059024 -0.017326 -245548.000000 0 0 1
22.484691 -30.130823 -6.924389 38.227935 -0.929709 1.752936 0.064241 -0.021665 -18014.600000 0 0 1
21.361291 -30.555623 -6.162789 37.787972 -0.960678 1.734617 0.078643 -0.019922 65255.700000 0 0 1
20.599891 -29.366523 -5.904889 36.354036 -0.959081 1.733946 0.089960 -0.034617 277605.000000 0 0 1
19.414691 -29.449223 -4.915589 35.613902 -0.987939 1.709263 0.074692 -0.021145 12839.500000 0 0 1
18.288891 -30.085523 -5.445689 35.626925 -1.024591 1.724251 0.087851 -0.026191 -284587.000000 0 0 1
17.213091 -29.996823 -4.527089 34.879714 -1.049841 1.700955 0.070759 -0.021643 618731.000000 0 0 1
15.827891 -30.593023 -4.903889 34.792288 -1.093350 1.712215 0.068644 -0.015896 353196.000000 0 0 1
15.779891 -32.002423 -4.957489 36.024114 -1.112697 1.708850 0.080088 -0.004375 484323.000000 0 0 1
14.456891 -32.533023 -5.140289 35.969736 -1.152629 1.714193 0.090749 -0.003681 809566.000000 0 0 1
14.463591 33.386806 -5.274089 36.765341 1.161990 1.714746 0.092049 -0.011424 107644.000000 0 0 1
14.819491 32.751106 -4.074389 36.178072 1.145875 1.683656 0.097453 -0.017433 -85851.600000 0 0 1
15.289191 31.448006 -4.163389 35.214631 1.118271 1.689302 0.096656 -0.017860 169718.000000 0 0 1
14.277491 30.381306 -4.719789 33.899069 1.131482 1.710481 0.104266 -0.021266 395819.000000 0 0 1
13.139691 29.980006 -4.003089 32.976915 1.157730 1.692487 0.093295 -0.020541 27204.700000 0 0 1
13.451791 29.133606 -2.926189 32.222356 1.138233 1.661734 0.095890 -0.027284 -404001.000000 0 0 1
12.298891 28.338006 -2.284589 30.976195 1.161322 1.644616 0.074756 -0.026330 72297.300000 0 0 1
11.459191 29.100306 -1.436889 31.308234 1.195661 1.616707 0.056923 -0.029574 -41364.100000 0 0 1
10.525491 28.285506 -0.765989 30.190106 1.214556 1.596171 0.039928 -0.027975 -103740.000000 0 0 1
9.311591 28.969906 -0.134489 30.429907 1.259803 1.575216 0.041222 -0.010549 -36001.300000 0 0 1
8.573791 28.125106 0.736211 29.412131 1.274901 1.545763 0.039311 -0.014470 113274.000000 0 0 1
7.309891 28.747106 0.958611 29.677424 1.321791 1.538490 0.055246 -0.008200 657778.000000 0 0 1
6.294191 27.869506 1.777611 28.626667 1.348678 1.508660 0.044318 -0.011934 391027.000000 0 0 1
5.756391 26.784406 1.072311 27.416971 1.359101 1.531675 0.049341 -0.023270 -485333.000000 0 0 1
4.499291 26.467106 1.597811 26.894317 1.402410 1.511351 0.048422 -0.025964 -270989.000000 0 0 1
3.961991 25.148806 1.024011 25.479568 1.414539 1.530596 0.051180 -0.031640 -772172.000000 0 0 1
2.596291 25.075406 1.261711 25.241010 1.467625 1.520789 0.064256 -0.029426 -610101.000000 0 0 1
2.045891 23.815406 0.921311 23.920870 1.485101 1.532272 0.056234 -0.038064 -832277.000000 0 1 0
0.532291 23.809406 1.057011 23.838800 1.548444 1.526442 0.060539 -0.029322 -577852.000000 0 1 0
-0.225909 24.542806 0.069811 24.543945 -1.561592 1.567952 0.064266 -0.034753 -372427.000000 0 1 0
-1.591109 24.318506 0.035411 24.370527 -1.505462 1.569343 0.056008 -0.025989 -485480.000000 0 1 0
-2.519409 24.907106 1.169511 25.061506 -1.469987 1.524114 0.089382 -0.036482 -668455.000000 0 0 1
-3.844509 24.547606 0.885811 24.862620 -1.415444 1.535161 0.100888 -0.023835 -559595.000000 0 1 0
-4.673909 24.974506 1.949811 25.482800 -1.385789 1.494207 0.106365 -0.031617 -581570.000000 0 0 1
-6.118309 25.125706 1.508411 25.903863 -1.331937 1.512532 0.133360 -0.033666 -735701.000000 0 0 1
-6.139209 26.299206 0.682811 27.014891 -1.341466 1.545518 0.139999 -0.036880 783676.000000 0 0 1
-7.394209 26.569206 0.012011 27.578926 -1.299365 1.570361 0.156743 -0.033504 888033.000000 0 0 1
-7.318509 27.736706 -0.978889 28.702676 -1.312819 1.604907 0.153904 -0.034197 5926.790000 0 0 1
-7.226509 29.053706 -0.437589 29.942140 -1.327014 1.585411 0.181721 -0.056162 18388.400000 0 0 1
-7.557109 29.936306 -1.493189 30.911517 -1.323523 1.619120 0.172636 -0.053519 -13729.600000 0 0 1
-7.415009 31.391606 -1.064489 32.273029 -1.338838 1.603786 0.166258 -0.053004 -656443.000000 0 0 1
-7.592909 32.340606 -2.090189 33.285672 -1.340193 1.633633 0.153713 -0.041248 518727.000000 0 0 1
-6.519409 32.524506 -3.029489 33.309518 -1.372972 1.661872 0.127307 -0.033866 53227.300000 0 0 1
-5.116809 32.887506 -2.568389 33.382127 -1.416449 1.647811 0.139879 -0.044186 -1028160.000000 0 0 1
-5.015809 -33.197823 -2.324789 33.654992 1.420842 1.639928 0.140530 -0.047063 483257.000000 0 0 1
-3.985409 -32.914023 -1.356989 33.182192 1.450298 1.611703 0.131587 -0.044721 275692.000000 0 0 1
-3.704309 -31.422123 -1.220789 31.663261 1.453449 1.609361 0.134142 -0.049317 141415.000000 0 0 1
-4.765609 -30.658023 -0.659889 31.033222 1.416586 1.592062 0.158960 -0.050881 4372.030000 0 0 1
-5.435809 -29.902623 -1.672189 30.438645 1.390976 1.625760 0.168646 -0.045926 189126.000000 0 0 1
-6.926609 -29.709423 -1.299289 30.533848 1.341743 1.613362 0.192110 -0.055970 41565.700000 0 0 1
-7.195009 -28.793223 -0.288789 29.679981 1.325925 1.580527 0.191468 -0.046220 -938322.000000 0 0 1
-8.558009 -28.524923 -0.183789 29.781614 1.279322 1.576968 0.144663 -0.042851 -259800.000000 0 0 1
-8.713109 -27.727023 1.092611 29.084358 1.266321 1.533221 0.161521 -0.042438 39240.500000 0 0 1
-8.213409 -26.426223 1.000911 27.691284 1.269456 1.534643 0.166295 -0.051011 -356510.000000 0 0 1
-7.715809 -26.047123 2.268811 27.260481 1.282806 1.487473 0.183323 -0.037452 381234.000000 0 0 1
-8.747009 -25.205823 3.094211 26.859223 1.236776 1.455339 0.161648 -0.038771 485186.000000 0 0 1
-8.732409 -23.926823 2.628511 25.605798 1.220854 1.467962 0.162157 -0.042809 -538262.000000 0 0 1
-9.553009 -23.127523 3.410511 25.254186 1.179084 1.435335 0.152509 -0.041707 -692731.000000 0 0 1
-8.927609 -21.788723 3.692311 23.834509 1.181926 1.415255 0.118992 -0.018727 187845.000000 0 1 0
-7.952409 -21.969823 4.739911 23.840736 1.223498 1.370647 0.109781 -0.020114 -334865.000000 0 1 0
-7.177409 -20.859223 4.976411 22.613869 1.239398 1.348920 0.072411 -0.016485 -123400.000000 0 1 0
-7.918009 -19.605523 5.539011 21.857540 1.186961 1.314588 0.079982 -0.024769 -9534.260000 0 1 0
-8.349709 -19.769623 6.867611 22.532637 1.171172 1.261084 0.086557 -0.026776 85757.300000 0 1 0
-9.036009 -18.656023 7.393511 22.008196 1.119748 1.228190 0.067307 -0.027526 -380341.000000 0 1 0
-28.727029 28.316306 -5.266989 40.679190 -0.778198 1.700637 0.186204 -0.017290 109806.000000 0 0 1
-27.792719 29.283106 -4.803689 40.657237 -0.811505 1.689224 0.190894 -0.025705 -287264.000000 0 0 1
-26.845289 28.705906 -3.985089 39.504171 -0.818879 1.671846 0.165423 -0.009205 -215268.000000 0 0 1
-25.803779 29.719006 -3.432189 39.507395 -0.855797 1.657781 0.143229 -0.013038 112961.000000 0 0 1
-26.300579 30.446006 -2.282489 40.297512 -0.858320 1.627468 0.122433 -0.022322 585582.000000 0 0 1
-25.384749 31.433506 -1.826589 40.444866 -0.891457 1.615974 0.122271 -0.023115 477785.000000 0 0 1
-24.060609 31.121106 -1.091389 39.352602 -0.912657 1.598533 0.099961 -0.007132 294058.000000 0 0 1
-23.113009 30.416606 -1.850289 38.246629 -0.921001 1.619193 0.128484 -0.018192 126226.000000 0 0 1
-21.821509 30.429906 -1.242389 37.465997 -0.948681 1.603963 0.098456 -0.007300 243111.000000 0 0 1
-20.906309 29.494506 -2.036689 36.209774 -0.954175 1.627073 0.108798 -0.016113 -962840.000000 0 0 1
-19.561609 29.672606 -1.737389 35.582841 -0.987947 1.619642 0.118417 -0.012789 -491737.000000 0 0 1
-18.794709 28.597606 -2.261789 34.295478 -0.989367 1.636794 0.119989 -0.017687 292657.000000 0 0 1
-17.281009 28.559906 -1.930289 33.436918 -1.026650 1.628558 0.135792 -0.030991 -86288.000000 0 0 1
-17.010309 28.333106 -0.557489 33.051873 -1.030106 1.587664 0.129189 -0.035312 -12664.400000 0 0 1
-15.771609 28.874906 -0.172789 32.901880 -1.070872 1.576048 0.153877 -0.048377 -402153.000000 0 0 1
-15.236409 28.309306 1.112211 32.168338 -1.077048 1.536215 0.160749 -0.052469 -293510.000000 0 0 1
-16.052509 28.477006 2.283711 32.769471 -1.057495 1.501050 0.132651 -0.054108 492272.000000 0 0 1
-15.437709 28.014406 3.495211 32.176797 -1.067137 1.461956 0.148990 -0.060393 412331.000000 0 0 1
-14.127509 28.638006 4.053011 32.189265 -1.112512 1.444549 0.159123 -0.052634 375563.000000 0 0 1
-14.247109 29.815606 4.814211 33.393519 -1.125033 1.426126 0.133990 -0.037494 -277043.000000 0 0 1
-14.311609 30.999006 4.035311 34.380870 -1.138272 1.453154 0.159452 -0.053025 5819.200000 0 0 1
-14.018909 32.264506 4.878811 35.515221 -1.160907 1.432988 0.161461 -0.044950 79500.300000 0 0 1
-15.049509 32.457406 5.852711 36.252243 -1.136633 1.408643 0.144697 -0.052259 278911.000000 0 0 1
-14.820309 33.587406 6.713811 37.320646 -1.155246 1.389916 0.147112 -0.057637 12755.500000 0 0 1
-16.004809 -33.350223 7.572811 37.758956 1.123357 1.368870 0.114685 -0.048036 141813.000000 0 0 1
-16.378309 33.218506 8.609411 38.024204 -1.112726 1.342396 0.085761 -0.047233 582815.000000 0 0 1
-17.509009 -33.638523 9.282111 39.041942 1.090880 1.330750 0.078778 -0.037875 127729.000000 0 0 1
-17.850209 33.205106 10.701511 39.188408 -1.077543 1.294205 0.065273 -0.021072 515540.000000 0 0 1
-16.993509 33.497406 11.826511 39.379206 -1.101319 1.265764 0.062119 -0.015837 76535.800000 0 0 1
-15.682809 33.016306 11.689511 38.375404 -1.127346 1.261268 0.087136 -0.013863 -314105.000000 0 0 1
-14.839709 32.904206 12.997711 38.364622 -1.147113 1.225161 0.067110 -0.004367 -117157.000000 0 0 1
-15.346709 32.035906 14.018411 38.188173 -1.124051 1.194920 0.053804 -0.001109 148864.000000 0 0 1
-14.847609 30.687406 13.946311 36.832974 -1.120165 1.182474 0.051414 -0.008176 -25237.700000 0 0 1
-15.683909 29.702306 13.106511 36.055410 -1.084972 1.198763 0.062669 -0.013094 -46764.700000 0 0 1
-15.579209 29.998306 11.754911 35.788099 -1.091800 1.236125 0.078410 -0.007809 380054.000000 0 0 1
-16.624609 29.285206 11.117311 35.462593 -1.054481 1.251926 0.053639 -0.009282 97590.100000 0 0 1
-16.576109 29.239206 9.592611 34.953065 -1.055060 1.292786 0.066144 -0.015913 71984.600000 0 0 1
-15.669109 28.246006 9.156511 33.573792 -1.064323 1.294569 0.062669 -0.010537 123360.000000 0 0 1
-15.302009 28.337706 7.788011 33.133520 -1.075673 1.333527 0.062853 -0.027209 -61013.400000 0 0 1
-14.369209 27.147706 7.348211 31.582721 -1.083986 1.335979 0.075196 -0.027585 42746.300000 0 0 1
-13.105709 27.143306 7.960911 31.175227 -1.120976 1.312576 0.103224 -0.025580 -281464.000000 0 0 1
-12.513309 25.877206 7.990011 29.833755 -1.120383 1.299669 0.107473 -0.026654 -236912.000000 0 0 1
-11.245509 25.715306 7.154911 28.964309 -1.158547 1.321187 0.155691 -0.040198 -328729.000000 0 0 1
-11.529209 25.905806 5.801911 28.942971 -1.152072 1.368969 0.169458 -0.043430 331162.000000 0 0 1
-10.297609 25.995406 5.123411 28.426242 -1.193629 1.389571 0.192094 -0.040946 73280.000000 0 0 1
-10.480309 26.324806 3.647111 28.568054 -1.191916 1.442783 0.198978 -0.044990 16581.100000 0 0 1
-10.541909 27.689706 3.332511 29.815387 -1.207024 1.458791 0.206515 -0.044480 139877.000000 0 0 1
-10.822109 27.914906 1.906611 29.999919 -1.200954 1.507200 0.212813 -0.054058 133493.000000 0 0 1
-10.422409 29.355206 1.445411 31.184033 -1.229634 1.524429 0.235448 -0.060934 249411.000000 0 0 1
-11.162809 30.352706 2.102211 32.408553 -1.218379 1.505885 0.210003 -0.067411 152380.000000 0 0 1
-10.696209 31.632406 1.625611 33.431431 -1.244725 1.522152 0.207672 -0.061373 57181.100000 0 0 1
-11.269609 32.769206 2.553711 34.746890 -1.239558 1.497235 0.188907 -0.063619 413690.000000 0 0 1
-12.622409 33.141106 2.353911 35.541511 -1.206890 1.504518 0.209190 -0.064115 -231768.000000 0 0 1
-12.960409 -33.698823 1.155211 36.123641 1.203640 1.538812 0.192106 -0.054382 656042.000000 0 0 1
-14.527409 -33.691223 0.868911 36.700125 1.163692 1.547118 0.189867 -0.049762 1529470.000000 0 0 1
-15.105909 32.512106 0.496411 35.853479 -1.135848 1.556950 0.163559 -0.046600 418194.000000 0 0 1
-15.845809 32.545506 -0.769789 36.206245 -1.117698 1.592059 0.159133 -0.049472 -92812.800000 0 0 1
-15.085109 32.776206 -2.109289 36.142624 -1.139455 1.629190 0.179300 -0.043571 129582.000000 0 0 1
-14.250309 31.688006 -2.493389 34.834150 -1.148186 1.642436 0.170930 -0.049302 778898.000000 0 0 1
-12.901809 31.720406 -2.009689 34.302765 -1.184497 1.629417 0.179417 -0.041315 508065.000000 0 0 1
-12.127509 30.398006 -2.331289 32.810823 -1.191189 1.641909 0.140047 -0.049024 222926.000000 0 0 1
-12.038909 30.085106 -3.652789 32.609688 -1.190151 1.683047 0.128297 -0.038399 123250.000000 0 0 1
-10.727109 29.713506 -4.048289 31.848892 -1.224340 1.698250 0.117495 -0.034903 443708.000000 0 0 1
-10.678909 29.196906 -5.516989 31.574286 -1.220156 1.746428 0.112355 -0.033919 -45680.400000 0 0 1
-11.333309 27.958606 -5.686089 30.699497 -1.185678 1.757090 0.104562 -0.026415 183742.000000 0 0 1
-10.929209 27.425906 -6.977589 30.336688 -1.191584 1.802879 0.091761 -0.018288 298516.000000 0 0 1
-11.533009 26.015606 -7.290889 29.376506 -1.153519 1.821605 0.102903 -0.020230 626878.000000 0 0 1
-10.958709 25.002506 -6.384689 28.035386 -1.157711 1.800549 0.082009 -0.008943 448610.000000 0 0 1
-11.423909 23.679206 -6.746189 27.142615 -1.121291 1.821975 0.116119 -0.024320 72816.700000 0 0 1
-10.929709 22.447406 -5.904589 25.655579 -1.117681 1.803026 0.108595 -0.022700 303665.000000 0 0 1
-9.555009 22.128606 -6.225089 24.894279 -1.163185 1.823540 0.108178 -0.016666 948334.000000 0 1 0
-9.108009 20.960706 -5.584389 23.526419 -1.160883 1.810451 0.099018 -0.012503 -215357.000000 0 1 0
-9.081709 21.027306 -4.013089 23.253600 -1.163095 1.744244 0.102374 -0.016837 -1081500.000000 0 1 0
-10.239209 20.722606 -3.307589 23.349688 -1.111873 1.712929 0.118124 -0.026484 -534114.000000 0 1 0
-10.622909 19.351006 -3.284889 22.318112 -1.068753 1.718518 0.101093 -0.023262 -620533.000000 0 1 0
-11.873309 19.070706 -2.469889 22.600169 -1.013929 1.680301 0.090961 -0.031781 -806627.000000 0 1 0
-11.869909 19.254306 -1.076189 22.644673 -1.018347 1.618339 0.092450 -0.023370 172319.000000 0 1 0
-11.237909 18.240106 -0.306889 21.426298 -1.018615 1.585120 0.067734 -0.009771 -106681.000000 0 1 0
-11.064109 18.402106 1.206811 21.506008 -1.029464 1.514652 0.070521 -0.014278 701672.000000 0 1 0
-12.289709 18.298206 1.953611 22.128666 -0.979362 1.482397 0.094120 -0.026826 863288.000000 0 1 0
-11.951309 18.390706 3.339811 22.185720 -0.994522 1.419683 0.087059 -0.022482 578109.000000 0 1 0
-13.159209 18.246206 4.320211 22.907488 -0.945982 1.381066 0.098424 -0.029961 327290.000000 0 1 0
-13.816009 17.013206 4.262111 22.327043 -0.888735 1.378723 0.062214 -0.028385 317353.000000 0 1 0
-15.041709 17.091506 4.982511 23.306608 -0.849102 1.355352 0.076479 -0.035093 480450.000000 0 1 0
-15.609509 15.756306 5.575311 22.869238 -0.790078 1.324524 0.056751 -0.028429 -362947.000000 0 1 0
-14.810709 15.173406 6.541711 22.189712 -0.797494 1.271541 0.053044 -0.026768 -314867.000000 0 1 0
-15.166309 15.680706 7.800711 23.167921 -0.802072 1.227383 0.042491 -0.024071 -523176.000000 0 1 0
-13.995309 15.625206 8.839411 22.762929 -0.840369 1.171983 0.038591 -0.017517 393101.000000 0 1 0
-12.988609 16.535906 8.470311 22.669061 -0.904972 1.187855 0.049739 -0.034233 101285.000000 0 1 0
-12.030609 16.026506 7.529011 21.407252 -0.926867 1.211406 0.048576 -0.031644 -1057730.000000 0 1 0
-10.848209 16.930906 7.271511 21.382565 -1.000963 1.223808 0.064675 -0.043791 -609148.000000 0 1 0
-9.945809 16.993906 8.340211 21.383897 -1.041288 1.170140 0.057117 -0.034164 -488339.000000 0 1 0
-9.278209 18.187606 8.450011 22.096987 -1.099070 1.178398 0.059372 -0.030406 -605491.000000 0 1 0
-8.067009 18.216306 9.366111 22.014415 -1.153908 1.131333 0.056994 -0.027938 -288642.000000 0 1 0
-6.946809 17.463806 8.919611 20.803897 -1.192202 1.127691 0.039797 -0.021629 1884570.000000 0 1 0
-5.679109 17.748606 9.646811 20.983952 -1.261116 1.093113 0.037908 -0.020704 2390030.000000 0 1 0
-4.863809 18.957806 9.040911 21.559061 -1.319653 1.138061 0.034925 -0.019573 -941711.000000 0 1 0
-5.372809 20.239406 9.281211 22.905054 -1.311318 1.153595 0.053936 -0.022667 -103895.000000 0 1 0
-4.764109 21.276606 8.531911 23.413334 -1.350517 1.197804 0.061026 -0.024655 939239.000000 0 1 0
-3.239909 21.620806 8.772811 23.556707 -1.422052 1.189189 0.064580 -0.026740 927168.000000 0 1 0
-2.289009 20.622006 8.376011 22.375528 -1.460250 1.187114 0.051491 -0.016019 200447.000000 0 1 0
-1.106509 21.411206 8.161111 22.940528 -1.519163 1.207079 0.052421 -0.016068 327568.000000 0 1 0
0.170191 20.545106 8.013711 22.053342 1.562513 1.198905 0.049697 -0.015551 296547.000000 0 1 0
0.546191 19.820106 9.181011 21.850077 1.543246 1.137150 0.051062 -0.022456 -330200.000000 0 1 0
1.879691 19.392006 9.080911 21.495257 1.474167 1.134637 0.036487 -0.023749 103935.000000 0 1 0
2.542991 18.873306 10.402311 21.699690 1.436863 1.070853 0.033968 -0.037892 -1034730.000000 0 1 0
3.900791 18.715206 10.281811 21.706928 1.365309 1.077349 0.055838 -0.021125 -1162960.000000 0 1 0
4.450291 18.409206 11.576011 22.197026 1.333604 1.022175 0.048152 -0.025599 999862.000000 0 1 0
6.008391 18.617406 11.604511 22.745840 1.258619 1.035400 0.058900 -0.026924 1195780.000000 0 1 0
6.812291 17.584706 10.970711 21.817096 1.201200 1.043904 0.047530 -0.024769 399900.000000 0 1 0
7.695891 17.083706 11.977211 22.238105 1.147542 1.002034 0.047049 -0.014992 -186246.000000 0 1 0
8.917591 16.337006 11.434411 21.844151 1.071143 1.019897 0.042322 -0.015793 -582972.000000 0 1 0
9.969291 17.125406 10.987311 22.658051 1.043617 1.064526 0.053214 -0.029808 -370730.000000 0 1 0
11.022591 16.345506 10.425311 22.301573 0.977493 1.084370 0.048042 -0.031108 380823.000000 0 1 0
12.230891 17.274806 10.123111 23.462544 0.954709 1.124688 0.061945 -0.031342 146008.000000 0 1 0
13.161291 16.739806 9.183611 23.190071 0.904510 1.163624 0.070992 -0.029107 -304028.000000 0 1 0
13.958191 17.814606 8.759111 24.267536 0.906182 1.201521 0.095848 -0.027123 -592241.000000 0 1 0
14.883491 17.391206 7.641611 24.132272 0.862941 1.248595 0.117139 -0.030990 -1032110.000000 0 1 0
16.081491 16.846006 8.053911 24.642803 0.808612 1.237853 0.126736 -0.037090 -1099890.000000 0 1 0
16.932791 16.600806 6.997611 24.723930 0.775498 1.283845 0.122705 -0.029716 685674.000000 0 1 0
18.452191 16.493206 7.408911 25.834108 0.729398 1.279924 0.130937 -0.034089 779718.000000 0 0 1
18.786591 15.199406 7.981211 25.449119 0.680239 1.251799 0.151329 -0.043016 336720.000000 0 0 1
19.870791 15.481806 8.855311 26.701146 0.661881 1.232749 0.149262 -0.046260 -126808.000000 0 0 1
20.185291 14.359606 9.940911 26.692058 0.618329 1.189171 0.144759 -0.042442 410693.000000 0 0 1
21.088991 13.366006 9.433011 26.690398 0.564896 1.209568 0.180307 -0.050792 539366.000000 0 0 1
21.360691 12.334906 10.360511 26.753863 0.523680 1.173146 0.179892 -0.058980 -752756.000000 0 0 1
22.329491 11.302406 9.897611 26.913068 0.468567 1.194195 0.184453 -0.054436 -540593.000000 0 0 1
23.714591 11.608006 10.156811 28.289370 0.455203 1.203565 0.169668 -0.067314 1586580.000000 0 0 1
24.596891 10.997506 9.205611 28.472714 0.420448 1.241567 0.186140 -0.056323 -97834.800000 0 0 1
24.754691 9.462806 9.391911 28.116675 0.365123 1.230217 0.193862 -0.064390 -1365980.000000 0 0 1
23.705991 8.722806 8.854211 26.766741 0.352582 1.233654 0.215612 -0.071935 -40033.300000 0 0 1
23.727191 7.298906 9.220011 26.481356 0.298431 1.215178 0.205565 -0.067492 -314431.000000 0 0 1
24.887091 6.509806 8.584711 27.119036 0.255841 1.248699 0.223741 -0.066740 -110994.000000 0 0 1
24.705391 6.375906 7.223811 26.517767 0.252566 1.294895 0.223980 -0.049592 27247.800000 0 0 1
25.753691 5.728306 6.559911 27.186366 0.218864 1.327097 0.235301 -0.046598 -377531.000000 0 0 1
25.347591 5.260206 5.171811 26.399200 0.204619 1.373613 0.244262 -0.055988 -803723.000000 0 0 1
24.328991 4.344306 5.197811 25.254505 0.176703 1.363498 0.243174 -0.046162 -416840.000000 0 0 1
23.865891 3.969606 3.919011 24.509124 0.164821 1.410207 0.247719 -0.046582 173606.000000 0 1 0
22.665391 2.988806 3.880511 23.188602 0.131110 1.402660 0.220259 -0.037331 156252.000000 0 1 0
23.033291 1.623306 4.085411 23.449055 0.070360 1.395678 0.235641 -0.047167 359053.000000 0 1 0
21.955991 0.721106 3.849011 22.302476 0.032831 1.397346 0.208208 -0.035238 -195290.000000 0 1 0
22.360691 -0.717894 3.817611 22.695595 -0.032094 1.401783 0.230321 -0.046048 -417928.000000 0 1 0
22.624191 -1.176294 5.111511 23.224238 -0.051946 1.348886 0.220582 -0.051520 392786.000000 0 1 0
22.976791 -2.534894 5.089211 23.669784 -0.109880 1.354096 0.224697 -0.057779 -353923.000000 0 1 0
23.264291 -3.100494 6.470111 24.345485 -0.132492 1.301802 0.266225 -0.056588 -127576.000000 0 1 0
23.201991 -4.529294 6.610911 24.546915 -0.192787 1.298112 0.232720 -0.052872 476597.000000 0 1 0
23.291791 -4.840994 8.003911 25.099907 -0.204924 1.246247 0.271923 -0.055189 -205083.000000 0 0 1
23.050491 -6.309494 8.391911 25.329015 -0.267180 1.233098 0.265923 -0.052732 489354.000000 0 0 1
21.653991 -6.592094 8.383911 24.137958 -0.295515 1.216071 0.267672 -0.053276 819696.000000 0 1 0
21.443791 -7.991494 8.705211 24.484298 -0.356728 1.207302 0.253573 -0.047286 45103.700000 0 1 0
-28.178889 -32.621123 5.600911 43.469043 0.858332 1.441589 0.091334 -0.019021 -337278.000000 0 0 1
-29.102909 -33.644123 5.721011 44.851269 0.857646 1.442893 0.099125 -0.029898 -252184.000000 0 0 1
-29.004389 33.149606 6.942111 44.590849 -0.851992 1.414476 0.075745 -0.007396 86725.000000 0 0 1
-30.029219 31.990006 7.064011 44.441138 -0.817003 1.411167 0.090838 -0.022495 628320.000000 0 0 1
-31.380499 32.390106 7.252711 45.677746 -0.801229 1.411342 0.094338 -0.012584 -78251.900000 0 0 1
-32.237839 31.311706 7.398911 45.546076 -0.770826 1.407624 0.129505 -0.033836 204459.000000 0 0 1
-33.732329 31.742306 7.399911 46.906318 -0.755014 1.412375 0.139080 -0.027280 311422.000000 0 0 1
-34.295373 32.071306 6.154911 47.356353 -0.751899 1.440457 0.127927 -0.034077 219281.000000 0 0 1
-35.710439 32.088906 6.149311 48.401935 -0.732033 1.443405 0.103763 -0.026994 -150548.000000 0 0 1
-36.333649 31.942606 4.764511 48.612392 -0.721174 1.472629 0.093955 -0.025866 -688200.000000 0 0 1
-36.330219 30.620806 4.319011 47.709249 -0.700327 1.480144 0.103928 -0.029601 192949.000000 0 0 1
-37.125639 30.385206 3.203711 48.081572 -0.685886 1.504116 0.097448 -0.011027 -265471.000000 0 0 1
-36.646739 29.105406 2.503711 46.865517 -0.671204 1.517348 0.099310 -0.024387 -273775.000000 0 0 1
-36.806039 27.956806 3.341811 46.340427 -0.649599 1.498619 0.133938 -0.035582 239636.000000 0 0 1
-36.422409 26.785106 2.649911 45.288583 -0.634093 1.512251 0.113288 -0.033458 -394224.000000 0 0 1
-36.738819 25.447406 3.327711 44.815008 -0.605781 1.496474 0.143281 -0.035952 325701.000000 0 0 1
38.131643 25.177406 3.406011 45.820572 0.583565 1.496394 0.130253 -0.025198 96550.700000 0 0 1
37.796613 24.120106 4.251211 45.038164 0.568003 1.476264 0.133448 -0.031264 349687.000000 0 0 1
36.330153 23.606706 4.099911 43.519718 0.576222 1.476448 0.147599 -0.022887 203879.000000 0 0 1
36.015763 22.784206 3.065411 42.727648 0.564058 1.498992 0.124231 -0.033539 -137641.000000 0 0 1
36.345193 21.421506 3.198711 42.309404 0.532582 1.495121 0.114444 -0.026367 -731628.000000 0 0 1
35.469253 20.452706 2.397311 41.013756 0.523060 1.512312 0.115716 -0.013063 -489116.000000 0 0 1
34.126133 20.334106 2.783711 39.822328 0.537364 1.500836 0.113130 -0.030291 81353.600000 0 0 1
33.869653 19.469506 3.927011 39.263678 0.521711 1.470612 0.099018 -0.020256 -353756.000000 0 0 1
33.913223 17.950006 3.574011 38.536774 0.486806 1.477920 0.127081 -0.024478 -124835.000000 0 0 1
32.812293 17.558606 2.746811 37.316165 0.491349 1.497121 0.096775 -0.036504 715840.000000 0 0 1
32.864693 16.205506 2.398811 36.721393 0.458111 1.505425 0.112312 -0.030629 -219990.000000 0 0 1
32.141953 15.250006 3.368111 35.735304 0.443006 1.476405 0.144763 -0.036117 559791.000000 0 0 1
30.717563 15.420806 3.368311 34.535712 0.465262 1.473110 0.104818 -0.037982 852001.000000 0 0 1
30.098163 14.439606 4.213511 33.647515 0.447317 1.445242 0.100857 -0.046804 633427.000000 0 0 1
28.538063 14.463506 4.208811 32.269616 0.469084 1.439997 0.093139 -0.038262 457503.000000 0 0 1
27.997163 13.934706 3.032811 31.419979 0.461821 1.474121 0.101853 -0.049974 930409.000000 0 0 1
26.554563 14.020606 2.986811 30.176866 0.485790 1.471657 0.088726 -0.040219 1073930.000000 0 0 1
26.020163 13.502106 1.655611 29.361484 0.478660 1.514379 0.094202 -0.032102 -286192.000000 0 0 1
26.355863 14.276306 0.513511 29.978460 0.496429 1.553666 0.091308 -0.032864 343539.000000 0 0 1
27.499663 13.753906 -0.136389 30.747682 0.463766 1.575232 0.091730 -0.035530 -469618.000000 0 0 1
28.036963 14.503206 -1.363989 31.595486 0.477383 1.613980 0.110533 -0.031996 112107.000000 0 0 1
28.542363 15.843306 -1.271989 32.669477 0.506735 1.609741 0.056824 -0.014181 553269.000000 0 0 1
29.647463 16.025006 -0.405789 33.703672 0.495535 1.582837 0.075400 -0.023804 -221174.000000 0 0 1
30.122063 17.520706 -0.265889 34.848020 0.526823 1.578426 0.079861 -0.013286 -127063.000000 0 0 1
30.921763 18.041706 -1.308289 35.824156 0.528171 1.607324 0.096547 -0.002983 78763.800000 0 0 1
31.284263 19.347806 -1.031489 36.798188 0.553877 1.598831 0.090383 0.006049 -891577.000000 0 0 1
32.657833 19.626606 -1.594989 38.135045 0.541138 1.612633 0.079868 0.009152 -738472.000000 0 0 1
33.313533 20.904106 -1.596689 39.361434 0.560392 1.611372 0.063541 0.011803 525186.000000 0 0 1
32.562183 21.999906 -2.184489 39.358145 0.594181 1.626328 0.083002 0.005788 -575451.000000 0 0 1
33.227793 23.380206 -2.418289 40.700962 0.613161 1.630247 0.113414 -0.007343 -260861.000000 0 0 1
33.601623 24.153706 -1.307389 41.402655 0.623249 1.602379 0.104487 -0.006512 -23685.500000 0 0 1
34.724823 23.679306 -0.621289 42.034615 0.598484 1.585577 0.119989 0.006867 -628959.000000 0 0 1
34.975853 24.507506 0.645911 42.712355 0.611194 1.555673 0.118440 -0.010540 -240378.000000 0 0 1
35.252063 25.844406 0.340211 43.712206 0.632618 1.563013 0.123078 -0.003741 201934.000000 0 0 1
36.231823 26.378506 1.229711 44.833946 0.629303 1.543365 0.132574 -0.021385 55041.000000 0 0 1
36.910653 27.607806 0.648211 46.097802 0.642196 1.556734 0.113395 -0.023629 -304648.000000 0 0 1
37.635053 27.465306 -0.585789 46.594885 0.630434 1.583369 0.104959 -0.013799 612078.000000 0 0 1
36.803783 27.501806 -1.781489 45.978706 0.641742 1.609552 0.089745 -0.014505 132367.000000 0 0 1
37.413783 27.021806 -3.087889 46.254775 0.625498 1.637604 0.094372 -0.013464 -58905.900000 0 0 1
-37.855439 27.857106 -3.661089 47.142933 -0.634404 1.648534 0.097334 -0.023203 347845.000000 0 0 1
-37.332069 27.411806 -4.922089 46.575932 -0.633357 1.676673 0.101322 -0.019261 112008.000000 0 0 1
38.023163 27.508206 -6.186489 47.336402 0.626297 1.701863 0.088606 -0.014664 23245.300000 0 0 1
36.883103 26.702506 -6.187289 45.952906 0.626637 1.705851 0.091522 -0.007842 -148778.000000 0 0 1
35.944933 26.895106 -7.226789 45.470995 0.642368 1.730405 0.080314 -0.004751 736515.000000 0 0 1
34.710303 25.937006 -7.173489 43.920295 0.641734 1.734861 0.099290 -0.003783 71853.000000 0 0 1
34.851963 24.594906 -7.636089 43.334496 0.614539 1.747934 0.082311 -0.003632 210958.000000 0 0 1
35.831323 23.871006 -6.871289 43.599578 0.587683 1.729056 0.097123 -0.012138 335247.000000 0 0 1
35.704963 22.365506 -7.001689 42.709295 0.559604 1.735478 0.097834 -0.006063 348271.000000 0 0 1
34.614923 21.766106 -6.296889 41.371573 0.561332 1.723593 0.081767 0.006573 393603.000000 0 0 1
34.726223 20.339306 -6.316389 40.736896 0.529842 1.726478 0.084554 0.002497 -290791.000000 0 0 1
33.632393 19.562306 -5.569289 39.304435 0.526818 1.712971 0.088966 0.001666 185760.000000 0 0 1
32.420723 19.546106 -6.315389 38.380172 0.542541 1.736096 0.069084 -0.004190 377672.000000 0 0 1
31.355603 18.909406 -5.618489 37.044660 0.542669 1.723052 0.092226 -0.016332 -474291.000000 0 0 1
30.197863 18.633506 -6.524689 36.078941 0.552860 1.752642 0.055639 -0.021695 -826704.000000 0 0 1
30.414863 17.460706 -7.311489 35.824544 0.521146 1.776332 0.037540 -0.007977 -1482.710000 0 0 1
29.493863 17.416806 -8.365289 35.259199 0.533422 1.810332 0.061681 -0.026796 -164381.000000 0 0 1
29.854863 16.296806 -9.301589 35.262136 0.499665 1.837739 0.069319 -0.018005 -349532.000000 0 0 1
29.074163 16.361606 -10.460589 34.963309 0.512583 1.874637 0.105166 -0.021449 6930.850000 0 0 1
29.093863 15.135006 -11.208789 34.657729 0.479687 1.900131 0.094268 -0.022017 -609530.000000 0 0 1
28.292763 15.240706 -12.462589 34.468473 0.494110 1.940742 0.121811 -0.017135 -835081.000000 0 0 1
26.932263 15.511506 -12.247789 33.406016 0.522544 1.946185 0.100547 -0.025733 660444.000000 0 0 1
25.982963 15.278706 -13.337189 32.961095 0.531570 1.987375 0.120273 -0.034982 810582.000000 0 0 1
25.756463 13.819306 -13.807389 32.326654 0.492449 2.012103 0.126278 -0.040389 -75017.000000 0 0 1
26.896263 13.271206 -14.490289 33.309193 0.458371 2.020861 0.137861 -0.040825 427530.000000 0 0 1
27.142063 13.773206 -15.816189 34.300796 0.469589 2.050034 0.145905 -0.044048 -1643460.000000 0 0 1
28.530463 13.574006 -16.318389 35.560241 0.444078 2.047547 0.161466 -0.039248 -1179110.000000 0 0 1
28.800163 12.181606 -16.379389 35.300500 0.400150 2.053300 0.163680 -0.036655 -572235.000000 0 0 1
30.082863 11.908706 -16.855289 36.481456 0.376935 2.051072 0.148391 -0.013761 -197884.000000 0 0 1
30.360563 10.461006 -17.386289 36.516838 0.331819 2.067030 0.110541 -0.007524 -514201.000000 0 0 1
29.704163 10.294806 -18.591189 36.523316 0.333623 2.104845 0.128581 -0.017461 -225824.000000 0 0 1
29.892463 9.034606 -19.233189 36.675591 0.293508 2.122823 0.102120 -0.004552 461369.000000 0 0 1
31.105063 8.819206 -20.221089 38.133919 0.276279 2.129710 0.122523 -0.001600 -371020.000000 0 0 1
31.182263 9.766006 -21.332489 39.022858 0.303514 2.149174 0.131941 -0.008367 188525.000000 0 0 1
31.695223 9.224006 -22.576389 39.992034 0.283200 2.170651 0.114679 -0.006980 159913.000000 0 0 1
33.113683 8.606306 -22.479189 40.937738 0.254276 2.152091 0.107265 -0.006305 -708873.000000 0 0 1
34.129023 9.439406 -22.034889 41.706461 0.269835 2.127432 0.116014 -0.011702 1113730.000000 0 0 1
35.450713 8.813206 -22.188889 42.740758 0.243665 2.116653 0.081224 -0.002160 2143710.000000 0 0 1
36.648233 9.810706 -22.033289 43.872642 0.261566 2.096949 0.100565 -0.013884 355833.000000 0 0 1
36.726883 10.448706 -20.770689 43.467929 0.277174 2.068990 0.078626 -0.016357 -130245.000000 0 0 1
37.679003 11.477506 -20.756089 44.522529 0.295683 2.055779 0.057434 -0.008501 -104000.000000 0 0 1
37.778593 12.314906 -19.442089 44.236566 0.315114 2.025841 0.040224 -0.015348 -25264.300000 0 0 1
38.054713 11.513606 -18.298389 43.767057 0.293798 2.002134 0.046019 -0.009921 16226.600000 0 0 1
37.880463 12.179506 -17.099489 43.308917 0.311085 1.976675 0.048720 -0.014976 -167009.000000 0 0 1
-38.015639 11.375606 -15.881889 42.741404 -0.290755 1.951508 0.045161 -0.021811 -503063.000000 0 0 1
37.555183 10.162906 -15.714489 41.959761 0.264283 1.954668 0.042142 -0.023635 155981.000000 0 0 1
38.091633 9.270806 -14.713189 41.873598 0.238740 1.929832 0.033894 -0.029711 487420.000000 0 0 1
37.069543 8.070506 -14.560789 40.636199 0.214367 1.937265 0.081650 -0.019864 1648300.000000 0 0 1
35.947303 8.373206 -13.670789 39.360000 0.228849 1.925515 0.100316 -0.027800 1285510.000000 0 0 1
36.278163 7.951606 -12.344189 39.137094 0.215772 1.891684 0.110548 -0.031240 62853.800000 0 0 1
35.215393 8.463506 -11.303089 37.940936 0.235862 1.873302 0.121658 -0.031802 302270.000000 0 0 1
35.038113 9.857406 -11.323389 38.118984 0.274245 1.872402 0.120364 -0.035049 270852.000000 0 0 1
34.186833 10.447706 -10.339589 37.212917 0.296592 1.852351 0.099442 -0.025694 -301261.000000 0 0 1
34.699833 10.290106 -8.869289 37.264312 0.288285 1.811113 0.117315 -0.024383 -123828.000000 0 0 1
35.854953 11.004306 -8.491189 38.454813 0.297786 1.793441 0.135369 -0.024425 -12794.900000 0 0 1
35.676673 12.357506 -8.145689 38.624929 0.333442 1.783284 0.122533 -0.024115 -461877.000000 0 0 1
35.317223 12.672906 -6.668389 38.110053 0.344520 1.746679 0.110335 -0.018868 338638.000000 0 0 1
36.388843 12.340706 -5.764989 38.854549 0.326962 1.719720 0.151882 -0.020123 809275.000000 0 0 1
36.011503 12.329706 -4.429189 38.320591 0.329873 1.686638 0.143583 -0.009008 -475314.000000 0 0 1
37.253293 12.423606 -3.544889 39.429938 0.321892 1.660821 0.168608 -0.013213 -261822.000000 0 0 1
37.810313 13.701206 -3.605889 40.377534 0.347649 1.660220 0.180045 -0.002805 133245.000000 0 0 1
-37.070259 13.595806 -3.301889 39.622626 -0.351525 1.654226 0.166721 -0.019178 667673.000000 0 0 1
-36.229359 14.912506 -3.454789 39.330457 -0.390478 1.658750 0.152642 -0.017743 386413.000000 0 0 1
-36.643279 15.861006 -2.504089 40.007148 -0.408500 1.633428 0.174008 -0.012392 605821.000000 0 0 1
-35.605681 16.839606 -2.359489 39.457623 -0.441772 1.630630 0.161908 -0.017311 515887.000000 0 0 1
-36.028949 18.073806 -1.526589 40.337056 -0.464964 1.608651 0.163646 -0.011598 -376388.000000 0 0 1
-36.939589 18.906706 -2.143289 41.552262 -0.473065 1.622400 0.144831 -0.003200 279843.000000 0 0 1
-37.725179 19.682406 -1.193089 42.567707 -0.480881 1.598828 0.137586 -0.004677 611238.000000 0 0 1
37.552653 20.672606 -1.872489 42.907628 0.503224 1.614450 0.121756 -0.002484 337689.000000 0 0 1
-38.108719 21.910506 -2.249189 44.015947 -0.521795 1.621918 0.117709 -0.005207 455237.000000 0 0 1
37.665733 22.253006 -3.533589 43.890659 0.533629 1.651392 0.100657 -0.002529 -1102.160000 0 0 1
-37.748219 23.442106 -4.013489 44.615787 -0.555727 1.660875 0.116949 -0.012262 730949.000000 0 0 1
-36.401609 23.030706 -4.312689 43.290759 -0.564106 1.670583 0.121465 -0.016590 522422.000000 0 0 1
-35.644891 24.180606 -4.618689 43.319652 -0.596065 1.677618 0.135359 -0.023295 -330032.000000 0 0 1
-34.182447 23.868206 -4.947489 41.983432 -0.609557 1.688915 0.122833 -0.035672 -406075.000000 0 0 1
-33.933904 23.111006 -6.100089 41.507102 -0.597901 1.718296 0.110917 -0.021980 735591.000000 0 0 1
-32.556809 23.294006 -6.487789 40.554259 -0.621045 1.731465 0.120702 -0.013247 674561.000000 0 0 1
-32.271819 22.362206 -7.688289 40.008103 -0.605967 1.764167 0.118439 -0.018615 -482168.000000 0 0 1
-33.075869 22.590606 -8.774189 41.004085 -0.599221 1.786447 0.111353 -0.023382 -212484.000000 0 0 1
-32.559609 21.981206 -9.931689 40.520859 -0.593823 1.818420 0.065491 -0.016726 473037.000000 0 0 1
-33.598059 22.106306 -11.128389 41.729598 -0.581953 1.840741 0.070330 -0.007798 319782.000000 0 0 1
-33.717399 23.428806 -11.627089 42.672721 -0.607267 1.846757 0.076388 -0.014927 27129.700000 0 0 1
-34.188355 23.409206 -12.960489 43.414385 -0.600392 1.873948 0.047068 -0.009582 -554552.000000 0 0 1
-34.279390 24.882206 -13.467389 44.447399 -0.627875 1.878631 0.093210 -0.018920 -29092.100000 0 0 1
-33.139359 25.697006 -13.360389 44.011967 -0.659574 1.879226 0.084865 -0.012916 277779.000000 0 0 1
-32.011919 25.403806 -14.209389 43.266881 -0.670810 1.905419 0.071696 -0.011724 767009.000000 0 0 1
-30.674989 25.962106 -13.646389 42.440662 -0.702377 1.898152 0.057804 -0.007519 -117846.000000 0 0 1
-30.003089 25.203906 -12.670289 41.182016 -0.698685 1.883535 0.029495 -0.019546 -22232.200000 0 0 1
-30.536739 25.063406 -11.299389 41.089450 -0.687273 1.849381 0.063750 -0.021849 -24695.100000 0 0 1
-30.721219 26.372706 -10.494789 41.826469 -0.709381 1.824419 0.091057 -0.019629 -96723.300000 0 0 1
-29.503959 27.002006 -10.233989 41.283489 -0.741149 1.821304 0.123292 -0.018202 -483875.000000 0 0 1
-29.718759 28.165306 -9.515589 42.036122 -0.758567 1.799143 0.132622 -0.026390 -357145.000000 0 0 1
-28.511869 29.064806 -9.590489 41.829022 -0.795001 1.802133 0.148508 -0.035373 -749756.000000 0 0 1
-28.715339 30.305306 -9.033689 42.715217 -0.812331 1.783892 0.140507 -0.040574 325792.000000 0 0 1
-27.519399 31.015806 -8.671189 42.361386 -0.845059 1.776949 0.162855 -0.033087 276313.000000 0 0 1
37.163553 -24.698394 33.124232 55.572971 -0.586561 0.932224 0.050885 -0.028656 3821.120000 0 0 1
36.537773 -23.409394 33.346241 54.726414 -0.569803 0.915586 0.048985 -0.030453 242974.000000 0 0 1
35.652243 -23.516694 -32.878909 53.899350 -0.583104 2.226864 0.053089 -0.025785 -305302.000000 0 0 1
35.179743 -22.170594 -32.331589 52.673344 -0.562336 2.231678 0.042679 -0.020060 10355.900000 0 0 1
34.385203 -21.496994 -33.293329 52.468168 -0.558730 2.258214 0.029289 -0.020492 48118.800000 0 0 1
34.026213 -20.212294 -32.901189 51.466574 -0.536012 2.264349 0.018421 -0.007425 84822.100000 0 0 1
33.501633 -19.464194 33.195586 51.021184 -0.526326 0.862391 0.027944 -0.008733 -339725.000000 0 0 1
34.544533 -19.131894 32.341646 51.042494 -0.505781 0.884570 0.046263 -0.017610 -369683.000000 0 0 1
34.089123 -18.583994 31.134481 49.767349 -0.499119 0.894895 0.066224 -0.005695 -709062.000000 0 0 1
35.133793 -18.412194 30.024971 49.748278 -0.482709 0.922865 0.063789 -0.008159 -155464.000000 0 0 1
35.996753 -17.326694 30.380531 50.189214 -0.448609 0.920629 0.062046 -0.015693 419618.000000 0 0 1
37.056733 -17.188494 29.442511 50.353820 -0.434306 0.946271 0.085071 -0.011901 76834.200000 0 0 1
38.012523 -16.022894 29.716031 50.840216 -0.398916 0.946534 0.090743 -0.016127 262857.000000 0 0 1
-37.118569 -16.012394 28.855761 49.667292 0.407266 0.950863 0.095894 -0.019114 -360209.000000 0 0 1
-36.021099 -15.427694 29.435651 49.010110 0.404659 0.926540 0.082677 -0.022382 -2063660.000000 0 0 1
-34.833344 -15.356494 28.423371 47.508649 0.415224 0.929446 0.109762 -0.022982 810993.000000 0 0 1
-33.654499 -14.744194 28.993561 46.804307 0.412918 0.902737 0.089920 -0.019589 751873.000000 0 0 1
-33.029019 -15.600494 29.918621 47.216686 0.441265 0.884540 0.084741 -0.033640 -1608200.000000 0 0 1
-31.679299 -15.207194 30.524381 46.546478 0.447549 0.855577 0.097579 -0.044007 -115857.000000 0 0 1
-31.835629 -14.114194 31.414357 46.899676 0.417307 0.836830 0.106209 -0.045973 -338846.000000 0 0 1
-30.602299 -13.624794 31.824055 46.205045 0.418873 0.811023 0.102054 -0.056343 -576077.000000 0 0 1
-30.665169 -12.633594 33.000875 46.786943 0.390796 0.787888 0.083650 -0.017400 -225355.000000 0 0 1
-30.772449 -13.337894 -33.070409 47.100902 0.408994 2.349164 0.102688 -0.026094 221036.000000 0 0 1
-31.168369 -12.497994 -32.032149 46.408250 0.381354 2.332597 0.105211 -0.011761 -454762.000000 0 0 1
-31.403329 -13.124394 -30.654989 45.805536 0.395867 2.303985 0.097543 -0.031478 60983.200000 0 0 1
-32.484859 -14.064294 -30.628739 46.810149 0.408584 2.284077 0.091648 -0.027976 562202.000000 0 0 1
-32.720299 -14.447394 -29.288249 46.229284 0.415798 2.256921 0.104577 -0.012852 -133671.000000 0 0 1
-33.845079 -15.485094 -29.192829 47.302207 0.429097 2.235919 0.085596 -0.026385 -236332.000000 0 0 1
-33.596889 -16.776794 -29.743809 47.905177 0.463132 2.240673 0.071357 -0.022794 -569473.000000 0 0 1
-34.657756 -17.621594 -29.524019 48.819549 0.470381 2.220258 0.058976 -0.024592 -762401.000000 0 0 1
-34.488177 -18.961094 -30.238759 49.632046 0.502678 2.225922 0.047111 -0.018945 -676569.000000 0 0 1
-35.525970 -19.856894 -30.030169 50.578670 0.509681 2.206485 0.038160 -0.022841 -468956.000000 0 0 1
-35.214291 -21.158394 -30.495899 51.163696 0.541042 2.209364 0.033817 -0.024304 -126217.000000 0 0 1
-36.442809 -22.040294 -30.823699 52.573314 0.543935 2.197279 0.029669 -0.022223 -94623.000000 0 0 1
-37.124689 -22.572294 -29.730729 52.646626 0.546291 2.170893 0.039118 -0.030937 172636.000000 0 0 1
38.040993 -23.426194 -30.043159 53.837674 -0.551967 2.162809 0.061143 -0.034974 334613.000000 0 0 1
-37.783599 -24.884794 -30.369849 54.490192 0.582407 2.161981 0.051132 -0.032361 166324.000000 0 0 1
-37.028609 -24.963894 -31.576549 54.693623 0.593185 2.186257 0.052238 -0.032790 -63275.500000 0 0 1
-36.321409 -26.223624 -31.606739 54.826172 0.625331 2.185223 0.049765 -0.030366 367.683000 0 0 1
-36.621439 -27.250294 -32.736139 56.172619 0.639719 2.192939 0.061377 -0.035358 -203153.000000 0 0 1
-37.959639 -27.679994 -32.830029 57.314283 0.630053 2.180723 0.075346 -0.033553 -432162.000000 0 0 1
38.030403 -28.947614 -33.500549 58.365766 -0.650612 2.182149 0.058379 -0.028050 128966.000000 0 0 1
-37.706669 -30.238614 -32.728749 58.372405 0.675925 2.166014 0.058525 -0.034008 -87843.000000 0 0 1
37.955813 -30.440794 -31.494289 57.958398 -0.675963 2.145272 0.067234 -0.039867 -37854.600000 0 0 1
-37.601959 -31.423934 -30.769159 57.862873 0.696133 2.131474 0.061434 -0.041096 -358180.000000 0 0 1
38.018573 -31.652224 -29.408589 57.551197 -0.694274 2.107143 0.043861 -0.035045 -78494.800000 0 0 1
36.967383 -32.581374 -29.622889 57.494773 -0.722418 2.112069 0.069439 -0.031919 87376.000000 0 0 1
36.401753 -32.853324 -28.334469 56.632770 -0.734206 2.094764 0.071073 -0.036115 180010.000000 0 0 1
35.312163 33.463505 -28.278449 56.271002 0.758525 2.097331 0.085081 -0.036051 313467.000000 0 0 1
34.128233 -33.491864 -28.861869 55.852025 -0.775988 2.113854 0.097770 -0.033004 -119644.000000 0 0 1
33.037613 33.088935 -28.533249 54.776891 0.786174 2.118701 0.099664 -0.032480 260757.000000 0 0 1
31.768563 33.520985 -29.281399 54.683620 0.812232 2.135860 0.080769 -0.023548 -354079.000000 0 0 1
31.844223 33.261633 -30.693779 55.339848 0.807166 2.158728 0.077296 -0.021275 -799097.000000 0 0 1
30.681163 33.603885 -31.342279 55.252993 0.830832 2.173960 0.079803 -0.006803 -778324.000000 0 0 1
30.294863 32.867926 -32.658829 55.359537 0.826113 2.201781 0.073909 -0.021537 50466.000000 0 0 1
29.976563 31.497165 -32.538239 54.308403 0.810129 2.213221 0.075582 -0.018718 -467.653000 0 0 1
29.895763 30.938315 33.476441 54.512458 0.802534 0.909543 0.078227 -0.019924 88493.200000 0 0 1
29.899363 29.412975 -33.643469 53.767815 0.777198 2.246847 0.073208 -0.033240 -87563.700000 0 0 1
31.163563 28.918955 -33.275449 53.988231 0.748057 2.234891 0.078967 -0.033516 -416653.000000 0 0 1
31.116863 27.639065 -32.676859 52.914593 0.726277 2.236407 0.067030 -0.033817 -216484.000000 0 0 1
32.465373 26.930205 -32.784869 53.423627 0.692475 2.231506 0.090342 -0.033528 -234708.000000 0 0 1
33.439983 27.398105 -31.897679 53.724766 0.686412 2.206475 0.113004 -0.035352 -1344970.000000 0 0 1
34.584243 26.657705 -31.989779 54.129927 0.656684 2.203071 0.132243 -0.033005 -580805.000000 0 0 1
35.641613 26.814345 -30.855369 54.234559 0.644992 2.175994 0.135444 -0.031292 335351.000000 0 0 1
36.428743 28.016825 -30.636389 55.232093 0.655604 2.158780 0.121809 -0.026979 326480.000000 0 0 1
35.682303 29.185415 -30.505079 55.277256 0.685575 2.155384 0.101300 -0.021656 -295191.000000 0 0 1
34.721693 29.326355 -29.291799 54.070699 0.701358 2.143292 0.098977 -0.027631 334412.000000 0 0 1
35.304033 29.528195 -28.006129 53.876082 0.696544 2.117442 0.120240 -0.029465 -731257.000000 0 0 1
34.258933 29.759145 -27.133039 52.872327 0.715224 2.109683 0.116195 -0.029969 -377048.000000 0 0 1
34.641513 30.122425 -25.648879 52.585738 0.715733 2.080311 0.118970 -0.030349 -66989.800000 0 0 1
35.160943 31.421275 -25.577319 53.645015 0.729291 2.067794 0.101786 -0.027484 25839.100000 0 0 1
35.806483 31.695517 -24.353289 53.663700 0.724572 2.041836 0.092022 -0.036615 -327992.000000 0 0 1
36.020883 33.195000 -24.255689 54.660319 0.744594 2.030579 0.093723 -0.033889 -22458.500000 0 0 1
34.873513 -33.448834 -24.061789 53.981072 -0.764549 2.032803 0.107189 -0.033678 -41311.100000 0 0 1
35.083523 -32.112364 -23.820389 53.192748 -0.741211 2.035114 0.094462 -0.033757 -648377.000000 0 0 1
35.528373 -31.274814 -25.033389 53.544840 -0.721811 2.057282 0.087096 -0.031811 502814.000000 0 0 1
36.825513 -31.428024 -25.618359 54.773528 -0.706482 2.057499 0.090585 -0.034944 39763.000000 0 0 1
37.807003 -30.668904 -24.961889 54.708747 -0.681531 2.044594 0.093131 -0.033968 -554900.000000 0 0 1
-37.052459 -30.941934 -25.578579 54.631051 0.695771 2.058056 0.066325 -0.027095 205621.000000 0 0 1
-36.477939 -32.269184 -25.360239 54.909762 0.724254 2.050880 0.065342 -0.025523 152470.000000 0 0 1
-36.296789 -32.598244 -24.010789 54.374814 0.731766 2.028154 0.070030 -0.021337 424963.000000 0 0 1
-34.940925 -31.995734 -23.426189 52.852451 0.741427 2.030003 0.065237 -0.015319 829232.000000 0 0 1
-34.914123 -30.626574 -23.276189 51.949630 0.720073 2.035383 0.050098 -0.011336 -182010.000000 0 0 1
-34.545834 -30.199914 -21.979089 50.877597 0.718376 2.017505 0.065571 -0.015075 -222368.000000 0 0 1
-34.376918 -28.640664 -21.898289 49.815612 0.694622 2.025935 0.078425 0.003652 880052.000000 0 0 1
-35.529124 -27.778004 -22.125989 50.234406 0.663568 2.026902 0.051846 0.007581 617926.000000 0 0 1
-35.890672 -27.668234 -23.518389 51.056695 0.656745 2.049504 0.056666 0.000089 -181838.000000 0 0 1
-37.123179 -26.842734 -23.893289 51.667708 0.626043 2.051543 0.067605 -0.006203 -199580.000000 0 0 1
-37.020959 -25.547094 -23.410189 50.707419 0.604031 2.050675 0.060619 0.001572 268722.000000 0 0 1
-38.022129 -24.638294 -23.918789 51.233156 0.574967 2.056535 0.071516 -0.007418 472636.000000 0 0 1
-37.924419 -24.132394 -25.364859 51.614049 0.566704 2.084531 0.073817 -0.006399 226146.000000 0 0 1
-36.898919 -23.140394 -25.437699 50.438920 0.560129 2.099399 0.065377 -0.007341 115174.000000 0 0 1
-36.409869 -22.800994 -26.717479 50.590390 0.559484 2.127174 0.062573 -0.024739 -277605.000000 0 0 1
-35.184330 -21.889794 -26.720489 49.306031 0.556544 2.143530 0.073981 -0.031852 -467001.000000 0 0 1
-35.237088 -20.636794 -26.050319 48.437060 0.529805 2.138643 0.084476 -0.025377 -280231.000000 0 0 1
-36.121339 -19.668494 -26.552539 48.955471 0.498620 2.144065 0.097297 -0.026602 804166.000000 0 0 1
-37.482069 -19.413794 -25.786029 49.464333 0.477903 2.119176 0.106841 -0.034300 648616.000000 0 0 1
-37.375939 -18.755094 -24.514289 48.473341 0.465083 2.101021 0.093282 -0.046381 121861.000000 0 0 1
-36.537249 -19.382894 -23.509189 47.574669 0.487746 2.087657 0.069420 -0.035323 260402.000000 0 0 1
-36.958799 -20.773094 -22.894589 48.183363 0.512056 2.065937 0.082754 -0.019822 363300.000000 0 0 1
38.085383 -20.581794 -22.197389 48.650084 -0.495452 2.044591 0.079301 -0.019905 260041.000000 0 0 1
37.486673 -21.797994 -21.701789 48.490936 -0.526695 2.034812 0.073669 -0.000614 775632.000000 0 0 1
36.319553 -21.485294 -20.706989 47.005395 -0.534193 2.026978 0.064010 -0.006141 656022.000000 0 0 1
35.055173 -21.067694 -21.182089 46.058591 -0.541145 2.048673 0.092414 -0.006857 248053.000000 0 0 1
34.100373 -21.037694 -20.106689 44.829666 -0.552778 2.035897 0.096574 -0.010926 -172013.000000 0 0 1
32.746333 -20.543794 -20.560889 43.784928 -0.560296 2.059621 0.102837 -0.015535 -766601.000000 0 0 1
32.134353 -21.462894 -21.486989 44.214965 -0.588864 2.078265 0.095691 -0.010341 226987.000000 0 0 1
30.862163 -21.158394 -22.033889 43.423991 -0.600980 2.102976 0.131559 -0.019880 269941.000000 0 0 1
30.729163 -19.869994 -22.945989 43.192783 -0.573993 2.130867 0.114932 -0.023364 -424603.000000 0 0 1
30.827263 -18.599594 -22.309589 42.355434 -0.542878 2.125537 0.115859 -0.017041 -127779.000000 0 0 1
30.970463 -17.548694 -23.246489 42.515003 -0.515519 2.149314 0.104901 -0.023268 27341.000000 0 0 1
31.662563 -16.338894 -22.629389 42.208608 -0.476391 2.136645 0.091416 -0.016447 -120409.000000 0 0 1
30.870063 -15.858794 -21.535989 40.844350 -0.474569 2.126180 0.077897 -0.025365 295067.000000 0 0 1
31.546083 -15.167194 -20.523689 40.576113 -0.448166 2.101114 0.058653 -0.020583 189621.000000 0 0 1
32.512803 -15.914694 -19.520889 41.126937 -0.455204 2.065362 0.078253 -0.028613 157483.000000 0 0 1
33.713993 -16.336694 -20.073689 42.502634 -0.451225 2.062687 0.073902 -0.025775 -181999.000000 0 0 1
34.604163 -16.880994 -19.065889 42.964220 -0.453865 2.030589 0.065198 -0.021121 523342.000000 0 0 1
35.875213 -17.459894 -19.735489 44.512564 -0.452938 2.030150 0.073918 -0.037243 381915.000000 0 0 1
36.742473 -16.476994 -20.340789 45.113727 -0.421560 2.038545 0.089478 -0.043703 274347.000000 0 0 1
37.626113 -17.159794 -21.210789 46.476666 -0.427883 2.044713 0.109083 -0.048741 253521.000000 0 0 1
-37.625879 -16.121494 -21.849189 46.400392 0.404805 2.061089 0.136270 -0.049706 303550.000000 0 0 1
-36.694589 -15.564394 -20.926589 45.018500 0.401159 2.054255 0.161445 -0.060962 -124660.000000 0 0 1
-36.111879 -14.422094 -21.483589 44.425322 0.379965 2.075547 0.168420 -0.051292 -218027.000000 0 0 1
-34.863087 -13.996894 -20.633689 42.861370 0.381783 2.073054 0.158417 -0.051783 1550750.000000 0 0 1
-33.602639 -14.699894 -20.743489 42.136879 0.412379 2.085513 0.172410 -0.056585 1050900.000000 0 0 1
-33.614709 -16.058794 -20.355489 42.452084 0.445674 2.070874 0.162805 -0.054383 -251172.000000 0 0 1
-32.347529 -16.869494 -20.773989 41.982152 0.480706 2.088434 0.123982 -0.057942 399921.000000 0 0 1
-32.244399 -17.998994 -19.959989 41.976973 0.509121 2.066327 0.146022 -0.065417 544508.000000 0 0 1
-31.157619 -18.834494 -20.440089 41.753235 0.543715 2.082364 0.141303 -0.067764 584825.000000 0 0 1
-31.205109 -20.237094 -19.829889 42.148823 0.575333 2.060623 0.127486 -0.025171 37493.900000 0 0 1
-32.356089 -20.916794 -20.315289 43.556168 0.573880 2.056031 0.118938 -0.031785 318088.000000 0 0 1
-32.566139 -22.160994 -19.709289 44.046784 0.597513 2.034722 0.101332 -0.005966 175417.000000 0 0 1
-33.611819 -23.017694 -20.456289 45.585397 0.600458 2.036159 0.074988 -0.010708 155942.000000 0 0 1
-33.090549 -23.370594 -21.717689 45.965499 0.614916 2.062897 0.070319 -0.011922 659074.000000 0 0 1
-33.986173 -24.232694 -22.482289 47.410302 0.619408 2.064859 0.069836 0.001193 391511.000000 0 0 1
-33.555769 -24.471994 -23.890689 47.912766 0.630117 2.092813 0.066863 0.002781 286827.000000 0 0 1
-32.237719 -25.005344 -23.954489 47.311260 0.659719 2.101705 0.063101 -0.009251 225115.000000 0 0 1
-31.950219 -25.487214 -25.295309 48.065239 0.673347 2.125005 0.062186 -0.006745 -434019.000000 0 0 1
-30.538039 -25.950434 -25.621819 47.565476 0.704363 2.139647 0.071596 -0.012705 -308264.000000 0 0 1
-29.621439 -24.883794 -25.842939 46.524084 0.698695 2.159730 0.090578 -0.024328 -6450.210000 0 0 1
-28.300079 -25.387834 -25.916149 46.011774 0.731207 2.169111 0.078542 -0.017538 123298.000000 0 0 1
-27.251359 -24.289594 -26.080359 44.864307 0.727997 2.191142 0.090219 -0.024002 -220752.000000 0 0 1
-27.334269 -23.629494 -27.363959 45.324403 0.712832 2.218975 0.094546 -0.024312 -340123.000000 0 0 1
-26.425039 -22.592794 -27.522789 44.342090 0.707376 2.240422 0.114951 -0.021606 -223185.000000 0 0 1
-26.433759 -22.114494 -28.977979 45.027966 0.696663 2.269930 0.089394 -0.015283 58263.600000 0 0 1
-25.783189 -23.037594 -29.845739 45.675724 0.729219 2.282899 0.093318 -0.014229 122107.000000 0 0 1
-25.601419 -22.487694 -31.132159 46.155610 0.720739 2.311089 0.090923 -0.010856 -32109.000000 0 0 1
-25.044559 -23.425194 -32.206489 47.044953 0.752001 2.324837 0.085788 -0.017587 -515387.000000 0 0 1
-26.053579 -24.176094 -32.748619 48.329541 0.748038 2.315305 0.063268 -0.017135 -713067.000000 0 0 1
-25.591339 -25.059834 33.613301 49.119914 0.774905 0.817138 0.074732 -0.011942 20164.100000 0 0 1
-20.214209 -14.047694 -11.801189 27.298718 0.607323 2.017836 0.123691 0.001577 127902.000000 0 0 1
-20.401609 -13.652094 -10.421489 26.668573 0.589732 1.972273 0.132352 -0.001561 321162.000000 0 0 1
-19.704909 -14.636694 -9.656789 26.377449 0.638873 1.945611 0.119924 -0.013108 61086.900000 0 0 1
-19.906109 -14.480294 -8.110289 25.917347 0.628899 1.889072 0.162438 -0.035311 -857591.000000 0 0 1
-21.214209 -14.788394 -7.775189 27.003571 0.608776 1.862863 0.194961 -0.039144 -446382.000000 0 0 1
-21.642309 -14.036294 -6.612689 26.629584 0.575361 1.821743 0.160006 -0.045789 -595174.000000 0 0 1
-22.950409 -14.538994 -6.047689 27.833041 0.564686 1.789828 0.168109 -0.042301 -892170.000000 0 0 1
-22.967809 -15.823394 -5.429289 28.414384 0.603263 1.763054 0.146119 -0.045948 367346.000000 0 0 1
-22.686509 -15.842994 -4.014089 27.960527 0.609614 1.714857 0.155165 -0.049643 -131676.000000 0 0 1
-22.544409 -17.213894 -3.380489 28.565648 0.652120 1.689415 0.129604 -0.041310 812563.000000 0 0 1
-23.849009 -17.753194 -3.109989 29.893531 0.639907 1.675020 0.134156 -0.036824 1153930.000000 0 0 1
-23.688209 -18.860794 -2.212189 30.360412 0.672426 1.643725 0.119329 -0.034693 416256.000000 0 0 1
-24.893909 -19.839094 -2.397289 31.922459 0.672876 1.645964 0.137335 -0.044836 231076.000000 0 0 1
-24.723709 -20.761694 -3.468589 32.470615 0.698512 1.677823 0.138174 -0.045088 204229.000000 0 0 1
-25.733129 -21.769094 -3.562889 33.893681 0.702142 1.676110 0.139948 -0.037485 190828.000000 0 0 1
-25.430249 -22.871794 -4.606089 34.511340 0.732480 1.704662 0.131993 -0.037062 83920.300000 0 0 1
-24.282209 -23.643094 -4.225289 34.153692 0.772063 1.694828 0.159427 -0.035789 269860.000000 0 0 1
-23.739509 -24.316394 -5.343289 34.400611 0.797402 1.726753 0.163146 -0.044286 -699107.000000 0 0 1
-22.316509 -23.901994 -5.657789 33.186480 0.819689 1.742118 0.147152 -0.035462 -1078710.000000 0 0 1
-21.982509 -22.640094 -6.157289 32.151466 0.800134 1.763496 0.120777 -0.021579 168522.000000 0 0 1
-21.892809 -21.654994 -5.152289 31.221466 0.779937 1.736579 0.127849 -0.020483 -537513.000000 0 0 1
-21.917609 -20.214194 -5.649489 30.346531 0.744990 1.758055 0.128399 -0.005328 -62670.000000 0 0 1
-20.773709 -19.858194 -6.394889 29.441289 0.762870 1.789750 0.116078 0.000030 -3177.940000 0 0 1
-20.729509 -18.587394 -7.009589 28.711289 0.730969 1.817430 0.107524 -0.001417 486959.000000 0 0 1
-19.448909 -18.410994 -7.896089 27.920834 0.757990 1.857511 0.136626 -0.005381 283988.000000 0 0 1
-19.333309 -19.260494 -9.047789 28.750756 0.783511 1.890934 0.143066 -0.013081 585180.000000 0 0 1
-18.057709 -19.193394 -9.715389 28.086581 0.815876 1.924003 0.140221 -0.004225 707208.000000 0 0 1
-17.755809 -17.875994 -10.537089 27.310258 0.788771 1.966903 0.132977 0.000859 -169643.000000 0 0 1
-17.391509 -16.782494 -9.700689 26.042659 0.767579 1.952489 0.144165 -0.015536 784632.000000 0 0 1
-15.982909 -16.667994 -9.431789 24.944620 0.806377 1.958549 0.143699 -0.014694 690780.000000 0 1 0
-15.798109 -15.593894 -8.360589 23.720228 0.778893 1.931002 0.116236 -0.023533 -18533.400000 0 1 0
-16.334909 -16.110594 -7.133489 24.026385 0.778485 1.872243 0.106673 -0.023730 360322.000000 0 1 0
-16.669209 -14.962594 -6.340389 23.279654 0.731498 1.846639 0.133212 -0.033933 -536145.000000 0 1 0
-17.533209 -15.248294 -5.140689 23.798121 0.715809 1.788525 0.151286 -0.039123 -506730.000000 0 1 0
-18.193609 -14.094194 -4.695689 23.488364 0.659109 1.772068 0.133337 -0.033611 201096.000000 0 1 0
-18.877209 -14.319694 -3.488289 23.949339 0.648964 1.716969 0.130159 -0.027549 -202532.000000 0 1 0
-19.667109 -13.095194 -2.997889 23.817360 0.587432 1.697001 0.143038 -0.026267 -592208.000000 0 1 0
-20.935709 -12.983294 -3.576889 24.893051 0.555105 1.714986 0.174488 -0.048088 28467.800000 0 1 0
-21.695309 -11.945694 -2.962589 24.943195 0.503313 1.689851 0.173473 -0.022778 -507532.000000 0 1 0
-23.170409 -11.932094 -3.326189 26.273680 0.475553 1.697735 0.139709 -0.011931 -657085.000000 0 0 1
-23.409409 -11.476694 -4.655389 26.483723 0.455825 1.747497 0.151823 -0.040583 784042.000000 0 0 1
-24.764709 -11.098594 -4.921689 27.580657 0.421324 1.750204 0.154527 -0.023144 743106.000000 0 0 1
-25.179169 -10.889294 -6.437889 28.178249 0.408183 1.801302 0.160783 -0.036522 109736.000000 0 0 1
-25.106789 -12.083594 -7.221989 28.784045 0.448566 1.824409 0.154796 -0.037559 139992.000000 0 0 1
-25.515559 -11.819994 -8.556989 29.393504 0.433815 1.866192 0.167708 -0.036998 249754.000000 0 0 1
-24.355409 -11.877994 -9.609689 28.750979 0.453755 1.911594 0.168685 -0.049105 881418.000000 0 0 1
-23.386409 -10.827194 -9.404989 27.433667 0.433587 1.920720 0.167547 -0.039021 445138.000000 0 0 1
-22.244809 -10.984694 -10.194489 26.822055 0.458683 1.960678 0.148538 -0.033661 56026.200000 0 0 1
-20.984609 -10.136394 -9.833189 25.294108 0.449987 1.970075 0.148163 -0.043552 247299.000000 0 0 1
-21.090209 -8.708894 -10.053289 24.934121 0.391608 1.985801 0.143513 -0.050556 -213536.000000 0 1 0
-19.858309 -8.115594 -9.833789 23.599125 0.387962 2.000610 0.137228 -0.035488 -734386.000000 0 1 0
-19.655509 -6.799994 -10.678789 23.379810 0.333070 2.045138 0.110814 -0.043592 -214815.000000 0 1 0
-19.275509 -7.016094 -12.021789 23.775917 0.349083 2.100907 0.116399 -0.034848 520435.000000 0 1 0
-19.067209 -5.771994 -12.675789 23.612497 0.293949 2.137466 0.133468 -0.046039 -187363.000000 0 1 0
-18.573509 -5.862094 -14.154989 24.077024 0.305721 2.199262 0.147667 -0.043207 222851.000000 0 1 0
-19.603409 -6.220294 -15.072089 25.498109 0.307258 2.203226 0.167049 -0.056297 746230.000000 0 0 1
-19.125509 -6.032294 -16.415689 25.916182 0.305530 2.256754 0.181621 -0.066338 -114688.000000 0 0 1
-19.641809 -7.120994 -17.347389 27.155867 0.347805 2.263744 0.159876 -0.054642 926864.000000 0 0 1
-21.018709 -6.828894 -17.691589 28.309225 0.314138 2.245852 0.151152 -0.058923 1237640.000000 0 0 1
-21.490009 -7.691294 -18.680689 29.494824 0.343696 2.256677 0.157726 -0.051229 -1475780.000000 0 0 1
-22.967709 -7.630794 -18.937989 30.730963 0.320766 2.234770 0.135913 -0.044463 -2027100.000000 0 0 1
-23.264009 -6.468494 -19.689889 31.156817 0.271197 2.254877 0.131124 -0.042706 808991.000000 0 0 1
-24.569109 -6.475994 -20.300389 32.522076 0.257721 2.244908 0.111007 -0.039057 724689.000000 0 0 1
-25.705929 -6.204294 -19.309489 32.743616 0.236827 2.201506 0.138224 -0.033026 -947635.000000 0 0 1
-25.857189 -4.805194 -19.050289 32.474569 0.183740 2.197677 0.147731 -0.026035 900501.000000 0 0 1
-26.965549 -4.358394 -18.224189 32.836831 0.160242 2.159150 0.157424 -0.013979 484299.000000 0 0 1
-26.837159 -2.834194 -18.081489 32.483935 0.105217 2.161118 0.133124 -0.016898 15886.700000 0 0 1
-27.202329 -1.978794 -19.151189 33.326421 0.072616 2.182979 0.134771 -0.013747 289130.000000 0 0 1
-28.502429 -2.118594 -19.706089 34.716089 0.074194 2.174427 0.171470 -0.010975 117368.000000 0 0 1
-28.991389 -0.837094 -20.432689 35.478108 0.028866 2.184530 0.172831 -0.011762 -361337.000000 0 0 1
-28.519229 -0.722894 -21.719489 35.855337 0.025342 2.221509 0.153103 -0.008302 -94641.000000 0 0 1
-29.325109 -1.326494 -22.719289 37.119910 0.045203 2.229448 0.162772 -0.004935 -181730.000000 0 0 1
-28.628609 -1.325194 -24.121289 37.459177 0.046256 2.270427 0.152201 -0.009628 -701188.000000 0 0 1
-28.581979 -0.038694 -24.811889 37.849186 0.001354 2.285702 0.158283 -0.007216 78268.800000 0 0 1
-27.918019 1.063306 -24.258089 37.000017 -0.038068 2.285805 0.132206 -0.005108 -937086.000000 0 0 1
-26.504989 0.829006 -23.735689 35.589108 -0.031267 2.300887 0.125941 -0.001928 -1411580.000000 0 0 1
-25.659089 0.713206 -24.854189 35.729935 -0.027788 2.340068 0.114075 -0.012166 313382.000000 0 0 1
-24.296509 0.533306 -24.429489 34.458739 -0.021946 2.358803 0.105230 -0.008140 734439.000000 0 0 1
-23.408009 -0.047694 -25.545239 34.648180 0.002038 2.399824 0.108751 -0.011163 -205647.000000 0 0 1
-23.270709 0.842806 -26.630719 35.375576 -0.036202 2.423101 0.079319 -0.005335 95234.700000 0 0 1
-22.556209 0.244906 -27.670309 35.699980 -0.010857 2.457637 0.076403 -0.009237 -159049.000000 0 0 1
-22.323609 1.204406 -28.864289 36.509468 -0.053900 2.482580 0.076331 -0.001676 359.140000 0 0 1
-21.340509 2.233006 -28.727469 35.856256 -0.104258 2.500068 0.088403 -0.004143 434632.000000 0 0 1
-21.166309 2.947606 -29.975509 36.813478 -0.138369 2.522239 0.066232 -0.003253 -86727.700000 0 0 1
-20.263909 2.360506 -31.101289 37.195271 -0.115966 2.561045 0.055234 -0.011168 -83306.600000 0 0 1
-18.875109 2.348506 -30.885679 36.272722 -0.123787 2.589607 0.054015 -0.008298 -179853.000000 0 0 1
-18.243909 1.831006 -32.045309 36.920111 -0.100028 2.621883 0.049450 -0.011788 741235.000000 0 0 1
-16.680909 1.804506 -31.964469 36.100363 -0.107759 2.658222 0.063549 -0.026019 733201.000000 0 0 1
-16.104309 3.114306 -31.933949 35.900206 -0.191025 2.667090 0.070693 -0.020237 885146.000000 0 0 1
-14.685709 3.037406 -32.169889 35.493628 -0.203952 2.705376 0.071928 -0.018407 817049.000000 0 0 1
-14.013009 4.359006 -32.449319 35.613532 -0.301580 2.716866 0.071200 -0.015228 -271564.000000 0 0 1
-13.908409 5.201706 -31.342609 34.682282 -0.357891 2.699146 0.080173 -0.026548 96112.900000 0 0 1
-13.195509 6.376606 -31.618569 34.849913 -0.450150 2.707562 0.103518 -0.009730 -264911.000000 0 0 1
-12.992109 7.345306 -30.397869 33.864123 -0.514564 2.685187 0.110768 -0.019085 -417759.000000 0 0 1
-11.887409 7.048306 -29.594499 32.662264 -0.535199 2.704713 0.143823 -0.037049 -242731.000000 0 0 1
-12.078209 5.901206 -28.717679 31.708239 -0.454472 2.703789 0.140395 -0.033303 -211982.000000 0 0 1
-10.738009 5.188706 -28.420369 30.821176 -0.450125 2.744283 0.170191 -0.050609 -134162.000000 0 0 1
-10.098509 4.568506 -29.500099 31.513600 -0.424843 2.782190 0.148903 -0.056798 99582.200000 0 0 1
-10.817009 3.447106 -29.994039 32.070744 -0.308500 2.779750 0.145735 -0.052314 -325714.000000 0 0 1
-10.231509 2.851106 -31.299369 33.052429 -0.271765 2.814440 0.130017 -0.047880 8726.840000 0 0 1
-10.917009 1.671806 -31.740829 33.607384 -0.151957 2.806744 0.120943 -0.040102 330889.000000 0 0 1
-10.449009 1.112106 -32.994629 34.627505 -0.106033 2.833272 0.096656 -0.026122 -377483.000000 0 0 1
-11.065909 1.775306 33.026764 34.876542 -0.159075 0.327150 0.110310 -0.027071 278038.000000 0 0 1
-12.402709 1.322906 32.858895 35.146611 -0.106261 0.362793 0.078302 -0.020678 16634.500000 0 0 1
-12.903109 1.775606 31.622681 34.199955 -0.136752 0.390704 0.072878 -0.017600 1011380.000000 0 0 1
-14.379209 1.419206 31.170781 34.356853 -0.098380 0.434061 0.078917 -0.017950 1275600.000000 0 0 1
-15.410709 2.166206 31.768734 35.375625 -0.139650 0.455502 0.088609 -0.004834 -984823.000000 0 0 1
-16.644509 1.730106 31.368067 35.552617 -0.103573 0.490070 0.086209 -0.007192 107799.000000 0 0 1
-17.705109 2.864206 30.886821 35.716526 -0.160383 0.526091 0.085064 0.000068 1010030.000000 0 0 1
-18.233809 3.683906 31.928397 36.952205 -0.199354 0.527545 0.082656 -0.015431 917072.000000 0 0 1
-17.297909 4.742606 32.210976 36.868102 -0.267596 0.508077 0.077187 -0.005737 92660.900000 0 0 1
-17.737809 5.595406 33.425211 38.251577 -0.305571 0.507781 0.061697 -0.005619 -603588.000000 0 0 1
-19.002009 6.124306 33.270721 38.801087 -0.311786 0.540466 0.065949 -0.003717 -639964.000000 0 0 1
-20.003009 5.470506 -33.261969 39.197007 -0.266956 2.584100 0.056783 -0.008705 653424.000000 0 0 1
-21.426109 6.111706 -33.354469 40.111740 -0.277866 2.552669 0.046140 -0.006275 357082.000000 0 0 1
-21.576609 7.415906 -32.897649 40.034997 -0.331052 2.535223 0.058874 -0.015856 162895.000000 0 0 1
-21.219109 8.423706 33.488371 40.529994 -0.377906 0.598358 0.042234 -0.010130 -361290.000000 0 0 1
-20.993209 9.812806 -33.168459 40.461743 -0.437252 2.531768 0.058801 -0.010645 -207216.000000 0 0 1
-19.812909 9.899506 -32.369819 39.221891 -0.463367 2.541529 0.067067 -0.010751 719970.000000 0 0 1
-19.492009 11.286106 -31.945659 39.087590 -0.524844 2.527478 0.084207 -0.012110 44490.900000 0 0 1
-18.885209 12.152006 -33.102099 40.000891 -0.571769 2.545497 0.068649 -0.028659 139767.000000 0 0 1
-19.866209 12.617006 33.254641 40.739738 -0.565828 0.615871 0.090390 -0.029947 644035.000000 0 0 1
-19.269409 12.720506 32.020588 39.477075 -0.583470 0.624734 0.105248 -0.033020 -198700.000000 0 0 1
-20.055509 11.968306 30.887201 38.723158 -0.538033 0.647422 0.114646 -0.038708 -75360.800000 0 0 1
-20.063009 10.525006 30.892591 38.309950 -0.483131 0.632782 0.092409 -0.023179 47616.300000 0 0 1
-18.899809 9.886606 30.408971 37.143684 -0.481961 0.611679 0.104467 -0.023449 -39101.400000 0 0 1
-18.892109 8.362906 30.421231 36.773649 -0.416739 0.596590 0.118637 -0.016673 234242.000000 0 0 1
-19.934809 7.788206 29.629811 36.551039 -0.372449 0.625548 0.110076 -0.012173 562656.000000 0 0 1
-20.005209 6.378906 29.793001 36.448892 -0.308671 0.613929 0.103123 -0.014583 -232064.000000 0 0 1
-20.561009 5.619506 28.597041 35.666857 -0.266793 0.640525 0.096358 -0.016672 -1250450.000000 0 0 1
-21.905009 5.728206 28.335311 36.270258 -0.255775 0.674167 0.119092 -0.029421 -1101490.000000 0 0 1
-22.247009 4.905406 27.251891 35.519825 -0.217025 0.696285 0.099857 -0.028452 1378680.000000 0 0 1
-23.794009 4.703106 26.891891 36.213918 -0.195144 0.733875 0.089568 -0.022849 1483970.000000 0 0 1
-24.355809 5.689506 26.044081 36.109141 -0.229484 0.765177 0.089019 -0.030033 -1813870.000000 0 0 1
-25.686389 5.496206 26.042121 36.989065 -0.210795 0.789713 0.086724 -0.024593 -2084430.000000 0 0 1
-26.395729 6.542806 25.084991 36.997292 -0.242976 0.825728 0.083775 -0.023619 -97085.700000 0 0 1
-26.207949 6.353806 23.674751 35.884833 -0.237849 0.850320 0.088778 -0.018234 646755.000000 0 0 1
-27.007919 5.307206 23.087731 35.925443 -0.194033 0.872835 0.089561 -0.020703 76038.900000 0 0 1
-26.793299 5.214506 21.572111 34.791204 -0.192217 0.901996 0.111982 -0.005907 -149196.000000 0 0 1
-27.808929 5.776106 20.780911 35.192985 -0.204795 0.939137 0.110089 -0.013163 -37328.800000 0 0 1
-27.786289 5.016006 19.585411 34.363156 -0.178597 0.964347 0.118362 -0.025919 30115.800000 0 0 1
-28.830239 5.542206 18.569611 34.738008 -0.189919 1.006807 0.139032 -0.035417 1064400.000000 0 0 1
-30.197499 5.454806 19.039811 36.113131 -0.178711 1.015463 0.138755 -0.028607 847811.000000 0 0 1
-31.022419 5.783206 17.942411 36.301048 -0.184305 1.053805 0.141096 -0.034475 -375132.000000 0 0 1
-32.521899 5.726006 18.289311 37.748642 -0.174280 1.065002 0.137946 -0.028556 -176616.000000 0 0 1
-32.971929 6.707406 19.172511 38.726252 -0.200689 1.052872 0.144147 -0.029685 -588058.000000 0 0 1
-34.286020 6.399206 19.526411 39.972012 -0.184519 1.060424 0.150144 -0.020392 -355396.000000 0 0 1
-35.005461 7.367506 20.484811 41.222444 -0.207440 1.050735 0.137985 -0.024152 207752.000000 0 0 1
-34.522582 7.315806 21.835911 41.498635 -0.208824 1.016690 0.121610 -0.031824 75890.600000 0 0 1
-35.147112 8.291206 22.618241 42.610426 -0.231665 1.011235 0.127483 -0.027518 23428.700000 0 0 1
-0.249209 32.836006 11.591111 34.822683 -1.563207 1.231460 0.205950 -0.051800 106545.000000 0 0 1
-0.695109 32.799706 12.918011 35.258742 -1.549607 1.195683 0.194015 -0.045112 -127319.000000 0 0 1
-0.224209 -33.524623 13.649411 36.197473 1.564109 1.184153 0.184017 -0.060439 -60628.100000 0 0 1
-0.458409 -33.687623 15.187111 36.955574 1.557190 1.147294 0.193208 -0.055492 -71887.800000 0 0 1
-1.780509 -33.588923 15.643111 37.095726 1.517837 1.135482 0.168258 -0.040468 -425115.000000 0 0 1
-1.772709 -33.436223 17.051411 37.574914 1.517828 1.099774 0.164930 -0.049051 -338580.000000 0 0 1
-3.033909 -32.999823 17.802611 37.618159 1.479117 1.077825 0.166539 -0.040973 -224830.000000 0 0 1
-4.010709 33.439706 17.920111 38.150099 -1.451428 1.081815 0.172932 -0.031385 -3105.950000 0 0 1
-5.138309 -33.460223 18.568111 38.610407 1.418422 1.069105 0.137686 -0.019491 -78334.700000 0 0 1
-6.121509 32.948406 19.162611 38.604093 -1.387100 1.051363 0.124039 -0.023910 64477.300000 0 0 1
-6.904209 32.391106 18.121411 37.752316 -1.360788 1.070133 0.109508 -0.019739 -274645.000000 0 0 1
-7.970109 31.676006 18.685011 37.630063 -1.324300 1.051183 0.100155 -0.028389 -441107.000000 0 0 1
-9.124209 31.364606 17.735911 37.169238 -1.287702 1.073369 0.079879 -0.031838 -438591.000000 0 0 1
-9.911109 32.495906 17.465511 38.200236 -1.274763 1.095941 0.082008 -0.020065 -107148.000000 0 0 1
-10.928009 32.279606 16.494811 37.861235 -1.244365 1.120019 0.074915 -0.010074 28463.300000 0 0 1
-11.792009 33.520806 16.303611 39.096082 -1.232535 1.140639 0.077398 -0.019913 -766338.000000 0 0 1
-12.758309 33.705106 17.280611 39.967838 -1.208937 1.123685 0.063385 -0.013517 -365270.000000 0 0 1
-13.668609 -32.754223 16.885911 39.303995 1.175459 1.126721 0.037632 -0.009929 -493163.000000 0 0 1
-15.047709 -32.842123 17.524911 40.151726 1.141158 1.119128 0.068985 -0.017893 -454566.000000 0 0 1
-15.174209 -32.530523 18.915711 40.574570 1.134338 1.085810 0.068824 -0.017629 218410.000000 0 0 1
-16.450809 -32.928823 19.406711 41.611981 1.107479 1.085610 0.073833 -0.029901 375708.000000 0 0 1
-16.607009 -32.614823 20.931711 42.162258 1.099827 1.051285 0.075613 -0.042252 -259723.000000 0 0 1
-16.714809 -31.242723 21.185111 41.283187 1.079544 1.031927 0.069043 -0.037112 -134503.000000 0 0 1
-16.222009 -30.839123 22.410311 41.429786 1.086550 0.999263 0.081201 -0.040230 17368.400000 0 0 1
-16.485009 -29.317023 22.530311 40.482815 1.058558 0.980581 0.084919 -0.049658 -62913.700000 0 0 1
-16.317809 -28.778423 23.832211 40.773065 1.054983 0.946522 0.111299 -0.056775 -125778.000000 0 0 1
-16.264109 -27.384623 23.885911 39.811752 1.034864 0.927331 0.086178 -0.042723 107012.000000 0 0 1
-17.579109 -26.599123 23.660611 39.703438 0.986803 0.932369 0.093705 -0.034460 -89688.000000 0 0 1
-18.523609 -26.674423 24.688311 40.794138 0.963816 0.920789 0.092808 -0.029594 146051.000000 0 0 1
-19.662709 -25.869123 24.381911 40.624023 0.920873 0.927065 0.086436 -0.025477 -696951.000000 0 0 1
-20.774109 -25.901823 25.424611 41.819600 0.894817 0.917309 0.088803 -0.016183 -503581.000000 0 0 1
-21.546709 -27.040323 25.618711 43.032059 0.897987 0.933107 0.096308 -0.018061 238455.000000 0 0 1
-22.205209 -27.585223 24.466511 43.042142 0.893034 0.966198 0.088800 -0.021575 -1116160.000000 0 0 1
-23.553609 -26.995923 24.025211 43.136564 0.853391 0.980079 0.065594 -0.003702 -640918.000000 0 0 1
-23.601909 -25.654523 23.552311 42.070370 0.827046 0.976614 0.078417 -0.007413 -466327.000000 0 0 1
-24.847909 -25.523923 22.953011 42.376054 0.798818 0.998397 0.079009 -0.006912 -676405.000000 0 0 1
-25.222119 -24.083423 22.610611 41.562078 0.762308 0.995575 0.074833 0.003836 -68690.900000 0 0 1
-25.633919 -23.409723 23.794611 42.086773 0.740078 0.969914 0.066822 -0.001802 469691.000000 0 0 1
-26.424519 -22.255523 23.398811 41.726106 0.699966 0.975479 0.061964 -0.000527 617132.000000 0 0 1
-26.921209 -21.392423 24.601511 42.280275 0.671458 0.949773 0.064450 -0.001491 411380.000000 0 0 1
-27.960809 -21.975523 25.389911 43.696431 0.666109 0.950775 0.050294 0.002173 380781.000000 0 0 1
-28.398499 -21.080023 26.428511 44.150972 0.638551 0.929051 0.042896 -0.004448 -550006.000000 0 0 1
-29.614629 -21.664223 27.192111 45.670294 0.631580 0.933032 0.050565 -0.004183 1238590.000000 0 0 1
-30.942359 -21.509723 26.626911 46.142065 0.607467 0.955668 0.054600 -0.004784 1341940.000000 0 0 1
-31.169019 -22.061523 25.363711 45.842517 0.615944 0.984501 0.042618 -0.000446 -401130.000000 0 0 1
-32.678769 -22.495523 25.288211 47.047254 0.602887 1.003319 0.068667 -0.010261 891665.000000 0 0 1
-33.153459 -23.050123 24.039411 46.993120 0.607535 1.033807 0.052190 -0.015100 287757.000000 0 0 1
-32.659419 -24.345023 23.859311 47.207886 0.640564 1.040940 0.038895 -0.004780 -621555.000000 0 0 1
-33.263669 -25.058923 22.635611 47.400340 0.645637 1.072942 0.057391 -0.006830 -924104.000000 0 0 1
-34.614730 -25.342423 22.682511 48.527459 0.631965 1.084431 0.079861 -0.014493 -759692.000000 0 0 1
-35.103339 -25.910123 21.482011 48.631838 0.635848 1.113273 0.076752 -0.009131 -933800.000000 0 0 1
-36.549939 -26.335023 21.480211 49.908225 0.624367 1.125867 0.078870 -0.006577 -1027600.000000 0 0 1
-36.798949 -27.466123 22.324211 51.058016 0.641182 1.118277 0.072758 -0.006829 -19160.400000 0 0 1
-36.133569 -28.686023 22.134311 51.170797 0.671003 1.123469 0.056178 -0.003485 -957014.000000 0 0 1
-36.586589 -29.588923 20.950011 51.507144 0.680046 1.151914 0.066742 -0.010602 -316066.000000 0 0 1
-36.405219 -29.177123 19.633511 50.617381 0.675627 1.172465 0.064994 -0.015943 569213.000000 0 0 1
-36.886069 -30.218323 18.721611 51.227218 0.686359 1.196667 0.061404 -0.014027 -115360.000000 0 0 1
-37.123939 -29.643723 17.300311 50.559252 0.673830 1.221561 0.079074 -0.015867 314210.000000 0 0 1
-35.972829 -29.302723 16.481711 49.237596 0.683568 1.229469 0.097380 -0.029577 873012.000000 0 0 1
-36.334659 -28.632823 15.270211 48.715761 0.667400 1.251967 0.112892 -0.037583 58869.800000 0 0 1
-37.010029 -29.514023 14.185211 49.417002 0.673190 1.279649 0.108731 -0.034938 464434.000000 0 0 1
-36.073889 -30.530623 13.794111 49.231311 0.702363 1.286805 0.098951 -0.037045 429659.000000 0 0 1
-36.466239 -31.370523 12.739211 49.761268 0.710422 1.311908 0.091477 -0.029279 -68801.000000 0 0 1
-36.688379 -30.859123 11.260311 49.245480 0.699313 1.340099 0.099349 -0.035387 -1030200.000000 0 0 1
-37.810979 -30.108823 11.071411 49.586163 0.672480 1.345622 0.095183 -0.042519 -947923.000000 0 0 1
-37.794799 -29.172223 10.036411 48.787242 0.657344 1.363599 0.084843 -0.032466 405694.000000 0 0 1
37.071763 -28.481823 9.842011 47.774418 -0.655104 1.363301 0.113296 -0.024519 508690.000000 0 0 1
37.143053 -27.242123 9.089711 46.950639 -0.632817 1.375965 0.128913 -0.060722 268435.000000 0 0 1
35.966023 -26.450223 9.171911 45.577331 -0.634106 1.368174 0.109850 -0.046529 115932.000000 0 0 1
35.870013 -25.230123 8.204411 44.615348 -0.612988 1.385852 0.094276 -0.035711 -1912.280000 0 0 1
36.676383 -24.184723 8.673111 44.780361 -0.582961 1.375883 0.107164 -0.042630 96219.900000 0 0 1
36.822483 -23.114623 7.765511 44.164287 -0.560561 1.394045 0.104900 -0.029704 230.903000 0 0 1
37.326003 -21.760623 8.326311 44.000939 -0.527817 1.380418 0.111233 -0.019284 -236745.000000 0 0 1
36.286683 -21.011223 8.890411 42.862971 -0.524861 1.361865 0.109762 -0.037702 -315364.000000 0 0 1
36.191793 -19.643723 8.553811 42.058167 -0.497273 1.365987 0.118737 -0.025407 -36048.700000 0 0 1
35.462663 -18.721023 9.548311 41.221929 -0.485724 1.337042 0.121783 -0.018526 344154.000000 0 0 1
36.190403 -18.576523 10.780011 42.083739 -0.474231 1.311753 0.093082 -0.023602 318946.000000 0 0 1
35.462903 -17.884723 11.770511 41.424941 -0.467099 1.282686 0.096563 -0.023440 274748.000000 0 0 1
36.193573 -18.079623 13.156411 42.543374 -0.463268 1.256395 0.090832 -0.031182 460852.000000 0 0 1
37.487333 -17.517623 13.227411 43.441128 -0.437143 1.261393 0.051041 -0.017594 35236.000000 0 0 1
38.022043 -17.694523 14.495511 44.372195 -0.435566 1.238008 0.058622 -0.001862 -24375.500000 0 0 1
-36.914849 -16.924123 14.668811 43.177611 0.429870 1.224165 0.083499 -0.012735 387789.000000 0 0 1
-35.742658 -17.461123 14.060311 42.191478 0.454424 1.231048 0.081577 -0.009122 1178610.000000 0 0 1
-34.558821 -16.752923 14.497611 41.050619 0.451386 1.209845 0.081903 -0.008634 41180.600000 0 0 1
-33.451069 -16.854323 13.495711 39.814275 0.466723 1.224978 0.104068 -0.009491 -991028.000000 0 0 1
-32.813739 -18.073823 13.396011 39.785144 0.503458 1.227377 0.112218 -0.019313 -476668.000000 0 0 1
-31.742579 -18.030623 12.519111 38.593041 0.516578 1.240432 0.114696 -0.026461 -645362.000000 0 0 1
-31.066879 -19.372723 12.256511 38.609266 0.557578 1.247757 0.092623 -0.029360 -400238.000000 0 0 1
-31.729049 -20.326323 11.500411 39.397353 0.569754 1.274575 0.106037 -0.031563 -204245.000000 0 0 1
-30.782249 -21.228423 10.889711 38.945842 0.603734 1.287407 0.091389 -0.036695 -345523.000000 0 0 1
-31.202819 -22.080623 9.664311 39.428020 0.615841 1.323160 0.099768 -0.034697 -123482.000000 0 0 1
-32.152249 -23.080523 9.873211 40.791641 0.622606 1.326328 0.096562 -0.036981 -299003.000000 0 0 1
-33.475939 -22.623423 10.051111 41.635113 0.594307 1.326978 0.109389 -0.040487 -164420.000000 0 0 1
-34.527224 -23.756823 10.302011 43.158398 0.602668 1.329767 0.141988 -0.047610 358041.000000 0 0 1
-34.679976 -24.585223 9.165111 43.487161 0.616685 1.358450 0.116472 -0.037614 -158583.000000 0 0 1
-35.403246 -25.772023 9.414511 44.790848 0.629243 1.359029 0.127011 -0.032275 175957.000000 0 0 1
-35.602679 -26.691123 8.215111 45.248811 0.643305 1.388230 0.112998 -0.026633 307564.000000 0 0 1
-34.347362 -27.201223 7.832311 44.508347 0.669810 1.393901 0.091675 -0.025766 89843.300000 0 0 1
-34.590082 -27.791623 6.553911 44.853114 0.676845 1.424152 0.068639 -0.018548 414555.000000 0 0 1
-33.283199 -28.148523 5.789511 43.973050 0.702009 1.438753 0.066139 -0.013409 220766.000000 0 0 1
-32.703629 -27.019523 5.213211 42.740608 0.690510 1.448519 0.068805 0.002332 -770760.000000 0 0 1
-31.582049 -27.316323 4.462411 41.994291 0.713099 1.464333 0.087764 -0.020004 -759789.000000 0 0 1
-30.945309 -26.187623 3.671511 40.704837 0.702316 1.480475 0.072462 -0.015629 -12104.100000 0 0 1
-31.649399 -25.844423 2.534511 40.939497 0.684772 1.508848 0.070229 -0.008190 -405102.000000 0 0 1
-30.881309 -24.850923 1.960711 39.687127 0.677615 1.521372 0.097570 -0.026212 -45570.900000 0 0 1
-31.396629 -24.293923 0.606911 39.702788 0.658544 1.555509 0.124446 -0.027190 -212497.000000 0 0 1
-31.155069 -25.121923 -0.515189 40.025177 0.678602 1.583668 0.121390 -0.036833 -215065.000000 0 0 1
-30.995379 -24.401123 -1.727089 39.485582 0.666918 1.614550 0.130891 -0.037012 367293.000000 0 0 1
-32.312029 -23.994223 -2.494289 40.323832 0.638735 1.632692 0.132697 -0.024768 515658.000000 0 0 1
-32.959359 -22.916423 -1.913489 40.188845 0.607560 1.618427 0.120429 -0.018264 1165320.000000 0 0 1
-34.350589 -22.882123 -2.375989 41.342470 0.587634 1.628299 0.132233 -0.025634 1396700.000000 0 0 1
-35.023649 -21.546323 -2.034289 41.170844 0.551516 1.620227 0.125157 -0.021244 -381239.000000 0 0 1
-35.175675 -21.202823 -0.646889 41.076834 0.542453 1.586545 0.123806 -0.035662 176505.000000 0 0 1
-35.793437 -19.988923 -0.443089 40.999067 0.509309 1.581604 0.133612 -0.033297 -470321.000000 0 0 1
-36.096179 -19.477723 1.016611 41.028641 0.494828 1.546016 0.119457 -0.034338 65817.700000 0 0 1
-37.172189 -20.185823 1.605211 42.329845 0.497481 1.532866 0.104317 -0.031802 340686.000000 0 0 1
-37.259229 -19.846723 2.976111 42.320206 0.489438 1.500415 0.098690 -0.036408 -535793.000000 0 0 1
38.004753 -20.806123 3.691611 43.484296 -0.500892 1.485799 0.115240 -0.014543 649712.000000 0 0 1
36.689513 -20.846423 3.187311 42.318467 -0.516697 1.495408 0.106299 -0.013646 105041.000000 0 0 1
35.837023 -19.748323 3.389611 41.058226 -0.503656 1.488146 0.107511 -0.024602 -458667.000000 0 0 1
34.574973 -19.703123 2.505811 39.873812 -0.517968 1.507911 0.111910 0.000352 -217083.000000 0 0 1
33.545913 -20.534623 2.911711 39.439537 -0.549294 1.496902 0.096678 0.001906 -1324460.000000 0 0 1
32.332293 -20.091623 2.427811 38.143738 -0.556014 1.507104 0.122634 0.000451 -387818.000000 0 0 1
31.064563 -20.864123 2.850311 37.529228 -0.591436 1.494774 0.111223 0.008453 51038.700000 0 0 1
30.936463 -22.058423 2.086211 38.052477 -0.619413 1.515944 0.088914 0.006823 382806.000000 0 0 1
29.808963 -22.830023 2.514011 37.631164 -0.653586 1.503940 0.092156 0.003130 488861.000000 0 0 1
29.454663 -24.003023 1.537711 38.027448 -0.683769 1.530348 0.076504 0.004783 120884.000000 0 0 1
29.105063 -23.539623 0.203711 37.433408 -0.680072 1.565354 0.073671 0.004533 246217.000000 0 0 1
28.512263 -24.619723 -0.550889 37.674705 -0.712267 1.585419 0.059155 -0.007063 -115508.000000 0 0 1
27.651063 -24.180323 -1.748889 36.774011 -0.718536 1.618372 0.074153 -0.013053 200636.000000 0 0 1
28.315263 -23.530723 -2.898489 36.930344 -0.693375 1.649362 0.058151 -0.025053 205040.000000 0 0 1
28.720363 -24.368723 -3.963589 37.873526 -0.703612 1.675642 0.048854 -0.024633 -825846.000000 0 0 1
27.637163 -24.983523 -4.898789 37.576420 -0.735011 1.701537 0.043699 -0.025652 100837.000000 0 0 1
26.926663 -24.068723 -5.689089 36.561104 -0.729414 1.727036 0.051134 -0.036299 222666.000000 0 0 1
25.916863 -23.302623 -5.062789 35.218289 -0.732334 1.715051 0.070576 -0.039354 -689464.000000 0 0 1
25.252463 -22.354223 -6.059389 34.265352 -0.724594 1.748568 0.082415 -0.044366 -243850.000000 0 0 1
24.447363 -23.044123 -6.989189 34.315506 -0.755860 1.775906 0.083024 -0.041612 695761.000000 0 0 1
23.352563 -22.350123 -7.615289 33.209379 -0.763468 1.802166 0.073710 -0.046998 500068.000000 0 0 1
23.618863 -21.154223 -8.487089 32.823506 -0.730406 1.832335 0.078097 -0.051178 -709694.000000 0 0 1
24.204963 -21.212223 -9.778889 33.637261 -0.719599 1.865771 0.077819 -0.048461 66520.200000 0 0 1
23.877663 -20.093823 -10.609689 32.961645 -0.699558 1.898511 0.071322 -0.051375 -399016.000000 0 0 1
24.564363 -20.026123 -11.958989 33.874341 -0.683971 1.931614 0.076036 -0.050124 -747922.000000 0 0 1
25.887663 -19.632823 -11.814589 34.571713 -0.648846 1.919566 0.127039 -0.050717 -762386.000000 0 0 1
26.552863 -19.430023 -13.026589 35.387460 -0.631718 1.947775 0.122337 -0.052292 937578.000000 0 0 1
28.096863 -19.741823 -13.017689 36.723746 -0.612492 1.933150 0.140950 -0.048516 902409.000000 0 0 1
28.510363 -21.087523 -13.099589 37.803752 -0.636840 1.924650 0.106031 -0.044133 569988.000000 0 0 1
29.664063 -21.420923 -12.311089 38.605382 -0.625416 1.895360 0.129246 -0.053886 390806.000000 0 0 1
29.994663 -22.889123 -12.414489 39.720414 -0.651837 1.888669 0.100937 -0.034898 -276235.000000 0 0 1
30.321163 -23.154023 -13.789489 40.566386 -0.652165 1.917632 0.095431 -0.043418 230489.000000 0 0 1
30.670263 -24.537223 -13.947589 41.680638 -0.674761 1.912009 0.062010 -0.025526 -318572.000000 0 0 1
-2.978609 -9.315294 -27.412559 29.104900 1.261316 2.798901 0.076740 -0.024112 -19983.500000 0 0 1
-3.090509 -7.987794 -26.963459 28.291063 1.201630 2.834027 0.080915 -0.017995 53826.400000 0 0 1
-4.067609 -7.273494 -27.705729 28.931930 1.060889 2.849411 0.080753 -0.020029 200949.000000 0 0 1
-4.220409 -5.829594 -27.112589 28.051533 0.944168 2.882130 0.072357 -0.022197 -125675.000000 0 0 1
-4.902309 -5.761494 -25.864009 26.947623 0.865795 2.857043 0.060209 -0.021549 245306.000000 0 0 1
-4.992809 -4.482994 -25.295169 26.170039 0.731648 2.882293 0.069733 -0.021419 20920.100000 0 0 1
-5.557209 -4.493394 -23.854389 24.901908 0.679945 2.850512 0.057928 -0.016236 -75021.100000 0 1 0
-4.746709 -5.215894 -22.927089 23.987251 0.832458 2.843176 0.049792 -0.024327 339590.000000 0 1 0
-5.249609 -5.021094 -21.650489 22.836669 0.763153 2.817871 0.037122 -0.016535 87743.300000 0 1 0
-4.648609 -6.123194 -20.667789 22.051317 0.921446 2.785479 0.030655 -0.018533 -296031.000000 0 1 0
-5.019209 -7.434494 -20.968889 22.806983 0.976961 2.737365 0.029219 -0.014568 107586.000000 0 1 0
-4.321409 -8.422194 -20.249389 22.352756 1.096725 2.704299 0.038986 -0.018691 -921938.000000 0 1 0
-5.004109 -9.825394 -20.207689 23.020212 1.099734 2.642096 0.047208 -0.013308 701675.000000 0 1 0
-6.116809 -10.080594 -19.340789 22.651707 1.025399 2.594102 0.041092 -0.011800 527266.000000 0 1 0
-7.278909 -9.332594 -19.635789 22.926928 0.908404 2.599151 0.036799 -0.021901 -822002.000000 0 1 0
-8.306809 -9.373294 -18.483189 22.326890 0.845646 2.546050 0.033267 -0.018263 -441583.000000 0 1 0
-8.888009 -10.653494 -18.399589 23.044273 0.875499 2.495505 0.038882 -0.021065 -422016.000000 0 1 0
-9.649709 -10.731294 -17.260589 22.499011 0.838417 2.445215 0.052443 -0.020836 -976754.000000 0 1 0
-10.588209 -11.921594 -17.304889 23.530698 0.844565 2.397079 0.067738 -0.006400 -540020.000000 0 1 0
-11.780109 -11.699194 -18.021489 24.503391 0.781952 2.397155 0.094888 -0.029335 -15254.300000 0 1 0
-11.742709 -11.994994 -19.408989 25.660864 0.796026 2.428535 0.118541 -0.033621 -733827.000000 0 0 1
-13.045509 -11.767094 -20.212189 26.780261 0.733921 2.426057 0.126533 -0.037160 1079310.000000 0 0 1
-14.043509 -12.844394 -20.088389 27.672043 0.740831 2.383204 0.109455 -0.030984 786520.000000 0 0 1
-14.927909 -12.639794 -19.001789 27.270403 0.702588 2.341711 0.105898 -0.023866 319434.000000 0 0 1
-16.256009 -13.485694 -19.115989 28.487591 0.692520 2.306392 0.123245 -0.011067 651707.000000 0 0 1
-16.067409 -14.866794 -19.111389 29.059050 0.746606 2.288524 0.108171 -0.015755 -217200.000000 0 0 1
-16.561909 -15.426394 -20.322989 30.418651 0.749915 2.302461 0.122400 -0.014546 260665.000000 0 0 1
-16.066209 -16.881694 -20.718089 31.182589 0.810144 2.297503 0.073681 -0.007561 60414.700000 0 0 1
-16.498509 -17.941094 -19.897889 31.464419 0.827261 2.255435 0.088257 -0.004861 -144037.000000 0 0 1
-16.114309 -19.211094 -20.388189 32.317416 0.872839 2.253474 0.069792 -0.008857 -143806.000000 0 0 1
-16.789709 -20.395094 -19.687689 32.946309 0.882055 2.211262 0.089279 -0.023682 -192826.000000 0 0 1
-16.431209 -21.617294 -20.182089 33.832067 0.920865 2.209976 0.080413 -0.019437 115319.000000 0 0 1
-17.273609 -22.656294 -19.688289 34.631113 0.919394 2.175495 0.097385 -0.019056 176372.000000 0 0 1
-16.880309 -24.097794 -20.155189 35.663429 0.959740 2.171411 0.098626 -0.011526 -112492.000000 0 0 1
-17.182209 -24.510994 -21.461789 36.832398 0.959399 2.192828 0.065808 -0.013219 -41550.800000 0 0 1
-16.796209 -25.842534 -21.670489 37.677040 0.994460 2.183601 0.066259 -0.008378 -150847.000000 0 0 1
-17.005209 -26.401454 -23.098989 38.984320 0.998579 2.204980 0.068625 -0.010676 994175.000000 0 0 1
-18.272409 -27.074244 -23.321889 40.134849 0.977115 2.190862 0.087216 -0.012555 826146.000000 0 0 1
-18.156409 -28.421154 -23.064989 40.858425 1.002311 2.170636 0.095961 -0.004165 -25129.900000 0 0 1
-18.914709 -29.186014 -24.174589 42.355642 0.995776 2.178218 0.109740 -0.014996 -172588.000000 0 0 1
-18.397909 -28.974574 -25.487119 42.750465 1.005062 2.209535 0.101228 -0.013395 -52348.600000 0 0 1
-18.787509 -27.739924 -26.089339 42.463249 0.975487 2.232419 0.122026 -0.025498 298025.000000 0 0 1
-17.764209 -27.128054 -27.113799 42.268860 0.991035 2.267197 0.119177 -0.028476 -221686.000000 0 0 1
-17.839709 -27.729584 -28.358559 43.490148 0.999113 2.281106 0.128939 -0.019824 148989.000000 0 0 1
-16.904909 -27.160314 -29.255479 43.351375 1.014060 2.311552 0.091841 -0.015302 44726.800000 0 0 1
-17.216509 -27.487294 -30.734489 44.682976 1.011231 2.329298 0.113405 -0.018152 17862.000000 0 0 1
-17.006409 -28.867204 -31.145829 45.744902 1.038411 2.319731 0.109120 -0.020127 351114.000000 0 0 1
-17.375709 -29.085984 -32.537729 46.974605 1.032297 2.335976 0.121872 -0.017446 51285.900000 0 0 1
-17.161609 -30.517064 -33.085049 48.170868 1.058512 2.327911 0.124051 -0.022337 389901.000000 0 0 1
-15.825009 -30.809204 -33.464039 48.160979 1.096292 2.338990 0.126499 -0.023481 273950.000000 0 0 1
-15.864309 -31.751554 32.760071 48.301757 1.107438 0.825435 0.129040 -0.022950 654928.000000 0 0 1
-14.469609 -32.142844 32.144998 47.705690 1.147805 0.831431 0.127266 -0.024545 691839.000000 0 0 1
-13.732009 -33.055044 32.953535 48.653258 1.177061 0.826691 0.122528 -0.024149 -223044.000000 0 0 1
-12.621709 -33.560554 32.267946 48.237317 1.211072 0.838012 0.124763 -0.025514 -515217.000000 0 0 1
-11.720409 33.008861 33.114873 48.203191 -1.229613 0.813464 0.106220 -0.022729 -153902.000000 0 0 1
-10.844609 33.701795 -33.332619 48.625919 -1.259478 2.326074 0.116714 -0.022654 -87946.600000 0 0 1
-10.474609 32.894432 -32.249019 47.241510 -1.262517 2.322168 0.109647 -0.029343 35219.700000 0 0 1
-9.746709 33.714735 -31.156829 46.930051 -1.289375 2.296817 0.090112 -0.028126 -61469.900000 0 0 1
-10.587909 -32.918624 -30.395389 46.039324 1.259607 2.291888 0.098624 -0.036391 -227840.000000 0 0 1
-9.867609 -31.974634 -29.660239 44.715509 1.271462 2.296029 0.129919 -0.049558 -75459.900000 0 0 1
-10.831309 -31.066254 -28.808359 43.730435 1.235323 2.289981 0.124753 -0.041080 691214.000000 0 0 1
-11.252109 -31.343304 -27.461329 43.164074 1.226130 2.260370 0.158496 -0.050075 165672.000000 0 0 1
-11.789109 -32.651704 -27.294509 44.160017 1.224306 2.237097 0.123887 -0.045999 -321022.000000 0 0 1
-12.196109 -32.893624 -25.827699 43.563811 1.215736 2.205415 0.144888 -0.045979 -672444.000000 0 0 1
-11.133209 -32.878534 -24.958389 42.753568 1.244299 2.194165 0.168194 -0.072337 -954619.000000 0 0 1
-11.493209 -33.047044 -23.618789 42.214313 1.236098 2.164575 0.160899 -0.076941 572327.000000 0 0 1
-10.339609 -32.760734 -22.587589 41.114139 1.265081 2.152427 0.207961 -0.098738 843187.000000 0 0 1
-9.318309 33.723895 -22.493689 41.594447 -1.301211 2.142167 0.177229 -0.082104 167757.000000 0 0 1
-8.123409 -33.179924 -21.936689 40.596989 1.330690 2.141652 0.214903 -0.097381 563999.000000 0 0 1
-7.067509 33.195528 -21.593789 40.226664 -1.361023 2.137439 0.210388 -0.077417 -988416.000000 0 0 1
-6.516509 32.559593 -22.702189 40.224139 -1.373265 2.170493 0.194185 -0.091798 -271832.000000 0 0 1
-5.613909 31.555184 -22.307389 39.049522 -1.394731 2.178835 0.160443 -0.074322 -2108.720000 0 0 1
-4.156109 32.061613 -21.974489 39.090899 -1.441886 2.167765 0.145914 -0.079693 21373.400000 0 0 1
-3.344009 32.285577 -23.104789 39.841839 -1.467588 2.189418 0.160156 -0.079886 -239669.000000 0 0 1
-2.741209 31.088965 -23.520689 39.080184 -1.482851 2.216621 0.177386 -0.095646 -787157.000000 0 0 1
-2.223609 31.070355 -24.987589 39.933582 -1.499351 2.246862 0.166846 -0.059989 390344.000000 0 0 1
-1.172109 31.995617 -25.319009 40.818446 -1.534179 2.239900 0.162624 -0.089265 543333.000000 0 0 1
-1.574709 33.347737 -25.308159 41.893366 -1.523611 2.219444 0.173579 -0.085874 -130692.000000 0 0 1
-0.650709 -33.183184 -26.181379 42.273062 1.551189 2.238698 0.080389 -0.055831 1367290.000000 0 0 1
0.656791 -32.860454 -25.630769 41.679457 -1.550812 2.233118 0.101172 -0.061819 1146290.000000 0 0 1
1.367791 -31.905264 -26.425469 41.450237 -1.527952 2.262075 0.069735 -0.040671 -185709.000000 0 0 1
2.717291 -31.493604 -25.846549 40.832277 -1.484729 2.256210 0.060332 -0.024652 -725107.000000 0 0 1
2.644491 -30.670054 -24.692489 39.463459 -1.484785 2.246831 0.063722 -0.019302 -584014.000000 0 0 1
3.880191 -30.133744 -24.376989 38.952998 -1.442735 2.246960 0.041229 -0.006995 -844194.000000 0 0 1
3.879091 -29.381914 -23.023289 37.528870 -1.439532 2.231259 0.049995 -0.005078 -122070.000000 0 0 1
4.027491 -30.288694 -21.939189 37.615870 -1.438602 2.193512 0.052417 -0.011976 427329.000000 0 0 1
4.078191 -29.548194 -20.700989 36.307828 -1.433645 2.177487 0.060325 -0.004791 -400478.000000 0 0 1
4.144091 -30.315474 -19.375589 36.216225 -1.434940 2.135301 0.066555 -0.004057 -648632.000000 0 0 1
2.935191 -30.900194 -18.960089 36.371999 -1.476091 2.119150 0.078018 -0.018059 -95404.400000 0 0 1
2.691991 -32.229204 -19.368989 37.697827 -1.487463 2.110400 0.070681 -0.018322 -117124.000000 0 0 1
3.361391 -33.406464 -18.588089 38.377179 -1.470513 2.076419 0.062299 -0.020902 -816037.000000 0 0 1
4.711091 -33.598864 -18.777989 38.777454 -1.431489 2.076302 0.052903 -0.014238 -1099800.000000 0 0 1
5.132191 32.844361 -17.874689 37.743820 1.415792 2.064147 0.064168 -0.028503 490787.000000 0 0 1
6.358391 32.040218 -18.395289 37.488549 1.374891 2.083679 0.072776 -0.017077 636824.000000 0 0 1
7.570591 32.765867 -18.605989 38.433042 1.343730 2.076147 0.102087 -0.016718 370772.000000 0 0 1
8.537791 31.853242 -19.175089 38.147174 1.308917 2.097470 0.084159 -0.027745 32840.000000 0 0 1
9.893391 32.530936 -19.298389 39.096915 1.275562 2.087025 0.076411 -0.033201 440728.000000 0 0 1
10.782791 32.564800 -18.115889 38.793301 1.251041 2.056674 0.071755 -0.030986 995107.000000 0 0 1
11.964791 33.328168 -18.339689 39.878154 1.226127 2.048671 0.080785 -0.023196 551852.000000 0 0 1
12.860691 33.441995 -17.066189 39.686511 1.203665 2.015317 0.059139 -0.021622 -213694.000000 0 0 1
13.676891 32.324704 -16.846589 38.932652 1.170528 2.018294 0.066667 -0.027512 91916.400000 0 0 1
14.399391 32.589150 -15.606789 38.896876 1.154744 1.983661 0.058433 -0.034008 -374813.000000 0 0 1
15.598891 31.696500 -15.389389 38.533450 1.113462 1.981634 0.071976 -0.031872 -368755.000000 0 0 1
15.317191 30.463185 -14.703489 37.132392 1.104903 1.977925 0.094381 -0.033086 436601.000000 0 0 1
16.527691 29.696155 -14.791989 37.065201 1.062931 1.981310 0.086677 -0.026541 559282.000000 0 0 1
16.426791 28.192845 -14.275189 35.615403 1.043226 1.983203 0.115599 -0.030013 -330296.000000 0 0 1
16.297191 28.017455 -12.864289 34.872140 1.043956 1.948620 0.107138 -0.038267 -349725.000000 0 0 1
15.099891 28.426115 -12.258589 34.443050 1.082503 1.934683 0.104961 -0.041730 -331982.000000 0 0 1
14.252491 27.210075 -11.765589 32.893020 1.088295 1.936592 0.107130 -0.036226 -862040.000000 0 0 1
13.494591 26.686805 -12.841689 32.545330 1.102627 1.976405 0.095527 -0.038694 113875.000000 0 0 1
12.769291 25.485535 -12.482589 31.118841 1.106316 1.983543 0.120622 -0.036083 1011230.000000 0 0 1
11.781991 25.543935 -11.244689 30.294404 1.138631 1.951076 0.112828 -0.034161 -2078760.000000 0 0 1
10.540491 26.015265 -11.453889 30.316456 1.185845 1.958227 0.107381 -0.037885 -1502850.000000 0 0 1
9.839491 26.154625 -10.216089 29.753125 1.210970 1.921290 0.089252 -0.027901 717407.000000 0 0 1
8.695891 27.230425 -10.341089 30.398235 1.261688 1.917912 0.096077 -0.030347 759974.000000 0 0 1
9.288091 28.532115 -10.388789 31.753380 1.256084 1.904105 0.091174 -0.040978 314356.000000 0 0 1
8.302291 29.508035 -10.725489 32.475964 1.296530 1.907375 0.073006 -0.035036 296949.000000 0 0 1
8.832791 30.890045 -11.146489 34.006724 1.292285 1.904742 0.093913 -0.037168 -243012.000000 0 0 1
9.488391 31.660057 -10.107189 34.562176 1.279618 1.867568 0.098207 -0.036489 142290.000000 0 0 1
10.066491 32.883013 -10.536189 35.967180 1.273725 1.868096 0.092673 -0.037058 -396600.000000 0 0 1
11.195991 32.880401 -11.531889 36.598571 1.242604 1.891349 0.081822 -0.039903 -652426.000000 0 0 1
12.444591 32.472993 -10.957489 36.461345 1.204831 1.876038 0.089705 -0.033471 85780.200000 0 0 1
13.438991 32.776176 -11.903289 37.370743 1.181679 1.894963 0.080755 -0.036533 -24120.600000 0 0 1
14.886591 32.452837 -11.461089 37.498717 1.140719 1.881406 0.081431 -0.034683 323551.000000 0 0 1
15.476191 33.386334 -10.587389 38.291677 1.136733 1.850939 0.082643 -0.029195 682423.000000 0 0 1
16.896991 33.464935 -10.810089 39.016255 1.103223 1.851536 0.091050 -0.035758 921605.000000 0 0 1
17.589991 -32.951944 -9.899289 38.642390 -1.080470 1.829861 0.096000 -0.030027 -84094.500000 0 0 1
17.581691 -33.429074 -8.564489 38.729438 -1.086613 1.793776 0.095593 -0.021258 155818.000000 0 0 1
18.332991 -32.514314 -7.762089 38.125178 -1.057387 1.775825 0.086933 -0.020508 -264727.000000 0 0 1
18.714991 -33.207364 -6.386489 38.649284 -1.057587 1.736800 0.076372 -0.014236 255884.000000 0 0 1
19.629791 33.167911 -6.494589 39.084763 1.036405 1.737737 0.056831 -0.014872 -396618.000000 0 0 1
20.954291 33.653205 -6.442489 40.163742 1.013886 1.731898 0.057875 -0.015398 -823209.000000 0 0 1
21.884891 32.738873 -7.242489 40.040428 0.981548 1.752677 0.049651 -0.011785 -169186.000000 0 0 1
22.001191 31.373825 -6.852089 38.927116 0.959226 1.747742 0.052285 -0.003032 -75558.500000 0 0 1
22.771491 31.202585 -5.665789 39.041558 0.940352 1.716433 0.046542 -0.005329 -257526.000000 0 0 1
22.951891 29.733155 -5.216789 37.921823 0.913408 1.708801 0.039394 -0.016479 137841.000000 0 0 1
23.846391 28.954445 -6.065089 37.997309 0.881840 1.731101 0.043704 -0.017985 542144.000000 0 0 1
24.210391 27.717065 -5.528789 37.214865 0.852826 1.719912 0.053673 -0.016122 -80875.400000 0 0 1
25.387491 27.023435 -6.259389 37.602801 0.816602 1.738036 0.034101 -0.010150 -648302.000000 0 0 1
26.612691 27.706855 -6.191589 38.913248 0.805539 1.730588 0.052480 -0.007722 -505922.000000 0 0 1
27.639891 27.028255 -6.857889 39.262205 0.774210 1.746366 0.035835 -0.006941 -430065.000000 0 0 1
28.372291 26.022755 -5.999489 38.963631 0.742231 1.725388 0.039686 -0.003658 -1420660.000000 0 0 1
29.380891 26.644175 -5.260989 40.010334 0.736589 1.702669 0.064288 -0.003153 -337117.000000 0 0 1
29.762191 25.881195 -4.139989 39.658086 0.715763 1.675379 0.071551 -0.001860 108378.000000 0 0 1
31.162891 26.254345 -3.586089 40.905702 0.700116 1.658576 0.080638 0.000001 121633.000000 0 0 1
31.208191 27.410865 -2.737589 41.626927 0.720709 1.636609 0.096682 -0.002263 157082.000000 0 0 1
32.396891 27.398155 -1.962189 42.474317 0.701994 1.617010 0.096752 -0.012924 154686.000000 0 0 1
32.348191 28.372695 -0.751589 43.034639 0.720020 1.588262 0.100877 -0.012681 54489.600000 0 0 1
32.457291 29.759605 -1.073389 44.048405 0.742066 1.595167 0.085814 0.010856 -461845.000000 0 0 1
31.318791 30.403455 -1.563489 43.677010 0.770569 1.606601 0.089270 -0.005868 -794790.000000 0 0 1
34.862473 22.040306 19.120111 45.461475 0.563765 1.136714 0.164279 -0.022925 -56939.600000 0 0 1
35.376233 22.101406 20.436911 46.450159 0.558422 1.115225 0.149786 -0.021826 178247.000000 0 0 1
36.070663 23.295306 20.768611 47.698000 0.573434 1.120293 0.148422 -0.018919 208552.000000 0 0 1
36.084403 23.529006 22.272951 48.495181 0.577818 1.093610 0.127625 -0.012087 401305.000000 0 0 1
34.885803 24.060606 22.833721 48.138454 0.603777 1.076589 0.110587 -0.009787 205895.000000 0 0 1
35.081373 24.460306 24.178441 49.128467 0.608874 1.056242 0.106130 -0.017038 217062.000000 0 0 1
33.871933 25.044506 24.965521 48.967462 0.636675 1.035799 0.091950 -0.021264 211195.000000 0 0 1
33.628533 26.464206 24.828381 49.474043 0.666737 1.045064 0.060664 -0.022942 1315220.000000 0 0 1
32.307273 26.722406 25.392801 49.016744 0.691068 1.026234 0.042547 -0.017572 1334720.000000 0 0 1
31.891063 28.196906 25.286531 49.512766 0.723996 1.034789 0.028888 -0.019548 -117397.000000 0 0 1
31.853943 28.716006 23.935751 49.114181 0.733638 1.061745 0.035762 -0.034947 251013.000000 0 0 1
31.418193 30.086506 24.042331 49.702458 0.763750 1.065890 0.027995 -0.029863 -107888.000000 0 0 1
31.781723 30.851306 22.762091 49.799535 0.770544 1.096093 0.045859 -0.032630 -245497.000000 0 0 1
33.177863 31.002406 22.656221 50.746666 0.751515 1.107994 0.018287 -0.029959 -449457.000000 0 0 1
33.540683 31.788506 21.554511 50.991013 0.758584 1.134361 0.023434 -0.020726 66552.600000 0 0 1
35.045273 32.129906 21.567411 52.207808 0.742026 1.144933 0.016541 -0.033526 -22710.200000 0 0 1
35.475623 32.865606 22.660351 53.405611 0.747226 1.132600 0.027664 -0.022341 977232.000000 0 0 1
36.874113 33.224606 22.588481 54.532688 0.733383 1.143712 0.035464 -0.022136 1006910.000000 0 0 1
37.239413 -32.856323 23.177271 54.804176 -0.722949 1.134141 0.029602 -0.008366 -284342.000000 0 0 1
36.698393 -31.700023 22.582631 53.494287 -0.712451 1.134980 0.027907 -0.002230 154943.000000 0 0 1
37.027023 -30.508023 23.292421 53.331761 -0.689169 1.118818 0.041847 0.000096 -488976.000000 0 0 1
36.104143 -29.320223 22.904071 51.843814 -0.682076 1.113204 0.044380 -0.002126 1180160.000000 0 0 1
34.684613 -29.322323 23.160141 50.982479 -0.701817 1.099236 0.038353 0.001979 1247100.000000 0 0 1
33.934053 -29.876423 22.092511 50.320966 -0.721895 1.116275 0.037346 0.005616 -352281.000000 0 0 1
33.329713 -31.270223 22.404631 50.898567 -0.753528 1.114995 0.019447 0.001961 -357252.000000 0 0 1
32.274813 -31.261323 23.334841 50.630511 -0.769448 1.091804 0.032405 -0.005247 -118513.000000 0 0 1
31.750733 -32.526223 23.506951 51.172658 -0.797462 1.093516 0.018239 -0.011111 -20863.000000 0 0 1
30.737763 -32.634823 24.682571 51.176861 -0.815324 1.067519 0.024240 -0.022178 121081.000000 0 0 1
30.370363 33.503606 24.999551 51.670379 0.834412 1.065773 0.025343 -0.032559 7985.580000 0 0 1
29.704963 33.366506 26.231371 51.805341 0.843387 1.039855 0.031574 -0.028568 -669565.000000 0 0 1
29.385463 31.870906 26.518461 50.818194 0.825950 1.021801 0.038179 -0.021639 183482.000000 0 0 1
28.585863 31.170906 25.594931 49.435588 0.828631 1.026586 0.042698 -0.028404 -592981.000000 0 0 1
27.231563 31.526406 25.601211 48.896771 0.858362 1.019753 0.041434 -0.027273 -311188.000000 0 0 1
26.500363 31.195306 24.203851 47.552526 0.866594 1.036783 0.090176 -0.032749 449420.000000 0 0 1
26.783863 32.114306 23.150561 47.798038 0.875655 1.065186 0.113040 -0.039013 129940.000000 0 0 1
28.077963 32.122006 22.570281 48.266063 0.852474 1.084198 0.074883 -0.031243 -3832.690000 0 0 1
28.404963 32.970006 21.326211 48.463083 0.859641 1.115141 0.098609 -0.028483 -747985.000000 0 0 1
29.712163 32.906606 20.875911 49.004703 0.836368 1.130732 0.095333 -0.030037 -842015.000000 0 0 1
29.879563 33.514706 19.602811 48.992795 0.842677 1.159153 0.091363 -0.034521 1105240.000000 0 0 1
31.373623 33.567106 19.074111 49.748130 0.819162 1.177307 0.101349 -0.036472 1273670.000000 0 0 1
32.052473 32.374006 18.694911 49.243649 0.790389 1.181388 0.110154 -0.049664 212777.000000 0 0 1
33.008133 32.656706 17.671411 49.681747 0.780046 1.207142 0.102325 -0.034573 -267699.000000 0 0 1
33.947373 31.481206 17.381911 49.453223 0.747723 1.211643 0.083366 -0.046622 -562760.000000 0 0 1
34.928563 31.362306 18.375811 50.411002 0.731653 1.197679 0.060339 -0.042069 -206722.000000 0 0 1
35.784933 30.273706 18.014811 50.215456 0.702162 1.203868 0.087009 -0.051656 183024.000000 0 0 1
36.772343 29.866006 19.129911 51.089500 0.682128 1.187004 0.087145 -0.063297 234051.000000 0 0 1
37.777223 30.842306 19.375211 52.476330 0.684677 1.192629 0.098663 -0.049866 363896.000000 0 0 1
-37.512579 30.370506 20.294111 52.358496 -0.680572 1.172771 0.126247 -0.048700 742642.000000 0 0 1
-36.407449 31.406506 20.673711 52.338067 -0.711786 1.164725 0.118550 -0.046531 566040.000000 0 0 1
-35.430846 31.737706 19.671011 51.474027 -0.730470 1.178670 0.113261 -0.041585 1514740.000000 0 0 1
-34.312284 32.598206 20.072011 51.408768 -0.759786 1.169687 0.107942 -0.023473 1138340.000000 0 0 1
-34.553142 -33.573223 20.945911 52.533914 0.771015 1.160684 0.079964 -0.018566 -713795.000000 0 0 1
-34.780401 33.596506 22.328971 53.263350 -0.768086 1.138212 0.096652 -0.014703 242844.000000 0 0 1
-34.734110 -32.629623 23.067911 52.946003 0.754168 1.119994 0.087180 -0.008052 -246617.000000 0 0 1
-34.885623 -32.877123 24.578001 53.870122 0.755767 1.097025 0.086136 -0.019545 476044.000000 0 0 1
-36.243879 -33.075323 25.012531 55.074699 0.739720 1.099371 0.063240 -0.003560 693544.000000 0 0 1
-36.225069 -33.576323 26.305751 55.960858 0.747469 1.081422 0.078664 -0.016004 207224.000000 0 0 1
-37.624419 33.398206 26.734561 56.971693 -0.725963 1.082343 0.041217 -0.025563 202381.000000 0 0 1
-37.649039 32.673306 27.969761 57.160323 -0.714760 1.059485 0.067706 -0.036555 479484.000000 0 0 1
37.271273 32.717106 28.492041 57.195744 0.720419 1.049333 0.062675 -0.040397 751289.000000 0 0 1
37.142063 31.612206 29.593381 57.049387 0.705142 1.025428 0.070072 -0.036820 -241805.000000 0 0 1
37.180003 30.232806 29.287251 56.161537 0.682706 1.022209 0.068779 -0.039338 -829237.000000 0 0 1
-37.913679 29.841806 28.681881 56.130479 -0.666825 1.034465 0.077592 -0.036482 -1099230.000000 0 0 1
-37.991639 28.390106 28.223421 55.189892 -0.641753 1.033998 0.094474 -0.031235 -393921.000000 0 0 1
37.220563 28.136806 27.306911 54.062163 0.647297 1.041296 0.077997 -0.031982 195235.000000 0 0 1
36.976213 26.833506 26.884131 53.009752 0.627765 1.038916 0.098385 -0.026869 -29096.000000 0 0 1
36.576993 25.850406 27.926051 52.782423 0.615235 1.013282 0.096134 -0.029259 -460896.000000 0 0 1
37.686173 25.494906 28.727501 53.809917 0.594783 1.007626 0.090528 -0.025668 58156.100000 0 0 1
37.467833 24.264706 29.429921 53.467136 0.574696 0.987917 0.091779 -0.019148 158374.000000 0 0 1
37.982543 23.055006 28.575851 52.827891 0.545543 0.999262 0.106365 -0.008789 -133757.000000 0 0 1
37.394573 22.948906 27.293781 51.671625 0.550429 1.014298 0.100225 -0.013006 -465596.000000 0 0 1
38.032123 22.121406 26.390351 51.305454 0.526818 1.030515 0.111405 -0.021107 -641300.000000 0 0 1
37.682363 20.656506 26.429031 50.449434 0.501440 1.019406 0.106823 -0.025446 310889.000000 0 0 1
36.320663 20.457706 25.980311 49.119088 0.512961 1.013463 0.129184 -0.003880 884454.000000 0 0 1
35.885713 19.169106 26.204801 48.393497 0.490609 0.998583 0.133828 -0.005602 -281336.000000 0 0 1
35.496893 18.875906 27.709151 48.827515 0.488733 0.967341 0.108231 -0.005324 -92061.200000 0 0 1
34.262573 19.435406 28.152511 48.417174 0.515990 0.950278 0.094452 -0.012441 498637.000000 0 0 1
34.249733 20.839106 28.289301 49.067271 0.546607 0.956307 0.089654 -0.018707 -339927.000000 0 0 1
33.079623 21.292906 29.241641 49.017577 0.571924 0.931596 0.066881 -0.017811 838485.000000 0 0 1
31.769913 21.186306 28.678551 47.756111 0.588141 0.926644 0.067652 -0.020906 482824.000000 0 0 1
31.330263 22.089806 27.656641 47.269807 0.614116 0.945817 0.067537 -0.010091 -150380.000000 0 0 1
31.054163 23.575506 28.071451 48.043437 0.649347 0.946788 0.054900 -0.010322 -639857.000000 0 0 1
32.224453 24.322806 28.042561 49.156886 0.646562 0.963718 0.058167 -0.019005 -519402.000000 0 0 1
32.114153 25.466306 28.872241 50.134398 0.670454 0.957096 0.044625 -0.017555 7148.100000 0 0 1
32.379183 25.205306 30.376231 51.053250 0.661457 0.933542 0.048548 -0.026646 -439329.000000 0 0 1
33.746383 24.861906 30.429531 51.796612 0.634953 0.942854 0.064915 -0.020880 -275162.000000 0 0 1
34.231103 24.757606 31.739375 52.840281 0.626159 0.926462 0.075117 -0.030096 -234208.000000 0 0 1
33.738603 23.646506 32.652975 52.570594 0.611312 0.900617 0.082287 -0.024405 -573544.000000 0 0 1
34.224373 23.524006 -33.322879 53.245664 0.602183 2.246995 0.088370 -0.032883 -102389.000000 0 0 1
33.723523 22.438606 -32.608409 52.000724 0.587104 2.248590 0.082750 -0.031332 -502879.000000 0 0 1
34.414893 22.483206 -31.248009 51.636396 0.578691 2.220757 0.094070 -0.046095 -200610.000000 0 0 1
33.945083 23.455406 -30.329079 51.208180 0.604647 2.204670 0.084635 -0.052257 68217.700000 0 0 1
34.388533 23.231706 -29.018439 50.639442 0.594138 2.181007 0.118148 -0.060894 139057.000000 0 0 1
35.741973 23.690906 -28.414689 51.440666 0.585343 2.156011 0.112081 -0.032058 370816.000000 0 0 1
36.082623 22.985106 -27.259839 50.728390 0.567191 2.138110 0.111409 -0.034033 -1139200.000000 0 0 1
37.255203 23.448306 -26.720609 51.495282 0.561755 2.116353 0.109427 -0.022737 -651304.000000 0 0 1
37.839823 22.520306 -25.564669 50.917273 0.536844 2.096801 0.093760 -0.025624 363097.000000 0 0 1
-37.257829 21.801306 -25.962119 50.373350 -0.529427 2.112264 0.088661 -0.021456 388150.000000 0 0 1
-37.342849 20.426606 -25.705579 49.724354 -0.500538 2.114094 0.063971 -0.006415 804728.000000 0 0 1
-36.063859 19.567906 -26.178589 48.670560 -0.497137 2.138709 0.063699 -0.000598 606215.000000 0 0 1
-34.926108 20.019806 -25.499969 47.653689 -0.520484 2.135434 0.069887 -0.003317 -810906.000000 0 0 1
-33.956176 19.002206 -25.722819 46.645140 -0.510191 2.154907 0.033081 -0.006428 -62688.000000 0 0 1
-32.654559 19.361606 -24.974289 45.441249 -0.535199 2.152676 0.027710 -0.004077 -292699.000000 0 0 1
-32.798969 19.272306 -23.539889 44.736121 -0.531244 2.124915 0.028976 -0.003326 -193885.000000 0 0 1
-31.587529 19.427406 -22.844289 43.555225 -0.551401 2.122913 0.048720 -0.003576 -414437.000000 0 0 1
-31.811729 19.920006 -21.407089 43.209446 -0.559451 2.089122 0.034968 -0.008518 85540.200000 0 0 1
-32.262289 18.863806 -20.592689 42.670333 -0.529095 2.074417 0.022870 -0.004351 -42994.000000 0 0 1
-32.770539 19.287506 -19.368289 42.673724 -0.531967 2.041899 0.027286 -0.001126 -1055250.000000 0 0 1
-33.590109 18.188906 -18.686789 42.524438 -0.496291 2.025768 0.031183 0.000938 551737.000000 0 0 1
-34.551083 18.578806 -17.685189 43.031561 -0.493366 1.994327 0.033797 -0.010607 123310.000000 0 0 1
-35.627967 19.293106 -18.205889 44.418806 -0.496306 1.993107 0.031895 -0.015008 -1808270.000000 0 0 1
-36.699189 19.502606 -17.134789 44.953121 -0.488465 1.961858 0.042266 -0.017457 -784237.000000 0 0 1
-36.433599 20.140506 -15.900289 44.563060 -0.504991 1.935641 0.049752 -0.021624 308301.000000 0 0 1
-37.591529 20.126606 -15.047189 45.217488 -0.491567 1.910040 0.062551 -0.017471 -332822.000000 0 0 1
-37.490919 20.931706 -13.720989 45.077387 -0.509204 1.880092 0.071927 -0.017275 -82726.500000 0 0 1
-37.552869 22.303706 -13.874289 45.827603 -0.535943 1.878373 0.097118 -0.033465 919077.000000 0 0 1
37.349933 22.750806 -14.003389 45.920709 0.547103 1.880679 0.104145 -0.034438 801566.000000 0 0 1
37.290483 24.231706 -14.357589 46.732173 0.576241 1.883079 0.107037 -0.031139 40141.200000 0 0 1
37.680203 25.231606 -13.388589 47.283040 0.590048 1.857882 0.106946 -0.029174 -9037.260000 0 0 1
37.626403 26.593606 -13.888689 48.123401 0.615262 1.863567 0.123640 -0.017404 55433.000000 0 0 1
-37.261529 27.078706 -14.371689 48.251666 -0.628435 1.873234 0.110567 -0.016234 198967.000000 0 0 1
-36.748399 26.486506 -15.605289 47.911427 -0.624519 1.902560 0.089961 -0.018683 733824.000000 0 0 1
-35.612343 27.163606 -16.166289 47.617742 -0.651616 1.917183 0.088219 -0.021049 125086.000000 0 0 1
-35.382858 26.793106 -17.629489 47.755796 -0.648115 1.948900 0.090290 -0.025498 -78919.900000 0 0 1
-34.853171 25.491906 -17.797789 46.704840 -0.631496 1.961749 0.106206 -0.028926 -95047.100000 0 0 1
-33.450799 25.488506 -17.897289 45.704845 -0.651118 1.973149 0.071629 -0.021330 -232014.000000 0 0 1
-32.898789 24.383606 -18.907689 45.104226 -0.637826 2.003360 0.065818 -0.012863 -1010010.000000 0 0 1
-33.163679 24.630106 -20.248289 46.005053 -0.638802 2.026542 0.073779 -0.017175 173918.000000 0 0 1
-32.588659 23.586406 -21.028989 45.393365 -0.626496 2.052468 0.057335 -0.016667 25688.100000 0 0 1
-32.971789 23.590606 -22.542389 46.387658 -0.621039 2.078254 0.062651 -0.023964 111780.000000 0 0 1
-34.358207 23.353506 -22.775389 47.377114 -0.596976 2.072278 0.075397 -0.026391 179220.000000 0 0 1
-34.545747 23.324806 -24.187689 48.192318 -0.593877 2.096590 0.066356 -0.018097 -14624.600000 0 0 1
-35.130503 24.610406 -24.851289 49.572279 -0.611090 2.095913 0.073449 -0.018950 -58210.100000 0 0 1
-34.271312 25.733806 -24.768389 49.499744 -0.644067 2.094827 0.063857 -0.016215 -121812.000000 0 0 1
-34.907727 26.827806 -25.348289 50.801735 -0.655258 2.093200 0.065898 -0.018117 57354.400000 0 0 1
-33.962084 28.028906 -25.645179 50.958001 -0.689978 2.098165 0.047069 -0.021887 -5724.480000 0 0 1
-32.969749 27.685606 -26.579289 50.596005 -0.698500 2.123892 0.066759 -0.024004 -414160.000000 0 0 1
-32.180579 28.838606 -26.853629 50.876048 -0.730684 2.126834 0.067181 -0.028037 297131.000000 0 0 1
-30.860579 28.432806 -27.550129 50.197703 -0.744476 2.151763 0.083002 -0.036005 -581685.000000 0 0 1
-29.839209 27.789106 -26.757259 48.770521 -0.749839 2.151528 0.095746 -0.027493 650625.000000 0 0 1
-28.615069 27.786206 -27.488969 48.441086 -0.770703 2.174229 0.096411 -0.024008 446754.000000 0 0 1
-27.867639 29.142706 -27.361099 48.729173 -0.807760 2.166986 0.081717 -0.035125 -971034.000000 0 0 1
-27.215269 29.513806 -26.129159 47.900611 -0.825894 2.147766 0.055870 -0.023301 -374970.000000 0 0 1
-28.099379 29.687006 -25.076389 47.955382 -0.812865 2.121059 0.060913 -0.014291 -772076.000000 0 0 1
-27.565249 30.300206 -23.766989 47.358370 -0.832627 2.096537 0.018612 -0.006777 -263429.000000 0 0 1
-27.325029 31.699506 -23.854889 48.172311 -0.859376 2.088860 0.020231 0.005393 -44083.100000 0 0 1
-26.665079 32.058006 -22.711089 47.481952 -0.876978 2.069526 0.037096 0.009799 -331006.000000 0 0 1
-26.091679 33.488106 -22.679889 48.131136 -0.908909 2.061459 0.031782 0.024244 -177074.000000 0 0 1
-26.985489 -33.088723 -22.051689 48.055772 0.886646 2.047527 0.017587 0.010403 -4367.800000 0 0 1
-26.601429 -31.761923 -22.289489 47.045479 0.873589 2.064381 0.036353 0.007327 19768.400000 0 0 1
17.741291 8.273206 -24.962789 31.722865 0.436346 2.476569 0.075605 -0.016388 382561.000000 0 0 1
16.366091 7.922306 -24.829989 30.775643 0.450821 2.509523 0.066017 -0.020713 417603.000000 0 0 1
16.282691 6.486006 -24.976089 30.512281 0.379072 2.529693 0.061696 -0.023608 -21058.200000 0 0 1
14.817591 5.988806 -25.076389 29.736376 0.384095 2.574172 0.071575 -0.032733 -34133.700000 0 0 1
14.191591 6.215906 -23.851589 28.441818 0.412829 2.565523 0.094085 -0.040131 -460507.000000 0 0 1
12.971891 5.540706 -23.817089 27.680735 0.403675 2.606892 0.096963 -0.039633 -504724.000000 0 0 1
11.942091 5.772906 -22.719489 26.308082 0.450286 2.613150 0.121666 -0.047910 -106497.000000 0 0 1
12.353891 5.169406 -21.490889 25.321921 0.396304 2.584332 0.104273 -0.035674 414675.000000 0 0 1
11.483391 5.375606 -20.364689 23.989288 0.437820 2.584711 0.115747 -0.036157 209053.000000 0 1 0
11.924391 6.600506 -19.528289 23.814110 0.505549 2.532260 0.128170 -0.053568 214066.000000 0 1 0
11.158191 6.762506 -18.324789 22.495213 0.544862 2.522850 0.110393 -0.048159 -294132.000000 0 1 0
11.393191 7.993206 -17.614789 22.449430 0.611784 2.472916 0.120795 -0.054454 1252170.000000 0 1 0
12.884091 8.373206 -17.215589 23.075677 0.576296 2.412905 0.125118 -0.051717 1131470.000000 0 1 0
13.471191 7.640806 -16.178889 22.396682 0.515950 2.378033 0.144905 -0.066301 412611.000000 0 1 0
14.862691 7.948806 -16.129489 23.329027 0.491111 2.334209 0.147844 -0.060421 177759.000000 0 1 0
15.645191 7.431906 -14.918789 22.859910 0.443471 2.281831 0.169334 -0.062517 -66566.000000 0 1 0
16.597991 8.418706 -14.523989 23.607502 0.469401 2.233471 0.127278 -0.068002 427778.000000 0 1 0
17.235991 8.114006 -13.295389 23.231096 0.439983 2.180116 0.126220 -0.061323 423615.000000 0 1 0
18.297291 9.217606 -12.949989 24.237519 0.466658 2.134470 0.189435 -0.067009 325877.000000 0 1 0
17.654291 10.417306 -12.509989 24.014455 0.533088 2.118743 0.228896 -0.061614 750234.000000 0 1 0
18.556391 11.446206 -12.121089 24.945462 0.552705 2.078193 0.290093 -0.085188 -265769.000000 0 1 0
17.724691 12.665806 -11.657989 24.708217 0.620448 2.062157 0.305326 -0.083302 -715845.000000 0 1 0
16.977691 12.424006 -10.528389 23.525409 0.631741 2.034801 0.339334 -0.060974 122421.000000 0 1 0
16.185891 13.480906 -9.997189 23.316554 0.694471 2.013915 0.231866 -0.053108 654777.000000 0 1 0
14.849391 13.753006 -10.787889 22.935303 0.747085 2.060497 0.188404 -0.062893 259225.000000 0 1 0
13.958991 14.695706 -10.169589 22.676810 0.811103 2.035835 0.211667 -0.063364 610301.000000 0 1 0
14.148491 16.046106 -10.571189 23.862258 0.848162 2.029748 0.230279 -0.062518 209310.000000 0 1 0
13.285391 16.971206 -9.654889 23.616526 0.906619 1.991956 0.214602 -0.048094 327885.000000 0 1 0
13.731291 16.831306 -8.322089 23.261521 0.886484 1.936667 0.224397 -0.040371 691963.000000 0 1 0
12.833091 17.462106 -7.381889 22.893354 0.937022 1.899110 0.201174 -0.024687 330474.000000 0 1 0
13.176591 17.296006 -5.904889 22.530914 0.919768 1.835973 0.179953 -0.021598 225519.000000 0 1 0
14.256691 18.145006 -5.542989 23.732240 0.904830 1.806537 0.215793 -0.030710 456984.000000 0 1 0
14.725791 17.985106 -4.199689 23.620972 0.884710 1.749542 0.219011 -0.027750 -238511.000000 0 1 0
15.926091 18.867306 -3.866489 24.991305 0.869731 1.726134 0.214585 -0.036402 591921.000000 0 1 0
17.142891 18.528506 -4.577389 25.654175 0.824223 1.750184 0.240662 -0.055994 1386060.000000 0 0 1
18.060191 19.644906 -4.654789 27.088002 0.827403 1.743493 0.167625 -0.045733 563207.000000 0 0 1
19.277491 19.329806 -5.568289 27.861602 0.786753 1.772007 0.164966 -0.036382 546345.000000 0 0 1
20.315891 18.581106 -4.916789 27.967262 0.740828 1.747520 0.148806 -0.047747 495106.000000 0 0 1
20.667391 17.465006 -5.759489 27.664764 0.701614 1.780519 0.191264 -0.060374 -460223.000000 0 0 1
21.642791 16.497706 -5.114489 27.690119 0.651309 1.756567 0.159941 -0.058006 737061.000000 0 0 1
23.018691 16.936706 -5.205189 29.048341 0.634338 1.750960 0.097959 -0.047855 952335.000000 0 0 1
23.846091 16.027106 -4.527889 29.086181 0.591759 1.727104 0.084310 -0.050379 605595.000000 0 0 1
25.393691 16.250006 -4.641189 30.503161 0.569259 1.723544 0.075574 -0.038464 821372.000000 0 0 1
25.806891 17.357006 -3.853189 31.338608 0.592080 1.694062 0.079687 -0.033848 503875.000000 0 0 1
27.231291 17.433806 -3.816589 32.558365 0.569464 1.688289 0.061931 -0.020012 548717.000000 0 0 1
27.759891 18.673606 -3.016289 33.591860 0.592156 1.660710 0.078931 -0.020655 -243519.000000 0 0 1
27.729691 19.871506 -3.772989 34.322703 0.621790 1.680946 0.074421 -0.026730 216496.000000 0 0 1
27.944591 20.995706 -2.933989 35.076033 0.644354 1.654541 0.096152 -0.013959 -153648.000000 0 0 1
27.912791 22.396606 -3.604889 35.968418 0.676189 1.671189 0.083953 -0.019440 -92230.400000 0 0 1
29.040391 22.686106 -4.417489 37.114928 0.663167 1.690101 0.065908 -0.008699 303070.000000 0 0 1
29.113891 22.006006 -5.641689 36.928466 0.647241 1.724170 0.050607 -0.009886 -482318.000000 0 0 1
30.318191 22.343006 -6.515889 38.221191 0.635097 1.742112 0.059082 -0.007583 -613440.000000 0 0 1
30.034091 23.399706 -7.411189 38.788124 0.661869 1.763047 0.056205 -0.000035 599791.000000 0 0 1
31.198591 23.973706 -8.018989 40.154636 0.655188 1.771851 0.066215 -0.005935 922826.000000 0 0 1
32.169291 23.091806 -8.888189 40.584414 0.622587 1.791591 0.068787 -0.008252 -337938.000000 0 0 1
31.624891 22.552006 -10.049089 40.121202 0.619470 1.823960 0.062067 -0.010017 -189441.000000 0 0 1
31.917891 23.251506 -11.260689 41.063212 0.629585 1.848583 0.043828 -0.014043 -74723.400000 0 0 1
31.604091 22.418706 -12.507189 40.716664 0.616981 1.883021 0.075334 -0.016465 157938.000000 0 0 1
32.072291 23.058606 -13.671189 41.799911 0.623336 1.903990 0.085715 -0.017179 69261.900000 0 0 1
31.898891 22.208806 -14.823189 41.599245 0.608188 1.935137 0.090899 -0.019325 58605.900000 0 0 1
32.089291 22.870606 -16.162689 42.591310 0.619210 1.960034 0.098499 -0.022780 101219.000000 0 0 1
33.390691 23.408606 -16.281189 43.908748 0.611432 1.950662 0.108422 -0.021546 40391.000000 0 0 1
33.479291 23.909706 -17.627589 44.757891 0.620169 1.975605 0.122867 -0.028184 191830.000000 0 0 1
34.830691 24.617606 -17.835089 46.230876 0.615261 1.966853 0.117245 -0.032513 484516.000000 0 0 1
35.975791 23.781506 -17.851589 46.674370 0.584098 1.963265 0.116046 -0.020886 -385705.000000 0 0 1
37.202291 24.444206 -17.749289 47.922509 0.581324 1.950209 0.110776 -0.022434 328122.000000 0 0 1
-37.875381 23.433706 -17.889189 47.996939 -0.554060 1.952730 0.089529 -0.035502 153523.000000 0 0 1
-37.833481 22.841406 -19.158689 48.168013 -0.543161 1.979856 0.080107 -0.030390 -267205.000000 0 0 1
-36.540781 22.813506 -19.701389 47.369077 -0.558117 1.999742 0.093140 -0.015984 -288378.000000 0 0 1
-36.452581 22.166906 -21.100289 47.596056 -0.546356 2.030096 0.099101 -0.027794 -452435.000000 0 0 1
-36.508881 20.755206 -21.105189 47.001127 -0.516934 2.036482 0.077642 -0.022814 122158.000000 0 0 1
-36.093181 20.225306 -22.332189 47.016033 -0.510765 2.065750 0.057559 -0.019169 -119332.000000 0 0 1
-35.814281 18.678806 -22.270189 46.125067 -0.480736 2.074670 0.046275 -0.011792 -55767.900000 0 0 1
-36.904681 17.839006 -21.968489 46.505915 -0.450264 2.062786 0.059065 -0.019280 90611.300000 0 0 1
-36.557781 16.534006 -22.308589 45.907710 -0.424740 2.078240 0.045566 -0.021984 -356631.000000 0 0 1
-37.725581 15.630406 -21.990489 46.380067 -0.392789 2.064780 0.044961 -0.022394 261059.000000 0 0 1
37.355891 15.815806 -22.796389 46.532544 0.400499 2.082774 0.127661 -0.027533 921506.000000 0 0 1
36.300491 14.910106 -22.535289 45.253465 0.389732 2.092063 0.176266 -0.027032 109430.000000 0 0 1
36.475991 13.609006 -23.317689 45.380806 0.357099 2.110431 0.118906 -0.026682 -399360.000000 0 0 1
36.434791 13.679906 -24.752389 46.122820 0.359176 2.137273 0.127025 -0.016548 296935.000000 0 0 1
36.929091 12.473806 -25.357329 46.501051 0.325745 2.147551 0.101344 -0.004288 -74270.500000 0 0 1
36.629291 12.390806 -26.849799 47.075989 0.326192 2.177728 0.115916 0.001723 -88896.600000 0 0 1
35.238191 12.239106 -27.051399 46.079323 0.334290 2.198221 0.107595 -0.002759 177643.000000 0 0 1
34.702991 13.168406 -28.007399 46.498590 0.362675 2.217211 0.127480 -0.005750 46064.000000 0 0 1
35.013891 13.075006 -29.574959 47.661374 0.357388 2.240205 0.123198 -0.014029 -895696.000000 0 0 1
36.319691 13.431006 -29.877709 48.910013 0.354204 2.227957 0.119953 -0.007924 -673372.000000 0 0 1
36.634091 13.460506 -31.259269 50.003837 0.352118 2.246104 0.129636 -0.018107 478693.000000 0 0 1
-38.091281 13.692606 -31.505809 51.293753 -0.345085 2.232197 0.126722 -0.017685 1295360.000000 0 0 1
-37.242381 12.635106 -31.023659 50.091000 -0.327081 2.238706 0.117217 -0.015064 257790.000000 0 0 1
-36.872281 12.743406 -29.691179 49.025764 -0.332758 2.221346 0.085576 -0.009264 -829917.000000 0 0 1
-35.690781 11.838106 -29.329609 47.688558 -0.320267 2.233213 0.094468 -0.015392 -278390.000000 0 0 1
-35.947681 10.457306 -29.473699 47.647559 -0.283091 2.237727 0.107659 -0.016865 214296.000000 0 0 1
-34.799281 9.663706 -29.246849 46.473168 -0.270873 2.251484 0.107964 -0.024638 85938.400000 0 0 1
-34.997181 8.224006 -29.715769 46.641868 -0.230803 2.261533 0.120390 -0.029180 -370957.000000 0 0 1
-35.116281 8.179406 -31.144149 47.644662 -0.228843 2.283227 0.136725 -0.034815 106246.000000 0 0 1
-35.526481 6.984506 -31.797869 48.187328 -0.194124 2.291456 0.140027 -0.037059 -180302.000000 0 0 1
-36.979281 6.511606 -31.613599 49.084497 -0.174301 2.270597 0.157748 -0.024828 -370286.000000 0 0 1
-37.130181 5.965006 -30.317969 48.305392 -0.159290 2.249303 0.163960 -0.029162 98680.700000 0 0 1
37.806191 5.536406 -30.135249 48.663057 0.145408 2.238601 0.136472 -0.012827 -337091.000000 0 0 1
37.675291 4.857206 -28.751319 47.640931 0.128216 2.218680 0.141900 -0.031381 -225832.000000 0 0 1
-37.927381 3.621606 -28.685409 47.691246 -0.095199 2.216151 0.173307 -0.023399 218166.000000 0 0 1
-38.061181 2.968806 -27.441589 47.016041 -0.077843 2.194031 0.168045 -0.030178 -186417.000000 0 0 1
-37.354981 1.614106 -27.321669 46.308461 -0.043183 2.201847 0.200729 -0.030505 248658.000000 0 0 1
-36.073181 1.621106 -26.706569 44.912617 -0.044909 2.207607 0.195798 -0.028518 355001.000000 0 0 1
-35.454481 0.361806 -26.634019 44.345485 -0.010204 2.215051 0.207428 -0.025133 490391.000000 0 0 1
-34.113281 0.299906 -25.829729 42.789961 -0.008791 2.218855 0.195227 -0.024730 275214.000000 0 0 1
-34.309381 0.376406 -24.441489 42.126733 -0.010970 2.189758 0.175647 -0.021859 460727.000000 0 0 1
-33.113381 0.484706 -23.693689 40.720042 -0.014637 2.191820 0.189853 -0.019786 206910.000000 0 0 1
-33.512481 0.362006 -22.180689 40.189556 -0.010802 2.155439 0.191490 -0.012095 -334537.000000 0 0 1
-33.758681 -1.010594 -21.939889 40.274416 0.029927 2.146899 0.199123 -0.018793 612936.000000 0 0 1
-34.479381 -1.102194 -20.690889 40.226303 0.031956 2.111060 0.176944 -0.015058 -3221.290000 0 0 1
-36.007381 -1.008794 -20.699989 41.545622 0.028009 2.092372 0.177662 -0.010189 -868578.000000 0 0 1
-36.655881 -2.261694 -20.670489 42.143065 0.061623 2.083441 0.173723 -0.018423 -525339.000000 0 0 1
-37.971781 -2.050394 -20.253889 43.084571 0.053945 2.060196 0.161826 -0.014903 -356931.000000 0 0 1
37.397891 -3.300294 -20.149689 42.608733 -0.088020 2.063376 0.143182 -0.015877 -74068.400000 0 0 1
37.086791 -4.056694 -21.301589 42.960965 -0.108951 2.089593 0.142344 -0.009418 810028.000000 0 0 1
-38.094181 -4.918794 -21.712889 44.122678 0.128411 2.085300 0.138028 -0.019270 331739.000000 0 0 1
37.828391 -5.787594 -22.941489 44.618329 -0.151819 2.110838 0.135521 -0.026731 -1989.190000 0 0 1
36.888191 -6.808594 -22.617189 43.802201 -0.182520 2.113378 0.141735 -0.020951 374574.000000 0 0 1
36.548291 -7.516994 -23.811189 44.263478 -0.202844 2.138790 0.147584 -0.019422 -26208.700000 0 0 1
35.108891 -7.300394 -24.312789 43.324839 -0.205014 2.166600 0.111909 -0.011177 -378896.000000 0 0 1
34.864991 -6.079394 -25.015389 43.339316 -0.172634 2.186090 0.125594 -0.017973 1664450.000000 0 0 1
33.427391 -5.831494 -25.115949 42.216202 -0.172714 2.207983 0.089072 -0.006513 1689990.000000 0 0 1
33.124191 -4.585994 -25.960419 42.334226 -0.137574 2.230934 0.114663 -0.030640 -17668.000000 0 0 1
33.159091 -4.869794 -27.330709 43.245900 -0.145819 2.254907 0.110662 -0.038149 229016.000000 0 0 1
33.008691 -3.721494 -28.128579 43.527464 -0.112269 2.273425 0.116441 -0.041306 -115164.000000 0 0 1
32.429491 -4.084894 -29.503909 44.032248 -0.125302 2.305076 0.122790 -0.031621 128251.000000 0 0 1
31.923291 -2.914594 -30.173659 44.023188 -0.091048 2.325954 0.093940 -0.035671 227071.000000 0 0 1
31.453391 -3.268794 -31.451629 44.600513 -0.103553 2.353481 0.099529 -0.038528 -959264.000000 0 0 1
31.005391 -2.166594 -32.406979 44.902569 -0.069765 2.377077 0.095097 -0.026010 -144335.000000 0 0 1
29.913491 -1.305394 -32.039209 43.852388 -0.043611 2.390018 0.055114 -0.017056 894693.000000 0 0 1
28.664591 -1.921394 -31.748909 42.817564 -0.066930 2.406089 0.050690 -0.020389 -612304.000000 0 0 1
27.831291 -2.343694 -32.923419 43.174358 -0.084013 2.438071 0.073221 -0.028510 -2003850.000000 0 0 1
28.560191 -3.240994 33.528251 44.162565 -0.112996 0.708712 0.082485 -0.033596 172661.000000 0 0 1
27.795191 -3.641694 32.421505 42.860104 -0.130277 0.712929 0.080372 -0.027864 -819702.000000 0 0 1
28.356591 -4.884994 31.748113 42.847428 -0.170596 0.736302 0.057296 -0.025779 591471.000000 0 0 1
29.656291 -4.824094 31.123131 43.259875 -0.161254 0.767792 0.070250 -0.018668 813128.000000 0 0 1
29.864391 -3.911694 30.043961 42.542012 -0.130240 0.786653 0.076081 -0.017400 -577589.000000 0 0 1
30.465591 -2.554394 30.455241 43.153202 -0.083650 0.787319 0.067233 -0.017042 -1380380.000000 0 0 1
31.783391 -2.628894 30.850381 44.371624 -0.082525 0.801997 0.086737 -0.018435 -1049800.000000 0 0 1
32.245891 -1.332494 31.148131 44.852860 -0.041299 0.803139 0.082889 -0.012832 1022580.000000 0 0 1
33.768491 -1.214394 31.573336 46.245662 -0.035947 0.819303 0.097896 -0.021104 1048910.000000 0 0 1
34.672391 -1.440394 30.521631 46.214926 -0.041519 0.849408 0.124483 -0.026233 -94035.300000 0 0 1
35.918491 -1.767994 31.108391 47.549929 -0.049183 0.857638 0.140018 -0.022239 717800.000000 0 0 1
37.076191 -2.355694 30.224601 47.892794 -0.063451 0.887840 0.166324 -0.025619 532756.000000 0 0 1
37.598891 -1.545294 29.237481 47.653907 -0.041076 0.910263 0.166652 -0.021540 -165977.000000 0 0 1
-37.616181 -2.207294 28.589421 47.299093 0.058612 0.921735 0.168082 -0.032124 -65625.000000 0 0 1
-37.044181 -1.569194 27.338301 46.066435 0.042335 0.935453 0.163470 -0.034680 138142.000000 0 0 1
-37.855381 -1.801694 26.205831 46.076258 0.047558 0.965812 0.178234 -0.050705 25204.900000 0 0 1
-37.240281 -1.193994 25.114761 44.933455 0.032051 0.977699 0.161494 -0.046997 107845.000000 0 0 1
-28.645449 14.805006 11.147011 34.117529 -0.477026 1.237961 0.199722 -0.036268 -67670.800000 0 0 1
-29.706819 14.002206 11.630311 34.839934 -0.440463 1.230442 0.104237 -0.009341 -116089.000000 0 0 1
-30.366989 14.763606 12.572611 36.030385 -0.452525 1.214352 0.127720 -0.013491 -879995.000000 0 0 1
-31.638819 14.148506 13.110811 37.055208 -0.420513 1.209146 0.133093 -0.009145 -588894.000000 0 0 1
-32.342409 14.929706 14.032011 38.286092 -0.432470 1.195547 0.116525 -0.013540 -122387.000000 0 0 1
-33.446769 14.241006 14.598611 39.174125 -0.402532 1.188923 0.136159 -0.016976 164373.000000 0 0 1
-34.230604 15.055606 15.637511 40.533163 -0.414363 1.174726 0.113982 -0.016424 443138.000000 0 0 1
-33.348049 15.427506 16.719311 40.368746 -0.433300 1.143771 0.075420 -0.005340 437140.000000 0 0 1
-34.038038 16.072106 17.726211 41.606720 -0.441146 1.130683 0.088577 -0.023449 -276918.000000 0 0 1
-33.176619 16.289006 18.955411 41.537060 -0.456404 1.096908 0.119239 -0.013223 -152936.000000 0 0 1
-32.593259 15.163206 19.598611 40.943240 -0.435443 1.071648 0.125686 -0.014248 -87441.800000 0 0 1
-31.634049 15.526506 20.557511 40.797018 -0.456274 1.042691 0.088740 -0.009927 239960.000000 0 0 1
-32.242959 16.220006 21.864011 42.198720 -0.466089 1.026145 0.108060 -0.022905 -359097.000000 0 0 1
-32.815529 17.483006 21.661111 43.031595 -0.489516 1.043294 0.102961 -0.023592 90365.800000 0 0 1
-33.258169 18.177406 22.847511 44.255312 -0.500194 1.028311 0.106946 -0.028390 -199204.000000 0 0 1
-34.256809 17.490106 23.782411 45.222072 -0.472059 1.017020 0.099733 -0.028846 269467.000000 0 0 1
-35.561864 17.170806 23.281111 45.842043 -0.449828 1.038103 0.156933 -0.026983 889904.000000 0 0 1
-36.617759 17.997106 23.742011 47.206347 -0.456813 1.043798 0.158184 -0.028571 267337.000000 0 0 1
-38.017119 17.451506 23.380711 47.921958 -0.430349 1.061124 0.135257 -0.037519 -73516.500000 0 0 1
37.825373 16.456406 24.244211 47.847193 0.410363 1.039443 0.145022 -0.027269 114421.000000 0 0 1
36.531863 16.027206 23.801111 46.453646 0.413433 1.032863 0.187371 -0.035565 551946.000000 0 0 1
35.945043 15.107506 24.875811 46.250284 0.397878 1.002909 0.169410 -0.025304 40603.500000 0 0 1
35.256773 15.754306 25.992411 46.549367 0.420227 0.978360 0.155287 -0.030261 372618.000000 0 0 1
35.093213 14.973306 27.181211 46.846042 0.403286 0.951792 0.154901 -0.024794 178500.000000 0 0 1
34.294243 13.633706 27.158711 45.821050 0.378393 0.936374 0.161062 -0.032721 329281.000000 0 0 1
34.969823 12.576006 26.466111 45.623453 0.345223 0.951946 0.146433 -0.034255 332016.000000 0 0 1
34.100493 11.436806 26.504711 44.678225 0.323596 0.935724 0.136991 -0.034948 417891.000000 0 0 1
34.782623 10.106806 26.245311 44.730244 0.282784 0.943761 0.123840 -0.045782 -685257.000000 0 0 1
35.757343 9.660906 27.135011 45.915460 0.263879 0.938526 0.120440 -0.035480 -145147.000000 0 0 1
36.115493 8.282706 26.854011 45.761009 0.225441 0.943656 0.134390 -0.032670 -507233.000000 0 0 1
37.204943 7.697206 27.728511 47.035360 0.204008 0.940326 0.117921 -0.031584 -933301.000000 0 0 1
-37.810989 8.242306 27.493211 47.470866 -0.214629 0.953099 0.104373 -0.031321 -307023.000000 0 0 1
-36.746659 7.469206 28.067311 46.838872 -0.200530 0.928256 0.122858 -0.028779 190368.000000 0 0 1
-35.490434 8.310506 28.321111 46.159731 -0.230018 0.910253 0.121575 -0.028478 -223727.000000 0 0 1
-34.896095 8.859106 27.187611 45.115268 -0.248619 0.924009 0.095198 -0.022825 -757762.000000 0 0 1
-33.691309 9.481706 27.437911 44.472981 -0.274333 0.905926 0.078063 -0.010268 -923593.000000 0 0 1
-32.930829 9.927806 26.197911 43.235765 -0.292809 0.919860 0.071961 -0.007811 -169557.000000 0 0 1
-32.332719 8.900606 25.384611 42.059529 -0.268628 0.922863 0.067173 -0.014333 10629.200000 0 0 1
-31.465919 9.550706 24.513711 41.015144 -0.294688 0.930199 0.064224 -0.011898 -580337.000000 0 0 1
-30.502479 8.619406 23.808611 39.642721 -0.275400 0.926570 0.064522 -0.010433 297526.000000 0 0 1
-29.624299 9.298706 22.877311 38.567297 -0.304149 0.935794 0.073173 -0.012835 568675.000000 0 0 1
-28.705139 8.470606 22.188011 37.256463 -0.286946 0.932849 0.070367 -0.009148 101767.000000 0 0 1
-27.673709 9.221006 21.341611 36.143125 -0.321635 0.939149 0.081175 -0.002674 -1428670.000000 0 0 1
-26.529799 9.699906 21.982011 35.792838 -0.350525 0.909494 0.081131 -0.007549 -145848.000000 0 0 1
-25.547329 10.138506 21.084511 34.641188 -0.377790 0.916433 0.075048 0.002745 226905.000000 0 0 1
-24.855709 9.200106 20.012511 33.210673 -0.354504 0.924050 0.067357 0.000714 -832153.000000 0 0 1
-25.658979 8.838006 18.909311 33.076511 -0.331714 0.962240 0.068022 -0.006055 121697.000000 0 0 1
-24.936509 8.188706 17.874111 31.754814 -0.317288 0.972932 0.094599 -0.027491 -105283.000000 0 0 1
-24.744809 6.656806 17.917211 31.267317 -0.262797 0.960594 0.109152 -0.033005 -66799.600000 0 0 1
-23.678209 6.262606 18.791111 30.870434 -0.258567 0.916364 0.108649 -0.021752 763691.000000 0 0 1
-23.676609 4.921906 19.218211 30.889264 -0.204961 0.899292 0.124368 -0.030993 -286994.000000 0 0 1
-23.608509 3.768806 18.122311 29.999729 -0.158302 0.922182 0.142710 -0.034644 602465.000000 0 0 1
-24.912109 3.395006 17.607111 30.694456 -0.135445 0.959872 0.170454 -0.045025 1305370.000000 0 0 1
-24.904009 2.422906 16.558211 30.004241 -0.096985 0.986201 0.172775 -0.048148 -149666.000000 0 0 1
-24.659609 0.972806 17.069211 30.006677 -0.039429 0.965693 0.167376 -0.054031 -597803.000000 0 0 1
-23.358109 0.677006 17.484411 29.185000 -0.028976 0.928434 0.138023 -0.047373 -104964.000000 0 0 1
-23.306909 -0.662994 18.059811 29.492513 0.028439 0.911764 0.162092 -0.044165 -844545.000000 0 0 1
-21.860509 -1.095294 18.256411 28.502247 0.050062 0.875614 0.167933 -0.038888 -666533.000000 0 0 1
-21.160309 -0.515894 19.303011 28.646659 0.024375 0.831415 0.122232 -0.035441 -330334.000000 0 0 1
-20.040509 -1.298494 19.613611 28.071370 0.064703 0.797210 0.097846 -0.030208 -467550.000000 0 0 1
-19.072109 -0.905494 20.707211 28.166538 0.047442 0.744878 0.108969 -0.025641 113192.000000 0 0 1
-19.632509 -1.136994 21.991911 29.502073 0.057849 0.729607 0.117805 -0.028775 -290090.000000 0 0 1
-18.742009 -0.772894 23.007211 29.684879 0.041215 0.684005 0.105874 -0.026654 -917955.000000 0 0 1
-19.322709 -0.917194 24.438311 31.167922 0.047432 0.669575 0.112718 -0.021321 600009.000000 0 0 1
-20.351809 -0.025394 24.845211 32.116682 0.001248 0.686306 0.122975 -0.028556 -847703.000000 0 0 1
-21.567409 -0.091994 24.218211 32.429668 0.004265 0.727571 0.137914 -0.030111 -957903.000000 0 0 1
-22.542109 1.059506 24.698211 33.455506 -0.046967 0.740338 0.118070 -0.035584 150186.000000 0 0 1
-22.109009 2.260806 24.138911 32.811683 -0.101903 0.744126 0.111080 -0.030011 694557.000000 0 0 1
-23.198609 3.092006 23.739311 33.336029 -0.132503 0.778281 0.095943 -0.030231 21366.600000 0 0 1
-22.596309 4.381306 23.063611 32.584033 -0.191518 0.784390 0.108407 -0.021378 351047.000000 0 0 1
-22.021609 4.115206 21.801611 31.260141 -0.184740 0.798998 0.135230 -0.026868 710910.000000 0 0 1
-20.692809 3.604506 21.820211 30.287067 -0.172461 0.766350 0.112959 -0.023701 -366569.000000 0 0 1
-20.278109 2.755906 20.635111 29.062081 -0.135078 0.781248 0.100003 -0.026072 -121337.000000 0 0 1
-19.687909 3.489006 19.566211 27.975410 -0.175395 0.796228 0.097055 -0.016321 327223.000000 0 0 1
-19.334509 2.664506 18.461411 26.865341 -0.136948 0.813192 0.113115 -0.030760 210464.000000 0 0 1
-18.725509 3.450406 17.249011 25.691990 -0.182218 0.834731 0.084495 -0.022406 -1093270.000000 0 0 1
-17.410009 3.827606 17.317711 24.852809 -0.216408 0.799855 0.095944 -0.028361 -1099810.000000 0 1 0
-17.093309 4.592206 16.175111 23.977151 -0.262458 0.830367 0.099280 -0.032826 -49656.900000 0 1 0
-15.607209 4.997206 16.126111 22.991487 -0.309871 0.793444 0.099097 -0.026961 165376.000000 0 1 0
-14.953909 5.860706 17.093611 23.455464 -0.373520 0.754274 0.090797 -0.030528 567191.000000 0 1 0
-15.547509 7.154106 17.279411 24.320450 -0.431258 0.780604 0.097590 -0.032418 -165430.000000 0 1 0
-14.964209 8.197206 16.264311 23.572220 -0.501143 0.809338 0.056525 -0.018873 53654.400000 0 1 0
-15.358109 8.061706 14.922511 22.881083 -0.483381 0.860344 0.060804 -0.025350 1714650.000000 0 1 0
-16.760809 8.422506 14.675411 23.816612 -0.465655 0.906908 0.069390 -0.021114 1838050.000000 0 1 0
-17.362209 7.745106 13.402711 23.260817 -0.419598 0.956734 0.070776 -0.031329 78415.200000 0 1 0
-17.204609 6.346006 13.429411 22.729264 -0.353372 0.938694 0.059957 -0.027653 403119.000000 0 1 0
-18.121509 5.707006 12.542611 22.765678 -0.305097 0.987301 0.073367 -0.023101 463967.000000 0 1 0
-17.650309 4.269706 12.154611 21.851736 -0.237346 0.980953 0.072945 -0.035611 8272.490000 0 1 0
-17.825509 3.385306 13.299511 22.496357 -0.187679 0.938269 0.077690 -0.036469 293734.000000 0 1 0
-17.642509 2.049806 12.951311 21.981726 -0.115667 0.940746 0.067246 -0.043916 -1122580.000000 0 1 0
-18.210709 1.067206 13.949511 22.964270 -0.058536 0.917957 0.066179 -0.050606 -414344.000000 0 1 0
-19.614109 1.154906 13.943011 24.092626 -0.058813 0.953632 0.103750 -0.045230 -251684.000000 0 1 0
-20.129709 0.421706 15.012011 25.114607 -0.020946 0.930117 0.128238 -0.059582 671075.000000 0 0 1
-21.700009 0.365406 14.927311 26.341005 -0.016837 0.968308 0.141406 -0.066916 444157.000000 0 0 1
-22.159109 -0.464594 13.859811 26.140702 0.020963 1.011959 0.161862 -0.058268 757489.000000 0 0 1
-23.568909 -0.397394 13.639611 27.233993 0.016859 1.046238 0.213517 -0.070736 537104.000000 0 0 1
-23.866509 -1.100094 12.297211 26.870837 0.046061 1.095455 0.223435 -0.072647 -396248.000000 0 0 1
-23.710009 -2.440994 12.483511 26.906524 0.102591 1.088338 0.182813 -0.056906 158472.000000 0 0 1
-24.165209 -3.220094 11.439711 26.929414 0.132473 1.132051 0.190787 -0.045350 -250184.000000 0 0 1
-23.906909 -4.753794 11.519111 26.959762 0.196286 1.129325 0.146051 -0.043452 82027.200000 0 0 1
-24.692309 -5.348794 12.551011 28.210771 0.213322 1.109732 0.131267 -0.038916 413434.000000 0 0 1
-24.776309 -6.780194 12.522611 28.577129 0.267117 1.117197 0.117005 -0.032839 -440575.000000 0 0 1
-25.579759 -7.361994 13.636311 29.907725 0.280232 1.097361 0.115284 -0.026871 567220.000000 0 0 1
-26.991259 -7.083194 13.647411 31.063669 0.256639 1.115936 0.161949 -0.041261 971371.000000 0 0 1
-27.577479 -7.634794 14.794611 32.213164 0.270084 1.093621 0.165273 -0.026153 223625.000000 0 0 1
-29.024679 -7.054494 15.068311 33.455222 0.238428 1.103580 0.184006 -0.038737 504978.000000 0 0 1
-30.084259 -7.347294 14.156111 34.050563 0.239535 1.142042 0.162436 -0.033981 710834.000000 0 0 1
-30.527349 -8.670594 14.085311 34.720228 0.276739 1.153073 0.163495 -0.045597 -683822.000000 0 0 1
-30.993269 -9.285894 15.430211 35.845529 0.291099 1.125790 0.152929 -0.039111 -1155730.000000 0 0 1
-29.926949 -9.487094 16.321611 35.383926 0.306987 1.091368 0.172036 -0.017191 31461.200000 0 0 1
-30.324069 -9.989894 17.621811 36.467456 0.318240 1.066467 0.152585 -0.006212 -167085.000000 0 0 1
-29.090819 -10.211494 18.507111 35.959193 0.337584 1.030174 0.163736 -0.010705 -45493.000000 0 0 1
-28.398609 -11.356194 18.032111 35.504946 0.380408 1.038079 0.144558 -0.008283 -372078.000000 0 0 1
-27.211739 -11.562494 18.741911 35.006132 0.401793 1.005828 0.131486 -0.015594 -381786.000000 0 0 1
-26.238559 -12.523794 18.063211 34.228453 0.445327 1.014876 0.102371 -0.004298 -300086.000000 0 0 1
-25.787329 -12.110294 16.824311 33.086296 0.439051 1.037357 0.097568 -0.008075 -171938.000000 0 0 1
-24.699209 -12.874194 16.374411 32.309707 0.480494 1.039333 0.093402 -0.020005 -550966.000000 0 0 1
-24.325509 -12.478594 14.975211 31.172146 0.473981 1.069681 0.082299 -0.014093 -626412.000000 0 0 1
-23.253809 -11.599794 14.828211 29.919404 0.462715 1.052265 0.076815 -0.020997 -563457.000000 0 0 1
-23.006209 -11.372694 13.447511 28.973426 0.459103 1.088141 0.082460 -0.019686 8419.790000 0 0 1
-21.690709 -10.650094 13.157111 27.514014 0.456420 1.072196 0.092687 -0.030589 -617915.000000 0 0 1
-21.886909 -9.255694 13.428011 27.294984 0.400080 1.056458 0.097998 -0.032327 1042950.000000 0 0 1
-20.720909 -8.404494 13.236911 25.984753 0.385329 1.036297 0.113423 -0.041646 810920.000000 0 0 1
-20.061909 -8.391694 11.820511 24.751267 0.396173 1.072907 0.139853 -0.043243 -169350.000000 0 1 0
-19.181809 -9.493394 11.589311 24.338826 0.459573 1.074507 0.119165 -0.046591 535780.000000 0 1 0
-19.013309 -9.619994 10.184711 23.617336 0.468405 1.124931 0.136739 -0.040888 -467241.000000 0 1 0
-18.238109 -10.858294 9.736211 23.352194 0.537003 1.140732 0.091962 -0.031276 817583.000000 0 1 0
-16.809209 -10.829694 9.867911 22.298149 0.572338 1.112363 0.107365 -0.039430 1172270.000000 0 1 0
-16.375409 -11.302894 11.150811 22.808990 0.604143 1.059993 0.115292 -0.036946 1002650.000000 0 1 0
-14.831109 -11.671494 11.186611 21.939140 0.666739 1.035736 0.119583 -0.036919 1161180.000000 0 1 0
-14.547909 -12.917094 10.699811 22.203129 0.726090 1.067968 0.117215 -0.042854 -348107.000000 0 1 0
-13.171009 -13.088894 10.845111 21.503745 0.782271 1.042184 0.123638 -0.041192 -473827.000000 0 1 0
-12.786809 -14.653494 10.785211 22.238439 0.853321 1.064455 0.129207 -0.037618 -44132.500000 0 1 0
-13.075409 -15.320294 9.581511 22.304329 0.864291 1.126768 0.116289 -0.038671 297236.000000 0 1 0
-12.745909 -16.707594 9.704311 23.146826 0.919102 1.138177 0.105643 -0.034623 251166.000000 0 1 0
-13.179309 -17.591494 8.467711 23.555403 0.927816 1.203085 0.101954 -0.024523 202202.000000 0 1 0
-12.292309 -17.447294 7.382511 22.583410 0.957030 1.237775 0.104564 -0.029874 -47499.800000 0 1 0
-12.582309 -18.414094 6.406011 23.204102 0.971368 1.291091 0.081103 -0.025467 63154.100000 0 1 0
-11.830509 -18.258994 5.029311 22.330378 0.995879 1.343625 0.088947 -0.026310 268148.000000 0 1 0
-12.252609 -19.153794 4.013211 23.088961 1.001699 1.396094 0.113355 -0.030614 475234.000000 0 1 0
-11.339909 -18.932994 2.954511 22.266139 1.031150 1.437713 0.129479 -0.041817 357064.000000 0 1 0
-11.722209 -19.767494 1.722811 23.046303 1.035537 1.495972 0.131553 -0.041201 -97355.800000 0 1 0
-11.582409 -21.236894 1.974111 24.270455 1.071499 1.489368 0.136368 -0.049419 -443763.000000 0 1 0
-11.996909 -22.062594 0.898111 25.129475 1.072751 1.535049 0.132902 -0.047145 -927066.000000 0 0 1
-11.143809 -22.111894 -0.329389 24.763458 1.103975 1.584098 0.142774 -0.046803 -629740.000000 0 1 0
-11.220909 -21.093694 -1.336989 23.929904 1.081912 1.626696 0.126976 -0.053653 39525.800000 0 1 0
-12.365509 -21.151294 -2.168589 24.596460 1.041761 1.659078 0.138616 -0.045898 640332.000000 0 1 0
-13.527709 -20.170894 -1.796889 24.353495 0.980038 1.644647 0.153574 -0.041904 154979.000000 0 1 0
-14.342109 -20.435694 -0.697889 24.976003 0.958852 1.598742 0.158736 -0.040290 -499061.000000 0 1 0
-15.401509 -19.547694 -0.671589 24.895178 0.903481 1.597776 0.172495 -0.027271 -359749.000000 0 1 0
27.253291 -19.204894 -3.930889 33.571144 -0.613861 1.688157 0.134979 -0.046923 490234.000000 0 0 1
25.989791 -19.647794 -3.424089 32.760181 -0.647318 1.675507 0.108725 -0.033324 320141.000000 0 0 1
26.001491 -20.794594 -2.577889 33.393685 -0.674586 1.648070 0.096540 -0.025795 -377925.000000 0 0 1
24.645091 -21.153394 -1.967289 32.537929 -0.709305 1.631295 0.088040 -0.021765 -85435.700000 0 0 1
23.662091 -21.550094 -2.899189 32.135750 -0.738719 1.661136 0.092482 -0.030076 -176198.000000 0 0 1
22.495991 -22.069194 -2.291389 31.596984 -0.775822 1.643379 0.086179 -0.025881 296321.000000 0 0 1
21.605891 -22.674694 -3.416389 31.505999 -0.809531 1.679446 0.084660 -0.024432 213445.000000 0 0 1
20.727091 -21.768294 -4.065889 30.331541 -0.809895 1.705249 0.078922 -0.032922 -364558.000000 0 0 1
19.888091 -22.472194 -4.931789 30.411482 -0.846326 1.733684 0.069297 -0.025916 -100801.000000 0 0 1
18.839891 -21.554494 -5.632389 29.176386 -0.852500 1.765062 0.064372 -0.016391 200405.000000 0 0 1
17.719191 -21.191694 -4.845189 28.045204 -0.874405 1.744431 0.069535 -0.011229 123025.000000 0 0 1
18.014191 -20.088394 -3.939989 27.268630 -0.839782 1.715792 0.065195 -0.021369 -598042.000000 0 0 1
16.897991 -19.693194 -2.982589 26.120104 -0.861640 1.685233 0.068761 -0.005097 -330181.000000 0 0 1
16.614491 -20.642894 -1.933089 26.568915 -0.893103 1.643618 0.073560 -0.013615 151412.000000 0 0 1
15.776291 -20.046694 -0.955889 25.527927 -0.904047 1.608250 0.078096 -0.002677 -205097.000000 0 0 1
15.363291 -20.889994 0.273711 25.932557 -0.936680 1.560241 0.064571 -0.007754 402203.000000 0 0 1
14.327991 -21.875594 0.093411 26.150367 -0.990931 1.567224 0.056973 -0.013190 474924.000000 0 0 1
13.728791 -22.190394 1.342611 26.128450 -1.016753 1.519389 0.042705 -0.009449 352105.000000 0 0 1
12.724991 -23.363794 1.487511 26.645918 -1.072073 1.514942 0.054181 -0.017250 458052.000000 0 0 1
13.381491 -24.594494 1.554411 28.042283 -1.072506 1.515337 0.062040 -0.012961 626736.000000 0 0 1
12.435191 -25.604554 1.158611 28.488060 -1.118684 1.530115 0.056974 -0.009771 697823.000000 0 0 1
12.813491 -27.020884 1.613011 29.948548 -1.127995 1.516911 0.064074 -0.011399 47934.800000 0 0 1
12.425191 -27.163694 2.971111 30.017981 -1.141790 1.471656 0.075549 -0.022958 104514.000000 0 0 1
13.087191 -28.162874 3.733211 31.278730 -1.135788 1.451158 0.070247 -0.031507 42038.000000 0 0 1
12.697391 -28.171844 5.215411 31.338109 -1.147350 1.403594 0.078962 -0.032861 -131904.000000 0 0 1
13.522291 -29.087454 5.875911 32.610714 -1.135634 1.389623 0.079439 -0.033613 -180039.000000 0 0 1
13.152691 -29.294184 7.216911 32.912404 -1.148786 1.349724 0.088533 -0.036110 -67518.300000 0 0 1
14.039091 -30.385104 7.832011 34.375733 -1.137976 1.340942 0.091004 -0.027800 -3660.180000 0 0 1
13.710991 -30.879464 9.141911 35.001530 -1.152929 1.306546 0.088346 -0.024682 180682.000000 0 0 1
12.787291 -31.992084 9.119011 35.639369 -1.190547 1.312050 0.077421 -0.027292 487774.000000 0 0 1
12.401991 -32.353754 10.562611 36.223522 -1.204747 1.274902 0.086921 -0.016904 -308045.000000 0 0 1
13.395191 -32.960854 11.356211 37.347190 -1.184788 1.261833 0.080777 -0.021823 -328436.000000 0 0 1
13.132491 -33.086844 12.779811 37.822284 -1.192957 1.226121 0.097989 -0.011612 506436.000000 0 0 1
11.937791 33.446850 13.183311 37.881424 1.227972 1.215343 0.102438 -0.022547 713524.000000 0 0 1
12.377391 32.109645 12.836911 36.728945 1.202876 1.213755 0.102248 -0.029280 -15564.500000 0 0 1
11.354991 31.192325 13.060111 35.671605 1.221676 1.195960 0.098593 -0.025613 -237132.000000 0 0 1
11.444591 30.034005 12.037311 34.320795 1.206728 1.212446 0.116569 -0.026705 -127913.000000 0 0 1
11.154391 30.264035 10.669911 33.973213 1.217676 1.251321 0.125770 -0.032944 -125818.000000 0 0 1
11.982891 31.147345 9.945111 34.823153 1.203535 1.281175 0.072164 -0.026427 -5487.900000 0 0 1
11.357191 31.507224 8.586111 34.574734 1.224831 1.319835 0.065881 -0.022052 1406920.000000 0 0 1
10.075791 32.216400 8.654911 34.847173 1.267681 1.319802 0.069834 -0.020168 1012440.000000 0 0 1
9.443891 32.361025 7.444311 34.523047 1.286852 1.353456 0.070820 -0.026851 -675656.000000 0 0 1
9.937991 33.503345 6.560711 35.556725 1.282437 1.385219 0.069695 -0.021092 -283414.000000 0 0 1
9.515291 -32.695344 6.997411 34.763344 -1.287590 1.368125 0.065712 -0.020276 -6685.970000 0 0 1
10.034091 -31.676514 6.172711 33.796256 -1.264028 1.387120 0.078855 -0.033482 149499.000000 0 0 1
9.261891 -30.369974 6.500311 32.409443 -1.274787 1.368858 0.060720 -0.025993 114553.000000 0 0 1
9.389691 -29.959904 7.823211 32.356835 -1.267084 1.326597 0.079514 -0.029650 -128624.000000 0 0 1
8.770191 -28.739394 8.160611 31.136227 -1.274610 1.305605 0.086765 -0.028503 -326956.000000 0 0 1
9.416991 -27.452854 7.651311 30.014688 -1.240350 1.313033 0.095886 -0.035148 -331039.000000 0 0 1
10.196991 -26.819114 8.661511 29.971074 -1.207463 1.277619 0.092313 -0.030471 389916.000000 0 0 1
11.014791 -25.708384 8.195211 29.144607 -1.166006 1.285761 0.091598 -0.037458 568276.000000 0 0 1
10.384991 -24.526594 7.351111 27.630431 -1.170267 1.301502 0.083726 -0.038158 -266052.000000 0 0 1
10.174291 -25.010614 6.057311 27.671972 -1.184443 1.350112 0.086057 -0.036509 -439726.000000 0 0 1
9.519591 -24.162594 5.183111 26.482413 -1.195490 1.373806 0.092500 -0.031054 -145278.000000 0 0 1
9.258391 -24.884394 3.832111 26.826031 -1.214609 1.427456 0.068556 -0.018593 101524.000000 0 0 1
8.238591 -25.860624 3.825611 27.409516 -1.262385 1.430767 0.049714 -0.021078 -373015.000000 0 0 1
8.685991 -27.180714 4.215211 28.844509 -1.261488 1.424135 0.047600 -0.015305 30184.300000 0 0 1
7.761291 -28.364054 3.879511 29.661555 -1.303703 1.439628 0.052024 -0.019384 305059.000000 0 0 1
6.654691 -28.596344 4.767611 29.745015 -1.342154 1.409819 0.050156 -0.020690 951693.000000 0 0 1
5.571091 -29.345324 4.193811 30.162446 -1.383183 1.431304 0.052222 -0.017420 732498.000000 0 0 1
5.821391 -30.897764 4.240511 31.726052 -1.384571 1.436735 0.046699 -0.010717 -370940.000000 0 0 1
6.908691 -31.393294 3.511611 32.335744 -1.354180 1.461983 0.045788 -0.010476 -242496.000000 0 0 1
6.931891 -32.759304 3.670711 33.685268 -1.362272 1.461609 0.060704 -0.013261 716501.000000 0 0 1
8.132891 -33.538984 3.009211 34.641922 -1.332898 1.483821 0.074314 -0.016200 563609.000000 0 0 1
7.824491 -33.670544 1.685411 34.608797 -1.342465 1.522078 0.079347 -0.012238 -38043.300000 0 0 1
8.738691 32.942701 1.046311 34.098109 1.311499 1.540106 0.071949 -0.014343 -387160.000000 0 0 1
8.155091 32.488074 -0.290689 33.497238 1.324860 1.579474 0.085963 -0.013691 558973.000000 0 0 1
6.996391 31.677625 -0.190689 32.441605 1.353424 1.576674 0.078170 -0.008757 -426684.000000 0 0 1
5.743391 32.287642 -0.266789 32.795572 1.394756 1.578931 0.079248 -0.010874 -461075.000000 0 0 1
4.620091 31.265295 -0.014589 31.604811 1.424087 1.571258 0.071114 -0.010392 -150300.000000 0 0 1
4.330391 30.491135 -1.164589 30.819115 1.429718 1.608593 0.083107 -0.017574 -179704.000000 0 0 1
3.345291 29.561975 -0.805689 29.761560 1.458114 1.597871 0.078371 -0.022351 -229838.000000 0 0 1
3.123191 28.546825 -1.883589 28.778871 1.461824 1.636294 0.081391 -0.017286 -377690.000000 0 0 1
2.714291 29.124765 -3.158089 29.420959 1.477869 1.678345 0.087873 -0.032732 171255.000000 0 0 1
2.428291 28.074075 -4.103989 28.476183 1.484515 1.715420 0.081922 -0.042089 -223991.000000 0 0 1
2.132991 28.728365 -5.477489 29.323565 1.496685 1.758695 0.092906 -0.045558 32955.600000 0 0 1
0.816691 29.230815 -5.578289 29.769528 1.542864 1.759293 0.104125 -0.047397 70320.100000 0 0 1
0.671591 30.169815 -6.646489 30.900559 1.548540 1.787583 0.101955 -0.046313 8510.620000 0 0 1
0.685891 29.744475 -8.180989 30.856649 1.547741 1.839134 0.115454 -0.045102 -203072.000000 0 0 1
-0.440609 28.953965 -8.539289 30.190158 -1.555580 1.857561 0.132017 -0.042042 288529.000000 0 0 1
-0.641009 28.599815 -9.893189 30.269382 -1.548387 1.903752 0.128922 -0.042555 -239348.000000 0 0 1
-0.772909 29.777435 -10.909789 31.722492 -1.544846 1.921878 0.130280 -0.042725 513068.000000 0 0 1
0.441391 30.551655 -11.053689 32.492806 1.556350 1.917914 0.117977 -0.036680 757897.000000 0 0 1
0.202491 31.912883 -11.220189 33.828475 1.564451 1.908879 0.116018 -0.039896 128081.000000 0 0 1
-0.166509 32.758119 -9.995189 34.249465 -1.565713 1.866941 0.113771 -0.047030 58401.900000 0 0 1
0.995691 33.017651 -9.250089 34.303364 1.540649 1.843832 0.105141 -0.049855 -120749.000000 0 0 1
0.697191 -33.603234 -8.123989 34.578355 -1.550052 1.807958 0.103350 -0.043172 -127822.000000 0 0 1
1.862891 -33.293414 -7.171789 34.108010 -1.514901 1.782644 0.095353 -0.039092 305959.000000 0 0 1
2.911191 -32.491364 -7.693489 33.516467 -1.481436 1.802405 0.097122 -0.041217 -155692.000000 0 0 1
3.879891 -32.160544 -6.739389 33.087362 -1.450735 1.775916 0.094536 -0.045179 -280633.000000 0 0 1
5.181591 -31.566654 -7.385089 32.830506 -1.408100 1.797684 0.082774 -0.041427 412712.000000 0 0 1
5.923591 -32.495674 -8.132289 34.017524 -1.390488 1.812196 0.081933 -0.042872 468102.000000 0 0 1
6.742591 -33.408064 -7.333089 34.861662 -1.371646 1.782727 0.087601 -0.030149 -568200.000000 0 0 1
7.025991 32.674637 -8.065189 34.380862 1.358993 1.807587 0.078986 -0.030775 -186312.000000 0 0 1
5.907191 31.867071 -8.307589 33.457751 1.387507 1.821722 0.071806 -0.031059 -243423.000000 0 0 1
5.082291 32.368144 -9.395689 34.085267 1.415053 1.850065 0.091650 -0.034550 244856.000000 0 0 1
4.068591 31.308775 -9.804289 33.059293 1.441570 1.871892 0.087788 -0.037421 8106.160000 0 0 1
4.789391 30.166945 -10.250689 32.218930 1.413348 1.894582 0.068818 -0.038211 328786.000000 0 0 1
3.940991 29.051035 -10.442389 31.121335 1.435962 1.912973 0.086531 -0.041671 -59632.600000 0 0 1
4.655591 28.007675 -11.283589 30.551984 1.406077 1.949078 0.081508 -0.041037 -107152.000000 0 0 1
4.636891 28.371615 -12.649989 31.408144 1.408794 1.985328 0.091985 -0.038155 293528.000000 0 0 1
5.870691 28.199895 -13.334189 31.741135 1.365547 2.004343 0.076172 -0.038768 87842.900000 0 0 1
5.897291 28.892895 -14.722689 32.959596 1.369453 2.033858 0.072735 -0.030210 212434.000000 0 0 1
5.127791 28.135465 -15.678989 32.614863 1.390521 2.072285 0.094746 -0.027208 361619.000000 0 0 1
5.085791 28.791445 -16.913489 33.776895 1.395957 2.095251 0.096743 -0.019320 -145907.000000 0 0 1
3.972991 28.191255 -17.786989 33.569457 1.430788 2.129227 0.093409 -0.030863 -103234.000000 0 0 1
4.285591 26.927125 -18.456989 32.925625 1.412965 2.165866 0.104231 -0.019691 -197832.000000 0 0 1
3.238891 26.399845 -19.240989 32.827700 1.448720 2.197059 0.098902 -0.034402 69898.200000 0 0 1
3.788391 25.193985 -19.989189 32.382965 1.421546 2.236070 0.115706 -0.036244 267315.000000 0 0 1
3.744091 23.958125 -19.250789 30.961312 1.415774 2.241796 0.116184 -0.041404 -166374.000000 0 0 1
4.915091 23.202135 -19.447589 30.670929 1.362045 2.257605 0.115632 -0.043376 161748.000000 0 0 1
4.889191 21.992535 -18.508989 29.157477 1.352042 2.258538 0.141067 -0.041893 312960.000000 0 0 1
3.898191 21.028735 -18.767389 28.453795 1.387502 2.291048 0.144896 -0.037540 -280899.000000 0 0 1
4.264691 19.852735 -18.041989 27.163064 1.359196 2.297233 0.142004 -0.035048 94628.800000 0 0 1
3.206391 18.746035 -18.026789 26.204196 1.401392 2.329437 0.123631 -0.042085 -189648.000000 0 0 1
2.127691 18.838935 -17.133989 25.553984 1.458332 2.305681 0.123872 -0.031299 46228.200000 0 0 1
1.405991 17.628835 -16.912989 24.470427 1.491210 2.333890 0.075905 -0.015944 -50163.300000 0 1 0
2.104991 16.747635 -15.832889 23.142917 1.445763 2.324214 0.079502 -0.019651 1456810.000000 0 1 0
3.356791 16.102135 -16.233089 23.109737 1.365271 2.349609 0.092001 -0.027232 1034670.000000 0 1 0
3.172691 14.985135 -17.076289 22.939483 1.362155 2.410441 0.099092 -0.030089 -381764.000000 0 1 0
3.302191 15.115935 -18.626989 24.214885 1.355718 2.448443 0.109235 -0.024449 -65257.500000 0 1 0
4.571491 15.465035 -19.148089 25.034279 1.283380 2.441643 0.138254 -0.031429 -193009.000000 0 0 1
4.630291 15.870435 -20.508889 26.342453 1.286920 2.463147 0.141502 -0.037304 -597019.000000 0 0 1
4.622991 14.720535 -21.561489 26.513468 1.266500 2.520474 0.140479 -0.057254 277108.000000 0 0 1
3.481691 13.890235 -21.683789 25.985525 1.325199 2.557942 0.123639 -0.047790 -346621.000000 0 0 1
2.312591 14.525335 -22.134189 26.575473 1.412911 2.555088 0.119590 -0.052967 -184659.000000 0 0 1
1.294491 13.496935 -22.710789 26.450385 1.475179 2.603365 0.099107 -0.041361 53125.600000 0 0 1
1.003891 12.500735 -21.778089 25.130884 1.490662 2.619118 0.095685 -0.028982 135771.000000 0 0 1
0.289591 11.412135 -22.345289 25.092481 1.545426 2.669277 0.057889 -0.020354 -354152.000000 0 0 1
-0.502109 10.519735 -21.409489 23.859655 -1.523102 2.684432 0.032297 -0.011501 -207415.000000 0 1 0
-1.668309 11.102235 -20.799689 23.636200 -1.421644 2.646644 0.030839 -0.008377 442937.000000 0 1 0
-2.167009 10.287535 -19.790889 22.410011 -1.363187 2.653283 0.023892 -0.004008 79649.500000 0 1 0
-3.186909 9.185535 -20.206389 22.423840 -1.236842 2.693123 0.027392 -0.004542 -306697.000000 0 1 0
-2.671909 8.005635 -20.799689 22.446745 -1.248668 2.756128 0.024760 -0.005468 -793229.000000 0 1 0
-3.675409 7.075435 -20.929189 22.396459 -1.091702 2.777610 0.034355 -0.008385 -870498.000000 0 1 0
-3.216909 5.805935 -21.666789 22.660696 -1.064832 2.844322 0.044548 -0.017789 -590301.000000 0 1 0
-2.231509 5.120735 -20.983389 21.714147 -1.159831 2.881423 0.038212 -0.006339 -321126.000000 0 1 0
-2.076909 3.797835 -21.458289 21.890529 -1.070362 2.942541 0.063339 -0.020659 -139332.000000 0 1 0
-1.106309 2.989835 -20.577789 20.823266 -1.216396 2.987893 0.061936 -0.026701 1788320.000000 0 1 0
0.324391 3.340235 -20.576789 20.848660 1.473984 2.979922 0.065608 -0.025566 1707430.000000 0 1 0
1.044291 2.362535 -19.905689 20.072582 1.154597 3.012550 0.060182 -0.022223 -185313.000000 0 1 0
2.570091 2.297935 -20.012689 20.307476 0.729549 2.970997 0.053787 -0.024622 -265350.000000 0 1 0
3.194391 1.906135 -21.172089 21.496391 0.537999 2.967671 0.073412 -0.020816 -1087710.000000 0 1 0
4.561491 1.824035 -20.937689 21.506304 0.380400 2.911129 0.089724 -0.026963 -635657.000000 0 1 0
5.332791 1.360435 -22.194189 22.866383 0.249780 2.898522 0.086303 -0.015415 1032670.000000 0 1 0
6.756191 1.228035 -22.018089 23.064050 0.179801 2.839277 0.096230 -0.029613 1362350.000000 0 1 0
7.471291 0.514535 -23.070289 24.255374 0.068760 2.827708 0.102374 -0.030193 451307.000000 0 1 0
8.995791 0.440035 -22.872289 24.581690 0.048877 2.766464 0.099721 -0.035299 275694.000000 0 1 0
9.584091 1.776935 -22.890789 24.879721 0.183323 2.739025 0.083566 -0.041581 1423360.000000 0 1 0
11.029491 1.716435 -23.039089 25.600692 0.154384 2.690428 0.095347 -0.035829 1417980.000000 0 0 1
13.527691 -19.778494 22.828341 33.095625 -0.970917 0.809626 0.123384 -0.022883 -367343.000000 0 0 1
13.011591 -21.041994 22.542661 33.469965 -1.016984 0.831837 0.118991 -0.018897 81667.500000 0 0 1
11.977391 -21.163994 21.571411 32.506896 -1.055803 0.845182 0.103394 -0.006678 -87242.500000 0 0 1
12.245591 -20.875794 20.100411 31.460766 -1.040293 0.877724 0.130133 -0.024999 -394751.000000 0 0 1
12.224591 -19.477494 19.852311 30.379724 -1.010311 0.858634 0.165451 -0.030030 129375.000000 0 0 1
12.258091 -19.124094 18.489411 29.289078 -1.000791 0.887603 0.169570 -0.032603 4631.840000 0 0 1
12.234791 -17.582294 18.321811 28.187159 -0.962855 0.863205 0.199773 -0.049486 -519144.000000 0 0 1
11.034591 -17.002794 18.701611 27.579113 -0.995134 0.825611 0.223003 -0.049135 -764023.000000 0 0 1
10.829491 -15.655094 18.222211 26.351638 -0.965625 0.807230 0.245719 -0.050225 -412818.000000 0 0 1
9.634191 -14.940594 18.806911 25.879314 -0.998062 0.757267 0.204693 -0.053206 -254691.000000 0 0 1
8.409491 -15.433494 18.325211 25.391448 -1.071888 0.764530 0.145161 -0.037512 -12731.700000 0 0 1
7.250491 -14.721094 18.703311 24.881601 -1.113147 0.720172 0.104813 -0.024785 908604.000000 0 1 0
5.870091 -15.269394 18.236611 24.498701 -1.203780 0.731174 0.033436 -0.005353 259895.000000 0 1 0
5.598791 -14.927394 16.875711 23.215581 -1.211966 0.756980 0.020124 -0.018739 -952949.000000 0 1 0
4.332291 -15.257494 16.438111 22.842315 -1.294133 0.767521 -0.000904 -0.018222 -684462.000000 0 1 0
3.932691 -16.768194 16.283611 23.702202 -1.340427 0.813432 -0.010256 -0.011278 -728135.000000 0 1 0
2.643291 -16.967294 15.800611 23.335282 -1.416251 0.826965 0.004627 -0.013830 -862149.000000 0 1 0
2.199691 -18.304994 15.879711 24.332626 -1.451201 0.859773 0.018476 -0.017149 518029.000000 0 1 0
0.661391 -18.324894 15.632911 24.096205 -1.534720 0.864828 0.030452 -0.006167 266851.000000 0 1 0
0.355191 -17.752894 14.366411 22.840429 -1.550792 0.890542 0.039237 -0.020243 446804.000000 0 1 0
-1.066809 -17.754094 14.174311 22.743286 1.510780 0.897929 0.052548 -0.019145 671057.000000 0 1 0
-1.568109 -18.967494 13.365811 23.256606 1.488310 0.958546 0.048922 -0.008602 -822188.000000 0 1 0
-2.958709 -19.041294 13.261711 23.392260 1.416645 0.968025 0.053247 -0.015533 -469821.000000 0 1 0
-3.280609 -20.126194 12.375111 23.853081 1.409215 1.025343 0.083749 -0.033354 432765.000000 0 1 0
-4.821709 -20.295794 12.260211 24.196713 1.337549 1.039456 0.069284 -0.035631 321649.000000 0 1 0
-5.373309 -20.778194 13.444111 25.324888 1.317737 1.011175 0.070983 -0.037661 -2216.470000 0 0 1
-6.694009 -21.264994 13.282711 25.950725 1.265826 1.033467 0.073368 -0.033355 -42651.900000 0 0 1
-7.275609 -21.789494 14.590611 27.214013 1.248532 1.004935 0.068516 -0.034414 23163.000000 0 0 1
-8.684409 -21.731794 14.612211 27.589972 1.190620 1.012643 0.078344 -0.031659 -168649.000000 0 0 1
-9.333509 -22.640694 15.504211 28.984409 1.179779 1.006389 0.073851 -0.022848 731117.000000 0 0 1
-10.854409 -22.294594 15.500611 29.242710 1.117714 1.012116 0.103001 -0.032121 465436.000000 0 0 1
-11.012709 -20.978694 15.953511 28.563961 1.087391 0.978197 0.093335 -0.030761 259150.000000 0 0 1
-12.317409 -20.479494 15.630411 28.555875 1.029311 0.991587 0.091956 -0.023654 461474.000000 0 0 1
-12.651409 -19.139494 16.280511 28.132427 0.986720 0.953651 0.100628 -0.028740 -116728.000000 0 0 1
-12.809509 -19.308594 17.635711 29.119128 0.985052 0.920226 0.102155 -0.036727 -87972.300000 0 0 1
-13.039209 -18.119694 18.388211 28.921801 0.947027 0.881764 0.104269 -0.038226 -112582.000000 0 0 1
-13.567409 -18.371094 19.784611 30.215932 0.934683 0.856913 0.105792 -0.037704 -273056.000000 0 0 1
-14.856409 -18.923894 19.717911 31.106634 0.905231 0.884235 0.108439 -0.029732 -288940.000000 0 0 1
-15.246409 -19.544394 20.899511 32.422614 0.908313 0.870301 0.093013 -0.026356 -442125.000000 0 0 1
-16.667009 -20.092194 20.735111 33.338121 0.878309 0.899548 0.105667 -0.032130 -961621.000000 0 0 1
-16.721609 -21.258994 19.928111 33.595932 0.904300 0.935805 0.108945 -0.036369 126979.000000 0 0 1
-17.965609 -21.390394 19.275411 33.938968 0.872200 0.966791 0.103786 -0.030670 283032.000000 0 0 1
-19.083509 -22.048394 20.143011 35.440837 0.857356 0.966290 0.104589 -0.029359 -255595.000000 0 0 1
-19.642509 -21.180694 21.153211 35.803747 0.823060 0.938734 0.098358 -0.032392 218945.000000 0 0 1
-20.295009 -21.889594 22.199811 37.200448 0.823180 0.931337 0.093674 -0.027176 -79225.600000 0 0 1
-20.823609 -20.926694 23.249811 37.577958 0.787867 0.903698 0.074547 -0.019858 155137.000000 0 0 1
-22.136809 -20.443294 22.976831 37.893289 0.745647 0.919326 0.091599 -0.010814 548467.000000 0 0 1
-22.507409 -19.343694 23.852381 38.074900 0.709947 0.893794 0.085847 -0.014441 92564.400000 0 0 1
-23.580309 -18.433894 23.257071 37.904232 0.663513 0.910217 0.097229 -0.023584 -31654.600000 0 0 1
-23.117709 -17.582894 22.187111 36.549344 0.650239 0.918459 0.099947 -0.015151 623460.000000 0 0 1
-24.229809 -16.955294 21.509311 36.567966 0.610572 0.941964 0.097327 -0.018238 523419.000000 0 0 1
-23.813809 -16.349494 20.176111 35.234627 0.601645 0.961096 0.101526 -0.017603 -392849.000000 0 0 1
-22.715409 -15.475294 20.189711 34.104237 0.598044 0.937258 0.100968 -0.014247 -458250.000000 0 0 1
-22.289209 -15.149694 18.896811 32.915217 0.596963 0.959285 0.084539 -0.012727 487509.000000 0 0 1
-21.120109 -14.142594 18.670011 31.537934 0.590049 0.937276 0.077832 -0.028484 420440.000000 0 0 1
-20.860609 -14.017694 17.290711 30.506220 0.591665 0.968188 0.072536 -0.029653 -189705.000000 0 0 1
-20.076809 -12.913694 16.928211 29.264417 0.571590 0.953960 0.086936 -0.036875 -520212.000000 0 0 1
-19.748209 -12.924594 15.375111 28.167906 0.579511 0.993408 0.089121 -0.046409 440657.000000 0 0 1
-18.948709 -11.861894 14.876211 26.852556 0.559318 0.983640 0.088265 -0.035770 593212.000000 0 0 1
-17.645109 -11.619894 15.385711 26.136027 0.582351 0.941374 0.126779 -0.059816 -151300.000000 0 0 1
-17.082109 -10.295394 14.776511 24.822145 0.542403 0.933163 0.114212 -0.054085 -87350.600000 0 1 0
-17.524309 -9.063594 15.288611 24.959803 0.477314 0.911540 0.125395 -0.046357 98510.900000 0 1 0
-17.044809 -7.998294 14.480811 23.752728 0.438747 0.915179 0.118897 -0.039805 -580681.000000 0 1 0
-17.175209 -6.605494 15.168011 23.847199 0.367156 0.881428 0.123647 -0.031730 -123623.000000 0 1 0
-16.464909 -6.417194 16.328111 24.059942 0.371639 0.824883 0.115660 -0.030834 -123848.000000 0 1 0
-15.068709 -6.275694 16.154611 22.965665 0.394625 0.790592 0.102601 -0.034192 -348455.000000 0 1 0
-14.219909 -6.096494 17.443511 23.316285 0.405025 0.725563 0.082883 -0.033783 94354.500000 0 1 0
-14.080609 -7.217094 18.321211 24.207783 0.473642 0.712345 0.076209 -0.037136 366704.000000 0 1 0
-13.352109 -8.341894 17.770111 23.741164 0.558428 0.725009 0.067499 -0.042094 -466734.000000 0 1 0
-13.511109 -9.603294 18.659211 24.958756 0.617918 0.726353 0.089356 -0.048532 482923.000000 0 1 0
-14.832509 -10.123194 18.748711 25.961443 0.598885 0.763854 0.094948 -0.047500 104692.000000 0 0 1
-15.650109 -9.481394 19.691611 26.880891 0.544699 0.748735 0.082277 -0.041732 -2349660.000000 0 0 1
-16.990009 -10.084294 19.857511 28.012036 0.535658 0.782870 0.083113 -0.022483 -1090970.000000 0 0 1
-18.031209 -9.980794 18.915711 27.974004 0.505548 0.828219 0.102005 -0.020124 275594.000000 0 0 1
-18.468509 -8.679794 18.615811 27.621967 0.439343 0.831254 0.097879 -0.020838 -308947.000000 0 0 1
-19.680809 -8.516194 17.664011 27.782676 0.408388 0.881762 0.112489 -0.022392 1195700.000000 0 0 1
-21.030009 -8.801594 18.064811 29.087226 0.396374 0.900706 0.112905 -0.016430 354472.000000 0 0 1
-21.854809 -8.739794 16.969311 29.016792 0.380422 0.946150 0.123468 -0.008765 -348956.000000 0 0 1
-23.328309 -9.101994 17.272511 30.420321 0.372003 0.966971 0.096162 -0.002520 302047.000000 0 0 1
-24.004409 -7.994094 17.907911 30.996943 0.321474 0.954850 0.118085 -0.003732 626995.000000 0 0 1
-25.393869 -8.272194 18.014111 32.214686 0.314915 0.977389 0.116626 0.000048 89655.100000 0 0 1
-26.211569 -7.169194 18.687011 32.979510 0.266983 0.968392 0.145181 -0.016111 -253590.000000 0 0 1
-26.223459 -7.227194 20.087911 33.814587 0.268924 0.934699 0.150986 -0.021508 67316.100000 0 0 1
-26.925309 -6.170694 20.662511 34.496218 0.225288 0.928571 0.144463 -0.023882 -855443.000000 0 0 1
-27.103209 -6.400994 22.217921 35.625731 0.231921 0.897395 0.143486 -0.024122 159803.000000 0 0 1
-26.028949 -6.043994 23.066861 35.300370 0.228159 0.858669 0.151337 -0.030578 923732.000000 0 0 1
-24.822209 -6.821794 22.886341 34.445080 0.268205 0.844066 0.156305 -0.027661 421319.000000 0 0 1
-23.758009 -6.686794 24.003941 34.428845 0.274357 0.799306 0.158836 -0.023144 94312.800000 0 0 1
-23.107909 -5.413394 23.847861 33.645219 0.230116 0.782995 0.138851 -0.022969 294332.000000 0 0 1
-22.363609 -5.102694 25.021871 33.944993 0.224329 0.741983 0.128347 -0.022283 127252.000000 0 0 1
-21.832309 -3.661494 24.983641 33.380212 0.166164 0.725065 0.116384 -0.022659 354574.000000 0 0 1
-20.824709 -3.309894 25.958131 33.443213 0.157622 0.682203 0.106022 -0.028455 394449.000000 0 0 1
-21.190709 -3.162794 27.355001 34.746877 0.148160 0.664435 0.114718 -0.038412 15103.800000 0 0 1
-22.062109 -1.920494 27.701241 35.465246 0.086831 0.674401 0.115226 -0.044657 491628.000000 0 0 1
-23.428909 -2.049494 27.360081 36.078917 0.087255 0.710034 0.117769 -0.042432 -339472.000000 0 0 1
-24.214909 -0.968894 27.772431 36.859307 0.039991 0.717470 0.092244 -0.036067 -732517.000000 0 0 1
-25.497509 -0.893294 27.010731 37.155087 0.035020 0.756894 0.088474 -0.033899 -1503660.000000 0 0 1
-25.289839 -0.321494 25.750201 36.093658 0.012712 0.776419 0.083591 -0.032698 248357.000000 0 0 1
-26.458429 0.058506 25.034761 36.425144 -0.002211 0.813040 0.105722 -0.032512 137776.000000 0 0 1
-27.402819 -1.057694 24.541191 36.800859 0.038579 0.840803 0.102990 -0.025966 -455328.000000 0 0 1
-28.168059 -1.656694 25.551821 38.066780 0.058747 0.834920 0.079782 -0.024163 -70129.700000 0 0 1
-28.856469 -2.844394 25.196071 38.413909 0.098253 0.855409 0.074544 -0.027225 401321.000000 0 0 1
-27.990679 -4.177394 25.119821 37.840906 0.148149 0.844872 0.094546 -0.026731 666890.000000 0 0 1
-27.333649 -4.479294 26.380261 38.250629 0.162431 0.809765 0.071562 -0.023563 197954.000000 0 0 1
-26.466389 -5.587394 26.416691 37.809130 0.208058 0.797238 0.103081 -0.036662 219438.000000 0 0 1
-26.056529 -5.967394 27.903211 38.641191 0.225135 0.763948 0.068848 -0.026852 1007300.000000 0 0 1
-27.266319 -6.358194 28.591281 40.016748 0.229095 0.774912 0.084716 -0.027916 937195.000000 0 0 1
-27.045539 -6.745194 29.936341 40.904075 0.244415 0.749739 0.075448 -0.020203 152153.000000 0 0 1
-28.366279 -7.099994 30.682271 42.384637 0.245258 0.761357 0.056293 -0.020643 117840.000000 0 0 1
-29.054199 -8.157394 30.083291 42.610960 0.273718 0.786964 0.058719 -0.020753 768370.000000 0 0 1
-30.330289 -8.368294 30.721861 43.974851 0.269208 0.797325 0.078191 -0.023788 792627.000000 0 0 1
-31.369069 -9.192094 29.932041 44.322005 0.285051 0.829382 0.067482 -0.026875 -236693.000000 0 0 1
-31.063649 -10.573694 29.733881 44.281565 0.328086 0.834601 0.078791 -0.026450 201939.000000 0 0 1
-31.934129 -11.114294 28.739991 44.376832 0.334926 0.866320 0.059569 -0.023082 -848.179000 0 0 1
-31.373099 -12.368994 28.044711 43.860793 0.375544 0.877075 0.066838 -0.030246 -78105.000000 0 0 1
-30.261099 -12.049194 27.254471 42.470265 0.378932 0.874044 0.081966 -0.028971 -917895.000000 0 0 1
-29.459029 -13.094094 26.924191 42.002402 0.418258 0.874976 0.084580 -0.027845 -525499.000000 0 0 1
-28.154309 -12.501594 26.312291 40.512858 0.417885 0.863896 0.115334 -0.041666 -726889.000000 0 0 1
-27.286199 -11.929094 27.208421 40.337800 0.412145 0.830490 0.101348 -0.037225 -500547.000000 0 0 1
-27.492649 -10.589494 27.667631 40.416345 0.367662 0.816789 0.109184 -0.035938 -673663.000000 0 0 1
-27.336609 -9.393994 26.679261 39.335992 0.330999 0.825431 0.109262 -0.024824 -167445.000000 0 0 1
-26.115929 -9.142394 26.024541 37.985548 0.336737 0.816032 0.108843 -0.029482 -250617.000000 0 0 1
-25.724039 -10.026394 24.967681 37.224184 0.371654 0.835593 0.104826 -0.030308 -451885.000000 0 0 1
-26.509289 -10.107594 23.658611 36.940976 0.364269 0.875721 0.113236 -0.020742 -426568.000000 0 0 1
-27.797139 -10.677494 23.745591 38.085994 0.366744 0.897619 0.103509 -0.025574 -174843.000000 0 0 1
-28.405909 -10.619194 22.499301 37.760846 0.357751 0.932489 0.126690 -0.021842 -834647.000000 0 0 1
-29.792449 -11.251294 22.479791 38.981055 0.361097 0.956131 0.125030 -0.027103 370409.000000 0 0 1
-30.940839 -10.569394 23.027931 39.991664 0.329172 0.957192 0.122978 -0.025670 809256.000000 0 0 1
-30.955099 -10.426194 24.413711 40.779320 0.324882 0.928946 0.126626 -0.029652 -424828.000000 0 0 1
-32.379809 -10.233094 24.996911 42.166501 0.306100 0.936247 0.079393 -0.028256 33391.700000 0 0 1
-33.001099 -9.027794 24.599571 42.139204 0.267027 0.947433 0.090879 -0.032254 1127210.000000 0 0 1
-34.426189 -8.915094 24.843401 43.380133 0.253396 0.961012 0.081152 -0.025180 1289950.000000 0 0 1
-34.934145 -8.699194 26.261911 44.561850 0.244053 0.940559 0.069890 -0.028121 -458150.000000 0 0 1
-34.961384 -9.927994 27.045731 45.302704 0.276687 0.931040 0.058520 -0.033496 368272.000000 0 0 1
-35.548371 -9.834894 28.361971 46.527553 0.269911 0.915274 0.093293 -0.031041 -775719.000000 0 0 1
-36.050359 -11.167994 28.965071 47.574445 0.300413 0.916203 0.096014 -0.021434 694222.000000 0 0 1
-37.279339 -11.702994 28.483141 48.352854 0.304184 0.940891 0.076149 -0.018681 1040660.000000 0 0 1
37.775433 -10.965694 28.569061 48.615029 -0.282522 0.942634 0.111451 -0.029251 -1099130.000000 0 0 1
36.529073 -11.616094 28.105261 47.531174 -0.307884 0.938124 0.123399 -0.025594 -861052.000000 0 0 1
36.229043 -11.258294 26.756151 46.423963 -0.301293 0.956549 0.129739 -0.022845 -490025.000000 0 0 1
35.127543 -11.919994 26.216991 45.424235 -0.327142 0.955551 0.141086 -0.026114 -228411.000000 0 0 1
34.772063 -11.506394 24.771181 44.216568 -0.319567 0.976140 0.144688 -0.042010 110011.000000 0 0 1
34.487333 -10.144794 24.653791 43.590164 -0.286090 0.969658 0.150041 -0.055681 -8932.300000 0 0 1
34.601193 -9.758394 23.284001 42.832388 -0.274885 0.996067 0.134484 -0.041643 -185107.000000 0 0 1
33.847743 -8.444594 23.104651 41.842631 -0.244496 0.985820 0.143890 -0.032755 351290.000000 0 0 1
32.431923 -8.454494 23.213291 40.769657 -0.255009 0.965049 0.168704 -0.038685 21414.100000 0 0 1
31.894193 -7.173094 22.978181 39.958599 -0.221222 0.958131 0.157770 -0.022979 1745260.000000 0 0 1
30.342263 -7.166694 22.582771 38.496701 -0.231944 0.943923 0.168648 -0.009154 1527580.000000 0 0 1
30.156563 -7.747294 21.343611 37.749021 -0.251464 0.969868 0.165360 -0.010918 351619.000000 0 0 1
28.783663 -7.831694 20.991911 36.475951 -0.265657 0.957581 0.162584 -0.040799 -9158.650000 0 0 1
16.001991 -16.944794 25.305361 34.402777 -0.814006 0.744301 0.151206 -0.029410 -159433.000000 0 0 1
15.406391 -18.185694 25.408381 34.837655 -0.867947 0.753444 0.147527 -0.019945 120886.000000 0 0 1
16.337191 -19.221194 25.651291 35.977032 -0.866327 0.777042 0.137649 -0.021965 -523461.000000 0 0 1
15.669191 -20.569494 25.564161 36.361435 -0.919806 0.791109 0.124905 -0.028430 -127321.000000 0 0 1
14.798991 -21.019194 26.574831 36.973481 -0.957344 0.768788 0.121118 -0.028186 1366440.000000 0 0 1
13.421491 -20.556094 26.460121 36.094701 -0.992371 0.747964 0.119327 -0.025897 555597.000000 0 0 1
12.571591 -21.064694 27.576681 36.908530 -1.032727 0.727013 0.109838 -0.016198 -357572.000000 0 0 1
12.986891 -20.633194 28.892551 37.804332 -1.009027 0.700895 0.118726 -0.027841 144802.000000 0 0 1
12.094491 -19.661294 29.406611 37.384381 -1.019317 0.665511 0.105802 -0.032984 29235.600000 0 0 1
12.206491 -18.149394 28.920351 36.259973 -0.978727 0.647518 0.136043 -0.027265 -55631.100000 0 0 1
13.378091 -17.460594 29.235351 36.586219 -0.917015 0.645031 0.142366 -0.015775 -435113.000000 0 0 1
13.183091 -16.081994 28.812711 35.533037 -0.884133 0.625157 0.151672 -0.018817 540163.000000 0 0 1
14.223691 -15.098894 29.437731 36.012081 -0.815237 0.613843 0.150445 -0.011849 385911.000000 0 0 1
13.985191 -13.748194 28.989761 35.000066 -0.776853 0.594770 0.190469 -0.019869 135681.000000 0 0 1
15.011791 -12.848594 29.356981 35.387463 -0.707909 0.592429 0.182287 -0.018087 129678.000000 0 0 1
14.535891 -11.347994 29.299891 34.620120 -0.662854 0.561748 0.164820 -0.019135 63033.200000 0 0 1
14.375191 -10.750094 28.017741 33.274682 -0.642106 0.569791 0.203243 -0.024545 573884.000000 0 0 1
15.623491 -10.543494 27.354071 33.219030 -0.593646 0.603339 0.180720 -0.022291 279875.000000 0 0 1
15.639691 -9.167294 26.572301 32.167163 -0.530178 0.598700 0.163206 -0.025500 -64386.300000 0 0 1
15.909091 -7.922994 27.242001 32.526906 -0.462060 0.578064 0.160296 -0.028232 -301193.000000 0 0 1
17.264691 -7.786994 27.572801 33.450952 -0.423715 0.601875 0.151554 -0.023522 -504980.000000 0 0 1
17.619791 -6.282394 27.517481 33.273672 -0.342501 0.597038 0.133631 -0.024411 -5893.290000 0 0 1
19.014891 -6.084194 27.566841 34.036954 -0.309676 0.626799 0.113388 -0.025367 -119906.000000 0 0 1
19.412391 -4.899494 26.944201 33.568377 -0.247227 0.639044 0.117190 -0.024717 200286.000000 0 0 1
20.901291 -4.753894 26.533391 34.109886 -0.223640 0.679511 0.108988 -0.024355 -659338.000000 0 0 1
21.246191 -5.553794 25.445791 33.611509 -0.255681 0.712001 0.098458 -0.024101 654120.000000 0 0 1
22.526491 -5.327294 24.842801 33.955671 -0.232224 0.750094 0.090443 -0.023915 -9314.190000 0 0 1
23.753191 -5.634794 25.655921 35.414563 -0.232917 0.760567 0.085564 -0.025531 -1482580.000000 0 0 1
24.247191 -4.674994 26.539131 36.250618 -0.190468 0.749394 0.078885 -0.021240 -64603.800000 0 0 1
25.354391 -5.141994 27.279461 37.595934 -0.200091 0.758896 0.087559 -0.032495 -206609.000000 0 0 1
25.993491 -4.042294 28.122241 38.507949 -0.154276 0.752040 0.080794 -0.022899 -80093.600000 0 0 1
26.709391 -3.116494 27.276131 38.302629 -0.116156 0.778281 0.080249 -0.010287 230886.000000 0 0 1
27.062791 -2.002994 28.060501 39.035860 -0.073878 0.768665 0.075382 -0.015122 -858851.000000 0 0 1
27.976591 -1.086094 27.317651 39.116790 -0.038802 0.797691 0.085821 -0.015668 -711912.000000 0 0 1
29.320791 -1.496194 27.288681 40.082658 -0.050984 0.821928 0.090248 -0.019957 -410559.000000 0 0 1
30.053391 -0.608194 26.478231 40.058369 -0.020234 0.848657 0.099710 -0.001498 697896.000000 0 0 1
31.615391 -0.671094 26.572291 41.304600 -0.021224 0.871963 0.123732 -0.017984 778176.000000 0 0 1
32.073691 0.144406 27.633401 42.336123 0.004502 0.859634 0.113067 -0.017557 -1245220.000000 0 0 1
33.429691 0.029506 27.820281 43.491529 0.000883 0.876726 0.140051 -0.023751 -1084260.000000 0 0 1
33.965291 1.116206 28.777541 44.531267 0.032851 0.868159 0.153707 -0.024939 -198098.000000 0 0 1
34.134691 2.378806 28.112441 44.284819 0.069576 0.883034 0.146915 -0.025804 139549.000000 0 0 1
34.617591 3.331706 29.040191 45.307952 0.095948 0.875059 0.129023 -0.016773 -77991.100000 0 0 1
34.792991 4.726106 28.391711 45.155039 0.135009 0.890838 0.125652 -0.029682 -195566.000000 0 0 1
34.762191 5.801606 29.299681 45.831647 0.165370 0.877223 0.138106 -0.034414 797925.000000 0 0 1
33.459791 6.195506 29.763601 45.208559 0.183089 0.852156 0.129627 -0.031664 466151.000000 0 0 1
33.473691 7.182406 30.972461 46.166744 0.211364 0.835398 0.098018 -0.029924 -97013.500000 0 0 1
34.069891 6.619206 32.106478 47.279988 0.191893 0.824300 0.102219 -0.026218 127029.000000 0 0 1
34.103491 7.534206 33.190480 48.181120 0.217429 0.810869 0.117905 -0.034447 29276.000000 0 0 1
34.462491 6.831706 -32.770529 48.044178 0.195699 2.321415 0.118419 -0.028641 518890.000000 0 0 1
33.343491 6.139606 -32.196159 46.755489 0.182092 2.330363 0.084804 -0.018549 505563.000000 0 0 1
33.179491 4.725306 -32.539549 46.712197 0.141465 2.341439 0.091317 -0.013593 21740.900000 0 0 1
33.826391 3.815406 -31.474329 46.361788 0.112319 2.317040 0.102870 -0.020744 -11824.800000 0 0 1
33.481291 2.481406 -31.666959 46.151387 0.073978 2.326985 0.098820 -0.012712 181233.000000 0 0 1
33.877491 1.670006 -30.576359 45.666038 0.049256 2.304419 0.088332 -0.005092 -44231.200000 0 0 1
33.997791 0.206606 -30.977799 45.994744 0.006077 2.309740 0.098542 -0.011204 -892307.000000 0 0 1
35.065991 -0.073494 -31.831859 47.359227 -0.002096 2.307887 0.107772 -0.013295 -371643.000000 0 0 1
35.434391 -1.466894 -31.772529 47.615559 -0.041374 2.301336 0.098947 -0.016874 795671.000000 0 0 1
36.348891 -1.808194 -30.498849 47.483589 -0.049705 2.268296 0.102345 -0.014950 -159950.000000 0 0 1
35.703591 -1.570594 -29.261049 46.188983 -0.043961 2.256874 0.111328 -0.015989 -436531.000000 0 0 1
36.529691 -1.359494 -28.169979 46.149911 -0.037199 2.227364 0.141691 -0.024200 -278277.000000 0 0 1
35.711891 -0.958294 -26.891759 44.714921 -0.026828 2.216054 0.141418 -0.030539 309175.000000 0 0 1
35.165891 0.356306 -26.888229 44.268992 0.010132 2.223558 0.133597 -0.032853 497421.000000 0 0 1
34.419691 0.690206 -25.721549 42.974290 0.020050 2.212465 0.113130 -0.023382 34135.700000 0 0 1
33.900091 2.109406 -25.887239 42.706146 0.062144 2.222034 0.090508 -0.024071 552965.000000 0 0 1
32.850791 2.206406 -26.875519 42.501014 0.067064 2.255379 0.099454 -0.032088 1012100.000000 0 0 1
32.172891 3.460206 -26.895389 42.076477 0.107139 2.264257 0.087095 -0.019500 489254.000000 0 0 1
31.172891 3.607006 -28.095849 42.120498 0.115197 2.301018 0.098088 -0.016249 303582.000000 0 0 1
30.305191 4.695506 -27.941399 41.487036 0.153718 2.309726 0.091225 -0.017851 271789.000000 0 0 1
29.412291 5.002006 -28.994569 41.602740 0.168453 2.341916 0.063880 -0.022941 451368.000000 0 0 1
28.212091 5.932506 -28.545969 40.570790 0.207263 2.351260 0.062016 -0.019985 418396.000000 0 0 1
27.183991 5.088706 -28.012959 39.364834 0.185053 2.362603 0.091241 -0.021462 480532.000000 0 0 1
26.167491 5.827306 -27.372249 38.313641 0.219117 2.366599 0.103817 -0.024377 186478.000000 0 0 1
24.783691 5.142706 -27.281219 37.214831 0.204600 2.393627 0.133731 -0.016437 782.312000 0 0 1
23.943091 5.168006 -28.399729 37.503660 0.212584 2.429892 0.133719 -0.023168 710549.000000 0 0 1
22.770591 4.362606 -28.158649 36.475220 0.189296 2.452768 0.117470 -0.019570 936904.000000 0 0 1
21.871191 4.068306 -29.396269 36.865170 0.183910 2.493770 0.112975 -0.021656 104364.000000 0 0 1
22.322291 2.931206 -30.090399 37.580696 0.130566 2.499238 0.106510 -0.031197 -360712.000000 0 0 1
21.692591 2.570106 -31.242929 38.122101 0.117929 2.531420 0.086197 -0.033283 -622693.000000 0 0 1
22.010691 3.430806 -32.439919 39.352119 0.154626 2.539849 0.102820 -0.034831 -118313.000000 0 0 1
23.362591 3.330106 -32.816919 40.420916 0.141586 2.518161 0.091656 -0.033367 -186113.000000 0 0 1
23.591091 3.902806 33.192108 40.908281 0.163951 0.624289 0.098704 -0.036932 772042.000000 0 0 1
25.080591 3.738706 32.717899 41.394140 0.147978 0.659336 0.104622 -0.027190 924362.000000 0 0 1
25.260491 2.441406 32.155601 40.963832 0.096350 0.668140 0.107187 -0.027677 -545361.000000 0 0 1
26.600791 2.067406 32.085026 41.729188 0.077564 0.693698 0.088441 -0.022674 -821658.000000 0 0 1
26.821491 0.541806 31.769783 41.581306 0.020198 0.701244 0.062187 -0.015450 -543766.000000 0 0 1
26.393591 0.107106 30.460161 40.304522 0.004058 0.713997 0.066016 -0.019011 776868.000000 0 0 1
24.980491 0.037406 30.273131 39.249061 0.001497 0.689902 0.103316 -0.034046 117416.000000 0 0 1
24.175191 -1.036194 31.039991 39.357269 -0.042836 0.662150 0.096142 -0.046132 -710167.000000 0 0 1
24.450991 -2.374094 30.684211 39.306591 -0.096793 0.675111 0.084108 -0.049496 191473.000000 0 0 1
23.878791 -3.267194 31.634108 39.769184 -0.135980 0.651059 0.096309 -0.048755 -214107.000000 0 0 1
23.968591 -4.777794 31.299000 39.710805 -0.196757 0.662961 0.101464 -0.037831 -1041040.000000 0 0 1
25.165391 -5.445094 31.330496 40.553001 -0.213087 0.687899 0.078267 -0.019797 -1176050.000000 0 0 1
24.913791 -6.808394 31.073531 40.405637 -0.266765 0.693459 0.104430 -0.025048 446779.000000 0 0 1
26.250291 -7.613594 30.818541 41.192561 -0.282293 0.725515 0.080137 -0.022990 1087500.000000 0 0 1
26.807491 -7.205494 29.530561 40.529184 -0.262581 0.754485 0.094215 -0.023086 283208.000000 0 0 1
28.017291 -7.874594 29.179901 41.212188 -0.273993 0.784077 0.082574 -0.007226 753755.000000 0 0 1
28.457891 -7.790494 27.650331 40.436174 -0.267209 0.817836 0.098334 -0.027182 221964.000000 0 0 1
27.440891 -8.389094 26.846121 39.294956 -0.296692 0.818667 0.085517 -0.028603 159503.000000 0 0 1
27.730891 -8.311594 25.434551 38.535714 -0.291203 0.849944 0.118047 -0.036291 -180705.000000 0 0 1
26.798691 -9.129694 24.522331 37.454851 -0.328345 0.856988 0.101209 -0.039368 794255.000000 0 0 1
25.510591 -8.481694 24.318001 36.250442 -0.320980 0.835465 0.091501 -0.031311 797317.000000 0 0 1
24.725191 -9.233394 23.429531 35.292117 -0.357403 0.844809 0.101251 -0.037047 -667241.000000 0 0 1
23.366591 -8.607294 23.179871 34.020428 -0.352936 0.821189 0.073177 -0.038449 -480765.000000 0 0 1
22.424391 -8.809694 24.214911 34.158834 -0.374338 0.782871 0.062952 -0.025357 -162556.000000 0 0 1
21.102691 -8.607594 23.777511 32.936063 -0.387290 0.764210 0.085718 -0.021956 343587.000000 0 0 1
20.047091 -8.555594 24.934151 33.117909 -0.403373 0.718354 0.069175 -0.015590 250420.000000 0 0 1
19.561691 -9.788194 25.462891 33.568249 -0.463948 0.709725 0.095911 -0.022202 38408.300000 0 0 1
20.455191 -10.364794 26.348031 34.929393 -0.468999 0.716175 0.073628 -0.018979 -491712.000000 0 0 1
19.693591 -11.392994 27.135801 35.411715 -0.524470 0.697743 0.081552 -0.008917 87319.800000 0 0 1
19.098991 -12.449494 26.366031 34.855831 -0.577668 0.712957 0.121707 -0.020618 132011.000000 0 0 1
18.420591 -13.430794 27.127661 35.434650 -0.630002 0.698871 0.119745 -0.015606 -395894.000000 0 0 1
19.175891 -14.457994 27.966561 36.862948 -0.646035 0.709538 0.124875 -0.005456 -465323.000000 0 0 1
18.298991 -15.496294 28.332221 37.117421 -0.702656 0.702370 0.119266 -0.004301 322055.000000 0 0 1
18.942991 -16.639794 28.948251 38.389073 -0.720761 0.716551 0.118381 -0.005443 175903.000000 0 0 1
19.428591 -17.749494 28.014501 38.436011 -0.740265 0.754140 0.123974 -0.014049 217567.000000 0 0 1
20.508391 -17.395194 27.166911 38.226011 -0.703447 0.780315 0.107403 -0.010571 303368.000000 0 0 1
20.846891 -18.402994 26.214551 38.216040 -0.723213 0.814879 0.099669 -0.005911 1170190.000000 0 0 1
22.080691 -17.957894 25.285581 38.071032 -0.682789 0.844415 0.088690 -0.019878 2456600.000000 0 0 1
23.327291 -17.712594 26.005561 39.168708 -0.649432 0.844725 0.073869 -0.014439 590217.000000 0 0 1
24.360691 -17.343994 25.159061 39.079864 -0.618712 0.871361 0.053435 -0.015533 -37000.500000 0 0 1
25.704791 -17.066494 25.939331 40.309433 -0.586114 0.871727 0.069901 -0.015717 1162530.000000 0 0 1
26.463791 -18.177494 26.449101 41.596977 -0.601867 0.881697 0.079640 -0.016745 410390.000000 0 0 1
27.079191 -18.989194 25.462101 41.739558 -0.611562 0.914706 0.053955 -0.015953 -639087.000000 0 0 1
27.665391 -20.255794 26.046101 43.058918 -0.631993 0.921163 0.048139 -0.017134 17801.900000 0 0 1
28.697891 -19.979594 27.004451 44.181371 -0.608174 0.913198 0.044974 -0.008046 58986.900000 0 0 1
29.421091 -21.120094 27.322961 45.367424 -0.622609 0.924468 0.045173 -0.012761 -563599.000000 0 0 1
28.767991 -22.289394 28.100191 45.978638 -0.659184 0.913274 0.055939 -0.008812 -366358.000000 0 0 1
28.505291 -21.988394 29.464381 46.520865 -0.657044 0.884911 0.074478 -0.008366 259452.000000 0 0 1
27.867891 -23.072594 30.187911 47.119783 -0.691539 0.875435 0.104746 -0.016467 79481.900000 0 0 1
27.350191 -22.721294 31.599464 47.569069 -0.693214 0.844258 0.100828 -0.015174 43417.100000 0 0 1
26.792491 -23.883494 32.202512 48.220957 -0.728057 0.839532 0.101381 -0.014161 208495.000000 0 0 1
26.634291 -23.864494 33.591621 49.064208 -0.730604 0.816678 0.101739 -0.013720 -294923.000000 0 0 1
26.612291 -25.263174 -33.041659 49.378064 -0.759397 2.303870 0.101353 -0.022484 1293330.000000 0 0 1
25.348891 -25.993774 -32.966979 49.041455 -0.797958 2.308009 0.136826 -0.033365 821920.000000 0 0 1
24.895191 -26.449754 33.067552 49.120495 -0.815666 0.832279 0.116110 -0.021737 184849.000000 0 0 1
23.519091 -27.149384 33.230291 48.933516 -0.856924 0.824273 0.139304 -0.029126 307981.000000 0 0 1
23.617291 -28.560894 33.463031 49.932710 -0.879861 0.836369 0.142817 -0.036250 -88511.500000 0 0 1
22.343891 -29.152794 33.603571 49.782877 -0.916856 0.829828 0.161149 -0.042525 -168378.000000 0 0 1
22.336191 -30.684894 -33.497309 50.621516 -0.941576 2.293908 0.140856 -0.040173 -129316.000000 0 0 1
22.813591 -31.156594 -32.253719 50.313971 -0.938770 2.266661 0.135294 -0.052021 1480350.000000 0 0 1
24.227291 -31.495034 -32.288679 51.200172 -0.915094 2.253169 0.111252 -0.030855 1032000.000000 0 0 1
24.792891 -32.294854 -31.084999 51.224235 -0.916061 2.222877 0.092076 -0.032715 154476.000000 0 0 1
26.111191 -32.777114 -31.345919 52.332592 -0.898114 2.213017 0.090154 -0.024631 447967.000000 0 0 1
26.666291 -33.417434 -30.228989 52.360364 -0.897291 2.186246 0.080530 -0.020447 163459.000000 0 0 1
27.669191 -32.579244 -29.391919 51.873656 -0.866715 2.173177 0.080958 -0.021991 -248201.000000 0 0 1
28.039991 -33.190684 -28.181989 51.788871 -0.869320 2.146197 0.091998 -0.021603 57442.300000 0 0 1
28.796191 -32.245784 -27.427529 51.198443 -0.841850 2.136145 0.089183 -0.020053 -598910.000000 0 0 1
28.907791 -32.595744 -25.933619 50.702027 -0.845290 2.107715 0.099021 -0.026797 442562.000000 0 0 1
29.847291 -33.644434 -25.749729 51.825257 -0.845132 2.090769 0.104144 -0.010895 551897.000000 0 0 1
31.217791 -33.242164 -25.736499 52.363722 -0.816793 2.084602 0.118191 -0.026778 141992.000000 0 0 1
-28.157559 -30.023023 9.403911 42.221601 0.817451 1.346185 0.079712 -0.020496 -11361.100000 0 0 1
-27.614789 -31.317123 9.237611 42.762978 0.848140 1.353061 0.078047 -0.018583 -43819.800000 0 0 1
-26.483289 -31.547223 10.052011 42.398524 0.872441 1.331433 0.068901 -0.014997 -211100.000000 0 0 1
-26.740379 -32.316523 11.333111 43.449338 0.879539 1.306909 0.072928 -0.016851 -213306.000000 0 0 1
-27.021649 -33.720423 11.214511 44.643048 0.895237 1.316872 0.079459 0.001654 -757857.000000 0 0 1
-28.252639 33.293706 10.770611 44.974309 -0.867123 1.328962 0.061726 -0.022549 -940850.000000 0 0 1
-28.208599 31.763506 10.668511 43.800257 -0.844605 1.324749 0.067250 -0.021683 204033.000000 0 0 1
-27.407379 31.347506 9.580611 42.727259 -0.852358 1.344646 0.115646 -0.033083 39267.100000 0 0 1
-27.556739 29.974606 9.319811 41.769723 -0.827400 1.345779 0.139779 -0.036778 370094.000000 0 0 1
-26.941829 29.575606 7.879411 40.775774 -0.831966 1.376335 0.113495 -0.026215 117592.000000 0 0 1
-25.545679 29.454106 7.800911 39.761543 -0.856341 1.373323 0.086897 -0.019305 -254139.000000 0 0 1
-25.052639 29.585206 6.527811 39.313248 -0.868165 1.403978 0.069468 -0.006568 -474983.000000 0 0 1
-23.657309 28.947406 6.421311 37.932226 -0.885624 1.400693 0.079603 -0.008825 -288757.000000 0 0 1
-23.494909 27.556506 6.583111 36.806373 -0.864790 1.390971 0.071119 -0.008602 -31104.600000 0 0 1
-24.062209 26.754106 5.569011 36.411344 -0.838322 1.417247 0.073378 -0.015401 -571949.000000 0 0 1
-24.270609 25.277406 6.083011 35.567017 -0.805715 1.398922 0.097094 -0.014424 -25182.200000 0 0 1
-25.482439 25.065906 6.805111 36.386314 -0.777158 1.382665 0.130381 -0.016820 414307.000000 0 0 1
-25.476609 23.752806 7.439911 35.617491 -0.750397 1.360363 0.163711 -0.016245 -133576.000000 0 0 1
-25.716209 22.467906 6.581611 34.777116 -0.718086 1.380397 0.179321 -0.021549 -515429.000000 0 0 1
-27.007859 22.460406 6.013311 35.637820 -0.693729 1.401251 0.175222 -0.031920 -65187.100000 0 0 1
-27.154759 21.799606 4.780011 35.149001 -0.676441 1.434381 0.154405 -0.025859 -47495.900000 0 0 1
-27.196079 22.698906 3.513111 35.597879 -0.695508 1.471947 0.149441 -0.037164 676086.000000 0 0 1
-25.958529 23.432106 3.407411 35.135726 -0.734291 1.473665 0.138478 -0.034540 699855.000000 0 0 1
-25.860889 24.163906 2.184711 35.460582 -0.751488 1.509148 0.120812 -0.031461 105122.000000 0 0 1
-24.536409 24.930106 1.968111 35.034540 -0.793357 1.514590 0.074232 -0.017055 78313.800000 0 0 1
-24.326209 25.635006 0.766511 35.348345 -0.811588 1.549110 0.067305 -0.011694 147956.000000 0 0 1
-23.009609 26.178906 0.713111 34.860949 -0.849741 1.550339 0.064444 -0.007365 31819.300000 0 0 1
-22.492109 26.551806 -0.724589 34.805436 -0.867987 1.591616 0.099463 -0.009168 56597.200000 0 0 1
-22.213109 25.408006 -1.509289 33.782642 -0.852388 1.615488 0.107610 -0.013876 591502.000000 0 0 1
-21.157409 24.515406 -1.102489 32.401490 -0.858789 1.604829 0.105398 -0.031799 215033.000000 0 0 1
-20.904909 23.341106 -2.053589 31.401268 -0.840403 1.636241 0.128794 -0.049710 629752.000000 0 0 1
-22.066309 22.500306 -2.015289 31.579220 -0.795136 1.634657 0.115025 -0.029249 562286.000000 0 0 1
-21.864209 21.381806 -2.840089 30.713049 -0.774244 1.663400 0.117408 -0.033787 237987.000000 0 0 1
-23.040709 21.046106 -3.811889 31.437928 -0.740186 1.692347 0.130253 -0.029247 241765.000000 0 0 1
-23.126209 21.908906 -4.905089 32.231686 -0.758375 1.723572 0.127334 -0.028725 -374008.000000 0 0 1
-24.306309 21.726706 -5.619889 33.082164 -0.729419 1.741501 0.135584 -0.023630 -392452.000000 0 0 1
-24.274009 22.472106 -7.022089 33.816162 -0.746871 1.779973 0.121128 -0.022986 205073.000000 0 0 1
-23.470009 21.769306 -7.967489 32.988254 -0.747822 1.814733 0.113309 -0.028582 313610.000000 0 0 1
-23.049909 22.634506 -8.995989 33.534266 -0.776306 1.842385 0.104988 -0.037025 -242873.000000 0 0 1
-22.543709 21.766506 -10.096489 32.923224 -0.767860 1.882486 0.100705 -0.036680 -85852.300000 0 0 1
-23.601609 21.103706 -10.771089 33.442767 -0.729581 1.898717 0.079835 -0.024715 464620.000000 0 0 1
-23.205609 20.652906 -12.087389 33.333883 -0.727261 1.941869 0.075694 -0.013121 -571768.000000 0 0 1
-24.438509 20.548706 -12.925289 34.446380 -0.699148 1.955440 0.050624 -0.015742 -462558.000000 0 0 1
-25.294239 19.457206 -12.729589 34.357296 -0.655698 1.950350 0.062333 -0.014364 -202944.000000 0 0 1
-26.389429 19.382506 -13.586389 35.449590 -0.633494 1.964119 0.080472 -0.019244 -45579.900000 0 0 1
-27.088739 18.020706 -13.706689 35.304659 -0.587019 1.969518 0.148652 -0.025793 153852.000000 0 0 1
-26.399999 17.183406 -14.676089 34.750784 -0.576998 2.006804 0.134263 -0.024047 387826.000000 0 0 1
-26.926139 15.883206 -14.778889 34.579022 -0.532945 2.012405 0.148110 -0.037449 -92328.100000 0 0 1
-26.430799 15.179506 -16.022689 34.434446 -0.521317 2.054781 0.152418 -0.026758 187940.000000 0 0 1
-25.131719 14.636406 -15.931089 33.160628 -0.527369 2.071932 0.155079 -0.025560 -54140.100000 0 0 1
-24.838609 13.887006 -17.082189 33.190460 -0.509795 2.111421 0.155829 -0.030463 124354.000000 0 0 1
-23.939509 12.615106 -16.883689 31.895140 -0.484980 2.128630 0.139494 -0.019751 173290.000000 0 0 1
-22.660509 12.974906 -16.414489 30.842865 -0.520012 2.131990 0.144926 -0.030663 -407698.000000 0 0 1
-21.971209 11.807006 -16.069589 29.671048 -0.493107 2.143126 0.134681 -0.032138 -358637.000000 0 0 1
-20.730609 12.033606 -15.194289 28.380138 -0.525939 2.135759 0.132321 -0.035956 -882188.000000 0 0 1
-19.705509 12.605206 -15.911189 28.290709 -0.569086 2.168103 0.120645 -0.029609 -412263.000000 0 0 1
-18.620609 12.851006 -15.015489 27.154011 -0.604084 2.156727 0.104649 -0.021628 122531.000000 0 0 1
-17.715609 14.022206 -15.451089 27.371540 -0.669547 2.170617 0.091448 -0.016621 -52726.400000 0 0 1
-16.906209 13.760906 -16.590189 27.393736 -0.683193 2.221341 0.117473 -0.031678 261798.000000 0 0 1
-16.194509 14.923306 -16.952189 27.791076 -0.744570 2.226840 0.112325 -0.022354 -265005.000000 0 0 1
-15.469609 14.721506 -18.262189 28.098738 -0.760624 2.278288 0.149986 -0.032584 563277.000000 0 0 1
-14.281609 13.925706 -18.286789 27.060973 -0.772781 2.312795 0.151393 -0.031744 1122820.000000 0 0 1
-13.094709 14.538406 -18.830989 27.155898 -0.837596 2.337049 0.176627 -0.034239 1233780.000000 0 0 1
-11.916509 13.523006 -18.942689 26.147664 -0.848464 2.381033 0.166246 -0.034094 -4288.660000 0 0 1
-12.222509 12.385706 -19.650389 26.247537 -0.792030 2.416830 0.194187 -0.040975 -311675.000000 0 0 1
-11.236509 11.380706 -19.591589 25.290511 -0.791774 2.456976 0.156878 -0.034011 -178764.000000 0 0 1
-11.605009 10.075406 -20.304789 25.465162 -0.714963 2.493697 0.179936 -0.046767 -50072.600000 0 0 1
-11.721809 10.141606 -21.678889 26.650088 -0.713247 2.520880 0.200532 -0.052683 -68704.600000 0 0 1
-11.534909 8.853606 -22.164489 26.508584 -0.654638 2.560977 0.196148 -0.032195 2103.860000 0 0 1
-11.465209 8.822506 -23.646889 27.721165 -0.655866 2.592554 0.176678 -0.035826 -89685.200000 0 0 1
-10.328809 9.368806 -24.249589 27.973226 -0.736700 2.619717 0.163649 -0.037090 -441202.000000 0 0 1
-10.454509 8.969406 -25.614489 29.083484 -0.709089 2.648183 0.137407 -0.041754 -123498.000000 0 0 1
-9.879409 9.832706 -26.761999 30.174317 -0.783029 2.661416 0.162428 -0.047142 -458991.000000 0 0 1
-8.504009 10.000106 -26.870579 29.905657 -0.866075 2.687163 0.121647 -0.043314 -462894.000000 0 0 1
-7.999909 10.989806 -25.935329 29.281661 -0.941564 2.658837 0.095279 -0.035847 43763.600000 0 0 1
-6.504309 11.316306 -26.195499 29.267200 -1.049133 2.679331 0.077048 -0.038277 245724.000000 0 0 1
-6.357409 12.090706 -27.402749 30.618825 -1.086715 2.679147 0.074783 -0.051197 -509951.000000 0 0 1
-5.087209 12.655406 -27.452279 30.653982 -1.188585 2.680470 0.083355 -0.041323 -646676.000000 0 0 1
-4.575009 12.704406 -28.965399 31.958207 -1.225142 2.705366 0.093297 -0.041809 196661.000000 0 0 1
-3.192309 13.005106 -29.052869 31.990511 -1.330090 2.709691 0.115010 -0.057650 185593.000000 0 0 1
-2.705609 12.571006 -30.278679 32.896032 -1.358804 2.739990 0.119201 -0.056808 716584.000000 0 0 1
-1.169609 12.259106 -30.302099 32.708880 -1.475677 2.755581 0.151408 -0.075104 305683.000000 0 0 1
-0.841909 11.030706 -29.592139 31.592404 -1.494620 2.783837 0.119529 -0.047458 1131460.000000 0 0 1
0.531491 10.585706 -29.636899 31.475156 1.520630 2.798137 0.137461 -0.056609 1219630.000000 0 0 1
1.260791 10.286306 -30.963729 32.651955 1.448835 2.818621 0.154170 -0.056608 -322961.000000 0 0 1
1.471991 11.391706 -31.812389 33.822564 1.442292 2.795093 0.165187 -0.064137 -34758.700000 0 0 1
1.556991 10.923606 -33.144599 34.932990 1.429215 2.820227 0.175815 -0.059256 -93848.400000 0 0 1
2.010691 11.888306 33.068053 35.197597 1.403250 0.349636 0.168575 -0.062978 1019060.000000 0 0 1
3.439791 12.099906 32.985382 35.302624 1.293821 0.364336 0.181466 -0.074350 933203.000000 0 0 1
3.695991 13.025606 31.964497 34.713914 1.294315 0.400675 0.186158 -0.066224 214660.000000 0 0 1
5.196991 13.304506 31.709868 34.778360 1.198403 0.423223 0.192750 -0.064201 320331.000000 0 0 1
5.972091 12.165206 31.340034 34.144631 1.114442 0.408138 0.191120 -0.066070 -1167420.000000 0 0 1
7.293091 12.471306 31.206161 34.388183 1.041636 0.433580 0.177600 -0.056608 -842374.000000 0 0 1
8.202991 11.295706 30.675621 33.702756 0.942699 0.427075 0.138325 -0.051509 192103.000000 0 0 1
7.883891 10.989906 29.317271 32.286780 0.948504 0.432246 0.132413 -0.048398 521481.000000 0 0 1
8.805791 10.026106 28.777361 31.720675 0.850108 0.434189 0.114148 -0.044979 638871.000000 0 0 1
8.158091 9.126606 27.651811 30.240238 0.841373 0.416762 0.108964 -0.037897 121557.000000 0 0 1
7.378391 8.106006 28.219811 30.273845 0.832354 0.370486 0.111740 -0.041535 -235784.000000 0 0 1
6.703791 7.390806 27.192931 28.965847 0.834103 0.351687 0.123047 -0.046500 -32122.500000 0 0 1
5.730591 6.381706 27.834951 29.126454 0.839103 0.298908 0.139113 -0.043792 9878.930000 0 0 1
6.376291 5.173406 28.246961 29.416186 0.681624 0.282892 0.103157 -0.034204 305654.000000 0 0 1
5.524291 4.412506 29.073671 29.921002 0.673976 0.238552 0.105291 -0.037054 -247672.000000 0 0 1
6.326091 3.342606 29.798411 30.645354 0.486096 0.235649 0.111191 -0.031709 6669.640000 0 0 1
6.536291 2.147206 29.074871 29.877779 0.317399 0.232355 0.120017 -0.025146 -49552.900000 0 0 1
7.796791 1.976606 28.463081 29.577760 0.248284 0.275411 0.126946 -0.018616 -114762.000000 0 0 1
7.900891 0.657806 27.680131 28.793166 0.083066 0.278955 0.128922 -0.028265 -115437.000000 0 0 1
8.167091 -0.462794 28.560521 29.708903 -0.056605 0.278948 0.099230 -0.024631 45525.600000 0 0 1
8.300891 -1.687994 27.842041 29.102119 -0.200616 0.295346 0.124772 -0.023251 -163859.000000 0 0 1
8.978291 -2.829594 28.607121 30.116170 -0.305306 0.317905 0.098896 -0.020673 989619.000000 0 0 1
10.420591 -2.792694 28.631491 30.596570 -0.261845 0.360347 0.088352 -0.023086 903920.000000 0 0 1
10.998891 -4.043894 28.280331 30.612184 -0.352323 0.392839 0.114874 -0.028697 -715063.000000 0 0 1
12.509391 -4.006194 28.463341 31.347986 -0.309934 0.432359 0.097377 -0.018617 -176768.000000 0 0 1
13.293891 -5.092494 27.934211 31.352531 -0.365827 0.471316 0.127590 -0.017059 440276.000000 0 0 1
13.366991 -6.194794 28.845731 32.390247 -0.433974 0.472203 0.132565 -0.018048 -745170.000000 0 0 1
12.886691 -7.520294 28.347491 32.034386 -0.528251 0.484499 0.164196 -0.026107 720189.000000 0 0 1
11.455591 -7.345794 28.255031 31.361410 -0.570193 0.448845 0.152675 -0.022188 621108.000000 0 0 1
10.698991 -8.548694 28.234221 31.380246 -0.674142 0.451611 0.160650 -0.031840 9289.650000 0 0 1
9.217591 -8.221294 27.991101 30.595022 -0.728329 0.415559 0.171441 -0.035446 -184731.000000 0 0 1
8.651491 -7.582994 29.119911 31.310051 -0.719676 0.376248 0.181706 -0.041667 -364574.000000 0 0 1
7.329391 -7.193294 28.851161 30.624385 -0.776027 0.341965 0.165738 -0.049802 107667.000000 0 0 1
6.456791 -6.665094 30.040131 31.440787 -0.801271 0.299612 0.131947 -0.045305 205455.000000 0 0 1
6.218091 -7.722394 30.966991 32.515451 -0.892891 0.309855 0.146764 -0.051745 69856.600000 0 0 1
5.660091 -7.222994 32.189719 33.472172 -0.906123 0.277709 0.149112 -0.041485 -299012.000000 0 0 1
6.450191 -6.236794 33.073159 34.268592 -0.768580 0.264911 0.141262 -0.025566 -352988.000000 0 0 1
6.682391 -5.067694 32.401923 33.469695 -0.648834 0.253274 0.139031 -0.024768 -357197.000000 0 0 1
7.278191 -4.130394 33.214921 34.252930 -0.516182 0.246814 0.104708 -0.009277 -454453.000000 0 0 1
7.482891 -2.880194 32.344066 33.323082 -0.367425 0.243000 0.098407 -0.024004 -1209190.000000 0 0 1
6.317991 -2.301994 31.919689 32.620281 -0.349406 0.207627 0.134155 -0.031725 -826126.000000 0 0 1
6.569391 -1.101994 31.285107 31.986391 -0.166199 0.209786 0.103290 -0.020206 29976.500000 0 0 1
5.240591 -0.611994 30.658951 31.109638 -0.116253 0.170424 0.141937 -0.027044 249529.000000 0 0 1
4.298991 -0.232394 31.631776 31.923417 -0.054005 0.135275 0.136322 -0.021474 374064.000000 0 0 1
3.115191 0.356106 31.020151 31.178213 0.113819 0.100737 0.139658 -0.022628 1242450.000000 0 0 1
1.989591 0.541506 32.070853 32.137071 0.265733 0.064206 0.129352 -0.026917 222687.000000 0 0 1
2.439691 1.395406 33.127113 33.246125 0.519547 0.084639 0.119309 -0.026924 -923782.000000 0 0 1
1.404891 1.644706 -33.331389 33.401501 0.863875 3.076788 0.100897 -0.031167 -533281.000000 0 0 1
1.783391 2.810806 -32.377549 32.548222 1.005411 3.039140 0.094252 -0.031946 198779.000000 0 0 1
2.764991 2.513106 -31.400299 31.621822 0.737712 3.023156 0.069017 -0.016131 -72163.100000 0 0 1
3.281491 3.692706 -30.817299 31.210738 0.844292 2.982643 0.060368 -0.015635 -70447.700000 0 0 1
4.429691 3.402006 -29.834999 30.353302 0.654922 2.956528 0.071042 -0.009713 -72649.400000 0 0 1
3.969091 2.716406 -28.683729 29.084168 0.600172 2.975460 0.076375 -0.013605 90738.700000 0 0 1
4.969391 2.724706 -27.698379 28.272231 0.501535 2.939769 0.087628 -0.015351 -249892.000000 0 0 1
4.532391 2.038506 -26.400109 26.863801 0.422658 2.955524 0.080615 -0.017901 -120675.000000 0 0 1
4.333891 0.695406 -26.581359 26.941322 0.159101 2.977941 0.100232 -0.020636 40382.800000 0 0 1
3.869791 0.053706 -25.434229 25.726993 0.013877 2.990587 0.106276 -0.021661 -261008.000000 0 0 1
4.181091 -1.400394 -25.303669 25.684982 -0.323192 2.969067 0.116290 -0.034526 -725612.000000 0 0 1
5.525891 -1.610094 -25.042689 25.695606 -0.283523 2.915681 0.114348 -0.039909 -945128.000000 0 0 1
5.799791 -2.959394 -25.103469 25.934142 -0.471821 2.887811 0.117072 -0.038069 -1167360.000000 0 0 1
7.219191 -3.232994 -24.653789 25.891664 -0.421051 2.831123 0.129427 -0.041328 -542961.000000 0 0 1
8.182391 -2.617194 -25.480799 26.890004 -0.309573 2.816414 0.137809 -0.034899 -161808.000000 0 0 1
9.488491 -2.999494 -25.045189 26.949767 -0.306179 2.763387 0.108092 -0.029848 487419.000000 0 0 1
-31.206029 -3.976194 17.148011 35.828489 0.126735 1.071721 0.193548 -0.039859 115745.000000 0 0 1
-32.578429 -3.799194 17.426411 37.141186 0.116092 1.082419 0.177628 -0.029671 -419674.000000 0 0 1
-33.087169 -4.856394 18.147611 38.048405 0.145735 1.073602 0.150522 -0.036483 83721.600000 0 0 1
-34.593467 -4.685294 18.445411 39.482821 0.134620 1.084703 0.131787 -0.029931 -390934.000000 0 0 1
-35.443019 -4.684794 17.378811 39.751452 0.131416 1.118328 0.128059 -0.031059 -128541.000000 0 0 1
-36.795079 -4.704794 17.826311 41.155684 0.127175 1.122819 0.108273 -0.021307 -197129.000000 0 0 1
-37.786499 -4.465794 16.695711 41.551289 0.117639 1.157304 0.094334 -0.021842 -1083700.000000 0 0 1
37.211103 -4.725394 17.190311 41.261390 -0.126313 1.141072 0.096436 -0.011543 -287029.000000 0 0 1
36.192133 -4.422494 16.203811 39.899780 -0.121592 1.152600 0.100642 -0.020974 520865.000000 0 0 1
34.740493 -4.695994 16.614411 38.794237 -0.134359 1.128219 0.100368 -0.015964 -19103.800000 0 0 1
34.124183 -3.789794 17.552111 38.560329 -0.110606 1.098216 0.114745 -0.020420 528109.000000 0 0 1
32.884013 -4.321494 17.990511 37.731844 -0.130667 1.073787 0.152091 -0.023089 453095.000000 0 0 1
32.120123 -3.554594 19.109311 37.543351 -0.110217 1.036782 0.152806 -0.016031 828417.000000 0 0 1
31.275163 -2.428194 18.774211 36.558213 -0.077484 1.031488 0.150216 -0.008144 676249.000000 0 0 1
32.062443 -1.285794 18.464611 37.021553 -0.040081 1.048637 0.143466 -0.008195 168190.000000 0 0 1
31.404853 0.024206 18.912511 36.659902 0.000771 1.028749 0.163077 -0.001487 193782.000000 0 0 1
31.933013 1.235106 18.283711 36.817616 0.038659 1.051117 0.143460 -0.008847 228424.000000 0 0 1
31.329363 2.415306 18.788111 36.610870 0.076942 1.031906 0.133438 -0.013983 -225924.000000 0 0 1
31.717563 3.650406 17.944111 36.624041 0.114587 1.058759 0.114601 -0.017109 -77853.900000 0 0 1
31.189763 3.873506 16.646911 35.565784 0.123559 1.083702 0.144797 -0.003682 822750.000000 0 0 1
29.766663 4.070306 16.582411 34.316147 0.135898 1.066462 0.151333 -0.023943 592008.000000 0 0 1
29.113163 4.293106 15.222811 33.132174 0.146408 1.093413 0.160097 -0.023598 -434448.000000 0 0 1
29.451463 5.532806 14.582911 33.326594 0.185697 1.117895 0.163572 -0.039541 293103.000000 0 0 1
28.833963 5.558306 13.263911 32.221476 0.190433 1.146535 0.144392 -0.041519 108050.000000 0 0 1
28.419863 6.899406 12.641411 31.860566 0.238160 1.162798 0.164240 -0.034306 -610758.000000 0 0 1
27.307263 7.434406 13.302111 31.271443 0.265808 1.131419 0.133120 -0.024537 -218854.000000 0 0 1
26.732663 8.388306 12.447411 30.658391 0.304055 1.152720 0.166834 -0.051222 614747.000000 0 0 1
25.351963 8.942306 12.990311 29.856909 0.339102 1.120663 0.167507 -0.057443 964633.000000 0 0 1
24.130263 8.247706 12.934111 28.593451 0.329350 1.101403 0.170880 -0.041428 576792.000000 0 0 1
24.068463 6.998406 13.649511 28.540808 0.282968 1.072141 0.190296 -0.043433 -1244970.000000 0 0 1
22.737263 6.275706 13.545811 27.200305 0.269305 1.049503 0.215607 -0.030955 -867249.000000 0 0 1
22.448163 5.844806 12.211211 26.214413 0.254714 1.086235 0.249868 -0.042433 381408.000000 0 0 1
21.453363 4.857706 12.243511 25.174345 0.222676 1.062890 0.256912 -0.034894 -684688.000000 0 0 1
20.900163 4.559506 10.875011 23.997328 0.214791 1.100471 0.257712 -0.042454 -854696.000000 0 1 0
21.739863 3.874906 10.020111 24.249518 0.176387 1.144822 0.264089 -0.054498 -52470.400000 0 1 0
21.334363 3.858506 8.692011 23.357957 0.178925 1.189502 0.279905 -0.049913 -371830.000000 0 1 0
22.487563 3.276406 7.888911 24.055357 0.144681 1.236666 0.276431 -0.042345 -772076.000000 0 1 0
22.778163 1.969706 8.311211 24.326953 0.086259 1.222128 0.271346 -0.047146 306125.000000 0 1 0
23.395063 1.129806 7.330211 24.542563 0.048255 1.267494 0.245296 -0.043387 113507.000000 0 1 0
24.913563 1.382606 7.037611 25.925377 0.055439 1.295890 0.233480 -0.046045 478451.000000 0 0 1
25.880863 0.979606 7.997211 27.105978 0.037833 1.271304 0.200435 -0.028010 299886.000000 0 0 1
25.872563 1.605606 9.206611 27.508710 0.061979 1.229531 0.202917 -0.034857 -1079310.000000 0 0 1
26.730563 0.904906 10.241711 28.639736 0.033840 1.205094 0.131451 -0.023467 -24197.500000 0 0 1
28.125163 1.095206 10.029011 29.879848 0.038921 1.228507 0.143014 -0.036021 459574.000000 0 0 1
28.810163 0.224606 10.962511 30.826167 0.007796 1.207215 0.152817 -0.028355 -940453.000000 0 0 1
30.301063 0.441906 10.921911 32.212386 0.014583 1.224879 0.214578 -0.029407 -932649.000000 0 0 1
30.744363 1.654406 11.523011 32.874499 0.053760 1.212675 0.199311 -0.031816 1336430.000000 0 0 1
32.188993 1.690506 11.658611 34.276993 0.052470 1.223742 0.204479 -0.039512 1122140.000000 0 0 1
32.657763 2.982906 12.376411 35.051430 0.091086 1.209921 0.181252 -0.044239 1102020.000000 0 0 1
34.037623 3.319406 12.093911 36.274521 0.097214 1.230889 0.177306 -0.055615 1252310.000000 0 0 1
34.542903 4.498206 12.702311 37.078224 0.129492 1.221133 0.159363 -0.058008 -95760.500000 0 0 1
35.905703 4.845006 12.080011 38.191887 0.134127 1.248972 0.178705 -0.051611 283196.000000 0 0 1
36.926633 3.918906 12.467311 39.171008 0.105731 1.246883 0.181739 -0.051073 753485.000000 0 0 1
-38.030969 4.181006 11.981011 40.092144 -0.109497 1.267323 0.183201 -0.041413 614490.000000 0 0 1
-36.929849 3.243706 12.552511 39.139506 -0.087609 1.244315 0.178032 -0.030822 -381396.000000 0 0 1
-36.796969 1.886306 12.094011 38.779378 -0.051218 1.253639 0.162842 -0.029696 291860.000000 0 0 1
-37.822229 0.931306 12.356211 39.800305 -0.024618 1.255124 0.185470 -0.031089 -332102.000000 0 0 1
38.062373 0.635006 13.811011 40.495573 0.016682 1.222763 0.187334 -0.032102 219887.000000 0 0 1
-37.186609 0.014106 14.599311 39.949768 -0.000379 1.196689 0.146500 -0.029300 637199.000000 0 0 1
-37.606209 0.020506 15.986511 40.863136 -0.000545 1.168839 0.140731 -0.035786 245087.000000 0 0 1
-36.638589 -0.864194 16.828711 40.327888 0.023583 1.140327 0.122722 -0.021989 23568.100000 0 0 1
-35.395918 -0.242494 17.075411 39.300121 0.006851 1.121327 0.129056 -0.025170 -24217.500000 0 0 1
-34.491847 -1.107994 17.742911 38.803686 0.032112 1.095898 0.127406 -0.019341 110982.000000 0 0 1
-34.580321 -1.108694 19.289511 39.612031 0.032050 1.062189 0.098967 -0.023521 -350649.000000 0 0 1
-35.808150 -1.619394 19.786111 40.943085 0.045193 1.066423 0.103292 -0.032303 256551.000000 0 0 1
-35.848834 -1.497294 21.194211 41.672237 0.041743 1.037246 0.094998 -0.032702 89342.600000 0 0 1
-36.572349 -2.678394 21.868111 42.695723 0.073105 1.033069 0.101431 -0.030978 -167967.000000 0 0 1
-35.863836 -3.881894 21.787911 42.142578 0.107820 1.027448 0.110226 -0.035208 -195401.000000 0 0 1
-36.303019 -4.932894 22.617831 43.055881 0.135054 1.017713 0.108842 -0.036571 -148624.000000 0 0 1
-36.328049 -4.807294 24.173861 43.900032 0.131566 0.987645 0.126534 -0.038642 -805155.000000 0 0 1
-35.100948 -4.549494 24.735861 43.181446 0.128893 0.960835 0.129112 -0.041315 -1463670.000000 0 0 1
-35.155650 -4.402694 26.126941 44.021818 0.124586 0.935396 0.140465 -0.051972 -866405.000000 0 0 1
-33.877909 -3.838794 26.718231 43.316428 0.112831 0.906106 0.122612 -0.049816 -510198.000000 0 0 1
-33.561799 -2.494894 26.383231 42.763229 0.074201 0.905921 0.118083 -0.039154 88413.200000 0 0 1
-32.959549 -2.440694 25.080311 41.488683 0.073916 0.921646 0.115878 -0.028246 -570841.000000 0 0 1
-32.869559 -1.053594 24.520831 41.021813 0.032043 0.930103 0.110321 -0.025024 -464830.000000 0 0 1
-34.084859 -0.389194 24.434701 41.940240 0.011418 0.948863 0.132680 -0.046120 -493961.000000 0 0 1
-33.838079 0.980606 24.247201 41.640172 -0.028971 0.949238 0.114061 -0.030208 416445.000000 0 0 1
-35.134014 1.858706 24.100661 42.646167 -0.052854 0.970205 0.121436 -0.033617 788583.000000 0 0 1
-35.867060 1.492106 22.932711 42.597906 -0.041577 1.002315 0.122716 -0.023982 -65683.500000 0 0 1
-36.979789 2.258406 22.518351 43.355292 -0.060996 1.024658 0.137075 -0.018445 166212.000000 0 0 1
-36.867219 3.625106 21.775711 42.971093 -0.098014 1.039383 0.110159 -0.004579 -153867.000000 0 0 1
-36.183519 3.476506 20.530911 41.747472 -0.095786 1.056654 0.105999 -0.015864 58709.800000 0 0 1
-37.059189 3.286606 19.416211 41.966350 -0.088454 1.089801 0.130911 -0.028951 -17141.300000 0 0 1
-36.420639 2.819306 18.116911 40.775408 -0.077255 1.110393 0.135798 -0.024757 -334650.000000 0 0 1
-35.546191 3.713006 17.455411 39.774483 -0.104078 1.116467 0.124976 -0.033977 -227714.000000 0 0 1
-35.091972 3.092006 16.326411 38.827293 -0.087885 1.136813 0.139268 -0.026979 -571890.000000 0 0 1
-34.100317 3.966906 15.538611 37.683105 -0.115810 1.145765 0.135161 -0.027573 -57119.700000 0 0 1
-34.708225 5.017006 14.783111 38.057478 -0.143554 1.171856 0.159042 -0.036790 -169824.000000 0 0 1
-33.783839 5.660506 13.965311 36.992148 -0.166009 1.183679 0.175732 -0.038670 -1039650.000000 0 0 1
-34.348628 6.788906 13.103711 37.384819 -0.195132 1.212682 0.194869 -0.045182 -433228.000000 0 0 1
-33.435029 7.429806 12.246611 36.374203 -0.218663 1.227403 0.222861 -0.044895 -163444.000000 0 0 1
-33.877249 8.676506 11.810211 36.911121 -0.250727 1.245105 0.205051 -0.046522 -617064.000000 0 0 1
-32.922639 9.454606 10.924611 35.953259 -0.279651 1.262059 0.230590 -0.046747 -422032.000000 0 0 1
-33.415019 10.662406 10.476711 36.606172 -0.308877 1.280537 0.191628 -0.024613 -759668.000000 0 0 1
-32.521619 11.273406 9.653911 35.748334 -0.333681 1.297349 0.206146 -0.042922 -606319.000000 0 0 1
-32.857449 12.768106 9.343311 36.468259 -0.370632 1.311703 0.159973 -0.021548 70096.700000 0 0 1
-32.012399 13.363006 8.375611 35.686334 -0.395443 1.333886 0.187115 -0.023929 4015.950000 0 0 1
-31.944209 14.764506 8.447311 36.190885 -0.432950 1.335213 0.163701 -0.015131 4372.050000 0 0 1
-30.906519 15.403706 7.486911 35.334698 -0.462364 1.357292 0.179630 -0.016206 -226963.000000 0 0 1
-29.594149 15.143806 7.876111 34.164040 -0.472977 1.338166 0.228946 -0.018956 -405296.000000 0 0 1
-28.619249 15.909106 7.179211 33.521667 -0.507353 1.354958 0.213966 -0.033886 -318836.000000 0 0 1
-27.227849 15.817906 7.799111 32.440531 -0.526291 1.328005 0.219347 -0.020991 -552189.000000 0 0 1
-26.973459 16.438306 9.042911 32.856653 -0.547321 1.291975 0.207295 -0.026839 118568.000000 0 0 1
-26.797299 17.803006 8.983911 33.402888 -0.586403 1.298487 0.194777 -0.041861 -305649.000000 0 0 1
-27.049189 18.402806 10.345011 34.312405 -0.597413 1.264536 0.202947 -0.015937 -22693.400000 0 0 1
-25.944589 18.325806 11.217511 33.686635 -0.614971 1.231317 0.174877 -0.015505 363857.000000 0 0 1
-26.308429 18.837006 12.503411 34.688637 -0.621388 1.202049 0.184692 -0.023163 44039.500000 0 0 1
-26.849679 17.820906 13.478911 34.930946 -0.585966 1.174642 0.138882 -0.014119 -206983.000000 0 0 1
-25.798319 17.000906 13.884011 33.872553 -0.582671 1.148463 0.147891 -0.026908 148387.000000 0 0 1
-26.215649 16.128506 14.954611 34.220306 -0.551539 1.118525 0.127572 -0.028480 215040.000000 0 0 1
-24.994249 15.266606 15.414111 33.096473 -0.548326 1.086334 0.130352 -0.015933 408597.000000 0 0 1
-24.091609 16.064606 16.165311 33.163149 -0.588104 1.061632 0.118220 -0.014894 -209624.000000 0 0 1
-22.974909 15.342606 16.650511 32.256496 -0.588786 1.028399 0.110432 -0.033411 -279394.000000 0 0 1
-23.080709 14.189606 17.690511 32.357661 -0.551218 0.992357 0.111430 -0.016029 -558695.000000 0 0 1
-23.197109 14.710106 18.943011 33.366611 -0.565142 0.967058 0.097118 -0.013763 27515.100000 0 0 1
-23.581309 13.781506 19.957111 33.827419 -0.528889 0.939777 0.096317 -0.006986 -477536.000000 0 0 1
-23.062509 14.210906 21.314111 34.469124 -0.552240 0.904150 0.089991 -0.008094 -709956.000000 0 0 1
-21.705909 14.206706 21.602111 33.758379 -0.579538 0.876423 0.112706 -0.024016 -735806.000000 0 0 1
-21.059009 15.407906 21.147511 33.587239 -0.631656 0.889720 0.115470 -0.008622 -1276440.000000 0 0 1
-19.804009 15.708306 21.913411 33.453658 -0.670574 0.856564 0.133927 -0.024685 -351181.000000 0 0 1
-18.614109 15.079506 21.474111 32.171633 -0.680876 0.839969 0.112105 -0.017526 614566.000000 0 0 1
-17.816309 15.821306 20.529311 31.451346 -0.726159 0.859611 0.106020 -0.026379 -333343.000000 0 0 1
-16.637709 15.026006 19.857911 29.948803 -0.734541 0.845895 0.107324 -0.009886 1600150.000000 0 0 1
-15.560609 14.487106 20.671011 29.652984 -0.749687 0.799456 0.111422 -0.010172 661315.000000 0 0 1
-14.838509 15.522306 21.294111 30.241734 -0.807917 0.789599 0.097748 -0.008201 -1662270.000000 0 0 1
-13.713909 15.076506 22.229081 30.157990 -0.832691 0.742046 0.079350 -0.021169 -883779.000000 0 0 1
-12.657109 14.673106 21.407111 28.875021 -0.859029 0.735685 0.062161 0.000996 -487324.000000 0 0 1
-11.586109 14.285606 22.271661 28.885002 -0.889364 0.690314 0.033025 -0.005772 141560.000000 0 0 1
-10.362109 13.658206 21.571511 27.554491 -0.921768 0.671535 0.044111 -0.007934 -1055120.000000 0 0 1
-9.723109 12.817306 22.517391 27.674086 -0.921819 0.620370 0.040695 -0.016405 334398.000000 0 0 1
-8.494509 12.287206 22.049111 26.632600 -0.965913 0.595444 0.043901 -0.010150 95536.200000 0 0 1
-7.281109 13.208306 22.031011 26.699051 -1.066992 0.600309 0.042693 -0.004278 -1393890.000000 0 0 1
-7.174509 14.075706 20.864911 26.171427 -1.099412 0.648087 0.034611 -0.005432 -175160.000000 0 0 1
-6.544009 15.306906 21.169111 26.930590 -1.166793 0.666384 0.035986 -0.001005 -234016.000000 0 0 1
-7.460709 16.333906 21.894511 28.316572 -1.142333 0.686917 0.042460 0.007460 123109.000000 0 0 1
-8.598909 16.746906 21.185711 28.341391 -1.096437 0.726478 0.008245 0.000536 -527730.000000 0 0 1
-8.382409 17.664106 20.135111 28.066138 -1.127719 0.770710 0.025243 -0.008174 -207121.000000 0 0 1
-9.591909 17.792506 19.119811 27.823464 -1.076361 0.813192 0.039446 -0.009756 1369430.000000 0 0 1
-10.718409 18.583806 19.490611 28.984928 -1.047640 0.833296 0.014681 -0.007476 426258.000000 0 0 1
-11.586609 17.996006 20.448111 29.601199 -0.998761 0.808220 0.025442 0.001759 26023.900000 0 0 1
-12.934909 18.766706 20.635911 30.746413 -0.967323 0.835017 0.028802 -0.005135 355731.000000 0 0 1
-13.873909 18.513906 19.631211 30.341959 -0.927694 0.867155 0.038966 -0.002945 -93457.600000 0 0 1
-15.010209 19.344506 19.703011 31.428091 -0.910898 0.893198 0.014126 -0.007090 -159906.000000 0 0 1
-15.880909 19.342306 18.463011 31.100013 -0.883354 0.935190 0.048004 -0.002427 1632.360000 0 0 1
-16.637609 18.137406 18.240011 30.634515 -0.828500 0.933024 0.068060 -0.001006 277358.000000 0 0 1
-17.294309 18.213506 17.008111 30.333162 -0.811280 0.975553 0.082344 -0.019719 -1279450.000000 0 0 1
-18.031509 16.946406 16.555511 29.772486 -0.754386 0.981150 0.089816 -0.024738 358785.000000 0 0 1
-19.044709 16.473306 17.420711 30.619469 -0.713127 0.965577 0.096963 -0.016481 280587.000000 0 0 1
-20.177509 17.319206 17.524711 31.846542 -0.709317 0.988089 0.119157 -0.022388 -1064160.000000 0 0 1
36.133143 -9.008294 11.409811 38.947877 -0.244328 1.273485 0.103066 -0.050514 -74956.500000 0 0 1
34.910413 -9.691994 11.156711 37.909680 -0.270805 1.272076 0.091979 -0.039622 471312.000000 0 0 1
34.739633 -10.888794 11.981711 38.327136 -0.303741 1.252850 0.078057 -0.029827 -803160.000000 0 0 1
33.309103 -11.333694 12.247411 37.255175 -0.327970 1.235823 0.120152 -0.020615 -1278200.000000 0 0 1
32.603743 -10.330094 12.862111 36.539688 -0.306832 1.211085 0.128279 -0.016012 -22159.900000 0 0 1
31.197263 -10.407094 12.702911 35.255365 -0.321982 1.202195 0.141039 -0.023926 272259.000000 0 0 1
30.462363 -11.209594 13.798511 35.270518 -0.352604 1.168840 0.135454 -0.008420 -940407.000000 0 0 1
30.598863 -10.655394 15.104111 35.748594 -0.335096 1.134584 0.157928 -0.009293 342473.000000 0 0 1
29.877063 -11.272494 16.209111 35.811217 -0.360782 1.101088 0.173856 -0.022302 1787260.000000 0 0 1
28.288863 -11.202394 16.117111 34.431304 -0.377053 1.083663 0.177924 -0.041822 1235090.000000 0 0 1
27.825663 -9.879294 16.262611 33.709650 -0.341160 1.067367 0.170697 -0.044464 398863.000000 0 0 1
26.779663 -9.465994 15.347211 32.284552 -0.339769 1.075408 0.185209 -0.042965 953356.000000 0 0 1
26.329463 -8.007994 15.547711 31.608542 -0.295256 1.056545 0.190488 -0.038651 -550415.000000 0 0 1
27.344163 -7.155994 15.183111 32.084862 -0.255961 1.077857 0.182949 -0.032488 -827972.000000 0 0 1
27.291163 -5.924694 15.835811 32.104244 -0.213775 1.054960 0.161197 -0.032191 -456667.000000 0 0 1
28.488063 -4.986694 15.802111 32.956692 -0.173289 1.070733 0.172871 -0.030125 -409572.000000 0 0 1
28.701863 -4.513894 14.491711 32.468167 -0.155991 1.108130 0.177633 -0.033935 1261090.000000 0 0 1
30.009363 -3.880694 14.372711 33.499201 -0.128602 1.127360 0.181600 -0.028681 1234990.000000 0 0 1
30.364863 -3.421294 12.981211 33.200030 -0.112200 1.169079 0.182957 -0.036473 -43772.600000 0 0 1
30.731163 -4.469794 12.069611 33.317547 -0.144435 1.200105 0.167520 -0.044200 290288.000000 0 0 1
31.222863 -3.886894 10.865811 33.287249 -0.123852 1.238277 0.183382 -0.050298 123333.000000 0 0 1
31.662703 -4.895494 9.763911 33.493679 -0.153399 1.274986 0.171182 -0.046362 -1089210.000000 0 0 1
32.910623 -5.400994 9.985011 34.813507 -0.162661 1.279897 0.191175 -0.052355 -912317.000000 0 0 1
33.425373 -6.133094 8.860511 35.119497 -0.181468 1.315744 0.174028 -0.054392 -138772.000000 0 0 1
34.887133 -6.594594 9.028911 36.634982 -0.186822 1.321775 0.157890 -0.049229 -133752.000000 0 0 1
35.852763 -5.575294 8.927611 37.365850 -0.154270 1.329538 0.155309 -0.051817 104929.000000 0 0 1
37.132923 -6.160894 8.777311 38.650378 -0.164417 1.341703 0.151366 -0.064924 150215.000000 0 0 1
-37.958919 -5.262794 8.373711 39.226210 0.137766 1.355668 0.160526 -0.061627 54829.800000 0 0 1
-37.925299 -4.954794 6.980311 38.879339 0.129910 1.390280 0.156760 -0.056931 -489100.000000 0 0 1
-36.767749 -4.240194 6.702811 37.613486 0.114817 1.391637 0.177754 -0.034480 -392762.000000 0 0 1
-36.726009 -3.523494 5.358311 37.281715 0.095647 1.426572 0.168402 -0.046796 -41351.700000 0 0 1
-36.293539 -4.302094 4.233111 36.791959 0.117986 1.455486 0.194492 -0.063992 168163.000000 0 0 1
-36.408319 -3.624094 3.020911 36.712745 0.099213 1.488418 0.198998 -0.057474 -180474.000000 0 0 1
-35.791061 -4.368294 1.858211 36.104501 0.121449 1.519306 0.298334 -0.068003 -134890.000000 0 0 1
-36.452789 -5.581094 1.547311 36.910007 0.151925 1.528863 0.260709 -0.058353 -295096.000000 0 0 1
-37.160569 -5.646694 0.337711 37.588657 0.150800 1.561812 0.212733 -0.051599 -424408.000000 0 0 1
-36.438429 -5.519694 -1.040389 36.868802 0.150337 1.599019 0.282079 -0.054924 -847267.000000 0 0 1
-35.711795 -6.696794 -1.331089 36.358646 0.185370 1.607414 0.276876 -0.068388 309785.000000 0 0 1
-34.647958 -6.596094 -2.247389 35.341763 0.188124 1.634429 0.263502 -0.066563 -457581.000000 0 0 1
-33.391639 -5.823894 -1.854389 33.946400 0.172675 1.625451 0.273989 -0.076860 -1205980.000000 0 0 1
-32.599399 -6.668894 -1.062189 33.291489 0.201787 1.602707 0.280026 -0.066470 -84946.300000 0 0 1
-31.505479 -5.926294 -0.513889 32.062131 0.185931 1.586825 0.279175 -0.069276 353200.000000 0 0 1
-30.585329 -6.794894 0.373011 31.333242 0.218611 1.558891 0.249125 -0.058353 -159369.000000 0 0 1
-29.819969 -7.727194 -0.366789 30.807055 0.253551 1.582703 0.223619 -0.032430 22429.200000 0 0 1
-29.108529 -8.475494 0.550511 30.322327 0.283335 1.552640 0.267412 -0.037560 -466511.000000 0 0 1
-29.051529 -9.934494 0.084811 30.703301 0.329495 1.568034 0.210476 -0.029163 -334965.000000 0 0 1
-28.074639 -10.134694 -0.903689 29.861581 0.346433 1.601064 0.205798 -0.029801 41129.500000 0 0 1
-27.579259 -11.437494 -0.982889 29.873029 0.393126 1.603704 0.166652 -0.015941 -20043.600000 0 0 1
-28.308979 -12.455994 -1.931389 30.988391 0.414508 1.633163 0.152401 -0.014973 646271.000000 0 0 1
-29.602549 -12.934294 -1.528789 32.341059 0.411933 1.618085 0.189559 -0.029843 1158470.000000 0 0 1
-30.043849 -14.044494 -2.287689 33.243258 0.437284 1.639667 0.142644 -0.011877 -279294.000000 0 0 1
-31.189229 -14.874894 -1.683889 34.595751 0.445017 1.619489 0.172481 -0.017214 -278935.000000 0 0 1
-30.827249 -15.545794 -0.483789 34.528612 0.467072 1.584808 0.139827 -0.013840 115400.000000 0 0 1
-31.872489 -16.072394 0.306811 35.696940 0.467059 1.562201 0.158156 -0.017932 4059.350000 0 0 1
-32.272509 -17.558894 -0.060789 36.740078 0.498288 1.572451 0.156554 -0.021865 556566.000000 0 0 1
-31.167739 -18.435194 0.233411 36.212413 0.534134 1.564351 0.195215 -0.032360 762913.000000 0 0 1
-31.442639 -19.814994 0.089911 37.165597 0.562326 1.568377 0.157132 -0.028284 -28392.700000 0 0 1
-32.372139 -20.528394 1.103011 38.348233 0.565143 1.542029 0.127889 -0.027173 16573.800000 0 0 1
-31.782929 -20.778794 2.366111 38.046174 0.579022 1.508566 0.128203 -0.029584 101815.000000 0 0 1
-32.744969 -21.330594 3.225911 39.212673 0.577370 1.488436 0.098796 -0.022582 199638.000000 0 0 1
-32.056139 -21.748194 4.534011 39.001760 0.596110 1.454281 0.096463 -0.021206 175422.000000 0 0 1
-31.914969 -20.609994 5.287611 38.357476 0.573402 1.432505 0.079065 -0.020617 -106872.000000 0 0 1
-30.868349 -20.860694 6.194411 37.767635 0.594296 1.406038 0.092375 -0.025503 -31389.800000 0 0 1
-30.436869 -19.607394 6.947311 36.866218 0.572286 1.381216 0.114019 -0.023174 -277090.000000 0 0 1
-29.290279 -19.808494 7.710611 36.190474 0.594630 1.356094 0.115612 -0.033490 -285442.000000 0 0 1
-28.706079 -18.568594 8.156111 35.147600 0.574159 1.336608 0.144869 -0.040254 995465.000000 0 0 1
-27.536239 -18.690094 9.197511 34.527645 0.596318 1.301160 0.165022 -0.041453 567902.000000 0 0 1
-28.055949 -18.894894 10.528811 35.426109 0.592699 1.269032 0.141797 -0.044228 -142882.000000 0 0 1
-27.146119 -19.167694 11.546811 35.180124 0.614804 1.236378 0.123036 -0.031495 -394858.000000 0 0 1
-26.423219 -17.914494 12.133411 34.151651 0.595796 1.207582 0.120060 -0.030796 -348733.000000 0 0 1
-25.441869 -17.246294 11.364311 32.769970 0.595719 1.216649 0.130641 -0.030988 157166.000000 0 0 1
-24.901309 -16.107394 11.999411 31.992331 0.574157 1.186322 0.128161 -0.024744 510009.000000 0 0 1
-23.986309 -16.232794 13.281611 31.862954 0.594953 1.140835 0.107054 -0.023842 -328071.000000 0 0 1
-24.742109 -16.520494 14.391611 33.048709 0.588723 1.120240 0.109692 -0.040301 -619410.000000 0 0 1
-23.964709 -16.825494 15.513211 33.137053 0.612130 1.083597 0.110912 -0.037969 -281478.000000 0 0 1
-24.733109 -17.541694 16.628211 34.582295 0.616900 1.069195 0.099476 -0.014171 -123820.000000 0 0 1
-25.658929 -16.729294 17.300211 35.178790 0.577771 1.056664 0.098611 -0.013870 -170118.000000 0 0 1
-26.496989 -17.527494 18.106111 36.566853 0.584410 1.052788 0.089754 -0.005341 -76997.500000 0 0 1
-27.539399 -16.788794 18.975011 37.421026 0.547469 1.039017 0.101020 -0.003533 192484.000000 0 0 1
-26.955749 -16.204194 20.149711 37.352365 0.541258 1.001013 0.096579 -0.011079 -351585.000000 0 0 1
-27.810819 -15.255394 20.690211 37.871540 0.501723 0.992825 0.096648 -0.016690 -168925.000000 0 0 1
-27.129479 -14.434594 21.799111 37.677147 0.488968 0.953814 0.096247 -0.018439 265078.000000 0 0 1
-25.933579 -13.764094 21.418011 36.341877 0.487939 0.940545 0.101835 -0.016028 193665.000000 0 0 1
-25.222149 -13.282994 22.561211 36.353858 0.484732 0.901288 0.092489 -0.016844 260189.000000 0 0 1
-23.982309 -12.522494 22.010511 34.877308 0.481214 0.887846 0.093712 -0.009747 -191113.000000 0 0 1
-24.337609 -11.553594 21.066511 34.199454 0.443221 0.907155 0.105123 -0.007215 28009.300000 0 0 1
-23.220909 -10.942894 20.468911 32.831903 0.440386 0.897654 0.115035 -0.007712 -348265.000000 0 0 1
-22.827509 -9.649294 21.180211 32.600696 0.399925 0.863625 0.132123 -0.007463 -46921.500000 0 0 1
-22.292609 -9.710394 22.496311 33.126065 0.410805 0.824244 0.140109 -0.020333 1433790.000000 0 0 1
-20.851509 -9.837894 22.545711 32.247150 0.440840 0.796583 0.096761 -0.013421 977501.000000 0 0 1
-20.272209 -10.044494 23.936811 32.936686 0.460026 0.757214 0.091677 -0.013321 -71319.100000 0 0 1
-20.601809 -11.256694 24.558411 33.974450 0.500070 0.762879 0.099978 -0.020189 330558.000000 0 0 1
-19.808709 -11.420094 25.753311 34.438881 0.522975 0.726058 0.093987 -0.011394 -176616.000000 0 0 1
-20.261809 -12.591094 26.668011 35.780712 0.556021 0.729785 0.088016 -0.040934 746211.000000 0 0 1
-21.543009 -12.469594 27.313711 36.954443 0.524703 0.739036 0.078298 -0.032165 272824.000000 0 0 1
-22.582809 -13.008294 26.521311 37.183046 0.522605 0.776653 0.077634 -0.029318 -409315.000000 0 0 1
-23.866909 -13.114294 27.355411 38.599645 0.502441 0.783148 0.066643 -0.029159 -435189.000000 0 0 1
-23.950709 -14.255294 28.245911 39.682255 0.536877 0.778736 0.068551 -0.029256 -421386.000000 0 0 1
-23.008509 -14.374394 29.296611 39.928763 0.558414 0.747013 0.056991 -0.030497 -244696.000000 0 0 1
-23.423009 -15.428994 30.375711 41.344589 0.582475 0.745578 0.048738 -0.033922 -676248.000000 0 0 1
-23.303309 -16.770894 30.006611 41.529554 0.623811 0.763332 0.051058 -0.031957 76613.400000 0 0 1
-23.678809 -17.770394 31.060811 42.909753 0.643806 0.761410 0.057757 -0.026210 450496.000000 0 0 1
-25.183369 -17.860094 31.429611 44.056844 0.616875 0.776476 0.076444 -0.032741 -147007.000000 0 0 1
-25.579499 -16.810994 32.270411 44.478082 0.581424 0.758985 0.091639 -0.033830 853812.000000 0 0 1
-26.943239 -17.035494 32.719311 45.680406 0.563813 0.772360 0.097997 -0.038925 1062930.000000 0 0 1
-27.610909 -15.795594 33.354011 46.090706 0.519636 0.761705 0.097399 -0.033966 -142648.000000 0 0 1
-27.256489 -15.592694 -32.637889 45.291060 0.519632 2.375500 0.119973 -0.035689 154154.000000 0 0 1
-28.054029 -14.604394 -32.008789 44.998660 0.479977 2.362182 0.099628 -0.033336 -233741.000000 0 0 1
-27.572759 -14.396394 -30.556189 43.602682 0.481190 2.347296 0.080166 -0.016909 113842.000000 0 0 1
-28.036999 -15.378494 -29.644189 43.604465 0.501696 2.318345 0.090236 -0.000784 -20454.100000 0 0 1
-27.348569 -15.273994 -28.413089 42.291166 0.509341 2.307493 0.082445 0.009372 -5162.900000 0 0 1
-28.137739 -15.553594 -27.106289 42.052319 0.504965 2.271277 0.091181 0.013657 -125087.000000 0 0 1
-28.965099 -14.512094 -26.589789 41.911749 0.464463 2.258059 0.118035 0.009882 358549.000000 0 0 1
-28.320699 -13.326194 -26.129389 40.772471 0.439808 2.266413 0.111261 -0.002872 -127016.000000 0 0 1
-27.397909 -13.419194 -24.877589 39.365145 0.455445 2.254889 0.107452 0.000167 778185.000000 0 0 1
-26.251919 -14.258994 -25.068289 38.998734 0.497577 2.268941 0.080608 -0.011463 571626.000000 0 0 1
-25.393389 -14.289794 -23.944289 37.714074 0.512569 2.258662 0.073141 -0.005751 -157895.000000 0 0 1
-24.572609 -15.560794 -23.875589 37.629711 0.564515 2.258142 0.065517 0.003460 -606845.000000 0 0 1
-23.664309 -15.735094 -24.908689 37.789357 0.586799 2.290478 0.076786 0.007606 -295080.000000 0 0 1
-23.340909 -17.087694 -25.015389 38.243392 0.631941 2.283802 0.092924 -0.000918 -191487.000000 0 0 1
-22.483609 -17.363294 -26.279989 38.699283 0.657599 2.317308 0.080405 -0.002395 -17745.300000 0 0 1
-23.124309 -17.347594 -27.538589 39.925513 0.643622 2.331939 0.087593 -0.007908 479368.000000 0 0 1
-24.113609 -18.382294 -27.710389 41.076034 0.651340 2.311235 0.104866 -0.015457 116809.000000 0 0 1
-24.919919 -18.336794 -28.993789 42.401417 0.634370 2.323744 0.101974 -0.009238 -492447.000000 0 0 1
-24.226109 -18.813094 -30.103789 42.977610 0.660286 2.346828 0.100365 -0.015647 20529.000000 0 0 1
-24.744109 -18.307094 -31.340089 43.927461 0.636978 2.365207 0.083260 -0.018472 -930565.000000 0 0 1
-23.883209 -18.544994 -32.570789 44.443006 0.660238 2.393322 0.084134 -0.023527 -1131030.000000 0 0 1
-22.734809 -17.762294 -32.780489 43.668422 0.663223 2.419869 0.077659 -0.021264 -553175.000000 0 0 1
-21.604009 -18.276694 -32.153189 42.832211 0.702159 2.419884 0.085425 -0.029502 -772416.000000 0 0 1
-20.912309 -19.496994 -32.839589 43.541888 0.750388 2.425242 0.077243 -0.031899 -891533.000000 0 0 1
-20.517309 -19.206094 33.153011 43.462123 0.752402 0.703160 0.075743 -0.032985 47380.500000 0 0 1
-20.302809 -20.332994 32.317311 43.243997 0.786141 0.726770 0.070969 -0.033201 938762.000000 0 0 1
-21.644409 -20.888694 31.667311 43.676499 0.767632 0.759700 0.070261 -0.032326 1013870.000000 0 0 1
-22.553809 -21.648094 32.425111 45.041116 0.764911 0.767138 0.065141 -0.020154 323322.000000 0 0 1
-23.688809 -22.107194 31.682611 45.317497 0.750876 0.796623 0.065986 -0.011903 407951.000000 0 0 1
-23.418109 -23.303294 30.713411 45.108369 0.782941 0.821832 0.074462 -0.009625 -523797.000000 0 0 1
-22.909409 -24.379894 31.401511 45.883278 0.816484 0.817046 0.080574 -0.003583 -295149.000000 0 0 1
-22.789109 -25.448364 30.502511 45.797008 0.840471 0.841913 0.091995 0.000126 -361495.000000 0 0 1
-22.474309 -26.715494 31.215211 46.831630 0.871406 0.841237 0.091646 -0.010614 90318.100000 0 0 1
-23.538909 -27.331214 31.957711 48.190983 0.859809 0.845781 0.094025 -0.010102 158461.000000 0 0 1
-23.106209 -28.426444 32.732111 49.125866 0.888274 0.841573 0.105426 -0.023663 -173392.000000 0 0 1
-24.250309 -29.188424 33.516811 50.630211 0.877544 0.847323 0.098738 -0.012519 377810.000000 0 0 1
-25.223959 -29.806294 32.622511 50.881151 0.868476 0.874799 0.077337 -0.017634 1460100.000000 0 0 1
-26.275399 -28.887164 32.179911 50.600509 0.832710 0.881544 0.073108 -0.013559 125032.000000 0 0 1
-27.367619 -28.709694 33.256311 51.761137 0.809326 0.873046 0.061179 -0.013904 -1199300.000000 0 0 1
-28.426359 -27.898624 32.851211 51.629383 0.776029 0.881118 0.052188 -0.007148 -148461.000000 0 0 1
-29.212519 -27.464024 -33.360989 52.159366 0.754558 2.264771 0.052391 -0.005563 -358365.000000 0 0 1
-30.492109 -26.700434 33.603311 52.648499 0.719198 0.878563 0.037567 -0.009823 -379596.000000 0 0 1
-31.391939 -27.588164 32.962411 53.226696 0.720995 0.902967 0.027465 -0.019310 79151.400000 0 0 1
-32.543919 -26.888364 32.501111 53.276759 0.690524 0.914682 0.034772 -0.024715 152659.000000 0 0 1
