# x y z rho theta phi s1 s2 stress_xx np intf bulk
-0.742723 -10.765697 -14.451594 18.036087 1.501916 2.500194 0.011875 -0.001621 -263442.000000 1 0 0
2.260677 -13.428997 -12.959494 18.798859 -1.404017 2.331425 0.021622 -0.007104 -692427.000000 1 0 0
2.226477 -11.194997 -14.729794 18.634699 -1.374477 2.482339 0.010066 -0.001094 539735.000000 1 0 0
-5.509523 -6.305897 -16.674794 18.659259 0.852698 2.676204 0.019552 -0.002251 149475.000000 1 0 0
4.630577 -14.084597 -11.372694 18.685724 -1.253159 2.225129 0.019773 -0.008662 9751.270000 1 0 0
14.081477 -10.622897 -7.915794 19.333746 -0.646303 1.992624 0.042579 -0.012784 -394762.000000 1 0 0
7.011277 10.860603 -10.784494 16.834965 0.997542 2.266077 0.039439 -0.024223 -1094250.000000 1 0 0
5.794577 -4.226697 -12.537394 14.443973 -0.630201 2.621960 0.007727 -0.003596 2384140.000000 1 0 0
13.696877 0.659503 -10.025994 16.987053 0.048113 2.202120 0.031607 -0.005247 1457300.000000 1 0 0
14.242577 5.176603 -10.302194 18.324395 0.348615 2.167854 0.042611 -0.014391 -300897.000000 1 0 0
4.185577 4.336303 -13.473494 14.760001 0.803083 2.720978 0.016272 0.002367 2104450.000000 1 0 0
10.525377 -5.055497 -13.773694 18.057028 -0.447776 2.438411 0.034102 -0.000413 -1038420.000000 1 0 0
2.606177 -7.552097 -12.023094 14.435412 -1.238499 2.555104 0.000971 0.002294 157281.000000 1 0 0
-5.507423 -2.100397 -15.188494 16.292137 0.364348 2.771404 0.010765 -0.003672 164626.000000 1 0 0
10.765577 0.123203 -9.691594 14.485850 0.011444 2.303711 0.004877 0.003141 1839010.000000 1 0 0
-1.608823 -9.529897 -16.988094 19.544887 1.403555 2.624345 0.029225 -0.012906 1049030.000000 1 0 0
8.893577 1.688103 -18.034994 20.179357 0.187580 2.676399 0.038136 -0.005554 -1156340.000000 1 0 0
16.438377 -5.729597 -8.838694 19.523602 -0.335382 2.040608 0.074822 -0.014240 83621.200000 1 0 0
10.127477 7.656103 -9.857794 16.073513 0.647313 2.231021 0.035251 -0.014276 -489806.000000 1 0 0
13.741177 -2.274197 -10.560094 17.478773 -0.164016 2.219516 0.039735 -0.008385 -2133450.000000 1 0 0
7.281477 -1.905897 -13.688094 15.621021 -0.256003 2.638843 0.014181 -0.003529 1763920.000000 1 0 0
-2.809723 6.598803 -13.848194 15.595231 -1.168254 2.663722 0.007734 -0.005059 2312220.000000 1 0 0
11.373877 1.842403 -13.869394 18.031074 0.160591 2.448375 0.021065 -0.004496 100961.000000 1 0 0
-2.395623 10.686303 -12.900194 16.921912 -1.350265 2.437712 0.003730 -0.004159 -866535.000000 1 0 0
3.033077 -1.095297 -15.369494 15.704158 -0.346544 2.934776 0.015177 -0.005439 -335561.000000 1 0 0
-8.995623 0.371003 -15.226694 17.689293 -0.041219 2.607608 0.016500 -0.004146 -509857.000000 1 0 0
2.388177 -1.820797 -18.138094 18.385025 -0.651403 2.977512 0.038669 -0.014270 1203480.000000 1 0 0
0.989677 7.868403 -13.200894 15.399833 1.445675 2.600624 0.011200 -0.005699 508036.000000 1 0 0
9.457277 -8.991697 -9.969294 16.421862 -0.760167 2.223170 0.021620 -0.003027 -368113.000000 1 0 0
3.912877 7.248203 -13.410094 15.737779 1.075786 2.590773 0.015599 -0.004777 1148640.000000 1 0 0
-2.806623 9.087903 -15.550494 18.228686 -1.271258 2.592653 0.007927 -0.004609 585644.000000 1 0 0
5.599177 -7.558697 -15.388094 18.035469 -0.933235 2.592911 0.022752 -0.010811 241339.000000 1 0 0
4.252577 7.253703 -16.267994 18.312517 1.040539 2.664544 0.032841 -0.006759 971717.000000 1 0 0
-0.192323 5.065303 -13.486094 14.407256 -1.532846 2.782064 0.015259 -0.005410 2840330.000000 1 0 0
8.842877 4.219603 -16.551394 19.234089 0.445222 2.607094 0.030467 -0.011341 -431396.000000 1 0 0
5.448277 0.277803 -14.444194 15.440067 0.050945 2.780470 0.009800 0.000476 -65299.500000 1 0 0
6.231677 8.015103 -11.614794 15.426572 0.909931 2.423266 0.007921 -0.008419 -41710.900000 1 0 0
2.807677 -8.457697 -15.002294 17.449485 -1.250276 2.605587 0.008868 -0.005957 747850.000000 1 0 0
3.983477 11.528303 -13.803594 18.420345 1.238101 2.417902 0.039573 -0.021049 -1635180.000000 1 0 0
0.675177 -4.423297 -13.779594 14.487879 -1.419324 2.827613 0.007826 -0.004445 1255450.000000 1 0 0
8.530177 -0.060897 -11.708094 14.486101 -0.007139 2.511936 0.000602 0.003013 -14567.500000 1 0 0
-0.864223 -5.052197 -16.309294 17.095750 1.401377 2.837093 0.010440 -0.010351 -670757.000000 1 0 0
4.507477 0.788503 -11.768494 12.626819 0.173180 2.770754 0.005611 0.000544 916242.000000 1 0 0
-2.821923 -7.188497 -15.631394 17.434971 1.196719 2.682724 0.003075 -0.003591 2294240.000000 1 0 0
11.406177 -3.844497 -11.326894 16.528145 -0.325095 2.325825 0.016033 0.002455 538805.000000 1 0 0
6.563877 -6.982897 -12.616194 15.843412 -0.816320 2.491959 0.017230 -0.002117 -1771510.000000 1 0 0
3.533077 -3.994297 -14.656394 15.596376 -0.846594 2.792638 0.018850 -0.005993 1757780.000000 1 0 0
-0.556723 -1.547697 -18.374694 18.448163 1.225497 3.052317 0.034326 -0.016672 414506.000000 1 0 0
14.885477 3.026403 -8.412194 17.363801 0.200579 2.076551 0.029225 -0.008188 -1557450.000000 1 0 0
7.024777 4.407703 -14.306894 16.536704 0.560360 2.616266 0.017279 -0.001142 2324180.000000 1 0 0
10.067477 -9.709097 -14.162494 19.904696 -0.767279 2.362449 0.057899 -0.021292 -508177.000000 1 0 0
9.263477 -3.243697 -15.509694 18.354406 -0.336817 2.577384 0.046586 -0.016545 -600154.000000 1 0 0
-5.218223 -2.153097 -18.159794 19.016935 0.391331 2.840212 0.003538 0.004544 -332316.000000 1 0 0
5.022477 -9.059097 -11.200694 15.256083 -1.064572 2.395253 -0.004282 0.001757 1417840.000000 1 0 0
-2.522323 3.948303 -17.349694 17.971174 -1.002309 2.877838 0.019443 0.001576 1093060.000000 1 0 0
9.621777 9.393103 -14.310794 19.636900 0.773373 2.387321 0.092269 -0.031623 -705593.000000 1 0 0
9.790277 10.127303 -11.443694 18.148552 0.802318 2.253067 0.057154 -0.032206 95642.900000 1 0 0
12.016677 -5.879997 -9.595894 16.463781 -0.455067 2.193026 0.026609 -0.002987 720006.000000 1 0 0
8.275477 6.955703 -13.622394 17.390657 0.698965 2.470780 0.024534 -0.009749 548660.000000 1 0 0
3.955677 -4.234297 -17.608994 18.537889 -0.819405 2.823687 0.040068 -0.019013 -228005.000000 1 0 0
9.412177 -7.494397 -12.494694 17.345675 -0.672447 2.375081 0.030726 -0.005548 516690.000000 1 0 0
12.087977 -8.584997 -8.759594 17.220681 -0.617545 2.104432 0.033568 -0.009756 2104170.000000 1 0 0
-2.853623 -2.556697 -13.880894 14.399968 0.730572 2.872277 0.006785 -0.005484 -1516800.000000 1 0 0
-0.425023 6.083703 -17.640894 18.665295 -1.501047 2.808750 0.029516 -0.007993 1883270.000000 1 0 0
1.113277 -8.506497 -17.460594 19.454363 -1.440662 2.684899 0.024295 -0.015323 1447860.000000 1 0 0
-0.019023 8.509703 -16.013394 18.134062 -1.568561 2.653132 0.018492 -0.008302 -2155460.000000 1 0 0
1.884977 3.339203 -14.976394 15.459489 1.056890 2.890941 0.025026 -0.003605 3311690.000000 1 0 0
-1.850523 -0.514397 -15.819394 15.935566 0.271129 3.020771 0.019396 -0.009051 1534800.000000 1 0 0
14.072277 -4.228497 -8.335194 16.893331 -0.291901 2.086792 0.034215 -0.003249 -207747.000000 1 0 0
0.701777 0.556903 -14.679094 14.706408 0.670803 3.080636 0.015352 -0.004921 800685.000000 1 0 0
8.884777 2.784103 -12.520994 15.603391 0.303665 2.502192 0.003996 0.004794 1790480.000000 1 0 0
6.195577 0.936003 -17.087194 18.199821 0.149942 2.790118 0.033160 -0.006249 -304656.000000 1 0 0
15.411577 1.702303 -12.291494 19.786242 0.110010 2.241087 0.082346 -0.020878 892346.000000 1 0 0
8.773777 -11.201097 -11.975294 18.597081 -0.906324 2.270426 0.040943 -0.012795 1508550.000000 1 0 0
-4.517223 0.664903 -15.045394 15.722954 -0.146144 2.846951 0.013231 -0.004164 1291100.000000 1 0 0
2.368877 5.141903 -17.285294 18.188792 1.139080 2.825080 0.038338 -0.006407 2389380.000000 1 0 0
5.905177 -11.705697 -12.363394 18.020765 -1.103579 2.326861 0.014721 -0.009110 -886942.000000 1 0 0
12.804977 7.311403 -8.575194 17.057492 0.518809 2.097542 0.025926 -0.012826 505868.000000 1 0 0
-4.960023 3.528703 -15.757994 16.892838 -0.618355 2.772960 0.007522 -0.001257 2471570.000000 1 0 0
-0.574423 -4.509697 -19.141094 19.673556 1.444104 2.908407 0.028789 -0.016762 105515.000000 1 0 0
9.827977 4.493503 -10.181794 14.847547 0.428838 2.326438 0.001371 -0.002065 747652.000000 1 0 0
13.358377 3.756803 -12.691694 18.805290 0.274151 2.311626 0.060541 -0.021576 884128.000000 1 0 0
-6.268123 5.708303 -17.226294 19.199461 -0.738689 2.684248 0.013904 -0.000688 -825598.000000 1 0 0
-10.243723 3.081803 -15.506894 18.838661 -0.292235 2.537719 0.041293 -0.009045 -944373.000000 1 0 0
10.602077 13.677803 -8.337394 19.209334 0.911405 2.019756 0.125694 -0.031855 401304.000000 1 0 0
7.303477 13.473203 -12.229294 19.606724 1.074058 2.244302 0.089497 -0.039689 -448099.000000 1 0 0
5.083677 15.141203 -11.181794 19.496983 1.246871 2.181585 0.060347 -0.027579 -571298.000000 1 0 0
14.093877 9.392403 -10.174794 19.758063 0.587830 2.111768 0.105782 -0.033053 -923475.000000 1 0 0
8.478377 -17.035997 -2.145394 19.149694 -1.109011 1.683065 0.031542 -0.006464 886199.000000 1 0 0
0.840577 -15.848597 -0.051794 15.870957 -1.517808 1.574060 0.014444 -0.010853 3131680.000000 1 0 0
-9.148623 -11.738297 7.585906 16.704217 0.908754 1.099400 0.033918 -0.013259 1409670.000000 1 0 0
2.161977 -15.848497 -2.624894 16.209228 -1.435218 1.733451 0.024701 -0.011360 1570990.000000 1 0 0
-1.273823 -10.973797 -9.472994 14.552816 1.455235 2.279617 -0.005095 0.000924 524954.000000 1 0 0
-4.597123 -12.675697 -12.929394 18.680901 1.222877 2.335216 0.023310 0.003398 1801090.000000 1 0 0
-8.584823 -17.970997 -1.288694 19.957871 1.125144 1.635412 0.072209 -0.028553 -742579.000000 1 0 0
-11.338723 -7.176197 -8.871794 16.086428 0.564255 2.154967 0.026443 -0.007719 2365900.000000 1 0 0
-13.611523 -11.638097 -4.761694 18.530855 0.707400 1.830672 0.055210 -0.003428 139305.000000 1 0 0
-5.753423 -13.610397 9.671206 17.660039 1.170856 0.991265 0.031911 -0.015977 18963.100000 1 0 0
0.257277 -13.989497 -3.743494 14.483990 -1.552408 1.832221 0.014602 -0.005578 741126.000000 1 0 0
-14.802023 -11.598797 1.989406 18.910042 0.664658 1.465398 0.016808 -0.002481 -928228.000000 1 0 0
-3.906723 -16.550997 -7.582694 18.619754 1.338998 1.990226 0.021937 -0.008591 -297513.000000 1 0 0
0.628477 -15.241297 -9.250394 17.839896 -1.529585 2.115919 0.008886 -0.003098 1395760.000000 1 0 0
4.624977 -14.168797 -2.590694 15.128017 -1.255281 1.742896 0.020642 -0.004751 84274.100000 1 0 0
-3.408523 -18.038597 -2.496694 18.526804 1.384041 1.705969 0.036917 -0.022390 1133950.000000 1 0 0
-0.916323 -13.396097 0.583806 13.440085 1.502501 1.527345 0.016761 -0.005457 2552680.000000 1 0 0
-8.380023 -11.516297 -10.555694 17.727734 0.941743 2.208602 0.024255 -0.000951 1890770.000000 1 0 0
-3.683623 -14.131797 -0.452294 14.611000 1.315808 1.601757 0.017454 -0.004915 3558140.000000 1 0 0
-1.517923 -14.933797 -7.330894 16.705220 1.469501 2.025102 0.010766 -0.001825 935576.000000 1 0 0
-14.265923 -7.959897 -1.939394 16.451071 0.508938 1.688960 0.019122 0.001832 2811340.000000 1 0 0
-10.653423 -7.443197 -11.727294 17.505029 0.609831 2.304922 0.035319 -0.007761 -587192.000000 1 0 0
-9.499423 -14.782997 6.809406 18.845265 0.999647 1.201100 0.031960 -0.013736 238213.000000 1 0 0
-2.235923 -14.285597 -12.325994 19.000204 1.415540 2.276710 0.031437 -0.004072 -500798.000000 1 0 0
2.434977 -17.776297 -4.794194 18.571756 -1.434665 1.831897 0.039405 -0.012479 1054110.000000 1 0 0
-6.446023 -9.730797 -9.258094 14.898051 0.985729 2.241363 0.014515 -0.004078 408639.000000 1 0 0
-11.010723 -15.424597 0.488806 18.957667 0.950841 1.545009 0.036213 -0.016167 -395106.000000 1 0 0
-12.694923 -11.049397 3.992706 17.297165 0.716207 1.337866 0.029113 -0.009348 892302.000000 1 0 0
-17.075323 -9.013697 -1.736094 19.386268 0.485701 1.660469 0.021546 -0.001565 -663020.000000 1 0 0
-1.361223 -19.280297 -4.031794 19.744319 1.500312 1.776443 0.043977 -0.016314 248014.000000 1 0 0
3.368277 -14.175997 -8.693394 16.967006 -1.337518 2.108739 0.018270 -0.008509 -433490.000000 1 0 0
-4.235523 -7.991597 -13.161194 15.969418 1.083440 2.539496 0.006987 0.001906 1620000.000000 1 0 0
5.700177 -16.383197 1.281306 17.393760 -1.235968 1.497065 0.025738 -0.004600 3157390.000000 1 0 0
-2.733923 -13.876097 -3.289794 14.520439 1.376264 1.799344 0.012659 -0.003541 -1005890.000000 1 0 0
-0.339623 -13.983797 3.601506 14.444125 1.546514 1.318797 0.013438 -0.003466 -4862370.000000 1 0 0
1.361677 -16.087597 6.940206 17.573599 -1.486356 1.164813 0.024489 -0.014539 2169910.000000 1 0 0
-5.499023 -10.374297 -14.604094 18.738859 1.083389 2.464421 0.014702 -0.001126 205980.000000 1 0 0
-0.250423 -17.305897 -5.893294 18.283536 1.556327 1.898984 0.028935 -0.009727 1366470.000000 1 0 0
-6.473523 -13.389497 -1.257194 14.925336 1.120454 1.655128 0.017487 -0.004794 2467310.000000 1 0 0
-1.606623 -17.652997 -0.193194 17.727009 1.480035 1.581695 0.028565 -0.014552 3841580.000000 1 0 0
-9.474123 -9.854797 -4.964494 14.543803 0.805090 1.919147 0.019224 -0.001692 384825.000000 1 0 0
-0.662023 -16.697797 4.806806 17.388504 1.531170 1.290713 0.031377 -0.012882 811843.000000 1 0 0
-6.759023 -9.944897 -6.350294 13.598220 0.973861 2.056685 0.011343 -0.004611 2237800.000000 1 0 0
-5.912723 -14.626297 -8.592194 17.964260 1.186629 2.069507 0.021660 -0.011364 -983570.000000 1 0 0
-5.580723 -12.307097 -10.348294 17.020467 1.145072 2.224324 0.021725 -0.003103 2263710.000000 1 0 0
-10.458623 -12.391197 -8.722594 18.412175 0.869775 2.064330 0.047733 -0.016081 -4598.240000 1 0 0
4.109577 -17.194597 6.758706 18.926777 -1.336193 1.205638 0.041974 -0.009035 539902.000000 1 0 0
-6.549223 -14.369597 -4.163994 16.331457 1.143155 1.828611 0.020993 -0.012875 -481159.000000 1 0 0
-2.785323 -12.243297 -7.173994 14.461069 1.347106 2.089886 0.001596 -0.003158 2277280.000000 1 0 0
-7.141723 -12.937497 4.334106 15.400243 1.066406 1.285511 0.019583 -0.004338 1505500.000000 1 0 0
2.714477 -16.299797 2.363306 16.692423 -1.405776 1.428739 0.021979 -0.006760 3251700.000000 1 0 0
-6.233023 -12.097197 7.159206 15.376832 1.095027 1.086502 0.018251 -0.007540 1387070.000000 1 0 0
-11.180323 -12.983097 -1.006694 17.163154 0.859868 1.629484 0.037282 -0.002783 703945.000000 1 0 0
-14.286423 -8.703097 4.552206 17.336907 0.547147 1.305108 0.012205 -0.003475 -134426.000000 1 0 0
-7.961323 -15.689097 4.517806 18.164277 1.101212 1.319439 0.034343 -0.005623 961313.000000 1 0 0
-16.527023 -9.242097 1.125206 18.969051 0.509888 1.511444 0.006916 0.005698 -604799.000000 1 0 0
-6.548923 -17.060397 2.392206 18.430089 1.204275 1.440630 0.044737 -0.017775 617218.000000 1 0 0
-11.568023 -15.022797 -4.606394 19.512110 0.914598 1.809125 0.068341 -0.014360 924314.000000 1 0 0
-10.067723 -10.106597 -12.562994 19.008713 0.787325 2.292823 0.035234 -0.000382 -462504.000000 1 0 0
-4.243623 -16.072297 -4.582194 17.243073 1.312654 1.839769 0.016127 -0.013898 -519147.000000 1 0 0
-11.887823 -8.326997 -0.032994 14.514141 0.611038 1.573070 -0.000012 0.002654 637860.000000 1 0 0
-9.704523 -11.269197 3.504606 15.279228 0.859862 1.339365 0.016224 -0.000438 1680930.000000 1 0 0
-14.135623 -13.178897 -0.471694 19.331881 0.750386 1.595199 0.022725 0.003562 -716895.000000 1 0 0
5.709177 -14.758697 -7.077794 17.335196 -1.201691 1.991377 0.022746 -0.020418 346136.000000 1 0 0
-7.495623 -10.592097 -1.282394 13.039226 0.954947 1.669305 0.012079 0.002266 709441.000000 1 0 0
-11.736523 -8.305697 -6.126994 15.629159 0.615861 1.973626 0.028558 -0.003835 1070890.000000 1 0 0
-14.352223 -6.741897 -9.356294 18.411402 0.439153 2.103866 0.045955 -0.015748 1095520.000000 1 0 0
-3.825123 -16.488797 1.397906 16.984290 1.342845 1.488397 0.034754 -0.017753 2235110.000000 1 0 0
-8.062823 -15.444897 0.211306 17.424081 1.089674 1.558669 0.046472 -0.018892 2028090.000000 1 0 0
1.241577 -18.520997 3.577006 18.904068 -1.503860 1.380430 0.032837 -0.015728 1291970.000000 1 0 0
-14.174323 -8.823497 -4.660294 17.334470 0.556799 1.842991 0.034134 -0.004026 790231.000000 1 0 0
-3.308123 -14.629397 11.012406 18.607418 1.348408 0.937471 0.022984 -0.019191 1871200.000000 1 0 0
-10.840423 -12.233797 -3.919194 16.808945 0.845712 1.806124 0.046252 -0.008775 1596220.000000 1 0 0
-9.995123 -10.763997 0.492306 14.697226 0.822419 1.537294 0.012258 0.003343 1930300.000000 1 0 0
0.089477 -13.081297 -11.124694 17.172279 -1.563956 2.275527 0.010468 -0.005647 914031.000000 1 0 0
-5.705923 -12.656597 -6.323694 15.255691 1.147256 1.998205 0.011242 -0.008749 859514.000000 1 0 0
1.799077 -15.896997 9.940106 18.834991 -1.458105 1.014851 0.026058 -0.011755 -578072.000000 1 0 0
-8.873723 -15.913897 -5.097194 18.920266 1.062130 1.843570 0.056305 -0.022178 -864269.000000 1 0 0
-3.051623 -15.495497 5.853806 16.843095 1.376349 1.215840 0.017013 -0.010121 -2375190.000000 1 0 0
-17.415223 -5.469497 -6.484194 19.371374 0.304309 1.912116 0.029242 -0.009680 197904.000000 1 0 0
18.800277 5.667503 -2.977494 19.860425 0.292794 1.721285 0.036766 -0.001199 -592339.000000 1 0 0
12.965877 -12.404197 -5.892894 18.886616 -0.763262 1.888109 0.037761 -0.006270 -632695.000000 1 0 0
11.176977 -13.411697 -1.688594 17.539948 -0.876033 1.667217 0.027512 -0.003530 2940250.000000 1 0 0
18.769577 -2.843097 4.690706 19.554615 -0.150331 1.328557 0.079253 -0.023216 -16811.000000 1 0 0
9.159077 -16.739497 4.827606 19.682612 -1.070141 1.322995 0.056409 -0.016494 -1045840.000000 1 0 0
18.185877 -0.964297 6.729806 19.415105 -0.052975 1.216823 0.116619 -0.022319 -1449730.000000 1 0 0
18.018077 -4.182297 -4.879294 19.129826 -0.228078 1.828708 0.082946 -0.020478 634450.000000 1 0 0
5.623777 -11.698597 14.691206 19.603968 -1.122689 0.723642 0.033260 -0.009614 392352.000000 1 0 0
16.042777 -8.749597 -0.809994 18.291589 -0.499298 1.615093 0.033355 -0.010929 400293.000000 1 0 0
14.008777 -12.503397 -1.310594 18.822817 -0.728678 1.640481 0.040837 0.002438 -241543.000000 1 0 0
11.314977 -2.022697 13.890306 18.029437 -0.176894 0.691291 0.046923 -0.012569 -23167.100000 1 0 0
17.020077 -6.015597 -1.329094 18.100744 -0.339737 1.644290 0.042567 -0.009942 -747379.000000 1 0 0
17.861877 3.760003 -0.978794 18.279560 0.207475 1.624368 0.034019 -0.001119 1661490.000000 1 0 0
9.698377 -10.941897 9.565006 17.472062 -0.845573 0.991487 0.030410 -0.010947 -154500.000000 1 0 0
9.089977 -10.927897 4.292306 14.848249 -0.876955 1.277533 0.009268 -0.007994 -1407430.000000 1 0 0
14.055377 -10.004197 6.889706 18.577019 -0.618582 1.190848 0.049578 -0.015979 -1179880.000000 1 0 0
16.323177 -0.511597 -4.682594 16.989248 -0.031331 1.850032 0.028822 -0.003694 -1066110.000000 1 0 0
15.761277 -0.362797 -1.704294 15.857305 -0.023014 1.678481 0.015154 -0.003784 50970.800000 1 0 0
12.909277 -5.124097 -0.286894 13.892016 -0.377858 1.591450 0.014942 -0.006112 554209.000000 1 0 0
14.337377 -7.464497 1.130006 16.203580 -0.480017 1.501002 0.022504 -0.006051 2376650.000000 1 0 0
15.630577 2.547203 3.621606 16.245591 0.161543 1.345979 0.048421 -0.008896 1799040.000000 1 0 0
15.990277 -6.943997 5.112106 18.167049 -0.409691 1.285549 0.054085 -0.020900 -1394350.000000 1 0 0
13.765477 -11.903697 3.338206 18.502161 -0.712995 1.389380 0.021335 -0.006529 1593290.000000 1 0 0
14.039377 -0.915097 9.166306 16.791744 -0.065089 0.993355 0.062382 -0.016399 1433430.000000 1 0 0
14.261877 -2.753997 -1.423494 14.594930 -0.190754 1.668485 0.010639 -0.005119 147428.000000 1 0 0
14.995877 1.873603 9.140006 17.661439 0.124297 1.026856 0.086067 -0.014966 -1776970.000000 1 0 0
14.422177 -9.990497 -2.986494 17.796864 -0.605822 1.739404 0.035955 -0.006101 109714.000000 1 0 0
7.391377 -12.537397 6.114606 15.786297 -1.038099 1.173056 0.004344 -0.005071 175397.000000 1 0 0
12.487377 -4.541297 7.047606 15.040835 -0.348802 1.083131 0.026879 -0.011688 2533610.000000 1 0 0
15.075377 -8.901997 -5.717194 18.417352 -0.533404 1.886436 0.052608 -0.010364 -647702.000000 1 0 0
14.334777 -4.476597 4.703606 15.736889 -0.302693 1.267267 0.024953 -0.013144 887391.000000 1 0 0
17.182777 -4.122897 1.071006 17.702914 -0.235492 1.510261 0.026658 -0.013630 -1473600.000000 1 0 0
10.419677 -14.349097 1.067706 17.765310 -0.942731 1.510660 0.031804 0.000064 978217.000000 1 0 0
16.535377 -2.442097 8.715706 18.850625 -0.146629 1.090146 0.095294 -0.019265 1502520.000000 1 0 0
16.096777 -2.536597 3.297406 16.625686 -0.156299 1.371141 0.027566 -0.008896 1917040.000000 1 0 0
7.936177 -15.165197 2.683706 17.325368 -1.088671 1.415270 0.013417 -0.000766 2259860.000000 1 0 0
16.721477 -6.995197 7.996006 19.811024 -0.396213 1.155333 0.077072 -0.017904 -1303260.000000 1 0 0
10.325677 -8.483497 5.133206 14.315695 -0.687769 1.204059 0.012466 -0.008380 859033.000000 1 0 0
10.992577 -11.723297 2.243606 16.226713 -0.817555 1.432086 0.017390 -0.002863 187108.000000 1 0 0
12.432377 -7.261897 11.978806 18.729414 -0.528655 0.876855 0.066905 -0.025182 760340.000000 1 0 0
15.213177 -9.647197 4.396206 18.542810 -0.565141 1.331433 0.030785 -0.014539 788936.000000 1 0 0
7.374277 -10.161797 7.789206 14.775446 -0.943038 1.015527 0.009612 -0.003742 -1682930.000000 1 0 0
15.262877 -3.263297 -4.232394 16.171509 -0.210635 1.835599 0.032176 -0.005322 1505670.000000 1 0 0
11.767777 -8.956197 9.741106 17.708280 -0.650553 0.988327 0.054044 -0.018347 -2471960.000000 1 0 0
17.042277 -6.624797 2.473006 18.451095 -0.370751 1.436361 0.047463 -0.017681 1429420.000000 1 0 0
17.652777 4.111203 2.031006 18.238627 0.228814 1.459208 0.047247 -0.001960 888278.000000 1 0 0
14.850877 -4.806297 8.817706 17.927660 -0.312999 1.056584 0.066064 -0.019459 703266.000000 1 0 0
12.866077 -12.541897 6.204706 19.008774 -0.772640 1.238290 0.032899 -0.004945 278511.000000 1 0 0
18.264077 0.817203 -0.926694 18.305822 0.044714 1.621441 0.036810 -0.004656 -497456.000000 1 0 0
11.745577 -2.085897 10.961306 16.200610 -0.175758 0.827663 0.023212 -0.006797 1369740.000000 1 0 0
5.737277 -12.443397 10.476206 17.248343 -1.138775 0.918045 0.006177 -0.003135 -1340640.000000 1 0 0
10.825577 -5.017897 11.098906 16.295954 -0.434042 0.821555 0.034628 -0.012737 1426460.000000 1 0 0
17.949077 1.260303 4.997406 18.674362 0.070100 1.299887 0.088194 -0.013889 -386612.000000 1 0 0
12.311777 -7.601097 7.261406 16.189025 -0.553104 1.105667 0.039193 -0.014864 582143.000000 1 0 0
10.844877 -7.932897 14.270006 19.600390 -0.631548 0.755328 0.082809 -0.023892 477281.000000 1 0 0
14.265877 -0.138797 3.731606 14.746505 -0.009729 1.314965 0.019173 -0.005211 2360740.000000 1 0 0
11.783677 -7.667897 2.643306 14.305200 -0.576883 1.384949 0.018858 -0.007559 -55311.800000 1 0 0
9.296677 6.078703 3.527606 11.654306 0.579082 1.263286 0.005147 -0.000791 2223680.000000 1 0 0
-4.062723 14.754503 -9.978094 18.269194 -1.302100 2.148582 0.001918 0.004358 554904.000000 1 0 0
8.830077 -6.404797 9.335806 14.357888 -0.627530 0.862921 0.015860 -0.007763 647412.000000 1 0 0
5.842877 -10.431697 -8.565694 14.708182 -1.060226 2.192445 0.005632 -0.002957 1544350.000000 1 0 0
5.334377 1.100503 0.593006 5.478900 0.203450 1.462349 0.004626 -0.001075 3187150.000000 1 0 0
-0.675623 9.898303 10.927406 14.759440 -1.502646 0.737180 0.007174 0.000448 -310923.000000 1 0 0
-6.346023 -5.227297 1.057506 8.289448 0.689033 1.442875 0.005451 -0.000789 3185690.000000 1 0 0
-0.979223 3.946603 -10.856394 11.592923 -1.327590 2.783216 0.014289 -0.003879 1488430.000000 1 0 0
10.978777 5.824403 1.258206 12.491610 0.487760 1.469901 0.007879 0.000245 1033720.000000 1 0 0
-10.066823 -1.877497 -13.599694 17.024030 0.184385 2.496182 0.016378 -0.010350 840755.000000 1 0 0
7.336777 11.035203 -6.067594 14.574626 0.984051 2.000182 0.002650 -0.002435 277896.000000 1 0 0
-12.422623 -2.971497 -9.609994 15.984472 0.234789 2.215808 0.012519 -0.006398 -638551.000000 1 0 0
-3.935223 -8.696397 2.462706 9.857901 1.145856 1.318301 0.012486 -0.000658 -515532.000000 1 0 0
8.104177 -6.601197 -5.921894 12.013423 -0.683546 2.086262 0.005604 -0.004099 2100210.000000 1 0 0
14.368277 3.205203 -4.221794 15.314838 0.219481 1.850080 0.017313 -0.002416 748550.000000 1 0 0
-2.614723 -4.964197 9.866706 11.350414 1.086005 0.517049 0.005693 -0.003361 2084300.000000 1 0 0
3.479077 -1.826297 -4.578594 6.033479 -0.483398 2.432365 0.002818 -0.000923 -1735580.000000 1 0 0
-3.998023 8.415003 -3.468394 9.941138 -1.127261 1.927186 0.004434 0.000146 1313710.000000 1 0 0
5.716777 0.101403 11.803506 13.115432 0.017736 0.451094 0.011204 -0.007074 1392650.000000 1 0 0
7.162377 4.791903 12.401006 15.101223 0.589643 0.607299 0.008251 -0.003654 33746.600000 1 0 0
1.239777 -14.422897 12.354206 19.031116 -1.485048 0.864319 0.000147 -0.009092 33660.800000 1 0 0
3.070277 8.785103 -9.119494 13.029575 1.234579 2.346064 0.002507 -0.002022 370180.000000 1 0 0
-4.413323 -8.886197 -4.661794 10.962401 1.109833 2.010038 0.011469 -0.003444 2207480.000000 1 0 0
5.705677 -6.504497 -4.088294 9.569607 -0.850727 2.012208 0.005553 -0.003002 2485810.000000 1 0 0
-3.208123 3.446303 8.642506 9.841847 -0.821176 0.498839 0.002611 0.000607 3003560.000000 1 0 0
-3.773323 3.090903 -11.172594 12.190919 -0.686307 2.729959 0.008317 -0.005591 591903.000000 1 0 0
3.096577 -6.129197 8.606106 11.010036 -1.102983 0.673473 0.005664 -0.002802 560098.000000 1 0 0
-5.265123 -8.704097 10.411806 14.556391 1.026780 0.773780 0.012610 -0.004619 1352390.000000 1 0 0
-13.355423 -2.556997 6.590906 15.111108 0.189168 1.119466 0.012444 -0.005613 -773804.000000 1 0 0
3.998177 -5.847897 -8.366894 10.963040 -0.971097 2.439034 0.001146 -0.001981 3256110.000000 1 0 0
2.821077 -0.566997 12.423606 12.752487 -0.198343 0.227602 0.004794 -0.005196 879683.000000 1 0 0
1.484977 -1.416997 -7.523494 7.798462 -0.761977 2.875253 0.006409 -0.003810 -916498.000000 1 0 0
3.566377 -3.525297 3.396806 6.056819 -0.779605 0.975416 0.006591 -0.003097 1885210.000000 1 0 0
1.592377 0.396003 -11.866094 11.979010 0.243742 3.004181 0.013079 -0.004796 -218572.000000 1 0 0
4.159877 3.523203 -10.617094 11.934833 0.702720 2.667241 -0.000371 0.002611 -404616.000000 1 0 0
2.854777 3.276103 3.377606 5.503710 0.854012 0.910063 -0.001995 0.001313 532311.000000 1 0 0
-5.395023 0.815703 2.557106 6.025814 -0.150059 1.132543 0.002308 -0.001496 857905.000000 1 0 0
-9.436223 -9.350797 5.716106 14.462142 0.780851 1.164461 0.016738 -0.000861 -1809160.000000 1 0 0
-3.076823 3.788203 -0.626594 4.920360 -0.888654 1.698490 0.004785 -0.004333 951357.000000 1 0 0
-15.917623 -6.454797 4.846206 17.847151 0.385250 1.295804 0.029974 -0.010723 565060.000000 1 0 0
1.045477 6.818803 -8.106594 10.644528 1.418658 2.436535 0.002860 0.000026 491407.000000 1 0 0
-1.598023 6.472203 -9.465794 11.577753 -1.328732 2.528000 0.008314 -0.000879 979911.000000 1 0 0
1.960177 -0.383897 5.249006 5.616203 -0.193400 0.363612 0.004073 -0.000876 1688990.000000 1 0 0
-3.454423 -0.650197 -6.294394 7.209382 0.186045 2.632288 0.013126 -0.008915 -154019.000000 1 0 0
1.831377 -1.155997 -2.435294 3.258977 -0.563057 2.414722 0.007352 -0.001509 295951.000000 1 0 0
2.515577 -8.513297 -7.656994 11.723221 -1.283484 2.282530 -0.000780 0.000037 2527000.000000 1 0 0
-2.554723 13.985203 -5.420994 15.215114 -1.390115 1.935091 0.006259 0.006424 1846670.000000 1 0 0
6.982177 -5.013597 -8.203894 11.882375 -0.622742 2.332873 0.004552 -0.003442 3131780.000000 1 0 0
-14.168123 -5.097897 -2.187594 15.215447 0.345391 1.715071 0.000718 0.000132 -845239.000000 1 0 0
-2.729123 6.800603 -6.789594 9.989740 -1.189165 2.318091 0.006800 0.001737 -193544.000000 1 0 0
-5.679723 -1.192997 -8.095394 9.960818 0.207035 2.519608 0.012643 -0.010394 -812871.000000 1 0 0
-5.827423 -10.724397 3.399506 12.669971 1.073050 1.299156 0.010340 -0.000370 -2476010.000000 1 0 0
8.113977 -7.493497 6.678806 12.907190 -0.745664 1.026930 0.009489 -0.008618 759386.000000 1 0 0
8.879377 -5.938197 13.190106 16.973049 -0.589452 0.680719 0.045138 -0.014851 1438020.000000 1 0 0
-4.754323 9.399203 -0.714994 10.557454 -1.102502 1.638572 0.003994 -0.000135 1544660.000000 1 0 0
2.758477 6.618503 12.120806 14.082887 1.175906 0.534200 0.005227 -0.003410 839344.000000 1 0 0
5.961777 -2.830197 11.091206 12.906109 -0.443223 0.536747 0.015329 -0.005908 -803995.000000 1 0 0
-9.683423 -6.634797 -1.101794 11.789960 0.600704 1.664385 0.005738 -0.000803 -418181.000000 1 0 0
1.041777 -13.302697 6.135306 14.686355 -1.492643 1.139823 0.011137 -0.003333 1102290.000000 1 0 0
-0.575123 -3.232297 8.708606 9.306896 1.394709 0.360515 0.002901 -0.003378 395606.000000 1 0 0
4.176977 0.762703 3.444406 5.467430 0.180607 0.889261 0.001042 0.000289 1898130.000000 1 0 0
-10.366923 5.645603 8.236406 14.393898 -0.498671 0.961592 -0.000360 -0.007588 517369.000000 1 0 0
9.432977 8.048103 0.036006 12.399771 0.706342 1.567893 0.003785 0.001980 977165.000000 1 0 0
4.336077 2.824503 8.289206 9.771915 0.577356 0.558090 -0.001946 -0.002309 2848530.000000 1 0 0
1.443077 2.682903 -9.870294 10.329722 1.077307 2.842227 0.011666 -0.004148 673277.000000 1 0 0
-1.429223 -10.142697 3.017306 10.678066 1.430807 1.284324 0.014665 -0.004055 -2635420.000000 1 0 0
-9.995923 9.531003 9.069106 16.522929 -0.761594 0.989773 0.010961 -0.006688 496516.000000 1 0 0
9.875677 -1.887197 -7.658794 12.639132 -0.188819 2.221767 0.006557 -0.000414 1705770.000000 1 0 0
-5.302323 -1.901297 6.739106 8.783228 0.344296 0.696223 0.001133 -0.002158 1332150.000000 1 0 0
3.175377 -7.803097 -4.922494 9.757166 -1.184323 2.099600 -0.001353 -0.002390 1509320.000000 1 0 0
-5.112823 4.850003 -13.159294 14.927509 -0.759024 2.649925 0.000530 -0.004123 1101950.000000 1 0 0
-5.756223 9.552503 5.482006 12.427261 -1.028476 1.113942 0.000944 -0.003911 2311140.000000 1 0 0
-0.420823 -1.722097 -9.400394 9.566092 1.331127 2.955197 0.010039 -0.006915 689846.000000 1 0 0
-16.827423 0.117503 6.379106 17.996359 -0.006983 1.208453 0.037480 -0.017280 -247184.000000 1 0 0
-5.996523 -2.866497 4.090306 7.804209 0.445915 1.019120 -0.002917 0.001687 2273760.000000 1 0 0
0.981677 -5.657697 -5.131594 7.701070 -1.398995 2.300097 0.004591 -0.003499 1583880.000000 1 0 0
-7.082923 1.359103 -8.471294 11.125546 -0.189580 2.436308 0.002523 -0.004370 -378095.000000 1 0 0
8.045377 2.024003 4.762206 9.565735 0.246459 1.049690 0.003028 -0.001908 1346220.000000 1 0 0
0.523977 -8.080097 -0.543194 8.115268 -1.506039 1.637781 0.006812 -0.001718 583890.000000 1 0 0
5.445477 5.535303 -3.436994 8.491510 0.793578 1.987509 -0.002008 0.003968 -670337.000000 1 0 0
-0.813123 -0.405697 -1.185294 1.493546 0.462797 2.487517 0.007226 -0.003664 288690.000000 1 0 0
9.111977 6.422603 -6.297994 12.804011 0.613976 2.085040 -0.000600 -0.000176 -832228.000000 1 0 0
-15.017723 -7.156797 2.404506 16.808729 0.444718 1.427253 -0.001488 0.000096 -730899.000000 1 0 0
-6.463923 6.818503 8.875706 12.924877 -0.812087 0.813836 -0.000395 0.000448 310904.000000 1 0 0
-9.489023 -3.277597 -9.600294 13.890639 0.332579 2.333853 0.006255 -0.004661 1317680.000000 1 0 0
14.960777 3.556003 -1.261494 15.429238 0.233358 1.652648 0.012522 0.000074 855780.000000 1 0 0
12.046577 1.763003 -5.722794 13.452828 0.145317 2.010197 0.005921 -0.000131 -761773.000000 1 0 0
1.597777 -9.429197 12.760506 15.946571 -1.402941 0.643162 0.007402 -0.005821 516742.000000 1 0 0
-3.670923 6.330903 7.872106 10.748305 -1.045331 0.748950 0.002482 0.001139 711673.000000 1 0 0
-4.175323 13.031103 -12.374694 18.449283 -1.260720 2.306004 0.003679 -0.003598 621900.000000 1 0 0
-10.278523 7.858003 6.442306 14.453358 -0.652721 1.108806 -0.005353 -0.004255 138360.000000 1 0 0
8.196277 -9.177597 -7.221594 14.267399 -0.841821 2.101523 0.010089 -0.003696 -304089.000000 1 0 0
5.812277 -3.759197 -0.327794 6.929760 -0.574100 1.618116 0.009553 -0.004319 -2083210.000000 1 0 0
-1.709023 -4.421297 4.113606 6.276175 1.201944 0.856042 0.005395 -0.000395 -6223.600000 1 0 0
9.918277 -1.984897 -2.563494 10.434728 -0.197516 1.819007 0.008160 -0.001731 -1717760.000000 1 0 0
13.594577 7.075803 1.399206 15.389519 0.479903 1.479751 0.018846 0.001857 1598770.000000 1 0 0
5.366277 -3.611597 -3.270994 7.248446 -0.592386 2.038982 0.006390 -0.003848 -2512430.000000 1 0 0
-12.284323 -5.996597 1.912006 13.802881 0.454123 1.431827 -0.003935 0.003494 1948920.000000 1 0 0
3.763777 -5.668997 -0.207794 6.807843 -0.984696 1.601324 0.008666 -0.004232 -40917.300000 1 0 0
-5.147123 3.629403 -8.693294 10.734934 -0.614162 2.514630 0.007595 -0.005562 1668220.000000 1 0 0
-1.741523 -9.299997 7.329506 11.968479 1.385680 0.911702 0.010548 -0.002762 2769920.000000 1 0 0
-7.512323 -7.520397 2.578506 10.938009 0.785935 1.332818 0.007634 0.000103 -3955620.000000 1 0 0
-5.775623 13.050103 -8.482094 16.601474 -1.154136 2.107056 -0.000457 0.003320 1651400.000000 1 0 0
9.324977 -13.746897 -4.166794 17.125844 -0.974760 1.816568 0.025250 -0.003244 671402.000000 1 0 0
-6.499223 -5.176697 -6.712394 10.681494 0.672609 2.250308 0.012121 -0.005802 1641780.000000 1 0 0
3.400977 0.464303 -6.285094 7.161329 0.135682 2.641720 0.004599 -0.002572 1058330.000000 1 0 0
-3.695723 5.767503 4.982506 8.470409 -1.000927 0.941934 0.003383 0.000437 451743.000000 1 0 0
-2.663623 -10.844597 -2.922594 11.543038 1.329947 1.826774 0.014045 -0.003894 1761210.000000 1 0 0
-12.547923 -0.500697 1.766206 12.681504 0.039882 1.431068 -0.005945 -0.001453 1021800.000000 1 0 0
8.480477 -11.845497 -6.054094 15.776132 -0.949463 1.964650 0.019476 -0.010732 -398535.000000 1 0 0
6.097877 3.985303 0.998406 7.352793 0.578871 1.434590 0.001907 0.000771 -318342.000000 1 0 0
3.404177 -4.816097 -10.959994 12.446071 -0.955499 2.647921 0.003673 -0.001243 117208.000000 1 0 0
-7.754223 4.254303 8.617706 12.348762 -0.501801 0.798391 -0.003967 0.000151 2001240.000000 1 0 0
8.162677 8.758703 4.160506 12.674936 0.820607 1.236350 0.006856 0.003124 2920340.000000 1 0 0
0.238677 10.557903 -6.337894 12.316460 1.548194 2.111323 0.002168 0.004911 1080150.000000 1 0 0
5.373477 8.046303 3.308506 10.225628 0.981996 1.241317 0.003371 0.000457 3055930.000000 1 0 0
8.027477 6.683103 -3.702394 11.082057 0.694263 1.911435 -0.000704 0.001013 405799.000000 1 0 0
10.522877 2.579403 -8.199394 13.587286 0.240384 2.218630 0.002016 -0.000790 402682.000000 1 0 0
3.407377 -12.485597 -0.298494 12.945634 -1.304379 1.593856 0.009602 -0.006303 -1804420.000000 1 0 0
0.631777 2.127703 5.247906 5.697963 1.282159 0.400120 0.003258 0.000032 75021.600000 1 0 0
-4.944523 13.452503 1.592306 14.420596 -1.218570 1.460152 0.003130 0.001422 1223970.000000 1 0 0
8.221577 4.120403 -7.988494 12.181466 0.464583 2.286026 -0.000589 0.001962 1109290.000000 1 0 0
-13.885523 -0.606597 -3.624794 14.363664 0.043658 1.825913 -0.002898 -0.001959 1073070.000000 1 0 0
-8.587923 -0.058897 -0.513694 8.603474 0.006858 1.630540 -0.004591 -0.000395 199339.000000 1 0 0
1.789577 -3.817897 -1.174494 4.377026 -1.132473 1.842457 0.004713 -0.001476 -1934340.000000 1 0 0
8.034877 -5.576497 -0.191794 9.782298 -0.606712 1.590404 0.010722 -0.005159 1906480.000000 1 0 0
-2.346423 -1.325297 7.307406 7.788471 0.514147 0.353307 0.003143 -0.001232 331757.000000 1 0 0
-5.845723 8.725103 -11.713494 15.732319 -0.980497 2.410656 -0.001068 -0.003117 -1419210.000000 1 0 0
-6.162823 9.110303 -8.826794 14.102848 -0.976039 2.247065 0.000235 0.003005 966132.000000 1 0 0
-1.663323 13.995603 -8.342494 16.378058 -1.452505 2.105249 0.010963 0.004542 -1001870.000000 1 0 0
-1.506023 7.157903 9.746806 12.186218 -1.363421 0.643798 0.000920 -0.001518 -1073200.000000 1 0 0
9.985077 2.314803 -3.981894 10.996162 0.227802 1.941334 0.004582 -0.001390 -1896350.000000 1 0 0
-2.919623 -7.503297 -6.993694 10.664681 1.199711 2.286013 0.008968 -0.003940 377697.000000 1 0 0
-5.509123 -5.041797 -1.644994 7.646970 0.741135 1.787608 0.009626 -0.002405 694444.000000 1 0 0
5.701877 7.442503 -8.819194 12.871692 0.917056 2.325622 -0.000720 0.001043 -174101.000000 1 0 0
-9.530223 5.167203 -7.510094 13.188125 -0.496828 2.176644 -0.004105 -0.001311 151470.000000 1 0 0
-0.418323 6.143603 -5.339094 8.150140 -1.502811 2.285101 0.007494 0.000529 -2323510.000000 1 0 0
-8.331723 2.691703 -6.345294 10.813216 -0.312482 2.197909 -0.003285 -0.001096 2252490.000000 1 0 0
3.612177 1.341103 -1.986494 4.335037 0.355499 2.046812 0.000670 -0.001415 2078850.000000 1 0 0
-6.774623 12.495803 -3.369594 14.608038 -1.073999 1.803560 0.004848 0.009200 1791760.000000 1 0 0
-6.652923 3.114203 -2.352994 7.713380 -0.437800 1.880791 0.003560 -0.001987 -1171590.000000 1 0 0
12.111077 4.095603 -0.808994 12.810411 0.326097 1.633990 0.007587 -0.001530 508256.000000 1 0 0
2.179777 12.379203 -5.484894 13.714233 1.396499 1.982250 0.002722 0.002732 -543932.000000 1 0 0
-9.266523 -1.456197 -4.296094 10.317237 0.155871 2.000278 -0.003703 -0.000800 -1551660.000000 1 0 0
-1.176423 5.778103 3.497306 6.855771 -1.369942 1.035465 0.003575 -0.000287 681313.000000 1 0 0
11.498177 2.678903 12.036606 16.860145 0.228902 0.775732 0.043606 -0.006937 723473.000000 1 0 0
-7.106023 -2.395097 -5.745094 9.446595 0.325093 2.224544 0.008748 -0.005996 -826962.000000 1 0 0
7.489677 -7.376297 10.872706 15.123516 -0.777771 0.768539 0.019585 -0.007010 -1030100.000000 1 0 0
-5.498523 -2.052997 -10.868794 12.352297 0.357343 2.646449 0.014225 -0.004001 -563014.000000 1 0 0
0.711177 -6.150797 4.428106 7.612240 -1.455684 0.949969 0.002005 -0.001919 1990950.000000 1 0 0
-4.904223 -9.498397 7.400406 13.001421 1.094177 0.965264 0.011299 -0.003601 2903800.000000 1 0 0
-8.762923 9.283703 1.517606 12.856091 -0.814248 1.452475 0.002344 -0.004243 498016.000000 1 0 0
-8.084723 7.079903 -9.113094 14.090290 -0.719234 2.274130 -0.001682 -0.001563 -204973.000000 1 0 0
-1.215623 -10.593297 -0.128594 10.663593 1.456542 1.582856 0.012044 -0.002593 393270.000000 1 0 0
-3.998423 10.359603 7.758206 13.546163 -1.202449 0.960972 0.003683 -0.000713 1549540.000000 1 0 0
-7.559523 12.014003 1.972906 14.330911 -1.009164 1.432690 0.002237 -0.007415 776136.000000 1 0 0
-8.216923 -8.322597 -2.942994 12.060043 0.791787 1.817314 0.014350 -0.004742 -440307.000000 1 0 0
5.405277 4.658003 -8.088294 10.785848 0.711277 2.418705 -0.000806 0.003620 259969.000000 1 0 0
-8.966723 -0.194097 -10.216994 13.595101 0.021643 2.421160 0.003649 -0.005379 -917314.000000 1 0 0
-15.124823 -2.277197 -1.535894 15.372210 0.149438 1.670877 -0.001750 -0.004796 -536613.000000 1 0 0
-7.265623 -5.814197 8.768106 12.785688 0.674883 0.815128 0.009953 -0.000638 1233850.000000 1 0 0
8.115877 3.467303 -0.881494 8.869425 0.403753 1.670346 0.004389 0.000615 2621590.000000 1 0 0
11.886177 7.279303 -5.759394 15.081117 0.549500 1.962642 0.009467 0.000116 871091.000000 1 0 0
3.618877 13.320203 -9.536094 16.776805 1.305516 2.175368 0.010567 -0.010632 668789.000000 1 0 0
-9.805323 5.391203 -0.470994 11.199610 -0.502708 1.612863 -0.001106 -0.000838 844730.000000 1 0 0
11.335477 -1.203397 -5.076594 12.478502 -0.105766 1.989774 0.009854 -0.003144 -1005560.000000 1 0 0
10.629777 1.824003 -1.167094 10.848100 0.169939 1.678590 0.010229 -0.002987 -953919.000000 1 0 0
14.611477 5.118103 4.836706 16.219864 0.336924 1.267994 0.043908 -0.008904 2434100.000000 1 0 0
0.773177 -0.855697 10.297906 10.362282 -0.836015 0.111526 0.005995 -0.003732 1534560.000000 1 0 0
-7.928923 1.409403 -12.563794 14.923242 -0.175917 2.571581 0.000652 -0.004784 92765.700000 1 0 0
3.219877 -11.431897 -7.748794 14.180962 -1.296251 2.148883 -0.001309 -0.003061 82497.000000 1 0 0
2.905277 5.094303 -6.753394 8.944322 1.052502 2.426524 0.000363 0.001929 -1554110.000000 1 0 0
6.536477 8.011803 0.627606 10.358978 0.886462 1.510174 0.003710 0.001403 985342.000000 1 0 0
-9.161323 -5.496997 6.734006 12.629079 0.540436 1.008401 0.005205 -0.000351 -2548660.000000 1 0 0
-0.208923 -6.805397 -11.845994 13.663259 1.540106 2.619939 -0.000073 0.002740 1613460.000000 1 0 0
6.582677 -13.263597 -4.637094 15.516355 -1.110116 1.874286 0.019999 -0.007044 2495270.000000 1 0 0
-3.296323 -0.385297 9.995006 10.531587 0.116359 0.320588 0.001702 -0.000864 713205.000000 1 0 0
8.563677 8.470203 7.074506 13.968878 0.779911 1.039736 -0.001103 0.001377 -594734.000000 1 0 0
-8.049923 5.725703 -2.647594 10.227155 -0.618253 1.832658 0.003809 -0.003212 251148.000000 1 0 0
-5.403123 5.750603 -6.431794 10.179939 -0.816542 2.254683 0.003905 0.000196 -303051.000000 1 0 0
3.427677 -13.540797 2.575906 14.203430 -1.322867 1.388429 0.015574 -0.007161 -2199310.000000 1 0 0
-11.322423 -7.089297 6.443706 14.831612 0.559411 1.121360 0.014880 -0.003913 -1314930.000000 1 0 0
-12.891923 -3.695197 -6.801594 15.037215 0.279145 2.040158 0.007243 -0.004361 -67567.200000 1 0 0
6.096477 0.423303 -7.265594 9.493950 0.069323 2.442283 -0.001379 0.003233 43226.600000 1 0 0
-1.449123 2.151003 -2.489594 3.595115 -0.977943 2.335736 0.007129 -0.004059 2368350.000000 1 0 0
7.561477 1.026603 -4.901194 9.069265 0.134942 2.141730 0.003183 0.001132 -533427.000000 1 0 0
3.602877 -4.478897 10.891206 12.315015 -0.893371 0.485623 0.007456 -0.001188 13752.300000 1 0 0
5.984377 -2.471197 2.109206 6.809430 -0.391613 1.255869 0.010027 -0.003801 -773708.000000 1 0 0
-6.288223 7.697703 1.095706 9.999848 -0.885838 1.461004 0.001043 -0.001933 1439130.000000 1 0 0
6.046577 -3.368597 8.062006 10.625652 -0.508284 0.709434 0.011788 -0.007354 769200.000000 1 0 0
6.858777 -2.219897 -7.804994 10.624910 -0.313017 2.395864 0.001042 0.000079 -51057.200000 1 0 0
12.201577 -8.032597 -5.784694 15.711900 -0.582205 1.947839 0.025499 -0.009027 206660.000000 1 0 0
5.569277 -9.578297 9.932906 14.880297 -1.044130 0.839922 0.003204 -0.001287 1129680.000000 1 0 0
-6.641623 7.461503 -4.472594 10.944829 -0.843467 1.991770 0.002584 0.000491 251682.000000 1 0 0
-1.307723 -7.518297 9.691906 12.335638 1.398581 0.666996 0.009225 -0.003427 363455.000000 1 0 0
10.195077 -9.188997 0.760006 13.746086 -0.733542 1.515479 0.009629 -0.005941 619508.000000 1 0 0
11.082777 6.153203 9.852106 16.054714 0.506830 0.910111 0.013305 -0.007350 1138490.000000 1 0 0
-15.244523 -4.132997 -5.017194 16.572549 0.264749 1.878364 0.014836 -0.007016 1167950.000000 1 0 0
-4.793523 -4.639097 7.850006 10.301537 0.769028 0.704365 0.004811 -0.002728 -564999.000000 1 0 0
2.896477 10.936403 -11.098994 15.848728 1.311893 2.346626 0.006929 -0.005374 -722852.000000 1 0 0
9.944177 -1.317997 1.569706 10.153214 -0.131772 1.415572 0.012151 -0.004794 -200841.000000 1 0 0
-1.663623 -2.668997 0.691006 3.220042 1.013410 1.354519 0.005564 -0.004698 -1160580.000000 1 0 0
1.572477 2.986303 0.895206 3.491717 1.086125 1.311521 -0.000465 -0.000660 -543325.000000 1 0 0
-9.007323 -2.455897 4.265206 10.264271 0.266185 1.142261 -0.002636 0.000586 4149170.000000 1 0 0
9.892877 4.918603 -2.666194 11.365310 0.461394 1.807594 0.002038 0.000642 1554700.000000 1 0 0
2.543077 8.453103 2.542506 9.186214 1.278564 1.290361 -0.000784 0.000816 1319510.000000 1 0 0
-8.152823 -0.110897 2.497006 8.527359 0.013601 1.273619 -0.003312 -0.000285 -211933.000000 1 0 0
6.930077 2.113703 13.710506 15.507149 0.296042 0.486144 0.012293 -0.006188 -2106040.000000 1 0 0
6.778577 4.349203 3.769806 8.892475 0.570455 1.133014 0.001474 0.000475 1214060.000000 1 0 0
-0.345523 3.295703 7.740406 8.419912 -1.466338 0.404504 0.002154 0.001131 652039.000000 1 0 0
2.709877 -10.197997 9.176906 13.984211 -1.311072 0.854980 0.000669 -0.005703 1240110.000000 1 0 0
1.317777 -4.608697 6.856006 8.365491 -1.292295 0.610157 0.002305 -0.002977 321453.000000 1 0 0
-0.142823 10.808403 -1.972794 10.987898 -1.557583 1.751318 0.007152 0.000120 3394260.000000 1 0 0
8.756677 5.520803 8.098506 13.143229 0.562522 0.906922 0.002555 -0.003379 -927527.000000 1 0 0
2.660677 11.491203 -2.861894 12.137438 1.343265 1.808828 0.004288 -0.001758 1911660.000000 1 0 0
1.491077 2.516903 -6.812394 7.413962 1.035965 2.735978 0.005370 -0.002679 894644.000000 1 0 0
-13.673323 -2.294797 3.577906 14.318773 0.166281 1.318245 0.000508 0.000536 1890410.000000 1 0 0
-0.900223 -10.679597 -5.331894 11.970517 1.486701 2.032438 0.003149 -0.001770 46458.600000 1 0 0
-5.765323 2.829003 0.449706 6.437736 -0.456174 1.500885 0.004906 -0.002126 1091280.000000 1 0 0
3.813777 7.291003 -5.044094 9.651244 1.088856 2.120737 -0.002572 0.002353 -2032890.000000 1 0 0
3.022277 9.800203 -6.522694 12.154164 1.271661 2.137274 0.001548 0.001180 2204720.000000 1 0 0
-12.201423 1.689303 -2.543694 12.577712 -0.137577 1.774439 -0.004447 0.000508 192175.000000 1 0 0
-2.465823 9.527203 -5.737394 11.391470 -1.317535 2.098623 0.000104 0.003978 909143.000000 1 0 0
-1.326923 3.365503 1.715206 4.003657 -1.195238 1.128064 0.000790 -0.001011 352362.000000 1 0 0
12.805777 3.816503 9.638806 16.476049 0.289648 0.945893 0.049212 -0.010548 626123.000000 1 0 0
-2.641023 -9.653497 11.435006 15.196195 1.303749 0.718960 0.010129 -0.009506 1671650.000000 1 0 0
-0.418223 -8.919997 -7.565094 11.703500 1.523945 2.273648 -0.002027 -0.000489 3308070.000000 1 0 0
2.355577 7.673303 -0.468894 8.040410 1.272945 1.629147 -0.000627 0.001496 1814670.000000 1 0 0
-11.803123 -1.370197 -5.613594 13.141674 0.115570 2.012146 -0.000007 0.001929 -825089.000000 1 0 0
-6.037323 -7.208697 -10.975594 14.452621 0.873601 2.433216 0.006173 0.000307 931807.000000 1 0 0
-4.729623 -2.316997 -1.458594 5.464915 0.455527 1.840973 0.005312 -0.003798 -1173680.000000 1 0 0
-10.530623 3.700703 4.527106 12.045078 -0.337942 1.185486 -0.002309 -0.002214 2932010.000000 1 0 0
6.764877 9.460003 -3.576694 12.167497 0.950006 1.869158 -0.000868 0.003211 -291294.000000 1 0 0
1.274277 -2.651797 -11.507594 11.877733 -1.122843 2.891290 0.008477 -0.005923 -1562810.000000 1 0 0
1.167077 8.803803 7.577506 11.674229 1.439000 0.864422 -0.003649 0.004894 -66673.400000 1 0 0
10.369677 0.396703 10.474306 14.744445 0.038237 0.780744 0.010531 -0.004688 1280260.000000 1 0 0
-5.325123 -0.883697 -3.972194 6.701953 0.164450 2.205193 0.008027 -0.007240 -1298480.000000 1 0 0
11.713077 5.681103 5.414006 14.099027 0.451594 1.176673 0.009189 -0.001485 2736370.000000 1 0 0
9.990177 -3.368797 3.715106 11.178302 -0.325236 1.232003 0.018395 -0.008317 -2126410.000000 1 0 0
7.299077 -1.628097 -3.367594 8.201702 -0.219463 1.993905 0.006538 -0.000268 -4206870.000000 1 0 0
2.264577 9.247603 10.509006 14.180468 1.330640 0.736104 0.001040 0.000977 3499280.000000 1 0 0
2.459877 -10.756997 6.307906 12.710375 -1.345985 1.051488 -0.003102 0.000775 1423410.000000 1 0 0
5.839877 -7.481897 -1.271394 9.575980 -0.908038 1.703959 0.007148 -0.005287 785639.000000 1 0 0
-0.197223 -5.585997 -2.320594 6.052059 1.535504 1.964313 0.004248 -0.000762 1792370.000000 1 0 0
7.680477 -4.995997 2.812806 9.584445 -0.576713 1.272935 0.009794 -0.006642 1967550.000000 1 0 0
-2.649623 -12.502097 4.642906 13.597040 1.361952 1.222322 0.015954 -0.001941 -199199.000000 1 0 0
4.874077 -10.291597 -1.182594 11.448673 -1.128493 1.674276 0.007086 -0.007334 1355150.000000 1 0 0
0.933077 0.119103 1.059606 1.416892 0.126959 0.725997 -0.001273 0.000023 -1265840.000000 1 0 0
-1.689323 8.504703 2.404806 8.998160 -1.374715 1.300253 0.002060 0.000512 232778.000000 1 0 0
-7.576423 0.599603 -3.088394 8.203651 -0.078976 1.956775 -0.000074 -0.001153 -1733720.000000 1 0 0
4.361977 -6.373697 12.866506 15.006593 -0.970636 0.540619 0.027280 -0.013402 272544.000000 1 0 0
-5.175523 12.984003 8.491206 16.354539 -1.191491 1.024887 0.011233 -0.008793 718809.000000 1 0 0
0.551377 6.071003 8.193506 10.212474 1.480223 0.639652 0.000082 0.002463 -204993.000000 1 0 0
7.960277 -0.455497 -0.656494 8.000280 -0.057159 1.652948 0.008759 -0.003749 4945290.000000 1 0 0
2.437977 -9.188497 -2.414294 9.808212 -1.311443 1.819503 0.004345 -0.002193 161047.000000 1 0 0
-7.246923 12.110203 4.870906 14.929857 -1.031543 1.238460 0.005116 -0.005974 -1038960.000000 1 0 0
-14.887923 0.291803 0.093506 14.891076 -0.019597 1.564517 0.003050 -0.005699 1814210.000000 1 0 0
6.821977 -0.491097 3.988806 7.917772 -0.071863 1.042829 0.007117 -0.000767 77984.300000 1 0 0
-4.224823 -5.030597 5.107406 8.321155 0.872239 0.909949 0.006084 -0.002576 -942909.000000 1 0 0
2.960477 5.088603 6.987806 9.137162 1.043877 0.700116 -0.000416 0.000887 -586847.000000 1 0 0
2.089277 -7.197997 1.794306 7.706865 -1.288301 1.335821 0.003286 -0.002164 3279800.000000 1 0 0
-2.412223 6.369503 -1.788694 7.041933 -1.208773 1.827616 0.005588 0.000566 691408.000000 1 0 0
2.716577 -3.797697 -6.497094 8.000908 -0.949861 2.518443 0.002088 -0.004040 -991967.000000 1 0 0
-5.155923 0.831403 -12.172494 13.245542 -0.159876 2.736302 0.010112 -0.002253 -314804.000000 1 0 0
-7.467423 6.246803 -11.951794 15.415263 -0.696628 2.458021 0.001567 -0.006315 2817770.000000 1 0 0
-1.026323 11.173103 -9.052194 14.416442 -1.479197 2.249658 0.001887 0.003935 -272457.000000 1 0 0
4.637877 5.947803 -0.629794 7.568548 0.908517 1.654105 -0.000718 0.002318 -567600.000000 1 0 0
-2.675523 13.389303 3.669006 14.138369 -1.373569 1.308285 0.000321 -0.000048 665918.000000 1 0 0
1.424977 -7.877797 10.254106 13.009109 -1.391846 0.662877 0.002874 -0.005214 -1660670.000000 1 0 0
13.047377 -0.122497 -1.026794 13.088291 -0.009388 1.649328 0.014687 -0.006433 864517.000000 1 0 0
-1.001623 3.101003 -5.388494 6.297249 -1.258375 2.597680 0.010038 -0.005225 1122380.000000 1 0 0
6.650677 1.162503 7.334006 9.968478 0.173046 0.744068 0.004287 -0.001549 -511560.000000 1 0 0
5.455777 -6.142997 6.950006 10.761250 -0.844578 0.868678 0.006054 -0.003592 1445100.000000 1 0 0
12.277677 -4.781697 2.650906 13.439988 -0.371390 1.372254 0.016696 -0.007990 -369809.000000 1 0 0
4.377177 -9.197997 13.847006 17.190183 -1.126627 0.634247 0.022871 -0.008492 1037410.000000 1 0 0
-2.743723 -4.367197 -1.431794 5.352612 1.009858 1.841588 0.010858 -0.004449 2431730.000000 1 0 0
-9.313123 -5.257197 -7.523594 13.075811 0.513902 2.183868 0.008806 -0.002374 773175.000000 1 0 0
-10.651823 -3.147897 7.786006 13.564382 0.287348 0.959409 0.000967 -0.002676 143017.000000 1 0 0
12.107277 -0.522797 1.673306 12.233537 -0.043154 1.433586 0.015120 -0.006393 1574840.000000 1 0 0
-7.676823 4.771603 4.345306 10.029132 -0.556122 1.122680 0.000581 -0.001491 1262100.000000 1 0 0
-1.126423 10.595103 6.909806 12.699231 -1.464879 0.995466 -0.002006 0.004589 1710460.000000 1 0 0
7.448577 -9.807597 1.922906 12.464663 -0.921262 1.415909 0.008611 -0.007401 3730990.000000 1 0 0
-4.292823 -1.722897 1.652506 4.911972 0.381664 1.227679 0.002046 0.000519 899841.000000 1 0 0
6.864177 -14.838797 -0.935194 16.376245 -1.137528 1.627934 0.029469 -0.007864 -708553.000000 1 0 0
-10.443723 1.608403 2.417306 10.839819 -0.152806 1.345903 -0.007624 0.001130 252679.000000 1 0 0
-2.994223 8.295403 -11.389894 14.405165 -1.224400 2.482717 0.000198 -0.000802 -53105.300000 1 0 0
-1.293823 -5.137297 -6.914894 8.711002 1.324078 2.487847 0.001963 -0.003295 -472514.000000 1 0 0
12.856277 -0.385897 6.426306 14.378115 -0.030007 1.107443 0.021777 -0.008337 2368500.000000 1 0 0
6.066277 -13.204197 3.755406 15.008451 -1.140136 1.317889 0.005963 -0.003511 1442490.000000 1 0 0
-5.610523 3.440303 -4.951494 8.235955 -0.550060 2.215804 0.006633 -0.003841 1504320.000000 1 0 0
-4.455823 8.057303 3.376006 9.806728 -1.065640 1.219352 0.003435 -0.001720 -957888.000000 1 0 0
13.982777 6.225703 -4.103094 15.846540 0.418889 1.832707 0.024917 0.000935 -414117.000000 1 0 0
-6.764123 -8.599997 5.281306 12.149300 0.904325 1.121091 0.010014 0.001164 -213694.000000 1 0 0
1.642677 11.310103 2.806006 11.768198 1.426565 1.330037 0.001083 -0.000626 1786930.000000 1 0 0
-7.443923 7.228303 6.009506 11.990601 -0.770703 1.045829 -0.002325 -0.003983 -685704.000000 1 0 0
-17.467123 -3.990797 5.315206 18.688987 0.224619 1.282413 0.042884 -0.008209 826035.000000 1 0 0
7.552777 -12.943397 -8.548194 17.252466 -1.042580 2.089180 0.022979 -0.013848 -671745.000000 1 0 0
-2.375323 12.769903 -2.666794 13.259879 -1.386889 1.773295 0.001522 0.006874 -28047.800000 1 0 0
-5.551123 13.997903 -5.655494 16.085424 -1.193252 1.930067 0.004578 0.011746 2576550.000000 1 0 0
-5.721023 2.430003 7.407206 9.669628 -0.401659 0.698157 0.002352 -0.001372 1089600.000000 1 0 0
-7.455823 5.104103 1.417006 9.145986 -0.600301 1.415238 -0.000007 -0.000881 599206.000000 1 0 0
10.786377 -5.603997 -4.887194 13.100969 -0.479160 1.953080 0.012592 -0.004972 2918990.000000 1 0 0
-9.547523 -0.754097 6.827306 11.761630 0.078820 0.951487 -0.001794 -0.000641 -628211.000000 1 0 0
-11.278723 -4.665197 -2.565794 12.472247 0.392199 1.777996 -0.001391 0.002082 688516.000000 1 0 0
6.502077 -4.427897 13.601906 15.712896 -0.597858 0.524344 0.039583 -0.013586 -129461.000000 1 0 0
0.168777 10.280903 -11.741094 15.607010 1.554381 2.422337 0.001142 0.000071 -471010.000000 1 0 0
-11.787923 -3.251697 1.461206 12.315185 0.269156 1.451865 -0.005098 0.001181 1648900.000000 1 0 0
5.129977 6.006103 5.469306 9.607458 0.863911 0.965170 -0.000146 0.002271 -4754170.000000 1 0 0
-7.172923 -0.021997 8.136906 10.847144 0.003067 0.722519 -0.000170 -0.001335 776506.000000 1 0 0
1.730377 1.986103 9.611106 9.965549 0.854099 0.267506 0.002540 -0.003148 3841760.000000 1 0 0
10.499577 -4.855697 -1.896594 11.722456 -0.433172 1.733302 0.009892 -0.001884 959592.000000 1 0 0
-9.690423 -2.496697 -1.696394 10.149657 0.252162 1.738723 -0.002456 -0.000171 -2073900.000000 1 0 0
-1.953323 -5.197097 -9.949094 11.393409 1.211282 2.632593 0.008949 -0.003739 364790.000000 1 0 0
7.636377 -1.565397 6.566406 10.192272 -0.202191 0.870750 0.010848 -0.004786 2319110.000000 1 0 0
1.563777 -11.829997 -2.640894 12.221642 -1.439371 1.788598 0.008693 -0.002467 -3715920.000000 1 0 0
-0.813223 -1.496897 4.763106 5.058577 1.073133 0.343476 0.007449 -0.003397 1781720.000000 1 0 0
7.622877 1.449203 9.970306 12.633901 0.187870 0.661339 0.008206 -0.003266 302724.000000 1 0 0
-3.787123 10.715403 -7.948994 13.868983 -1.231071 2.181140 -0.002003 0.008717 3247970.000000 1 0 0
-9.626423 12.620903 6.369806 17.103498 -0.919194 1.189173 0.015176 -0.010432 1516250.000000 1 0 0
-2.514123 -2.431197 -11.067194 11.606650 0.768631 2.835512 0.014300 -0.007152 -990035.000000 1 0 0
1.195177 -11.871497 11.037806 16.254047 -1.470458 0.824287 -0.003578 -0.003085 2195560.000000 1 0 0
1.390477 3.413903 -1.947994 4.169274 1.184014 2.056947 0.001896 -0.000397 3035480.000000 1 0 0
-1.793323 -9.367897 -12.165894 15.459058 1.381652 2.476687 -0.002509 0.003194 1628960.000000 1 0 0
1.280677 -2.719997 1.542306 3.378938 -1.130749 1.096799 0.007047 -0.002908 4083790.000000 1 0 0
-1.003123 -2.195397 -6.621294 7.047522 1.142202 2.792025 0.009034 -0.009261 -1441700.000000 1 0 0
1.757677 5.839603 4.185406 7.396487 1.278429 0.969316 -0.003609 0.002703 -1641860.000000 1 0 0
-10.949923 8.579103 3.570106 14.361319 -0.664590 1.319570 -0.003561 -0.004014 2667170.000000 1 0 0
-16.438223 -1.585897 3.957906 16.982204 0.096178 1.335571 0.030520 -0.009376 -39026.900000 1 0 0
-12.270423 0.221103 6.832806 14.046330 -0.018017 1.062777 -0.004315 0.002047 -442141.000000 1 0 0
-5.228323 2.979603 4.633106 7.594673 -0.517991 0.914677 0.001401 -0.000200 1878750.000000 1 0 0
5.159677 -5.999097 4.036806 8.882974 -0.860482 1.099049 0.008120 -0.004933 1216830.000000 1 0 0
9.923277 3.485103 6.327306 12.274045 0.337748 1.029202 0.002166 0.000745 -979447.000000 1 0 0
-12.213323 5.845003 3.186306 13.909776 -0.446362 1.339675 -0.001671 -0.001483 1840330.000000 1 0 0
-4.996023 12.241703 -1.151894 13.272016 -1.183314 1.657697 0.001790 0.004688 2168030.000000 1 0 0
-1.710523 -12.345997 10.208406 16.110899 1.433124 0.884555 0.015384 -0.007515 2139940.000000 1 0 0
5.134477 6.289503 13.964806 16.153529 0.886161 0.526632 0.010013 -0.003175 1030050.000000 1 0 0
12.939877 -3.606897 -5.801694 14.632491 -0.271842 1.978491 0.006473 -0.005199 1777600.000000 1 0 0
3.501177 -2.553697 6.439106 7.761552 -0.630175 0.592377 0.003638 -0.000530 2642470.000000 1 0 0
7.335377 -11.756997 -0.578394 13.869725 -1.012977 1.612510 0.010811 -0.003491 -90213.500000 1 0 0
-6.077423 -6.624997 -4.096894 9.879787 0.828479 1.998381 0.015347 -0.004289 48801.900000 1 0 0
0.219877 -8.869297 5.077606 10.222272 -1.546011 1.050981 0.009165 -0.003459 2521280.000000 1 0 0
-10.298723 2.414903 -0.365494 10.584377 -0.230325 1.605335 -0.006063 0.000981 -1340470.000000 1 0 0
-1.834123 8.900803 -0.385094 9.095966 -1.367578 1.613146 0.007753 -0.001939 183895.000000 1 0 0
-3.524123 2.223803 -6.634694 7.834789 -0.562919 2.580783 0.014332 -0.008417 1284990.000000 1 0 0
-12.754123 2.962203 6.365906 14.559088 -0.228209 1.118262 -0.000229 -0.007443 381480.000000 1 0 0
11.353777 1.624503 8.020906 13.995792 0.142116 0.960520 0.013174 -0.007712 -2329180.000000 1 0 0
5.951377 2.682803 -3.165194 7.254983 0.423508 2.022255 0.000545 0.000533 1179320.000000 1 0 0
10.504477 -2.341997 6.407906 12.525584 -0.219364 1.033767 0.019468 -0.007702 3740330.000000 1 0 0
-1.049423 10.967403 4.065206 11.743557 -1.475401 1.217316 0.001384 0.000557 807418.000000 1 0 0
-1.484723 -12.241497 7.347006 14.353994 1.450100 1.033466 0.008845 -0.001587 -737994.000000 1 0 0
8.056977 8.742103 -7.787794 14.212283 0.826159 2.150723 -0.001716 -0.001837 3361950.000000 1 0 0
-4.649923 -5.919597 -8.762794 11.552055 0.904951 2.431879 0.012926 -0.003676 -464294.000000 1 0 0
-8.465723 -5.393797 -11.550494 15.302791 0.567277 2.426140 0.006718 -0.001605 2449220.000000 1 0 0
6.116777 -0.640397 -9.911994 11.665021 -0.104315 2.586249 0.000232 0.003469 -783181.000000 1 0 0
-11.221723 -5.568197 -5.352794 13.622932 0.460601 1.974607 0.003754 -0.003140 -497667.000000 1 0 0
3.897477 8.921503 -2.730294 10.111284 1.158920 1.844215 0.003748 -0.000551 952166.000000 1 0 0
11.727377 -10.315897 -4.040794 16.133106 -0.721453 1.823958 0.023597 -0.007822 1497540.000000 1 0 0
4.083577 -11.171697 3.916206 12.522742 -1.220355 1.252733 0.002558 -0.004109 1056030.000000 1 0 0
-1.019923 0.927203 3.246306 3.526818 -0.737816 0.401533 0.004597 -0.001938 -1638340.000000 1 0 0
-10.591823 -5.214497 4.459306 12.619948 0.457479 1.209643 0.004393 -0.002167 2708670.000000 1 0 0
4.631177 -8.595197 2.719206 10.135052 -1.076585 1.299171 0.006015 -0.004237 3841680.000000 1 0 0
-3.790523 -5.742597 2.594606 7.353737 0.987374 1.210204 0.006676 -0.000058 1535950.000000 1 0 0
10.047777 5.150903 12.382306 16.757420 0.473709 0.739338 0.016477 -0.003663 886671.000000 1 0 0
1.674477 -12.294197 -5.349294 13.511702 -1.435429 1.977845 0.005114 -0.002972 340873.000000 1 0 0
9.946477 -10.660297 -1.714594 14.680401 -0.820024 1.687858 0.013571 -0.005677 1052990.000000 1 0 0
9.635677 -4.415697 -9.200894 14.035709 -0.429706 2.285687 0.014431 -0.002281 947637.000000 1 0 0
-7.391023 -3.143597 -13.101494 15.367452 0.402147 2.591638 0.009831 -0.003198 2339300.000000 1 0 0
0.497777 6.186303 -2.556794 6.712327 1.490505 1.961577 0.002817 0.000176 2306860.000000 1 0 0
-5.998223 -9.527597 0.913506 11.295497 1.008922 1.489834 0.010254 0.001375 -1368000.000000 1 0 0
-9.043723 -4.183897 0.584606 9.981767 0.433307 1.512195 -0.003045 0.000170 2400490.000000 1 0 0
1.889577 3.771703 12.010306 12.729638 1.106359 0.337784 0.001277 -0.004719 992384.000000 1 0 0
6.655077 4.232103 9.714306 12.512733 0.566414 0.681936 0.000009 0.000327 1906510.000000 1 0 0
-8.281723 9.894803 -3.643494 13.407801 -0.873912 1.846001 -0.000283 0.001204 2252580.000000 1 0 0
16.413577 2.116403 -6.063294 17.625216 0.128235 1.921983 0.054368 -0.003810 -654937.000000 1 0 0
-10.981523 2.595003 -5.117094 12.390018 -0.232050 1.996544 -0.005464 0.001365 128876.000000 1 0 0
-13.781623 4.006603 1.367106 14.417176 -0.282922 1.475829 0.001141 -0.000280 1270790.000000 1 0 0
-17.380023 10.385603 3.497006 20.546411 -0.538623 1.399763 0.030492 -0.019994 -1759770.000000 1 0 0
-14.385123 2.886203 -1.282794 14.727779 -0.198009 1.658007 0.001817 -0.000418 978985.000000 1 0 0
-14.416323 4.953703 5.035406 16.053811 -0.330978 1.251753 0.001290 -0.007285 1539010.000000 1 0 0
-17.471023 7.516703 3.115906 19.272943 -0.406299 1.408411 0.019660 -0.011406 -1779450.000000 1 0 0
-14.858323 12.503903 -3.539794 19.739491 -0.699563 1.751097 0.040124 -0.021786 -341405.000000 1 0 0
-8.495823 12.423603 -9.676894 17.893217 -0.970995 2.142200 0.012186 -0.006773 -167820.000000 1 0 0
-12.374523 8.721103 -9.810194 18.039578 -0.613915 2.145773 0.013060 -0.003245 -99488.500000 1 0 0
-13.895123 -3.483697 -12.233894 18.838226 0.245650 2.277616 0.040858 -0.009421 -632265.000000 1 0 0
-14.676023 5.561103 -7.682894 17.473934 -0.362207 2.026036 0.024172 0.003071 -894881.000000 1 0 0
-10.878323 13.499403 -8.558894 19.334593 -0.892506 2.029373 0.019636 -0.012560 753251.000000 1 0 0
-10.950523 13.565803 3.907006 17.866439 -0.891671 1.350336 0.010830 -0.009805 -2537110.000000 1 0 0
-15.248723 3.227803 2.916606 15.857139 -0.208598 1.385813 0.006301 -0.003701 551668.000000 1 0 0
-11.135723 9.324603 -12.439094 19.122856 -0.697110 2.279017 0.024632 -0.014888 1567670.000000 1 0 0
-13.025123 11.535003 -9.109394 19.639022 -0.724800 2.053123 0.027224 -0.019395 403490.000000 1 0 0
-8.987523 14.551403 -3.319994 17.422436 -1.017507 1.762527 0.011904 -0.002613 1035200.000000 1 0 0
-16.768523 8.227703 -4.181894 19.140708 -0.456151 1.791055 0.042370 -0.009007 -1512940.000000 1 0 0
-17.004923 6.784103 0.335006 18.311299 -0.379600 1.552500 0.023757 -0.004442 -385114.000000 1 0 0
-10.500423 2.815503 -12.621294 16.657821 -0.261970 2.430547 0.008525 -0.008379 661632.000000 1 0 0
-16.843823 0.828603 2.300106 17.020324 -0.049154 1.435243 0.034041 -0.013583 1065380.000000 1 0 0
-12.664423 1.205003 -7.031794 14.535672 -0.094863 2.075744 0.002522 -0.001052 2367380.000000 1 0 0
-12.314923 8.982703 -5.481594 16.198585 -0.630197 1.916012 0.016546 -0.002436 457280.000000 1 0 0
-9.650323 13.876703 1.217906 16.946236 -0.963142 1.498866 0.016618 -0.006116 275706.000000 1 0 0
-12.252423 11.129103 2.694606 16.770203 -0.737392 1.409419 0.006551 -0.008827 1574800.000000 1 0 0
-12.609023 6.810703 -3.629194 14.783240 -0.495246 1.818825 0.002994 -0.000120 -781687.000000 1 0 0
-15.733023 3.504903 -9.522194 18.721232 -0.219194 2.104390 0.031912 -0.003774 -157576.000000 1 0 0
-15.084823 5.834603 -4.748594 16.856560 -0.369064 1.856368 0.018986 0.003093 2544740.000000 1 0 0
-17.971723 5.114403 7.381706 20.090533 -0.277251 1.194561 0.028684 -0.023841 -563776.000000 1 0 0
-15.900223 10.040903 -2.138294 18.926413 -0.563256 1.684017 0.036337 -0.009897 -672435.000000 1 0 0
-8.794923 9.827603 -8.379294 15.625141 -0.840795 2.136808 -0.000726 -0.002271 -122972.000000 1 0 0
-17.019923 4.310003 -1.299394 17.605179 -0.248019 1.644671 0.024742 -0.001759 1637760.000000 1 0 0
-10.222123 5.397503 -4.621194 12.449107 -0.485813 1.951105 -0.001903 -0.001128 -1056500.000000 1 0 0
-18.321323 2.700103 5.801406 19.406641 -0.146322 1.267216 0.060197 -0.027916 149493.000000 1 0 0
-10.293323 10.061603 -5.746794 15.498839 -0.774015 1.950654 -0.000636 -0.003755 532828.000000 1 0 0
-15.336323 0.408003 -5.958794 16.458326 -0.026597 1.941266 0.008789 0.000558 388660.000000 1 0 0
-16.288023 -4.174597 -8.946794 19.046576 0.250898 2.059784 0.037580 -0.020111 -1145200.000000 1 0 0
-10.036523 9.609803 -1.195094 13.946625 -0.763682 1.656592 -0.003566 -0.000377 878289.000000 1 0 0
-17.289023 -2.910097 -3.272094 17.834954 0.166757 1.755307 0.034424 -0.007140 -608150.000000 1 0 0
-11.941623 5.105003 -11.612794 17.421837 -0.403983 2.300388 0.009069 -0.005413 -127314.000000 1 0 0
-16.284323 6.948303 5.791706 18.627988 -0.403298 1.254642 0.012502 -0.012165 -225047.000000 1 0 0
-12.056023 5.955303 -8.859694 16.103028 -0.458811 2.153386 0.009036 -0.000494 683720.000000 1 0 0
-14.594023 8.416803 -0.156494 16.847925 -0.523133 1.580085 0.018876 -0.005904 2437000.000000 1 0 0
-14.911123 11.907203 3.822706 19.461145 -0.673853 1.373083 0.005378 -0.012604 273226.000000 1 0 0
-17.337023 4.098203 -4.114194 18.283715 -0.232124 1.797759 0.035424 -0.000561 630710.000000 1 0 0
-13.937223 13.278803 -0.878194 19.270288 -0.761211 1.616385 0.033368 -0.018442 -78128.600000 1 0 0
-9.954723 6.827603 -13.097794 17.811931 -0.601177 2.396962 -0.000535 -0.012307 591649.000000 1 0 0
-15.857823 -1.218497 -8.413794 17.992977 0.076688 2.057388 0.021690 -0.007022 692647.000000 1 0 0
-11.480123 11.900403 -0.122394 16.535652 -0.803372 1.578198 0.015416 -0.007478 26938.400000 1 0 0
-11.999723 7.398103 -0.898594 14.125606 -0.552480 1.634454 -0.002323 -0.000136 1449550.000000 1 0 0
-11.414623 0.117503 -11.788194 16.409416 -0.010294 2.372267 0.010282 -0.009268 -1084030.000000 1 0 0
-19.108223 -1.197597 -4.701294 19.714476 0.062593 1.811586 0.059875 -0.017128 -1911430.000000 1 0 0
-17.909023 1.479603 -5.147294 18.692698 -0.082431 1.849765 0.028494 -0.005191 1081320.000000 1 0 0
-13.273723 -0.115497 -9.532094 16.342150 0.008701 2.193561 0.008795 -0.005594 -153965.000000 1 0 0
-6.175723 11.098203 -13.220894 18.333077 -1.063006 2.376257 0.000736 -0.008320 -490981.000000 1 0 0
16.433377 5.854603 7.023806 18.806013 0.342243 1.188031 0.100964 -0.019246 955623.000000 1 0 0
14.729577 10.361103 -5.740694 18.901547 0.613019 1.879386 0.075955 -0.018655 805647.000000 1 0 0
2.368577 16.856703 4.382506 17.577399 1.431198 1.318812 0.028901 -0.012665 2052150.000000 1 0 0
-4.100923 18.228103 -5.794994 19.561781 -1.349503 1.871551 0.026694 -0.003730 2829450.000000 1 0 0
5.364977 14.616103 5.705906 16.582244 1.219005 1.219519 0.014917 -0.006388 -990925.000000 1 0 0
9.896277 5.969003 15.178406 19.077455 0.542737 0.650766 0.038532 -0.007994 -468324.000000 1 0 0
4.669677 12.723803 -0.997394 13.590285 1.219055 1.644253 0.003650 -0.002634 1895680.000000 1 0 0
3.614677 13.584303 13.168506 19.261587 1.310730 0.818021 0.036817 -0.008143 -246944.000000 1 0 0
-0.827323 12.370703 9.191506 15.433812 -1.504018 0.932854 0.008007 -0.002063 2149790.000000 1 0 0
-7.877223 13.900603 8.365106 18.034755 -1.055236 1.088480 0.023016 -0.018197 2149630.000000 1 0 0
11.356877 12.937103 -4.128694 17.702921 0.850353 1.806185 0.087206 -0.011707 1544780.000000 1 0 0
-5.850223 16.211603 0.983006 17.262893 -1.224474 1.513822 0.009639 0.003703 1534100.000000 1 0 0
3.206377 10.577503 6.851906 13.004347 1.276469 1.015855 -0.000293 0.003804 2130110.000000 1 0 0
-1.252723 15.537603 2.513706 15.789400 -1.490345 1.410914 0.004780 -0.002677 -928734.000000 1 0 0
9.862277 8.850303 9.527806 16.320890 0.731371 0.947420 0.019283 -0.007669 2175460.000000 1 0 0
7.142877 12.275603 6.316406 15.543748 1.043810 1.152326 0.009014 -0.003888 525776.000000 1 0 0
11.873277 14.144003 -1.600994 18.536201 0.872455 1.657275 0.083327 -0.005270 1079980.000000 1 0 0
9.532177 16.018803 -1.236294 18.681351 1.034016 1.637023 0.061855 -0.011304 847355.000000 1 0 0
10.073877 13.725303 3.008906 17.289317 0.937638 1.395873 0.035328 -0.006389 1733040.000000 1 0 0
-6.068123 14.466703 6.229406 16.879369 -1.173632 1.192805 -0.001001 -0.011066 240211.000000 1 0 0
-1.144423 18.227803 -6.210894 19.290872 -1.508094 1.898596 0.030179 0.007338 990081.000000 1 0 0
-3.501323 15.653203 5.520106 16.963302 -1.350738 1.239346 -0.001953 -0.006330 1814400.000000 1 0 0
6.999677 12.249403 10.762206 17.744533 1.051649 0.919135 0.008815 -0.000998 2656890.000000 1 0 0
1.404777 14.584903 6.292506 15.946424 1.474775 1.165161 0.008025 -0.003774 676306.000000 1 0 0
17.370677 7.755603 -1.612994 19.091662 0.419920 1.655384 0.037004 0.002404 21881.400000 1 0 0
2.068377 16.199503 -3.324694 16.666004 1.443802 1.771633 0.005031 -0.000678 1451430.000000 1 0 0
6.775577 11.160203 0.649106 13.072105 1.025158 1.521120 0.006589 0.000283 2082170.000000 1 0 0
12.734377 9.331903 3.191206 16.106911 0.632410 1.371350 0.031623 0.003800 -1596540.000000 1 0 0
5.988677 14.326803 -3.347194 15.884749 1.174865 1.783105 0.015017 -0.003018 638494.000000 1 0 0
3.048477 16.604503 1.551506 16.953168 1.389225 1.479151 0.013605 -0.012121 -2249100.000000 1 0 0
2.744177 18.965403 -2.456994 19.319779 1.427100 1.698317 0.011474 -0.014841 -716052.000000 1 0 0
3.938077 11.923503 10.744106 16.526167 1.251798 0.863045 0.013018 -0.004263 1618390.000000 1 0 0
7.960977 11.536203 3.481906 14.442466 0.966755 1.327310 0.007107 0.002963 1082640.000000 1 0 0
0.753677 12.452303 0.218206 12.476999 1.510345 1.553307 0.006474 -0.000890 -2222480.000000 1 0 0
11.965377 9.982403 -4.620994 16.253376 0.695293 1.859083 0.051860 -0.003777 966824.000000 1 0 0
-1.336023 16.507603 9.966206 19.329024 -1.490039 1.029079 0.025032 -0.010731 -497794.000000 1 0 0
8.013577 14.917503 -8.017394 18.735740 1.077839 2.012986 0.059185 -0.015214 588763.000000 1 0 0
14.477077 7.614903 -1.437194 16.420659 0.484228 1.658432 0.027985 0.001961 1735260.000000 1 0 0
12.507677 8.376303 5.994306 16.202967 0.590095 1.191840 0.028634 -0.007694 -81253.000000 1 0 0
-3.098923 14.231903 10.121006 17.736548 -1.356398 0.963524 0.018271 -0.013615 802609.000000 1 0 0
-4.637623 17.092703 -3.009594 17.964568 -1.305853 1.739120 0.018473 0.000894 1024590.000000 1 0 0
-7.196123 16.437403 -1.656594 18.019898 -1.158143 1.662858 0.014013 0.003019 993338.000000 1 0 0
8.384877 11.349403 -1.778094 14.222403 0.934505 1.696145 0.013140 0.002220 -1558680.000000 1 0 0
8.523577 13.020203 -4.201494 16.119232 0.991164 1.834493 0.045490 -0.001478 1500550.000000 1 0 0
2.440977 14.804403 -7.301694 16.686626 1.407385 2.023699 0.001006 0.000030 -110985.000000 1 0 0
11.287777 11.368303 9.816406 18.788668 0.788952 1.021058 0.040717 -0.009070 327349.000000 1 0 0
8.556377 15.771203 1.449506 18.001209 1.073705 1.490186 0.028517 -0.010839 -439837.000000 1 0 0
5.975677 9.853303 7.828306 13.931212 1.025637 0.974084 0.003452 0.007045 1113360.000000 1 0 0
14.476577 11.589703 2.565206 18.720919 0.675096 1.433340 0.056193 0.002292 2594560.000000 1 0 0
12.132777 12.756603 1.125806 17.640937 0.810457 1.506935 0.057907 0.002262 3012570.000000 1 0 0
5.044177 15.963203 8.286206 18.679636 1.264737 1.111190 0.021395 -0.006067 -3098780.000000 1 0 0
11.480877 15.039403 5.072906 19.588991 0.918783 1.308844 0.058016 -0.008478 -103894.000000 1 0 0
5.897777 16.929903 1.797106 18.017630 1.235579 1.470889 0.014277 -0.019580 508852.000000 1 0 0
-0.744423 16.157603 -4.104294 16.687347 -1.524756 1.819299 0.012507 0.004035 1714950.000000 1 0 0
16.111177 6.462203 2.552206 17.545480 0.381455 1.424816 0.029736 -0.001453 -1818910.000000 1 0 0
7.485777 16.827003 -3.159894 18.686087 1.152219 1.740717 0.039039 -0.015570 -410764.000000 1 0 0
14.790377 8.191503 7.473806 18.485501 0.505787 1.154576 0.074827 -0.016889 162341.000000 1 0 0
2.075777 12.877903 8.649906 15.651521 1.410982 0.985249 0.008092 -0.002902 1315140.000000 1 0 0
16.002077 7.643703 -5.933994 18.700400 0.445624 1.893697 0.056354 -0.007053 -890999.000000 1 0 0
-3.015123 17.007403 0.779906 17.290199 -1.395336 1.525674 0.005132 -0.000040 1112440.000000 1 0 0
-2.975723 18.519503 4.681306 19.332396 -1.411478 1.326217 0.004812 -0.002357 1207130.000000 1 0 0
-0.934123 19.099503 0.935006 19.145178 -1.521927 1.521939 0.003954 -0.003329 -933822.000000 1 0 0
6.859777 16.914203 -6.072794 19.236051 1.185503 1.891989 0.043222 -0.012331 944706.000000 1 0 0
11.042377 10.116803 0.821406 14.998617 0.741683 1.516003 0.023982 0.004773 -1884870.000000 1 0 0
9.110477 8.617603 14.299406 19.019382 0.757603 0.719958 0.025334 -0.010466 473918.000000 1 0 0
6.270577 12.522603 -8.312594 16.286036 1.106556 2.106461 0.035341 -0.013339 969309.000000 1 0 0
6.331477 8.947203 13.461606 17.359576 0.954955 0.683358 0.016329 -0.009705 531634.000000 1 0 0
16.656077 9.513303 2.901206 19.399610 0.518944 1.420684 0.050085 0.002080 -1370500.000000 1 0 0
2.567777 14.735803 -0.673494 14.973008 1.398274 1.615792 0.008019 -0.005144 1050080.000000 1 0 0
8.996977 12.864303 8.411206 17.809668 0.960490 1.078917 0.020104 -0.009332 1593240.000000 1 0 0
7.188077 9.361503 10.638306 15.889611 0.915979 0.837243 0.005574 -0.002306 1625330.000000 1 0 0
4.304577 15.815403 -5.259394 17.213878 1.305057 1.881294 0.023482 -0.008604 1355800.000000 1 0 0
0.097777 16.326503 -8.076894 18.215392 1.564808 2.030196 0.011022 0.002417 1856120.000000 1 0 0
-2.449323 15.578503 -1.790994 15.871251 -1.414848 1.683882 0.000428 0.004348 -89269.800000 1 0 0
13.233977 10.468603 7.744206 18.566166 0.669254 1.140529 0.058230 -0.015149 1440120.000000 1 0 0
-0.987223 15.957003 7.111306 17.497749 -1.509007 1.152272 0.012746 -0.006613 3100810.000000 1 0 0
13.277477 13.303603 6.711606 19.958029 0.786381 1.227826 0.068928 -0.013508 669995.000000 1 0 0
5.299077 17.368203 4.584606 18.728409 1.274665 1.323489 0.019791 -0.018059 461919.000000 1 0 0
10.720877 9.552503 -1.920594 14.487105 0.727831 1.703760 0.019022 0.003942 1537250.000000 1 0 0
3.175177 12.735103 4.829906 13.985442 1.326453 1.218182 0.001237 0.005686 1418830.000000 1 0 0
-0.271823 18.006503 3.594806 18.363842 -1.555702 1.373770 0.004028 -0.009351 1881870.000000 1 0 0
-7.931923 15.867403 -5.644494 18.615859 -1.107238 1.878855 0.031189 -0.009065 1088820.000000 1 0 0
-12.578323 -9.116797 8.255506 17.592145 0.627179 1.082330 0.034749 -0.010598 -277566.000000 1 0 0
-13.265623 -11.776897 6.784206 18.992037 0.726020 1.205514 0.039939 -0.012243 -1114110.000000 1 0 0
-6.610723 -12.475197 12.225806 18.676255 1.083509 0.857120 0.038349 -0.015144 -1104250.000000 1 0 0
-1.845923 -10.722797 14.222506 17.907134 1.400318 0.653046 0.018071 -0.014875 -593778.000000 1 0 0
-8.866923 2.766103 11.031606 14.421164 -0.302391 0.699818 0.002727 -0.001587 1027170.000000 1 0 0
0.577177 10.136303 15.098206 18.194329 1.513916 0.591993 0.018616 -0.009640 -1396830.000000 1 0 0
0.885177 -6.883997 16.612706 18.004303 -1.442913 0.395751 0.038143 -0.024384 2299860.000000 1 0 0
6.028477 2.394503 17.655406 18.809294 0.378089 0.352092 0.028325 -0.016027 2063800.000000 1 0 0
-5.259323 -2.915097 17.584306 18.584027 0.506117 0.329497 0.017574 -0.018187 -630314.000000 1 0 0
-4.301423 8.172203 13.043406 15.981789 -1.086293 0.616094 0.007581 -0.000315 -198339.000000 1 0 0
-0.153523 -4.971897 18.594606 19.248446 1.539928 0.261391 0.030389 -0.028855 -422846.000000 1 0 0
-11.627323 2.013303 11.087306 16.191861 -0.171453 0.816542 0.001266 -0.005906 1241510.000000 1 0 0
-3.479923 -6.110097 14.264606 15.903525 1.053078 0.457983 0.014298 -0.010230 2326140.000000 1 0 0
-7.536923 -2.224597 14.485906 16.480154 0.287010 0.497055 0.010642 -0.008241 717139.000000 1 0 0
-6.165923 -1.145897 10.588906 12.306771 0.183747 0.534717 0.003162 -0.003138 842673.000000 1 0 0
-3.971523 2.358403 11.128606 12.049105 -0.535869 0.393418 -0.000721 0.002160 -529783.000000 1 0 0
-6.396723 6.283703 13.491906 16.199830 -0.776486 0.586573 -0.001338 0.000490 101182.000000 1 0 0
-8.994523 5.429303 12.487206 16.318979 -0.543079 0.699452 0.002343 -0.003091 -355273.000000 1 0 0
-12.324423 -2.194097 15.728806 20.102258 0.176183 0.672222 0.028840 -0.004713 1854330.000000 1 0 0
-3.562423 -7.687497 16.909606 18.913572 1.136851 0.464499 0.022326 -0.014262 -1606770.000000 1 0 0
-0.631523 -5.376497 14.437006 15.418582 1.453872 0.358745 0.011766 -0.007990 2422280.000000 1 0 0
-14.292023 -2.188297 13.615906 19.860600 0.151933 0.815405 0.026442 -0.007318 91905.400000 1 0 0
-6.480423 1.352103 12.229606 13.906377 -0.205693 0.496145 0.002787 -0.001965 2133250.000000 1 0 0
2.071177 -2.259197 14.643506 14.960815 -0.828790 0.206324 0.009889 -0.006875 92262.500000 1 0 0
-12.617923 3.934303 9.083106 16.037254 -0.302250 0.968695 0.001617 -0.006833 -705727.000000 1 0 0
-9.190823 -3.033697 12.464106 15.780636 0.318819 0.660256 0.005426 0.000204 301364.000000 1 0 0
-7.235823 -7.226597 15.236906 18.350589 0.784760 0.591110 0.021101 -0.009591 501588.000000 1 0 0
-3.340123 5.961103 19.551806 20.711453 -1.060065 0.336217 0.045432 -0.009287 146559.000000 1 0 0
0.576777 5.419403 16.180006 17.073230 1.464767 0.324900 0.007722 -0.004185 1534090.000000 1 0 0
3.412877 1.406003 16.707406 17.110289 0.390783 0.217436 0.013085 -0.012012 2440510.000000 1 0 0
-11.792423 11.378103 7.888906 18.186734 -0.767519 1.122121 0.006867 -0.007145 -852841.000000 1 0 0
0.527077 -9.491297 15.361906 18.065178 -1.515321 0.554127 0.016613 -0.010690 1134800.000000 1 0 0
-2.732223 -3.637997 18.806406 19.348926 0.926640 0.237364 0.020759 -0.025893 1300590.000000 1 0 0
-12.802223 2.436103 13.723706 18.925422 -0.188039 0.759549 0.000431 -0.011510 -335343.000000 1 0 0
-5.490723 -0.567597 15.742806 16.682510 0.103008 0.337241 0.009076 -0.003972 500270.000000 1 0 0
-4.568523 -6.065997 11.611706 13.874416 0.925291 0.579174 0.008321 -0.002150 -518185.000000 1 0 0
2.467477 1.825003 13.931006 14.265062 0.636827 0.216840 0.004849 -0.008372 -1009480.000000 1 0 0
0.094977 3.279503 14.241506 14.614535 1.541844 0.226424 0.005084 -0.004746 426518.000000 1 0 0
-13.082923 6.986103 12.207706 19.209284 -0.490466 0.882127 0.009205 -0.005047 1141310.000000 1 0 0
0.867777 1.236203 18.247406 18.309807 0.958750 0.082584 0.017037 -0.009992 759318.000000 1 0 0
-2.047323 6.335403 12.456906 14.124566 -1.258233 0.490851 -0.000985 0.000870 245651.000000 1 0 0
-13.630823 -2.732397 10.856306 17.638727 0.197835 0.907800 0.025238 -0.006935 458986.000000 1 0 0
-2.596123 3.492103 13.482006 14.166831 -0.931515 0.312201 -0.000768 0.002019 -92849.500000 1 0 0
3.462577 5.984303 16.400206 17.797979 1.046253 0.398963 0.006674 -0.005851 94428.700000 1 0 0
-3.789623 12.372103 12.225106 17.801219 -1.273566 0.813779 0.021670 -0.013672 302254.000000 1 0 0
3.693277 -1.586997 17.037706 17.505492 -0.405844 0.231699 0.038417 -0.018028 -1145130.000000 1 0 0
-15.864623 0.496003 9.153706 18.322734 -0.031255 1.047680 0.032871 -0.010938 893130.000000 1 0 0
-4.733723 4.609303 15.276706 16.644264 -0.772082 0.408202 0.014215 -0.003259 1285650.000000 1 0 0
-8.159723 -8.205997 10.502206 15.627405 0.788226 0.833839 0.022681 -0.008426 3439100.000000 1 0 0
-2.665523 -0.449697 14.795706 15.040616 0.167135 0.180708 0.007040 -0.005155 1375190.000000 1 0 0
-1.880123 0.936903 17.251606 17.379026 -0.462303 0.121168 0.010049 -0.012064 1501520.000000 1 0 0
-0.775423 -2.515597 14.439206 14.677199 1.271792 0.180328 0.010418 -0.006373 -1085520.000000 1 0 0
5.159177 -8.324697 16.531706 19.214967 -1.015986 0.534829 0.051840 -0.015996 1184010.000000 1 0 0
-4.550823 9.922803 10.617506 15.228376 -1.140795 0.799286 0.005921 -0.006135 -1982710.000000 1 0 0
-6.321023 2.127003 15.215406 16.612888 -0.324595 0.413103 0.009738 -0.002058 171139.000000 1 0 0
-4.933523 6.815503 17.343906 19.276976 -0.944231 0.451666 0.021840 -0.000182 -1936840.000000 1 0 0
-3.996823 9.097903 15.769406 18.639222 -1.156866 0.562296 0.018388 -0.002393 -384337.000000 1 0 0
-4.892023 -9.892297 18.193306 21.278764 1.111535 0.545249 0.046743 -0.027785 -2242040.000000 1 0 0
-6.882023 -4.105297 11.018906 13.624683 0.537860 0.628780 0.011616 -0.001094 441704.000000 1 0 0
-2.429323 -0.903697 19.545406 19.716520 0.356134 0.131843 0.019233 -0.015483 1044970.000000 1 0 0
-5.807723 -4.522197 15.184206 16.874241 0.661588 0.451382 0.008170 -0.008399 1217390.000000 1 0 0
-12.979923 -0.023597 9.703606 16.206138 0.001818 0.928843 0.007443 -0.003852 1876880.000000 1 0 0
-14.576223 8.588003 10.254806 19.783354 -0.532425 1.025870 0.009879 -0.012309 214639.000000 1 0 0
-8.553123 10.547203 12.836506 18.686232 -0.889422 0.813513 0.020658 -0.010568 -683036.000000 1 0 0
-10.569123 7.119103 10.746806 16.669787 -0.592770 0.870182 0.006616 -0.004385 -1153460.000000 1 0 0
-10.008423 -6.540597 14.753606 18.989913 0.578838 0.681041 0.033696 -0.012050 -145438.000000 1 0 0
-0.826923 -13.463697 14.322406 19.674507 1.509455 0.755443 0.018945 -0.016774 409306.000000 1 0 0
3.644877 -5.764297 16.977706 18.296304 -1.006951 0.381973 0.057590 -0.026629 2176120.000000 1 0 0
-7.403023 9.299703 10.363706 15.770086 -0.898469 0.853732 0.011314 -0.005991 1778280.000000 1 0 0
-10.499923 -6.709697 11.771206 17.141461 0.568620 0.813843 0.032737 -0.015625 1764960.000000 1 0 0
-11.057023 -3.925597 10.649306 15.845370 0.341151 0.833786 0.011422 -0.000976 -1089960.000000 1 0 0
-10.216723 -10.257197 9.875106 17.524532 0.787375 0.972178 0.033716 -0.014704 427563.000000 1 0 0
-9.884123 -3.632597 15.239106 18.523552 0.352195 0.604673 0.025579 -0.013048 1845150.000000 1 0 0
5.510977 -3.487197 16.129206 17.397778 -0.564169 0.384238 0.050422 -0.020336 331523.000000 1 0 0
-11.310223 0.610803 15.401506 19.118070 -0.053952 0.634110 0.010251 -0.003219 -916410.000000 1 0 0
-3.221023 3.080303 18.783206 19.304716 -0.763070 0.232969 0.023203 -0.013589 125009.000000 1 0 0
0.460977 7.390403 13.940506 15.785064 1.508502 0.488271 0.003851 -0.006677 1911070.000000 1 0 0
-13.304323 -7.518697 12.029606 19.448579 0.514386 0.903921 0.045513 -0.019156 -1037970.000000 1 0 0
-1.629523 -1.156097 12.156406 12.319501 0.617053 0.162899 0.005613 -0.005232 662550.000000 1 0 0
1.945677 -4.820297 13.149906 14.140047 -1.187154 0.376449 0.012351 -0.007573 1512140.000000 1 0 0
-14.715123 -4.248097 8.641206 17.585551 0.281048 1.057122 0.030776 -0.012940 -1732210.000000 1 0 0
8.018277 0.895903 16.107506 18.015192 0.111271 0.464364 0.055839 -0.017459 -140433.000000 1 0 0
-1.287923 11.402803 13.360406 17.612016 -1.458325 0.709641 0.019150 -0.006217 322786.000000 1 0 0
2.917577 -12.299397 -13.859494 18.758278 -1.337888 2.402154 0.014284 -0.002406 -614832.000000 1 0 0
0.805877 -10.712697 -14.124294 17.745619 -1.495711 2.491341 0.007568 0.000703 -1231030.000000 1 0 0
3.391077 -14.326897 -12.339394 19.209894 -1.338380 2.268351 0.030534 -0.008049 -1110370.000000 1 0 0
-5.096023 -10.224097 -16.153094 19.784440 1.108403 2.526040 0.018516 -0.012639 -211871.000000 1 0 0
-1.118823 -12.173197 -15.160294 19.474933 1.479145 2.462992 0.027828 -0.004315 117245.000000 1 0 0
5.877877 -14.936497 -11.883694 19.971744 -1.195885 2.208094 0.022374 -0.013221 -8155.860000 1 0 0
2.053677 -11.916697 -16.145394 20.171738 -1.400137 2.498753 0.025025 -0.005202 -554959.000000 1 0 0
1.380377 -14.417597 -13.888994 20.066806 -1.475345 2.335243 0.035796 -0.004506 -417642.000000 1 0 0
-0.967823 -10.656597 -16.042394 19.283624 1.480226 2.553352 0.019735 -0.011077 -458144.000000 1 0 0
-5.969623 -5.551497 -15.334994 17.367140 0.749122 2.652989 0.018409 -0.000588 294795.000000 1 0 0
-6.339023 -7.664997 -16.714094 19.449841 0.879802 2.604781 0.013952 -0.000253 180893.000000 1 0 0
4.942777 -12.501697 -11.372994 17.608761 -1.194289 2.272960 0.006601 -0.004424 -371260.000000 1 0 0
-1.509523 -15.475297 -13.081194 20.319476 1.473560 2.270219 0.036358 -0.003289 141411.000000 1 0 0
15.809877 -7.192797 -8.703794 19.427933 -0.426968 2.035328 0.049474 -0.011289 569488.000000 1 0 0
19.308377 -3.627097 -4.028394 20.054856 -0.185687 1.773041 0.133597 -0.037675 1398750.000000 1 0 0
14.791277 -11.714697 -8.776594 20.809724 -0.669844 2.006176 0.042529 -0.015335 -368489.000000 1 0 0
18.001777 -3.445397 -6.322494 19.388365 -0.189105 1.902969 0.101872 -0.015881 590761.000000 1 0 0
9.457777 -9.200397 -15.535594 20.382629 -0.771605 2.437498 0.098024 -0.035808 -81194.900000 1 0 0
1.416577 1.837603 -15.303694 15.478583 0.914063 2.991126 0.020757 -0.006059 60496.600000 1 0 0
4.872177 -4.387697 -13.879694 15.350437 -0.733125 2.700273 0.011821 -0.002361 110019.000000 1 0 0
13.142477 -5.452697 -8.579894 16.615391 -0.393277 2.113417 0.026443 -0.000422 -1529500.000000 1 0 0
3.013577 0.849103 -12.333994 12.725174 0.274639 2.892999 0.010258 -0.001277 -2946040.000000 1 0 0
0.582477 6.347103 -12.910694 14.398300 1.479282 2.683012 0.014958 -0.005822 -155606.000000 1 0 0
3.266277 -1.294897 -16.912194 17.273322 -0.377437 2.936752 0.028470 -0.008104 31750.700000 1 0 0
13.257677 4.651703 -11.399894 18.093146 0.337448 2.252436 0.035368 -0.014368 313684.000000 1 0 0
-4.023923 9.418103 -16.542994 19.456703 -1.167018 2.587250 0.002851 -0.003874 -88171.200000 1 0 0
-0.105623 -5.103397 -17.690794 18.412496 1.550103 2.860683 0.021290 -0.015070 489127.000000 1 0 0
-0.477023 -8.606497 -17.604994 19.601917 1.515427 2.686286 0.024804 -0.011670 -1231440.000000 1 0 0
5.464377 -10.166597 -12.285494 16.856823 -1.077614 2.387385 0.001715 -0.002679 726162.000000 1 0 0
1.713177 -9.826497 -18.148994 20.709443 -1.398189 2.639055 0.045791 -0.016250 -535712.000000 1 0 0
11.161177 8.915303 -14.321494 20.227697 0.673995 2.357478 0.104114 -0.043293 -127683.000000 1 0 0
11.097877 -3.861097 -12.879494 17.434229 -0.334814 2.402007 0.019890 -0.001433 514317.000000 1 0 0
4.911977 7.375803 -12.174294 15.058003 0.983284 2.512384 0.004750 -0.004251 -896453.000000 1 0 0
9.749177 -5.976897 -12.748994 17.126197 -0.549972 2.410454 0.022909 -0.001027 -1422910.000000 1 0 0
-3.194523 0.344003 -15.845494 16.167962 -0.107272 2.941535 0.017455 -0.006867 -1834690.000000 1 0 0
-0.801723 10.751903 -12.919294 16.827191 -1.496368 2.446139 -0.003071 -0.001039 -1142720.000000 1 0 0
6.769377 -5.443597 -12.308094 15.064740 -0.677266 2.527009 0.012695 -0.005376 -132100.000000 1 0 0
17.973577 -5.753597 -8.338694 20.632188 -0.309806 1.986856 0.096119 -0.020627 763191.000000 1 0 0
13.166277 4.832403 -13.876794 19.729886 0.351764 2.350880 0.066497 -0.030672 565190.000000 1 0 0
14.310977 0.941103 -11.442894 18.347468 0.065666 2.244234 0.034504 -0.002153 -351592.000000 1 0 0
15.236577 6.265303 -10.902994 19.755572 0.390125 2.155431 0.087236 -0.035329 -250015.000000 1 0 0
8.254377 1.528503 -11.734894 14.428403 0.183101 2.520630 -0.008477 0.007947 973324.000000 1 0 0
9.964977 1.331103 -8.977694 13.478561 0.132792 2.299727 -0.000962 0.001570 463824.000000 1 0 0
-0.058323 -5.660497 -13.030694 14.207168 1.560493 2.731770 0.001974 -0.003698 532899.000000 1 0 0
10.515877 -5.720497 -9.038294 14.999951 -0.498215 2.217495 0.016684 -0.003297 -604144.000000 1 0 0
10.228977 8.660403 -11.091694 17.397133 0.702548 2.262122 0.050931 -0.031119 576620.000000 1 0 0
8.575777 8.244303 -14.563094 18.804154 0.765694 2.456660 0.056038 -0.020152 51853.000000 1 0 0
8.541577 10.648103 -10.573194 17.266531 0.894734 2.229828 0.068058 -0.030646 -2191000.000000 1 0 0
7.324677 1.622703 -17.937194 19.442917 0.218018 2.745451 0.035471 -0.004621 -2387160.000000 1 0 0
12.158677 2.692803 -12.773194 17.839258 0.217954 2.368875 0.029370 -0.011895 -865563.000000 1 0 0
2.748677 -1.039797 -19.488594 19.708925 -0.361652 2.991926 0.053212 -0.016606 -214032.000000 1 0 0
10.343877 -2.077297 -15.207994 18.509296 -0.198188 2.535080 0.046008 -0.018956 -10225.800000 1 0 0
8.336777 -0.772097 -13.138594 15.579495 -0.092350 2.574239 0.003998 0.000785 791860.000000 1 0 0
0.614877 4.274103 -14.608494 15.233323 1.427915 2.854188 0.020072 -0.006799 407226.000000 1 0 0
4.035977 -7.654497 -15.683694 17.912529 -1.085572 2.637413 0.026680 -0.014256 -380330.000000 1 0 0
11.820777 -5.779797 -14.320594 19.447783 -0.454770 2.398473 0.070551 -0.015718 -1734130.000000 1 0 0
-5.776423 4.187603 -17.007194 18.443095 -0.627274 2.744384 0.012043 -0.003026 131678.000000 1 0 0
11.386977 7.884103 -8.966294 16.498993 0.605593 2.145332 0.044409 -0.018384 -2258520.000000 1 0 0
9.615377 6.120903 -13.192594 17.434606 0.566879 2.429032 0.024920 -0.009429 5632.130000 1 0 0
12.106777 0.763803 -10.237594 15.873430 0.063005 2.271756 0.007608 0.006197 -1259890.000000 1 0 0
5.620977 -7.183297 -13.878794 16.607711 -0.906813 2.560173 0.016059 -0.006243 -159120.000000 1 0 0
8.794877 -10.247497 -10.695994 17.226879 -0.861534 2.240674 0.027461 -0.005427 182101.000000 1 0 0
10.117477 4.850003 -15.750494 19.338148 0.447007 2.522625 0.052847 -0.018969 458142.000000 1 0 0
9.886677 -0.403897 -10.974494 14.776639 -0.040830 2.407878 -0.002427 0.003834 -461464.000000 1 0 0
-1.712323 5.390703 -13.995594 15.095310 -1.263232 2.757526 0.013103 -0.008272 1990820.000000 1 0 0
1.510877 -0.752697 -15.080194 15.174372 -0.462195 3.030123 0.017219 -0.005551 -1030130.000000 1 0 0
11.329177 -10.628597 -14.435094 21.205878 -0.753503 2.319530 0.100599 -0.028690 -780996.000000 1 0 0
9.422177 -7.742497 -10.949694 16.389615 -0.687852 2.302432 0.023968 -0.004354 -40360.000000 1 0 0
13.955277 -0.931797 -9.772494 17.062229 -0.066671 2.180660 0.023342 -0.005112 444559.000000 1 0 0
3.982877 11.314803 -12.202494 17.111077 1.232336 2.364755 0.027685 -0.014924 -1025850.000000 1 0 0
-1.386023 2.771803 -17.371394 17.645659 -1.107114 2.965052 0.019065 -0.001619 731089.000000 1 0 0
6.404977 -0.632097 -17.538194 18.681851 -0.098370 2.789875 0.039461 -0.011045 296743.000000 1 0 0
6.420277 -6.461697 -16.211494 18.595323 -0.788613 2.629671 0.032980 -0.011420 142922.000000 1 0 0
-1.839923 -5.365297 -19.702394 20.502587 1.240434 2.861288 0.030349 -0.022503 -600762.000000 1 0 0
0.009277 -4.276997 -15.214794 15.804517 -1.568627 2.867556 0.008629 -0.008895 -90865.000000 1 0 0
0.607677 0.656403 -13.090594 13.121120 0.823926 3.073367 0.014576 -0.005331 448399.000000 1 0 0
15.909377 0.755403 -13.505394 20.882399 0.047446 2.274093 0.115474 -0.030774 646224.000000 1 0 0
-0.215223 7.011303 -16.389294 17.827329 -1.540109 2.737184 0.022943 -0.005371 -154147.000000 1 0 0
-4.711323 -0.663697 -18.272094 18.881379 0.139952 2.886861 0.012227 -0.005118 -436173.000000 1 0 0
10.455077 -8.467697 -13.223694 18.864693 -0.680756 2.347561 0.035428 -0.013276 580943.000000 1 0 0
4.297377 8.657803 -17.091594 19.635366 1.110066 2.626911 0.054269 -0.023531 -117693.000000 1 0 0
9.589477 0.521003 -17.210294 19.708469 0.054277 2.632616 0.036822 -0.000362 31031.800000 1 0 0
3.328977 5.057503 -18.591294 19.552408 0.988660 2.826747 0.044995 -0.002654 -142061.000000 1 0 0
1.559177 -8.253797 -15.947294 18.024217 -1.384092 2.656798 0.016980 -0.012944 -531258.000000 1 0 0
4.637077 7.621603 -14.734794 17.225141 1.024214 2.597165 0.022801 -0.012180 592420.000000 1 0 0
-5.613323 -0.512597 -15.173194 16.186352 0.091065 2.785903 0.006325 -0.003513 -35058.800000 1 0 0
3.018777 3.288903 -13.816194 14.519543 0.828197 2.829062 0.015669 -0.002356 683266.000000 1 0 0
-2.417323 -10.329897 -18.144394 21.018308 1.340921 2.612502 0.036780 -0.011945 -7159.050000 1 0 0
6.256677 -8.974197 -15.473994 18.950639 -0.961962 2.526192 0.026186 -0.016728 -567111.000000 1 0 0
-1.882323 5.402303 -17.473894 18.386544 -1.235521 2.825197 0.022110 -0.003502 713248.000000 1 0 0
9.937777 -12.345897 -11.872194 19.802262 -0.893047 2.213719 0.060657 -0.013925 558993.000000 1 0 0
10.963077 3.728803 -9.264894 14.830081 0.327849 2.245590 0.006865 -0.005434 -162692.000000 1 0 0
4.890177 -0.532297 -10.912094 11.969586 -0.108423 2.718082 0.005221 -0.000496 -117715.000000 1 0 0
6.257477 9.608203 -11.457894 16.209779 0.993533 2.355832 0.023050 -0.017378 212512.000000 1 0 0
10.886777 -9.454797 -9.411694 17.219033 -0.715117 2.149079 0.035936 -0.010462 -515459.000000 1 0 0
3.309977 -2.409297 -14.532694 15.098340 -0.629199 2.867001 0.014899 -0.005285 -58452.900000 1 0 0
9.705277 -4.717297 -15.079094 18.542502 -0.452429 2.520457 0.051965 -0.002548 -199594.000000 1 0 0
-3.926123 -6.581297 -16.617394 18.299336 1.032912 2.709490 0.006844 -0.007495 -239851.000000 1 0 0
5.885977 -7.735197 -11.355694 14.947568 -0.920334 2.433651 0.006659 -0.002451 169587.000000 1 0 0
5.468877 6.347003 -16.805694 18.778297 0.859579 2.679122 0.037951 -0.011209 -665369.000000 1 0 0
9.305677 1.422903 -19.554594 21.702591 0.151732 2.692925 0.055630 -0.017133 263811.000000 1 0 0
13.270977 5.910203 -9.238994 17.216514 0.418979 2.137241 0.026060 -0.016458 1127090.000000 1 0 0
-1.612623 -0.972097 -17.289294 17.391527 0.542479 3.033111 0.028901 -0.011697 738174.000000 1 0 0
-0.542823 -0.437597 -19.513294 19.525747 0.678480 3.105876 0.038328 -0.020338 211686.000000 1 0 0
2.867177 6.435403 -16.493994 17.935634 1.151664 2.737912 0.030673 -0.003657 476335.000000 1 0 0
7.674077 3.757803 -15.601194 17.787912 0.455353 2.640519 0.018613 -0.003065 -514795.000000 1 0 0
3.166377 -9.986497 -14.857294 18.179529 -1.263757 2.527426 0.013403 -0.004547 -524251.000000 1 0 0
8.908177 -10.571897 -13.412294 19.261627 -0.870598 2.341057 0.052056 -0.018873 753983.000000 1 0 0
3.984177 0.084203 -14.982494 15.503416 0.021131 2.881630 0.015444 -0.004330 -2927510.000000 1 0 0
-1.017223 -2.944997 -18.980194 19.234228 1.238219 2.978887 0.038532 -0.013085 511873.000000 1 0 0
9.395577 10.203703 -12.964894 18.986335 0.826607 2.322458 0.091094 -0.036008 67120.000000 1 0 0
4.719077 2.026203 -10.728994 11.894810 0.405561 2.695152 0.000698 0.001427 77589.000000 1 0 0
-0.336023 6.979503 -18.937994 20.185986 -1.522689 2.788117 0.032818 -0.005341 179925.000000 1 0 0
0.855777 -1.773597 -17.720394 17.829481 -1.121239 3.030917 0.034874 -0.012703 -2371170.000000 1 0 0
-4.405423 -2.390297 -14.078394 14.943977 0.497129 2.799570 0.010708 -0.006198 -3071250.000000 1 0 0
10.075777 6.107203 -10.370094 15.695798 0.544913 2.292537 0.015605 -0.005274 341943.000000 1 0 0
8.303377 5.367103 -17.534794 20.130099 0.573823 2.628180 0.057485 -0.017985 49855.000000 1 0 0
11.558477 0.283803 -13.619194 17.865089 0.024549 2.437711 0.016203 0.007883 507257.000000 1 0 0
6.767177 12.028703 -11.853694 18.193253 1.058342 2.280414 0.062125 -0.034156 -339702.000000 1 0 0
-0.736323 0.479903 -15.300994 15.326216 -0.577609 3.084215 0.019986 -0.009551 -1680580.000000 1 0 0
-4.330523 -3.142497 -19.136394 19.870337 0.627742 2.868953 0.020967 -0.001675 387690.000000 1 0 0
5.795677 -12.111897 -13.903194 19.328392 -1.124487 2.373612 0.019354 -0.013165 -329256.000000 1 0 0
2.264877 -4.661197 -13.974194 14.904178 -1.118492 2.786466 0.010633 -0.007092 -218548.000000 1 0 0
11.925377 2.115203 -15.343994 19.548066 0.175544 2.473390 0.056047 -0.009799 394312.000000 1 0 0
9.852377 2.298903 -13.700294 17.030924 0.229233 2.505522 0.013843 -0.003364 -280987.000000 1 0 0
-2.158023 -4.173297 -16.449794 17.107577 1.093560 2.863389 0.003944 -0.009753 -1936550.000000 1 0 0
-2.946723 10.029803 -14.266594 17.686601 -1.285040 2.509229 0.008065 -0.010581 23868.500000 1 0 0
3.454577 5.749803 -13.441194 15.021986 1.029777 2.678708 0.018464 -0.002131 -81564.500000 1 0 0
-5.083823 -2.614697 -16.634194 17.589153 0.475036 2.810561 0.009043 -0.000967 381913.000000 1 0 0
-4.338123 6.101103 -13.689794 15.602988 -0.952700 2.641176 0.004223 -0.002957 116033.000000 1 0 0
6.047677 -1.184397 -14.401294 15.664434 -0.193395 2.737254 0.011003 0.006882 -1241190.000000 1 0 0
6.680077 -2.897497 -12.557394 14.515753 -0.409260 2.616121 0.007335 -0.002491 743474.000000 1 0 0
2.797277 -3.368697 -18.331694 18.847384 -0.877807 2.907127 0.046893 -0.020851 551813.000000 1 0 0
7.382377 -11.967997 -11.915194 18.431069 -1.018084 2.273749 0.025327 -0.014348 -2381530.000000 1 0 0
-5.861123 -5.478697 -17.979294 19.688167 0.751687 2.721873 0.028319 -0.000595 224279.000000 1 0 0
0.422177 8.752203 -11.977794 14.840716 1.522597 2.510003 0.006532 -0.003262 305094.000000 1 0 0
0.386977 8.567303 -14.489794 16.837535 1.525658 2.607174 0.013720 -0.005393 359562.000000 1 0 0
7.905477 -2.829997 -14.810294 17.024990 -0.343765 2.625826 0.021164 -0.019213 -856075.000000 1 0 0
14.247277 1.645003 -8.905094 16.881696 0.114952 2.126451 0.021203 -0.004061 174104.000000 1 0 0
2.766477 10.804603 -14.580194 18.356877 1.320135 2.488591 0.019735 -0.008677 -211801.000000 1 0 0
6.336477 1.081703 -15.516594 16.795408 0.169081 2.748841 0.021867 -0.003002 661034.000000 1 0 0
16.436877 -5.343497 -10.381394 20.161777 -0.314315 2.111693 0.097152 -0.018140 208224.000000 1 0 0
4.884877 -4.267397 -11.191294 12.935137 -0.718033 2.616317 0.006009 -0.001213 -782778.000000 1 0 0
8.974377 -3.340097 -17.064794 19.567905 -0.356297 2.630235 0.046813 -0.019775 242633.000000 1 0 0
13.455477 -9.451797 -8.814594 18.656994 -0.612368 2.062871 0.058144 -0.014489 584329.000000 1 0 0
2.339477 -7.838797 -13.587494 15.860009 -1.280763 2.599661 0.000179 0.000436 432958.000000 1 0 0
-6.770323 -2.253897 -18.535794 19.861848 0.321368 2.774114 0.015829 -0.009452 -453552.000000 1 0 0
-1.400123 -6.454697 -15.808894 17.133143 1.357190 2.745844 0.008028 -0.005038 511936.000000 1 0 0
1.649277 -7.281397 -18.407994 19.864368 -1.348049 2.756288 0.037589 -0.019978 -265587.000000 1 0 0
5.342077 10.982103 -14.456294 18.924292 1.118060 2.440134 0.065912 -0.033350 -240425.000000 1 0 0
5.349077 -3.467697 -17.537194 18.659870 -0.575165 2.792943 0.026685 -0.015880 -805622.000000 1 0 0
3.840877 13.080903 -14.106094 19.617448 1.285199 2.373243 0.048080 -0.022443 40505.900000 1 0 0
9.475777 10.468803 -15.446294 20.927834 0.835146 2.401008 0.119032 -0.044211 234237.000000 1 0 0
2.641877 3.923503 -16.303494 16.975786 0.978183 2.859220 0.028796 -0.004700 874977.000000 1 0 0
16.737777 2.071503 -11.408694 20.361793 0.123136 2.165543 0.122739 -0.020279 1317590.000000 1 0 0
9.961777 -3.736897 -10.624694 15.036141 -0.358879 2.355493 0.013326 0.000770 263281.000000 1 0 0
14.595177 -2.167197 -11.862394 18.932310 -0.147410 2.247939 0.075490 -0.014794 -339316.000000 1 0 0
-2.641323 -8.704097 -16.102094 18.493656 1.276171 2.627384 0.012698 -0.001424 -474630.000000 1 0 0
13.940977 8.400303 -8.893794 18.547656 0.542301 2.070893 0.075120 -0.021960 637666.000000 1 0 0
-8.106423 -0.045297 -16.503894 18.387351 0.005588 2.685018 0.001367 -0.004845 -484203.000000 1 0 0
-3.382323 3.789503 -15.983494 16.771182 -0.842112 2.833895 0.012987 -0.003235 237908.000000 1 0 0
15.176077 4.070103 -9.603594 18.414888 0.262026 2.119419 0.047599 -0.013970 851563.000000 1 0 0
5.443377 1.042303 -13.060894 14.188154 0.189191 2.740281 0.008110 0.003520 235315.000000 1 0 0
7.923577 -7.581597 -13.006794 17.012948 -0.763346 2.441098 0.032608 -0.009725 -3906600.000000 1 0 0
3.291177 -6.156797 -11.884094 13.782949 -1.079884 2.610455 0.002441 -0.000900 -1409160.000000 1 0 0
-3.393323 3.745003 -18.637694 19.310705 -0.834625 2.876806 0.032375 -0.000166 -1454410.000000 1 0 0
0.832477 5.120303 -17.789294 18.530233 1.409623 2.857851 0.041024 -0.014783 78105.000000 1 0 0
6.403577 7.275503 -10.213294 14.080133 0.849054 2.382367 -0.001399 -0.001226 25507.900000 1 0 0
9.707777 3.769603 -11.612394 15.598031 0.370386 2.410549 0.004691 -0.001477 -168222.000000 1 0 0
4.783077 1.553403 -17.542994 18.249590 0.314024 2.862412 0.031843 -0.003347 30110.400000 1 0 0
2.590677 8.093503 -13.233594 15.727188 1.261009 2.570752 0.012733 -0.003592 -102772.000000 1 0 0
14.342377 -3.377697 -9.667194 17.622919 -0.231290 2.151435 0.047272 -0.006324 -149728.000000 1 0 0
-1.369023 9.311203 -16.207494 18.741814 -1.424813 2.615503 0.011757 -0.003560 -1387420.000000 1 0 0
-5.207923 1.960403 -15.744394 16.698850 -0.360021 2.801858 0.010873 -0.003619 871760.000000 1 0 0
4.667777 4.130003 -11.998394 13.520597 0.724348 2.662505 0.006375 0.000975 237161.000000 1 0 0
9.380477 3.078503 -17.479794 20.075202 0.317107 2.627452 0.040967 -0.013649 588545.000000 1 0 0
-4.458323 14.256803 -13.397394 20.065474 -1.267715 2.301890 0.017288 -0.006224 -270817.000000 1 0 0
15.533077 -4.736397 -7.927094 18.070661 -0.295967 2.024917 0.053733 -0.008576 395014.000000 1 0 0
1.083677 9.158803 -16.897394 19.250454 1.453023 2.641975 0.019669 -0.008096 -1011710.000000 1 0 0
0.517777 -3.158397 -12.805894 13.199791 -1.408305 2.896681 0.006785 -0.002986 -196854.000000 1 0 0
7.611677 3.674603 -13.021594 15.524248 0.449760 2.565855 0.005898 0.003854 764401.000000 1 0 0
-2.896423 7.527603 -15.172594 17.183181 -1.203485 2.652993 0.006767 -0.005132 -146572.000000 1 0 0
12.203577 -5.144497 -10.967494 17.195322 -0.398950 2.262459 0.034983 -0.002546 -1106860.000000 1 0 0
0.671477 -4.596497 -20.177194 20.705020 -1.425738 2.915311 0.047733 -0.018719 32777.000000 1 0 0
3.528177 -4.634997 -16.132294 17.151739 -0.920163 2.795081 0.030354 -0.016338 562256.000000 1 0 0
-5.686723 4.065403 -14.395694 16.003198 -0.620652 2.689537 0.000827 -0.002987 804503.000000 1 0 0
12.366277 -7.399397 -9.838394 17.449066 -0.539207 2.169818 0.030178 -0.004142 342478.000000 1 0 0
-1.883123 -1.852097 -14.929894 15.161733 0.777092 2.966492 0.013523 -0.005512 534925.000000 1 0 0
7.272577 5.959603 -14.272294 17.091098 0.686496 2.559060 0.029087 0.000196 -629376.000000 1 0 0
4.186577 -5.579797 -18.485594 19.758005 -0.927097 2.780752 0.054622 -0.020947 102752.000000 1 0 0
7.586077 7.504403 -12.310994 16.291876 0.779986 2.427446 0.019350 -0.016039 111806.000000 1 0 0
12.231877 -2.539897 -11.006994 16.650040 -0.204736 2.293052 0.012576 0.001067 -1043310.000000 1 0 0
7.477777 -0.695997 -10.701894 13.074101 -0.092808 2.529690 -0.001258 0.002858 -1503040.000000 1 0 0
5.431677 4.226203 -14.466994 16.020544 0.661223 2.697562 0.014201 -0.000712 136893.000000 1 0 0
14.819277 3.107503 -12.819894 19.839790 0.206698 2.273353 0.073399 -0.028112 371962.000000 1 0 0
-6.686123 6.485903 -15.892294 18.421080 -0.770199 2.611427 0.010951 -0.001104 495362.000000 1 0 0
-11.262223 3.549303 -16.605794 20.376153 -0.305298 2.523460 0.076200 -0.024893 -918992.000000 1 0 0
-4.971223 6.490103 -17.789494 19.578065 -0.917153 2.710822 0.007055 0.002103 229426.000000 1 0 0
-10.006323 1.543903 -15.576894 18.578207 -0.153086 2.565229 0.042772 -0.015681 -122817.000000 1 0 0
-7.552923 5.853203 -18.153494 20.514775 -0.659284 2.657072 0.020964 -0.003315 -174334.000000 1 0 0
-8.855423 3.782903 -15.908994 18.596370 -0.403720 2.597291 0.010911 0.004304 -605910.000000 1 0 0
8.830477 13.554303 -11.786694 20.015560 0.993375 2.200464 0.136356 -0.056450 -1541350.000000 1 0 0
13.400177 8.945303 -11.550294 19.824039 0.588615 2.192771 0.068865 -0.030975 -17265.300000 1 0 0
8.240877 16.020903 -9.142594 20.203179 1.095709 2.040400 0.092104 -0.032301 -190653.000000 1 0 0
7.073777 13.637903 -13.805894 20.655107 1.092313 2.302853 0.113638 -0.037516 -65974.600000 1 0 0
4.561077 15.912803 -12.471594 20.725863 1.291651 2.216475 0.079982 -0.037241 97220.400000 1 0 0
10.983577 11.155103 -11.162294 19.226859 0.793146 2.190209 0.121225 -0.049777 -698094.000000 1 0 0
15.653277 9.443103 -10.535494 21.099619 0.542818 2.093612 0.143056 -0.017033 -834953.000000 1 0 0
13.475977 10.849703 -9.853394 19.909983 0.677852 2.088513 0.143636 -0.037774 -300706.000000 1 0 0
10.262077 12.075503 -8.374094 17.923545 0.866403 2.056931 0.084882 -0.015509 392940.000000 1 0 0
5.149177 16.145203 -9.924994 19.638919 1.262065 2.100611 0.062408 -0.027595 -157527.000000 1 0 0
6.541077 14.638703 -11.482894 19.721415 1.150578 2.192296 0.075502 -0.026029 -1792340.000000 1 0 0
10.763077 14.362403 -9.773994 20.436571 0.927684 2.069469 0.137778 -0.032606 -540896.000000 1 0 0
8.546477 -18.402197 -1.339594 20.334149 -1.136010 1.636723 0.055795 -0.003469 -121861.000000 1 0 0
7.547677 -17.152797 -3.436894 19.052509 -1.156268 1.752180 0.047231 -0.010901 -572318.000000 1 0 0
4.640277 -18.348297 5.769106 19.785721 -1.323090 1.274919 0.045954 0.001141 211027.000000 1 0 0
10.040677 -16.859297 -2.613294 19.795969 -1.033650 1.703194 0.052709 -0.006124 971002.000000 1 0 0
-9.540523 -12.477897 -10.035494 18.639491 0.918020 2.139333 0.041474 -0.007510 366157.000000 1 0 0
-5.121723 -6.958597 -12.240594 14.982866 0.936297 2.526938 0.004787 0.002673 738304.000000 1 0 0
-10.804123 -9.542597 -5.728294 15.511401 0.723476 1.949047 0.027963 -0.004020 -930363.000000 1 0 0
-4.544223 -11.498397 -14.007694 18.683645 1.194430 2.418451 0.019362 -0.001790 107633.000000 1 0 0
-2.613123 -15.477297 7.376806 17.343367 1.403538 1.131460 0.012842 -0.011148 -60440.600000 1 0 0
-4.498823 -12.007497 -11.488794 17.216613 1.212317 2.301386 0.019598 0.002226 437946.000000 1 0 0
-14.426923 -12.920597 -4.338194 19.846860 0.730373 1.791159 0.077403 -0.009724 -277031.000000 1 0 0
-3.151123 -12.325297 -3.327694 13.149755 1.320495 1.826640 0.015925 -0.003976 538214.000000 1 0 0
-2.343523 -17.292297 -1.560194 17.519984 1.436093 1.659967 0.023633 -0.015161 -606747.000000 1 0 0
-5.890823 -12.297197 3.602206 14.103146 1.124059 1.312516 0.013393 -0.000885 530268.000000 1 0 0
-8.865523 -10.879497 -11.940394 18.426447 0.887046 2.275756 0.023646 0.004076 -363763.000000 1 0 0
-9.490223 -12.336897 -7.429794 17.247179 0.915085 2.016157 0.044509 -0.006125 277731.000000 1 0 0
-10.884023 -15.095097 6.113106 19.588107 0.946095 1.253412 0.057855 -0.027907 -1087350.000000 1 0 0
-9.488723 -15.367797 0.955706 18.086415 1.017650 1.517931 0.043389 -0.016229 -645883.000000 1 0 0
-14.884123 -7.731297 -8.301494 18.714296 0.479072 2.030398 0.039343 -0.007248 -108440.000000 1 0 0
-2.234423 -16.588697 5.018806 17.474722 1.436907 1.279490 0.021684 -0.012258 -575049.000000 1 0 0
4.621477 -15.776197 6.210206 17.573078 -1.285829 1.209601 0.030192 -0.006802 -422025.000000 1 0 0
4.166077 -14.656597 -9.956394 18.201698 -1.293855 2.149577 0.013651 -0.011785 -463373.000000 1 0 0
-7.529323 -13.995897 -0.216894 15.894114 1.077239 1.584443 0.021647 -0.008124 992776.000000 1 0 0
3.057177 -14.931697 9.768706 18.103301 -1.368843 1.000824 0.022830 -0.013629 -970920.000000 1 0 0
2.275177 -17.336297 10.439006 20.364097 -1.440304 1.032565 0.066738 -0.017255 -433390.000000 1 0 0
-8.220323 -17.332497 -4.850794 19.786848 1.127942 1.818473 0.056612 -0.019501 -176216.000000 1 0 0
-6.458023 -9.216797 -7.731894 13.654215 0.959614 2.172763 0.011969 -0.004995 481121.000000 1 0 0
-5.941323 -13.012697 -4.787094 15.084623 1.142485 1.893729 0.008765 -0.008938 333191.000000 1 0 0
2.211377 -19.378597 -4.869994 20.103160 -1.457173 1.815481 0.039512 -0.014252 -69742.000000 1 0 0
-5.540423 -12.956197 8.238006 16.322501 1.166702 1.041759 0.024790 -0.009744 816547.000000 1 0 0
2.402277 -17.387597 3.434706 17.885655 -1.433505 1.377559 0.030728 -0.013988 783794.000000 1 0 0
-17.605523 -10.267697 -2.639594 20.551094 0.527982 1.699593 0.039730 -0.003053 888032.000000 1 0 0
-3.424723 -15.499597 2.525306 16.073064 1.353335 1.413029 0.024079 -0.009141 -177418.000000 1 0 0
-10.155923 -10.437397 -14.126094 20.288631 0.799066 2.340965 0.038853 -0.010151 -278206.000000 1 0 0
6.202977 -14.459097 -5.601494 16.700873 -1.165541 1.912828 0.016852 -0.012427 263232.000000 1 0 0
-7.110023 -12.398997 -10.900594 17.975275 1.050139 2.222349 0.019303 -0.005085 -422916.000000 1 0 0
-7.635223 -14.318497 3.763606 16.657752 1.080910 1.342891 0.035128 -0.008060 1051280.000000 1 0 0
3.317477 -14.899697 -3.109594 15.578068 -1.351716 1.771760 0.018506 -0.008926 -1320680.000000 1 0 0
-7.561923 -11.436897 7.759106 15.754015 0.986597 1.055818 0.023424 -0.011849 -266440.000000 1 0 0
-12.709623 -12.550197 -0.844194 17.881684 0.779087 1.618024 0.026209 0.007111 -623906.000000 1 0 0
-1.837723 -13.665697 3.924006 14.336189 1.437121 1.293545 0.008964 -0.001233 -2429660.000000 1 0 0
-2.947923 -13.983697 5.297006 15.241138 1.363027 1.215843 0.016397 -0.005364 -297088.000000 1 0 0
-14.481223 -10.348597 -4.431394 18.342206 0.620472 1.814806 0.044362 -0.004081 590618.000000 1 0 0
-6.034523 -8.731697 -10.387994 14.851546 0.966065 2.345432 0.008622 -0.001113 229124.000000 1 0 0
1.017077 -19.390697 2.216906 19.543496 -1.518393 1.457117 0.039011 -0.020335 199835.000000 1 0 0
6.465477 -14.060097 -8.281094 17.551787 -1.139785 2.062138 0.020708 -0.013954 -2365660.000000 1 0 0
-3.849523 -16.760497 -5.968994 18.203350 1.345033 1.904883 0.017712 -0.012574 -454771.000000 1 0 0
-3.369523 -13.696397 -13.220294 19.331869 1.329572 2.323837 0.045149 -0.000607 -1028070.000000 1 0 0
-8.077323 -14.641597 -4.550694 17.329983 1.066672 1.836503 0.025309 -0.017120 -434292.000000 1 0 0
-4.478723 -14.513497 9.916806 18.139558 1.271477 0.992384 0.030732 -0.013234 -558360.000000 1 0 0
-0.247623 -12.066397 -9.938494 15.634351 1.550278 2.259690 0.003665 -0.001517 142767.000000 1 0 0
2.515477 -17.174697 6.692806 18.603534 -1.425366 1.202786 0.034373 -0.018505 -1118050.000000 1 0 0
-2.832923 -19.209897 -3.384494 19.710413 1.424380 1.743363 0.035906 -0.019236 -227208.000000 1 0 0
0.743077 -15.354097 -3.152194 15.691933 -1.522438 1.773052 0.015855 -0.007872 -410902.000000 1 0 0
6.073477 -17.701197 0.482006 18.720358 -1.240272 1.545046 0.026915 -0.006647 -353713.000000 1 0 0
-6.754123 -16.600297 3.939106 18.349511 1.184384 1.354441 0.041024 -0.018047 393591.000000 1 0 0
-5.128723 -13.608797 -9.549194 17.397996 1.210389 2.151805 0.024112 -0.007743 -104856.000000 1 0 0
5.786077 -15.098297 -2.099194 16.304719 -1.204832 1.699902 0.025736 -0.004120 -666851.000000 1 0 0
-8.852523 -10.250897 -0.511994 13.553973 0.858468 1.608580 0.010712 0.004282 -695807.000000 1 0 0
-7.351423 -18.720497 -1.988294 20.210238 1.196604 1.669336 0.058860 -0.027167 -731611.000000 1 0 0
8.040577 -15.891997 -1.129694 17.846082 -1.102399 1.634141 0.026355 -0.002855 -613190.000000 1 0 0
-7.918423 -10.218397 -9.644994 16.128948 0.911537 2.211791 0.022396 -0.003401 -489629.000000 1 0 0
-8.874023 -15.869797 -6.706194 19.379674 1.060935 1.924146 0.059302 -0.009515 486056.000000 1 0 0
-11.507923 -10.450097 -11.872194 19.559801 0.737260 2.223038 0.057446 -0.000284 769942.000000 1 0 0
6.738677 -16.215397 2.482806 17.734520 -1.176938 1.430336 0.026572 -0.002205 -3427.740000 1 0 0
-2.189423 -11.188197 -6.126494 12.942305 1.377548 2.063909 0.006367 -0.003131 -247526.000000 1 0 0
-12.546723 -15.224097 -3.362194 20.012439 0.881511 1.739602 0.064110 -0.023264 -2517.150000 1 0 0
-0.231823 -19.583697 -2.952894 19.806426 1.558959 1.720442 0.049635 -0.022449 -210066.000000 1 0 0
-5.749823 -15.637497 -4.679694 17.305817 1.218446 1.844617 0.018203 -0.013284 -2968570.000000 1 0 0
2.101777 -15.813097 -1.062794 15.987527 -1.438657 1.637322 0.023075 -0.013625 844439.000000 1 0 0
-13.255723 -11.924897 5.189206 18.570008 0.732596 1.287585 0.033482 -0.011468 167926.000000 1 0 0
2.131477 -15.142297 -8.729394 17.607801 -1.430952 2.089516 0.021647 -0.007617 -1942740.000000 1 0 0
-11.514223 -16.894197 0.115606 20.445160 0.972561 1.565142 0.068158 -0.030922 -40123.300000 1 0 0
-8.186523 -16.448797 -1.044494 18.403071 1.108993 1.627583 0.054888 -0.023591 416340.000000 1 0 0
-2.998023 -14.455797 -1.843294 14.878035 1.366303 1.695009 0.015053 -0.003859 161215.000000 1 0 0
-1.766723 -10.438097 -13.288794 16.990210 1.403128 2.468896 0.007305 0.001659 -344011.000000 1 0 0
1.682077 -19.546997 4.746806 20.185307 -1.484955 1.333412 0.056553 -0.026177 84149.800000 1 0 0
-17.583923 -9.455597 2.336306 20.101268 0.493383 1.454306 0.043917 -0.005051 291195.000000 1 0 0
-2.695723 -15.670697 -8.146394 17.866208 1.400441 2.044254 0.014185 -0.003501 38691.500000 1 0 0
-10.324323 -12.281397 0.119806 16.044896 0.871757 1.563329 0.015108 0.003322 122477.000000 1 0 0
-6.783823 -11.512397 -6.629894 14.916803 1.038310 2.031366 0.020105 -0.005116 231227.000000 1 0 0
-2.224423 -13.635797 -6.717694 15.362631 1.409090 2.023363 0.001638 -0.002943 633049.000000 1 0 0
-14.140723 -14.816997 -0.663294 20.492520 0.808748 1.603170 0.052860 -0.007968 -556130.000000 1 0 0
-9.607023 -11.365797 -4.484794 15.543153 0.869062 1.863496 0.024428 -0.002281 1175370.000000 1 0 0
9.430077 -15.055897 -5.107094 18.484826 -1.011236 1.850724 0.030213 -0.007980 21047.100000 1 0 0
-5.496223 -11.037097 -9.387394 15.496746 1.108768 2.221524 0.019527 -0.005483 -341598.000000 1 0 0
-10.315323 -15.998497 -4.462194 19.551699 0.998108 1.801051 0.068826 -0.021046 -1459470.000000 1 0 0
2.440177 -17.282997 -3.290294 17.761826 -1.430534 1.757118 0.029765 -0.011810 570862.000000 1 0 0
-0.314923 -14.478997 -8.236294 16.660644 1.549049 2.087890 0.006377 -0.001354 -984537.000000 1 0 0
-0.500423 -18.362397 -7.064394 19.680795 1.543550 1.937938 0.034714 -0.009130 109542.000000 1 0 0
-1.739823 -9.930497 -10.644394 14.660999 1.397357 2.383334 -0.000315 0.001950 404025.000000 1 0 0
-4.991623 -17.332897 2.146606 18.164623 1.290398 1.452344 0.047265 -0.018347 -377200.000000 1 0 0
0.319877 -12.800797 -2.745194 13.095755 -1.545813 1.781987 0.005367 -0.004648 -1764500.000000 1 0 0
2.648477 -14.857097 3.038706 15.394203 -1.394386 1.372099 0.021315 -0.005662 -1130320.000000 1 0 0
-9.418223 -13.151197 6.836706 17.561248 0.949314 1.170918 0.030395 -0.011541 -357967.000000 1 0 0
-0.960723 -17.850097 -4.555994 18.447385 1.517027 1.820351 0.036285 -0.012976 56426.700000 1 0 0
-9.786123 -18.117997 -2.374194 20.728406 1.075560 1.685586 0.071767 -0.013581 329423.000000 1 0 0
1.409977 -16.110697 1.421606 16.234640 -1.483501 1.483118 0.016524 -0.010411 869103.000000 1 0 0
-0.202123 -17.943997 3.992206 18.383840 1.559533 1.351894 0.034034 -0.016802 248382.000000 1 0 0
-17.389723 -9.257197 -0.221194 19.701448 0.489181 1.582024 0.011319 -0.000237 840679.000000 1 0 0
-14.594023 -7.245497 -10.849594 19.575403 0.460820 2.158253 0.058369 -0.017929 257913.000000 1 0 0
3.030277 -12.624097 -8.821194 15.695983 -1.335214 2.167602 0.000478 -0.002682 517360.000000 1 0 0
-11.934323 -14.887697 1.679006 19.154389 0.895066 1.483027 0.041541 -0.011566 -49916.900000 1 0 0
-2.154023 -15.702797 10.519206 19.022916 1.434473 0.984865 0.026494 -0.011340 772416.000000 1 0 0
-7.008123 -15.991597 1.281906 17.506805 1.157767 1.497507 0.044064 -0.016061 -884757.000000 1 0 0
-12.528523 -15.425697 -5.856594 20.717521 0.888669 1.857392 0.067000 -0.008010 1160140.000000 1 0 0
1.066277 -13.723697 -5.111994 14.683640 -1.493256 1.926385 0.008259 -0.003650 363970.000000 1 0 0
6.102077 -16.283497 -7.269994 18.847823 -1.212254 1.966785 0.052075 -0.030331 151807.000000 1 0 0
-6.563023 -13.028197 5.868006 15.723888 1.104149 1.188351 0.023595 -0.005706 420463.000000 1 0 0
-2.524923 -13.505597 0.480106 13.747977 1.385976 1.535867 0.015271 -0.003389 996410.000000 1 0 0
-4.231823 -15.548597 0.143206 16.114828 1.305065 1.561910 0.026134 -0.011978 305345.000000 1 0 0
-17.717223 -7.632097 -2.256694 19.422707 0.406750 1.687248 0.018572 -0.003062 574934.000000 1 0 0
1.423977 -12.640197 -11.833894 17.373639 -1.458615 2.320116 0.012535 -0.003922 -555700.000000 1 0 0
1.330977 -17.025897 -5.719994 18.010302 -1.492781 1.893989 0.036405 -0.012605 506286.000000 1 0 0
-12.779023 -6.529497 -9.181194 17.036199 0.472373 2.139954 0.035674 -0.008344 81966.200000 1 0 0
-11.384623 -13.699297 -8.546894 19.756765 0.877415 2.018178 0.063123 -0.020116 67015.100000 1 0 0
-4.385423 -9.977597 3.349506 11.401910 1.156686 1.272631 0.010147 0.000601 -3068110.000000 1 0 0
-7.053523 -14.558697 9.535806 18.778696 1.119635 1.038168 0.033421 -0.014052 -681120.000000 1 0 0
-5.264823 -16.003497 -8.183594 18.729695 1.252969 2.022981 0.025516 -0.011004 -1045190.000000 1 0 0
-0.246023 -13.489297 2.075206 13.650206 1.552560 1.418177 0.011685 -0.006806 1054060.000000 1 0 0
-11.025923 -13.525497 -4.830194 18.106375 0.886858 1.840834 0.066222 -0.011998 -379416.000000 1 0 0
-9.754623 -10.590097 6.687606 15.875354 0.826441 1.135965 0.031367 -0.007793 -156092.000000 1 0 0
-15.640123 -8.183997 -4.944994 18.331509 0.482089 1.843934 0.041590 -0.004606 888779.000000 1 0 0
-14.619623 -7.281997 5.304606 17.172643 0.462124 1.256762 0.022783 -0.007068 -334120.000000 1 0 0
-1.383423 -19.228697 -0.102594 19.278671 1.498974 1.576118 0.049809 -0.021732 -278961.000000 1 0 0
-15.224223 -12.518597 -1.385194 19.758820 0.688180 1.640959 0.034031 0.008644 -177621.000000 1 0 0
-4.339923 -12.075197 -6.814094 14.528496 1.225765 2.058972 0.007039 -0.006196 -2169020.000000 1 0 0
-7.307623 -18.431197 2.285906 19.958350 1.193327 1.456011 0.072518 -0.019691 -641359.000000 1 0 0
-2.430623 -11.797597 -8.676994 14.845250 1.367612 2.195056 0.001606 -0.001166 339955.000000 1 0 0
-1.157123 -20.488597 -5.118094 21.149856 1.514380 1.815215 0.056229 -0.014188 -287540.000000 1 0 0
-5.294223 -8.899397 -13.937594 17.363312 1.034138 2.502611 0.011954 0.001579 463363.000000 1 0 0
-9.075323 -18.704897 0.049706 20.790313 1.119071 1.568406 0.092802 -0.042460 -411417.000000 1 0 0
-17.194523 -7.246997 5.483506 19.448378 0.398878 1.284968 0.044732 -0.011957 430660.000000 1 0 0
-3.444123 -14.708197 -4.370594 15.725620 1.340777 1.852433 0.012333 -0.007759 -2716740.000000 1 0 0
-2.840923 -14.904897 -10.947894 18.710510 1.382452 2.195824 0.023374 -0.003249 -18950.700000 1 0 0
0.042177 -16.637197 6.189306 17.751214 -1.568261 1.214645 0.042171 -0.018365 -843026.000000 1 0 0
-11.216123 -11.627597 3.821106 16.601303 0.803409 1.338545 0.023806 -0.004517 -1093820.000000 1 0 0
-0.157523 -14.572597 -0.221694 14.575134 1.559987 1.586007 0.016737 -0.006170 1421620.000000 1 0 0
-7.327323 -9.632997 -2.591194 12.377341 0.920515 1.781706 0.012750 -0.000989 321464.000000 1 0 0
-11.176823 -14.540397 -0.849594 18.359366 0.915451 1.617089 0.043307 -0.011783 -375279.000000 1 0 0
0.504877 -14.570697 -10.667594 18.065372 -1.536160 2.202474 0.009114 -0.004754 -250900.000000 1 0 0
-1.313523 -14.167397 -3.916394 14.757324 1.478346 1.839401 0.008030 -0.001656 -2094580.000000 1 0 0
-11.469523 -8.177997 -7.646594 16.028100 0.619411 2.068119 0.028244 -0.004440 788950.000000 1 0 0
-0.046723 -17.139997 -0.254094 17.141944 1.568070 1.585620 0.023159 -0.015676 1689480.000000 1 0 0
-12.891023 -9.522297 4.528006 16.653991 0.636215 1.295443 0.020654 -0.008374 317025.000000 1 0 0
4.150377 -16.647997 1.681106 17.239708 -1.326475 1.473128 0.026302 -0.010342 1836800.000000 1 0 0
-3.580323 -18.007197 -8.149594 20.087153 1.374529 1.988554 0.042516 -0.016866 159552.000000 1 0 0
-13.416223 -11.186297 2.606706 17.661347 0.695007 1.422661 0.013958 -0.005152 -1091880.000000 1 0 0
-8.565223 -12.188697 4.227206 15.485368 0.958248 1.294306 0.027125 -0.008904 848949.000000 1 0 0
-8.249923 -9.576697 -5.898394 13.948670 0.859688 2.007400 0.015901 -0.006078 -899234.000000 1 0 0
3.914277 -17.544097 -5.388394 18.765705 -1.351281 1.862037 0.023455 0.002147 106180.000000 1 0 0
-2.609223 -13.190197 11.245006 17.528248 1.375502 0.874297 0.017027 -0.011377 953847.000000 1 0 0
0.255177 -16.787997 -9.435794 19.259703 -1.555598 2.082799 0.031744 -0.008441 33830.900000 1 0 0
-7.046923 -10.841497 -14.571294 19.481268 0.994424 2.415786 0.017338 0.009444 -240032.000000 1 0 0
-4.449723 -18.882697 -1.555894 19.462196 1.339368 1.650826 0.051092 -0.029217 -327974.000000 1 0 0
-2.450323 -17.310997 1.117906 17.519258 1.430183 1.506943 0.037059 -0.018561 972843.000000 1 0 0
4.147977 -14.474597 -7.293594 16.730696 -1.291706 2.021880 0.023073 -0.016876 67366.400000 1 0 0
-0.986423 -15.908897 -6.201894 17.103494 1.508871 1.941863 0.015159 -0.002253 -315379.000000 1 0 0
-9.604823 -15.123997 8.366506 19.773374 1.004987 1.133911 0.048833 -0.025078 -596895.000000 1 0 0
-7.238423 -12.114397 -1.748694 14.220102 1.032213 1.694082 0.013650 -0.001762 633248.000000 1 0 0
-7.319323 -14.967597 -9.249994 19.056858 1.115978 2.077605 0.044637 -0.019383 -583894.000000 1 0 0
-4.994523 -13.196797 -0.586994 14.122509 1.208992 1.612373 0.022055 -0.004187 2059760.000000 1 0 0
-6.270423 -13.852097 -7.263994 16.851243 1.145725 2.016470 0.018994 -0.011907 998988.000000 1 0 0
5.890977 -15.143897 0.313406 16.252367 -1.199808 1.551511 0.018219 -0.003804 287562.000000 1 0 0
-14.546423 -12.859697 1.028306 19.442932 0.723930 1.517883 0.021339 -0.002392 1007490.000000 1 0 0
0.856577 -15.281097 11.070506 18.889196 -1.514800 0.944589 0.016095 -0.011345 -16571.500000 1 0 0
-9.400023 -10.993897 1.972406 14.598513 0.863394 1.435272 0.014873 0.003625 220847.000000 1 0 0
-9.481523 -8.884097 -3.687894 13.506554 0.752880 1.847353 0.010976 0.001355 -1091430.000000 1 0 0
-12.123723 -7.286197 -12.346394 18.775164 0.541145 2.288414 0.051393 -0.013430 -758082.000000 1 0 0
-13.276423 -8.424097 -0.750594 15.741416 0.565413 1.618497 0.006625 0.001154 -863226.000000 1 0 0
-11.282223 -9.777597 0.447906 14.936216 0.714074 1.540804 0.005463 0.005236 1318040.000000 1 0 0
-15.886023 -12.020597 3.040906 20.152111 0.647761 1.419320 0.050086 -0.011594 -565288.000000 1 0 0
-10.516723 -12.532097 -2.398094 16.534986 0.872616 1.716341 0.038112 -0.007791 842420.000000 1 0 0
-3.328923 -8.911097 -12.281194 15.534385 1.213280 2.482554 0.004481 0.004121 -433146.000000 1 0 0
-0.204523 -15.557897 3.814206 16.019929 1.557651 1.330396 0.023476 -0.009506 -745641.000000 1 0 0
-15.756923 -7.809397 1.165406 17.624570 0.460135 1.504624 0.003427 0.000616 434944.000000 1 0 0
-5.940123 -13.557997 -13.210494 19.839896 1.157860 2.299436 0.016790 0.001774 212529.000000 1 0 0
-15.483423 -10.473797 1.099406 18.725530 0.594747 1.512051 0.016040 0.004413 532736.000000 1 0 0
-9.865323 -8.574797 -12.521494 18.100816 0.715527 2.334725 0.027851 -0.004109 456110.000000 1 0 0
-13.252323 -11.688597 -6.319494 18.766549 0.722783 1.914252 0.057747 -0.005522 -39438.500000 1 0 0
-12.263223 -11.516097 -3.891994 17.267158 0.753989 1.798149 0.043779 -0.001742 -701763.000000 1 0 0
-11.426423 -11.129797 -8.759094 18.197726 0.772248 2.072967 0.049343 -0.016724 183491.000000 1 0 0
-13.290423 -8.607997 -5.947794 16.914763 0.574746 1.930112 0.030826 -0.004030 -1251160.000000 1 0 0
-13.500323 -8.243997 -3.337294 16.166624 0.548215 1.778722 0.019386 0.000239 432880.000000 1 0 0
-4.289423 -16.962697 -3.260694 17.797875 1.323115 1.755044 0.021417 -0.019276 469979.000000 1 0 0
-15.497023 -9.005597 -1.848194 18.018721 0.526420 1.673548 0.018404 0.000587 -1450000.000000 1 0 0
-9.273723 -16.282997 3.784906 19.117098 1.053079 1.371494 0.038616 -0.006003 -1118070.000000 1 0 0
4.663877 -17.463897 8.272206 19.878854 -1.309828 1.141610 0.052040 -0.010029 -9536.970000 1 0 0
-8.200523 -15.485497 6.071306 18.544809 1.083780 1.237261 0.033723 -0.012415 1039400.000000 1 0 0
1.048777 -15.997597 8.513606 18.152259 -1.505332 1.082626 0.018460 -0.014012 341258.000000 1 0 0
-10.803323 -7.924697 -10.182294 16.828301 0.632885 2.220650 0.029188 -0.008079 1010090.000000 1 0 0
-4.584623 -15.869997 5.945906 17.556462 1.289567 1.225290 0.028689 -0.017528 -1281330.000000 1 0 0
-1.167523 -13.145997 -12.097294 17.903208 1.482217 2.312718 0.010892 -0.004137 -757900.000000 1 0 0
-6.311023 -14.292697 -2.593294 15.837783 1.154987 1.735278 0.019791 -0.009398 427540.000000 1 0 0
-17.645423 -6.968597 -6.902394 20.188247 0.376123 1.919736 0.051316 -0.019967 222025.000000 1 0 0
-17.207123 -4.112197 -10.253294 20.448112 0.234582 2.096047 0.079745 -0.026509 661777.000000 1 0 0
-15.193223 -5.360497 -9.238394 18.571938 0.339186 2.091440 0.033960 -0.017459 936146.000000 1 0 0
-16.089723 -5.315197 -5.617394 17.851768 0.319061 1.890904 0.021606 -0.008412 -189461.000000 1 0 0
-15.236923 -4.394497 -12.447694 20.159874 0.280791 2.236292 0.082587 -0.024284 5719.770000 1 0 0
-18.665923 -4.948297 -5.580494 20.100851 0.259137 1.852117 0.053988 -0.021329 159238.000000 1 0 0
-17.327123 -4.488097 -7.760294 19.508828 0.253451 1.979896 0.041466 -0.018954 1041610.000000 1 0 0
12.150277 -7.706597 8.810706 16.871556 -0.565240 1.021341 0.053095 -0.017171 140232.000000 1 0 0
16.037777 -3.276197 1.858406 16.474145 -0.201508 1.457748 0.021633 -0.012013 699113.000000 1 0 0
12.064777 -2.153597 12.505306 17.509412 -0.176642 0.775309 0.048057 -0.012440 -208037.000000 1 0 0
9.846577 -9.967397 5.288206 14.975620 -0.791496 1.209891 0.009923 -0.006889 224323.000000 1 0 0
17.063777 -1.890197 7.312706 18.660681 -0.110323 1.168125 0.087658 -0.023249 -38880.800000 1 0 0
5.116077 -12.833697 9.042806 16.512127 -1.191459 0.991248 0.010571 -0.000905 -75013.200000 1 0 0
15.291177 -8.919097 -2.201794 17.838674 -0.528038 1.694540 0.026411 -0.007171 540170.000000 1 0 0
11.119977 -8.391097 6.510806 15.377093 -0.646436 1.133591 0.020902 -0.013998 -1547150.000000 1 0 0
20.043077 -3.110297 3.759806 20.628501 -0.153953 1.387509 0.123234 -0.033544 -243122.000000 1 0 0
13.646377 -8.458297 6.903506 17.476407 -0.554866 1.164708 0.049315 -0.015672 -648937.000000 1 0 0
8.301577 -10.907197 8.798006 16.287665 -0.920223 1.000165 0.014516 -0.007535 -1746040.000000 1 0 0
16.822677 0.245903 -0.665194 16.837619 0.014616 1.610313 0.022568 -0.006144 -1388240.000000 1 0 0
12.495577 -12.194597 2.408406 17.625211 -0.773208 1.433722 0.014996 -0.002137 -1240020.000000 1 0 0
10.317977 -11.555897 3.574806 15.899014 -0.841931 1.344013 0.012387 -0.003209 -1214500.000000 1 0 0
16.388077 3.182503 2.365906 16.861047 0.191809 1.430014 0.035571 -0.005414 -149024.000000 1 0 0
18.328777 -3.099797 0.627506 18.599639 -0.167537 1.537052 0.052133 -0.018999 -54360.500000 1 0 0
13.624677 -11.563397 -0.059394 17.870297 -0.703745 1.574120 0.037176 0.000798 -275621.000000 1 0 0
17.022777 -7.495897 -0.776194 18.616280 -0.414796 1.612503 0.048496 -0.009939 248323.000000 1 0 0
10.215377 -5.761697 9.831406 15.303843 -0.513545 0.873152 0.026852 -0.012103 -13693.600000 1 0 0
11.339277 -13.108497 6.246606 18.423680 -0.857640 1.224886 0.037404 -0.002966 494981.000000 1 0 0
13.077077 -1.691097 10.145406 16.637278 -0.128604 0.914989 0.042909 -0.011221 36064.600000 1 0 0
15.597877 -1.903797 -1.231094 15.761783 -0.121454 1.648982 0.009817 -0.008068 -854029.000000 1 0 0
10.474677 -12.287197 9.155906 18.561376 -0.864860 1.054943 0.064032 -0.019619 328198.000000 1 0 0
14.713277 1.324503 3.263106 15.128870 0.089779 1.353401 0.026109 -0.005677 534831.000000 1 0 0
15.050577 -5.688397 5.358106 16.958391 -0.361356 1.249332 0.042258 -0.018094 -604375.000000 1 0 0
14.351477 -3.163397 -2.951894 14.989518 -0.216954 1.769023 0.012312 -0.003715 647808.000000 1 0 0
14.055077 0.624503 9.502406 16.977365 0.044403 0.976760 0.067249 -0.012256 -62530.600000 1 0 0
15.444677 -3.374997 4.500606 16.437278 -0.215140 1.293450 0.029554 -0.011119 -708373.000000 1 0 0
18.562977 4.882803 -4.357994 19.682937 0.257213 1.794056 0.058351 -0.002473 576127.000000 1 0 0
18.272677 -5.750897 -5.105994 19.825104 -0.304912 1.831284 0.087995 -0.019695 717530.000000 1 0 0
17.358577 0.022803 5.766706 18.291408 0.001314 1.250057 0.084411 -0.016096 969459.000000 1 0 0
17.112777 -6.585297 4.072306 18.782890 -0.367350 1.352251 0.063405 -0.024035 -160765.000000 1 0 0
9.824877 -6.711697 14.249306 18.563884 -0.599316 0.695736 0.061577 -0.016366 77689.400000 1 0 0
8.588777 -12.168497 5.098506 15.742750 -0.956174 1.240986 0.008697 -0.006228 -1858570.000000 1 0 0
16.967677 -10.021497 -0.497094 19.712422 -0.533496 1.596016 0.047256 -0.004783 292198.000000 1 0 0
14.928877 -8.707597 0.329906 17.285903 -0.528029 1.551710 0.031151 -0.010973 139732.000000 1 0 0
10.116477 -12.855597 1.490906 16.426572 -0.904075 1.479909 0.016822 -0.002814 786307.000000 1 0 0
17.128377 -8.258397 8.947506 21.015239 -0.449264 1.130992 0.091537 -0.019558 719950.000000 1 0 0
19.090577 -0.119997 -1.930994 19.188363 -0.006286 1.671601 0.082298 -0.007507 -303809.000000 1 0 0
13.620377 -1.149697 7.631806 15.655061 -0.084210 1.061575 0.032756 -0.012207 486375.000000 1 0 0
12.869277 -9.650497 -3.079794 16.377897 -0.643428 1.759968 0.023062 -0.007490 -494996.000000 1 0 0
9.067877 -15.167597 1.530706 17.737684 -1.031963 1.484392 0.029732 0.005279 1677450.000000 1 0 0
11.479777 -8.262597 11.181006 18.029716 -0.623860 0.901871 0.067964 -0.022039 -30669.400000 1 0 0
14.010077 -3.978997 -0.437194 14.570718 -0.276723 1.600806 0.012717 -0.007276 -935899.000000 1 0 0
7.141177 -13.236797 10.659406 18.434536 -1.076055 0.954239 0.028334 -0.002991 487315.000000 1 0 0
15.537077 -6.743597 1.899606 17.043631 -0.409496 1.459109 0.025526 -0.011215 -283087.000000 1 0 0
15.856577 -6.004097 -2.419594 17.127016 -0.361967 1.712544 0.045184 -0.009748 12378.600000 1 0 0
11.345377 -8.444897 3.898806 14.670874 -0.639873 1.301813 0.019586 -0.010729 329691.000000 1 0 0
10.691077 -14.406597 -0.541794 17.948334 -0.932373 1.600987 0.031672 -0.003616 585167.000000 1 0 0
13.465677 -12.696497 4.699606 19.094810 -0.756006 1.322122 0.020246 -0.003476 765183.000000 1 0 0
12.911477 -11.049197 6.645206 18.246911 -0.707832 1.198041 0.034654 -0.009126 -638432.000000 1 0 0
11.033177 -10.450897 1.355106 15.257410 -0.758302 1.481863 0.012511 -0.003798 1043140.000000 1 0 0
14.007477 -7.641997 11.789606 19.839464 -0.499432 0.934463 0.081903 -0.030062 841810.000000 1 0 0
15.430977 -1.840097 -4.922094 16.301167 -0.118686 1.877531 0.029549 -0.003665 -158639.000000 1 0 0
12.951077 -11.344597 -7.066994 18.611090 -0.719372 1.960289 0.041291 -0.007140 -217363.000000 1 0 0
17.712877 -5.241697 2.063106 18.587033 -0.287715 1.459570 0.074796 -0.020482 420121.000000 1 0 0
10.550877 -9.720897 9.136306 17.008496 -0.744478 1.003728 0.041598 -0.015131 -2425660.000000 1 0 0
16.278977 1.854003 10.074506 19.233775 0.113401 1.019499 0.125125 -0.016065 -292698.000000 1 0 0
18.298277 3.856103 0.593106 18.709577 0.207697 1.539090 0.038804 -0.001021 837383.000000 1 0 0
13.300777 -3.934297 5.812606 15.039141 -0.287594 1.173964 0.026114 -0.015986 -1128810.000000 1 0 0
12.164477 -6.064597 6.705606 15.156483 -0.462487 1.112496 0.025932 -0.015180 38138.300000 1 0 0
16.598277 -10.000997 3.601406 19.710222 -0.542279 1.387046 0.027487 -0.017244 656874.000000 1 0 0
16.452577 -8.127297 -5.723494 19.222347 -0.458823 1.873133 0.065393 -0.007943 -123480.000000 1 0 0
13.986277 -0.327697 5.279606 14.953179 -0.023426 1.209940 0.027925 -0.008683 933699.000000 1 0 0
18.341177 -4.283097 5.258206 19.554857 -0.229412 1.298551 0.094855 -0.023465 148402.000000 1 0 0
13.623177 -13.466097 7.281806 20.492716 -0.779600 1.207523 0.059251 -0.007810 -32522.800000 1 0 0
15.152377 -13.529097 -0.860294 20.331530 -0.728862 1.613122 0.047386 0.006226 143528.000000 1 0 0
17.944677 -5.964097 8.124806 20.581408 -0.320874 1.164985 0.103011 -0.020878 -217899.000000 1 0 0
14.261577 3.306603 9.257706 17.321412 0.227828 1.006921 0.065478 -0.017153 -656072.000000 1 0 0
18.827277 3.877003 3.113706 19.472871 0.203086 1.410207 0.081845 -0.006636 198362.000000 1 0 0
14.913077 -10.353597 8.172306 19.909380 -0.606865 1.147821 0.050301 -0.025558 -511399.000000 1 0 0
14.915677 -4.726197 10.443306 18.811619 -0.306853 0.982251 0.082390 -0.024146 166650.000000 1 0 0
18.022677 -7.773997 1.929506 19.722447 -0.407233 1.472807 0.104846 -0.022449 111229.000000 1 0 0
18.511877 -5.699297 -1.873394 19.459733 -0.298663 1.667216 0.064710 -0.017306 701916.000000 1 0 0
14.445677 -12.812297 -5.433094 20.058690 -0.725547 1.845083 0.056041 -0.011148 -663356.000000 1 0 0
15.553877 -1.445497 9.398806 18.230472 -0.092669 1.029141 0.104857 -0.020299 138285.000000 1 0 0
12.953677 -9.998897 10.054106 19.205747 -0.657368 1.019849 0.054878 -0.033454 -1633220.000000 1 0 0
16.724977 2.246703 4.742806 17.529026 0.133533 1.296813 0.070040 -0.011027 -585954.000000 1 0 0
14.986877 2.580203 -0.044094 15.207429 0.170493 1.573696 0.010601 -0.000877 -1078420.000000 1 0 0
15.154177 -9.930697 -6.948794 19.404988 -0.580100 1.937021 0.057886 -0.010709 818320.000000 1 0 0
16.174877 -0.026197 -3.208294 16.490012 -0.001620 1.766605 0.020299 0.000658 -58698.000000 1 0 0
12.029677 2.527103 13.544906 18.291087 0.207062 0.736953 0.091135 -0.014945 -140703.000000 1 0 0
17.866777 -2.868297 9.577006 20.473590 -0.159180 1.084026 0.120297 -0.026573 1647850.000000 1 0 0
8.270377 -18.056397 4.544606 20.373660 -1.141284 1.345841 0.072811 -0.015036 -183444.000000 1 0 0
6.867377 -11.137697 6.628406 14.667819 -1.018268 1.101901 0.008008 -0.005681 -35555.300000 1 0 0
18.117777 2.284203 -1.552394 18.327067 0.125414 1.655603 0.032931 -0.001303 570282.000000 1 0 0
17.617577 -2.273997 3.708406 18.146690 -0.128366 1.364989 0.041694 -0.013892 -475576.000000 1 0 0
12.797177 -13.415397 -1.812294 18.628608 -0.808979 1.668236 0.033356 0.004253 355260.000000 1 0 0
15.009477 -8.039097 4.496306 17.610459 -0.491721 1.312617 0.033390 -0.013250 -349211.000000 1 0 0
11.891877 -3.089197 14.953906 19.354048 -0.254156 0.687791 0.093103 -0.024481 -48128.100000 1 0 0
12.171977 -13.686597 -6.522394 19.442777 -0.843905 1.912896 0.025759 -0.011413 415776.000000 1 0 0
10.770577 -11.919597 -1.285194 16.116260 -0.835994 1.650626 0.022167 -0.006196 -781841.000000 1 0 0
13.272577 -7.952597 2.240206 15.634053 -0.539813 1.427011 0.019253 -0.007645 -1603930.000000 1 0 0
8.713977 -7.871197 10.015206 15.433518 -0.734627 0.864625 0.017400 -0.008609 -2064270.000000 1 0 0
15.753777 -3.718397 8.175406 18.134090 -0.231790 1.103101 0.078271 -0.023312 -656321.000000 1 0 0
10.717577 -17.042697 4.861106 20.711116 -1.009422 1.333876 0.069443 -0.018185 -720497.000000 1 0 0
15.374977 -6.269697 8.403406 18.609574 -0.387200 1.102279 0.073321 -0.016238 -362921.000000 1 0 0
16.647277 -4.891397 -0.234994 17.352603 -0.285783 1.584339 0.026462 -0.010713 -601584.000000 1 0 0
14.029877 -10.365797 3.554506 17.802295 -0.636319 1.369780 0.030214 -0.010135 529639.000000 1 0 0
15.041977 -9.846597 -4.430094 18.516001 -0.579608 1.812398 0.048415 -0.013067 425027.000000 1 0 0
13.602277 -6.518597 0.051406 15.083657 -0.446893 1.567388 0.018368 -0.007469 167851.000000 1 0 0
17.868777 -0.834797 -4.868994 18.539072 -0.046684 1.836548 0.090710 -0.010388 -656030.000000 1 0 0
14.429677 0.429203 -1.565094 14.520652 0.029736 1.678790 0.010083 -0.003591 -2701830.000000 1 0 0
4.787377 -12.815597 11.687606 17.993294 -1.213290 0.863799 0.008843 -0.004347 -980871.000000 1 0 0
12.161877 -7.407097 13.534106 19.645568 -0.547042 0.810807 0.074674 -0.025095 410279.000000 1 0 0
12.205377 -5.755497 11.515706 17.740024 -0.440633 0.864347 0.056869 -0.018313 1147630.000000 1 0 0
13.326777 -4.551897 8.417706 16.406722 -0.329136 1.032045 0.040409 -0.016925 -727443.000000 1 0 0
15.388677 -1.124097 3.158906 15.749720 -0.072917 1.368858 0.024899 -0.004806 169802.000000 1 0 0
15.218677 -10.277097 5.851606 19.273509 -0.593952 1.262318 0.040748 -0.016272 -93219.600000 1 0 0
13.783477 -7.976397 -5.747994 16.930641 -0.524605 1.917184 0.036070 -0.009491 -1409740.000000 1 0 0
9.750577 -2.393197 13.638606 16.935546 -0.240684 0.634574 0.036808 -0.008752 645753.000000 1 0 0
10.100077 -9.142097 13.542206 19.208874 -0.735654 0.788377 0.092717 -0.020026 -261124.000000 1 0 0
20.155577 6.552003 -3.125294 21.422967 0.314297 1.717204 0.136211 -0.008862 453100.000000 1 0 0
11.294277 -3.554697 10.533806 15.847953 -0.304919 0.843732 0.028116 -0.005563 1104470.000000 1 0 0
10.520377 -13.883697 -3.096394 17.692457 -0.922353 1.746714 0.026743 -0.000860 1076430.000000 1 0 0
14.995177 -12.615497 2.525306 19.758119 -0.699424 1.442635 0.028051 0.000511 860537.000000 1 0 0
11.336977 -0.565497 14.491306 18.407737 -0.049839 0.664476 0.075055 -0.015869 244624.000000 1 0 0
19.147177 -1.826697 5.863506 20.108006 -0.095115 1.274897 0.126045 -0.026977 -80589.300000 1 0 0
18.958377 -0.190397 7.880206 20.531779 -0.010043 1.176883 0.144446 -0.027725 -23665.200000 1 0 0
19.123877 0.778503 0.432206 19.144596 0.040686 1.548219 0.063255 -0.012465 335615.000000 1 0 0
18.636577 0.768203 3.631206 19.002574 0.041197 1.378524 0.062261 -0.016078 477262.000000 1 0 0
16.726477 -3.893497 -3.997894 17.632854 -0.228702 1.799515 0.041707 -0.012387 -233226.000000 1 0 0
11.346777 -8.383097 15.734706 21.133069 -0.636300 0.730930 0.119026 -0.025387 499830.000000 1 0 0
16.612777 -7.499897 6.458206 19.337560 -0.424062 1.230282 0.058401 -0.017704 409307.000000 1 0 0
18.999977 2.120803 5.851306 19.993367 0.111161 1.273786 0.104215 -0.013805 247576.000000 1 0 0
15.526677 1.779903 7.601806 17.379103 0.114137 1.118079 0.087271 -0.012899 361666.000000 1 0 0
8.821877 -15.494297 3.944406 18.260807 -1.053209 1.353076 0.026338 -0.011568 407029.000000 1 0 0
11.641377 -14.988597 1.865706 19.069886 -0.910436 1.472804 0.036375 0.003566 -79505.500000 1 0 0
8.689377 -16.065297 6.190506 19.285264 -1.074983 1.244015 0.057148 -0.008219 -38029.000000 1 0 0
14.576777 -11.528197 -2.433394 18.743083 -0.669143 1.700993 0.034894 -0.002755 614506.000000 1 0 0
13.712577 -4.859297 3.289706 14.915418 -0.340561 1.348410 0.019653 -0.007549 -1983500.000000 1 0 0
-1.051323 10.181303 -5.546394 11.641594 -1.467901 2.067385 0.000557 0.006304 -2489840.000000 1 0 0
8.337277 -1.667497 -8.014894 11.684574 -0.197400 2.326688 0.000515 0.000222 -2733240.000000 1 0 0
3.011577 -10.155397 7.646106 13.063867 -1.282508 0.945563 -0.002945 -0.001861 711548.000000 1 0 0
-6.414323 1.361003 8.363006 10.627122 -0.209081 0.664947 -0.000837 -0.001219 184262.000000 1 0 0
7.489277 -6.159097 -7.286894 12.129410 -0.688244 2.215251 0.003995 -0.002234 -191358.000000 1 0 0
-11.319223 -4.551497 -4.122994 12.877888 0.382318 1.896696 0.000348 -0.000677 242618.000000 1 0 0
2.066777 -3.253397 2.847206 4.791945 -1.004848 0.934569 0.004516 -0.002036 1077400.000000 1 0 0
-3.650423 -4.248097 8.886706 10.504544 0.860923 0.562383 0.004380 -0.002877 -1555340.000000 1 0 0
-4.937923 -1.096797 -2.475894 5.631705 0.218569 2.025989 0.005030 -0.003012 -591837.000000 1 0 0
4.975177 -5.118797 -3.695694 8.038198 -0.799625 2.048529 0.009490 -0.003967 285545.000000 1 0 0
2.609477 14.329303 -8.787394 17.010485 1.390663 2.113656 0.013028 -0.004707 -23169.000000 1 0 0
5.496777 -5.654797 13.681506 15.791608 -0.799567 0.522893 0.040494 -0.017348 -1213010.000000 1 0 0
-4.776223 -1.006897 9.841406 10.985418 0.207772 0.460432 0.005077 -0.002478 -2045180.000000 1 0 0
-1.040123 12.018303 -2.561194 12.332120 -1.484467 1.780004 0.000265 0.002991 -1316960.000000 1 0 0
3.161977 9.421203 -10.590194 14.522720 1.246986 2.387971 0.006131 -0.004015 3255.560000 1 0 0
-10.700623 2.560103 1.195006 11.067316 -0.234834 1.462609 -0.007000 0.001689 53913.100000 1 0 0
5.567177 -8.937697 -0.696994 10.552805 -1.013718 1.636893 0.007423 -0.006235 600274.000000 1 0 0
-7.148323 5.482603 9.370206 12.998393 -0.654279 0.765734 -0.003073 -0.000398 -146791.000000 1 0 0
-5.633123 -1.798897 5.199706 7.874328 0.309107 0.849530 0.000292 -0.001022 605232.000000 1 0 0
6.817977 -3.709897 -7.286794 10.646385 -0.498329 2.324629 0.002602 -0.001400 484503.000000 1 0 0
6.239677 4.832203 11.112206 13.629559 0.658955 0.617546 0.003861 -0.004469 484780.000000 1 0 0
3.853577 -9.909297 3.031206 11.055877 -1.199908 1.293068 0.001498 -0.004178 1195250.000000 1 0 0
-6.630423 6.599203 -5.806794 11.010488 -0.783038 2.126319 0.002094 -0.001501 137136.000000 1 0 0
-10.987823 8.467703 5.171306 14.804616 -0.656583 1.213969 -0.004104 -0.005208 157166.000000 1 0 0
-9.174023 -5.578597 5.128206 11.898820 0.546344 1.125213 0.005781 -0.000942 -1203600.000000 1 0 0
3.350277 9.872903 -8.047094 13.170205 1.243649 2.228129 -0.000283 -0.001814 662829.000000 1 0 0
-8.093923 -8.654097 6.112406 13.332909 0.818833 1.094552 0.008829 0.003175 -3111080.000000 1 0 0
-7.794823 -5.738197 -7.481794 12.233700 0.634581 2.228843 0.007313 -0.001098 -563603.000000 1 0 0
9.216777 -1.547297 6.990706 11.671036 -0.166327 0.928571 0.013669 -0.007444 1978370.000000 1 0 0
-4.091923 -0.536497 -4.830594 6.353448 0.130368 2.434588 0.012385 -0.008924 -1441110.000000 1 0 0
9.087277 1.154303 -4.577294 10.240247 0.126347 2.034195 0.003163 0.000464 -3459270.000000 1 0 0
-2.041223 -10.812897 10.535806 15.234452 1.384215 0.807125 0.009943 -0.006917 602082.000000 1 0 0
-12.937023 0.265403 -2.622394 13.202801 -0.020512 1.770750 -0.003882 -0.001328 -137010.000000 1 0 0
-9.820423 -5.310697 -5.998294 12.673742 0.495738 2.063813 0.004822 -0.001189 -1317540.000000 1 0 0
-5.504023 8.143903 -0.208094 9.831619 -0.976466 1.591964 0.002674 -0.000908 -339097.000000 1 0 0
6.362077 9.572703 0.518506 11.505717 0.984222 1.525716 0.004306 0.000837 441411.000000 1 0 0
-0.432223 -11.964297 -0.019694 11.972117 1.534686 1.572441 0.012682 -0.003429 -361534.000000 1 0 0
6.023577 4.657403 2.437406 7.994738 0.658182 1.260988 0.001574 0.000405 292844.000000 1 0 0
3.577677 -7.438297 -8.266994 11.682090 -1.122480 2.356983 -0.000375 -0.002717 806167.000000 1 0 0
-6.627823 -9.974597 4.492206 12.790642 0.984316 1.211933 0.013011 -0.000744 -2694920.000000 1 0 0
-0.040423 6.533403 -9.188794 11.274792 -1.564609 2.523501 0.007378 -0.001444 -1915780.000000 1 0 0
-17.465523 -2.725797 4.341506 18.202283 0.154818 1.329961 0.056766 -0.011429 483561.000000 1 0 0
-8.388923 0.913303 -9.215994 12.495707 -0.108443 2.400206 0.000078 -0.004411 72145.400000 1 0 0
-9.932923 -6.029197 -11.810794 16.568314 0.545544 2.364356 0.011191 -0.001814 92678.400000 1 0 0
2.029777 9.530903 6.428606 11.674120 1.360963 0.987628 -0.002562 0.006604 435568.000000 1 0 0
-11.334723 1.600503 -1.230094 11.513066 -0.140276 1.677844 -0.005591 0.000414 -1838710.000000 1 0 0
-6.069423 -5.435797 -3.063894 8.704782 0.730381 1.930480 0.015478 -0.004581 678627.000000 1 0 0
-7.055723 -8.431097 1.307406 11.071401 0.873975 1.452432 0.010690 0.000147 -83983.000000 1 0 0
-0.082323 10.930203 -7.832894 13.447318 -1.563265 2.192582 0.003025 0.002323 21185.000000 1 0 0
-2.894423 9.267903 -4.224994 10.588782 -1.268088 1.981230 0.004537 0.001670 154349.000000 1 0 0
3.372677 -4.759297 9.355906 11.025372 -0.954288 0.557502 0.009197 -0.004506 -685721.000000 1 0 0
-8.974323 1.519603 -0.425494 9.112009 -0.167737 1.617509 -0.006310 0.000300 -1604670.000000 1 0 0
2.602677 3.517803 -10.538494 11.410904 0.933817 2.748023 0.005247 -0.000777 -2591090.000000 1 0 0
-13.531823 0.516103 0.993706 13.578072 -0.038121 1.497546 -0.003077 -0.003938 1112240.000000 1 0 0
9.581977 -12.505797 -5.117894 16.565086 -0.917006 1.884892 0.029768 -0.008270 -1803380.000000 1 0 0
-4.679223 9.401903 -8.274594 13.370109 -1.108999 2.238122 0.000040 0.004009 223050.000000 1 0 0
-2.406823 7.131603 8.414806 11.289885 -1.245312 0.729751 0.004363 0.000298 -879162.000000 1 0 0
-10.798923 -1.357897 -4.417294 11.746195 0.125087 1.956339 -0.003517 -0.000493 -4598840.000000 1 0 0
2.672277 -7.084497 9.775006 12.364542 -1.210098 0.659061 0.004052 -0.003782 -2105390.000000 1 0 0
-16.172323 -6.559097 3.263906 17.754404 0.385304 1.385908 0.021370 -0.000861 -692296.000000 1 0 0
-10.828623 -0.107797 6.287906 12.522318 0.009954 1.044729 -0.004246 -0.000868 -3474420.000000 1 0 0
-8.464023 9.869603 9.283806 15.976163 -0.861915 0.950712 0.009521 -0.009725 -231912.000000 1 0 0
0.324577 -6.131397 -3.746694 7.192850 -1.517909 2.118691 0.004052 -0.001460 445350.000000 1 0 0
4.920077 1.483403 -2.885494 5.893533 0.292832 2.082431 0.000111 0.000190 186768.000000 1 0 0
0.284777 5.348703 3.875306 6.611181 1.517604 0.944467 0.001563 0.001348 -2360410.000000 1 0 0
6.092577 -11.273197 -1.479294 12.899332 -1.075316 1.685729 0.005356 -0.005443 -1603340.000000 1 0 0
6.356777 -13.470297 5.265706 15.798265 -1.129872 1.230985 0.007835 -0.005373 439308.000000 1 0 0
8.317477 -8.148497 -6.022194 13.108976 -0.775136 2.048110 0.007984 -0.004119 740624.000000 1 0 0
-13.071023 -1.352997 -4.700694 13.956316 0.103144 1.914328 -0.001891 0.000733 -3641920.000000 1 0 0
-6.751223 -1.540197 -7.021494 9.861673 0.224297 2.363136 0.010296 -0.006902 -989998.000000 1 0 0
-5.719423 12.931103 -4.490894 14.835544 -1.154364 1.878333 0.001188 0.009768 256772.000000 1 0 0
-4.327223 6.884003 -6.744494 10.564211 -1.009619 2.263251 0.005982 0.001523 -1271640.000000 1 0 0
-9.493923 -3.738797 -8.035194 12.987591 0.375158 2.237861 0.003709 -0.003852 330319.000000 1 0 0
-2.240223 -6.335697 9.187506 11.382878 1.230929 0.631515 0.006924 -0.000941 -317584.000000 1 0 0
7.439677 -5.953697 10.083706 13.873587 -0.674901 0.757105 0.017306 -0.007423 1375930.000000 1 0 0
9.762677 -4.937097 12.255006 16.427719 -0.468206 0.728768 0.038681 -0.011673 -75685.300000 1 0 0
-6.508423 2.758503 -8.974094 11.423803 -0.400884 2.474399 0.003233 -0.004786 1076770.000000 1 0 0
7.373577 5.432403 8.885006 12.760250 0.634960 0.800562 -0.001815 -0.000957 13624.300000 1 0 0
12.633877 3.386503 11.156406 17.191528 0.261893 0.864596 0.060806 -0.009834 -129778.000000 1 0 0
-7.472323 -7.406997 -3.961694 11.242519 0.781008 1.930915 0.014851 -0.007851 -640614.000000 1 0 0
2.347577 1.536703 -5.891094 6.525149 0.579596 2.697100 0.001181 -0.000465 -643499.000000 1 0 0
12.861677 7.020503 -7.023194 16.249168 0.499649 2.017748 0.016722 -0.006448 463892.000000 1 0 0
0.761377 -7.795897 1.041606 7.901939 -1.473441 1.438595 0.004563 -0.000913 1875180.000000 1 0 0
-10.132923 -6.207497 -8.513594 14.618154 0.549638 2.192473 0.010910 -0.003404 -4791.390000 1 0 0
-6.715523 0.117603 3.129306 7.409766 -0.017510 1.134791 -0.000509 -0.001982 -1170410.000000 1 0 0
10.889677 -7.879197 1.332406 13.507114 -0.626355 1.471991 0.011106 -0.006682 -41237.500000 1 0 0
6.220677 1.016803 10.581306 12.316442 0.162023 0.537248 0.010406 -0.003698 -256198.000000 1 0 0
-12.950123 5.313803 1.862206 14.121260 -0.389378 1.438539 0.000689 -0.001239 -9675.560000 1 0 0
2.028777 7.375503 3.720206 8.506111 1.302365 1.118139 -0.003795 0.002570 -296918.000000 1 0 0
10.424177 -9.377197 -0.832794 14.045954 -0.732573 1.630122 0.009216 -0.005441 971927.000000 1 0 0
6.881677 -11.577497 -9.089194 16.248365 -1.034504 2.164448 0.006487 -0.010528 270176.000000 1 0 0
10.193877 3.621503 12.032006 16.180222 0.341355 0.732321 0.011330 -0.005773 -869233.000000 1 0 0
-11.055823 -3.199697 -1.926594 11.669663 0.281716 1.736650 -0.004558 0.000163 -1786490.000000 1 0 0
12.467277 1.073703 6.967106 14.322235 0.085910 1.062770 0.015831 -0.006494 59195.000000 1 0 0
-9.471123 9.049503 2.952306 13.428022 -0.762637 1.349124 -0.002155 -0.004854 2507240.000000 1 0 0
-6.592423 7.571103 -8.851694 13.384100 -0.854387 2.293425 -0.000884 0.000312 -996348.000000 1 0 0
8.519077 5.546903 12.104306 15.806867 0.577159 0.698570 0.011097 -0.004423 -1501210.000000 1 0 0
1.307477 4.816903 -2.712894 5.680832 1.305747 2.068663 0.001822 0.001098 390169.000000 1 0 0
1.245777 0.436603 9.460206 9.551862 0.337090 0.138644 0.004831 -0.004066 972468.000000 1 0 0
2.647477 12.668803 -3.970194 13.537731 1.364785 1.868441 0.003614 -0.000321 381446.000000 1 0 0
2.006177 0.624103 12.983206 13.152105 0.301601 0.160435 0.006037 -0.009055 -280722.000000 1 0 0
-12.154223 -1.810097 0.832306 12.316424 0.147841 1.503168 -0.006515 0.001193 32620.800000 1 0 0
3.274177 8.713203 -1.274694 9.394945 1.211349 1.706895 0.002836 0.000280 -7191.770000 1 0 0
3.648277 -2.760497 -5.822494 7.404844 -0.647748 2.475608 0.002148 -0.002109 -1837340.000000 1 0 0
-7.941123 -7.202197 9.254306 14.162459 0.736641 0.858677 0.013491 -0.002735 167695.000000 1 0 0
-7.045423 10.926603 -3.460894 13.453863 -0.998089 1.830963 0.004633 0.006765 749149.000000 1 0 0
0.319277 0.519203 2.510206 2.583146 1.019466 0.238205 0.003029 -0.000589 -2019150.000000 1 0 0
-7.145923 4.580703 -2.017494 8.724525 -0.570039 1.804153 0.005217 -0.002698 -414242.000000 1 0 0
-6.832623 -3.937497 -5.790894 9.783817 0.522795 2.204192 0.009766 -0.005072 329850.000000 1 0 0
2.915577 -6.044997 13.490906 15.068082 -1.121399 0.461625 0.020934 -0.011002 -440986.000000 1 0 0
-5.582823 -0.578997 -11.443294 12.745671 0.103341 2.685586 0.014782 -0.003357 -645971.000000 1 0 0
11.921977 2.538603 -0.666294 12.207457 0.209801 1.625404 0.006952 -0.003764 -2151570.000000 1 0 0
6.050177 -10.884197 10.739506 16.444068 -1.063459 0.859135 0.008408 -0.004946 559095.000000 1 0 0
-8.168923 6.255003 -10.457594 14.670298 -0.653478 2.364338 -0.000283 -0.005019 545994.000000 1 0 0
2.879677 7.973303 11.262406 14.096379 1.224210 0.645237 0.005260 -0.001034 1182980.000000 1 0 0
-6.196023 -10.169297 -0.511294 11.919174 1.023576 1.613706 0.016951 0.003734 -328603.000000 1 0 0
11.280077 4.284903 6.120906 13.530190 0.363029 1.101354 0.006218 -0.002637 -105152.000000 1 0 0
-7.881423 10.598203 1.447206 13.286577 -0.931367 1.461657 -0.000577 -0.004458 546107.000000 1 0 0
4.385977 -2.445897 -3.470894 6.104614 -0.508707 2.175562 0.005711 -0.002291 -6087230.000000 1 0 0
6.426977 6.461603 6.163506 11.002143 0.788085 0.976158 0.002260 0.001891 -4673110.000000 1 0 0
-0.361023 10.342803 -10.236094 14.556152 -1.535905 2.350705 -0.000345 0.001074 -340239.000000 1 0 0
14.076477 6.559103 -2.542094 15.736305 0.436048 1.733051 0.019532 0.003479 629772.000000 1 0 0
1.447577 9.495403 -6.257694 11.463721 1.419511 2.148223 0.001547 0.000876 808691.000000 1 0 0
0.646477 7.331303 7.154906 10.264435 1.482843 0.799510 -0.001338 0.001782 251423.000000 1 0 0
12.297777 6.304403 1.972506 13.959642 0.473713 1.429021 0.013599 -0.001332 -541439.000000 1 0 0
-6.885023 6.642403 -3.138594 10.068557 -0.767465 1.887802 0.000929 -0.002486 176029.000000 1 0 0
0.914977 9.881103 11.147906 14.924784 1.478461 0.727350 0.003919 -0.000805 365370.000000 1 0 0
-3.687023 13.658703 -11.031594 17.940189 -1.307141 2.233068 0.001418 0.003796 -7235.260000 1 0 0
-10.106123 -5.713697 -2.312994 11.837651 0.514567 1.767455 0.000524 0.002106 -300147.000000 1 0 0
-4.062223 3.850903 -12.572294 13.762038 -0.758700 2.722722 0.005186 -0.004435 -960815.000000 1 0 0
-3.271423 8.407803 2.453806 9.349574 -1.199727 1.305235 0.004671 0.000004 -2928070.000000 1 0 0
7.010377 8.876603 7.178906 13.396871 0.902331 1.005265 0.004381 0.004924 -554556.000000 1 0 0
-1.359923 -2.211597 -8.177794 8.580027 1.019489 2.834181 0.010376 -0.007752 -616106.000000 1 0 0
0.785477 -1.394597 4.828506 5.086879 -1.057853 0.320088 0.006064 -0.002449 -846380.000000 1 0 0
2.774777 -8.796497 -6.103394 11.060252 -1.265234 2.155355 -0.001062 -0.002186 461338.000000 1 0 0
5.283677 3.889003 8.991506 11.130533 0.634507 0.630346 0.001357 -0.000648 -364243.000000 1 0 0
6.087877 -7.433397 -2.830194 10.016368 -0.884583 1.857255 0.005741 -0.005219 1020650.000000 1 0 0
1.823677 2.391903 -8.343994 8.869568 0.919382 2.795614 0.006625 -0.002903 78877.800000 1 0 0
-5.491823 10.835203 -0.552094 12.160039 -1.101684 1.616214 0.002623 0.000429 723613.000000 1 0 0
-5.497723 3.253703 -3.397294 7.235548 -0.534389 2.059553 0.004994 -0.001872 -502403.000000 1 0 0
1.897277 13.678203 -6.366194 15.205964 1.432968 2.002770 -0.003837 0.004102 690761.000000 1 0 0
-5.284923 -2.584197 2.610606 6.436128 0.454789 1.153142 -0.002241 -0.000068 1122290.000000 1 0 0
10.374777 -3.298397 -1.772094 11.029766 -0.307819 1.732160 0.006592 -0.002091 221682.000000 1 0 0
2.277277 -3.356497 7.088006 8.166510 -0.974668 0.519765 0.004596 -0.003587 -725098.000000 1 0 0
-2.932223 9.868203 -11.651594 15.547959 -1.281967 2.417947 -0.000326 -0.001273 -2836550.000000 1 0 0
0.444577 -2.083397 9.283406 9.524695 -1.360559 0.225569 0.004725 -0.003340 712099.000000 1 0 0
9.423577 2.834303 4.971706 11.025196 0.292161 1.102978 0.005918 -0.004926 -285157.000000 1 0 0
13.466177 2.195803 -5.093394 14.563727 0.161638 1.928081 0.010429 -0.005145 -1313080.000000 1 0 0
-6.521723 3.763503 7.727006 10.789042 -0.523390 0.772468 -0.000949 0.000195 82420.200000 1 0 0
10.628677 0.147403 1.864806 10.792035 0.013868 1.397130 0.009593 -0.004254 2212130.000000 1 0 0
15.339877 6.859503 -4.702494 17.449300 0.420496 1.843665 0.033196 0.000841 383192.000000 1 0 0
8.109977 -4.857997 -9.303294 13.263603 -0.539695 2.348178 0.008010 -0.001130 -696549.000000 1 0 0
4.469477 5.712203 -2.190094 7.576411 0.906853 1.864049 -0.000194 0.001132 40215.600000 1 0 0
-1.603923 -10.309497 1.437606 10.532094 1.416456 1.433871 0.013139 -0.001693 -1225010.000000 1 0 0
-2.969523 12.173703 -12.909894 17.991178 -1.331539 2.371101 0.000873 -0.005092 -780839.000000 1 0 0
8.389677 4.234903 -9.564194 13.408762 0.467461 2.364962 0.001741 -0.000006 -1625720.000000 1 0 0
4.139377 7.685903 -8.934694 12.491450 1.076773 2.367799 0.003209 -0.002506 -2513990.000000 1 0 0
-1.722523 -5.087597 -2.459794 5.907733 1.244338 2.000244 0.008001 -0.003970 459442.000000 1 0 0
-3.324823 -9.191397 7.572406 12.364366 1.223708 0.911656 0.013352 -0.000843 371974.000000 1 0 0
1.080477 7.207903 -1.394894 7.420717 1.422002 1.759894 0.002771 -0.000420 1133600.000000 1 0 0
0.306277 -0.905097 -2.170194 2.371234 -1.244500 2.726843 0.008185 -0.001667 -2110370.000000 1 0 0
4.394977 -6.754997 7.931006 11.306929 -0.993981 0.793396 0.000499 -0.003632 -1242220.000000 1 0 0
-13.996823 3.627603 5.747406 15.559666 -0.253594 1.192456 0.000768 -0.007816 -1564380.000000 1 0 0
4.219877 6.332303 12.631406 14.746452 0.982975 0.542206 0.009481 -0.002540 -1690930.000000 1 0 0
8.219677 10.221003 -7.148994 14.937876 0.893503 2.069835 0.015367 -0.005345 432476.000000 1 0 0
12.444877 5.387303 9.485306 16.548989 0.408537 0.960433 0.043838 -0.008270 -231985.000000 1 0 0
7.514477 4.195603 0.349406 8.613509 0.509221 1.530220 0.004274 -0.000270 -1638200.000000 1 0 0
-10.818123 -7.731697 -0.992194 13.333993 0.620523 1.645276 0.006393 0.001116 -1766880.000000 1 0 0
10.530877 6.924903 0.198906 12.605286 0.581686 1.555016 0.005879 0.001628 -1238740.000000 1 0 0
14.628977 3.632803 4.257106 15.662924 0.243406 1.295538 0.034295 -0.006638 761872.000000 1 0 0
2.058777 5.533303 8.255206 10.149110 1.214597 0.620837 -0.003336 0.000667 -32700.900000 1 0 0
4.140977 0.068203 11.812206 12.517210 0.016469 0.337223 0.009131 -0.004071 -2160320.000000 1 0 0
-1.575823 -1.546697 -0.471494 2.257830 0.776071 1.781171 0.009861 -0.006320 -1231830.000000 1 0 0
3.116377 -5.224197 -9.497194 11.278331 -1.032934 2.571914 -0.001685 -0.001166 87862.600000 1 0 0
-3.959723 -5.390697 -1.372694 6.828126 0.937258 1.773211 0.009043 -0.003872 -694983.000000 1 0 0
-1.002823 -8.415797 8.420306 11.947085 1.452196 0.788655 0.008475 0.000724 -800714.000000 1 0 0
4.029377 8.625903 -5.976694 11.241128 1.133793 2.131380 0.000108 0.002264 732956.000000 1 0 0
-14.203623 -1.793097 -2.676694 14.564436 0.125578 1.755630 -0.004635 -0.003927 -1398490.000000 1 0 0
8.966077 -10.438097 -6.658394 15.286550 -0.861114 2.021470 0.005995 -0.006498 333727.000000 1 0 0
14.970577 6.232803 1.499606 16.285418 0.394510 1.478583 0.016070 0.001779 -696409.000000 1 0 0
-5.860723 0.346903 -8.465094 10.301759 -0.059122 2.535208 0.011099 -0.008809 -349906.000000 1 0 0
-7.979923 -4.652797 -12.896594 15.863475 0.527873 2.520038 0.010082 -0.007283 969625.000000 1 0 0
0.842977 -10.684197 12.053106 16.128857 -1.492060 0.726806 0.006039 -0.004915 -15597.600000 1 0 0
0.177177 11.701103 3.371906 12.178545 1.555656 1.290258 0.001268 0.000241 -33413.400000 1 0 0
5.272977 -13.165697 -3.679294 14.651862 -1.189851 1.824628 0.016932 -0.008132 1498510.000000 1 0 0
-7.618823 1.435503 -7.022894 10.460792 -0.186232 2.306830 -0.002109 -0.002600 863972.000000 1 0 0
1.489777 2.726403 4.065906 5.117060 1.070701 0.652483 0.001651 0.000519 -939529.000000 1 0 0
17.342077 5.642903 2.177306 18.366564 0.314583 1.451970 0.047231 -0.006051 -1555520.000000 1 0 0
2.468777 -8.118797 -3.538694 9.194133 -1.275599 1.965881 0.002208 -0.002442 414865.000000 1 0 0
-0.426723 -9.334497 -0.731594 9.372841 1.525114 1.648931 0.010525 -0.001857 -1192210.000000 1 0 0
0.729377 11.808503 -5.542194 13.064787 1.509108 2.008884 0.002425 0.003318 -1719830.000000 1 0 0
6.124977 -4.928597 7.816406 11.086145 -0.677583 0.788288 0.009092 -0.003543 -375427.000000 1 0 0
-6.088823 -2.047697 -9.398294 11.383969 0.324422 2.542013 0.013113 -0.007137 -356528.000000 1 0 0
2.032977 -1.255697 11.184806 11.437204 -0.553306 0.210475 0.003123 -0.005083 -235656.000000 1 0 0
18.004777 2.168903 -5.923594 19.077870 0.119885 1.886511 0.074772 -0.007516 -644873.000000 1 0 0
-9.035723 4.849603 7.801606 12.885185 -0.492586 0.920439 0.000462 -0.005731 347765.000000 1 0 0
11.532977 -7.017397 -4.759094 14.314412 -0.546619 1.909716 0.015353 -0.005452 516151.000000 1 0 0
10.758677 0.498203 8.911706 13.979122 0.046274 0.879546 0.008401 -0.006307 -175901.000000 1 0 0
-8.427223 -7.456997 -1.619294 11.368685 0.724393 1.713717 0.011038 -0.002463 -958563.000000 1 0 0
10.308677 -10.394397 -3.278694 15.002071 -0.789539 1.791124 0.018944 -0.005863 950645.000000 1 0 0
7.807177 -13.725997 -3.720394 16.223327 -1.053643 1.802179 0.024062 -0.009776 -1835350.000000 1 0 0
1.830577 -1.153397 -11.655594 11.854713 -0.562239 2.958051 0.010957 -0.004600 158718.000000 1 0 0
-11.739723 -2.658797 -6.466994 13.664271 0.222721 2.063804 0.002634 -0.001923 -332892.000000 1 0 0
2.871577 -12.012297 -6.319494 13.873617 -1.336147 2.043735 0.003885 -0.004733 131784.000000 1 0 0
-5.646423 1.397103 1.094006 5.918685 -0.242560 1.384888 0.002302 -0.001282 76499.000000 1 0 0
0.157377 6.888103 -3.989894 7.961783 1.547953 2.095701 0.006699 0.000029 1270800.000000 1 0 0
5.587577 -11.679297 3.652106 13.452318 -1.124563 1.295860 0.004025 -0.008575 -1686110.000000 1 0 0
-4.478723 -9.183897 1.092806 10.276047 1.117060 1.464250 0.011730 0.000076 -1506530.000000 1 0 0
7.140477 -6.192997 -4.714094 10.562306 -0.714457 2.033437 0.008143 -0.005097 76761.600000 1 0 0
-7.011923 -6.115597 2.150106 9.549373 0.717226 1.343692 0.004429 0.001025 -40608.000000 1 0 0
-6.126323 -0.633397 7.145306 9.433367 0.103023 0.711398 0.000690 -0.001669 -519528.000000 1 0 0
4.210977 -5.006897 3.201306 7.283523 -0.871530 1.115724 0.006770 -0.004041 -464990.000000 1 0 0
-2.429523 10.519603 -8.783794 13.918322 -1.343824 2.253761 -0.002155 0.004989 -1223110.000000 1 0 0
-2.436423 -4.822697 2.768606 6.071222 1.102998 1.097277 0.004106 -0.000169 200226.000000 1 0 0
15.132977 5.145803 6.366706 17.205268 0.327774 1.191740 0.068828 -0.017018 677780.000000 1 0 0
6.674577 0.215503 0.108906 6.678943 0.032276 1.554490 0.004741 -0.002898 4122310.000000 1 0 0
-9.776923 9.251203 0.311306 13.463651 -0.757777 1.547672 -0.004418 -0.003730 -2050740.000000 1 0 0
7.231777 10.590803 -2.563494 13.078044 0.971683 1.768089 0.000610 0.002474 -470713.000000 1 0 0
1.681077 -4.239497 -5.322094 7.008855 -1.193287 2.433093 0.003279 -0.003342 76132.600000 1 0 0
0.963277 -8.099597 -7.918794 11.368319 -1.452423 2.341398 -0.002525 0.000074 2094580.000000 1 0 0
-10.435523 0.247903 -10.560894 14.849043 -0.023751 2.362024 0.004366 -0.004963 -4502620.000000 1 0 0
5.823477 -2.456197 0.550006 6.344155 -0.399136 1.483993 0.006954 -0.002762 185130.000000 1 0 0
-3.325423 5.252803 -1.220094 6.335535 -1.006411 1.764587 0.007146 -0.002372 490744.000000 1 0 0
-0.360423 4.573503 -5.114694 6.870730 -1.492152 2.410459 0.007295 -0.001952 -946071.000000 1 0 0
3.986677 -9.647497 9.956506 14.425664 -1.178933 0.809039 0.001187 -0.004325 -2271720.000000 1 0 0
7.504477 -13.343697 -0.839794 15.332210 -1.058484 1.625597 0.019210 -0.008107 763924.000000 1 0 0
13.041277 0.057303 0.531606 13.052234 0.004394 1.530056 0.011918 -0.005547 369303.000000 1 0 0
9.342477 2.480803 -0.508194 9.679594 0.259550 1.623322 0.008344 -0.002425 238180.000000 1 0 0
-0.870323 -5.780897 4.449006 7.346419 1.421367 0.920274 0.004526 -0.001138 798771.000000 1 0 0
11.470777 -3.609697 3.382406 12.491970 -0.304875 1.296607 0.017599 -0.008143 -2973460.000000 1 0 0
1.695777 -8.233497 11.783406 14.474625 -1.367676 0.619665 0.005637 -0.006118 83907.200000 1 0 0
9.502477 -5.825897 -5.790994 12.560803 -0.549991 2.049960 0.006869 -0.004352 -713582.000000 1 0 0
3.257177 6.404403 -0.107894 7.185905 1.100305 1.585812 -0.002451 0.002866 -1990600.000000 1 0 0
6.284077 -1.396197 11.639706 13.301193 -0.218629 0.505180 0.012964 -0.002027 526903.000000 1 0 0
-4.883023 -7.609097 -3.881994 9.839316 1.000253 1.976362 0.015302 -0.004521 -710538.000000 1 0 0
-3.347523 -8.578897 -5.860494 10.915529 1.198763 2.137549 0.010924 -0.002311 -10384.400000 1 0 0
9.803977 5.371703 2.207106 11.394932 0.501238 1.375872 0.006834 -0.001802 -310269.000000 1 0 0
8.879877 -1.389797 0.336606 8.994279 -0.155251 1.533363 0.009787 -0.002401 1208740.000000 1 0 0
-3.916123 9.620203 9.195406 13.872268 -1.184208 0.846161 0.003167 -0.002575 80267.400000 1 0 0
-14.338323 -3.449097 -6.155794 15.980537 0.236066 1.966227 0.012119 -0.005185 -474080.000000 1 0 0
10.617177 6.315603 -5.933694 13.704745 0.536622 2.018577 -0.001863 -0.000978 -2121320.000000 1 0 0
-1.785723 4.501703 2.733406 5.561083 -1.193158 1.056958 0.001737 -0.001394 575199.000000 1 0 0
6.901477 -3.627497 2.699306 8.250780 -0.483926 1.237502 0.011211 -0.005296 -1182310.000000 1 0 0
8.409377 -10.981297 -1.460494 13.908255 -0.917265 1.675999 0.013893 -0.007566 -1457490.000000 1 0 0
4.491177 0.565903 1.872306 4.898617 0.125343 1.178609 0.003993 -0.000075 290439.000000 1 0 0
-10.740123 2.292903 3.811506 11.624767 -0.210332 1.236740 -0.005872 -0.000779 151876.000000 1 0 0
-0.930323 -3.058397 4.327106 5.379882 1.275503 0.636279 0.005204 -0.002592 39167.400000 1 0 0
8.738177 -8.605297 -8.622694 14.991922 -0.777737 2.183591 0.010224 -0.003037 -819014.000000 1 0 0
12.124877 -4.715197 1.036706 13.050689 -0.370889 1.491276 0.012975 -0.006559 -47079.900000 1 0 0
2.851177 4.866303 3.530006 6.653650 1.040807 1.011563 -0.001813 0.000144 -320754.000000 1 0 0
6.081177 7.409003 2.018606 9.795347 0.883511 1.363231 0.001715 0.000714 20940.900000 1 0 0
-1.622223 -1.283297 -10.347294 10.552012 0.669274 2.944292 0.012513 -0.007306 1272000.000000 1 0 0
-1.174423 -8.768697 5.881606 10.623681 1.437655 0.984077 0.002516 -0.002418 1116010.000000 1 0 0
-4.294723 -0.259497 2.179206 4.822957 0.060349 1.101969 0.001876 0.000843 286713.000000 1 0 0
-8.296523 6.021003 -7.990294 12.997291 -0.627784 2.232886 -0.003686 -0.000823 -1330660.000000 1 0 0
6.292177 11.280703 -9.377794 15.962105 1.061998 2.198767 0.015299 -0.011570 393931.000000 1 0 0
-11.141523 -5.831597 3.053606 12.940848 0.482201 1.332583 0.001750 0.001629 334576.000000 1 0 0
1.598477 -6.319497 3.066406 7.203750 -1.323049 1.131096 0.000612 -0.003179 956797.000000 1 0 0
10.174177 2.147003 7.147506 12.617858 0.207973 0.968593 0.005272 -0.001661 -1594950.000000 1 0 0
-4.024723 -2.499297 -10.585894 11.597674 0.555708 2.720787 0.013306 -0.005545 -2484090.000000 1 0 0
-8.344023 11.786303 5.941706 15.615490 -0.954760 1.180459 0.009205 -0.007213 -916209.000000 1 0 0
6.870277 5.965503 -2.910294 9.552893 0.715026 1.880368 0.001213 0.002443 -3624810.000000 1 0 0
3.900477 -9.819697 -2.374394 10.829493 -1.192698 1.791845 0.002865 -0.005424 -1576080.000000 1 0 0
8.510777 -12.778497 -7.294794 16.998157 -0.983239 2.014350 0.020088 -0.012846 454934.000000 1 0 0
-1.159023 9.396803 3.631406 10.140530 -1.448074 1.204556 0.001236 0.000243 60800.200000 1 0 0
0.586377 -13.179597 4.616406 13.977010 -1.526334 1.234190 0.012954 -0.003246 -1187180.000000 1 0 0
-11.311423 -7.129797 -5.124994 14.319492 0.562415 1.936818 0.012412 -0.002029 -49427.100000 1 0 0
3.700377 10.392703 -3.346894 11.528347 1.228737 1.865356 0.006992 0.000174 -431041.000000 1 0 0
11.706577 -7.871697 -7.291694 15.880062 -0.591973 2.047860 0.028842 -0.007365 351127.000000 1 0 0
11.763177 -4.671897 -5.782894 13.915489 -0.378058 1.999368 0.011131 -0.005449 -46037.500000 1 0 0
1.363577 -10.265197 -2.776694 10.721177 -1.438734 1.832774 0.003563 -0.002218 -1510800.000000 1 0 0
2.400477 -11.982797 -3.993994 12.856971 -1.373086 1.886671 0.005655 -0.001914 -1738560.000000 1 0 0
-7.731523 -5.785397 7.251706 12.076195 0.642404 0.926675 0.007714 0.000945 -2457240.000000 1 0 0
-7.323323 -0.872897 9.502506 12.028741 0.118634 0.660014 0.000224 -0.001483 466654.000000 1 0 0
16.149477 2.661403 -7.582394 18.038331 0.163330 2.004626 0.067508 -0.007862 -1225180.000000 1 0 0
-1.965723 6.251303 -5.501694 8.556372 -1.266136 2.269197 0.006865 0.001600 -1899740.000000 1 0 0
7.743777 1.185003 8.417106 11.498608 0.151849 0.749528 0.009858 -0.005153 -1289530.000000 1 0 0
7.784877 8.285103 -3.697894 11.954985 0.816516 1.885272 0.001913 0.004359 -829394.000000 1 0 0
7.992477 0.587703 4.010206 8.961408 0.073400 1.106832 0.006629 -0.002627 101848.000000 1 0 0
-7.057323 5.787703 5.339906 10.574399 -0.686877 1.041433 0.000741 -0.004699 -218389.000000 1 0 0
-6.186123 -2.032197 -4.548194 7.942544 0.317402 2.180515 0.007476 -0.006250 -2061780.000000 1 0 0
-15.233623 -2.276097 3.148606 15.721246 0.148316 1.369156 0.013656 -0.004758 97644.800000 1 0 0
1.166477 1.309403 -10.616094 10.759957 0.843061 2.977885 0.012795 -0.005911 439239.000000 1 0 0
1.477477 -9.232497 9.400006 13.258282 -1.412112 0.782730 0.003536 -0.005564 -1332520.000000 1 0 0
-0.096723 -6.678497 -1.119994 6.772449 1.556315 1.736935 0.004923 -0.000294 687291.000000 1 0 0
-0.353023 -10.217297 -8.449094 13.262917 1.536259 2.261457 -0.003513 0.000040 -239706.000000 1 0 0
-4.402423 6.554903 3.813806 8.768877 -0.979370 1.120841 0.002470 -0.002015 -174728.000000 1 0 0
10.913477 -1.028197 -8.560494 13.908388 -0.093936 2.233806 0.004770 0.001030 658835.000000 1 0 0
2.953177 -1.047897 6.274006 7.013023 -0.340977 0.463211 0.003726 -0.001244 396203.000000 1 0 0
2.116677 -12.246797 6.562406 14.054519 -1.399652 1.084986 0.003521 -0.003304 -101937.000000 1 0 0
2.964877 -4.865797 -1.310194 5.846630 -1.023545 1.796810 0.007682 -0.003407 -1861790.000000 1 0 0
-0.972223 9.451403 -1.637494 9.641350 -1.468291 1.741464 0.007143 -0.001514 695284.000000 1 0 0
4.523677 -2.462897 2.714506 5.822204 -0.498569 1.085768 0.006258 -0.001112 -1383750.000000 1 0 0
17.581577 6.643503 -2.736694 18.993091 0.361282 1.715389 0.021154 0.000243 -530263.000000 1 0 0
-7.125823 3.395103 -5.489294 9.614387 -0.444631 2.178454 0.001971 -0.002717 586065.000000 1 0 0
-13.868723 -6.075997 2.274806 15.311236 0.412921 1.421673 -0.002226 -0.000643 820672.000000 1 0 0
6.739277 -5.918897 3.712006 9.707223 -0.720678 1.178408 0.008342 -0.005780 523654.000000 1 0 0
-4.708823 1.951503 3.527806 6.198934 -0.392889 0.965387 0.003613 -0.002654 792262.000000 1 0 0
7.027877 -11.870497 -5.361494 14.800182 -1.036246 1.941486 0.018082 -0.009397 25370.700000 1 0 0
2.995677 -12.201597 3.308506 12.992277 -1.330043 1.313309 0.008295 -0.006134 83373.500000 1 0 0
3.227077 11.335803 -6.131994 13.285926 1.293453 2.050527 0.000041 0.002579 -700599.000000 1 0 0
-5.551023 -8.490897 6.320506 11.952321 0.991781 1.013599 0.011016 0.002150 167578.000000 1 0 0
-4.028523 6.581803 6.331206 9.981648 -1.021549 0.883714 0.002659 -0.000829 366406.000000 1 0 0
4.291977 4.423203 -7.037194 9.354566 0.800454 2.422303 0.000341 0.001788 -2773560.000000 1 0 0
-0.355623 -2.748097 1.602406 3.200970 1.442105 1.046505 0.004328 -0.003513 493783.000000 1 0 0
-13.256923 -0.967897 6.575006 14.829481 0.072881 1.111437 0.007967 -0.000274 -131727.000000 1 0 0
-0.511123 -9.275797 -5.984294 11.050495 1.515749 2.143065 -0.001112 -0.000316 -832.194000 1 0 0
2.009577 -1.585597 -3.985894 4.737074 -0.668010 2.570712 0.006776 -0.000810 -514061.000000 1 0 0
11.375177 -1.881397 1.109106 11.582937 -0.163911 1.474896 0.011886 -0.007626 511548.000000 1 0 0
0.569877 -4.214197 -2.071794 4.730385 -1.436384 2.024142 0.003638 -0.001322 -1278470.000000 1 0 0
1.226577 -7.235897 -11.323694 13.494026 -1.402880 2.566540 -0.004793 0.002224 -1921760.000000 1 0 0
-4.427923 4.025403 -10.080294 11.722743 -0.737817 2.605855 0.006609 -0.003866 211985.000000 1 0 0
-0.998723 5.785403 -2.130094 6.245450 -1.399853 1.918844 0.006701 -0.000861 -1674630.000000 1 0 0
-11.323523 1.723603 -3.836594 12.079422 -0.151055 1.894009 -0.005734 0.001542 -483887.000000 1 0 0
-1.684123 -11.401297 4.005206 12.201127 1.424144 1.236330 0.019504 -0.005153 -658211.000000 1 0 0
-3.489923 -5.375497 -9.674994 11.605216 0.994964 2.556528 0.006501 0.000347 -2012660.000000 1 0 0
-12.869823 -3.830497 -8.382794 15.829601 0.289285 2.128883 0.014527 -0.002940 -168045.000000 1 0 0
11.491077 4.545603 0.534906 12.369054 0.376687 1.527537 0.010444 -0.001168 -16909.700000 1 0 0
-8.948923 -2.429097 -3.091494 9.774511 0.265054 1.892603 -0.000808 -0.001397 -357439.000000 1 0 0
-2.559423 -6.020297 -6.458294 9.192616 1.168814 2.349774 0.005638 -0.004284 -318605.000000 1 0 0
-0.066623 2.683003 -1.868594 3.270259 -1.545970 2.178995 0.003457 -0.002353 520620.000000 1 0 0
8.056877 6.150703 -5.184294 11.385137 0.652029 2.043569 0.000264 0.004207 -748461.000000 1 0 0
-9.772323 -1.078097 -0.930594 9.875555 0.109877 1.665168 -0.005150 -0.000686 -215222.000000 1 0 0
6.267577 0.584803 -8.843494 10.855041 0.093037 2.522991 -0.001546 0.001815 540791.000000 1 0 0
-4.216623 2.552703 7.861506 9.278980 -0.544374 0.560032 0.000243 0.000988 -2018940.000000 1 0 0
-10.193723 -3.391797 1.432306 10.838255 0.321211 1.438256 -0.003593 0.001573 29375.400000 1 0 0
-1.764823 -8.116397 -7.909894 11.469827 1.356690 2.331769 -0.000084 -0.002240 -508760.000000 1 0 0
-9.492623 -9.871997 4.218306 14.330398 0.804987 1.272010 0.010757 -0.000815 -385640.000000 1 0 0
-1.058223 -10.726897 7.488006 13.124648 1.472463 0.963645 0.014172 -0.004519 442034.000000 1 0 0
9.437277 3.762503 -3.741694 10.826768 0.379372 1.923671 0.002668 0.001754 -635681.000000 1 0 0
12.867777 -0.646097 3.084606 13.248091 -0.050168 1.335806 0.014831 -0.006756 609130.000000 1 0 0
6.407677 12.110903 -6.795094 15.293973 1.084154 2.031188 0.012015 -0.002085 31982.500000 1 0 0
-11.749823 -0.014397 -6.526994 13.440989 0.001225 2.077850 0.001191 0.000520 670525.000000 1 0 0
-7.526823 -6.685097 -11.239894 15.089029 0.726241 2.411189 0.008291 -0.005130 -666890.000000 1 0 0
4.165377 6.000003 6.736006 9.936004 0.963954 0.825841 -0.001564 0.002736 -3254750.000000 1 0 0
-4.305223 -1.515397 -7.379194 8.676628 0.338447 2.587671 0.011869 -0.009567 -961789.000000 1 0 0
9.676777 9.321803 0.946406 13.469659 0.766716 1.500476 0.012717 0.003305 -1918260.000000 1 0 0
-8.989123 4.044103 4.907006 11.010804 -0.422761 1.108892 -0.003849 -0.001584 573528.000000 1 0 0
-6.929623 7.704303 -12.255594 16.049161 -0.838286 2.439711 -0.000667 -0.005674 -1102080.000000 1 0 0
11.198677 -3.555597 7.260906 13.812074 -0.307435 1.017267 0.020230 -0.009643 1013500.000000 1 0 0
11.854677 6.951503 6.352606 15.139761 0.530354 1.137795 0.017199 -0.005923 74621.000000 1 0 0
-9.951523 -0.828497 -14.781594 17.838575 0.083062 2.547454 0.020050 -0.003155 313526.000000 1 0 0
1.813677 -12.988497 12.009306 17.782404 -1.432056 0.829360 -0.003156 -0.002856 303723.000000 1 0 0
2.960777 3.046203 12.998806 13.675325 0.799618 0.315859 0.001753 -0.005997 -892941.000000 1 0 0
-2.699223 -1.437297 11.000506 11.417651 0.489297 0.271145 0.006468 -0.004681 -581750.000000 1 0 0
2.630677 -9.987597 -8.270094 13.231289 -1.313251 2.245980 -0.003540 0.000281 -1050600.000000 1 0 0
13.806877 3.753303 -7.455194 16.133725 0.265429 2.051144 0.014530 -0.007784 -1357050.000000 1 0 0
7.270377 -1.585497 5.005806 8.968293 -0.214715 0.978621 0.007784 -0.002613 362914.000000 1 0 0
-1.346523 8.683303 10.183306 13.450375 -1.416951 0.711931 0.003423 -0.000056 -353132.000000 1 0 0
-12.233723 -4.699797 0.924106 13.137961 0.366783 1.500400 -0.000995 0.001234 -295641.000000 1 0 0
-4.894023 4.775103 -5.291294 8.645858 -0.773100 2.229388 0.007877 -0.003031 -316772.000000 1 0 0
-11.190923 0.233303 2.108706 11.390251 -0.020845 1.384590 -0.009182 0.002672 -2826070.000000 1 0 0
-1.341423 2.196503 -4.122094 4.859599 -1.022540 2.583445 0.009428 -0.005013 901149.000000 1 0 0
3.052877 -9.866597 13.274006 16.818710 -1.270724 0.661225 0.009370 -0.002809 -1287050.000000 1 0 0
8.907577 4.705603 -1.451394 10.178123 0.486007 1.713884 0.002841 -0.001346 -1032250.000000 1 0 0
4.042077 2.288703 3.872806 6.047741 0.515211 0.875814 -0.001445 0.002031 208322.000000 1 0 0
-5.606923 -3.306797 7.418006 9.869108 0.532864 0.720253 0.003252 -0.003208 -77686.500000 1 0 0
1.971977 -5.890497 7.517806 9.752130 -1.247751 0.690561 0.003928 -0.001966 -603392.000000 1 0 0
-5.782723 -6.273697 -9.743694 12.951399 0.826099 2.422384 0.013546 -0.001979 -1334860.000000 1 0 0
-11.746123 -5.871297 5.436506 14.212639 0.463527 1.178283 0.006606 -0.001957 -1308780.000000 1 0 0
10.507977 6.207603 4.518706 13.014247 0.533591 1.216200 0.005732 -0.000248 -1247570.000000 1 0 0
1.332577 -3.713097 0.335806 3.959244 -1.226228 1.485879 0.010235 -0.002788 -884326.000000 1 0 0
8.813877 4.322803 7.053606 12.088193 0.455982 0.947750 0.002832 0.001506 -426941.000000 1 0 0
-8.008023 12.047603 3.508606 14.885681 -0.984158 1.332854 0.003316 -0.007192 -328497.000000 1 0 0
-6.152823 13.320403 -6.958994 16.239396 -1.138083 2.013656 0.005142 0.004686 354446.000000 1 0 0
4.428677 -6.889797 -0.901494 8.239853 -0.999508 1.680422 0.007635 -0.004409 -995664.000000 1 0 0
-1.889223 -8.341397 10.984806 13.921710 1.348066 0.661549 0.007997 -0.005398 15316.000000 1 0 0
11.509677 8.850603 -5.717494 15.604345 0.655532 1.945938 0.034429 -0.004458 280548.000000 1 0 0
-3.346023 -2.934997 -1.989594 4.875301 0.720052 1.991165 0.011046 -0.004597 -1402280.000000 1 0 0
-2.114823 5.983503 4.756006 7.930597 -1.231058 0.927666 0.003725 0.001266 32053.600000 1 0 0
0.438677 -11.392697 -5.723494 12.757130 -1.532310 2.036051 0.000007 -0.003886 -1300230.000000 1 0 0
-8.986323 6.240203 -1.498594 11.042641 -0.606965 1.706926 -0.000647 -0.001552 -1224070.000000 1 0 0
2.824477 -0.026597 3.927506 4.837735 -0.009416 0.623486 0.002448 -0.000668 807276.000000 1 0 0
-10.105823 3.895903 -0.982794 10.875275 -0.367954 1.661289 0.000082 -0.001099 -101010.000000 1 0 0
6.424477 5.444003 13.644706 16.033997 0.702974 0.552937 0.016293 -0.001833 -702796.000000 1 0 0
-8.863923 -1.585197 5.617606 10.613174 0.176966 1.013015 -0.001356 -0.001978 124613.000000 1 0 0
13.043177 -1.710297 -1.268294 13.215830 -0.130382 1.666912 0.014627 -0.005964 -1442270.000000 1 0 0
4.836877 -5.696497 5.568306 9.319414 -0.866827 0.930423 0.010885 -0.007561 178055.000000 1 0 0
-9.023823 -1.310697 3.146706 9.646194 0.144240 1.238503 -0.005835 0.001255 214193.000000 1 0 0
2.024077 5.395003 5.684606 8.094300 1.211871 0.792177 0.000870 0.000111 -1180370.000000 1 0 0
9.263177 3.087403 -7.354694 12.224158 0.321719 2.216365 0.002459 0.000714 -786835.000000 1 0 0
2.346677 -2.383497 -1.529294 3.677865 -0.793182 1.999630 0.003521 -0.001736 239138.000000 1 0 0
-6.291423 0.384603 -3.967794 7.448041 -0.061055 2.132619 0.001780 -0.001650 -1695770.000000 1 0 0
-4.170623 4.192803 5.045806 7.773921 -0.788050 0.864437 0.003987 -0.000267 1167790.000000 1 0 0
-6.399123 1.754803 -12.381994 14.047843 -0.267646 2.649648 0.002015 -0.003431 -3183110.000000 1 0 0
-0.216823 3.070303 6.205206 6.926641 -1.500294 0.460464 0.002244 0.000826 1571220.000000 1 0 0
-8.798023 9.419103 -2.168894 13.070150 -0.819478 1.737510 -0.000998 0.000172 -59053.400000 1 0 0
-1.339723 -3.712197 -6.146094 7.304090 1.224446 2.570775 0.005735 -0.004263 603437.000000 1 0 0
-3.279723 7.058803 -2.990094 8.338102 -1.135844 1.937571 0.007191 0.000935 1369470.000000 1 0 0
7.021977 -0.347297 -4.296194 8.239300 -0.049418 2.119319 0.004214 0.001082 24854.600000 1 0 0
-5.111223 -10.975197 6.862006 13.916417 1.134958 1.055162 0.012211 -0.002119 820693.000000 1 0 0
9.665377 8.411603 -1.490994 12.899522 0.716152 1.686641 0.007076 0.004642 359025.000000 1 0 0
13.784377 4.673203 -4.468094 15.225366 0.326861 1.868645 0.008391 -0.002280 786806.000000 1 0 0
4.737177 1.114603 -6.825594 8.382835 0.231085 2.522206 -0.000811 0.001438 -1385720.000000 1 0 0
9.062377 -4.651997 3.538606 10.783760 -0.474255 1.236460 0.012246 -0.007292 -342365.000000 1 0 0
-8.826523 -3.401597 -0.745894 9.488663 0.367843 1.649487 -0.004047 -0.000197 -28155.200000 1 0 0
-8.488923 -4.298997 -10.358794 14.065838 0.468774 2.398605 0.006045 -0.003100 423516.000000 1 0 0
10.443877 -1.158097 10.789906 15.061136 -0.110436 0.772157 0.017743 -0.006229 1145710.000000 1 0 0
2.306777 -11.557597 9.912906 15.400161 -1.373795 0.871488 -0.003182 -0.004932 561818.000000 1 0 0
-6.524723 -10.570397 1.973406 12.577743 1.017780 1.413249 0.014729 0.000672 -325973.000000 1 0 0
-3.733923 -1.608397 6.686506 7.825502 0.406733 0.546304 0.004287 -0.002213 -2460390.000000 1 0 0
4.729277 -7.507697 3.858206 9.675605 -1.008664 1.160636 0.002781 -0.003707 453422.000000 1 0 0
11.582877 -9.401097 -5.331394 15.841952 -0.681797 1.914033 0.023778 -0.007968 487106.000000 1 0 0
11.326877 1.222703 11.467506 16.164679 0.107531 0.782125 0.024678 -0.003640 33465.600000 1 0 0
-10.237923 -3.614297 4.351706 11.696818 0.339372 1.189589 0.000215 0.002519 1479310.000000 1 0 0
1.920477 8.757703 9.019106 12.717306 1.354923 0.782434 0.001519 0.002399 24267.100000 1 0 0
6.520677 8.764603 4.173406 11.694222 0.931160 1.205873 0.004202 0.002549 1460650.000000 1 0 0
-4.349523 3.559903 0.361706 5.632237 -0.685895 1.506532 0.005717 -0.003959 261771.000000 1 0 0
4.684877 7.038603 4.330906 9.499829 0.983534 1.097421 0.003579 0.002096 -2061320.000000 1 0 0
-8.267723 13.095203 1.024206 15.520586 -1.007640 1.504758 0.003800 -0.003970 111026.000000 1 0 0
8.842177 8.204503 -9.113294 15.117874 0.748008 2.217822 0.009228 -0.011381 -1422140.000000 1 0 0
7.111377 1.954403 6.066006 9.549231 0.268206 0.882484 0.004098 -0.000823 -478574.000000 1 0 0
11.581577 -6.161397 3.076506 13.474444 -0.488919 1.340443 0.017997 -0.008992 255218.000000 1 0 0
11.401977 4.782703 -2.111194 12.543384 0.397171 1.739913 0.006977 -0.000457 505573.000000 1 0 0
-4.016423 14.373503 -5.848094 16.029019 -1.298314 1.944262 0.002365 0.009924 -2108830.000000 1 0 0
7.200877 -2.970897 7.042206 10.501025 -0.391299 0.835751 0.012204 -0.006501 -425944.000000 1 0 0
-7.987123 -0.441997 0.926306 8.052796 0.055282 1.455512 -0.002382 0.001479 -27589.500000 1 0 0
-3.243023 1.066803 10.639406 11.173729 -0.317803 0.310502 0.001591 0.001073 -189172.000000 1 0 0
7.165177 -1.178797 -1.816294 7.485202 -0.163057 1.815894 0.010317 -0.002828 -1996540.000000 1 0 0
-7.840123 5.402003 2.914206 9.956995 -0.603319 1.273769 0.000219 -0.001677 815940.000000 1 0 0
9.487077 -2.075997 2.921506 10.141479 -0.215428 1.278580 0.012678 -0.006032 -1191210.000000 1 0 0
0.248177 3.445003 1.619906 3.814936 1.498881 1.132252 0.000503 0.000494 -3522880.000000 1 0 0
-7.570023 -3.154797 3.999106 9.124189 0.394861 1.117093 -0.002647 0.001292 359762.000000 1 0 0
-2.271823 8.328003 -6.771194 10.971139 -1.304483 2.235953 0.003317 0.001641 -612312.000000 1 0 0
4.459477 9.735903 7.404006 13.018988 1.141273 0.965862 0.003730 0.008148 -403717.000000 1 0 0
-11.935123 -3.099797 6.831006 14.096756 0.254106 1.064913 0.011500 -0.005153 -2040900.000000 1 0 0
-4.793623 2.265603 -5.647594 7.746425 -0.441512 2.387741 0.009911 -0.006992 56298.900000 1 0 0
-2.755023 2.902903 -1.939494 4.447318 -0.811529 2.022061 0.008076 -0.002227 821151.000000 1 0 0
2.334277 5.206203 11.370206 12.721438 1.149303 0.465086 0.002322 -0.005886 527799.000000 1 0 0
-0.687323 1.609003 4.599606 4.921146 -1.167087 0.363490 0.004501 -0.001543 -734089.000000 1 0 0
5.177077 1.588403 7.694506 9.409069 0.297697 0.613261 0.001322 -0.001046 -660042.000000 1 0 0
3.405577 -8.144697 1.802106 9.010085 -1.174755 1.369428 0.007579 -0.004030 1727460.000000 1 0 0
5.115077 6.468203 -4.673494 9.478566 0.901688 2.086399 -0.000666 0.002016 -2971400.000000 1 0 0
-4.050923 2.764303 -8.005994 9.388679 -0.598808 2.591983 0.014234 -0.008737 -544962.000000 1 0 0
-8.680423 -2.204497 -12.878094 15.686136 0.248704 2.533932 0.010660 -0.006374 -71831.700000 1 0 0
-7.814723 8.131603 1.024306 11.324401 -0.805267 1.480221 0.000226 -0.003574 -1263850.000000 1 0 0
7.346577 1.046403 -6.476194 9.849277 0.141482 2.288332 -0.001347 0.003000 544468.000000 1 0 0
8.933177 8.840703 5.570606 13.747412 0.780195 1.153586 0.004213 0.004476 514050.000000 1 0 0
9.406877 -1.034297 -1.367394 9.561845 -0.109511 1.714294 0.009316 -0.002872 1916810.000000 1 0 0
5.389577 0.148203 4.251306 6.866084 0.027491 0.903105 0.000781 0.000624 -1526870.000000 1 0 0
-4.064623 -7.223397 -8.032194 11.541870 1.058253 2.340494 0.014881 -0.004748 -858183.000000 1 0 0
-2.157423 7.351603 -0.541794 7.680761 -1.285348 1.641394 0.008321 -0.001508 345539.000000 1 0 0
13.364377 -3.276597 -7.310994 15.581826 -0.240431 2.059181 0.017723 -0.002254 437187.000000 1 0 0
-4.804523 -5.059897 1.566506 7.151219 0.811281 1.349951 0.004853 0.000195 996671.000000 1 0 0
-8.899423 1.318103 2.623406 9.371199 -0.147042 1.287061 -0.003724 0.000473 -1205500.000000 1 0 0
-1.222823 11.154903 10.115906 15.108233 -1.461610 0.837177 0.005178 -0.006020 250340.000000 1 0 0
-8.610223 0.335903 7.488706 11.416194 -0.038992 0.855326 -0.001314 -0.002694 87342.800000 1 0 0
-6.220223 12.891203 -1.925894 14.442415 -1.121233 1.704545 0.004156 0.006226 81697.500000 1 0 0
-13.154923 -0.854397 3.205606 13.566794 0.064858 1.332257 -0.000560 -0.001028 305439.000000 1 0 0
-6.742623 12.763203 8.776306 16.893367 -1.084777 1.024517 0.014207 -0.010027 1585260.000000 1 0 0
-8.061023 0.765303 -14.003294 16.175847 -0.094655 2.617327 -0.000676 -0.003937 -372108.000000 1 0 0
7.088077 2.821303 3.776706 8.512585 0.378811 1.111116 0.002538 0.000107 -198639.000000 1 0 0
-1.739323 0.666203 -1.965694 2.707956 -0.365787 2.383133 0.007554 -0.004754 1111700.000000 1 0 0
-6.169223 9.531303 -10.386794 15.388000 -0.996350 2.311752 -0.001731 0.000067 -251541.000000 1 0 0
-10.063123 13.709003 5.192106 17.780922 -0.937580 1.274475 0.008615 -0.008499 82309.100000 1 0 0
-5.777123 8.217703 2.531806 10.359336 -0.958053 1.323897 0.000984 -0.002613 -1207780.000000 1 0 0
-2.417823 -10.753697 -1.266694 11.094700 1.349638 1.685217 0.013100 -0.002244 1161940.000000 1 0 0
-2.192323 -12.637497 8.690106 15.492919 1.399028 0.975314 0.013830 -0.002552 604508.000000 1 0 0
-14.804223 -6.466697 -1.743694 16.248804 0.411835 1.678316 0.011307 0.000369 220031.000000 1 0 0
-2.807823 -9.471597 3.303606 10.416757 1.282603 1.248080 0.013717 -0.003441 -1105930.000000 1 0 0
4.681977 -2.662497 7.578506 9.297502 -0.517064 0.617874 0.006992 -0.001733 -32995.900000 1 0 0
-14.900523 -1.262797 -0.339994 14.957801 0.084546 1.593529 -0.005227 -0.006036 -76737.600000 1 0 0
5.492977 8.848803 -2.812394 10.788127 1.015252 1.834537 0.000459 0.003015 -1106090.000000 1 0 0
-5.663223 -5.762297 8.499706 11.726941 0.794069 0.760050 0.007078 0.000456 -924596.000000 1 0 0
3.471077 3.547903 7.149206 8.703283 0.796343 0.606869 -0.000762 0.000739 327391.000000 1 0 0
3.346377 2.169703 9.391206 10.202970 0.575231 0.401596 0.004327 -0.004113 1855610.000000 1 0 0
9.992577 -3.203397 5.230206 11.724692 -0.310227 1.108410 0.019805 -0.008641 -212262.000000 1 0 0
6.572477 10.074603 -5.027194 13.037169 0.992749 1.966660 0.001781 0.001654 -117880.000000 1 0 0
-4.521223 12.036403 -8.450194 15.385781 -1.211474 2.152228 -0.002821 0.004212 -85941.200000 1 0 0
-3.405523 -7.210397 2.100806 8.246259 1.129547 1.313198 0.010199 -0.001437 886148.000000 1 0 0
-7.503123 -4.099197 1.112206 8.621906 0.500023 1.441438 -0.000473 0.000046 2640490.000000 1 0 0
-1.957623 -3.920897 -10.918094 11.764799 1.107725 2.759887 0.010769 -0.003574 -897544.000000 1 0 0
-5.255223 8.177203 -4.408394 10.673236 -0.999593 1.996578 0.005545 0.000266 -1651220.000000 1 0 0
-10.974423 -3.253997 -10.181994 15.319904 0.288249 2.297788 0.012073 -0.004359 -1211130.000000 1 0 0
4.792677 -11.275997 -7.724394 14.483926 -1.168897 2.133303 0.005962 -0.005372 -2069330.000000 1 0 0
-9.453123 -4.018997 7.269506 12.584100 0.401998 0.954920 0.005117 -0.002860 -495168.000000 1 0 0
-5.692823 -9.748797 -5.163294 12.413979 1.042261 1.999757 0.011918 -0.006137 559415.000000 1 0 0
4.916377 4.396703 -9.576094 11.627698 0.729656 2.538453 -0.001858 0.005446 -29920.400000 1 0 0
-3.307623 -7.128397 -14.145694 16.181937 1.136356 2.634512 0.002983 0.000538 209860.000000 1 0 0
0.680577 -0.755697 -8.763494 8.822307 -0.837652 3.026061 0.009949 -0.008144 51209.900000 1 0 0
-7.817823 2.158503 -2.928994 8.623021 -0.269389 1.917364 0.001707 -0.003061 -49352.700000 1 0 0
-2.324223 7.455403 -12.596294 14.820651 -1.268595 2.586620 0.006187 -0.004124 15367.200000 1 0 0
-9.914523 8.963303 7.564606 15.357794 -0.735053 1.055770 0.003881 -0.004215 -333282.000000 1 0 0
-10.612423 -3.197597 -14.316194 18.105291 0.292655 2.482779 0.026651 -0.005237 -417121.000000 1 0 0
-3.278623 4.820903 7.928806 9.841567 -0.973562 0.634033 0.002748 0.000941 -27180.200000 1 0 0
8.726277 -2.219297 -3.562394 9.683174 -0.249044 1.947541 0.006492 -0.000320 -4645960.000000 1 0 0
1.950877 -8.512797 -1.095894 8.801966 -1.345516 1.695626 0.003582 -0.000979 -868412.000000 1 0 0
-13.678623 -2.865497 5.084806 14.871820 0.206501 1.221849 0.013930 -0.005016 484860.000000 1 0 0
6.960777 2.809903 -1.872794 7.736623 0.383672 1.815294 0.004666 -0.000583 2137060.000000 1 0 0
-11.169523 4.420303 8.743806 14.857707 -0.376835 0.941590 -0.000998 -0.006730 -2895980.000000 1 0 0
-1.744623 -2.650797 7.869306 8.485069 0.988713 0.383316 0.003021 -0.003179 -1652990.000000 1 0 0
2.911477 11.947903 -9.831694 15.744565 1.331774 2.245224 0.002197 -0.008195 549090.000000 1 0 0
3.623577 -4.967697 -7.109294 9.399489 -0.940592 2.428510 -0.000601 -0.003393 95046.800000 1 0 0
8.445777 -13.575397 -9.708294 18.704907 -1.014257 2.116505 0.024776 -0.016287 95796.800000 1 0 0
-6.295423 -5.806797 -0.451094 8.576405 0.745045 1.623418 0.010112 -0.002191 201470.000000 1 0 0
-1.269423 -4.058297 9.853106 10.731491 1.267641 0.407413 0.002586 -0.003156 980655.000000 1 0 0
2.799277 3.376203 1.815006 4.746467 0.878550 1.178414 -0.002695 0.001631 -411554.000000 1 0 0
-9.231023 13.307003 7.773006 17.964068 -0.964313 1.123314 0.016687 -0.019407 -147023.000000 1 0 0
4.088777 -11.043297 0.007406 11.775931 -1.216197 1.570167 0.007003 -0.006637 -209932.000000 1 0 0
-12.522523 -1.449097 -9.159694 15.582473 0.115207 2.199158 0.007319 -0.001833 -260488.000000 1 0 0
-4.216523 0.797903 -13.491294 14.157356 -0.187021 2.833629 0.011454 -0.002914 917669.000000 1 0 0
3.806377 -3.047497 4.944106 6.944057 -0.675124 0.778467 0.003477 -0.000092 -102918.000000 1 0 0
1.776777 -1.254497 1.069806 2.423878 -0.614776 1.113681 -0.000018 -0.000594 778909.000000 1 0 0
8.202377 -8.950197 7.281406 14.156408 -0.828969 1.030542 0.014769 -0.005913 -1656860.000000 1 0 0
-0.036123 2.319603 -6.421194 6.827416 -1.555225 2.794899 0.008948 -0.005780 -591832.000000 1 0 0
-3.712023 -9.748197 -3.494594 11.000847 1.206959 1.894063 0.013451 -0.003588 516224.000000 1 0 0
-9.515923 2.168203 -5.452294 11.179508 -0.224025 2.080255 -0.006405 0.001208 -2459690.000000 1 0 0
9.051377 -7.509997 5.363306 12.926428 -0.692595 1.142952 0.011298 -0.009121 1212540.000000 1 0 0
-5.535423 -4.274597 4.652706 8.400045 0.657575 0.983766 0.000850 -0.000791 -933769.000000 1 0 0
-0.114223 -12.510597 10.348606 16.236432 1.561667 0.879717 0.007456 -0.005449 -68788.100000 1 0 0
-14.316823 -8.414897 3.000406 16.875554 0.531373 1.392050 0.002589 -0.002410 -1571300.000000 1 0 0
10.952477 -1.191597 -3.507794 11.562062 -0.108371 1.879043 0.012562 -0.001027 -401749.000000 1 0 0
-13.679023 3.018203 2.623006 14.251504 -0.217165 1.385690 0.004673 -0.001658 -935438.000000 1 0 0
-6.320123 6.127603 0.980606 8.857373 -0.769933 1.459858 0.002021 -0.001715 567519.000000 1 0 0
7.133977 -6.873397 -0.527294 9.920446 -0.766797 1.623974 0.006716 -0.005938 761715.000000 1 0 0
-6.926423 7.798403 10.043206 14.479517 -0.844547 0.804301 0.002079 -0.002796 587652.000000 1 0 0
-12.633723 -5.272697 -2.028394 13.839316 0.395374 1.717894 -0.004179 -0.000912 -3882150.000000 1 0 0
-9.453523 -5.685997 0.154706 11.032841 0.541499 1.556774 0.002599 -0.000179 -1053810.000000 1 0 0
-1.749923 1.912403 2.211706 3.407515 -0.829735 0.864439 0.005238 -0.001484 -67136.900000 1 0 0
-7.096323 7.356103 7.517306 12.687787 -0.803371 0.936658 -0.001182 -0.003637 -77876.500000 1 0 0
5.685577 7.160503 -0.432194 9.153436 0.899713 1.618031 0.002516 0.001078 -858176.000000 1 0 0
-0.040023 -4.293297 7.602906 8.731447 1.561474 0.514071 0.004263 -0.002031 -1069040.000000 1 0 0
6.376677 0.744103 13.116706 14.603550 0.116166 0.455170 0.012580 -0.006329 915891.000000 1 0 0
5.875977 6.148903 -7.987694 11.667878 0.808091 2.324835 -0.000943 0.003199 -689895.000000 1 0 0
9.922777 5.364903 9.116206 14.503410 0.495648 0.891101 0.003687 -0.005543 -2527300.000000 1 0 0
-1.173223 -4.951897 -8.541694 9.942750 1.338162 2.604281 0.006644 -0.003021 840320.000000 1 0 0
10.145977 -3.409397 -8.050294 13.392986 -0.324179 2.215652 0.013115 -0.007547 691549.000000 1 0 0
8.127377 -5.654197 1.412206 10.000926 -0.607833 1.429115 0.007857 -0.006434 1276420.000000 1 0 0
15.765477 3.171203 -4.999394 16.840450 0.198500 1.872208 0.020113 -0.001040 -448284.000000 1 0 0
-6.974323 3.609003 1.166306 7.938914 -0.477526 1.423353 0.000984 -0.001970 659699.000000 1 0 0
-1.798723 3.847203 0.288406 4.256707 -1.133452 1.502991 0.005865 -0.003025 -1023660.000000 1 0 0
-2.666423 10.119903 6.925306 12.549188 -1.313169 0.986212 0.000840 0.002047 -148598.000000 1 0 0
5.590477 -5.711397 -8.680294 11.799195 -0.796097 2.397449 0.002282 -0.002260 1416670.000000 1 0 0
-1.310323 -0.955697 6.176406 6.385788 0.630160 0.256786 0.004607 -0.002611 6684.050000 1 0 0
-5.666223 4.869003 -7.782594 10.788051 -0.709870 2.376631 0.003824 -0.003873 11170.800000 1 0 0
6.746777 -1.190897 2.579206 7.320488 -0.174714 1.210740 0.006406 -0.001996 -1068650.000000 1 0 0
8.754577 7.562703 3.293606 12.028506 0.712484 1.293437 0.003870 0.002016 -32677.900000 1 0 0
-5.274723 -4.867297 -7.721494 10.542047 0.745248 2.392706 0.014059 -0.006905 1256960.000000 1 0 0
-2.216623 7.844303 -10.037794 12.930732 -1.295399 2.459530 0.006020 -0.001011 712893.000000 1 0 0
-2.812923 -2.252597 1.675506 3.974172 0.675230 1.135589 0.001792 -0.000165 -1968770.000000 1 0 0
6.022177 -2.023597 -9.145794 11.135848 -0.324170 2.534470 -0.000156 0.000142 1020180.000000 1 0 0
0.997077 -7.499097 5.208806 9.184893 -1.438612 0.967809 0.004894 -0.002436 733414.000000 1 0 0
1.735277 11.899103 1.337506 12.099123 1.425985 1.460024 0.003442 -0.000778 432123.000000 1 0 0
-1.072723 7.051303 2.538706 7.570775 -1.419823 1.228841 0.003163 0.000470 689388.000000 1 0 0
8.808177 7.963903 -6.594994 13.583140 0.735103 2.077763 -0.000944 -0.000407 249804.000000 1 0 0
3.765277 -10.807997 5.393306 12.652188 -1.235566 1.130426 0.002706 0.001486 619292.000000 1 0 0
7.987577 -7.018897 12.395406 16.331331 -0.720937 0.709028 0.035533 -0.012423 431129.000000 1 0 0
-8.698423 -0.007797 -3.968494 9.560940 0.000896 1.998820 -0.001053 -0.002065 -1727750.000000 1 0 0
-3.447923 -5.060197 11.193906 12.759204 0.972676 0.500547 0.005722 -0.003370 -771257.000000 1 0 0
-8.249723 0.161103 -11.627894 14.258044 -0.019526 2.524445 0.003485 -0.005865 -2382440.000000 1 0 0
1.329877 -4.983997 5.314406 7.406194 -1.310042 0.770500 0.002767 -0.002222 -480542.000000 1 0 0
6.675377 3.814703 -7.674494 10.863263 0.519169 2.355285 -0.001403 0.002714 -201417.000000 1 0 0
16.363677 4.268103 -1.235694 16.956226 0.255143 1.643737 0.024616 0.007123 -1290270.000000 1 0 0
7.962077 7.432903 0.207106 10.894293 0.751039 1.551785 0.001961 0.001171 -1071050.000000 1 0 0
5.568077 -10.271597 13.924706 18.177090 -1.074050 0.698111 0.026442 -0.013607 481633.000000 1 0 0
-5.445623 -9.232997 8.890706 13.926510 1.037910 0.878377 0.015365 -0.006068 224507.000000 1 0 0
-12.570523 -3.194097 2.894906 13.289122 0.248828 1.351195 -0.002954 0.000592 -227765.000000 1 0 0
-2.094423 -1.300497 -5.941094 6.432301 0.555670 2.748253 0.012040 -0.009904 -1928150.000000 1 0 0
-2.616923 12.963903 -4.223394 13.883376 -1.371611 1.879900 0.008565 0.007810 405959.000000 1 0 0
3.855677 -0.397897 -5.048494 6.364893 -0.102834 2.486807 0.004799 0.000600 -114072.000000 1 0 0
-8.930423 3.720003 -7.413194 12.187958 -0.394695 2.224637 -0.003786 -0.002131 68872.600000 1 0 0
-4.545223 7.921603 -11.336694 14.557867 -1.049883 2.463440 0.001226 -0.000754 -2051730.000000 1 0 0
-10.220923 -6.480697 7.377506 14.173718 0.565089 1.023353 0.008491 0.001160 -2073370.000000 1 0 0
8.113777 5.184203 4.126906 10.475719 0.568560 1.165872 0.002525 0.000635 -318886.000000 1 0 0
-6.793423 -7.596697 4.030606 10.959296 0.841162 1.194176 0.009887 -0.001046 -52383.200000 1 0 0
-4.108923 11.896503 8.181206 15.011401 -1.238235 0.994408 0.004267 -0.004439 -969889.000000 1 0 0
-7.261423 9.855403 -7.945494 14.594112 -0.935799 2.146508 -0.000374 0.000912 -1330980.000000 1 0 0
13.079977 5.506803 4.628006 14.927462 0.398486 1.255569 0.013477 -0.002971 -801829.000000 1 0 0
5.269877 4.011403 -3.689494 7.581249 0.650627 2.079059 0.001896 0.002565 529344.000000 1 0 0
-2.908723 -4.177097 5.093006 7.200521 0.962524 0.785110 0.004431 -0.000841 -2255980.000000 1 0 0
12.453177 -2.302697 -5.092794 13.649930 -0.182843 1.953145 0.007945 -0.002877 -2373880.000000 1 0 0
-5.290623 9.746803 6.995206 13.111970 -1.073493 1.008066 0.000441 -0.003127 489115.000000 1 0 0
1.798677 3.769203 -0.464294 4.202107 1.125552 1.681513 -0.000691 -0.000526 642211.000000 1 0 0
-0.181823 9.601703 7.695906 12.306613 -1.551862 0.895220 -0.001782 0.002219 -1319680.000000 1 0 0
-5.763623 2.064003 5.810706 8.440602 -0.343880 0.811484 0.001748 -0.001249 752835.000000 1 0 0
8.861977 0.873403 10.751706 13.960539 0.098239 0.691720 0.011659 -0.002880 -814252.000000 1 0 0
0.455877 -2.820797 -10.148094 10.542701 -1.410569 2.867129 0.006736 -0.004476 -2203820.000000 1 0 0
1.270377 10.664303 -2.724194 11.079822 1.452231 1.819213 0.004909 -0.000382 236661.000000 1 0 0
2.241277 -4.242497 11.692206 12.638424 -1.084772 0.389414 0.007882 -0.004655 -317935.000000 1 0 0
6.522477 -2.985197 9.558106 11.950376 -0.429221 0.643807 0.015345 -0.004165 687583.000000 1 0 0
-10.570623 -8.226797 5.646806 14.536322 0.661350 1.171835 0.011901 0.000434 -719760.000000 1 0 0
-3.021423 0.743503 -6.874094 7.545526 -0.241283 2.716537 0.014787 -0.009198 763180.000000 1 0 0
11.094877 2.712703 -4.990394 12.464313 0.239796 1.982722 0.003212 -0.000289 -3081820.000000 1 0 0
-2.066323 -4.080797 0.001606 4.574122 1.102079 1.570445 0.004794 -0.002383 898062.000000 1 0 0
-1.253623 -6.419197 -10.681694 12.525025 1.377931 2.592174 0.001832 -0.000932 871509.000000 1 0 0
0.337177 6.882903 -6.632794 9.564623 1.521848 2.337093 0.005420 0.000872 -2027360.000000 1 0 0
1.974677 3.915003 -6.267294 7.648894 1.103645 2.531112 0.001988 -0.000339 -1710950.000000 1 0 0
1.810177 -14.692397 6.335906 16.102390 -1.448209 1.166387 0.013476 -0.008283 27273.600000 1 0 0
-1.629223 5.358703 -10.582294 11.973096 -1.275644 2.654804 0.010440 -0.003093 -22901.700000 1 0 0
13.688877 4.387003 -0.819694 14.398023 0.310138 1.627758 0.009729 0.001142 -346043.000000 1 0 0
-2.385223 3.246403 -6.137494 7.341475 -0.937141 2.560754 0.011883 -0.006435 -811982.000000 1 0 0
5.594377 7.781403 14.316206 17.227915 0.947470 0.589913 0.017434 -0.006469 978349.000000 1 0 0
15.951777 0.603603 -5.748494 16.966695 0.037821 1.916449 0.020948 -0.002877 125919.000000 1 0 0
6.176977 -8.252797 10.566906 14.762222 -0.928275 0.773017 0.008025 -0.002852 189132.000000 1 0 0
-0.036223 -5.907497 -6.351494 8.674175 1.564665 2.392387 0.003761 -0.003622 -1020920.000000 1 0 0
8.632177 5.562603 -7.515194 12.725376 0.572431 2.202558 -0.000665 0.000822 -541224.000000 1 0 0
-16.066823 -0.810797 5.308506 16.940496 0.050421 1.252065 0.027063 -0.014475 -441351.000000 1 0 0
-0.330623 3.981403 -12.319594 12.951189 -1.487945 2.828004 0.014778 -0.003524 682729.000000 1 0 0
-11.352723 3.643903 5.887806 13.297691 -0.310584 1.112112 -0.002014 -0.004234 254930.000000 1 0 0
5.128177 -9.528197 -9.675294 14.515373 -1.077049 2.300374 -0.008736 -0.000347 -76361.900000 1 0 0
1.515277 11.130903 -11.837094 16.319004 1.435496 2.382348 0.002727 -0.000485 -2273680.000000 1 0 0
5.937377 2.451003 1.163506 6.527910 0.391500 1.391603 0.004666 -0.000068 -259632.000000 1 0 0
5.646977 4.622503 4.883706 8.781029 0.685968 0.981032 -0.001771 0.001120 612317.000000 1 0 0
0.400577 -1.586297 -6.326194 6.534335 -1.323444 2.888516 0.005987 -0.005884 -1896600.000000 1 0 0
12.657177 6.915603 -4.452894 15.094965 0.500058 1.870244 0.011088 -0.001999 -1996460.000000 1 0 0
7.425077 3.258803 12.685206 15.055431 0.413578 0.568765 0.008831 -0.005903 -361225.000000 1 0 0
-2.548223 -0.299497 8.513206 8.891446 0.116995 0.292728 0.002475 -0.001850 1279460.000000 1 0 0
2.433077 -15.186597 13.164906 20.245180 -1.411934 0.862852 0.010621 -0.009548 595195.000000 1 0 0
18.957777 4.679803 -1.732094 19.603521 0.242016 1.659268 0.039252 -0.003134 1407070.000000 1 0 0
-0.219023 -13.189097 7.145106 15.001759 1.554192 1.074372 0.008283 -0.002861 -385128.000000 1 0 0
4.267577 1.547103 -0.526994 4.569843 0.347789 1.686373 0.002038 -0.000880 593345.000000 1 0 0
2.725977 -0.459897 -7.435694 7.932970 -0.167135 2.785641 0.003922 -0.001732 -244929.000000 1 0 0
7.225977 -11.170597 0.976806 13.339832 -0.996621 1.497506 0.006475 -0.005114 670534.000000 1 0 0
-11.955423 -7.394497 1.241406 14.112115 0.553916 1.482715 0.000968 0.004221 -16030.000000 1 0 0
0.118777 -6.993797 10.191006 12.360578 -1.553815 0.601520 0.003956 -0.005595 -1255810.000000 1 0 0
-4.766123 -7.226597 10.539406 13.638867 0.987754 0.687637 0.008232 -0.000184 -853177.000000 1 0 0
11.749777 0.724803 -1.566894 11.875932 0.061608 1.703121 0.009202 -0.002741 1124900.000000 1 0 0
6.669077 -9.509997 -7.503194 13.828035 -0.959218 2.144334 0.000725 -0.004907 -476938.000000 1 0 0
-11.007223 4.833503 3.516606 12.525503 -0.413770 1.286215 -0.004783 -0.001533 199425.000000 1 0 0
6.069377 -8.913497 2.014806 10.970287 -0.972991 1.386088 0.006972 -0.006612 2770640.000000 1 0 0
11.597777 -1.240597 5.929406 13.084547 -0.106563 1.100488 0.021357 -0.009353 144196.000000 1 0 0
-6.591223 3.618703 4.158106 8.592384 -0.502089 1.065657 -0.000687 -0.001935 -978445.000000 1 0 0
9.510077 6.373303 -3.135694 11.869842 0.590419 1.838143 0.004276 0.001495 740906.000000 1 0 0
-2.272823 6.456803 10.926706 12.893755 -1.232337 0.559649 0.000708 0.000768 175503.000000 1 0 0
1.852077 9.772503 3.009506 10.391782 1.383498 1.276983 -0.001218 0.000529 -122317.000000 1 0 0
2.875777 6.174603 -5.611694 8.825358 1.134928 2.259919 -0.001065 0.002542 -2050840.000000 1 0 0
12.010577 0.172703 -5.497194 13.209956 0.014378 1.999993 0.007094 -0.000920 244931.000000 1 0 0
-2.576423 -12.410897 6.215906 14.117570 1.366110 1.114868 0.019408 -0.001728 27388.800000 1 0 0
10.741177 1.838103 -2.731094 11.234340 0.169485 1.816359 0.005565 -0.002656 123364.000000 1 0 0
-8.889923 5.334703 0.815106 10.399720 -0.540482 1.492338 -0.001719 -0.001571 -857200.000000 1 0 0
1.148377 -10.055597 5.704306 11.617784 -1.457086 1.057562 0.002048 -0.003342 448084.000000 1 0 0
9.462377 -5.596097 -0.912594 11.031125 -0.534076 1.653620 0.012721 -0.004726 249567.000000 1 0 0
-7.783423 8.576203 -4.479594 12.417717 -0.833820 1.939860 -0.000682 0.000238 -271801.000000 1 0 0
-7.516023 -0.174897 -1.697594 7.707335 0.023266 1.792874 -0.002451 -0.000504 -1714250.000000 1 0 0
4.124877 8.827203 2.676606 10.104373 1.133656 1.302701 0.002091 0.000523 781997.000000 1 0 0
-1.298023 -10.633397 -3.767894 11.355660 1.449327 1.909015 0.008254 -0.003147 -539366.000000 1 0 0
3.236677 7.834003 -3.684994 9.242666 1.178999 1.980889 0.001518 0.000339 -494629.000000 1 0 0
-4.276723 1.622003 -11.132494 12.035518 -0.362503 2.751753 0.011640 -0.005743 -353325.000000 1 0 0
1.235777 2.752503 10.958706 11.366470 1.148804 0.268667 0.002469 -0.003202 804830.000000 1 0 0
2.102677 5.612903 -8.054894 10.040282 1.212363 2.501864 0.001755 0.001433 361798.000000 1 0 0
15.553477 6.146603 4.043306 17.205805 0.376354 1.333581 0.042393 -0.007278 84888.000000 1 0 0
-4.480423 9.020403 4.589906 11.068383 -1.109793 1.143198 0.002037 -0.001301 1477540.000000 1 0 0
-0.792123 -8.162897 -12.450094 14.908561 1.474060 2.559105 0.000461 0.000979 -24469.500000 1 0 0
14.274877 -4.228097 -5.074594 15.728968 -0.287959 1.899300 0.021589 -0.003397 1977780.000000 1 0 0
-5.933723 -6.195597 -5.615794 10.253372 0.806985 2.150412 0.014830 -0.005214 668273.000000 1 0 0
-8.930023 2.671403 -12.332094 15.458404 -0.290675 2.494367 0.002277 -0.006159 319948.000000 1 0 0
10.587477 5.480103 13.846406 18.271540 0.477630 0.710842 0.027957 -0.005515 770488.000000 1 0 0
-0.497923 10.912203 5.496106 12.228299 -1.525198 1.104638 -0.002770 0.006917 411102.000000 1 0 0
0.408577 11.169203 -0.576994 11.191558 1.534232 1.622375 0.005929 -0.000219 9244.940000 1 0 0
-1.520723 -0.526397 3.656006 3.994505 0.333240 0.414646 0.004696 -0.001973 412021.000000 1 0 0
-4.885923 6.597403 8.858606 12.077784 -0.933350 0.747394 0.001902 -0.000099 -1105540.000000 1 0 0
3.446777 -8.770697 -11.393094 14.785398 -1.196349 2.450522 -0.002621 0.001750 554559.000000 1 0 0
6.682477 -3.894697 12.088706 14.351340 -0.527693 0.569186 0.029500 -0.008886 -85189.800000 1 0 0
-2.431723 -1.916997 -12.520094 12.897322 0.667584 2.899138 0.008795 -0.005787 1060460.000000 1 0 0
-16.092423 -4.882497 5.198706 17.602028 0.294576 1.270978 0.023342 -0.007453 1570160.000000 1 0 0
-9.006523 7.179603 5.822606 12.906080 -0.673004 1.102740 -0.002746 -0.001979 -3733590.000000 1 0 0
-12.821823 1.392603 5.948006 14.202720 -0.108188 1.138680 -0.003394 -0.003757 400123.000000 1 0 0
-3.554823 3.533303 10.173906 11.341488 -0.782362 0.457743 0.001169 0.002214 493018.000000 1 0 0
2.122477 -12.232197 -1.203994 12.473217 -1.398991 1.667473 0.011006 -0.003937 -2394240.000000 1 0 0
10.189977 -5.164197 -3.440894 11.930814 -0.469066 1.863356 0.015765 -0.002702 1073260.000000 1 0 0
3.250877 -13.390997 1.004406 13.816506 -1.332638 1.498036 0.010271 -0.004728 388445.000000 1 0 0
10.190477 -1.701597 -6.098294 11.997102 -0.165453 2.104022 0.008518 -0.000697 47604.700000 1 0 0
11.985877 -5.265397 -1.564994 13.184645 -0.413920 1.689775 0.015510 -0.004890 -1514790.000000 1 0 0
1.420777 0.923503 5.892406 6.131224 0.576374 0.280024 0.002888 -0.001645 -197023.000000 1 0 0
-10.864223 11.626103 6.610906 17.230835 -0.819261 1.177032 0.005812 -0.006803 212224.000000 1 0 0
4.854477 -14.006497 3.043306 15.133063 -1.237165 1.368312 0.011957 -0.005746 -2886460.000000 1 0 0
5.284877 -3.386597 -1.721294 6.508596 -0.569887 1.838445 0.008290 -0.002621 -1824810.000000 1 0 0
2.069077 -2.909197 -7.701594 8.488761 -0.952580 2.707542 0.001288 -0.002665 -224688.000000 1 0 0
-2.943823 14.728703 -8.860894 17.438929 -1.373526 2.103785 0.010542 0.003418 -2403670.000000 1 0 0
-2.304023 5.992603 -8.132894 10.361650 -1.203742 2.473337 0.009555 -0.001860 -58615.600000 1 0 0
2.581477 -3.516997 -11.382694 12.190120 -0.937614 2.775586 0.002722 -0.002137 -1601430.000000 1 0 0
14.584677 2.896103 -2.646894 15.103188 0.196022 1.746960 0.012093 -0.000497 649998.000000 1 0 0
-3.619823 13.142603 2.426206 13.846213 -1.302034 1.394662 -0.000479 0.000307 -661402.000000 1 0 0
7.925077 -4.996997 14.009606 16.853661 -0.562566 0.589444 0.040909 -0.017708 -1169290.000000 1 0 0
-11.470423 7.248103 2.846706 13.863958 -0.563542 1.363994 -0.003197 -0.001658 1242330.000000 1 0 0
-2.373023 11.864803 4.087906 12.771678 -1.373396 1.244987 -0.000477 0.000404 62586.800000 1 0 0
1.760677 1.433403 0.804506 2.408705 0.683292 1.230253 -0.001530 0.000167 -1424830.000000 1 0 0
-6.964023 8.545903 5.270106 12.219005 -0.887038 1.124859 -0.002287 -0.004847 -928079.000000 1 0 0
-1.114123 9.099303 1.028006 9.224716 -1.448962 1.459124 0.004212 -0.000479 603798.000000 1 0 0
4.857877 13.160603 -8.564594 16.436324 1.217188 2.118909 0.020549 -0.014958 -2561600.000000 1 0 0
8.875977 6.885803 7.241806 13.365665 0.659797 0.998193 -0.001941 0.000193 -1130830.000000 1 0 0
7.351077 -13.662497 2.873406 15.778422 -1.077176 1.387665 0.013078 -0.003289 599868.000000 1 0 0
4.249577 -13.388497 -1.248294 14.102092 -1.263449 1.659431 0.009209 -0.001135 -3150030.000000 1 0 0
12.260177 -11.745397 -4.610594 17.593291 -0.763957 1.835958 0.025293 -0.003773 -906868.000000 1 0 0
2.879277 -0.063397 -1.917294 3.459809 -0.022015 2.158152 0.001826 -0.001261 969631.000000 1 0 0
-13.569523 -3.272697 -10.673894 17.571981 0.236660 2.223628 0.025859 -0.013641 -195632.000000 1 0 0
-6.652523 13.601503 5.066406 15.966384 -1.115905 1.247897 0.010697 -0.008599 267424.000000 1 0 0
7.294377 -4.230997 -0.567294 8.451692 -0.525610 1.637969 0.006518 -0.002087 -1581950.000000 1 0 0
11.700777 2.007903 -7.259094 13.915255 0.169949 2.119597 0.010770 -0.002301 -592697.000000 1 0 0
-7.591323 -4.554497 9.661806 13.104278 0.540391 0.741729 0.011613 -0.002778 358862.000000 1 0 0
0.995277 2.746003 8.422706 8.914768 1.223077 0.333801 0.001157 -0.001957 -742857.000000 1 0 0
1.640577 8.137903 -8.792694 12.092495 1.371866 2.384914 0.002837 -0.000498 -244868.000000 1 0 0
-8.672623 -2.193197 -5.607694 10.557970 0.247694 2.130734 0.004366 -0.004944 -979397.000000 1 0 0
6.712077 -0.391097 7.141606 9.808541 -0.058202 0.755249 0.008107 -0.002097 383366.000000 1 0 0
-11.045523 6.568003 7.126206 14.694388 -0.536462 1.064478 0.000744 -0.005633 667785.000000 1 0 0
-6.111423 11.009903 4.930806 13.523324 -1.064058 1.197577 -0.001872 -0.003901 -190659.000000 1 0 0
6.201577 -1.147997 -6.869294 9.325485 -0.183042 2.398848 0.000475 0.001528 -174821.000000 1 0 0
4.448277 -5.715297 11.447206 13.545859 -0.909421 0.564099 0.016492 -0.007056 -1511610.000000 1 0 0
-9.067023 -7.404797 2.667206 12.006494 0.684825 1.346780 0.005329 0.001960 -3445740.000000 1 0 0
-1.251923 12.716003 -9.275494 15.789200 -1.472660 2.198711 0.007436 0.002734 951458.000000 1 0 0
-4.713623 9.209903 -2.282394 10.594805 -1.097754 1.787924 0.003073 -0.001473 930603.000000 1 0 0
-3.229823 9.611603 -0.217994 10.142100 -1.246617 1.592292 0.006685 -0.002401 -1023560.000000 1 0 0
-3.382023 10.695803 -6.425494 12.927694 -1.264543 2.090973 0.002104 0.006216 731352.000000 1 0 0
4.924277 -4.800997 0.418606 6.890088 -0.772723 1.510004 0.009766 -0.005141 -1872590.000000 1 0 0
-2.202323 2.933203 -10.937794 11.536432 -0.926767 2.818031 0.014166 -0.004297 -613057.000000 1 0 0
-3.667323 12.019703 -2.093294 12.739875 -1.274659 1.735855 0.002970 0.005626 1080120.000000 1 0 0
-0.212623 0.355303 0.026106 0.414886 -1.031535 1.507833 0.001445 -0.001942 -1805130.000000 1 0 0
-4.843723 -1.829397 0.086906 5.178406 0.361122 1.554013 0.001034 -0.001009 529150.000000 1 0 0
2.535277 2.430003 -2.462694 4.289220 0.764199 2.182373 -0.003595 -0.000075 641706.000000 1 0 0
6.100077 -9.605697 8.424106 14.157892 -1.005004 0.933517 0.004921 -0.001240 -1858880.000000 1 0 0
-4.242623 -5.439597 6.628606 9.566999 0.908400 0.805346 0.007491 -0.002661 149364.000000 1 0 0
-6.231323 5.211303 -12.076094 14.554007 -0.696491 2.549445 -0.001849 -0.003649 211362.000000 1 0 0
-13.097023 3.040903 7.906706 15.597919 -0.228141 1.039203 0.001688 -0.010765 521692.000000 1 0 0
4.697177 -7.379797 -4.965994 10.059124 -1.003976 2.087113 0.003391 -0.004074 -582720.000000 1 0 0
-6.114023 2.452903 -1.019994 6.666213 -0.381534 1.724409 0.005546 -0.002004 -457025.000000 1 0 0
-6.782423 -2.779797 -14.559094 16.300177 0.388971 2.675178 0.008362 -0.002661 -496730.000000 1 0 0
2.674677 -6.062597 0.884906 6.685210 -1.155304 1.438039 0.005239 -0.002843 107763.000000 1 0 0
4.702977 -7.919197 12.876206 15.831246 -1.034896 0.620924 0.024703 -0.012862 -149519.000000 1 0 0
-9.901023 -1.772797 8.003906 12.854398 0.177174 0.898660 0.001123 -0.000965 228148.000000 1 0 0
-4.522323 13.221203 0.038006 13.973298 -1.241221 1.568076 0.000640 0.004822 732355.000000 1 0 0
6.775277 2.281603 -4.418894 8.404566 0.324826 2.124420 0.001315 0.002550 -1630090.000000 1 0 0
4.971577 4.575803 0.041906 6.756946 0.743968 1.564594 -0.002112 0.001405 -566656.000000 1 0 0
-5.993723 12.308303 1.896906 13.820901 -1.117630 1.433113 0.001979 -0.001048 -1175930.000000 1 0 0
6.547377 -7.255097 6.511206 11.743099 -0.836628 0.983069 0.006262 -0.005656 -640448.000000 1 0 0
-0.317123 4.861003 7.631106 9.053380 -1.505651 0.568144 0.001471 0.001993 -584059.000000 1 0 0
-5.845223 -3.470297 -1.533994 6.968696 0.535773 1.792740 0.004832 -0.003500 -23643.100000 1 0 0
2.255577 -6.570197 -5.350094 8.768046 -1.240099 2.227085 0.000037 -0.000865 -301620.000000 1 0 0
-14.408423 -4.844697 -3.792094 15.666962 0.324365 1.815268 0.004746 -0.005295 100119.000000 1 0 0
-12.421123 -5.116797 -6.320294 14.846280 0.390760 2.010549 0.015786 -0.009176 -543795.000000 1 0 0
-14.697523 -3.836897 -1.283394 15.244214 0.255358 1.655085 -0.004484 -0.002673 608631.000000 1 0 0
11.748077 2.918603 8.815406 14.974877 0.243503 0.941372 0.020453 -0.005126 -683408.000000 1 0 0
8.743077 -6.487197 7.762906 13.371156 -0.638349 0.951367 0.014309 -0.010392 289799.000000 1 0 0
-8.906423 -1.719497 -9.666994 13.256388 0.190716 2.387997 0.006130 -0.005800 130090.000000 1 0 0
-8.884223 5.145303 -3.868794 10.971378 -0.524948 1.931172 0.001083 -0.002033 -2095080.000000 1 0 0
-4.118223 -6.253197 4.126206 8.549140 0.988414 1.067123 0.007569 -0.001801 -1130630.000000 1 0 0
-0.208123 -9.285097 3.608606 9.963853 1.548385 1.200202 0.007707 -0.002930 820793.000000 1 0 0
8.002577 -10.211397 3.354206 13.400170 -0.906079 1.317795 0.006820 -0.007790 118617.000000 1 0 0
-0.110323 6.445003 9.593006 11.557508 -1.553680 0.591646 -0.000649 0.000341 -1027870.000000 1 0 0
0.099777 3.500503 -9.796194 10.403312 1.542300 2.798271 0.012824 -0.002620 -1165590.000000 1 0 0
4.434777 -3.150897 11.114106 12.374116 -0.617736 0.455199 0.011227 -0.006737 -2962990.000000 1 0 0
8.676577 -9.071697 1.168106 12.607266 -0.807657 1.478010 0.007210 -0.007454 -662913.000000 1 0 0
-0.384423 -0.540097 11.366206 11.385522 0.952217 0.058259 0.006584 -0.004137 -1493730.000000 1 0 0
10.930077 6.013603 11.400106 16.899480 0.502988 0.830396 0.021714 -0.008532 -76525.700000 1 0 0
-6.269823 -2.945097 -11.956194 13.817918 0.439136 2.616480 0.010545 -0.003199 215937.000000 1 0 0
-1.696423 2.841703 8.436506 9.062436 -1.032605 0.373842 0.003066 -0.000328 979094.000000 1 0 0
-1.766923 13.605803 -6.758394 15.294306 -1.441654 2.028500 0.010869 0.004794 592032.000000 1 0 0
7.708977 3.035303 10.008506 12.992751 0.375095 0.691462 0.008196 -0.002791 1146640.000000 1 0 0
6.443477 8.525203 -7.944694 13.315993 0.923584 2.210089 0.002350 -0.001913 1210120.000000 1 0 0
6.658977 -2.992797 -3.895594 8.274930 -0.422386 2.060960 0.006608 -0.000427 -2202870.000000 1 0 0
2.047777 8.230403 1.001206 8.540219 1.326941 1.453292 0.000315 0.001608 628526.000000 1 0 0
-17.640323 6.326103 6.336706 19.782679 -0.344330 1.244733 0.026464 -0.015206 -200196.000000 1 0 0
-14.513223 3.001703 -10.465394 18.142997 -0.203950 2.185637 0.027603 -0.003942 -144082.000000 1 0 0
-18.294223 0.124403 -4.379694 18.811586 -0.006800 1.805772 0.059200 -0.012477 260922.000000 1 0 0
-13.080723 7.963703 0.153906 15.315011 -0.546874 1.560747 0.000964 -0.001083 249010.000000 1 0 0
-12.812423 -4.364097 -12.953094 18.734625 0.328289 2.334220 0.046410 -0.003846 -1575670.000000 1 0 0
-17.393123 -0.801997 -8.708094 19.467789 0.046077 2.034549 0.065223 -0.021078 320311.000000 1 0 0
-16.611423 -2.140097 -2.080194 16.877399 0.128127 1.694364 0.029489 -0.011367 -912483.000000 1 0 0
-15.398023 4.035203 1.574906 15.995696 -0.256297 1.472178 0.011029 -0.003997 26073.400000 1 0 0
-13.155023 5.812703 4.484106 15.064838 -0.416066 1.268562 0.000282 -0.005478 268974.000000 1 0 0
-10.025323 14.136203 2.733706 17.544586 -0.953926 1.414344 0.018605 -0.007306 336844.000000 1 0 0
-11.909523 2.448503 -6.416294 13.747754 -0.202767 2.056370 -0.000392 0.001468 -76681.900000 1 0 0
-15.878123 10.643803 3.925406 19.514460 -0.590544 1.368261 0.006517 -0.009963 -809236.000000 1 0 0
-12.796423 1.142403 -8.647894 15.486755 -0.089039 2.163259 0.006768 -0.002132 290357.000000 1 0 0
-12.287623 14.361603 4.028306 19.325335 -0.863067 1.360810 0.032375 -0.017715 -1287900.000000 1 0 0
-10.488023 11.145103 -1.104494 15.343789 -0.815763 1.642842 0.002707 -0.002628 -167320.000000 1 0 0
-17.114723 5.243903 8.763506 19.930160 -0.297315 1.115520 0.029355 -0.025915 227001.000000 1 0 0
-11.712223 12.405503 -9.350094 19.454998 -0.814136 2.072136 0.017910 -0.012428 -1066510.000000 1 0 0
-17.214723 -0.557697 2.993106 17.481887 0.032385 1.398737 0.043130 -0.011605 950398.000000 1 0 0
-13.317523 14.776503 -0.517994 19.898989 -0.837284 1.596830 0.043356 -0.018686 347343.000000 1 0 0
-16.738823 4.459503 -10.384194 20.196704 -0.260369 2.110816 0.078373 -0.011816 952501.000000 1 0 0
-11.793123 7.512403 -8.909394 16.579845 -0.567193 2.138103 0.005153 -0.002710 -220347.000000 1 0 0
-14.852323 13.323003 -2.212594 20.074598 -0.731173 1.681239 0.046068 -0.025013 1088510.000000 1 0 0
-11.814523 10.547803 -5.523494 16.773434 -0.728813 1.906359 0.017778 -0.007882 950331.000000 1 0 0
-17.675323 2.960403 -0.809594 17.939801 -0.165948 1.615940 0.052133 -0.008918 -732317.000000 1 0 0
-9.495423 15.326203 0.594006 18.039080 -1.016122 1.537862 0.024847 -0.008094 67612.600000 1 0 0
-8.214123 13.177203 -3.528694 15.923636 -1.013378 1.794252 0.002557 0.004211 -280755.000000 1 0 0
-17.784023 11.563703 2.487606 21.358344 -0.576537 1.454061 0.092054 -0.013661 -829038.000000 1 0 0
-8.316023 15.593403 -7.148194 19.063241 -1.080862 1.955164 0.044756 -0.021281 -107.509000 1 0 0
-6.401423 15.348803 -5.355994 17.471424 -1.175667 1.882371 0.010579 0.005442 1375020.000000 1 0 0
-17.468123 5.403203 -0.205394 18.285844 -0.299983 1.582029 0.044667 -0.002427 618607.000000 1 0 0
-5.489123 12.116103 -12.199394 18.048702 -1.145414 2.313002 0.000408 -0.008637 978.737000 1 0 0
-11.232623 3.731903 -11.551494 16.538922 -0.320764 2.344016 0.011113 -0.006154 -103994.000000 1 0 0
-11.846823 11.008603 1.150006 16.212929 -0.748740 1.499805 0.006278 -0.007122 158563.000000 1 0 0
-12.847823 0.179603 -11.072094 16.961429 -0.013978 2.282046 0.010560 -0.009328 186663.000000 1 0 0
-14.114723 -2.089397 -12.956094 19.273073 0.146962 2.308024 0.071728 -0.020442 2702.260000 1 0 0
-18.729223 -2.327497 -3.637594 19.220643 0.123637 1.761199 0.053289 -0.013761 913894.000000 1 0 0
-18.340923 4.793003 -5.197694 19.656509 -0.255612 1.838405 0.063701 -0.001808 515905.000000 1 0 0
-8.359923 15.480703 -2.151994 17.724885 -1.075646 1.692508 0.018536 0.001388 226682.000000 1 0 0
-16.172923 9.086603 -5.435094 19.330547 -0.511888 1.855805 0.048325 -0.008345 329086.000000 1 0 0
-18.230323 1.665003 1.984406 18.413440 -0.091079 1.462817 0.077291 -0.021373 1377730.000000 1 0 0
-15.620023 -2.721197 -8.722294 18.096089 0.172481 2.073731 0.013951 -0.009778 -608121.000000 1 0 0
-9.698923 10.365103 -7.168394 15.902526 -0.818589 2.038425 0.005844 -0.007896 -116287.000000 1 0 0
-13.741723 11.960203 -7.709694 19.781830 -0.716194 1.971141 0.035283 -0.022203 -345083.000000 1 0 0
-11.100323 6.470103 -3.901994 13.427768 -0.527733 1.865641 -0.001526 -0.001040 -2187030.000000 1 0 0
-13.060523 5.156603 -12.791694 18.994611 -0.376036 2.309646 0.039821 -0.015559 320999.000000 1 0 0
-17.494823 9.044603 2.669906 19.874659 -0.477145 1.436052 0.015777 -0.017994 582075.000000 1 0 0
-13.318723 8.517903 -6.621594 17.140261 -0.568989 1.967433 0.011849 -0.005322 -722509.000000 1 0 0
-15.799223 6.988603 -3.868694 17.703751 -0.416464 1.791098 0.019914 0.000952 -574425.000000 1 0 0
-14.853723 -0.326497 -9.353294 17.556303 0.021977 2.132655 0.026021 -0.010592 412470.000000 1 0 0
-9.977123 5.828603 -6.121294 13.076155 -0.528718 2.057966 -0.001007 -0.000638 301604.000000 1 0 0
-12.793723 12.151003 -0.959794 17.670524 -0.759638 1.625139 0.022189 -0.013354 -826329.000000 1 0 0
-10.698823 3.490603 -14.037094 17.991363 -0.315372 2.465803 0.026920 -0.009813 279801.000000 1 0 0
-10.838023 6.201303 -11.926294 17.267177 -0.519713 2.333241 -0.000815 -0.008092 -1096090.000000 1 0 0
-5.827423 11.454803 -14.763294 19.573611 -1.100188 2.425300 0.016297 -0.020628 -249322.000000 1 0 0
-15.645423 13.257203 3.410306 20.788527 -0.702956 1.406004 0.020234 -0.020071 -240820.000000 1 0 0
-15.132923 10.936903 -3.240294 18.950480 -0.625814 1.742628 0.041282 -0.013681 886909.000000 1 0 0
-18.201823 7.760103 -4.620894 20.319405 -0.403002 1.800216 0.049234 -0.008992 -1205410.000000 1 0 0
-4.066623 16.211103 -10.630294 19.807586 -1.325014 2.137291 0.016585 -0.001475 -90651.300000 1 0 0
-15.804923 4.445503 -4.459794 17.013167 -0.274189 1.836033 0.019951 0.002657 41472.600000 1 0 0
-18.761523 -1.707297 -6.184894 19.828326 0.090750 1.888012 0.058493 -0.016057 603686.000000 1 0 0
-10.764023 8.510603 -5.728794 14.869890 -0.669015 1.966287 0.000400 0.000323 1476620.000000 1 0 0
-11.349723 13.616103 -7.017194 19.064509 -0.875929 1.947736 0.020273 -0.004461 -52177.900000 1 0 0
-9.452823 10.560203 -4.464394 14.859494 -0.840675 1.875951 -0.007159 0.000035 -929190.000000 1 0 0
-11.112823 6.265003 -0.192194 12.758606 -0.513349 1.585861 -0.003932 -0.001241 -810552.000000 1 0 0
-14.703423 9.206903 -1.501494 17.412989 -0.559443 1.657132 0.025996 -0.006207 277664.000000 1 0 0
-18.683723 3.453803 4.415706 19.506632 -0.182793 1.342448 0.057710 -0.026158 243235.000000 1 0 0
-14.902223 12.894503 0.301306 19.708761 -0.713295 1.555508 0.029280 -0.023900 -446520.000000 1 0 0
-16.578923 2.220003 -9.091894 19.038163 -0.133113 2.068674 0.042351 -0.008237 153812.000000 1 0 0
-9.091323 8.358303 -8.995094 15.278256 -0.743415 2.200310 0.000417 0.000190 -2319260.000000 1 0 0
-17.710723 4.704803 -2.677494 18.519553 -0.259650 1.715881 0.042322 0.000840 957590.000000 1 0 0
-13.512523 5.762503 -4.411994 15.338201 -0.403104 1.862566 0.006054 0.003436 -652434.000000 1 0 0
-12.053023 9.664103 3.264706 15.790141 -0.675837 1.362538 -0.001381 -0.003510 354180.000000 1 0 0
-17.612423 2.542603 -4.067694 18.253997 -0.143374 1.795522 0.044278 -0.001827 650749.000000 1 0 0
-11.244123 1.414003 -12.741094 17.051838 -0.125098 2.414632 0.019225 -0.004609 -114361.000000 1 0 0
-11.234623 12.020503 3.545706 16.830962 -0.819179 1.358540 0.005880 -0.008618 237658.000000 1 0 0
-15.962823 13.090003 -4.576594 21.144860 -0.686836 1.788963 0.050050 -0.020978 332966.000000 1 0 0
-11.049823 4.052103 -4.611094 12.640424 -0.351485 1.944203 -0.005199 0.000315 -201923.000000 1 0 0
-11.004423 14.976703 -9.339494 20.799642 -0.937114 2.036467 0.036302 -0.021317 256960.000000 1 0 0
-15.567023 7.123903 -0.265694 17.121705 -0.429179 1.586315 0.017362 -0.000139 -160618.000000 1 0 0
-12.841223 8.330403 -4.094994 15.844923 -0.575477 1.832205 0.008119 -0.003638 787563.000000 1 0 0
-19.262323 1.945303 -5.992994 20.266654 -0.100649 1.870992 0.094993 -0.013018 1965510.000000 1 0 0
-12.555823 10.019103 -8.890094 18.359327 -0.673499 2.076277 0.020297 -0.010817 722495.000000 1 0 0
-16.683423 10.858603 -1.016894 19.931882 -0.576981 1.621837 0.039379 -0.017670 53884.200000 1 0 0
-10.636123 6.439003 -14.473894 19.080920 -0.544373 2.431886 0.035246 -0.020209 -587524.000000 1 0 0
-13.412623 12.710603 -4.197794 18.949389 -0.758531 1.794176 0.023728 -0.022964 -224447.000000 1 0 0
-18.101323 7.834203 -0.164294 19.724594 -0.408456 1.579126 0.070351 -0.011315 76305.300000 1 0 0
-12.797923 6.660203 -2.037394 14.570385 -0.479844 1.711087 -0.001083 0.000397 -34781.200000 1 0 0
-13.822323 8.389703 -10.508294 19.283879 -0.545527 2.147098 0.021328 -0.010105 571581.000000 1 0 0
-15.028523 1.443103 -1.049894 15.134111 -0.095731 1.640225 0.006870 -0.002781 -1144890.000000 1 0 0
-13.354723 2.787103 -2.510094 13.871450 -0.205745 1.752753 -0.004089 0.002585 183392.000000 1 0 0
-11.284123 9.121603 -10.889594 18.141619 -0.679816 2.214616 0.015344 -0.009696 -257418.000000 1 0 0
-15.278223 4.157503 -8.134894 17.801276 -0.265686 2.045398 0.017880 0.001562 455473.000000 1 0 0
-18.337823 10.400103 4.754406 21.611161 -0.515907 1.348984 0.075742 -0.038669 -14223.800000 1 0 0
-15.262623 6.149603 -6.327994 17.629770 -0.383020 1.937926 0.021540 0.005129 539233.000000 1 0 0
-7.779723 11.029403 -13.059294 18.780761 -0.956481 2.339710 0.007481 -0.014584 -253487.000000 1 0 0
-16.954323 9.105603 -2.859594 19.456062 -0.492859 1.718308 0.047445 -0.013789 632754.000000 1 0 0
-20.672523 -1.022797 -4.633794 21.210171 0.049436 1.791043 0.111124 -0.028907 -1111440.000000 1 0 0
-15.553923 4.297903 4.098806 16.649225 -0.269596 1.322053 0.010340 -0.008821 649648.000000 1 0 0
-6.990323 12.442903 -9.284194 17.026060 -1.058945 2.147535 0.005151 -0.004191 -2778400.000000 1 0 0
-17.282123 1.495203 5.641306 18.240935 -0.086302 1.256375 0.037095 -0.019922 473497.000000 1 0 0
-10.538023 14.306703 -3.041094 18.027200 -0.935940 1.740302 0.028371 -0.010703 -233771.000000 1 0 0
-9.882523 8.395303 -12.935894 18.316188 -0.704210 2.354990 -0.003385 -0.014486 841663.000000 1 0 0
-13.786423 11.686303 2.709306 18.274996 -0.703138 1.421996 0.012534 -0.009332 813364.000000 1 0 0
-16.892223 6.668203 1.938606 18.263907 -0.375972 1.464452 0.015588 -0.008123 860116.000000 1 0 0
-9.329623 13.093303 -8.485094 18.178924 -0.951698 2.056414 0.021613 -0.015623 -438016.000000 1 0 0
-5.528523 9.669503 -12.926194 17.063129 -1.051409 2.430350 -0.001807 -0.007740 -1048320.000000 1 0 0
-15.865823 1.746703 3.080706 16.256262 -0.109651 1.380134 0.007356 -0.007101 -989008.000000 1 0 0
-18.787023 -4.811397 4.850306 19.990678 0.250714 1.325722 0.071811 -0.005551 913618.000000 1 0 0
-5.436423 14.426103 -9.252094 17.979666 -1.210408 2.111322 0.007136 0.005489 -531005.000000 1 0 0
-15.434223 -0.875997 -6.896594 16.927658 0.056696 1.990419 0.011818 -0.002285 697702.000000 1 0 0
-9.014723 10.895403 -9.558194 17.068513 -0.879577 2.165170 0.003183 -0.005727 500329.000000 1 0 0
-16.702323 1.194903 -6.122794 17.829301 -0.071419 1.921344 0.018544 -0.001607 -1155940.000000 1 0 0
-11.216823 8.621503 -1.596594 14.237154 -0.655313 1.683176 -0.002426 -0.004554 -1087970.000000 1 0 0
-10.889823 10.887703 -12.678694 19.946920 -0.785301 2.259610 0.030042 -0.014597 -66085.600000 1 0 0
-14.060223 11.503503 -10.349894 20.907912 -0.685716 2.088657 0.058690 -0.028939 -154598.000000 1 0 0
-13.108523 5.634803 -7.712294 16.219244 -0.405978 2.066332 0.010707 0.002935 -1872740.000000 1 0 0
-9.047323 15.266803 -4.726594 18.364913 -1.035825 1.831097 0.024284 -0.009788 81558.800000 1 0 0
-8.568223 6.045203 -13.112394 16.789694 -0.614433 2.467028 0.001478 -0.007743 -746160.000000 1 0 0
-16.395723 7.288303 4.266906 18.443036 -0.418291 1.337325 0.012430 -0.009742 232008.000000 1 0 0
-12.633323 5.449803 -10.209894 17.133101 -0.407265 2.209203 0.012755 -0.001560 42533.700000 1 0 0
-12.515423 8.948503 -13.195694 20.269136 -0.620721 2.279729 0.060143 -0.027857 -275306.000000 1 0 0
-10.738323 5.131303 -8.517294 14.635100 -0.445771 2.191954 -0.002962 0.000433 -1473040.000000 1 0 0
-17.675423 -4.398897 -2.768594 18.423788 0.243916 1.721641 0.028910 -0.008651 619424.000000 1 0 0
-8.782123 13.115703 -11.115294 19.305365 -0.980774 2.184332 0.035823 -0.011752 -67850.900000 1 0 0
-15.081023 5.949303 6.133306 17.333462 -0.375747 1.209121 0.008987 -0.011200 -65665.800000 1 0 0
-16.323923 -3.105397 -4.511794 17.218311 0.187990 1.835926 0.013810 -0.006160 -945947.000000 1 0 0
-11.121423 -1.249497 -12.557494 16.820759 0.111881 2.413654 0.011308 -0.006729 88489.800000 1 0 0
-15.254723 6.674303 -8.697894 18.785799 -0.412430 2.052177 0.009935 -0.000361 -70729.500000 1 0 0
-15.065123 9.335603 1.105106 17.757609 -0.554767 1.508523 0.021104 -0.011248 -325234.000000 1 0 0
-19.516723 5.071403 7.815106 21.626314 -0.254227 1.201059 0.069381 -0.037687 -219666.000000 1 0 0
-16.199823 0.469603 0.934106 16.233525 -0.028980 1.513223 0.027698 -0.009471 -977859.000000 1 0 0
-17.573023 3.707503 6.773106 19.194574 -0.207928 1.210164 0.028823 -0.024033 866258.000000 1 0 0
-15.402123 4.086203 -1.469994 16.002604 -0.259327 1.662786 0.010113 -0.000662 451672.000000 1 0 0
-10.867923 13.279003 0.383406 17.163644 -0.884919 1.548456 0.014457 -0.012559 -645380.000000 1 0 0
-13.455823 3.232903 -0.025794 13.838768 -0.235791 1.572660 0.000425 0.000495 -728038.000000 1 0 0
-15.147123 0.076803 -4.380594 15.768032 -0.005070 1.852315 0.007549 -0.000711 255858.000000 1 0 0
-18.950023 7.056703 3.521406 20.525611 -0.356476 1.398382 0.040704 -0.014465 -16146.500000 1 0 0
-14.101623 1.345303 -6.283494 15.496706 -0.095113 1.988292 0.007733 0.001656 -121965.000000 1 0 0
-14.247723 12.198403 5.260406 19.480003 -0.708062 1.297360 0.007463 -0.011078 47427.300000 1 0 0
17.736577 5.673803 6.062706 19.584040 0.309606 1.256052 0.102725 -0.018846 619571.000000 1 0 0
18.505277 7.608903 -0.478794 20.014244 0.390103 1.594721 0.058410 -0.002249 402708.000000 1 0 0
16.808377 5.128503 8.419006 19.485963 0.296144 1.124026 0.121707 -0.021047 628406.000000 1 0 0
11.561277 12.390703 11.037606 20.224278 0.820013 0.993500 0.044312 -0.009922 633173.000000 1 0 0
-2.322923 16.158203 -0.327794 16.327613 -1.428013 1.590874 0.003017 -0.000650 -561739.000000 1 0 0
15.070577 12.788503 3.422106 20.059385 0.703666 1.399359 0.089568 -0.007063 417804.000000 1 0 0
13.449677 11.748803 6.764806 19.096879 0.718001 1.208699 0.063466 -0.008214 777708.000000 1 0 0
-0.673723 15.821003 8.665406 18.051241 -1.528238 1.070090 0.013543 -0.008102 -220493.000000 1 0 0
0.686777 12.888503 9.427706 15.983329 1.517561 0.939928 0.005146 -0.002185 14781.800000 1 0 0
0.716477 15.521903 -3.856794 16.009925 1.524670 1.814090 0.003266 0.003891 186725.000000 1 0 0
5.338777 10.209003 13.616506 17.836354 1.088959 0.702215 0.025653 -0.010678 623541.000000 1 0 0
-1.339023 16.314603 -2.636994 16.580501 -1.488905 1.730516 0.005858 0.003921 -662995.000000 1 0 0
8.521977 10.078603 3.303406 13.605691 0.868891 1.325549 0.007402 0.002679 327531.000000 1 0 0
12.572077 13.667603 -4.884794 19.202128 0.827125 1.828011 0.116764 -0.028624 282070.000000 1 0 0
2.385577 11.514803 7.886606 14.159104 1.366512 0.980028 0.005264 0.000786 575301.000000 1 0 0
-0.457223 14.960103 -8.625194 17.274482 -1.540243 2.093590 0.013302 0.003842 -1611010.000000 1 0 0
2.319277 15.948903 0.326906 16.119970 1.426389 1.550515 0.010517 -0.007786 -1096850.000000 1 0 0
1.790577 13.331003 5.380706 14.487022 1.437279 1.190263 0.002513 0.005089 456843.000000 1 0 0
17.567277 9.193703 -2.329394 19.963955 0.482147 1.687743 0.041794 0.001763 178634.000000 1 0 0
-7.269523 14.906503 7.206506 18.082686 -1.117058 1.160882 0.017381 -0.017783 20118.600000 1 0 0
8.417677 15.808503 -0.128394 17.910404 1.081505 1.577965 0.035979 -0.018364 23783.700000 1 0 0
15.693777 10.601503 2.124806 19.057841 0.594109 1.459072 0.065468 0.004486 1110190.000000 1 0 0
14.097777 7.320303 8.628706 18.077299 0.478931 1.073191 0.073997 -0.020808 -1663750.000000 1 0 0
4.173277 18.481503 -1.901294 19.041983 1.348713 1.670810 0.021672 -0.017230 -405076.000000 1 0 0
-0.615623 17.617703 -4.832594 18.278852 -1.535867 1.838359 0.020545 0.005209 652708.000000 1 0 0
1.357377 13.639603 -0.732494 13.726536 1.471606 1.624185 0.006119 -0.003221 351019.000000 1 0 0
10.145077 14.715703 4.286506 18.380660 0.967217 1.335422 0.032882 -0.014688 -209489.000000 1 0 0
-1.729223 15.336403 -5.038694 16.235268 -1.458518 1.886363 0.011451 0.004033 393459.000000 1 0 0
15.285377 9.009103 -6.335394 18.839956 0.532584 1.913754 0.084229 -0.014183 205918.000000 1 0 0
-2.376723 18.454303 1.057506 18.636750 -1.442712 1.514023 0.003235 -0.002704 -1100760.000000 1 0 0
-3.961623 19.361003 3.725006 20.110161 -1.368964 1.384490 0.030180 -0.007433 131513.000000 1 0 0
1.851077 17.669803 -2.709994 17.971992 1.466418 1.722164 0.008520 -0.004293 -309888.000000 1 0 0
2.885277 12.086403 3.411406 12.885793 1.336461 1.302860 0.000825 0.001798 260519.000000 1 0 0
-2.666523 16.102703 2.053906 16.450712 -1.406691 1.445618 0.005521 -0.003080 -798811.000000 1 0 0
11.847777 12.887903 -2.545894 17.690378 0.827423 1.715212 0.068724 -0.000894 560253.000000 1 0 0
7.144477 11.676203 4.858406 14.525198 1.021685 1.229742 0.003916 0.001789 84413.700000 1 0 0
7.095977 15.891103 1.965306 17.514065 1.150825 1.458347 0.017398 -0.014140 -1974310.000000 1 0 0
5.449777 12.225603 10.314106 16.898113 1.151468 0.914268 0.010183 0.003320 33092.800000 1 0 0
-1.340223 14.148403 3.258706 14.580558 -1.476352 1.345396 0.000294 -0.001483 -414281.000000 1 0 0
4.554877 16.187903 1.476406 16.881200 1.296513 1.483226 0.014171 -0.018141 -3148880.000000 1 0 0
7.265677 13.186703 12.013806 19.261639 1.067197 0.897308 0.022776 -0.003383 122502.000000 1 0 0
0.573977 17.325103 -9.231494 19.639479 1.537679 2.060141 0.021236 0.000052 304981.000000 1 0 0
9.950877 9.462003 15.351906 20.596856 0.760221 0.729734 0.040246 -0.016966 -99036.800000 1 0 0
13.462177 7.485303 -0.167994 15.404162 0.507457 1.581702 0.010683 0.003511 498776.000000 1 0 0
12.236377 13.831303 -0.074394 18.467253 0.846506 1.574825 0.066432 -0.001793 433340.000000 1 0 0
9.298477 12.422203 3.452806 15.896373 0.928232 1.351844 0.014751 0.002106 388712.000000 1 0 0
-0.672323 12.845203 0.734406 12.883735 -1.518504 1.513763 0.005150 -0.001857 -1270390.000000 1 0 0
15.997977 7.449703 -0.933494 17.672147 0.435805 1.623644 0.029249 0.002655 -1987260.000000 1 0 0
-4.219123 18.406503 -2.213194 19.013116 -1.345470 1.687464 0.024360 -0.003970 63758.300000 1 0 0
11.608977 9.330203 -3.228794 15.239625 0.676997 1.784283 0.029880 0.002686 77400.200000 1 0 0
14.665677 9.756803 7.825806 19.274868 0.587043 1.152712 0.069614 -0.018389 -312402.000000 1 0 0
4.331477 13.826303 4.751206 15.248027 1.267203 1.253925 0.012712 0.001857 -202205.000000 1 0 0
2.106177 15.871403 5.623506 16.969421 1.438865 1.233019 0.019538 -0.007055 157872.000000 1 0 0
6.093477 18.461103 5.448406 20.189798 1.251985 1.297549 0.035317 -0.025149 62169.900000 1 0 0
10.608477 17.106703 -0.798794 20.144904 1.015703 1.610459 0.102890 -0.027273 -731044.000000 1 0 0
9.940777 13.724203 -4.350594 17.495728 0.943931 1.822099 0.081141 -0.013344 556213.000000 1 0 0
16.548477 8.013603 2.351706 18.536463 0.450969 1.443584 0.030588 0.004921 -301313.000000 1 0 0
3.969977 14.020803 -0.382794 14.577043 1.294870 1.597059 0.006248 -0.004607 390986.000000 1 0 0
5.610677 13.198903 -2.252694 14.517761 1.168852 1.726594 0.002918 -0.001533 -152235.000000 1 0 0
-6.206723 16.820703 -2.856094 18.155350 -1.217302 1.728767 0.021160 0.002231 -485291.000000 1 0 0
18.196577 9.823303 2.731706 20.858450 0.495012 1.439455 0.094539 -0.009454 -897690.000000 1 0 0
7.851477 12.911503 9.542206 17.871942 1.024443 1.007565 0.022463 -0.004284 816782.000000 1 0 0
-2.583523 15.821403 6.799806 17.413465 -1.408932 1.169631 0.003766 -0.006734 784008.000000 1 0 0
11.179477 16.114603 6.250906 20.584824 0.964279 1.262259 0.058444 -0.009948 -29315.600000 1 0 0
13.588977 12.064503 1.338806 18.221003 0.726042 1.497254 0.061504 0.001333 597011.000000 1 0 0
17.498777 7.978803 -5.473294 19.995636 0.427802 1.848060 0.061212 0.006143 -576555.000000 1 0 0
9.415077 9.288903 8.085006 15.501443 0.778652 1.022112 0.014664 -0.002993 -792076.000000 1 0 0
-2.080823 14.034703 -1.747894 14.295379 -1.423606 1.693373 -0.000106 0.007079 724930.000000 1 0 0
10.992377 11.681803 0.766406 16.058775 0.815795 1.523053 0.030950 0.007752 197213.000000 1 0 0
11.683577 9.876803 -0.624894 15.311686 0.701793 1.611619 0.025898 0.007146 -1150820.000000 1 0 0
-0.371223 16.329603 11.254206 19.835597 -1.548067 0.967483 0.032475 -0.009016 274958.000000 1 0 0
2.037477 20.048503 -1.526994 20.209540 1.469517 1.646427 0.025247 -0.020872 -499548.000000 1 0 0
9.223377 14.384803 1.829606 17.185480 1.000640 1.464132 0.025561 -0.008066 -220340.000000 1 0 0
8.409877 11.789303 -5.179094 15.379751 0.951168 1.914257 0.028446 -0.003614 -959860.000000 1 0 0
10.555477 10.074203 10.328706 17.877076 0.762073 0.954812 0.019312 -0.006725 221461.000000 1 0 0
-5.090923 15.679603 5.832606 17.486759 -1.256850 1.230736 -0.005034 -0.008227 1107160.000000 1 0 0
14.247777 9.065103 -1.994094 17.004460 0.566646 1.688336 0.032389 0.001457 -654980.000000 1 0 0
12.105377 9.559803 6.997306 16.937895 0.668438 1.144924 0.031926 -0.009647 -791331.000000 1 0 0
3.132177 12.940903 9.825206 16.547271 1.333326 0.935065 0.011073 -0.005372 -678554.000000 1 0 0
8.482477 12.675203 -2.643394 15.479042 0.981029 1.742410 0.029266 0.000069 -1268860.000000 1 0 0
9.349377 17.021303 2.044506 19.527305 1.068510 1.465904 0.030220 -0.018869 -573612.000000 1 0 0
9.459377 14.492303 -7.567094 18.888293 0.992513 1.982994 0.108101 -0.025651 -1191370.000000 1 0 0
6.336377 11.370003 7.421406 14.983455 1.062374 1.052608 0.002347 0.001667 -622161.000000 1 0 0
5.320377 16.953003 -5.602194 18.630494 1.266699 1.876223 0.047985 -0.011082 -1453410.000000 1 0 0
-4.140723 17.250303 -4.527494 18.308926 -1.335216 1.820672 0.015887 0.003716 276357.000000 1 0 0
-0.243123 18.678203 -0.452794 18.685273 -1.557781 1.595031 0.004669 -0.002295 -404805.000000 1 0 0
6.439477 15.730603 -2.687694 17.208790 1.182247 1.727620 0.027293 -0.005459 -125961.000000 1 0 0
-0.969023 20.683603 1.009306 20.730874 -1.523981 1.522091 0.008751 -0.003118 -63239.500000 1 0 0
-1.432723 18.820803 4.285106 19.355554 -1.494818 1.347558 0.006905 -0.008875 -274267.000000 1 0 0
7.204577 13.899403 -4.350494 16.248882 1.092587 1.841844 0.028572 0.000393 211058.000000 1 0 0
-1.023623 11.955603 7.682806 14.248149 -1.485386 1.001292 -0.000127 0.001104 600216.000000 1 0 0
7.656077 10.813603 11.029506 17.239476 0.954719 0.876582 0.008268 -0.005471 253826.000000 1 0 0
1.360777 16.003603 -7.123894 17.570342 1.485971 1.988267 0.005737 -0.001313 757109.000000 1 0 0
8.846877 7.143503 14.845506 18.699891 0.679273 0.653630 0.024551 -0.006232 525276.000000 1 0 0
11.275077 11.457303 -4.803494 16.777089 0.793414 1.861173 0.075570 -0.007898 -385595.000000 1 0 0
-3.333023 16.950303 4.642706 17.887888 -1.376638 1.308246 -0.001318 -0.001396 -557987.000000 1 0 0
3.837277 15.269903 -6.710694 17.115141 1.324598 1.973700 0.029079 -0.011980 -425312.000000 1 0 0
-4.512623 14.052803 9.419106 17.508986 -1.260079 1.002783 0.020015 -0.015441 -657481.000000 1 0 0
6.233977 18.028403 0.659906 19.087202 1.237880 1.536216 0.018971 -0.016743 126944.000000 1 0 0
9.804377 10.806003 -2.102194 14.741599 0.833958 1.713887 0.032821 0.002745 -2554840.000000 1 0 0
7.199677 18.150003 -2.329294 19.664272 1.193158 1.689528 0.048956 -0.011171 -128062.000000 1 0 0
3.455077 10.383103 10.515706 15.176510 1.249562 0.805302 0.006563 0.001134 1726070.000000 1 0 0
-0.066423 18.589203 2.111506 18.708858 -1.567223 1.457694 0.003157 -0.009179 -524906.000000 1 0 0
-1.083123 17.196403 -7.355894 18.734957 -1.507894 1.974285 0.026381 0.005294 837895.000000 1 0 0
9.965177 8.711703 12.952706 18.519479 0.718385 0.796225 0.023360 -0.010960 -4937.110000 1 0 0
3.703277 11.481503 5.675306 13.332227 1.258788 1.131080 0.002157 0.005366 588295.000000 1 0 0
12.889977 13.825203 8.195906 20.602442 0.820391 1.161665 0.060549 -0.015823 132901.000000 1 0 0
-0.466523 17.440203 6.822306 18.732917 -1.544053 1.198035 0.017415 -0.011030 -569608.000000 1 0 0
11.983177 13.686203 5.840406 19.105472 0.851646 1.260130 0.052853 -0.006685 345658.000000 1 0 0
4.829077 14.613803 -4.358194 15.996159 1.251646 1.846737 0.014701 -0.001906 -1748530.000000 1 0 0
3.727077 17.569503 4.773006 18.583868 1.361762 1.311049 0.025560 -0.014613 -1383760.000000 1 0 0
7.046577 11.724903 2.154206 13.848040 1.029647 1.414602 0.008038 0.002423 552319.000000 1 0 0
6.461677 8.626903 11.899506 16.055372 0.927926 0.736008 0.008704 -0.006260 661479.000000 1 0 0
-5.499523 14.937803 1.838306 16.023798 -1.218035 1.455820 0.006165 0.003143 -46287.400000 1 0 0
6.628577 13.781403 6.151606 16.483548 1.122480 1.188344 0.011156 -0.004843 -535719.000000 1 0 0
5.813277 15.900003 4.912006 17.627595 1.220279 1.288404 0.010865 -0.014166 526212.000000 1 0 0
1.152577 17.963303 4.364506 18.521815 1.506721 1.332918 0.029734 -0.014250 1539640.000000 1 0 0
7.102877 18.137503 -7.019194 20.704806 1.197541 1.916664 0.053428 -0.021977 42119.500000 1 0 0
-2.589823 18.801103 -6.055794 19.921378 -1.433909 1.879669 0.035270 0.005454 -911932.000000 1 0 0
13.546877 10.106303 -4.691894 17.540500 0.640952 1.841583 0.054391 -0.007283 -866631.000000 1 0 0
-1.626223 18.045903 9.776206 20.588187 -1.480923 1.076008 0.039225 -0.020592 -271564.000000 1 0 0
3.438677 11.847103 -1.529994 12.430577 1.288304 1.694192 0.004294 -0.001901 -244061.000000 1 0 0
4.082477 13.927903 -10.929694 18.168966 1.285668 2.216247 0.033377 -0.023961 96100.800000 1 0 0
11.507977 13.391803 2.412906 17.821225 0.860911 1.434984 0.053767 -0.007490 -704235.000000 1 0 0
16.105277 6.699503 -7.205394 18.872759 0.394207 1.962526 0.056711 -0.005813 306647.000000 1 0 0
2.395877 16.176403 2.941006 16.615227 1.423756 1.392852 0.013809 -0.008325 -204299.000000 1 0 0
13.466577 10.690603 3.470206 17.540811 0.670987 1.371646 0.041811 0.004390 -256971.000000 1 0 0
-5.162123 19.444703 -5.633794 20.892191 -1.311305 1.843837 0.031752 -0.008828 370956.000000 1 0 0
5.408677 11.843503 0.123906 13.020665 1.142402 1.561280 0.004094 0.001758 909635.000000 1 0 0
4.648777 15.382703 9.723006 18.782320 1.277315 1.026673 0.025126 -0.008289 -142657.000000 1 0 0
7.732277 9.356103 14.034906 18.555413 0.880139 0.713038 0.019697 -0.012314 -2145940.000000 1 0 0
-5.112723 13.497403 7.007806 16.044599 -1.208704 1.118791 0.001873 -0.005401 -1377580.000000 1 0 0
-4.583323 17.137903 0.576606 17.749565 -1.309474 1.538305 0.014591 -0.000687 -984705.000000 1 0 0
-0.744723 16.500303 3.629406 16.911156 -1.525693 1.354498 0.006751 -0.007711 -1741610.000000 1 0 0
7.683777 17.119803 -4.739394 19.354327 1.148921 1.818187 0.050231 -0.015739 135518.000000 1 0 0
3.003677 16.466103 -4.573094 17.351306 1.390364 1.837506 0.002185 -0.000486 -150068.000000 1 0 0
9.358277 14.409403 8.232106 19.051924 0.994803 1.123990 0.023481 -0.008194 352520.000000 1 0 0
12.695477 10.926703 9.196106 19.108541 0.710660 1.068709 0.052082 -0.016407 250055.000000 1 0 0
3.619777 12.275403 12.252306 17.717429 1.284043 0.807178 0.021590 -0.004596 658998.000000 1 0 0
-3.310823 19.187703 6.086906 20.400488 -1.399930 1.267811 0.023540 -0.006780 266777.000000 1 0 0
-2.720223 15.770003 10.195706 18.974853 -1.399984 1.003532 0.022501 -0.015531 -837401.000000 1 0 0
2.085977 14.238803 7.751106 16.345472 1.425332 1.076735 0.014942 -0.004640 -101816.000000 1 0 0
4.210577 17.241603 7.909706 19.431039 1.331274 1.151557 0.028990 -0.014785 -286467.000000 1 0 0
-2.009823 13.445003 9.316206 16.480267 -1.422410 0.970006 0.013736 -0.006779 -1417930.000000 1 0 0
5.735677 17.745903 3.092106 18.904396 1.258183 1.406493 0.009376 -0.022338 615838.000000 1 0 0
7.140877 15.505903 -6.784694 18.370010 1.139223 1.949090 0.037430 -0.010252 -352255.000000 1 0 0
10.975277 7.689403 9.500906 16.427137 0.611136 0.954071 0.014396 -0.008455 521483.000000 1 0 0
8.939177 16.374003 -2.671394 18.845510 1.071078 1.713028 0.071483 -0.020456 -251615.000000 1 0 0
14.094877 11.130003 -6.953494 19.258599 0.668397 1.940200 0.090729 -0.028104 145885.000000 1 0 0
11.097877 6.486603 16.156606 20.646424 0.528937 0.672065 0.087576 -0.029925 597983.000000 1 0 0
8.475677 8.429803 10.270806 15.760334 0.782685 0.860990 0.005897 -0.005752 1089810.000000 1 0 0
16.394377 9.521603 4.510206 19.487906 0.526171 1.337243 0.068718 -0.009073 219156.000000 1 0 0
-3.250123 14.248903 4.824106 15.390469 -1.346537 1.251975 -0.007963 -0.001578 -1328950.000000 1 0 0
4.722477 14.685403 12.715106 19.990917 1.259664 0.881435 0.034109 -0.007809 -329796.000000 1 0 0
15.925277 11.261203 -5.141694 20.170924 0.615494 1.828547 0.082007 -0.006343 283790.000000 1 0 0
14.651177 13.993203 6.204006 21.188592 0.762432 1.273643 0.094701 -0.009247 291875.000000 1 0 0
6.176677 9.471703 9.393506 14.700424 0.992933 0.877605 0.002994 0.001036 625194.000000 1 0 0
10.404777 12.156703 8.746506 18.235849 0.862894 1.070561 0.037533 -0.011023 314154.000000 1 0 0
8.072477 11.478103 -0.246294 14.034686 0.957863 1.588346 0.007066 0.000806 1717.330000 1 0 0
7.327477 13.656803 -8.738894 17.792371 1.078343 2.084217 0.051270 -0.018661 -748853.000000 1 0 0
2.781177 15.299003 -2.144394 15.696907 1.390972 1.707837 0.008832 -0.004167 798513.000000 1 0 0
12.014077 13.878303 -7.598994 19.866808 0.857273 1.963294 0.128878 -0.041278 -293604.000000 1 0 0
-8.177223 14.735203 9.696206 19.442469 -1.064165 1.048683 0.038560 -0.019697 170737.000000 1 0 0
11.589977 9.572403 2.178806 15.188999 0.690348 1.426853 0.030442 0.005596 -2558980.000000 1 0 0
12.015277 8.864403 4.517206 15.599669 0.635622 1.277018 0.024662 -0.000385 632752.000000 1 0 0
14.068277 8.027803 6.079806 17.301043 0.518545 1.211717 0.041577 -0.012536 -1939100.000000 1 0 0
16.208577 7.444803 7.307806 19.275557 0.430571 1.181948 0.102714 -0.018635 317099.000000 1 0 0
13.681277 8.297003 2.433806 16.184592 0.545148 1.419846 0.028031 0.004138 -2401040.000000 1 0 0
-4.491123 17.326303 -7.085894 19.250477 -1.317170 1.947750 0.019831 -0.008024 51813.300000 1 0 0
2.960877 19.640903 -3.867294 20.235806 1.421172 1.763091 0.033981 -0.011652 511495.000000 1 0 0
-0.181723 14.747803 6.405906 16.079999 -1.558475 1.161049 0.005611 -0.000740 -197567.000000 1 0 0
6.569477 16.282303 8.182506 19.370721 1.187299 1.134687 0.026011 -0.004605 -2098520.000000 1 0 0
12.868877 15.280803 -2.124394 20.090396 0.870872 1.676736 0.129200 -0.019241 -170324.000000 1 0 0
12.597577 15.725003 4.166706 20.575134 0.895374 1.366874 0.074488 -0.011989 -537753.000000 1 0 0
2.892977 18.199403 1.264106 18.471209 1.413155 1.502306 0.017116 -0.013180 -436056.000000 1 0 0
10.363777 14.697603 -1.469594 18.044033 0.956633 1.652332 0.062658 -0.000036 -248881.000000 1 0 0
-6.456523 15.695903 -0.435394 16.977563 -1.180543 1.596444 0.008920 -0.001865 84436.500000 1 0 0
-3.872623 15.778303 -2.471294 16.433483 -1.330114 1.721751 0.009163 0.003754 -701869.000000 1 0 0
-6.877923 17.138603 1.787206 18.553481 -1.189160 1.474319 0.022440 -0.001366 -228015.000000 1 0 0
-0.044223 19.391503 -6.527094 20.460580 -1.568516 1.895479 0.039735 -0.003772 813454.000000 1 0 0
4.673377 15.021303 7.075706 17.249511 1.269172 1.148126 0.022897 -0.002732 -1024940.000000 1 0 0
8.578377 12.280403 7.008006 16.538108 0.961050 1.133216 0.020271 -0.005788 -871646.000000 1 0 0
-7.902223 17.462403 -5.469494 19.932286 -1.145842 1.848766 0.049580 -0.011682 350073.000000 1 0 0
-8.020423 17.727903 -1.188394 19.494051 -1.145933 1.631796 0.050441 -0.008063 375763.000000 1 0 0
-13.956323 -9.109497 9.044106 18.962007 0.578281 1.073604 0.049931 -0.025950 -664073.000000 1 0 0
-12.578423 -13.008297 7.576306 19.617158 0.802197 1.174279 0.046687 -0.018001 135228.000000 1 0 0
-3.927723 -15.275297 12.318506 20.012678 1.319119 0.907732 0.033606 -0.020456 325974.000000 1 0 0
-2.188823 -14.253397 14.641406 20.550450 1.418422 0.777796 0.049204 -0.020757 -622512.000000 1 0 0
-7.458523 -13.794697 12.528506 20.072037 1.075136 0.896719 0.052475 -0.021116 26725.100000 1 0 0
-9.945023 -11.543197 8.953606 17.672462 0.859636 1.039511 0.032357 -0.016174 577430.000000 1 0 0
-10.687623 -10.722197 11.359506 18.926942 0.787013 0.927075 0.055615 -0.021901 321156.000000 1 0 0
-5.973823 -12.471497 10.758306 17.520443 1.124091 0.909623 0.032494 -0.009025 703848.000000 1 0 0
-12.586823 -10.348297 7.178606 17.805834 0.688104 1.155829 0.031229 -0.012072 43522.900000 1 0 0
-7.629823 -11.229297 12.436506 18.411354 0.973991 0.829181 0.034938 -0.023354 418899.000000 1 0 0
-14.818523 -11.696697 7.128506 20.179616 0.668201 1.209751 0.053273 -0.015145 -737829.000000 1 0 0
-11.330623 -9.328697 9.230506 17.338103 0.688798 1.009384 0.032565 -0.009877 -446759.000000 1 0 0
-5.466823 -12.294597 13.309906 18.926089 1.152398 0.790828 0.039516 -0.015409 -534104.000000 1 0 0
4.146277 -12.299097 14.887606 19.750954 -1.245641 0.717021 0.015644 -0.009757 55998.000000 1 0 0
6.578477 -12.615297 13.788506 19.812747 -1.090122 0.801067 0.049796 -0.018413 271658.000000 1 0 0
6.671077 -8.160797 15.944906 19.113919 -0.885503 0.584109 0.051521 -0.025398 413824.000000 1 0 0
0.587777 -1.750597 14.459506 14.576947 -1.246865 0.127023 0.006923 -0.007784 -3409080.000000 1 0 0
-0.252423 -6.393797 15.592406 16.854301 1.531338 0.389421 0.022161 -0.016394 135238.000000 1 0 0
-1.639823 -4.653897 18.202206 18.859164 1.232025 0.264723 0.029156 -0.032122 -1562390.000000 1 0 0
-5.172123 12.675603 12.943706 18.840416 -1.183380 0.813419 0.021571 -0.013372 -539371.000000 1 0 0
-4.002123 8.950203 11.723606 15.282868 -1.150311 0.696476 0.003818 0.005460 -178133.000000 1 0 0
-0.805323 -3.945497 15.107606 15.635064 1.369450 0.260488 0.010885 -0.008145 46852.600000 1 0 0
-4.502623 9.117203 14.264206 17.517550 -1.112073 0.619307 0.015217 -0.006535 575087.000000 1 0 0
-13.510923 -2.532197 16.792906 21.701583 0.185269 0.685962 0.040079 0.000872 -168935.000000 1 0 0
-0.293423 0.702103 17.296806 17.313536 -1.174938 0.043965 0.009171 -0.009795 -710172.000000 1 0 0
-3.328623 -7.301697 15.373506 17.341833 1.143072 0.481074 0.016142 -0.012341 291813.000000 1 0 0
-7.430123 5.505403 12.606006 15.634179 -0.637689 0.632908 0.001238 0.000995 -2170520.000000 1 0 0
-9.961023 10.024103 13.382006 19.462340 -0.788555 0.812639 0.024852 -0.009446 -222788.000000 1 0 0
-5.530023 2.124603 11.192906 12.663973 -0.366807 0.486791 0.000439 0.001220 -1652400.000000 1 0 0
-7.257623 -7.337097 16.839906 19.750658 0.790844 0.549808 0.021269 -0.016845 -103501.000000 1 0 0
-4.769523 2.724003 18.547306 19.343502 -0.518919 0.287911 0.019522 -0.014447 -309887.000000 1 0 0
0.899677 -8.496597 16.551006 18.626255 -1.465303 0.476546 0.037125 -0.017433 699916.000000 1 0 0
-15.184323 -3.474197 13.899106 20.876274 0.224930 0.842251 0.053604 -0.019205 -20761.200000 1 0 0
-14.250623 2.262903 13.050106 19.455237 -0.157478 0.835542 0.012901 -0.008220 -669649.000000 1 0 0
-5.673023 0.947403 16.100106 17.096612 -0.165474 0.343109 0.010268 -0.004868 584819.000000 1 0 0
4.432177 5.603603 15.228806 16.821447 0.901597 0.438662 0.007535 -0.003099 -264963.000000 1 0 0
-1.145723 -12.066297 13.699106 18.291356 1.476128 0.724337 0.014136 -0.015430 -75480.800000 1 0 0
-5.993323 -4.003397 16.670406 18.161760 0.588909 0.408079 0.011330 -0.014121 -54587.000000 1 0 0
-13.034923 -1.621097 9.853006 16.420075 0.123730 0.927222 0.010679 -0.001090 -834943.000000 1 0 0
-15.086923 10.116703 10.219706 20.842392 -0.590694 1.058325 0.030088 0.001524 568049.000000 1 0 0
-3.723623 -3.250997 17.640806 18.320272 0.717738 0.273202 0.014557 -0.020060 -2121340.000000 1 0 0
-8.065223 9.413303 11.837506 17.140147 -0.862374 0.808436 0.012528 -0.003959 417552.000000 1 0 0
-4.063923 10.613403 16.306606 19.876247 -1.205114 0.608674 0.008930 -0.007989 232142.000000 1 0 0
-12.599223 12.710903 8.298206 19.727334 -0.789811 1.136640 0.022871 -0.011695 475869.000000 1 0 0
-12.587723 3.030903 10.354406 16.578626 -0.236285 0.896224 0.000293 -0.005831 199239.000000 1 0 0
-10.146823 -3.460197 13.684306 17.383647 0.328646 0.664550 0.016614 -0.004913 -1983010.000000 1 0 0
-4.305823 -6.429097 17.578006 19.205720 0.980669 0.414672 0.021929 -0.018943 -444673.000000 1 0 0
0.773977 -3.731397 18.139206 18.535187 -1.366274 0.207076 0.034084 -0.019944 -1104340.000000 1 0 0
-5.965423 1.732303 13.703706 15.045886 -0.282618 0.425593 0.003125 0.000374 -359636.000000 1 0 0
-10.662923 8.652703 10.279306 17.153172 -0.681699 0.928213 0.008530 -0.007033 205954.000000 1 0 0
4.468177 2.514503 17.223506 17.970433 0.512586 0.289328 0.016034 -0.009545 617049.000000 1 0 0
0.475777 -5.438897 13.279206 14.357760 -1.483542 0.390076 0.009811 -0.006474 -630368.000000 1 0 0
-4.158923 5.662103 20.882006 22.032118 -0.937277 0.324537 0.057266 -0.011417 -396950.000000 1 0 0
-10.838923 10.851503 9.080906 17.824147 -0.785978 1.036225 0.011778 -0.008039 446590.000000 1 0 0
0.708077 4.148203 13.027206 13.690035 1.401731 0.312451 0.006841 -0.003131 -1548790.000000 1 0 0
-3.161923 7.090803 13.247606 15.355009 -1.151342 0.530104 0.006744 0.002042 -1578990.000000 1 0 0
0.842177 8.938603 14.073606 16.693540 1.476856 0.567854 0.008696 -0.004370 368912.000000 1 0 0
-4.254223 -6.737797 13.031806 15.274956 1.007610 0.548805 0.013432 -0.007715 37289.400000 1 0 0
-5.040623 8.183203 16.539706 19.129416 -1.018716 0.526400 0.021868 0.000539 216899.000000 1 0 0
1.370877 -10.857197 15.674006 19.116288 -1.445197 0.609509 0.017114 -0.009513 -262019.000000 1 0 0
-15.061523 -0.912197 14.231106 20.741406 0.060491 0.814653 0.021141 -0.000622 323241.000000 1 0 0
-13.522223 -5.266297 8.622106 16.879724 0.371383 1.034685 0.029076 -0.009268 -2003700.000000 1 0 0
-14.345923 -1.946797 12.051306 18.836918 0.134880 0.876597 0.028486 -0.010342 606551.000000 1 0 0
9.289977 1.282103 16.969706 19.388615 0.137143 0.504863 0.087918 -0.020280 -791672.000000 1 0 0
4.773077 -6.892597 17.089106 19.034907 -0.965126 0.456100 0.059754 -0.019354 262572.000000 1 0 0
-6.164523 -2.663997 11.047406 12.928395 0.407911 0.546195 0.004702 -0.002627 344836.000000 1 0 0
0.317577 -6.387597 17.999506 19.101949 -1.521119 0.341402 0.043900 -0.032403 -111299.000000 1 0 0
-8.646223 11.931303 12.101106 19.066985 -0.943706 0.883224 0.025592 -0.010330 178899.000000 1 0 0
-6.762323 -5.740297 14.775906 17.233903 0.703835 0.540650 0.016834 -0.009155 -457556.000000 1 0 0
-4.464423 -8.960997 16.946406 19.682764 1.108585 0.533609 0.030189 -0.023239 -385086.000000 1 0 0
2.321477 -6.246597 16.239906 17.554024 -1.214976 0.389396 0.043689 -0.025161 -247483.000000 1 0 0
2.156177 5.125103 16.171406 17.100589 1.172566 0.331167 0.006636 -0.003919 -1378830.000000 1 0 0
0.722577 -8.876097 13.923406 16.527808 -1.489568 0.569032 0.016269 -0.009660 -965911.000000 1 0 0
-10.040923 -2.795097 11.163506 15.272739 0.271497 0.751093 0.001922 -0.000597 -273723.000000 1 0 0
-1.239323 10.107303 12.416106 16.057807 -1.448789 0.686904 0.004115 -0.003513 -391474.000000 1 0 0
-12.490523 -3.804097 11.315706 17.278006 0.295634 0.856720 0.023414 -0.003800 -787490.000000 1 0 0
-1.848223 6.436303 19.950206 21.044064 -1.291164 0.323840 0.046030 -0.015178 -21808.800000 1 0 0
0.044577 -13.426897 15.677106 20.641104 -1.567476 0.708238 0.013584 -0.014127 -159165.000000 1 0 0
4.171477 -8.720997 15.340006 18.132092 -1.124638 0.562332 0.037794 -0.017301 48511.100000 1 0 0
4.334077 -4.571097 16.160506 17.344771 -0.812008 0.371670 0.059226 -0.020040 -415336.000000 1 0 0
8.001977 1.812903 14.814406 16.934724 0.222796 0.505785 0.014020 -0.004820 -287506.000000 1 0 0
-6.232723 -0.170897 11.909606 13.443018 0.027412 0.482296 0.004468 -0.002853 183668.000000 1 0 0
-3.740723 -10.988197 18.400706 21.755906 1.242672 0.562771 0.058398 -0.024646 25884.200000 1 0 0
3.095577 -1.594397 13.621506 14.059520 -0.475620 0.250270 0.010434 -0.008130 342322.000000 1 0 0
-2.490423 8.510003 15.751506 18.075738 -1.286099 0.512713 0.021371 -0.009373 -520867.000000 1 0 0
-3.386623 3.840803 14.857506 15.715166 -0.848157 0.331901 0.007120 -0.001084 110581.000000 1 0 0
-5.088623 -9.044397 19.544006 22.128338 1.058310 0.488129 0.061687 -0.030764 89971.800000 1 0 0
-5.905423 -2.900097 19.073506 20.176303 0.456495 0.332155 0.019423 -0.019870 -1258220.000000 1 0 0
-6.718923 -8.638397 11.072706 15.568257 0.909741 0.779541 0.022342 -0.009970 -316406.000000 1 0 0
-11.676523 2.522303 12.614706 17.373370 -0.212746 0.758172 0.003872 -0.009633 -756630.000000 1 0 0
-11.847023 -7.492997 11.416206 18.078349 0.563960 0.887329 0.038366 -0.018450 -632392.000000 1 0 0
-11.137323 -7.333297 15.538206 20.475669 0.582288 0.709233 0.044838 -0.027795 -249450.000000 1 0 0
0.141677 5.512203 17.719606 18.557718 1.545099 0.301684 0.014338 -0.005156 -316119.000000 1 0 0
-2.221723 -0.124697 13.265006 13.450352 0.056067 0.166204 0.007757 -0.005059 235204.000000 1 0 0
-6.259623 -10.551297 17.804206 21.621805 1.035350 0.603353 0.065991 -0.033539 -1462450.000000 1 0 0
0.376677 2.384103 19.270906 19.421474 1.414096 0.124601 0.024384 -0.009984 -63045.500000 1 0 0
-0.790323 10.889103 14.801406 18.392357 -1.498344 0.635528 0.022169 -0.009354 -521492.000000 1 0 0
-12.797523 -2.337297 14.206806 19.263252 0.180646 0.741423 0.024436 -0.009615 -242497.000000 1 0 0
-13.714123 8.355803 11.622406 19.823645 -0.547218 0.944325 0.009582 -0.010237 915872.000000 1 0 0
-18.168123 -0.636297 6.838206 19.422837 0.035008 1.211014 0.083643 -0.028480 -61052.800000 1 0 0
-2.221523 -8.022397 17.742106 19.597865 1.300651 0.438692 0.024958 -0.018301 -966800.000000 1 0 0
5.698377 2.703603 14.446406 15.763236 0.443001 0.411650 0.010115 -0.007583 -3764080.000000 1 0 0
-14.502523 -7.205897 11.033006 19.595288 0.461142 0.972732 0.066889 -0.018338 32485.700000 1 0 0
3.211177 7.576803 16.374506 18.326048 1.169928 0.465695 0.014290 -0.012323 -283998.000000 1 0 0
1.076977 2.126403 14.601606 14.794876 1.101979 0.161814 0.007312 -0.008070 -2464080.000000 1 0 0
-14.404523 0.730103 9.742306 17.405052 -0.050642 0.976724 0.017471 -0.005764 -1480930.000000 1 0 0
-9.607723 -5.169997 15.514506 18.966736 0.493668 0.612897 0.026233 -0.008647 -352448.000000 1 0 0
-2.610923 -0.194597 18.147506 18.335396 0.074394 0.143283 0.013764 -0.016071 247222.000000 1 0 0
6.718177 3.826303 17.342906 18.988177 0.517725 0.419352 0.036326 -0.015692 -608104.000000 1 0 0
-4.218823 -0.778497 14.801306 15.410489 0.182477 0.282112 0.009180 -0.002501 -1068360.000000 1 0 0
4.984377 -9.473097 17.635906 20.630287 -1.086439 0.545525 0.063300 -0.014511 -195568.000000 1 0 0
1.859677 6.837003 13.436106 15.189863 1.305220 0.485280 0.007554 -0.000847 -1004440.000000 1 0 0
-3.899323 -0.831297 20.296106 20.683996 0.210045 0.193969 0.024078 -0.016572 980271.000000 1 0 0
-10.641423 1.580803 16.480006 19.680686 -0.147473 0.578343 0.008529 -0.001537 -279374.000000 1 0 0
-4.041423 7.059203 18.616706 20.316180 -1.050840 0.411933 0.034880 -0.003073 -514321.000000 1 0 0
-12.593623 1.207803 14.735906 19.421767 -0.095614 0.709433 0.012890 -0.007261 -705398.000000 1 0 0
-16.014723 -5.193197 8.530806 18.873666 0.313577 1.101796 0.049641 -0.019325 -548624.000000 1 0 0
-2.391423 0.783603 15.771206 15.970719 -0.316647 0.158231 0.009096 -0.005481 213377.000000 1 0 0
-13.582923 -8.904297 12.772806 20.662208 0.580268 0.904381 0.045917 -0.030737 648059.000000 1 0 0
6.074777 -3.322997 14.663306 16.215972 -0.500549 0.441174 0.043285 -0.018869 693701.000000 1 0 0
-15.848723 0.493503 7.578106 17.574221 -0.031128 1.124968 0.032728 -0.015209 487615.000000 1 0 0
-14.162623 5.846803 12.598606 19.836579 -0.391520 0.882633 0.022796 -0.006297 -225829.000000 1 0 0
0.625777 9.646203 16.595006 19.205079 1.506014 0.527447 0.019363 -0.007813 -387871.000000 1 0 0
-10.534823 -5.418897 10.804506 16.033848 0.475085 0.831381 0.021738 -0.009421 223102.000000 1 0 0
-3.212023 -11.071697 15.003106 18.920696 1.288436 0.655166 0.033033 -0.015645 -490530.000000 1 0 0
-3.462423 2.556803 12.618606 13.332472 -0.636064 0.328719 -0.002038 0.001807 -1588360.000000 1 0 0
-12.459723 -7.790897 7.340606 16.426419 0.558805 1.107524 0.028522 -0.010337 259257.000000 1 0 0
-8.342823 -1.894097 13.126506 15.668294 0.223249 0.577601 0.009533 -0.001861 -557405.000000 1 0 0
-9.927523 6.473403 9.475006 15.173542 -0.577826 0.896379 0.002619 -0.004970 -618719.000000 1 0 0
-17.806823 -3.526297 6.783506 19.378691 0.195501 1.213172 0.063195 -0.018827 599052.000000 1 0 0
-1.363923 -0.170197 20.452706 20.498839 0.124143 0.067103 0.019785 -0.014699 -1210210.000000 1 0 0
-2.797423 2.602903 20.245306 20.602744 -0.749394 0.186545 0.031260 -0.010932 -481911.000000 1 0 0
-3.961423 11.311403 11.074906 16.318525 -1.233930 0.824845 0.011555 -0.010428 -380322.000000 1 0 0
-4.278523 -4.790497 14.734706 16.073772 0.841791 0.411073 0.009773 -0.011041 766675.000000 1 0 0
-0.019723 -14.388597 13.329006 19.613630 1.569426 0.823608 0.010846 -0.007114 -485846.000000 1 0 0
-12.259423 0.449803 8.378506 14.855811 -0.036674 0.971589 -0.001992 -0.001237 -515293.000000 1 0 0
-7.901423 2.021603 15.547006 17.556444 -0.250480 0.483132 0.007149 0.001551 -286870.000000 1 0 0
3.544577 -2.413997 18.399006 18.892189 -0.597887 0.228996 0.039815 -0.019430 -761860.000000 1 0 0
-2.177723 4.774003 12.624406 13.671474 -1.142829 0.393919 -0.002857 0.003297 -238997.000000 1 0 0
-10.537423 -6.224197 13.302706 18.075947 0.533535 0.743751 0.025736 -0.010077 -160918.000000 1 0 0
2.205177 -3.797797 14.350906 15.007816 -1.044729 0.296966 0.016558 -0.009721 -748415.000000 1 0 0
6.704777 1.137303 16.965306 18.277557 0.168026 0.381239 0.032971 -0.010455 -1395040.000000 1 0 0
-2.008123 -5.723697 13.709906 14.991823 1.233370 0.416545 0.009343 -0.008105 -411290.000000 1 0 0
-12.782123 3.849603 14.523706 19.726635 -0.292531 0.743287 -0.005604 -0.002631 159139.000000 1 0 0
-13.483423 -6.393897 13.198406 19.921910 0.442799 0.846636 0.050045 -0.031708 -215604.000000 1 0 0
-9.511723 6.879203 11.876406 16.698662 -0.626150 0.779566 0.006128 -0.002293 -583192.000000 1 0 0
-1.180423 -2.530297 12.862206 13.161768 1.134293 0.213761 0.006332 -0.004391 627183.000000 1 0 0
0.202377 6.707703 15.367606 16.768946 1.540635 0.411724 0.006742 -0.001780 193484.000000 1 0 0
-16.401223 -0.886697 9.768306 19.110367 0.054010 1.034272 0.048357 -0.013298 -213748.000000 1 0 0
-1.286823 2.660903 13.773306 14.086883 -1.120352 0.211392 0.001565 -0.000836 -1670850.000000 1 0 0
-11.214723 -3.309197 16.068106 19.872212 0.286933 0.629076 0.028177 -0.014832 -97806.600000 1 0 0
-5.302623 -1.399797 17.109506 17.966981 0.258094 0.310192 0.022486 -0.008409 448506.000000 1 0 0
-11.944323 6.462603 11.196406 17.600897 -0.495954 0.881328 0.007759 -0.004439 -929749.000000 1 0 0
-3.052023 4.663103 18.694406 19.507439 -0.991261 0.289727 0.036301 -0.009113 110549.000000 1 0 0
4.992477 -2.057697 16.352906 17.221396 -0.390944 0.318937 0.043432 -0.021752 -1997960.000000 1 0 0
-8.088123 -4.091197 12.012906 15.048771 0.468299 0.646387 0.013972 -0.004087 -1922370.000000 1 0 0
-11.788623 -0.729697 16.128306 19.990656 0.061820 0.632094 0.033335 -0.005386 526089.000000 1 0 0
1.984677 1.859503 17.308906 17.521270 0.752848 0.155852 0.009419 -0.011838 -601351.000000 1 0 0
-9.101623 -7.458397 11.569306 16.502001 0.686493 0.793878 0.024425 -0.014762 479013.000000 1 0 0
-7.140623 6.894503 14.776306 17.800614 -0.767864 0.591508 -0.001035 -0.003956 -477541.000000 1 0 0
-5.743223 3.482903 15.736606 17.110113 -0.545139 0.403416 0.007698 -0.006502 -491461.000000 1 0 0
-9.348023 4.219803 11.558506 15.452874 -0.424027 0.725777 -0.001715 -0.003458 -226244.000000 1 0 0
-10.241223 0.259203 14.253606 17.553208 -0.025304 0.623187 0.011108 -0.002995 -295196.000000 1 0 0
8.165277 -0.683197 15.811806 17.808754 -0.083477 0.478108 0.052642 -0.016934 264049.000000 1 0 0
-8.742423 -7.513297 14.740406 18.712539 0.709930 0.663683 0.032257 -0.008522 -612610.000000 1 0 0
-0.198123 4.213803 15.504906 16.068525 -1.523813 0.265643 0.003799 -0.006301 4726.700000 1 0 0
-8.037323 3.133503 9.729506 13.003103 -0.371742 0.725384 -0.005310 -0.001024 -618167.000000 1 0 0
-2.302423 -9.795997 13.025706 16.460003 1.339949 0.657774 0.016085 -0.009109 766933.000000 1 0 0
-6.097023 10.191003 10.475906 15.835872 -1.031646 0.847939 0.017540 -0.010322 -2045650.000000 1 0 0
-8.578023 -2.743297 15.599606 18.012658 0.309526 0.523578 0.017350 -0.012537 351460.000000 1 0 0
4.207477 5.683803 17.790206 19.144187 0.933560 0.378352 0.010356 -0.003440 84140.700000 1 0 0
-6.811223 -0.946197 14.986906 16.489250 0.138034 0.430183 0.004741 -0.005397 -994031.000000 1 0 0
-1.022223 -9.924097 15.295306 18.261407 1.468154 0.577966 0.010879 -0.013300 -753757.000000 1 0 0
-4.323423 5.754303 16.300706 17.819006 -0.926440 0.415801 0.018752 -0.004370 203016.000000 1 0 0
3.859377 -0.034997 17.317406 17.742282 -0.009068 0.219286 0.026583 -0.015515 -282589.000000 1 0 0
1.422877 -0.016697 19.050106 19.103177 -0.011734 0.074558 0.018589 -0.017195 -632187.000000 1 0 0
-6.387323 6.443703 17.823006 19.999468 -0.789792 0.470870 0.011490 -0.005927 -1601210.000000 1 0 0
-12.213423 0.546703 10.988206 16.437982 -0.044733 0.838654 0.006766 -0.003591 -300178.000000 1 0 0
-5.403123 5.166703 13.928006 15.807527 -0.763035 0.492614 0.005543 0.001237 -1149350.000000 1 0 0
-8.862323 -9.485597 9.926506 16.341751 0.819355 0.917972 0.031029 -0.012464 -1594210.000000 1 0 0
6.779077 -3.790197 17.098906 18.780150 -0.509805 0.426359 0.064302 -0.018381 581766.000000 1 0 0
-16.841223 1.700103 9.625506 19.472223 -0.100608 1.053744 0.051104 -0.019728 357292.000000 1 0 0
-4.253923 -9.608397 11.252806 15.396194 1.154005 0.751183 0.013362 -0.007719 969717.000000 1 0 0
-11.145623 -3.856797 9.064506 14.874980 0.333140 0.915519 0.007966 -0.001498 -594875.000000 1 0 0
3.286377 -5.367597 18.480306 19.522629 -1.021409 0.328245 0.046660 -0.029994 -616783.000000 1 0 0
2.386277 -1.893497 16.168206 16.452675 -0.670761 0.186227 0.020987 -0.014759 3709.490000 1 0 0
-3.505223 -4.405697 19.962406 20.741128 0.898737 0.274890 0.020853 -0.028544 -1159660.000000 1 0 0
-6.364623 -3.322097 14.301906 16.002789 0.481063 0.465241 0.008463 -0.003205 666077.000000 1 0 0
-9.651523 5.104603 13.926406 17.696147 -0.486492 0.664907 0.006526 -0.002016 401107.000000 1 0 0
-5.941523 -5.232697 11.706706 14.132578 0.722049 0.594642 0.008533 -0.001012 252957.000000 1 0 0
6.097677 2.094503 19.214406 20.267264 0.330865 0.323743 0.071851 -0.026914 180424.000000 1 0 0
-2.761423 11.937703 13.391806 18.151437 -1.343475 0.741017 0.026420 -0.016286 -1459870.000000 1 0 0
3.467377 1.356803 15.084506 15.537243 0.372989 0.241998 0.015328 -0.009643 -1011480.000000 1 0 0
-5.687423 7.482303 12.730106 15.823629 -0.920852 0.635964 0.003046 -0.002012 -1068810.000000 1 0 0
-1.853723 -1.717597 15.280406 15.487970 0.747300 0.163901 0.007142 -0.004972 -259155.000000 1 0 0
-7.433623 10.648603 13.998806 19.094975 -0.961357 0.747906 0.034269 -0.014590 711431.000000 1 0 0
-10.105923 1.888703 10.562306 14.739714 -0.184759 0.771898 -0.002182 -0.000018 -391968.000000 1 0 0
-13.761823 5.042703 9.260006 17.336791 -0.351234 1.007324 0.008770 -0.008202 181847.000000 1 0 0
-0.050523 -5.025597 20.203106 20.818853 1.560744 0.243817 0.041347 -0.031674 -233341.000000 1 0 0
-14.590823 -3.140497 7.476706 16.692991 0.212003 1.106387 0.027292 -0.005514 1517270.000000 1 0 0
-2.277823 2.427103 17.616706 17.928403 -0.817116 0.186742 0.010077 -0.009832 537029.000000 1 0 0
-6.303923 -8.356497 14.561806 17.933674 0.924502 0.623258 0.016234 -0.007935 -80293.700000 1 0 0
-8.007023 1.833103 12.009306 14.549780 -0.225059 0.599896 0.000721 -0.001497 566787.000000 1 0 0
-14.744623 -3.506597 10.073506 18.198231 0.233485 0.984184 0.033420 -0.012806 9294.060000 1 0 0
-0.610123 6.940803 12.793906 14.568151 -1.483118 0.498688 0.002749 -0.000376 -149515.000000 1 0 0
-1.938823 -2.394697 19.327106 19.571168 0.890210 0.158092 0.023868 -0.020869 -183775.000000 1 0 0
-12.870623 10.329503 7.442506 18.103659 -0.676303 1.147130 0.000753 -0.009186 -435354.000000 1 0 0
-19.620723 2.067003 6.608306 20.806609 -0.104961 1.247593 0.101163 -0.036980 1399300.000000 1 0 0
-15.999823 8.255703 6.651506 19.193579 -0.476355 1.216907 0.009278 -0.008513 491526.000000 1 0 0
-12.321723 7.276203 13.573906 19.723562 -0.533419 0.811781 0.006592 -0.004375 -8669.300000 1 0 0
-15.872923 7.628703 10.153206 20.328167 -0.448017 1.047815 0.023632 -0.029278 -120111.000000 1 0 0
1.743977 11.175003 14.965906 18.759011 1.415985 0.647162 0.020013 -0.013611 -1740430.000000 1 0 0
2.203477 14.338603 12.985506 19.469828 1.418315 0.840681 0.027755 -0.007553 -507229.000000 1 0 0
-3.209923 13.733303 11.608606 18.266553 -1.341186 0.882125 0.015804 -0.017551 463619.000000 1 0 0
9.143377 4.777903 15.880506 18.937269 0.481527 0.576116 0.048392 -0.007311 -274991.000000 1 0 0
-0.263023 12.520803 12.799806 17.907393 -1.549793 0.774490 0.022331 -0.013439 40180.600000 1 0 0
3.852977 13.177403 14.703906 20.117014 1.286333 0.751129 0.047584 -0.008977 -106738.000000 1 0 0
-2.733623 -4.149597 -13.825094 14.690986 0.988282 2.796546 0.002903 -0.007828 -617714.000000 1 0 0
6.516077 -11.680497 16.048906 20.891640 -1.061939 0.694775 0.068973 -0.016198 821756.000000 1 0 0
7.905977 -13.379397 7.380706 17.204289 -1.037090 1.127407 0.007521 -0.007617 -378939.000000 1 0 0
-0.069423 15.564203 1.415306 15.628574 -1.566336 1.480113 0.001499 -0.002591 -2267540.000000 1 0 0
-13.611523 8.146003 9.015506 18.245829 -0.539289 1.053982 -0.004014 -0.007087 1001900.000000 1 0 0
-15.488023 -9.736297 4.786306 18.909866 0.561208 1.314901 0.026283 -0.006592 -1168100.000000 1 0 0
9.481777 -11.031797 11.181106 18.347255 -0.860816 0.915473 0.047003 -0.012704 564.615000 1 0 0
-5.858123 -10.196797 -16.719694 20.441146 1.049333 2.528623 0.025153 -0.006405 166246.000000 1 0 0
-2.017923 -12.425597 -14.985694 19.571369 1.409801 2.442917 0.033209 -0.003319 61389.300000 1 0 0
5.730377 -15.541497 -12.601094 20.812566 -1.217547 2.221135 0.046905 -0.022427 188847.000000 1 0 0
1.251277 -12.367797 -16.379994 20.562887 -1.469967 2.492414 0.033028 -0.008632 261264.000000 1 0 0
1.154577 -15.248597 -13.487894 20.390587 -1.495224 2.293582 0.063138 0.017623 269748.000000 1 0 0
-6.390523 -6.085297 -14.671394 17.120731 0.760938 2.600094 0.013891 -0.002605 -54300.000000 1 0 0
-6.195923 -8.238197 -17.458094 20.274181 0.925955 2.608225 0.015633 -0.009163 40869.300000 1 0 0
-2.137223 -16.188397 -13.087894 20.926655 1.439534 2.246463 0.042934 -0.012525 383502.000000 1 0 0
16.516177 -7.818297 -8.592494 20.192594 -0.442119 2.010341 0.098343 -0.026951 373.782000 1 0 0
19.147177 -2.889497 -3.451794 19.669227 -0.149780 1.747202 0.134993 -0.037891 141383.000000 1 0 0
15.318677 -12.381697 -8.352794 21.394800 -0.679766 1.971876 0.045113 0.000634 -51403.000000 1 0 0
18.477577 -2.623897 -6.286494 19.693291 -0.141061 1.895703 0.168097 -0.009429 -295115.000000 1 0 0
9.474977 -9.927797 -16.146494 21.190697 -0.808732 2.437133 0.106916 -0.017319 3682.030000 1 0 0
-4.850023 9.330403 -16.082094 19.214914 -1.091428 2.562499 0.005372 -0.013565 511237.000000 1 0 0
2.641177 -9.697097 -18.305894 20.883373 -1.304879 2.639500 0.055251 -0.012745 441346.000000 1 0 0
11.652477 9.581203 -13.854894 20.482622 0.688159 2.313690 0.128907 -0.061986 89741.600000 1 0 0
18.689077 -5.928197 -8.938694 21.548211 -0.307162 1.998545 0.115357 -0.019829 418486.000000 1 0 0
12.546077 5.534403 -13.718294 19.396528 0.415450 2.356404 0.074863 -0.030918 10761.100000 1 0 0
16.100077 6.244503 -10.507494 20.214197 0.369993 2.117422 0.092085 -0.039177 230332.000000 1 0 0
3.397977 -0.367297 -19.319294 19.619284 -0.107675 2.966495 0.058725 -0.015455 134796.000000 1 0 0
10.111077 -1.169997 -15.049394 18.168298 -0.115202 2.546921 0.021170 0.004096 -127595.000000 1 0 0
12.537677 -5.637897 -13.713694 19.417638 -0.422585 2.354983 0.065395 -0.019953 155144.000000 1 0 0
10.287177 6.265803 -13.848494 18.353940 0.547076 2.425725 0.051968 0.003431 236025.000000 1 0 0
10.783377 5.261103 -16.289094 20.231041 0.453913 2.506731 0.069685 -0.032189 376247.000000 1 0 0
12.031077 -10.137397 -14.845594 21.631119 -0.700183 2.327196 0.125379 -0.037391 317475.000000 1 0 0
-1.769923 1.955103 -17.668394 17.864132 -0.835070 2.993423 0.014525 -0.009525 394509.000000 1 0 0
6.942977 -1.183997 -16.982794 18.385377 -0.168907 2.748456 0.035839 -0.002641 106429.000000 1 0 0
6.350677 -5.545897 -15.968694 18.057887 -0.717853 2.655801 0.006647 -0.012725 93947.800000 1 0 0
-2.611423 -4.831797 -19.551794 20.308581 1.075302 2.867738 0.047579 -0.042285 62674.700000 1 0 0
16.057977 -0.139997 -13.224894 20.803271 -0.008718 2.259727 0.099572 -0.025983 132018.000000 1 0 0
-3.914223 -0.584897 -18.782894 19.195321 0.148331 2.933924 0.018949 -0.002725 155171.000000 1 0 0
3.545577 8.862003 -17.635394 20.052764 1.190214 2.645501 0.056112 -0.030199 74347.000000 1 0 0
9.895777 -0.230397 -17.704294 20.283529 -0.023278 2.631790 0.053970 0.001707 -28877.500000 1 0 0
4.173477 4.644003 -18.456094 19.483637 0.838710 2.815375 0.048974 -0.003392 388159.000000 1 0 0
-2.492323 -11.271297 -18.040694 21.417760 1.353177 2.572377 0.050195 -0.017904 270697.000000 1 0 0
7.094477 -9.021697 -15.919394 19.625232 -0.904416 2.516946 0.060088 -0.029728 -94307.200000 1 0 0
10.340477 -12.507197 -11.026994 19.620144 -0.879949 2.167627 0.041176 0.002188 330083.000000 1 0 0
6.134777 6.859603 -17.248594 19.550030 0.841120 2.651480 0.062251 -0.011567 375458.000000 1 0 0
8.641377 1.279703 -20.218494 22.024953 0.147022 2.733757 0.056941 -0.023186 68551.100000 1 0 0
-1.150723 -0.597497 -20.225594 20.267112 0.478918 3.077573 0.043702 -0.018584 52745.800000 1 0 0
-0.779823 6.595403 -19.684994 20.775141 -1.453105 2.816204 0.031112 -0.008333 -8769.820000 1 0 0
9.007777 5.776603 -18.023394 20.960724 0.570228 2.605802 0.085321 -0.028722 122352.000000 1 0 0
11.932277 -0.016797 -12.799194 17.498540 -0.001408 2.391233 -0.000114 -0.004096 -22807.200000 1 0 0
-4.119823 -2.707097 -19.953994 20.553910 0.581344 2.899392 0.018244 -0.012815 371887.000000 1 0 0
5.437677 -11.449297 -14.482294 19.245560 -1.127401 2.422647 0.016216 -0.019202 -51455.800000 1 0 0
11.853677 2.994103 -15.697394 19.896797 0.247413 2.479880 0.057297 -0.007371 -17324.700000 1 0 0
-2.828923 -4.398997 -17.083394 17.866067 0.999299 2.844502 0.009504 -0.011757 388759.000000 1 0 0
-6.750123 -5.144697 -17.955794 19.860579 0.651240 2.700047 0.024674 -0.000624 -17960.000000 1 0 0
2.894177 10.024903 -15.107594 18.360674 1.289740 2.537158 0.017346 -0.026457 49185.100000 1 0 0
16.822177 -6.078897 -10.843294 20.916875 -0.346761 2.115774 0.105902 -0.019813 -43769.200000 1 0 0
9.713177 -3.178097 -17.639594 20.386304 -0.316215 2.616479 0.053294 -0.025419 -23360.700000 1 0 0
-7.050523 -1.477097 -19.005494 20.324874 0.206515 2.779296 0.012351 -0.000868 488210.000000 1 0 0
2.263677 -7.656897 -19.027594 20.634962 -1.283345 2.744281 0.057465 -0.028329 295306.000000 1 0 0
5.640077 10.207003 -13.994794 18.216686 1.065983 2.446884 0.058144 -0.027949 387914.000000 1 0 0
5.840777 -3.620397 -18.335594 19.581011 -0.554886 2.783014 0.040864 -0.020411 379975.000000 1 0 0
4.624377 13.404703 -14.534694 20.305868 1.238599 2.368548 0.057630 -0.029584 46039.600000 1 0 0
10.309177 10.864903 -15.672094 21.678095 0.811638 2.378853 0.165528 -0.039087 67172.600000 1 0 0
16.870977 3.011703 -11.380294 20.572101 0.176653 2.156986 0.124367 -0.003704 -87816.300000 1 0 0
15.140377 -2.917597 -12.067794 19.579966 -0.190369 2.234875 0.100507 -0.020605 189722.000000 1 0 0
-8.595423 -0.184497 -17.306394 19.324249 0.021461 2.680528 0.028387 -0.012303 470478.000000 1 0 0
-3.671023 4.559003 -19.041294 19.920638 -0.892878 2.843361 0.042646 -0.004443 147473.000000 1 0 0
4.788677 2.483103 -17.347794 18.167091 0.478367 2.840126 0.038121 0.002137 532355.000000 1 0 0
-5.289623 14.263603 -13.857194 20.577957 -1.215671 2.309594 0.019033 -0.012272 286886.000000 1 0 0
0.760277 9.575003 -17.687794 20.127513 1.491560 2.644110 0.020061 -0.007914 295628.000000 1 0 0
1.347177 -5.213597 -19.921694 20.636627 -1.317930 2.877601 0.049474 -0.013256 506591.000000 1 0 0
3.900777 -6.353597 -18.014294 19.496129 -1.020184 2.749191 0.051868 -0.029866 44833.900000 1 0 0
-6.990223 7.361503 -16.100094 19.033339 -0.811263 2.579026 0.013849 -0.003642 -53057.100000 1 0 0
-11.538623 2.783603 -17.095394 20.812034 -0.236719 2.534690 0.080904 -0.029014 286951.000000 1 0 0
-4.587123 7.060903 -17.134294 19.091414 -0.994667 2.684834 0.001761 0.004845 256952.000000 1 0 0
-8.187323 5.206203 -17.867994 20.332290 -0.566389 2.644136 0.022236 -0.007939 271153.000000 1 0 0
-8.652023 4.448003 -15.261794 18.098746 -0.474864 2.574100 0.002411 -0.014250 523682.000000 1 0 0
9.394677 13.256503 -12.490594 20.494141 0.954266 2.226190 0.146558 -0.074357 561351.000000 1 0 0
13.990677 8.539103 -12.173894 20.417126 0.547990 2.209629 0.128023 -0.044196 120391.000000 1 0 0
8.448077 15.673503 -10.002094 20.422307 1.076435 2.082614 0.110702 -0.039502 21679.500000 1 0 0
7.505177 12.961403 -14.314594 20.717946 1.045931 2.333567 0.150531 -0.062300 148521.000000 1 0 0
3.622177 16.035203 -12.548794 20.681396 1.348636 2.222784 0.067493 -0.028445 172145.000000 1 0 0
10.617377 11.960903 -10.817294 19.308179 0.844833 2.165477 0.124142 -0.053911 230100.000000 1 0 0
16.031877 10.060803 -9.920994 21.369768 0.560431 2.053588 0.157902 -0.050637 413255.000000 1 0 0
12.720977 10.819803 -9.277594 19.104062 0.704812 2.077885 0.123648 -0.058955 109794.000000 1 0 0
10.843677 11.576203 -7.812994 17.681536 0.818060 2.028482 0.107438 -0.023981 148529.000000 1 0 0
5.937577 16.674703 -9.947194 20.303872 1.228713 2.082790 0.081325 -0.022190 31865.400000 1 0 0
11.598277 14.183003 -10.189794 20.964483 0.885320 2.078361 0.191938 -0.058825 238615.000000 1 0 0
8.723377 -19.190397 -1.839494 21.160160 -1.144149 1.657838 0.052184 -0.004788 245869.000000 1 0 0
7.917877 -17.085597 -4.309194 19.317856 -1.136835 1.795757 0.054687 -0.006076 212064.000000 1 0 0
4.283477 -18.342497 4.888606 19.460057 -1.341380 1.316864 0.063074 -0.035433 101145.000000 1 0 0
10.542977 -17.664597 -2.572994 20.731923 -1.032702 1.695225 0.049014 -0.007449 520455.000000 1 0 0
-3.169423 -14.919097 7.907406 17.179981 1.361468 1.092499 0.033915 -0.035155 26876.900000 1 0 0
-15.277323 -12.780097 -3.938794 20.303733 0.696628 1.766028 0.078109 -0.019345 245786.000000 1 0 0
-9.563923 -13.132697 -6.916094 17.656973 0.941359 1.973266 0.051289 -0.008442 144014.000000 1 0 0
-11.439323 -15.644497 6.653806 20.491010 0.939433 1.240082 0.054749 -0.016276 221499.000000 1 0 0
-14.281523 -8.461397 -8.222494 18.524755 0.534866 2.030704 0.038376 -0.011713 -87183.700000 1 0 0
4.047677 -15.271597 5.645806 16.777380 -1.311708 1.227585 0.019756 -0.017583 -270120.000000 1 0 0
2.813577 -14.120997 9.337506 17.161229 -1.374124 0.995475 0.009600 -0.008915 365888.000000 1 0 0
2.982377 -17.736497 9.946906 20.552830 -1.404206 1.065613 0.045713 -0.010143 39910.100000 1 0 0
-8.906623 -17.989197 -4.834794 20.647381 1.111069 1.807151 0.076975 -0.016863 -8723.530000 1 0 0
2.485877 -19.805797 -4.067094 20.371314 -1.445937 1.771795 0.062448 -0.016043 170046.000000 1 0 0
-17.500323 -11.093797 -2.182494 20.834992 0.564988 1.675740 -0.019289 0.003387 -23549.900000 1 0 0
-4.043123 -14.859997 2.858506 15.663250 1.305146 1.387270 0.023417 -0.007863 -54099.100000 1 0 0
-10.888623 -9.961597 -14.499394 20.688836 0.740966 2.347359 0.061379 -0.014831 -31972.700000 1 0 0
0.722677 -20.279597 2.377506 20.431271 -1.535176 1.454166 0.045751 -0.021085 273037.000000 1 0 0
6.965877 -17.934597 0.709106 19.252949 -1.200326 1.533957 0.042479 -0.010281 292404.000000 1 0 0
-6.911923 -18.113197 -2.571894 19.557024 1.206255 1.702686 0.022013 -0.055536 276688.000000 1 0 0
-8.156823 -16.340297 -7.114594 19.599911 1.107801 1.942272 0.069087 -0.009544 -161126.000000 1 0 0
-11.826023 -11.253797 -12.266194 20.419654 0.760610 2.215179 0.053654 0.002114 366615.000000 1 0 0
-13.478523 -15.382297 -3.458894 20.742458 0.851267 1.738333 0.074298 -0.010269 302600.000000 1 0 0
-0.226223 -20.482397 -2.644994 20.653710 1.559752 1.699213 0.058569 -0.023494 443372.000000 1 0 0
-12.329223 -16.948897 -0.369494 20.962141 0.941894 1.588424 0.079034 -0.022278 183979.000000 1 0 0
0.971577 -20.017097 5.167206 20.696090 -1.522297 1.318456 0.069130 -0.034864 124100.000000 1 0 0
-18.452923 -9.136497 2.123306 20.700105 0.459740 1.468041 0.069388 0.004413 -3539.590000 1 0 0
-14.898223 -15.187997 -0.226194 21.276359 0.795029 1.581428 0.073515 -0.023490 6126.890000 1 0 0
10.285977 -15.415097 -5.309294 19.277322 -0.982379 1.849819 0.031469 -0.001361 28709.100000 1 0 0
0.065377 -19.120497 -6.976894 20.353740 -1.567377 1.920673 0.047513 -0.014399 185307.000000 1 0 0
-9.778823 -18.950797 -2.831294 21.512189 1.094422 1.702793 0.062947 0.038842 297800.000000 1 0 0
-14.556523 -6.540097 -11.484794 19.661275 0.422263 2.194607 0.063991 -0.017832 46736.100000 1 0 0
-12.762823 -15.318397 1.854006 20.024491 0.876155 1.478077 0.063944 -0.025282 397522.000000 1 0 0
-2.498023 -16.455297 10.052406 19.443965 1.420140 1.027461 0.032788 -0.024344 406856.000000 1 0 0
-12.072923 -15.518397 -6.685094 20.766959 0.909630 1.898543 0.053148 0.005443 145606.000000 1 0 0
7.004277 -16.573997 -7.206894 19.382894 -1.170955 1.951762 0.078749 -0.027833 39554.800000 1 0 0
-17.752023 -7.530797 -3.200694 19.547165 0.401211 1.735279 0.023051 -0.009009 -110351.000000 1 0 0
-12.244323 -13.337597 -8.366694 19.945338 0.828108 2.003670 0.079289 -0.045913 34502.100000 1 0 0
-7.824423 -14.275097 10.013206 19.111888 1.069400 1.019343 0.051794 -0.014806 420196.000000 1 0 0
-15.749423 -8.078797 -5.882894 18.652606 0.473960 1.891667 0.044796 -0.003860 13156.500000 1 0 0
-0.451523 -19.396797 -0.179294 19.402880 1.547522 1.580037 0.043602 -0.025091 322232.000000 1 0 0
-14.983423 -11.622897 -1.590494 19.029565 0.659758 1.654474 0.024842 0.008158 161225.000000 1 0 0
-6.910223 -19.163197 2.742806 20.554860 1.224711 1.436959 0.074815 -0.029111 223551.000000 1 0 0
-1.961523 -20.993997 -5.123994 21.699096 1.477634 1.809186 0.052345 -0.013122 -103236.000000 1 0 0
-9.842623 -19.253397 -0.063994 21.623473 1.098217 1.573756 0.103160 -0.049179 82026.700000 1 0 0
-18.064223 -7.054397 5.153406 20.065848 0.372305 1.311061 0.068257 -0.008218 54624.700000 1 0 0
-2.959623 -15.847397 -10.933694 19.479349 1.386166 2.166748 0.025221 0.002828 64244.500000 1 0 0
-2.653023 -18.098797 -8.334694 20.101545 1.425247 1.998332 0.024080 -0.015254 124271.000000 1 0 0
3.990877 -17.639597 -6.330494 19.161358 -1.348297 1.907501 0.029321 0.022927 449232.000000 1 0 0
0.978677 -17.219497 -8.996594 19.452701 -1.514022 2.051593 0.051598 -0.020329 103082.000000 1 0 0
-7.660523 -10.117397 -14.528894 19.290777 0.922726 2.423637 0.010904 -0.007756 363197.000000 1 0 0
-4.930523 -19.542797 -2.041394 20.258288 1.323660 1.671736 0.060409 -0.030931 271828.000000 1 0 0
-10.397023 -14.722597 8.703706 20.015180 0.955925 1.120919 0.062729 -0.055967 269747.000000 1 0 0
-7.337223 -15.217997 -10.166294 19.717398 1.121538 2.112504 0.041034 -0.013939 278608.000000 1 0 0
-12.576323 -8.112897 -12.466294 19.477974 0.572918 2.265321 0.058320 -0.014784 291655.000000 1 0 0
-15.864223 -12.941897 3.271706 20.733314 0.684296 1.412335 0.061235 -0.013983 76593.100000 1 0 0
-5.832623 -14.496097 -13.314994 20.529135 1.188259 2.276527 -0.004353 0.008241 358405.000000 1 0 0
-13.992923 -11.676897 -6.914294 19.492544 0.695418 1.933405 0.073890 -0.012865 205932.000000 1 0 0
-11.424923 -10.631197 -7.950494 17.514610 0.749427 2.041973 0.038897 -0.011551 232305.000000 1 0 0
-9.871423 -15.621697 3.456106 18.799656 1.007247 1.385906 0.029483 0.014590 394591.000000 1 0 0
5.284277 -18.164997 8.433606 20.712711 -1.287705 1.151442 0.074061 -0.018904 -10731.200000 1 0 0
-4.810623 -16.577697 5.353706 18.072750 1.288367 1.270052 0.034187 -0.009200 275634.000000 1 0 0
-18.349423 -7.330897 -6.377394 20.763297 0.380089 1.882990 0.061988 -0.034128 15042.000000 1 0 0
-17.016023 -4.839197 -10.834094 20.744649 0.277075 2.120295 0.098078 -0.014339 -212860.000000 1 0 0
-15.792923 -4.128597 -13.170594 20.974419 0.255698 2.249695 0.097850 -0.027432 269709.000000 1 0 0
-19.447323 -5.453397 -5.772494 21.006180 0.273397 1.849178 0.080956 -0.019203 15361.200000 1 0 0
5.434377 -13.654597 8.685806 17.071136 -1.192025 1.037005 0.027833 -0.005026 229557.000000 1 0 0
19.882077 -3.343597 2.853106 20.362143 -0.166612 1.430216 0.090796 -0.027224 -78366.900000 1 0 0
18.014877 -2.251797 0.336006 18.158174 -0.124352 1.552291 0.039566 -0.022173 224967.000000 1 0 0
14.414077 -11.227397 0.348606 18.274069 -0.661754 1.551719 0.037636 0.004257 121489.000000 1 0 0
10.977577 -13.182897 5.371306 17.976287 -0.876424 1.267362 0.019583 -0.006436 321840.000000 1 0 0
10.042477 -12.734197 8.437706 18.281302 -0.903031 1.091056 0.046508 -0.025427 -37661.400000 1 0 0
17.649177 4.656703 -4.486394 18.796438 0.257969 1.811806 0.033991 -0.004708 -131220.000000 1 0 0
18.864277 -6.080997 -4.439994 20.311402 -0.311838 1.791172 0.092895 -0.027041 -30959.300000 1 0 0
17.846577 -9.791697 -0.219294 20.357449 -0.501814 1.581569 0.071130 -0.008886 328838.000000 1 0 0
17.591777 -8.925897 8.455406 21.462436 -0.469542 1.165857 0.114123 -0.031108 -129099.000000 1 0 0
19.832577 0.395203 -2.225194 19.960932 0.019924 1.682506 0.118262 -0.012702 -75860.500000 1 0 0
7.355077 -13.542097 11.533206 19.248386 -1.073245 0.928323 0.037643 -0.000047 320096.000000 1 0 0
16.109877 -6.501797 -3.188194 17.662562 -0.383598 1.752297 0.045230 -0.007320 388088.000000 1 0 0
14.532877 -7.143897 11.174506 19.675095 -0.456879 0.966781 0.100125 -0.055775 529930.000000 1 0 0
16.615277 0.966003 10.104906 19.470740 0.058074 1.025140 0.160727 -0.042015 193646.000000 1 0 0
16.541777 -10.260397 2.689206 19.650393 -0.555192 1.433513 0.015255 -0.009570 104124.000000 1 0 0
16.351877 -7.283797 -6.148794 18.927368 -0.419056 1.901663 0.063835 -0.003267 371833.000000 1 0 0
18.653077 -4.451597 6.139606 20.135758 -0.234270 1.260952 0.153488 -0.024970 23512.600000 1 0 0
13.512177 -13.045197 8.126206 20.464391 -0.767816 1.162452 0.068764 -0.023110 254696.000000 1 0 0
15.645477 -13.944597 -1.557994 21.015710 -0.727980 1.644999 0.061918 -0.000075 234130.000000 1 0 0
18.731577 -6.394997 7.812206 21.279063 -0.328995 1.194873 0.151453 -0.034851 204471.000000 1 0 0
19.732477 4.064203 2.894406 20.353525 0.203125 1.428106 0.102576 -0.002621 372981.000000 1 0 0
15.850977 -10.203697 8.155206 20.539627 -0.571952 1.162499 0.080763 -0.041646 29758.700000 1 0 0
14.332077 -4.090997 10.841306 18.430372 -0.278049 0.941927 0.075811 -0.018446 -61373.100000 1 0 0
18.913677 -7.700397 2.250706 20.544804 -0.386641 1.461025 0.114986 -0.025501 -13923.600000 1 0 0
18.821877 -4.822297 -1.680094 19.502316 -0.250812 1.657052 0.071104 -0.018168 283478.000000 1 0 0
14.728177 -13.571497 -5.929294 20.886868 -0.744548 1.858631 0.075981 -0.015762 500347.000000 1 0 0
13.771577 -9.534197 10.186506 19.604136 -0.605546 1.024402 0.059010 -0.031270 323446.000000 1 0 0
14.205677 2.477503 0.486706 14.428312 0.172666 1.537057 0.003632 -0.002803 -271416.000000 1 0 0
12.713777 3.107203 13.857706 19.061240 0.239698 0.756840 0.079075 -0.022979 291964.000000 1 0 0
18.507677 -3.416497 9.139806 20.922300 -0.182544 1.118708 0.146354 -0.031095 302538.000000 1 0 0
7.659577 -18.211797 5.255506 20.444046 -1.172673 1.310810 0.079992 -0.032188 383575.000000 1 0 0
12.835177 -3.088297 14.842006 19.863647 -0.236123 0.726966 0.091031 -0.016244 190607.000000 1 0 0
11.508477 -13.443197 -7.157294 19.089040 -0.862782 1.955131 0.034967 -0.014460 122433.000000 1 0 0
10.985577 -17.237497 3.970706 20.822601 -1.003396 1.378929 0.050819 -0.017936 497236.000000 1 0 0
18.314777 -0.273997 -5.492794 19.122681 -0.014959 1.862140 0.117470 -0.015666 -9945.310000 1 0 0
4.288277 -13.619297 11.601206 18.397351 -1.265756 0.888482 0.014274 -0.009700 87343.500000 1 0 0
9.206877 -2.626997 14.381806 17.277269 -0.277944 0.587350 0.039599 -0.013198 494390.000000 1 0 0
9.350177 -9.493097 14.008006 19.333104 -0.792983 0.760400 0.088991 -0.015700 331786.000000 1 0 0
20.927577 5.998603 -3.109694 21.991292 0.279152 1.712678 0.172873 -0.009102 360710.000000 1 0 0
14.662177 -13.146497 1.811406 19.776021 -0.730948 1.479072 0.024155 -0.003590 162942.000000 1 0 0
12.130077 -0.076797 14.305006 18.755742 -0.006331 0.703319 0.105616 -0.029673 -277050.000000 1 0 0
19.851877 0.020403 7.635806 21.269767 0.001028 1.203602 0.191819 -0.036527 106018.000000 1 0 0
20.054477 0.922703 0.307306 20.078045 0.045977 1.555490 0.105377 -0.016323 258773.000000 1 0 0
18.029977 0.284503 3.082906 18.293861 0.015778 1.401467 0.054668 -0.010913 93199.900000 1 0 0
10.577577 -8.609697 16.244106 21.210445 -0.683194 0.698428 0.101398 -0.015015 55024.800000 1 0 0
19.160077 3.026903 5.615106 20.194062 0.156685 1.289025 0.093518 -0.008198 130884.000000 1 0 0
15.101977 2.347703 6.969606 16.797525 0.154222 1.142943 0.074174 -0.016445 153758.000000 1 0 0
11.479577 -15.909997 2.031406 19.723978 -0.945765 1.467622 0.013878 0.012243 199327.000000 1 0 0
8.861477 -16.718997 6.858006 20.126671 -1.083419 1.223090 0.057111 0.005736 282565.000000 1 0 0
6.234677 6.538303 7.090706 11.484717 0.809165 0.905359 0.001864 0.001636 -1380050.000000 1 0 0
18.405977 2.886703 -6.399194 19.699308 0.155568 1.901643 0.096724 -0.011339 357186.000000 1 0 0
14.105577 4.580703 -7.096294 16.441033 0.314000 2.017085 0.021755 -0.010938 338296.000000 1 0 0
-10.654023 -3.866897 -13.643294 17.736983 0.348166 2.448385 0.025077 -0.016390 -410202.000000 1 0 0
7.947577 -14.040497 -10.370194 19.179167 -1.055717 2.142066 0.025770 -0.014009 -1492.900000 1 0 0
2.114577 -15.838497 13.778106 21.098948 -1.438072 0.859227 0.016809 -0.016213 389370.000000 1 0 0
-9.605223 -8.185097 2.604706 12.885674 0.705741 1.367254 0.004907 0.002680 530867.000000 1 0 0
-13.610123 3.164903 -10.220194 17.311973 -0.228480 2.202294 0.019401 -0.002626 281780.000000 1 0 0
-13.096523 -5.224497 -13.238694 19.341078 0.379577 2.324695 0.059919 -0.012955 -2482.710000 1 0 0
-18.001623 -1.510497 -8.534294 19.979344 0.083713 2.012141 0.098869 -0.034775 344987.000000 1 0 0
-12.349923 15.306203 4.107706 20.091632 -0.891888 1.364896 0.043011 -0.021623 347749.000000 1 0 0
-16.416723 5.888303 8.755006 19.514892 -0.344384 1.105562 -0.027281 -0.033946 193734.000000 1 0 0
-13.084823 14.859903 0.399206 19.803754 -0.848834 1.550637 0.042241 -0.049712 75069.200000 1 0 0
-16.362323 5.297103 -10.627294 20.216931 -0.313090 2.124291 0.066696 -0.012651 97826.300000 1 0 0
-18.069023 2.996003 0.054306 18.315801 -0.164314 1.567831 0.073377 -0.014572 22813.900000 1 0 0
-10.114923 15.482603 -0.108994 18.494176 -0.992099 1.576690 0.028885 -0.010888 77391.200000 1 0 0
-18.243623 12.257303 2.946206 22.175468 -0.591595 1.437544 0.152631 -0.040156 71656.000000 1 0 0
-8.875123 16.232803 -7.573694 19.990812 -1.070459 1.959359 0.062181 -0.029665 62033.800000 1 0 0
-14.830423 -1.550297 -12.640494 19.548068 0.104157 2.273963 0.084022 -0.045824 118749.000000 1 0 0
-19.201923 5.052403 -4.891394 20.449116 -0.257288 1.812336 0.104402 -0.004831 151338.000000 1 0 0
-16.634423 9.886003 -5.660094 20.161194 -0.536225 1.855363 0.046763 0.009632 19792.600000 1 0 0
-19.072523 1.435603 2.359206 19.271428 -0.075129 1.448069 0.103925 -0.032822 706956.000000 1 0 0
-14.448023 11.419703 -7.375794 19.838279 -0.668859 1.951739 0.046048 -0.020982 323766.000000 1 0 0
-13.005523 4.475403 -13.451694 19.238527 -0.331423 2.345083 0.067090 -0.029983 -109379.000000 1 0 0
-14.070723 9.090503 -6.717694 18.048543 -0.573599 1.952176 0.026479 -0.013454 233460.000000 1 0 0
-6.552823 11.828703 -15.249694 20.381631 -1.064905 2.416153 0.028799 -0.024143 -147070.000000 1 0 0
-15.096323 13.801503 2.858306 20.653096 -0.740621 1.431955 0.037172 -0.031499 -54003.100000 1 0 0
-18.725623 8.530803 -4.805894 21.131024 -0.427475 1.800237 0.088232 -0.016924 189821.000000 1 0 0
-4.112123 16.206603 -11.579194 20.338173 -1.322309 2.176491 0.015838 0.004358 217821.000000 1 0 0
-19.317223 -2.464697 -6.326394 20.475671 0.126905 1.884908 0.062167 -0.022253 -89080.000000 1 0 0
-10.683123 13.983203 -6.448594 18.741490 -0.918397 1.922056 0.021087 -0.010580 133047.000000 1 0 0
-19.417523 3.023203 3.993206 20.053070 -0.154455 1.370324 0.094325 -0.030368 41679.500000 1 0 0
-15.223123 12.002403 0.361806 19.388967 -0.667648 1.552135 0.026617 -0.024745 -31269.300000 1 0 0
-17.206223 2.376703 -8.395794 19.292283 -0.137262 2.021045 0.035281 -0.011969 205693.000000 1 0 0
-16.599523 13.625603 -4.117994 21.866849 -0.687322 1.760249 0.061006 0.009092 160668.000000 1 0 0
-10.921123 15.729903 -8.766594 21.060721 -0.963913 2.000117 0.048962 -0.018662 134379.000000 1 0 0
-19.416023 1.550503 -6.843294 20.645016 -0.079688 1.908662 0.103343 -0.022938 170263.000000 1 0 0
-17.203423 10.360603 -0.397094 20.086252 -0.542066 1.590567 0.052533 -0.016293 15880.700000 1 0 0
-11.585523 6.447903 -14.506594 19.653017 -0.507857 2.401099 0.047356 -0.027272 427436.000000 1 0 0
-13.421023 12.424103 -5.103594 18.987598 -0.746844 1.842928 0.038540 -0.022165 488557.000000 1 0 0
-18.780023 7.485603 -0.730294 20.230097 -0.379294 1.606904 0.077775 -0.014610 -328857.000000 1 0 0
-14.480123 9.036303 -10.280694 19.925396 -0.557915 2.112924 0.020145 -0.012224 464449.000000 1 0 0
-18.681223 11.268003 4.931806 22.366910 -0.542749 1.348474 0.087753 -0.040454 151274.000000 1 0 0
-8.193623 11.730003 -13.549394 19.705698 -0.961065 2.328958 0.011737 -0.020694 445335.000000 1 0 0
-21.149523 -1.744197 -5.026894 21.808581 0.082284 1.803389 0.125540 -0.039518 330306.000000 1 0 0
-10.690123 13.408703 -2.770994 17.370966 -0.897733 1.730999 0.019862 -0.006026 449886.000000 1 0 0
-18.757923 -5.214997 3.990806 19.874164 0.271168 1.368618 0.060271 -0.005446 -126421.000000 1 0 0
-11.436423 11.214603 -13.383594 20.872942 -0.775606 2.266849 0.054139 -0.020781 221118.000000 1 0 0
-14.909423 11.847203 -10.098494 21.555201 -0.671447 2.058382 0.043686 -0.000378 273825.000000 1 0 0
-13.243423 9.484603 -12.903994 20.781218 -0.621499 2.240744 0.107266 -0.047915 333595.000000 1 0 0
-18.463123 -4.806097 -3.109394 19.330127 0.254656 1.732356 0.042238 -0.011629 -363931.000000 1 0 0
-9.351323 12.530103 -11.600694 19.468612 -0.929662 2.209141 0.032924 -0.011222 76205.300000 1 0 0
-15.213723 7.566503 -8.374094 18.942935 -0.461523 2.028701 0.003684 0.000694 -46959.700000 1 0 0
-14.509723 9.222103 1.867406 17.293538 -0.566172 1.462603 0.013380 -0.007918 -65935.300000 1 0 0
-19.804823 5.939403 8.072306 22.196162 -0.291362 1.198581 0.073267 -0.032258 305049.000000 1 0 0
-19.046423 6.298103 4.085106 20.472430 -0.319353 1.369906 0.046583 -0.010850 11270.900000 1 0 0
-14.641223 12.918403 5.739206 20.351634 -0.722967 1.284916 0.024693 -0.016330 33598.600000 1 0 0
18.135677 6.306403 5.477006 19.966750 0.334655 1.292928 0.105295 -0.022051 192161.000000 1 0 0
18.071177 7.509303 0.360406 19.572608 0.393831 1.552382 0.050560 -0.005192 52342.700000 1 0 0
16.074177 4.983003 9.004006 19.086163 0.300606 1.079515 0.096224 -0.008655 -120296.000000 1 0 0
11.539277 13.286703 10.722806 20.607522 0.855669 1.023554 0.047773 -0.011798 -60879.300000 1 0 0
15.407877 12.549303 4.277406 20.326926 0.683504 1.358781 0.088835 -0.006186 137383.000000 1 0 0
5.501477 10.633503 14.450606 18.765864 1.093348 0.691881 0.029507 -0.002674 257451.000000 1 0 0
12.832777 14.446303 -4.407094 19.819141 0.844478 1.795036 0.118763 0.007343 323977.000000 1 0 0
18.389677 9.515903 -2.679094 20.878463 0.477517 1.699470 0.082788 -0.003144 -18421.900000 1 0 0
14.256477 7.647903 9.506206 18.764475 0.492382 1.039552 0.080674 -0.021229 145043.000000 1 0 0
4.671577 19.213503 -1.557094 19.834487 1.332284 1.649382 0.017945 -0.016528 493869.000000 1 0 0
-4.772723 19.666303 4.114106 20.651107 -1.332714 1.370235 0.030834 0.012234 214552.000000 1 0 0
8.125277 13.587403 11.959306 19.840934 1.031848 0.923842 0.071809 0.007150 1805.140000 1 0 0
0.139877 17.322603 -10.076494 20.040656 1.562722 2.097634 0.020499 0.010062 15941.400000 1 0 0
10.841477 9.192303 15.543506 21.062684 0.703264 0.740748 0.063132 -0.024497 359339.000000 1 0 0
-1.176323 12.161703 1.160306 12.273430 -1.474373 1.476117 0.002221 -0.000466 496240.000000 1 0 0
-4.688323 19.195003 -2.459094 19.911697 -1.331240 1.694612 0.031792 0.002883 84156.500000 1 0 0
5.990677 18.293303 6.377806 20.278303 1.254324 1.250852 0.040515 -0.023294 116632.000000 1 0 0
11.052277 17.575603 -1.495694 20.815662 1.009439 1.642713 0.108613 -0.026149 474776.000000 1 0 0
18.617877 10.419203 3.339906 21.594910 0.510210 1.415511 0.099462 -0.010937 400171.000000 1 0 0
11.719477 16.895903 6.226506 21.484578 0.964359 1.276765 0.066472 -0.002165 55332.700000 1 0 0
18.056477 7.216803 -5.577394 20.229334 0.380230 1.850123 0.068239 0.004994 357089.000000 1 0 0
-0.805823 16.039803 12.047706 20.076649 -1.520600 0.927188 0.023635 0.038544 255241.000000 1 0 0
1.194877 20.429603 -1.744294 20.538719 1.512375 1.655826 0.027917 -0.006284 321553.000000 1 0 0
14.041477 9.714803 -1.332394 17.126464 0.605245 1.648672 0.037332 -0.010348 -118911.000000 1 0 0
10.196477 17.171303 1.641606 20.037881 1.034941 1.488779 0.062457 -0.032314 254077.000000 1 0 0
0.194677 17.840603 -0.356594 17.845229 1.559885 1.590780 0.004709 0.003334 -24511.700000 1 0 0
-0.149823 20.948303 1.410906 20.996298 -1.563644 1.503548 0.021057 -0.004402 304579.000000 1 0 0
6.150777 17.669603 -0.215794 18.710786 1.235816 1.582330 0.024566 -0.019813 -40461.000000 1 0 0
7.021777 18.944103 -2.819394 20.399348 1.215838 1.709450 0.042736 -0.018901 160441.000000 1 0 0
10.600377 9.418003 12.942406 19.198246 0.726402 0.830990 0.038964 -0.007397 41187.300000 1 0 0
12.257677 14.534203 8.198606 20.705334 0.870165 1.163677 0.070887 -0.017115 312122.000000 1 0 0
0.394877 17.576803 7.198906 18.998005 1.548334 1.182157 0.020926 -0.012816 213817.000000 1 0 0
7.208377 18.009703 -7.954594 20.966299 1.190075 1.959943 0.064550 -0.024676 207857.000000 1 0 0
-1.506523 18.446703 8.923206 20.546875 -1.489308 1.121552 0.074868 -0.036092 166683.000000 1 0 0
16.176877 7.082003 -8.071994 19.416571 0.412650 1.999538 0.090611 -0.008097 -185522.000000 1 0 0
-5.623423 19.635703 -6.441994 21.416886 -1.291874 1.876318 0.049932 -0.013647 387903.000000 1 0 0
3.958677 15.857103 10.171506 19.250412 1.326150 1.014107 0.037850 -0.006839 227498.000000 1 0 0
9.123277 14.777603 7.388506 18.873308 1.017701 1.168558 0.030625 -0.010358 151187.000000 1 0 0
-2.542923 19.507803 6.545606 20.733205 -1.441173 1.249595 0.028443 -0.010494 73608.900000 1 0 0
4.599877 18.106503 7.964006 20.308366 1.322014 1.167824 0.038985 -0.017340 6314.350000 1 0 0
13.813277 12.010703 -6.735494 19.504628 0.715709 1.923385 0.043724 -0.032397 142216.000000 1 0 0
11.821977 6.827103 15.644506 20.763406 0.523705 0.717480 0.113712 -0.030093 213736.000000 1 0 0
17.208577 9.428703 4.990806 20.247067 0.501235 1.321734 0.097555 -0.018520 227468.000000 1 0 0
5.137877 14.427903 11.900406 19.395408 1.228691 0.910225 0.025086 -0.041085 42409.600000 1 0 0
16.524177 10.776503 -4.585894 20.253688 0.577896 1.799200 0.111172 0.001156 189858.000000 1 0 0
15.451777 13.896303 6.706106 21.836587 0.732447 1.258648 0.114986 -0.001446 410301.000000 1 0 0
12.584077 14.415403 -8.136694 20.793476 0.853123 1.972851 0.188346 -0.056229 367717.000000 1 0 0
-8.890823 15.355403 9.603206 20.175646 -1.045959 1.074718 0.059114 -0.020551 34292.900000 1 0 0
-3.821223 17.416303 -7.753494 19.443406 -1.354814 1.980974 0.003819 0.034309 98325.800000 1 0 0
2.200477 19.617803 -4.436294 20.233166 1.459096 1.791851 0.031406 -0.019513 50744.000000 1 0 0
6.956477 16.729203 8.926106 20.197381 1.176720 1.113032 0.027016 -0.004351 428129.000000 1 0 0
13.373177 15.817503 -1.524294 20.769178 0.868940 1.644255 0.130473 -0.023731 378801.000000 1 0 0
12.640377 16.674003 4.156706 21.332598 0.922138 1.374689 0.102485 -0.028699 362212.000000 1 0 0
2.365277 18.413403 0.503706 18.571529 1.443042 1.543671 0.008188 -0.016622 -65171.700000 1 0 0
-6.512123 17.783803 2.380706 19.087670 -1.219778 1.445746 -0.012710 0.021253 195046.000000 1 0 0
0.076377 19.968103 -5.781794 20.788462 1.566971 1.852638 0.042553 0.002953 284375.000000 1 0 0
-7.682023 17.819603 -6.321794 20.408744 -1.163771 1.885736 0.062883 -0.021320 150787.000000 1 0 0
-7.655723 18.562003 -1.459994 20.131807 -1.179612 1.643382 0.056438 -0.006886 143909.000000 1 0 0
-14.715623 -9.297097 8.504906 19.373151 0.563463 1.116306 0.059993 -0.025945 453308.000000 1 0 0
-13.219023 -13.671897 7.803906 20.556368 0.802238 1.181395 0.052033 -0.016075 11232.700000 1 0 0
-3.280123 -15.908697 12.604806 20.560325 1.367462 0.910863 0.035858 -0.013851 132059.000000 1 0 0
-1.988023 -15.024197 15.159106 21.435419 1.439239 0.785268 0.047783 -0.014096 486815.000000 1 0 0
-7.567723 -14.061897 13.433606 20.867897 1.077079 0.871414 0.034273 -0.014601 229838.000000 1 0 0
-10.061423 -11.290297 11.792706 19.177354 0.842889 0.908501 0.050899 -0.017730 -57709.700000 1 0 0
-7.768823 -11.012397 13.351006 18.970420 0.956414 0.790092 0.043609 -0.001119 333840.000000 1 0 0
-15.364823 -12.371597 6.743006 20.847117 0.677897 1.241423 0.059720 -0.022200 299690.000000 1 0 0
-4.574423 -12.267397 12.985406 18.440041 1.213874 0.789506 0.037750 -0.030635 270867.000000 1 0 0
3.857877 -12.803597 14.136106 19.458797 -1.278136 0.757635 0.006229 0.010527 518319.000000 1 0 0
6.788577 -13.416497 14.253806 20.718546 -1.102370 0.812104 0.065175 -0.020276 172138.000000 1 0 0
7.323377 -8.536197 16.524506 19.988942 -0.861722 0.597611 0.082907 -0.025206 524532.000000 1 0 0
-5.071223 13.481903 13.435806 19.697713 -1.211018 0.820166 0.012737 -0.011192 445702.000000 1 0 0
-13.548723 -1.929697 17.526406 22.236603 0.141475 0.662953 0.046453 -0.005020 332771.000000 1 0 0
-10.587123 9.663103 12.765506 19.194292 -0.739800 0.843212 0.027498 -0.004151 497332.000000 1 0 0
-7.257123 -8.250597 17.100706 20.326640 0.849374 0.571122 0.034565 -0.019729 90471.400000 1 0 0
-4.966923 1.824703 18.313406 19.062547 -0.352066 0.281280 0.020231 -0.013539 436338.000000 1 0 0
-15.976923 -3.265697 14.379606 21.741662 0.201624 0.848133 0.070624 -0.024769 172342.000000 1 0 0
-14.450223 3.067103 12.585406 19.406403 -0.209149 0.865160 0.018559 -0.002769 315484.000000 1 0 0
-14.535623 10.706903 9.719506 20.503436 -0.634868 1.076920 -0.016655 0.013271 -35312.200000 1 0 0
-4.127023 11.263603 15.616906 19.692354 -1.219584 0.655006 0.005867 -0.011210 221749.000000 1 0 0
-13.259223 12.894403 7.640006 20.011055 -0.771450 1.179065 0.021980 -0.027529 38244.200000 1 0 0
-4.293523 -6.380297 18.526706 20.059445 0.978467 0.393455 0.025406 -0.019125 185226.000000 1 0 0
0.348077 -3.130597 17.539106 17.819709 -1.460065 0.177698 0.020018 -0.033086 220866.000000 1 0 0
-4.715123 6.366303 21.194006 22.626269 -0.933314 0.357716 0.051961 -0.010576 259860.000000 1 0 0
2.256777 -10.728097 15.991906 19.388815 -1.363458 0.600947 0.035291 -0.019603 314048.000000 1 0 0
-14.867923 -0.051597 13.878506 20.338896 0.003470 0.819806 0.007275 -0.004788 -98629.600000 1 0 0
-13.712323 -6.155697 8.896606 17.466253 0.421953 1.036356 0.026694 -0.001555 226119.000000 1 0 0
10.098477 0.803803 16.827906 19.641888 0.079429 0.541890 0.086605 -0.004076 599895.000000 1 0 0
-7.870623 12.236603 11.645306 18.635834 -0.999214 0.895808 0.031527 -0.016580 128218.000000 1 0 0
-1.539623 7.276803 19.632706 20.994414 -1.362292 0.362144 0.052962 -0.030666 646838.000000 1 0 0
0.972077 -13.473597 15.476806 20.542985 -1.498774 0.717600 -0.005197 -0.010997 405259.000000 1 0 0
-3.783923 -11.650097 17.720606 21.542114 1.256748 0.604823 0.061718 -0.026805 224931.000000 1 0 0
-1.882623 8.878803 16.381706 18.727992 -1.361855 0.505943 0.021769 -0.015969 473499.000000 1 0 0
-5.964323 -9.202797 19.876506 22.701103 0.995759 0.504173 0.117507 -0.046610 106137.000000 1 0 0
-6.832023 -2.703297 19.002006 20.373035 0.376777 0.368958 0.023177 -0.023354 -446662.000000 1 0 0
-10.856723 -8.151797 15.930506 20.930868 0.644046 0.705787 0.059158 -0.027012 128642.000000 1 0 0
-0.776523 5.272103 17.761606 18.543805 -1.424559 0.291483 0.027702 -0.021010 -40651.200000 1 0 0
-6.610923 -11.092497 18.501506 22.562214 1.033337 0.609347 0.089818 -0.041455 356815.000000 1 0 0
0.261977 3.223403 18.840806 19.116352 1.489701 0.169994 0.020550 -0.006110 90288.800000 1 0 0
-18.773323 -0.088097 7.323606 20.151442 0.004693 1.198851 0.089714 -0.030588 167210.000000 1 0 0
-1.875623 -8.874197 17.502406 19.713029 1.362505 0.478124 0.023520 -0.019362 229053.000000 1 0 0
5.040477 3.066703 13.865206 15.068345 0.546584 0.402321 0.014662 -0.015251 -1103710.000000 1 0 0
-15.021223 -8.000297 10.984206 20.255731 0.489386 0.997652 0.101751 0.015397 56228.600000 1 0 0
4.017577 8.074603 16.441606 18.752774 1.109105 0.501722 0.024321 -0.021144 187291.000000 1 0 0
6.364677 4.182703 16.536306 18.205865 0.581402 0.431605 0.048274 -0.052283 217148.000000 1 0 0
4.148477 -9.514697 18.085506 20.852454 -1.159639 0.521027 0.021041 -0.009875 265861.000000 1 0 0
-4.645823 -0.457597 19.842706 20.384455 0.098180 0.231064 0.020175 -0.016331 890134.000000 1 0 0
-11.274023 2.084203 16.978906 20.487331 -0.182804 0.593923 0.030988 -0.009043 127675.000000 1 0 0
-16.845523 -4.777197 8.729006 19.564989 0.276333 1.108333 0.054261 -0.021444 116957.000000 1 0 0
-13.299523 -8.864297 13.678706 21.037111 0.587896 0.862925 0.063773 -0.038042 -20962.000000 1 0 0
-14.835523 6.186303 13.176906 20.784463 -0.395069 0.884109 0.034298 -0.011813 234199.000000 1 0 0
1.424977 9.316203 16.988506 19.427597 1.419016 0.506491 0.026531 -0.016976 39989.500000 1 0 0
-3.933523 -10.604297 14.598806 18.467507 1.215593 0.659150 0.034573 -0.020551 347464.000000 1 0 0
-17.200323 -2.836097 7.024606 18.794670 0.163416 1.187742 0.031000 -0.017404 -46479.300000 1 0 0
-0.749823 -0.781397 20.842406 20.870522 0.806015 0.051913 0.030224 -0.020305 344092.000000 1 0 0
-1.905723 2.277203 20.280306 20.496542 -0.873975 0.145386 0.028942 -0.018118 117185.000000 1 0 0
-8.000123 1.982203 16.491006 18.435953 -0.242880 0.463479 0.000604 0.009730 524846.000000 1 0 0
2.676477 -2.594497 18.740106 19.107237 -0.769846 0.196347 0.028724 -0.013901 -304668.000000 1 0 0
-12.154323 4.454203 14.145806 19.174757 -0.351272 0.741094 -0.019100 -0.005686 168208.000000 1 0 0
-13.373823 -5.474597 12.985406 19.428101 0.388542 0.838764 0.032709 -0.023257 22017.300000 1 0 0
-17.252723 -1.185097 9.471106 19.717067 0.068583 1.069742 0.059001 -0.033263 256761.000000 1 0 0
-7.048523 7.837403 14.846506 18.207836 -0.838344 0.617392 0.009278 -0.004179 -97941.500000 1 0 0
-9.511023 0.836403 14.063406 16.998191 -0.087715 0.596428 0.013711 -0.006584 237728.000000 1 0 0
7.798977 -0.832797 14.948106 16.880861 -0.106380 0.483214 0.044121 -0.016968 187998.000000 1 0 0
4.084277 6.309603 18.494306 19.963260 0.996314 0.386014 0.014960 0.000479 -10435.400000 1 0 0
2.028477 0.311603 19.704406 19.810992 0.152423 0.103779 0.025585 -0.019975 237012.000000 1 0 0
-7.021123 7.065803 17.485706 20.123907 -0.788570 0.517816 0.007162 -0.011532 498512.000000 1 0 0
7.473577 -3.145697 17.030006 18.861889 -0.398401 0.444376 0.049617 -0.006814 430358.000000 1 0 0
-16.729623 2.544703 9.205106 19.263690 -0.150951 1.072594 0.042658 -0.018847 254345.000000 1 0 0
4.022777 -5.426597 19.077506 20.238130 -0.932882 0.340309 0.074479 -0.038960 139335.000000 1 0 0
-3.912923 -3.771497 20.540406 21.247198 0.766996 0.258655 0.021566 -0.019602 350762.000000 1 0 0
-9.688823 5.862503 14.498006 18.396586 -0.544146 0.663111 0.008123 -0.000710 40353.300000 1 0 0
6.474977 2.783903 19.748206 20.968240 0.406054 0.342806 0.097427 -0.028793 18769.200000 1 0 0
-7.731623 11.335503 14.583506 20.023742 -0.972205 0.754943 0.043744 -0.016819 435079.000000 1 0 0
-14.561923 4.657503 9.597706 18.051534 -0.309559 1.010209 0.011930 -0.011082 247349.000000 1 0 0
0.488577 -5.756397 20.482006 21.281150 -1.486124 0.274915 0.050800 -0.030518 127065.000000 1 0 0
-6.599823 -8.634097 13.702806 17.489201 0.918149 0.670516 0.026598 0.000198 247358.000000 1 0 0
-12.784723 10.030003 6.545106 17.518234 -0.665237 1.187891 -0.015302 -0.016180 122030.000000 1 0 0
-20.043023 2.624303 7.251406 21.475395 -0.130193 1.226365 0.108281 -0.041908 -30196.500000 1 0 0
-16.615823 8.958803 6.482306 19.959108 -0.494493 1.240018 0.042007 -0.010908 11513.800000 1 0 0
-12.843823 7.547503 14.319906 20.663695 -0.531279 0.805157 0.010214 -0.002932 138893.000000 1 0 0
-16.645223 8.083203 10.468506 21.260085 -0.452075 1.055949 0.041347 -0.031288 278250.000000 1 0 0
2.407977 10.918403 14.336806 18.181141 1.353728 0.662343 0.022941 -0.046921 327107.000000 1 0 0
1.707377 13.988503 12.254806 18.675482 1.449341 0.855028 0.037264 -0.056600 302028.000000 1 0 0
8.671677 5.045303 16.660606 19.448107 0.526940 0.542017 0.052794 -0.016850 7492.480000 1 0 0
-0.222623 13.326603 13.301406 18.830170 -1.554093 0.786414 0.022942 -0.004836 236399.000000 1 0 0
4.523477 13.742603 15.069206 20.890236 1.252809 0.765044 0.060414 0.015384 148798.000000 1 0 0
-3.538523 -4.618997 -14.010194 15.170426 0.917083 2.747956 -0.000456 -0.007765 90717.500000 1 0 0
5.924077 -11.888497 16.762206 21.386972 -1.108507 0.670103 0.042441 -0.004473 369149.000000 1 0 0
8.694577 -13.874097 7.191106 17.882903 -1.010992 1.156963 0.023197 -0.001502 222516.000000 1 0 0
-0.311323 15.295803 0.536706 15.308383 -1.550446 1.535730 0.000721 -0.001064 -406996.000000 1 0 0
-14.100523 8.182003 8.201906 18.249416 -0.525780 1.104665 -0.004190 -0.004453 -19973.600000 1 0 0
-16.393923 -9.480297 4.658206 19.502195 0.524297 1.329609 0.045590 -0.007058 340505.000000 1 0 0
8.632477 -11.337497 11.477306 18.297187 -0.920033 0.892751 0.015966 0.003457 60738.900000 1 0 0
-26.770233 5.885703 30.501212 41.007448 -0.216417 0.732063 0.091381 -0.025697 53777.800000 0 0 1
-25.528283 5.232803 30.294532 39.960407 -0.202180 0.710381 0.090448 -0.022715 403232.000000 0 0 1
-24.695923 5.316703 31.456589 40.344428 -0.212050 0.676608 0.093182 -0.021275 651784.000000 0 0 1
-23.226323 4.840803 31.273388 39.254557 -0.205477 0.649011 0.091043 -0.024924 221348.000000 0 0 1
-23.199323 3.426803 31.155732 38.995271 -0.146651 0.645229 0.074595 -0.030404 -718193.000000 0 0 1
-21.937523 3.039803 30.759442 37.903015 -0.137690 0.624030 0.090516 -0.027153 -666532.000000 0 0 1
-21.410023 1.804703 31.552761 38.173587 -0.084094 0.597828 0.073874 -0.027425 29086.400000 0 0 1
-22.167223 0.642103 31.271736 38.336921 -0.028958 0.616844 0.073569 -0.023845 208658.000000 0 0 1
-22.088623 -0.241997 32.329442 39.155570 0.010955 0.599414 0.073837 -0.023269 92853.400000 0 0 1
-22.869123 -1.565397 32.067809 39.418163 0.068344 0.620602 0.072521 -0.035957 -65591.400000 0 0 1
-22.021123 -2.443297 31.361196 38.398231 0.110500 0.615066 0.112965 -0.036864 170202.000000 0 0 1
-22.126823 -3.844497 31.587509 38.757543 0.172031 0.618062 0.116918 -0.037462 303254.000000 0 0 1
-23.529923 -4.445997 31.179052 39.313578 0.186749 0.654937 0.087577 -0.026348 1121000.000000 0 0 1
-24.666623 -4.137297 31.972601 40.593185 0.166182 0.663836 0.068181 -0.013792 454521.000000 0 0 1
-24.669223 -4.795597 33.268091 41.693335 0.192001 0.646954 0.075910 -0.018117 -1278060.000000 0 0 1
-25.938883 -4.470297 -33.349494 42.485268 0.170663 2.473438 0.077942 -0.009760 -752344.000000 0 0 1
-26.095943 -5.001897 -32.076774 41.652571 0.189376 2.449799 0.079833 -0.019013 -338573.000000 0 0 1
-27.334743 -4.539197 -31.634814 42.054179 0.164558 2.422251 0.098408 -0.028073 -597465.000000 0 0 1
-27.518883 -5.085097 -30.195844 41.169602 0.182725 2.394180 0.094776 -0.025851 -299515.000000 0 0 1
-27.835163 -6.454197 -30.044374 41.462240 0.227846 2.381279 0.094267 -0.022502 530042.000000 0 0 1
-27.509773 -6.962497 -28.740194 40.388894 0.247886 2.362550 0.083579 -0.013931 -90340.700000 0 0 1
-27.625733 -8.512397 -28.644614 40.695896 0.298901 2.351627 0.088714 -0.015286 -927652.000000 0 0 1
-28.937313 -8.936097 -28.592214 41.650169 0.299519 2.327440 0.085815 -0.020812 -1090160.000000 0 0 1
-29.014973 -10.340597 -28.626914 42.051121 0.342355 2.319602 0.090005 -0.008288 131065.000000 0 0 1
-30.367413 -11.017397 -28.333754 42.969343 0.348035 2.290810 0.111814 -0.013560 -22951.800000 0 0 1
-30.518083 -11.192197 -26.972834 42.239229 0.351509 2.263439 0.129739 -0.021943 304073.000000 0 0 1
-31.864743 -11.405797 -26.555984 43.019465 0.343734 2.236104 0.118659 -0.026600 485497.000000 0 0 1
-31.950493 -12.061197 -25.216534 42.452091 0.360958 2.206818 0.138165 -0.028800 -95804.800000 0 0 1
-31.338223 -11.248697 -24.227094 41.177293 0.344621 2.199826 0.143525 -0.025288 250012.000000 0 0 1
-31.390613 -11.897397 -22.969294 40.675633 0.362283 2.170859 0.152453 -0.020237 -87444.600000 0 0 1
-30.648203 -11.184197 -21.795194 39.235559 0.349906 2.159756 0.167948 -0.028925 40264.100000 0 0 1
-30.711393 -11.836197 -20.540194 38.796711 0.367858 2.128726 0.175698 -0.030529 505173.000000 0 0 1
-29.622983 -12.743597 -20.306494 38.108714 0.406261 2.132770 0.172522 -0.032062 243546.000000 0 0 1
-29.252013 -12.878097 -18.786394 37.073633 0.414713 2.102186 0.161664 -0.037521 336878.000000 0 0 1
-28.566983 -11.731597 -18.230494 35.861592 0.389670 2.104072 0.143239 -0.036491 458809.000000 0 0 1
-28.105373 -11.976397 -16.881994 34.904839 0.402823 2.075625 0.151464 -0.042737 43877.600000 0 0 1
-27.632013 -10.647197 -16.153394 33.731633 0.367788 2.070174 0.131383 -0.036979 255038.000000 0 0 1
-26.349353 -10.080297 -16.372694 32.618490 0.365385 2.096643 0.111939 -0.034373 282731.000000 0 0 1
-26.188773 -8.955597 -15.575194 31.759112 0.329497 2.083364 0.108760 -0.035707 -201364.000000 0 0 1
-24.754323 -8.410297 -15.636194 30.463095 0.327515 2.109802 0.118697 -0.029622 247197.000000 0 0 1
-23.817223 -9.073297 -14.767594 29.456182 0.363981 2.095944 0.130555 -0.038751 -164733.000000 0 0 1
-22.586423 -8.442197 -14.848794 28.317907 0.357695 2.122760 0.160321 -0.065150 -662101.000000 0 0 1
-21.476523 -8.890597 -13.877894 27.071751 0.392490 2.109046 0.126133 -0.041700 -1731.610000 0 0 1
-20.700423 -9.967097 -14.441994 27.137091 0.448732 2.131977 0.131402 -0.036136 -29463.800000 0 0 1
-19.502123 -9.989797 -13.695494 25.839802 0.473393 2.129415 0.149041 -0.027854 -462740.000000 0 0 1
-18.505023 -10.974397 -14.285094 25.825127 0.535293 2.156934 0.158471 -0.023641 -592172.000000 0 0 1
-17.947623 -10.706397 -15.522294 26.032397 0.537868 2.209641 0.177360 -0.042488 -52841.600000 0 0 1
-18.835523 -10.768397 -16.607594 27.323021 0.519356 2.224114 0.166305 -0.051741 -363115.000000 0 0 1
-18.160823 -10.451597 -17.979294 27.609896 0.522212 2.279948 0.177753 -0.052548 147777.000000 0 0 1
-19.132223 -10.445897 -18.984594 28.906289 0.499755 2.287315 0.143048 -0.041544 818662.000000 0 0 1
-18.427123 -10.228697 -20.217894 29.205279 0.506742 2.335424 0.149998 -0.044723 714163.000000 0 0 1
-19.428623 -10.415797 -21.399094 30.722654 0.492113 2.341339 0.156026 -0.039041 -307520.000000 0 0 1
-20.605123 -9.694297 -21.278394 31.166016 0.439754 2.322307 0.127783 -0.040569 -166257.000000 0 0 1
-21.618423 -10.226997 -22.129994 32.583498 0.441871 2.317438 0.134716 -0.020697 360999.000000 0 0 1
-22.616123 -9.166797 -22.615294 33.271169 0.385085 2.318186 0.116532 -0.026244 -92922.300000 0 0 1
-22.010123 -8.275497 -23.557094 33.284622 0.359635 2.357100 0.120465 -0.049105 421145.000000 0 0 1
-22.883623 -7.833897 -24.562994 34.472755 0.329831 2.363899 0.127465 -0.035112 -526716.000000 0 0 1
-22.091523 -7.161397 -25.645804 34.598096 0.313481 2.405726 0.119127 -0.037551 -767662.000000 0 0 1
-21.203423 -8.007097 -26.256374 34.685673 0.361076 2.429476 0.114425 -0.046233 -633879.000000 0 0 1
-20.331423 -7.285997 -27.087674 34.643825 0.344104 2.468489 0.119347 -0.063542 -198628.000000 0 0 1
-19.341423 -8.218897 -27.814684 34.861118 0.401818 2.494552 0.110564 -0.062488 -95097.900000 0 0 1
-19.962123 -9.100897 -28.777394 36.186338 0.427756 2.490226 0.106325 -0.042844 997872.000000 0 0 1
-18.956223 -9.998097 -29.318854 36.316601 0.485351 2.510380 0.094258 -0.040443 544309.000000 0 0 1
-19.511823 -11.117097 -30.192264 37.628100 0.517889 2.502079 0.082260 -0.025346 -140101.000000 0 0 1
-20.107023 -10.660597 -31.413124 38.790786 0.487509 2.514623 0.091339 -0.022774 250347.000000 0 0 1
-20.337823 -11.788797 -32.214914 39.879863 0.525321 2.511205 0.083837 -0.019965 657152.000000 0 0 1
-21.160223 -11.478897 -33.567424 41.307288 0.497048 2.519442 0.088848 -0.017940 683346.000000 0 0 1
-20.371823 -10.633697 32.956487 40.177316 0.481077 0.608903 0.083581 -0.016850 234099.000000 0 0 1
-20.625723 -10.714797 31.550322 39.187372 0.479115 0.634928 0.079155 -0.023244 -873595.000000 0 0 1
-20.194123 -11.967097 30.789012 38.716627 0.534963 0.651393 0.085065 -0.023987 -613701.000000 0 0 1
-18.791723 -11.952997 30.716512 37.940836 0.566526 0.627343 0.081826 -0.023078 -244689.000000 0 0 1
-18.235023 -12.933797 29.873542 37.312567 0.616929 0.642451 0.078913 -0.027555 -152917.000000 0 0 1
-18.424323 -14.459397 30.147452 38.175891 0.665403 0.660479 0.080526 -0.022250 -1091870.000000 0 0 1
-19.713823 -14.982097 30.000982 38.899318 0.649857 0.689998 0.076387 -0.026526 -491200.000000 0 0 1
-19.892523 -16.314397 30.455442 39.867354 0.686894 0.701431 0.093089 -0.029685 40573.500000 0 0 1
-20.273723 -16.488397 31.966272 41.288420 0.682792 0.685316 0.046778 -0.037439 -144137.000000 0 0 1
-19.147723 -16.024097 32.680915 41.127231 0.696820 0.652399 0.083231 -0.031026 53853.500000 0 0 1
-19.374823 -15.724497 -33.306924 41.617241 0.681771 2.498618 0.066895 -0.031008 -223202.000000 0 0 1
-18.092023 -15.392497 -32.532434 40.281628 0.704952 2.510909 0.077242 -0.029102 -426012.000000 0 0 1
-17.375523 -14.327397 -33.118144 40.049901 0.689546 2.544408 0.075479 -0.022230 56360.600000 0 0 1
-16.135523 -13.987997 -32.515424 38.900796 0.714228 2.560485 0.075391 -0.021010 323690.000000 0 0 1
-16.184623 -13.304497 -31.096264 37.495724 0.688040 2.548701 0.083702 -0.021242 -318178.000000 0 0 1
-16.488923 -14.233797 -30.072784 37.132976 0.712127 2.514722 0.076290 -0.025713 -86021.200000 0 0 1
-17.052023 -13.741597 -28.863264 36.231078 0.678306 2.492519 0.050964 -0.019571 -223906.000000 0 0 1
-17.258223 -14.837597 -27.806734 35.933480 0.710122 2.455677 0.059935 -0.011177 204840.000000 0 0 1
-16.092423 -15.500797 -27.371144 35.332992 0.766674 2.456978 0.098906 -0.040912 -293109.000000 0 0 1
-15.355823 -16.249997 -28.277574 36.048369 0.813682 2.472580 0.100299 -0.047880 -183986.000000 0 0 1
-14.008023 -16.825097 -27.745364 35.342804 0.876510 2.473550 0.169442 -0.049386 -149690.000000 0 0 1
-12.987723 -15.886497 -27.712804 34.482767 0.885456 2.504235 0.141785 -0.043864 137359.000000 0 0 1
-11.820423 -16.405997 -27.033324 33.759143 0.946448 2.499377 0.180572 -0.050673 1351960.000000 0 0 1
-10.453123 -15.906797 -27.586484 33.515788 0.989412 2.537626 0.152363 -0.059290 641429.000000 0 0 1
-10.052223 -14.617997 -27.063884 32.360266 0.968400 2.561352 0.142037 -0.057632 -169607.000000 0 0 1
-8.693323 -14.327297 -27.271314 32.008903 1.025416 2.590574 0.176484 -0.061998 -126210.000000 0 0 1
-8.395323 -12.897397 -27.718344 31.703799 0.993767 2.634769 0.148932 -0.069456 -183337.000000 0 0 1
-9.003523 -12.491197 -28.948464 32.788824 0.946254 2.652748 0.172546 -0.063870 106249.000000 0 0 1
-8.797223 -11.222997 -29.561594 32.821253 0.905977 2.692139 0.143464 -0.064210 324255.000000 0 0 1
-7.407823 -11.049897 -30.289134 33.081834 0.980215 2.727749 0.140827 -0.043820 315750.000000 0 0 1
-6.323923 -10.909097 -29.381334 31.972851 1.045443 2.736197 0.138736 -0.043664 894891.000000 0 0 1
-5.015823 -10.720397 -29.915194 32.171482 1.133176 2.764847 0.136746 -0.043480 464043.000000 0 0 1
-4.883923 -9.362997 -30.711964 32.476810 1.090003 2.810410 0.114457 -0.036461 -1107840.000000 0 0 1
-3.572323 -9.050497 -31.153054 32.637184 1.194858 2.838864 0.140988 -0.042661 249330.000000 0 0 1
-3.489123 -7.751697 -31.702254 32.822183 1.147850 2.879612 0.134875 -0.035388 24640.400000 0 0 1
-2.094323 -7.287197 -32.168504 33.049994 1.290941 2.910116 0.148730 -0.038051 -23172.800000 0 0 1
-1.610323 -7.734997 -33.425544 34.346620 1.365542 2.909481 0.151586 -0.033739 -122952.000000 0 0 1
-0.547423 -6.955997 33.437312 34.157567 1.492260 0.205722 0.154502 -0.025827 50794.400000 0 0 1
0.073977 -7.505697 32.088514 32.954722 -1.560940 0.229786 0.135772 -0.019793 26276.100000 0 0 1
-0.633723 -7.331997 30.870732 31.735814 1.484578 0.234024 0.110723 -0.009798 -195157.000000 0 0 1
0.037077 -7.987897 29.855962 30.906089 -1.566155 0.261428 0.094592 -0.010960 -103888.000000 0 0 1
-0.242523 -7.359497 28.491902 29.428039 1.537855 0.252908 0.068738 -0.001819 -25986.600000 0 0 1
0.390477 -6.126097 28.225572 28.885367 -1.507142 0.214146 0.090714 -0.004049 -19867.900000 0 0 1
0.061677 -5.623797 26.961762 27.542104 -1.559830 0.205648 0.083246 -0.004277 -911438.000000 0 0 1
-1.198023 -4.826297 26.787582 27.245237 1.327486 0.183548 0.051305 0.003066 -1558190.000000 0 0 1
-2.340423 -5.553297 26.935152 27.601070 1.171939 0.220110 0.030841 0.010930 -1864340.000000 0 0 1
-3.475423 -4.762897 26.718562 27.361383 0.940423 0.217193 0.020952 0.006698 551860.000000 0 0 1
-4.772323 -5.554197 27.163202 28.132965 0.860969 0.263327 0.031395 0.012134 740482.000000 0 0 1
-5.143323 -6.646197 26.320882 27.629957 0.912190 0.309056 0.035808 0.008923 568403.000000 0 0 1
-6.501023 -7.094897 26.470212 28.165102 0.829051 0.348684 0.045004 -0.000426 1218830.000000 0 0 1
-6.492123 -8.648997 26.324252 28.459076 0.926898 0.389797 0.066230 -0.009187 -174274.000000 0 0 1
-5.857823 -9.295797 27.333872 29.459573 1.008496 0.382208 0.061863 -0.010767 -402015.000000 0 0 1
-5.904223 -10.723597 27.223752 29.849423 1.067506 0.422575 0.058518 -0.014233 -22490.100000 0 0 1
-5.363523 -11.342297 28.502132 31.141397 1.129081 0.414671 0.051369 -0.004442 -66753.900000 0 0 1
-5.296223 -12.729397 28.448272 31.613157 1.176520 0.451286 0.082674 -0.019212 189176.000000 0 0 1
-5.015423 -13.311797 29.728912 32.957042 1.210479 0.446300 0.108097 -0.024356 -2868.290000 0 0 1
-4.946123 -14.856997 29.636322 33.518742 1.249422 0.486078 0.152678 -0.058679 -569484.000000 0 0 1
-6.217623 -15.326397 29.300652 33.646478 1.185402 0.513891 0.161968 -0.055129 -523487.000000 0 0 1
-6.278723 -16.703497 29.155012 34.182508 1.211243 0.549239 0.156717 -0.057823 77528.300000 0 0 1
-6.554423 -17.498197 30.424482 35.704292 1.212397 0.550766 0.187536 -0.053065 74507.100000 0 0 1
-7.848523 -17.246397 30.936402 36.278071 1.143724 0.549554 0.155220 -0.060094 -167130.000000 0 0 1
-7.966823 -17.511997 32.342889 37.632469 1.143846 0.536621 0.161403 -0.058593 931340.000000 0 0 1
-9.466223 -17.420297 32.835627 38.356935 1.073033 0.543209 0.165218 -0.044477 1729710.000000 0 0 1
-10.450223 -18.367297 32.408646 38.689599 1.053515 0.577815 0.190238 -0.049998 166487.000000 0 0 1
-11.068123 -17.994497 31.238292 37.711220 1.019360 0.594631 0.184450 -0.059908 -724693.000000 0 0 1
-11.979223 -19.143797 30.782672 38.177999 1.011658 0.632937 0.192726 -0.052957 -1039540.000000 0 0 1
-13.040323 -19.363597 31.620658 39.304769 0.978116 0.635964 0.186911 -0.056173 -759961.000000 0 0 1
-13.488523 -20.696097 31.630652 40.134359 0.993197 0.663049 0.180968 -0.054708 -40503.700000 0 0 1
-12.695823 -21.695997 32.569163 41.141835 1.041353 0.657322 0.194057 -0.056357 1673070.000000 0 0 1
-11.314123 -21.902197 32.105848 40.478402 1.093977 0.654816 0.189228 -0.063463 2112540.000000 0 0 1
-10.347323 -22.061097 33.161838 41.151750 1.132230 0.633699 0.194480 -0.073178 460757.000000 0 0 1
-10.269523 -23.526797 -33.603884 42.287047 1.159223 2.489246 0.192421 -0.054555 -230517.000000 0 0 1
-9.793323 -24.429597 32.764396 42.026420 1.189532 0.676747 0.205224 -0.063342 -101005.000000 0 0 1
-9.955623 -25.807807 33.134752 43.163284 1.202626 0.695614 0.203971 -0.065006 -737911.000000 0 0 1
-9.326023 -26.945287 32.290890 43.078124 1.237592 0.723355 0.190310 -0.049002 504110.000000 0 0 1
-7.919323 -26.790917 32.172592 42.609207 1.283384 0.715048 0.188311 -0.063015 320045.000000 0 0 1
-7.128123 -27.278727 33.241916 43.588577 1.315204 0.703428 0.191868 -0.058222 395390.000000 0 0 1
-5.580623 -27.085427 33.084399 43.120078 1.367602 0.696235 0.196252 -0.074983 740843.000000 0 0 1
-5.148023 -25.888347 33.629652 42.751165 1.374502 0.665453 0.204386 -0.068596 -334186.000000 0 0 1
-4.214823 -25.273077 32.776062 41.602444 1.405546 0.663503 0.244965 -0.061942 -8503.670000 0 0 1
-3.536323 -24.045797 33.453122 41.349937 1.424777 0.628305 0.234485 -0.061740 -610798.000000 0 0 1
-2.702223 -24.343597 -32.851374 40.977134 1.460245 2.500931 0.193923 -0.070299 -311329.000000 0 0 1
-2.079823 -23.153397 -32.399074 39.876126 1.481209 2.519212 0.176744 -0.066717 -58924.600000 0 0 1
36.325645 -15.582097 1.308506 39.548280 -0.405216 1.537704 0.262975 -0.063295 231588.000000 0 0 1
37.141275 -15.846297 2.482406 40.456666 -0.403267 1.509398 0.225657 -0.051194 368066.000000 0 0 1
36.452595 -16.048597 3.651006 39.995987 -0.414724 1.479385 0.223213 -0.034569 -820685.000000 0 0 1
37.367635 -15.985997 4.856206 40.932567 -0.404243 1.451877 0.187348 -0.021146 -171931.000000 0 0 1
-38.041283 -17.006397 4.915806 41.958573 0.420399 1.453368 0.180629 -0.021788 572425.000000 0 0 1
-37.451563 -17.105297 6.180106 41.634174 0.428437 1.421807 0.162737 -0.016019 -440233.000000 0 0 1
-36.293893 -18.054797 6.437506 41.044656 0.461614 1.413305 0.125033 -0.023810 -329245.000000 0 0 1
-36.563843 -19.446397 6.542106 41.927033 0.488800 1.414121 0.110691 -0.023839 108681.000000 0 0 1
-35.356792 -20.093297 6.873906 41.244319 0.516785 1.403352 0.093802 -0.018180 1153.470000 0 0 1
-35.490716 -21.606997 6.920106 42.122928 0.546870 1.405765 0.107949 -0.015288 -187461.000000 0 0 1
-35.430794 -22.214597 5.594806 42.191602 0.560026 1.437800 0.125489 -0.020890 315513.000000 0 0 1
-35.845121 -23.544597 5.691406 43.262140 0.581170 1.438858 0.115704 -0.023059 -37712.500000 0 0 1
-35.350351 -24.442897 4.516306 43.214575 0.604963 1.466096 0.117659 -0.017724 108450.000000 0 0 1
-35.961803 -24.212497 3.243206 43.474298 0.592570 1.496126 0.117443 -0.014536 35663.700000 0 0 1
-35.491511 -25.194907 2.382506 43.590217 0.617330 1.516112 0.116807 -0.014292 -109137.000000 0 0 1
-35.842693 -24.847197 0.948806 43.623182 0.606167 1.549045 0.096340 -0.017867 -123856.000000 0 0 1
-37.217543 -24.831097 0.665506 44.745634 0.588363 1.555923 0.083241 -0.009164 -292040.000000 0 0 1
-37.547993 -23.827497 -0.261394 44.470998 0.565464 1.576674 0.087274 -0.007754 -414363.000000 0 0 1
37.673945 -22.984497 0.175606 44.132121 -0.547806 1.566817 0.117885 -0.014065 -696010.000000 0 0 1
36.420615 -23.602997 0.134306 43.400239 -0.575015 1.567702 0.078767 -0.012608 -624298.000000 0 0 1
35.458355 -22.778097 0.713606 42.150277 -0.571007 1.553865 0.122022 -0.027642 359680.000000 0 0 1
33.980455 -23.025297 0.267006 41.047618 -0.595537 1.564292 0.084812 -0.017492 650308.000000 0 0 1
33.734115 -22.843597 -1.114694 40.756141 -0.595236 1.598150 0.101236 -0.027751 -307996.000000 0 0 1
32.358585 -22.808897 -1.382294 39.613565 -0.613993 1.605698 0.100338 -0.023669 -80625.400000 0 0 1
32.023125 -22.486897 -2.833594 39.232261 -0.612206 1.643085 0.098535 -0.011034 99959.200000 0 0 1
32.485045 -21.202397 -3.264794 38.929150 -0.578258 1.654760 0.149703 -0.028088 218519.000000 0 0 1
32.096105 -20.938297 -4.616294 38.598995 -0.578034 1.690680 0.149856 -0.047180 105096.000000 0 0 1
31.978695 -19.452097 -4.848194 37.742894 -0.546488 1.699605 0.178050 -0.046543 413932.000000 0 0 1
30.837165 -18.893797 -4.204194 36.408537 -0.549702 1.686527 0.194053 -0.050436 369597.000000 0 0 1
30.716765 -17.468597 -4.387094 35.607838 -0.517086 1.694316 0.205893 -0.054935 32447.100000 0 0 1
29.876965 -16.800097 -3.247294 34.429947 -0.512245 1.665253 0.225937 -0.042193 102911.000000 0 0 1
30.468765 -16.509297 -1.964094 34.709656 -0.496559 1.627413 0.227048 -0.041213 233372.000000 0 0 1
31.107465 -17.577597 -1.253094 35.752155 -0.514332 1.605853 0.213002 -0.029709 281706.000000 0 0 1
30.241765 -18.840297 -0.882294 35.641263 -0.557152 1.595554 0.185861 -0.029405 271339.000000 0 0 1
29.238865 -18.633397 0.088706 34.671640 -0.567382 1.568238 0.163766 -0.006180 26582.300000 0 0 1
28.149965 -19.498097 -0.112894 34.243380 -0.605777 1.574093 0.122256 -0.000949 35257.200000 0 0 1
27.154865 -19.533097 1.081106 33.467856 -0.623576 1.538488 0.105234 0.005729 1497.860000 0 0 1
26.001165 -20.329797 0.919306 33.018273 -0.663594 1.542950 0.091741 -0.007527 -145054.000000 0 0 1
25.357865 -20.308197 2.189506 32.561298 -0.675267 1.503503 0.076373 0.003536 155590.000000 0 0 1
23.827765 -20.027397 2.129806 31.199280 -0.698957 1.502479 0.048763 0.000370 174796.000000 0 0 1
23.500565 -18.746597 1.630006 30.105953 -0.673342 1.516628 0.114415 -0.020351 295422.000000 0 0 1
23.580665 -17.753097 2.643406 29.634571 -0.645333 1.481478 0.149813 -0.028511 -579005.000000 0 0 1
23.298665 -16.345397 2.179206 28.543804 -0.611772 1.494376 0.125970 -0.005468 -195240.000000 0 0 1
21.978365 -16.217097 1.707806 27.367122 -0.635690 1.508352 0.110983 -0.018445 -217442.000000 0 0 1
21.719365 -14.935297 1.096406 26.381737 -0.602388 1.529225 0.133288 -0.029576 -287930.000000 0 0 1
20.242865 -14.711897 0.745406 25.035358 -0.628467 1.541018 0.082028 -0.016084 -265308.000000 0 0 1
19.514565 -14.543997 1.961806 24.417100 -0.640479 1.490364 0.073154 -0.013800 772154.000000 0 1 0
18.429165 -13.596297 1.949906 22.984681 -0.635621 1.485859 0.074925 -0.018644 320506.000000 0 1 0
18.807065 -12.172297 2.385806 22.529150 -0.574418 1.464699 0.093739 -0.021829 26502.400000 0 1 0
19.816365 -11.651197 1.495406 23.036383 -0.531518 1.505836 0.117377 -0.023618 801404.000000 0 1 0
20.250865 -10.418497 1.908206 22.853531 -0.475158 1.487202 0.142768 -0.023302 -312515.000000 0 1 0
21.103565 -9.658297 0.874206 23.225146 -0.429207 1.533147 0.152848 -0.033122 -239288.000000 0 1 0
20.378865 -9.048097 -0.163394 22.297823 -0.417848 1.578124 0.152586 -0.027945 647058.000000 0 1 0
21.244465 -8.403497 -1.089794 22.872117 -0.376674 1.618462 0.149689 -0.021815 20625.500000 0 1 0
20.526665 -8.077397 -2.457594 22.195227 -0.374897 1.681750 0.134942 -0.020025 72441.400000 0 1 0
21.292065 -7.402497 -3.513394 22.814315 -0.334593 1.725411 0.181268 -0.032924 1318030.000000 0 1 0
22.418665 -8.142797 -4.028094 24.189404 -0.348399 1.738099 0.176489 -0.036112 -129241.000000 0 1 0
22.111165 -9.403397 -4.893694 24.520925 -0.402106 1.771718 0.156218 -0.033499 -162851.000000 0 1 0
21.605365 -9.093097 -6.195394 24.245807 -0.398369 1.829186 0.157683 -0.040343 489062.000000 0 1 0
20.249365 -8.655297 -6.226694 22.884988 -0.403932 1.846357 0.142128 -0.025552 139200.000000 0 1 0
19.617065 -8.655797 -7.682494 22.776584 -0.415544 1.914841 0.148268 -0.024723 -101266.000000 0 1 0
19.497865 -9.936697 -8.316694 23.410940 -0.471322 1.933976 0.136073 -0.025044 1371040.000000 0 1 0
20.763465 -10.490397 -8.774394 24.862822 -0.467826 1.931478 0.139389 -0.024840 826026.000000 0 1 0
20.690165 -11.912497 -9.371994 25.648096 -0.522403 1.944866 0.117265 -0.030644 128667.000000 0 0 1
19.791865 -12.080497 -10.476794 25.444441 -0.548015 1.995172 0.160781 -0.033695 385390.000000 0 0 1
19.859065 -13.447197 -10.905894 26.346691 -0.595212 1.997572 0.165926 -0.032148 -97745.400000 0 0 1
18.766065 -13.765297 -11.944094 26.159319 -0.632871 2.044955 0.169025 -0.031905 34255.300000 0 0 1
18.700865 -15.119997 -12.311894 27.017021 -0.679914 2.043965 0.149459 -0.037288 414817.000000 0 0 1
17.936665 -15.269297 -13.539694 27.169813 -0.705242 2.092475 0.144935 -0.035131 163513.000000 0 0 1
17.761665 -16.762997 -13.877094 28.090008 -0.756480 2.087506 0.108762 -0.038658 -540986.000000 0 0 1
16.946565 -17.554097 -13.093594 27.690695 -0.803006 2.063321 0.096861 -0.033077 -169950.000000 0 0 1
16.932265 -18.960997 -13.327994 28.702900 -0.841859 2.053689 0.092373 -0.035066 -322150.000000 0 0 1
15.997565 -19.649397 -12.342994 28.184577 -0.887486 2.024096 0.079590 -0.031831 1312200.000000 0 0 1
14.589865 -19.411797 -12.614394 27.364301 -0.926273 2.049896 0.080658 -0.040697 732421.000000 0 0 1
13.723165 -20.188697 -11.828494 27.126040 -0.973794 2.022009 0.077200 -0.033423 -233701.000000 0 0 1
12.284165 -19.897997 -12.287694 26.416253 -1.017712 2.054608 0.083433 -0.040533 -258530.000000 0 0 1
11.386265 -20.430097 -11.336794 25.991514 -1.062344 2.022138 0.082667 -0.045423 -227039.000000 0 0 1
10.045065 -20.364497 -11.811294 25.595366 -1.112552 2.050439 0.078178 -0.044387 328342.000000 0 0 1
9.085165 -20.936297 -10.761494 25.232489 -1.161375 2.011409 0.068945 -0.035853 -301588.000000 0 0 1
9.210165 -22.349397 -10.643994 26.412446 -1.179903 1.985580 0.106773 -0.043948 -724268.000000 0 0 1
8.226065 -22.850897 -9.843194 26.205345 -1.225251 1.955860 0.107631 -0.044945 -607294.000000 0 0 1
8.334765 -24.414697 -9.781294 27.590206 -1.241819 1.933198 0.108357 -0.039546 322989.000000 0 0 1
9.538365 -24.818797 -9.153594 28.120124 -1.203880 1.902355 0.094588 -0.026098 -220426.000000 0 0 1
9.876965 -26.086317 -9.677894 29.524769 -1.208850 1.904759 0.087314 -0.027845 -531340.000000 0 0 1
11.337865 -26.424497 -9.454494 30.268609 -1.165486 1.888465 0.072989 -0.021579 -634183.000000 0 0 1
11.562265 -27.009137 -8.181394 30.497781 -1.166314 1.842385 0.078086 -0.021144 961352.000000 0 0 1
12.985165 -27.238887 -8.010194 31.220741 -1.125950 1.830264 0.083301 -0.010345 1219410.000000 0 0 1
13.344465 -27.652027 -6.511494 31.386444 -1.121177 1.779776 0.080828 -0.013969 218726.000000 0 0 1
12.817165 -28.917077 -6.029494 32.199874 -1.153579 1.759160 0.087252 -0.018481 550642.000000 0 0 1
11.408765 -28.991807 -5.827194 31.696072 -1.195891 1.755694 0.088705 -0.017700 384113.000000 0 0 1
11.034165 -29.959317 -4.694794 32.270026 -1.217908 1.716799 0.090885 -0.019457 16272.300000 0 0 1
11.367965 -31.310807 -4.970094 33.679357 -1.222527 1.718908 0.103783 -0.025377 249954.000000 0 0 1
10.583965 -31.955307 -6.008094 34.194431 -1.250957 1.747417 0.104759 -0.037369 514502.000000 0 0 1
10.836365 -33.495007 -6.151594 35.737717 -1.257902 1.743790 0.110898 -0.034231 300655.000000 0 0 1
10.135165 33.189086 -5.148994 35.082035 1.274414 1.718099 0.103484 -0.029246 88314.000000 0 0 1
10.570065 31.821131 -5.117194 33.918968 1.250092 1.722240 0.101935 -0.019668 22467.300000 0 0 1
9.893765 30.990543 -3.995694 32.775996 1.261773 1.693009 0.096660 -0.023885 296024.000000 0 0 1
8.512365 30.801123 -4.250494 32.237188 1.301161 1.703032 0.094949 -0.022393 -396193.000000 0 0 1
8.018665 29.737623 -3.505494 30.998608 1.307413 1.684124 0.070169 -0.016565 -561369.000000 0 0 1
6.556465 29.369543 -3.738794 30.323850 1.351157 1.694406 0.073741 -0.017978 -381413.000000 0 0 1
6.307165 28.724573 -4.990394 29.829272 1.354653 1.738885 0.081910 -0.031555 52937.300000 0 0 1
6.285265 29.634073 -6.124094 30.906106 1.361798 1.770268 0.068410 -0.031544 -500856.000000 0 0 1
6.557465 28.894553 -7.483394 30.559724 1.347632 1.818190 0.086652 -0.040765 -330862.000000 0 0 1
5.744965 27.836263 -7.930094 29.508449 1.367270 1.842881 0.100516 -0.046554 -185904.000000 0 0 1
6.006065 26.556633 -7.338294 28.198903 1.348377 1.834060 0.078442 -0.039998 18016.700000 0 0 1
5.020865 25.451523 -7.838394 27.100361 1.376025 1.864225 0.088596 -0.047899 -262477.000000 0 0 1
3.725565 25.508323 -7.307894 26.794770 1.425769 1.847032 0.092073 -0.039381 -12104.700000 0 0 1
2.692565 26.094753 -8.110694 27.458504 1.467976 1.870650 0.105437 -0.042662 506960.000000 0 0 1
2.178865 25.274613 -9.335994 27.031728 1.484801 1.923431 0.105914 -0.051435 -932177.000000 0 0 1
3.156865 24.864393 -10.261494 27.083244 1.444509 1.959390 0.099918 -0.053204 -327324.000000 0 0 1
2.741765 24.104103 -11.407494 26.807760 1.457536 2.010343 0.106556 -0.045987 -340641.000000 0 0 1
2.234665 22.678473 -11.231194 25.405641 1.472577 2.028707 0.113761 -0.042396 -57290.600000 0 0 1
0.944265 22.640573 -10.665894 25.044930 1.529114 2.010720 0.126775 -0.032299 -263005.000000 0 0 1
0.912965 21.637663 -9.699394 23.729733 1.528628 1.991874 0.089166 -0.021154 -786212.000000 0 1 0
-0.423835 21.523363 -9.003694 23.334552 -1.551107 1.966928 0.085121 -0.012554 -806143.000000 0 1 0
-1.397135 20.893463 -9.763594 23.104471 -1.504026 2.007092 0.093918 -0.020052 -628810.000000 0 1 0
-2.578735 20.628463 -9.035194 22.667556 -1.446433 1.980782 0.081347 -0.016158 212021.000000 0 1 0
-3.668235 19.931463 -9.866694 22.540427 -1.388791 2.023872 0.071100 -0.031558 223993.000000 0 1 0
-4.801035 19.561463 -9.104494 22.104131 -1.330120 1.995325 0.065442 -0.026996 -347686.000000 0 1 0
-5.709035 18.872963 -9.899994 22.063357 -1.277049 2.036115 0.055235 -0.034299 -737835.000000 0 1 0
-6.828335 18.119463 -9.143294 21.413569 -1.210404 2.011953 0.056770 -0.029192 282996.000000 0 1 0
-7.879335 18.955863 -8.642494 22.273333 -1.176857 1.969278 0.081907 -0.015300 246481.000000 0 1 0
-8.951135 19.028563 -9.597694 23.115466 -1.131104 1.998966 0.081534 -0.019657 152007.000000 0 1 0
-10.261235 19.233563 -8.773994 23.499061 -1.080704 1.953442 0.099158 -0.028650 -92978.800000 0 1 0
-10.437735 18.121863 -7.930094 22.365926 -1.048230 1.933241 0.076721 -0.021964 -1031400.000000 0 1 0
-11.497535 18.271863 -7.065794 22.715187 -1.009148 1.887105 0.094498 -0.021433 -862430.000000 0 1 0
-11.715135 17.119563 -6.152494 21.637398 -0.970677 1.859120 0.049951 -0.024786 -681967.000000 0 1 0
-12.782735 17.304563 -5.287894 22.154188 -0.934572 1.811809 0.076080 -0.019355 -163666.000000 0 1 0
-13.281035 16.025463 -4.783494 21.356104 -0.878772 1.796700 0.064035 -0.021292 552465.000000 0 1 0
-14.337735 16.197363 -3.633694 21.934652 -0.846224 1.737224 0.047209 -0.036552 758578.000000 0 1 0
-15.657735 16.485263 -4.085894 23.100283 -0.811138 1.748608 0.111205 -0.050307 -291028.000000 0 1 0
-16.442835 16.791463 -3.027094 23.695640 -0.795888 1.698895 0.132797 -0.045425 -837371.000000 0 1 0
-17.910135 17.075963 -3.352894 24.972051 -0.761560 1.705469 0.162157 -0.051004 -318993.000000 0 1 0
-18.081235 18.073463 -4.352594 25.933110 -0.785183 1.739434 0.142389 -0.054186 478188.000000 0 0 1
-19.442435 18.251463 -4.763694 27.089056 -0.753813 1.747569 0.143924 -0.054075 640137.000000 0 0 1
-19.740035 19.148663 -5.943994 28.136655 -0.770193 1.783655 0.133939 -0.032791 -142483.000000 0 0 1
-19.581135 20.531763 -5.632594 28.925771 -0.809093 1.766774 0.145026 -0.059474 231038.000000 0 0 1
-19.994535 21.298563 -6.768594 29.987065 -0.816967 1.798475 0.124170 -0.031755 50618.800000 0 0 1
-19.829435 22.807673 -6.400294 30.892721 -0.855136 1.779486 0.133350 -0.037694 -299749.000000 0 0 1
-18.446335 23.002133 -6.354294 30.161937 -0.894873 1.783059 0.133576 -0.043172 -362975.000000 0 0 1
-18.003635 23.425013 -5.079394 29.977698 -0.915519 1.741057 0.144731 -0.050574 -670612.000000 0 0 1
-16.531035 23.811783 -5.130994 29.438125 -0.963948 1.745989 0.121836 -0.047251 -1035960.000000 0 0 1
-16.126135 24.484653 -3.984594 29.587623 -0.988384 1.705878 0.113608 -0.049836 804853.000000 0 0 1
-14.817335 25.091043 -3.982194 29.410402 -1.037360 1.706614 0.129517 -0.058166 673754.000000 0 0 1
-14.680835 26.317943 -4.913294 30.533613 -1.061964 1.732413 0.138179 -0.048810 -215609.000000 0 0 1
-15.344635 27.518023 -4.443994 31.818996 -1.062121 1.710919 0.151876 -0.039120 271455.000000 0 0 1
-15.083535 28.664273 -5.227694 32.809791 -1.086398 1.730812 0.118515 -0.041267 -130795.000000 0 0 1
-15.762835 29.931063 -4.671394 34.149047 -1.086066 1.708021 0.123994 -0.027081 303161.000000 0 0 1
-17.175035 29.897733 -4.856894 34.820191 -1.049368 1.710738 0.149118 -0.029539 90727.500000 0 0 1
-17.743735 31.078613 -4.400494 36.056687 -1.052026 1.693145 0.166482 -0.022184 -16077.300000 0 0 1
13.760777 -8.569697 18.470782 24.575770 -0.556989 0.720335 0.183394 -0.036226 314425.000000 0 1 0
14.328277 -9.827797 18.945882 25.706644 -0.601202 0.742170 0.164920 -0.029783 193227.000000 0 0 1
14.619277 -10.751897 17.941382 25.519007 -0.634131 0.791106 0.164879 -0.036222 -261529.000000 0 0 1
15.116477 -12.024597 18.571682 26.795637 -0.671968 0.805035 0.204958 -0.052621 100375.000000 0 0 1
16.365377 -11.751797 19.268982 27.878737 -0.622763 0.807688 0.180436 -0.043855 1201530.000000 0 0 1
16.682177 -12.907197 20.021082 29.081514 -0.658505 0.811451 0.172637 -0.043226 -377976.000000 0 0 1
17.340177 -14.094597 19.270282 29.507341 -0.682515 0.859169 0.167519 -0.042872 -911789.000000 0 0 1
16.676677 -14.563497 18.110282 28.604009 -0.717858 0.885196 0.195665 -0.056872 39641.400000 0 0 1
16.997177 -15.880197 17.794082 29.286755 -0.751437 0.917785 0.204562 -0.059622 -470918.000000 0 0 1
16.277777 -16.437697 16.566882 28.453919 -0.790286 0.949321 0.203432 -0.068780 350666.000000 0 0 1
14.850577 -16.515297 16.687482 27.780690 -0.838423 0.926437 0.262526 -0.060245 698902.000000 0 0 1
14.176977 -16.228697 15.487282 26.537015 -0.852774 0.947628 0.274035 -0.058730 -283669.000000 0 0 1
13.705477 -17.333197 14.525682 26.443813 -0.901748 0.989266 0.218601 -0.047327 -636885.000000 0 0 1
14.677077 -17.856197 13.668482 26.853077 -0.882808 1.036762 0.205881 -0.048490 -194511.000000 0 0 1
14.219977 -18.905397 12.875482 26.933247 -0.925911 1.072361 0.179913 -0.041226 -678360.000000 0 0 1
15.352577 -19.742397 12.310482 27.874932 -0.909836 1.113379 0.153325 -0.035041 -275565.000000 0 0 1
16.179777 -20.402297 13.281682 29.230839 -0.900316 1.099129 0.109079 -0.030347 578058.000000 0 0 1
16.652977 -21.695997 12.869082 30.226664 -0.916151 1.131003 0.056520 -0.026333 -375862.000000 0 0 1
17.375277 -22.470397 13.952082 31.646162 -0.912579 1.114220 0.050974 -0.027904 -105743.000000 0 0 1
18.722177 -22.061597 14.069582 32.174324 -0.867097 1.118211 0.042048 -0.022804 12473.300000 0 0 1
19.343577 -22.782897 15.125382 33.496441 -0.866860 1.102292 0.048243 -0.028980 220843.000000 0 0 1
20.736877 -22.274297 15.601982 34.199184 -0.821128 1.097066 0.038174 -0.015643 -533315.000000 0 0 1
21.724377 -22.774197 14.787882 34.774906 -0.808986 1.131563 0.025177 -0.019354 -385728.000000 0 0 1
22.966477 -22.350797 15.386682 35.549503 -0.771813 1.123173 0.025434 -0.011443 1069230.000000 0 0 1
24.261677 -22.772497 14.603582 36.338412 -0.753747 1.157230 0.019008 -0.019545 472248.000000 0 0 1
24.523277 -24.139597 14.867582 37.485414 -0.777514 1.162961 0.019117 -0.018475 370282.000000 0 0 1
25.732977 -24.534497 14.230182 38.296550 -0.761561 1.190087 0.033275 -0.023037 210890.000000 0 0 1
26.361977 -25.763497 14.945582 39.775395 -0.773917 1.185591 0.039399 -0.016917 -413752.000000 0 0 1
26.729877 -25.522767 16.294782 40.390814 -0.762301 1.155536 0.043087 -0.010801 234237.000000 0 0 1
27.454277 -26.651957 16.763382 41.774096 -0.770571 1.157875 0.066178 -0.003286 62823.000000 0 0 1
27.903377 -26.558707 18.217882 42.612845 -0.760713 1.129048 0.059089 0.009354 -386070.000000 0 0 1
26.815277 -26.544367 19.128082 42.303026 -0.780321 1.101602 0.069977 0.010862 -126112.000000 0 0 1
27.156677 -26.364477 20.486482 43.037968 -0.770598 1.074685 0.064432 0.008041 -369185.000000 0 0 1
25.993877 -25.982447 21.414082 42.536244 -0.785178 1.043231 0.056085 -0.009043 30291.000000 0 0 1
25.204477 -27.116227 21.722882 42.923642 -0.821921 1.040160 0.064005 -0.002194 -143788.000000 0 0 1
24.205977 -26.900647 22.687432 42.711751 -0.838076 1.010809 0.081481 -0.012024 -43710.600000 0 0 1
23.519477 -28.212177 23.102002 43.391188 -0.875863 1.009349 0.120289 -0.019925 -67760.600000 0 0 1
24.409977 -29.144097 23.727672 44.813254 -0.873568 1.012810 0.110032 -0.022581 321808.000000 0 0 1
24.274977 -30.496997 23.309842 45.416848 -0.898512 1.031838 0.115162 -0.021559 133693.000000 0 0 1
25.361277 -31.466697 23.903212 46.954349 -0.892424 1.036688 0.089449 -0.019274 444959.000000 0 0 1
25.220477 -31.495647 25.314282 47.632563 -0.895592 1.010486 0.099249 -0.027443 331823.000000 0 0 1
26.427277 -31.926957 25.913172 48.879689 -0.879367 1.012028 0.102804 -0.028440 -340860.000000 0 0 1
26.153677 -32.288157 27.397702 49.771216 -0.889982 0.987866 0.098509 -0.036667 978316.000000 0 0 1
25.268077 -33.419167 27.682682 50.216006 -0.923406 0.986908 0.090083 -0.030890 1409720.000000 0 0 1
23.919477 -33.356737 27.211252 49.246985 -0.948698 0.985380 0.099440 -0.035298 -26288.100000 0 0 1
23.046177 32.843273 27.549102 48.669908 0.958929 0.969102 0.111298 -0.040002 -215024.000000 0 0 1
22.496577 32.833914 28.837912 49.150657 0.970098 0.943788 0.104007 -0.040243 -46609.700000 0 0 1
22.093677 31.507036 29.149062 48.275167 0.959245 0.922523 0.111214 -0.043169 -34935.900000 0 0 1
21.786177 31.281243 30.623162 48.897155 0.962449 0.894028 0.115341 -0.039559 -778388.000000 0 0 1
22.910277 31.484893 31.380961 50.009439 0.941747 0.892457 0.097279 -0.041146 -497949.000000 0 0 1
22.556777 31.969661 32.664690 50.969103 0.956343 0.875162 0.099214 -0.042479 399586.000000 0 0 1
23.861977 32.137568 33.487582 52.188460 0.932116 0.874127 0.084401 -0.026931 229761.000000 0 0 1
24.485277 30.985363 -33.410484 51.728928 0.902047 2.272967 0.066869 -0.024504 -969326.000000 0 0 1
25.674777 31.329163 -32.816024 52.130626 0.884268 2.251701 0.066397 -0.025809 -709893.000000 0 0 1
26.425377 30.100663 -32.194044 51.388783 0.850326 2.247825 0.060607 -0.018927 -29045.100000 0 0 1
26.782977 29.067493 -33.108304 51.559741 0.826280 2.268076 0.068335 -0.020065 559171.000000 0 0 1
25.786677 28.041483 -33.195094 50.529118 0.827263 2.287562 0.066015 -0.027337 246309.000000 0 0 1
25.814277 27.368283 32.769960 49.892586 0.814610 0.854216 0.095372 -0.027614 103620.000000 0 0 1
27.054077 26.706273 32.618313 50.090942 0.778929 0.861656 0.076321 -0.024499 363572.000000 0 0 1
27.056677 26.041713 31.375985 48.935540 0.766286 0.874775 0.086160 -0.032972 42863.000000 0 0 1
28.356577 25.195343 31.230562 49.135006 0.726435 0.882002 0.046539 -0.014469 260457.000000 0 0 1
28.683177 24.251503 32.211625 49.481804 0.701873 0.861923 0.068209 -0.015396 90954.500000 0 0 1
29.429877 24.705463 33.305472 50.850094 0.698348 0.856649 0.083960 -0.028387 -922650.000000 0 0 1
29.368077 23.762903 -32.801334 50.030861 0.680290 2.285802 0.093094 -0.030516 758630.000000 0 0 1
28.170777 23.829353 -31.992364 48.835870 0.702103 2.285111 0.083207 -0.028641 2226350.000000 0 0 1
26.923377 23.270733 -32.504484 48.196855 0.712756 2.310963 0.073218 -0.030300 1081500.000000 0 0 1
26.820077 21.713463 -32.514774 47.413095 0.680566 2.326466 0.056565 -0.030540 -395823.000000 0 0 1
26.722377 21.160263 -31.174924 46.192187 0.669755 2.311620 0.044748 -0.040352 317884.000000 0 0 1
27.025777 19.778163 -31.237684 45.796958 0.631768 2.321414 0.050297 -0.038108 -332323.000000 0 0 1
26.651977 19.076463 -29.901404 44.365903 0.621226 2.310369 0.058951 -0.034728 1198000.000000 0 0 1
25.225677 19.048563 -29.605924 43.309275 0.646774 2.323471 0.049460 -0.029145 1605170.000000 0 0 1
25.017677 18.579063 -28.257564 42.066088 0.638772 2.307354 0.061986 -0.023049 -665811.000000 0 0 1
23.623177 18.723063 -27.658744 40.909825 0.670195 2.313240 0.063019 -0.025797 -732622.000000 0 0 1
23.426577 18.124363 -26.369024 39.656305 0.658477 2.298208 0.079288 -0.023991 189952.000000 0 0 1
24.187777 18.730663 -25.325034 39.714527 0.658926 2.262275 0.068285 -0.007700 -24440.300000 0 0 1
24.121777 17.909463 -24.023894 38.467604 0.638658 2.245317 0.104891 -0.010734 76297.800000 0 0 1
25.089177 16.876563 -24.028194 38.621747 0.592142 2.242271 0.084638 -0.016473 387909.000000 0 0 1
24.839177 15.997863 -22.996194 37.439836 0.572187 2.232190 0.116054 -0.021873 677284.000000 0 0 1
25.904277 14.797763 -22.991594 37.664556 0.519010 2.227400 0.137670 -0.022858 1561540.000000 0 0 1
27.260377 15.213263 -22.733094 38.618197 0.509020 2.200200 0.167996 -0.033122 1181950.000000 0 0 1
28.294477 14.234463 -22.712094 38.974820 0.466111 2.192890 0.175207 -0.038126 486455.000000 0 0 1
28.245877 13.073363 -21.678294 37.930079 0.433481 2.179169 0.159940 -0.032787 127058.000000 0 0 1
27.007677 12.354163 -21.800594 36.841633 0.429017 2.204009 0.152079 -0.025524 405405.000000 0 0 1
26.630477 11.758063 -20.578694 35.649923 0.415785 2.186146 0.134298 -0.026460 -506351.000000 0 0 1
25.154377 11.393063 -20.458094 34.366819 0.425284 2.208418 0.134591 -0.019845 -526148.000000 0 0 1
24.346377 12.524863 -20.554594 34.236087 0.475136 2.214770 0.163302 -0.020908 -975150.000000 0 0 1
23.004377 12.214363 -20.753094 33.302897 0.488106 2.243575 0.137881 -0.020787 -65736.000000 0 0 1
21.982277 13.373963 -20.514494 32.907870 0.546571 2.243869 0.138454 -0.028303 31245.800000 0 0 1
22.201477 14.461963 -21.406494 34.063059 0.577356 2.250339 0.131158 -0.022976 136419.000000 0 0 1
21.350277 15.577463 -21.201994 33.882389 0.630326 2.246892 0.115393 -0.029800 101502.000000 0 0 1
19.966877 15.533563 -21.871494 33.441442 0.661161 2.283688 0.099974 -0.019379 366423.000000 0 0 1
19.013177 14.564863 -21.375494 32.102148 0.653688 2.299440 0.089264 -0.023207 411267.000000 0 0 1
17.825877 14.681563 -22.111694 31.972445 0.688972 2.334479 0.105697 -0.040144 116135.000000 0 0 1
16.700077 13.656563 -21.762394 30.643044 0.685473 2.360565 0.082050 -0.027033 985261.000000 0 0 1
15.436377 14.006763 -22.317194 30.537327 0.736881 2.390314 0.098956 -0.029175 573600.000000 0 0 1
14.379877 13.087663 -22.023394 29.378525 0.738388 2.418318 0.112692 -0.028875 873695.000000 0 0 1
13.110977 13.380063 -22.909494 29.593390 0.795555 2.456155 0.106605 -0.032293 423970.000000 0 0 1
12.526077 14.673563 -22.690294 29.783645 0.864187 2.436941 0.127196 -0.032922 -149012.000000 0 0 1
11.926377 15.073063 -23.879994 30.654361 0.901421 2.463879 0.132932 -0.037443 -887630.000000 0 0 1
11.832577 16.600163 -24.084994 31.554116 0.951532 2.439189 0.141308 -0.040019 1025110.000000 0 0 1
13.083177 17.330363 -24.045894 32.399322 0.924149 2.407103 0.139467 -0.037742 1305520.000000 0 0 1
14.204877 16.938463 -24.849194 33.259172 0.872948 2.414542 0.152516 -0.046117 -83589.600000 0 0 1
14.047577 17.139163 -26.391244 34.461328 0.884207 2.443115 0.171050 -0.049645 -375527.000000 0 0 1
15.187077 17.105963 -27.234574 35.566604 0.844749 2.442979 0.156763 -0.052872 159576.000000 0 0 1
14.846377 16.843263 -28.593294 36.355012 0.848329 2.475921 0.169816 -0.058633 492246.000000 0 0 1
16.065777 17.289563 -29.497294 37.777355 0.822071 2.466773 0.146106 -0.060471 1828020.000000 0 0 1
17.186377 16.356863 -29.376144 37.760779 0.760674 2.462199 0.114065 -0.057201 978413.000000 0 0 1
18.286477 16.817163 -30.155834 39.071557 0.743566 2.452480 0.097345 -0.046351 -88373.900000 0 0 1
19.586477 16.065463 -29.845894 39.147243 0.686957 2.437812 0.105265 -0.038919 -236669.000000 0 0 1
20.705277 16.665763 -30.450244 40.418728 0.677724 2.423968 0.098515 -0.040651 -230823.000000 0 0 1
21.830677 15.842863 -30.622264 40.808061 0.627777 2.419459 0.096592 -0.033841 -210805.000000 0 0 1
23.045777 16.615463 -31.142954 42.155250 0.624666 2.402037 0.090932 -0.029015 -402738.000000 0 0 1
22.943177 17.190763 -32.427324 43.283289 0.643037 2.417632 0.102040 -0.036760 102380.000000 0 0 1
23.969277 18.135463 -32.675204 44.396962 0.647720 2.397907 0.083938 -0.039387 -147870.000000 0 0 1
24.104477 18.432363 33.190619 44.971047 0.652834 0.740629 0.067954 -0.027950 -79894.500000 0 0 1
25.129477 19.363563 32.910727 45.711641 0.656525 0.767046 0.062570 -0.015084 162596.000000 0 0 1
25.297377 19.489663 31.509539 44.862627 0.656444 0.792094 0.081664 -0.026809 -596530.000000 0 0 1
26.404977 20.501063 31.236012 45.751556 0.660190 0.819302 0.091512 -0.027712 357690.000000 0 0 1
27.729977 20.036163 31.482450 46.492409 0.625697 0.826910 0.057048 -0.015430 87250.700000 0 0 1
28.689577 21.016863 31.290723 47.369924 0.632246 0.849231 0.044458 -0.021979 -994389.000000 0 0 1
30.103077 20.578163 31.587619 48.243484 0.599627 0.856939 0.088983 -0.011526 -836040.000000 0 0 1
30.230577 20.158063 32.951275 49.051216 0.588102 0.834197 0.081459 -0.024777 -236999.000000 0 0 1
31.570377 20.085863 33.341842 50.117951 0.566631 0.842944 0.087433 -0.019485 -428266.000000 0 0 1
31.604477 19.614763 -32.563004 49.436132 0.555452 2.289871 0.089309 -0.004656 -347906.000000 0 0 1
31.176877 20.471663 -31.553404 48.853905 0.581022 2.272962 0.076969 -0.025283 -113279.000000 0 0 1
30.946777 19.870963 -30.328264 47.669297 0.570802 2.260388 0.097428 -0.039446 -348528.000000 0 0 1
32.055677 19.799463 -29.277334 47.715275 0.553303 2.231388 0.116367 -0.048545 320963.000000 0 0 1
33.287677 19.209163 -29.688854 48.564282 0.523385 2.228538 0.119886 -0.057867 613947.000000 0 0 1
34.267777 19.171063 -28.637404 48.599498 0.510069 2.200930 0.142935 -0.060513 268387.000000 0 0 1
35.574177 18.520963 -29.148994 49.580360 0.480015 2.199274 0.116369 -0.055232 93822.600000 0 0 1
36.438177 19.404763 -29.851764 50.945200 0.489339 2.196859 0.131035 -0.053341 129138.000000 0 0 1
37.561477 19.822663 -29.097764 51.482837 0.485592 2.171464 0.094864 -0.037637 -153501.000000 0 0 1
-37.878111 20.702863 -29.896084 52.508434 -0.500202 2.176521 0.076451 -0.034178 -72150.200000 0 0 1
-37.157711 20.062663 -30.906944 52.330155 -0.495081 2.202616 0.057935 -0.031077 -483371.000000 0 0 1
-36.061711 20.801463 -31.312714 52.092552 -0.523208 2.215670 0.050680 -0.020020 -779742.000000 0 0 1
-35.158811 20.160163 -32.377344 51.873563 -0.520633 2.244851 0.051691 -0.032081 -431815.000000 0 0 1
-34.481911 19.098463 -31.782434 50.634737 -0.505809 2.249366 0.064926 -0.030544 120761.000000 0 0 1
-33.620711 18.549763 -32.782454 50.488961 -0.504175 2.277459 0.069036 -0.025241 -160836.000000 0 0 1
-32.780411 17.376563 -32.384204 49.246695 -0.487429 2.288414 0.062424 -0.014207 -544216.000000 0 0 1
-33.586211 16.262463 -32.203044 49.290337 -0.450928 2.282776 0.061077 -0.013872 339816.000000 0 0 1
-32.849011 15.053263 -32.373374 48.514880 -0.429699 2.301357 0.067323 -0.011456 210769.000000 0 0 1
-33.887611 13.897063 -32.557684 49.005115 -0.389177 2.297451 0.070471 -0.011749 436107.000000 0 0 1
-33.390511 12.582063 -32.611174 48.339665 -0.360361 2.311254 0.087201 -0.022301 937145.000000 0 0 1
-34.527311 11.748163 -32.972454 49.166424 -0.327969 2.305853 0.100932 -0.022399 987699.000000 0 0 1
-34.176411 10.294263 -33.148864 48.711868 -0.292566 2.319253 0.105261 -0.024461 254341.000000 0 0 1
-33.276911 10.013663 33.132361 48.014368 -0.292300 0.809237 0.080938 -0.032385 221446.000000 0 0 1
-33.552111 8.715763 32.637630 47.612220 -0.254151 0.815522 0.128522 -0.043660 -260687.000000 0 0 1
-32.451211 8.103163 31.780920 46.138587 -0.244699 0.810944 0.131281 -0.035809 -803570.000000 0 0 1
-31.320411 7.735563 32.486054 45.783739 -0.242136 0.781931 0.088186 -0.020432 -525047.000000 0 0 1
-30.437211 7.031963 31.618023 44.447403 -0.227048 0.779368 0.083452 -0.019242 -21875.900000 0 0 1
22.298877 -4.125897 -32.156894 39.348810 -0.182958 2.527379 0.101423 -0.043562 -1064330.000000 0 0 1
23.488777 -3.968897 -32.825534 40.558483 -0.167389 2.513821 0.088750 -0.051741 -735542.000000 0 0 1
24.445877 -3.066297 -32.326564 40.644924 -0.124780 2.490366 0.081296 -0.038752 -55467.200000 0 0 1
24.145977 -1.542297 -32.441164 40.470187 -0.063787 2.500774 0.081582 -0.032430 15122.600000 0 0 1
25.041277 -0.658297 -31.711314 40.411711 -0.026282 2.473018 0.081608 -0.027076 569366.000000 0 0 1
24.705677 0.682503 -31.859014 40.321621 0.027618 2.481805 0.093670 -0.032690 -239681.000000 0 0 1
25.778477 1.601203 -31.240104 40.534404 0.062034 2.450745 0.069189 -0.019675 927070.000000 0 0 1
27.099977 1.341003 -31.746864 41.762070 0.049443 2.434393 0.061245 -0.020194 1047600.000000 0 0 1
28.106077 2.214203 -31.177174 42.034159 0.078618 2.406413 0.065376 -0.014137 451136.000000 0 0 1
29.469777 2.017603 -31.846904 43.436895 0.068357 2.393777 0.058388 -0.016997 -291690.000000 0 0 1
29.729877 2.782203 -33.021794 44.520166 0.093311 2.406437 0.067505 -0.022027 252743.000000 0 0 1
30.567377 2.023703 33.432822 45.345491 0.066108 0.741745 0.050156 -0.014683 109551.000000 0 0 1
31.261477 2.857103 32.318193 45.054507 0.091141 0.770858 0.063642 -0.005648 -61843.500000 0 0 1
30.386477 3.699203 31.583905 43.983692 0.121142 0.769754 0.066256 0.002273 333812.000000 0 0 1
30.463277 5.060103 32.040910 44.499841 0.164602 0.766961 0.078477 0.007188 -260703.000000 0 0 1
29.568377 5.915503 31.166292 43.366114 0.197455 0.768896 0.090130 0.001637 -277248.000000 0 0 1
29.720977 7.279603 31.613591 43.997139 0.240203 0.769099 0.131446 -0.021512 236320.000000 0 0 1
29.080677 8.258403 30.789972 43.149848 0.276698 0.776231 0.140665 -0.027548 -69791.100000 0 0 1
29.571877 9.685903 31.044052 43.955043 0.316525 0.786583 0.146602 -0.033654 -366457.000000 0 0 1
30.884277 9.846903 30.605252 44.581179 0.308643 0.814123 0.148153 -0.039433 -521773.000000 0 0 1
31.435077 11.042803 31.091622 45.571883 0.337823 0.819954 0.140396 -0.024774 332259.000000 0 0 1
32.817277 11.463803 30.533702 46.267693 0.336071 0.850063 0.148551 -0.028639 -74695.300000 0 0 1
33.922477 10.671903 30.926492 47.128249 0.304794 0.854998 0.137575 -0.039561 434360.000000 0 0 1
35.112677 10.757703 30.163902 47.523565 0.297297 0.883157 0.141249 -0.041019 666710.000000 0 0 1
35.896377 12.124103 30.295102 48.511205 0.325723 0.896309 0.130297 -0.035631 -593068.000000 0 0 1
36.282677 12.297303 31.676691 49.709849 0.326779 0.879895 0.133669 -0.043448 95313.000000 0 0 1
36.785277 13.590403 31.980491 50.602446 0.353898 0.886672 0.127112 -0.032774 688650.000000 0 0 1
35.732577 14.793803 31.989059 50.189377 0.392529 0.879720 0.124146 -0.030623 653801.000000 0 0 1
35.205077 15.219203 30.674672 49.111680 0.408039 0.896190 0.125969 -0.040668 509899.000000 0 0 1
34.185677 16.203003 30.732452 48.740963 0.442608 0.888565 0.121066 -0.034579 960223.000000 0 0 1
32.723277 15.694603 30.961592 47.704860 0.447208 0.864496 0.112414 -0.034562 448546.000000 0 0 1
32.114377 15.044703 29.869842 46.366839 0.438109 0.870810 0.136276 -0.024446 -950960.000000 0 0 1
30.747877 14.866703 30.002482 45.459870 0.450363 0.850008 0.117297 -0.031217 -604457.000000 0 0 1
30.185477 14.456003 28.609012 44.029702 0.446630 0.863520 0.122192 -0.024148 -126955.000000 0 0 1
30.418577 13.104403 28.223582 43.515351 0.406775 0.865067 0.145684 -0.028324 168219.000000 0 0 1
29.507577 12.675803 27.230712 42.105638 0.405742 0.867515 0.159254 -0.038335 292376.000000 0 0 1
29.244977 11.107803 27.210162 41.461366 0.362989 0.854922 0.151736 -0.028842 466488.000000 0 0 1
30.327077 10.402903 26.598202 41.658329 0.330446 0.878269 0.158382 -0.029064 338303.000000 0 0 1
30.141277 9.031803 26.625752 41.218937 0.291135 0.868517 0.169871 -0.028300 -144367.000000 0 0 1
31.326677 8.106003 26.265522 41.676680 0.253204 0.888958 0.146834 -0.028172 -45467.500000 0 0 1
31.674377 8.051403 24.856652 41.060254 0.248921 0.920565 0.154895 -0.032817 976878.000000 0 0 1
32.971977 7.480703 24.617912 41.822886 0.223104 0.941442 0.165235 -0.023311 881032.000000 0 0 1
33.553577 7.851103 23.205522 41.544899 0.229852 0.978142 0.146462 -0.021252 -208791.000000 0 0 1
34.057177 9.164503 22.994922 42.102801 0.262865 0.993021 0.139313 -0.030469 232370.000000 0 0 1
33.138777 10.211003 22.681932 41.435651 0.298897 0.991540 0.166342 -0.032500 259514.000000 0 0 1
32.517077 10.135803 21.247182 40.143961 0.302162 1.013051 0.163700 -0.017426 -164041.000000 0 0 1
33.557577 10.231203 20.327082 40.546008 0.295932 1.045657 0.175421 -0.030807 -12399.000000 0 0 1
33.145177 9.766103 19.048382 39.456564 0.286538 1.066983 0.191374 -0.040749 -658418.000000 0 0 1
33.964077 10.446803 17.873282 39.776230 0.298400 1.104763 0.214718 -0.066139 746646.000000 0 0 1
35.320577 10.139803 17.604882 40.746664 0.279561 1.124024 0.200847 -0.054067 720625.000000 0 0 1
36.189077 10.323103 18.740982 42.040935 0.277875 1.108752 0.171706 -0.045048 -2083110.000000 0 0 1
37.620877 9.977803 18.529082 43.107005 0.259251 1.126482 0.166134 -0.030889 -1383780.000000 0 0 1
37.877177 8.588203 18.395682 42.974864 0.222968 1.128455 0.125814 -0.017991 -347502.000000 0 0 1
-37.320511 8.279403 17.784982 42.162479 -0.218310 1.135344 0.136449 -0.025680 -848955.000000 0 0 1
-37.122911 6.784003 17.360282 41.539290 -0.180750 1.139637 0.134709 -0.022864 -337934.000000 0 0 1
-38.178111 6.323303 16.530982 42.081179 -0.164136 1.167083 0.138471 -0.028373 95469.600000 0 0 1
-37.972011 5.073003 16.006082 41.518714 -0.132812 1.175031 0.174790 -0.028901 -399091.000000 0 0 1
37.169977 4.192503 15.885982 40.639251 0.112318 1.169185 0.168183 -0.030085 -92555.800000 0 0 1
36.865777 3.539903 17.137982 40.808417 0.095728 1.137393 0.162640 -0.017895 962186.000000 0 0 1
35.650577 2.759103 17.009182 39.596573 0.077239 1.126789 0.143558 -0.017493 895420.000000 0 0 1
35.338677 1.921103 18.305882 39.844925 0.054309 1.093445 0.152468 -0.026633 -92703.600000 0 0 1
36.173277 0.805003 18.473182 40.625269 0.022250 1.098737 0.177925 -0.029819 29507.800000 0 0 1
35.760177 -0.009397 19.556782 40.758534 -0.000263 1.070346 0.155842 -0.024279 122922.000000 0 0 1
36.338877 -1.434497 19.532682 41.280715 -0.039455 1.077914 0.152213 -0.026327 234973.000000 0 0 1
35.623277 -2.258797 20.413982 41.119955 -0.063323 1.051292 0.151648 -0.017890 455904.000000 0 0 1
36.184077 -3.593797 20.317682 41.653464 -0.098995 1.061253 0.133310 -0.018836 62706.500000 0 0 1
35.609477 -4.428197 21.420682 41.791021 -0.123719 1.032625 0.122074 -0.017927 -237243.000000 0 0 1
36.008077 -3.974497 22.733782 42.769184 -0.109933 1.010372 0.133926 -0.029335 378282.000000 0 0 1
35.201677 -4.396097 23.826122 42.733685 -0.124240 0.979366 0.130694 -0.031831 25118.700000 0 0 1
35.865377 -4.065397 25.196442 44.019466 -0.112870 0.961375 0.135779 -0.032339 602502.000000 0 0 1
34.926877 -4.346197 26.251362 43.907974 -0.123801 0.929952 0.128667 -0.033963 558947.000000 0 0 1
35.320577 -3.743797 27.486552 44.911799 -0.105600 0.912194 0.136041 -0.032114 206511.000000 0 0 1
34.293277 -4.004297 28.631532 44.853404 -0.116240 0.878462 0.125565 -0.025884 317055.000000 0 0 1
34.252077 -5.400997 28.952122 45.173011 -0.156396 0.875105 0.130202 -0.038187 161914.000000 0 0 1
33.304977 -5.685797 29.970222 45.163747 -0.169089 0.845189 0.129040 -0.037477 -86251.500000 0 0 1
33.392277 -7.099397 30.512072 45.786812 -0.209487 0.841434 0.131179 -0.028526 228160.000000 0 0 1
34.529977 -7.436597 31.300533 47.194763 -0.212126 0.845683 0.125605 -0.033466 209599.000000 0 0 1
35.200177 -8.578297 30.744802 47.517181 -0.239041 0.867120 0.128674 -0.034784 92681.100000 0 0 1
36.566177 -8.791497 31.429607 49.012202 -0.235949 0.874656 0.134048 -0.032848 -83196.800000 0 0 1
36.538277 -9.291497 32.719990 49.919689 -0.249017 0.856015 0.108144 -0.034438 -240234.000000 0 0 1
37.814577 -9.439597 33.302802 51.265240 -0.244629 0.863715 0.092096 -0.036922 -36586.800000 0 0 1
37.866777 -9.952597 -32.557024 50.920594 -0.257019 2.264473 0.087888 -0.040972 -274563.000000 0 0 1
37.459777 -8.969897 -31.594444 49.818700 -0.235029 2.257755 0.073149 -0.042213 386807.000000 0 0 1
-38.163511 -7.783497 -31.583764 50.145494 0.201192 2.252147 0.083460 -0.043614 -115604.000000 0 0 1
37.567377 -6.633897 -30.836324 49.052985 -0.174785 2.250591 0.084119 -0.044560 -407587.000000 0 0 1
37.569177 -6.816397 -29.426484 48.206061 -0.179483 2.227401 0.073333 -0.034255 156553.000000 0 0 1
36.890577 -5.768597 -28.796374 47.153182 -0.155114 2.227739 0.087026 -0.039570 -220301.000000 0 0 1
37.519277 -5.415397 -27.434114 46.793732 -0.143346 2.197252 0.097779 -0.037464 484385.000000 0 0 1
-37.620511 -4.764797 -27.535794 46.863910 0.125983 2.198848 0.106149 -0.038355 171198.000000 0 0 1
-37.123011 -4.297097 -26.320254 45.709285 0.115240 2.184401 0.109689 -0.031303 113440.000000 0 0 1
-35.592311 -4.063297 -26.312484 44.448507 0.113670 2.204306 0.134260 -0.017635 -53420.200000 0 0 1
-35.127611 -3.353297 -25.170724 43.344654 0.095172 2.190398 0.150111 -0.030880 1017460.000000 0 0 1
-33.806311 -3.766297 -24.792994 42.092092 0.110951 2.200639 0.158453 -0.021524 2124850.000000 0 0 1
-32.494311 -3.105897 -25.438404 41.384046 0.095293 2.232791 0.169905 -0.021622 1038880.000000 0 0 1
-32.458911 -3.327897 -26.866224 42.266414 0.102169 2.259634 0.170642 -0.018999 -48538.600000 0 0 1
-31.456911 -2.648797 -27.587664 41.924129 0.084006 2.289006 0.173695 -0.012883 98387.200000 0 0 1
-31.003011 -3.357797 -28.897484 42.515010 0.107885 2.318151 0.155918 -0.026294 -141018.000000 0 0 1
-32.029511 -3.352197 -29.857914 43.916077 0.104280 2.318403 0.174495 -0.033571 -215225.000000 0 0 1
-31.821011 -4.130097 -30.979554 44.602323 0.129070 2.338622 0.129498 -0.015996 -745802.000000 0 0 1
-33.132811 -4.560297 -31.669144 46.059898 0.136777 2.328926 0.127317 -0.034204 -870579.000000 0 0 1
-33.929811 -5.517997 -30.998644 46.288187 0.161218 2.304585 0.131946 -0.038314 232737.000000 0 0 1
-34.728011 -5.052197 -29.941594 46.130884 0.144466 2.277141 0.140538 -0.042364 -662992.000000 0 0 1
-35.950111 -4.174797 -30.310884 47.207935 0.115610 2.267994 0.164161 -0.044741 -870233.000000 0 0 1
-35.767411 -2.955697 -31.028284 47.442578 0.082449 2.283680 0.200020 -0.043230 -284023.000000 0 0 1
-35.369011 -1.891397 -30.147844 46.512760 0.053425 2.275966 0.226370 -0.038426 93922.900000 0 0 1
-35.089611 -0.524897 -30.814584 46.702194 0.014958 2.291362 0.209440 -0.035017 403847.000000 0 0 1
-36.269711 0.080303 -31.327364 47.926007 -0.002214 2.283208 0.254737 -0.035153 281026.000000 0 0 1
-36.043311 1.465103 -31.630154 47.976384 -0.040626 2.290665 0.268791 -0.025649 352047.000000 0 0 1
-37.349711 2.217103 -32.026034 49.250211 -0.059291 2.278739 0.232161 -0.017863 226137.000000 0 0 1
-37.861311 1.743603 -33.251474 50.420031 -0.046020 2.290936 0.208899 -0.017468 -26346.600000 0 0 1
37.302277 2.360503 -33.505814 50.196329 0.063196 2.301636 0.155868 -0.010537 -26693.900000 0 0 1
36.485477 1.767103 32.652336 48.994773 0.048395 0.841366 0.109839 -0.013895 283316.000000 0 0 1
37.023977 2.159903 31.374891 48.578018 0.058272 0.868639 0.137295 -0.022646 814311.000000 0 0 1
38.075577 1.317903 30.886682 49.045628 0.034599 0.889560 0.122945 -0.022891 198260.000000 0 0 1
-38.061911 1.429403 29.379502 48.103091 -0.037537 0.913775 0.144511 -0.021409 -205313.000000 0 0 1
-37.334711 2.577103 29.024212 47.359550 -0.068918 0.911136 0.148336 -0.034049 120274.000000 0 0 1
-36.905011 2.557803 27.660502 46.191185 -0.069197 0.928761 0.142336 -0.036725 537070.000000 0 0 1
-35.882311 3.752903 27.450092 45.333564 -0.104210 0.920385 0.122784 -0.034739 43032.100000 0 0 1
-35.295911 3.902103 26.229162 44.147442 -0.110107 0.934617 0.115743 -0.024209 -41258.500000 0 0 1
-34.871511 5.252103 26.105362 43.875925 -0.149489 0.933554 0.107408 -0.021984 -2562.020000 0 0 1
-33.982111 5.616103 24.867042 42.481693 -0.163786 0.945474 0.088346 -0.003659 1352700.000000 0 0 1
-32.675111 4.951503 24.912142 41.385928 -0.150393 0.924859 0.080691 -0.012019 1700040.000000 0 0 1
-31.872711 5.238903 23.742452 40.087652 -0.162913 0.936931 0.081982 -0.005142 346342.000000 0 0 1
-32.338211 4.743803 22.348522 39.594444 -0.145655 0.971047 0.092666 -0.010627 -319844.000000 0 0 1
-32.280011 3.317603 22.181882 39.307015 -0.102416 0.971182 0.096183 -0.013492 -172107.000000 0 0 1
-33.012611 2.854003 21.061882 39.262968 -0.086237 1.004594 0.113231 -0.019338 -740964.000000 0 0 1
-32.826711 1.385603 20.641182 38.801691 -0.042185 1.009876 0.113149 -0.024486 274463.000000 0 0 1
-31.591011 1.055403 19.998382 37.403758 -0.033396 1.006688 0.130327 -0.023066 461668.000000 0 0 1
-31.407711 1.722703 18.741982 36.615214 -0.054795 1.033444 0.140005 -0.021630 398395.000000 0 0 1
-30.172411 1.205803 17.883082 35.094628 -0.039943 1.036114 0.154736 -0.030800 449627.000000 0 0 1
-30.300511 -0.114797 17.388982 34.935810 0.003789 1.049804 0.169153 -0.026316 -70509.200000 0 0 1
-29.254911 -0.719897 16.652682 33.670163 0.024603 1.053442 0.191378 -0.034092 -140415.000000 0 0 1
-29.058611 -0.176397 15.223782 32.805449 0.006070 1.088220 0.198330 -0.037724 -29386.900000 0 0 1
-28.543411 1.157303 15.209282 32.363373 -0.040523 1.081558 0.216673 -0.038340 220730.000000 0 0 1
-28.611811 1.725203 13.925682 31.867486 -0.060224 1.118550 0.244754 -0.047334 610.639000 0 0 1
-27.702611 2.983803 13.845182 31.113129 -0.107295 1.109628 0.237910 -0.046354 475625.000000 0 0 1
-26.327411 2.652203 13.690982 29.792780 -0.100401 1.093319 0.222725 -0.054594 233594.000000 0 0 1
-25.642411 3.708403 13.073082 29.020526 -0.143624 1.103497 0.222786 -0.057220 -529963.000000 0 0 1
-24.180811 3.505603 12.695482 27.534998 -0.143972 1.091599 0.193430 -0.061271 -300774.000000 0 0 1
-23.274711 3.596903 13.807782 27.300269 -0.153328 1.040517 0.170436 -0.049383 616481.000000 0 0 1
-21.984511 3.958803 13.353482 26.025109 -0.178163 1.032004 0.141729 -0.048869 320792.000000 0 0 1
-20.972411 4.528303 14.388482 25.833621 -0.212653 0.980067 0.118870 -0.053091 86921.800000 0 0 1
-21.329811 5.811203 14.878582 26.647760 -0.265989 0.978410 0.109930 -0.038610 482569.000000 0 0 1
-20.709311 6.100203 16.125182 26.946419 -0.286462 0.929273 0.099189 -0.024510 -226443.000000 0 0 1
-21.026211 7.528603 16.593082 27.822864 -0.343835 0.931809 0.101066 -0.021613 -597577.000000 0 0 1
-20.390711 8.487703 15.843182 27.181402 -0.394439 0.948542 0.080528 -0.019434 262234.000000 0 0 1
-20.823511 9.852803 16.016582 28.057570 -0.441944 0.963259 0.084638 -0.006449 -186672.000000 0 0 1
-20.352711 10.612803 17.250782 28.713305 -0.480655 0.926302 0.097013 -0.004557 -256536.000000 0 0 1
-21.074311 10.139103 18.353882 29.728656 -0.448423 0.905388 0.116801 -0.018302 368894.000000 0 0 1
-20.913911 10.977803 19.479082 30.615984 -0.483372 0.881183 0.146365 -0.010991 -65567.200000 0 0 1
-13.165823 -33.280656 -20.253394 41.123484 1.194089 2.085758 0.169535 -0.055377 1214100.000000 0 0 1
-14.236923 -33.626856 -19.278894 41.293234 1.170299 2.056553 0.193456 -0.047189 919096.000000 0 0 1
-15.374823 -32.843056 -19.557094 41.201110 1.132968 2.065390 0.162805 -0.056779 -57808.000000 0 0 1
-16.610023 -33.323456 -18.752794 41.689482 1.108391 2.037361 0.141241 -0.041005 -1049600.000000 0 0 1
-17.116223 32.905803 -19.338294 41.829734 -1.091153 2.051395 0.142677 -0.039656 -19179.700000 0 0 1
-17.833623 32.146603 -18.357094 41.090450 -1.064307 2.033924 0.155254 -0.041102 1207220.000000 0 0 1
-19.248523 32.683803 -17.881394 41.934245 -1.038555 2.011322 0.140444 -0.033347 262205.000000 0 0 1
-19.101623 -33.696656 -16.897394 42.259420 1.055093 1.982149 0.164471 -0.024915 202896.000000 0 0 1
-20.335523 -33.375156 -16.278394 42.336989 1.023566 1.965458 0.133308 -0.021490 221242.000000 0 0 1
-20.460023 33.403403 -14.855194 41.893635 -1.021227 1.933275 0.133637 -0.023039 11577.100000 0 0 1
-20.461023 32.011603 -14.775894 40.764240 -1.002068 1.941715 0.137542 -0.032425 152112.000000 0 0 1
-20.787123 31.456203 -13.510894 40.051735 -0.986847 1.914882 0.141738 -0.028647 186955.000000 0 0 1
-20.956423 29.892203 -13.437694 38.900991 -0.959355 1.923497 0.129365 -0.037828 629757.000000 0 0 1
-19.694123 29.233803 -13.549794 37.763351 -0.977957 1.937787 0.149975 -0.053282 489892.000000 0 0 1
-19.863123 27.839603 -13.509594 36.770862 -0.951078 1.947008 0.134089 -0.059630 -414365.000000 0 0 1
-18.611723 27.110403 -13.059194 35.382379 -0.969178 1.948823 0.146118 -0.053241 -356085.000000 0 0 1
-17.519623 27.124203 -13.959694 35.178582 -0.997306 1.978850 0.164817 -0.062027 -425368.000000 0 0 1
-16.621823 26.099003 -13.624794 33.809436 -1.003703 1.985576 0.171928 -0.076309 31033.700000 0 0 1
-15.196423 26.445903 -14.125694 33.613276 -1.049245 2.004508 0.138480 -0.064250 -145676.000000 0 0 1
-15.087023 26.564003 -15.537894 34.273761 -1.054277 2.041313 0.133853 -0.071102 -476901.000000 0 0 1
-13.780323 26.897103 -15.903894 34.150920 -1.097330 2.055216 0.167362 -0.060150 -339595.000000 0 0 1
-13.653423 27.084503 -17.411294 34.973411 -1.103870 2.091907 0.204466 -0.083828 -41260.700000 0 0 1
-14.128823 25.909603 -18.082394 34.610752 -1.071559 2.120518 0.180907 -0.081047 275714.000000 0 0 1
-14.302123 26.181503 -19.420894 35.597654 -1.070823 2.147861 0.165514 -0.083007 -179263.000000 0 0 1
-13.502923 25.331903 -20.451694 35.246362 -1.081067 2.189832 0.154540 -0.066333 296390.000000 0 0 1
-12.299723 25.923303 -20.937394 35.520069 -1.127784 2.201177 0.112472 -0.054042 200443.000000 0 0 1
-11.392923 24.933603 -21.392494 34.772433 -1.142194 2.233454 0.111569 -0.052222 502436.000000 0 0 1
-10.176623 25.571403 -22.131794 35.316804 -1.192042 2.248062 0.123994 -0.044915 226138.000000 0 0 1
-10.534223 26.290303 -23.328894 36.693149 -1.189697 2.259819 0.103507 -0.034165 -339658.000000 0 0 1
-9.424123 26.767303 -24.014494 37.175241 -1.232273 2.273104 0.099493 -0.032375 -538351.000000 0 0 1
-9.848423 27.233703 -25.446354 38.551044 -1.223802 2.291707 0.089161 -0.030162 -78205.900000 0 0 1
-10.498523 26.237103 -26.213104 38.545187 -1.190169 2.318643 0.081076 -0.028006 -118632.000000 0 0 1
-10.837223 26.771303 -27.436264 39.835872 -1.186152 2.330536 0.084804 -0.024703 1046630.000000 0 0 1
-12.360023 26.461203 -27.764664 40.296923 -1.133814 2.330908 0.063806 -0.016237 1108450.000000 0 0 1
-12.631523 26.885203 -29.115804 41.594466 -1.131573 2.346183 0.063954 -0.013066 469720.000000 0 0 1
-13.856623 26.250603 -29.521684 41.864424 -1.085111 2.353464 0.058551 -0.010531 459953.000000 0 0 1
-14.307623 26.724403 -30.983334 43.345920 -1.079250 2.367124 0.065848 -0.014759 340370.000000 0 0 1
-13.448323 26.350503 -32.085414 43.642642 -1.098893 2.396736 0.072117 -0.016841 513733.000000 0 0 1
-13.119523 24.922703 -32.128934 42.726238 -1.086246 2.421845 0.069667 -0.017463 9438.260000 0 0 1
-12.435223 24.455103 -33.413134 43.233371 -1.100378 2.454125 0.058125 -0.021430 298650.000000 0 0 1
-13.304523 24.401103 32.805176 42.995392 -1.071613 0.702866 0.058582 -0.019586 668988.000000 0 0 1
-12.562723 23.868803 31.716116 41.634766 -1.086312 0.704755 0.053271 -0.020545 -948242.000000 0 0 1
-13.292723 23.920303 30.366232 40.877689 -1.063581 0.733470 0.064601 -0.010770 224584.000000 0 0 1
-14.374323 22.974603 30.370022 40.703707 -1.011722 0.728575 0.074450 -0.019480 639064.000000 0 0 1
-15.144923 22.980803 29.154822 40.093511 -0.988103 0.756605 0.088058 -0.020688 491633.000000 0 0 1
-16.338223 21.973503 29.230082 40.052092 -0.931441 0.752765 0.085409 -0.017638 192980.000000 0 0 1
-15.980623 20.616403 29.403622 39.306353 -0.911398 0.725658 0.076729 -0.019425 -512688.000000 0 0 1
-17.081523 19.785903 29.475252 39.396077 -0.858621 0.725486 0.076159 -0.015575 -288741.000000 0 0 1
-16.545623 18.338303 29.585702 38.540430 -0.836743 0.695624 0.060966 -0.024456 147676.000000 0 0 1
-16.017023 17.795003 28.417882 37.158891 -0.837934 0.700117 0.083817 -0.036059 -295629.000000 0 0 1
-15.295123 16.650103 28.729682 36.559012 -0.827789 0.666737 0.081340 -0.044270 -319804.000000 0 0 1
-14.661023 16.032103 27.486042 35.035074 -0.830039 0.668860 0.098212 -0.044001 524426.000000 0 0 1
-13.538223 16.820703 27.033632 34.598219 -0.893102 0.673956 0.049033 -0.040885 485287.000000 0 0 1
-12.821223 16.038103 26.074062 33.188269 -0.896408 0.667065 0.029604 -0.035161 159937.000000 0 0 1
-11.750523 16.831803 25.279542 32.564392 -0.961337 0.682031 0.046887 -0.030352 -137721.000000 0 0 1
-12.162523 17.738203 24.275382 32.432468 -0.969754 0.725014 0.051046 -0.028850 92541.100000 0 0 1
-12.887023 18.906903 24.763832 33.716372 -0.972524 0.745904 0.037799 -0.029173 572140.000000 0 0 1
-11.990323 19.958003 25.482002 34.516984 -1.029805 0.740331 0.034981 -0.028404 167248.000000 0 0 1
-11.687723 19.679103 26.826932 35.264064 -1.034863 0.706337 0.041154 -0.032662 -462719.000000 0 0 1
-12.736823 19.982303 27.683772 36.440504 -1.003326 0.707948 0.071546 -0.036606 -632702.000000 0 0 1
-12.443423 19.659703 29.138682 37.288141 -1.006507 0.673816 0.068777 -0.032373 195191.000000 0 0 1
-11.422123 20.460003 29.735252 37.858445 -1.061629 0.667402 0.054746 -0.035261 285480.000000 0 0 1
-11.533723 20.456703 31.106192 38.975616 -1.057411 0.646672 0.053794 -0.031513 -367674.000000 0 0 1
-10.352723 21.177103 31.760329 39.552080 -1.116097 0.638484 0.048898 -0.028943 -196833.000000 0 0 1
-9.170823 20.396903 31.856791 38.922908 -1.148260 0.612073 0.065409 -0.032663 53218.300000 0 0 1
-8.121023 21.215703 32.330735 39.513713 -1.205219 0.612496 0.072706 -0.029743 416130.000000 0 0 1
-6.760423 20.497903 32.560267 39.064541 -1.252220 0.585385 0.071989 -0.027210 68989.100000 0 0 1
-6.774023 19.697503 -33.624754 39.553801 -1.239564 2.586975 0.078640 -0.029143 285033.000000 0 0 1
-5.519223 19.225903 -33.156194 38.722479 -1.291242 2.598766 0.075404 -0.019656 559711.000000 0 0 1
-4.767323 18.085603 33.469292 38.340708 -1.313061 0.509591 0.065016 -0.019645 400795.000000 0 0 1
-5.571623 16.909003 33.426512 37.872009 -1.252494 0.489394 0.055992 -0.022572 330466.000000 0 0 1
-4.840823 15.977603 32.678991 36.696510 -1.276612 0.472309 0.055623 -0.015608 15036.700000 0 0 1
-5.567923 14.596103 32.545567 36.100719 -1.206369 0.447524 0.075142 -0.024273 222795.000000 0 0 1
-4.928423 13.418003 33.104275 36.058635 -1.218794 0.407618 0.079484 -0.026441 364140.000000 0 0 1
-5.844923 12.337103 32.959720 35.675067 -1.128354 0.392680 0.089504 -0.030047 212948.000000 0 0 1
-5.242423 11.008603 33.444032 35.597410 -1.126360 0.349607 0.120786 -0.041055 189683.000000 0 0 1
-5.236323 10.869403 -32.464364 34.633769 -1.121856 2.785774 0.114547 -0.046218 15390.200000 0 0 1
-4.066923 10.160103 -32.058424 33.874919 -1.190046 2.812625 0.141121 -0.045646 436386.000000 0 0 1
-4.026523 9.621203 -30.604704 32.333085 -1.174440 2.813146 0.139102 -0.054546 528824.000000 0 0 1
-4.997523 8.559403 -30.431804 32.005208 -1.042326 2.826731 0.150094 -0.049933 212276.000000 0 0 1
-5.887623 8.906303 -29.403394 31.281719 -0.986684 2.793293 0.182105 -0.055499 -497515.000000 0 0 1
-6.756423 7.734703 -29.021054 30.784679 -0.852805 2.801462 0.174401 -0.050499 -252316.000000 0 0 1
-6.022523 6.662503 -28.446104 29.830196 -0.835807 2.835775 0.186684 -0.041107 423075.000000 0 0 1
-6.922323 5.618103 -27.989664 29.375210 -0.681770 2.833233 0.189304 -0.062971 185816.000000 0 0 1
-6.467123 4.931803 -26.695754 27.907162 -0.651514 2.845869 0.184721 -0.059349 -293576.000000 0 0 1
-6.622523 5.740403 -25.563584 27.024191 -0.714167 2.811314 0.144171 -0.041747 33082.100000 0 0 1
-5.652023 6.715903 -25.238064 26.720940 -0.871206 2.806881 0.129180 -0.046140 -90995.200000 0 0 1
-6.217523 7.686703 -24.174294 26.117801 -0.890672 2.753379 0.082403 -0.024175 298376.000000 0 0 1
-6.511223 7.094903 -22.935194 24.874823 -0.828270 2.744074 0.068583 -0.014950 -172636.000000 0 1 0
-7.701823 7.603703 -22.393894 24.872091 -0.778988 2.691398 0.078465 -0.015535 -199359.000000 0 1 0
-7.729523 7.853803 -20.873594 23.603701 -0.793373 2.655865 0.066707 -0.016715 -126743.000000 0 1 0
-7.068223 9.060103 -20.533494 23.530186 -0.908278 2.631388 0.043213 -0.004365 1976.930000 0 1 0
-6.923123 9.164303 -19.114794 22.299988 -0.923820 2.600538 0.033996 -0.006407 -75623.600000 0 1 0
-8.202023 9.356303 -18.250094 22.087995 -0.851044 2.543205 0.048911 -0.010242 -588782.000000 0 1 0
-8.030123 9.197203 -16.878194 20.831343 -0.853041 2.515342 0.033844 -0.012146 606139.000000 0 1 0
-9.161723 9.631403 -16.075594 20.859670 -0.810385 2.450664 0.037506 -0.016519 1048520.000000 0 1 0
-9.708523 11.079303 -16.334494 21.995956 -0.851244 2.407761 0.073371 -0.027923 579386.000000 0 1 0
-8.679823 12.055603 -15.962694 21.805607 -0.946785 2.392116 0.040263 -0.027400 869718.000000 0 1 0
-9.051123 13.384303 -16.288994 22.943272 -0.976189 2.360249 0.078248 -0.030858 -107968.000000 0 1 0
-7.942323 14.345303 -15.879894 22.826285 -1.065153 2.340169 0.078980 -0.026177 -467810.000000 0 1 0
-7.589023 14.396403 -14.560094 21.836805 -1.085668 2.300661 0.071841 -0.021264 153211.000000 0 1 0
-8.487223 15.118503 -13.722494 22.111286 -1.059258 2.240317 0.072666 -0.029357 -477004.000000 0 1 0
-7.748523 15.850703 -12.584494 21.671500 -1.116113 2.190376 0.056807 -0.024886 224468.000000 0 1 0
-7.125423 17.115103 -12.796494 22.526622 -1.176298 2.174944 0.067315 -0.028467 336367.000000 0 1 0
-6.116023 17.169203 -13.803994 22.863454 -1.228591 2.219003 0.070637 -0.022282 -235944.000000 0 1 0
-5.921123 18.552903 -14.401294 24.221214 -1.261866 2.207532 0.096837 -0.016498 133966.000000 0 1 0
-5.386323 19.425903 -13.423394 24.219119 -1.300316 2.158255 0.094363 -0.025780 -169958.000000 0 1 0
-5.470023 20.769403 -13.840094 25.550685 -1.313275 2.143221 0.100276 -0.021230 -52675.600000 0 0 1
-4.891523 21.786503 -12.809394 25.742170 -1.349938 2.091630 0.108053 -0.027717 -317892.000000 0 0 1
-5.020723 23.222203 -13.043194 27.103566 -1.357870 2.072860 0.114063 -0.030417 547912.000000 0 0 1
-6.300423 23.887103 -13.060794 27.944112 -1.312911 2.057132 0.115636 -0.029286 520917.000000 0 0 1
-7.119823 23.914803 -11.775494 27.591157 -1.281436 2.011731 0.097919 -0.025617 -169331.000000 0 0 1
-7.644123 22.605303 -11.451694 26.468352 -1.244712 2.018233 0.101602 -0.020029 -15525.000000 0 0 1
-8.235923 22.444203 -10.164794 25.978755 -1.219101 1.972811 0.105656 -0.021581 184523.000000 0 0 1
-7.333423 22.725003 -8.918494 25.490085 -1.258644 1.928240 0.107925 -0.023831 203781.000000 0 0 1
-7.145923 24.093303 -8.749594 26.610278 -1.282467 1.905834 0.107850 -0.021133 -162392.000000 0 0 1
-6.393923 24.436803 -7.599394 26.377839 -1.314882 1.863036 0.113057 -0.026131 84566.400000 0 0 1
-6.621123 25.941903 -7.283994 27.746679 -1.320902 1.836427 0.127950 -0.027655 150261.000000 0 0 1
-5.948723 26.932103 -8.038594 28.728809 -1.353408 1.854392 0.128996 -0.033753 -134690.000000 0 0 1
-6.130123 26.889303 -9.458994 29.156228 -1.346651 1.901200 0.128415 -0.031728 -406131.000000 0 0 1
-5.653223 28.177803 -10.097794 30.461664 -1.372798 1.908681 0.130472 -0.033295 422210.000000 0 0 1
-6.553223 29.295203 -10.113594 31.677097 -1.350723 1.895757 0.122137 -0.032833 -63786.800000 0 0 1
-7.702623 29.202903 -10.907894 32.111090 -1.312908 1.917386 0.128005 -0.028621 -596946.000000 0 0 1
-8.707323 30.321703 -10.727294 33.321135 -1.291156 1.898571 0.125272 -0.029316 -44798.800000 0 0 1
-9.693823 29.929203 -9.766994 32.941184 -1.257567 1.871820 0.115490 -0.034097 640919.000000 0 0 1
-10.799223 30.857903 -9.715294 34.106016 -1.234152 1.859652 0.101483 -0.034313 2121890.000000 0 0 1
-12.055423 30.365503 -8.827594 33.842627 -1.192870 1.834691 0.113614 -0.043291 1316320.000000 0 0 1
-12.808323 29.393103 -9.490194 33.437575 -1.159848 1.858570 0.122414 -0.047552 313496.000000 0 0 1
-14.012923 29.072103 -8.768294 33.442969 -1.121647 1.836084 0.123819 -0.039486 1077310.000000 0 0 1
-14.899723 27.957203 -9.380594 33.039408 -1.081139 1.858678 0.132901 -0.040849 28043.300000 0 0 1
-14.527823 26.661203 -8.971094 31.660037 -1.071873 1.858089 0.133787 -0.046533 57669.500000 0 0 1
-15.403523 25.685103 -9.504594 31.421813 -1.030593 1.878094 0.153634 -0.046600 58909.500000 0 0 1
-15.315123 24.306703 -8.816194 30.051524 -1.008554 1.868546 0.155389 -0.041502 -453226.000000 0 0 1
-14.271023 23.479903 -9.189594 28.972687 -1.024663 1.893552 0.159954 -0.041539 -535330.000000 0 0 1
-14.419923 22.139803 -8.762194 27.836686 -0.993499 1.891012 0.144582 -0.040393 -200820.000000 0 0 1
-13.496323 21.137103 -9.457494 26.802464 -1.002539 1.931421 0.147965 -0.041648 -212875.000000 0 0 1
-13.804223 20.918103 -10.823694 27.299743 -0.987481 1.978471 0.152085 -0.028197 66243.200000 0 0 1
-13.141123 19.739903 -11.225894 26.236875 -0.983454 2.012928 0.141883 -0.022726 -172891.000000 0 0 1
-13.582523 19.229903 -12.624194 26.714123 -0.955839 2.062997 0.149169 -0.022698 378414.000000 0 0 1
-14.958323 18.903903 -12.734894 27.263281 -0.901394 2.056813 0.166927 -0.024034 -52040.200000 0 0 1
-15.217423 18.447003 -14.007094 27.713906 -0.881040 2.100662 0.162313 -0.023554 -508877.000000 0 0 1
-16.722123 18.332203 -14.221394 28.599775 -0.831297 2.091229 0.155190 -0.014528 -461947.000000 0 0 1
-17.384323 19.530603 -14.484894 29.890990 -0.843474 2.076691 0.146963 -0.021058 -1163940.000000 0 0 1
-18.704223 19.273203 -14.792494 30.661412 -0.800379 2.074242 0.116162 -0.020151 -885083.000000 0 0 1
-19.487323 20.536303 -15.327694 32.193691 -0.811601 2.067021 0.102020 -0.027577 161277.000000 0 0 1
-19.875123 21.529703 -14.408294 32.651915 -0.825338 2.027809 0.115818 -0.047738 7594.590000 0 0 1
-20.376123 22.640503 -15.058694 33.978567 -0.837989 2.029942 0.105688 -0.043697 -239037.000000 0 0 1
-20.988123 23.705803 -14.143494 34.677152 -0.846130 1.990908 0.116113 -0.036715 -479096.000000 0 0 1
-22.351523 23.570803 -13.867094 35.319536 -0.811943 1.974273 0.140882 -0.037001 -438554.000000 0 0 1
-22.773723 24.552303 -12.977694 35.914880 -0.822962 1.940507 0.145072 -0.046017 -18604.100000 0 0 1
-27.132763 -0.297197 3.237806 27.326883 0.010953 1.452033 0.306790 -0.079472 35150.500000 0 0 1
-27.653733 0.390503 4.381906 28.001473 -0.014120 1.413662 0.298178 -0.083280 -19630.200000 0 0 1
-28.920713 -0.052497 4.796206 29.315763 0.001815 1.406453 0.267243 -0.074640 -106078.000000 0 0 1
-29.273313 0.739503 6.083006 29.907803 -0.025257 1.365975 0.266413 -0.054477 -243979.000000 0 0 1
-29.607373 2.132303 5.895306 30.263804 -0.071895 1.374746 0.300352 -0.063908 181393.000000 0 0 1
-29.747993 2.975703 7.014906 30.708415 -0.099699 1.340325 0.298482 -0.059617 628483.000000 0 0 1
-28.467283 3.127303 7.948106 29.721013 -0.109417 1.300078 0.310093 -0.053072 638172.000000 0 0 1
-28.062753 2.018403 8.721206 29.455924 -0.071801 1.270214 0.292422 -0.063173 -705872.000000 0 0 1
-26.959533 2.316203 9.458806 28.664441 -0.085704 1.234510 0.287001 -0.076934 -1326910.000000 0 0 1
-26.240363 1.076103 10.036506 28.114873 -0.040987 1.205761 0.269963 -0.069960 -911959.000000 0 0 1
-25.077543 0.781703 9.358806 26.778376 -0.031161 1.213768 0.268246 -0.071660 -598188.000000 0 0 1
-25.173773 -0.375097 8.551406 26.589209 0.014899 1.243365 0.231204 -0.065041 79368.100000 0 0 1
-23.839923 -0.936097 7.982006 25.158112 0.039246 1.247943 0.194246 -0.067286 52834.900000 0 0 1
-22.965723 -1.576197 8.847206 24.661343 0.068525 1.203870 0.211911 -0.075392 -35469.300000 0 1 0
-21.758023 -1.943397 8.230206 23.343621 0.089082 1.210483 0.213178 -0.063060 -35858.400000 0 1 0
-20.515823 -2.047097 9.132306 22.549691 0.099452 1.153833 0.145629 -0.043861 70235.900000 0 1 0
-19.866523 -0.813297 9.513606 22.041980 0.040915 1.124516 0.123989 -0.047519 885129.000000 0 1 0
-20.512023 -0.127297 10.573306 23.077133 0.006206 1.094858 0.158330 -0.053968 -365971.000000 0 1 0
-20.045423 1.375003 10.676206 22.752823 -0.068487 1.082383 0.104673 -0.043059 -210745.000000 0 1 0
-20.571123 2.150803 9.637106 22.818213 -0.104176 1.134768 0.139479 -0.047281 61670.000000 0 1 0
-21.946423 2.415303 9.712806 24.120899 -0.109613 1.156362 0.163090 -0.054705 -552768.000000 0 1 0
-22.301623 3.862703 9.262606 24.455648 -0.171501 1.182350 0.154231 -0.057999 -345703.000000 0 1 0
-22.132123 4.843203 10.306106 24.889823 -0.215435 1.143876 0.119307 -0.046075 498142.000000 0 1 0
-22.478423 6.138803 9.852006 25.298743 -0.266597 1.170787 0.099619 -0.040129 -243556.000000 0 0 1
-22.650623 7.163203 10.966006 26.165157 -0.306295 1.138335 0.108899 -0.042127 -462978.000000 0 0 1
-23.800523 6.957403 11.725006 27.428928 -0.284397 1.129106 0.141934 -0.044244 -165490.000000 0 0 1
-23.751823 7.710503 12.935306 28.123354 -0.313895 1.092859 0.150940 -0.038089 -134654.000000 0 0 1
-24.762523 7.204703 13.978906 29.334282 -0.283135 1.074083 0.184001 -0.045808 -620788.000000 0 0 1
-26.078483 7.483103 13.608506 30.352521 -0.279438 1.105880 0.194106 -0.046860 -850582.000000 0 0 1
-26.922323 7.102703 14.679206 31.476006 -0.257945 1.085623 0.191596 -0.046182 -302957.000000 0 0 1
-28.363683 7.193703 14.127006 32.493386 -0.248386 1.121018 0.184532 -0.035476 -287540.000000 0 0 1
-28.742383 6.099903 13.305206 32.254641 -0.209124 1.145594 0.212240 -0.030309 533955.000000 0 0 1
-30.081183 6.317103 12.855006 33.317180 -0.206994 1.174681 0.245767 -0.036111 426045.000000 0 0 1
-30.617433 5.260303 11.887006 33.262575 -0.170146 1.205347 0.275188 -0.044001 -157834.000000 0 0 1
-31.115003 4.035403 12.448906 33.755046 -0.128973 1.193077 0.233556 -0.041571 540223.000000 0 0 1
-31.600173 3.174303 11.406006 33.745282 -0.100116 1.226002 0.224202 -0.032023 -337513.000000 0 0 1
-32.841353 2.363803 11.754406 34.961523 -0.071853 1.227907 0.175689 -0.021524 -322456.000000 0 0 1
-32.571373 1.163603 12.475806 34.898338 -0.035710 1.205217 0.174979 -0.021747 642624.000000 0 0 1
-33.823603 0.678203 12.983306 36.236201 -0.020049 1.204354 0.148802 -0.022063 706468.000000 0 0 1
-33.670133 -0.485097 14.020106 36.475697 0.014406 1.176273 0.143642 -0.032302 161545.000000 0 0 1
-33.294663 -1.758697 13.456906 35.954358 0.052773 1.187179 0.175520 -0.036429 143814.000000 0 0 1
-33.630313 -2.722997 14.443206 36.701755 0.080792 1.166329 0.173897 -0.037279 -49076.000000 0 0 1
-33.731443 -4.209097 13.956506 36.746575 0.124141 1.181212 0.186502 -0.044335 -341523.000000 0 0 1
-34.830321 -4.525297 13.159806 37.507467 0.129200 1.212309 0.154543 -0.044005 -310537.000000 0 0 1
-34.713323 -5.843797 12.627306 37.398042 0.166781 1.226381 0.178030 -0.044996 -677968.000000 0 0 1
-36.012463 -6.166597 11.830706 38.404296 0.169590 1.257646 0.174288 -0.037419 -230036.000000 0 0 1
-37.056933 -6.336297 12.743206 39.695770 0.169350 1.243988 0.151763 -0.047786 -137940.000000 0 0 1
-37.806803 -5.147897 13.000906 40.309784 0.135331 1.242401 0.167958 -0.049199 -584367.000000 0 0 1
37.128345 -5.200497 12.535106 39.530850 -0.139163 1.248130 0.175250 -0.044476 -83409.600000 0 0 1
36.220975 -6.006097 13.244606 39.031421 -0.164323 1.224590 0.159173 -0.040267 148905.000000 0 0 1
34.903465 -5.716097 12.801906 37.614019 -0.162328 1.223508 0.177145 -0.038782 1106590.000000 0 0 1
33.752395 -6.677297 13.344306 36.903672 -0.195310 1.200815 0.157828 -0.025633 652495.000000 0 0 1
33.377025 -6.459197 14.649406 37.018268 -0.191159 1.163929 0.155135 -0.018859 328984.000000 0 0 1
32.386045 -7.475197 14.911806 36.429335 -0.226843 1.149071 0.136271 -0.018443 413555.000000 0 0 1
31.972805 -7.517197 16.435906 36.727476 -0.230918 1.106818 0.130479 -0.021728 71751.900000 0 0 1
32.953925 -8.039197 17.310306 38.081972 -0.239279 1.098925 0.106714 -0.024111 -234871.000000 0 0 1
32.508775 -8.119797 18.631806 38.339220 -0.244764 1.063321 0.105647 -0.029616 -391243.000000 0 0 1
33.579565 -8.607897 19.624206 39.834565 -0.250940 1.055672 0.120385 -0.028844 118663.000000 0 0 1
34.628205 -7.688597 19.871506 40.658380 -0.218488 1.060148 0.125773 -0.022300 -32053.800000 0 0 1
35.828315 -8.248897 19.366406 41.554424 -0.226291 1.085976 0.083307 -0.009286 366188.000000 0 0 1
37.151695 -7.851097 20.087806 42.958214 -0.208261 1.084208 0.064097 -0.016360 471141.000000 0 0 1
37.267465 -8.422897 21.395606 43.790194 -0.222278 1.060319 0.064880 -0.019279 306466.000000 0 0 1
-37.856643 -8.132097 21.954406 44.511260 0.211597 1.054994 0.078211 -0.020726 438849.000000 0 0 1
-37.726823 -8.718297 23.362306 45.222994 0.227104 1.027918 0.076568 -0.016373 -144105.000000 0 0 1
38.172405 -7.868597 24.382206 45.973245 -0.203286 1.011775 0.093355 -0.014498 121196.000000 0 0 1
37.729525 -8.712297 25.427106 46.324496 -0.226937 0.989759 0.107011 -0.031829 -327300.000000 0 0 1
37.423375 -7.994897 26.766506 46.699820 -0.210470 0.960438 0.137581 -0.028661 291956.000000 0 0 1
-37.841893 -7.463197 27.413906 47.320507 0.194722 0.952897 0.112305 -0.043936 79549.900000 0 0 1
38.110575 -6.579397 28.412206 47.989143 -0.170955 0.937190 0.122514 -0.049748 -281070.000000 0 0 1
-37.169413 -6.111497 29.293706 47.718307 0.162965 0.909820 0.140624 -0.045518 -321566.000000 0 0 1
-36.634263 -7.029897 30.203506 47.997296 0.189589 0.890176 0.136662 -0.038795 -270778.000000 0 0 1
-35.238728 -6.923897 30.298006 46.985928 0.194014 0.869994 0.118364 -0.052850 -49992.800000 0 0 1
-34.573412 -7.708297 31.460806 47.376375 0.219367 0.844559 0.100008 -0.046115 56299.900000 0 0 1
-34.679797 -9.118197 31.290606 47.591300 0.257106 0.853319 0.095351 -0.045560 279695.000000 0 0 1
-34.074527 -9.758897 32.401106 48.022298 0.278932 0.830225 0.074068 -0.045306 -67709.100000 0 0 1
-34.419787 -11.255697 32.433906 48.614511 0.316051 0.840400 0.083044 -0.035253 -502871.000000 0 0 1
-35.740712 -11.551497 32.767206 49.845013 0.312605 0.853457 0.074640 -0.038050 -399175.000000 0 0 1
-36.059033 -12.927397 32.700606 50.365673 0.344233 0.864180 0.076908 -0.038127 368472.000000 0 0 1
-37.595933 -13.158397 32.711106 51.542351 0.336671 0.883247 0.079019 -0.029887 250553.000000 0 0 1
-37.952843 -14.508997 32.830106 52.237392 0.365147 0.891200 0.071124 -0.036076 186405.000000 0 0 1
37.049415 -14.530697 33.068306 51.742760 -0.373762 0.877481 0.052780 -0.023438 62657.000000 0 0 1
36.679275 -16.008097 33.272606 52.045122 -0.411516 0.877205 0.041084 -0.011297 -52132.700000 0 0 1
37.267195 -16.606997 -32.912071 52.419849 -0.419205 2.249591 0.052995 -0.024599 155043.000000 0 0 1
36.963545 -17.943697 -32.925871 52.653518 -0.451934 2.246352 0.044211 -0.029913 -262190.000000 0 0 1
37.640315 -18.761697 -31.823371 52.740132 -0.462404 2.218554 0.062669 -0.027913 -55962.100000 0 0 1
37.055775 -18.686397 -30.521371 51.515687 -0.467064 2.204915 0.067422 -0.030148 -186183.000000 0 0 1
37.426195 -19.712497 -29.635571 51.648521 -0.484781 2.181926 0.073822 -0.027394 -1273640.000000 0 0 1
36.542175 -19.797597 -28.415871 50.346173 -0.496506 2.170514 0.100628 -0.029908 771713.000000 0 0 1
35.235275 -20.368097 -28.644671 49.768476 -0.524131 2.184083 0.091278 -0.027178 740232.000000 0 0 1
34.265705 -19.447197 -29.056371 48.955130 -0.516211 2.206235 0.075966 -0.023539 -763794.000000 0 0 1
32.853125 -20.054697 -29.185171 48.304171 -0.548057 2.219552 0.078842 -0.015853 -3380.980000 0 0 1
31.972015 -19.334997 -30.028371 47.934903 -0.543903 2.247775 0.069944 -0.005487 -188002.000000 0 0 1
30.750565 -20.014297 -30.070171 47.438218 -0.576979 2.257357 0.067993 -0.004606 448006.000000 0 0 1
29.685565 -19.550797 -31.175071 47.279504 -0.582394 2.290788 0.057113 0.002896 666049.000000 0 0 1
29.987165 -19.783597 -32.518671 48.457040 -0.583189 2.306464 0.043730 0.001538 126059.000000 0 0 1
28.883765 -19.732197 -33.437571 48.391142 -0.599333 2.333648 0.075848 0.001953 397833.000000 0 0 1
29.354765 -19.738097 32.483306 48.025617 -0.591960 0.827967 0.074940 -0.005429 -63007.600000 0 0 1
30.155665 -18.646397 32.069206 47.806759 -0.553794 0.835497 0.044029 -0.000072 45200.700000 0 0 1
30.246765 -18.445497 30.676506 46.863111 -0.547619 0.857145 0.047048 -0.004509 -204494.000000 0 0 1
28.942165 -18.094297 29.911006 45.384147 -0.558735 0.851224 0.035561 0.002216 -113707.000000 0 0 1
28.495165 -16.783597 30.222406 44.800194 -0.532291 0.830368 0.054960 -0.005482 544987.000000 0 0 1
27.924565 -16.078897 29.090306 43.411498 -0.522433 0.836445 0.053575 -0.000887 55231.300000 0 0 1
27.481265 -14.657897 29.364106 42.805661 -0.489992 0.814838 0.072829 -0.014340 645051.000000 0 0 1
28.634465 -13.812197 29.517006 43.381598 -0.449438 0.822483 0.091695 -0.010747 864787.000000 0 0 1
28.329665 -12.631497 30.289306 43.353970 -0.419418 0.797286 0.109907 -0.012633 52085.500000 0 0 1
29.556065 -11.705797 30.442106 44.014866 -0.377100 0.807050 0.122268 -0.011524 125415.000000 0 0 1
29.970365 -11.190997 29.180506 43.300844 -0.357369 0.831319 0.130412 -0.016613 309693.000000 0 0 1
31.377065 -10.995097 29.175106 44.233462 -0.337047 0.850549 0.139581 -0.017427 442535.000000 0 0 1
32.000515 -10.333197 27.903606 43.696901 -0.312338 0.878155 0.151003 -0.023572 23762.400000 0 0 1
31.556365 -8.979097 27.723506 42.953709 -0.277215 0.869213 0.134701 -0.019008 94572.800000 0 0 1
31.902285 -8.427897 26.446006 42.286836 -0.258278 0.895158 0.164202 -0.028554 36074.600000 0 0 1
31.709615 -6.932597 26.351006 41.808326 -0.215241 0.888881 0.139317 -0.029045 424206.000000 0 0 1
30.353765 -6.525697 26.279206 40.675944 -0.211765 0.868382 0.150025 -0.022121 -316531.000000 0 0 1
30.338465 -5.165697 25.987406 40.279674 -0.168651 0.869545 0.161638 -0.026977 -452798.000000 0 0 1
29.056365 -4.482897 25.565606 38.961121 -0.153076 0.855048 0.122745 -0.011188 -858901.000000 0 0 1
28.624065 -4.838897 24.288806 37.850999 -0.167467 0.874090 0.144925 -0.023847 -89851.400000 0 0 1
27.308565 -4.359197 24.107606 36.687014 -0.158292 0.853811 0.122714 -0.017257 -45999.200000 0 0 1
26.806865 -4.563497 22.651206 35.390827 -0.168620 0.876258 0.128898 -0.017710 -188275.000000 0 0 1
27.348165 -3.623397 21.758706 35.135344 -0.131724 0.902968 0.142443 -0.017126 34857.500000 0 0 1
27.300865 -4.067197 20.406006 34.326148 -0.147889 0.934185 0.152483 -0.016456 60173.600000 0 0 1
27.733665 -3.064397 19.344206 33.952099 -0.110047 0.964595 0.146221 -0.013941 -177802.000000 0 0 1
26.788865 -2.056297 19.269106 33.063123 -0.076609 0.948629 0.128663 -0.006490 -378698.000000 0 0 1
27.210265 -1.000297 18.430506 32.879822 -0.036745 0.975757 0.129378 -0.018481 -369898.000000 0 0 1
26.042865 -0.082297 18.059206 31.691837 -0.003160 0.964488 0.104431 -0.013655 12827.700000 0 0 1
25.037265 -0.902397 17.469106 30.542571 -0.036027 0.961904 0.094052 -0.015879 1084820.000000 0 0 1
23.838765 -0.163597 17.061306 29.315553 -0.006863 0.949625 0.127444 -0.015546 1763650.000000 0 0 1
22.652165 -1.038897 16.513106 28.051427 -0.045831 0.941381 0.147252 -0.029795 473038.000000 0 0 1
22.768765 -1.739697 15.315006 27.495320 -0.076259 0.980022 0.203577 -0.052371 -215017.000000 0 0 1
21.601065 -2.480697 15.031506 26.433048 -0.114340 0.965916 0.201870 -0.053435 -26512.800000 0 0 1
21.575465 -3.196097 13.650406 25.730319 -0.147066 1.011584 0.229168 -0.065269 -548518.000000 0 0 1
20.374065 -3.874497 13.451306 24.719464 -0.187924 0.995411 0.224046 -0.060234 194396.000000 0 1 0
20.201265 -4.351297 12.112906 23.953025 -0.212156 1.040610 0.201005 -0.057147 30848.400000 0 1 0
19.060865 -5.401297 11.994506 23.159421 -0.276132 1.026390 0.173159 -0.046510 -7414.130000 0 1 0
19.433365 -6.715697 12.354306 23.987187 -0.332728 1.029745 0.208441 -0.054592 390281.000000 0 1 0
18.366665 -7.601597 12.152706 23.298217 -0.392414 1.022053 0.180903 -0.041818 -383741.000000 0 1 0
18.737065 -9.058097 12.394706 24.223036 -0.450306 1.033645 0.212421 -0.060615 -15618.500000 0 1 0
19.623365 -9.642797 11.435206 24.674358 -0.456739 1.088917 0.205256 -0.059945 693472.000000 0 1 0
19.655165 -11.050597 11.547906 25.333680 -0.512179 1.097489 0.235488 -0.056360 -11553.700000 0 0 1
20.013865 -11.623797 10.148806 25.271836 -0.526173 1.157549 0.227855 -0.056362 -101862.000000 0 0 1
18.981965 -11.352797 9.234806 23.968367 -0.539009 1.175273 0.168440 -0.043764 509389.000000 0 1 0
19.280865 -11.884397 7.931106 23.997773 -0.552379 1.233970 0.156655 -0.053585 -65922.200000 0 1 0
18.350365 -11.241697 6.854106 22.585181 -0.549643 1.262456 0.102059 -0.034578 -113867.000000 0 1 0
18.605265 -9.896797 6.492106 22.051075 -0.488868 1.271956 0.081382 -0.030966 246248.000000 0 1 0
19.499965 -9.699597 5.449606 22.450591 -0.461578 1.325609 0.097712 -0.027382 -673929.000000 0 1 0
19.952165 -8.235297 5.288506 22.223351 -0.391451 1.330520 0.116605 -0.024022 -719296.000000 0 1 0
20.796965 -8.019597 4.215106 22.684682 -0.368043 1.383897 0.145441 -0.032807 347065.000000 0 1 0
21.190965 -6.685097 4.114106 22.598084 -0.305588 1.387720 0.160010 -0.032717 -36286.200000 0 1 0
21.716865 -6.296597 2.719506 22.774220 -0.282202 1.451099 0.191128 -0.046016 37691.200000 0 1 0
20.632165 -6.122697 1.846706 21.600555 -0.288477 1.485198 0.110155 -0.056009 552837.000000 0 1 0
21.036565 -5.175397 0.908806 21.682891 -0.241228 1.528871 0.120351 -0.048359 -208844.000000 0 1 0
-25.244203 -14.136197 -0.544294 28.937831 0.510472 1.589607 0.156683 -0.017745 -610116.000000 0 0 1
-23.931823 -13.848597 -0.950694 27.666217 0.524587 1.605166 0.122561 -0.000517 539123.000000 0 0 1
-22.859923 -14.559097 -0.304094 27.104166 0.567099 1.582016 0.145088 -0.002969 672009.000000 0 0 1
-22.624823 -14.349897 1.184406 26.817997 0.565227 1.526617 0.172680 -0.026762 -1371370.000000 0 0 1
-23.663823 -14.797097 1.977106 27.979269 0.558818 1.500074 0.172765 -0.008688 -499434.000000 0 0 1
-23.547023 -14.341897 3.304306 27.768160 0.547065 1.451517 0.169611 -0.004643 363550.000000 0 0 1
-24.417223 -15.202897 4.279206 29.079897 0.556893 1.423107 0.200102 -0.001248 289530.000000 0 0 1
-23.899323 -16.542097 4.395506 29.396242 0.605443 1.420707 0.240259 -0.032528 314050.000000 0 0 1
-24.538923 -17.276397 5.387306 30.490255 0.613433 1.393174 0.243033 -0.032676 -118980.000000 0 0 1
-24.334823 -18.830997 5.118206 31.192724 0.658578 1.405968 0.194057 -0.025855 189398.000000 0 0 1
-25.052833 -19.566497 6.089506 32.366252 0.663054 1.381525 0.186022 -0.036470 268217.000000 0 0 1
-25.642013 -20.753697 5.604306 33.460977 0.680424 1.402515 0.186179 -0.045116 -269753.000000 0 0 1
-26.122363 -21.564797 6.781506 34.545725 0.690115 1.373208 0.153401 -0.039442 187221.000000 0 0 1
-25.092803 -21.947597 7.688706 34.212014 0.718636 1.344123 0.144236 -0.027977 620231.000000 0 0 1
-25.714983 -22.639997 8.773806 35.366784 0.721892 1.320098 0.119520 -0.022722 200353.000000 0 0 1
-24.701923 -22.867997 9.894906 35.086171 0.746865 1.284900 0.113738 -0.029456 33902.700000 0 0 1
-24.575323 -21.710497 10.764306 34.513221 0.723583 1.253615 0.112840 -0.032759 541252.000000 0 0 1
-23.685923 -21.918597 11.890606 34.392358 0.746664 1.217775 0.112778 -0.031069 43949.400000 0 0 1
-24.052523 -21.148797 13.222006 34.649919 0.721246 1.179282 0.090036 -0.025434 -336010.000000 0 0 1
-25.305503 -21.573997 13.695306 35.963415 0.705968 1.180122 0.075242 -0.023862 -198940.000000 0 0 1
-25.569563 -20.779797 14.866306 36.147054 0.682423 1.146946 0.078573 -0.016807 -729864.000000 0 0 1
-26.955943 -21.092697 15.394906 37.530358 0.663971 1.148124 0.062551 -0.019113 -673057.000000 0 0 1
-28.058523 -20.854397 14.531806 37.859740 0.639165 1.176853 0.073727 -0.021654 508270.000000 0 0 1
-28.500463 -21.962197 13.745506 38.516923 0.656550 1.205882 0.063568 -0.024462 -499175.000000 0 0 1
-29.520773 -22.932297 14.335206 40.035788 0.660445 1.204607 0.064515 -0.032483 -541299.000000 0 0 1
-28.974773 -23.569997 15.442806 40.417353 0.682898 1.178746 0.049744 -0.024176 -280820.000000 0 0 1
-29.756623 -24.639997 15.895406 41.776189 0.691613 1.180471 0.051305 -0.027506 -250350.000000 0 0 1
-29.708233 -25.960997 15.092306 42.241332 0.718187 1.205434 0.056522 -0.024487 129404.000000 0 0 1
-30.223373 -25.924157 13.748206 42.125139 0.708977 1.238340 0.062734 -0.033924 843007.000000 0 0 1
-31.604483 -26.340107 13.661606 43.350709 0.694795 1.250191 0.112071 -0.055930 1024580.000000 0 0 1
-32.185333 -26.460437 12.182306 43.410355 0.688088 1.286345 0.153410 -0.058225 57081.200000 0 0 1
-31.779643 -27.679827 11.545706 43.696931 0.716556 1.303399 0.118035 -0.054618 241726.000000 0 0 1
-32.471993 -27.951607 10.332806 44.073682 0.710726 1.334150 0.118483 -0.034515 115567.000000 0 0 1
-31.886413 -29.183877 9.559006 44.269815 0.741174 1.353156 0.106243 -0.025888 235990.000000 0 0 1
-31.990103 -30.417157 10.333106 45.335893 0.760199 1.340852 0.105041 -0.013354 56226.400000 0 0 1
-31.585053 -31.606767 9.634806 45.710313 0.785742 1.358424 0.109344 -0.024382 -218067.000000 0 0 1
-31.740703 -32.970037 10.329906 46.916974 0.804393 1.348803 0.114798 -0.024287 152400.000000 0 0 1
-33.065513 -33.403547 10.581906 48.177814 0.790484 1.349348 0.101314 -0.018393 242492.000000 0 0 1
-33.018053 32.653277 11.074006 47.739521 -0.779844 1.336697 0.125158 -0.027315 -492276.000000 0 0 1
-34.388543 32.110916 11.497006 48.434120 -0.751161 1.331135 0.124829 -0.023433 256681.000000 0 0 1
-35.355000 31.905919 10.466306 48.759689 -0.734164 1.354462 0.088201 -0.017983 255632.000000 0 0 1
-36.155303 33.016639 10.165306 50.006378 -0.740054 1.366089 0.114043 -0.015771 -594443.000000 0 0 1
-37.620233 32.596645 9.915006 50.755596 -0.713976 1.374184 0.125113 -0.011654 -99353.100000 0 0 1
-37.773733 31.789152 8.748206 50.139168 -0.699578 1.395420 0.095118 -0.008574 146114.000000 0 0 1
37.246225 31.636761 8.477106 49.598662 0.704143 1.399039 0.076151 -0.003007 151999.000000 0 0 1
36.826335 31.173463 7.063106 48.763216 0.702458 1.425440 0.075079 -0.011142 -40253.900000 0 0 1
37.112675 29.789743 6.830606 48.077403 0.676375 1.428239 0.104686 -0.022263 65783.100000 0 0 1
36.720195 29.434843 5.525306 47.384721 0.675715 1.453925 0.113160 -0.025139 94235.300000 0 0 1
36.696765 27.903193 5.324006 46.406743 0.650106 1.455818 0.114155 -0.019772 -147102.000000 0 0 1
35.746535 27.275923 6.131506 45.380460 0.651793 1.435268 0.119669 -0.021341 -336936.000000 0 0 1
36.335805 26.637563 7.227506 45.629896 0.632593 1.411732 0.116401 -0.028038 57611.300000 0 0 1
35.381855 25.702203 8.041706 44.465132 0.628240 1.388941 0.105101 -0.016678 72872.100000 0 0 1
35.259685 24.471653 7.344406 43.543628 0.606715 1.401318 0.101476 -0.024860 -293366.000000 0 0 1
34.307415 23.647273 7.919506 42.413569 0.603492 1.382973 0.104540 -0.023637 -1039610.000000 0 0 1
34.166475 22.254463 7.201806 41.406222 0.577326 1.395977 0.101868 -0.023445 452610.000000 0 0 1
35.179145 21.331763 7.589006 41.835504 0.545094 1.388385 0.109325 -0.018145 1432200.000000 0 0 1
36.558225 21.655063 7.275206 43.108865 0.534771 1.401221 0.104222 -0.016787 610562.000000 0 0 1
37.465445 20.434463 7.169906 43.273946 0.499321 1.404342 0.061626 -0.005715 -174144.000000 0 0 1
37.105505 19.544663 6.112506 42.381306 0.484804 1.426065 0.091800 -0.015792 353404.000000 0 0 1
37.998405 18.426463 6.117906 42.671327 0.451517 1.426928 0.110619 -0.019399 176090.000000 0 0 1
37.574495 17.273363 5.225506 41.683542 0.430899 1.445104 0.115472 -0.032904 -380668.000000 0 0 1
37.864095 17.443063 3.872106 41.868167 0.431696 1.478181 0.136262 -0.034256 372003.000000 0 0 1
37.281795 16.419063 3.010606 40.848276 0.414846 1.497027 0.135632 -0.034862 22075.900000 0 0 1
38.153045 16.256563 1.694206 41.506639 0.402792 1.529967 0.162737 -0.031060 1831960.000000 0 0 1
-37.051913 15.426763 1.935006 40.181756 -0.394526 1.522621 0.158034 -0.050522 1028990.000000 0 0 1
-35.912447 16.197463 2.148906 39.454777 -0.423707 1.516304 0.175263 -0.052631 -162636.000000 0 0 1
-34.587859 15.363563 2.262606 37.914093 -0.418011 1.511084 0.195859 -0.050980 438844.000000 0 0 1
-34.362471 14.536263 3.387706 37.464101 -0.400199 1.480247 0.214015 -0.052096 567480.000000 0 0 1
-32.974613 14.278563 3.603106 36.113499 -0.408641 1.470858 0.224719 -0.066619 422703.000000 0 0 1
-32.709883 13.437363 4.859806 35.694774 -0.389786 1.434223 0.262562 -0.058702 -115685.000000 0 0 1
-32.946683 12.022063 4.785306 35.396512 -0.349882 1.435190 0.291116 -0.059657 374699.000000 0 0 1
-32.386133 11.410363 5.945906 34.848411 -0.338742 1.399335 0.256791 -0.039283 -653.669000 0 0 1
-32.500863 9.903163 6.114606 34.521980 -0.295767 1.392735 0.302500 -0.046312 -28147.300000 0 0 1
-33.805313 9.428363 6.383106 35.671238 -0.271990 1.390885 0.296105 -0.031007 22849.000000 0 0 1
-33.900063 8.045963 6.404006 35.425458 -0.233032 1.389023 0.322255 -0.034338 -554739.000000 0 0 1
-35.313368 7.479563 6.298506 36.642175 -0.208721 1.398046 0.269348 -0.020927 -309915.000000 0 0 1
-36.006053 7.412263 7.531806 37.524733 -0.203025 1.368708 0.248240 -0.025531 -320601.000000 0 0 1
-37.205573 6.709763 7.448306 38.532490 -0.178425 1.376273 0.181591 -0.031613 -174887.000000 0 0 1
-37.711473 6.126263 8.804306 39.207169 -0.161044 1.344306 0.162147 -0.038293 -12283.600000 0 0 1
37.949025 6.912763 9.712606 39.777500 0.180184 1.324129 0.174467 -0.036014 162606.000000 0 0 1
-37.703493 7.885763 10.393006 39.896782 -0.206180 1.307259 0.197704 -0.039670 -431404.000000 0 0 1
37.899005 8.670863 11.445506 40.527991 0.224918 1.284491 0.160107 -0.040634 -443782.000000 0 0 1
37.580095 7.926063 12.639606 40.433225 0.207865 1.252863 0.143840 -0.044152 486335.000000 0 0 1
37.088435 8.770163 13.647006 40.480966 0.232201 1.226939 0.160053 -0.046580 -267093.000000 0 0 1
36.233275 8.023263 14.710406 39.920158 0.217917 1.193406 0.179706 -0.047857 910464.000000 0 0 1
34.824015 7.802063 14.493506 38.518125 0.220403 1.185021 0.177115 -0.050850 1205330.000000 0 0 1
34.310045 7.128663 15.627706 38.369548 0.204857 1.151307 0.166197 -0.042242 208188.000000 0 0 1
32.759835 7.060863 15.668206 36.993990 0.212287 1.133454 0.181220 -0.034068 -878637.000000 0 0 1
32.146245 8.291963 15.875006 36.798825 0.252442 1.124753 0.166016 -0.040701 -155608.000000 0 0 1
30.748965 8.131363 15.733206 35.484528 0.258526 1.111428 0.162517 -0.037737 -75126.300000 0 0 1
30.043365 7.629563 16.987306 35.346607 0.248694 1.069466 0.150750 -0.040547 -1313340.000000 0 0 1
30.060865 8.612163 17.994606 36.078121 0.279017 1.048620 0.175835 -0.047343 111376.000000 0 0 1
29.323765 8.289163 19.146306 35.988532 0.275490 1.009822 0.163794 -0.035320 -275778.000000 0 0 1
30.011565 7.338063 20.200506 36.913435 0.239803 0.991733 0.160358 -0.031145 71243.800000 0 0 1
29.420165 7.226563 21.508606 37.153593 0.240864 0.953404 0.133906 -0.015575 263225.000000 0 0 1
30.029065 6.139763 22.186306 37.837463 0.201681 0.944241 0.145754 -0.019053 208520.000000 0 0 1
29.069465 5.547563 23.312406 37.673300 0.188571 0.903576 0.130606 -0.012945 1318010.000000 0 0 1
27.765865 5.156763 22.835406 36.317919 0.183631 0.890833 0.119518 -0.010144 620816.000000 0 0 1
26.834565 6.112963 23.322506 36.074943 0.223980 0.867807 0.121243 -0.000822 476134.000000 0 0 1
25.349265 5.820063 22.919506 34.666441 0.225684 0.848454 0.108085 -0.005483 593246.000000 0 0 1
24.984065 6.075363 21.547706 33.547238 0.238540 0.873289 0.115452 0.007667 24982.200000 0 0 1
23.647365 5.824263 21.195606 32.285812 0.241490 0.854628 0.123227 0.005892 -1043370.000000 0 0 1
23.290465 4.339063 20.818806 31.538800 0.184191 0.849843 0.135248 -0.007324 584441.000000 0 0 1
21.925265 4.058263 20.477406 30.273931 0.183024 0.827927 0.137164 -0.017458 1260830.000000 0 0 1
20.941965 4.291263 21.495206 30.315420 0.202114 0.782644 0.164642 -0.014859 -69913.300000 0 0 1
19.522165 4.264063 20.866406 28.891245 0.215044 0.763761 0.244949 -0.032135 74241.600000 0 0 1
18.818265 3.058763 20.617906 28.081688 0.161133 0.746291 0.233632 -0.036479 -133234.000000 0 0 1
17.633765 3.325263 19.912506 26.805129 0.186385 0.733461 0.283394 -0.052472 149070.000000 0 0 1
16.491965 2.377563 20.420606 26.356002 0.143178 0.684399 0.304444 -0.058796 -93990.100000 0 0 1
16.677465 0.988863 20.166606 26.187930 0.059224 0.691841 0.225742 -0.033224 463137.000000 0 0 1
15.651165 0.191763 20.823306 26.050063 0.012252 0.644572 0.266262 -0.043804 574503.000000 0 0 1
15.972565 -1.342237 20.904806 26.342653 -0.083837 0.654138 0.195517 -0.028273 -40659.700000 0 0 1
15.542065 -2.014237 19.704506 25.176983 -0.128881 0.671901 0.230959 -0.028309 -117492.000000 0 0 1
15.658865 -3.413737 19.759206 25.441696 -0.214648 0.681472 0.173714 -0.029345 -295319.000000 0 0 1
15.033365 -4.255737 18.629706 24.314179 -0.275868 0.697878 0.161066 -0.028463 616010.000000 0 1 0
13.611465 -4.255537 18.496606 23.356070 -0.303016 0.656817 0.171310 -0.032183 280295.000000 0 1 0
13.238165 -5.199337 17.550006 22.589485 -0.374244 0.681053 0.168109 -0.029202 55127.100000 0 1 0
11.765865 -5.272137 17.110606 21.424375 -0.421262 0.645746 0.148146 -0.026523 133122.000000 0 1 0
10.827965 -5.713437 18.058806 21.817623 -0.485527 0.595770 0.142653 -0.017789 -757202.000000 0 1 0
9.543365 -5.763037 17.528006 20.773045 -0.543267 0.566497 0.138756 -0.038871 -597631.000000 0 1 0
8.507065 -6.404537 18.431906 21.286695 -0.645322 0.523872 0.152005 -0.045418 -332383.000000 0 1 0
8.553865 -7.838937 18.420506 21.769992 -0.741813 0.562092 0.144481 -0.048655 -27425.400000 0 1 0
9.623165 -8.494837 19.060706 22.979949 -0.723202 0.592675 0.169252 -0.052665 121547.000000 0 1 0
9.470465 -9.986137 18.737306 23.248640 -0.811896 0.633513 0.173689 -0.052323 262836.000000 0 1 0
9.739965 -10.207637 17.350106 22.362668 -0.808839 0.682733 0.160125 -0.038862 -176798.000000 0 1 0
10.063165 -11.551037 17.057606 22.927182 -0.854127 0.731774 0.167470 -0.043727 188916.000000 0 1 0
9.833065 -11.939537 15.587706 21.959469 -0.881847 0.781526 0.151611 -0.038652 -77628.400000 0 1 0
10.598465 -13.041037 15.179406 22.645319 -0.888359 0.836169 0.146256 -0.038153 -170097.000000 0 1 0
10.246865 -13.484537 13.897106 21.908001 -0.920991 0.883643 0.120553 -0.019650 57813.100000 0 1 0
11.267565 -14.548137 13.393706 22.759562 -0.911797 0.941610 0.161937 -0.035545 558443.000000 0 1 0
12.509365 -13.975137 13.014206 22.828890 -0.840686 0.964198 0.137803 -0.043581 106495.000000 0 1 0
12.617265 -13.738137 11.597506 21.964379 -0.827902 1.014536 0.088837 -0.029771 105662.000000 0 1 0
13.900965 -12.972437 11.138106 22.035842 -0.750860 1.040888 0.115805 -0.042182 841235.000000 0 1 0
15.000065 -13.843837 10.879206 23.130302 -0.745334 1.081115 0.128526 -0.030375 -756986.000000 0 1 0
16.101165 -13.167137 10.403106 23.256088 -0.685486 1.107021 0.104116 -0.044011 -110222.000000 0 1 0
17.154065 -14.236037 9.869706 24.379044 -0.692704 1.153988 0.097314 -0.045546 293953.000000 0 1 0
17.785565 -15.021237 10.842006 25.680985 -0.701336 1.134947 0.096417 -0.031922 334140.000000 0 0 1
17.013265 -16.165537 11.206106 26.006780 -0.759853 1.125316 0.153942 -0.028008 -121612.000000 0 0 1
17.580265 -16.914537 12.406406 27.369439 -0.766101 1.100339 0.123629 -0.028493 -442705.000000 0 0 1
18.699365 -17.676937 12.033206 28.406661 -0.757299 1.133375 0.134945 -0.039962 -159643.000000 0 0 1
19.040565 -18.531137 13.041106 29.597578 -0.771840 1.114514 0.093120 -0.033587 -636941.000000 0 0 1
20.277165 -19.365637 12.667306 30.767710 -0.762409 1.146469 0.053147 -0.028205 -179889.000000 0 0 1
21.415665 -18.514537 12.721106 31.036194 -0.712871 1.148474 0.052333 -0.027436 -314271.000000 0 0 1
22.602965 -19.260637 12.524306 32.229248 -0.705729 1.171684 0.041217 -0.024290 161789.000000 0 0 1
23.441765 -18.510437 11.444506 31.986393 -0.668389 1.204893 0.074511 -0.025669 -641698.000000 0 0 1
23.149565 -18.721437 10.043806 31.420894 -0.680033 1.245432 0.065188 -0.020643 -12105.200000 0 0 1
21.890365 -18.406537 9.490406 30.133976 -0.699159 1.250402 0.078194 -0.029020 -175631.000000 0 0 1
21.528565 -16.900037 9.547506 28.986984 -0.665531 1.235158 0.156631 -0.045909 -300463.000000 0 0 1
22.532765 -16.033637 9.023206 29.089883 -0.618449 1.255410 0.135287 -0.030699 244826.000000 0 0 1
22.139065 -14.680937 8.903606 28.016822 -0.585546 1.247393 0.160152 -0.037400 -115152.000000 0 0 1
-36.795233 24.864503 7.771206 45.083526 -0.594267 1.397558 0.121543 -0.024036 255335.000000 0 0 1
-35.950293 24.303403 8.801706 44.278087 -0.594456 1.370681 0.150301 -0.019294 409398.000000 0 0 1
-34.915045 25.183103 9.192406 44.019875 -0.624858 1.360424 0.179208 -0.029672 -977469.000000 0 0 1
-33.866053 24.366303 9.907306 42.881009 -0.623687 1.337648 0.218110 -0.030475 -261191.000000 0 0 1
-32.987163 23.661003 9.000406 41.581285 -0.622229 1.352616 0.239355 -0.029923 153382.000000 0 0 1
-32.259153 22.630503 9.578006 40.552815 -0.611747 1.332357 0.232682 -0.032119 -323083.000000 0 0 1
-31.421173 21.930903 8.531806 39.256163 -0.609359 1.351711 0.197762 -0.037887 -499157.000000 0 0 1
-32.156303 21.062803 7.738206 39.211597 -0.579891 1.372148 0.204436 -0.042490 80708.400000 0 0 1
-31.329423 20.190103 7.008706 37.924859 -0.572461 1.384923 0.221301 -0.050615 164412.000000 0 0 1
-32.227043 19.367603 6.063806 38.084854 -0.541135 1.410898 0.207781 -0.037770 359045.000000 0 0 1
-32.986343 18.289903 6.668906 38.302659 -0.506268 1.395794 0.220466 -0.042258 1055900.000000 0 0 1
-33.856943 17.735303 5.644106 38.635340 -0.482530 1.424185 0.159258 -0.039456 202239.000000 0 0 1
-34.578181 16.491803 6.122706 38.795846 -0.445032 1.412315 0.143842 -0.028899 -307781.000000 0 0 1
-35.435283 16.637203 7.231506 39.808924 -0.438959 1.388127 0.096859 -0.020489 255758.000000 0 0 1
-36.157553 15.437803 7.469606 40.018613 -0.403529 1.383042 0.104297 -0.025894 -176733.000000 0 0 1
-37.086193 15.558503 8.676706 41.142896 -0.397222 1.358309 0.088933 -0.015699 -125673.000000 0 0 1
-38.068033 16.575203 8.562106 42.393657 -0.410655 1.367431 0.109040 -0.023331 162689.000000 0 0 1
37.738445 16.852303 9.808506 42.478197 0.419986 1.337787 0.119402 -0.016315 -376665.000000 0 0 1
36.678195 17.930703 9.838106 41.995101 0.454700 1.334331 0.081960 -0.011644 81006.200000 0 0 1
35.409115 17.611203 9.295006 40.624587 0.461536 1.339949 0.091846 -0.016097 329077.000000 0 0 1
34.539275 18.727203 9.329806 40.382112 0.496835 1.337652 0.091151 -0.016443 563327.000000 0 0 1
33.118025 18.610703 8.719006 38.976698 0.511972 1.345189 0.100223 -0.026625 523539.000000 0 0 1
32.284845 19.762503 8.984206 38.904804 0.549290 1.337765 0.101380 -0.021625 889790.000000 0 0 1
30.889865 19.662703 8.694706 37.635138 0.566856 1.337664 0.078326 -0.017619 741897.000000 0 0 1
30.478665 19.475203 7.217506 36.882584 0.568588 1.373837 0.057583 -0.016261 -1035520.000000 0 0 1
30.496165 18.178403 6.681506 36.126347 0.537538 1.384777 0.071159 -0.012413 162021.000000 0 0 1
30.199665 18.152203 5.285406 35.629451 0.541208 1.421903 0.057945 -0.022026 -834355.000000 0 0 1
28.857265 18.561803 4.695806 34.631386 0.571600 1.434783 0.077163 -0.025069 -1683240.000000 0 0 1
27.828165 17.603003 4.980706 33.302852 0.564018 1.420675 0.077750 -0.028356 1005460.000000 0 0 1
26.523565 17.912603 4.494406 32.319662 0.593988 1.431283 0.106976 -0.029758 402461.000000 0 0 1
25.879465 19.214103 4.915206 32.605026 0.638649 1.419469 0.114443 -0.026348 -1492890.000000 0 0 1
26.444565 20.356903 4.261206 33.643371 0.656050 1.443797 0.090120 -0.024571 238194.000000 0 0 1
25.784765 21.503703 4.700606 33.902199 0.695113 1.431696 0.101501 -0.019491 -449480.000000 0 0 1
26.579465 22.759403 4.315806 35.257405 0.708127 1.448080 0.066440 -0.008413 565094.000000 0 0 1
27.746065 22.809203 5.164306 36.287380 0.688054 1.427995 0.071885 -0.019954 293410.000000 0 0 1
28.626465 23.851103 4.879706 37.578733 0.694650 1.440576 0.078387 -0.016221 -1389520.000000 0 0 1
29.855565 23.725103 5.740806 38.564131 0.671478 1.421377 0.094350 -0.020118 -1285020.000000 0 0 1
30.754465 22.663803 5.581706 38.608815 0.635082 1.425717 0.075067 -0.020066 273622.000000 0 0 1
31.447265 22.487003 4.357706 38.904825 0.620769 1.458551 0.072572 -0.019837 277953.000000 0 0 1
32.447865 23.638603 3.884906 40.332865 0.629605 1.474326 0.098317 -0.026851 129205.000000 0 0 1
31.766445 24.815903 3.590206 40.470059 0.663171 1.481967 0.083475 -0.020713 151783.000000 0 0 1
32.635185 25.576003 2.759006 41.554776 0.664719 1.504353 0.124625 -0.016671 -326385.000000 0 0 1
32.226675 27.053003 2.827306 42.171285 0.698343 1.503703 0.120025 -0.015744 471138.000000 0 0 1
30.987965 27.510503 2.334006 41.503366 0.726023 1.514530 0.124340 -0.019992 121824.000000 0 0 1
29.823665 27.024903 2.976106 40.356581 0.736206 1.496984 0.094297 -0.015759 -223463.000000 0 0 1
28.490365 27.599303 2.432606 39.740911 0.769513 1.509546 0.068672 -0.005993 182476.000000 0 0 1
28.261765 28.978703 2.761106 40.572359 0.797923 1.502690 0.058007 -0.003876 258768.000000 0 0 1
27.103265 29.386303 2.031806 40.028366 0.825791 1.520015 0.046452 -0.005989 720855.000000 0 0 1
26.540165 30.804203 2.450106 40.734290 0.859620 1.510612 0.058389 -0.008490 48921.800000 0 0 1
26.147665 30.943603 3.827506 40.692220 0.869206 1.476597 0.042042 -0.016171 529183.000000 0 0 1
27.213365 31.106903 4.788406 41.606917 0.852061 1.455454 0.054879 -0.018795 341183.000000 0 0 1
26.726365 30.975803 6.271006 41.389908 0.858910 1.418700 0.034775 -0.027714 -112817.000000 0 0 1
26.366565 29.665803 6.756806 40.260528 0.844211 1.402171 0.043451 -0.036663 -384908.000000 0 0 1
27.282365 28.632103 6.593006 40.094794 0.809533 1.405611 0.085025 -0.043023 -542793.000000 0 0 1
26.820265 27.282303 7.161306 38.922166 0.793938 1.385752 0.101955 -0.048403 -59476.700000 0 0 1
25.713665 26.803203 6.420106 37.693793 0.806142 1.399639 0.064058 -0.041650 114059.000000 0 0 1
25.291265 25.486903 6.798906 36.543884 0.789251 1.383658 0.071035 -0.036915 659655.000000 0 0 1
23.924465 25.065503 6.111906 35.185436 0.808685 1.396205 0.069583 -0.019282 759803.000000 0 0 1
23.954565 24.903003 4.724806 34.875558 0.804808 1.434902 0.063645 -0.025336 112994.000000 0 0 1
24.013065 26.135503 4.017806 35.718827 0.827696 1.458074 0.057781 -0.021616 -407767.000000 0 0 1
24.188065 25.986103 2.477006 35.587577 0.821219 1.501137 0.064527 -0.008853 -614292.000000 0 0 1
25.354765 25.339803 2.094406 35.907608 0.785103 1.512436 0.047727 0.007020 -494414.000000 0 0 1
25.488265 25.280003 0.714206 35.905993 0.781296 1.550904 0.059933 -0.000477 259074.000000 0 0 1
26.736265 24.599203 0.075406 36.331177 0.743793 1.568721 0.074775 -0.005752 426174.000000 0 0 1
27.929565 25.428603 0.033006 37.771359 0.738561 1.569923 0.076260 -0.000424 278730.000000 0 0 1
28.988265 24.847003 -0.608894 38.184602 0.708625 1.586743 0.078269 0.003061 -375047.000000 0 0 1
29.793765 23.672803 -0.000094 38.053516 0.671412 1.570799 0.075207 -0.001988 -334215.000000 0 0 1
28.950365 22.514003 0.107106 36.674453 0.660980 1.567876 0.068685 -0.004924 505770.000000 0 0 1
29.346965 21.646003 1.158106 36.484724 0.635511 1.539049 0.067485 -0.004993 678946.000000 0 0 1
28.149665 20.665103 1.543006 34.954700 0.633257 1.526639 0.060076 -0.016688 854522.000000 0 0 1
27.822565 19.742003 0.449506 34.118088 0.617119 1.557621 0.075073 -0.026558 218927.000000 0 0 1
26.611165 19.104603 0.764206 32.767728 0.622650 1.547472 0.072893 -0.021361 -528961.000000 0 0 1
26.100965 17.982503 -0.198494 31.696533 0.603278 1.577059 0.082613 -0.025674 -916369.000000 0 0 1
24.778165 17.727803 0.153206 30.467293 0.621027 1.565768 0.088161 -0.023344 -322010.000000 0 0 1
24.203365 16.687903 -0.657394 29.406142 0.603635 1.593154 0.112546 -0.050055 586672.000000 0 0 1
22.685165 16.401603 -0.488294 27.997638 0.626003 1.588238 0.113258 -0.031437 -660648.000000 0 0 1
22.174765 15.306703 -1.182494 26.970608 0.604170 1.614654 0.129324 -0.039720 383212.000000 0 0 1
20.814165 14.993003 -0.898094 25.667610 0.624238 1.605793 0.166416 -0.040582 1025150.000000 0 0 1
19.770465 15.987303 -1.562194 25.473626 0.679991 1.632161 0.188213 -0.041957 -433277.000000 0 0 1
19.659265 17.240603 -0.807394 26.160600 0.719945 1.601664 0.154793 -0.033859 141872.000000 0 0 1
18.634465 18.069303 -1.317494 25.989975 0.770001 1.621510 0.141505 -0.039267 74978.200000 0 0 1
18.659765 19.513603 -0.811594 27.011595 0.807762 1.600847 0.142600 -0.034464 -90301.000000 0 0 1
18.085665 19.676203 0.461806 26.729339 0.827493 1.553518 0.151183 -0.029946 -4510.220000 0 0 1
18.205065 21.013603 0.984506 27.820230 0.856888 1.535401 0.160690 -0.032106 532257.000000 0 0 1
17.083965 22.037903 0.520606 27.889103 0.911356 1.552128 0.149793 -0.043045 401226.000000 0 0 1
15.863165 21.750403 1.161906 26.945688 0.940657 1.527663 0.127375 -0.040696 -149756.000000 0 0 1
14.841265 22.572903 0.612906 27.021746 0.989180 1.548112 0.101322 -0.039881 -319780.000000 0 0 1
13.436265 22.280203 1.103506 26.041475 1.028131 1.528409 0.080773 -0.045538 -461261.000000 0 0 1
13.230465 22.712803 2.453906 26.399589 1.043335 1.477710 0.072802 -0.015132 -435696.000000 0 0 1
11.904065 22.856003 2.893306 25.932121 1.090625 1.458991 0.054358 -0.019452 -18968.200000 0 0 1
11.751465 23.403903 4.346006 26.546702 1.105458 1.406344 0.070164 -0.022105 157111.000000 0 0 1
12.144465 22.411903 5.288106 26.033546 1.074212 1.366246 0.074875 -0.038940 -36789.000000 0 0 1
11.520165 22.652303 6.530006 26.238941 1.100320 1.319286 0.068498 -0.022529 -856655.000000 0 0 1
11.974665 21.779503 7.710006 26.022751 1.068096 1.270002 0.073864 -0.020510 874496.000000 0 0 1
13.236365 22.036003 8.365306 27.032668 1.029884 1.256180 0.087912 -0.019065 541150.000000 0 0 1
14.346265 21.776803 7.545306 27.147304 0.988269 1.289148 0.101845 -0.012352 -945028.000000 0 0 1
15.638965 21.690103 8.379106 28.022263 0.946103 1.267135 0.119751 -0.023718 -593986.000000 0 0 1
15.740765 20.383103 8.958306 27.267083 0.913209 1.236040 0.122436 -0.027926 919221.000000 0 0 1
17.071965 20.153803 9.478106 28.061758 0.867998 1.226262 0.125480 -0.037257 1005030.000000 0 0 1
17.454965 20.909103 10.722206 29.271695 0.875192 1.195767 0.099338 -0.032623 -1247070.000000 0 0 1
16.827065 20.509303 11.874106 29.065031 0.883704 1.149947 0.096493 -0.037589 -291863.000000 0 0 1
17.169565 21.206603 13.040506 30.241838 0.890209 1.124966 0.091895 -0.039472 120888.000000 0 0 1
18.370665 20.825203 13.931906 31.068770 0.847939 1.105798 0.101401 -0.028492 963178.000000 0 0 1
19.716865 21.207803 13.649006 32.012827 0.821813 1.130331 0.119645 -0.031101 819678.000000 0 0 1
20.609065 20.725503 14.659406 32.698291 0.788215 1.105908 0.131571 -0.038069 478511.000000 0 0 1
22.101365 21.087003 14.516206 33.820885 0.761916 1.127180 0.146338 -0.043050 -104307.000000 0 0 1
22.765765 20.416003 13.509906 33.430687 0.731036 1.154783 0.157744 -0.055703 -723855.000000 0 0 1
24.078465 20.879903 13.407906 34.576217 0.714373 1.172576 0.174629 -0.056889 -154976.000000 0 0 1
24.907765 20.085703 12.317406 34.286305 0.678633 1.203331 0.173190 -0.056744 297781.000000 0 0 1
24.569565 20.549503 11.051406 33.883317 0.696534 1.238557 0.176514 -0.044797 715394.000000 0 0 1
25.520665 20.084603 10.081606 34.004918 0.666760 1.269797 0.174253 -0.063531 206279.000000 0 0 1
25.317365 20.863603 8.708806 33.942632 0.689254 1.311320 0.152206 -0.056887 -19276.700000 0 0 1
25.782665 22.198003 8.701906 35.117237 0.710826 1.320392 0.125322 -0.045306 507542.000000 0 0 1
27.184265 22.392803 8.529406 36.237725 0.689051 1.333193 0.106893 -0.051104 186422.000000 0 0 1
27.678365 23.627803 9.296406 37.560460 0.706613 1.320692 0.146521 -0.055509 134059.000000 0 0 1
29.009565 24.083803 9.072806 38.780153 0.692888 1.334653 0.143290 -0.044683 645758.000000 0 0 1
29.261765 25.283003 9.803606 39.894760 0.712582 1.322517 0.150065 -0.038875 -66232.900000 0 0 1
30.636465 25.884003 9.474506 41.210932 0.701512 1.338819 0.139819 -0.045832 -33147.700000 0 0 1
30.653865 26.590103 8.261206 41.411841 0.714527 1.369960 0.136946 -0.050460 -23787.000000 0 0 1
31.949445 27.076503 8.024006 42.641397 0.703029 1.381494 0.141287 -0.040326 -274377.000000 0 0 1
31.990875 27.954303 6.753006 43.017000 0.718162 1.413160 0.152221 -0.026177 83336.900000 0 0 1
31.473465 29.292603 6.881506 43.542976 0.749524 1.412092 0.159379 -0.027113 154820.000000 0 0 1
31.317565 29.900003 5.618406 43.661958 0.762246 1.441759 0.168244 -0.009738 17489.600000 0 0 1
31.212065 31.403903 5.668006 44.637702 0.788462 1.443475 0.122647 -0.009278 -144396.000000 0 0 1
30.077865 31.939003 6.299106 44.322192 0.815399 1.428193 0.122186 -0.023374 -340473.000000 0 0 1
30.142265 33.324903 6.523206 45.405479 0.835502 1.426632 0.099145 -0.004597 -109844.000000 0 0 1
28.811165 -33.373956 6.843206 44.617639 -0.858641 1.416814 0.092641 -0.024121 622458.000000 0 0 1
27.866465 -33.381056 5.738106 43.860696 -0.875194 1.439595 0.082569 -0.016103 412329.000000 0 0 1
26.699365 -32.644856 6.054906 42.605219 -0.885251 1.428197 0.075469 -0.022320 120540.000000 0 0 1
25.657565 -32.684156 4.937306 41.844256 -0.905259 1.452528 0.062126 -0.020099 -139293.000000 0 0 1
26.147065 -31.883256 3.898206 41.417473 -0.883926 1.476537 0.053851 -0.005311 715907.000000 0 0 1
25.207365 -31.898856 2.778306 40.751286 -0.902042 1.502566 0.057558 -0.015366 725667.000000 0 0 1
25.672465 -31.114056 1.539906 40.367453 -0.880932 1.532640 0.062213 -0.004411 62352.300000 0 0 1
25.544565 -29.697356 1.680706 39.208195 -0.860432 1.527917 0.071883 -0.000534 184481.000000 0 0 1
26.459065 -29.064856 0.801106 39.312718 -0.832295 1.550417 0.064129 0.004724 -296511.000000 0 0 1
26.570465 -27.558956 1.084106 38.297010 -0.803658 1.542485 0.078899 -0.007477 142077.000000 0 0 1
25.441565 -26.719556 0.864806 36.904686 -0.809894 1.547361 0.081781 -0.009589 112482.000000 0 0 1
24.899565 -26.645456 -0.443094 36.471428 -0.819256 1.582946 0.076160 -0.011433 998232.000000 0 0 1
23.570265 -25.739856 -0.497994 34.904808 -0.829369 1.585064 0.063511 -0.003304 1142970.000000 0 0 1
23.746065 -24.325656 -0.327094 33.995885 -0.797454 1.580418 0.089534 -0.023503 -124557.000000 0 0 1
23.943765 -23.839656 1.012906 33.803241 -0.783219 1.540827 0.065424 -0.006173 -298208.000000 0 0 1
22.628365 -23.674956 1.768406 32.797466 -0.807997 1.516851 0.056441 -0.011021 -250151.000000 0 0 1
22.766465 -23.093156 3.062406 32.572752 -0.792522 1.476640 0.049693 -0.011659 469295.000000 0 0 1
21.509865 -23.045756 3.749806 31.746531 -0.819856 1.452403 0.067525 -0.012799 351119.000000 0 0 1
21.545065 -22.366856 5.122806 31.475534 -0.804111 1.407314 0.040438 -0.008710 -294614.000000 0 0 1
21.641865 -20.950356 5.209806 30.568445 -0.769164 1.399529 0.069518 -0.004013 689718.000000 0 0 1
20.534965 -20.268256 4.582406 29.214474 -0.778862 1.413292 0.049595 -0.002307 -222759.000000 0 0 1
20.413665 -18.749256 4.861706 28.140514 -0.742924 1.397160 0.053064 0.000533 115716.000000 0 0 1
19.982465 -18.434756 6.191506 27.883219 -0.745133 1.346879 0.076101 -0.007328 1363610.000000 0 0 1
18.613965 -18.762956 6.564606 27.232743 -0.789384 1.327343 0.053438 0.002390 1212670.000000 0 0 1
20.099477 -25.882377 -12.307994 35.005330 -0.910506 1.930080 0.096729 -0.027516 161513.000000 0 0 1
20.161277 -24.609197 -12.813194 34.296758 -0.884423 1.953681 0.115505 -0.021856 206538.000000 0 0 1
18.870577 -24.116697 -13.178294 33.337384 -0.906837 1.977192 0.090501 -0.028440 383945.000000 0 0 1
18.877577 -22.595897 -13.563494 32.417678 -0.874814 2.002477 0.075429 -0.041032 -16503.700000 0 0 1
19.141277 -21.597997 -12.577594 31.481071 -0.845629 1.981799 0.087029 -0.040351 -961510.000000 0 0 1
20.351377 -21.581397 -11.917694 31.968214 -0.814723 1.952819 0.085713 -0.031385 -1359260.000000 0 0 1
20.256477 -22.268097 -10.540094 31.894931 -0.832668 1.907590 0.083829 -0.021005 386543.000000 0 0 1
19.361977 -21.618397 -9.651594 30.584220 -0.840404 1.891858 0.093938 -0.023441 148349.000000 0 0 1
17.971277 -21.726797 -9.848494 29.866592 -0.879720 1.906835 0.096613 -0.007834 -112892.000000 0 0 1
17.107977 -21.113497 -8.692294 28.531011 -0.889815 1.880379 0.090308 -0.011459 -719500.000000 0 0 1
17.123977 -19.696997 -8.691194 27.508892 -0.855164 1.892245 0.079494 -0.022894 1325330.000000 0 0 1
16.118477 -19.161597 -7.749394 26.211166 -0.871441 1.870935 0.091533 -0.032940 1680530.000000 0 0 1
14.613577 -19.349897 -8.108994 25.568163 -0.923958 1.893521 0.080705 -0.019998 -123321.000000 0 0 1
14.082177 -20.638497 -8.054294 26.251227 -0.972031 1.882642 0.068689 -0.022273 130686.000000 0 0 1
12.691277 -20.603997 -8.388094 25.611586 -1.018723 1.904465 0.071921 -0.025754 342003.000000 0 0 1
11.968177 -21.905597 -8.158094 26.261130 -1.070758 1.886676 0.081143 -0.025928 -287887.000000 0 0 1
11.845377 -22.201797 -6.788394 26.063673 -1.080684 1.834289 0.083296 -0.026256 59859.500000 0 0 1
11.215277 -23.439997 -6.575994 26.804097 -1.124523 1.818662 0.064068 -0.025152 -249816.000000 0 0 1
11.869077 -24.239197 -5.478794 27.539623 -1.115451 1.771075 0.069454 -0.014995 -122675.000000 0 0 1
11.028377 -25.185847 -4.828494 27.915342 -1.158067 1.744640 0.075208 -0.008128 54293.900000 0 0 1
11.672377 -25.705447 -3.693094 28.471974 -1.144553 1.700873 0.065506 -0.017731 -270465.000000 0 0 1
10.748677 -26.550237 -2.800494 28.780061 -1.186122 1.668257 0.073780 -0.018685 -8834.550000 0 0 1
10.010577 -25.902057 -1.814894 27.828439 -1.202001 1.636060 0.047162 -0.010016 -794043.000000 0 0 1
9.310477 -26.773427 -1.023594 28.364575 -1.236127 1.606891 0.043329 -0.013991 -207149.000000 0 0 1
8.592177 -26.082487 0.145806 27.461662 -1.252569 1.565487 0.051825 -0.015885 -755574.000000 0 0 1
7.256977 -25.785337 -0.056594 26.787133 -1.296455 1.572909 0.036956 -0.019659 -1002110.000000 0 0 1
6.697677 -25.223657 1.115306 26.121555 -1.311254 1.528087 0.041884 -0.014950 -56073.200000 0 0 1
5.260977 -24.680497 1.029806 25.255995 -1.360776 1.530010 0.066099 -0.029871 521480.000000 0 0 1
4.238177 -25.670277 0.862106 26.032066 -1.407172 1.537673 0.069148 -0.036573 93854.500000 0 0 1
2.967177 -25.122847 1.115006 25.322022 -1.453234 1.526749 0.076655 -0.045888 227709.000000 0 0 1
1.751577 -25.990367 0.678006 26.058144 -1.503505 1.544774 0.090631 -0.042612 288629.000000 0 0 1
1.563977 -26.967817 1.610006 27.061066 -1.512867 1.511266 0.089253 -0.047681 -26424.000000 0 0 1
2.096177 -28.196817 1.143806 28.297751 -1.496592 1.530365 0.069851 -0.043060 -182012.000000 0 0 1
1.557577 -29.380207 2.045606 29.492492 -1.517831 1.501380 0.110268 -0.049422 100269.000000 0 0 1
1.949677 -29.313367 3.366006 29.570335 -1.504383 1.456719 0.071900 -0.040564 -122336.000000 0 0 1
1.299577 -30.350927 4.028906 30.644734 -1.528004 1.438943 0.118196 -0.048044 44636.200000 0 0 1
1.415477 -30.210637 5.537406 30.746528 -1.523977 1.389710 0.126803 -0.052942 862072.000000 0 0 1
2.783377 -30.252767 6.004806 30.968286 -1.479051 1.375658 0.052445 -0.031225 806978.000000 0 0 1
2.927777 -30.036577 7.434906 31.081275 -1.473630 1.329246 0.071005 -0.030770 109342.000000 0 0 1
4.344777 -30.502747 7.837406 31.791816 -1.429309 1.321706 0.086524 -0.032563 252789.000000 0 0 1
4.537877 -31.873387 7.576206 33.074219 -1.429375 1.339677 0.101244 -0.030543 -909856.000000 0 0 1
5.746977 -32.362477 8.032906 33.836152 -1.395047 1.331102 0.069432 -0.022819 -607477.000000 0 0 1
5.917277 33.531703 7.748606 34.920341 1.396126 1.347040 0.078934 -0.016957 -26050.700000 0 0 1
5.889177 33.137090 6.374906 34.254760 1.394911 1.383602 0.061075 -0.013677 84028.100000 0 0 1
5.624977 31.704756 6.201506 32.791624 1.395206 1.380532 0.073012 -0.013518 -639822.000000 0 0 1
5.888977 31.217493 4.789306 32.127082 1.384344 1.421165 0.070190 -0.015821 1559140.000000 0 0 1
7.286077 31.280903 4.397906 32.417949 1.341952 1.434714 0.066248 -0.010123 1551770.000000 0 0 1
8.228477 30.326553 4.901106 31.802964 1.305846 1.416071 0.070771 -0.017124 59688.100000 0 0 1
9.543977 30.336363 4.092106 32.064432 1.265995 1.442826 0.051868 -0.010660 -278176.000000 0 0 1
10.515577 31.142103 4.705906 33.204721 1.245153 1.428594 0.056762 -0.015428 -44860.800000 0 0 1
11.784377 30.926603 4.084806 33.346844 1.206738 1.447993 0.049513 -0.012711 498544.000000 0 0 1
12.988077 31.473024 4.868906 34.394006 1.179413 1.428757 0.073992 -0.031342 48677.200000 0 0 1
13.462277 30.507123 5.839906 33.852946 1.155215 1.397421 0.081085 -0.025659 -332174.000000 0 0 1
14.600677 30.964283 6.512306 34.847909 1.130181 1.382813 0.093251 -0.027503 -184585.000000 0 0 1
15.290177 29.883823 7.343106 34.362096 1.097869 1.355438 0.072597 -0.013193 -124556.000000 0 0 1
14.524977 29.464743 8.454806 33.920935 1.112796 1.318890 0.079604 -0.012631 85815.000000 0 0 1
15.237777 28.522733 9.196006 33.619975 1.080139 1.293737 0.067344 -0.020701 50074.900000 0 0 1
14.986977 28.757103 10.680806 34.141765 1.090366 1.252618 0.058001 -0.011925 223096.000000 0 0 1
15.681477 29.871983 11.245106 35.562572 1.087384 1.249069 0.049797 -0.023808 249056.000000 0 0 1
15.252877 30.014783 12.652806 35.967082 1.100627 1.211315 0.054580 -0.020889 -119093.000000 0 0 1
16.057577 30.964113 13.520206 37.408797 1.092390 1.201008 0.050282 -0.015739 -295973.000000 0 0 1
17.291377 30.399583 13.888006 37.629817 1.053632 1.192789 0.064504 -0.021088 -333316.000000 0 0 1
18.002877 31.374743 14.650706 39.027186 1.049863 1.185971 0.055695 -0.011122 -6486.600000 0 0 1
19.204877 30.709053 15.383506 39.351309 1.011923 1.169157 0.066637 -0.014766 161035.000000 0 0 1
20.290477 30.438583 14.506706 39.352958 0.982837 1.193261 0.062147 -0.011663 -135284.000000 0 0 1
20.688477 29.120583 14.810906 38.670200 0.953097 1.177748 0.051735 -0.012967 557168.000000 0 0 1
22.031577 28.712113 14.064506 38.827647 0.916298 1.200138 0.078638 -0.023699 991167.000000 0 0 1
23.197677 29.194233 14.700706 40.081744 0.899358 1.195264 0.106846 -0.025273 254384.000000 0 0 1
24.367877 28.671013 14.079906 40.175418 0.866353 1.212733 0.108926 -0.028379 346798.000000 0 0 1
25.729077 28.812953 14.776806 41.358502 0.841879 1.205436 0.141168 -0.040941 -18582.600000 0 0 1
25.763677 27.973603 15.885406 41.214508 0.826500 1.175120 0.141575 -0.029123 464694.000000 0 0 1
26.940977 28.170913 16.679406 42.398339 0.807712 1.166472 0.131789 -0.034317 373186.000000 0 0 1
27.855877 26.894483 16.759506 42.191755 0.767840 1.162308 0.099445 -0.018302 -114049.000000 0 0 1
27.463977 25.822063 17.546206 41.580264 0.754595 1.135164 0.124394 -0.020147 -13697.400000 0 0 1
27.197277 26.024793 18.958006 42.147215 0.763372 1.104250 0.143770 -0.019230 17106.000000 0 0 1
26.600977 24.758463 19.614106 41.295359 0.749539 1.075865 0.141783 -0.019250 267756.000000 0 0 1
27.521677 23.675213 19.665706 41.287994 0.710408 1.074348 0.114194 -0.024042 537161.000000 0 0 1
26.865077 22.551843 20.218006 40.485624 0.698336 1.047905 0.108804 -0.015531 762275.000000 0 0 1
27.766977 21.245463 20.072006 40.314515 0.653117 1.049638 0.078993 -0.014482 780775.000000 0 0 1
27.006777 20.067263 20.341806 39.317301 0.639035 1.027015 0.070393 0.007110 112692.000000 0 0 1
27.748577 18.898263 20.128306 39.144305 0.597897 1.030713 0.070569 -0.008380 128721.000000 0 0 1
28.571977 18.322263 21.328206 40.086850 0.570211 1.009777 0.108188 0.002053 352018.000000 0 0 1
27.714677 17.888063 22.377106 39.860018 0.573160 0.974729 0.097711 0.009583 474014.000000 0 0 1
28.478277 17.340363 23.463406 40.770478 0.546936 0.957581 0.130724 -0.002375 268966.000000 0 0 1
27.627077 16.551863 24.489306 40.459185 0.539770 0.920673 0.096764 0.002449 192227.000000 0 0 1
26.966077 15.439663 23.912806 39.209371 0.519998 0.914894 0.108402 -0.007034 227968.000000 0 0 1
26.043177 14.827163 24.776106 38.883766 0.517563 0.879958 0.101676 -0.010844 -197220.000000 0 0 1
25.361077 13.634963 24.077206 37.534095 0.493299 0.874376 0.110419 -0.013151 -417013.000000 0 0 1
24.186677 13.293263 24.764606 37.080883 0.502544 0.839475 0.088103 -0.013099 -90408.600000 0 0 1
23.547277 12.297363 23.969906 35.780662 0.481282 0.836706 0.094541 -0.017425 -41069.200000 0 0 1
22.268277 11.705263 24.629106 35.206281 0.483954 0.796007 0.084648 -0.015946 -71978.500000 0 0 1
21.175477 12.569463 24.487906 34.728227 0.535690 0.788190 0.069175 -0.017420 -609972.000000 0 0 1
19.981177 11.858863 24.709406 33.918060 0.535628 0.754662 0.083225 -0.013356 -441183.000000 0 0 1
18.754377 12.757163 24.690606 33.527569 0.597329 0.743023 0.066764 -0.017062 -545590.000000 0 0 1
18.428777 13.339863 25.924506 34.491329 0.626561 0.720276 0.093577 -0.015472 507972.000000 0 0 1
17.152977 13.988963 25.895706 34.066161 0.684146 0.707238 0.108856 -0.009913 309700.000000 0 0 1
16.724477 14.455063 27.351106 35.167314 0.712741 0.679730 0.105901 -0.004493 70756.200000 0 0 1
16.218377 13.375563 28.156306 35.138569 0.689631 0.641342 0.110420 -0.008161 121231.000000 0 0 1
16.411577 13.639463 29.525606 36.429881 0.693412 0.625829 0.098354 -0.010417 1299460.000000 0 0 1
17.853177 13.232863 30.080306 37.398789 0.637848 0.636279 0.105308 -0.017004 1479930.000000 0 0 1
18.854377 14.203763 29.786806 38.006423 0.645636 0.670146 0.123627 -0.030353 759485.000000 0 0 1
20.110777 13.595163 29.429206 38.149049 0.594446 0.689716 0.108275 -0.020958 240924.000000 0 0 1
21.191377 14.655463 29.253106 38.982063 0.605050 0.722092 0.113222 -0.027879 -693399.000000 0 0 1
20.995977 15.517163 28.129506 38.378151 0.636459 0.748139 0.117029 -0.034632 164496.000000 0 0 1
21.017477 14.856063 26.864706 37.204158 0.615304 0.763979 0.108251 -0.021320 -444657.000000 0 0 1
20.815377 15.721663 25.712006 36.627283 0.646879 0.792608 0.066656 -0.013653 592416.000000 0 0 1
22.033977 16.466263 25.506206 37.512671 0.641779 0.823121 0.073454 -0.010765 1035680.000000 0 0 1
21.921177 17.149163 24.285206 36.937827 0.663861 0.853351 0.053369 -0.004329 94251.900000 0 0 1
23.313377 17.653463 23.863306 37.744081 0.648109 0.886356 0.068865 -0.002116 -48839.500000 0 0 1
23.212177 18.279563 22.533706 37.157980 0.667072 0.919234 0.089282 -0.008294 949926.000000 0 0 1
24.422577 18.928763 22.049706 37.959846 0.659342 0.951000 0.092493 -0.004651 765123.000000 0 0 1
24.468277 20.407563 22.647706 39.090712 0.695156 0.952850 0.112590 -0.018131 -235652.000000 0 0 1
23.481277 21.333263 22.277706 38.765638 0.737504 0.958587 0.113219 -0.013861 -73978.800000 0 0 1
23.581677 22.488363 23.056906 39.917952 0.761671 0.955002 0.143238 -0.024602 787935.000000 0 0 1
22.605277 23.625053 22.528306 39.707257 0.807453 0.967500 0.145945 -0.038125 768478.000000 0 0 1
23.151677 24.149033 21.322806 39.671627 0.806480 1.003347 0.148922 -0.031401 343532.000000 0 0 1
22.407777 25.288003 20.984306 39.773517 0.845712 1.015029 0.139437 -0.029641 -328764.000000 0 0 1
22.864577 25.974333 19.713506 39.825585 0.848986 1.052966 0.139326 -0.029942 -154438.000000 0 0 1
22.637677 25.266413 18.462406 38.622746 0.840218 1.072398 0.134480 -0.035280 280004.000000 0 0 1
23.073877 26.013953 17.329506 38.851529 0.845221 1.108456 0.124506 -0.041590 -44963.800000 0 0 1
22.774577 25.153753 16.070706 37.545443 0.834998 1.128481 0.089771 -0.019525 -526821.000000 0 0 1
21.429877 25.213353 15.694406 36.623315 0.866336 1.127925 0.080431 -0.015529 -560454.000000 0 0 1
21.355377 24.877543 14.333606 35.782629 0.861434 1.158653 0.090171 -0.013212 -17498.500000 0 0 1
19.920477 24.946763 13.770306 34.767625 0.896959 1.163567 0.072273 -0.016840 -300172.000000 0 0 1
19.301477 26.246003 13.725006 35.352164 0.936701 1.172079 0.053410 -0.016224 -58456.200000 0 0 1
18.398477 26.383623 14.792406 35.403599 0.961855 1.139750 0.055090 -0.006293 -1559960.000000 0 0 1
16.975477 26.046883 14.468806 34.292175 0.993207 1.135226 0.050209 -0.016580 -1934220.000000 0 0 1
16.596777 24.646563 14.426306 33.030658 0.978153 1.118808 0.053968 -0.023980 40008.700000 0 0 1
16.430877 23.919413 15.700506 32.994211 0.968899 1.074859 0.063808 -0.023137 -72245.300000 0 0 1
15.267877 24.419843 16.591106 33.237052 1.012036 1.048150 0.114781 -0.039089 -326931.000000 0 0 1
15.471277 25.728823 17.044806 34.523299 1.029406 1.054435 0.100611 -0.041695 484826.000000 0 0 1
14.342677 26.159543 17.812306 34.746400 1.069277 1.032543 0.106499 -0.047883 485822.000000 0 0 1
14.740777 27.452843 18.593706 36.286017 1.078028 1.032795 0.105790 -0.048313 -251304.000000 0 0 1
15.167577 28.483853 17.749506 36.829747 1.081490 1.067936 0.091730 -0.039581 114188.000000 0 0 1
15.602977 29.553033 18.518706 38.207030 1.085028 1.064783 0.076974 -0.028641 -280499.000000 0 0 1
15.572677 30.848383 17.717706 38.833595 1.103305 1.097023 0.054057 -0.027718 -122185.000000 0 0 1
14.270977 31.360953 17.573906 38.678319 1.143746 1.099142 0.073392 -0.033503 -147837.000000 0 0 1
14.274177 32.597848 16.927406 39.406965 1.158061 1.126798 0.059943 -0.026984 207562.000000 0 0 1
12.953577 33.390570 17.133406 39.702379 1.200729 1.124590 0.082078 -0.035507 172274.000000 0 0 1
12.913177 -32.753547 16.432306 38.853129 -1.195254 1.134116 0.091628 -0.037287 35527.900000 0 0 1
13.657377 -31.649417 16.988906 38.429578 -1.163416 1.112881 0.078860 -0.032425 37362.400000 0 0 1
13.586877 -31.427307 18.588706 38.959194 -1.162736 1.073407 0.089342 -0.037844 -145223.000000 0 0 1
14.531477 -32.286507 19.203906 40.278683 -1.147877 1.073813 0.091596 -0.034828 64082.700000 0 0 1
14.358777 -32.431237 20.628106 41.030212 -1.153992 1.044015 0.089938 -0.036204 -444871.000000 0 0 1
15.630177 -32.881427 21.338206 42.199641 -1.127063 1.040662 0.090347 -0.028116 -160958.000000 0 0 1
16.776377 -32.038167 21.139206 41.889819 -1.088418 1.041833 0.102943 -0.027296 -157625.000000 0 0 1
17.684877 -32.565207 22.090606 43.142119 -1.073297 1.033235 0.114808 -0.025670 -1157160.000000 0 0 1
19.041977 -31.922257 21.882306 43.133081 -1.032946 1.038723 0.122988 -0.023356 -661951.000000 0 0 1
19.069077 -30.585257 22.300706 42.384067 -1.013296 1.016720 0.128157 -0.034437 -315302.000000 0 0 1
20.284677 -29.990787 21.961506 42.346466 -0.976110 1.025566 0.124437 -0.033532 -343780.000000 0 0 1
-5.105423 12.895703 18.407782 23.048014 -1.193829 0.645713 0.030870 -0.001804 -1379.650000 0 1 0
-4.802823 14.078403 17.745082 23.155053 -1.242029 0.697642 0.036333 -0.008315 -392006.000000 0 1 0
-5.947923 14.868503 17.829082 23.965107 -1.190260 0.731819 0.025901 -0.007853 -358189.000000 0 1 0
-5.703623 16.308003 17.594082 24.658345 -1.234350 0.776295 0.050845 -0.013495 -128673.000000 0 1 0
-5.117123 16.935903 18.720982 25.758201 -1.277372 0.757149 0.048901 -0.010088 247113.000000 0 0 1
-4.933023 18.327503 18.419582 26.448310 -1.307868 0.800376 0.073119 -0.011441 -444691.000000 0 0 1
-4.452423 19.075003 19.645282 27.741970 -1.341485 0.783932 0.077734 -0.010799 -366006.000000 0 0 1
-5.323023 19.150603 20.752882 28.736080 -1.299684 0.763834 0.053375 -0.003232 -3246.190000 0 0 1
-4.724123 19.783403 21.865782 29.863235 -1.336394 0.749254 0.060696 -0.005749 47643.400000 0 0 1
-5.755623 20.062603 22.994732 31.054677 -1.291416 0.737042 0.035029 -0.003044 255151.000000 0 0 1
-6.145923 18.859503 23.677742 30.888326 -1.255769 0.697330 0.027527 -0.004766 10596.400000 0 0 1
-6.785623 19.124803 24.947612 32.158764 -1.229845 0.682871 0.014312 -0.008973 270192.000000 0 0 1
-5.874323 19.728203 26.044232 33.196561 -1.281393 0.668833 0.019697 0.002067 -663889.000000 0 0 1
-5.816723 21.150803 25.857332 33.908588 -1.302419 0.703535 0.028597 -0.006659 699468.000000 0 0 1
-4.740323 21.838303 26.552262 34.704535 -1.357048 0.699608 0.047388 -0.004066 1026330.000000 0 0 1
-3.297523 21.555503 26.073012 33.989930 -1.418995 0.696518 0.069495 0.004828 -204477.000000 0 0 1
-2.768623 20.244003 26.314152 33.315455 -1.434877 0.660235 0.069542 0.008993 418563.000000 0 0 1
-1.428523 20.083303 25.860902 32.774472 -1.499786 0.661525 0.071301 0.007803 766834.000000 0 0 1
-0.615223 18.868003 26.455832 32.500632 -1.538201 0.619774 0.077722 0.012497 141066.000000 0 0 1
-1.096823 17.601403 25.971422 31.393107 -1.508562 0.596518 0.079784 0.005252 29164.900000 0 0 1
-0.368923 16.487103 26.470412 31.187231 -1.548424 0.557164 0.086464 0.001202 -347128.000000 0 0 1
0.998077 16.260503 25.832242 30.540217 1.509493 0.562652 0.109842 0.004968 -812364.000000 0 0 1
1.045877 15.930103 24.481982 29.227205 1.505236 0.577841 0.100939 -0.004133 -194510.000000 0 0 1
0.730077 14.564603 24.226132 28.276601 1.520711 0.541851 0.099312 0.001644 -60605.800000 0 0 1
0.867377 14.394703 22.703112 26.895931 1.510612 0.565894 0.112158 -0.017559 121143.000000 0 0 1
2.194677 14.543103 22.254382 26.675381 1.421018 0.583995 0.116321 -0.016623 -276881.000000 0 0 1
2.554077 14.003903 21.001282 25.370977 1.390396 0.595679 0.103552 -0.017482 -365904.000000 0 0 1
4.053577 13.899403 20.741782 25.295186 1.287030 0.609404 0.095481 -0.021018 -435115.000000 0 0 1
4.572477 15.006003 20.024682 25.437680 1.275024 0.664532 0.098724 -0.027983 -883697.000000 0 0 1
5.945277 14.828803 19.950882 25.559292 1.189491 0.675215 0.109600 -0.027134 -576551.000000 0 0 1
6.662177 15.858503 18.992482 25.624034 1.173082 0.735943 0.121007 -0.030094 233406.000000 0 0 1
6.446877 15.545103 17.632382 24.374441 1.177664 0.762087 0.099118 -0.035090 129866.000000 0 1 0
7.138877 16.528403 16.905882 24.697379 1.163083 0.816849 0.090857 -0.025537 -3013.120000 0 1 0
6.980877 16.144703 15.433982 23.400681 1.162679 0.850573 0.082664 -0.022639 -145912.000000 0 1 0
7.933377 15.270603 14.906082 22.766666 1.091655 0.856967 0.061351 -0.014304 -211777.000000 0 1 0
7.973177 13.953103 15.488082 22.319080 1.051652 0.803851 0.064213 -0.017247 -413835.000000 0 1 0
8.999977 12.979003 14.879082 21.698876 0.964496 0.815221 0.056664 -0.020821 -1084410.000000 0 1 0
10.236677 13.555803 14.931782 22.616531 0.924007 0.849691 0.057351 -0.027354 -789424.000000 0 1 0
11.273077 12.733203 14.373082 22.266617 0.846146 0.869120 0.060192 -0.017819 2070060.000000 0 1 0
12.736477 13.378603 14.331682 23.379521 0.809982 0.910942 0.066691 -0.011621 1155550.000000 0 1 0
13.350777 13.572803 15.630882 24.633082 0.793645 0.883372 0.067849 -0.014205 1884600.000000 0 1 0
14.743277 13.970603 15.776682 25.718586 0.758495 0.910393 0.078780 -0.010533 1359090.000000 0 0 1
15.801177 13.092803 15.099182 25.477127 0.691936 0.936443 0.074922 -0.016053 -392955.000000 0 0 1
17.155777 13.524103 15.268882 26.652595 0.667573 0.960774 0.099734 -0.039836 738361.000000 0 0 1
17.908977 12.886403 14.267382 26.274494 0.623727 0.996776 0.129043 -0.046774 -236122.000000 0 0 1
19.282177 13.510003 13.964982 27.374135 0.611160 1.035434 0.142225 -0.056047 184477.000000 0 0 1
20.372577 13.062403 14.749582 28.341109 0.570147 1.023441 0.109010 -0.051672 274170.000000 0 0 1
21.574477 13.698103 14.343982 29.306073 0.565702 1.059333 0.160275 -0.064556 226368.000000 0 0 1
22.666777 13.702603 15.436282 30.656532 0.543739 1.043124 0.181898 -0.054747 -55648.400000 0 0 1
23.209877 12.407203 15.630882 30.609828 0.490916 1.034857 0.172410 -0.048304 596199.000000 0 0 1
24.229377 12.373503 16.647382 31.895166 0.472157 1.021672 0.151937 -0.048287 652065.000000 0 0 1
24.820777 10.950703 16.833182 31.927181 0.415504 1.015451 0.171362 -0.034734 -47548.800000 0 0 1
23.746477 10.203703 17.366982 31.138767 0.405839 0.979150 0.130651 -0.016434 777940.000000 0 0 1
23.927177 8.830803 17.143082 30.730736 0.353562 0.979006 0.103149 -0.015841 -54185.900000 0 0 1
22.672177 8.029903 17.570782 29.786563 0.340389 0.939874 0.157132 -0.023805 22390.300000 0 0 1
22.592177 6.687003 17.112182 29.119568 0.287772 0.942642 0.179941 -0.028949 -75478.800000 0 0 1
21.502877 6.024003 17.689382 28.488183 0.273147 0.900858 0.189060 -0.024863 -352988.000000 0 0 1
21.293777 4.530803 17.162582 27.721965 0.209649 0.903204 0.248446 -0.027511 -349097.000000 0 0 1
20.813477 4.345903 15.836882 26.512158 0.205845 0.930611 0.266579 -0.039356 549287.000000 0 0 1
20.633977 3.061903 15.214682 25.819040 0.147316 0.940627 0.218230 -0.033294 225576.000000 0 0 1
19.477277 2.155803 15.760782 25.147844 0.110234 0.893453 0.221323 -0.035268 145514.000000 0 0 1
19.799877 1.455103 16.955182 26.108057 0.073359 0.863970 0.226483 -0.045792 221231.000000 0 0 1
18.691077 0.779703 17.508382 25.622407 0.041691 0.818492 0.216284 -0.044391 -84190.500000 0 0 1
19.055577 -0.160297 18.652582 26.665700 -0.008412 0.796103 0.200225 -0.041371 -293912.000000 0 0 1
19.744777 -1.348097 18.233582 26.909796 -0.068170 0.826327 0.209632 -0.047712 232169.000000 0 0 1
19.415177 -2.483197 19.069382 27.326849 -0.127209 0.798439 0.143691 -0.024418 -44225.600000 0 0 1
19.338977 -3.799397 18.297282 26.892787 -0.193992 0.822517 0.125153 -0.026703 371307.000000 0 0 1
18.312077 -3.755597 17.283282 25.458761 -0.202284 0.824569 0.143949 -0.042086 734338.000000 0 0 1
18.338577 -4.945697 16.512082 25.167681 -0.263421 0.855180 0.163225 -0.050415 -31324.900000 0 0 1
17.423077 -4.936297 15.254282 23.677495 -0.276084 0.870751 0.117748 -0.043801 724807.000000 0 1 0
15.994277 -4.794997 15.333782 22.670107 -0.291268 0.827949 0.121218 -0.040952 968550.000000 0 1 0
15.427477 -4.651297 14.037482 21.370365 -0.292827 0.854141 0.115040 -0.042387 -78682.900000 0 1 0
15.657777 -3.313197 13.316782 20.820181 -0.208525 0.876806 0.103435 -0.035065 -815835.000000 0 1 0
14.890877 -2.169297 13.498182 20.214969 -0.144662 0.839638 0.103749 -0.031955 -81954.300000 0 1 0
15.544777 -1.060197 12.914182 20.237100 -0.068097 0.878711 0.126137 -0.030918 359426.000000 0 1 0
14.588277 0.183903 13.048482 19.573312 0.012606 0.841096 0.134314 -0.026318 -245727.000000 0 1 0
14.997477 1.467003 12.593582 19.638603 0.097506 0.874648 0.146198 -0.021823 187650.000000 0 1 0
15.889077 2.123303 13.499882 20.957529 0.132846 0.870879 0.177136 -0.030626 208829.000000 0 1 0
16.110877 3.584603 12.959082 20.984460 0.218930 0.905165 0.161429 -0.034570 124170.000000 0 1 0
14.999377 4.430403 13.167482 20.444862 0.287206 0.871018 0.126699 -0.025858 599644.000000 0 1 0
15.153177 5.543403 12.297282 20.287219 0.350702 0.919574 0.160482 -0.040272 695436.000000 0 1 0
14.186077 6.750903 12.720782 20.214791 0.444168 0.890169 0.121862 -0.026924 557797.000000 0 1 0
14.225077 7.843103 11.805482 20.080749 0.503885 0.942335 0.099997 -0.038036 515882.000000 0 1 0
13.350977 8.943803 12.049082 20.085333 0.590237 0.927427 0.071314 -0.026145 -129773.000000 0 1 0
13.860177 9.753003 13.289382 21.536789 0.613185 0.905802 0.082645 -0.029544 109066.000000 0 1 0
13.537777 9.092803 14.492982 21.817356 0.591453 0.844257 0.101803 -0.033197 735472.000000 0 1 0
14.136577 9.694303 15.666882 23.222264 0.601105 0.830307 0.134636 -0.041840 24761.000000 0 1 0
13.756177 8.991103 16.964882 23.619474 0.578905 0.769501 0.134248 -0.045702 -102731.000000 0 1 0
12.414077 9.205803 17.345082 23.231616 0.638079 0.727837 0.099427 -0.046619 100091.000000 0 1 0
11.965077 8.481403 18.550282 23.647626 0.616639 0.668994 0.139802 -0.042904 79172.100000 0 1 0
12.650077 8.834303 19.928682 25.203606 0.609624 0.658832 0.175508 -0.036461 -596680.000000 0 0 1
13.953577 8.327603 19.888682 25.682892 0.538069 0.685039 0.199025 -0.048120 -902198.000000 0 0 1
14.537177 8.545503 21.120082 27.026154 0.531429 0.673781 0.179598 -0.035897 81981.500000 0 0 1
16.069377 8.268003 20.945182 27.663792 0.475195 0.711883 0.171541 -0.030990 195033.000000 0 0 1
16.706677 9.350103 20.317982 27.916982 0.510231 0.755688 0.156472 -0.033493 948174.000000 0 0 1
17.897477 8.786003 19.657982 27.999104 0.456347 0.792463 0.128315 -0.025752 1223220.000000 0 0 1
18.646077 9.816203 18.796782 28.237441 0.484582 0.842407 0.144520 -0.033620 -333590.000000 0 0 1
19.521377 10.682903 19.468482 29.567387 0.500723 0.852046 0.126305 -0.035759 67035.800000 0 0 1
20.390677 11.335103 18.553782 29.807836 0.507359 0.898932 0.132059 -0.038399 -169651.000000 0 0 1
21.426377 12.139103 19.309682 31.293950 0.515460 0.905818 0.121921 -0.027465 -1188310.000000 0 0 1
20.807077 13.156303 20.056782 31.753697 0.563831 0.887135 0.086820 -0.022699 -51261.500000 0 0 1
21.526777 13.814303 21.066082 33.136338 0.570537 0.881830 0.088751 -0.013142 270730.000000 0 0 1
22.890077 14.497603 20.714682 34.106219 0.564587 0.918066 0.065802 -0.012200 527188.000000 0 0 1
24.009377 13.693903 20.413182 34.360896 0.518338 0.934673 0.045732 -0.002934 687769.000000 0 0 1
25.185477 14.514103 20.439982 35.535339 0.522802 0.957946 0.063028 -0.010389 303089.000000 0 0 1
26.571077 13.879803 20.350782 36.232933 0.481379 0.974399 0.071344 -0.019382 -258924.000000 0 0 1
26.764477 13.240603 19.077682 35.434570 0.459405 1.002269 0.088381 -0.036528 -118869.000000 0 0 1
27.997677 12.577703 19.139982 36.171915 0.422223 1.013210 0.131575 -0.048080 -342890.000000 0 0 1
28.313377 11.922103 17.838282 35.524473 0.398543 1.044724 0.174626 -0.056253 -94066.500000 0 0 1
28.906977 12.830003 16.884382 35.851146 0.417717 1.080420 0.180587 -0.065708 350570.000000 0 0 1
29.359977 12.322703 15.645382 35.477250 0.397382 1.114086 0.211413 -0.070846 142473.000000 0 0 1
28.270677 11.859903 14.606382 33.959312 0.397214 1.126177 0.200356 -0.067248 401200.000000 0 0 1
27.545977 12.961203 14.050582 33.528980 0.439795 1.138389 0.228320 -0.066596 -18958.800000 0 0 1
26.589677 12.551103 13.117182 32.196298 0.441022 1.151177 0.222796 -0.057484 -302034.000000 0 0 1
25.998277 13.695503 12.334682 31.868819 0.484845 1.173371 0.210492 -0.058152 -199025.000000 0 0 1
25.091877 14.460703 13.104682 31.787528 0.522818 1.145865 0.193099 -0.062853 132462.000000 0 0 1
25.054077 15.811503 12.810882 32.277378 0.562970 1.162660 0.176498 -0.057040 436564.000000 0 0 1
23.766277 16.604603 13.238082 31.871549 0.609828 1.142461 0.176770 -0.057486 408476.000000 0 0 1
22.619177 16.515103 12.412682 30.634139 0.630667 1.153608 0.190690 -0.068741 231126.000000 0 0 1
21.659077 17.391603 12.972182 30.657153 0.676550 1.133891 0.171934 -0.061263 -1089520.000000 0 0 1
20.788877 18.124303 11.906682 30.040587 0.717030 1.163255 0.192624 -0.051168 606488.000000 0 0 1
19.622677 17.436303 11.475582 28.648964 0.726469 1.158670 0.172909 -0.048066 793628.000000 0 0 1
18.595677 17.224103 12.485882 28.255375 0.747126 1.113087 0.139612 -0.042689 -270509.000000 0 0 1
17.298177 16.636903 11.908782 26.792398 0.765914 1.110199 0.128133 -0.024316 -326862.000000 0 0 1
17.383377 15.310303 11.541882 25.880538 0.722074 1.108541 0.133600 -0.025712 -546287.000000 0 0 1
16.264377 14.826403 10.865782 24.544193 0.739180 1.112186 0.131321 -0.023324 -390763.000000 0 1 0
16.437277 13.517703 10.083282 23.549628 0.688240 1.128328 0.147210 -0.031484 -71747.900000 0 1 0
16.312877 12.380503 10.888982 23.193895 0.649199 1.082099 0.123036 -0.025312 318523.000000 0 1 0
16.665477 11.241103 10.171582 22.529128 0.593416 1.102366 0.123854 -0.022770 -112776.000000 0 1 0
17.094377 9.908603 10.809082 22.521865 0.525315 1.070213 0.146900 -0.047737 -951582.000000 0 1 0
17.734777 9.002703 9.942082 22.235467 0.469733 1.107245 0.162334 -0.041459 379807.000000 0 1 0
18.360177 7.919403 10.559082 22.612105 0.407225 1.084940 0.179931 -0.035871 1125530.000000 0 1 0
19.607777 8.233203 11.514582 24.183386 0.397539 1.074541 0.181745 -0.041553 189742.000000 0 1 0
19.184877 8.908503 12.709082 24.676744 0.434723 1.029762 0.167498 -0.048915 -481202.000000 0 1 0
20.204777 9.236103 13.590182 26.042882 0.428763 1.021791 0.171482 -0.051512 -1358630.000000 0 0 1
19.683977 9.556003 15.063682 26.564839 0.451957 0.967872 0.127759 -0.038528 247977.000000 0 0 1
19.118477 8.425903 15.715682 26.143731 0.415110 0.925887 0.136831 -0.037957 -315314.000000 0 0 1
17.894877 8.051103 15.194182 24.817535 0.422780 0.911911 0.160267 -0.046825 -1439170.000000 0 1 0
17.290677 6.672403 15.620582 24.238215 0.368289 0.870478 0.192761 -0.053139 337628.000000 0 1 0
16.355077 6.693103 16.696082 24.311424 0.388444 0.813776 0.211777 -0.048639 75430.900000 0 1 0
15.811877 5.439303 16.880082 23.760022 0.331321 0.780672 0.203991 -0.033915 -976955.000000 0 1 0
14.513477 5.382703 17.701682 23.515188 0.355150 0.718526 0.175658 -0.043103 -161496.000000 0 1 0
13.999677 4.093903 17.918982 23.104998 0.284496 0.683217 0.182606 -0.035168 436034.000000 0 1 0
13.340977 3.585003 16.743382 21.706560 0.262520 0.689835 0.155480 -0.033418 -527753.000000 0 1 0
13.119877 2.055903 16.748582 21.374586 0.155437 0.670398 0.150555 -0.029455 -343286.000000 0 1 0
14.347777 1.387103 16.798282 22.135154 0.096378 0.709180 0.189667 -0.029394 -261083.000000 0 1 0
14.294177 -0.036397 16.790282 22.050814 -0.002546 0.705271 0.179079 -0.020476 120697.000000 0 1 0
13.529277 -0.768297 17.957182 22.496489 -0.056727 0.646459 0.166148 -0.027354 -56321.000000 0 1 0
12.149477 -0.481697 17.971082 21.697963 -0.039627 0.594840 0.147082 -0.006111 -248004.000000 0 1 0
11.433777 -1.507797 18.637682 21.917297 -0.131116 0.554120 0.139737 -0.023354 58188.100000 0 1 0
-27.082893 14.295903 28.194442 41.626704 -0.485684 0.826688 0.074545 -0.007530 -148041.000000 0 0 1
-25.993683 14.172503 29.093152 41.508347 -0.499173 0.794139 0.071276 -0.010514 420969.000000 0 0 1
-25.543773 12.867403 29.260222 40.917172 -0.466635 0.774017 0.068438 0.000475 391172.000000 0 0 1
-24.220723 12.804803 30.105712 40.705777 -0.486321 0.738331 0.067694 -0.008092 326213.000000 0 0 1
-24.474523 13.063503 31.481819 41.961438 -0.490289 0.722347 0.066473 -0.019520 150479.000000 0 0 1
-23.328323 13.031703 32.311764 41.929537 -0.509438 0.690982 0.070367 -0.016827 -530820.000000 0 0 1
-23.592423 13.196403 -33.535964 43.074452 -0.509993 2.463161 0.074727 -0.014752 -171692.000000 0 0 1
-24.154823 12.127103 -32.811344 42.510074 -0.465292 2.452540 0.067052 -0.012155 58903.500000 0 0 1
-24.617223 12.600403 -31.554614 41.957973 -0.473085 2.421968 0.051304 -0.014006 339666.000000 0 0 1
-25.587113 11.605403 -30.818354 41.703198 -0.425814 2.402370 0.054664 -0.017904 432010.000000 0 0 1
-24.918823 10.497103 -30.186334 40.525938 -0.398692 2.411128 0.078014 -0.022209 573900.000000 0 0 1
-24.249923 9.513003 -30.986274 40.480924 -0.373842 2.442542 0.073237 -0.024666 -453376.000000 0 0 1
-23.424223 8.522203 -30.166324 39.132203 -0.348933 2.451022 0.080967 -0.013498 -604172.000000 0 0 1
-24.143723 7.774603 -29.213784 38.688616 -0.311528 2.426603 0.079767 -0.015537 -359549.000000 0 0 1
-23.425923 6.764803 -28.592704 37.577642 -0.281126 2.435490 0.076529 -0.015955 -310055.000000 0 0 1
-24.241623 5.953603 -27.521164 37.155298 -0.240828 2.404917 0.071368 -0.011446 307183.000000 0 0 1
-25.122863 4.968503 -28.085674 38.008543 -0.195249 2.402278 0.092508 -0.024477 351748.000000 0 0 1
-25.479983 4.145503 -27.027234 37.374940 -0.161283 2.379131 0.109920 -0.016727 -442983.000000 0 0 1
-26.245913 2.885003 -27.504204 38.126794 -0.109482 2.376601 0.124338 -0.016778 1755950.000000 0 0 1
-27.633233 2.899403 -27.963894 39.420572 -0.104542 2.359405 0.162288 -0.028405 1664810.000000 0 0 1
-27.908943 3.787603 -29.037544 40.452862 -0.134889 2.371451 0.156504 -0.027522 -1624790.000000 0 0 1
-29.217843 3.404903 -29.672054 41.781653 -0.116012 2.360535 0.195637 -0.039612 -1407110.000000 0 0 1
-30.279483 3.720303 -28.814644 41.963930 -0.122253 2.327671 0.166354 -0.039275 -787912.000000 0 0 1
-31.528043 3.667203 -29.419924 43.278145 -0.115795 2.318269 0.172894 -0.040106 -324489.000000 0 0 1
-32.032053 5.032103 -30.051004 44.209019 -0.155822 2.318216 0.177041 -0.049862 -799934.000000 0 0 1
-31.316233 5.444603 -31.184784 44.529102 -0.172138 2.346647 0.182229 -0.048011 117784.000000 0 0 1
-31.671253 6.715803 -31.790494 45.374065 -0.208952 2.347078 0.177444 -0.047503 -945432.000000 0 0 1
-31.434353 7.964903 -30.872964 44.773856 -0.248159 2.331638 0.132119 -0.043853 101359.000000 0 0 1
-30.086533 8.385103 -30.667514 43.772204 -0.271802 2.347057 0.098267 -0.046882 714121.000000 0 0 1
-29.406723 7.633303 -29.649964 42.451655 -0.253972 2.344013 0.077803 -0.042427 -697731.000000 0 0 1
-29.426783 8.366603 -28.302184 41.676723 -0.277010 2.317317 0.053618 -0.029858 920133.000000 0 0 1
-30.713193 8.544503 -27.637094 42.191441 -0.271342 2.285032 0.077212 -0.033052 1156250.000000 0 0 1
-31.298513 7.372303 -27.129214 42.070679 -0.231331 2.271621 0.080145 -0.018151 -280303.000000 0 0 1
-32.677943 7.713503 -26.517454 42.784594 -0.231803 2.239271 0.075140 -0.014426 -13653.000000 0 0 1
-32.536533 8.417303 -25.293344 42.062218 -0.253153 2.215963 0.041415 -0.011563 -45252.700000 0 0 1
-32.346273 7.565503 -24.189294 41.093067 -0.229761 2.200180 0.045156 -0.015678 -167440.000000 0 0 1
-31.821153 8.323403 -22.959994 40.112668 -0.255836 2.180211 0.044121 -0.008656 -451979.000000 0 0 1
-32.640273 9.385003 -22.488894 40.733476 -0.279976 2.155675 0.057816 -0.005717 78153.600000 0 0 1
-31.979043 10.179603 -21.546594 39.881565 -0.308179 2.141548 0.061064 -0.018485 -153804.000000 0 0 1
-33.009683 11.078603 -20.830394 40.574375 -0.323804 2.109924 0.056303 -0.006007 328839.000000 0 0 1
-33.815173 10.369003 -19.868094 40.567515 -0.297535 2.082604 0.073196 -0.022407 416646.000000 0 0 1
-34.501898 11.245003 -18.946094 40.936360 -0.315068 2.051968 0.068180 -0.012032 294563.000000 0 0 1
-33.658273 12.154703 -17.992394 40.054243 -0.346547 2.036667 0.071733 -0.011425 -27254.700000 0 0 1
-32.999663 11.644803 -16.820194 38.826513 -0.339235 2.018852 0.132595 -0.016850 142933.000000 0 0 1
-33.846583 11.173803 -15.824194 38.998079 -0.318866 1.988616 0.129343 -0.014275 -423690.000000 0 0 1
-34.444638 12.209903 -14.855494 39.448707 -0.340660 1.956895 0.096811 -0.010628 307246.000000 0 0 1
-35.238076 13.119203 -15.649094 40.727505 -0.356403 1.965180 0.062389 -0.006359 216274.000000 0 0 1
-35.911172 14.074103 -14.838394 41.326391 -0.373517 1.938050 0.036576 -0.006876 -216283.000000 0 0 1
-36.501453 15.229903 -15.585094 42.511189 -0.395280 1.946161 0.029016 -0.001362 -406358.000000 0 0 1
-37.683323 14.872203 -16.241994 43.646508 -0.375897 1.952095 0.029411 -0.005594 -182357.000000 0 0 1
37.971905 16.023203 -16.612894 44.436437 0.399306 1.953961 0.026443 -0.008357 -383609.000000 0 0 1
37.648315 16.008403 -18.113794 44.741191 0.402048 1.987619 0.039022 -0.009760 435489.000000 0 0 1
36.545545 15.182703 -18.537294 43.700374 0.393751 2.008864 0.063583 -0.014129 686655.000000 0 0 1
35.300385 15.872103 -18.477194 42.888782 0.422546 2.016194 0.117787 -0.027836 -252305.000000 0 0 1
34.217355 14.829303 -18.859994 41.790370 0.408952 2.039018 0.135496 -0.032723 -353445.000000 0 0 1
34.212415 14.475303 -20.217694 42.293959 0.400261 2.069204 0.140761 -0.032124 154120.000000 0 0 1
33.273725 13.461403 -20.500294 41.335363 0.384436 2.089725 0.106773 -0.025061 -57845.700000 0 0 1
33.735145 12.018603 -20.097694 41.066095 0.342244 2.082196 0.108630 -0.002524 -119323.000000 0 0 1
33.821275 11.836303 -18.678694 40.408791 0.336645 2.051320 0.113395 -0.003355 -6316.940000 0 0 1
34.074075 10.462703 -18.387994 40.107719 0.297919 2.047064 0.078585 0.000461 -166766.000000 0 0 1
34.353895 10.116703 -16.897294 39.598692 0.286389 2.011652 0.056167 0.002743 -199878.000000 0 0 1
33.263755 10.217003 -16.020194 38.308109 0.298005 2.002252 0.085951 -0.001840 -74287.700000 0 0 1
33.637485 9.645403 -14.788294 37.989576 0.279253 1.970638 0.067084 -0.007056 132611.000000 0 0 1
32.957665 10.440403 -13.642094 37.166066 0.306781 1.946640 0.094795 -0.015414 -224610.000000 0 0 1
31.559715 10.360503 -13.614094 35.898457 0.317198 1.959770 0.115675 -0.011123 -185241.000000 0 0 1
31.029065 11.397803 -12.767494 35.436164 0.352026 1.939381 0.118336 -0.019083 242211.000000 0 0 1
29.489865 11.423903 -12.670494 34.069035 0.369583 1.951858 0.154965 -0.010173 40387.100000 0 0 1
28.822365 10.317903 -12.027194 32.891356 0.343768 1.945143 0.141394 -0.025812 282693.000000 0 0 1
27.433565 10.310903 -12.272194 31.772976 0.359516 1.967355 0.150461 -0.011149 -60938.000000 0 0 1
27.012265 9.588303 -13.594594 31.723982 0.341088 2.013659 0.127296 -0.027363 -427542.000000 0 0 1
27.366965 8.196103 -13.815494 31.733181 0.290988 2.021239 0.126242 -0.022914 22678.200000 0 0 1
28.731065 7.932203 -14.007194 32.933197 0.269374 2.010113 0.136626 -0.034219 -463834.000000 0 0 1
29.275265 6.862403 -13.038994 32.774214 0.230252 1.979961 0.137942 -0.036136 -360958.000000 0 0 1
28.793765 5.539003 -13.200294 32.156014 0.190047 1.993807 0.135586 -0.042443 47943.200000 0 0 1
27.882665 5.253103 -12.189794 30.880888 0.186218 1.976577 0.156032 -0.045892 -782394.000000 0 0 1
27.204665 3.916203 -12.243794 30.088885 0.142971 1.989877 0.166286 -0.048147 -606782.000000 0 0 1
26.525465 3.733303 -11.038694 28.972239 0.139826 1.961684 0.204300 -0.049921 323019.000000 0 0 1
25.814965 2.521803 -11.029394 28.185448 0.097379 1.972857 0.226434 -0.061905 -571414.000000 0 0 1
25.446965 2.054503 -9.612994 27.279639 0.080562 1.930917 0.280059 -0.065691 -783124.000000 0 0 1
26.533365 1.706303 -8.826094 28.014834 0.064219 1.891306 0.304219 -0.055142 -51700.800000 0 0 1
26.425965 0.396603 -8.238994 27.683388 0.015007 1.872990 0.355811 -0.039088 5769.640000 0 0 1
27.677465 0.045703 -7.354294 28.637909 0.001651 1.830509 0.423639 -0.030324 111949.000000 0 0 1
27.644065 -1.032897 -6.408594 28.395974 -0.037347 1.798444 0.374912 -0.047720 126373.000000 0 0 1
27.639665 -2.294797 -7.115594 28.633003 -0.082835 1.821938 0.290355 -0.046985 -412339.000000 0 0 1
28.064065 -3.421397 -6.175294 28.938417 -0.121315 1.785844 0.239368 -0.054625 -11010.400000 0 0 1
29.445365 -3.261097 -5.909994 30.209143 -0.110301 1.767702 0.233979 -0.058014 350425.000000 0 0 1
29.879265 -4.271297 -4.964494 30.588571 -0.141990 1.733816 0.249541 -0.081533 901619.000000 0 0 1
31.439665 -4.438897 -4.772294 32.108117 -0.140261 1.719981 0.247175 -0.068820 938424.000000 0 0 1
31.985255 -4.830297 -6.033294 32.905759 -0.149884 1.755190 0.171076 -0.050607 -152247.000000 0 0 1
33.147415 -5.601397 -5.879194 34.127580 -0.167403 1.743931 0.175497 -0.041604 -222994.000000 0 0 1
33.769985 -6.109397 -7.206594 35.066674 -0.178976 1.777782 0.184105 -0.054412 28175.700000 0 0 1
32.978325 -7.096397 -7.902594 34.646498 -0.211952 1.800914 0.210198 -0.064277 32324.800000 0 0 1
33.171365 -7.046297 -9.293694 35.161947 -0.209310 1.838286 0.204059 -0.041830 -1304790.000000 0 0 1
31.911305 -7.590497 -10.023594 34.298972 -0.233523 1.867366 0.177796 -0.046140 566023.000000 0 0 1
30.901765 -6.599897 -10.188094 33.200527 -0.210415 1.882694 0.143027 -0.055190 312343.000000 0 0 1
30.362465 -6.043597 -8.974694 32.232740 -0.196480 1.852960 0.177706 -0.052564 -2394970.000000 0 0 1
29.198365 -5.098897 -9.257694 31.052346 -0.172886 1.873531 0.178190 -0.050197 -346041.000000 0 0 1
28.007365 -5.850297 -9.376194 30.108994 -0.205923 1.887471 0.169016 -0.045489 410903.000000 0 0 1
26.826565 -5.052297 -9.465994 28.892826 -0.186151 1.904584 0.195853 -0.057816 75489.800000 0 0 1
25.513365 -5.791297 -9.336894 27.778562 -0.223208 1.913589 0.244236 -0.061546 -1483540.000000 0 0 1
25.235865 -6.344997 -7.990694 27.220564 -0.246322 1.868738 0.238682 -0.067851 1208070.000000 0 0 1
23.888365 -6.790397 -7.720994 26.007254 -0.276950 1.872218 0.215357 -0.066585 733731.000000 0 0 1
22.887065 -5.630097 -7.553894 24.750294 -0.241205 1.880949 0.230827 -0.049257 -793453.000000 0 1 0
22.673365 -4.966897 -8.782994 24.817183 -0.215656 1.932542 0.260710 -0.051668 15937.400000 0 1 0
22.157465 -3.668797 -8.559694 24.035010 -0.164090 1.934924 0.242331 -0.056134 -160687.000000 0 1 0
22.420865 -2.701997 -9.723294 24.587364 -0.119934 1.977364 0.274355 -0.046153 485085.000000 0 1 0
23.824865 -2.559497 -9.946594 25.944363 -0.107019 1.964251 0.279936 -0.058229 1067670.000000 0 0 1
24.075865 -1.654497 -10.994694 26.519200 -0.068612 1.998293 0.291665 -0.057039 -41906.800000 0 0 1
25.518465 -1.825097 -11.540294 28.066020 -0.071399 1.994549 0.235209 -0.050028 -500973.000000 0 0 1
26.465665 -1.072697 -10.888094 28.637960 -0.040509 1.960807 0.232561 -0.058757 29189.500000 0 0 1
27.749965 -1.569497 -11.256194 29.987094 -0.056498 1.955590 0.184638 -0.048735 -160320.000000 0 0 1
28.942965 -0.671197 -10.917994 30.941047 -0.023186 1.931427 0.150136 -0.036865 -1019790.000000 0 0 1
30.090465 -1.124397 -11.606794 32.271010 -0.037350 1.938707 0.118516 -0.030209 3127.190000 0 0 1
31.114165 -0.145297 -11.436194 33.149645 -0.004670 1.923021 0.109415 -0.029831 -17676.700000 0 0 1
31.112665 1.103203 -12.325294 33.483248 0.035443 1.947765 0.113228 -0.022925 -690252.000000 0 0 1
31.231965 0.918403 -13.703894 34.118556 0.029397 1.984120 0.104912 -0.024484 297282.000000 0 0 1
31.484895 2.166403 -14.314894 34.654122 0.068699 1.996629 0.137792 -0.029748 29770.300000 0 0 1
31.634275 2.031103 -15.856894 35.444236 0.064118 2.034625 0.127419 -0.028037 305763.000000 0 0 1
30.390565 1.612803 -16.397594 34.569766 0.053019 2.065003 0.122388 -0.015438 196420.000000 0 0 1
30.525165 1.583203 -17.765594 35.354047 0.051819 2.097290 0.099747 -0.010144 -221752.000000 0 0 1
29.388965 1.003903 -18.613194 34.801870 0.034146 2.135107 0.063857 -0.003359 -284652.000000 0 0 1
29.386765 -0.408397 -18.602294 34.782095 -0.013896 2.135096 0.081430 -0.005571 187955.000000 0 0 1
29.030665 -0.970197 -19.857794 35.185975 -0.033407 2.170462 0.051572 -0.005396 -59579.100000 0 0 1
28.685365 -2.499897 -19.937794 35.023068 -0.086929 2.176421 0.055858 -0.005147 36655.600000 0 0 1
27.525765 -2.902297 -19.222694 33.698710 -0.105051 2.177823 0.062824 -0.004566 132628.000000 0 0 1
27.233665 -4.283597 -19.252094 33.625361 -0.156012 2.180405 0.068215 -0.008730 -171772.000000 0 0 1
27.995865 -5.180497 -18.231994 33.808455 -0.182975 2.140370 0.063734 -0.006531 1574290.000000 0 0 1
29.432865 -5.211297 -18.465094 35.134184 -0.175241 2.124169 0.082399 -0.012417 1417780.000000 0 0 1
30.134865 -5.567797 -17.279594 35.180888 -0.182702 2.084222 0.093243 -0.014521 -1127760.000000 0 0 1
31.618305 -5.404897 -17.409494 36.496858 -0.169306 2.068050 0.139960 -0.016512 -1086410.000000 0 0 1
32.302775 -6.333297 -18.241994 37.634430 -0.193605 2.076834 0.115933 -0.020450 -201235.000000 0 0 1
33.596815 -5.865097 -18.499994 38.799422 -0.172831 2.067820 0.148932 -0.016467 -552617.000000 0 0 1
34.481565 -6.924897 -19.194894 40.067150 -0.198193 2.070389 0.152147 -0.010095 70077.400000 0 0 1
35.222405 -7.775997 -18.286494 40.441066 -0.217283 2.040000 0.168304 -0.024472 162402.000000 0 0 1
35.871735 -8.750897 -19.018394 41.533829 -0.239276 2.046429 0.150805 -0.025852 -478210.000000 0 0 1
37.020365 -9.407997 -18.272594 42.342716 -0.248862 2.016996 0.139035 -0.020763 -614483.000000 0 0 1
36.464005 -10.131297 -17.128594 41.541011 -0.271008 1.995806 0.147338 -0.025274 688738.000000 0 0 1
37.379145 -10.951697 -16.426894 42.272722 -0.285013 1.969901 0.154168 -0.031011 -828088.000000 0 0 1
-37.833873 -10.336297 -15.700994 42.246446 0.266694 1.951585 0.155455 -0.036999 -201562.000000 0 0 1
-37.149333 -11.120697 -14.692294 41.468136 0.290861 1.932965 0.148301 -0.042307 508517.000000 0 0 1
-36.702403 -12.413897 -15.021094 41.554837 0.326152 1.940647 0.126194 -0.032633 209113.000000 0 0 1
-35.212144 -12.448197 -15.528094 40.447180 0.339807 1.964824 0.115413 -0.035737 688464.000000 0 0 1
-35.070631 -11.975297 -16.854394 40.711515 0.329049 1.997636 0.137862 -0.025439 -64399.100000 0 0 1
-33.714283 -11.855297 -17.233494 39.676117 0.338135 2.020118 0.156220 -0.027986 -157371.000000 0 0 1
-33.630453 -11.289897 -18.682794 40.093839 0.323883 2.055534 0.178216 -0.029605 49167.700000 0 0 1
-33.767593 -9.886497 -18.681594 39.837107 0.284820 2.058897 0.194000 -0.026970 120973.000000 0 0 1
-35.128719 -9.495797 -18.691794 40.909415 0.264005 2.045311 0.187083 -0.030543 -131779.000000 0 0 1
-35.366474 -7.999397 -18.367994 40.646784 0.222443 2.039682 0.191461 -0.030250 130039.000000 0 0 1
-36.746823 -7.701397 -18.230794 41.737302 0.206590 2.022833 0.175879 -0.022502 321049.000000 0 0 1
-36.906813 -6.276697 -17.992594 41.536047 0.168457 2.018815 0.165660 -0.027751 -1034.850000 0 0 1
25.937177 27.597503 -26.116864 46.004891 0.816402 2.174503 0.044105 -0.005447 58913.300000 0 0 1
26.424377 26.609303 -25.263534 45.216689 0.788885 2.163640 0.054914 -0.013396 -471592.000000 0 0 1
27.573577 26.010403 -25.785264 45.844554 0.756234 2.168142 0.070009 -0.018927 -413702.000000 0 0 1
28.148977 24.882003 -24.896594 45.070161 0.723871 2.156033 0.089479 -0.020742 -172979.000000 0 0 1
28.859677 25.400303 -23.761394 45.195799 0.721729 2.124385 0.085029 -0.021022 204966.000000 0 0 1
29.039877 24.470903 -22.747594 44.267286 0.700221 2.110485 0.089512 -0.024307 -98072.700000 0 0 1
29.963277 24.946503 -21.627094 44.585393 0.694287 2.077241 0.095655 -0.021395 -57894.900000 0 0 1
29.383477 25.992303 -20.866094 44.434024 0.724235 2.059631 0.090912 -0.024582 -8098.110000 0 0 1
30.123977 26.289503 -19.712194 44.577602 0.717532 2.028846 0.084381 -0.024384 -225575.000000 0 0 1
29.450777 27.360703 -18.826194 44.388985 0.748625 2.008785 0.104467 -0.021114 97520.100000 0 0 1
28.274777 26.834503 -18.220494 43.029525 0.759269 2.008037 0.102478 -0.019341 -4801.160000 0 0 1
27.262577 27.804403 -18.301094 43.026306 0.795237 2.010141 0.101747 -0.023816 357617.000000 0 0 1
26.049777 27.709303 -17.325194 41.791850 0.816258 1.998255 0.089758 -0.007764 581977.000000 0 0 1
25.054977 26.765503 -17.663894 40.695912 0.818395 2.019775 0.095415 -0.013734 -150643.000000 0 0 1
23.966477 26.795603 -16.777794 39.672292 0.841074 2.007450 0.087517 -0.007370 261530.000000 0 0 1
22.818177 25.789203 -17.103794 38.448563 0.846445 2.031802 0.094299 -0.013359 -25110.700000 0 0 1
22.092777 26.199603 -18.228994 38.817603 0.870235 2.059641 0.087989 -0.015355 -454222.000000 0 0 1
21.408977 25.088403 -18.762594 37.944792 0.864366 2.088022 0.090779 -0.011113 170284.000000 0 0 1
20.561377 25.433603 -20.035094 38.354184 0.890934 2.120425 0.093155 -0.009824 834636.000000 0 0 1
19.429277 26.235203 -19.721894 38.140999 0.933351 2.114231 0.080891 -0.011655 -305739.000000 0 0 1
18.451877 26.236603 -20.713594 38.182249 0.957867 2.144198 0.094579 -0.011995 -523233.000000 0 0 1
17.346677 27.248903 -20.518794 38.267883 1.003898 2.136711 0.086314 -0.005939 -238994.000000 0 0 1
16.510477 26.898903 -19.401194 37.047985 1.020293 2.121958 0.105306 -0.004328 69074.900000 0 0 1
15.508077 27.904303 -19.252294 37.280041 1.063542 2.113466 0.082254 -0.012385 316747.000000 0 0 1
15.024577 28.001803 -17.790294 36.418862 1.078332 2.081156 0.076521 -0.004944 18591.900000 0 0 1
14.241177 26.867003 -17.507894 35.088080 1.083389 2.093206 0.089760 0.002580 -88913.400000 0 0 1
13.476377 26.954203 -16.286994 34.255044 1.107170 2.066286 0.108525 0.001961 315509.000000 0 0 1
12.532277 25.746403 -16.129694 32.864910 1.117798 2.083790 0.113730 0.000393 -211616.000000 0 0 1
13.210977 24.511703 -15.959894 32.094731 1.076464 2.091251 0.131450 -0.002478 -479814.000000 0 0 1
12.378077 23.391203 -16.096194 30.975033 1.084081 2.117238 0.123032 -0.009478 -341667.000000 0 0 1
13.180977 22.140503 -16.266394 30.471883 1.033815 2.133904 0.126806 -0.017757 111062.000000 0 0 1
13.853477 22.060803 -17.538294 31.403657 1.010066 2.163348 0.127216 -0.012393 -761134.000000 0 0 1
14.714377 20.996703 -17.717794 31.165601 0.959537 2.175484 0.137278 -0.017057 -840949.000000 0 0 1
14.293577 19.511103 -17.582794 29.902244 0.938533 2.199392 0.148002 -0.021178 -361205.000000 0 0 1
13.966277 19.109403 -16.251294 28.711161 0.939658 2.172475 0.145470 -0.032338 -192501.000000 0 0 1
13.593277 17.718403 -16.190194 27.583354 0.916388 2.198089 0.122367 -0.035045 -536528.000000 0 0 1
14.687377 16.675203 -16.299594 27.558270 0.848696 2.203664 0.169314 -0.036086 -741640.000000 0 0 1
15.394977 16.567803 -15.093194 27.190108 0.822075 2.159278 0.183227 -0.047068 -144492.000000 0 0 1
16.314677 15.491403 -15.225194 27.165398 0.759520 2.165741 0.174767 -0.045524 -877637.000000 0 0 1
16.731977 14.875503 -13.853994 26.328176 0.726730 2.124927 0.248777 -0.056431 -1219590.000000 0 0 1
17.656477 15.539603 -13.012694 26.880489 0.721716 2.076124 0.212653 -0.061087 1198700.000000 0 0 1
18.934577 15.990503 -13.493394 28.218542 0.701300 2.069372 0.155179 -0.052457 73245.600000 0 0 1
19.736077 14.887303 -14.180594 28.499716 0.646260 2.091591 0.144920 -0.048916 -1761990.000000 0 0 1
20.361277 13.787703 -13.492394 28.048656 0.595227 2.072632 0.204135 -0.054334 291186.000000 0 0 1
21.485077 14.154603 -12.728594 28.705025 0.582544 2.030215 0.190643 -0.045580 -472752.000000 0 0 1
22.303777 12.883503 -12.379094 28.577703 0.523814 2.018807 0.226388 -0.061348 -475276.000000 0 0 1
21.969677 12.246303 -11.132194 27.505716 0.508521 1.987472 0.329125 -0.069109 420693.000000 0 0 1
22.698777 11.085603 -10.708094 27.436989 0.454308 1.971731 0.345965 -0.038976 -84483.200000 0 0 1
22.451577 9.848503 -11.634794 27.137332 0.413380 2.013891 0.285334 -0.039169 -392956.000000 0 0 1
23.254677 9.839503 -12.778494 28.299925 0.400277 2.039285 0.234399 -0.023824 152335.000000 0 0 1
23.100677 8.650303 -13.610494 28.172941 0.358298 2.074994 0.204904 -0.031143 130575.000000 0 0 1
23.588577 7.264903 -13.091994 27.939222 0.298765 2.058489 0.211582 -0.008827 534637.000000 0 0 1
22.549077 6.826203 -12.198394 26.530337 0.293956 2.048555 0.235953 -0.037947 1112350.000000 0 0 1
22.998777 5.774703 -11.322394 26.277130 0.246002 2.016268 0.239797 -0.016850 -562207.000000 0 0 1
22.875977 4.299103 -11.790794 26.092441 0.185764 2.039674 0.263494 -0.032542 -25172.500000 0 0 1
21.570677 3.732103 -11.946294 24.938658 0.171321 2.070342 0.247563 -0.055870 1188920.000000 0 1 0
20.834677 4.299403 -13.057194 24.961149 0.203502 2.121281 0.183997 -0.063112 197081.000000 0 1 0
19.708077 3.312103 -13.534494 24.136298 0.166502 2.166091 0.177453 -0.069863 324927.000000 0 1 0
20.266877 2.111903 -14.024794 24.736639 0.103830 2.173612 0.182863 -0.085446 354695.000000 0 1 0
20.173977 1.069103 -13.041994 24.046330 0.052945 2.144051 0.218923 -0.092471 -447613.000000 0 1 0
21.191377 -0.099297 -13.185294 24.958692 -0.004686 2.127375 0.236429 -0.081266 166061.000000 0 1 0
22.522677 0.391603 -12.964094 25.990231 0.017385 2.093017 0.290204 -0.064077 1119150.000000 0 0 1
23.347177 0.714503 -14.093194 27.280384 0.030594 2.113678 0.196998 -0.052944 273996.000000 0 0 1
23.789177 -0.473497 -15.012294 28.133932 -0.019901 2.133649 0.153786 -0.037225 -105189.000000 0 0 1
22.730577 -0.938997 -15.899294 27.755151 -0.041286 2.180764 0.164622 -0.033248 716807.000000 0 0 1
23.117277 -1.924997 -16.803894 28.644109 -0.083079 2.197705 0.109171 -0.017568 -512732.000000 0 0 1
21.925177 -2.436597 -17.608394 28.225980 -0.110678 2.244438 0.115748 -0.031397 -326494.000000 0 0 1
21.270977 -3.468297 -16.909894 27.393943 -0.161631 2.236085 0.154130 -0.028176 -425597.000000 0 0 1
20.417377 -4.205797 -17.700994 27.347454 -0.203149 2.274785 0.122059 -0.018580 -392251.000000 0 0 1
19.642677 -5.277397 -16.858794 26.417885 -0.262472 2.262900 0.126080 -0.027111 433508.000000 0 0 1
20.487677 -6.384697 -16.408294 27.013726 -0.302097 2.223587 0.132469 -0.022725 1055010.000000 0 0 1
19.758077 -7.428897 -15.750994 26.337501 -0.359641 2.211855 0.146354 -0.024573 190410.000000 0 0 1
20.738077 -8.471797 -15.183894 27.062702 -0.387824 2.166466 0.183072 -0.026012 361381.000000 0 0 1
21.411077 -9.266097 -16.179594 28.391443 -0.408434 2.177151 0.160569 -0.024495 872478.000000 0 0 1
22.450377 -10.057097 -15.600894 29.129925 -0.421165 2.135970 0.143565 -0.020599 -30344.700000 0 0 1
23.076577 -11.082397 -16.543994 30.480349 -0.447719 2.144535 0.111643 -0.023151 247796.000000 0 0 1
23.991877 -10.600297 -17.562894 31.566307 -0.416038 2.160820 0.096548 -0.017003 709926.000000 0 0 1
24.357977 -11.651997 -18.470894 32.714737 -0.446190 2.170751 0.085487 -0.023169 -389253.000000 0 0 1
23.524277 -11.769197 -19.812694 32.930965 -0.463888 2.216353 0.089768 -0.024084 860991.000000 0 0 1
22.157777 -12.125097 -19.617894 31.981977 -0.500703 2.231161 0.096445 -0.028238 401550.000000 0 0 1
21.947377 -13.493697 -19.377794 32.237651 -0.551246 2.215663 0.070945 -0.021155 571093.000000 0 0 1
20.403077 -13.821197 -19.270994 31.283898 -0.595402 2.234456 0.075606 -0.024942 1100180.000000 0 0 1
19.655577 -13.410497 -20.395094 31.339161 -0.598730 2.279416 0.081718 -0.010596 -1184320.000000 0 0 1
18.326577 -13.739497 -20.275594 30.589818 -0.643311 2.295377 0.105124 -0.020143 -1101650.000000 0 0 1
17.453977 -13.109397 -21.381194 30.555737 -0.644194 2.345835 0.095537 -0.020940 -312398.000000 0 0 1
17.607677 -13.804697 -22.625394 31.819938 -0.664918 2.361779 0.081404 -0.016261 522861.000000 0 0 1
16.998977 -13.041897 -23.676694 31.931836 -0.654429 2.406064 0.086156 -0.023450 71743.600000 0 0 1
17.050077 -13.748897 -25.036594 33.265122 -0.678621 2.422856 0.073724 -0.030333 -322907.000000 0 0 1
16.074677 -14.764797 -25.116634 33.275213 -0.742950 2.426169 0.083959 -0.028693 263332.000000 0 0 1
16.162077 -15.411097 -26.413264 34.588657 -0.761617 2.439728 0.081211 -0.026846 -213303.000000 0 0 1
17.120977 -16.611997 -26.523134 35.673000 -0.770311 2.409096 0.097894 -0.022704 94786.300000 0 0 1
18.496877 -16.257697 -26.521804 36.191895 -0.721059 2.393240 0.094539 -0.018154 392605.000000 0 0 1
19.242477 -17.483497 -26.730824 37.289175 -0.737540 2.370073 0.107830 -0.018282 -141931.000000 0 0 1
20.748477 -17.305197 -26.927614 38.145322 -0.695159 2.354520 0.087905 -0.010519 -259987.000000 0 0 1
21.288577 -16.891797 -25.681444 37.390813 -0.670745 2.327926 0.081245 -0.015280 -375578.000000 0 0 1
22.649477 -16.554197 -25.832174 38.135829 -0.631156 2.314982 0.091845 -0.015520 38572.900000 0 0 1
23.277977 -16.042097 -24.477494 37.394663 -0.603409 2.284412 0.107966 -0.023498 58226.700000 0 0 1
22.948677 -14.723797 -24.071494 36.371264 -0.570445 2.294050 0.110891 -0.025482 -857861.000000 0 0 1
21.670477 -14.477397 -23.607194 35.163962 -0.588974 2.306820 0.104479 -0.024948 -697198.000000 0 0 1
21.545977 -13.049597 -22.962994 34.085484 -0.544573 2.309985 0.097020 -0.025073 44696.800000 0 0 1
21.833877 -12.000097 -23.867694 34.501991 -0.502543 2.334744 0.113682 -0.025340 204880.000000 0 0 1
21.470277 -10.758597 -23.289794 33.453471 -0.464521 2.340865 0.115697 -0.027015 -26602.300000 0 0 1
22.060077 -9.573197 -24.037294 34.001245 -0.409436 2.355978 0.119175 -0.019882 -96143.600000 0 0 1
21.649677 -8.363997 -23.445994 32.990599 -0.368670 2.361271 0.109314 -0.015493 22694.600000 0 0 1
21.492977 -7.375997 -24.396194 33.339582 -0.330588 2.391680 0.088711 -0.013883 -111872.000000 0 0 1
20.860977 -6.077897 -23.774994 32.208253 -0.283504 2.401142 0.078670 -0.018001 -313785.000000 0 0 1
19.507877 -6.335897 -23.508794 31.198787 -0.314039 2.424191 0.098609 -0.018721 -63493.000000 0 0 1
18.896877 -5.393397 -22.550594 29.911704 -0.278020 2.424783 0.092915 -0.020209 179387.000000 0 0 1
19.503277 -5.382497 -21.135994 29.258834 -0.269276 2.378034 0.096640 -0.015341 -624973.000000 0 0 1
19.236677 -6.449597 -20.284994 28.690208 -0.323498 2.356094 0.105516 -0.027293 160349.000000 0 0 1
19.902477 -7.679097 -20.567394 29.632665 -0.368237 2.337935 0.091773 -0.021969 -223182.000000 0 0 1
19.718377 -8.806997 -19.518394 29.109196 -0.420055 2.305710 0.101876 -0.029703 544549.000000 0 0 1
18.327477 -9.137297 -19.499494 28.277498 -0.462493 2.331700 0.127028 -0.033962 542325.000000 0 0 1
17.966877 -10.283797 -18.776594 27.948625 -0.519860 2.307467 0.140574 -0.036998 -526833.000000 0 0 1
16.469477 -10.453697 -18.602094 26.954802 -0.565567 2.332454 0.163021 -0.041666 -904727.000000 0 0 1
15.862177 -9.667497 -17.527794 25.540022 -0.547353 2.327169 0.181789 -0.038341 699001.000000 0 0 1
14.446877 -9.784797 -17.652994 24.821014 -0.595325 2.362017 0.142694 -0.050501 647225.000000 0 1 0
13.756777 -8.378497 -17.378094 23.694858 -0.547044 2.394124 0.169795 -0.033793 -460577.000000 0 1 0
12.416577 -8.274097 -17.709894 23.157557 -0.587801 2.441460 0.158868 -0.045601 -946838.000000 0 1 0
11.883677 -7.036597 -17.313094 22.146754 -0.534607 2.468254 0.155148 -0.045744 1305510.000000 0 1 0
10.331477 -6.930397 -17.615394 21.565527 -0.590861 2.526693 0.134792 -0.039729 1174420.000000 0 1 0
9.895377 -6.466997 -18.862494 22.260598 -0.578858 2.581769 0.128518 -0.048954 -674650.000000 0 1 0
8.533877 -6.174397 -18.766594 21.520579 -0.626335 2.630131 0.120347 -0.058256 -620265.000000 0 1 0
7.974577 -5.833997 -20.127294 22.421806 -0.631604 2.685241 0.130893 -0.062008 -248547.000000 0 1 0
7.915977 -6.890297 -21.033694 23.506492 -0.716235 2.678787 0.125350 -0.057486 295218.000000 0 1 0
7.348277 -6.496897 -22.322494 24.382383 -0.723983 2.727588 0.130938 -0.053126 262410.000000 0 1 0
7.536277 -7.454797 -23.473194 25.755782 -0.779963 2.717411 0.119918 -0.045698 -267028.000000 0 0 1
6.954977 -8.703297 -23.263094 25.793229 -0.896592 2.694961 0.120498 -0.039519 36420.200000 0 0 1
6.973077 -9.540197 -24.416794 27.125984 -0.939622 2.690854 0.104887 -0.019540 -189624.000000 0 0 1
5.905777 -10.652497 -24.447994 27.314068 -1.064579 2.679384 0.093268 -0.016842 -248288.000000 0 0 1
6.262577 -11.837297 -23.772994 27.285467 -1.084176 2.628579 0.080514 -0.027706 291952.000000 0 0 1
5.145177 -12.678497 -23.510294 27.202042 -1.185283 2.614522 0.095475 -0.042274 -302233.000000 0 0 1
5.619977 -13.753697 -22.510794 26.971915 -1.182885 2.558205 0.096589 -0.033833 417656.000000 0 0 1
6.641477 -14.724897 -22.835394 27.971182 -1.147080 2.525928 0.104059 -0.023131 661486.000000 0 0 1
7.916577 -14.201597 -23.174194 28.309024 -1.062257 2.529792 0.093438 -0.027346 205816.000000 0 0 1
8.784577 -13.608697 -22.004594 27.323389 -0.997583 2.507044 0.120222 -0.026499 -248240.000000 0 0 1
9.435777 -14.502297 -21.099594 27.286322 -0.993971 2.454773 0.119843 -0.022335 -73982.800000 0 0 1
8.578177 -15.288197 -20.317094 26.834649 -1.059472 2.429692 0.134593 -0.026775 -238333.000000 0 0 1
9.126377 -15.701997 -18.911594 26.220066 -1.044297 2.376422 0.131668 -0.028186 2493.910000 0 0 1
10.077277 -16.737497 -18.904194 27.185729 -1.028850 2.339734 0.136348 -0.027213 -145003.000000 0 0 1
10.560777 -17.052097 -17.580094 26.671403 -1.016289 2.290466 0.143326 -0.028904 136115.000000 0 0 1
9.465477 -17.690297 -16.636394 26.063604 -1.079491 2.263084 0.106869 -0.033295 76233.700000 0 0 1
9.189277 -19.072497 -16.909794 27.095094 -1.121808 2.244763 0.123010 -0.037520 32.501500 0 0 1
8.543177 -19.406097 -18.136294 27.901750 -1.156095 2.278388 0.129997 -0.028525 290758.000000 0 0 1
6.994277 -19.180797 -18.096994 27.282303 -1.221130 2.296048 0.136150 -0.031581 304192.000000 0 0 1
6.590777 -17.829997 -17.937294 26.136060 -1.216728 2.327192 0.139771 -0.033751 -381552.000000 0 0 1
5.212477 -17.739797 -17.672794 25.577294 -1.285010 2.333608 0.113326 -0.029230 -151563.000000 0 0 1
4.833877 -16.363197 -17.116194 24.167844 -1.283554 2.357773 0.085912 -0.018975 -175323.000000 0 1 0
5.219877 -16.034897 -15.810094 23.115452 -1.256083 2.323976 0.051562 -0.019495 153418.000000 0 1 0
4.735077 -14.751597 -15.406294 21.849130 -1.260198 2.353391 0.031969 -0.015681 -146960.000000 0 1 0
11.483377 29.429003 -18.235694 36.475673 1.198761 2.094327 0.074216 -0.021199 -227625.000000 0 0 1
10.543277 28.845303 -19.078994 36.155501 1.220371 2.126678 0.108186 -0.023910 -1033840.000000 0 0 1
9.325877 28.601903 -18.477994 35.305483 1.255608 2.121603 0.092880 -0.015659 -892506.000000 0 0 1
8.196877 28.127903 -19.358194 35.115630 1.287235 2.154682 0.106971 -0.021578 -581765.000000 0 0 1
7.575677 29.076503 -20.141994 36.173663 1.315920 2.161341 0.102981 -0.021348 -4256.660000 0 0 1
6.853777 28.416203 -21.219194 36.120757 1.334124 2.198702 0.102481 -0.029972 745631.000000 0 0 1
5.550177 29.156403 -21.678794 36.754190 1.382688 2.201647 0.087709 -0.035506 24266.200000 0 0 1
4.494277 29.041103 -20.772094 35.986999 1.417259 2.186106 0.087704 -0.031207 -542926.000000 0 0 1
3.496777 29.934803 -21.204294 36.850265 1.454510 2.183911 0.120950 -0.051476 -538151.000000 0 0 1
2.093377 29.736803 -20.575994 36.221972 1.500515 2.174934 0.150215 -0.045078 375575.000000 0 0 1
1.338777 28.551203 -20.885894 35.400341 1.523940 2.201844 0.154526 -0.069471 282808.000000 0 0 1
0.978477 28.385003 -22.212894 36.056602 1.536338 2.234523 0.208640 -0.087046 -635424.000000 0 0 1
0.097077 27.122903 -22.419194 35.189226 1.567217 2.261531 0.177039 -0.077155 -515647.000000 0 0 1
-1.240123 27.235403 -22.081194 35.083960 -1.525294 2.251553 0.184309 -0.072676 -655380.000000 0 0 1
-1.873823 25.967403 -22.074294 34.133440 -1.498761 2.274054 0.184003 -0.083658 35729.600000 0 0 1
-2.937623 25.730503 -20.999294 33.341548 -1.457120 2.252122 0.164056 -0.074480 -13423.800000 0 0 1
-4.101523 26.533803 -21.083594 34.137709 -1.417433 2.236489 0.169277 -0.068662 -299446.000000 0 0 1
-4.978823 26.231603 -20.061694 33.396965 -1.383225 2.215178 0.166131 -0.064431 -318017.000000 0 0 1
-6.339923 26.962103 -20.216594 34.290820 -1.339850 2.201314 0.166640 -0.073608 345711.000000 0 0 1
-7.326423 26.254403 -19.449294 33.485000 -1.298664 2.190552 0.140250 -0.054103 377751.000000 0 0 1
-8.349823 27.181003 -19.027894 34.213846 -1.272753 2.160538 0.138612 -0.064318 -2742.710000 0 0 1
-9.574723 26.478703 -18.461394 33.669276 -1.223824 2.151145 0.169570 -0.060561 -343182.000000 0 0 1
-9.379423 25.864303 -17.214894 32.454404 -1.222906 2.129908 0.167144 -0.071787 213709.000000 0 0 1
-10.561023 25.114703 -16.917194 32.069846 -1.172734 2.126464 0.142915 -0.060751 335832.000000 0 0 1
-10.620723 24.414303 -15.557894 30.836764 -1.160469 2.099627 0.134620 -0.035986 166717.000000 0 0 1
-9.640523 23.400103 -15.436194 29.644234 -1.180000 2.118484 0.155669 -0.038328 -227874.000000 0 0 1
-9.839823 22.639603 -14.283494 28.520027 -1.160798 2.095346 0.145219 -0.033163 351907.000000 0 0 1
-9.098823 21.245603 -14.146694 27.097845 -1.166160 2.120060 0.133977 -0.016193 260749.000000 0 0 1
-9.853723 20.160203 -14.680594 26.815098 -1.116172 2.150140 0.137400 -0.014462 142790.000000 0 0 1
-10.220123 20.191403 -16.086294 27.765312 -1.102231 2.188748 0.152589 -0.013990 519326.000000 0 0 1
-9.020423 19.782203 -16.976194 27.584321 -1.142975 2.233727 0.159101 -0.019073 508784.000000 0 0 1
-8.490823 18.438003 -16.951894 26.446564 -1.139240 2.266579 0.151928 -0.018329 178383.000000 0 0 1
-7.450823 18.364303 -17.922894 26.720639 -1.185366 2.306017 0.133872 -0.023326 407900.000000 0 0 1
-6.909823 16.938903 -18.114894 25.745320 -1.183476 2.351274 0.092204 -0.018660 504581.000000 0 0 1
-7.901123 16.086803 -18.744794 25.934153 -1.114249 2.378619 0.121790 -0.028907 515198.000000 0 0 1
-7.439823 15.259603 -19.841694 26.113202 -1.117158 2.433854 0.092017 -0.030673 422074.000000 0 0 1
-6.150423 14.396403 -19.621394 25.101459 -1.167047 2.468157 0.053300 -0.022240 123650.000000 0 0 1
-6.321223 13.270903 -18.732794 23.811601 -1.126270 2.476256 0.050895 -0.024397 -169030.000000 0 1 0
-5.082823 12.710203 -18.374794 22.913259 -1.190375 2.501313 0.037971 -0.016066 210703.000000 0 1 0
-4.411123 13.427403 -17.168794 22.237821 -1.253387 2.452863 0.012709 -0.003498 56922.600000 0 1 0
-3.974523 14.771303 -17.404194 23.170978 -1.307951 2.420554 0.023904 -0.013986 -296150.000000 0 1 0
-3.167923 15.274303 -16.364694 22.608479 -1.366294 2.380133 0.018030 -0.003771 200755.000000 0 1 0
-2.503923 16.677603 -16.650794 23.699389 -1.421773 2.349818 0.050708 -0.009606 582688.000000 0 1 0
-3.393523 17.790803 -16.759294 24.675953 -1.382315 2.317435 0.051661 -0.015458 454624.000000 0 1 0
-2.568123 18.952803 -16.663194 25.366633 -1.436116 2.287488 0.069102 -0.018506 336090.000000 0 0 1
-3.203223 20.189303 -17.223194 26.730264 -1.413448 2.270947 0.081907 -0.021474 62689.900000 0 0 1
-3.183023 20.173803 -18.652294 27.659032 -1.414306 2.310901 0.078813 -0.015136 -193037.000000 0 0 1
-3.697223 21.343003 -19.281494 28.999470 -1.399270 2.298145 0.114715 -0.026922 223399.000000 0 0 1
-2.616923 22.461003 -19.455394 29.830477 -1.454810 2.281277 0.100905 -0.045483 28694.800000 0 0 1
-1.609123 21.996103 -20.362194 30.017275 -1.497772 2.316310 0.122673 -0.045540 -143587.000000 0 0 1
-0.426223 22.756003 -20.365194 30.541095 -1.552068 2.300720 0.127404 -0.052645 277006.000000 0 0 1
0.561477 22.366803 -19.219394 29.495326 1.545698 2.280499 0.113633 -0.048792 -486393.000000 0 0 1
0.083377 22.508203 -17.916694 28.768631 1.567092 2.243095 0.103904 -0.041980 -441214.000000 0 0 1
1.031177 21.959203 -16.999494 27.789436 1.523872 2.229036 0.109439 -0.038745 229589.000000 0 0 1
0.628177 21.939203 -15.531694 26.887856 1.542172 2.186640 0.118511 -0.039325 -123025.000000 0 0 1
-0.325923 21.022803 -15.065694 25.865801 -1.555294 2.192543 0.092084 -0.026192 -157831.000000 0 0 1
-0.221823 21.047203 -13.690994 25.109307 -1.560257 2.147491 0.106115 -0.026003 -566583.000000 0 0 1
-1.244423 20.078103 -13.232894 24.078794 -1.508896 2.152641 0.081415 -0.018063 -623754.000000 0 1 0
-0.914523 18.715903 -13.503994 23.097170 -1.521972 2.195257 0.057143 -0.010263 -106158.000000 0 1 0
-1.959523 17.835303 -13.182994 22.264975 -1.461368 2.204453 0.049149 0.000926 238027.000000 0 1 0
-1.378123 16.367003 -13.162594 21.048323 -1.486793 2.246378 0.023766 0.006369 -573481.000000 0 1 0
-0.479623 16.128703 -12.108394 20.173704 -1.541068 2.214556 0.018193 -0.000018 201026.000000 0 1 0
-0.055323 14.743603 -11.957194 18.982924 -1.567044 2.252211 0.013404 -0.000608 90158.400000 0 1 0
0.643677 14.139603 -13.162194 19.328375 1.525305 2.319893 0.011243 -0.004691 -1236140.000000 0 1 0
-0.170723 13.571003 -14.133294 19.594675 -1.558217 2.376448 0.015101 -0.023029 -691965.000000 0 1 0
0.538477 12.926303 -15.151894 19.923835 1.529163 2.434865 0.014872 -0.017850 -876425.000000 0 1 0
-0.297823 12.496403 -16.372894 20.599041 -1.546968 2.489536 0.012396 -0.018663 -51800.500000 0 1 0
-0.565123 13.573303 -17.199594 21.917572 -1.529185 2.473073 0.019715 -0.024951 -187355.000000 0 1 0
-0.105223 13.281603 -18.472694 22.751978 -1.562874 2.518223 0.021992 -0.021364 -412270.000000 0 1 0
-0.546523 14.332803 -19.511094 24.215919 -1.532684 2.507676 0.021798 -0.008617 -297368.000000 0 1 0
0.087277 15.580403 -19.404794 24.885792 1.565195 2.465069 0.029885 -0.017327 -426384.000000 0 1 0
-0.692323 16.697903 -19.833194 25.935591 -1.529358 2.441387 0.069939 -0.033298 -244601.000000 0 0 1
0.069677 17.983103 -20.209794 27.052406 1.566922 2.414426 0.087177 -0.037046 -86919.000000 0 0 1
0.737777 17.806703 -21.452594 27.889726 1.529387 2.448374 0.115562 -0.052618 -44837.500000 0 0 1
1.280377 19.045803 -21.865694 29.025688 1.503671 2.423895 0.109963 -0.050226 -247035.000000 0 0 1
1.862277 18.988603 -23.265894 30.088818 1.473036 2.454732 0.114133 -0.057748 -579371.000000 0 0 1
3.094777 18.306403 -23.242294 29.747375 1.403325 2.467578 0.117834 -0.048415 -363645.000000 0 0 1
3.603777 18.214503 -24.537694 30.770990 1.375467 2.493820 0.123158 -0.057573 713846.000000 0 0 1
4.721877 17.130503 -24.807194 30.514704 1.301834 2.520011 0.114295 -0.042996 975577.000000 0 0 1
5.967377 17.342103 -24.085294 30.273083 1.239389 2.490795 0.106418 -0.038201 990055.000000 0 0 1
6.906977 16.299903 -24.262894 30.034667 1.169990 2.511257 0.112914 -0.036278 300686.000000 0 0 1
7.543177 16.207703 -25.691184 31.298980 1.135204 2.533661 0.118517 -0.046439 -1390040.000000 0 0 1
8.683677 16.999303 -25.886124 32.163240 1.098526 2.506195 0.117314 -0.040987 77554.800000 0 0 1
9.188777 17.059503 -27.251454 33.438033 1.076724 2.523498 0.129587 -0.051177 433491.000000 0 0 1
9.761577 15.743303 -27.896474 33.486613 1.015767 2.555419 0.135781 -0.057780 -135472.000000 0 0 1
11.002377 15.321303 -27.360534 33.232416 0.948019 2.538012 0.135608 -0.051747 144080.000000 0 0 1
11.388477 13.967003 -27.524794 32.899680 0.886745 2.561895 0.118732 -0.044286 -174045.000000 0 0 1
10.651677 12.918003 -26.697804 31.513581 0.881258 2.581459 0.111918 -0.041023 -1292920.000000 0 0 1
9.283877 12.925703 -26.790694 31.160961 0.947927 2.605580 0.116181 -0.044301 -743341.000000 0 0 1
8.628677 12.037803 -25.772204 29.724894 0.948885 2.619995 0.124471 -0.040190 -594268.000000 0 0 1
7.139477 12.009103 -25.891864 29.420730 1.034427 2.646775 0.102513 -0.043682 -1893150.000000 0 0 1
6.528477 12.985303 -25.086734 28.992816 1.104944 2.616493 0.129787 -0.038269 -383545.000000 0 0 1
5.130377 12.864603 -25.043394 28.618008 1.191327 2.636423 0.129736 -0.048441 74603.300000 0 0 1
4.342977 13.476003 -26.254554 29.828941 1.259031 2.647018 0.154299 -0.044088 -620230.000000 0 0 1
4.394277 12.721203 -27.473614 30.593107 1.238199 2.686074 0.153075 -0.057990 1061210.000000 0 0 1
3.525277 13.235303 -28.561074 31.675477 1.310486 2.694430 0.140933 -0.077114 757992.000000 0 0 1
4.031677 12.777703 -29.993024 32.849743 1.265158 2.721465 0.200740 -0.076899 137317.000000 0 0 1
5.188477 13.477303 -30.444024 33.695647 1.203306 2.698664 0.168672 -0.065983 432174.000000 0 0 1
5.521077 13.138603 -31.753254 34.804804 1.172983 2.719720 0.165517 -0.066183 -136267.000000 0 0 1
6.745877 12.185703 -32.002394 34.902027 1.065201 2.731091 0.155778 -0.059226 1272060.000000 0 0 1
8.051377 12.694803 -31.615714 35.007658 1.005590 2.697751 0.174410 -0.056249 1326070.000000 0 0 1
8.342677 12.721803 -30.173874 33.792118 0.990370 2.674600 0.155150 -0.052883 -468019.000000 0 0 1
8.334177 11.292903 -29.573994 32.735445 0.935019 2.698486 0.137631 -0.041961 -469084.000000 0 0 1
9.429577 10.489203 -29.937074 33.093334 0.838545 2.701297 0.114778 -0.034438 -149734.000000 0 0 1
9.242077 9.087303 -29.529224 32.248569 0.776954 2.727982 0.107665 -0.038605 -109876.000000 0 0 1
10.375977 8.103603 -29.903084 32.672982 0.663046 2.726859 0.091666 -0.028522 -420817.000000 0 0 1
11.549377 8.317503 -29.205174 32.488632 0.624134 2.688129 0.082355 -0.025938 -694408.000000 0 0 1
12.482377 7.284703 -29.410664 32.769862 0.528273 2.684844 0.072977 -0.021494 -305901.000000 0 0 1
13.696777 7.296703 -28.451684 32.408979 0.489489 2.642245 0.070820 -0.007590 376821.000000 0 0 1
14.407077 6.070203 -28.279074 32.312804 0.398762 2.636576 0.087471 -0.014027 758144.000000 0 0 1
15.376477 5.802403 -29.327384 33.618439 0.360834 2.630806 0.085142 -0.016643 152530.000000 0 0 1
16.170177 4.493303 -29.029634 33.531837 0.271038 2.617410 0.092130 -0.028178 197919.000000 0 0 1
16.933377 4.624403 -27.819184 32.894246 0.266593 2.578702 0.068641 -0.016221 365586.000000 0 0 1
18.013477 3.704203 -27.887374 33.405271 0.202808 2.558601 0.087082 -0.029947 506098.000000 0 0 1
18.873477 3.698603 -26.548914 32.783116 0.193516 2.514667 0.078098 -0.016879 281466.000000 0 0 1
19.839077 4.711603 -26.417184 33.371482 0.233171 2.484235 0.112415 -0.020307 84900.600000 0 0 1
20.390777 4.879303 -25.092464 32.698978 0.234873 2.445538 0.117504 -0.019052 -297016.000000 0 0 1
21.539877 5.869203 -25.155114 33.633222 0.266023 2.415726 0.102249 -0.009136 -719182.000000 0 0 1
21.141177 7.172503 -25.455544 33.858218 0.327081 2.421626 0.113331 -0.008416 33007.700000 0 0 1
22.149977 7.954003 -26.052184 35.108460 0.344756 2.406918 0.116650 -0.024989 -633952.000000 0 0 1
22.184977 7.796603 -27.622034 36.275846 0.337954 2.436335 0.142202 -0.029707 694882.000000 0 0 1
21.057977 8.414103 -28.288624 36.255783 0.380134 2.465864 0.119359 -0.019456 1173850.000000 0 0 1
19.845477 7.670303 -28.203714 35.328827 0.368816 2.495297 0.116929 -0.016563 99119.100000 0 0 1
18.595177 8.295203 -28.864634 35.323620 0.419601 2.527243 0.107829 -0.018915 147899.000000 0 0 1
18.667477 8.326003 -30.275014 36.529078 0.419536 2.547742 0.093319 -0.015441 -328939.000000 0 0 1
17.573477 9.040803 -30.732854 36.538631 0.475146 2.570121 0.073998 -0.010015 -592785.000000 0 0 1
17.059977 8.646603 -32.112894 37.377059 0.469101 2.604423 0.055997 -0.002800 -127028.000000 0 0 1
16.311477 7.448603 -32.142104 36.805718 0.428369 2.632713 0.059029 -0.005141 61759.300000 0 0 1
15.125477 7.639603 -32.881474 36.991012 0.467705 2.665744 0.056824 -0.006468 -22838.900000 0 0 1
14.413477 6.301103 -33.137094 36.681320 0.412131 2.698378 0.066898 -0.013925 -207934.000000 0 0 1
13.927577 5.592603 -32.039074 35.380177 0.381841 2.703508 0.070938 -0.016416 75841.000000 0 0 1
13.112377 4.561303 -32.578504 35.413259 0.334769 2.738755 0.069970 -0.017294 102985.000000 0 0 1
12.810777 3.443403 -31.517714 34.195605 0.262583 2.743209 0.075277 -0.020917 193263.000000 0 0 1
13.941277 2.644203 -31.199684 34.274937 0.187441 2.714749 0.084309 -0.028960 370699.000000 0 0 1
13.673577 1.739203 -30.081914 33.089472 0.126515 2.711935 0.089970 -0.030477 -185966.000000 0 0 1
12.862377 0.473603 -30.273474 32.896023 0.036804 2.739586 0.097007 -0.029872 117229.000000 0 0 1
13.544277 -0.600797 -30.961574 33.799815 -0.044329 2.728859 0.099966 -0.034624 181439.000000 0 0 1
14.423877 -1.313297 -30.124554 33.425466 -0.090800 2.693432 0.108833 -0.040194 -8988.320000 0 0 1
14.999177 -2.607297 -30.733564 34.297599 -0.172110 2.681666 0.115687 -0.035929 116327.000000 0 0 1
14.116577 -3.699297 -30.761704 34.047687 -0.256290 2.698637 0.113157 -0.030611 28461.900000 0 0 1
14.781377 -4.737297 -31.410504 35.036422 -0.310148 2.682624 0.129668 -0.031062 -282.304000 0 0 1
13.966177 -6.058197 -31.574034 35.052468 -0.409281 2.692324 0.121225 -0.035005 -8328.380000 0 0 1
13.921477 -6.686997 -30.310924 34.018754 -0.447794 2.670353 0.116236 -0.026286 412666.000000 0 0 1
13.394077 -8.045997 -30.456724 34.230855 -0.540944 2.667582 0.126596 -0.032817 189355.000000 0 0 1
13.582777 -8.848497 -29.153194 33.357105 -0.577394 2.634114 0.101698 -0.029499 1670510.000000 0 0 1
14.989077 -9.062497 -28.773184 33.685270 -0.543800 2.594762 0.089561 -0.032297 1753130.000000 0 0 1
15.156277 -9.708297 -27.581324 32.934681 -0.569701 2.563407 0.092519 -0.032312 -14564.800000 0 0 1
15.262177 -11.292797 -27.708274 33.588834 -0.637019 2.540866 0.080133 -0.017770 -721019.000000 0 0 1
14.079777 -11.815297 -28.174434 33.639859 -0.698172 2.563546 0.065256 -0.021053 -687061.000000 0 0 1
14.378177 -13.088997 -28.686554 34.655046 -0.738497 2.545925 0.064894 -0.019832 135877.000000 0 0 1
-10.001623 -3.355697 -17.708594 20.612799 0.323713 2.604318 0.035533 -0.005412 -234677.000000 0 1 0
-10.957723 -2.932697 -18.604394 21.789812 0.261508 2.594060 0.067052 -0.021350 -23113.100000 0 1 0
-11.948423 -3.935097 -18.905794 22.708563 0.318152 2.554474 0.079844 -0.027608 603484.000000 0 1 0
-12.980623 -3.495297 -19.976994 24.078911 0.263032 2.549271 0.102772 -0.042461 -230999.000000 0 1 0
-13.791123 -2.430297 -19.580494 24.072747 0.174431 2.520750 0.107900 -0.036363 -416845.000000 0 1 0
-14.644023 -2.138897 -20.647794 25.403813 0.145034 2.519710 0.105016 -0.028480 -264874.000000 0 0 1
-15.550323 -0.907597 -20.446994 25.704394 0.058299 2.490574 0.112399 -0.030274 51144.600000 0 0 1
-14.897423 0.345103 -20.587294 25.414346 -0.023161 2.515061 0.120203 -0.031427 -357452.000000 0 0 1
-15.691723 1.440103 -20.258094 25.665043 -0.091518 2.480507 0.117841 -0.029759 -353612.000000 0 0 1
-15.302823 2.738503 -20.891394 26.040855 -0.177080 2.501859 0.152019 -0.034650 815955.000000 0 0 1
-14.092323 3.364603 -20.399694 25.021224 -0.234367 2.524036 0.162001 -0.033111 1000040.000000 0 0 1
-13.890323 4.655303 -20.953794 25.567057 -0.323382 2.531443 0.173510 -0.040830 140159.000000 0 0 1
-12.554223 5.380803 -20.633094 24.744416 -0.404920 2.556840 0.152514 -0.039333 62101.800000 0 1 0
-12.552123 5.871003 -19.294894 23.755366 -0.437500 2.518766 0.152473 -0.048153 56721.300000 0 1 0
-11.258523 6.187403 -18.855894 22.816289 -0.502517 2.543520 0.114312 -0.037156 -552330.000000 0 1 0
-11.241223 6.955003 -17.509494 21.938996 -0.554060 2.494930 0.110323 -0.039068 154209.000000 0 1 0
-11.909523 8.230903 -17.497894 22.710368 -0.604741 2.450391 0.130655 -0.052127 -589704.000000 0 1 0
-13.163123 8.179803 -16.924494 22.948104 -0.556019 2.400175 0.155225 -0.040548 -1145690.000000 0 1 0
-13.886123 9.512903 -16.996294 23.920572 -0.600632 2.361048 0.171809 -0.047396 -335933.000000 0 1 0
-13.391623 10.532803 -16.063594 23.416118 -0.666468 2.326782 0.138020 -0.038677 415449.000000 0 1 0
-14.107023 11.737503 -16.149594 24.445582 -0.693970 2.292460 0.141386 -0.040884 -268941.000000 0 1 0
-13.414823 12.952903 -15.489494 24.241692 -0.767882 2.263943 0.133982 -0.031154 -276603.000000 0 1 0
-13.329823 12.919503 -14.117194 23.321512 -0.769768 2.220976 0.128779 -0.032612 36570.700000 0 1 0
-12.703323 14.095803 -13.720694 23.416309 -0.837311 2.196843 0.116464 -0.027221 -702571.000000 0 1 0
-13.098323 14.421603 -12.281094 23.029850 -0.833446 2.133256 0.091370 -0.032410 745550.000000 0 1 0
-14.433923 14.806803 -11.986294 23.900854 -0.798150 2.096129 0.085373 -0.033976 398218.000000 0 1 0
-15.470823 13.863803 -12.133194 24.057552 -0.730671 2.099414 0.079057 -0.027576 -58208.000000 0 1 0
-16.897823 14.372703 -11.772294 25.113700 -0.704822 2.058683 0.028873 -0.013295 158147.000000 0 0 1
-17.879423 13.409403 -11.979294 25.357235 -0.643495 2.062832 0.025967 -0.014688 -68879.000000 0 0 1
-19.035323 13.645803 -11.178994 25.952290 -0.621957 2.016122 0.109576 -0.018438 89137.000000 0 0 1
-20.306123 12.990503 -11.741994 26.813546 -0.569124 2.024072 0.099205 -0.031040 -321931.000000 0 0 1
-20.434423 11.633203 -11.469094 26.161750 -0.517536 2.024605 0.111579 -0.030083 -129143.000000 0 0 1
-21.637423 11.076103 -11.914994 27.070745 -0.473119 2.026554 0.158756 -0.028909 -373269.000000 0 0 1
-21.856623 9.647403 -11.423594 26.481746 -0.415675 2.016814 0.149727 -0.028095 331818.000000 0 0 1
-20.841723 8.755603 -11.940094 25.565677 -0.397713 2.056732 0.110549 -0.038635 828360.000000 0 0 1
-20.879023 7.546903 -11.262994 24.894666 -0.346846 2.040280 0.081283 -0.034222 -80934.200000 0 1 0
-19.826823 6.538203 -11.821194 23.991491 -0.318536 2.086014 0.094297 -0.030826 47641.500000 0 1 0
-20.329723 5.587003 -12.717594 24.622133 -0.268198 2.113567 0.127635 -0.034253 268515.000000 0 1 0
-19.382923 4.586303 -13.010394 23.790801 -0.232343 2.149413 0.146420 -0.035615 -339702.000000 0 1 0
-19.987723 3.433603 -13.819394 24.541278 -0.170125 2.168939 0.201753 -0.059717 31247.500000 0 1 0
-20.906723 2.600303 -13.102194 24.809678 -0.123741 2.127168 0.200050 -0.066253 915969.000000 0 1 0
-22.001323 2.285603 -13.962794 26.158016 -0.103514 2.133868 0.199349 -0.062202 545254.000000 0 0 1
-22.747523 0.913303 -13.638594 26.538560 -0.040128 2.110540 0.257300 -0.059260 409667.000000 0 0 1
-24.027723 0.838203 -14.229594 27.937706 -0.034871 2.105206 0.186075 -0.049306 86148.200000 0 0 1
-24.477723 -0.506797 -14.190194 28.298010 0.020701 2.096077 0.179650 -0.056458 -589360.000000 0 0 1
-25.810163 -0.592797 -14.899794 29.808049 0.022964 2.094231 0.158544 -0.041684 -349591.000000 0 0 1
-26.960303 -0.112697 -14.231794 30.486302 0.004180 2.056494 0.199830 -0.054970 296269.000000 0 0 1
-28.145213 -0.401697 -14.944594 31.869347 0.014271 2.058879 0.157850 -0.033524 930457.000000 0 0 1
-29.511873 -0.126297 -14.194994 32.748503 0.004279 2.019119 0.164338 -0.037018 689380.000000 0 0 1
-29.772063 -1.045297 -13.134594 32.557425 0.035096 1.986057 0.194923 -0.038060 -1024470.000000 0 0 1
-30.840883 -0.622097 -12.430194 33.257432 0.020168 1.953853 0.212194 -0.045888 -1319410.000000 0 0 1
-30.791013 -1.101297 -10.951394 32.699119 0.035752 1.912310 0.223447 -0.053288 24220.000000 0 0 1
-31.010053 -2.462097 -10.696194 32.895195 0.079231 1.901977 0.245975 -0.038298 1470590.000000 0 0 1
-29.819293 -3.213797 -11.094394 31.978185 0.107361 1.925099 0.243818 -0.040012 958965.000000 0 0 1
-29.884413 -4.729197 -10.678094 32.085279 0.156948 1.910071 0.233110 -0.051192 -269759.000000 0 0 1
-30.918143 -5.419797 -11.324194 33.369793 0.173532 1.917027 0.215253 -0.040540 -66873.700000 0 0 1
-31.091153 -6.758997 -10.872294 33.623661 0.214062 1.900066 0.199551 -0.038701 491899.000000 0 0 1
-30.165193 -7.888997 -11.571794 33.257804 0.255797 1.926172 0.198251 -0.047313 1174480.000000 0 0 1
-28.816073 -7.778797 -11.110394 31.848337 0.263662 1.927143 0.152404 -0.046517 373577.000000 0 0 1
-28.018723 -8.805697 -11.662994 31.600863 0.304505 1.948807 0.141043 -0.042969 -723647.000000 0 0 1
-26.581503 -8.779297 -11.176994 30.142620 0.318999 1.950671 0.157599 -0.053636 -907250.000000 0 0 1
-25.880083 -7.600397 -11.601494 29.362210 0.285646 1.976991 0.138510 -0.042544 -329629.000000 0 0 1
-24.579223 -7.599697 -11.097094 28.018549 0.299868 1.978021 0.152509 -0.045377 -570969.000000 0 0 1
-24.319023 -7.303897 -9.589794 27.142696 0.291766 1.931904 0.160435 -0.053976 -634191.000000 0 0 1
-24.464523 -5.942397 -9.075394 26.761684 0.238284 1.916777 0.169110 -0.046981 125073.000000 0 0 1
-25.798423 -5.503297 -8.990694 27.868934 0.210169 1.899278 0.171529 -0.045187 -333848.000000 0 0 1
-26.075023 -4.158097 -8.213894 27.652570 0.158135 1.872387 0.191032 -0.053848 -177841.000000 0 0 1
-26.065903 -4.327897 -6.816194 27.287772 0.164536 1.823259 0.202755 -0.049346 220671.000000 0 0 1
-26.630403 -3.199397 -6.223194 27.534390 0.119568 1.798782 0.263220 -0.054464 -39465.300000 0 0 1
-26.240243 -3.023097 -4.697594 26.828284 0.114703 1.746802 0.244425 -0.048964 682477.000000 0 0 1
-24.831923 -2.861797 -4.502794 25.398611 0.114740 1.749023 0.214355 -0.048491 670461.000000 0 0 1
-24.558023 -2.596097 -3.138094 24.893449 0.105322 1.697194 0.179314 -0.041130 1045890.000000 0 1 0
-23.017423 -2.752497 -2.822394 23.352599 0.119018 1.691952 0.159440 -0.032673 936841.000000 0 1 0
-22.796223 -4.148697 -2.717894 23.329518 0.180020 1.687562 0.160382 -0.025896 78528.100000 0 1 0
-21.445223 -4.515897 -2.594994 22.068640 0.207546 1.688656 0.118219 -0.017234 -372306.000000 0 1 0
-21.259023 -6.073597 -2.492894 22.249700 0.278282 1.683074 0.117256 -0.014745 -175270.000000 0 1 0
-21.836623 -6.704297 -1.365594 22.883412 0.297885 1.630508 0.127677 -0.011933 409649.000000 0 1 0
-22.569023 -7.844197 -1.808094 23.961665 0.334504 1.646326 0.133766 -0.011623 14728.900000 0 1 0
-22.812923 -8.894997 -0.733994 24.496717 0.371778 1.600764 0.142998 -0.017229 174384.000000 0 1 0
-21.644323 -9.636497 -0.415094 23.696225 0.418872 1.588315 0.096671 -0.001396 458209.000000 0 1 0
-21.876723 -10.470997 0.711506 24.263944 0.446411 1.541469 0.064063 0.006905 784595.000000 0 1 0
-20.574023 -11.148897 1.299106 23.436637 0.496597 1.515337 0.073268 0.005691 579296.000000 0 1 0
-20.053623 -12.298597 0.614606 23.532552 0.550131 1.544676 0.071318 0.001051 252890.000000 0 1 0
-18.963723 -12.753797 1.379406 22.895084 0.592055 1.510511 0.046278 -0.014445 -245737.000000 0 1 0
-18.285223 -13.962397 0.682606 23.016599 0.652142 1.541135 0.042673 -0.008981 -282312.000000 0 1 0
-19.062723 -15.134797 0.864906 24.355647 0.671039 1.535277 0.075273 -0.003553 526662.000000 0 1 0
-18.576823 -16.335897 0.237706 24.738964 0.721300 1.561188 0.078443 -0.013800 6745.110000 0 1 0
-17.549023 -17.087597 1.146106 24.520761 0.772077 1.524039 0.082296 -0.016544 -451365.000000 0 1 0
-16.289823 -16.469697 1.162506 23.193979 0.790889 1.520654 0.084209 -0.013968 -289876.000000 0 1 0
-15.466823 -17.035597 2.164106 23.110982 0.833627 1.477019 0.097421 -0.017611 -29866.400000 0 1 0
-15.700423 -16.616697 3.651206 23.150576 0.813743 1.412420 0.119311 -0.033541 -489208.000000 0 1 0
-15.330323 -15.253897 3.883306 21.972260 0.782899 1.393126 0.087219 -0.025766 136669.000000 0 1 0
-14.430223 -14.958897 4.927506 21.360717 0.803385 1.338019 0.059331 -0.027467 -267884.000000 0 1 0
-14.904823 -15.307997 6.321706 22.281213 0.798742 1.283121 0.100559 -0.030048 -781028.000000 0 1 0
-16.038123 -14.531097 6.717506 22.660517 0.736139 1.269832 0.093534 -0.021662 596548.000000 0 1 0
-16.415423 -14.771097 8.062806 23.508727 0.732721 1.220719 0.115627 -0.021095 -118808.000000 0 1 0
-17.252023 -16.044597 8.239806 24.959082 0.749151 1.234352 0.100598 -0.019664 -632776.000000 0 1 0
-16.510823 -17.244297 8.053606 25.195904 0.807124 1.245447 0.098812 -0.018135 174731.000000 0 0 1
-17.148923 -18.399697 8.629706 26.591469 0.820569 1.240282 0.115113 -0.030090 143225.000000 0 0 1
-16.893123 -18.646097 10.166106 27.136769 0.834683 1.186804 0.136718 -0.031443 515412.000000 0 0 1
-15.557723 -19.105097 10.361006 26.728223 0.887383 1.172723 0.085168 -0.026987 401367.000000 0 0 1
-15.337623 -19.407497 11.730206 27.376839 0.902002 1.127995 0.101163 -0.033917 412650.000000 0 0 1
-14.006823 -20.176997 12.017306 27.344431 0.963975 1.115778 0.095539 -0.027637 1374590.000000 0 0 1
-12.830123 -19.318897 12.045606 26.132899 0.984557 1.091746 0.090203 -0.035653 987489.000000 0 0 1
-11.674523 -20.175697 12.122006 26.273489 1.046229 1.091249 0.092322 -0.034135 321574.000000 0 0 1
-10.366823 -19.387997 12.195706 25.141612 1.079773 1.064341 0.086754 -0.035715 -295458.000000 0 0 1
-9.795823 -18.629297 11.159606 23.823216 1.086700 1.083279 0.083494 -0.040808 -270335.000000 0 1 0
-8.755423 -17.863997 11.710406 23.084917 1.115087 1.038776 0.076544 -0.040946 -377380.000000 0 1 0
-7.692923 -17.348597 10.747406 21.809667 1.153418 1.055513 0.058039 -0.030042 39141.300000 0 1 0
-6.874723 -18.416697 10.211706 22.152098 1.213528 1.091696 0.063608 -0.025565 215647.000000 0 1 0
-6.173923 -17.838797 9.116806 20.963209 1.237604 1.120874 0.052665 -0.013766 496324.000000 0 1 0
-4.972623 -18.597897 8.452006 21.024869 1.309532 1.157096 0.047474 -0.017664 225884.000000 0 1 0
-3.732923 -18.503397 9.070906 20.942582 1.371726 1.122831 0.055241 -0.020400 -636625.000000 0 1 0
-2.719723 -19.055597 8.274906 20.952010 1.429028 1.164788 0.060379 -0.025718 599572.000000 0 1 0
-1.317723 -19.166097 8.962206 21.198981 1.502152 1.134301 0.062751 -0.031757 -48497.100000 0 1 0
-0.391123 -19.812597 8.189506 21.442014 1.551058 1.178905 0.066343 -0.023397 -1029890.000000 0 1 0
0.817877 -19.872497 8.914806 21.795844 -1.529663 1.149423 0.086984 -0.038656 15254.600000 0 1 0
2.027577 -20.263397 8.017206 21.885883 -1.471067 1.195747 0.098387 -0.051665 128186.000000 0 1 0
2.153377 -21.615397 7.515306 22.985696 -1.471502 1.237716 0.110910 -0.051230 -120565.000000 0 1 0
2.397877 -22.600597 8.546006 24.281083 -1.465094 1.211130 0.135164 -0.060003 -119173.000000 0 1 0
2.421177 -24.104397 8.091006 25.541112 -1.470687 1.248460 0.127201 -0.060313 -174615.000000 0 0 1
2.330577 -24.898697 9.245106 26.661745 -1.477466 1.216687 0.153023 -0.064209 -49037.700000 0 0 1
2.164477 -26.245327 8.812206 27.769715 -1.488512 1.247882 0.160263 -0.065426 -1207670.000000 0 0 1
2.043177 -27.279197 9.982606 29.120123 -1.496037 1.220892 0.182310 -0.072644 243682.000000 0 0 1
0.984577 -27.123397 10.917506 29.254743 -1.534512 1.188354 0.177937 -0.079910 -7237.700000 0 0 1
-0.283623 -27.275937 10.314706 29.162481 1.560398 1.209275 0.162605 -0.069701 -904814.000000 0 0 1
-1.445323 -27.294387 11.297906 29.575584 1.517893 1.178836 0.164122 -0.071693 -148448.000000 0 0 1
-1.400123 -28.469957 12.139606 30.981749 1.521657 1.168176 0.179149 -0.077440 -257359.000000 0 0 1
-1.370923 -28.062587 13.458106 31.152990 1.521983 1.124087 0.161700 -0.073580 -44756.600000 0 0 1
-1.104823 -29.228987 14.415206 32.609085 1.533015 1.112901 0.135306 -0.060842 106546.000000 0 0 1
-1.243823 -28.822527 15.727406 32.857821 1.527669 1.071680 0.139807 -0.059998 -55538.500000 0 0 1
-1.016723 -29.873647 16.605706 34.193829 1.536775 1.063707 0.152344 -0.058373 -133830.000000 0 0 1
-1.436823 -29.545897 18.050206 34.653057 1.522204 1.022911 0.140310 -0.052733 -109092.000000 0 0 1
-2.826123 -29.755847 18.248406 35.020018 1.476103 1.022675 0.133914 -0.054204 230781.000000 0 0 1
-3.032823 -29.678767 19.646606 35.721370 1.468962 0.988437 0.137456 -0.053454 259363.000000 0 0 1
-4.524623 -29.557707 20.055006 36.004631 1.418898 0.980013 0.179664 -0.056261 76110.100000 0 0 1
-5.176323 -28.340347 19.665106 34.881025 1.390139 0.971845 0.145983 -0.053966 535188.000000 0 0 1
-6.408823 -28.208367 20.381206 35.386134 1.347393 0.957011 0.145883 -0.052197 340767.000000 0 0 1
-6.406723 -27.296217 21.613006 35.401293 1.340258 0.914086 0.199711 -0.058092 -506065.000000 0 0 1
-5.722223 -27.759247 22.748806 36.343194 1.367506 0.894455 0.218794 -0.053950 15266.200000 0 0 1
-5.551223 -26.748917 23.702406 36.168006 1.366170 0.856161 0.235771 -0.051409 -587233.000000 0 0 1
-4.332623 -27.103457 24.563206 36.833681 1.412282 0.840798 0.260006 -0.046664 -267013.000000 0 0 1
-4.466723 -28.190657 25.442106 38.235657 1.413656 0.842763 0.247861 -0.045241 52973.100000 0 0 1
-3.956223 -29.370537 24.834206 38.665461 1.436902 0.873322 0.244772 -0.042485 -57524.000000 0 0 1
-4.047623 -30.527477 25.877006 40.223494 1.438976 0.871956 0.235310 -0.026841 185897.000000 0 0 1
-3.281323 -30.456687 27.075006 40.883160 1.463473 0.846974 0.238121 -0.035449 32433.400000 0 0 1
-3.611623 -31.471017 27.967606 42.257019 1.456536 0.847519 0.224842 -0.039650 -312101.000000 0 0 1
-3.020723 -31.301537 29.380406 43.036254 1.474590 0.819359 0.241175 -0.037004 328248.000000 0 0 1
-1.624023 -31.590427 29.411406 43.192861 1.519433 0.821762 0.234481 -0.031484 564456.000000 0 0 1
-1.051823 -31.365817 30.697306 43.900403 1.537275 0.796450 0.220863 -0.041201 167497.000000 0 0 1
-30.050363 2.815303 -9.959994 31.782884 -0.093414 1.889542 0.247789 -0.052053 165748.000000 0 0 1
-30.706063 2.833803 -11.222894 32.815333 -0.092027 1.919842 0.219281 -0.073695 177951.000000 0 0 1
-31.515103 4.006203 -11.322894 33.726240 -0.126442 1.913176 0.181700 -0.060720 -353605.000000 0 0 1
-32.480603 3.935203 -12.477294 35.016542 -0.120568 1.935129 0.173755 -0.056811 -332382.000000 0 0 1
-33.543763 3.018403 -12.276294 35.846927 -0.089742 1.920335 0.185894 -0.061831 -270479.000000 0 0 1
-34.492455 3.079603 -13.289794 37.092210 -0.089047 1.937233 0.176486 -0.047702 -1426770.000000 0 0 1
-35.684197 2.248503 -12.928994 38.020738 -0.062928 1.917768 0.129810 -0.042441 -813514.000000 0 0 1
-35.326653 0.910903 -12.814294 37.590002 -0.025779 1.918667 0.166341 -0.034677 107087.000000 0 0 1
-36.517563 0.174303 -12.644894 38.645260 -0.004773 1.904140 0.142506 -0.037520 279039.000000 0 0 1
-36.258933 -1.309597 -12.283694 38.305540 0.036102 1.897240 0.163912 -0.037555 394134.000000 0 0 1
-35.606188 -2.187697 -13.224894 38.045820 0.061364 1.925811 0.162107 -0.032009 348256.000000 0 0 1
-35.306792 -3.445097 -12.619894 37.652357 0.097268 1.912581 0.176702 -0.039676 67707.900000 0 0 1
-35.416220 -4.621197 -13.549594 38.200204 0.129749 1.933389 0.182838 -0.036682 -9076.580000 0 0 1
-34.950737 -5.866197 -13.062094 37.770155 0.166292 1.923921 0.200060 -0.041936 228028.000000 0 0 1
-35.235552 -6.872997 -14.005294 38.534795 0.192640 1.942760 0.192953 -0.041583 -775514.000000 0 0 1
-35.012021 -8.339697 -13.554794 38.459389 0.233838 1.930978 0.167896 -0.047487 -460855.000000 0 0 1
-33.703243 -8.804497 -13.379194 37.315286 0.255525 1.937505 0.162859 -0.048770 -322435.000000 0 0 1
-33.031083 -8.913097 -14.613194 37.202704 0.263562 1.974470 0.160340 -0.035287 -1145810.000000 0 0 1
-31.783593 -9.759697 -14.332394 36.205883 0.297928 1.977798 0.124000 -0.029870 -645316.000000 0 0 1
-32.021183 -11.164697 -14.284794 36.797581 0.335486 1.969473 0.109815 -0.029583 -98595.300000 0 0 1
-30.886013 -11.978597 -14.193894 36.040244 0.369973 1.975596 0.121071 -0.030432 -442931.000000 0 0 1
-31.296783 -13.423097 -14.483594 37.005981 0.405167 1.972933 0.127550 -0.027423 -19365.400000 0 0 1
-31.411243 -13.624897 -15.851994 37.730488 0.409266 2.004393 0.135694 -0.039687 -230288.000000 0 0 1
-31.789753 -14.908097 -16.258994 38.693599 0.438508 2.004460 0.158959 -0.050100 -121437.000000 0 0 1
-30.895333 -16.190297 -16.064094 38.401854 0.482692 2.002386 0.134211 -0.036382 1073090.000000 0 0 1
-29.577693 -16.006197 -16.625094 37.515757 0.496029 2.029905 0.137632 -0.039724 545312.000000 0 0 1
-28.711053 -17.072997 -16.342094 37.187038 0.536476 2.025790 0.139580 -0.044031 -797704.000000 0 0 1
-27.241283 -16.794997 -16.402594 35.961153 0.552483 2.044426 0.154236 -0.061303 -821504.000000 0 0 1
-26.740093 -16.310297 -17.638894 35.947029 0.547708 2.083679 0.156558 -0.046193 819642.000000 0 0 1
-25.300453 -16.359597 -17.780094 34.984012 0.573990 2.103930 0.118173 -0.025831 929100.000000 0 0 1
-24.859923 -15.733297 -19.111394 35.082728 0.564244 2.146890 0.137355 -0.012914 -319653.000000 0 0 1
-25.405203 -16.494697 -20.136694 36.372872 0.575858 2.157499 0.135337 -0.031555 -482493.000000 0 0 1
-26.566113 -15.822897 -20.531394 37.116850 0.537181 2.156944 0.116212 -0.038926 -830567.000000 0 0 1
-27.509253 -16.694197 -21.382194 38.634873 0.545447 2.157289 0.139614 -0.057586 -366791.000000 0 0 1
-27.042373 -16.997497 -22.688994 39.179016 0.561148 2.188434 0.131931 -0.031391 -3273.870000 0 0 1
-27.816063 -17.951097 -23.384194 40.531417 0.573099 2.185774 0.123744 -0.025737 54052.300000 0 0 1
-27.278973 -18.105597 -24.836994 41.095392 0.585960 2.219776 0.106457 -0.017798 1222190.000000 0 0 1
-25.993193 -18.740597 -25.014694 40.652072 0.624669 2.233609 0.113952 -0.021894 761956.000000 0 0 1
-26.077933 -20.173197 -25.020394 41.388846 0.658418 2.219960 0.099481 -0.028484 379557.000000 0 0 1
-24.734623 -20.838297 -24.567594 40.615303 0.700109 2.220418 0.091078 -0.010390 358077.000000 0 0 1
-23.705023 -20.628997 -25.498054 40.467695 0.716126 2.252458 0.094415 -0.025389 -758462.000000 0 0 1
-22.591723 -21.396597 -25.144994 40.005887 0.758236 2.250461 0.085147 -0.022185 6308.550000 0 0 1
-21.379223 -21.165297 -26.105004 39.831046 0.780370 2.285500 0.061767 -0.028307 -32749.400000 0 0 1
-21.328623 -21.900697 -27.351724 41.020330 0.798631 2.300682 0.085713 -0.024333 101124.000000 0 0 1
-22.261823 -21.529397 -28.384844 42.009559 0.768674 2.312677 0.100415 -0.022876 288694.000000 0 0 1
-21.697723 -21.592797 -29.843834 42.751544 0.782974 2.343503 0.093067 -0.029310 20116.700000 0 0 1
-21.312923 -22.892097 -30.217684 43.490197 0.821107 2.338960 0.098345 -0.038180 -201983.000000 0 0 1
-20.638123 -22.874197 -31.428744 44.010532 0.836742 2.366161 0.091701 -0.037228 6755.200000 0 0 1
-20.109523 -24.283397 -31.814334 44.790938 0.879144 2.360699 0.108497 -0.042083 72511.300000 0 0 1
-19.403323 -24.459997 -33.044764 45.461377 0.900174 2.384558 0.109850 -0.037894 -119999.000000 0 0 1
-20.203023 -24.356797 33.161933 45.838079 0.878347 0.761998 0.122141 -0.028624 -329870.000000 0 0 1
-19.486323 -24.373597 31.785966 44.543648 0.896370 0.776185 0.132823 -0.030969 -254278.000000 0 0 1
-18.966723 -23.087597 31.482554 43.404203 0.883076 0.759277 0.118839 -0.036399 -60155.500000 0 0 1
-18.152223 -23.146097 30.319862 42.243804 0.905736 0.770252 0.123589 -0.026373 402173.000000 0 0 1
-17.289123 -21.847097 30.111142 41.023045 0.901340 0.746595 0.092541 -0.020218 218722.000000 0 0 1
-18.109123 -20.753197 29.719132 40.519900 0.853330 0.747420 0.084521 -0.024542 470226.000000 0 0 1
-17.469823 -19.438197 29.609202 39.493582 0.838680 0.723155 0.083545 -0.032487 169168.000000 0 0 1
-16.801423 -18.819097 30.860502 39.859965 0.841981 0.685310 0.095368 -0.038547 244091.000000 0 0 1
-16.120323 -17.611397 30.537032 38.762564 0.829573 0.663572 0.106784 -0.041762 -5837.720000 0 0 1
-15.446023 -17.052097 31.648595 39.127831 0.834779 0.628600 0.110726 -0.039876 44809.300000 0 0 1
-14.786723 -15.704597 31.402206 38.096982 0.815492 0.601884 0.125868 -0.037042 -306032.000000 0 0 1
-13.559023 -15.814997 30.734672 37.129251 0.862049 0.595666 0.141844 -0.050952 -269409.000000 0 0 1
-13.202423 -14.552097 30.194182 36.024382 0.833989 0.576896 0.133353 -0.049882 595277.000000 0 0 1
-11.771823 -14.435697 29.567102 34.945367 0.886696 0.562180 0.151901 -0.054280 602974.000000 0 0 1
-11.302623 -13.145397 29.309852 34.053166 0.860631 0.534136 0.175550 -0.050992 -227130.000000 0 0 1
-9.955823 -12.939997 29.645332 33.843871 0.915005 0.503407 0.150213 -0.042333 -18419.500000 0 0 1
-9.530423 -11.454297 29.691242 33.220471 0.876822 0.465130 0.129832 -0.024169 -103444.000000 0 0 1
-10.306623 -10.715597 30.608562 34.028437 0.804850 0.452174 0.129110 -0.023250 149834.000000 0 0 1
-9.929623 -9.334497 30.698692 33.587794 0.754515 0.417801 0.088070 -0.006933 71581.400000 0 0 1
-10.788323 -8.534197 31.709729 34.564828 0.669265 0.409302 0.072000 -0.013000 1224370.000000 0 0 1
-12.167123 -8.306797 31.317163 34.609340 0.599038 0.439708 0.091197 -0.024430 1508260.000000 0 0 1
-13.026523 -7.592597 32.230316 35.582736 0.527719 0.437567 0.064219 -0.025378 277179.000000 0 0 1
-12.591723 -6.206297 32.766448 35.647015 0.457941 0.404773 0.038907 -0.016479 -554152.000000 0 0 1
-12.516323 -5.187697 31.774715 34.542771 0.392922 0.403058 0.057131 -0.021072 307246.000000 0 0 1
-12.804823 -3.896397 32.280180 34.945034 0.295389 0.393059 0.053710 -0.024322 -416316.000000 0 0 1
-12.410223 -2.749697 31.326951 33.807578 0.218045 0.385461 0.061792 -0.019431 -473168.000000 0 0 1
-11.054123 -2.418997 31.458376 33.431640 0.215436 0.345294 0.064782 -0.014234 -209516.000000 0 0 1
-10.732323 -1.211997 30.826372 32.663694 0.112453 0.337002 0.065441 -0.005369 -800901.000000 0 0 1
-9.239723 -0.921097 30.761952 32.132827 0.099360 0.293154 0.068285 -0.003345 -459201.000000 0 0 1
-8.740023 -0.632497 32.078700 33.254038 0.072242 0.266662 0.070462 -0.022633 -665036.000000 0 0 1
-7.400123 -0.280397 32.012779 32.858156 0.037873 0.227329 0.098592 -0.020532 -479766.000000 0 0 1
-6.807723 0.478003 33.291462 33.983746 -0.070100 0.202191 0.124676 -0.037081 -23024.000000 0 0 1
-7.258023 1.804003 33.482812 34.307900 -0.243616 0.219757 0.133105 -0.030709 -92835.500000 0 0 1
-6.750223 2.686203 32.561319 33.361965 -0.378732 0.219524 0.143753 -0.033087 -11463.200000 0 0 1
-7.429223 4.088103 32.658237 33.741167 -0.503053 0.254041 0.137786 -0.030904 -732083.000000 0 0 1
-8.734023 4.090503 32.227234 33.639411 -0.438001 0.290781 0.087385 -0.012029 -853705.000000 0 0 1
-9.387723 5.326103 32.550592 34.293407 -0.516064 0.320178 0.070275 -0.009099 443716.000000 0 0 1
-10.880423 5.357403 32.113310 34.327104 -0.457541 0.361100 0.054068 0.004117 218819.000000 0 0 1
-11.609723 6.465803 32.541364 35.150144 -0.508148 0.387698 0.068136 0.001139 -235960.000000 0 0 1
-12.710623 6.641703 31.689914 34.783944 -0.481510 0.424973 0.043957 0.006894 112089.000000 0 0 1
-13.512223 8.001603 31.809452 35.474597 -0.534646 0.458579 0.068209 -0.007169 465296.000000 0 0 1
-14.489623 7.979103 32.839836 36.770505 -0.503363 0.466601 0.058395 -0.008323 11172.900000 0 0 1
-15.285723 9.116203 32.829456 37.343428 -0.537759 0.496778 0.053411 0.002503 -959604.000000 0 0 1
-16.227223 9.254803 -33.388054 38.258807 -0.518314 2.631480 0.045961 0.007439 -396382.000000 0 0 1
-15.671923 9.330103 -32.062144 36.886869 -0.536985 2.624383 0.048655 0.000776 800514.000000 0 0 1
-16.601023 10.168203 -31.325794 36.882133 -0.549563 2.585547 0.067250 -0.010440 48290.300000 0 0 1
-16.031323 10.414703 -29.924144 35.509488 -0.576127 2.573091 0.090732 -0.017863 -549399.000000 0 0 1
-15.126623 11.398103 -29.687064 35.214390 -0.645745 2.573703 0.083362 -0.020085 80037.800000 0 0 1
-13.790223 11.121803 -30.126894 34.949886 -0.678691 2.610004 0.085605 -0.030187 152036.000000 0 0 1
-12.872923 12.311003 -30.377274 35.214368 -0.763089 2.611260 0.092069 -0.031628 -256087.000000 0 0 1
-13.251723 13.209403 -31.436964 36.583866 -0.783799 2.604720 0.093235 -0.031713 225189.000000 0 0 1
-12.381623 14.316603 -31.632524 36.863075 -0.857748 2.602371 0.100354 -0.039920 94214.900000 0 0 1
-12.310823 15.443703 -30.504354 36.339785 -0.897801 2.567012 0.104641 -0.040003 392931.000000 0 0 1
-13.516823 16.211703 -30.454534 37.054048 -0.875801 2.535526 0.100828 -0.035959 626701.000000 0 0 1
-13.635823 17.189303 -29.451994 36.726391 -0.900170 2.501315 0.094635 -0.035092 76289.500000 0 0 1
-15.022723 17.872003 -29.606324 37.704445 -0.871801 2.473849 0.079289 -0.036338 -109501.000000 0 0 1
-15.165023 18.588703 -30.826904 39.061693 -0.886484 2.480277 0.056789 -0.037878 1199870.000000 0 0 1
-16.537223 18.991303 -31.083124 40.003874 -0.854362 2.460687 0.043146 -0.032658 1401500.000000 0 0 1
-17.084823 20.160503 -30.212484 40.138900 -0.867790 2.422947 0.038120 -0.032122 -382518.000000 0 0 1
-16.504923 21.434103 -30.525614 40.787822 -0.914598 2.416443 0.036836 -0.022049 333251.000000 0 0 1
-17.344223 22.517703 -30.175184 41.453719 -0.914462 2.386087 0.028647 -0.018187 1125440.000000 0 0 1
-18.694823 22.759003 -30.965264 42.735421 -0.883127 2.381222 0.036107 -0.015122 1521540.000000 0 0 1
-19.855123 22.079603 -30.460064 42.538809 -0.838395 2.368929 0.051202 -0.020931 642357.000000 0 0 1
-20.932123 22.046903 -31.366794 43.681752 -0.811330 2.371829 0.088184 -0.026421 438281.000000 0 0 1
-22.201923 21.293503 -30.833784 43.555263 -0.764516 2.357350 0.112870 -0.038201 203854.000000 0 0 1
-23.089223 21.911303 -29.953864 43.708711 -0.759228 2.325821 0.148490 -0.036661 901176.000000 0 0 1
-24.069223 22.901303 -30.405644 45.036656 -0.760538 2.311939 0.152819 -0.036797 876609.000000 0 0 1
-25.361383 22.271503 -30.972404 45.809491 -0.720620 2.313271 0.150383 -0.047184 -393835.000000 0 0 1
-25.102023 21.644903 -32.220614 46.225333 -0.711579 2.342049 0.155524 -0.039518 32951.200000 0 0 1
-26.262263 21.470403 -32.982174 47.312879 -0.685344 2.342152 0.152056 -0.039116 -311358.000000 0 0 1
-25.993993 20.396203 33.302292 46.911996 -0.665311 0.781456 0.149019 -0.035986 19842.600000 0 0 1
-25.691953 19.139403 -33.494194 46.349264 -0.640266 2.378422 0.141516 -0.036316 296434.000000 0 0 1
-25.514563 18.194403 32.832495 45.387244 -0.619463 0.762103 0.129929 -0.050068 -259622.000000 0 0 1
-25.332173 16.739003 33.355892 45.105750 -0.583916 0.738463 0.094920 -0.032656 -140263.000000 0 0 1
-26.554393 16.011703 33.408732 45.581288 -0.542606 0.748150 0.087482 -0.019654 777777.000000 0 0 1
-26.910213 15.351503 32.171172 44.663324 -0.518424 0.766556 0.086390 -0.018438 164656.000000 0 0 1
-27.904543 14.141603 32.308927 44.972382 -0.469061 0.769272 0.059409 -0.011029 653807.000000 0 0 1
-29.108063 14.434003 33.043364 46.340950 -0.460343 0.776959 0.076551 -0.013839 302871.000000 0 0 1
-30.055963 13.426903 32.765741 46.446059 -0.420131 0.787727 0.074978 -0.011364 -382228.000000 0 0 1
-30.071533 12.062203 33.529432 46.626351 -0.381469 0.768277 0.069771 -0.016917 -505113.000000 0 0 1
-28.961453 11.202603 33.437122 45.632282 -0.369085 0.748440 0.068720 -0.028197 -198788.000000 0 0 1
-29.243763 9.970603 -33.320674 45.440928 -0.328588 2.393922 0.084825 -0.019987 556407.000000 0 0 1
-27.872753 9.274303 -32.985544 44.169550 -0.321214 2.414024 0.081379 -0.025013 1077070.000000 0 0 1
-27.039573 8.908703 33.263753 43.783339 -0.318269 0.707890 0.071997 -0.014350 508512.000000 0 0 1
-26.069753 9.899103 32.942591 43.160613 -0.362899 0.702459 0.057360 -0.017250 -153931.000000 0 0 1
-24.903523 9.402103 32.053970 41.665837 -0.360997 0.693035 0.057713 -0.012958 69797.000000 0 0 1
-25.168033 9.307703 30.627422 40.719801 -0.354224 0.719477 0.053453 -0.011886 191742.000000 0 0 1
-23.962923 9.091703 29.926612 39.401559 -0.362629 0.708208 0.079585 -0.013379 72169.900000 0 0 1
-24.153923 8.941703 28.402852 38.341727 -0.354553 0.736563 0.114591 -0.010991 -162205.000000 0 0 1
-24.605623 10.083003 27.727542 38.417707 -0.388913 0.764485 0.076553 -0.003959 181277.000000 0 0 1
-24.608323 9.868303 26.344512 37.376279 -0.381381 0.788591 0.082246 -0.006637 -461502.000000 0 0 1
-24.785923 11.157403 25.448422 37.235088 -0.422979 0.818314 0.081532 -0.006058 1128440.000000 0 0 1
-26.015473 11.921903 25.519862 38.343186 -0.429703 0.842546 0.078676 -0.002591 376506.000000 0 0 1
-27.099983 11.375503 24.844092 38.484283 -0.397424 0.869034 0.080430 -0.000453 -488201.000000 0 0 1
-28.423753 12.093903 25.168152 39.844800 -0.402282 0.887111 0.081802 -0.002475 -118588.000000 0 0 1
-28.336453 13.454903 24.760812 39.963568 -0.443307 0.902583 0.096340 -0.007311 -13393.200000 0 0 1
-29.506323 14.196703 25.037362 41.219400 -0.448447 0.917991 0.085109 -0.012479 200135.000000 0 0 1
-29.326063 15.690503 24.598882 41.368041 -0.491282 0.933985 0.098312 -0.018287 340046.000000 0 0 1
-28.582713 16.485903 25.561402 41.738971 -0.523170 0.911690 0.118451 -0.021977 447474.000000 0 0 1
-28.368393 17.763403 24.951892 41.748067 -0.559439 0.930195 0.100398 -0.023822 -422208.000000 0 0 1
-23.495123 -9.287397 30.489942 39.596882 0.376440 0.691942 0.092947 -0.027299 -1034810.000000 0 0 1
-22.740323 -8.720897 29.490072 38.247100 0.366201 0.690322 0.096113 -0.020339 -650444.000000 0 0 1
-23.171123 -8.826297 28.175782 37.532374 0.363949 0.721666 0.086878 -0.018976 69145.300000 0 0 1
-22.028223 -8.445297 27.159622 35.975140 0.366102 0.715210 0.121527 -0.036075 237222.000000 0 0 1
-21.643623 -7.098197 27.186962 35.467756 0.316905 0.697382 0.129943 -0.035445 973992.000000 0 0 1
-20.623323 -6.789197 28.217072 35.603620 0.318026 0.655844 0.114032 -0.035498 515505.000000 0 0 1
-19.160423 -6.990997 27.778722 34.462345 0.349857 0.633332 0.106093 -0.025308 -281874.000000 0 0 1
-18.592923 -8.323397 27.725102 34.404316 0.420910 0.633668 0.107215 -0.028328 133212.000000 0 0 1
-18.306623 -8.881397 28.973242 35.404242 0.451694 0.612253 0.097794 -0.027258 -97879.800000 0 0 1
-16.907123 -8.606597 29.622932 35.177299 0.470863 0.569624 0.091567 -0.024061 -474191.000000 0 0 1
-15.909623 -9.307097 29.025302 34.383227 0.529316 0.565781 0.082673 -0.024397 -1191220.000000 0 0 1
-14.628623 -8.814697 29.330272 33.940541 0.542303 0.527305 0.097885 -0.028854 70575.700000 0 0 1
-13.471323 -9.723997 28.861462 33.301901 0.625227 0.522326 0.112905 -0.030587 -78914.600000 0 0 1
-13.173723 -9.628497 27.466432 31.947767 0.631156 0.536057 0.114467 -0.026373 -419455.000000 0 0 1
-11.983623 -10.312397 27.215602 31.474461 0.710582 0.526267 0.154294 -0.033967 -636116.000000 0 0 1
-11.476123 -10.131497 25.812432 30.010502 0.723249 0.535305 0.132806 -0.034964 -702895.000000 0 0 1
-12.235823 -10.641197 24.823922 29.650928 0.715806 0.578643 0.109816 -0.037406 -746277.000000 0 0 1
-11.588423 -10.480697 23.602532 28.305760 0.735247 0.584765 0.097136 -0.042861 105009.000000 0 0 1
-12.510423 -10.965497 22.472372 27.959976 0.719684 0.637252 0.099161 -0.050827 -463555.000000 0 0 1
-12.674123 -12.396097 22.469472 28.621212 0.774309 0.667998 0.090460 -0.046575 279739.000000 0 0 1
-13.892623 -12.841597 21.888682 28.931401 0.746105 0.712742 0.088292 -0.042357 634062.000000 0 0 1
-15.109223 -12.726197 22.872762 30.222639 0.699995 0.712379 0.103025 -0.040890 433578.000000 0 0 1
-16.311123 -13.347797 22.389912 30.749383 0.685815 0.755189 0.066537 -0.030238 -115328.000000 0 0 1
-17.400723 -12.994097 23.149742 31.741806 0.641422 0.753478 0.062245 -0.025952 -1145330.000000 0 0 1
-18.708323 -13.548997 22.619112 32.329566 0.626799 0.795900 0.093997 -0.031651 -915916.000000 0 0 1
-18.672323 -15.023697 22.583002 32.929608 0.677538 0.815099 0.085064 -0.034701 1467010.000000 0 0 1
-19.975223 -15.682797 22.392692 33.858415 0.665597 0.848162 0.093378 -0.025392 1495760.000000 0 0 1
-20.867323 -15.687397 23.666842 35.237182 0.644632 0.834371 0.087824 -0.025348 -215302.000000 0 0 1
-20.273223 -16.295397 24.822242 35.953959 0.677047 0.808769 0.074817 -0.019349 -139748.000000 0 0 1
-21.219123 -16.275197 25.835352 37.183311 0.654296 0.802640 0.080515 -0.025176 -236652.000000 0 0 1
-20.974923 -17.259597 26.997342 38.297487 0.688530 0.788461 0.084996 -0.027988 -6743.650000 0 0 1
-21.137323 -18.631497 26.659812 38.790007 0.722472 0.813051 0.095331 -0.019853 133376.000000 0 0 1
-21.037923 -19.443897 27.827002 39.937468 0.746042 0.799920 0.083017 -0.023543 -109962.000000 0 0 1
-21.059723 -21.014797 27.657742 40.621229 0.784330 0.821848 0.093702 -0.009945 -31283.100000 0 0 1
-22.291323 -21.488397 27.152262 41.181301 0.767060 0.850863 0.094011 -0.011075 -40261.900000 0 0 1
-22.252123 -22.859597 26.790582 41.658773 0.798863 0.872262 0.101011 -0.002435 523527.000000 0 0 1
-23.664623 -23.361197 26.344702 42.424087 0.778946 0.900798 0.096767 -0.001800 482557.000000 0 0 1
-24.445423 -23.836697 27.437702 43.801761 0.772791 0.893862 0.087908 0.000524 481891.000000 0 0 1
-25.683023 -24.324897 26.885472 44.431372 0.758247 0.920903 0.057402 -0.001838 421859.000000 0 0 1
-26.406103 -25.250197 27.847302 45.938295 0.763025 0.919536 0.033518 0.001565 -511933.000000 0 0 1
-27.009533 -24.611197 28.943132 46.614705 0.738971 0.900904 0.027972 0.000431 109802.000000 0 0 1
-27.649513 -25.537267 29.800812 48.007665 0.745705 0.901096 0.013826 0.013397 -842669.000000 0 0 1
-28.789473 -24.932197 30.571002 48.836813 0.713720 0.894405 0.020318 0.005400 -1002960.000000 0 0 1
-29.842993 -24.603897 29.714712 48.774174 0.689470 0.915707 0.023459 -0.003511 -480196.000000 0 0 1
-30.740423 -23.712797 30.338732 49.271787 0.657050 0.907468 0.041309 -0.014630 -288184.000000 0 0 1
-31.975683 -23.422597 29.454712 49.382612 0.632215 0.931714 0.048194 -0.023869 37028.200000 0 0 1
-32.895533 -24.505897 29.410892 50.474306 0.640268 0.948761 0.059215 -0.025102 309760.000000 0 0 1
-34.064124 -24.241897 28.652682 50.685405 0.618505 0.969994 0.065591 -0.031184 284430.000000 0 0 1
-35.347950 -24.875697 29.206182 52.165878 0.613230 0.976566 0.078705 -0.031525 -124602.000000 0 0 1
-35.272859 -26.268117 29.248952 52.817513 0.640108 0.983907 0.080371 -0.030779 62777.800000 0 0 1
-36.366823 -26.873357 29.920992 54.221664 0.636393 0.986243 0.080796 -0.022768 192225.000000 0 0 1
-36.183763 -28.340017 30.190842 54.990073 0.664428 0.989601 0.082265 -0.022198 -254000.000000 0 0 1
-35.307588 -28.538947 31.255712 55.118207 0.679778 0.967856 0.077419 -0.019959 -393863.000000 0 0 1
-35.016938 -29.862807 31.524527 55.783232 0.706123 0.970211 0.075382 -0.024789 -371814.000000 0 0 1
-33.880743 -29.966777 32.523186 55.710592 0.724173 0.947410 0.059001 -0.019258 -221685.000000 0 0 1
-34.294426 -29.690007 -33.493504 56.386337 0.713560 2.206819 0.057517 -0.015358 470743.000000 0 0 1
-33.168603 -29.919687 -32.653654 55.331772 0.733946 2.202032 0.052049 -0.015993 660775.000000 0 0 1
-33.599863 -29.686497 -31.184854 54.614412 0.723641 2.178520 0.062538 -0.019582 166809.000000 0 0 1
-33.778553 -28.343207 -30.716264 53.738412 0.698125 2.179237 0.057617 -0.012276 642522.000000 0 0 1
-32.564893 -27.569957 -30.628044 52.522870 0.702526 2.193382 0.060257 -0.010913 380760.000000 0 0 1
-32.883063 -26.097237 -30.447204 51.859366 0.670849 2.198282 0.058645 -0.002744 13963.700000 0 0 1
-33.568013 -25.652527 -29.304234 51.415968 0.652525 2.177234 0.054186 -0.014553 -56833.800000 0 0 1
-33.578713 -24.239797 -29.101714 50.616277 0.625260 2.183337 0.053860 -0.015482 1182120.000000 0 0 1
-32.154573 -23.685697 -28.643344 49.146413 0.634883 2.192987 0.066775 -0.015251 1121600.000000 0 0 1
-32.089083 -22.257097 -28.513734 48.354117 0.606420 2.201466 0.066329 -0.004107 686481.000000 0 0 1
-30.791193 -21.809897 -28.097754 47.045222 0.616285 2.210864 0.078356 -0.005672 608888.000000 0 0 1
-30.568743 -20.258397 -28.254514 46.294365 0.585263 2.227265 0.092997 -0.013001 -120028.000000 0 0 1
-30.350893 -19.899897 -29.584334 46.823236 0.580345 2.254708 0.105218 -0.006330 243322.000000 0 0 1
-30.205653 -18.491997 -29.797314 46.284072 0.549344 2.270240 0.099767 -0.015823 -372900.000000 0 0 1
-29.708383 -18.269797 -31.240424 46.822405 0.551355 2.301255 0.112829 -0.019486 255816.000000 0 0 1
-30.663203 -18.128697 -32.297474 48.083349 0.533939 2.307294 0.105250 -0.022416 256373.000000 0 0 1
-31.540883 -17.030997 -32.144424 48.147130 0.495107 2.301816 0.092899 -0.022171 -314871.000000 0 0 1
-32.175703 -16.596497 -33.493644 49.320825 0.476214 2.317329 0.088572 -0.035300 -358655.000000 0 0 1
-33.148973 -17.425797 33.320652 50.127623 0.483981 0.843682 0.087483 -0.035873 207179.000000 0 0 1
-34.426601 -16.783397 33.339362 50.777813 0.453608 0.854530 0.079851 -0.031208 680652.000000 0 0 1
-35.490320 -17.488497 32.444690 51.167062 0.457845 0.883961 0.077497 -0.035003 89442.100000 0 0 1
-35.807291 -18.768897 32.942712 52.150319 0.482791 0.887068 0.067295 -0.028029 199517.000000 0 0 1
-36.700893 -19.476797 32.096955 52.502530 0.487897 0.913042 0.061918 -0.023976 -34991.900000 0 0 1
-36.902163 -20.896097 32.622668 53.503784 0.515239 0.915081 0.062463 -0.024310 468939.000000 0 0 1
-35.739384 -21.714097 32.514041 52.971392 0.545965 0.909926 0.074676 -0.029010 362502.000000 0 0 1
-36.033243 -22.936197 33.183269 54.088751 0.566847 0.910315 0.088288 -0.029529 -491077.000000 0 0 1
-34.784191 -23.865597 33.172695 53.665019 0.601339 0.904417 0.071016 -0.020827 823773.000000 0 0 1
-33.771423 -23.438297 -33.263874 52.880508 0.606706 2.251112 0.049624 -0.021459 273314.000000 0 0 1
-32.966573 -22.339797 -33.625094 52.120134 0.595568 2.272011 0.054523 -0.025033 -716538.000000 0 0 1
-31.662563 -22.280497 -32.767864 50.721508 0.613195 2.273175 0.063528 -0.016108 315064.000000 0 0 1
-30.716313 -23.260697 -33.258334 50.898612 0.648141 2.282894 0.064260 -0.013180 1912170.000000 0 0 1
-29.352393 -23.206597 -32.723484 49.708505 0.668995 2.289365 0.080446 -0.015516 1848270.000000 0 0 1
-29.222083 -23.595797 -31.216034 48.837819 0.679276 2.264225 0.077625 -0.002381 -622597.000000 0 0 1
-29.204383 -24.990997 -30.969034 49.361189 0.707810 2.249002 0.074784 -0.006634 -68023.000000 0 0 1
-28.698483 -25.337657 -29.705064 48.456069 0.723282 2.230687 0.067491 -0.011673 -153265.000000 0 0 1
-28.474843 -26.829787 -29.498714 48.998248 0.755662 2.216845 0.066126 -0.017179 -98208.700000 0 0 1
-29.619003 -27.633897 -29.574494 50.155441 0.750739 2.201430 0.064434 -0.009189 -112036.000000 0 0 1
-29.178393 -28.885877 -29.109434 50.330226 0.780360 2.187524 0.067313 -0.017758 -7345.490000 0 0 1
-30.174853 -30.021867 -29.376144 51.718392 0.782857 2.174872 0.075060 -0.007813 -324916.000000 0 0 1
-30.133933 -30.444337 -30.732234 52.719842 0.790522 2.193132 0.087144 -0.022828 230950.000000 0 0 1
-30.208583 -31.876957 -30.707654 53.587861 0.812264 2.180999 0.100180 -0.014360 -244340.000000 0 0 1
-29.893943 -32.520717 -32.056044 54.578703 0.827459 2.198560 0.078682 -0.025915 1083220.000000 0 0 1
-28.564323 -32.196107 -32.548284 53.962029 0.845099 2.218266 0.087778 -0.028147 1221960.000000 0 0 1
-28.159223 -32.959277 -33.657234 54.882285 0.863774 2.230980 0.081635 -0.031238 -736034.000000 0 0 1
-26.841493 -32.459647 33.096394 53.567394 0.879856 0.904796 0.096793 -0.029498 -142342.000000 0 0 1
-26.264223 -33.329217 32.156584 53.241825 0.903401 0.922321 0.085440 -0.026461 -85023.800000 0 0 1
-25.362923 33.121692 32.687579 52.998133 -0.917291 0.906166 0.089573 -0.031324 -150861.000000 0 0 1
-24.822423 32.128385 31.582465 51.437709 -0.912987 0.909685 0.090370 -0.036919 9293.420000 0 0 1
-25.886933 31.323003 31.121742 51.184242 -0.880133 0.917215 0.104097 -0.050352 187463.000000 0 0 1
-25.635703 30.477193 29.986942 49.852435 -0.871466 0.925401 0.102263 -0.045595 190279.000000 0 0 1
-26.999253 29.939563 29.467622 49.936738 -0.836992 0.939615 0.109532 -0.039540 340756.000000 0 0 1
-27.589373 28.973113 30.331152 50.205513 -0.809857 0.922110 0.115695 -0.042445 333126.000000 0 0 1
-28.856923 28.609353 29.799612 50.390812 -0.781090 0.938040 0.126556 -0.045889 669659.000000 0 0 1
-29.735453 27.782523 30.812642 51.043948 -0.751458 0.922726 0.121852 -0.059149 -217883.000000 0 0 1
-29.145323 26.561693 30.983972 50.149575 -0.739052 0.904815 0.130723 -0.061955 150862.000000 0 0 1
-29.950683 25.373493 31.224642 50.158108 -0.702852 0.898832 0.142269 -0.054836 686935.000000 0 0 1
-30.819193 24.770403 30.084002 49.683425 -0.677013 0.920385 0.136150 -0.054414 1164980.000000 0 0 1
-29.919093 24.416553 29.004502 48.296804 -0.684473 0.926611 0.121239 -0.045213 817355.000000 0 0 1
-30.658093 23.565623 28.118782 47.811328 -0.655336 0.942064 0.123487 -0.036529 376018.000000 0 0 1
-29.954993 23.234253 26.787072 46.418523 -0.659709 0.955651 0.126717 -0.041890 165372.000000 0 0 1
-28.760043 22.484293 27.039942 45.429527 -0.663538 0.933274 0.117942 -0.039328 542932.000000 0 0 1
-28.106773 22.100863 25.838322 44.114144 -0.666342 0.945034 0.100350 -0.034539 446176.000000 0 0 1
-26.634263 21.612163 26.003832 43.042639 -0.681679 0.922109 0.097860 -0.030020 268856.000000 0 0 1
-26.629333 20.381363 26.679752 42.852427 -0.653267 0.898741 0.128702 -0.040231 -285868.000000 0 0 1
-25.328263 19.918263 26.836932 41.934222 -0.666396 0.876328 0.110599 -0.032513 -716182.000000 0 0 1
-25.226803 18.665263 27.762452 41.899133 -0.637004 0.846509 0.123480 -0.028848 590337.000000 0 0 1
-24.001023 17.910163 27.657552 40.764730 -0.641081 0.825122 0.103219 -0.027811 889760.000000 0 0 1
-24.154023 16.677663 28.369632 40.821529 -0.604302 0.802422 0.094818 -0.022051 -940109.000000 0 0 1
-22.926623 15.817363 28.555562 39.890339 -0.603924 0.772953 0.095284 -0.024451 -942874.000000 0 0 1
-21.995823 16.452263 29.393452 40.230190 -0.642202 0.751550 0.123185 -0.015279 -784851.000000 0 0 1
-20.852423 15.667763 29.484572 39.365496 -0.644374 0.724252 0.103911 -0.017992 -971233.000000 0 0 1
-19.789123 16.302863 30.352852 39.732711 -0.689103 0.701421 0.090127 -0.022729 -719877.000000 0 0 1
-20.114623 16.325763 31.735290 40.966538 -0.681796 0.684613 0.075496 -0.025805 -142874.000000 0 0 1
-19.075023 16.805263 32.508519 41.268355 -0.722223 0.663673 0.072232 -0.026333 -1132520.000000 0 0 1
-19.271223 16.323763 -33.413314 41.884303 -0.702781 2.494355 0.058125 -0.030141 841794.000000 0 0 1
-20.269823 17.003363 -32.628514 42.007143 -0.697986 2.460265 0.082529 -0.029793 909078.000000 0 0 1
-21.648123 16.815563 -32.863994 42.795403 -0.660414 2.446404 0.093416 -0.025648 6051.150000 0 0 1
-22.615923 17.729763 -32.046644 43.044301 -0.664878 2.410588 0.112374 -0.025896 -53648.800000 0 0 1
-22.799023 17.190363 -30.746614 41.960199 -0.646053 2.393160 0.116030 -0.028987 271943.000000 0 0 1
-23.802323 17.821363 -29.957524 42.209061 -0.642684 2.359928 0.117655 -0.035350 74473.300000 0 0 1
-24.042123 17.358363 -28.416014 41.070748 -0.625338 2.334885 0.111492 -0.036212 323212.000000 0 0 1
-24.657023 16.117763 -28.119774 40.724351 -0.578957 2.332963 0.092531 -0.032279 708678.000000 0 0 1
-26.057953 16.019363 -28.452064 41.775075 -0.551201 2.320030 0.107810 -0.031312 975972.000000 0 0 1
-26.811053 14.972063 -27.600384 41.288938 -0.509291 2.302945 0.111226 -0.023040 21207.100000 0 0 1
-26.534093 13.671863 -27.877454 40.842752 -0.475778 2.322050 0.092379 -0.016575 -331183.000000 0 0 1
-27.269183 12.905963 -26.996044 40.484054 -0.442044 2.300745 0.059916 -0.008466 -233839.000000 0 0 1
-26.940013 11.378163 -27.060904 39.843687 -0.399625 2.317437 0.078636 -0.017721 -566981.000000 0 0 1
-25.903833 11.063563 -26.216724 38.480224 -0.403649 2.320339 0.074006 -0.017645 -1135670.000000 0 0 1
-25.171363 10.043663 -26.752544 38.081115 -0.379654 2.349721 0.070534 -0.012416 -244289.000000 0 0 1
-24.034123 9.533863 -25.818714 36.539562 -0.377641 2.355473 0.108899 -0.015834 290602.000000 0 0 1
-24.524123 8.734663 -24.706794 35.890843 -0.342157 2.330059 0.088687 -0.010984 -422401.000000 0 0 1
-23.458723 8.036263 -24.123894 34.595599 -0.330041 2.342435 0.127288 -0.008373 -238898.000000 0 0 1
-23.800523 6.885263 -23.195894 33.939965 -0.281603 2.323259 0.112539 -0.007924 21182.500000 0 0 1
-24.381623 5.748663 -23.823194 34.569571 -0.231550 2.331095 0.110340 -0.022687 487147.000000 0 0 1
-25.040003 4.903963 -22.855894 34.255547 -0.193397 2.301263 0.096932 -0.021946 24656.500000 0 0 1
36.927105 24.579303 -10.052294 45.484084 0.587275 1.793643 0.083634 -0.017949 572673.000000 0 0 1
37.987965 24.031703 -9.251094 45.893257 0.564056 1.773766 0.083109 -0.024914 -21226.500000 0 0 1
-37.574593 23.242603 -10.008594 45.301662 -0.553964 1.793566 0.093219 -0.031582 -245182.000000 0 0 1
-36.480183 22.569403 -9.175694 43.867700 -0.554039 1.781520 0.093620 -0.035359 67270.000000 0 0 1
-37.091303 21.526203 -8.393294 43.698851 -0.525851 1.764069 0.096320 -0.025878 1105800.000000 0 0 1
-36.082903 20.974303 -7.505694 42.405574 -0.526542 1.748732 0.101195 -0.021895 725341.000000 0 0 1
-36.693493 20.184103 -6.312594 42.351615 -0.502899 1.720406 0.119022 -0.004760 55199.100000 0 0 1
-37.275233 18.932803 -6.640094 42.331842 -0.469963 1.728305 0.114041 -0.007366 79297.200000 0 0 1
-37.862963 18.393603 -5.519494 42.454604 -0.452218 1.701175 0.124484 -0.010728 -423102.000000 0 0 1
37.717255 17.167203 -5.978394 41.869385 0.427133 1.714073 0.115548 0.000866 191854.000000 0 0 1
36.648435 17.483003 -6.872094 41.182386 0.445117 1.738450 0.119125 -0.004687 277110.000000 0 0 1
36.096375 16.282803 -7.424894 40.289044 0.423762 1.756146 0.123057 0.001750 70842.900000 0 0 1
35.114775 16.469003 -8.582194 39.723162 0.438546 1.788564 0.092251 -0.011242 -157691.000000 0 0 1
34.676425 15.243803 -9.141694 38.966634 0.414173 1.807607 0.100520 -0.012185 18775.600000 0 0 1
34.002475 15.513603 -10.354994 38.782292 0.428039 1.841078 0.098666 -0.005398 -183937.000000 0 0 1
33.322205 14.193303 -10.911294 37.826916 0.402668 1.863407 0.091543 -0.014674 595260.000000 0 0 1
32.076615 13.771903 -10.336794 36.406372 0.405544 1.858685 0.093608 -0.003535 860035.000000 0 0 1
32.047505 13.399603 -8.952194 35.871071 0.396026 1.823028 0.096776 0.000173 -346413.000000 0 0 1
30.943665 12.356003 -8.657294 34.425717 0.379908 1.825003 0.106115 0.009990 359396.000000 0 0 1
31.392665 11.033903 -9.031594 34.479214 0.337993 1.835831 0.123357 0.003039 413921.000000 0 0 1
30.319165 10.156503 -9.134494 33.254253 0.323237 1.849060 0.170375 -0.014178 -308103.000000 0 0 1
30.865965 8.791403 -9.764994 33.546262 0.277477 1.866163 0.173156 -0.018791 205196.000000 0 0 1
31.923525 8.309703 -8.959094 34.182276 0.254649 1.835992 0.158592 -0.019405 393580.000000 0 0 1
32.219075 6.951403 -9.240794 34.231318 0.212497 1.844139 0.157975 -0.026015 -299208.000000 0 0 1
33.399745 6.390203 -8.441894 35.037741 0.189040 1.814128 0.177618 -0.033521 -1197870.000000 0 0 1
34.650795 6.776903 -8.843994 36.398081 0.193139 1.816233 0.146939 -0.022198 -805709.000000 0 0 1
35.625045 6.366103 -7.886694 37.038778 0.176831 1.785370 0.141986 -0.014749 -344132.000000 0 0 1
37.045855 6.497303 -8.407494 38.539542 0.173620 1.790717 0.147094 -0.011511 -508346.000000 0 0 1
37.556605 5.394003 -9.148394 39.029310 0.142648 1.807396 0.150299 -0.023691 184463.000000 0 0 1
-37.522333 5.551303 -9.605294 39.128047 -0.146881 1.818815 0.135455 -0.028177 -399040.000000 0 0 1
-37.262483 5.296703 -11.108394 39.242122 -0.141200 1.857793 0.148200 -0.036941 481688.000000 0 0 1
-35.886244 5.258003 -11.515994 38.053741 -0.145483 1.878241 0.166567 -0.045390 976596.000000 0 0 1
-35.271169 6.493103 -11.903894 37.787808 -0.182053 1.891273 0.156091 -0.041933 -271865.000000 0 0 1
-34.440831 7.197603 -10.805994 36.806872 -0.206019 1.868773 0.165384 -0.034219 -800714.000000 0 0 1
-35.101220 8.029803 -9.871194 37.336495 -0.224892 1.838362 0.179714 -0.030483 241742.000000 0 0 1
-35.599423 9.222703 -10.422394 38.223075 -0.253496 1.846966 0.159106 -0.033489 15327.900000 0 0 1
-36.396513 10.092803 -9.372494 38.915478 -0.270505 1.814030 0.140976 -0.020743 332795.000000 0 0 1
-35.686118 10.919403 -8.436694 38.261079 -0.296938 1.793127 0.134382 -0.020308 262039.000000 0 0 1
-36.580853 11.663203 -7.614194 39.142880 -0.308644 1.766568 0.130734 -0.015246 160414.000000 0 0 1
-35.823952 12.576103 -6.643994 38.544215 -0.337613 1.744035 0.159170 -0.015002 372807.000000 0 0 1
-35.037340 13.475003 -7.436494 38.268686 -0.367152 1.766364 0.136477 -0.023944 -86005.800000 0 0 1
-34.175382 14.337203 -6.703794 37.662355 -0.397219 1.749747 0.168446 -0.024279 412605.000000 0 0 1
-33.180263 14.933703 -7.766694 37.205737 -0.422919 1.781093 0.125332 -0.021902 38453.400000 0 0 1
-33.806583 15.739303 -8.730994 38.299360 -0.435726 1.800786 0.096639 -0.023045 -169178.000000 0 0 1
-33.992104 17.092303 -8.329694 38.948604 -0.465910 1.786325 0.061843 -0.009375 -276017.000000 0 0 1
-34.730851 17.848503 -9.413294 40.167290 -0.474713 1.807349 0.040492 -0.013980 -385945.000000 0 0 1
-34.107925 17.985303 -10.648494 40.002651 -0.485253 1.840239 0.029639 -0.007178 -445652.000000 0 0 1
-35.028777 18.310203 -11.640394 41.204096 -0.481657 1.857202 0.027665 -0.013563 -646313.000000 0 0 1
-34.350200 18.456503 -13.004894 41.106034 -0.493044 1.892701 0.013765 0.002024 -261344.000000 0 0 1
-33.735373 19.713003 -13.193294 41.240040 -0.528827 1.896436 0.009371 -0.004019 -25089.800000 0 0 1
-33.393233 19.850903 -14.536194 41.478516 -0.536335 1.928849 -0.005303 0.003057 -303366.000000 0 0 1
-32.533233 21.141103 -14.854894 41.545461 -0.576256 1.936448 0.006737 0.005035 -689211.000000 0 0 1
-31.236623 20.948003 -14.401094 40.273278 -0.590737 1.936476 0.013543 0.006207 -694063.000000 0 0 1
-30.549223 22.175103 -14.218994 40.338195 -0.627885 1.931032 0.005998 0.003349 124829.000000 0 0 1
-29.641813 22.664803 -15.370794 40.355814 -0.652794 1.961546 0.010694 -0.003795 -613381.000000 0 0 1
-30.374263 23.257403 -16.426294 41.633229 -0.653470 1.976372 0.035255 0.007849 379721.000000 0 0 1
-29.588283 23.775603 -17.530194 41.809730 -0.676901 2.003454 0.052171 0.003471 487843.000000 0 0 1
-28.935873 25.174903 -17.300994 42.075942 -0.716005 1.994550 0.054815 -0.006575 1331030.000000 0 0 1
-30.000623 26.165103 -17.069494 43.313019 -0.717215 1.975881 0.072002 -0.017680 1380870.000000 0 0 1
-29.460913 27.454803 -17.293194 43.826546 -0.750166 1.976410 0.073039 -0.022175 727116.000000 0 0 1
-30.498643 28.572203 -16.884094 45.073392 -0.752797 1.954752 0.081773 -0.023775 361735.000000 0 0 1
-30.586723 28.809803 -15.477594 44.778436 -0.755491 1.923726 0.073822 -0.030375 101666.000000 0 0 1
-29.467423 29.429203 -14.848194 44.213978 -0.784749 1.913278 0.077486 -0.027670 54873.400000 0 0 1
-29.577543 29.789103 -13.350594 44.050654 -0.788962 1.878713 0.099735 -0.030067 -367329.000000 0 0 1
-30.522053 30.766203 -12.983594 45.240786 -0.789382 1.861878 0.091604 -0.026354 -373846.000000 0 0 1
-30.230063 31.638303 -11.857494 45.336951 -0.808156 1.835415 0.102561 -0.022552 -184081.000000 0 0 1
-29.086983 32.641103 -12.055594 45.352305 -0.842912 1.839852 0.095809 -0.025250 39105.300000 0 0 1
-29.414763 33.537703 -13.099294 46.492981 -0.850798 1.856412 0.080218 -0.030774 320168.000000 0 0 1
-28.493223 -32.764156 -13.152294 45.368894 0.855007 1.864915 0.111786 -0.033102 374593.000000 0 0 1
-28.709183 -31.901956 -14.430694 45.279100 0.838026 1.895160 0.089837 -0.030541 -78399.700000 0 0 1
-28.403153 -32.581356 -15.591194 45.949638 0.853804 1.916980 0.084680 -0.023864 -277325.000000 0 0 1
-28.478763 -31.765656 -16.751094 45.833350 0.839903 1.944943 0.072776 -0.008051 -101045.000000 0 0 1
-27.676983 -32.230256 -18.010994 46.143263 0.861258 1.971784 0.074345 -0.008618 47730.700000 0 0 1
-27.949303 -33.483456 -18.618694 47.423213 0.875240 1.974261 0.076562 -0.001271 -40267.000000 0 0 1
-27.290453 32.927203 -17.844894 46.340153 -0.878732 1.966096 0.075920 -0.016110 -364693.000000 0 0 1
-27.491323 31.493003 -18.443294 45.691763 -0.853137 1.986295 0.087066 -0.025993 698203.000000 0 0 1
-28.830233 30.956903 -18.570294 46.199221 -0.820954 1.984454 0.088496 -0.023540 677901.000000 0 0 1
-29.539983 31.470203 -19.662394 47.429885 -0.817025 1.998252 0.080194 -0.017983 24742.800000 0 0 1
-31.071823 31.190103 -19.567294 48.178416 -0.787298 1.989025 0.065242 -0.027815 489027.000000 0 0 1
-31.467143 29.857203 -19.737894 47.657299 -0.759151 1.997819 0.066015 -0.031279 1728670.000000 0 0 1
-32.923013 29.720903 -19.769894 48.560329 -0.734327 1.990095 0.090612 -0.037020 1478540.000000 0 0 1
-33.445333 28.626803 -20.682594 48.640044 -0.707926 2.009998 0.106149 -0.041155 -561066.000000 0 0 1
-34.844914 28.551203 -20.701094 49.576956 -0.686446 2.001549 0.123907 -0.042119 -280767.000000 0 0 1
-35.127552 27.307603 -21.310994 49.333645 -0.660798 2.017480 0.120619 -0.031165 194845.000000 0 0 1
-36.546283 26.714303 -21.103794 49.946521 -0.631211 2.007029 0.118324 -0.018219 583452.000000 0 0 1
-37.579083 27.219303 -21.931694 51.323261 -0.626863 2.012328 0.124219 -0.019037 275793.000000 0 0 1
37.934785 26.245003 -22.481494 51.315356 0.605232 2.024285 0.134672 -0.026749 463470.000000 0 0 1
37.211945 26.790203 -23.724194 51.626362 0.623981 2.048270 0.141999 -0.037313 182578.000000 0 0 1
38.022945 26.714603 -24.875394 52.708630 0.612463 2.062288 0.152504 -0.039313 -168744.000000 0 0 1
37.296025 27.148603 -26.007204 52.956726 0.629221 2.084152 0.179230 -0.038020 366215.000000 0 0 1
-38.197693 27.426303 -27.249954 54.349111 -0.622711 2.095998 0.169381 -0.037427 239806.000000 0 0 1
-37.695783 26.241103 -27.757884 53.666262 -0.608123 2.114409 0.121913 -0.029058 -518037.000000 0 0 1
-37.212413 26.435103 -29.032974 54.097060 -0.617661 2.137297 0.088027 -0.024242 -1425880.000000 0 0 1
-36.578043 25.214903 -29.686344 53.432421 -0.603539 2.159865 0.072103 -0.018597 438271.000000 0 0 1
-35.422859 24.670903 -29.048984 52.031489 -0.608352 2.163127 0.070958 -0.017672 -371206.000000 0 0 1
-34.285917 25.465603 -29.152424 51.709621 -0.638840 2.169742 0.053638 -0.008377 -1243080.000000 0 0 1
-33.206313 24.948403 -28.175034 50.188790 -0.644342 2.166850 0.048784 -0.021053 5594.760000 0 0 1
-32.593073 23.664003 -28.556174 49.373561 -0.627992 2.187525 0.064377 -0.018819 921630.000000 0 0 1
-33.346003 22.509003 -28.058794 49.050047 -0.593759 2.179792 0.035094 -0.009164 263187.000000 0 0 1
-33.086993 21.163903 -28.788584 48.697459 -0.569061 2.203308 0.037374 -0.013184 71385.500000 0 0 1
-31.823413 20.610503 -28.462874 47.409468 -0.574723 2.214751 0.074456 -0.011789 19837.500000 0 0 1
-31.723393 19.405903 -29.146164 47.248933 -0.548994 2.235548 0.060183 -0.016398 -108891.000000 0 0 1
-30.292523 18.880403 -29.384614 46.233777 -0.557354 2.259538 0.086947 -0.023450 -680774.000000 0 0 1
-29.689093 19.435003 -30.541934 46.818494 -0.579615 2.281474 0.104344 -0.029580 -403484.000000 0 0 1
-28.372213 19.019803 -30.723414 45.941959 -0.590560 2.303315 0.122746 -0.033167 -387038.000000 0 0 1
-28.277643 17.635303 -31.355244 45.757845 -0.557627 2.325734 0.115206 -0.030560 -492738.000000 0 0 1
-28.766443 16.588203 -30.501684 45.089128 -0.523074 2.313762 0.077893 -0.028275 134910.000000 0 0 1
-28.859053 15.483503 -31.357194 45.341564 -0.492436 2.334467 0.050701 -0.013596 -38777.700000 0 0 1
-29.267223 14.134603 -30.717454 44.720458 -0.449915 2.327980 0.067229 -0.018334 -269393.000000 0 0 1
-30.592593 14.041103 -30.264044 45.265569 -0.430289 2.303106 0.055587 -0.018435 -57857.300000 0 0 1
-31.113943 12.711603 -30.147704 45.150264 -0.387855 2.301937 0.059812 -0.012117 28430.300000 0 0 1
-30.794953 12.111803 -28.753024 43.837898 -0.374721 2.286163 0.041542 -0.017255 -306199.000000 0 0 1
-31.499093 12.666203 -27.663844 43.793993 -0.382327 2.254516 0.032670 -0.013505 139850.000000 0 0 1
-31.550953 11.630603 -26.737354 42.960676 -0.353174 2.242561 0.035857 -0.009196 -53103.700000 0 0 1
-31.221323 12.031303 -25.285354 41.938913 -0.367818 2.217939 0.025400 -0.005802 357793.000000 0 0 1
-29.849153 12.286203 -25.018394 40.839231 -0.390475 2.230151 0.024364 -0.004586 79741.100000 0 0 1
-29.670513 12.791803 -23.743294 40.096304 -0.407050 2.204529 0.017779 0.000374 380253.000000 0 0 1
-28.212443 13.229403 -23.422794 38.981872 -0.438477 2.215378 0.048092 0.000776 82561.600000 0 0 1
-27.790003 14.484703 -24.044094 39.499486 -0.480479 2.225242 0.054908 -0.002946 -460189.000000 0 0 1
-26.438083 14.760003 -23.811994 38.520657 -0.509182 2.237198 0.074498 -0.008323 -180095.000000 0 0 1
-26.117103 15.276303 -22.339494 37.610125 -0.529254 2.206788 0.085211 -0.009219 -658968.000000 0 0 1
-26.484193 16.628803 -22.145194 38.318914 -0.560665 2.186972 0.100726 -0.009048 -13838.200000 0 0 1
-26.536333 17.003103 -20.775694 37.748006 -0.569844 2.153614 0.090335 -0.001115 1465010.000000 0 0 1
-28.019243 16.799703 -20.222094 38.421883 -0.540109 2.125060 0.077530 0.003560 1295330.000000 0 0 1
-28.569423 15.497703 -20.276294 38.308208 -0.497034 2.128564 0.070594 0.000929 545600.000000 0 0 1
-29.861463 15.442703 -19.679794 38.954824 -0.477269 2.100405 0.059308 0.009885 631198.000000 0 0 1
-30.941253 14.375903 -20.114894 39.606018 -0.434945 2.103512 0.035452 0.001415 845204.000000 0 0 1
-31.471363 14.393103 -21.438394 40.708879 -0.428941 2.125424 0.022025 0.004236 130876.000000 0 0 1
-32.186923 15.539603 -21.808194 41.869734 -0.449787 2.118652 0.025758 0.012900 -475382.000000 0 0 1
-32.758083 15.566403 -23.220594 43.065077 -0.443606 2.140281 0.012513 0.010901 -623915.000000 0 0 1
-33.856383 14.740803 -23.432994 43.733867 -0.410640 2.136262 0.032502 0.002489 -471338.000000 0 0 1
-34.120431 14.837503 -24.798194 44.713597 -0.410190 2.158679 0.047976 -0.000545 203531.000000 0 0 1
-35.371227 14.007803 -25.268664 45.671081 -0.377073 2.157087 0.042936 -0.003817 420814.000000 0 0 1
-35.324777 12.597703 -25.307504 45.243914 -0.342565 2.164406 0.068006 -0.004310 -5132.290000 0 0 1
-35.163933 11.927303 -24.030594 44.229314 -0.327014 2.145181 0.066067 -0.001482 -144817.000000 0 0 1
-35.171065 10.386503 -24.180294 43.926870 -0.287152 2.153720 0.074250 -0.007261 782777.000000 0 0 1
-36.475553 9.989603 -24.648994 45.142342 -0.267316 2.148412 0.094414 -0.005783 798644.000000 0 0 1
-36.371893 8.879603 -25.538014 45.320548 -0.239450 2.169410 0.082753 -0.002932 162514.000000 0 0 1
-37.665023 8.562803 -26.346714 46.756014 -0.223542 2.169405 0.126247 0.002325 -26876.600000 0 0 1
37.778805 7.950903 -25.539124 46.289328 0.207432 2.155231 0.109086 0.005058 -1017320.000000 0 0 1
36.719815 7.477103 -26.284834 45.772748 0.200880 2.182480 0.131683 -0.004217 -505107.000000 0 0 1
35.644985 6.782903 -25.409154 44.296703 0.188042 2.181706 0.129555 -0.006292 239163.000000 0 0 1
36.194185 5.659203 -24.644294 44.151862 0.155101 2.162976 0.124669 -0.019169 253893.000000 0 0 1
35.191955 4.893203 -24.031894 42.894628 0.138157 2.165489 0.125993 -0.013333 -101517.000000 0 0 1
35.753915 3.998703 -22.925494 42.660408 0.111377 2.138142 0.111229 -0.017891 159285.000000 0 0 1
36.515935 2.930803 -23.464794 43.504020 0.080089 2.140486 0.125354 -0.033872 277136.000000 0 0 1
37.053715 2.032703 -22.489194 43.392091 0.054803 2.115633 0.155763 -0.029508 181415.000000 0 0 1
38.028505 0.948203 -23.031094 44.469064 0.024929 2.115205 0.171275 -0.034655 180391.000000 0 0 1
37.479805 0.050903 -23.974194 44.491577 0.001358 2.139865 0.127365 -0.031511 -351712.000000 0 0 1
-38.084733 -1.048897 -24.055394 45.057841 0.027534 2.133977 0.146940 -0.037149 -9019.380000 0 0 1
-24.261823 29.197503 26.685892 46.403309 -0.877463 0.958087 0.079774 -0.034731 -170068.000000 0 0 1
-25.653993 29.320403 26.398352 47.060454 -0.851993 0.975269 0.070064 -0.030429 762229.000000 0 0 1
-25.926833 28.771703 25.134542 46.170951 -0.837361 0.995147 0.064897 -0.023037 -210778.000000 0 0 1
-26.169813 27.236403 25.110142 45.356367 -0.805367 0.984093 0.063300 -0.026186 -840709.000000 0 0 1
-27.294953 26.738503 25.770662 46.087840 -0.775100 0.977419 0.080774 -0.025477 -218800.000000 0 0 1
-27.153533 26.394703 27.170852 46.607402 -0.771228 0.948413 0.081169 -0.032041 -677857.000000 0 0 1
-26.175803 25.236803 27.555062 45.621818 -0.767136 0.922300 0.074338 -0.025855 884943.000000 0 0 1
-24.805223 25.616103 27.668252 45.133313 -0.801479 0.910901 0.079208 -0.027365 281464.000000 0 0 1
-24.503523 26.219803 28.879132 46.064140 -0.819221 0.893186 0.077777 -0.028602 89226.400000 0 0 1
-23.065923 25.883403 29.403522 45.459371 -0.842894 0.867404 0.084338 -0.022880 -523890.000000 0 0 1
-22.027423 26.469603 28.690732 44.821929 -0.876740 0.876162 0.101397 -0.032955 704107.000000 0 0 1
-20.780123 26.128203 29.379592 44.470855 -0.898919 0.849114 0.120203 -0.038862 1402670.000000 0 0 1
-20.110223 24.744503 29.029312 43.120905 -0.888350 0.832259 0.106687 -0.034561 -439511.000000 0 0 1
-19.598323 24.550803 27.722782 41.897361 -0.897107 0.847735 0.108592 -0.029995 224559.000000 0 0 1
-20.517923 23.948803 26.814822 41.395229 -0.862402 0.866135 0.101837 -0.028040 46638.100000 0 0 1
-20.658623 22.405403 27.007492 40.720823 -0.825938 0.845663 0.096497 -0.013192 70307.800000 0 0 1
-21.445523 21.868603 28.047402 41.530748 -0.795166 0.829370 0.072978 -0.008593 217871.000000 0 0 1
-21.176023 20.460703 28.091632 40.696488 -0.768220 0.808932 0.092296 -0.009699 126359.000000 0 0 1
-21.408123 19.754403 29.478492 41.443041 -0.745244 0.779448 0.096797 -0.021407 -55200.800000 0 0 1
-20.540723 20.233903 30.483222 41.959015 -0.777874 0.757582 0.089921 -0.023011 172164.000000 0 0 1
-20.945723 19.881803 31.776481 42.938958 -0.759345 0.737669 0.089236 -0.020065 -367887.000000 0 0 1
-20.015023 20.511503 32.806951 43.561668 -0.797648 0.718012 0.096608 -0.021789 -475179.000000 0 0 1
-20.143523 21.949303 32.864797 44.357956 -0.828272 0.736387 0.066024 -0.014624 142406.000000 0 0 1
-19.195223 22.667603 32.089801 43.726790 -0.868155 0.746794 0.080467 -0.020686 623007.000000 0 0 1
-17.827823 22.894003 32.834804 43.818843 -0.909172 0.723746 0.082714 -0.014810 537370.000000 0 0 1
-17.075623 21.715403 32.905727 42.964200 -0.904442 0.698376 0.095073 -0.025400 -359087.000000 0 0 1
-15.742623 21.921603 33.326522 42.884075 -0.948004 0.680703 0.067387 -0.023553 -174731.000000 0 0 1
-14.870623 20.614203 33.171030 41.789927 -0.945867 0.653836 0.064668 -0.026506 536908.000000 0 0 1
-13.521423 20.629503 33.627652 41.704008 -0.990606 0.632857 0.050599 -0.030360 634848.000000 0 0 1
-13.413823 20.751403 -32.337064 40.696893 -0.996952 2.489117 0.060009 -0.033127 -1520190.000000 0 0 1
-11.992123 20.481103 -31.895814 39.757132 -1.041091 2.501879 0.074413 -0.035434 -409897.000000 0 0 1
-11.170523 21.617203 -32.174434 40.339538 -1.093845 2.494086 0.064815 -0.033473 1020420.000000 0 0 1
-9.810323 21.433803 -31.713314 39.514360 -1.141555 2.502399 0.064735 -0.035509 1317580.000000 0 0 1
-8.940823 22.762403 -31.735724 40.065216 -1.196522 2.485041 0.079620 -0.034751 322661.000000 0 0 1
-8.930223 23.639203 -30.677954 39.745411 -1.209598 2.452560 0.080415 -0.036157 -308106.000000 0 0 1
-8.298623 23.230203 -29.507604 38.460476 -1.227691 2.445290 0.071932 -0.031790 -178526.000000 0 0 1
-7.892723 24.464303 -28.675554 38.510838 -1.258717 2.410747 0.076081 -0.031433 242027.000000 0 0 1
-6.782923 25.141403 -29.256814 39.167070 -1.307279 2.414297 0.093201 -0.032035 167521.000000 0 0 1
-6.238723 25.993103 -28.236784 38.882889 -1.335238 2.383576 0.121440 -0.027392 124327.000000 0 0 1
-4.846223 26.576603 -28.582344 39.328770 -1.390429 2.384381 0.128150 -0.039543 -780137.000000 0 0 1
-3.805623 25.601803 -28.486454 38.489131 -1.423230 2.404040 0.137017 -0.023506 708268.000000 0 0 1
-2.672123 25.966503 -29.290564 39.234382 -1.468251 2.413663 0.146191 -0.027377 321582.000000 0 0 1
-1.848323 27.174503 -28.933064 39.736534 -1.502884 2.386375 0.163922 -0.045625 -1233230.000000 0 0 1
-1.198923 27.131303 -27.651714 38.757739 -1.526635 2.365206 0.171343 -0.058985 547330.000000 0 0 1
-0.383823 28.277603 -27.498164 39.445142 -1.557224 2.342175 0.174334 -0.060078 -912927.000000 0 0 1
0.197177 28.502403 -26.056464 38.618198 1.563879 2.311381 0.186633 -0.070244 271956.000000 0 0 1
1.404677 27.911303 -25.634994 37.923171 1.520512 2.313079 0.214693 -0.074202 695610.000000 0 0 1
2.546777 28.050403 -26.480134 38.658876 1.480252 2.325358 0.200348 -0.070073 -65047.900000 0 0 1
3.936377 28.006003 -25.798184 38.280251 1.431156 2.310311 0.172536 -0.073870 201848.000000 0 0 1
4.294577 26.760003 -25.172804 36.989340 1.411668 2.319299 0.176841 -0.059052 208897.000000 0 0 1
5.448477 26.847903 -24.369694 36.665758 1.370577 2.297814 0.144030 -0.047965 -110516.000000 0 0 1
6.017977 25.490503 -23.953194 35.492779 1.338954 2.311592 0.154875 -0.044988 526248.000000 0 0 1
7.382077 25.624903 -23.526494 35.561590 1.290309 2.293707 0.129294 -0.044469 401732.000000 0 0 1
7.860777 24.473303 -22.893194 34.421400 1.260007 2.298405 0.145936 -0.032240 254323.000000 0 0 1
9.356577 24.630603 -22.540594 34.674062 1.207758 2.278474 0.140045 -0.011124 -255864.000000 0 0 1
9.536377 25.460303 -21.414194 34.608341 1.212413 2.237957 0.137147 -0.015160 293845.000000 0 0 1
10.874577 25.919303 -21.207394 35.211082 1.173547 2.217167 0.123761 -0.014644 869745.000000 0 0 1
11.803377 24.930203 -20.427694 34.323832 1.128608 2.208244 0.108783 -0.006502 -17307.000000 0 0 1
12.087077 23.803403 -21.175394 34.074870 1.100938 2.241372 0.110975 -0.016465 -496506.000000 0 0 1
12.548977 22.715303 -20.504994 33.074411 1.066077 2.239495 0.113266 -0.007523 -252159.000000 0 0 1
12.699477 21.467003 -21.339994 32.825361 1.036590 2.278521 0.144702 -0.022471 -130347.000000 0 0 1
11.490077 21.136203 -21.963594 32.575458 1.072864 2.310728 0.148975 -0.039468 -315641.000000 0 0 1
11.766677 20.403903 -23.073894 32.972391 1.047695 2.345906 0.171279 -0.042444 362741.000000 0 0 1
10.821977 20.747203 -24.266494 33.710894 1.090009 2.374370 0.178324 -0.043736 1032660.000000 0 0 1
9.414377 20.568103 -24.072194 33.032528 1.141543 2.387280 0.143611 -0.044429 769500.000000 0 0 1
8.732677 20.615303 -25.345654 33.817933 1.170111 2.418063 0.158396 -0.052485 667776.000000 0 0 1
7.272077 20.066703 -25.323324 33.118370 1.223122 2.441265 0.128433 -0.055900 673358.000000 0 0 1
6.215677 20.818903 -24.743794 32.928965 1.280662 2.421022 0.143517 -0.058131 164199.000000 0 0 1
6.248577 21.106303 -23.336894 32.080078 1.282965 2.385406 0.132968 -0.057718 -1752050.000000 0 0 1
4.880177 21.472503 -22.885894 31.759230 1.347317 2.375472 0.144330 -0.064799 -1097600.000000 0 0 1
4.342477 22.690103 -23.408794 32.888745 1.381701 2.362793 0.150666 -0.062749 -10201.800000 0 0 1
2.937377 22.739403 -23.267194 32.666053 1.442332 2.363530 0.155996 -0.062207 -136115.000000 0 0 1
2.451977 23.898303 -24.105194 34.032360 1.468554 2.357886 0.152536 -0.050040 -278606.000000 0 0 1
1.051377 23.904503 -24.259894 34.074524 1.526842 2.363090 0.182459 -0.067931 -195537.000000 0 0 1
0.595577 24.783903 -25.268174 35.398831 1.546770 2.365725 0.177008 -0.052868 -272541.000000 0 0 1
-0.913923 24.724703 -25.485164 35.519570 -1.533849 2.370998 0.186393 -0.049072 -591273.000000 0 0 1
-1.412423 23.509203 -25.829884 34.955121 -1.510789 2.402298 0.183601 -0.052198 -149836.000000 0 0 1
-2.753223 23.663703 -26.288394 35.477187 -1.454969 2.405346 0.185697 -0.038453 392270.000000 0 0 1
-3.386223 22.333903 -26.704044 34.976789 -1.420324 2.439479 0.179806 -0.044585 -242165.000000 0 0 1
-2.699423 21.684503 -27.781344 35.345547 -1.446947 2.475097 0.208319 -0.057128 112960.000000 0 0 1
-3.452723 20.592403 -28.237924 35.119065 -1.404672 2.504893 0.165052 -0.053001 226446.000000 0 0 1
-4.644823 20.828603 -29.202964 36.169300 -1.351384 2.510522 0.134461 -0.045159 132087.000000 0 0 1
-4.236023 21.113203 -30.500814 37.336456 -1.372791 2.526843 0.144830 -0.045849 -113267.000000 0 0 1
-3.880523 22.439103 -30.865994 38.357287 -1.399554 2.505961 0.169151 -0.047097 -25140.200000 0 0 1
-3.436523 22.452903 -32.326194 39.508549 -1.418920 2.529083 0.137478 -0.043397 -1143780.000000 0 0 1
-2.360423 21.650603 -32.547284 39.161792 -1.462202 2.551875 0.124288 -0.031128 -668256.000000 0 0 1
-2.061723 21.695503 33.379082 39.863626 -1.476051 0.578412 0.125538 -0.011968 379061.000000 0 0 1
-0.878223 20.745003 32.974973 38.967618 -1.528487 0.561956 0.137681 -0.010022 229768.000000 0 0 1
-1.218923 19.430303 32.701983 38.058404 -1.508145 0.536979 0.112933 0.005200 389097.000000 0 0 1
-0.124923 18.716103 32.139900 37.192490 -1.564122 0.527337 0.117260 -0.011645 250128.000000 0 0 1
-0.597123 17.283903 31.737419 36.143514 -1.536262 0.498931 0.091899 -0.003911 202335.000000 0 0 1
-1.427723 17.312703 30.596052 35.183611 -1.488516 0.516383 0.075803 -0.001088 225914.000000 0 0 1
-2.016223 16.046403 30.370572 34.408195 -1.445802 0.489315 0.066541 0.000815 -365267.000000 0 0 1
-2.897423 15.901703 29.095802 33.284004 -1.390565 0.507077 0.066096 0.004026 387957.000000 0 0 1
-4.253623 16.318903 29.085142 33.620610 -1.315814 0.525449 0.049525 0.000885 311784.000000 0 0 1
-4.430623 17.712503 29.247712 34.478861 -1.325685 0.558068 0.052194 -0.003168 -850783.000000 0 0 1
-5.853523 18.109903 29.651022 35.233726 -1.258173 0.570646 0.042203 -0.015069 -336638.000000 0 0 1
-6.738523 17.888903 28.596212 34.397149 -1.210547 0.589256 0.020673 -0.008954 -273584.000000 0 0 1
-8.053123 18.338303 28.887072 35.151231 -1.157008 0.606244 0.032531 -0.024932 -331588.000000 0 0 1
-9.134023 17.858403 27.878192 34.344527 -1.098016 0.623703 0.034647 -0.028389 61831.500000 0 0 1
-9.619223 16.516503 28.027602 33.924487 -1.043418 0.598510 0.051852 -0.031463 126787.000000 0 0 1
-10.310223 16.353003 29.249332 35.060588 -1.008267 0.584023 0.064511 -0.032229 -1090730.000000 0 0 1
-10.893523 14.893603 29.426482 34.733357 -0.939291 0.560083 0.063482 -0.033522 -226963.000000 0 0 1
-9.999723 13.805103 29.454812 34.031769 -0.943915 0.524630 0.061545 -0.023943 553463.000000 0 0 1
-9.081523 13.697403 30.574992 34.712001 -0.985329 0.493207 0.052127 -0.021432 381739.000000 0 0 1
-9.719023 13.326503 31.932110 35.940433 -0.940675 0.476789 0.095793 -0.035096 -417443.000000 0 0 1
-10.088023 11.985503 32.032356 35.657991 -0.871149 0.454861 0.100470 -0.029478 341520.000000 0 0 1
-10.667823 11.784503 33.291162 36.891441 -0.835093 0.445469 0.102256 -0.021420 -36491.400000 0 0 1
-11.266423 10.339803 33.575832 36.894177 -0.742538 0.427373 0.090328 -0.025586 -252357.000000 0 0 1
-10.282323 9.336003 33.632022 36.386811 -0.737199 0.391621 0.112509 -0.032211 47484.600000 0 0 1
-10.308723 8.638603 -32.533964 35.204461 -0.697480 2.749583 0.155318 -0.041400 89685.600000 0 0 1
-9.411423 9.167603 -31.379074 34.018615 -0.772276 2.745068 0.129291 -0.042678 -65137.800000 0 0 1
-9.964023 10.391303 -30.900594 34.089700 -0.806386 2.705596 0.113821 -0.037569 413042.000000 0 0 1
-9.064823 11.136703 -30.104234 33.353592 -0.887601 2.696518 0.108938 -0.038304 292909.000000 0 0 1
-7.931423 11.936803 -30.769694 33.943613 -0.984329 2.705702 0.092475 -0.040125 49395.600000 0 0 1
-8.547423 13.066103 -31.362434 35.034038 -0.991497 2.679674 0.092835 -0.032400 335323.000000 0 0 1
-7.636623 13.939803 -31.971764 35.704759 -1.069622 2.680233 0.064709 -0.024414 -470079.000000 0 0 1
-8.250423 15.333803 -31.970754 36.405002 -1.077171 2.642875 0.065786 -0.023513 -28460.900000 0 0 1
-9.144523 15.511703 -33.037824 37.626229 -1.038115 2.642575 0.084596 -0.026421 61946.000000 0 0 1
-9.474923 16.859503 -33.217124 38.436888 -1.058792 2.614353 0.096653 -0.030791 -913413.000000 0 0 1
-9.950823 17.367803 32.765166 38.395515 -1.050507 0.548401 0.070840 -0.032330 1794240.000000 0 0 1
-11.221223 16.876903 32.207263 38.053298 -0.984027 0.561659 0.069352 -0.034198 1852510.000000 0 0 1
-12.353523 17.146303 32.996166 39.183571 -0.946459 0.569646 0.081523 -0.046179 -842775.000000 0 0 1
-13.745223 16.667003 32.561790 39.076723 -0.881177 0.585785 0.092419 -0.048634 -92144.700000 0 0 1
-13.970023 15.279203 32.690945 38.695135 -0.830128 0.564543 0.088743 -0.047126 599987.000000 0 0 1
-15.338523 14.908903 32.609420 38.998974 -0.771196 0.580550 0.091594 -0.033696 116751.000000 0 0 1
-15.512723 13.399703 32.725080 38.615120 -0.712444 0.559599 0.085434 -0.027375 -111123.000000 0 0 1
-15.266923 12.731103 31.504350 37.251631 -0.695073 0.562888 0.072630 -0.033506 706915.000000 0 0 1
-13.928023 12.261603 31.279458 36.369509 -0.721855 0.535436 0.076918 -0.020687 395574.000000 0 0 1
-13.526423 11.573203 29.958892 34.848793 -0.707736 0.536149 0.084049 -0.015763 -22146.600000 0 0 1
-14.280523 10.408703 29.653902 34.519970 -0.629843 0.537412 0.074644 -0.007220 328191.000000 0 0 1
-13.911823 9.867303 28.364402 33.097459 -0.616923 0.541384 0.066281 -0.011859 -176561.000000 0 0 1
-14.686323 8.610803 27.978922 32.751398 -0.530296 0.546629 0.093694 -0.013217 87978.700000 0 0 1
-14.285823 7.434303 28.624652 32.843938 -0.479832 0.512472 0.066020 -0.014541 169530.000000 0 0 1
-15.090823 6.467203 27.985492 32.446038 -0.404875 0.530559 0.088419 -0.004899 -132140.000000 0 0 1
-14.548823 5.102303 28.005592 31.968968 -0.337300 0.503241 0.085918 -0.007879 -144874.000000 0 0 1
-13.494623 4.793903 27.108132 30.658395 -0.341340 0.486019 0.077887 -0.021736 -68112.700000 0 0 1
-13.894123 4.498203 25.783612 29.632332 -0.313100 0.515356 0.084389 -0.010124 -351627.000000 0 0 1
-12.797023 4.105803 24.758332 28.170843 -0.310465 0.497321 0.058092 -0.006765 -314697.000000 0 0 1
-12.136123 2.893803 25.014912 27.953629 -0.234075 0.462653 0.055793 -0.017543 -199710.000000 0 0 1
-11.527223 2.414203 23.848742 26.598265 -0.206451 0.458703 0.051378 -0.018915 -754761.000000 0 0 1
-10.574423 1.271203 24.166112 26.409001 -0.119641 0.415112 0.039219 -0.008437 -569000.000000 0 0 1
-9.249923 1.743503 24.123082 25.894477 -0.186303 0.372029 0.024173 -0.020233 -19314.000000 0 0 1
-8.324923 0.712503 24.479782 25.866421 -0.085379 0.328918 0.034242 -0.010638 328763.000000 0 0 1
-6.835623 1.113203 24.419702 25.382805 -0.161436 0.276353 0.038203 -0.014708 -313173.000000 0 0 1
-6.421123 1.281703 23.068642 23.979904 -0.197018 0.276566 0.032061 -0.016496 236265.000000 0 1 0
-5.072623 1.690703 22.874662 23.491278 -0.321720 0.229627 0.038501 -0.016535 -29903.600000 0 1 0
-4.672123 3.120303 23.238042 23.907564 -0.588825 0.237218 0.065781 -0.022414 -450959.000000 0 1 0
-4.673323 3.257703 24.654242 25.303838 -0.608767 0.227079 0.074233 -0.022005 -137696.000000 0 0 1
-4.165923 4.516003 24.959642 25.704726 -0.825699 0.241360 0.075001 -0.027675 -64973.900000 0 0 1
6.074177 -23.430497 13.434006 27.683141 -1.317138 1.064116 0.200229 -0.047764 261804.000000 0 0 1
5.235677 -24.525997 13.792006 28.620906 -1.360479 1.067991 0.240525 -0.060507 190983.000000 0 0 1
3.971177 -24.525597 13.136406 28.104097 -1.410270 1.084427 0.236770 -0.063078 975740.000000 0 0 1
3.083577 -25.796827 13.535806 29.295098 -1.451828 1.090491 0.206865 -0.072164 528742.000000 0 0 1
2.507577 -25.670727 14.846506 29.760593 -1.473423 1.048508 0.213690 -0.066048 155187.000000 0 0 1
2.037977 -26.976217 15.286806 31.073398 -1.495392 1.056459 0.207279 -0.063033 82317.900000 0 0 1
1.566877 -26.849097 16.776906 31.698480 -1.512504 1.013062 0.187465 -0.064154 -214772.000000 0 0 1
2.605477 -26.594227 17.676906 32.039263 -1.473136 0.986364 0.221445 -0.062165 -382238.000000 0 0 1
2.184377 -26.283807 18.985406 32.497009 -1.487880 0.946878 0.203764 -0.064483 -388342.000000 0 0 1
3.308477 -25.717947 19.824006 32.639700 -1.442854 0.918065 0.163821 -0.058768 -399931.000000 0 0 1
2.857377 -24.833897 20.822406 32.533976 -1.456241 0.876272 0.145513 -0.045792 456321.000000 0 0 1
3.984977 -24.221797 21.465806 32.609144 -1.407737 0.852271 0.121346 -0.040809 250411.000000 0 0 1
3.656477 -22.969297 22.323106 32.237857 -1.412931 0.805917 0.122253 -0.043695 -479650.000000 0 0 1
3.164977 -21.892997 21.576106 30.900626 -1.427225 0.797858 0.133534 -0.038849 -370119.000000 0 0 1
4.127577 -21.272897 20.771206 30.016929 -1.379148 0.806564 0.120386 -0.027703 -323518.000000 0 0 1
3.584577 -20.208597 19.834506 28.541972 -1.395243 0.802482 0.083612 -0.015106 -331299.000000 0 0 1
3.141077 -19.051797 20.512506 28.170911 -1.407396 0.755185 0.039078 -0.015241 90329.300000 0 0 1
2.529077 -18.162697 19.570506 26.819479 -1.432440 0.752895 0.020488 -0.023361 -425183.000000 0 0 1
1.954977 -16.856097 20.036306 26.256494 -1.455332 0.702701 0.058933 -0.034458 -719196.000000 0 0 1
2.751577 -15.908297 20.644006 26.207252 -1.399526 0.663695 0.012045 -0.001632 -1291950.000000 0 0 1
2.085877 -14.777297 20.936006 25.710615 -1.430569 0.619284 0.040818 -0.012456 17864.200000 0 0 1
2.934777 -13.445597 20.761906 24.908908 -1.355896 0.585360 0.004810 0.007246 7596.680000 0 1 0
3.359277 -13.068397 19.426806 23.653087 -1.319190 0.607071 -0.001895 -0.001141 -245340.000000 0 1 0
2.396377 -12.697097 18.462506 22.534928 -1.384256 0.610635 0.014813 -0.008105 413578.000000 0 1 0
1.442077 -11.503897 18.838406 22.120234 -1.446091 0.551696 0.023719 -0.023105 -160560.000000 0 1 0
2.165877 -10.306897 19.048906 21.766579 -1.363671 0.505062 0.039062 -0.007199 -137943.000000 0 1 0
1.633577 -9.521397 20.115106 22.314637 -1.400882 0.447733 0.047413 -0.021299 -254171.000000 0 1 0
0.196877 -9.013997 20.015806 21.952753 -1.548958 0.423229 0.045691 -0.028746 -214364.000000 0 1 0
-0.278023 -8.111297 21.048206 22.558754 1.536534 0.368026 0.044329 -0.040371 -138020.000000 0 1 0
-1.669023 -7.905897 20.982906 22.484910 1.362740 0.367581 0.044305 -0.031979 -93259.600000 0 1 0
-2.247523 -7.413297 22.322906 23.628805 1.276430 0.334018 0.042632 -0.019688 -297646.000000 0 1 0
-2.224023 -8.459197 23.256506 24.846918 1.313703 0.359731 0.043281 -0.013988 100426.000000 0 1 0
-2.456423 -7.928597 24.560906 25.925561 1.270357 0.325901 0.031324 0.000402 -130699.000000 0 0 1
-2.543723 -8.955497 25.650306 27.287536 1.294045 0.348164 0.030170 0.004855 -261127.000000 0 0 1
-1.444423 -9.816697 25.777606 27.621347 1.424705 0.367442 0.029738 0.010571 -349678.000000 0 0 1
-1.554523 -10.718697 26.859906 28.961380 1.426771 0.383291 0.055386 -0.010403 31196.600000 0 0 1
-0.370823 -11.723697 26.916406 29.361122 1.539177 0.410964 0.071839 -0.017040 -17188.000000 0 0 1
0.766377 -11.136297 27.493506 29.673174 -1.502087 0.385677 0.065074 -0.009318 -281555.000000 0 0 1
1.790777 -12.081297 27.792506 30.357667 -1.423641 0.414042 0.089153 -0.022504 39175.700000 0 0 1
2.833577 -11.396497 28.665506 30.977742 -1.327102 0.388817 0.126708 -0.032330 -574804.000000 0 0 1
2.340377 -10.990497 29.898006 31.939930 -1.360985 0.359508 0.130574 -0.038736 -832199.000000 0 0 1
3.336477 -10.545897 30.745606 32.674765 -1.264383 0.345345 0.177803 -0.028920 -771573.000000 0 0 1
2.907677 -9.942797 32.105306 33.735211 -1.286289 0.312118 0.179014 -0.040107 -248977.000000 0 0 1
2.276077 -10.890297 32.948906 34.776565 -1.364762 0.325642 0.193975 -0.050884 -24767.500000 0 0 1
2.078877 -10.459997 -33.071071 34.748079 -1.374607 2.829647 0.183159 -0.056779 -706893.000000 0 0 1
3.289277 -10.493997 -32.156771 33.985309 -1.267052 2.812068 0.168198 -0.037054 -34124.800000 0 0 1
4.314077 -9.513197 -32.535871 34.171553 -1.145049 2.830937 0.159225 -0.048340 1016060.000000 0 0 1
4.815777 -8.842397 -31.401071 32.975854 -1.072090 2.831300 0.155906 -0.046864 -257035.000000 0 0 1
4.026877 -7.577297 -31.013871 32.179051 -1.082314 2.871667 0.161477 -0.041356 -207625.000000 0 0 1
4.187277 -6.511797 -31.940171 32.865047 -0.999337 2.903792 0.169379 -0.042805 -29389.900000 0 0 1
3.441077 -5.422897 -31.511271 32.159120 -1.005362 2.940530 0.164757 -0.034442 -151562.000000 0 0 1
3.442977 -4.066797 -32.339271 32.775316 -0.868276 2.978291 0.161798 -0.032539 -99876.900000 0 0 1
2.605377 -4.143997 -33.459971 33.816126 -1.009533 2.996330 0.173555 -0.040500 -133605.000000 0 0 1
2.630277 -2.942297 33.182906 33.416773 -0.841332 0.118378 0.173818 -0.022762 157424.000000 0 0 1
1.903777 -3.174697 31.837506 32.051986 -1.030618 0.115751 0.176805 -0.025454 -499815.000000 0 0 1
0.533877 -3.376097 31.909606 32.092148 -1.413961 0.106710 0.161251 -0.024362 -1122230.000000 0 0 1
0.146577 -3.890497 30.679806 30.925845 -1.533138 0.126225 0.150713 -0.013827 -304143.000000 0 0 1
-1.370123 -4.121797 30.632606 30.939020 1.249878 0.140856 0.122254 -0.008934 -84194.400000 0 0 1
-2.203423 -2.969297 30.492006 30.715374 0.932390 0.120673 0.102126 -0.010500 696563.000000 0 0 1
-3.553023 -3.473297 30.405406 30.808707 0.774052 0.161983 0.066478 -0.005094 437795.000000 0 0 1
-4.536823 -2.420797 29.941206 30.379579 0.490156 0.170086 0.051581 -0.003132 -408623.000000 0 0 1
-4.779523 -2.399697 28.554306 29.050830 0.465309 0.185151 0.041100 -0.011514 501245.000000 0 0 1
-5.933423 -1.646597 28.118206 28.784549 0.270700 0.215589 0.019148 -0.019076 745477.000000 0 0 1
-5.848923 -0.097597 28.178506 28.779291 0.016685 0.204688 0.059966 -0.021256 -577736.000000 0 0 1
-7.046023 0.486103 28.558506 29.418888 -0.068881 0.242444 0.049750 -0.014002 -750414.000000 0 0 1
-7.043923 1.836503 28.238406 29.161570 -0.255044 0.252291 0.062298 -0.013100 -84928.200000 0 0 1
-8.253823 2.528903 28.880606 30.143164 -0.297310 0.290452 0.043694 -0.018479 227136.000000 0 0 1
-9.458323 2.030903 28.319106 29.925845 -0.211510 0.329175 0.048589 -0.010296 1044840.000000 0 0 1
-10.678923 2.564803 28.920306 30.935444 -0.235710 0.362932 0.049417 -0.013859 836501.000000 0 0 1
-11.911423 2.033603 28.204306 30.683878 -0.169097 0.404778 0.063601 -0.012483 -602688.000000 0 0 1
-12.122023 0.681903 28.520606 30.997312 -0.056194 0.402462 0.071325 -0.008456 -47628.600000 0 0 1
-12.405723 -0.074697 27.366106 30.046818 0.006021 0.425622 0.067736 -0.002574 -673497.000000 0 0 1
-12.414023 -1.616497 27.585306 30.293070 0.129487 0.426028 0.074802 -0.003589 116533.000000 0 0 1
-11.220323 -2.282597 27.981306 30.233414 0.200695 0.388418 0.070639 -0.008437 1000860.000000 0 0 1
-10.082723 -2.192797 27.086606 28.985408 0.214146 0.363969 0.058837 -0.000627 276339.000000 0 0 1
-10.090323 -2.890197 25.685506 27.747307 0.278964 0.387931 0.065318 -0.005818 -608098.000000 0 0 1
-11.022823 -2.382397 24.747206 27.195636 0.212859 0.427585 0.048062 -0.004445 243670.000000 0 0 1
-10.830923 -2.943897 23.432506 25.981873 0.265393 0.446697 0.042625 -0.000944 91632.800000 0 0 1
-9.630723 -2.427497 22.612106 24.697184 0.246914 0.413863 0.032803 0.001889 83260.300000 0 1 0
-8.370223 -2.782797 23.104706 24.731195 0.320968 0.364693 0.030485 -0.005325 -221899.000000 0 1 0
-7.339623 -2.590197 22.145406 23.473350 0.339261 0.337976 0.022500 -0.003130 955887.000000 0 1 0
-5.869523 -2.655797 22.721806 23.617472 0.424908 0.276283 0.014437 -0.002690 1040750.000000 0 1 0
-5.228623 -3.909497 22.599206 23.523324 0.642034 0.281230 0.011050 -0.005868 34786.500000 0 1 0
-5.778623 -4.828197 23.525706 24.701473 0.696032 0.309779 0.018445 0.000639 -179902.000000 0 1 0
-5.622123 -6.322697 23.055406 24.558837 0.843982 0.351717 0.034982 -0.008154 -352128.000000 0 1 0
-6.396523 -6.748897 21.944806 23.833539 0.812198 0.400790 0.028791 -0.017120 -150838.000000 0 1 0
-6.163023 -6.140597 20.694206 22.448606 0.783575 0.397974 0.030711 -0.021103 -622693.000000 0 1 0
-7.369023 -5.960197 19.753406 21.909438 0.680095 0.447357 0.030409 -0.019302 -353407.000000 0 1 0
-8.338923 -5.061897 20.211806 22.442761 0.545566 0.449663 0.036797 -0.014541 -778502.000000 0 1 0
-9.283923 -4.891597 19.209606 21.888990 0.484927 0.499980 0.039835 -0.011668 -108383.000000 0 1 0
-9.938823 -3.467597 19.200506 21.896663 0.335689 0.501486 0.034478 -0.019307 59436.300000 0 1 0
-8.962723 -2.533297 18.837706 21.014451 0.275463 0.459179 0.029417 -0.019798 -545583.000000 0 1 0
-9.417423 -1.173497 18.718006 20.986393 0.123970 0.469242 0.025457 -0.010425 -399607.000000 0 1 0
-8.313623 -0.200797 18.296406 20.097639 0.024148 0.426605 0.002864 -0.011437 321801.000000 0 1 0
-7.240923 0.064903 19.252506 20.569252 -0.008963 0.359750 0.017942 -0.004196 1078630.000000 0 1 0
-7.568323 0.849803 20.425806 21.799431 -0.111816 0.356890 0.020820 -0.002372 -562920.000000 0 1 0
-7.721023 2.343203 20.100906 21.659898 -0.294650 0.381723 0.020852 -0.014340 -539419.000000 0 1 0
-8.777223 2.560703 19.239606 21.301626 -0.283866 0.443631 0.013038 -0.018705 -264657.000000 0 1 0
-8.631823 3.931303 18.929606 21.172942 -0.427371 0.464497 0.009139 -0.019724 317708.000000 0 1 0
-9.643023 4.335103 17.805906 20.708242 -0.422487 0.535828 0.011049 -0.012155 -581785.000000 0 1 0
-10.853423 4.742403 18.374106 21.860808 -0.411949 0.572583 0.019035 0.000644 -557049.000000 0 1 0
-11.684323 5.157003 17.273306 21.482206 -0.415646 0.636678 0.011753 0.017386 9578.210000 0 1 0
-11.776423 6.677203 17.071106 21.787423 -0.515799 0.670469 0.021262 0.005886 -453653.000000 0 1 0
-10.486723 7.215503 16.864706 21.129438 -0.602668 0.646559 0.016635 0.003977 117330.000000 0 1 0
-10.525223 8.566203 16.490806 21.356657 -0.683144 0.688559 0.011848 -0.006180 -545822.000000 0 1 0
-9.254023 9.290303 16.872506 21.368859 -0.787355 0.660666 0.018436 -0.001322 -531394.000000 0 1 0
-9.274023 9.605803 18.244006 22.608023 -0.802970 0.631792 0.046659 0.011637 -246899.000000 0 1 0
-8.534323 10.753103 18.598006 23.116005 -0.899932 0.635877 0.057969 0.010148 -222935.000000 0 1 0
-9.114623 12.076003 18.052906 23.554482 -0.924248 0.697529 0.064020 0.001460 149485.000000 0 1 0
-8.841923 12.398403 16.739006 22.629501 -0.951299 0.738174 0.045524 -0.007850 -13554.500000 0 1 0
-9.541323 13.620803 16.463006 23.400720 -0.959737 0.790450 0.047753 -0.012525 193090.000000 0 1 0
-9.424423 14.087403 15.031206 22.654179 -0.981183 0.845300 0.048802 -0.013709 109597.000000 0 1 0
-8.132323 14.616003 14.894806 22.396818 -1.063054 0.843247 0.054541 -0.014500 -307830.000000 0 1 0
-7.977723 15.061503 13.521006 21.755701 -1.083690 0.900150 0.050225 -0.022803 -54106.900000 0 1 0
-7.042623 16.228703 13.196506 22.070730 -1.161360 0.929894 0.028296 -0.018860 1727720.000000 0 1 0
-5.606723 16.034903 13.372106 21.618665 -1.234427 0.903907 0.031117 -0.022572 1429100.000000 0 1 0
-4.840623 17.189303 13.577106 22.433046 -1.296298 0.920744 0.036079 -0.023534 1768300.000000 0 1 0
-3.278723 16.898303 13.779106 22.049182 -1.379151 0.895760 0.034062 -0.024509 1707920.000000 0 1 0
-3.000323 16.449003 15.098606 22.528638 -1.390378 0.836323 0.050904 -0.021506 -175687.000000 0 1 0
-3.105323 15.033203 15.264606 21.648289 -1.367097 0.788206 0.033027 -0.022045 -107332.000000 0 1 0
-1.960723 14.308603 16.040406 21.584142 -1.434613 0.733020 0.037796 -0.021195 673135.000000 0 1 0
-0.701823 14.321703 15.372406 21.021765 -1.521831 0.750627 0.061754 -0.031182 434872.000000 0 1 0
0.398877 13.914203 16.201406 21.360002 1.542137 0.709799 0.052906 -0.019371 1001210.000000 0 1 0
1.309277 15.057303 16.732106 22.547726 1.484062 0.734636 0.051892 -0.027875 96666.800000 0 1 0
0.550077 15.958403 17.497306 23.688160 1.536341 0.739728 0.048188 -0.031437 -354161.000000 0 1 0
1.378477 16.917203 18.065006 24.787828 1.489492 0.754250 0.095151 -0.033524 -922657.000000 0 1 0
0.568377 17.972803 18.805306 26.018921 1.539183 0.763016 0.105155 -0.032324 297131.000000 0 0 1
-0.094523 18.953203 18.001906 26.140036 -1.565809 0.811141 0.081730 -0.029955 -469368.000000 0 0 1
-1.165723 18.475903 17.259406 25.310176 -1.507786 0.820418 0.080377 -0.029686 -1282320.000000 0 0 1
-1.895423 19.580503 16.453206 25.645598 -1.474295 0.874265 0.078838 -0.023911 -208306.000000 0 0 1
-2.545823 20.441103 17.318506 26.911904 -1.446890 0.871701 0.070765 -0.023033 279840.000000 0 0 1
-3.375423 21.441903 16.693606 27.382936 -1.414656 0.915196 0.090650 -0.030687 234278.000000 0 0 1
-3.992123 22.491203 17.687106 28.889877 -1.395129 0.911925 0.076685 -0.023102 -492694.000000 0 0 1
-5.095823 21.986103 18.343006 29.083019 -1.343043 0.888326 0.093362 -0.022839 -700200.000000 0 0 1
-5.596923 22.819403 19.363706 30.446737 -1.330274 0.881510 0.093709 -0.009377 717093.000000 0 0 1
-6.898623 22.190703 20.013506 30.668530 -1.269389 0.859819 0.077960 -0.016184 823021.000000 0 0 1
-8.058723 22.474803 19.252606 30.671202 -1.226510 0.892189 0.072470 -0.022051 -248902.000000 0 0 1
-9.200123 21.853203 19.792206 30.885857 -1.172322 0.875233 0.033593 -0.018811 -5285.030000 0 0 1
-10.533423 22.269803 19.162106 31.210310 -1.128988 0.909720 0.050528 -0.032715 -114216.000000 0 0 1
-10.754123 23.644203 19.408506 32.425138 -1.143932 0.929090 0.071671 -0.028806 -130536.000000 0 0 1
-11.966523 24.039303 18.806506 32.783691 -1.108918 0.959836 0.058402 -0.028953 187783.000000 0 0 1
-12.631923 25.325703 19.355206 34.286742 -1.108126 0.970957 0.075671 -0.027863 -92143.900000 0 0 1
-13.376623 25.229203 20.538406 35.174889 -1.083279 0.947279 0.071776 -0.037076 19262.300000 0 0 1
-13.772023 26.547703 20.916306 36.495767 -1.092250 0.960493 0.079089 -0.034788 -476688.000000 0 0 1
-14.690623 26.628403 22.125106 37.608597 -1.066657 0.941842 0.107877 -0.042772 478555.000000 0 0 1
-16.063723 26.315703 21.881806 37.807048 -1.022748 0.953570 0.093873 -0.047737 469989.000000 0 0 1
-16.942523 26.577103 22.921306 38.971499 -1.003269 0.942020 0.078355 -0.035911 -305252.000000 0 0 1
-18.384723 26.127503 22.709306 39.196390 -0.957622 0.952838 0.090874 -0.033624 -228885.000000 0 0 1
-18.454123 24.730803 22.636006 38.269518 -0.929732 0.937892 0.105595 -0.034199 4189.060000 0 0 1
-19.795723 24.292703 22.691706 38.690045 -0.887046 0.944066 0.106724 -0.026667 106389.000000 0 0 1
29.926377 24.128603 23.266442 44.934451 0.678550 1.026535 0.111878 -0.021490 110745.000000 0 0 1
29.444677 23.283303 24.302672 44.718241 0.669074 0.996240 0.097113 -0.027390 279449.000000 0 0 1
28.742077 22.180003 23.747332 43.381970 0.657239 0.991541 0.097851 -0.019044 -612364.000000 0 0 1
28.211777 21.230003 24.760722 43.124364 0.645114 0.959206 0.116620 -0.021431 200158.000000 0 0 1
27.003677 21.642003 25.417862 42.937660 0.675622 0.937294 0.110742 -0.025261 674012.000000 0 0 1
26.574477 20.583903 26.287152 42.672172 0.659044 0.907109 0.107707 -0.033108 -58575.000000 0 0 1
25.219077 20.932703 26.922902 42.414886 0.692788 0.883110 0.118870 -0.039230 -327960.000000 0 0 1
25.275577 22.084703 27.772852 43.565126 0.718125 0.879545 0.115003 -0.042138 258432.000000 0 0 1
24.109377 22.217903 28.576202 43.491340 0.744592 0.853891 0.131440 -0.036806 -156373.000000 0 0 1
24.115377 23.516003 29.441662 44.736621 0.772815 0.852489 0.125701 -0.043707 -366144.000000 0 0 1
23.827677 24.694303 28.741572 44.762091 0.803257 0.873567 0.136623 -0.044389 55202.900000 0 0 1
23.394077 25.834803 29.519592 45.674131 0.834937 0.868059 0.129540 -0.045328 362663.000000 0 0 1
21.952477 25.748403 30.123012 45.302179 0.864809 0.843389 0.146668 -0.041356 -319861.000000 0 0 1
21.026677 26.026803 29.061052 44.317721 0.891266 0.855630 0.137572 -0.050256 543851.000000 0 0 1
19.697177 26.314503 29.495702 44.163654 0.928237 0.839449 0.127756 -0.048593 933482.000000 0 0 1
18.838677 25.151903 30.087982 43.506329 0.927938 0.807126 0.137352 -0.048031 -663892.000000 0 0 1
19.061777 24.879703 31.450876 44.401673 0.917034 0.783672 0.118741 -0.044961 -600157.000000 0 0 1
18.190077 24.041903 32.115649 44.048915 0.923085 0.753804 0.144645 -0.048002 -375728.000000 0 0 1
18.729577 23.617903 33.488952 45.056768 0.900323 0.732864 0.159962 -0.048848 -93115.200000 0 0 1
18.982577 24.756303 -32.997024 45.409431 0.916644 2.384238 0.150076 -0.039471 147838.000000 0 0 1
19.165377 24.407003 -31.632844 44.313095 0.905120 2.365775 0.112203 -0.025511 -125341.000000 0 0 1
19.475877 25.646403 -30.722354 44.507425 0.921306 2.332665 0.081179 -0.005213 -63080.900000 0 0 1
18.335177 26.425903 -30.424054 44.273358 0.964221 2.328405 0.109266 -0.022683 113311.000000 0 0 1
18.637977 27.659303 -29.854224 44.762551 0.977843 2.300899 0.101126 -0.016192 -238897.000000 0 0 1
18.068177 27.804803 -28.459594 43.697994 0.994546 2.280065 0.110453 -0.013276 -230321.000000 0 0 1
18.762277 27.079403 -27.481794 42.901820 0.964877 2.266042 0.061116 -0.002270 124087.000000 0 0 1
18.200777 27.348803 -26.206944 42.024151 0.983598 2.244157 0.087764 -0.009219 -89782.100000 0 0 1
18.921877 26.628003 -25.080094 41.183724 0.952991 2.225571 0.090749 -0.015323 -433809.000000 0 0 1
20.294277 26.866403 -25.027894 41.953031 0.923862 2.210016 0.069347 -0.006271 -704347.000000 0 0 1
20.945677 26.328003 -23.874094 41.253576 0.898765 2.187949 0.057428 -0.004915 -14499.500000 0 0 1
22.456277 26.578403 -23.819894 42.167325 0.869266 2.171096 0.060625 -0.008663 -381718.000000 0 0 1
22.945077 26.203503 -22.580094 41.508563 0.851599 2.145977 0.065808 -0.011411 -568603.000000 0 0 1
24.339277 26.072303 -22.746994 42.303560 0.819762 2.138514 0.072849 -0.009519 -180311.000000 0 0 1
25.032477 25.716303 -21.405094 41.786735 0.798872 2.108594 0.083132 -0.013481 6702.000000 0 0 1
24.725177 24.505503 -20.696194 40.499217 0.780936 2.107176 0.097504 -0.014920 269473.000000 0 0 1
25.560777 24.412303 -19.531394 40.383032 0.762420 2.075620 0.107656 -0.022731 -18400.500000 0 0 1
25.161077 23.328003 -18.528394 38.994576 0.747612 2.065934 0.111406 -0.024919 -776261.000000 0 0 1
25.448277 21.966103 -18.869394 38.550987 0.712088 2.082274 0.112111 -0.016157 175829.000000 0 0 1
25.032377 21.027503 -17.843894 37.244871 0.698667 2.070422 0.126026 -0.020918 -393439.000000 0 0 1
25.203977 19.575803 -18.332794 36.804129 0.660368 2.092223 0.145688 -0.026307 775383.000000 0 0 1
24.361077 19.033703 -19.413194 36.505014 0.663244 2.131515 0.129695 -0.027166 1697170.000000 0 0 1
22.936177 19.105503 -19.150294 35.465790 0.694533 2.141192 0.135111 -0.036581 1073280.000000 0 0 1
22.047677 19.033903 -20.433794 35.579903 0.712169 2.182554 0.114734 -0.023049 200345.000000 0 0 1
22.148577 20.025003 -21.397994 36.734649 0.735087 2.192599 0.103810 -0.015949 -216955.000000 0 0 1
22.247777 21.399603 -21.043894 37.359766 0.765968 2.169143 0.095013 -0.014438 -38735.100000 0 0 1
21.779477 22.277603 -22.177394 38.242307 0.796704 2.189424 0.081840 -0.006310 596889.000000 0 0 1
20.388677 22.133203 -22.448194 37.543286 0.826402 2.211710 0.117197 -0.012732 154217.000000 0 0 1
20.147477 22.501703 -23.797294 38.452031 0.840542 2.238116 0.101831 -0.008039 953301.000000 0 0 1
18.627977 22.318303 -24.219994 37.838028 0.875281 2.265420 0.112914 -0.017650 1440290.000000 0 0 1
17.769177 23.268903 -23.588794 37.598095 0.918620 2.248998 0.124025 -0.020648 580975.000000 0 0 1
16.458977 23.350703 -24.138994 37.401128 0.956816 2.272354 0.152593 -0.023086 553813.000000 0 0 1
15.528977 24.341203 -23.414294 37.173546 1.002924 2.252175 0.135338 -0.018665 318695.000000 0 0 1
15.850877 25.728303 -23.654494 38.376178 1.018632 2.234940 0.121699 -0.020744 -683344.000000 0 0 1
14.730377 26.429603 -23.286794 38.180921 1.062332 2.226739 0.135827 -0.018752 -440715.000000 0 0 1
14.699177 27.877003 -23.718894 39.443366 1.085558 2.215974 0.121880 -0.028899 206285.000000 0 0 1
14.546477 27.947203 -25.165994 40.323361 1.090885 2.244781 0.132843 -0.038370 -38121.400000 0 0 1
13.998377 29.202303 -25.639654 41.305217 1.123798 2.240478 0.143612 -0.042272 435856.000000 0 0 1
15.002477 30.404303 -25.570334 42.465727 1.112416 2.216976 0.118398 -0.039370 -251173.000000 0 0 1
16.091477 30.209303 -26.403374 43.228183 1.081358 2.227855 0.107182 -0.032981 -761837.000000 0 0 1
16.817977 31.439803 -26.397084 44.363405 1.079600 2.208086 0.107642 -0.037277 524139.000000 0 0 1
18.266877 31.392803 -26.978534 45.244096 1.043806 2.209666 0.099812 -0.024736 766675.000000 0 0 1
19.172277 30.716903 -26.113434 44.643206 1.012801 2.195598 0.063741 -0.023214 -62172.600000 0 0 1
20.522177 30.833403 -26.470614 45.525289 0.983545 2.191304 0.078728 -0.016347 -364071.000000 0 0 1
21.513977 30.080503 -25.576824 44.965118 0.949933 2.175860 0.045229 -0.013038 -835635.000000 0 0 1
21.863377 30.637303 -24.295494 44.798691 0.950988 2.143999 0.056813 -0.024792 7285.030000 0 0 1
22.712277 31.762303 -24.296094 45.989039 0.950028 2.127396 0.069186 -0.035959 -467585.000000 0 0 1
24.159577 31.607703 -24.765594 46.862210 0.918170 2.127602 0.062737 -0.031352 -781939.000000 0 0 1
24.207577 31.362603 -26.178004 47.485868 0.913450 2.154694 0.060545 -0.022715 -404755.000000 0 0 1
25.459977 31.611103 -26.757254 48.615049 0.892764 2.153628 0.071172 -0.017739 -668707.000000 0 0 1
25.526477 31.085603 -28.241704 49.147835 0.883281 2.182945 0.048924 -0.012111 -95943.000000 0 0 1
24.592977 31.761803 -29.057984 49.578152 0.911927 2.197039 0.069863 -0.028210 -94892.900000 0 0 1
23.568577 30.919303 -29.517334 48.813463 0.919494 2.220181 0.059012 -0.020704 119479.000000 0 0 1
22.439577 31.641903 -30.312114 49.229757 0.953941 2.234105 0.081643 -0.024700 -127355.000000 0 0 1
21.700377 32.606003 -29.625864 49.109568 0.983579 2.218379 0.097363 -0.025044 -125151.000000 0 0 1
20.735477 33.211503 -30.449254 49.599608 1.012667 2.231789 0.115772 -0.031981 408568.000000 0 0 1
19.244377 32.860503 -30.083954 48.530434 1.041004 2.239410 0.114918 -0.033302 483894.000000 0 0 1
18.792377 31.508903 -30.351744 47.615048 1.033017 2.261968 0.118830 -0.033161 255389.000000 0 0 1
19.000677 30.957203 -31.632094 48.166000 1.020312 2.287272 0.129362 -0.032096 -613181.000000 0 0 1
18.372577 31.626903 -32.921264 49.209981 1.044527 2.303653 0.147825 -0.044969 -328754.000000 0 0 1
19.035477 32.816003 -33.280684 50.466260 1.045162 2.290902 0.143938 -0.046825 60186.600000 0 0 1
18.803077 33.206203 32.738938 50.279675 1.055561 0.861715 0.145213 -0.047361 991078.000000 0 0 1
17.381477 -33.611456 32.333204 49.772300 -1.093539 0.863709 0.146392 -0.046665 372902.000000 0 0 1
16.353277 32.869003 32.431272 48.985594 1.109128 0.847236 0.143526 -0.039773 -1269600.000000 0 0 1
15.040477 33.269403 32.304291 48.750758 1.146213 0.846456 0.125390 -0.036146 -412897.000000 0 0 1
14.506577 -33.492356 31.012812 47.895441 -1.162059 0.866483 0.130816 -0.039165 -706654.000000 0 0 1
15.134777 -32.287056 30.576382 46.972658 -1.132454 0.861974 0.148878 -0.033765 410602.000000 0 0 1
14.397177 -31.741456 29.493662 45.658240 -1.144972 0.868509 0.134114 -0.038188 149553.000000 0 0 1
14.873377 -30.326056 29.177192 44.634018 -1.114819 0.858335 0.153587 -0.033564 10030.000000 0 0 1
14.322877 -29.480556 30.128752 44.519543 -1.118540 0.827453 0.156268 -0.039033 338667.000000 0 0 1
14.682677 -28.106756 29.824162 43.532188 -1.089398 0.816047 0.168044 -0.043576 -313038.000000 0 0 1
14.190977 -27.002756 30.832782 43.372723 -1.086928 0.780048 0.144158 -0.034526 1087060.000000 0 0 1
12.755877 -26.800356 30.799972 42.773938 -1.126566 0.766902 0.108611 -0.031553 1191890.000000 0 0 1
12.358177 -25.906256 29.767652 41.351805 -1.125689 0.767191 0.099525 -0.033424 -438541.000000 0 0 1
12.636077 -24.405256 30.018062 40.698538 -1.093041 0.741330 0.109937 -0.034079 94154.700000 0 0 1
11.753077 -23.906256 31.023712 40.891498 -1.113866 0.709506 0.118331 -0.038164 415299.000000 0 0 1
12.224977 -22.673656 31.504260 40.694756 -1.076305 0.685409 0.115567 -0.036253 330255.000000 0 0 1
11.377877 -22.133856 32.703195 41.095774 -1.095973 0.650502 0.102333 -0.034919 -123955.000000 0 0 1
11.505477 -22.896056 -33.472544 42.154675 -1.105143 2.488225 0.105172 -0.036478 213636.000000 0 0 1
12.715377 -23.012656 -32.735224 41.986404 -1.066006 2.464923 0.118638 -0.027858 560950.000000 0 0 1
13.415677 -21.730256 -32.122084 41.036724 -1.017700 2.469892 0.111355 -0.028170 350507.000000 0 0 1
13.930777 -20.726856 -33.012014 41.393988 -0.979033 2.493949 0.099624 -0.030595 260446.000000 0 0 1
14.859777 -19.819556 -32.501534 40.865359 -0.927453 2.490352 0.100645 -0.028317 -255543.000000 0 0 1
15.154077 -18.663956 -33.430964 41.177891 -0.888815 2.518139 0.091740 -0.023919 -348437.000000 0 0 1
15.885977 -19.017556 32.758822 41.075201 -0.874880 0.647602 0.126681 -0.016253 278834.000000 0 0 1
15.938977 -17.961656 31.786661 39.837971 -0.844992 0.646995 0.099229 -0.017210 744631.000000 0 0 1
17.008477 -16.780656 31.969980 39.911882 -0.778656 0.641809 0.098757 -0.014735 -16212.300000 0 0 1
16.703877 -15.943856 33.072728 40.336477 -0.762123 0.609523 0.078751 -0.013329 530792.000000 0 0 1
17.480677 -14.749756 33.166611 40.288379 -0.700869 0.603719 0.085543 -0.022239 673960.000000 0 0 1
18.984777 -14.833556 33.592772 41.339213 -0.663259 0.622175 0.096125 -0.014173 292445.000000 0 0 1
19.782977 -15.502456 32.669753 41.218990 -0.664677 0.655752 0.105680 -0.011915 -209133.000000 0 0 1
21.174677 -15.362056 32.912263 42.042559 -0.627631 0.671592 0.111985 -0.009959 254613.000000 0 0 1
21.866277 -16.151456 31.743446 41.792942 -0.636195 0.708189 0.123874 -0.014462 -292637.000000 0 0 1
21.902177 -15.552456 30.473362 40.622778 -0.617464 0.722501 0.107404 -0.006412 374629.000000 0 0 1
22.829777 -16.183156 29.618752 40.747561 -0.616649 0.757023 0.086047 -0.009936 -93232.300000 0 0 1
22.907277 -15.428656 28.262582 39.516583 -0.592737 0.773874 0.062919 -0.002038 -530626.000000 0 0 1
23.488677 -14.162256 28.463702 39.528089 -0.542578 0.766867 0.058585 -0.005604 245938.000000 0 0 1
23.950677 -13.621756 27.245792 38.749456 -0.517119 0.791011 0.038516 -0.009542 -6967.370000 0 0 1
24.678477 -12.306956 27.524902 38.962914 -0.462601 0.786343 0.034410 -0.004557 -101165.000000 0 0 1
23.777277 -11.325056 27.946352 38.400708 -0.444506 0.755752 0.041419 -0.015139 -141727.000000 0 0 1
24.442477 -10.173256 28.362822 38.799221 -0.394404 0.750988 0.053497 -0.013444 -408205.000000 0 0 1
23.620977 -8.909956 28.231032 37.872537 -0.360703 0.729628 0.065875 -0.012842 -529521.000000 0 0 1
22.623077 -8.824256 29.210602 37.985924 -0.371904 0.693545 0.073092 -0.024486 -424330.000000 0 0 1
21.888777 -7.621056 28.906142 37.050831 -0.335045 0.675850 0.086379 -0.020353 761443.000000 0 0 1
20.743677 -7.365156 30.005662 37.214049 -0.341171 0.632928 0.058799 -0.006528 481341.000000 0 0 1
21.091477 -7.145956 31.321252 38.430924 -0.326669 0.618065 0.087737 -0.020558 -136268.000000 0 0 1
21.207977 -8.398456 31.966875 39.270771 -0.377057 0.619770 0.094121 -0.029018 -353133.000000 0 0 1
21.387477 -8.237556 33.503992 40.593090 -0.367646 0.599953 0.112082 -0.037738 -148610.000000 0 0 1
20.234277 -7.668856 -33.277324 39.694051 -0.362276 2.565037 0.099110 -0.040282 25577.500000 0 0 1
20.468777 -7.105356 -32.000914 38.646028 -0.334117 2.546420 0.114608 -0.042513 -683385.000000 0 0 1
19.200277 -6.530656 -31.395174 37.375889 -0.327858 2.568051 0.109677 -0.040477 -504798.000000 0 0 1
19.422877 -5.712456 -30.257264 36.405801 -0.286044 2.551899 0.103237 -0.036866 965179.000000 0 0 1
18.196877 -5.097356 -29.815504 35.299769 -0.273122 2.576684 0.114793 -0.028970 576160.000000 0 0 1
18.397977 -4.101656 -28.678094 34.318250 -0.219353 2.560114 0.106735 -0.019826 -296979.000000 0 0 1
18.895177 -4.653956 -27.444994 33.643941 -0.241497 2.524818 0.109738 -0.019121 572094.000000 0 0 1
18.090177 -5.656556 -26.776334 32.805842 -0.303055 2.525610 0.101497 -0.017405 2035060.000000 0 0 1
16.663677 -5.219256 -26.154394 31.447911 -0.303533 2.552911 0.109862 -0.025563 1794090.000000 0 0 1
16.811777 -4.359156 -25.022494 30.459208 -0.253705 2.534848 0.102605 -0.026106 829761.000000 0 0 1
15.527477 -4.338556 -24.354494 29.207311 -0.272463 2.556841 0.132858 -0.028175 1020870.000000 0 0 1
15.254877 -3.161956 -23.392194 28.105231 -0.204381 2.554054 0.151943 -0.038389 14834.200000 0 0 1
15.043477 -1.944556 -24.110294 28.484975 -0.128550 2.580025 0.130874 -0.048086 74455.500000 0 0 1
14.507577 -0.982556 -23.244494 27.417909 -0.067624 2.582591 0.130724 -0.046380 -76831.600000 0 0 1
14.652177 0.421444 -23.719894 27.883639 0.028755 2.588063 0.110324 -0.046032 -225900.000000 0 0 1
14.076177 0.702444 -24.964594 28.668156 0.049862 2.627649 0.110703 -0.049487 43530.200000 0 0 1
14.477677 1.990444 -25.380574 29.287174 0.136627 2.619165 0.117862 -0.030755 146165.000000 0 0 1
13.571677 2.569444 -26.489304 29.874332 0.187109 2.660935 0.091150 -0.025948 123710.000000 0 0 1
12.254777 2.972444 -26.221984 29.096520 0.237958 2.693343 0.090197 -0.035042 129207.000000 0 0 1
11.573277 3.530444 -27.359284 29.915468 0.296085 2.725198 0.075047 -0.031474 -121743.000000 0 0 1
10.437377 4.452444 -26.969394 29.259380 0.403214 2.743327 0.063330 -0.033671 -453044.000000 0 0 1
10.940877 5.609444 -26.321074 29.051121 0.473760 2.704594 0.059502 -0.034325 610910.000000 0 0 1
9.959477 6.653444 -26.404244 28.993855 0.588961 2.715734 0.063899 -0.039412 442678.000000 0 0 1
8.945477 5.113903 -31.547744 33.187856 0.519332 2.825898 0.071817 -0.042121 -68174.000000 0 0 1
8.930677 4.240103 -30.424654 31.990547 0.443268 2.827417 0.064854 -0.023708 107394.000000 0 0 1
8.343477 3.036603 -30.713714 31.971344 0.349047 2.860179 0.058949 -0.018855 -578485.000000 0 0 1
8.026077 2.185003 -29.430014 30.582968 0.265797 2.866135 0.063113 -0.021246 -209234.000000 0 0 1
9.099977 1.660803 -28.683544 30.138241 0.180520 2.829628 0.084810 -0.028937 468058.000000 0 0 1
8.550677 0.729103 -27.744114 29.041032 0.085063 2.841611 0.089368 -0.033076 463240.000000 0 0 1
9.666877 0.221003 -26.793334 28.484735 0.022858 2.795251 0.083527 -0.043374 170066.000000 0 0 1
10.601677 -0.642397 -27.349054 29.339036 -0.060520 2.771166 0.136636 -0.036278 -429150.000000 0 0 1
11.709077 -0.885397 -26.517164 29.000801 -0.075473 2.724720 0.113818 -0.030662 274092.000000 0 0 1
12.676577 -1.949697 -27.111324 29.992013 -0.152607 2.699718 0.108924 -0.029772 143857.000000 0 0 1
12.093777 -3.225097 -26.979954 29.741867 -0.260609 2.707227 0.114210 -0.026713 38886.800000 0 0 1
12.991377 -4.270797 -27.287374 30.522392 -0.317612 2.677017 0.122233 -0.024625 46760.800000 0 0 1
12.505477 -5.671497 -26.734794 30.054984 -0.425778 2.667111 0.109334 -0.025736 191049.000000 0 0 1
12.639577 -5.707797 -25.313084 28.863300 -0.424168 2.640377 0.126661 -0.022256 65297.100000 0 0 1
12.158877 -6.949997 -24.832994 28.509970 -0.519274 2.628088 0.128711 -0.023729 49007.600000 0 0 1
12.004077 -6.742497 -23.298194 27.062243 -0.511769 2.607855 0.149911 -0.028598 -455607.000000 0 0 1
13.189677 -6.672897 -22.573594 26.982630 -0.468371 2.561838 0.123564 -0.031062 -426228.000000 0 0 1
12.914477 -6.600597 -21.172694 25.663877 -0.472489 2.540998 0.169997 -0.051172 -103890.000000 0 0 1
14.227277 -6.501297 -20.404994 25.710816 -0.428627 2.487556 0.162474 -0.047466 -252735.000000 0 0 1
14.776977 -5.227597 -20.341194 25.679778 -0.340026 2.485054 0.148471 -0.048760 -129169.000000 0 0 1
15.901377 -5.281197 -19.471994 25.688585 -0.320660 2.431040 0.143869 -0.042270 208334.000000 0 0 1
16.429677 -3.852797 -19.136394 25.514308 -0.230340 2.418898 0.145548 -0.033130 424993.000000 0 0 1
17.305277 -3.286997 -20.149594 26.763466 -0.187706 2.423219 0.123899 -0.027051 542796.000000 0 0 1
17.620777 -1.932197 -19.856894 26.618066 -0.109218 2.412821 0.132727 -0.015497 -28149.400000 0 0 1
18.706877 -1.387397 -20.811494 28.017681 -0.074030 2.408037 0.090698 -0.020410 343287.000000 0 0 1
19.990677 -1.962397 -20.569394 28.750273 -0.097852 2.368065 0.123580 -0.027680 -348038.000000 0 0 1
20.907277 -1.291397 -21.323194 29.890811 -0.061689 2.365091 0.126053 -0.022432 -448275.000000 0 0 1
22.275277 -1.989197 -21.541994 31.051609 -0.089064 2.337477 0.080254 -0.019371 -255238.000000 0 0 1
23.212777 -1.868797 -20.471294 31.006440 -0.080334 2.291918 0.076563 -0.017089 279042.000000 0 0 1
24.475877 -2.434497 -20.704394 32.150697 -0.099139 2.270485 0.053220 -0.015513 -4110.410000 0 0 1
25.429977 -1.747697 -21.699694 33.475587 -0.068618 2.276047 0.060796 -0.016802 -1252110.000000 0 0 1
25.150477 -2.045097 -23.059494 34.182879 -0.081136 2.311208 0.058762 -0.019498 424556.000000 0 0 1
26.002377 -1.375897 -23.999294 35.411620 -0.052865 2.315459 0.066857 -0.009401 -278424.000000 0 0 1
27.289477 -2.113697 -24.324694 36.617947 -0.077300 2.297331 0.079637 -0.019683 -762090.000000 0 0 1
28.307177 -2.166397 -23.267094 36.706229 -0.076383 2.257347 0.075724 -0.012184 1090480.000000 0 0 1
29.482477 -2.819397 -23.728894 37.950308 -0.095340 2.246264 0.071653 -0.009760 715894.000000 0 0 1
30.404277 -2.095597 -24.798694 39.291053 -0.068816 2.253836 0.082742 -0.018732 -974267.000000 0 0 1
29.798577 -1.813497 -25.989884 39.581790 -0.060784 2.287114 0.080269 -0.023238 -362280.000000 0 0 1
30.479777 -0.822597 -26.713714 40.537835 -0.026982 2.290261 0.079604 -0.031225 -807595.000000 0 0 1
29.837677 -0.516897 -28.084794 40.979383 -0.017322 2.325866 0.066802 -0.037748 537338.000000 0 0 1
28.483077 -0.072397 -28.062264 39.984767 -0.002542 2.348751 0.061952 -0.022278 475115.000000 0 0 1
28.284977 1.182103 -27.496114 39.464840 0.041768 2.341617 0.062657 -0.015684 -356156.000000 0 0 1
26.756177 1.561803 -27.531664 38.422972 0.058306 2.369628 0.066641 -0.021596 468618.000000 0 0 1
26.026477 0.954903 -26.500534 37.155991 0.036673 2.364883 0.068265 -0.019254 -312805.000000 0 0 1
24.675577 1.026303 -26.893424 36.512925 0.041568 2.398745 0.063652 -0.018633 92226.400000 0 0 1
23.629577 0.678103 -25.784484 34.980800 0.028689 2.399571 0.071490 -0.011875 137139.000000 0 0 1
23.532477 1.688803 -24.839894 34.258574 0.071642 2.381934 0.086000 -0.020039 143505.000000 0 0 1
22.468177 1.452803 -23.942294 32.865835 0.064571 2.386905 0.091995 -0.012806 -64395.600000 0 0 1
22.459577 2.164903 -22.576094 31.918638 0.096094 2.356470 0.099009 -0.021422 -392822.000000 0 0 1
22.344777 3.556803 -22.577894 31.964062 0.157854 2.355128 0.103843 -0.024113 391819.000000 0 0 1
22.655377 4.051403 -21.314694 31.368714 0.176957 2.317862 0.102380 -0.023529 -454107.000000 0 0 1
22.241877 5.461603 -20.882994 30.994027 0.240791 2.310102 0.121031 -0.020612 185465.000000 0 0 1
23.203677 6.461503 -21.301894 32.154819 0.271588 2.294920 0.103484 -0.015826 699522.000000 0 0 1
23.008477 7.793103 -20.830994 32.000825 0.326578 2.279634 0.090913 -0.009238 -497508.000000 0 0 1
23.323777 7.987803 -19.354194 31.343076 0.329955 2.236350 0.117748 -0.029184 342989.000000 0 0 1
24.721577 8.151803 -19.070994 32.269353 0.318517 2.203087 0.091074 -0.018285 936473.000000 0 0 1
24.997677 8.368403 -17.720094 31.763435 0.323041 2.162622 0.117474 -0.039526 -134649.000000 0 0 1
24.581677 9.740603 -17.155894 31.519247 0.377273 2.146350 0.134169 -0.047963 758540.000000 0 0 1
23.175277 9.950103 -16.917994 30.369665 0.405542 2.161648 0.120008 -0.049336 834083.000000 0 0 1
22.882677 11.264803 -16.618294 30.441426 0.457457 2.148272 0.095093 -0.043789 -1103990.000000 0 0 1
21.413777 11.612303 -16.462394 29.400780 0.496898 2.165098 0.105847 -0.046941 -427333.000000 0 0 1
20.635177 11.486203 -17.644594 29.480080 0.507921 2.212456 0.110627 -0.050340 507325.000000 0 0 1
20.090777 10.148803 -17.870794 28.740265 0.467757 2.241840 0.112103 -0.046659 -261661.000000 0 0 1
19.437577 10.048403 -19.279194 29.162942 0.477121 2.293061 0.103769 -0.023003 -114509.000000 0 0 1
20.303677 9.991203 -20.371894 30.447948 0.457298 2.303757 0.107498 -0.027284 46584.500000 0 0 1
19.536677 9.846103 -21.535094 30.698336 0.466827 2.348306 0.092687 -0.024909 -251019.000000 0 0 1
20.399177 9.991603 -22.767194 32.160593 0.455458 2.357348 0.111665 -0.020386 -407912.000000 0 0 1
20.891477 11.287103 -22.962494 33.032237 0.495345 2.339431 0.097644 -0.020928 76614.600000 0 0 1
21.384077 11.530503 -24.273994 34.343239 0.494521 2.355769 0.115655 -0.019370 -6866.590000 0 0 1
21.873977 12.976503 -24.370194 35.224521 0.535434 2.334849 0.114801 -0.025200 120723.000000 0 0 1
22.517277 13.327503 -25.601614 36.607278 0.534427 2.345296 0.112402 -0.028946 283328.000000 0 0 1
22.343977 14.746503 -25.736794 37.136172 0.583357 2.336492 0.121459 -0.022792 727105.000000 0 0 1
21.019477 15.322003 -26.372164 37.041507 0.629888 2.363085 0.106945 -0.023086 1429420.000000 0 0 1
19.811977 14.995303 -25.665484 35.722411 0.647890 2.372397 0.112298 -0.031647 -22397.400000 0 0 1
18.690577 15.407103 -26.384074 35.816699 0.689398 2.398887 0.114216 -0.036659 -184740.000000 0 0 1
17.336177 15.030803 -25.752194 34.491211 0.714292 2.413779 0.131500 -0.047748 -145228.000000 0 0 1
16.969877 13.657903 -25.905434 33.846811 0.677680 2.442417 0.127333 -0.034457 520032.000000 0 0 1
15.570777 13.422703 -25.801664 32.990059 0.711445 2.468832 0.105351 -0.036162 218784.000000 0 0 1
15.363577 11.960603 -25.369474 31.979771 0.661495 2.487003 0.096872 -0.029664 905650.000000 0 0 1
13.977877 11.535903 -25.358854 31.169370 0.689977 2.521084 0.098090 -0.034152 978493.000000 0 0 1
13.883077 10.186603 -25.162924 30.490646 0.633015 2.541471 0.095875 -0.031870 -21245.100000 0 0 1
12.412877 9.761903 -25.016094 29.583429 0.666414 2.578506 0.098864 -0.040752 126189.000000 0 0 1
11.748377 10.098703 -23.798894 28.397105 0.710031 2.564541 0.118184 -0.046653 -12771.400000 0 0 1
10.625277 9.280103 -23.581694 27.479322 0.717922 2.602474 0.107107 -0.042745 -57869.000000 0 0 1
9.744477 9.756703 -22.378994 26.286261 0.786025 2.589363 0.114410 -0.046338 105570.000000 0 0 1
9.097977 10.980803 -22.764994 26.862543 0.878897 2.581983 0.118537 -0.050474 -137282.000000 0 0 1
8.507577 11.693203 -21.713694 26.088204 0.941808 2.554074 0.121203 -0.043526 75714.600000 0 0 1
9.453377 12.626003 -20.898694 26.182776 0.928113 2.495072 0.130088 -0.047954 203561.000000 0 0 1
10.317377 11.857303 -20.075394 25.496380 0.854732 2.477347 0.150856 -0.057626 -360838.000000 0 0 1
11.367077 12.654303 -19.611694 25.960747 0.838934 2.427116 0.190229 -0.056476 -965852.000000 0 0 1
12.422377 11.860803 -18.882694 25.525483 0.762276 2.403508 0.189133 -0.053692 -872664.000000 0 0 1
13.408977 11.216803 -19.632994 26.288245 0.696613 2.414087 0.152297 -0.050508 -274769.000000 0 0 1
13.032377 10.100203 -20.392394 26.224163 0.659315 2.461665 0.146300 -0.054123 -1485570.000000 0 0 1
14.194977 9.397903 -21.030494 27.057340 0.584805 2.461090 0.145196 -0.050688 -602533.000000 0 0 1
14.972777 8.744903 -20.016394 26.482323 0.528612 2.427732 0.167673 -0.061454 681856.000000 0 0 1
15.831277 7.794203 -20.686594 27.190332 0.457492 2.435352 0.133963 -0.051772 197049.000000 0 0 1
16.546777 6.757603 -19.790494 26.666922 0.387722 2.407049 0.197123 -0.059768 -98646.900000 0 0 1
17.425577 7.294203 -18.840394 26.679892 0.396430 2.354863 0.150317 -0.046085 45168.200000 0 0 1
17.710277 6.307403 -17.869694 25.937680 0.342138 2.330832 0.148394 -0.054706 528923.000000 0 0 1
18.972777 6.559103 -16.936694 26.264800 0.332849 2.271615 0.213312 -0.045778 1437560.000000 0 0 1
20.199977 5.982403 -17.431494 27.343834 0.287929 2.262036 0.165392 -0.054190 1041890.000000 0 0 1
21.253577 6.148503 -16.498694 27.599376 0.281605 2.211541 0.175174 -0.080474 -222277.000000 0 0 1
22.533277 5.388903 -16.874894 28.662710 0.234744 2.200296 0.161245 -0.064787 -377065.000000 0 0 1
23.535277 5.527203 -15.884994 28.927363 0.230668 2.152124 0.137667 -0.067585 476966.000000 0 0 1
24.106877 4.337003 -15.389294 28.927176 0.178003 2.131759 0.206293 -0.077096 281331.000000 0 0 1
25.413077 3.728303 -15.989394 30.255338 0.145669 2.127608 0.076659 -0.015624 125823.000000 0 0 1
26.044677 2.836103 -15.092894 30.235148 0.108466 2.093453 0.088493 -0.023141 -621892.000000 0 0 1
27.118977 2.260603 -15.725694 31.430029 0.083166 2.094788 0.069966 -0.027614 -752659.000000 0 0 1
27.602877 1.036103 -14.889494 31.379761 0.037518 2.065185 0.097664 -0.038891 -165650.000000 0 0 1
26.905477 -0.095997 -15.306294 30.954751 -0.003568 2.088025 0.107912 -0.035153 -264470.000000 0 0 1
27.772877 -1.198797 -15.350494 31.755433 -0.043138 2.075328 0.118407 -0.025223 -385830.000000 0 0 1
27.133077 -2.575097 -15.582694 31.395149 -0.094623 2.090175 0.096294 -0.018411 -325408.000000 0 0 1
26.626977 -3.167197 -14.448494 30.459581 -0.118391 2.065022 0.104410 -0.030840 100562.000000 0 0 1
26.250277 -4.526697 -14.600294 30.376581 -0.170764 2.072184 0.099336 -0.020518 -643042.000000 0 0 1
25.493577 -5.174197 -13.377094 29.251350 -0.200241 2.045770 0.121837 -0.031979 645244.000000 0 0 1
24.185777 -4.785897 -13.016494 27.879845 -0.195357 2.056554 0.165512 -0.032166 771957.000000 0 0 1
23.187677 -4.902797 -14.034094 27.543812 -0.208371 2.105422 0.173801 -0.040364 244386.000000 0 0 1
21.698877 -4.694597 -13.585394 26.027744 -0.213068 2.119941 0.190901 -0.036813 191524.000000 0 0 1
21.108177 -5.758597 -12.877594 25.387970 -0.266332 2.102766 0.209611 -0.036772 338341.000000 0 0 1
21.503377 -5.945897 -11.517594 25.107846 -0.269769 2.047356 0.254564 -0.034420 -258307.000000 0 0 1
20.943277 -7.352597 -11.081294 24.808802 -0.337629 2.033834 0.211621 -0.032660 443711.000000 0 1 0
19.534277 -7.417497 -10.922594 23.577751 -0.362900 2.052465 0.188691 -0.027678 489896.000000 0 1 0
19.169477 -8.675697 -11.409494 23.935604 -0.424996 2.067664 0.174706 -0.037071 -69120.900000 0 1 0
17.705977 -9.055697 -11.028894 22.740796 -0.472764 2.077140 0.171178 -0.051009 537408.000000 0 1 0
16.812977 -8.207197 -11.773994 22.105683 -0.454120 2.132493 0.149067 -0.031248 442254.000000 0 1 0
15.494877 -8.724597 -11.885994 21.388938 -0.512817 2.160010 0.139174 -0.035057 710643.000000 0 1 0
14.367677 -7.725497 -12.285894 20.421965 -0.493351 2.216301 0.097247 -0.026987 22971.100000 0 1 0
14.418177 -7.302997 -13.635794 21.145980 -0.468845 2.271612 0.101281 -0.022036 586142.000000 0 1 0
15.539277 -6.444597 -13.926694 21.839295 -0.393139 2.262292 0.099985 -0.008889 398590.000000 0 1 0
15.236377 -5.270197 -14.838694 21.911390 -0.333014 2.314766 0.092617 -0.016835 -349583.000000 0 1 0
14.395177 -4.343497 -14.211694 20.689595 -0.293046 2.328012 0.101203 -0.018383 -72298.100000 0 1 0
13.962177 -3.228397 -15.050094 20.781489 -0.227231 2.380680 0.086992 -0.025580 326203.000000 0 1 0
15.050077 -2.150697 -15.358994 21.610855 -0.141942 2.361300 0.117292 -0.026486 143736.000000 0 1 0
16.091777 -2.510197 -16.298294 23.040850 -0.154745 2.356560 0.120143 -0.022250 461955.000000 0 1 0
17.233377 -1.716597 -16.120594 23.660295 -0.099281 2.320382 0.151676 -0.035450 230564.000000 0 1 0
18.234977 -2.346897 -15.082394 23.780264 -0.127999 2.257821 0.177689 -0.041394 -494193.000000 0 1 0
17.742877 -2.380497 -13.772694 22.586801 -0.133370 2.226563 0.154767 -0.034116 824787.000000 0 1 0
18.757377 -2.951897 -12.902594 22.957131 -0.156092 2.167634 0.169304 -0.033131 317756.000000 0 1 0
18.305777 -2.996397 -11.405294 21.775230 -0.162247 2.122071 0.168729 -0.032948 -261406.000000 0 1 0
18.340277 -1.809697 -10.589194 21.254925 -0.098355 2.092317 0.177389 -0.032482 726503.000000 0 1 0
17.393977 -1.861497 -9.532594 19.921997 -0.106614 2.069737 0.130043 -0.027446 -990626.000000 0 1 0
17.253977 -0.544197 -8.757294 19.356810 -0.031530 2.040267 0.110099 -0.022896 -216795.000000 0 1 0
18.334177 -0.225997 -7.874094 19.954811 -0.012326 1.976425 0.139397 -0.027264 1472530.000000 0 1 0
19.602377 0.202003 -8.384394 21.321165 0.010305 1.974952 0.181025 -0.035015 310136.000000 0 1 0
19.681177 1.487603 -9.248394 21.796663 0.075442 2.008989 0.207086 -0.034431 -725525.000000 0 1 0
19.488277 2.649103 -8.516394 21.432211 0.135105 1.979439 0.171982 -0.024888 429113.000000 0 1 0
19.055277 3.541703 -9.478094 21.575021 0.183768 2.025625 0.169332 -0.030939 -424607.000000 0 1 0
19.030677 5.014703 -8.997894 21.639687 0.257650 1.999624 0.165607 -0.014518 -57189.100000 0 1 0
18.458877 5.961003 -9.871294 21.764792 0.312362 2.041534 0.145743 -0.020583 564949.000000 0 1 0
18.720277 7.263803 -9.410994 22.176078 0.370135 2.009069 0.168540 -0.026648 -202693.000000 0 1 0
-28.450223 -28.956107 5.240606 40.930859 0.794210 1.442408 0.110378 -0.022136 260251.000000 0 0 1
-28.123713 -27.800667 6.045406 40.004590 0.779622 1.419097 0.092941 -0.011349 -202102.000000 0 0 1
-26.958843 -27.142797 5.607306 38.664615 0.788798 1.425259 0.113813 -0.023789 -506386.000000 0 0 1
-26.725633 -25.841697 6.394006 37.721824 0.768584 1.400470 0.099628 -0.015948 168926.000000 0 0 1
-27.725753 -24.822897 6.270506 37.738744 0.730213 1.403866 0.119320 -0.030326 1416640.000000 0 0 1
-28.991113 -24.954197 6.979106 38.883216 0.710704 1.390329 0.086003 -0.027586 1050070.000000 0 0 1
-28.933953 -24.828697 8.499506 39.062506 0.709187 1.351454 0.087757 -0.021438 -420222.000000 0 0 1
-28.253843 -25.852427 9.221506 39.391163 0.741044 1.334503 0.077247 -0.019999 -186870.000000 0 0 1
-28.709983 -25.929317 10.507306 40.087355 0.734551 1.305588 0.052627 -0.026378 -289944.000000 0 0 1
-27.759533 -26.630757 11.506506 40.152067 0.764648 1.280148 0.028672 -0.023533 -804450.000000 0 0 1
-26.645773 -25.917947 11.852306 39.015565 0.771553 1.262134 0.028967 -0.005774 -1110120.000000 0 0 1
-26.793763 -25.085887 12.982106 38.932538 0.752490 1.230834 0.037774 -0.008763 -1528030.000000 0 0 1
-25.503863 -24.773497 13.674506 38.094163 0.770872 1.203637 0.043500 -0.017088 -983768.000000 0 0 1
-24.996923 -25.868167 14.418606 38.754411 0.802525 1.189579 0.032068 -0.012349 72061.100000 0 0 1
-23.847123 -25.430967 15.133006 38.005620 0.817528 1.161266 0.053710 -0.015781 420953.000000 0 0 1
-22.955623 -26.571637 15.720406 38.472635 0.858279 1.149863 0.056769 -0.022634 -42795.200000 0 0 1
-23.559123 -27.237997 16.791706 39.735401 0.857695 1.134497 0.054547 -0.022111 343092.000000 0 0 1
-22.845123 -28.459757 17.044006 40.278474 0.894401 1.133873 0.062122 -0.008162 181146.000000 0 0 1
-23.673323 -29.527017 17.817306 41.829742 0.894988 1.130787 0.082337 -0.027115 -321785.000000 0 0 1
-24.643223 -30.094497 16.989006 42.445182 0.884660 1.158998 0.065646 -0.018739 22340.200000 0 0 1
-25.463473 -30.982317 17.735206 43.850084 0.882861 1.154418 0.085116 -0.019328 411641.000000 0 0 1
-26.460573 -31.845387 16.878806 44.712242 0.877491 1.183703 0.071466 -0.023397 746244.000000 0 0 1
-25.699573 -32.758817 16.102306 44.641823 0.905573 1.201778 0.072814 -0.021926 263258.000000 0 0 1
-26.571483 -33.606567 15.445406 45.541251 0.901774 1.224781 0.064222 -0.019781 -562517.000000 0 0 1
-25.784153 32.836936 14.503806 44.197820 -0.905134 1.236445 0.078440 -0.025075 644718.000000 0 0 1
-24.835023 31.917787 15.106806 43.171044 -0.909556 1.213301 0.074365 -0.032238 238806.000000 0 0 1
-23.606323 32.587145 15.164406 43.001624 -0.943878 1.210398 0.077204 -0.032731 -1436660.000000 0 0 1
-22.385423 31.693073 14.952206 41.582767 -0.955842 1.202982 0.064909 -0.032384 -372420.000000 0 0 1
-22.220623 31.219173 13.666106 40.683600 -0.952220 1.228223 0.044008 -0.017102 39406.500000 0 0 1
-21.075523 30.404423 13.533606 39.392450 -0.964667 1.220093 0.050217 -0.016561 14046.100000 0 0 1
-20.965023 29.767503 12.108806 38.370035 -0.957195 1.249729 0.046533 -0.018431 -22037.200000 0 0 1
-20.614323 30.662633 11.096306 38.578172 -0.978908 1.279043 0.034320 -0.011861 -133032.000000 0 0 1
-21.032123 30.171113 9.844906 38.073198 -0.962023 1.309246 0.050606 -0.018012 -192120.000000 0 0 1
-20.503823 30.870603 8.577806 38.039185 -0.984513 1.343341 0.045029 -0.006346 340712.000000 0 0 1
-19.214723 30.439703 8.143906 36.906697 -1.007723 1.348303 0.051262 -0.020266 198449.000000 0 0 1
-18.799123 31.124473 6.966106 37.022513 -1.027442 1.381509 0.093025 -0.018219 204774.000000 0 0 1
-18.173223 30.154953 5.889706 35.697001 -1.028422 1.405047 0.107757 -0.024897 222864.000000 0 0 1
-19.037223 29.173403 5.307006 35.237304 -0.992628 1.419613 0.076426 -0.010491 13404.600000 0 0 1
-19.304523 28.094893 6.203406 34.647797 -0.968768 1.390784 0.039530 -0.004590 -371621.000000 0 0 1
-20.219923 26.996413 5.690606 34.205768 -0.927945 1.403655 0.027532 0.001538 -345787.000000 0 0 1
-19.762323 26.157213 4.694406 33.117769 -0.923771 1.428568 0.045098 -0.008701 412953.000000 0 0 1
-20.860423 25.317293 4.332106 33.089118 -0.881616 1.439497 0.040686 -0.011794 -171546.000000 0 0 1
-20.582123 24.420173 3.102406 32.087280 -0.870478 1.473959 0.069997 -0.021536 -1270620.000000 0 0 1
-20.334723 25.079623 1.881006 32.342335 -0.889501 1.512604 0.085428 -0.027852 588946.000000 0 0 1
-19.183523 25.919243 1.695006 32.290676 -0.933644 1.518280 0.105145 -0.025062 207726.000000 0 0 1
-17.799623 25.293033 2.003106 30.993169 -0.957567 1.506121 0.112132 -0.032309 -639688.000000 0 0 1
-17.226923 24.257853 1.223406 29.777626 -0.953285 1.529700 0.155770 -0.045842 266819.000000 0 0 1
-16.925323 24.584163 -0.162694 29.847514 -0.967854 1.576247 0.155711 -0.049239 -379708.000000 0 0 1
-16.600423 23.352413 -0.985494 28.668457 -0.952815 1.605179 0.152117 -0.056994 652849.000000 0 0 1
-17.645823 22.335163 -1.063494 28.484480 -0.902154 1.608141 0.149284 -0.071784 838994.000000 0 0 1
-17.281423 21.184263 -1.820094 27.399513 -0.886515 1.637273 0.152407 -0.067605 732012.000000 0 0 1
-16.066423 20.286063 -1.327494 25.911707 -0.900957 1.622050 0.145924 -0.064751 614888.000000 0 0 1
-16.359823 19.368363 -0.315394 25.355015 -0.869406 1.583236 0.153398 -0.066104 61002.300000 0 0 1
-15.306823 18.483863 0.061906 23.999080 -0.879144 1.568217 0.153439 -0.061331 75905.700000 0 1 0
-15.793823 17.246263 0.878306 23.401920 -0.829330 1.533256 0.123549 -0.059466 457716.000000 0 1 0
-16.727823 16.428863 0.161406 23.446826 -0.776382 1.563912 0.119106 -0.050386 450128.000000 0 1 0
-17.284623 15.455263 0.994906 23.208041 -0.729581 1.527914 0.148147 -0.072854 -196937.000000 0 1 0
-17.954623 14.313863 0.252506 22.963426 -0.673046 1.559800 0.135230 -0.065725 629074.000000 0 1 0
-19.184623 14.632963 -0.454994 24.132558 -0.651608 1.589651 0.203316 -0.071364 855692.000000 0 1 0
-19.888223 13.447563 -0.550794 24.014198 -0.594544 1.593735 0.228780 -0.064953 -376023.000000 0 1 0
-21.241923 13.601463 -1.335594 25.258719 -0.569535 1.623698 0.240471 -0.055146 359601.000000 0 0 1
-21.965923 12.375663 -1.338294 25.247769 -0.513075 1.623828 0.227399 -0.060038 668632.000000 0 0 1
-22.739623 12.044363 -0.191094 25.733123 -0.487096 1.578222 0.237689 -0.063998 176278.000000 0 0 1
-24.226023 12.537763 -0.127694 27.278416 -0.477575 1.575477 0.272909 -0.074918 390158.000000 0 0 1
-24.338623 13.920563 0.065106 28.038453 -0.519542 1.568474 0.288684 -0.081228 107543.000000 0 0 1
-25.691653 14.285263 0.210506 29.396838 -0.507459 1.563635 0.285449 -0.070537 -126682.000000 0 0 1
-25.987463 15.743563 0.643206 30.391145 -0.544683 1.549631 0.270377 -0.070482 -120011.000000 0 0 1
-25.701423 15.990363 2.030106 30.337702 -0.556554 1.503829 0.260204 -0.065297 -110995.000000 0 0 1
-26.041883 17.291563 2.492006 31.359016 -0.586148 1.491245 0.214250 -0.051717 487236.000000 0 0 1
-27.491193 17.830163 2.677106 32.876242 -0.575374 1.489276 0.236086 -0.047799 -400136.000000 0 0 1
-28.321883 17.134263 3.583506 33.294947 -0.544076 1.462958 0.245780 -0.052354 779067.000000 0 0 1
-29.625313 17.689363 3.788506 34.712037 -0.538287 1.461438 0.241152 -0.051117 1093170.000000 0 0 1
-30.615223 17.854263 2.560806 35.533425 -0.527962 1.498666 0.181495 -0.052154 -763367.000000 0 0 1
-31.818713 18.465063 2.948306 36.906389 -0.525824 1.490825 0.155750 -0.045814 -215438.000000 0 0 1
-32.279033 19.163663 1.822906 37.583306 -0.535765 1.522274 0.128882 -0.039155 649954.000000 0 0 1
-33.593993 19.976763 2.175906 39.145395 -0.536478 1.515182 0.132352 -0.041466 875299.000000 0 0 1
-34.814007 19.195363 2.202506 39.816178 -0.503894 1.515451 0.125457 -0.033739 2170400.000000 0 0 1
-35.981933 20.042963 2.506706 41.263827 -0.508223 1.510011 0.141884 -0.028373 1285570.000000 0 0 1
-36.079963 20.487263 3.982106 41.681517 -0.516429 1.475114 0.115711 -0.030062 -899235.000000 0 0 1
-35.173848 21.513863 4.320406 41.457349 -0.548937 1.466394 0.147021 -0.036525 525010.000000 0 0 1
-35.447999 21.954263 5.673406 42.080136 -0.554517 1.435561 0.126886 -0.036937 -775748.000000 0 0 1
-34.288846 22.785853 6.117606 41.621450 -0.586520 1.423280 0.177471 -0.042971 -1134930.000000 0 0 1
-34.235216 24.020793 5.374206 42.165514 -0.611826 1.442994 0.152713 -0.038644 789148.000000 0 0 1
-33.051593 24.762693 5.670706 41.686396 -0.642997 1.434341 0.165364 -0.048524 225030.000000 0 0 1
-33.225273 26.265683 5.330206 42.687421 -0.668942 1.445604 0.162158 -0.050231 -45998.800000 0 0 1
-34.254674 26.836063 6.123506 43.943763 -0.664554 1.430993 0.154137 -0.042776 308722.000000 0 0 1
-34.625260 28.199093 5.904406 45.043973 -0.683465 1.439337 0.132076 -0.041888 -54515.600000 0 0 1
-35.801351 28.462473 6.858006 46.248041 -0.671692 1.421960 0.119431 -0.031632 -113542.000000 0 0 1
-35.254452 28.570603 8.195806 46.112113 -0.681057 1.392110 0.126715 -0.026146 1178590.000000 0 0 1
-36.171993 29.184633 9.139306 47.367529 -0.678891 1.376634 0.135993 -0.019362 -3924.710000 0 0 1
-37.280653 28.318223 9.722106 47.815146 -0.649614 1.366042 0.123507 -0.011675 -186909.000000 0 0 1
-36.765073 27.399693 10.651006 47.072897 -0.640463 1.342554 0.144060 -0.015193 326939.000000 0 0 1
-37.822973 26.728313 11.302806 47.673194 -0.615188 1.331428 0.130539 -0.017078 312929.000000 0 0 1
-37.270933 25.543443 12.195706 46.800910 -0.600822 1.307166 0.141856 -0.008686 60449.900000 0 0 1
-36.207003 25.906433 13.030906 46.388520 -0.621059 1.286056 0.170579 -0.020274 -157824.000000 0 0 1
-35.895761 24.850773 13.932306 45.827674 -0.605542 1.261892 0.176407 -0.015466 116968.000000 0 0 1
-34.775989 25.182593 14.963706 45.469164 -0.626743 1.235451 0.191940 -0.015479 -12515.700000 0 0 1
-34.960555 26.240603 15.888106 46.510661 -0.643871 1.222176 0.183015 -0.033182 -501107.000000 0 0 1
-33.852313 26.448543 16.716806 46.097246 -0.663229 1.199695 0.200277 -0.021025 -306141.000000 0 0 1
-33.750353 27.729213 17.539006 47.070291 -0.687772 1.188973 0.191180 -0.038951 -198329.000000 0 0 1
-33.646273 28.899373 16.786006 47.423785 -0.709648 1.208997 0.205724 -0.030288 63086.700000 0 0 1
-33.583233 30.051623 17.566606 48.368577 -0.729957 1.199115 0.169046 -0.021401 12073.500000 0 0 1
-33.378363 31.368263 16.860406 48.809387 -0.754363 1.218095 0.144117 -0.022435 501886.000000 0 0 1
-32.104703 31.400473 16.212906 47.744737 -0.774309 1.224332 0.130867 -0.013215 209294.000000 0 0 1
-31.956563 32.459284 15.250806 48.035550 -0.793202 1.247715 0.114194 -0.004630 58616.400000 0 0 1
-30.570593 32.576791 14.539606 46.980939 -0.817158 1.256151 0.128704 -0.011515 434095.000000 0 0 1
-30.180693 31.690232 13.494806 45.795795 -0.809792 1.271683 0.119581 -0.010399 45421.800000 0 0 1
-30.058703 30.321993 13.877706 44.894761 -0.789759 1.256533 0.134912 -0.016979 464169.000000 0 0 1
-31.267253 29.451933 13.324806 44.973413 -0.755510 1.269999 0.172767 -0.019623 897383.000000 0 0 1
-31.164133 29.147233 11.925306 44.305499 -0.751969 1.298275 0.181754 -0.029419 -528759.000000 0 0 1
-32.119433 28.248693 11.479306 44.287934 -0.721367 1.308605 0.184776 -0.032560 -251337.000000 0 0 1
-32.117613 27.962833 9.913906 43.723525 -0.716354 1.342066 0.177271 -0.019837 20131.800000 0 0 1
-30.947893 27.278003 9.545706 42.343618 -0.722453 1.343408 0.159102 -0.015774 -265766.000000 0 0 1
-30.848673 27.393903 8.142506 42.051955 -0.726151 1.375936 0.159801 -0.030373 -215924.000000 0 0 1
-29.628373 26.703643 7.548906 40.594470 -0.733525 1.383749 0.193029 -0.048502 -253660.000000 0 0 1
-29.409933 26.912893 6.147306 40.336551 -0.741093 1.417800 0.202345 -0.059504 148728.000000 0 0 1
-28.255013 26.155473 5.784406 38.934739 -0.746830 1.421678 0.173270 -0.048243 407677.000000 0 0 1
-27.810953 26.514853 4.320106 38.667167 -0.761545 1.458837 0.170190 -0.037291 -237045.000000 0 0 1
-27.308483 27.826073 4.208706 39.214242 -0.794786 1.463263 0.122566 -0.025892 47490.800000 0 0 1
-26.982193 28.112483 2.866906 39.071340 -0.805911 1.497354 0.110621 -0.020934 -110570.000000 0 0 1
-25.965333 29.221043 2.594806 39.176535 -0.844325 1.504514 0.075053 -0.017524 572797.000000 0 0 1
-24.597623 28.930353 2.900706 38.084412 -0.866165 1.494557 0.047044 -0.007814 481159.000000 0 0 1
-23.811723 30.124223 2.765506 38.498246 -0.901905 1.498900 0.049316 0.005908 -77229.400000 0 0 1
-22.344123 29.718123 2.918606 37.295374 -0.926100 1.492460 0.052534 -0.001010 -66478.500000 0 0 1
-21.383323 30.676423 2.471406 37.475289 -0.962046 1.504801 0.080401 -0.011758 459882.000000 0 0 1
-20.067823 30.109493 2.623506 36.279221 -0.982913 1.498419 0.107754 -0.023411 1148830.000000 0 0 1
-18.970923 31.180533 2.242206 36.567049 -1.024207 1.509440 0.128565 -0.025015 376807.000000 0 0 1
-18.853323 32.289916 3.114506 37.520483 -1.042317 1.487693 0.151483 -0.028558 286431.000000 0 0 1
-17.923723 33.262301 2.623406 37.875094 -1.076546 1.501476 0.192933 -0.050240 216315.000000 0 0 1
-17.687223 -32.891097 3.435706 37.502882 1.077406 1.479056 0.195276 -0.053731 434605.000000 0 0 1
-18.874223 -32.099147 3.500706 37.401155 1.039249 1.477060 0.194669 -0.049769 508720.000000 0 0 1
-18.792623 -31.252987 4.629706 36.760658 1.029417 1.444519 0.154492 -0.067378 -206959.000000 0 0 1
-19.869923 -30.160507 4.699006 36.421843 0.988255 1.441420 0.166960 -0.053189 -202646.000000 0 0 1
-19.810323 -29.141737 3.692506 35.430556 0.973762 1.466389 0.203886 -0.057259 156490.000000 0 0 1
-20.914323 -28.255297 3.780206 35.356196 0.933602 1.463674 0.190763 -0.063591 -295125.000000 0 0 1
-21.205423 -27.283817 2.624506 34.654937 0.910103 1.494991 0.182494 -0.076573 -799355.000000 0 0 1
-20.266323 -26.293117 2.457006 33.287966 0.914125 1.496919 0.217388 -0.079493 -537570.000000 0 0 1
-20.622723 -25.247267 1.552606 32.636356 0.885877 1.523205 0.194326 -0.074015 40913.600000 0 0 1
-19.458523 -24.241397 1.485006 31.120486 0.894412 1.523060 0.134593 -0.050184 224237.000000 0 0 1
-18.291423 -24.762197 0.889806 30.798284 0.934577 1.541901 0.205477 -0.061656 -555767.000000 0 0 1
-17.239023 -23.838097 1.051606 29.437130 0.944688 1.535065 0.167052 -0.047507 -583284.000000 0 0 1
-15.881123 -24.306397 0.552106 29.039900 0.992054 1.551783 0.137906 -0.042353 -488405.000000 0 0 1
-15.742223 -24.509297 -0.839294 29.141510 0.999856 1.599601 0.125799 -0.034409 31302.800000 0 0 1
-15.570123 -23.312597 -1.522894 28.075347 0.981951 1.625066 0.123785 -0.037103 -415417.000000 0 0 1
-15.588523 -23.394897 -3.063494 28.279113 0.983033 1.679340 0.072658 -0.012717 -42203.100000 0 0 1
-14.512623 -24.075597 -3.677894 28.350970 1.028325 1.700890 0.110712 -0.012548 -132540.000000 0 0 1
-14.491723 -23.817397 -5.068494 28.336691 1.024186 1.750631 0.082017 -0.003525 446908.000000 0 0 1
-13.248123 -24.307897 -5.874594 28.300132 1.071790 1.779899 0.110661 -0.009785 438011.000000 0 0 1
-13.199923 -25.741977 -6.063394 29.557606 1.096979 1.777401 0.089660 -0.012343 362529.000000 0 0 1
-12.013023 -26.132847 -6.762494 29.546061 1.139913 1.801723 0.100045 -0.009806 654003.000000 0 0 1
24.629577 13.774903 27.855982 39.652488 0.509942 0.791888 0.084647 -0.021291 -59741.800000 0 0 1
25.409877 12.591203 27.999872 39.852140 0.460060 0.791760 0.107080 -0.028773 819735.000000 0 0 1
24.599977 11.509303 28.502982 39.370585 0.437605 0.761261 0.109897 -0.035907 323741.000000 0 0 1
24.621477 11.569103 30.043612 40.529988 0.439261 0.735838 0.132018 -0.034803 120503.000000 0 0 1
23.686477 12.516103 30.528672 40.616522 0.486114 0.720264 0.100534 -0.029971 85012.800000 0 0 1
23.858077 12.707003 31.911586 41.821347 0.489392 0.702785 0.122994 -0.034538 -437904.000000 0 0 1
22.912477 13.668303 32.634137 42.151999 0.537875 0.685344 0.098403 -0.029643 229064.000000 0 0 1
21.582977 13.181203 32.785154 41.405741 0.548266 0.657042 0.079886 -0.022573 732631.000000 0 0 1
20.820077 14.015503 -33.646964 41.976519 0.592493 2.500707 0.081576 -0.018135 31320.300000 0 0 1
19.710077 13.273903 -32.927824 40.606961 0.592689 2.516470 0.081495 -0.008824 421632.000000 0 0 1
18.530777 13.043103 33.606542 40.532850 0.613313 0.593267 0.088833 -0.007084 1134610.000000 0 0 1
17.534777 12.436203 -32.926644 39.322913 0.616894 2.563195 0.085132 -0.011543 330115.000000 0 0 1
16.148277 12.174003 -33.538454 39.163773 0.645985 2.598983 0.081028 -0.012474 416006.000000 0 0 1
16.278977 11.026103 32.999090 38.412498 0.595343 0.537343 0.073358 -0.009977 269206.000000 0 0 1
15.022077 10.793603 32.380003 37.291142 0.623045 0.519026 0.081674 -0.003724 431613.000000 0 0 1
15.132577 9.878403 31.145972 36.009017 0.578334 0.525747 0.078468 0.005154 43913.400000 0 0 1
15.462377 8.555703 31.452829 36.077217 0.505392 0.511891 0.064495 -0.001881 -70473.700000 0 0 1
15.733077 7.750503 30.339482 35.044032 0.457730 0.524143 0.062489 -0.010965 62509.700000 0 0 1
16.129977 6.293603 30.729302 35.271456 0.372013 0.513108 0.099784 -0.024257 367053.000000 0 0 1
15.029277 5.429003 31.030912 34.903735 0.346643 0.475546 0.098572 -0.023008 62722.900000 0 0 1
15.473677 4.166903 31.430490 35.279930 0.263050 0.471498 0.106128 -0.031088 -332745.000000 0 0 1
14.418277 3.114503 31.840369 35.091252 0.212742 0.433838 0.079485 -0.023677 -337212.000000 0 0 1
14.908077 1.949803 32.429570 35.745342 0.130050 0.434124 0.082634 -0.032336 400999.000000 0 0 1
13.805277 1.106503 32.819927 35.622432 0.079980 0.399315 0.088902 -0.025312 724473.000000 0 0 1
14.271677 -0.324997 33.258248 36.192505 -0.022768 0.405447 0.070176 -0.032634 -113708.000000 0 0 1
14.433077 -1.192797 32.163534 35.273636 -0.082456 0.423079 0.042134 -0.025235 139147.000000 0 0 1
15.057277 -2.385997 32.605556 35.993567 -0.157155 0.437363 0.109904 -0.039312 -514542.000000 0 0 1
15.384677 -3.318297 31.445077 35.163792 -0.212434 0.464053 0.119215 -0.035647 -282338.000000 0 0 1
15.923377 -4.638097 31.755409 35.825576 -0.283434 0.481310 0.122715 -0.037635 608243.000000 0 0 1
17.164277 -4.749397 32.442430 37.009194 -0.269948 0.502036 0.110166 -0.038762 970311.000000 0 0 1
18.469177 -4.303297 31.675552 36.918416 -0.228915 0.539457 0.115060 -0.042813 208363.000000 0 0 1
18.674977 -2.920397 31.551660 36.780304 -0.155124 0.539742 0.120911 -0.039363 512768.000000 0 0 1
19.771677 -2.506597 30.720002 36.618585 -0.126104 0.575504 0.157258 -0.045099 444394.000000 0 0 1
19.877177 -0.944697 30.693182 36.579585 -0.047491 0.575207 0.164458 -0.055928 -645838.000000 0 0 1
20.308277 -0.412297 31.948683 37.859140 -0.020299 0.566317 0.146452 -0.052786 240021.000000 0 0 1
20.489477 0.986803 32.028321 38.034271 0.048124 0.569648 0.126773 -0.043077 -132434.000000 0 0 1
21.624577 1.563403 31.147732 37.950597 0.072172 0.608084 0.148710 -0.038734 -422902.000000 0 0 1
21.409777 1.701003 29.721252 36.669126 0.079283 0.625748 0.148571 -0.041211 -123188.000000 0 0 1
22.396977 2.525103 29.192722 36.881103 0.112269 0.657478 0.121947 -0.025934 -241937.000000 0 0 1
21.832177 3.932103 28.999192 36.511074 0.178195 0.653012 0.125030 -0.018867 -14616.600000 0 0 1
21.636477 4.509903 30.262002 37.473526 0.205497 0.630798 0.133179 -0.027022 198785.000000 0 0 1
20.871077 5.686703 30.144362 37.102871 0.266011 0.622448 0.121723 -0.029633 -247082.000000 0 0 1
20.331177 6.047603 31.522736 37.994910 0.289120 0.592304 0.123821 -0.027216 -779016.000000 0 0 1
19.410377 5.187903 32.061008 37.836296 0.261170 0.559800 0.108880 -0.021233 -541769.000000 0 0 1
19.060377 5.751803 33.296972 38.795226 0.293078 0.538898 0.095670 -0.026012 104703.000000 0 0 1
18.076477 4.771503 -33.292664 38.182821 0.258076 2.629922 0.114201 -0.033900 120544.000000 0 0 1
18.533977 3.459703 -33.005524 38.011084 0.184544 2.622588 0.114638 -0.035032 -112798.000000 0 0 1
17.496977 2.689603 -32.451884 36.966241 0.152524 2.642211 0.099016 -0.027021 36797.200000 0 0 1
17.540277 1.160603 -32.845714 37.253849 0.066072 2.650192 0.112912 -0.044582 -1077310.000000 0 0 1
18.600577 0.510203 -32.294534 37.271688 0.027423 2.618870 0.109828 -0.045476 -941983.000000 0 0 1
18.690677 -0.905297 -32.489874 37.493372 -0.048398 2.619044 0.117028 -0.043293 71797.200000 0 0 1
19.705977 -1.543097 -31.473534 37.165711 -0.078147 2.580818 0.125474 -0.042331 -36187.200000 0 0 1
19.508977 -1.432197 -30.031554 35.840559 -0.073281 2.564259 0.117129 -0.042249 132655.000000 0 0 1
19.711477 -0.161497 -29.475094 35.459126 -0.008193 2.552133 0.113257 -0.038294 -211827.000000 0 0 1
19.430377 -0.082097 -27.953754 34.043482 -0.004225 2.534165 0.101103 -0.029595 946017.000000 0 0 1
18.055277 -0.466597 -27.706304 33.073404 -0.025837 2.563894 0.109866 -0.035802 1118290.000000 0 0 1
17.667077 -0.381297 -26.322114 31.703702 -0.021579 2.550359 0.111760 -0.034030 97747.000000 0 0 1
18.355977 -1.426797 -25.379204 31.354133 -0.077573 2.513990 0.112627 -0.021711 530437.000000 0 0 1
19.707977 -0.984897 -25.077894 31.910424 -0.049933 2.474921 0.101548 -0.018036 880816.000000 0 0 1
20.516077 -2.096297 -24.772194 32.232988 -0.101825 2.447345 0.073989 -0.005206 -34399.000000 0 0 1
21.114777 -2.908997 -25.924854 33.561796 -0.136909 2.453488 0.083565 -0.023444 -652575.000000 0 0 1
22.104477 -2.172597 -26.613434 34.664146 -0.097973 2.446120 0.085735 -0.015070 -223533.000000 0 0 1
22.492877 -2.802597 -27.817354 35.882994 -0.123960 2.457866 0.093402 -0.027672 1851170.000000 0 0 1
23.932677 -2.411597 -28.436844 37.245711 -0.100427 2.439501 0.071749 -0.027067 2254850.000000 0 0 1
25.034677 -3.157797 -27.939484 37.647331 -0.125474 2.407050 0.070414 -0.026210 404640.000000 0 0 1
26.296077 -2.685197 -28.393844 38.793097 -0.101761 2.391947 0.059907 -0.023178 1085090.000000 0 0 1
27.519377 -3.588397 -27.981974 39.410451 -0.129664 2.360315 0.081914 -0.022898 397501.000000 0 0 1
27.653277 -4.892697 -28.593194 40.077587 -0.175118 2.365200 0.117234 -0.036826 548654.000000 0 0 1
28.900277 -5.536997 -28.300564 40.826539 -0.189296 2.336702 0.102828 -0.038863 538079.000000 0 0 1
28.955577 -6.579497 -27.194984 40.265151 -0.223433 2.312300 0.105282 -0.038376 -305723.000000 0 0 1
28.880177 -6.016997 -25.888334 39.248882 -0.205405 2.291075 0.087633 -0.025615 180185.000000 0 0 1
28.674577 -6.983397 -24.887194 38.605332 -0.238889 2.271371 0.064911 -0.022137 -139190.000000 0 0 1
28.849177 -6.463197 -23.445194 37.732282 -0.220395 2.241269 0.051419 -0.011585 -453576.000000 0 0 1
30.201877 -6.390397 -23.094794 38.553341 -0.208514 2.213092 0.048108 -0.011469 -125555.000000 0 0 1
30.343777 -6.054297 -21.753894 37.823686 -0.196937 2.183571 0.056019 -0.005234 432362.000000 0 0 1
31.829777 -5.617497 -21.537594 38.840172 -0.174687 2.158581 0.075996 -0.010539 259457.000000 0 0 1
32.180677 -4.397697 -22.201294 39.342511 -0.135815 2.170391 0.075634 -0.018953 570930.000000 0 0 1
33.540277 -4.101097 -21.865494 40.247597 -0.121670 2.145129 0.103833 -0.013449 818695.000000 0 0 1
34.018577 -2.703897 -22.364794 40.801455 -0.079316 2.150932 0.120659 -0.029431 26830.400000 0 0 1
33.423777 -1.688497 -21.582694 39.822263 -0.050475 2.143582 0.107307 -0.023472 72973.500000 0 0 1
33.699977 -0.360597 -22.063494 40.281712 -0.010700 2.150445 0.105839 -0.024455 18484.800000 0 0 1
32.557277 0.674403 -21.881994 39.233313 0.020711 2.162457 0.094116 -0.016145 -465689.000000 0 0 1
31.444777 0.412703 -22.669294 38.766497 0.013124 2.195387 0.076284 -0.012409 -297522.000000 0 0 1
30.423777 1.340503 -22.384494 37.795089 0.044033 2.204656 0.075703 -0.006765 -123067.000000 0 0 1
29.212177 1.309803 -23.339794 37.414074 0.044808 2.244422 0.067137 -0.005053 -298013.000000 0 0 1
28.243477 2.265103 -22.983894 36.484025 0.080028 2.252313 0.061684 -0.006333 -40841.800000 0 0 1
27.193977 2.171503 -23.934994 36.292035 0.079683 2.290964 0.074006 -0.016990 576198.000000 0 0 1
26.061677 3.236203 -23.621194 35.322017 0.123542 2.303307 0.080622 -0.012861 562304.000000 0 0 1
26.661577 4.506803 -23.573794 35.873037 0.167454 2.287821 0.073484 -0.003555 751138.000000 0 0 1
25.603877 5.437603 -23.364194 35.085776 0.209265 2.299518 0.088904 -0.011408 282443.000000 0 0 1
26.034777 6.780103 -22.708194 35.205703 0.254766 2.271839 0.093501 -0.006602 -331481.000000 0 0 1
26.897777 7.500203 -23.554894 36.531856 0.271934 2.271528 0.097880 -0.010896 86923.500000 0 0 1
27.261377 8.756303 -23.024894 36.742364 0.310789 2.248054 0.123139 -0.016249 -133887.000000 0 0 1
28.223177 9.565003 -23.938894 38.224439 0.326758 2.247558 0.151253 -0.012758 -214750.000000 0 0 1
27.839877 9.923403 -25.248434 38.871791 0.342405 2.277764 0.149368 -0.021704 545501.000000 0 0 1
26.675177 10.768003 -25.284864 38.299339 0.383667 2.291869 0.148962 -0.026691 582278.000000 0 0 1
26.477277 11.423503 -26.656704 39.269868 0.407317 2.316935 0.137762 -0.017190 -395990.000000 0 0 1
26.010077 10.577203 -27.716284 39.453692 0.386233 2.349703 0.125881 -0.021768 214169.000000 0 0 1
26.938277 9.724603 -28.384314 40.322550 0.346437 2.351714 0.118643 -0.025375 -412271.000000 0 0 1
27.832377 10.416103 -29.393224 41.798302 0.358108 2.350707 0.121823 -0.030384 -1859260.000000 0 0 1
28.817377 11.214803 -28.823974 42.273332 0.371134 2.321082 0.118485 -0.022106 98751.500000 0 0 1
29.736077 11.747603 -29.759424 43.679101 0.376243 2.320360 0.126833 -0.025670 794292.000000 0 0 1
30.781877 10.735003 -30.374814 44.557756 0.335556 2.320874 0.116934 -0.033366 -254358.000000 0 0 1
30.154777 9.933003 -31.393374 44.648842 0.318207 2.350568 0.107463 -0.034436 243621.000000 0 0 1
30.876677 8.765203 -31.686694 45.102601 0.276601 2.349767 0.103344 -0.027964 -145427.000000 0 0 1
30.058777 7.782003 -32.544354 44.980270 0.253331 2.379692 0.102655 -0.028199 -639196.000000 0 0 1
29.081677 7.130203 -31.833764 43.703230 0.240436 2.386791 0.113552 -0.032948 -921509.000000 0 0 1
28.039777 6.774103 -32.708114 43.611218 0.237047 2.418848 0.097070 -0.023964 -85206.700000 0 0 1
26.745277 6.496903 -31.878984 42.116378 0.238302 2.429393 0.098774 -0.022031 -572570.000000 0 0 1
26.261177 7.672003 -31.244654 41.529959 0.284232 2.422403 0.134635 -0.023535 -86444.400000 0 0 1
25.102477 7.495403 -30.493774 40.201812 0.290165 2.431831 0.126233 -0.027349 329833.000000 0 0 1
23.724677 7.136603 -31.131804 39.786690 0.292199 2.469415 0.129362 -0.029760 288318.000000 0 0 1
23.056077 8.181303 -31.894554 40.196754 0.340983 2.487271 0.128551 -0.029800 -226386.000000 0 0 1
21.721077 7.848103 -32.121994 39.562867 0.346717 2.518235 0.113609 -0.025696 -335507.000000 0 0 1
20.991077 8.987003 -32.875254 40.027165 0.404523 2.534524 0.108820 -0.022411 -251600.000000 0 0 1
21.478077 9.041503 33.168391 40.536388 0.398447 0.612458 0.099881 -0.030308 133166.000000 0 0 1
21.098077 10.247703 32.474380 40.059077 0.452156 0.625514 0.072781 -0.019176 667308.000000 0 0 1
19.808977 10.123703 31.560390 38.612733 0.472462 0.613988 0.086071 -0.015797 778014.000000 0 0 1
19.826977 9.204403 30.506892 37.529995 0.434630 0.621739 0.080160 -0.017174 838778.000000 0 0 1
20.913477 9.352003 29.518932 37.365771 0.420503 0.659989 0.092786 -0.015308 581295.000000 0 0 1
20.621477 10.356003 28.367512 36.567853 0.465402 0.682894 0.081688 -0.013070 141280.000000 0 0 1
19.603177 9.957303 27.461162 35.178799 0.469982 0.675144 0.089719 -0.009204 412242.000000 0 0 1
18.290077 10.269103 27.906872 34.910957 0.511597 0.644546 0.087479 -0.013392 -578409.000000 0 0 1
17.238277 9.445603 27.197842 33.557417 0.501263 0.625814 0.096599 -0.012444 -625844.000000 0 0 1
17.138977 9.675703 25.803912 32.453130 0.513941 0.651602 0.110526 -0.012471 -407044.000000 0 0 1
16.107977 9.063303 25.107932 31.177214 0.512510 0.634565 0.133830 -0.019382 -509992.000000 0 0 1
16.275277 7.549603 24.818522 30.624177 0.434328 0.625923 0.141593 -0.019115 -295622.000000 0 0 1
16.091877 6.716403 25.920022 31.239496 0.395397 0.592191 0.118144 -0.021792 93076.000000 0 0 1
15.866677 5.371703 25.618132 30.608746 0.326440 0.579102 0.149663 -0.024305 -73371.100000 0 0 1
16.097577 4.512503 26.873122 31.649003 0.273307 0.556520 0.099400 -0.016689 205343.000000 0 0 1
17.470577 4.261603 27.147042 32.562927 0.239258 0.585059 0.109295 -0.014101 349087.000000 0 0 1
17.798777 3.939803 28.508012 33.838222 0.217840 0.568927 0.098177 -0.016676 -146340.000000 0 0 1
17.781977 2.376403 28.735422 33.875810 0.132854 0.558109 0.117767 -0.011731 1156420.000000 0 0 1
16.440277 1.849503 28.507322 32.960139 0.112027 0.525839 0.089861 -0.028250 1207250.000000 0 0 1
16.172577 0.811503 29.463352 33.619933 0.050136 0.502533 0.093931 -0.032450 -20921.200000 0 0 1
16.602477 -0.678497 29.168472 33.569366 -0.040844 0.517818 0.111382 -0.028149 -423408.000000 0 0 1
15.947777 -1.397897 28.108392 32.347603 -0.087431 0.517723 0.107234 -0.026221 312608.000000 0 0 1
16.448077 -1.103297 26.808272 31.471256 -0.066977 0.551321 0.129328 -0.017159 -144470.000000 0 0 1
17.653777 -2.022997 26.407152 31.829013 -0.114095 0.592304 0.100432 -0.012838 2030050.000000 0 0 1
18.952877 -1.897597 27.084262 33.111473 -0.099789 0.612919 0.120030 -0.024059 1736880.000000 0 0 1
19.625677 -0.651397 26.838342 33.254896 -0.033179 0.631658 0.114194 -0.016637 -740033.000000 0 0 1
21.130677 -0.688597 27.130572 34.395459 -0.032576 0.661969 0.128813 -0.005709 -544188.000000 0 0 1
21.906177 -1.217897 26.137222 34.125038 -0.055539 0.698317 0.103574 -0.012951 -1553960.000000 0 0 1
23.252677 -1.001997 26.359872 35.164383 -0.043065 0.723311 0.105676 -0.010200 -408082.000000 0 0 1
24.158377 -1.544397 25.185292 34.932954 -0.063841 0.765608 0.099695 -0.006832 239631.000000 0 0 1
23.881177 -0.912597 23.964322 33.844234 -0.038195 0.784025 0.118974 -0.000609 -35351.100000 0 0 1
24.195477 -1.798997 22.897052 33.360643 -0.074216 0.814339 0.116974 -0.003867 13810.200000 0 0 1
23.900577 -1.039497 21.542882 32.193383 -0.043465 0.837704 0.105646 -0.013260 1166010.000000 0 0 1
22.495477 -0.773297 21.347082 31.021644 -0.034362 0.811881 0.074724 -0.004359 783799.000000 0 0 1
22.241977 0.269903 20.424482 30.198309 0.012134 0.828007 0.088675 0.004941 -41316.400000 0 0 1
-31.882463 -26.868556 -9.848994 42.841725 0.700263 1.802764 0.076144 0.003013 15457.400000 0 0 1
-31.969263 -25.756356 -8.940894 42.016226 0.678183 1.785232 0.072023 0.003568 -178033.000000 0 0 1
-32.364313 -26.086956 -7.612694 42.260279 0.678414 1.751923 0.091155 -0.005247 -496520.000000 0 0 1
-32.473783 -24.813156 -6.722294 41.417732 0.652463 1.733822 0.128058 -0.012681 662768.000000 0 0 1
-31.324173 -24.049056 -6.334194 39.996036 0.654763 1.729836 0.137983 -0.008535 523429.000000 0 0 1
-30.312693 -24.753656 -5.572694 39.530466 0.684787 1.712240 0.145720 -0.021200 833265.000000 0 0 1
-29.017533 -23.919656 -5.289394 37.975582 0.689394 1.710535 0.124309 -0.024186 -8097.330000 0 0 1
-28.984023 -22.752756 -4.377394 37.106914 0.665534 1.689039 0.139058 -0.019340 -389176.000000 0 0 1
-29.828703 -21.732856 -4.758094 37.211665 0.629656 1.699013 0.144104 -0.014395 -517566.000000 0 0 1
-29.826383 -20.609156 -3.711294 36.443437 0.604640 1.672810 0.138427 -0.021918 440760.000000 0 0 1
-28.746383 -19.661556 -3.786394 35.032386 0.599884 1.679091 0.150405 -0.025012 645253.000000 0 0 1
-28.887823 -18.683556 -2.798594 34.516861 0.574096 1.651964 0.160336 -0.015115 -221855.000000 0 0 1
-27.849703 -17.597956 -3.030294 33.082876 0.563539 1.662522 0.161031 -0.010862 -125325.000000 0 0 1
-28.086533 -16.893056 -4.211594 33.044912 0.541496 1.698595 0.153811 -0.018699 81741.300000 0 0 1
-27.219113 -15.760856 -4.250694 31.738826 0.524862 1.705127 0.122341 -0.016179 167308.000000 0 0 1
-27.513363 -14.712156 -5.331694 31.652166 0.491042 1.740050 0.139645 -0.031872 -253999.000000 0 0 1
-28.686033 -14.038656 -4.974294 32.322066 0.455124 1.725308 0.108494 -0.019974 -344188.000000 0 0 1
-28.872373 -12.916056 -5.827794 32.162114 0.420648 1.753003 0.139413 -0.037765 200629.000000 0 0 1
-30.318203 -12.376956 -5.808794 33.258451 0.387585 1.746353 0.123520 -0.028665 481941.000000 0 0 1
-31.387033 -13.200856 -6.301494 34.628273 0.398124 1.753791 0.108954 -0.026669 1039050.000000 0 0 1
-32.586463 -12.425856 -6.289294 35.437758 0.364300 1.749216 0.112745 -0.025030 131659.000000 0 0 1
-33.800513 -13.052856 -6.995494 36.902421 0.368530 1.761518 0.080966 -0.025976 -267026.000000 0 0 1
-34.500286 -14.138256 -6.380094 37.826784 0.388927 1.740273 0.070592 -0.019448 451982.000000 0 0 1
-34.699742 -15.120756 -7.362794 38.560603 0.410949 1.762917 0.072684 -0.026399 -593111.000000 0 0 1
-35.661310 -16.273856 -6.993094 39.817971 0.428118 1.747339 0.093248 -0.026276 328356.000000 0 0 1
-37.058393 -16.037756 -7.074194 40.994857 0.408433 1.744227 0.112849 -0.037891 480683.000000 0 0 1
-37.585453 -15.361756 -5.926694 41.033834 0.387997 1.715738 0.134880 -0.034887 231204.000000 0 0 1
37.269965 -15.162156 -5.941594 40.672397 -0.386372 1.717405 0.206898 -0.047474 63380.200000 0 0 1
36.748015 -14.160956 -6.792794 39.963626 -0.367816 1.741600 0.218492 -0.046593 1383310.000000 0 0 1
35.320455 -14.006656 -6.973694 38.630990 -0.377537 1.752312 0.240973 -0.037474 1462660.000000 0 0 1
34.505985 -13.583256 -5.726594 37.522817 -0.375020 1.724011 0.266589 -0.054203 -583608.000000 0 0 1
34.379185 -14.542956 -4.706094 37.624105 -0.400189 1.696207 0.263263 -0.063777 268659.000000 0 0 1
33.716535 -13.883656 -3.627794 36.643165 -0.390617 1.669962 0.313862 -0.056042 -455030.000000 0 0 1
33.678415 -14.724556 -2.335994 36.830763 -0.412167 1.634264 0.306127 -0.057507 -412520.000000 0 0 1
34.902545 -15.014056 -1.698394 38.032803 -0.406242 1.615467 0.321825 -0.052787 12889.300000 0 0 1
35.702135 -15.978956 -2.354094 39.185601 -0.420826 1.630908 0.273484 -0.044192 -402894.000000 0 0 1
35.068315 -17.393856 -2.398094 39.218412 -0.460442 1.631982 0.258638 -0.049310 -742396.000000 0 0 1
35.307755 -18.199456 -1.221594 39.741038 -0.475933 1.601540 0.228569 -0.049263 173135.000000 0 0 1
35.267045 -19.594656 -1.611394 40.377118 -0.507139 1.610716 0.189240 -0.037993 931538.000000 0 0 1
36.685005 -20.145556 -2.065594 41.903458 -0.502190 1.620110 0.148902 -0.046439 838642.000000 0 0 1
37.112785 -19.493356 -3.220894 42.044309 -0.483640 1.647479 0.111811 -0.049867 -722720.000000 0 0 1
37.962735 -20.199456 -4.031294 43.190724 -0.488986 1.664269 0.139122 -0.035279 -488582.000000 0 0 1
-38.192073 -19.513456 -5.408794 43.228052 0.472353 1.696247 0.176642 -0.046575 193301.000000 0 0 1
37.011645 -19.496356 -6.172094 42.285512 -0.484828 1.717282 0.147039 -0.058999 462646.000000 0 0 1
37.179965 -18.628256 -7.278594 42.217765 -0.464471 1.744068 0.154094 -0.054154 365487.000000 0 0 1
35.875775 -18.526556 -8.125794 41.186565 -0.476688 1.769392 0.170567 -0.058580 263349.000000 0 0 1
35.552305 -19.666956 -8.900494 41.592961 -0.505284 1.786455 0.188239 -0.054661 1037860.000000 0 0 1
34.245425 -19.614756 -9.502194 40.592851 -0.520157 1.807074 0.171698 -0.062345 607720.000000 0 0 1
33.961175 -20.716356 -10.543994 41.154644 -0.547741 1.829890 0.163653 -0.043101 -228041.000000 0 0 1
33.833655 -21.989756 -10.005494 41.573736 -0.576331 1.813851 0.147518 -0.044284 96046.500000 0 0 1
33.384495 -22.982256 -10.853894 41.958499 -0.602906 1.832453 0.118821 -0.035498 -125631.000000 0 0 1
32.817825 -24.219656 -10.092594 42.017400 -0.635779 1.813369 0.119370 -0.020017 -491644.000000 0 0 1
31.578775 -24.028556 -9.505494 40.803738 -0.650446 1.805913 0.126679 -0.022076 -674571.000000 0 0 1
30.905665 -25.222756 -9.208994 40.940850 -0.684494 1.797672 0.075476 -0.010730 434806.000000 0 0 1
29.437865 -25.136856 -8.715694 39.678871 -0.706751 1.792258 0.057230 -0.010148 610611.000000 0 0 1
28.531365 -24.641156 -9.681194 38.922371 -0.712366 1.822166 0.053561 -0.008183 182889.000000 0 0 1
27.259365 -24.234056 -9.206394 37.618083 -0.726714 1.818041 0.059983 -0.011299 407989.000000 0 0 1
26.366565 -23.664656 -10.334494 36.905467 -0.731446 1.854618 0.111681 -0.019407 51903.000000 0 0 1
25.766765 -24.672156 -11.171094 37.382280 -0.763700 1.874267 0.085668 -0.020784 168556.000000 0 0 1
24.895765 -24.220256 -12.150994 36.797644 -0.771646 1.907324 0.098387 -0.016493 -309396.000000 0 0 1
24.189665 -25.336256 -12.886594 37.324658 -0.808545 1.923309 0.098819 -0.027633 -124616.000000 0 0 1
25.071065 -26.097256 -13.685594 38.690058 -0.805451 1.932346 0.107196 -0.024668 185230.000000 0 0 1
24.592865 -27.429056 -13.684594 39.299240 -0.839863 1.926463 0.106868 -0.021117 -337568.000000 0 0 1
25.541665 -28.458056 -14.293994 40.823473 -0.839353 1.928519 0.101947 -0.025233 -514874.000000 0 0 1
25.784865 -28.255756 -15.668494 41.337015 -0.831089 1.959558 0.111312 -0.023983 207917.000000 0 0 1
26.052965 -29.524556 -16.275894 42.607056 -0.847781 1.962756 0.111808 -0.022917 -277227.000000 0 0 1
25.891665 -29.475256 -17.828194 43.093081 -0.850032 1.997326 0.116542 -0.028481 149911.000000 0 0 1
24.562765 -29.325956 -18.297994 42.404690 -0.873558 2.016961 0.122797 -0.031865 138365.000000 0 0 1
24.455465 -29.500656 -19.677594 43.076284 -0.878633 2.045200 0.122864 -0.029074 260583.000000 0 0 1
22.970165 -29.457456 -20.116494 42.426921 -0.908510 2.064789 0.110768 -0.029659 247546.000000 0 0 1
22.774065 -29.641756 -21.514394 43.129583 -0.915679 2.093046 0.094492 -0.024194 241626.000000 0 0 1
21.371265 -29.697256 -21.774894 42.577037 -0.947012 2.107637 0.096510 -0.033066 203785.000000 0 0 1
21.097365 -29.938856 -23.256994 43.385732 -0.956935 2.136549 0.084596 -0.029560 -492456.000000 0 0 1
21.456565 -28.883656 -24.106394 43.310138 -0.931879 2.161083 0.087220 -0.034261 351305.000000 0 0 1
21.286765 -29.149656 -25.499404 44.193308 -0.940050 2.185843 0.094722 -0.034358 -474513.000000 0 0 1
21.663265 -27.889856 -26.353084 44.063888 -0.910398 2.211881 0.109478 -0.044354 172305.000000 0 0 1
20.741465 -26.809156 -26.426824 42.980418 -0.912317 2.233001 0.103972 -0.043675 308668.000000 0 0 1
19.710165 -27.033456 -27.385744 43.235141 -0.940804 2.256754 0.119095 -0.046302 -339337.000000 0 0 1
18.995165 -25.742256 -27.718124 42.329357 -0.935085 2.284741 0.110616 -0.040927 -443301.000000 0 0 1
18.122165 -25.352856 -26.692164 41.032327 -0.950208 2.279059 0.082172 -0.027992 -220630.000000 0 0 1
17.556465 -24.069156 -26.861154 40.113282 -0.940599 2.304510 0.073533 -0.015820 669695.000000 0 0 1
16.364165 -23.816556 -25.858674 38.777382 -0.968786 2.300769 0.072230 -0.017564 591579.000000 0 0 1
15.264765 -24.706156 -25.834784 38.869568 -1.017353 2.297826 0.107751 -0.027206 15763.100000 0 0 1
14.177365 -24.310156 -25.010194 37.649585 -1.042831 2.297338 0.089055 -0.021709 359614.000000 0 0 1
14.288765 -24.267956 -23.459894 36.653365 -1.038659 2.265356 0.079420 -0.019817 25591.200000 0 0 1
15.411565 -23.488656 -23.015494 36.317301 -0.990125 2.257167 0.046107 -0.019670 238095.000000 0 0 1
15.679565 -23.846556 -21.665394 35.831499 -0.989153 2.220118 0.048374 -0.029658 -556447.000000 0 0 1
17.040465 -23.343356 -21.263194 35.880541 -0.940224 2.205093 0.060247 -0.039603 -862415.000000 0 0 1
16.950065 -21.955956 -21.001294 34.791136 -0.913361 2.218854 0.042081 -0.037743 248244.000000 0 0 1
18.085165 -21.385756 -20.369894 34.631725 -0.868825 2.199610 0.057590 -0.040322 -615367.000000 0 0 1
17.737165 -19.989456 -19.842094 33.285044 -0.845028 2.209464 0.068770 -0.030406 331979.000000 0 0 1
16.986865 -19.960256 -18.613694 32.147085 -0.865702 2.188318 0.071461 -0.037292 626532.000000 0 0 1
15.583665 -19.981056 -18.834294 31.572518 -0.908419 2.209980 0.081694 -0.038293 233598.000000 0 0 1
14.725565 -19.936556 -17.518194 30.351206 -0.934617 2.186071 0.090065 -0.038998 125011.000000 0 0 1
14.814565 -18.741756 -16.735194 29.168331 -0.901901 2.181868 0.113361 -0.036578 -301144.000000 0 0 1
13.795965 -18.615556 -15.807394 28.048910 -0.933016 2.169492 0.120254 -0.040800 -468381.000000 0 0 1
13.802065 -17.143956 -15.271894 26.788860 -0.892972 2.177404 0.125218 -0.044158 -890095.000000 0 0 1
12.586965 -16.656156 -14.844094 25.616526 -0.923661 2.188879 0.122969 -0.052117 -760492.000000 0 0 1
12.633865 -15.274656 -14.801094 24.738676 -0.879740 2.212171 0.108763 -0.051082 364523.000000 0 1 0
11.312865 -14.660856 -14.227794 23.352768 -0.913590 2.225917 0.112480 -0.044920 135194.000000 0 1 0
10.318065 -14.632456 -15.204294 23.489185 -0.956623 2.274819 0.143164 -0.035814 -554884.000000 0 1 0
9.158665 -13.943156 -14.817594 22.312639 -0.989616 2.297072 0.136082 -0.036947 23326.800000 0 1 0
8.475165 -13.261556 -16.053694 22.481513 -1.002138 2.366111 0.117345 -0.031272 55619.700000 0 1 0
9.141765 -12.134956 -16.644994 22.536301 -0.925160 2.401767 0.113317 -0.029588 689907.000000 0 1 0
10.104665 -12.502756 -17.667194 23.886250 -0.891078 2.403330 0.145499 -0.029210 525209.000000 0 1 0
10.524965 -11.294356 -18.527494 24.116497 -0.820645 2.446899 0.150792 -0.030594 -457912.000000 0 1 0
9.435365 -10.731756 -19.169394 23.909463 -0.849592 2.501013 0.151103 -0.040803 -129183.000000 0 1 0
9.864565 -9.509556 -19.827294 24.101098 -0.767076 2.536891 0.150301 -0.048580 103489.000000 0 1 0
9.930065 -9.508956 -21.417094 25.450312 -0.763738 2.570898 0.150782 -0.043679 -77750.400000 0 0 1
10.849065 -10.439356 -21.946294 26.614324 -0.766155 2.540299 0.122951 -0.032717 -250698.000000 0 0 1
10.731665 -10.440956 -23.343494 27.732669 -0.771669 2.571281 0.109367 -0.025460 -713568.000000 0 0 1
11.785065 -11.351356 -23.905494 28.969186 -0.766655 2.541360 0.123587 -0.025319 -902341.000000 0 0 1
11.654265 -12.747456 -23.831594 29.432371 -0.830168 2.514449 0.113958 -0.027840 -402988.000000 0 0 1
12.637465 -13.396956 -24.599494 30.729776 -0.814562 2.498942 0.079976 -0.034361 -124769.000000 0 0 1
12.680265 -14.885956 -24.218594 31.127498 -0.865242 2.462344 0.076550 -0.030778 973064.000000 0 0 1
11.480565 -15.520756 -24.718494 31.364012 -0.933926 2.478539 0.082284 -0.028627 590342.000000 0 0 1
11.376565 -16.894356 -24.427194 31.804612 -0.978150 2.446570 0.084786 -0.027271 83039.200000 0 0 1
10.135965 -17.588156 -24.996594 32.201099 -1.047989 2.459516 0.092927 -0.029586 210378.000000 0 0 1
10.406765 -17.856556 -26.376164 33.509095 -1.043121 2.476946 0.080034 -0.037490 323786.000000 0 0 1
9.306365 -18.622256 -26.816114 33.948503 -1.107353 2.481451 0.089120 -0.034674 -43225.700000 0 0 1
9.650665 -19.490656 -28.073624 35.512666 -1.111042 2.482461 0.083093 -0.031813 85865.700000 0 0 1
10.677165 -20.420256 -27.753874 36.073069 -1.089020 2.448665 0.071843 -0.033978 83130.100000 0 0 1
10.649465 -21.462356 -28.725674 37.405992 -1.110199 2.446420 0.080893 -0.030899 -9593.830000 0 0 1
11.823765 -22.464756 -28.669454 38.293659 -1.086311 2.416855 0.070680 -0.017012 -29090.300000 0 0 1
11.589765 -23.616356 -29.497624 39.524231 -1.114575 2.413308 0.080866 -0.016151 341653.000000 0 0 1
12.392565 -24.730456 -29.090574 40.142654 -1.106265 2.381366 0.101599 -0.022161 336691.000000 0 0 1
11.633465 -25.783956 -28.207074 39.947328 -1.146953 2.354781 0.093009 -0.017687 234058.000000 0 0 1
11.205965 -25.116656 -27.079324 38.596760 -1.151143 2.348431 0.098913 -0.019079 -589067.000000 0 0 1
10.477065 -25.942956 -26.212814 38.339504 -1.186975 2.323621 0.099336 -0.017096 -10199.800000 0 0 1
9.711565 -25.204256 -25.101334 36.873378 -1.203014 2.319574 0.086462 -0.017079 -448165.000000 0 0 1
10.511965 -24.323956 -24.382194 36.008994 -1.162872 2.314630 0.090546 -0.019076 -407781.000000 0 0 1
10.128565 -22.940656 -24.675994 35.181902 -1.155024 2.348133 0.083522 -0.012584 -132440.000000 0 0 1
11.216465 -21.857056 -24.498794 34.694826 -1.096665 2.354803 0.105729 -0.016792 -139835.000000 0 0 1
11.712765 -21.702856 -23.195994 33.856418 -1.075905 2.325576 0.111917 -0.025541 31227.000000 0 0 1
12.557165 -20.562256 -23.109594 33.384759 -1.022554 2.335357 0.102696 -0.031460 -296683.000000 0 0 1
13.039265 -20.310756 -21.663094 32.432066 -1.000074 2.302251 0.090311 -0.029582 -257916.000000 0 0 1
12.108965 -19.746156 -20.772794 31.113449 -1.020705 2.301840 0.096027 -0.027499 -247519.000000 0 0 1
11.824365 -18.306356 -20.994394 30.260583 -0.997298 2.337530 0.106876 -0.028814 640874.000000 0 0 1
13.018965 -17.274856 -20.798294 30.008052 -0.924972 2.336564 0.116881 -0.038037 1014430.000000 0 0 1
14.105965 -17.579656 -21.634894 31.242459 -0.894592 2.335722 0.096939 -0.029516 -219710.000000 0 0 1
15.105665 -16.587256 -21.710194 31.219397 -0.832112 2.339783 0.114209 -0.030033 -58070.500000 0 0 1
16.257065 -16.646556 -22.683094 32.494966 -0.797235 2.343466 0.066599 -0.019569 339519.000000 0 0 1
17.475265 -17.201656 -22.187394 33.069054 -0.777508 2.306274 0.059222 -0.020547 947757.000000 0 0 1
18.646865 -16.918456 -22.936394 34.059036 -0.736838 2.309636 0.054063 -0.013034 787849.000000 0 0 1
19.957865 -17.287956 -22.157394 34.469406 -0.713837 2.268962 0.044066 -0.019372 371904.000000 0 0 1
20.256565 -18.667356 -22.091194 35.310332 -0.744592 2.246735 0.049214 -0.032054 -251925.000000 0 0 1
21.584665 -18.790056 -21.647894 35.883079 -0.716292 2.218416 0.042545 -0.039089 -70117.400000 0 0 1
21.921365 -20.280056 -21.722594 36.928283 -0.746525 2.199674 0.067264 -0.055161 -394778.000000 0 0 1
21.352565 -20.951056 -20.599494 36.321041 -0.775907 2.173838 0.051543 -0.052364 251201.000000 0 0 1
21.568965 -22.357356 -20.617594 37.284807 -0.803344 2.156728 0.081693 -0.053913 -361786.000000 0 0 1
-17.324423 13.091103 28.729692 36.012606 -0.647104 0.647213 0.120142 -0.030863 141960.000000 0 0 1
-18.609823 13.500403 28.293592 36.457012 -0.627600 0.682369 0.122853 -0.035484 162596.000000 0 0 1
-18.739823 13.302503 26.869212 35.356641 -0.617308 0.707563 0.134980 -0.039772 26405.100000 0 0 1
-19.915323 14.061603 26.199252 35.787562 -0.614788 0.749430 0.168852 -0.042049 24609.400000 0 0 1
-19.735423 15.478503 26.129752 36.219262 -0.665095 0.764928 0.159251 -0.041453 -295793.000000 0 0 1
-20.738923 16.128403 25.405892 36.547061 -0.660987 0.802160 0.143962 -0.037427 -698470.000000 0 0 1
-20.829523 17.644503 25.778022 37.546024 -0.702803 0.814034 0.135429 -0.023876 53283.600000 0 0 1
-19.786023 18.437303 25.247792 36.998268 -0.750128 0.819749 0.114148 -0.036489 929747.000000 0 0 1
-18.580623 18.363603 26.072212 36.908288 -0.779524 0.786390 0.103786 -0.027346 812786.000000 0 0 1
-17.442823 19.206303 25.433212 36.331562 -0.833479 0.795356 0.092591 -0.029188 -114096.000000 0 0 1
-17.646023 20.600603 25.446962 37.192941 -0.862496 0.817307 0.101660 -0.024276 579471.000000 0 0 1
-16.459423 21.381003 25.203572 36.922621 -0.914734 0.819475 0.114493 -0.038579 685077.000000 0 0 1
-16.715923 22.890203 25.293002 37.988412 -0.940045 0.842220 0.118753 -0.034121 80312.900000 0 0 1
-16.158023 23.586103 26.385772 38.904947 -0.970164 0.825471 0.108241 -0.026981 -84224.400000 0 0 1
-16.528823 24.961503 26.232592 39.804868 -0.985911 0.851268 0.103589 -0.031860 -90753.400000 0 0 1
-15.901123 25.974303 27.188512 40.825547 -1.021464 0.842006 0.082628 -0.023285 832372.000000 0 0 1
-14.479523 26.162103 27.025192 40.304754 -1.065305 0.835885 0.087286 -0.024926 803451.000000 0 0 1
-14.091823 26.988303 28.102132 41.432811 -1.089590 0.825407 0.095226 -0.019287 1928840.000000 0 0 1
-12.496323 27.178803 28.186862 41.101638 -1.139838 0.815115 0.100756 -0.024717 2041610.000000 0 0 1
-11.820523 27.800003 27.129032 40.602331 -1.168757 0.839057 0.083569 -0.020494 111933.000000 0 0 1
-10.415823 27.764603 27.301182 40.307780 -1.211896 0.826685 0.078943 -0.010613 329695.000000 0 0 1
-9.586123 28.369003 26.103332 39.725030 -1.244934 0.853831 0.086907 -0.017966 496895.000000 0 0 1
-8.207823 28.002103 26.175942 39.200333 -1.285668 0.839617 0.088700 -0.009290 345963.000000 0 0 1
-7.598023 28.524703 25.042102 38.710406 -1.310474 0.867273 0.113919 -0.013198 -1304290.000000 0 0 1
-6.102523 28.312003 25.000912 38.260370 -1.358499 0.858674 0.114413 -0.018490 -1096320.000000 0 0 1
-5.501523 29.257603 25.894972 39.456605 -1.384929 0.854905 0.127417 -0.016859 1164040.000000 0 0 1
-4.072923 29.283003 26.073512 39.419678 -1.432595 0.848067 0.121871 -0.023017 1204070.000000 0 0 1
-3.306823 30.066503 24.950082 39.210155 -1.461253 0.881082 0.126010 -0.022991 -127123.000000 0 0 1
-3.306123 29.390703 23.678142 37.886651 -1.458779 0.895699 0.131691 -0.018059 -40936.200000 0 0 1
-2.573223 30.169703 22.739562 37.867138 -1.485711 0.926659 0.131000 -0.027557 -452833.000000 0 0 1
-2.696723 29.668303 21.247582 36.591533 -1.480150 0.951246 0.141487 -0.025131 633342.000000 0 0 1
-4.018423 29.609703 20.719082 36.361554 -1.435907 0.964525 0.138003 -0.019859 620537.000000 0 0 1
-4.896823 28.659003 21.334682 36.062252 -1.401566 0.937746 0.128005 -0.020469 184590.000000 0 0 1
-6.400023 28.672003 20.908782 36.058580 -1.351181 0.952244 0.124791 -0.026100 612370.000000 0 0 1
-6.639823 28.407003 19.522682 35.102424 -1.341180 0.981034 0.098448 -0.023777 346548.000000 0 0 1
-7.628023 27.426503 19.182282 34.327245 -1.299526 0.977851 0.079106 -0.028054 -259426.000000 0 0 1
-7.002023 26.041303 18.864982 32.909958 -1.308127 0.960354 0.072496 -0.027859 985014.000000 0 0 1
-6.031623 26.031203 17.779682 32.095500 -1.343107 0.983681 0.074477 -0.029583 578590.000000 0 0 1
-4.737923 26.485903 18.076282 32.414549 -1.393784 0.979233 0.093823 -0.024203 -585314.000000 0 0 1
-3.788123 26.590003 16.857282 31.710347 -1.429284 1.010306 0.087529 -0.029088 54738.700000 0 0 1
-3.337523 25.348903 16.427482 30.390264 -1.439886 0.999705 0.093407 -0.030935 -75982.600000 0 0 1
-2.528523 25.514003 15.277082 29.845385 -1.472016 1.033431 0.099373 -0.041373 57356.000000 0 0 1
-1.962123 24.193603 14.612382 28.331997 -1.489873 1.028907 0.102951 -0.042337 418774.000000 0 0 1
-0.736923 23.777203 15.192482 28.226051 -1.539813 1.002445 0.101275 -0.038600 51858.800000 0 0 1
-0.040823 22.760903 14.539682 27.008568 -1.569003 1.002335 0.088407 -0.051063 148903.000000 0 0 1
1.368477 22.541703 15.133682 27.185096 1.510162 0.980400 0.073093 -0.049594 -393917.000000 0 0 1
2.318577 23.520803 14.901382 27.940207 1.472538 1.008263 0.078745 -0.052189 -976284.000000 0 0 1
3.473177 23.116803 15.574082 28.089172 1.421667 0.983093 0.085173 -0.044679 -354292.000000 0 0 1
4.725477 23.929003 15.143582 28.709849 1.375826 1.015177 0.108908 -0.053924 -183536.000000 0 0 1
5.905977 23.470803 15.749182 28.875524 1.324283 0.993911 0.104543 -0.048167 -584295.000000 0 0 1
6.898177 24.454903 15.526182 29.777332 1.295862 1.022294 0.121503 -0.048013 1047840.000000 0 0 1
8.372577 23.857103 15.701482 29.762358 1.233278 1.015068 0.134182 -0.046296 1326090.000000 0 0 1
8.857277 23.255803 14.527382 28.815423 1.206895 1.042395 0.100945 -0.037475 147669.000000 0 0 1
9.623177 24.058003 13.642482 29.283278 1.190291 1.086168 0.109728 -0.040129 -432823.000000 0 0 1
10.168177 23.422003 12.409482 28.389740 1.161219 1.118412 0.078263 -0.025603 -418812.000000 0 0 1
11.092477 22.407503 12.707982 28.046962 1.111129 1.100560 0.074846 -0.018009 -100943.000000 0 0 1
11.433277 21.637903 11.569582 27.069797 1.084695 1.129183 0.057899 -0.017624 343396.000000 0 0 1
12.731577 20.792603 11.755882 27.067068 1.021372 1.121508 0.093260 -0.020851 475838.000000 0 0 1
12.563677 19.743403 12.639182 26.596934 1.004078 1.075591 0.077209 -0.011357 -421322.000000 0 0 1
13.766677 19.032803 12.701882 26.704060 0.944595 1.075089 0.079582 -0.016282 -263115.000000 0 0 1
14.320777 18.889203 14.144082 27.603292 0.922102 1.032813 0.089234 -0.015668 -637931.000000 0 0 1
15.304777 17.932903 14.356482 27.603148 0.864305 1.023825 0.096011 -0.025583 -241337.000000 0 0 1
15.680977 17.782203 15.687382 28.428749 0.848108 0.986258 0.091132 -0.030349 575752.000000 0 0 1
16.998777 16.918703 15.759482 28.697774 0.783037 0.989445 0.072180 -0.033575 390111.000000 0 0 1
17.489877 16.569003 17.021182 29.498277 0.758367 0.955717 0.088354 -0.038313 878225.000000 0 0 1
18.739577 15.856303 16.814882 29.754569 0.702249 0.970218 0.085493 -0.041106 805469.000000 0 0 1
19.459577 15.586603 18.115382 30.818573 0.675334 0.942451 0.095622 -0.037085 -525300.000000 0 0 1
20.069677 16.671203 18.801382 32.159181 0.693162 0.946366 0.110327 -0.026274 2583.100000 0 0 1
19.226077 17.629703 19.395982 32.506193 0.742111 0.931432 0.081145 -0.008749 -16064.900000 0 0 1
20.007177 18.684803 20.305882 34.084276 0.751235 0.932591 0.079598 -0.001553 162715.000000 0 0 1
19.148477 19.488203 21.069382 34.501784 0.794191 0.913883 0.089963 -0.012577 65833.300000 0 0 1
19.935777 20.478503 21.673582 35.868489 0.798826 0.921970 0.094574 -0.012064 208265.000000 0 0 1
19.105777 21.739603 22.070082 36.396835 0.849792 0.919304 0.115069 -0.022153 -38866.900000 0 0 1
18.316177 21.449503 23.168042 36.500982 0.864030 0.883145 0.113729 -0.026394 -303655.000000 0 0 1
17.676577 22.578203 23.722242 37.215338 0.906567 0.879636 0.110127 -0.036092 -34914.600000 0 0 1
17.021477 22.265803 25.063892 37.599141 0.918100 0.841147 0.149719 -0.034012 73944.500000 0 0 1
15.924677 21.383003 24.971842 36.529729 0.930673 0.818108 0.148984 -0.030620 -189349.000000 0 0 1
15.429777 21.005403 26.229172 36.976675 0.937249 0.782230 0.155492 -0.030258 521597.000000 0 0 1
14.241177 19.984103 26.190052 35.890031 0.951647 0.752869 0.172293 -0.023670 532972.000000 0 0 1
14.676177 18.609203 26.237302 35.356593 0.903014 0.734633 0.130972 -0.021712 47895.700000 0 0 1
15.278177 18.053203 25.086102 34.476853 0.868462 0.755948 0.138103 -0.031420 -507180.000000 0 0 1
14.390777 17.660203 23.907382 33.023328 0.887054 0.761279 0.160054 -0.027323 -530028.000000 0 0 1
13.925377 18.783303 23.144912 32.900085 0.932841 0.790499 0.161884 -0.025966 251466.000000 0 0 1
14.860477 19.349703 22.222082 33.000996 0.915877 0.832030 0.139316 -0.024532 347759.000000 0 0 1
15.366077 18.337503 21.129582 31.919267 0.873334 0.847353 0.122351 -0.025466 -60660.800000 0 0 1
14.360677 17.975403 20.189882 30.610056 0.896722 0.850532 0.125066 -0.020342 169125.000000 0 0 1
14.660877 16.836103 19.396982 29.574290 0.854350 0.855458 0.084083 -0.018999 -411456.000000 0 0 1
13.476177 16.291303 18.611582 28.167444 0.879688 0.848981 0.083167 -0.011632 -279441.000000 0 0 1
12.973077 17.115203 17.549482 27.734730 0.922204 0.885681 0.105000 -0.020356 -297440.000000 0 0 1
11.942577 16.410703 16.941182 26.437473 0.941700 0.875254 0.077913 -0.013144 -298735.000000 0 0 1
11.368077 17.009503 15.608582 25.732940 0.981638 0.919069 0.068620 -0.007811 51542.900000 0 0 1
10.640977 18.194503 15.766182 26.321908 1.041594 0.928575 0.074731 -0.017084 -257922.000000 0 0 1
10.256377 18.722803 14.575182 25.849034 1.069643 0.971747 0.061856 -0.000855 -649054.000000 0 0 1
9.214977 19.824203 14.650582 26.316428 1.135675 0.980378 0.067425 -0.009656 550110.000000 0 0 1
7.911277 19.350703 15.033482 25.749633 1.182695 0.947355 0.066112 -0.013090 618344.000000 0 0 1
6.967777 20.409103 15.040982 26.292823 1.241799 0.961785 0.073722 -0.021272 76358.700000 0 0 1
5.645677 20.082003 15.773682 26.152812 1.296739 0.923370 0.077221 -0.030108 -245034.000000 0 0 1
4.819677 19.392503 14.865782 24.905621 1.327199 0.931184 0.089055 -0.035312 -667004.000000 0 1 0
3.628077 19.018603 15.506082 24.805419 1.382296 0.895526 0.082614 -0.035628 -16250.500000 0 1 0
2.515277 18.421903 14.618182 23.651308 1.435098 0.904510 0.064262 -0.035770 183660.000000 0 1 0
1.713777 19.445803 14.010582 24.028581 1.482892 0.948282 0.070072 -0.041392 84346.300000 0 1 0
0.638877 18.732203 13.415282 23.049369 1.536704 0.949581 0.060968 -0.041812 242379.000000 0 1 0
-0.363423 19.545503 12.549382 23.230277 -1.552205 1.000102 0.065214 -0.052617 -149711.000000 0 1 0
-1.480923 20.093303 13.177782 24.074632 -1.497227 0.991575 0.078909 -0.049897 -401515.000000 0 1 0
-2.487423 20.237303 12.191682 23.756532 -1.448497 1.031896 0.074226 -0.051294 -6449.550000 0 1 0
-3.627823 21.172603 12.607782 24.907758 -1.401099 1.040048 0.072046 -0.034182 -24123.900000 0 1 0
-4.543523 20.585103 13.495282 25.030236 -1.353560 1.001358 0.080259 -0.037379 63750.600000 0 0 1
-5.676823 21.407203 13.769582 26.078651 -1.311580 1.014550 0.084539 -0.020701 264202.000000 0 0 1
-6.535523 20.836703 14.897082 26.434907 -1.266860 0.972134 0.073988 -0.024102 -921959.000000 0 0 1
-7.413123 19.799403 14.531282 25.654023 -1.212542 0.968625 0.062775 -0.020002 -102832.000000 0 0 1
-7.937123 19.202903 15.711282 26.049833 -1.178852 0.923384 0.043837 -0.002682 1032980.000000 0 0 1
-9.232023 19.865103 16.352482 27.335988 -1.135756 0.929539 0.033284 0.008109 1520990.000000 0 0 1
-10.462423 19.710603 15.617282 27.237284 -1.082812 0.960172 0.027822 -0.003984 1131040.000000 0 0 1
-11.594423 19.557803 16.474882 28.077750 -1.035667 0.943745 0.012289 0.008298 689186.000000 0 0 1
-13.003423 19.503103 15.850682 28.296716 -0.982746 0.976218 0.017506 -0.004377 57817.500000 0 0 1
-13.556623 20.766503 15.510482 29.250722 -0.992447 1.011889 0.019610 -0.000008 -417533.000000 0 0 1
-14.721223 20.483903 14.802082 29.247330 -0.947648 1.040139 0.023056 -0.005821 -816653.000000 0 0 1
-15.603623 21.670503 14.455382 30.365142 -0.946747 1.074637 0.028143 -0.016293 -907735.000000 0 0 1
-16.816923 21.592403 15.113882 31.264520 -0.909095 1.066239 0.019714 -0.024954 -919569.000000 0 0 1
-17.683323 22.658603 14.812882 32.334713 -0.908106 1.094928 0.038451 -0.032181 418542.000000 0 0 1
-19.123323 22.415403 15.340982 33.218933 -0.864486 1.090757 0.097653 -0.040475 -283576.000000 0 0 1
-19.843823 21.395503 14.732782 32.689444 -0.823007 1.103259 0.093034 -0.043493 592395.000000 0 0 1
-21.098523 21.049103 15.332582 33.515675 -0.784226 1.095643 0.116657 -0.052110 1036600.000000 0 0 1
-22.321923 21.982403 15.407082 34.912354 -0.777735 1.113741 0.112837 -0.045661 -440173.000000 0 0 1
-23.154223 22.014103 14.259982 34.986938 -0.760162 1.150994 0.130543 -0.042270 705164.000000 0 0 1
-24.058823 23.153603 14.322382 36.332450 -0.766227 1.165595 0.156151 -0.051559 862557.000000 0 0 1
-23.422123 24.454603 13.669382 36.516783 -0.806960 1.187121 0.129056 -0.043982 1292770.000000 0 0 1
-22.215523 24.960003 14.315482 36.351950 -0.843509 1.166032 0.084409 -0.041707 919311.000000 0 0 1
-21.710823 26.008503 13.555582 36.490490 -0.875217 1.190191 0.058686 -0.032353 -856832.000000 0 0 1
-20.308823 26.487403 13.909782 36.159547 -0.916670 1.175937 0.036500 -0.019348 -557940.000000 0 0 1
-19.368423 25.785103 13.126982 34.818458 -0.926561 1.184228 0.034907 -0.010398 -450551.000000 0 0 1
-18.075223 26.269803 13.417582 34.595487 -0.968128 1.172507 0.015642 -0.008892 -98853.400000 0 0 1
-16.952223 25.701403 12.530482 33.240833 -0.987713 1.184284 0.030915 -0.003824 -160348.000000 0 0 1
-15.700923 26.270003 12.817082 33.179958 -1.032088 1.174190 0.030839 0.000405 -193786.000000 0 0 1
-14.818423 26.002203 11.758082 32.155135 -1.052810 1.196447 0.031300 0.004398 -464893.000000 0 0 1
-13.510523 26.780703 11.646682 32.177407 -1.103565 1.200435 0.055937 0.006523 -1085530.000000 0 0 1
-12.403423 25.925503 11.675082 31.020705 -1.124557 1.184928 0.066961 0.003804 24720.400000 0 0 1
-11.189923 26.471203 12.176582 31.212307 -1.170858 1.170033 0.091432 -0.007227 655574.000000 0 0 1
-10.465723 27.509603 11.260182 31.513510 -1.207266 1.205407 0.106573 -0.018297 -622889.000000 0 0 1
-9.236323 27.969303 11.789982 31.726885 -1.251841 1.190055 0.124485 -0.027331 143055.000000 0 0 1
-8.808823 29.029203 10.959882 32.255372 -1.276180 1.224108 0.125470 -0.029184 452514.000000 0 0 1
-7.544023 29.742703 11.566482 32.792136 -1.322392 1.210319 0.107154 -0.026193 1109060.000000 0 0 1
-6.343723 28.973303 11.485082 31.805695 -1.355247 1.201348 0.112534 -0.028230 510730.000000 0 0 1
-5.252623 29.614403 12.131982 32.431280 -1.395255 1.187389 0.143812 -0.035959 -575536.000000 0 0 1
-3.898523 29.283703 11.571682 31.727552 -1.438445 1.197464 0.149685 -0.043206 -1016340.000000 0 0 1
-3.661523 29.807803 10.291482 31.746283 -1.448571 1.240652 0.139292 -0.045692 -185795.000000 0 0 1
-2.460823 29.339103 9.745982 31.013268 -1.487117 1.251128 0.143199 -0.048658 -120788.000000 0 0 1
-1.969023 30.004503 8.443882 31.232138 -1.505266 1.297031 0.137602 -0.055001 322337.000000 0 0 1
-2.826123 29.721403 7.343582 30.745357 -1.475994 1.329613 0.136165 -0.046635 252156.000000 0 0 1
-2.567923 30.654503 6.309782 31.402327 -1.487222 1.368485 0.137088 -0.039407 74198.700000 0 0 1
12.632177 33.625903 -26.259474 44.495318 1.211440 2.202057 0.146931 -0.050802 -50490.900000 0 0 1
13.049977 -33.600756 -24.934194 43.829520 -1.200344 2.175952 0.134514 -0.049722 135970.000000 0 0 1
14.237077 -32.831756 -25.006094 43.656882 -1.161633 2.180698 0.135869 -0.046297 74229.100000 0 0 1
14.956377 -32.813156 -23.636994 43.117328 -1.143126 2.151009 0.117200 -0.041239 -300528.000000 0 0 1
14.225377 -32.026156 -22.681594 41.743153 -1.152793 2.145232 0.120854 -0.042583 391925.000000 0 0 1
14.725277 -32.036456 -21.344194 41.215810 -1.139954 2.115149 0.098359 -0.039762 354993.000000 0 0 1
16.177377 -31.554756 -21.033594 41.228901 -1.097059 2.106174 0.071333 -0.036852 941691.000000 0 0 1
17.168677 -32.475556 -21.503594 42.565594 -1.084481 2.100395 0.084906 -0.031768 954460.000000 0 0 1
18.531077 -32.074556 -21.253694 42.707113 -1.046898 2.091697 0.074603 -0.035092 922346.000000 0 0 1
19.591977 -33.116356 -21.676594 44.163485 -1.036569 2.083834 0.057593 -0.031039 -576953.000000 0 0 1
20.816977 -32.908356 -21.046494 44.263545 -1.006769 2.066308 0.075908 -0.028858 -293455.000000 0 0 1
21.618677 33.314403 -21.209094 45.022687 0.995174 2.061306 0.076123 -0.025430 -17575.300000 0 0 1
23.036677 33.522603 -20.647394 45.615440 0.968714 2.040521 0.110729 -0.029570 -943117.000000 0 0 1
23.881377 -33.219756 -21.482394 46.210017 -0.947504 2.054302 0.099351 -0.032790 -211999.000000 0 0 1
25.213677 -33.154056 -20.984094 46.639610 -0.920609 2.037472 0.101506 -0.028997 977254.000000 0 0 1
26.277677 -32.879256 -22.114694 47.545994 -0.896533 2.054569 0.116465 -0.032374 220123.000000 0 0 1
26.336777 -31.588556 -22.653594 46.953680 -0.875816 2.074265 0.119431 -0.027981 -74877.200000 0 0 1
25.336677 -31.163356 -23.585194 46.576425 -0.888162 2.101774 0.101525 -0.027549 423406.000000 0 0 1
24.939977 -29.655956 -23.611494 45.375995 -0.871564 2.118060 0.106404 -0.037793 109815.000000 0 0 1
25.998477 -28.860956 -24.140494 45.734441 -0.837529 2.126852 0.107455 -0.045625 149636.000000 0 0 1
25.825577 -27.502656 -23.813294 44.614230 -0.816836 2.133837 0.121918 -0.044404 110398.000000 0 0 1
26.380377 -26.586556 -24.914194 44.983179 -0.789291 2.157784 0.102773 -0.048030 389524.000000 0 0 1
25.600277 -26.420156 -26.099574 45.106393 -0.801158 2.187835 0.106967 -0.039189 110067.000000 0 0 1
26.383877 -25.693756 -27.056024 45.697993 -0.772147 2.204411 0.091303 -0.032031 -840610.000000 0 0 1
25.583277 -25.418756 -28.302374 45.843665 -0.782172 2.236188 0.091883 -0.028073 612206.000000 0 0 1
24.663977 -24.299856 -28.139114 44.616192 -0.777962 2.253242 0.106885 -0.027249 -277962.000000 0 0 1
23.493777 -24.648056 -27.490664 43.763237 -0.809370 2.249993 0.091717 -0.018361 -1323350.000000 0 0 1
22.551577 -23.452256 -27.161224 42.382946 -0.804974 2.266405 0.089460 -0.021376 130091.000000 0 0 1
22.115377 -22.756056 -28.301974 42.519758 -0.799675 2.299120 0.118031 -0.024399 51666.700000 0 0 1
21.280977 -21.682456 -27.927684 41.266990 -0.794743 2.314144 0.095197 -0.013267 -70823.800000 0 0 1
20.479277 -21.056156 -29.097244 41.345038 -0.799286 2.351481 0.140482 -0.023185 83525.300000 0 0 1
19.360977 -21.858056 -29.420404 41.450962 -0.845905 2.359960 0.119270 -0.031785 512857.000000 0 0 1
18.387677 -21.138856 -30.206144 41.199140 -0.854889 2.393774 0.108882 -0.034136 1277960.000000 0 0 1
16.981877 -21.857256 -30.235134 40.991306 -0.910273 2.400304 0.109138 -0.036282 576304.000000 0 0 1
17.081377 -23.098556 -30.856414 42.159638 -0.934049 2.391895 0.105513 -0.017152 -235129.000000 0 0 1
16.116277 -24.011456 -30.429254 41.978851 -0.979668 2.381644 0.104012 -0.029092 -368825.000000 0 0 1
16.344277 -25.481256 -30.939374 43.285965 -1.000474 2.367087 0.139062 -0.029121 -12628.700000 0 0 1
15.545077 -26.387156 -30.210434 43.018622 -1.038419 2.349369 0.129056 -0.024038 130893.000000 0 0 1
15.895777 -27.754656 -30.492694 44.190509 -1.050674 2.332324 0.166266 -0.038929 10087.300000 0 0 1
15.195577 -28.714756 -29.521914 43.897451 -1.084070 2.308405 0.153913 -0.041998 -310149.000000 0 0 1
15.580677 -28.913556 -28.176644 43.274410 -1.076538 2.279850 0.164033 -0.050005 -169870.000000 0 0 1
15.342577 -27.785956 -27.313114 41.874339 -1.066288 2.281363 0.132076 -0.039015 -50322.400000 0 0 1
16.242877 -27.880056 -26.058654 41.475078 -1.043270 2.250158 0.102131 -0.034082 -199718.000000 0 0 1
16.060877 -29.005456 -25.224404 41.659799 -1.065102 2.221172 0.101261 -0.037226 62274.500000 0 0 1
16.856477 -28.924456 -24.038694 41.214365 -1.043138 2.193533 0.104041 -0.041160 -1003610.000000 0 0 1
16.379477 -27.951756 -22.996694 39.729535 -1.040741 2.188091 0.092495 -0.036101 1295140.000000 0 0 1
15.163177 -28.319256 -22.288394 39.098271 -1.079203 2.177376 0.094858 -0.039504 1464370.000000 0 0 1
13.960577 -28.400856 -23.063094 39.158814 -1.113928 2.200571 0.098653 -0.032103 -309287.000000 0 0 1
12.682677 -28.120756 -22.238894 38.028880 -1.147105 2.195417 0.082820 -0.026223 107080.000000 0 0 1
12.554277 -26.745656 -21.790094 36.711691 -1.131931 2.206255 0.071808 -0.028129 517997.000000 0 0 1
11.246077 -26.503456 -21.260894 35.790126 -1.169498 2.206873 0.080162 -0.029994 571914.000000 0 0 1
10.967577 -25.007056 -21.123494 34.523074 -1.157480 2.229214 0.090014 -0.029142 -33531.800000 0 0 1
11.439577 -24.446156 -19.917794 33.543957 -1.133116 2.206547 0.086204 -0.033972 68984.800000 0 0 1
11.192377 -23.072956 -19.977994 32.507705 -1.119151 2.232627 0.093278 -0.039490 -337331.000000 0 0 1
11.669777 -22.229256 -18.768694 31.346251 -1.087370 2.212741 0.089118 -0.040006 -157030.000000 0 0 1
10.930377 -22.414556 -17.583894 30.513584 -1.117080 2.184947 0.103659 -0.046014 10105.600000 0 0 1
11.280777 -21.553656 -16.550894 29.423599 -1.088619 2.168208 0.094373 -0.047638 -264404.000000 0 0 1
10.611277 -21.924256 -15.217094 28.719892 -1.120033 2.129214 0.081829 -0.043876 -112735.000000 0 0 1
11.077777 -23.113356 -14.656894 29.525734 -1.123861 2.090256 0.087513 -0.036325 -256640.000000 0 0 1
10.392977 -23.510856 -13.524494 29.046279 -1.154573 2.055130 0.090391 -0.037056 -294812.000000 0 0 1
10.518977 -25.041356 -13.334094 30.257503 -1.173114 2.027160 0.110177 -0.038329 -71575.800000 0 0 1
11.784377 -25.450056 -12.881994 30.862967 -1.137152 2.001371 0.076923 -0.031924 -385517.000000 0 0 1
11.907677 -26.810556 -13.253794 32.191020 -1.152825 1.995141 0.082826 -0.041503 203236.000000 0 0 1
13.245377 -27.417356 -12.680594 32.984071 -1.120758 1.965404 0.067177 -0.037782 1380400.000000 0 0 1
14.437677 -26.917356 -13.311794 33.319581 -1.078477 1.981788 0.074098 -0.031369 524358.000000 0 0 1
14.764277 -27.379756 -14.631894 34.376261 -1.076251 2.010465 0.075076 -0.038148 719209.000000 0 0 1
16.160577 -26.861256 -15.210194 34.843097 -1.029178 2.022539 0.066977 -0.034744 1124070.000000 0 0 1
17.314377 -27.566356 -14.820094 35.767679 -1.009972 1.998017 0.091410 -0.028812 -304000.000000 0 0 1
18.375277 -27.007956 -15.557094 36.181538 -0.973370 2.015259 0.112189 -0.028474 -97899.600000 0 0 1
19.797377 -27.554756 -15.373894 37.249931 -0.947779 1.996238 0.115769 -0.028145 160470.000000 0 0 1
19.905777 -28.830956 -15.929694 38.486611 -0.966522 1.997533 0.106468 -0.024082 -299571.000000 0 0 1
21.203477 -29.355556 -15.784794 39.503112 -0.945261 1.981859 0.109588 -0.020300 195496.000000 0 0 1
21.673577 -30.523956 -16.776894 41.023409 -0.953356 1.992109 0.098459 -0.025866 -65048.400000 0 0 1
21.113277 -31.788856 -16.669094 41.643254 -0.984523 1.982622 0.089326 -0.015294 -267508.000000 0 0 1
21.506977 -32.638756 -17.693194 42.905566 -0.988162 1.995856 0.085206 -0.023428 40132.500000 0 0 1
21.111577 33.342003 -17.247194 43.068011 1.006335 1.982820 0.074262 -0.017542 -371590.000000 0 0 1
22.050777 32.731703 -16.451794 42.758189 0.977952 1.965748 0.086335 -0.013417 -468825.000000 0 0 1
21.799677 31.321203 -16.350894 41.516207 0.962757 1.975606 0.082761 -0.026097 -349553.000000 0 0 1
22.624277 30.668903 -15.205494 41.032263 0.935217 1.950423 0.082031 -0.019633 1632860.000000 0 0 1
24.053977 30.484203 -15.444294 41.790031 0.902760 1.949341 0.078951 -0.015249 1307340.000000 0 0 1
24.836677 30.306303 -14.289294 41.707511 0.884265 1.920487 0.074604 -0.015784 101588.000000 0 0 1
24.719977 29.049803 -13.342894 40.410409 0.865750 1.907295 0.076384 -0.007451 -596216.000000 0 0 1
25.187677 27.795903 -13.901194 40.003432 0.834586 1.925700 0.075020 -0.000371 96780.800000 0 0 1
24.964877 26.665403 -13.049294 38.788825 0.818323 1.913908 0.049591 -0.002230 -375788.000000 0 0 1
23.509877 26.368103 -12.670494 37.530423 0.842640 1.915169 0.059780 -0.002489 -902219.000000 0 0 1
22.805777 25.930603 -13.821494 37.195879 0.849427 1.951514 0.073020 -0.011946 -229920.000000 0 0 1
21.404277 25.853203 -13.709294 36.255703 0.879264 1.958570 0.087166 -0.017896 224309.000000 0 0 1
20.614077 27.201003 -13.708694 36.779928 0.922295 1.952737 0.092086 -0.014043 -447278.000000 0 0 1
20.458777 27.995403 -14.872594 37.729276 0.939703 1.975985 0.098564 -0.015607 306427.000000 0 0 1
19.505077 27.578903 -15.864994 37.319459 0.955224 2.009883 0.086086 -0.012958 213490.000000 0 0 1
19.617977 28.327603 -17.221994 38.521620 0.965095 2.034287 0.081922 -0.011287 -84449.500000 0 0 1
19.246077 29.672803 -17.064994 39.269591 0.995399 2.020346 0.074898 -0.016618 -143196.000000 0 0 1
18.981477 30.118803 -18.376594 40.064174 1.008452 2.047304 0.067828 -0.015882 825900.000000 0 0 1
17.722477 31.092503 -18.543094 40.307274 1.052734 2.048840 0.053919 -0.014284 921121.000000 0 0 1
17.868277 32.366803 -17.933294 41.091220 1.066376 2.022419 0.068076 -0.025581 -346414.000000 0 0 1
16.824377 33.234303 -18.272894 41.490689 1.102173 2.026851 0.063314 -0.025173 -121677.000000 0 0 1
16.836177 -32.880156 -17.431994 40.846493 -1.097558 2.011713 0.075192 -0.027288 463886.000000 0 0 1
15.751777 -32.039256 -17.822194 39.903171 -1.113859 2.033798 0.070202 -0.031541 206187.000000 0 0 1
15.460577 -31.098756 -16.761794 38.563193 -1.109436 2.020455 0.075394 -0.031035 76207.100000 0 0 1
14.346877 -30.123656 -17.192194 37.534506 -1.126315 2.046582 0.068489 -0.038026 311380.000000 0 0 1
13.123177 -30.767956 -17.507294 37.754341 -1.167638 2.052981 0.073618 -0.031963 190739.000000 0 0 1
12.083377 -29.842856 -17.760494 36.770086 -1.186073 2.074891 0.052821 -0.026107 622903.000000 0 0 1
10.646177 -30.360356 -18.013094 36.872265 -1.233533 2.081197 0.069891 -0.029713 -401038.000000 0 0 1
10.018977 -30.900856 -16.851294 36.595204 -1.257261 2.049330 0.073305 -0.026699 441831.000000 0 0 1
8.892877 -31.755156 -17.101894 37.147652 -1.297746 2.049215 0.091179 -0.018429 966826.000000 0 0 1
7.598177 -31.018156 -17.612694 36.470061 -1.330568 2.074801 0.095046 -0.011064 -211743.000000 0 0 1
7.509577 -30.643656 -19.000694 36.830067 -1.330471 2.112856 0.081887 -0.012795 -207810.000000 0 0 1
7.415777 -31.682656 -19.945694 38.165629 -1.340871 2.120704 0.088237 -0.022042 -1033940.000000 0 0 1
7.597077 -31.161656 -21.347894 38.529171 -1.331665 2.158043 0.081561 -0.017124 648904.000000 0 0 1
8.916877 -30.687556 -21.683194 38.618619 -1.288013 2.166957 0.083605 -0.029693 1622040.000000 0 0 1
9.992277 -31.661656 -21.821094 39.729916 -1.265094 2.152246 0.082170 -0.035425 566664.000000 0 0 1
9.911177 -32.766856 -22.896794 41.184481 -1.277070 2.160310 0.102873 -0.045408 -590231.000000 0 0 1
8.933177 33.673303 -22.653694 41.555781 1.311480 2.147352 0.110104 -0.059068 -650597.000000 0 0 1
8.666877 32.822603 -23.710494 41.408038 1.312637 2.180477 0.128354 -0.062670 -275786.000000 0 0 1
7.498277 31.839603 -23.400594 40.219054 1.339509 2.191772 0.127761 -0.064128 1004460.000000 0 0 1
6.137877 32.285903 -23.360094 40.320554 1.382928 2.188739 0.121740 -0.063851 812518.000000 0 0 1
5.846277 33.276603 -22.385494 40.529269 1.396884 2.155952 0.097569 -0.056937 -823421.000000 0 0 1
4.455577 -33.480456 -22.571494 40.623460 -1.438494 2.159913 0.102689 -0.059241 -115618.000000 0 0 1
3.370677 33.062503 -22.389694 40.072297 1.469199 2.163653 0.119830 -0.062028 -276701.000000 0 0 1
2.204777 33.647303 -22.932894 40.778913 1.505364 2.168047 0.130570 -0.060268 286063.000000 0 0 1
0.871177 32.991103 -22.465294 39.923193 1.544396 2.168460 0.135259 -0.062956 291021.000000 0 0 1
0.694277 33.239903 -21.058394 39.355167 1.549912 2.135406 0.125533 -0.057735 117048.000000 0 0 1
-0.444423 32.602703 -20.494694 38.511898 -1.557166 2.131952 0.140844 -0.056723 241505.000000 0 0 1
-0.685623 32.822903 -18.931694 37.897521 -1.549911 2.093875 0.161113 -0.043957 502498.000000 0 0 1
0.263677 32.148903 -18.110894 36.900217 1.562595 2.083812 0.159478 -0.050059 337431.000000 0 0 1
-0.354223 31.907003 -16.849594 36.084500 -1.559695 2.056633 0.121950 -0.039028 621779.000000 0 0 1
0.526677 30.983503 -15.960094 34.856556 1.553799 2.046405 0.070254 -0.034812 166334.000000 0 0 1
1.662877 31.591703 -15.423394 35.194914 1.518208 2.024423 0.083627 -0.019517 -567247.000000 0 0 1
2.351077 30.653103 -14.629294 34.046388 1.494247 2.014943 0.100574 -0.014370 265303.000000 0 0 1
3.301577 31.349103 -13.595494 34.329348 1.465867 1.977987 0.100155 -0.025031 -213451.000000 0 0 1
4.379477 32.010203 -14.190694 35.287516 1.434825 1.984655 0.085404 -0.026036 -284884.000000 0 0 1
5.316477 32.353003 -13.184394 35.338506 1.407925 1.953132 0.092911 -0.029804 103741.000000 0 0 1
6.648677 32.945203 -13.710494 36.298333 1.371661 1.958126 0.078945 -0.032430 414895.000000 0 0 1
7.515877 31.948003 -14.220994 35.768702 1.339744 1.979677 0.070229 -0.026455 -669945.000000 0 0 1
8.479577 32.378403 -15.124894 36.729098 1.314659 1.995220 0.079307 -0.015849 334101.000000 0 0 1
9.561077 31.256503 -15.340394 36.106937 1.273944 2.009604 0.061590 -0.021477 391003.000000 0 0 1
10.369477 31.000103 -14.195894 35.637844 1.247998 1.980500 0.068029 -0.028712 -463112.000000 0 0 1
11.264877 29.971303 -14.479194 35.140056 1.211276 1.995491 0.080875 -0.027624 -189961.000000 0 0 1
10.770177 28.525003 -14.189594 33.630598 1.209775 2.006364 0.083738 -0.025012 464163.000000 0 0 1
9.851377 27.897803 -15.128394 33.229586 1.231341 2.043470 0.084153 -0.031548 671740.000000 0 0 1
9.368877 26.643103 -14.680194 31.829843 1.232658 2.050153 0.074134 -0.022018 -83017.000000 0 0 1
8.486377 25.772803 -15.604494 31.301058 1.252701 2.092698 0.080775 -0.017500 346734.000000 0 0 1
9.222577 25.068303 -16.600994 31.449464 1.218267 2.126878 0.096368 -0.013119 123035.000000 0 0 1
8.379077 24.136503 -17.295394 30.853045 1.236659 2.165874 0.095391 -0.016512 754891.000000 0 0 1
9.211977 23.130503 -18.161094 30.817301 1.191790 2.201007 0.113778 -0.013482 697122.000000 0 0 1
8.326377 22.340403 -18.955394 30.458647 1.214039 2.242515 0.126916 -0.024357 -163213.000000 0 0 1
9.124677 21.466703 -19.678794 30.517766 1.168873 2.271598 0.137230 -0.021976 -433216.000000 0 0 1
8.488677 20.340103 -20.498594 30.099333 1.175434 2.319967 0.122175 -0.040374 -368808.000000 0 0 1
7.587577 19.508903 -19.824694 28.830317 1.199870 2.329021 0.120811 -0.047419 -101870.000000 0 0 1
7.182077 18.383803 -20.572894 28.509480 1.198355 2.376930 0.112382 -0.052233 -18743.800000 0 0 1
26.737877 -12.732997 -9.552694 31.117475 -0.444440 1.882823 0.173683 -0.019051 39840.000000 0 0 1
26.919877 -11.770297 -8.567894 30.604387 -0.412187 1.854545 0.191342 -0.035860 1410340.000000 0 0 1
25.698477 -11.791297 -7.773794 29.323682 -0.430175 1.839107 0.179267 -0.023277 795703.000000 0 0 1
25.818477 -10.971097 -6.414294 28.776760 -0.401813 1.795583 0.158717 -0.044441 -365004.000000 0 0 1
25.881577 -9.584997 -6.567094 28.369965 -0.354679 1.804396 0.191421 -0.060996 508793.000000 0 0 1
27.048377 -9.048897 -7.161594 29.407239 -0.322841 1.816802 0.161926 -0.058211 -619238.000000 0 0 1
27.603877 -7.705897 -6.514494 29.390365 -0.272230 1.794307 0.228627 -0.059497 4824.140000 0 0 1
28.176377 -7.746197 -5.223694 29.684993 -0.268290 1.747688 0.241582 -0.078455 882287.000000 0 0 1
29.508177 -8.270397 -5.159794 31.076607 -0.273263 1.737603 0.218351 -0.080530 251665.000000 0 0 1
30.026177 -8.465297 -3.718194 31.417472 -0.274798 1.689422 0.230575 -0.093963 -830498.000000 0 0 1
30.419077 -7.203697 -3.235294 31.427387 -0.232531 1.673924 0.239992 -0.071999 297158.000000 0 0 1
30.651377 -7.306097 -1.849994 31.564354 -0.233995 1.629440 0.257803 -0.063644 58349.100000 0 0 1
31.517877 -6.148997 -1.268894 32.137157 -0.192675 1.610290 0.242768 -0.067871 -212385.000000 0 0 1
30.820277 -4.937297 -1.087094 31.232166 -0.158847 1.605610 0.302213 -0.061522 238057.000000 0 0 1
31.659077 -3.777597 -0.786894 31.893363 -0.118760 1.595472 0.283221 -0.041530 629595.000000 0 0 1
32.380077 -3.716697 0.619606 32.598576 -0.114283 1.551788 0.247058 -0.049014 -595975.000000 0 0 1
31.485677 -3.661697 1.651206 31.740863 -0.115777 1.518751 0.311983 -0.082237 -331901.000000 0 0 1
32.090877 -3.297597 2.894306 32.389436 -0.102399 1.481317 0.226739 -0.068946 -125362.000000 0 0 1
31.439377 -4.072597 4.099806 31.966059 -0.128821 1.442187 0.246895 -0.072344 84550.900000 0 0 1
31.700577 -5.458297 4.082806 32.425128 -0.170511 1.444546 0.209915 -0.063651 26675.300000 0 0 1
31.462477 -6.004997 5.349906 32.474128 -0.188594 1.405298 0.192777 -0.064894 -253811.000000 0 0 1
32.084477 -7.365597 5.592106 33.390678 -0.225659 1.402528 0.155125 -0.052326 -717914.000000 0 0 1
33.469477 -7.245797 5.610706 34.701405 -0.213200 1.408398 0.158627 -0.062770 -772372.000000 0 0 1
34.119477 -8.506797 5.549506 35.599176 -0.244342 1.414269 0.160188 -0.060407 53343.200000 0 0 1
35.647777 -8.423197 5.661306 37.064331 -0.232034 1.417453 0.226678 -0.072939 375434.000000 0 0 1
36.392777 -7.890197 4.532806 37.513141 -0.213502 1.449668 0.235102 -0.074862 524585.000000 0 0 1
37.736677 -7.559697 4.867106 38.792970 -0.197711 1.445001 0.238395 -0.069115 501159.000000 0 0 1
-37.678911 -7.633997 3.689406 38.621107 0.199901 1.475122 0.232835 -0.057835 -36424.300000 0 0 1
-37.481211 -8.944897 3.206406 38.666954 0.234268 1.487777 0.293625 -0.070570 -270654.000000 0 0 1
-36.436811 -8.822597 2.295706 37.559947 0.237562 1.509637 0.321637 -0.071510 -490680.000000 0 0 1
-36.053511 -10.168697 1.669306 37.497261 0.274904 1.526264 0.304147 -0.055379 -159948.000000 0 0 1
-35.161411 -10.886897 2.515606 36.894140 0.300265 1.502559 0.294014 -0.057699 124732.000000 0 0 1
-34.840711 -12.135597 1.959706 36.945748 0.335174 1.517729 0.281510 -0.055686 -408580.000000 0 0 1
-33.510411 -12.666397 2.493806 35.911061 0.361384 1.501296 0.199837 -0.060837 -975732.000000 0 0 1
-32.394311 -11.895897 2.177306 34.578091 0.351934 1.507787 0.226628 -0.031610 -78060.100000 0 0 1
-31.374511 -12.666397 1.580506 33.871751 0.383706 1.524118 0.237175 -0.031837 469340.000000 0 0 1
-30.138711 -13.128097 2.458906 32.965664 0.410805 1.496137 0.222363 -0.029315 363757.000000 0 0 1
-29.267511 -12.041097 2.706406 31.763183 0.390308 1.485487 0.224733 -0.028929 204150.000000 0 0 1
-28.047611 -12.515897 3.242306 30.884117 0.419721 1.465620 0.216994 -0.010469 -22565.700000 0 0 1
-27.092811 -11.376897 3.642406 29.609480 0.397563 1.447469 0.215525 -0.013687 -458348.000000 0 0 1
-25.887411 -11.765597 4.215606 28.746454 0.426582 1.423618 0.185922 -0.002076 -444722.000000 0 0 1
-25.131611 -10.734697 4.751006 27.738126 0.403681 1.398667 0.172196 -0.000752 -706641.000000 0 0 1
-23.786811 -11.187197 5.280806 26.811427 0.439616 1.372539 0.150055 0.006518 -566837.000000 0 0 1
-23.786911 -11.882897 6.505706 27.374159 0.463292 1.330842 0.151925 -0.000728 -354650.000000 0 0 1
-22.488211 -12.362697 6.723906 26.528603 0.502645 1.314542 0.121732 0.003070 -152639.000000 0 0 1
-21.913211 -11.924297 8.094906 26.227946 0.498349 1.257037 0.138828 -0.007288 -580992.000000 0 0 1
-21.681011 -10.557497 8.312606 25.507379 0.453151 1.238843 0.121341 -0.003302 353820.000000 0 0 1
-22.812211 -9.774397 8.650506 26.282447 0.404808 1.235408 0.140753 -0.009837 -537796.000000 0 0 1
-23.354911 -9.907497 10.075706 27.297073 0.401205 1.192742 0.140261 -0.008816 -369893.000000 0 0 1
-24.007611 -11.136797 10.429406 28.445845 0.434341 1.195401 0.126000 -0.016336 1303680.000000 0 0 1
-25.299411 -11.422297 9.837106 29.449918 0.424088 1.230222 0.134828 -0.017939 528447.000000 0 0 1
-26.443011 -10.890197 10.723806 30.542253 0.390668 1.212036 0.163401 -0.021782 -715086.000000 0 0 1
-26.684211 -11.723297 11.798006 31.443214 0.413949 1.186166 0.138902 -0.022711 616173.000000 0 0 1
-27.862011 -11.283797 12.487706 32.550860 0.384799 1.177065 0.139047 -0.032577 467834.000000 0 0 1
-28.092211 -11.927197 13.892706 33.532635 0.401509 1.143618 0.131318 -0.027549 -82243.200000 0 0 1
-28.501811 -13.261197 13.851806 34.352366 0.435484 1.155756 0.131619 -0.026670 323173.000000 0 0 1
-28.269611 -13.877797 15.147806 34.945960 0.456348 1.122464 0.113384 -0.019491 -245877.000000 0 0 1
-28.265811 -15.418997 15.151106 35.584512 0.499382 1.130975 0.106788 -0.014336 514872.000000 0 0 1
-29.507111 -16.129097 14.987206 36.816215 0.500242 1.151540 0.118943 -0.017607 603907.000000 0 0 1
-29.256111 -17.442697 14.757406 37.120731 0.537626 1.161949 0.091588 -0.013719 -229266.000000 0 0 1
-30.043111 -18.414397 15.701906 38.577563 0.549874 1.151605 0.076365 -0.009778 -52157.900000 0 0 1
-29.942511 -18.171097 17.101206 38.976838 0.545453 1.116586 0.081661 -0.002074 -97407.900000 0 0 1
-30.454611 -19.266797 17.833906 40.208717 0.564074 1.111259 0.091584 0.000906 -217108.000000 0 0 1
-29.599811 -20.549797 18.009306 40.283719 0.606859 1.107319 0.062815 -0.001092 -32292.300000 0 0 1
-28.337511 -20.387297 18.624606 39.566808 0.623658 1.080698 0.086612 -0.000682 667308.000000 0 0 1
-27.623211 -21.607397 18.939506 39.857574 0.663804 1.075628 0.075780 -0.008978 6636.650000 0 0 1
-26.259011 -21.273797 19.528106 39.031487 0.680901 1.046832 0.090257 -0.012903 -120349.000000 0 0 1
-25.202411 -20.795997 18.714506 37.654584 0.689895 1.050653 0.101725 -0.017641 773093.000000 0 0 1
-23.972611 -20.674097 19.436906 37.146973 0.711652 1.020144 0.102283 -0.016225 628629.000000 0 0 1
-22.787011 -20.342197 18.509006 35.716048 0.728773 1.026020 0.102827 -0.031123 89265.000000 0 0 1
-22.341611 -21.406197 17.601106 35.597356 0.764019 1.053595 0.089493 -0.030185 510779.000000 0 0 1
-21.140311 -21.111797 16.912206 34.331376 0.784723 1.055702 0.095229 -0.027562 191771.000000 0 0 1
-20.919811 -22.066297 15.736306 34.237278 0.812063 1.093224 0.097514 -0.019600 -482367.000000 0 0 1
-21.060611 -23.446297 16.051406 35.368429 0.838950 1.099733 0.082758 -0.019234 235825.000000 0 0 1
-20.041011 -24.031697 16.843506 35.536857 0.875700 1.076999 0.096466 -0.025857 344418.000000 0 0 1
-18.606711 -24.160097 16.253806 34.555841 0.914528 1.081094 0.110967 -0.033511 401795.000000 0 0 1
-17.859311 -22.949297 16.254106 33.313978 0.909486 1.061107 0.121990 -0.044585 -34954.000000 0 0 1
-16.510811 -23.107597 15.867006 32.531980 0.950393 1.061302 0.134693 -0.046194 167021.000000 0 0 1
-15.679311 -21.830997 15.956306 31.257589 0.947951 1.035056 0.120154 -0.037610 -936321.000000 0 0 1
-16.024611 -20.989797 14.913306 30.327651 0.918744 1.056710 0.131761 -0.037540 242217.000000 0 0 1
-17.153311 -20.131897 15.003206 30.407655 0.865115 1.054799 0.114195 -0.032296 92133.900000 0 0 1
-16.891111 -18.821497 15.758506 29.797464 0.839399 1.013547 0.106737 -0.045118 -613035.000000 0 0 1
-16.045411 -17.954897 15.060606 28.401679 0.841500 1.011875 0.101285 -0.045285 -148553.000000 0 0 1
-15.870411 -16.796697 15.827006 28.008803 0.813746 0.970275 0.090231 -0.042321 -165972.000000 0 0 1
-15.061411 -15.650797 15.138106 26.475569 0.804586 0.962127 0.081459 -0.033829 186309.000000 0 0 1
-15.630911 -15.020297 13.991706 25.801211 0.765479 0.997638 0.095805 -0.043126 128601.000000 0 0 1
-15.962511 -15.828897 12.858306 25.897717 0.781195 1.051230 0.116522 -0.041034 -554756.000000 0 0 1
-16.794411 -14.977997 11.923006 25.466658 0.728291 1.083565 0.098931 -0.028948 -303049.000000 0 0 1
-18.146911 -15.020097 12.339606 26.592847 0.691401 1.088269 0.088170 -0.023832 -276758.000000 0 0 1
-18.973311 -14.237197 11.534706 26.376765 0.643744 1.118196 0.113574 -0.029464 381119.000000 0 0 1
-20.518911 -14.474497 11.707106 27.705470 0.614356 1.134533 0.125551 -0.030501 927722.000000 0 0 1
-21.030911 -15.632797 11.045406 28.437379 0.639215 1.171889 0.151167 -0.034554 127300.000000 0 0 1
-21.361611 -15.380197 9.711506 28.056767 0.624018 1.217345 0.171643 -0.026971 -649036.000000 0 0 1
-22.203211 -16.463797 9.081406 29.094864 0.638042 1.253361 0.173490 -0.017804 -342905.000000 0 0 1
-21.511811 -17.683097 8.999806 29.265106 0.688023 1.258204 0.173256 -0.010017 -127590.000000 0 0 1
-22.324711 -18.712397 8.488706 30.341467 0.697599 1.287239 0.175501 -0.028921 -101746.000000 0 0 1
-21.760011 -20.102097 8.698106 30.874737 0.745815 1.285208 0.185411 -0.028154 1263600.000000 0 0 1
-20.517211 -20.281997 7.951106 29.925497 0.779633 1.301870 0.205037 -0.030709 924417.000000 0 0 1
-20.143811 -21.640897 8.023306 30.634538 0.821211 1.305802 0.180045 -0.029761 113745.000000 0 0 1
-18.782611 -22.108297 7.445406 29.949913 0.866550 1.319567 0.169819 -0.038911 988237.000000 0 0 1
-17.655111 -21.582597 8.201106 29.064919 0.885161 1.284746 0.132662 -0.041668 187702.000000 0 0 1
-16.477511 -21.945497 7.534406 28.458398 0.926759 1.302850 0.157092 -0.042770 619766.000000 0 0 1
-15.149611 -21.661197 8.378506 27.729362 0.960480 1.263846 0.089395 -0.021914 707492.000000 0 0 1
-14.026311 -22.150197 7.673106 27.317488 1.006296 1.286079 0.107980 -0.018346 -773498.000000 0 0 1
-12.936111 -21.897297 8.497606 26.814993 1.037196 1.248340 0.100517 -0.016373 703968.000000 0 0 1
-11.485311 -22.048697 7.877006 26.078815 1.090564 1.263958 0.097603 -0.026640 1258200.000000 0 0 1
-11.112211 -23.388897 7.550806 26.972882 1.127261 1.287064 0.094195 -0.020435 -1228180.000000 0 0 1
-9.899211 -23.489397 6.913706 26.411086 1.171951 1.305938 0.136599 -0.038249 -620725.000000 0 0 1
-9.482211 -24.998897 6.747106 27.574999 1.208257 1.323605 0.157461 -0.034875 196766.000000 0 0 1
-10.406211 -25.794657 6.017806 28.458171 1.187341 1.357726 0.152226 -0.039953 -130573.000000 0 0 1
-10.518211 -27.137067 6.464906 29.813556 1.201029 1.352215 0.186439 -0.043883 -73194.000000 0 0 1
-9.669211 -28.146537 5.678506 30.297963 1.239896 1.382259 0.225386 -0.045411 -790969.000000 0 0 1
-8.291211 -27.967907 5.789106 29.739901 1.282595 1.374888 0.212347 -0.043218 -205419.000000 0 0 1
-7.440211 -28.957917 5.214606 30.349790 1.319304 1.398123 0.216207 -0.040690 364199.000000 0 0 1
-7.389211 -30.307717 6.001306 31.767496 1.331656 1.380741 0.241800 -0.052463 -411818.000000 0 0 1
-7.218211 -30.060057 7.375006 31.782075 1.335132 1.336612 0.233977 -0.050008 217907.000000 0 0 1
-7.314211 -31.214737 8.140506 33.077565 1.340630 1.322138 0.267613 -0.061773 -211223.000000 0 0 1
-7.615211 -30.944637 9.650206 33.296973 1.329500 1.276755 0.208659 -0.065235 213343.000000 0 0 1
-6.524211 -30.392107 10.390406 32.775082 1.359338 1.248209 0.203623 -0.061892 485963.000000 0 0 1
-6.822211 -30.485887 11.788306 33.390058 1.350641 1.209969 0.179198 -0.054297 -340618.000000 0 0 1
-5.804211 -29.902847 12.763006 33.026707 1.379078 1.174022 0.154050 -0.052096 -255670.000000 0 0 1
-5.942211 -28.525257 12.935206 31.879769 1.365419 1.152997 0.146402 -0.038611 219932.000000 0 0 1
-5.047211 -28.052307 13.934506 31.726593 1.392780 1.116082 0.128229 -0.045635 -117564.000000 0 0 1
-5.787211 -27.347787 15.112006 31.776815 1.362258 1.075188 0.126607 -0.035663 -20530.400000 0 0 1
-6.728211 -28.045207 15.922506 32.944326 1.335340 1.066358 0.123351 -0.035841 62008.500000 0 0 1
-6.236211 -29.271007 16.457606 34.154574 1.360884 1.068024 0.096471 -0.048065 -922399.000000 0 0 1
-7.284211 -30.305477 16.721006 35.370520 1.334911 1.078400 0.092173 -0.046188 -581186.000000 0 0 1
-7.801211 -30.925807 15.524106 35.471993 1.323696 1.117820 0.110499 -0.044167 365615.000000 0 0 1
-8.201211 -32.331567 15.774106 36.897323 1.322376 1.129056 0.113765 -0.044529 -132929.000000 0 0 1
-7.058211 -33.337747 15.554406 37.458820 1.362159 1.142590 0.119797 -0.046772 124342.000000 0 0 1
-6.493211 -33.243157 14.246306 36.745428 1.377900 1.172658 0.123866 -0.050854 810770.000000 0 0 1
-5.302211 33.387097 14.071806 36.617310 -1.413301 1.176354 0.146061 -0.050616 478751.000000 0 0 1
-4.272211 -33.565867 13.030106 36.258831 1.444199 1.203210 0.178144 -0.061178 -279990.000000 0 0 1
-4.719211 -33.567617 11.691906 35.857447 1.431124 1.238657 0.183581 -0.059516 -364141.000000 0 0 1
-3.776211 -32.985107 10.863106 34.932565 1.456810 1.254579 0.208793 -0.066247 -904695.000000 0 0 1
-4.242211 -32.842707 9.401706 34.424291 1.442340 1.294169 0.207192 -0.072443 -998069.000000 0 0 1
-4.385211 33.483153 8.492206 34.820528 -1.440570 1.324426 0.203305 -0.069414 463168.000000 0 0 1
-5.170211 32.370211 8.939206 33.977508 -1.412413 1.304571 0.208171 -0.069241 993798.000000 0 0 1
-6.638211 32.598819 9.492006 34.595477 -1.369910 1.292860 0.222188 -0.060206 369941.000000 0 0 1
-7.549211 32.824583 8.429106 34.720220 -1.344741 1.325574 0.209942 -0.048137 -605973.000000 0 0 1
-8.856211 32.955899 8.933706 35.275131 -1.308269 1.314750 0.172752 -0.051348 418859.000000 0 0 1
-9.942211 33.257657 7.833506 35.584872 -1.280308 1.348843 0.187234 -0.062440 267353.000000 0 0 1
-10.028211 -32.862777 7.220706 35.109339 1.274618 1.363655 0.216747 -0.054704 93860.300000 0 0 1
-10.819211 -33.032547 6.026206 35.277749 1.254276 1.399133 0.211399 -0.050832 498137.000000 0 0 1
-11.334111 -31.705397 5.377806 34.097141 1.227472 1.412415 0.210920 -0.061186 391452.000000 0 0 1
-12.295811 -31.008577 6.151206 33.919848 1.193285 1.388442 0.220336 -0.061730 -56508.600000 0 0 1
-12.970511 -30.005037 5.453106 33.140198 1.162778 1.405498 0.208987 -0.057401 -48680.300000 0 0 1
-13.945511 -29.159457 6.318806 32.934457 1.124700 1.377739 0.170795 -0.052847 587408.000000 0 0 1
-15.057311 -29.988987 6.714306 34.221979 1.105474 1.373317 0.154901 -0.051728 244980.000000 0 0 1
-15.942711 -29.243837 7.497306 34.140615 1.071673 1.349391 0.145007 -0.055083 -259158.000000 0 0 1
36.026885 -12.450997 -12.929894 40.251037 -0.332752 1.897826 0.165016 -0.036805 110965.000000 0 0 1
34.998835 -12.717997 -11.988594 39.120229 -0.348548 1.882263 0.196591 -0.044424 373502.000000 0 0 1
34.714605 -14.128397 -11.749794 39.278150 -0.386515 1.874591 0.191093 -0.052926 -23348.600000 0 0 1
35.609485 -14.657597 -10.614694 39.944365 -0.390484 1.839765 0.171757 -0.043356 372199.000000 0 0 1
36.955785 -14.793497 -11.026394 41.305678 -0.380767 1.841019 0.172803 -0.041554 -108107.000000 0 0 1
37.846975 -15.027097 -9.972394 41.924406 -0.377960 1.810965 0.147954 -0.034190 -720130.000000 0 0 1
-37.112413 -15.244397 -10.371594 41.440231 0.389750 1.823764 0.102805 -0.034045 -707687.000000 0 0 1
-36.485583 -14.084097 -10.918994 40.605221 0.368395 1.843054 0.097075 -0.036631 -555301.000000 0 0 1
-35.121128 -14.330197 -11.006294 39.496666 0.387403 1.853199 0.070850 -0.035220 -237232.000000 0 0 1
-34.249008 -13.127897 -11.546194 38.453229 0.366034 1.875768 0.082640 -0.042439 339953.000000 0 0 1
-34.316627 -12.100297 -10.609194 37.902547 0.338996 1.854494 0.093953 -0.037601 72696.800000 0 0 1
-33.474953 -11.061297 -10.974294 36.923703 0.319140 1.872571 0.109540 -0.034137 -562593.000000 0 0 1
-33.746883 -9.826997 -10.151194 36.585088 0.283361 1.851954 0.122683 -0.033636 -111510.000000 0 0 1
-33.250233 -9.792997 -8.804094 35.763009 0.286426 1.819532 0.139282 -0.035204 337924.000000 0 0 1
-33.937042 -8.815697 -8.021794 35.969271 0.254149 1.795706 0.202027 -0.047771 -32736.700000 0 0 1
-33.540893 -8.717197 -6.552794 35.269252 0.254272 1.757676 0.187570 -0.043828 292474.000000 0 0 1
-32.199343 -8.248097 -6.373394 33.844481 0.250765 1.760242 0.174926 -0.052332 951486.000000 0 0 1
-31.688963 -8.178097 -5.015694 33.109346 0.252563 1.722871 0.197453 -0.045492 -161368.000000 0 0 1
-30.985793 -9.391697 -4.365194 32.670755 0.294296 1.704809 0.179420 -0.035800 -201714.000000 0 0 1
-31.805863 -10.458197 -3.825494 33.698979 0.317677 1.684561 0.177068 -0.030305 621967.000000 0 0 1
-32.391323 -10.064797 -2.587794 34.017563 0.301267 1.646942 0.178609 -0.038913 -433655.000000 0 0 1
-33.244753 -11.125397 -1.926094 35.109797 0.322936 1.625683 0.179146 -0.024600 -300.207000 0 0 1
-34.354265 -11.477797 -2.741794 36.324547 0.322441 1.646349 0.194661 -0.045398 293889.000000 0 0 1
-34.998156 -12.683997 -2.458194 37.306801 0.347695 1.636735 0.206064 -0.050192 76716.300000 0 0 1
-36.544553 -12.639297 -2.506994 38.749725 0.332982 1.635539 0.208196 -0.047146 -11977.200000 0 0 1
-37.110623 -11.991797 -1.400994 39.025175 0.312546 1.606704 0.249020 -0.059623 1346200.000000 0 0 1
37.860705 -12.242297 -1.411994 39.815833 -0.312740 1.606267 0.317911 -0.062084 1295360.000000 0 0 1
37.094785 -11.636997 -0.222394 38.877915 -0.303987 1.576517 0.304246 -0.069540 -67055.900000 0 0 1
37.392015 -12.266697 0.990406 39.365157 -0.316994 1.545634 0.323361 -0.061875 352715.000000 0 0 1
36.620215 -11.573297 1.959106 38.455422 -0.306103 1.519829 0.316300 -0.064825 112172.000000 0 0 1
37.033515 -11.875197 3.404306 39.039606 -0.310302 1.483484 0.298936 -0.067846 610903.000000 0 0 1
35.926625 -11.771697 4.323006 38.052380 -0.316635 1.456944 0.265166 -0.071133 611853.000000 0 0 1
36.367055 -11.982497 5.647706 38.704516 -0.318285 1.424355 0.256466 -0.062904 441134.000000 0 0 1
35.225685 -12.218197 6.695706 37.880941 -0.333870 1.393106 0.203990 -0.055159 798111.000000 0 0 1
34.424385 -11.094497 7.093806 36.857133 -0.311775 1.377120 0.193701 -0.051776 -178858.000000 0 0 1
33.478285 -11.505797 8.029806 36.299542 -0.331033 1.347742 0.166774 -0.036943 2683.530000 0 0 1
32.644995 -10.354597 8.641706 35.321275 -0.307150 1.323627 0.163941 -0.038593 -997306.000000 0 0 1
31.656965 -9.782297 7.921706 34.067730 -0.299702 1.336120 0.183226 -0.040835 -1356230.000000 0 0 1
30.777665 -9.162197 8.815706 33.300559 -0.289336 1.302871 0.192729 -0.028166 -41170.300000 0 0 1
29.309765 -9.282297 8.326006 31.851935 -0.306703 1.306327 0.161925 -0.016157 79987.500000 0 0 1
28.913565 -8.513097 7.191006 30.986733 -0.286341 1.336594 0.204068 -0.026000 145572.000000 0 0 1
27.829065 -9.066997 6.464106 29.974188 -0.314965 1.353433 0.218118 -0.040469 325532.000000 0 0 1
27.233565 -8.079597 5.413606 28.918058 -0.288406 1.382480 0.230035 -0.042592 330968.000000 0 0 1
26.234865 -7.157997 5.853706 27.816739 -0.266360 1.358773 0.239913 -0.050655 929506.000000 0 0 1
25.403165 -6.522697 4.885606 26.678372 -0.251337 1.386627 0.273258 -0.056198 362722.000000 0 0 1
26.156565 -5.379997 4.180806 27.029418 -0.202855 1.415497 0.297165 -0.066320 233186.000000 0 0 1
27.187365 -5.711297 3.263106 27.971764 -0.207061 1.453873 0.295018 -0.066631 617874.000000 0 0 1
27.876365 -4.593297 2.693806 28.380393 -0.163306 1.475735 0.308477 -0.078438 389965.000000 0 0 1
28.481365 -4.872997 1.309706 28.924896 -0.169453 1.525501 0.313185 -0.084396 -296977.000000 0 0 1
27.421465 -4.840097 0.390006 27.848077 -0.174708 1.556791 0.322809 -0.086039 -50872.600000 0 0 1
27.744865 -4.613997 -0.980594 28.142994 -0.164793 1.605647 0.315279 -0.087250 -819868.000000 0 0 1
26.685665 -5.162097 -1.903894 27.246959 -0.191081 1.640729 0.309265 -0.074839 898950.000000 0 0 1
25.356565 -4.581597 -1.889694 25.836358 -0.178758 1.644003 0.324100 -0.072081 920762.000000 0 0 1
24.570465 -5.120797 -2.889594 25.264206 -0.205471 1.685422 0.303528 -0.070300 330805.000000 0 0 1
23.101365 -4.553397 -2.892494 23.722838 -0.194610 1.693029 0.243125 -0.056498 662277.000000 0 1 0
22.900565 -3.154497 -3.260894 23.345667 -0.136886 1.710933 0.259509 -0.062368 266930.000000 0 1 0
23.183365 -2.805097 -4.606694 23.802492 -0.120411 1.765564 0.270103 -0.057814 -600417.000000 0 1 0
22.133965 -1.831897 -5.089594 22.785352 -0.082576 1.796068 0.228158 -0.042302 -488348.000000 0 1 0
22.156265 -0.525197 -4.508294 22.616380 -0.023700 1.771478 0.233605 -0.023859 77869.000000 0 1 0
21.195065 0.315203 -5.086194 21.799072 0.014870 1.806289 0.215308 -0.018893 -974654.000000 0 1 0
21.081365 1.834303 -4.689094 21.674322 0.086792 1.788864 0.185190 -0.003547 78609.700000 0 1 0
22.274465 2.583503 -4.870494 22.946634 0.115469 1.784676 0.248051 -0.008792 935560.000000 0 1 0
23.328565 2.392203 -3.934694 23.778697 0.102187 1.737032 0.278421 -0.009341 -175382.000000 0 1 0
24.435365 3.438003 -3.956294 24.991183 0.139780 1.729773 0.315325 -0.024462 -111575.000000 0 1 0
23.968065 4.781403 -3.615694 24.706340 0.196906 1.717671 0.257862 -0.017255 -285805.000000 0 1 0
25.001365 5.658203 -3.458194 25.865859 0.222566 1.704895 0.257076 -0.022095 -859617.000000 0 0 1
24.557665 7.116503 -3.473094 25.802828 0.282061 1.705807 0.233659 -0.030527 -216015.000000 0 0 1
23.741565 7.545603 -2.404394 25.027568 0.307726 1.667015 0.263317 -0.041723 340103.000000 0 0 1
23.183965 8.787603 -2.746794 24.945202 0.362306 1.681133 0.242673 -0.034351 -226001.000000 0 1 0
21.953765 9.185003 -1.896894 23.873213 0.396250 1.650337 0.187716 -0.034430 -177581.000000 0 1 0
22.267265 9.322503 -0.514394 24.145492 0.396492 1.592102 0.155927 -0.034406 784480.000000 0 1 0
21.148465 9.831203 0.213206 23.322856 0.435148 1.561655 0.104287 -0.028386 312827.000000 0 1 0
21.516565 10.253503 1.679806 23.893904 0.444704 1.500436 0.112344 -0.032009 -151575.000000 0 1 0
22.515365 11.270603 1.794706 25.242606 0.464107 1.499638 0.136530 -0.041403 496966.000000 0 0 1
22.158265 12.661403 1.656106 25.574256 0.519130 1.505994 0.142294 -0.026230 -439631.000000 0 0 1
21.084165 13.126803 2.663906 24.979019 0.556865 1.463947 0.132492 -0.015456 153853.000000 0 1 0
19.714465 12.855703 2.332206 23.650971 0.577847 1.472027 0.147135 -0.012759 1171440.000000 0 1 0
18.732865 13.528003 3.117806 23.316257 0.625440 1.436676 0.146488 -0.021855 290062.000000 0 1 0
18.879065 13.617103 4.679706 23.743299 0.624866 1.372402 0.153385 -0.021385 -933334.000000 0 1 0
18.717965 12.319203 5.220506 23.008231 0.582082 1.341906 0.147596 -0.013920 420869.000000 0 1 0
19.032765 12.334003 6.622106 23.626809 0.574997 1.286711 0.172265 -0.024260 49071.200000 0 1 0
18.916865 10.942003 7.251606 23.025226 0.524405 1.250401 0.129902 -0.024501 -452008.000000 0 1 0
19.773165 10.133003 6.547106 23.162910 0.473568 1.284236 0.117618 -0.037952 -35409.300000 0 1 0
19.692065 8.849903 7.096706 22.725788 0.422367 1.253209 0.126145 -0.039563 296443.000000 0 1 0
20.563365 7.798403 6.326206 22.884230 0.362481 1.290705 0.136229 -0.039081 249597.000000 0 1 0
20.121465 7.531503 5.005906 22.060281 0.358159 1.341883 0.107346 -0.033560 51863.500000 0 1 0
21.053765 6.748703 4.357806 22.534341 0.310198 1.376185 0.122204 -0.034172 -367755.000000 0 1 0
20.757365 6.653103 2.831106 21.980609 0.310173 1.441637 0.126889 -0.020494 -425248.000000 0 1 0
21.623465 5.770003 2.199406 22.487876 0.260764 1.472836 0.125165 -0.028669 231478.000000 0 1 0
21.402965 5.824503 0.739006 22.193645 0.265701 1.537492 0.134561 -0.011472 184364.000000 0 1 0
22.415965 4.934303 -0.042194 22.952661 0.216669 1.572635 0.204645 -0.025031 320291.000000 0 1 0
22.230665 3.550403 0.263906 22.513940 0.158370 1.559074 0.179557 -0.020953 1534220.000000 0 1 0
23.397165 2.828503 -0.242094 23.568759 0.120307 1.581068 0.239139 -0.030020 1105440.000000 0 1 0
23.314065 1.302903 -0.119594 23.350750 0.055827 1.575918 0.274691 -0.034743 -405597.000000 0 1 0
22.240465 0.780903 -0.869694 22.271158 0.035097 1.609857 0.185006 -0.031685 518305.000000 0 1 0
22.341565 -0.579197 -1.307794 22.387303 -0.025919 1.629246 0.237448 -0.042909 -1241130.000000 0 1 0
21.944265 -1.672897 -0.269894 22.009594 -0.076087 1.583059 0.231396 -0.043960 489417.000000 0 1 0
22.832865 -1.872097 0.875306 22.926200 -0.081808 1.532608 0.222711 -0.050766 1588650.000000 0 1 0
24.188365 -2.220997 0.514106 24.295558 -0.091564 1.549634 0.276724 -0.069962 300636.000000 0 1 0
25.096365 -2.075097 1.731906 25.241495 -0.082497 1.502129 0.292797 -0.065588 -661031.000000 0 0 1
25.322665 -0.707697 2.105506 25.419901 -0.027940 1.487872 0.286815 -0.063340 731398.000000 0 0 1
26.229265 -0.545697 3.221706 26.432017 -0.020802 1.448606 0.282598 -0.066703 -4871.320000 0 0 1
26.549065 0.939903 3.607906 26.809574 0.035388 1.435812 0.262553 -0.059197 86952.500000 0 0 1
27.227665 1.727403 2.632006 27.409070 0.063358 1.474621 0.309929 -0.048674 1529700.000000 0 0 1
28.670465 1.535103 2.546106 28.824205 0.053492 1.482349 0.294053 -0.050754 1422780.000000 0 0 1
29.352365 2.645703 1.741906 29.522794 0.089893 1.511760 0.326416 -0.058423 -245198.000000 0 0 1
28.938665 2.507403 0.383406 29.049620 0.086430 1.557598 0.370520 -0.041764 -205288.000000 0 0 1
29.286565 3.502203 -0.530294 29.499993 0.119019 1.588773 0.350163 -0.040285 -81964.200000 0 0 1
30.731965 3.293203 -1.030394 30.925080 0.106752 1.604122 0.295214 -0.034912 -55845.000000 0 0 1
31.763615 3.786303 -0.167994 31.988929 0.118643 1.576048 0.240413 -0.034099 776210.000000 0 0 1
32.994755 3.586103 -0.904394 33.201385 0.108262 1.598039 0.180065 -0.031807 1928300.000000 0 0 1
34.292125 4.085703 -0.087694 34.534773 0.118585 1.573336 0.104777 -0.021960 1298690.000000 0 0 1
34.671255 3.316703 1.046106 34.845241 0.095371 1.540770 0.137762 -0.027896 122075.000000 0 0 1
33.994285 3.778603 2.197906 34.274190 0.110700 1.506625 0.149900 -0.021734 -15382.600000 0 0 1
33.999675 2.785403 3.375106 34.280136 0.081742 1.472180 0.167950 -0.029501 314264.000000 0 0 1
33.081395 1.677703 3.188406 33.277009 0.050671 1.474835 0.206677 -0.034836 592946.000000 0 0 1
33.189515 0.668803 4.235706 33.465392 0.020148 1.443886 0.193937 -0.039688 457041.000000 0 0 1
34.526605 -0.126097 4.227006 34.784622 -0.003652 1.448976 0.177846 -0.034410 393860.000000 0 0 1
35.713215 0.476403 4.691406 36.023187 0.013339 1.440192 0.162376 -0.036275 142652.000000 0 0 1
36.781365 -0.459997 4.530806 37.062227 -0.012506 1.448241 0.123418 -0.039246 62145.400000 0 0 1
38.158215 0.208403 4.813106 38.461134 0.005462 1.445325 0.153147 -0.052903 53187.900000 0 0 1
-37.754443 1.011003 3.801706 37.958833 -0.026772 1.470475 0.135750 -0.045075 305481.000000 0 0 1
-37.042533 0.339303 2.723306 37.144054 -0.009160 1.497413 0.145150 -0.045085 29798.900000 0 0 1
-36.510013 1.288103 1.635806 36.569333 -0.035266 1.526050 0.152261 -0.045733 185550.000000 0 0 1
-35.423952 2.045303 2.142606 35.547579 -0.057674 1.510485 0.177393 -0.072278 315892.000000 0 0 1
-34.634728 2.587103 1.109906 34.748947 -0.074558 1.538850 0.226075 -0.057964 -384131.000000 0 0 1
-33.532493 3.568103 1.508406 33.755514 -0.106008 1.526095 0.264878 -0.062693 71940.500000 0 0 1
-32.527523 2.913103 2.306206 32.739036 -0.089320 1.500296 0.277503 -0.077125 375412.000000 0 0 1
-31.810033 3.852203 3.097906 32.191842 -0.120513 1.474415 0.299141 -0.051634 -487598.000000 0 0 1
-32.318913 4.136003 4.594206 32.904792 -0.127283 1.430718 0.309522 -0.057586 -838612.000000 0 0 1
-33.580013 4.737903 4.727306 34.240508 -0.140168 1.432292 0.292992 -0.031160 -10767.400000 0 0 1
-34.636071 3.786403 4.783806 35.169291 -0.108887 1.434351 0.256794 -0.031630 -225423.000000 0 0 1
-34.762640 2.924603 6.090206 35.413063 -0.083933 1.397961 0.200355 -0.032053 -1019810.000000 0 0 1
-35.100886 3.670603 7.259006 36.031079 -0.104194 1.367943 0.212628 -0.035186 340002.000000 0 0 1
-35.197241 2.950603 8.457706 36.319204 -0.083635 1.335767 0.168713 -0.037475 -353541.000000 0 0 1
-36.241303 1.841703 8.632906 37.300817 -0.050774 1.337239 0.155044 -0.036793 -436867.000000 0 0 1
-35.967113 0.677203 7.833606 36.816534 -0.018826 1.356383 0.151170 -0.040480 85781.000000 0 0 1
-36.963423 -0.274097 8.078506 37.836913 0.007415 1.355631 0.148811 -0.037204 -271684.000000 0 0 1
-36.672663 -1.158997 9.355306 37.864881 0.031593 1.321140 0.163671 -0.038388 736428.000000 0 0 1
-35.446020 -1.912497 9.244506 36.681587 0.053903 1.316029 0.163223 -0.045356 667383.000000 0 0 1
-35.081310 -2.503397 10.428006 36.683901 0.071239 1.282555 0.155887 -0.033326 418326.000000 0 0 1
-33.776233 -3.332397 10.208906 35.442355 0.098343 1.278614 0.184686 -0.023632 346750.000000 0 0 1
-34.115339 -4.381297 9.317106 35.635103 0.127727 1.306263 0.201641 -0.040768 -295120.000000 0 0 1
-33.103343 -5.299297 9.115806 34.742075 0.158737 1.305303 0.237979 -0.056841 -590934.000000 0 0 1
-33.437513 -6.298897 8.002006 34.953904 0.186196 1.339818 0.238893 -0.042841 1013920.000000 0 0 1
-34.529328 -7.169397 8.423606 36.257852 0.204723 1.336329 0.252038 -0.047473 870165.000000 0 0 1
-34.736773 -8.149897 7.407806 36.440908 0.230451 1.366087 0.247212 -0.060250 708485.000000 0 0 1
-35.675092 -9.347097 7.894206 37.714703 0.256246 1.359923 0.254623 -0.062096 1336320.000000 0 0 1
-37.041863 -8.987497 8.132506 38.974509 0.238031 1.360590 0.229974 -0.070467 635672.000000 0 0 1
-37.744203 -10.090697 8.651506 40.016191 0.261235 1.352875 0.228687 -0.066682 -89802.200000 0 0 1
8.936377 -23.844097 10.358906 27.490120 -1.212215 1.184432 0.185166 -0.056229 -35436.600000 0 0 1
8.061777 -24.438797 9.432106 27.408241 -1.252160 1.219480 0.168260 -0.057869 -617607.000000 0 0 1
6.752677 -24.540697 9.918906 27.317195 -1.302279 1.199202 0.192461 -0.064591 72368.500000 0 0 1
5.874377 -25.434837 9.022906 27.619776 -1.343818 1.238005 0.153982 -0.049217 -198646.000000 0 0 1
5.656177 -24.880697 7.717206 26.657019 -1.347263 1.277092 0.136393 -0.043645 -332367.000000 0 0 1
5.525077 -25.925317 6.743906 27.351943 -1.360822 1.321667 0.097096 -0.032505 -199939.000000 0 0 1
4.840977 -25.552147 5.382106 26.557754 -1.383561 1.366726 0.084394 -0.027177 1512360.000000 0 0 1
3.399377 -25.409387 5.468506 26.212540 -1.437802 1.360631 0.093389 -0.042374 949584.000000 0 0 1
2.708577 -26.589047 5.129006 27.214343 -1.469278 1.381195 0.080448 -0.042525 158834.000000 0 0 1
1.170377 -26.451317 4.933906 26.932979 -1.526579 1.386564 0.119074 -0.058778 110754.000000 0 0 1
0.536177 -26.186007 6.186506 26.912214 -1.550323 1.338845 0.119066 -0.058093 211792.000000 0 0 1
-0.888823 -26.260317 6.175906 26.991407 1.536963 1.339941 0.133863 -0.057752 944470.000000 0 0 1
-1.479023 -27.699657 6.203306 28.424276 1.517452 1.350786 0.162211 -0.057634 -466215.000000 0 0 1
-1.342523 -28.329377 7.460806 29.326090 1.523442 1.313560 0.153101 -0.060879 64526.700000 0 0 1
-1.716723 -29.718577 7.423806 30.679860 1.513094 1.326394 0.189444 -0.063527 -66632.600000 0 0 1
-1.539223 -30.330027 8.797306 31.617595 1.520091 1.288834 0.190427 -0.065964 1001650.000000 0 0 1
-0.163323 -30.661867 9.080706 31.978680 1.565470 1.282873 0.173329 -0.055294 879145.000000 0 0 1
-0.117323 -31.079487 10.440306 32.786403 1.567021 1.246719 0.181200 -0.048417 -306107.000000 0 0 1
1.260677 -31.048647 11.099006 32.996904 -1.530215 1.227742 0.139607 -0.045378 -476412.000000 0 0 1
2.113277 -32.058427 10.581006 33.825528 -1.504972 1.252645 0.151528 -0.042207 482304.000000 0 0 1
3.488377 -31.989367 10.957906 33.993588 -1.462177 1.242583 0.145510 -0.037770 777930.000000 0 0 1
3.839977 -32.493017 12.443106 35.005320 -1.453163 1.207387 0.169052 -0.033121 63258.700000 0 0 1
3.189477 -31.640637 13.421606 34.517273 -1.470332 1.171427 0.164121 -0.043384 378514.000000 0 0 1
3.659777 -31.913967 14.731306 35.339873 -1.456619 1.140823 0.170830 -0.051054 -282317.000000 0 0 1
3.291077 -30.811957 15.763006 34.766078 -1.464388 1.100218 0.189037 -0.054024 381031.000000 0 0 1
3.963977 -29.541517 15.512306 33.601279 -1.437410 1.090933 0.196130 -0.053392 821145.000000 0 0 1
5.344777 -29.535817 15.872806 33.954043 -1.391774 1.084359 0.181019 -0.041046 352775.000000 0 0 1
6.193177 -28.512787 15.100806 32.853748 -1.356912 1.093210 0.193198 -0.047409 24544.600000 0 0 1
6.580877 -28.936377 13.811106 32.731766 -1.347174 1.135203 0.173513 -0.045613 -176091.000000 0 0 1
5.561777 -28.715637 12.862206 31.952425 -1.379481 1.156504 0.162258 -0.041872 -469594.000000 0 0 1
5.927077 -28.953797 11.388806 31.672661 -1.368878 1.202980 0.134973 -0.046184 -7379.080000 0 0 1
6.291277 -30.309987 11.049306 32.868870 -1.366138 1.227956 0.127512 -0.038709 -215000.000000 0 0 1
7.584277 -30.677697 11.450306 33.611781 -1.328432 1.223174 0.117635 -0.029606 -744081.000000 0 0 1
8.040977 -32.088047 11.156606 34.910885 -1.325261 1.245517 0.112730 -0.022514 -282263.000000 0 0 1
7.192177 -33.042777 11.704806 35.784843 -1.356477 1.237576 0.097372 -0.042648 157802.000000 0 0 1
7.776677 33.034664 11.571706 35.856242 1.339596 1.242189 0.112924 -0.036664 221447.000000 0 0 1
7.274777 31.992573 12.557106 35.130158 1.347209 1.205265 0.104459 -0.024796 -929943.000000 0 0 1
5.941677 31.697208 12.321306 34.522907 1.385496 1.205847 0.133450 -0.027400 -823770.000000 0 0 1
5.410177 30.676913 13.139506 33.808130 1.396231 1.171631 0.155713 -0.017087 157959.000000 0 0 1
4.545477 31.124553 14.380206 34.585972 1.425780 1.141994 0.154162 -0.041889 -261019.000000 0 0 1
5.141077 31.768426 15.466106 35.705238 1.410357 1.122800 0.134166 -0.046709 320374.000000 0 0 1
4.291677 31.811583 16.653006 36.162383 1.436697 1.092231 0.156111 -0.045120 562717.000000 0 0 1
5.130077 32.262766 17.884606 37.243293 1.413107 1.069902 0.187321 -0.041622 -220671.000000 0 0 1
5.269577 33.704173 18.032706 38.586503 1.415704 1.084526 0.228316 -0.042772 -22605.400000 0 0 1
5.477077 -33.500487 19.414906 39.105237 -1.408738 1.051259 0.187954 -0.041176 -368843.000000 0 0 1
4.994077 -32.132717 19.850206 38.098333 -1.416610 1.022744 0.178638 -0.055577 1090950.000000 0 0 1
3.590877 -31.943277 19.572406 37.634378 -1.458852 1.023867 0.190509 -0.058231 716438.000000 0 0 1
3.118877 -30.650187 19.905606 36.679619 -1.469388 0.997162 0.164736 -0.051310 -131660.000000 0 0 1
1.621977 -30.486987 19.537206 36.246235 -1.517644 1.001531 0.174775 -0.050720 344549.000000 0 0 1
0.687977 -31.428017 20.068906 37.295503 -1.548909 1.002609 0.202033 -0.052153 255325.000000 0 0 1
0.400177 -31.369187 21.459306 38.009049 -1.558040 0.970867 0.166219 -0.043805 -1034010.000000 0 0 1
-0.552623 -32.419147 21.940406 39.149558 1.553752 0.975897 0.201826 -0.047886 304166.000000 0 0 1
-1.950923 -32.186527 21.661806 38.846009 1.510257 0.979265 0.194891 -0.044400 812311.000000 0 0 1
-2.745023 -33.294607 22.003206 40.002588 1.488536 0.988379 0.191127 -0.038719 84109.000000 0 0 1
-4.074223 -32.866907 22.643406 40.119280 1.447464 0.971088 0.201497 -0.031835 510353.000000 0 0 1
-5.019023 -32.187147 21.779406 39.186037 1.416110 0.981477 0.193511 -0.036753 59845.700000 0 0 1
-6.253323 -32.106447 22.438706 39.666402 1.378436 0.969532 0.184716 -0.030389 -473810.000000 0 0 1
-7.364223 -31.494457 21.581906 38.883303 1.341097 0.982382 0.139346 -0.027431 -66525.700000 0 0 1
-8.041623 -32.458827 20.740106 39.349652 1.327938 1.015645 0.111269 -0.031245 217839.000000 0 0 1
-9.226423 -31.849597 20.254306 38.855638 1.288827 1.022457 0.098240 -0.034151 -455065.000000 0 0 1
-10.315723 -32.847237 19.952606 39.792732 1.266499 1.045565 0.090843 -0.032686 -718042.000000 0 0 1
-10.879123 -33.310997 21.123906 40.916955 1.255125 1.028315 0.094067 -0.027041 -337452.000000 0 0 1
-12.239623 -33.641167 20.966506 41.486514 1.221855 1.040973 0.084494 -0.026472 223955.000000 0 0 1
-13.036923 33.399095 22.242906 42.192508 -1.198647 1.015522 0.086269 -0.027844 -40376.900000 0 0 1
-13.291523 -32.918937 23.171806 42.394027 1.187048 0.992519 0.094026 -0.027008 40573.100000 0 0 1
-12.189423 -32.644357 24.002606 42.312659 1.213429 0.967612 0.106167 -0.024012 -90300.100000 0 0 1
-12.261623 -31.292507 24.761906 41.745902 1.197345 0.935821 0.113405 -0.023889 -87192.200000 0 0 1
-13.139723 -31.275107 25.854206 42.652369 1.173055 0.919571 0.115050 -0.025056 -171203.000000 0 0 1
-13.790523 -30.042577 25.933806 42.015440 1.140456 0.905561 0.156825 -0.028476 -362707.000000 0 0 1
-14.468623 -29.790007 27.253006 42.889531 1.118664 0.882240 0.156389 -0.032295 -2856.130000 0 0 1
-13.605423 -29.479387 28.352106 43.104334 1.138401 0.852962 0.145999 -0.031610 661591.000000 0 0 1
-14.384323 -28.982417 29.446806 43.749326 1.110103 0.832431 0.158739 -0.036534 402985.000000 0 0 1
-13.509523 -28.728647 30.678306 44.147489 1.131234 0.802509 0.140520 -0.036103 -88600.900000 0 0 1
-14.309023 -28.127267 31.670106 44.708912 1.100194 0.783621 0.137129 -0.037831 387522.000000 0 0 1
-13.660623 -27.908927 32.912106 45.262871 1.115607 0.756661 0.121318 -0.036010 -421438.000000 0 0 1
-13.157623 -29.147537 -33.651371 46.423234 1.146767 2.381660 0.126115 -0.035673 304073.000000 0 0 1
-11.773923 -29.343327 33.450806 46.028388 1.189215 0.757228 0.131819 -0.038523 -71625.200000 0 0 1
-11.279223 -30.432297 -33.257871 46.469684 1.215859 2.368407 0.115607 -0.037540 774793.000000 0 0 1
-9.752223 -30.742167 -33.512871 46.511280 1.263611 2.375366 0.114767 -0.037334 573689.000000 0 0 1
-8.888423 -29.929877 -32.778771 45.268636 1.282117 2.380517 0.151277 -0.046056 -601157.000000 0 0 1
-7.707523 -30.638287 -32.528971 45.345832 1.324345 2.370792 0.185921 -0.059782 -97971.800000 0 0 1
-6.649123 -29.877367 -31.698971 44.064641 1.351818 2.373697 0.207176 -0.063094 -122342.000000 0 0 1
-7.124523 -29.671487 -30.420571 43.087899 1.335144 2.354647 0.205713 -0.069090 -428899.000000 0 0 1
-6.192023 -29.232097 -29.486171 41.979648 1.362059 2.349549 0.202697 -0.072765 -103272.000000 0 0 1
-6.779523 -29.371117 -28.040271 41.168935 1.343947 2.320064 0.205007 -0.073123 351844.000000 0 0 1
-6.924323 -30.719507 -27.613171 41.882234 1.349097 2.290690 0.189154 -0.073359 -420697.000000 0 0 1
-7.640523 -30.804277 -26.423571 41.297532 1.327668 2.265079 0.197789 -0.078594 -57012.200000 0 0 1
-7.036723 -31.627997 -25.185971 41.038747 1.351878 2.231550 0.194936 -0.086440 -272188.000000 0 0 1
-5.815023 -31.148947 -24.736571 40.199121 1.386236 2.233628 0.196759 -0.088705 -1257970.000000 0 0 1
-5.101223 -32.167787 -24.218471 40.587231 1.413524 2.210181 0.202202 -0.095894 -72316.700000 0 0 1
-4.237323 -31.731267 -22.957371 39.393769 1.438044 2.192925 0.220952 -0.100360 191337.000000 0 0 1
-5.018823 -31.560367 -21.801671 38.685374 1.413094 2.169490 0.221932 -0.093970 -50512.500000 0 0 1
-5.004023 -30.249577 -21.223771 37.289752 1.406856 2.176278 0.195906 -0.068142 -1009850.000000 0 0 1
-5.864423 -30.204747 -19.954571 36.672920 1.379027 2.146140 0.227845 -0.078850 1695960.000000 0 0 1
-7.300923 -30.311897 -20.227371 37.165321 1.334438 2.146296 0.244062 -0.082105 2021050.000000 0 0 1
-8.101623 -29.198487 -20.641671 36.664240 1.300138 2.168798 0.234938 -0.078423 125976.000000 0 0 1
-7.952823 -28.668137 -22.093071 37.056892 1.300191 2.209548 0.236111 -0.095124 -336999.000000 0 0 1
-6.763823 -27.924827 -22.357371 36.406006 1.333158 2.232057 0.246285 -0.074144 139920.000000 0 0 1
-6.640723 -27.645317 -23.735471 37.036945 1.335051 2.266413 0.277683 -0.074848 -400833.000000 0 0 1
-5.228423 -27.808987 -24.328671 37.317025 1.384954 2.280944 0.278917 -0.075354 384840.000000 0 0 1
-4.196823 -26.873847 -23.998871 36.273444 1.415880 2.293760 0.254483 -0.072990 449681.000000 0 0 1
-3.737723 -26.816077 -22.647371 35.298384 1.432305 2.267376 0.173609 -0.061613 -1189870.000000 0 0 1
-2.203823 -26.887787 -22.546771 35.159163 1.489015 2.266958 0.157138 -0.056052 -272932.000000 0 0 1
-1.576323 -25.685237 -22.909971 34.454070 1.509502 2.298213 0.144267 -0.050361 40747.100000 0 0 1
-1.685223 -24.605497 -21.986171 33.040311 1.502413 2.298872 0.135569 -0.053882 -1340010.000000 0 0 1
-1.372923 -23.274697 -22.679371 32.526148 1.511877 2.342372 0.130651 -0.043669 3015.340000 0 0 1
-2.285723 -22.982397 -23.728171 33.112553 1.471667 2.369699 0.181613 -0.052843 -162438.000000 0 0 1
-3.578223 -22.708897 -23.265471 32.707488 1.414512 2.362170 0.198137 -0.054135 -1433570.000000 0 0 1
-4.589323 -22.266797 -24.286871 33.267465 1.367536 2.389190 0.185482 -0.062826 -503017.000000 0 0 1
-4.333223 -20.960097 -24.740871 32.714112 1.366932 2.428397 0.194449 -0.050048 142481.000000 0 0 1
-4.882423 -20.586697 -26.010971 33.529401 1.337935 2.458724 0.251054 -0.059950 -26575.800000 0 0 1
-4.252423 -21.306297 -27.211671 34.821206 1.373800 2.467812 0.223764 -0.054421 -116648.000000 0 0 1
-4.868323 -21.057097 -28.452771 35.730408 1.343592 2.491980 0.224190 -0.058811 14296.800000 0 0 1
-4.354623 -21.926297 -29.489571 37.004865 1.374745 2.492960 0.234490 -0.055926 -676529.000000 0 0 1
-5.366923 -22.271997 -30.518071 38.160167 1.334333 2.497652 0.250611 -0.071080 -1092490.000000 0 0 1
-5.768223 -21.261497 -31.389971 38.349106 1.305874 2.529647 0.258265 -0.071844 -51872.000000 0 0 1
-6.584723 -21.868897 -32.378871 39.623206 1.278331 2.527279 0.248868 -0.068871 -46536.000000 0 0 1
-6.517923 -21.264697 33.515906 40.224204 1.273374 0.585877 0.205601 -0.053270 -495576.000000 0 0 1
-5.287623 -21.453397 32.878106 39.612839 1.329143 0.591714 0.201736 -0.065877 -412908.000000 0 0 1
-5.339323 -21.162097 31.522106 38.340394 1.323649 0.605594 0.193552 -0.063999 -350929.000000 0 0 1
-3.950323 -21.205097 30.897106 37.681458 1.386616 0.609464 0.165679 -0.074685 -1784650.000000 0 0 1
-3.417923 -22.507997 30.793906 38.295649 1.420094 0.636620 0.210368 -0.068497 220822.000000 0 0 1
-2.114823 -22.584697 30.243706 37.805062 1.477429 0.643516 0.198093 -0.056501 -78165.200000 0 0 1
-0.976923 -21.939297 31.004106 37.993969 1.526297 0.616293 0.146197 -0.060527 -1708200.000000 0 0 1
-0.783723 -20.519297 30.748106 36.974339 1.532620 0.588802 0.135877 -0.063819 279039.000000 0 0 1
0.030477 -19.786397 31.671806 37.344420 -1.569256 0.558407 0.145170 -0.065277 155615.000000 0 0 1
-0.734223 -19.607697 33.009706 38.401061 1.533368 0.536302 0.147255 -0.065373 -27822.300000 0 0 1
-1.968223 -18.969097 32.775006 37.919672 1.467407 0.526985 0.157655 -0.066227 -369625.000000 0 0 1
-2.689723 -19.075497 -33.357871 38.520861 1.430716 2.617881 0.172866 -0.067483 -296462.000000 0 0 1
-3.880723 -18.137397 -33.383771 38.190330 1.360012 2.634463 0.202405 -0.071052 -167862.000000 0 0 1
-3.373123 -16.808597 -33.571071 37.695141 1.372749 2.669446 0.164206 -0.049934 243130.000000 0 0 1
-4.443623 -15.915097 -33.391171 37.255957 1.298522 2.682069 0.188855 -0.057591 134881.000000 0 0 1
-4.071323 -14.425397 -33.512471 36.711761 1.295718 2.721016 0.172914 -0.050672 -100261.000000 0 0 1
-3.435423 -13.773597 -32.396771 35.370395 1.326363 2.728613 0.152723 -0.051257 277407.000000 0 0 1
-3.100523 -12.376997 -32.538671 34.950942 1.325341 2.767888 0.150325 -0.041480 296406.000000 0 0 1
-2.076623 -11.983297 -33.639371 35.770365 1.399207 2.794677 0.150028 -0.040515 -105699.000000 0 0 1
-2.713323 -11.929097 32.424606 34.655743 1.347147 0.360785 0.150427 -0.025753 267017.000000 0 0 1
-1.815123 -11.798797 31.342306 33.538730 1.418153 0.363914 0.143155 -0.012406 -7685.780000 0 0 1
-0.960023 -13.007197 30.986806 33.619800 1.497123 0.398399 0.116451 -0.017632 384282.000000 0 0 1
-1.781223 -14.174397 30.691206 33.853159 1.445787 0.435645 0.139141 -0.042268 303741.000000 0 0 1
-0.967723 -15.271597 30.520306 34.141576 1.507513 0.464750 0.124739 -0.042331 10976.700000 0 0 1
-1.778823 -16.624897 30.537406 34.815004 1.464204 0.500936 0.116294 -0.053607 188670.000000 0 0 1
-2.399423 -17.004797 29.321706 33.980623 1.430619 0.529826 0.145359 -0.052264 229522.000000 0 0 1
-2.512723 -18.391597 29.367406 34.742037 1.435014 0.563672 0.165055 -0.052607 -572220.000000 0 0 1
-2.878423 -19.128497 28.100706 34.115016 1.421439 0.602882 0.165615 -0.052120 493562.000000 0 0 1
-4.302023 -19.104697 27.929906 34.111236 1.349309 0.611498 0.171697 -0.055799 957736.000000 0 0 1
-4.855023 -20.031897 26.914006 33.900027 1.333017 0.653562 0.180002 -0.060524 455773.000000 0 0 1
-4.551023 -19.639497 25.427506 32.449648 1.343087 0.670359 0.171292 -0.055059 -602537.000000 0 0 1
-4.910723 -20.416597 24.268506 32.092257 1.334754 0.713294 0.211696 -0.054088 -61312.000000 0 0 1
-4.365523 -21.734797 24.166706 32.794646 1.372580 0.742308 0.223692 -0.063584 91351.100000 0 0 1
-31.367423 -32.823656 -0.172194 45.401952 0.808080 1.574589 0.091126 -0.025311 -177800.000000 0 0 1
-30.672833 -31.639156 0.120606 44.066693 0.800905 1.568059 0.088756 -0.034221 -148695.000000 0 0 1
-30.875353 -31.209356 1.428806 43.924399 0.790778 1.538262 0.057744 -0.010007 17388.400000 0 0 1
-30.445963 -29.753856 1.707806 42.604756 0.773902 1.530701 0.078126 -0.024184 533454.000000 0 0 1
-29.034923 -29.581256 1.530306 41.477937 0.794718 1.533894 0.102907 -0.030825 147012.000000 0 0 1
-28.718463 -28.223456 1.536706 40.294851 0.776705 1.532651 0.105799 -0.035711 797100.000000 0 0 1
-27.155393 -28.062156 1.488706 39.078334 0.801818 1.532692 0.120098 -0.040144 603004.000000 0 0 1
-26.512773 -28.824156 2.475006 39.241365 0.827143 1.507683 0.102429 -0.020900 -142201.000000 0 0 1
-25.140993 -28.453656 2.530106 38.053666 0.847129 1.504259 0.121630 -0.022740 734460.000000 0 0 1
-24.280423 -29.448356 3.424806 38.320672 0.881289 1.481305 0.114910 -0.028680 80599.500000 0 0 1
-24.696723 -29.360756 4.778806 38.662891 0.871464 1.446878 0.085340 -0.003922 430780.000000 0 0 1
-23.749323 -29.960056 5.685106 38.651724 0.900523 1.423175 0.082641 -0.007479 391927.000000 0 0 1
-24.135723 -29.753756 7.186106 38.980242 0.889274 1.385383 0.063718 0.011905 -98791.400000 0 0 1
-24.118723 -28.439456 7.718606 38.080078 0.867422 1.366688 0.078895 -0.016371 -36564.800000 0 0 1
-24.478323 -28.450956 9.066806 38.611555 0.860313 1.333762 0.040517 -0.004808 -4997.410000 0 0 1
-24.123223 -27.132056 9.801406 37.605131 0.844034 1.307111 0.060175 -0.010532 -207566.000000 0 0 1
-22.771723 -27.154056 10.156706 36.865333 0.872951 1.291678 0.068614 -0.022550 -734115.000000 0 0 1
-22.490023 -26.247856 11.204906 36.335946 0.862349 1.257318 0.086554 -0.017584 168751.000000 0 0 1
-21.104223 -26.336556 11.864106 35.773725 0.895246 1.232752 0.084966 -0.023527 -49686.200000 0 0 1
-20.880023 -27.480156 12.685606 36.770354 0.921039 1.218562 0.072729 -0.007331 -133521.000000 0 0 1
-19.764523 -27.337556 13.549106 36.353220 0.944813 1.188872 0.085574 -0.020831 301409.000000 0 0 1
-19.515523 -28.520256 14.483906 37.470577 0.970706 1.173918 0.104170 -0.027676 139670.000000 0 0 1
-19.252723 -29.817756 13.912806 38.122593 0.997464 1.197218 0.098730 -0.021272 24805.000000 0 0 1
-19.057423 -30.786356 14.997706 39.190768 1.016508 1.178096 0.097999 -0.023716 55965.400000 0 0 1
-18.748123 -32.089756 14.325506 39.830449 1.042046 1.202891 0.089711 -0.030920 61677.600000 0 0 1
-18.631223 -33.083556 15.342906 40.951788 1.057908 1.186769 0.094245 -0.022226 1949.000000 0 0 1
-18.317723 33.076603 14.762306 40.589732 -1.065043 1.198564 0.077331 -0.022105 -146573.000000 0 0 1
-18.178223 31.989003 15.778706 40.033881 -1.054039 1.165671 0.098258 -0.021122 127287.000000 0 0 1
-19.307523 31.779803 16.614406 40.728059 -1.024851 1.150605 0.094379 -0.032309 284473.000000 0 0 1
-19.105523 30.590803 17.342206 40.019624 -1.012520 1.122598 0.064586 -0.023623 -117887.000000 0 0 1
-19.821523 30.615103 18.684806 40.979254 -0.996221 1.097348 0.077830 -0.033512 -124844.000000 0 0 1
-19.321823 31.553303 19.613006 41.876172 -1.021342 1.083366 0.090889 -0.034725 -454930.000000 0 0 1
-20.207023 31.806403 20.637106 42.963487 -1.004815 1.069753 0.098960 -0.034345 -577737.000000 0 0 1
-19.744223 32.870203 21.618306 44.018584 -1.029883 1.057424 0.087027 -0.017920 549506.000000 0 0 1
-18.598923 32.382403 22.351506 43.521601 -1.049449 1.031453 0.082558 -0.030406 564661.000000 0 0 1
-18.460623 32.977603 23.612606 44.563124 -1.060466 1.012351 0.079800 -0.034592 213385.000000 0 0 1
-19.454723 32.456003 24.723106 45.200778 -1.030805 0.992065 0.075546 -0.035016 1511630.000000 0 0 1
-20.851923 32.635403 24.385706 45.766089 -1.002239 1.008851 0.073862 -0.035073 862074.000000 0 0 1
-21.705723 31.978903 25.312306 46.200665 -0.974474 0.990971 0.058661 -0.032816 293078.000000 0 0 1
-23.187823 32.115603 24.887606 46.781193 -0.945450 1.009835 0.099151 -0.042886 -98482.700000 0 0 1
-23.549923 31.450203 23.680106 45.874411 -0.928063 1.028395 0.088875 -0.022662 -682786.000000 0 0 1
-24.862923 31.725703 23.345606 46.580065 -0.906084 1.045819 0.080797 -0.026892 -824439.000000 0 0 1
-25.219003 31.455703 21.887206 45.874929 -0.895001 1.073437 0.075722 -0.027353 -369896.000000 0 0 1
-24.628423 32.352103 21.056706 45.788674 -0.920126 1.092951 0.078426 -0.023719 -230392.000000 0 0 1
-24.677423 31.804903 19.743306 44.836650 -0.910924 1.114821 0.059010 -0.009491 101448.000000 0 0 1
-24.044823 32.727003 18.665206 44.694520 -0.937154 1.139975 0.067141 -0.006641 1098760.000000 0 0 1
-22.701423 33.193503 18.939206 44.450610 -0.970950 1.130649 0.085520 -0.015672 888192.000000 0 0 1
-22.288123 -33.347156 17.901906 43.923473 0.981618 1.151005 0.094514 -0.015579 -23191.500000 0 0 1
-20.916323 -32.722256 18.234106 42.903627 1.002045 1.131833 0.100194 -0.021141 223198.000000 0 0 1
-21.063623 -31.637656 19.119806 42.546263 0.983410 1.104716 0.092161 -0.030560 -978798.000000 0 0 1
-19.822723 -31.138656 19.361706 41.682513 1.003902 1.087722 0.079412 -0.032393 -1240680.000000 0 0 1
-19.809923 -30.054056 20.464106 41.406026 0.988020 1.053847 0.072349 -0.022975 -172960.000000 0 0 1
-20.524123 -28.935856 20.092706 40.770580 0.953858 1.055464 0.085255 -0.026996 -72731.200000 0 0 1
-21.098223 -28.123256 21.105006 41.005778 0.927164 1.030158 0.094086 -0.019544 74461.800000 0 0 1
-21.818223 -26.820956 20.591306 40.241774 0.887892 1.033646 0.078689 -0.026615 -376424.000000 0 0 1
-21.076723 -25.750356 20.068506 38.859413 0.884875 1.028109 0.069005 -0.013860 -49752.900000 0 0 1
-21.848023 -24.579756 20.083706 38.533826 0.844169 1.022544 0.060554 -0.004489 13749.000000 0 0 1
-23.076923 -24.467656 19.153006 38.704627 0.814641 1.053134 0.060999 -0.010656 437704.000000 0 0 1
-24.332523 -25.036756 19.561506 40.019537 0.799662 1.060084 0.064680 -0.012484 654212.000000 0 0 1
-25.260123 -24.864056 18.512306 39.987505 0.777497 1.089473 0.055885 -0.006618 -307046.000000 0 0 1
-26.673513 -25.311956 18.981306 41.381897 0.759213 1.094280 0.066767 -0.018878 107555.000000 0 0 1
-26.900223 -26.731956 19.108106 42.465741 0.782261 1.104070 0.051342 -0.014226 11971.100000 0 0 1
-26.809863 -27.441756 17.884706 42.328258 0.797045 1.134568 0.040842 -0.018796 109456.000000 0 0 1
-28.068053 -28.368556 17.743806 43.674171 0.790723 1.152421 0.063569 -0.026593 479816.000000 0 0 1
-29.308463 -27.697356 17.757406 44.061945 0.757144 1.155993 0.072729 -0.037607 283100.000000 0 0 1
-30.295093 -28.642856 17.278906 45.130549 0.757372 1.177901 0.068175 -0.021589 230283.000000 0 0 1
-31.787753 -28.394656 17.495806 46.074081 0.729078 1.181290 0.073416 -0.023193 -45661.500000 0 0 1
-32.207303 -27.187256 16.833606 45.385323 0.701078 1.190814 0.084756 -0.025978 -412259.000000 0 0 1
-33.536233 -26.899856 17.179006 46.296862 0.676028 1.190644 0.118698 -0.009528 -336282.000000 0 0 1
-34.129261 -25.622656 16.558206 45.776644 0.643983 1.200687 0.144160 -0.039739 -172824.000000 0 0 1
-34.428287 -25.741456 15.180806 45.589323 0.642017 1.231323 0.152698 -0.055509 -21778.200000 0 0 1
-35.026753 -24.561156 14.688306 45.231296 0.611538 1.240062 0.144256 -0.051108 -261881.000000 0 0 1
-34.057856 -23.423956 14.283306 43.733649 0.602470 1.238095 0.141271 -0.048989 -68427.200000 0 0 1
-33.370093 -22.904656 15.399906 43.305236 0.601528 1.207226 0.131101 -0.035012 -156184.000000 0 0 1
-33.106793 -21.532856 15.324006 42.362115 0.576661 1.200664 0.112012 -0.029310 -861456.000000 0 0 1
-34.160238 -20.542756 15.741506 42.856991 0.541422 1.194689 0.130037 -0.035306 -880736.000000 0 0 1
-34.644016 -20.567956 17.011706 43.733817 0.535770 1.171269 0.121815 -0.021630 310541.000000 0 0 1
-35.367555 -19.392156 17.371006 43.916642 0.501540 1.164135 0.122233 -0.020075 -121003.000000 0 0 1
-35.866802 -19.303056 18.786006 44.854759 0.493729 1.138652 0.096999 -0.003872 -677542.000000 0 0 1
-37.019503 -19.994456 19.133506 46.220265 0.495215 1.143992 0.110220 0.002649 -71407.000000 0 0 1
-37.479853 -19.601256 20.417406 46.966148 0.481863 1.121062 0.112588 0.004137 -1429650.000000 0 0 1
37.505635 -19.906856 20.802106 47.283012 -0.487959 1.115255 0.127364 0.000770 -1154770.000000 0 0 1
37.137105 -21.261656 21.001306 47.668412 -0.519967 1.114562 0.127684 -0.016265 176225.000000 0 0 1
37.754375 -21.899156 22.131806 48.936517 -0.525616 1.101504 0.103000 -0.002702 -161678.000000 0 0 1
37.169355 -23.287656 22.575006 49.330587 -0.559698 1.095472 0.100886 0.002523 40612.400000 0 0 1
35.937345 -23.191156 23.251806 48.682327 -0.573080 1.072849 0.110078 -0.010359 42744.000000 0 0 1
35.512475 -24.313056 23.989206 49.272128 -0.600339 1.062292 0.102497 -0.021850 -467662.000000 0 0 1
34.557995 -24.051556 25.124006 49.030073 -0.608021 1.032795 0.116151 -0.020633 -905628.000000 0 0 1
33.221265 -24.088456 24.784106 47.939108 -0.627368 1.027464 0.115339 -0.012319 -516724.000000 0 0 1
32.326555 -24.002056 25.889206 47.868109 -0.638676 0.999355 0.074310 -0.015845 371934.000000 0 0 1
30.911865 -24.611756 25.749506 47.162687 -0.672414 0.993247 0.073081 -0.022210 -265702.000000 0 0 1
30.053665 -23.747956 25.075506 45.781756 -0.668727 0.991162 0.076307 -0.015211 40259.800000 0 0 1
28.809365 -24.420756 24.839406 45.203417 -0.703138 0.989027 0.070988 -0.010877 909192.000000 0 0 1
27.650565 -23.485356 24.353706 43.694607 -0.704124 0.979591 0.064493 -0.004116 256021.000000 0 0 1
27.843065 -22.928856 23.081606 42.822065 -0.688909 1.001533 0.054642 -0.000993 62275.300000 0 0 1
28.727665 -21.813956 22.950106 42.753185 -0.649450 1.004151 0.066172 0.003222 129979.000000 0 0 1
28.810665 -20.980256 21.671006 41.711606 -0.629410 1.024479 0.076741 0.004755 380613.000000 0 0 1
27.984565 -19.797556 21.665706 40.552213 -0.615706 1.007156 0.070023 -0.001351 128119.000000 0 0 1
27.872465 -19.224056 20.348606 39.503220 -0.603790 1.029657 0.046088 0.002112 37429.800000 0 0 1
26.743065 -18.162256 20.194006 38.116361 -0.596588 1.012433 0.038372 0.009150 122009.000000 0 0 1
26.977265 -16.845856 20.761506 37.981520 -0.558201 0.992472 0.064294 -0.017289 -104572.000000 0 0 1
27.046565 -16.810856 22.150806 38.791491 -0.556116 0.963046 0.072755 -0.011232 -398725.000000 0 0 1
26.987365 -15.416856 22.786506 38.538581 -0.519021 0.938170 0.084126 -0.004345 591071.000000 0 0 1
25.724465 -14.774456 22.594506 37.290004 -0.521334 0.919883 0.029042 -0.010688 312604.000000 0 0 1
25.810665 -13.540356 23.273206 37.298442 -0.483136 0.896980 0.034646 -0.013185 550918.000000 0 0 1
24.438265 -12.824056 23.165106 36.032032 -0.483253 0.872514 0.021949 -0.013826 298170.000000 0 0 1
23.356765 -13.455156 23.802306 35.960110 -0.522639 0.847434 0.042714 -0.013026 353795.000000 0 0 1
22.140365 -12.701156 23.607806 34.768429 -0.520831 0.824395 0.057060 -0.011451 1019870.000000 0 0 1
20.926265 -13.494556 24.184406 34.711628 -0.572755 0.799977 0.056398 -0.014138 122384.000000 0 0 1
20.663365 -14.718556 23.440506 34.540815 -0.618935 0.824898 0.065453 -0.017586 835845.000000 0 0 1
19.393065 -15.278856 23.829206 34.312760 -0.667289 0.803112 0.102246 -0.016702 811698.000000 0 0 1
18.921665 -16.400556 22.861306 33.906444 -0.714144 0.830852 0.114812 -0.025708 177887.000000 0 0 1
19.662565 -17.606656 23.003406 35.010963 -0.730290 0.853918 0.094646 -0.015962 372634.000000 0 0 1
19.236765 -18.612856 22.081606 34.699984 -0.768916 0.881029 0.119882 -0.020640 108058.000000 0 0 1
19.782865 -19.990556 22.571206 36.061662 -0.790620 0.894504 0.096891 -0.017449 -168649.000000 0 0 1
19.196065 -20.519856 23.769806 36.804308 -0.818717 0.868669 0.117024 -0.023962 396459.000000 0 0 1
19.659965 -21.810456 24.164306 38.027936 -0.837208 0.882224 0.109830 -0.021380 -316466.000000 0 0 1
19.240465 -23.019056 23.206706 37.929193 -0.874575 0.912408 0.114440 -0.027885 33416.300000 0 0 1
19.954565 -23.240256 21.999906 37.713261 -0.861319 0.947953 0.110903 -0.012562 -223762.000000 0 0 1
21.084965 -24.069056 22.091506 38.883542 -0.851389 0.966546 0.094849 -0.017553 -478878.000000 0 0 1
21.921765 -24.034156 20.827906 38.626495 -0.831331 1.001294 0.068487 -0.005877 -193836.000000 0 0 1
21.176265 -24.543056 19.699406 37.932340 -0.858906 1.024729 0.072436 -0.018512 890331.000000 0 0 1
22.018565 -24.892056 18.595906 38.082009 -0.846576 1.060642 0.067587 -0.006195 590333.000000 0 0 1
21.100065 -25.570156 17.513706 37.493673 -0.880887 1.084776 0.065493 -0.018668 347952.000000 0 0 1
20.552565 -26.746356 18.035706 38.249996 -0.915607 1.079781 0.088312 -0.034762 -69858.400000 0 0 1
19.883665 -27.380156 16.966206 37.853471 -0.942697 1.106037 0.096665 -0.038380 -169451.000000 0 0 1
18.953765 -28.528556 17.401006 38.417688 -0.984379 1.100733 0.102864 -0.032195 160629.000000 0 0 1
17.881065 -28.115456 18.226506 37.979164 -1.004335 1.070246 0.104712 -0.042869 106605.000000 0 0 1
17.138965 -29.142256 18.866906 38.716603 -1.039162 1.061792 0.117409 -0.046614 -105249.000000 0 0 1
15.819465 -28.653256 19.461606 38.079111 -1.066342 1.034351 0.112266 -0.039189 -36369.900000 0 0 1
14.837665 -28.365556 18.454206 36.950221 -1.088850 1.047851 0.116863 -0.042157 -459934.000000 0 0 1
13.675265 -27.863456 19.033206 36.409449 -1.114539 1.020717 0.092759 -0.042233 -603635.000000 0 0 1
12.625665 -27.554256 17.964506 35.233052 -1.141135 1.035755 0.108520 -0.045461 -381867.000000 0 0 1
12.211665 -28.705156 17.301406 35.671409 -1.168572 1.064408 0.099185 -0.046071 -134603.000000 0 0 1
11.686065 -28.334456 16.029906 34.588487 -1.179618 1.088916 0.140200 -0.044426 -16458.100000 0 0 1
11.338665 -29.539356 15.147606 35.079750 -1.204290 1.124304 0.126539 -0.043230 253948.000000 0 0 1
10.097865 -30.189956 15.402306 35.364267 -1.248016 1.120166 0.152399 -0.048006 97228.500000 0 0 1
9.903565 -31.117256 14.396006 35.687662 -1.262667 1.155579 0.126037 -0.040356 675724.000000 0 0 1
8.735865 -32.147856 14.631406 36.385135 -1.305463 1.156959 0.132732 -0.045533 815880.000000 0 0 1
9.072465 -32.996856 15.762406 37.676990 -1.302477 1.139161 0.144591 -0.046278 39170.400000 0 0 1
8.119765 33.358403 15.884806 37.829099 1.332030 1.137451 0.144881 -0.032503 151655.000000 0 0 1
8.525065 32.188903 16.860106 37.323791 1.311896 1.102098 0.148385 -0.037642 -237630.000000 0 0 1
9.620165 31.443403 16.358606 36.726546 1.273888 1.109157 0.120996 -0.037515 32680.500000 0 0 1
10.119565 30.497403 17.304206 36.495654 1.250411 1.076804 0.146312 -0.038706 -954541.000000 0 0 1
11.406165 29.871203 16.852106 36.143919 1.206038 1.085749 0.091485 -0.057178 -902341.000000 0 0 1
11.351165 28.894303 15.829806 34.846987 1.196468 1.099248 0.136558 -0.045150 -656371.000000 0 0 1
12.674765 28.507103 15.623606 34.891284 1.152427 1.106516 0.109647 -0.057915 -443966.000000 0 0 1
12.982565 27.508603 14.466006 33.682868 1.129843 1.126883 0.102087 -0.053385 191163.000000 0 0 1
12.500965 26.150903 14.628606 32.467522 1.124877 1.103402 0.119845 -0.048349 142330.000000 0 0 1
13.239465 25.327903 13.760006 31.719456 1.089136 1.122087 0.124040 -0.039479 -179931.000000 0 0 1
-9.540023 -8.949297 19.028282 23.090636 0.753459 0.602239 0.068964 -0.039154 -31716.400000 0 1 0
-9.590123 -9.255497 17.658782 22.123907 0.767644 0.646534 0.059085 -0.037280 196727.000000 0 1 0
-9.557023 -10.644597 17.468282 22.578419 0.839182 0.686181 0.069393 -0.042473 -252596.000000 0 1 0
-9.794123 -11.145097 16.035682 21.846764 0.849828 0.746593 0.062022 -0.030289 1410610.000000 0 1 0
-11.193923 -10.823597 15.739682 22.140274 0.768580 0.780009 0.077019 -0.040924 1782070.000000 0 1 0
-11.622923 -11.142697 14.435382 21.624807 0.764307 0.839899 0.085705 -0.047183 -51374.500000 0 1 0
-11.889023 -12.636397 14.149382 22.388220 0.815862 0.886664 0.073675 -0.047673 213107.000000 0 1 0
-10.668323 -13.345997 13.840982 21.988668 0.896443 0.889939 0.082905 -0.039464 809182.000000 0 1 0
-10.592323 -14.761297 14.054982 22.970322 0.948373 0.912366 0.097191 -0.042069 34530.300000 0 1 0
-10.260223 -15.201197 15.527982 24.030538 0.977073 0.868232 0.112878 -0.047794 -223612.000000 0 1 0
-11.375123 -14.989697 16.351182 24.928810 0.921647 0.855402 0.112116 -0.044922 -263950.000000 0 1 0
-11.147023 -14.965397 17.740682 25.747835 0.930597 0.810665 0.128847 -0.042313 -790646.000000 0 0 1
-12.356223 -14.568097 18.575882 26.645245 0.867366 0.799374 0.087606 -0.036786 -823000.000000 0 0 1
-12.591523 -13.182297 18.656382 26.084094 0.808316 0.773829 0.090562 -0.033787 740051.000000 0 0 1
-13.590923 -12.648397 17.753382 25.688084 0.749493 0.807768 0.104807 -0.042540 1969370.000000 0 0 1
-15.117123 -12.870397 18.169382 26.912840 0.705294 0.829670 0.069973 -0.033097 1129600.000000 0 0 1
-15.573323 -14.206897 18.281282 27.902859 0.739547 0.856381 0.080473 -0.031686 -954936.000000 0 0 1
-16.726823 -14.227497 19.011082 29.045301 0.704831 0.857233 0.082272 -0.030083 -1149740.000000 0 0 1
-17.120323 -15.622797 19.511082 30.296197 0.739694 0.871067 0.078205 -0.029445 -459095.000000 0 0 1
-17.992523 -16.256997 18.630282 30.579539 0.734768 0.915694 0.080506 -0.026774 -244366.000000 0 0 1
-18.475423 -17.466297 19.149282 31.829354 0.757329 0.925265 0.077948 -0.037298 -630940.000000 0 0 1
-19.800323 -17.867497 18.516782 32.468006 0.734131 0.963915 0.086725 -0.029956 -684288.000000 0 0 1
-19.786223 -18.080997 17.110682 31.799253 0.740397 1.002634 0.097559 -0.034910 -31913.700000 0 0 1
-20.277123 -16.990397 16.370482 31.109933 0.697433 1.016654 0.094036 -0.034415 -404652.000000 0 0 1
-19.977423 -17.099997 14.845582 30.197659 0.707948 1.056854 0.109196 -0.041204 -208505.000000 0 0 1
-20.596523 -18.207497 14.247882 30.963395 0.723909 1.092629 0.119952 -0.041832 171693.000000 0 0 1
-20.244423 -18.241597 12.864882 30.134659 0.733405 1.129720 0.143674 -0.043770 118359.000000 0 0 1
-20.583123 -19.613897 12.233382 30.951987 0.761291 1.164470 0.157361 -0.045802 -192866.000000 0 0 1
-19.766823 -20.683397 12.644082 31.279434 0.808054 1.154660 0.151857 -0.044656 104058.000000 0 0 1
-19.951523 -21.857797 11.832482 31.872153 0.830961 1.190443 0.131111 -0.028375 -254342.000000 0 0 1
-18.984623 -22.938497 12.399682 32.254343 0.879433 1.176201 0.122558 -0.022031 185714.000000 0 0 1
-18.857323 -24.124897 11.600082 32.744025 0.907342 1.208668 0.140141 -0.039717 194628.000000 0 0 1
-17.858123 -23.964997 10.599982 31.711090 0.930390 1.229969 0.135114 -0.037156 -216894.000000 0 0 1
-18.141523 -24.959597 9.460982 32.273929 0.942286 1.273280 0.150383 -0.045963 -54781.000000 0 0 1
-19.377823 -24.795397 8.816382 32.680886 0.907433 1.297640 0.124571 -0.041206 -538679.000000 0 0 1
-19.525823 -25.774867 7.808682 33.265252 0.922479 1.333845 0.153660 -0.053192 406100.000000 0 0 1
-20.827623 -25.618467 6.971682 33.744630 0.888183 1.362696 0.132905 -0.054235 399894.000000 0 0 1
-20.915223 -24.417697 6.148682 32.733419 0.862506 1.381833 0.157196 -0.059200 -682255.000000 0 0 1
-22.003723 -24.440797 5.290982 33.309321 0.837823 1.411277 0.166892 -0.058255 -476606.000000 0 0 1
-22.229123 -23.050797 4.630182 32.356015 0.803543 1.427202 0.182187 -0.056812 379197.000000 0 0 1
-23.220223 -23.129597 3.596982 32.971128 0.783443 1.461484 0.188583 -0.064946 466168.000000 0 0 1
-23.183523 -21.992797 2.733682 32.072291 0.759047 1.485458 0.184625 -0.049678 29458.800000 0 0 1
-23.757623 -22.182197 1.314882 32.530038 0.751118 1.530365 0.171447 -0.048246 -136587.000000 0 0 1
-22.978223 -23.016997 0.493882 32.527293 0.786241 1.555612 0.180738 -0.060681 36731.000000 0 0 1
-22.980023 -22.701897 -0.863118 32.314123 0.779310 1.597510 0.153744 -0.057437 -355097.000000 0 0 1
-22.002823 -23.530297 -1.697618 32.259587 0.818932 1.623444 0.166047 -0.053994 -517972.000000 0 0 1
-20.630923 -23.276997 -1.550318 31.142528 0.845590 1.620598 0.168479 -0.054586 -17340.000000 0 0 1
-19.752423 -23.766297 -2.583418 31.010790 0.877371 1.654200 0.148845 -0.043108 432404.000000 0 0 1
-19.617023 -25.294507 -2.874018 32.138756 0.911146 1.660341 0.161766 -0.040386 -1193070.000000 0 0 1
-20.742023 -26.002257 -3.257918 33.420995 0.897459 1.668433 0.216019 -0.056278 -869940.000000 0 0 1
-20.341623 -27.270867 -3.655418 34.217596 0.929918 1.677829 0.208924 -0.050443 160422.000000 0 0 1
-21.535223 -28.130707 -4.195918 35.675036 0.917423 1.688684 0.203109 -0.056585 253625.000000 0 0 1
-21.996023 -27.666827 -5.406918 35.756301 0.899092 1.722594 0.186551 -0.046322 -102276.000000 0 0 1
-22.673623 -28.704507 -6.089618 37.082682 0.902246 1.735761 0.190142 -0.068142 105429.000000 0 0 1
-23.412123 -28.298187 -7.397518 37.465159 0.879608 1.769553 0.187852 -0.029171 73096.600000 0 0 1
-22.498123 -27.856167 -8.386618 36.775901 0.891406 1.800867 0.218615 -0.030169 198802.000000 0 0 1
-23.024423 -27.748697 -9.698918 37.338763 0.878178 1.833564 0.212605 -0.019513 -252480.000000 0 0 1
-24.058223 -26.677937 -9.962318 37.279460 0.836986 1.841317 0.187479 -0.010513 -264361.000000 0 0 1
-23.423223 -25.466137 -10.340318 36.112237 0.827160 1.861199 0.184068 -0.012220 385299.000000 0 0 1
-23.022423 -24.624497 -9.262418 34.959836 0.819009 1.838943 0.173142 -0.012871 2682.870000 0 0 1
-22.707423 -23.195397 -9.785718 33.903005 0.796028 1.863601 0.150738 -0.017082 217980.000000 0 0 1
-23.826623 -22.474697 -10.266918 34.325348 0.756208 1.874552 0.155092 -0.019524 222070.000000 0 0 1
-23.473023 -21.144497 -10.311018 33.232358 0.733257 1.886274 0.146090 -0.018957 -105300.000000 0 0 1
-24.741323 -20.292897 -10.290618 33.612967 0.686939 1.881943 0.161552 -0.020105 102573.000000 0 0 1
-25.556933 -20.578597 -11.475918 34.761072 0.677907 1.907245 0.145584 -0.014127 198596.000000 0 0 1
-26.755503 -19.868697 -11.584318 35.281985 0.638750 1.905337 0.129784 -0.016650 -346269.000000 0 0 1
-26.719183 -18.334997 -11.808218 34.489431 0.601412 1.920237 0.135961 -0.036359 -612841.000000 0 0 1
-25.826153 -17.908797 -12.869318 33.960779 0.606307 1.959454 0.150227 -0.029648 727141.000000 0 0 1
-25.536873 -16.531197 -12.853518 33.024616 0.574507 1.970570 0.152071 -0.043980 -75854.000000 0 0 1
-24.636023 -15.988597 -11.716318 31.620262 0.575667 1.950378 0.149201 -0.038994 -595891.000000 0 0 1
-25.224383 -16.041597 -10.438618 31.663339 0.566439 1.906756 0.174261 -0.038731 -99952.200000 0 0 1
-24.301123 -16.180397 -9.416218 30.675967 0.587423 1.882791 0.170747 -0.041536 -104520.000000 0 0 1
-25.095103 -16.590697 -8.140818 31.165499 0.584148 1.835074 0.150228 -0.048552 315917.000000 0 0 1
-25.700093 -17.901197 -8.236018 32.384867 0.608401 1.827938 0.147072 -0.036305 392428.000000 0 0 1
-26.678573 -18.111097 -7.238218 33.047691 0.596399 1.791610 0.140582 -0.022128 270505.000000 0 0 1
-27.350173 -19.500297 -7.109918 34.334304 0.619388 1.779385 0.139956 -0.017945 -86965.900000 0 0 1
-28.136733 -19.831097 -8.204518 35.387317 0.613948 1.804774 0.131234 -0.022979 -175073.000000 0 0 1
-28.643663 -21.152997 -8.184418 36.536193 0.636093 1.796722 0.131615 -0.015843 444843.000000 0 0 1
-27.598333 -22.259797 -8.588018 36.481784 0.678730 1.808432 0.111184 -0.008164 312894.000000 0 0 1
-28.098673 -23.535997 -8.420618 37.608315 0.697263 1.796614 0.138469 -0.008921 -227088.000000 0 0 1
-27.126883 -24.538797 -8.633618 37.584035 0.735347 1.802581 0.126334 -0.001500 268407.000000 0 0 1
-27.697243 -25.923547 -8.151418 38.802231 0.752332 1.782449 0.132709 -0.020311 257932.000000 0 0 1
-27.464263 -26.270567 -6.783818 38.606328 0.763187 1.747431 0.175703 -0.053980 114865.000000 0 0 1
-27.913483 -27.607367 -6.557118 39.803580 0.779885 1.736288 0.165943 -0.053565 -11325.800000 0 0 1
-27.900413 -28.073727 -5.066018 39.902778 0.788494 1.698099 0.191528 -0.073194 -924955.000000 0 0 1
-28.996443 -27.589747 -4.381918 40.263991 0.760544 1.679842 0.158294 -0.069176 -536591.000000 0 0 1
-29.086123 -28.150047 -3.034518 40.591082 0.769045 1.645624 0.161373 -0.065390 -194756.000000 0 0 1
-29.518803 -29.585337 -2.921218 41.894932 0.786524 1.640580 0.139617 -0.044255 -1204240.000000 0 0 1
-28.513093 -30.427627 -3.417618 41.839180 0.817869 1.652572 0.193658 -0.072085 -110610.000000 0 0 1
-28.232873 -31.477527 -2.463118 42.355599 0.839685 1.628982 0.167534 -0.073794 30452.100000 0 0 1
-27.352463 -30.972087 -1.264518 41.340372 0.847379 1.601389 0.174003 -0.073025 56238.800000 0 0 1
-26.021253 -30.612537 -1.637318 40.210867 0.866291 1.611526 0.182137 -0.081044 85310.200000 0 0 1
-25.269183 -30.367757 -0.491818 39.509165 0.876783 1.583245 0.241854 -0.069680 283066.000000 0 0 1
-24.088223 -29.385097 -0.786218 38.004533 0.884132 1.591485 0.248831 -0.065533 447113.000000 0 0 1
-24.494123 -28.048757 -0.828218 37.247560 0.852947 1.593034 0.200229 -0.081569 -124466.000000 0 0 1
-24.998063 -27.547947 -2.047518 37.255668 0.833887 1.625783 0.242061 -0.094725 263555.000000 0 0 1
-25.707403 -26.137047 -2.061518 36.718736 0.793685 1.626969 0.132596 -0.066837 639956.000000 0 0 1
-26.953083 -26.194747 -1.373318 37.610097 0.771131 1.607319 0.163546 -0.070842 66395.800000 0 0 1
-27.446113 -24.916097 -0.915418 37.080169 0.737118 1.595486 0.172198 -0.092143 344434.000000 0 0 1
-26.793153 -24.275197 0.347282 36.156311 0.736132 1.561191 0.172595 -0.069706 15251.500000 0 0 1
-27.232143 -25.011807 1.499882 37.005806 0.742924 1.530254 0.142852 -0.073815 173908.000000 0 0 1
-26.662863 -24.569597 2.702782 36.357645 0.744563 1.496389 0.155826 -0.057919 344533.000000 0 0 1
-27.690363 -23.595597 3.346082 36.533609 0.705725 1.479079 0.178437 -0.061654 48667.900000 0 0 1
-27.724873 -22.395597 2.541682 35.730819 0.679467 1.499602 0.178361 -0.056911 -173941.000000 0 0 1
-28.428873 -21.297397 3.071482 35.654087 0.642955 1.484543 0.157365 -0.045641 -126508.000000 0 0 1
-28.163453 -20.087297 2.149682 34.659785 0.619557 1.508734 0.152690 -0.036135 589818.000000 0 0 1
-26.849153 -19.564797 2.301182 33.300956 0.629725 1.501639 0.162169 -0.035043 174466.000000 0 0 1
-26.441353 -18.864497 1.171482 32.502103 0.619694 1.534745 0.136887 -0.029326 -409880.000000 0 0 1
-25.163263 -18.080097 1.404582 31.016972 0.623042 1.525497 0.159590 -0.023354 -202088.000000 0 0 1
-23.953823 -18.797197 1.191882 30.471967 0.665358 1.531672 0.167044 -0.040516 441950.000000 0 0 1
-22.844323 -17.935897 1.449682 29.080252 0.665611 1.520925 0.159043 -0.030707 293330.000000 0 0 1
-21.491123 -18.674597 1.360382 28.503676 0.715390 1.523052 0.138253 -0.039720 -53458.900000 0 0 1
-21.194923 -19.121697 -0.005718 28.545824 0.734020 1.570997 0.083318 -0.035951 155798.000000 0 0 1
-20.053823 -19.942097 -0.078118 28.281604 0.782605 1.573558 0.120306 -0.039653 -101016.000000 0 0 1
-19.608523 -20.298297 -1.533518 28.264230 0.802681 1.625079 0.123586 -0.041774 316452.000000 0 0 1
-18.826023 -19.340497 -2.276618 27.086102 0.798877 1.654947 0.131154 -0.044685 404998.000000 0 0 1
-18.728623 -19.700297 -3.617218 27.421657 0.810678 1.703093 0.141302 -0.041567 31128.700000 0 0 1
-17.804223 -18.863297 -4.566218 26.337514 0.814273 1.745050 0.150227 -0.022875 303711.000000 0 0 1
-16.443423 -19.125097 -4.273518 25.581603 0.860650 1.738638 0.158186 -0.026651 263574.000000 0 0 1
-15.616623 -18.390997 -5.161718 24.672880 0.866799 1.781559 0.150499 -0.022213 645329.000000 0 1 0
-14.066723 -18.301997 -4.994718 23.617429 0.915504 1.783890 0.153019 -0.033757 942283.000000 0 1 0
-13.334823 -19.495997 -5.323818 24.212691 0.970905 1.792485 0.118029 -0.032218 -294064.000000 0 1 0
-11.967023 -19.228297 -5.429818 23.289911 1.014094 1.806102 0.118902 -0.040060 -478340.000000 0 1 0
-11.039223 -20.419697 -5.491818 23.853480 1.075186 1.803112 0.124110 -0.042788 -179980.000000 0 1 0
-11.272623 -21.218197 -6.658718 24.932357 1.082446 1.841149 0.112430 -0.036678 -222601.000000 0 1 0
-10.110523 -21.888997 -7.075618 25.127977 1.138091 1.856240 0.115627 -0.027146 -56771.200000 0 0 1
-10.288223 -23.003397 -8.134518 26.479693 1.150233 1.883044 0.111447 -0.010846 -633963.000000 0 0 1
-11.022923 -22.606697 -9.211018 26.784518 1.117122 1.921856 0.088927 -0.021914 -348558.000000 0 0 1
-11.055323 -23.641297 -10.119118 27.991563 1.133380 1.940679 0.114748 -0.020193 145660.000000 0 0 1
-11.717023 -23.227897 -11.451118 28.424495 1.103605 1.985437 0.144312 -0.031006 218723.000000 0 0 1
-10.880323 -22.388297 -12.263318 27.748986 1.118425 2.028554 0.137463 -0.028269 290192.000000 0 0 1
-11.504623 -22.087797 -13.491318 28.323890 1.090601 2.067264 0.141275 -0.030630 -243305.000000 0 0 1
-10.926123 -20.817397 -14.140018 27.435092 1.087463 2.112269 0.118315 -0.023387 -89799.500000 0 0 1
-11.136523 -19.759397 -13.264818 26.275679 1.057567 2.099984 0.122191 -0.025300 -99013.800000 0 0 1
-10.635023 -18.566297 -13.805518 25.463767 1.050607 2.143806 0.098123 -0.009442 -168497.000000 0 0 1
-10.529223 -17.603297 -12.638118 24.092792 1.031746 2.122995 0.106782 -0.007248 -675974.000000 0 1 0
-11.756323 -17.301997 -12.041318 24.136353 0.973977 2.093111 0.134941 -0.017503 -535498.000000 0 1 0
-11.796823 -16.149697 -11.175818 22.910186 0.939914 2.080376 0.140763 -0.029234 212216.000000 0 1 0
-11.356023 -14.773797 -11.798318 22.055036 0.915460 2.135244 0.136213 -0.015932 249198.000000 0 1 0
-12.372323 -14.315897 -12.650418 22.760763 0.858095 2.160121 0.125811 0.006114 252861.000000 0 1 0
-11.743623 -13.873797 -13.840918 22.846573 0.868361 2.221593 0.107327 -0.005055 -33982.200000 0 1 0
-12.708423 -13.050297 -14.741818 23.433639 0.798670 2.251176 0.093397 0.000460 180993.000000 0 1 0
-12.867223 -11.692197 -14.339518 22.536518 0.737590 2.260462 0.082343 -0.002084 -79713.000000 0 1 0
-13.818623 -10.987097 -15.116418 23.241702 0.671742 2.278908 0.092900 -0.018968 -25582.400000 0 1 0
-13.964623 -9.515397 -14.595318 22.328833 0.598129 2.283198 0.089819 -0.024756 622716.000000 0 1 0
-12.770523 -8.717797 -14.703018 21.336939 0.598986 2.331025 0.070440 -0.021392 498884.000000 0 1 0
-12.764623 -7.851497 -15.859618 21.819924 0.551447 2.384508 0.080077 -0.025133 -178298.000000 0 1 0
-11.630023 -6.793897 -15.799018 20.761104 0.528698 2.435636 0.046313 -0.015271 107777.000000 0 1 0
-10.390423 -7.473697 -15.817118 20.346947 0.623553 2.461271 0.033626 -0.018076 -7737.710000 0 1 0
-9.339223 -6.613497 -15.416118 19.199378 0.616170 2.503022 0.009241 -0.010840 -110443.000000 0 1 0
12.096377 22.199403 15.811082 29.818219 1.071880 1.011902 0.116003 -0.032874 -149392.000000 0 0 1
12.927477 22.053103 16.928482 30.659950 1.040587 0.985872 0.137020 -0.043794 -25638.200000 0 0 1
13.281077 20.713803 17.278582 30.066560 1.000653 0.958586 0.121237 -0.039371 10193.500000 0 0 1
14.414877 20.646003 18.346082 31.154853 0.961285 0.941139 0.120364 -0.040745 393568.000000 0 0 1
15.630077 21.140903 17.791982 31.745736 0.934160 0.975864 0.105892 -0.031758 123983.000000 0 0 1
16.721177 20.695603 18.599882 32.463231 0.891222 0.960693 0.125367 -0.038998 655103.000000 0 0 1
18.142377 20.999203 18.041682 33.100071 0.858256 0.994330 0.097243 -0.021598 -493245.000000 0 0 1
18.383177 22.400503 18.162382 34.199355 0.883585 1.010929 0.105017 -0.030248 441861.000000 0 0 1
19.654277 22.828703 17.663982 34.920718 0.859982 1.040451 0.109004 -0.025312 1271400.000000 0 0 1
20.941077 22.358103 18.429682 35.750059 0.818113 1.029188 0.107417 -0.024502 -172434.000000 0 0 1
21.311877 21.057403 18.151582 35.029848 0.779392 1.026081 0.127316 -0.015807 246157.000000 0 0 1
22.616077 20.775603 18.654482 35.931913 0.743008 1.024926 0.156837 -0.017403 180858.000000 0 0 1
23.093377 19.342903 18.313182 35.253718 0.697248 1.024568 0.159466 -0.028311 -296357.000000 0 0 1
23.320377 19.196703 16.927182 34.624889 0.688712 1.059999 0.133767 -0.031818 19274.700000 0 0 1
23.325277 17.797603 16.560582 33.690891 0.651781 1.056934 0.131879 -0.026540 -109608.000000 0 0 1
24.412077 16.774103 16.969082 34.136049 0.602031 1.050541 0.130930 -0.037146 590382.000000 0 0 1
25.632177 16.794003 16.192182 34.658820 0.580017 1.084689 0.150709 -0.050281 1026420.000000 0 0 1
26.443677 15.672403 16.559982 34.915975 0.535013 1.076649 0.127328 -0.030911 -1091020.000000 0 0 1
27.767077 15.749303 15.819682 35.627426 0.515948 1.110704 0.238854 -0.062364 -1302960.000000 0 0 1
28.610877 16.791103 16.272082 36.950022 0.530715 1.114774 0.211365 -0.057392 349462.000000 0 0 1
29.475277 16.578403 17.381482 38.023037 0.512352 1.096030 0.212319 -0.055421 -644534.000000 0 0 1
30.664977 15.657503 17.085882 38.437295 0.472091 1.110166 0.196701 -0.066797 -1486910.000000 0 0 1
31.524577 16.267703 16.185182 38.992272 0.476391 1.142758 0.240145 -0.052932 -374453.000000 0 0 1
32.298577 15.318503 15.476582 38.953552 0.442859 1.162214 0.233379 -0.049552 164728.000000 0 0 1
31.723777 14.947803 14.057482 37.781579 0.440332 1.189556 0.215316 -0.051896 -4256.210000 0 0 1
31.990677 15.946403 13.047682 38.051718 0.462423 1.220801 0.200865 -0.039752 318631.000000 0 0 1
31.317777 15.708703 11.780982 36.964281 0.464919 1.246425 0.207250 -0.038675 1244740.000000 0 0 1
29.884277 16.371203 11.675482 36.019484 0.501168 1.240690 0.203762 -0.054619 618100.000000 0 0 1
29.783977 17.805303 11.486982 36.552221 0.538811 1.251117 0.204635 -0.051423 123175.000000 0 0 1
30.327277 18.711503 12.496082 37.762629 0.552816 1.233527 0.232008 -0.056326 -209968.000000 0 0 1
29.727777 18.606703 13.924182 37.733712 0.559248 1.192851 0.235992 -0.058575 1167720.000000 0 0 1
28.398377 19.205603 13.775982 36.947269 0.594637 1.188712 0.245300 -0.057330 1310760.000000 0 0 1
27.628577 19.303403 14.951382 36.871445 0.609836 1.153270 0.209378 -0.061726 -271600.000000 0 0 1
28.029277 20.342903 16.022782 38.160236 0.627815 1.137481 0.188612 -0.059159 -546688.000000 0 0 1
27.681877 21.695803 15.722482 38.525195 0.664757 1.150414 0.166972 -0.046558 125639.000000 0 0 1
26.376077 22.116603 16.033182 37.972418 0.697786 1.134890 0.152852 -0.045664 -246620.000000 0 0 1
25.969977 23.519003 15.536082 38.326924 0.735913 1.153427 0.146029 -0.033248 -343159.000000 0 0 1
25.722477 23.665903 14.168882 37.715753 0.743781 1.185671 0.152491 -0.047080 260342.000000 0 0 1
25.928377 25.061003 13.777882 38.602651 0.768389 1.205833 0.153304 -0.042407 -304846.000000 0 0 1
25.599877 25.295203 12.330582 38.042664 0.779412 1.240710 0.144632 -0.045774 254517.000000 0 0 1
24.251977 25.029603 11.964182 36.848081 0.801176 1.240113 0.131772 -0.029916 457489.000000 0 0 1
24.079277 24.854303 10.547682 36.177363 0.801235 1.274945 0.101210 -0.045385 -409998.000000 0 0 1
23.312477 23.565203 10.221282 34.688111 0.790789 1.271694 0.112399 -0.047722 -1227440.000000 0 0 1
21.967377 23.720703 10.565682 34.012807 0.823755 1.254932 0.106090 -0.036935 -590362.000000 0 0 1
21.353077 22.506103 10.970982 32.906550 0.811681 1.230891 0.134932 -0.040155 190199.000000 0 0 1
20.923377 21.458703 9.939882 31.576335 0.798028 1.250562 0.149774 -0.050771 -107646.000000 0 0 1
19.966677 21.804603 8.909282 30.878540 0.829370 1.278109 0.138452 -0.045038 540692.000000 0 0 1
20.506077 22.633203 7.917382 31.550690 0.834667 1.317143 0.125149 -0.037758 -127771.000000 0 0 1
19.522477 22.974303 6.764682 30.898328 0.866446 1.350075 0.120867 -0.031257 -133570.000000 0 0 1
19.020177 21.817103 6.056482 29.570832 0.853781 1.364524 0.123407 -0.024991 769551.000000 0 0 1
18.265477 21.984203 4.839982 28.988934 0.877528 1.403051 0.148212 -0.035679 924648.000000 0 0 1
16.881377 22.744003 4.881982 28.742031 0.932284 1.400114 0.118969 -0.020351 492695.000000 0 0 1
16.978477 24.145103 5.103682 29.955004 0.957936 1.399583 0.112937 -0.026368 -617368.000000 0 0 1
15.733277 24.634303 5.441182 29.731993 1.002425 1.386751 0.102345 -0.024912 -734446.000000 0 0 1
15.621877 26.165103 5.267882 30.925819 1.032549 1.399622 0.096494 -0.027099 -328651.000000 0 0 1
15.028577 26.314703 4.024682 30.569917 1.051891 1.438758 0.091078 -0.018665 135496.000000 0 0 1
14.851377 27.704703 3.790982 31.662052 1.078719 1.450776 0.096909 -0.017438 -408177.000000 0 0 1
14.302177 27.993503 2.392182 31.526355 1.098458 1.494845 0.093693 -0.017427 -198484.000000 0 0 1
15.123377 27.600403 1.307582 31.499343 1.069536 1.529273 0.121579 -0.025913 243135.000000 0 0 1
14.535677 26.539703 0.562582 30.264803 1.069724 1.552207 0.102921 -0.019242 44469.200000 0 0 1
15.567677 25.935003 -0.397318 30.251196 1.030188 1.583931 0.098348 -0.027664 110536.000000 0 0 1
15.733877 26.786303 -1.494018 31.101335 1.039704 1.618852 0.091794 -0.014234 290118.000000 0 0 1
16.812477 26.368803 -2.338018 31.359839 1.003195 1.645420 0.101751 -0.012476 349197.000000 0 0 1
16.715477 27.015303 -3.759418 31.990108 1.016710 1.688587 0.117089 -0.029713 403013.000000 0 0 1
15.618677 26.609703 -4.582918 31.193309 1.040025 1.718250 0.133010 -0.032735 -71737.100000 0 0 1
15.821877 26.966103 -5.943618 31.824977 1.040190 1.758659 0.134431 -0.029247 -43605.900000 0 0 1
14.646077 26.773703 -6.905118 31.289286 1.070235 1.793314 0.151686 -0.042761 -108923.000000 0 0 1
14.337277 25.416103 -7.194118 30.054803 1.057191 1.812510 0.144867 -0.038021 -269384.000000 0 0 1
13.171577 25.406703 -7.985418 29.711243 1.092514 1.842910 0.118576 -0.048442 -60655.200000 0 0 1
12.534077 24.017503 -8.223418 28.311979 1.089804 1.865501 0.138861 -0.041319 -528831.000000 0 0 1
13.318177 23.179503 -9.056718 28.225651 1.049288 1.897443 0.133964 -0.042823 -89359.800000 0 0 1
12.718477 21.974303 -9.499218 27.108390 1.046119 1.928812 0.148006 -0.041656 -479358.000000 0 0 1
13.506877 21.307403 -10.557318 27.347726 1.005819 1.967131 0.150833 -0.042815 -628367.000000 0 0 1
12.812577 20.225203 -11.109518 26.393984 1.006111 2.005246 0.177348 -0.051679 -349725.000000 0 0 1
13.058977 20.007803 -12.476118 26.953712 0.992529 2.052029 0.167315 -0.049016 178418.000000 0 0 1
14.342577 19.216503 -12.845018 27.202537 0.929624 2.062580 0.177715 -0.044303 -227604.000000 0 0 1
15.496477 19.982103 -12.653118 28.275903 0.911163 2.034750 0.143271 -0.034133 -1145570.000000 0 0 1
16.539977 19.243603 -13.200518 28.603161 0.860810 2.050488 0.138448 -0.031233 291611.000000 0 0 1
17.952777 19.942803 -13.232418 29.918464 0.837863 2.028939 0.141401 -0.026473 566549.000000 0 0 1
18.219577 21.047603 -14.068318 31.190899 0.857294 2.038726 0.136208 -0.027405 -256844.000000 0 0 1
17.489177 22.242703 -13.833018 31.495421 0.904472 2.025512 0.135347 -0.025799 -323653.000000 0 0 1
18.033177 23.521803 -14.453918 32.975544 0.916719 2.024528 0.131098 -0.027126 -183547.000000 0 0 1
18.039577 23.667303 -15.880918 33.730864 0.919523 2.061008 0.128349 -0.019119 431565.000000 0 0 1
16.775277 23.726903 -16.577118 33.454099 0.955378 2.089228 0.121806 -0.012754 670837.000000 0 0 1
16.853777 23.829203 -18.133518 34.361392 0.955205 2.126722 0.117871 -0.006033 136057.000000 0 0 1
17.339677 22.597303 -18.661818 34.052401 0.916293 2.150806 0.126392 -0.008156 -198069.000000 0 0 1
17.175877 22.570203 -20.052218 34.734943 0.920294 2.186205 0.123242 -0.002819 -6239.020000 0 0 1
17.521577 21.268603 -20.744118 34.491703 0.881697 2.216078 0.133538 -0.003850 54429.100000 0 0 1
16.566377 20.239303 -20.551018 33.262871 0.884861 2.236785 0.139456 -0.010174 -71361.600000 0 0 1
16.685977 19.240603 -21.526018 33.346546 0.856386 2.272506 0.132968 -0.009874 286451.000000 0 0 1
15.448777 18.300603 -21.584618 32.240852 0.869698 2.304305 0.134849 -0.018723 -227170.000000 0 0 1
15.229277 17.504003 -20.453818 30.930239 0.854779 2.293332 0.134178 -0.017830 447638.000000 0 0 1
14.154777 16.559203 -20.577718 29.966772 0.863523 2.327715 0.116057 -0.022515 485962.000000 0 0 1
12.700577 17.045503 -20.488918 29.523713 0.930440 2.337801 0.126780 -0.028735 -226646.000000 0 0 1
12.072777 16.979903 -19.201318 28.333014 0.952723 2.315428 0.124904 -0.035259 -201745.000000 0 0 1
10.702177 17.292203 -19.308818 28.042599 1.016594 2.330288 0.131214 -0.044228 -258908.000000 0 0 1
10.010177 16.851303 -18.022418 26.626634 1.034778 2.314281 0.158096 -0.045192 -544376.000000 0 0 1
9.776377 15.466403 -17.814018 25.536766 1.007105 2.342815 0.172663 -0.070260 -154171.000000 0 0 1
8.473977 15.019403 -18.104018 25.002925 1.057115 2.380490 0.182477 -0.051434 201735.000000 0 0 1
7.410477 15.159403 -16.972818 23.933225 1.116119 2.359122 0.174241 -0.055391 158337.000000 0 1 0
7.077177 16.500203 -16.667518 24.497945 1.165615 2.319055 0.189017 -0.051023 -417630.000000 0 1 0
6.576577 16.541403 -15.337718 23.497127 1.192375 2.282003 0.160958 -0.062113 -159091.000000 0 1 0
6.327977 18.045803 -14.934018 24.263537 1.233532 2.233807 0.133307 -0.052338 -110325.000000 0 1 0
7.431477 18.917503 -14.758318 25.117857 1.196481 2.198840 0.134895 -0.048654 -267858.000000 0 0 1
8.087277 19.301303 -15.963718 26.320803 1.174017 2.222455 0.139588 -0.037919 1226880.000000 0 0 1
9.391277 20.233703 -15.793718 27.332039 1.136246 2.186884 0.131450 -0.023477 1430060.000000 0 0 1
9.192577 21.400503 -15.020118 27.714418 1.165078 2.143564 0.106620 -0.031199 -202114.000000 0 0 1
8.880477 21.266603 -13.678218 26.799719 1.175228 2.106431 0.122829 -0.045134 -174792.000000 0 0 1
8.768077 22.638203 -12.908718 27.495499 1.201274 2.059503 0.106846 -0.040435 831638.000000 0 0 1
7.574577 23.433403 -13.246018 27.963469 1.258158 2.064272 0.086713 -0.034719 993004.000000 0 0 1
7.102477 24.372703 -12.290418 28.205110 1.287238 2.021669 0.077629 -0.040375 -73439.600000 0 0 1
6.597077 23.747203 -11.007818 26.993021 1.299825 1.990842 0.064035 -0.042998 -489115.000000 0 0 1
7.626777 23.223103 -10.199918 26.486196 1.253480 1.966116 0.060748 -0.038132 -2479.440000 0 0 1
7.032277 22.699103 -9.061718 25.432596 1.270369 1.935105 0.069651 -0.045559 457123.000000 0 0 1
8.155977 22.617303 -7.997818 25.338261 1.224703 1.891929 0.069203 -0.043811 412540.000000 0 0 1
8.431477 23.895503 -7.574818 26.447358 1.231587 1.861275 0.068766 -0.040653 443071.000000 0 0 1
9.475977 23.929403 -6.590218 26.567677 1.193745 1.821467 0.072985 -0.036044 -21972.900000 0 0 1
9.694977 25.354703 -5.990918 27.798285 1.205577 1.788014 0.046325 -0.032523 -278525.000000 0 0 1
10.185077 26.235403 -6.914618 28.980064 1.200487 1.811719 0.065669 -0.043456 -219595.000000 0 0 1
10.286177 27.471903 -6.294618 30.002219 1.212530 1.782172 0.063585 -0.032586 81388.400000 0 0 1
10.611777 28.672103 -7.222918 31.414485 1.216321 1.802795 0.074248 -0.027036 165181.000000 0 0 1
11.971477 28.614703 -7.598918 31.935264 1.174556 1.811048 0.082598 -0.029542 -272382.000000 0 0 1
12.314177 29.838103 -8.266118 33.320866 1.179390 1.821490 0.092757 -0.028988 -28244.100000 0 0 1
13.746777 29.823603 -8.801418 33.998326 1.138885 1.832657 0.109641 -0.038164 165114.000000 0 0 1
14.785577 30.136703 -7.890018 34.483135 1.114683 1.801649 0.102599 -0.029714 -740852.000000 0 0 1
15.947077 30.500403 -8.553218 35.464650 1.089038 1.814374 0.109145 -0.028678 -351675.000000 0 0 1
17.171377 30.665603 -7.633118 35.965260 1.060342 1.784659 0.104288 -0.024942 -57723.400000 0 0 1
17.751577 29.441303 -7.112618 35.106953 1.028212 1.774807 0.102705 -0.028550 682982.000000 0 0 1
18.973877 29.858803 -6.458418 35.962026 1.004715 1.751366 0.092660 -0.016859 1516370.000000 0 0 1
20.039377 28.687603 -6.246818 35.546842 0.961052 1.747448 0.080584 -0.013032 514585.000000 0 0 1
19.727877 27.813503 -5.199118 34.493636 0.953862 1.722100 0.105141 -0.023544 429928.000000 0 0 1
20.820177 26.960703 -4.832318 34.405096 0.913212 1.711716 0.099552 -0.019234 356244.000000 0 0 1
21.114277 25.762303 -5.760718 33.803770 0.884230 1.742049 0.107033 -0.010300 -239670.000000 0 0 1
21.590777 26.185403 -7.065718 34.666430 0.881273 1.776055 0.082603 -0.005467 331853.000000 0 0 1
21.570877 25.073003 -7.938818 34.014454 0.860340 1.806364 0.088721 -0.013433 -627612.000000 0 0 1
22.083077 25.384003 -9.395118 34.932480 0.854828 1.843100 0.087309 -0.012903 581542.000000 0 0 1
23.487477 25.517303 -9.579618 35.980042 0.826795 1.840295 0.067446 -0.009778 525613.000000 0 0 1
24.223977 24.293503 -9.492418 35.596087 0.786831 1.840733 0.082170 -0.012332 -591092.000000 0 0 1
25.724777 24.463703 -9.255618 36.686556 0.760277 1.825841 0.031668 -0.005759 57145.400000 0 0 1
26.481077 24.719003 -10.462418 37.705952 0.750996 1.851960 0.042238 -0.001239 391450.000000 0 0 1
27.884777 24.720603 -10.331218 38.670442 0.725321 1.841242 0.047909 0.004688 386312.000000 0 0 1
28.776277 24.777703 -11.579618 39.700079 0.710872 1.866776 0.063642 0.004726 -242704.000000 0 0 1
28.637177 26.067703 -12.158218 40.588611 0.738463 1.875015 0.051621 0.004630 -184488.000000 0 0 1
29.402677 26.190203 -13.329518 41.570666 0.727677 1.897209 0.074770 0.005332 -82668.800000 0 0 1
29.061877 27.286403 -14.320718 42.358275 0.753900 1.915678 0.084596 -0.006414 -37371.100000 0 0 1
29.437577 28.573103 -13.963618 43.335619 0.770497 1.898870 0.076085 -0.004499 -245009.000000 0 0 1
29.287177 29.391803 -15.074118 44.145735 0.787181 1.919269 0.092962 -0.002224 59519.100000 0 0 1
29.789677 30.861203 -14.954918 45.425635 0.803063 1.906271 0.092950 -0.009113 -310407.000000 0 0 1
31.140277 30.900203 -14.608618 46.237984 0.781529 1.892248 0.092910 -0.015718 -548091.000000 0 0 1
31.720577 32.167003 -14.683918 47.502932 0.792386 1.885060 0.086805 -0.023306 -90326.300000 0 0 1
16.785277 -32.279456 -28.380324 46.142731 -1.091278 2.233252 0.111266 -0.038177 -415861.000000 0 0 1
17.713477 -32.733056 -27.433084 46.236289 -1.074774 2.205978 0.102484 -0.037246 -114087.000000 0 0 1
17.941977 -31.722956 -26.500474 45.061465 -1.056068 2.199499 0.095272 -0.046002 -215135.000000 0 0 1
19.094277 -32.126756 -25.491184 45.238484 -1.034548 2.169394 0.055016 -0.039899 493610.000000 0 0 1
20.426777 -32.021756 -25.919474 45.983315 -1.002972 2.169620 0.095822 -0.050866 -114953.000000 0 0 1
20.823077 -32.817056 -27.025624 47.338611 -1.005380 2.178398 0.091026 -0.041903 -879677.000000 0 0 1
22.370777 -32.817556 -27.146004 48.107684 -0.972478 2.170352 0.102618 -0.038078 89091.500000 0 0 1
22.803577 -31.481356 -27.349064 47.529467 -0.943913 2.183905 0.099224 -0.046603 891341.000000 0 0 1
24.241377 -31.479156 -27.267834 48.188344 -0.914569 2.172272 0.081259 -0.042300 1292170.000000 0 0 1
24.978977 -30.111556 -27.626044 47.894190 -0.878296 2.185620 0.067386 -0.034074 364509.000000 0 0 1
25.164777 -29.864056 -28.989174 48.636407 -0.870588 2.209355 0.084247 -0.035357 258380.000000 0 0 1
26.118977 -28.809356 -29.181544 48.618335 -0.834339 2.214569 0.072662 -0.033882 386137.000000 0 0 1
26.588777 -28.788456 -30.641894 49.745995 -0.825099 2.234409 0.067955 -0.040289 -256444.000000 0 0 1
27.620777 -29.680656 -30.933284 50.997223 -0.821331 2.222533 0.064154 -0.036019 -515043.000000 0 0 1
27.806777 -29.757256 -32.321024 51.993844 -0.819269 2.241620 0.054477 -0.037692 -909115.000000 0 0 1
28.928877 -30.615856 -32.794804 53.382673 -0.813722 2.232338 0.041437 -0.039310 -851164.000000 0 0 1
30.164177 -29.959356 -32.877364 53.743481 -0.781992 2.229062 0.034233 -0.035270 -454457.000000 0 0 1
31.113677 -30.734556 -33.563224 55.128613 -0.779268 2.225365 0.039242 -0.027346 1002180.000000 0 0 1
32.572177 -30.195656 33.543232 55.658538 -0.747554 0.923965 0.050265 -0.032609 972496.000000 0 0 1
32.595977 -28.982556 32.773852 54.558333 -0.726785 0.926405 0.055100 -0.038360 -102132.000000 0 0 1
33.858977 -28.785356 32.173351 54.864849 -0.704584 0.944175 0.063728 -0.040118 -276035.000000 0 0 1
34.033577 -27.406056 31.529573 53.884045 -0.677943 0.945747 0.061652 -0.040767 89858.600000 0 0 1
35.212877 -27.223756 30.765622 54.107330 -0.658134 0.965989 0.079568 -0.044227 201045.000000 0 0 1
35.228477 -25.990956 30.038442 53.093158 -0.635636 0.969431 0.076000 -0.040521 -156057.000000 0 0 1
35.919677 -26.183056 28.648232 52.881914 -0.629882 0.998291 0.080213 -0.033716 -29866.700000 0 0 1
35.437277 -27.246956 27.896262 52.691543 -0.655474 1.012873 0.061903 -0.035516 830669.000000 0 0 1
34.110677 -27.053456 27.381302 51.431153 -0.670524 1.009378 0.069004 -0.032941 448829.000000 0 0 1
33.675877 -27.964156 26.173592 51.001134 -0.692999 1.031892 0.052108 -0.026118 -389651.000000 0 0 1
32.310277 -27.834456 25.908052 49.899280 -0.711118 1.024874 0.054873 -0.013302 -345090.000000 0 0 1
31.810777 -28.869356 25.122792 49.764646 -0.736962 1.041609 0.051091 -0.007822 -100304.000000 0 0 1
30.474577 -28.567256 24.427622 48.389014 -0.753105 1.041626 0.049238 -0.000528 255364.000000 0 0 1
29.340277 -28.603956 25.279822 48.146730 -0.772691 1.018013 0.044888 -0.000490 643621.000000 0 0 1
28.148977 -28.179656 24.594322 46.811736 -0.785943 1.017625 0.051909 0.006449 1366510.000000 0 0 1
26.884777 -28.159856 25.524292 46.553821 -0.808558 0.990496 0.071523 -0.004230 514522.000000 0 0 1
26.862977 -26.950356 26.241122 46.222697 -0.787022 0.967074 0.070763 -0.015338 645012.000000 0 0 1
25.580277 -26.773256 26.858952 45.744520 -0.808181 0.943261 0.079935 -0.023309 461748.000000 0 0 1
25.495677 -25.546356 27.890082 45.612526 -0.786391 0.912896 0.078076 -0.018763 -489619.000000 0 0 1
24.315277 -25.580656 28.657182 45.462477 -0.810753 0.888795 0.101776 -0.017687 5031.520000 0 0 1
24.185977 -24.548756 29.617782 45.440246 -0.792842 0.860846 0.096085 -0.011935 -183919.000000 0 0 1
23.915377 -23.093756 29.149012 44.214610 -0.767922 0.850960 0.098434 -0.013525 -142190.000000 0 0 1
24.937977 -22.541856 28.318162 43.954025 -0.734975 0.870731 0.108674 -0.018482 332094.000000 0 0 1
24.648677 -21.193156 27.935502 42.861398 -0.710161 0.860889 0.117705 -0.009617 -120906.000000 0 0 1
25.137277 -20.083456 28.861402 43.222777 -0.674101 0.839633 0.107612 -0.005985 -51501.100000 0 0 1
24.696277 -20.148956 30.196042 43.905438 -0.684343 0.812409 0.111876 -0.003863 68884.800000 0 0 1
25.503477 -19.227856 30.884932 44.429909 -0.646012 0.802184 0.104453 -0.006591 -82475.800000 0 0 1
25.102277 -18.993356 32.339388 45.129901 -0.647736 0.771903 0.127550 0.004463 -37283.400000 0 0 1
25.214477 -20.094656 33.165558 46.254938 -0.672878 0.771284 0.107694 0.005197 272404.000000 0 0 1
24.665877 -19.718956 -32.937154 45.630022 -0.674401 2.377240 0.120782 -0.001607 59710.100000 0 0 1
24.630077 -20.771856 -31.779134 45.255100 -0.700623 2.349310 0.091259 0.007975 435116.000000 0 0 1
25.889377 -20.982556 -31.154544 45.619439 -0.681092 2.322552 0.068596 0.007308 152222.000000 0 0 1
25.747977 -22.019356 -30.161044 45.359663 -0.707498 2.298198 0.078440 0.000431 642510.000000 0 0 1
27.056777 -22.349556 -29.375984 45.765930 -0.690409 2.267737 0.078945 0.005209 223527.000000 0 0 1
28.102277 -22.935556 -30.095864 47.133203 -0.684509 2.263380 0.064409 0.003496 -841994.000000 0 0 1
29.143277 -23.189856 -29.187464 47.318159 -0.672125 2.235511 0.078483 -0.008770 -397475.000000 0 0 1
30.325777 -23.914956 -29.844694 48.808644 -0.667752 2.228705 0.062073 -0.012722 -221419.000000 0 0 1
31.148077 -23.152456 -30.729304 49.502819 -0.639201 2.240506 0.058116 -0.012171 437126.000000 0 0 1
30.586277 -23.163056 -32.050304 49.992695 -0.648158 2.266727 0.054515 -0.011719 62353.900000 0 0 1
30.823277 -24.461456 -32.874184 51.275231 -0.670828 2.266769 0.046787 -0.017288 647157.000000 0 0 1
29.907777 -25.537856 -32.475864 51.003324 -0.706746 2.261060 0.061910 -0.026337 628446.000000 0 0 1
30.144177 -26.803956 -33.104034 52.182378 -0.726812 2.258017 0.047383 -0.034251 -168394.000000 0 0 1
29.725877 -26.896756 32.806822 51.801070 -0.735475 0.884956 0.047026 -0.031294 -318475.000000 0 0 1
30.506877 -26.132756 31.927547 51.312365 -0.708324 0.899222 0.036603 -0.033794 -83052.300000 0 0 1
29.944177 -26.102456 30.629942 50.161592 -0.716960 0.913946 0.034992 -0.032104 -406961.000000 0 0 1
30.939477 -25.527456 29.574982 49.835548 -0.689846 0.935456 0.046505 -0.035924 112148.000000 0 0 1
31.253777 -24.157956 29.564802 49.340480 -0.658035 0.928295 0.035266 -0.028212 293566.000000 0 0 1
31.777477 -23.633256 30.797502 50.167968 -0.639464 0.909820 0.037635 -0.020407 -992724.000000 0 0 1
32.346777 -22.145556 30.630482 49.749031 -0.600336 0.907522 0.039064 -0.005560 -338999.000000 0 0 1
33.532277 -22.030456 29.950782 50.067993 -0.581275 0.929541 0.065600 -0.007845 379940.000000 0 0 1
34.717377 -22.451356 30.687322 51.488556 -0.574044 0.932282 0.058075 -0.015346 1441400.000000 0 0 1
36.131277 -21.902656 30.251162 51.964684 -0.544963 0.949428 0.069277 -0.025674 902558.000000 0 0 1
36.538777 -22.243456 28.954032 51.654521 -0.546838 0.975768 0.076439 -0.025558 53662.700000 0 0 1
37.698277 -21.505156 28.631912 51.994406 -0.518412 0.987626 0.072756 -0.028637 -117823.000000 0 0 1
-38.098811 -21.709456 27.257952 51.631539 0.517933 1.014632 0.083430 -0.031903 -495990.000000 0 0 1
-37.324911 -22.887656 27.131672 51.508459 0.550069 1.016033 0.084460 -0.025380 137181.000000 0 0 1
-36.881911 -23.022256 25.831272 50.572267 0.558035 1.034705 0.081399 -0.018000 -227330.000000 0 0 1
-36.763311 -24.511856 25.408692 50.970322 0.588059 1.048929 0.084953 -0.035478 -208425.000000 0 0 1
-37.993211 -25.206356 25.518992 52.250009 0.585768 1.060539 0.088381 -0.029814 -14733.600000 0 0 1
-38.032611 -26.572056 25.142332 52.770167 0.609829 1.074184 0.078025 -0.018342 -159213.000000 0 0 1
-37.333511 -27.604556 26.042652 53.235536 0.636685 1.059628 0.076868 -0.026890 -875455.000000 0 0 1
-37.373911 -28.983456 25.740422 53.846256 0.659622 1.072380 0.072574 -0.028398 165278.000000 0 0 1
-36.381711 -29.797756 26.324662 53.893627 0.686238 1.060477 0.080472 -0.036441 1023150.000000 0 0 1
-34.861611 -29.417756 26.142342 52.575263 0.700909 1.050386 0.079353 -0.035378 141393.000000 0 0 1
-34.413311 -29.535156 24.818612 51.696856 0.709263 1.070051 0.075579 -0.029588 -370457.000000 0 0 1
-33.071711 -29.130456 24.769292 50.555310 0.722121 1.058770 0.052719 -0.023823 84461.200000 0 0 1
-32.457511 -28.954256 23.299672 49.342818 0.728415 1.079012 0.063232 -0.020543 103350.000000 0 0 1
-32.476411 -30.077256 22.462192 49.637775 0.747063 1.101205 0.078670 -0.021113 299298.000000 0 0 1
-31.976411 -29.832556 21.134782 48.571095 0.750727 1.120613 0.075245 -0.017456 -251124.000000 0 0 1
-31.794711 -31.180756 20.360482 48.966238 0.775649 1.141967 0.083121 -0.016350 239101.000000 0 0 1
-30.845811 -32.169556 20.741182 49.158326 0.806402 1.135228 0.103340 -0.016639 1046740.000000 0 0 1
-29.483811 -31.856656 20.361682 47.945174 0.824062 1.132180 0.109853 -0.018104 963059.000000 0 0 1
-28.499411 -33.028556 20.524182 48.211451 0.858877 1.131048 0.100065 -0.007577 -22996.200000 0 0 1
-28.712511 33.296003 19.624082 48.147032 -0.859181 1.150987 0.090382 -0.005753 670135.000000 0 0 1
-29.904911 32.490603 19.771682 48.382460 -0.826815 1.149818 0.099992 -0.006939 820545.000000 0 0 1
-29.729311 31.278603 20.780482 47.895839 -0.810788 1.122015 0.105811 -0.004822 405648.000000 0 0 1
-28.688611 30.354303 20.471382 46.513413 -0.813602 1.115066 0.090376 -0.012391 183010.000000 0 0 1
-28.652111 29.294003 21.369782 46.214172 -0.796475 1.090088 0.087136 -0.019810 -604276.000000 0 0 1
-27.713311 28.164203 21.061482 44.775395 -0.793467 1.081074 0.077994 -0.010488 -415879.000000 0 0 1
-26.341911 28.507603 21.101182 44.179629 -0.824862 1.072850 0.075828 -0.008937 -128778.000000 0 0 1
-25.496211 27.524803 20.537282 42.772088 -0.823640 1.069964 0.066231 -0.014274 490388.000000 0 0 1
-24.040011 28.089203 20.648382 42.347150 -0.862919 1.061460 0.051060 -0.018223 226331.000000 0 0 1
-23.528311 28.035403 21.959882 42.682569 -0.872585 1.030380 0.065900 -0.022061 92758.900000 0 0 1
-22.253211 28.598003 22.123782 42.456011 -0.909528 1.022658 0.091651 -0.024266 -237598.000000 0 0 1
-21.824411 28.703903 23.597842 43.093818 -0.920717 0.991312 0.082396 -0.024270 -331254.000000 0 0 1
-21.461711 27.525703 24.283292 42.519967 -0.908558 0.962947 0.097723 -0.033601 379199.000000 0 0 1
-21.074711 27.626903 25.617562 43.169998 -0.919133 0.935506 0.095156 -0.039475 835521.000000 0 0 1
-19.553011 27.953303 25.888092 42.824067 -0.960414 0.921631 0.102734 -0.035407 324538.000000 0 0 1
-19.047311 29.242003 25.531332 43.240533 -0.993460 0.939181 0.079053 -0.035049 419695.000000 0 0 1
-17.658611 29.261003 25.826522 42.837391 -1.027817 0.923669 0.095801 -0.028746 90054.500000 0 0 1
-17.251211 29.593703 27.325772 43.818824 -1.043019 0.897447 0.091365 -0.024876 -619958.000000 0 0 1
-17.527211 28.557503 28.236482 43.818181 -1.020327 0.870557 0.089507 -0.028153 234740.000000 0 0 1
-17.574011 29.009703 29.589432 45.010479 -1.026125 0.853447 0.078077 -0.024162 -415124.000000 0 0 1
-17.420811 27.910503 30.685352 44.989684 -1.012796 0.820230 0.064775 -0.018576 -758423.000000 0 0 1
-16.096811 27.614803 30.977292 44.511541 -1.043041 0.801070 0.075561 -0.012562 -550551.000000 0 0 1
-15.917711 26.542103 31.844686 44.406540 -1.030586 0.771139 0.083891 -0.014404 36163.400000 0 0 1
-16.475511 26.633303 33.335792 45.738937 -1.016808 0.754188 0.070289 -0.006830 -951331.000000 0 0 1
-17.781411 26.245403 33.484732 46.111029 -0.975327 0.758053 0.070181 -0.013393 -1064930.000000 0 0 1
-18.392611 26.800403 -32.699694 46.106613 -0.969337 2.359186 0.067906 -0.018080 1142510.000000 0 0 1
-19.750311 26.171903 -32.197904 45.953763 -0.924334 2.347117 0.052244 -0.011855 1243010.000000 0 0 1
-20.845711 26.205703 -33.094474 47.080004 -0.898827 2.350321 0.065790 -0.016046 -1015280.000000 0 0 1
-21.995511 25.654203 -32.620874 46.968735 -0.862031 2.338553 0.096585 -0.023983 -1277950.000000 0 0 1
-23.088011 25.756503 33.664472 48.267488 -0.839976 0.798954 0.119611 -0.044190 -488862.000000 0 0 1
-23.051611 24.924703 32.523274 47.014689 -0.824420 0.806861 0.120373 -0.037911 -187263.000000 0 0 1
-23.289811 23.543503 32.741575 46.569545 -0.790815 0.791093 0.112193 -0.031792 -161592.000000 0 0 1
-23.825611 22.857503 31.461748 45.606653 -0.764663 0.809515 0.103420 -0.030134 -566777.000000 0 0 1
-25.154611 23.121003 31.163902 46.244178 -0.743298 0.831323 0.124554 -0.039752 -982323.000000 0 0 1
-25.446311 22.497303 29.917942 45.262861 -0.723966 0.848670 0.137239 -0.030536 1123050.000000 0 0 1
-26.995911 22.269303 29.716792 45.910661 -0.689749 0.866793 0.133035 -0.037393 907073.000000 0 0 1
-27.448811 21.174803 30.461482 46.148796 -0.657075 0.849883 0.144840 -0.046046 122943.000000 0 0 1
-28.437511 20.486603 29.705212 45.943362 -0.624292 0.867728 0.128044 -0.044358 -51809.600000 0 0 1
-28.725411 19.088103 30.279332 45.894911 -0.586503 0.850306 0.142993 -0.049506 -27575.100000 0 0 1
-29.722111 19.121003 31.302725 47.210986 -0.571669 0.845925 0.127900 -0.044355 331508.000000 0 0 1
-29.882311 18.015603 32.174346 47.462649 -0.542538 0.825911 0.111569 -0.026723 7259.010000 0 0 1
-30.610111 16.757803 31.581591 47.065908 -0.500891 0.835229 0.095291 -0.029472 -572988.000000 0 0 1
-31.980411 16.914403 31.410252 47.910830 -0.486499 0.855822 0.081005 -0.032861 -255709.000000 0 0 1
-32.721711 15.743003 31.043982 47.773228 -0.448428 0.863449 0.081351 -0.027072 -135079.000000 0 0 1
-34.234111 15.804303 30.899662 48.749763 -0.432503 0.884286 0.085364 -0.028389 -630715.000000 0 0 1
-34.864811 16.007003 32.134461 50.044008 -0.430409 0.873531 0.082774 -0.025544 905730.000000 0 0 1
-36.294511 15.910603 32.061738 50.974443 -0.413145 0.890560 0.116563 -0.025180 686975.000000 0 0 1
-36.844211 16.631403 33.347692 52.403893 -0.424016 0.881027 0.105186 -0.023556 837054.000000 0 0 1
38.131777 16.787603 33.468312 53.441407 0.414718 0.894047 0.103191 -0.026124 916082.000000 0 0 1
37.696577 17.519503 -32.764854 52.929204 0.435053 2.238305 0.103771 -0.039261 631928.000000 0 0 1
36.164177 17.822303 -32.844944 52.002621 0.457884 2.254414 0.106538 -0.039710 759212.000000 0 0 1
35.369677 16.639303 -32.791554 51.021236 0.439721 2.268819 0.111344 -0.030357 93468.500000 0 0 1
34.103777 16.910503 -32.229654 49.877684 0.460326 2.273357 0.105597 -0.033641 -342622.000000 0 0 1
33.150677 15.758103 -31.999254 48.695354 0.443732 2.287803 0.110456 -0.033615 -254174.000000 0 0 1
32.357477 15.390903 -33.110884 48.787467 0.443980 2.316755 0.109423 -0.047338 -122237.000000 0 0 1
31.650477 14.161403 -33.033634 47.890699 0.420715 2.331970 0.111712 -0.047307 -177221.000000 0 0 1
32.314677 12.787903 -33.247774 48.095565 0.376820 2.334063 0.110267 -0.043759 173557.000000 0 0 1
33.309477 12.401603 -32.290314 48.020677 0.356414 2.308277 0.108532 -0.035012 456706.000000 0 0 1
34.002477 11.246003 -32.745344 48.527298 0.319415 2.311466 0.120060 -0.025500 -59302.800000 0 0 1
19.119877 -21.024497 9.632706 30.006469 -0.832807 1.243989 0.044540 -0.016660 -161083.000000 0 0 1
18.874177 -22.242097 10.180206 30.896311 -0.867128 1.235027 0.031376 -0.016118 799301.000000 0 0 1
20.050777 -22.996697 10.531906 32.276970 -0.853726 1.238412 0.029640 -0.022683 468899.000000 0 0 1
19.565477 -24.262997 11.257506 33.139589 -0.892170 1.224199 0.025035 -0.015953 139176.000000 0 0 1
18.782377 -25.119007 10.455006 33.061297 -0.928746 1.249042 0.027521 -0.019601 7759.020000 0 0 1
17.419977 -25.122317 10.825006 32.430960 -0.964509 1.230479 0.040758 -0.016334 -127842.000000 0 0 1
16.550377 -26.191817 10.144906 32.601309 -1.007257 1.254361 0.059913 -0.022884 -93158.700000 0 0 1
16.224377 -25.767517 8.848406 31.709456 -1.008864 1.287996 0.060266 -0.030548 330390.000000 0 0 1
15.125077 -26.461287 8.262606 31.579080 -1.051527 1.306067 0.069919 -0.021777 192338.000000 0 0 1
14.758677 -26.049497 6.814306 30.705530 -1.055326 1.347009 0.066396 -0.027168 -238622.000000 0 0 1
14.219877 -24.734597 6.804206 29.330912 -1.049038 1.336683 0.077660 -0.031332 -14769.700000 0 0 1
13.966377 -24.156497 5.522406 28.444560 -1.046589 1.375409 0.088037 -0.019772 98485.100000 0 0 1
13.241777 -22.782297 5.693606 26.959133 -1.044292 1.358000 0.105456 -0.025627 -265499.000000 0 0 1
12.443977 -22.341897 4.646706 25.992399 -1.062610 1.391058 0.084018 -0.018080 -277916.000000 0 0 1
11.823977 -21.113997 4.989306 24.708308 -1.060303 1.367470 0.105872 -0.019222 -66805.500000 0 1 0
10.807577 -20.631697 3.949906 23.623556 -1.088264 1.402805 0.084165 -0.015191 -211857.000000 0 1 0
11.382377 -19.921197 2.898306 23.126019 -1.051694 1.445139 0.064640 -0.013827 12185.100000 0 1 0
10.482177 -19.779197 1.805206 22.457770 -1.083469 1.490327 0.039784 0.009413 169341.000000 0 1 0
11.208977 -19.292097 0.509906 22.317844 -1.044454 1.547947 0.042849 0.010511 -143518.000000 0 1 0
11.820577 -18.086197 0.743806 21.619200 -0.991916 1.536385 0.033126 0.011179 -277733.000000 0 1 0
12.607877 -17.769997 -0.403394 21.792065 -0.953721 1.589308 0.036601 -0.001401 124018.000000 0 1 0
13.768677 -16.765597 -0.089694 21.694925 -0.883234 1.574931 0.026419 0.008101 -293222.000000 0 1 0
14.801977 -17.411697 0.576406 22.860402 -0.866234 1.545580 0.039934 -0.000705 -746618.000000 0 1 0
15.891477 -16.530197 0.656906 22.939442 -0.805096 1.542156 0.050668 -0.015682 -382079.000000 0 1 0
17.163577 -17.054197 1.299606 24.230621 -0.782202 1.517136 0.039812 -0.003562 -168656.000000 0 1 0
17.848077 -18.102797 0.629606 25.429540 -0.792483 1.546035 0.067527 -0.013795 -54079.400000 0 0 1
19.086177 -18.465297 1.165806 26.582108 -0.768866 1.526925 0.070202 -0.012371 -29100.100000 0 0 1
19.698277 -19.825297 0.639406 27.954845 -0.788612 1.547922 0.049714 -0.023686 -8374.720000 0 0 1
18.981577 -21.020397 0.837906 28.334774 -0.836322 1.541220 0.061063 -0.011508 -191648.000000 0 0 1
19.317777 -22.061897 -0.053294 29.324165 -0.851617 1.572614 0.077451 -0.021513 -62125.200000 0 0 1
18.203377 -23.119897 0.011606 29.426055 -0.903818 1.570402 0.081274 -0.014055 -13827.200000 0 0 1
18.270377 -23.804797 1.258806 30.034307 -0.916184 1.528872 0.065909 -0.008699 57708.300000 0 0 1
17.280177 -24.816197 1.239006 30.265216 -0.962540 1.529847 0.068325 -0.010033 -262623.000000 0 0 1
17.165377 -25.687787 2.491906 30.995518 -0.981711 1.490314 0.063325 -0.009698 407576.000000 0 0 1
18.237377 -26.591487 2.734506 32.360263 -0.969640 1.486193 0.083896 -0.021674 564408.000000 0 0 1
19.422377 -26.003287 3.291306 32.622574 -0.929269 1.469734 0.069952 -0.010646 465183.000000 0 0 1
20.565277 -27.066477 3.396606 34.162285 -0.921049 1.471206 0.071047 -0.004652 145425.000000 0 0 1
21.219777 -27.352947 2.156706 34.685934 -0.911001 1.508578 0.080592 -0.006380 -374844.000000 0 0 1
22.297177 -28.230827 2.223606 36.042865 -0.902296 1.509064 0.090806 -0.003824 -339476.000000 0 0 1
22.051177 -29.699567 2.621306 37.083553 -0.932129 1.500051 0.089432 -0.008263 -321687.000000 0 0 1
21.703777 -29.971867 3.956906 37.215908 -0.944053 1.464272 0.098897 -0.014305 -125512.000000 0 0 1
21.138777 -31.237027 4.141506 37.944062 -0.975865 1.461431 0.079208 -0.018875 -159288.000000 0 0 1
20.707977 -31.620407 5.562406 38.204853 -0.990989 1.424683 0.085036 -0.023424 -274334.000000 0 0 1
21.766777 -32.153307 6.323506 39.339731 -0.975696 1.409355 0.069234 -0.032725 -370736.000000 0 0 1
21.413877 -33.023707 7.316206 40.033064 -0.995519 1.387009 0.060200 -0.026583 51673.000000 0 0 1
22.546077 33.668193 8.126306 41.326864 0.980728 1.372872 0.072130 -0.038237 615426.000000 0 0 1
23.518177 -32.957437 8.806806 41.434975 -0.951006 1.356617 0.064765 -0.033291 1133930.000000 0 0 1
24.557377 33.586893 9.343006 42.643123 0.939463 1.349907 0.089486 -0.040430 1270350.000000 0 0 1
25.735377 -33.168917 10.155306 43.192788 -0.910931 1.333459 0.085823 -0.030763 854486.000000 0 0 1
26.520477 -32.228037 9.401306 42.782784 -0.882247 1.349243 0.078479 -0.023789 518795.000000 0 0 1
27.514277 -31.544807 10.149506 43.071136 -0.853538 1.332914 0.079902 -0.022884 307346.000000 0 0 1
28.340177 -30.561847 9.310006 42.706771 -0.823098 1.351033 0.089013 -0.019134 -22890.300000 0 0 1
27.521177 -29.497677 8.843506 41.300554 -0.820048 1.355000 0.066034 -0.018817 213752.000000 0 0 1
28.129277 -28.734907 7.798206 40.960507 -0.796048 1.379244 0.091807 -0.022185 167548.000000 0 0 1
27.551177 -27.306207 7.744806 39.556015 -0.780933 1.373730 0.079969 -0.024319 -33818.400000 0 0 1
27.957677 -26.510747 8.813006 39.523670 -0.758840 1.345925 0.069191 -0.020670 38697.700000 0 0 1
27.290877 -25.259507 8.935306 38.244926 -0.746762 1.334983 0.057271 -0.026035 256072.000000 0 0 1
27.993677 -24.486397 10.162506 38.555235 -0.718667 1.304062 0.075580 -0.033707 1460170.000000 0 0 1
29.380177 -24.325597 9.813406 39.385688 -0.691558 1.318982 0.087890 -0.026511 137837.000000 0 0 1
30.042277 -23.340597 10.541406 39.477121 -0.660512 1.300491 0.066863 -0.032098 288393.000000 0 0 1
31.538577 -23.235697 10.114606 40.458432 -0.634960 1.318116 0.082624 -0.030500 758401.000000 0 0 1
31.514677 -22.522297 8.875206 39.739124 -0.620498 1.345560 0.096706 -0.023684 -733280.000000 0 0 1
32.838377 -22.344797 8.492806 40.617443 -0.597483 1.360149 0.108524 -0.026029 -392394.000000 0 0 1
32.911977 -21.501897 7.178506 39.963243 -0.578702 1.390188 0.104093 -0.004839 -127767.000000 0 0 1
32.507777 -20.164397 7.274206 38.939344 -0.555208 1.382884 0.105326 0.005480 92609.600000 0 0 1
32.903977 -19.428597 6.061106 38.689522 -0.533378 1.413488 0.103589 0.000309 218859.000000 0 0 1
32.632677 -17.935597 6.159906 37.742836 -0.502552 1.406856 0.126767 -0.001784 209772.000000 0 0 1
33.311877 -17.311397 7.255506 38.236213 -0.479265 1.379884 0.132305 -0.001863 314625.000000 0 0 1
32.975477 -15.946297 7.402206 37.369227 -0.450426 1.371395 0.142853 -0.006710 -123456.000000 0 0 1
33.541677 -15.393097 8.707506 37.918494 -0.430251 1.339091 0.139602 -0.036406 -10065.600000 0 0 1
34.949077 -15.289597 8.678906 39.122029 -0.412395 1.347093 0.123619 -0.033204 -253208.000000 0 0 1
35.394377 -14.676897 9.835606 39.558973 -0.393086 1.319529 0.108287 -0.047729 -331379.000000 0 0 1
36.917577 -14.872397 9.915006 41.017107 -0.382964 1.326649 0.102004 -0.058675 -215485.000000 0 0 1
37.714277 -14.000997 9.125406 41.251275 -0.355469 1.347736 0.155645 -0.046144 -307017.000000 0 0 1
-37.419311 -14.574597 8.969806 41.147067 0.371417 1.351038 0.135005 -0.050877 -193106.000000 0 0 1
-36.397311 -13.629497 8.314506 39.744917 0.358301 1.360043 0.166606 -0.055224 -516018.000000 0 0 1
-36.894011 -13.176197 7.046106 39.804871 0.343018 1.392842 0.228104 -0.065945 278996.000000 0 0 1
-35.941111 -12.486697 6.266306 38.560960 0.334375 1.407569 0.235539 -0.055945 268422.000000 0 0 1
-34.804111 -13.338897 5.623206 37.694465 0.365989 1.421059 0.208192 -0.043782 117574.000000 0 0 1
-33.947411 -13.863297 6.595106 37.257390 0.387706 1.392844 0.198055 -0.040777 -133809.000000 0 0 1
-32.939811 -14.780197 6.195706 36.631573 0.421775 1.400844 0.187725 -0.019591 667581.000000 0 0 1
-32.296811 -15.673797 7.368006 36.647502 0.451822 1.368366 0.160473 -0.034623 422267.000000 0 0 1
-33.132111 -16.702597 7.865406 37.928592 0.466939 1.361906 0.140451 -0.039019 44548.100000 0 0 1
-33.165111 -16.682097 9.267806 38.263679 0.466046 1.326154 0.126892 -0.043272 5010.580000 0 0 1
-34.288611 -17.589697 9.825906 39.770022 0.473985 1.321143 0.063772 -0.039175 -105886.000000 0 0 1
-35.603211 -17.022197 9.740606 40.647548 0.445982 1.328806 0.087044 -0.030814 916898.000000 0 0 1
-36.654311 -17.609797 10.484106 41.994760 0.447869 1.318475 0.097104 -0.033562 268961.000000 0 0 1
-36.912511 -19.167697 10.257706 42.838704 0.478947 1.328998 0.091066 -0.019103 -765611.000000 0 0 1
-35.887211 -20.011397 10.795906 42.484108 0.508674 1.313862 0.108727 -0.015999 116451.000000 0 0 1
-35.745511 -20.143597 12.206306 42.807709 0.513170 1.281641 0.123186 -0.047983 -285717.000000 0 0 1
-36.833511 -21.011797 12.839706 44.306446 0.518411 1.276786 0.119752 -0.069283 -158505.000000 0 0 1
-36.749211 -22.388997 12.469206 44.802374 0.547184 1.288756 0.161481 -0.076700 -155666.000000 0 0 1
-38.041711 -22.885997 12.241606 46.052117 0.541597 1.301741 0.149303 -0.050293 -241785.000000 0 0 1
38.166077 -24.392197 11.975706 46.851321 -0.568679 1.312317 0.152768 -0.050463 -265915.000000 0 0 1
-37.897911 -25.166097 13.117906 47.346209 0.586189 1.290060 0.167318 -0.049107 236164.000000 0 0 1
37.777777 -26.381427 13.125206 47.910449 -0.609606 1.293296 0.169075 -0.056318 565888.000000 0 0 1
36.336477 -26.435657 13.706706 46.979329 -0.628961 1.274730 0.166161 -0.055667 788064.000000 0 0 1
35.334277 -25.794937 12.893506 45.608469 -0.630595 1.284189 0.147126 -0.042791 47412.800000 0 0 1
34.146777 -25.448347 13.530306 44.684336 -0.640463 1.263170 0.131384 -0.014930 -245307.000000 0 0 1
34.002277 -23.973897 13.836006 43.844471 -0.614119 1.249739 0.142151 -0.028125 -635140.000000 0 0 1
34.973877 -23.564697 14.734606 44.671866 -0.592911 1.234661 0.165591 -0.038137 -363726.000000 0 0 1
34.988477 -22.159997 14.905306 44.016214 -0.564582 1.225334 0.158127 -0.046861 -130433.000000 0 0 1
36.255577 -21.639097 15.602506 45.012838 -0.538099 1.216827 0.131297 -0.037365 -239221.000000 0 0 1
36.424177 -20.225197 15.930706 44.604559 -0.506879 1.205577 0.153556 -0.016398 -119038.000000 0 0 1
35.691377 -19.851597 17.053006 44.257941 -0.507592 1.175253 0.143635 -0.015755 -276006.000000 0 0 1
35.951077 -18.434397 17.657906 44.092047 -0.473806 1.158758 0.135598 -0.008051 -317767.000000 0 0 1
35.537777 -17.337897 16.854006 42.983646 -0.453898 1.167880 0.123480 -0.021250 192579.000000 0 0 1
35.662877 -16.096297 17.541206 42.879196 -0.423973 1.149346 0.118850 -0.020206 565094.000000 0 0 1
37.095377 -15.492597 17.788406 43.960379 -0.395622 1.154204 0.097208 -0.024084 499365.000000 0 0 1
37.789577 -16.068497 18.878106 45.195482 -0.402048 1.139885 0.104670 -0.005130 713057.000000 0 0 1
-37.356211 -15.396297 19.026606 44.660320 0.390935 1.130697 0.085177 -0.014649 345760.000000 0 0 1
-36.804011 -15.399197 20.458706 44.835578 0.396276 1.096958 0.074094 -0.000838 -223662.000000 0 0 1
-36.215411 -16.634097 20.867406 44.985528 0.430569 1.088438 0.086796 0.001755 306744.000000 0 0 1
-35.718711 -16.434397 22.180906 45.143197 0.431226 1.057162 0.068786 0.002377 -282005.000000 0 0 1
-34.737411 -17.496697 22.592806 44.980629 0.466591 1.044564 0.065930 0.001460 -967433.000000 0 0 1
-35.456211 -18.719797 22.624506 46.037397 0.485772 1.057057 0.069825 -0.003266 859717.000000 0 0 1
-34.690911 -19.879697 23.021306 46.137210 0.520369 1.048381 0.054419 0.001800 -73995.900000 0 0 1
-33.582811 -20.452597 22.110006 45.110600 0.547025 1.058559 0.058162 0.005094 -100857.000000 0 0 1
-32.418411 -19.659297 22.146406 43.907910 0.545130 1.042129 0.058054 0.010174 -843237.000000 0 0 1
-31.295211 -20.460197 22.012206 43.388328 0.579028 1.038713 0.075432 0.012769 -1140460.000000 0 0 1
-30.095511 -19.569097 21.746606 41.971468 0.576539 1.026135 0.091059 0.007345 -800288.000000 0 0 1
-29.616211 -18.906097 22.858806 41.917603 0.568156 0.994017 0.078105 0.004789 187023.000000 0 0 1
-28.387511 -18.232897 22.673206 40.649275 0.570933 0.979092 0.104796 -0.000415 -58811.000000 0 0 1
-28.022211 -17.739197 24.097906 40.995517 0.564360 0.942437 0.096682 -0.010839 -764240.000000 0 0 1
-26.905611 -16.891097 24.130006 39.893335 0.560604 0.921202 0.103575 -0.016962 -104246.000000 0 0 1
-26.528211 -16.411397 25.332706 40.184896 0.554012 0.888723 0.100787 -0.032859 -111824.000000 0 0 1
-25.487211 -17.221797 26.134706 40.363486 0.594233 0.866518 0.095667 -0.026742 -183721.000000 0 0 1
-25.883211 -18.553597 26.574206 41.477282 0.621925 0.875396 0.105981 -0.027956 251802.000000 0 0 1
-24.939611 -19.035697 27.521106 41.734317 0.651941 0.850728 0.098859 -0.025689 211479.000000 0 0 1
-25.474611 -20.355297 28.131906 43.066205 0.674157 0.858961 0.085527 -0.016881 -60688.000000 0 0 1
-26.588911 -20.169097 28.970706 44.193488 0.648953 0.855896 0.083623 -0.025799 102831.000000 0 0 1
-26.930011 -21.265997 29.764406 45.424530 0.668414 0.856283 0.062891 -0.019825 238440.000000 0 0 1
-28.244811 -21.097397 30.593606 46.678027 0.641545 0.856061 0.076834 -0.025268 -313098.000000 0 0 1
-28.018811 -20.245897 31.692206 46.897185 0.625722 0.828773 0.086049 -0.029972 754163.000000 0 0 1
-29.161211 -20.249297 32.544606 48.161827 0.606952 0.828836 0.086215 -0.026293 537126.000000 0 0 1
-30.431711 -19.485897 32.092606 48.329334 0.569537 0.844587 0.082140 -0.035480 345507.000000 0 0 1
-31.286411 -20.278097 31.172906 48.598259 0.575069 0.874421 0.087754 -0.039312 -22229.600000 0 0 1
-32.524411 -19.673197 31.138706 49.137470 0.543996 0.884462 0.085807 -0.045586 -1228300.000000 0 0 1
-33.549311 -20.340597 30.242806 49.537091 0.545031 0.914094 0.076965 -0.026147 -681351.000000 0 0 1
-33.762711 -19.615997 29.088206 48.691187 0.526329 0.930539 0.066144 -0.029372 477059.000000 0 0 1
-34.917111 -20.024197 28.363106 49.240622 0.520690 0.956957 0.059778 -0.032142 30700.100000 0 0 1
-35.260011 -18.922897 27.338906 48.464009 0.492549 0.971445 0.051558 -0.020158 -119781.000000 0 0 1
-36.453911 -19.225397 26.647206 49.077256 0.485318 0.996833 0.047309 -0.017887 33901.000000 0 0 1
-36.793011 -18.170797 25.791106 48.467356 0.458728 1.009678 0.082917 -0.013263 -441939.000000 0 0 1
-37.956611 -18.605497 24.886406 49.053053 0.455759 1.038705 0.077515 -0.015550 -415205.000000 0 0 1
37.331077 -18.971597 25.679106 49.121760 -0.470185 1.020706 0.095112 -0.017439 -867999.000000 0 0 1
36.374677 -19.519797 24.848606 48.182910 -0.492522 1.028955 0.128177 -0.021049 -711948.000000 0 0 1
35.238877 -20.115297 25.713806 48.037521 -0.518692 1.005950 0.120266 -0.026783 -255470.000000 0 0 1
34.385777 -19.127597 26.261406 47.306533 -0.507640 0.982274 0.112589 -0.025714 -348378.000000 0 0 1
33.463777 -19.753497 27.084006 47.366321 -0.533253 0.962100 0.088287 -0.014572 -316326.000000 0 0 1
-30.390033 -5.325497 33.342272 45.427107 0.173477 0.746643 0.091788 -0.043262 -130656.000000 0 0 1
-31.296753 -5.537697 32.261654 45.287604 0.175129 0.777923 0.104521 -0.033278 447890.000000 0 0 1
-31.292583 -4.411797 31.333344 44.502451 0.140062 0.789668 0.105262 -0.028316 -182049.000000 0 0 1
-32.198353 -4.536197 30.095722 44.306472 0.139962 0.824039 0.096642 -0.034208 29908.600000 0 0 1
-31.892923 -5.672297 29.216182 43.622457 0.176014 0.836923 0.090264 -0.029091 1590650.000000 0 0 1
-30.588503 -5.461597 28.560482 42.204107 0.176689 0.827494 0.080547 -0.025536 1471280.000000 0 0 1
-30.376183 -6.359897 27.318682 41.345751 0.206390 0.848996 0.067995 -0.026112 -187495.000000 0 0 1
-30.962173 -5.948797 26.104672 40.932850 0.189818 0.879231 0.077339 -0.026986 -136557.000000 0 0 1
-30.743153 -6.819597 25.039022 40.231840 0.218290 0.899032 0.090712 -0.024511 -260388.000000 0 0 1
-31.400673 -6.347697 23.739772 39.873202 0.199464 0.933056 0.095176 -0.017056 12250.100000 0 0 1
-30.851903 -5.166997 23.092372 38.881813 0.165937 0.934884 0.104933 -0.020783 -54075.300000 0 0 1
-31.497873 -4.831897 21.894982 38.663334 0.152217 0.968789 0.115605 -0.017048 -51029.900000 0 0 1
-30.880663 -3.592197 21.214082 37.637169 0.115805 0.972002 0.118604 -0.019902 280822.000000 0 0 1
-29.549133 -3.781497 20.756182 36.307989 0.127281 0.962257 0.149479 -0.022751 222483.000000 0 0 1
-29.186723 -2.539197 20.140182 35.551923 0.086780 0.968543 0.165149 -0.028965 -593787.000000 0 0 1
-27.792463 -2.443097 19.551482 34.068316 0.087680 0.959548 0.167712 -0.029166 -708474.000000 0 0 1
-27.533243 -3.309297 18.452082 33.309311 0.119619 0.983681 0.187592 -0.040005 892798.000000 0 0 1
-26.243553 -3.108197 17.824382 31.876222 0.117887 0.977406 0.179592 -0.028488 945537.000000 0 0 1
-26.131593 -3.717697 16.414182 31.082258 0.141320 1.014448 0.178848 -0.032185 87989.700000 0 0 1
-26.999133 -3.113197 15.465882 31.270412 0.114800 1.053439 0.181058 -0.034587 303816.000000 0 0 1
-26.784353 -3.744997 14.242182 30.565770 0.138920 1.086086 0.185531 -0.039419 -2434.830000 0 0 1
-28.152453 -3.857297 13.548782 31.480292 0.136167 1.125872 0.212014 -0.047353 67489.700000 0 0 1
-28.588393 -2.674797 12.931082 31.490691 0.093291 1.147649 0.213785 -0.049186 259717.000000 0 0 1
-29.930313 -2.804797 12.472582 32.546210 0.093438 1.177509 0.213694 -0.055010 442733.000000 0 0 1
-30.469653 -1.485397 11.840682 32.723201 0.048711 1.200552 0.207166 -0.044367 -207185.000000 0 0 1
-29.750683 -1.164397 10.657182 31.623321 0.039119 1.227064 0.244719 -0.045135 331074.000000 0 0 1
-30.169393 0.024803 9.988982 31.780066 -0.000822 1.251060 0.237559 -0.039289 -1224870.000000 0 0 1
-31.512833 0.061903 9.329082 32.864787 -0.001964 1.282976 0.226504 -0.029029 -1011720.000000 0 0 1
-31.575513 -0.575297 8.086982 32.599743 0.018218 1.320110 0.228513 -0.039959 -983558.000000 0 0 1
-32.860543 -0.752097 7.622682 33.741461 0.022884 1.342915 0.205312 -0.051966 -1010560.000000 0 0 1
-33.007533 -1.689497 6.407582 33.666136 0.051141 1.379301 0.252169 -0.058667 -170782.000000 0 0 1
-32.491443 -1.234597 5.138982 32.918493 0.037979 1.414043 0.255299 -0.073045 224186.000000 0 0 1
-33.199483 -0.270197 4.407282 33.491832 0.008138 1.438821 0.229752 -0.054544 -277675.000000 0 0 1
-32.703213 -0.102397 2.962482 32.837279 0.003131 1.480456 0.215738 -0.054647 -67107.600000 0 0 1
-33.029093 -1.255097 2.260282 33.130124 0.037981 1.502519 0.189755 -0.076548 183154.000000 0 0 1
-32.508623 -1.134197 0.969282 32.542840 0.034875 1.541007 0.199832 -0.083210 -110052.000000 0 0 1
-33.368523 -1.800597 -0.154818 33.417427 0.053909 1.575429 0.177643 -0.074728 46438.200000 0 0 1
-34.641588 -1.202997 -0.204818 34.663075 0.034713 1.576705 0.180374 -0.064151 157350.000000 0 0 1
-35.443649 -1.742897 -1.275418 35.509388 0.049134 1.606722 0.191263 -0.064642 -261547.000000 0 0 1
-36.934763 -1.474297 -1.105018 36.980688 0.039895 1.600682 0.183861 -0.055341 -740044.000000 0 0 1
-37.511023 -2.315997 -0.133118 37.582687 0.061663 1.574338 0.182751 -0.052409 1133070.000000 0 0 1
37.502355 -1.933997 0.029682 37.552202 -0.051524 1.570006 0.153926 -0.042383 1235150.000000 0 0 1
36.559955 -2.988097 0.674082 36.688056 -0.081550 1.552422 0.189981 -0.046591 89381.500000 0 0 1
36.662855 -3.201897 2.060282 36.860031 -0.087113 1.514872 0.189316 -0.049179 129671.000000 0 0 1
35.618965 -4.073597 2.463782 35.935708 -0.113871 1.502182 0.185353 -0.043370 -140602.000000 0 0 1
35.682915 -4.642797 3.908282 36.195313 -0.129386 1.462608 0.161145 -0.036336 -54031.200000 0 0 1
35.214545 -3.615697 4.745182 35.716302 -0.102318 1.437545 0.175306 -0.041967 63799.700000 0 0 1
35.152155 -3.877897 6.096482 35.887034 -0.109873 1.400089 0.156916 -0.049524 -6899.290000 0 0 1
34.502205 -2.724097 6.908782 35.292409 -0.078791 1.373766 0.173567 -0.047126 316227.000000 0 0 1
33.131995 -2.476697 6.602482 33.874119 -0.074614 1.374628 0.211400 -0.060354 352827.000000 0 0 1
32.556755 -1.698897 7.600982 33.475416 -0.052135 1.341737 0.211052 -0.055960 97182.000000 0 0 1
31.017165 -1.577397 7.663582 31.988798 -0.050812 1.328873 0.231466 -0.065278 -488135.000000 0 0 1
30.377765 -0.743197 6.655782 31.107240 -0.024460 1.355167 0.278610 -0.070375 1326420.000000 0 0 1
28.948365 -0.633497 6.777682 29.737958 -0.021880 1.340862 0.246634 -0.055723 1318930.000000 0 0 1
28.112865 -1.967797 6.576982 28.938938 -0.069882 1.341522 0.291509 -0.072068 -719876.000000 0 0 1
28.265165 -2.879397 7.594682 29.409007 -0.101521 1.309593 0.240372 -0.075139 270468.000000 0 0 1
27.663765 -4.152397 7.353082 28.923937 -0.148990 1.313754 0.265021 -0.081292 -156367.000000 0 0 1
27.959565 -5.233497 8.443782 29.671944 -0.185040 1.282237 0.225662 -0.043980 -294170.000000 0 0 1
27.181465 -5.125097 9.614082 29.283600 -0.186363 1.236283 0.208927 -0.044703 682531.000000 0 0 1
27.707765 -5.952497 10.628582 30.267462 -0.211615 1.211992 0.184397 -0.033812 284350.000000 0 0 1
26.680965 -5.848597 11.799682 29.754201 -0.215792 1.163017 0.168651 -0.020041 932444.000000 0 0 1
25.513665 -6.663297 11.596182 28.806563 -0.255460 1.156492 0.193602 -0.023877 149721.000000 0 0 1
24.459065 -6.190797 12.384882 28.106176 -0.247902 1.114478 0.200523 -0.035562 377992.000000 0 0 1
23.314265 -7.255397 12.496182 27.429005 -0.301700 1.097770 0.183166 -0.037281 755667.000000 0 0 1
23.814665 -8.353797 13.260082 28.508840 -0.337373 1.087024 0.161900 -0.029583 423292.000000 0 0 1
22.791265 -9.333097 13.282782 27.981794 -0.388672 1.076180 0.233786 -0.066854 143184.000000 0 0 1
23.144065 -10.634497 14.009582 29.069033 -0.430719 1.067927 0.162442 -0.053236 -261751.000000 0 0 1
23.120165 -10.403397 15.412682 29.670246 -0.422830 1.024571 0.123373 -0.045191 249372.000000 0 0 1
23.526365 -11.555497 16.105882 30.763920 -0.456560 1.019806 0.116126 -0.047770 -195778.000000 0 0 1
23.439965 -11.446097 17.652582 31.496964 -0.454256 0.975863 0.128680 -0.050036 381188.000000 0 0 1
22.067665 -11.420097 18.042882 30.707427 -0.477552 0.942739 0.106690 -0.042930 423992.000000 0 0 1
21.832165 -11.771497 19.393682 31.485337 -0.494499 0.907193 0.121028 -0.033191 89033.900000 0 0 1
22.204465 -10.719597 20.504882 32.068649 -0.449767 0.877071 0.103385 -0.035700 -324931.000000 0 0 1
21.306265 -9.671497 20.773282 31.289360 -0.426115 0.844763 0.095997 -0.037226 -233172.000000 0 0 1
21.336165 -8.558297 19.917382 30.416747 -0.381469 0.856857 0.117055 -0.039057 -1058810.000000 0 0 1
22.304265 -7.431397 20.300482 31.061479 -0.321615 0.858520 0.122442 -0.027463 821892.000000 0 0 1
23.685665 -7.771897 20.459582 32.249149 -0.317057 0.883535 0.154320 -0.036069 661595.000000 0 0 1
24.389965 -8.014497 19.260982 32.094984 -0.317483 0.927140 0.167831 -0.040886 -1685770.000000 0 0 1
25.752065 -8.588197 19.495182 33.421372 -0.321896 0.947993 0.192401 -0.042488 -962324.000000 0 0 1
25.715465 -9.943497 19.964882 34.040488 -0.368966 0.944061 0.154883 -0.047534 125657.000000 0 0 1
27.005065 -10.514097 19.889682 35.148531 -0.371281 0.969302 0.154917 -0.045740 170563.000000 0 0 1
26.912665 -12.011097 20.064582 35.653127 -0.419772 0.973061 0.118424 -0.045893 -120583.000000 0 0 1
26.222865 -12.663497 19.023782 34.783719 -0.449889 0.992120 0.121345 -0.046634 204908.000000 0 0 1
26.130465 -14.075997 19.286582 35.396428 -0.494112 0.994558 0.075545 -0.035718 -510481.000000 0 0 1
25.133165 -14.724697 18.341482 34.422415 -0.529963 1.008849 0.089698 -0.030486 -819033.000000 0 0 1
25.487165 -14.823897 16.970582 34.019761 -0.526797 1.048531 0.108385 -0.037166 -85475.200000 0 0 1
24.474865 -15.389097 16.181982 33.131554 -0.561307 1.060523 0.085930 -0.034770 -359137.000000 0 0 1
24.284465 -16.946297 16.341982 33.822664 -0.609264 1.066528 0.052498 -0.023031 -100094.000000 0 0 1
25.491565 -17.595597 15.976482 34.852158 -0.604153 1.094594 0.082459 -0.023863 632007.000000 0 0 1
25.321765 -18.964497 16.216282 35.550130 -0.642823 1.097129 0.050467 -0.004214 162299.000000 0 0 1
26.643565 -19.665897 15.828882 36.703959 -0.635848 1.124910 0.055225 0.002444 52235.000000 0 0 1
26.839265 -19.901397 14.475182 36.413495 -0.638041 1.161981 0.066250 -0.013988 544750.000000 0 0 1
27.750465 -20.997897 14.216182 37.591220 -0.647755 1.182969 0.069046 -0.015875 143946.000000 0 0 1
28.136865 -21.043297 12.736782 37.372840 -0.642150 1.223025 0.059824 -0.036460 -519911.000000 0 0 1
27.110865 -21.379297 11.850482 36.503524 -0.667743 1.240166 0.057239 -0.028502 -147260.000000 0 0 1
27.458765 -20.839097 10.611382 36.067342 -0.649188 1.272167 0.081004 -0.025447 -48929.700000 0 0 1
26.226965 -20.606097 9.700682 34.735690 -0.665950 1.287761 0.049967 -0.025795 211787.000000 0 0 1
25.847165 -21.834697 9.104182 35.038779 -0.701445 1.307949 0.032915 -0.025980 144079.000000 0 0 1
24.431265 -21.909497 9.014482 34.031951 -0.731034 1.302714 0.025625 -0.015480 437959.000000 0 0 1
23.875965 -23.025797 8.102082 34.145172 -0.767274 1.331228 0.030239 -0.016429 -72843.500000 0 0 1
24.016365 -24.268997 8.700882 35.234576 -0.790630 1.321274 0.036949 -0.015756 105135.000000 0 0 1
23.625865 -25.206487 7.667582 35.388420 -0.817755 1.352395 0.050058 -0.008296 463722.000000 0 0 1
22.200465 -25.849617 7.704382 34.934522 -0.861197 1.348431 0.055134 -0.002016 684540.000000 0 0 1
21.187665 -24.879097 7.409482 33.508015 -0.865360 1.347828 0.043819 -0.000924 -86276.400000 0 0 1
19.933965 -25.552117 7.437182 33.250343 -0.908289 1.345216 0.058083 -0.017360 -300208.000000 0 0 1
18.786265 -24.578997 7.350682 31.797537 -0.918192 1.337515 0.061049 -0.028642 -773659.000000 0 0 1
18.761365 -23.891097 6.088182 30.981273 -0.905091 1.372997 0.082475 -0.026913 -303744.000000 0 0 1
17.703665 -22.984397 6.073782 29.641071 -0.914462 1.364424 0.076669 -0.014147 -419264.000000 0 0 1
17.599965 -22.216797 4.731282 28.735516 -0.900835 1.405394 0.093087 -0.008209 -290885.000000 0 0 1
16.541765 -21.272797 4.750182 27.362860 -0.909863 1.396313 0.115467 -0.004084 181860.000000 0 0 1
16.378165 -20.605097 3.513982 26.554894 -0.899197 1.438078 0.123100 -0.003152 -17439.600000 0 0 1
15.311965 -19.493597 3.678282 25.059656 -0.904968 1.423483 0.116886 0.009460 18397.200000 0 0 1
15.762065 -18.374897 4.373682 24.600988 -0.861789 1.392061 0.076907 0.006875 103392.000000 0 1 0
14.804065 -17.315497 4.428482 23.207719 -0.863429 1.378800 0.044523 0.024273 76825.300000 0 1 0
15.379165 -15.944797 4.660682 22.637960 -0.803454 1.363434 0.027233 0.011022 -519611.000000 0 1 0
16.035465 -15.722697 5.876182 23.213549 -0.775550 1.314876 0.055474 -0.007633 339429.000000 0 1 0
16.961865 -14.639897 5.968782 23.187449 -0.712054 1.310451 0.057161 -0.012589 -463329.000000 0 1 0
18.350165 -14.994597 5.528482 24.333734 -0.685103 1.341601 0.069233 -0.033113 -1297340.000000 0 1 0
19.304265 -13.953397 5.464882 24.438021 -0.625874 1.345267 0.120942 -0.033900 117603.000000 0 1 0
20.568765 -14.464297 5.143482 25.666036 -0.612881 1.369030 0.153551 -0.027391 -24926.700000 0 0 1
21.700665 -13.419897 4.914282 25.983893 -0.553846 1.380522 0.138446 -0.029946 194511.000000 0 0 1
21.934265 -12.717997 6.157482 26.091647 -0.525452 1.332555 0.160704 -0.035213 96578.800000 0 0 1
22.863365 -11.689697 6.017782 26.374158 -0.472635 1.340599 0.175296 -0.038467 -493719.000000 0 0 1
23.093465 -10.808497 7.279982 26.516596 -0.437748 1.292681 0.194047 -0.037043 160735.000000 0 0 1
23.890065 -11.533697 8.239382 27.778567 -0.449779 1.269656 0.197017 -0.015287 715464.000000 0 0 1
24.242365 -10.779597 9.399182 28.146698 -0.418404 1.230321 0.236822 -0.038466 27440.900000 0 0 1
25.044565 -11.644197 10.415482 29.517788 -0.435208 1.210176 0.188375 -0.027653 -121249.000000 0 0 1
24.293165 -12.665397 11.054882 29.542860 -0.480586 1.187264 0.191486 -0.037323 166235.000000 0 0 1
24.990565 -13.496597 11.957982 30.816875 -0.495186 1.172299 0.186402 -0.047447 448440.000000 0 0 1
24.018665 -14.668697 12.393382 30.751632 -0.548265 1.155987 0.136457 -0.051107 643788.000000 0 0 1
22.965365 -14.260597 13.211482 30.088468 -0.555690 1.116213 0.125514 -0.053242 -313639.000000 0 0 1
21.840465 -15.124097 13.244182 29.684214 -0.605661 1.108316 0.090981 -0.049691 492294.000000 0 0 1
20.593865 -14.329997 13.711982 28.591512 -0.607927 1.070618 0.083275 -0.052061 -403235.000000 0 0 1
20.725165 -14.072497 15.074882 29.237300 -0.596496 1.029083 0.094837 -0.052237 378313.000000 0 0 1
20.083565 -12.850397 15.529782 28.454462 -0.569204 0.993481 0.119209 -0.062936 1176970.000000 0 0 1
18.512065 -12.754597 15.683182 27.410554 -0.603297 0.961661 0.164320 -0.063217 1079940.000000 0 0 1
17.909365 -12.853797 14.346982 26.302117 -0.622516 0.993848 0.192317 -0.076794 785637.000000 0 0 1
16.479565 -12.910197 14.429882 25.425789 -0.664541 0.967294 0.257705 -0.077201 985458.000000 0 0 1
15.733465 -11.559797 14.118982 24.093910 -0.633654 0.944685 0.201547 -0.070430 -135608.000000 0 1 0
16.020265 -10.511997 15.018482 24.345549 -0.580700 0.906014 0.173696 -0.061023 -76539.000000 0 1 0
15.533365 -9.243497 14.744582 23.326602 -0.536789 0.886545 0.153974 -0.050052 -361901.000000 0 1 0
16.267865 -8.084797 15.528082 23.898299 -0.461228 0.863532 0.171250 -0.051934 294947.000000 0 1 0
17.674265 -7.997297 15.475882 24.816110 -0.424916 0.897428 0.165400 -0.057260 74029.900000 0 1 0
18.419465 -8.814597 16.350082 26.159109 -0.446339 0.895634 0.167848 -0.053100 -897306.000000 0 0 1
19.908865 -8.591397 16.193082 27.062722 -0.407394 0.929351 0.138700 -0.049555 -825536.000000 0 0 1
20.399365 -7.345697 16.554382 27.278947 -0.345639 0.918698 0.116464 -0.045378 -361690.000000 0 0 1
21.709065 -7.168797 16.087682 27.955119 -0.318947 0.957602 0.121399 -0.033117 -149101.000000 0 0 1
22.325165 -5.756097 16.451982 28.323371 -0.252334 0.951009 0.105703 -0.032030 65851.800000 0 0 1
22.690765 -5.567297 17.805282 29.375052 -0.240602 0.919603 0.142566 -0.036501 48219.500000 0 0 1
23.108065 -4.269597 17.994682 29.597647 -0.182706 0.917287 0.141401 -0.030086 -134102.000000 0 0 1
-5.593723 -32.953156 -6.588094 34.067627 1.402651 1.765405 0.099076 -0.035346 -384968.000000 0 0 1
-6.208323 -31.698856 -6.573094 32.963106 1.377391 1.771550 0.086237 -0.033476 -41855.800000 0 0 1
-5.845823 -30.957756 -5.430194 31.969413 1.384162 1.741480 0.103179 -0.043678 -470634.000000 0 0 1
-6.594823 -29.601556 -5.296194 30.786255 1.351590 1.743688 0.104454 -0.039090 888026.000000 0 0 1
-7.989923 -29.637856 -4.993894 31.099524 1.307471 1.732072 0.096024 -0.031180 635142.000000 0 0 1
-8.849723 -29.966256 -6.078294 31.831428 1.283636 1.762929 0.091348 -0.027227 319721.000000 0 0 1
-10.341223 -29.761456 -5.640894 32.007888 1.236377 1.747956 0.118876 -0.017356 944485.000000 0 0 1
-11.285523 -30.309356 -6.551894 32.999203 1.214356 1.770672 0.097193 -0.017539 939362.000000 0 0 1
-12.670023 -30.106456 -6.171794 33.241830 1.172454 1.757543 0.095947 -0.011386 1132520.000000 0 0 1
-13.574123 -30.609256 -7.288294 34.268099 1.153390 1.785118 0.106994 -0.022281 -303772.000000 0 0 1
-13.502623 -29.886656 -8.496394 33.878043 1.146451 1.824296 0.130376 -0.034925 338445.000000 0 0 1
-14.440323 -30.446556 -9.419794 34.989259 1.127932 1.843379 0.121645 -0.026819 188402.000000 0 0 1
-14.665623 -29.496156 -10.640194 34.616722 1.109388 1.883226 0.177725 -0.021155 -506728.000000 0 0 1
-15.199123 -28.195156 -10.435394 33.687945 1.076384 1.885744 0.180601 -0.029350 408892.000000 0 0 1
-14.305123 -27.215256 -9.928694 32.309220 1.086857 1.883153 0.158764 -0.022302 -110591.000000 0 0 1
-15.137423 -25.967756 -9.539294 31.535124 1.043022 1.878108 0.146475 -0.015980 288167.000000 0 0 1
-15.755223 -25.249256 -10.581194 31.586606 1.012925 1.912391 0.167708 -0.029094 95646.000000 0 0 1
-16.347223 -24.068056 -10.161894 30.818292 0.974161 1.906820 0.122701 -0.012885 -297713.000000 0 0 1
-16.915223 -23.310856 -11.374094 30.965962 0.943071 1.946911 0.157867 -0.025065 -651794.000000 0 0 1
-18.126023 -23.787956 -11.862994 32.173750 0.919670 1.948424 0.166874 -0.033452 -656098.000000 0 0 1
-18.558723 -23.153256 -13.073694 32.425622 0.895105 1.985797 0.189875 -0.036186 1682260.000000 0 0 1
-20.127423 -23.469056 -13.288494 33.652546 0.861898 1.976726 0.181032 -0.023516 1994660.000000 0 0 1
-20.446723 -24.877156 -13.483094 34.910388 0.882839 1.967327 0.215609 -0.031446 -20495.500000 0 0 1
-20.474523 -25.637156 -12.288294 35.035297 0.896893 1.929158 0.235763 -0.031547 -1688810.000000 0 0 1
-20.385923 -27.213556 -12.478394 36.219799 0.927866 1.922522 0.241854 -0.040925 -133615.000000 0 0 1
-19.241623 -27.674756 -13.134594 36.175264 0.963247 1.942370 0.228482 -0.047904 -376065.000000 0 0 1
-18.004823 -27.307356 -12.540694 35.030478 0.987883 1.936915 0.226405 -0.044936 -968253.000000 0 0 1
-16.969123 -28.315056 -13.093594 35.512473 1.030894 1.948411 0.198802 -0.039343 -546154.000000 0 0 1
-16.677123 -28.437256 -14.485294 36.008717 1.040397 1.984793 0.206509 -0.040274 84869.500000 0 0 1
-15.862123 -29.499356 -14.970994 36.687186 1.077437 1.991137 0.211131 -0.039286 190549.000000 0 0 1
-16.439423 -30.932056 -14.799794 38.027367 1.082292 1.970546 0.195989 -0.042494 -79058.900000 0 0 1
-16.472323 -31.425656 -13.454194 37.946339 1.088002 1.933238 0.186518 -0.032927 -12621.000000 0 0 1
-16.901023 -32.735956 -13.346694 39.184457 1.094207 1.918364 0.183166 -0.028601 -480052.000000 0 0 1
-17.469423 -33.096756 -11.961194 39.289263 1.085134 1.880146 0.200740 -0.031132 2154810.000000 0 0 1
-18.883123 -32.736556 -11.679594 39.555877 1.047595 1.870533 0.239725 -0.030792 2249090.000000 0 0 1
-19.295623 -31.380656 -11.574694 38.613990 1.019501 1.875231 0.246616 -0.040016 -573728.000000 0 0 1
-18.625723 -30.476456 -10.564194 37.246935 1.022218 1.858369 0.241854 -0.037568 -605225.000000 0 0 1
-18.936023 -30.659256 -9.175794 37.185456 1.017516 1.820129 0.246072 -0.047284 95985.600000 0 0 1
-18.460523 -29.610756 -8.344194 35.877756 1.013320 1.805519 0.221710 -0.034794 -14822.400000 0 0 1
-18.941823 -29.725456 -6.911394 35.918836 1.003454 1.764421 0.249356 -0.046040 -50697.300000 0 0 1
-18.324423 -30.794056 -6.199894 36.366153 1.034014 1.742118 0.224153 -0.041023 159924.000000 0 0 1
-18.509123 -30.654756 -4.834394 36.134099 1.027593 1.704989 0.237209 -0.055322 -431718.000000 0 0 1
-17.892423 -31.796856 -3.990394 36.702890 1.058247 1.679733 0.213691 -0.033495 1585400.000000 0 0 1
-16.443423 -31.712156 -3.883494 35.932277 1.092442 1.679086 0.204125 -0.035171 1173970.000000 0 0 1
-16.137123 -31.174656 -2.632594 35.202223 1.093140 1.645651 0.202110 -0.040768 895826.000000 0 0 1
-14.635023 -30.747956 -2.397394 34.137490 1.126559 1.641082 0.207944 -0.037944 689623.000000 0 0 1
-13.648223 -31.708256 -2.615394 34.619760 1.164334 1.646415 0.127924 -0.031308 -419761.000000 0 0 1
-12.418223 -30.990656 -2.520994 33.481166 1.189679 1.646164 0.142310 -0.026585 98740.900000 0 0 1
-11.231623 -31.974756 -2.382594 33.973683 1.232995 1.640985 0.154447 -0.034974 -400794.000000 0 0 1
-11.119823 -32.664156 -1.122694 34.523297 1.242673 1.603322 0.174353 -0.031034 -227081.000000 0 0 1
-9.946023 -33.459956 -1.098594 34.924189 1.281863 1.602258 0.165678 -0.039550 174886.000000 0 0 1
-8.811823 -32.668356 -0.384794 33.838112 1.307331 1.582168 0.182481 -0.047912 -466622.000000 0 0 1
-9.008923 -32.507456 1.037806 33.748666 1.300447 1.540040 0.197596 -0.046317 -77200.100000 0 0 1
-7.903223 -31.915156 1.703506 32.923245 1.328047 1.519031 0.208013 -0.045474 535272.000000 0 0 1
-6.869123 -32.934456 2.237806 33.717518 1.365175 1.504378 0.198865 -0.049107 -166582.000000 0 0 1
-7.438723 33.670903 3.301606 34.640510 -1.353365 1.475341 0.228456 -0.058530 -312654.000000 0 0 1
-6.696623 32.665903 3.911906 33.573933 -1.368594 1.454015 0.184101 -0.049950 -410440.000000 0 0 1
-5.711323 33.208703 4.974106 34.061399 -1.400480 1.424239 0.188301 -0.049552 486796.000000 0 0 1
-4.517423 -33.654756 4.389106 34.239071 1.437366 1.442253 0.189977 -0.054020 447010.000000 0 0 1
-3.688223 -33.257356 5.489506 33.908545 1.460348 1.408189 0.178096 -0.057535 -426394.000000 0 0 1
-2.399923 -32.543356 5.149406 33.035527 1.497184 1.414283 0.221046 -0.056158 -576768.000000 0 0 1
-2.525423 -31.244756 4.636106 31.687632 1.490145 1.423963 0.220326 -0.055015 2563.340000 0 0 1
-3.063723 -31.141256 3.323606 31.467612 1.472730 1.464979 0.218532 -0.061871 -34514.200000 0 0 1
-3.151723 -29.715256 2.760306 30.009150 1.465127 1.478684 0.190326 -0.063928 -155760.000000 0 0 1
-1.892723 -29.226856 2.378706 29.384516 1.506127 1.489757 0.148917 -0.058606 -365997.000000 0 0 1
-1.986623 -28.078656 1.568906 28.192536 1.500162 1.515118 0.152476 -0.056782 -19190.500000 0 0 1
-2.051123 -26.775956 2.345006 26.956595 1.494342 1.483694 0.155347 -0.057840 -379880.000000 0 0 1
-2.285823 -25.658656 1.566306 25.807847 1.481945 1.510068 0.159063 -0.057416 -258154.000000 0 0 1
-2.369323 -24.452356 2.309806 24.675223 1.474202 1.477051 0.124813 -0.050108 -16143.200000 0 1 0
-3.708523 -24.226356 3.042606 24.696699 1.418897 1.447284 0.125797 -0.045784 -179490.000000 0 1 0
-3.871023 -25.036356 4.210606 25.681378 1.417395 1.406097 0.136682 -0.049059 241254.000000 0 0 1
-5.053323 -24.636856 4.901206 25.622892 1.368490 1.378328 0.131715 -0.047227 207358.000000 0 0 1
-5.564023 -25.616456 5.958006 26.882318 1.356914 1.347308 0.168217 -0.052377 128423.000000 0 0 1
-4.774523 -25.815456 7.130306 27.204322 1.387915 1.305597 0.135289 -0.049177 327768.000000 0 0 1
-5.461023 -26.828556 7.853006 28.482695 1.369987 1.291467 0.150498 -0.046999 247040.000000 0 0 1
-4.700123 -27.261356 9.084606 29.117053 1.400065 1.253496 0.140822 -0.047741 -101268.000000 0 0 1
-4.449223 -26.190056 10.018506 28.391638 1.402521 1.210162 0.127298 -0.053256 317568.000000 0 0 1
-5.549823 -25.846456 10.877806 28.586124 1.359285 1.180430 0.116398 -0.050698 526771.000000 0 0 1
-5.193923 -24.691556 11.845306 27.874021 1.363467 1.131880 0.102803 -0.045483 42460.100000 0 0 1
-4.337623 -25.150256 12.835706 28.567564 1.400008 1.104803 0.103433 -0.047800 -532376.000000 0 0 1
-3.706423 -24.114156 13.564406 27.914570 1.418287 1.063374 0.103159 -0.045644 265806.000000 0 0 1
-2.885523 -24.769456 14.746906 28.971079 1.454824 1.036749 0.095109 -0.045613 482367.000000 0 0 1
-3.630723 -25.143956 15.917206 29.979295 1.427390 1.011087 0.095753 -0.048450 386172.000000 0 0 1
-2.816823 -26.072056 16.608306 31.040658 1.463174 1.006229 0.113404 -0.041471 113802.000000 0 0 1
-3.262023 -26.201556 18.098406 32.011164 1.446936 0.969905 0.140113 -0.044994 122452.000000 0 0 1
-2.698923 -25.169056 18.913706 31.598953 1.463973 0.929100 0.134702 -0.032372 78934.200000 0 0 1
-3.203723 -25.224156 20.213206 32.482235 1.444463 0.899138 0.158644 -0.041743 -240704.000000 0 0 1
-2.493223 -24.228256 21.148106 32.256270 1.468252 0.855783 0.143688 -0.045350 -575155.000000 0 0 1
-1.170023 -24.657356 21.354706 32.640123 1.523381 0.857610 0.079391 -0.063397 -281517.000000 0 0 1
-0.299423 -23.809356 22.065606 32.463303 1.558221 0.823430 0.099133 -0.057557 199644.000000 0 0 1
0.072777 -22.461656 21.354606 30.992749 -1.567556 0.810661 0.100771 -0.067290 -611249.000000 0 0 1
-0.882323 -21.399656 21.423406 30.293334 1.529589 0.785268 0.148452 -0.053818 61948.100000 0 0 1
-0.349523 -20.277756 20.707706 28.984800 1.553561 0.774983 0.173418 -0.045196 -308660.000000 0 0 1
-1.398423 -19.296356 20.179106 27.955344 1.498452 0.764348 0.158299 -0.013785 -513241.000000 0 0 1
-2.032923 -18.476256 21.146706 28.154715 1.461208 0.721086 0.159589 -0.041508 429203.000000 0 0 1
-3.204823 -19.023456 21.753006 29.075007 1.403897 0.725499 0.211407 -0.058096 658336.000000 0 0 1
-4.563423 -18.787556 20.995706 28.541492 1.332515 0.744214 0.201357 -0.058416 400703.000000 0 0 1
-4.768323 -19.627256 19.861706 28.327609 1.332470 0.793797 0.180592 -0.054444 -406053.000000 0 0 1
-5.362923 -20.831156 20.155106 29.477556 1.318821 0.817915 0.191339 -0.052360 -271505.000000 0 0 1
-5.454023 -21.708856 18.909306 29.301581 1.324656 0.869336 0.150213 -0.051307 104519.000000 0 0 1
-6.016223 -22.993656 19.025006 30.444277 1.314886 0.895777 0.145885 -0.057032 -54427.700000 0 0 1
-6.226623 -23.478556 17.730306 30.072864 1.311559 0.940260 0.120144 -0.051933 141022.000000 0 0 1
-6.894123 -24.881956 17.590006 31.241783 1.300504 0.972751 0.125427 -0.050917 -1128770.000000 0 0 1
-8.237523 -24.900456 17.824706 31.711349 1.251311 0.973883 0.146304 -0.052129 -1636040.000000 0 0 1
-8.809823 -26.189956 17.580506 32.750587 1.246305 1.004157 0.141474 -0.050133 -607988.000000 0 0 1
-10.278423 -26.321056 17.908106 33.453613 1.198505 1.005920 0.108627 -0.042900 -1157570.000000 0 0 1
-11.078623 -25.711056 16.904506 32.704076 1.163948 1.027579 0.124549 -0.043298 429289.000000 0 0 1
-12.466923 -25.681556 17.269306 33.364583 1.118862 1.026760 0.120314 -0.034297 954840.000000 0 0 1
-12.934523 -24.655056 18.348306 33.344175 1.087648 0.988109 0.112273 -0.046184 -638114.000000 0 0 1
-12.872423 -23.260556 17.905406 32.052399 1.065345 0.978064 0.103275 -0.039511 205213.000000 0 0 1
-13.209423 -22.303356 18.916806 32.090093 1.036086 0.940368 0.102089 -0.045116 153019.000000 0 0 1
-11.963723 -21.657656 19.603706 31.567230 1.066111 0.900760 0.119994 -0.051629 223664.000000 0 0 1
-11.313423 -22.526456 20.478006 32.477430 1.105368 0.888560 0.134265 -0.050127 -185450.000000 0 0 1
-9.952223 -22.690056 20.134606 31.926286 1.157450 0.888394 0.161326 -0.062547 -898.636000 0 0 1
-9.325023 -23.811956 20.984606 33.080493 1.197543 0.883629 0.175931 -0.068440 -5353.590000 0 0 1
-9.256823 -23.366156 22.340806 33.627037 1.193601 0.844145 0.189227 -0.067173 76511.500000 0 0 1
-8.597223 -24.331756 23.120206 34.648095 1.231155 0.840237 0.200217 -0.072935 -92900.500000 0 0 1
-8.321623 -23.681156 24.510006 35.082573 1.232872 0.797305 0.228052 -0.066883 754536.000000 0 0 1
-7.265023 -24.347156 25.235606 35.810618 1.280814 0.788801 0.229882 -0.055985 491237.000000 0 0 1
-6.891523 -23.685456 26.413006 36.140570 1.287654 0.751243 0.233575 -0.061706 369006.000000 0 0 1
-5.707423 -24.427656 27.121606 36.944100 1.341268 0.746418 0.229302 -0.056472 349866.000000 0 0 1
-4.506323 -24.327856 26.398106 36.180264 1.387639 0.753020 0.227860 -0.047499 131485.000000 0 0 1
-3.378323 -24.405756 27.281006 36.760132 1.433247 0.734545 0.199880 -0.039440 349617.000000 0 0 1
-2.037123 -23.996356 26.671506 35.935278 1.486106 0.734435 0.170049 -0.042272 -598027.000000 0 0 1
-2.013623 -22.593156 26.518806 34.896310 1.481906 0.707589 0.169667 -0.048486 413682.000000 0 0 1
-0.789623 -22.089056 26.017306 34.138689 1.535064 0.704236 0.147063 -0.056889 -198499.000000 0 0 1
0.405577 -21.829956 26.896506 34.642943 -1.552220 0.681876 0.126642 -0.037516 -591158.000000 0 0 1
0.834377 -22.959656 27.654606 35.953014 -1.534471 0.693228 0.120325 -0.037137 -190172.000000 0 0 1
1.922477 -22.628456 28.459706 36.410133 -1.486041 0.673502 0.102248 -0.051483 -471778.000000 0 0 1
2.313377 -23.736056 29.438506 37.886379 -1.473641 0.680877 0.103263 -0.048876 -664688.000000 0 0 1
2.969977 -24.919056 28.874006 38.255566 -1.452171 0.715499 0.078701 -0.038259 1334960.000000 0 0 1
3.956077 -25.517756 29.750406 39.394074 -1.416988 0.714837 0.084545 -0.033479 236836.000000 0 0 1
5.175377 -24.665456 30.177006 39.316929 -1.363974 0.695814 0.058860 -0.043796 -319676.000000 0 0 1
6.201777 -24.283256 29.259106 38.525756 -1.320748 0.708300 0.080400 -0.043870 631678.000000 0 0 1
6.963377 -25.392556 28.790106 39.014622 -1.303147 0.740797 0.071909 -0.040869 -630521.000000 0 0 1
8.440377 -25.076056 28.488206 38.879640 -1.246117 0.748474 0.080597 -0.032454 -45361.100000 0 0 1
8.574677 -24.218456 27.392506 37.555400 -1.230513 0.753368 0.081324 -0.043024 1200120.000000 0 0 1
9.906177 -24.314656 26.806106 37.522022 -1.183913 0.775016 0.090656 -0.023955 1253350.000000 0 0 1
10.129877 -23.271156 25.635206 36.073881 -1.160236 0.780402 0.118623 -0.024811 172598.000000 0 0 1
9.330777 -23.556656 24.492106 35.239789 -1.193657 0.802359 0.109429 -0.025235 226789.000000 0 0 1
8.751977 -22.379656 23.957606 33.932477 -1.198013 0.786909 0.105371 -0.033771 329360.000000 0 0 1
8.097777 -22.484856 22.548806 32.857136 -1.225114 0.814451 0.091752 -0.022685 968223.000000 0 0 1
9.086077 -22.913756 21.582206 32.762610 -1.193282 0.851647 0.101777 -0.018567 1063160.000000 0 0 1
8.449277 -22.911856 20.281106 31.743766 -1.217496 0.877728 0.117436 -0.013265 246860.000000 0 0 1
9.267477 -23.663256 19.249206 31.880523 -1.197518 0.922547 0.159523 -0.033285 -29318.700000 0 0 1
10.492377 -23.082256 18.850706 31.594772 -1.144153 0.931489 0.157279 -0.023318 -243647.000000 0 0 1
11.191377 -23.885856 17.970106 31.917170 -1.132635 0.972757 0.170704 -0.028857 537771.000000 0 0 1
12.547077 -23.290356 17.442006 31.687433 -1.076651 0.987906 0.155959 -0.027056 654302.000000 0 0 1
12.423977 -22.231456 16.495106 30.342732 -1.061186 0.996045 0.157153 -0.022085 -100203.000000 0 0 1
13.674177 -21.689456 16.117406 30.285086 -1.008286 1.009612 0.145016 -0.027850 145138.000000 0 0 1
-13.283323 22.495903 11.619506 28.592398 -1.037408 1.152303 0.060567 -0.011469 8769.830000 0 0 1
-14.227023 21.565703 11.102906 28.120495 -0.987628 1.164910 0.024089 -0.014406 -326719.000000 0 0 1
-13.709823 20.389903 10.540806 26.736043 -0.978847 1.165540 0.071872 -0.017760 42400.800000 0 0 1
-14.568123 19.622703 9.456406 26.205043 -0.932170 1.201604 0.076899 -0.016200 -186158.000000 0 0 1
-14.671723 20.423603 8.308606 26.484258 -0.947847 1.251689 0.086763 -0.019558 406918.000000 0 0 1
-15.428023 19.913003 7.156906 26.187266 -0.911629 1.293977 0.087196 -0.018046 429430.000000 0 0 1
-16.952723 19.919303 7.328606 27.163982 -0.865681 1.297620 0.069286 -0.017617 -509654.000000 0 0 1
-17.513723 19.091503 8.313106 27.208890 -0.828474 1.260302 0.053714 -0.021216 661186.000000 0 0 1
-18.946023 19.040503 8.256006 28.100786 -0.787885 1.272597 0.066975 -0.018182 830391.000000 0 0 1
-19.478923 18.047303 9.337606 28.148259 -0.747267 1.232660 0.075302 -0.022554 -90328.500000 0 0 1
-19.351123 16.737403 8.878706 27.082061 -0.713099 1.236775 0.077176 -0.022464 29359.700000 0 0 1
-19.644123 15.750503 9.826206 27.028212 -0.675833 1.198717 0.087192 -0.026622 -689227.000000 0 0 1
-18.512123 15.167203 10.667406 26.201837 -0.686406 1.151493 0.072953 -0.012954 239487.000000 0 0 1
-17.582623 14.340103 9.901506 24.755343 -0.684171 1.159307 0.044403 0.000205 360245.000000 0 1 0
-16.793523 13.462903 10.657206 24.017664 -0.675760 1.111047 0.050406 -0.005619 13357.300000 0 1 0
-17.530923 12.389403 11.519406 24.362415 -0.615220 1.078291 0.050163 -0.001581 -45531.500000 0 1 0
-18.510323 11.619603 10.875306 24.411462 -0.560565 1.109064 0.052815 -0.003888 164949.000000 0 1 0
-19.252923 10.732403 11.722206 24.965368 -0.508540 1.082028 0.061841 -0.007987 587674.000000 0 1 0
-20.099123 9.678503 10.914806 24.835079 -0.448770 1.115764 0.058501 -0.016696 267224.000000 0 1 0
-19.318223 8.708203 10.182206 23.509654 -0.423500 1.122859 0.031193 -0.017390 580662.000000 0 1 0
-18.804323 9.118503 8.944906 22.732378 -0.451507 1.166374 0.040787 -0.018827 -380324.000000 0 1 0
-19.818823 9.327103 7.774206 23.242609 -0.439867 1.229742 0.049038 -0.020788 -114400.000000 0 1 0
-20.212223 8.100003 7.286506 22.961645 -0.381151 1.247880 0.026779 -0.028884 54277.300000 0 1 0
-21.070123 8.255203 6.210306 23.466281 -0.373415 1.302957 0.058133 -0.035501 -450083.000000 0 1 0
-21.441723 6.918903 5.552206 23.204432 -0.312136 1.329179 0.089167 -0.038576 -724755.000000 0 1 0
-22.354923 6.036203 6.139906 23.955725 -0.263727 1.311602 0.132728 -0.042714 267958.000000 0 1 0
-22.213423 4.750403 5.546206 23.382961 -0.210679 1.331324 0.146830 -0.053399 -309452.000000 0 1 0
-23.364623 3.766703 5.874506 24.384492 -0.159839 1.327491 0.179942 -0.051039 120867.000000 0 1 0
-24.444223 3.996103 4.981806 25.264743 -0.162045 1.372312 0.223724 -0.056964 1318260.000000 0 0 1
-25.574123 3.088303 5.169706 26.273546 -0.120177 1.372739 0.264029 -0.069453 540827.000000 0 0 1
-26.860323 3.425403 4.445206 27.440302 -0.126842 1.408084 0.291445 -0.068837 -756033.000000 0 0 1
-26.875243 3.109203 3.081306 27.229401 -0.115178 1.457392 0.312824 -0.065887 215972.000000 0 0 1
-28.138613 3.292603 2.474906 28.438494 -0.116484 1.483659 0.321662 -0.060549 -208153.000000 0 0 1
-28.119693 3.223003 0.957206 28.319977 -0.114119 1.536990 0.343740 -0.069854 -154707.000000 0 0 1
-27.475053 4.355503 0.370506 27.820607 -0.157217 1.557478 0.339788 -0.066706 83363.900000 0 0 1
-27.608433 4.544303 -1.054594 27.999793 -0.163136 1.608470 0.384090 -0.058477 -103599.000000 0 0 1
-28.969523 4.904303 -1.706194 29.431217 -0.167702 1.628801 0.354284 -0.059036 297178.000000 0 0 1
-29.954523 3.878203 -1.592394 30.246481 -0.128753 1.623468 0.306402 -0.064281 176521.000000 0 0 1
-31.237613 4.427003 -1.822694 31.602358 -0.140783 1.628504 0.264795 -0.035610 -267395.000000 0 0 1
-32.294163 3.304903 -1.871694 32.516743 -0.101982 1.628389 0.217197 -0.033454 -494879.000000 0 0 1
-32.395763 2.725303 -3.167994 32.664184 -0.083928 1.667936 0.197991 -0.040145 482594.000000 0 0 1
-33.152893 1.523903 -3.187494 33.340616 -0.045934 1.666547 0.189347 -0.043308 -70078.200000 0 0 1
-33.418323 1.032703 -4.651394 33.756277 -0.030892 1.709030 0.201434 -0.057827 -207676.000000 0 0 1
-32.262083 0.532903 -5.286494 32.696682 -0.016516 1.733192 0.234134 -0.061168 132499.000000 0 0 1
-32.472323 -0.170597 -6.500894 33.117102 0.005254 1.768380 0.259203 -0.061135 -217840.000000 0 0 1
-32.957333 0.650103 -7.732094 33.858436 -0.019723 1.801195 0.228755 -0.053198 173982.000000 0 0 1
-34.373955 0.738103 -7.806594 35.257006 -0.021469 1.794066 0.228851 -0.047630 310366.000000 0 0 1
-34.783380 1.477003 -8.910394 35.936891 -0.042437 1.821355 0.190315 -0.045354 -12984.600000 0 0 1
-36.302303 1.770103 -8.959494 37.433447 -0.048721 1.812487 0.159555 -0.039622 163805.000000 0 0 1
-36.659873 2.550103 -7.851194 37.577793 -0.069449 1.781279 0.143333 -0.033558 -1403380.000000 0 0 1
-37.953843 2.431403 -7.458894 38.756174 -0.063975 1.764462 0.130133 -0.025162 -1512590.000000 0 0 1
38.002685 3.245103 -6.225094 38.645654 0.085185 1.732583 0.146459 -0.027683 10785.000000 0 0 1
36.600315 3.139603 -6.082394 37.234872 0.085571 1.734884 0.145487 -0.028322 37193.900000 0 0 1
36.151125 3.871103 -4.999194 36.699881 0.106675 1.707439 0.145588 -0.027678 -635667.000000 0 0 1
34.675705 3.623303 -4.700194 35.179891 0.104113 1.704802 0.165220 -0.033609 -387757.000000 0 0 1
34.594365 2.322103 -4.154994 34.920284 0.067023 1.690064 0.145215 -0.037271 34519.400000 0 0 1
33.300065 1.741303 -4.193594 33.608224 0.052244 1.695901 0.160875 -0.032074 38079.700000 0 0 1
33.259255 0.443503 -3.287094 33.424239 0.013334 1.669300 0.226023 -0.037843 -13921.600000 0 0 1
34.029085 -0.604397 -3.876194 34.254472 -0.017759 1.684198 0.111754 -0.032490 226267.000000 0 0 1
34.042545 -1.734897 -3.069794 34.224675 -0.050919 1.660612 0.162870 -0.036030 133281.000000 0 0 1
34.916025 -2.911397 -3.574794 35.219089 -0.083190 1.672473 0.111628 -0.027462 196761.000000 0 0 1
34.744405 -3.983097 -2.669694 35.073723 -0.114142 1.646987 0.117735 -0.034298 26894.600000 0 0 1
35.684275 -4.997597 -2.932494 36.151667 -0.139145 1.652002 0.160826 -0.035431 111103.000000 0 0 1
35.456655 -6.234997 -2.075694 36.060478 -0.174069 1.628390 0.200146 -0.045825 94559.300000 0 0 1
36.007095 -6.051397 -0.767894 36.520131 -0.166505 1.591824 0.185267 -0.052937 112847.000000 0 0 1
36.136475 -7.278997 -0.032294 36.862307 -0.198771 1.571672 0.233424 -0.062682 511642.000000 0 0 1
35.095055 -7.545097 1.144306 35.915190 -0.211767 1.538930 0.222293 -0.055732 823572.000000 0 0 1
33.739355 -7.604797 0.725206 34.593395 -0.221694 1.549831 0.187267 -0.055278 668923.000000 0 0 1
32.814625 -7.815897 1.806506 33.780932 -0.233827 1.517294 0.248198 -0.073919 -861837.000000 0 0 1
32.448665 -9.316097 2.035706 33.820846 -0.279583 1.510569 0.238834 -0.062121 457775.000000 0 0 1
31.199765 -9.861297 1.553806 32.757974 -0.306134 1.523346 0.222591 -0.064065 941719.000000 0 0 1
30.093065 -9.137597 2.064706 31.517476 -0.294797 1.505240 0.221934 -0.064526 -338183.000000 0 0 1
28.731665 -9.726997 1.494706 30.370334 -0.326435 1.521560 0.224621 -0.061027 357721.000000 0 0 1
27.531965 -9.302597 2.119806 29.138308 -0.325840 1.497982 0.232648 -0.069576 698919.000000 0 0 1
26.850365 -8.250197 1.460906 28.127249 -0.298109 1.518834 0.256222 -0.070475 -377655.000000 0 0 1
26.126765 -8.483697 0.134806 27.469968 -0.313972 1.565889 0.220263 -0.056413 -542748.000000 0 0 1
26.973365 -8.928397 -0.938794 28.428156 -0.319656 1.603826 0.230583 -0.074796 894801.000000 0 0 1
26.243365 -9.296897 -2.143394 27.923837 -0.340462 1.647630 0.221041 -0.078786 273195.000000 0 0 1
25.470065 -10.633097 -2.155194 27.684505 -0.395479 1.648724 0.182087 -0.049042 205906.000000 0 0 1
24.173965 -10.614797 -1.579294 26.448983 -0.413753 1.630543 0.168240 -0.030641 353176.000000 0 0 1
23.648065 -11.914897 -1.755794 26.538247 -0.466717 1.637006 0.138073 -0.024830 -232935.000000 0 0 1
22.189465 -12.213497 -1.334694 25.363818 -0.503165 1.623443 0.134546 -0.023509 29102.500000 0 0 1
21.287265 -11.702697 -2.309894 24.401565 -0.502652 1.665600 0.132920 -0.019300 1315980.000000 0 1 0
19.935865 -12.086397 -1.941894 23.394244 -0.545013 1.653899 0.132325 -0.020894 744996.000000 0 1 0
18.839965 -11.627697 -2.891094 22.327249 -0.552958 1.700648 0.105647 -0.013061 -372285.000000 0 1 0
18.799965 -12.299997 -4.156294 22.847394 -0.579362 1.753730 0.111373 -0.023078 513789.000000 0 1 0
17.858065 -11.692397 -5.029694 21.929899 -0.579700 1.802210 0.092801 -0.022388 -104431.000000 0 1 0
17.948865 -12.401097 -6.418794 22.740930 -0.604601 1.856943 0.116544 -0.026469 16998.000000 0 1 0
17.149465 -13.560697 -6.670594 22.858116 -0.669066 1.866932 0.093681 -0.027629 398852.000000 0 1 0
17.551365 -14.164197 -7.842094 23.878303 -0.679003 1.905426 0.111344 -0.032250 -531877.000000 0 1 0
16.560465 -15.180597 -8.443394 23.999801 -0.741953 1.930301 0.091571 -0.031539 -483282.000000 0 1 0
15.723665 -14.628397 -9.379094 23.434826 -0.749328 1.982554 0.118116 -0.021617 -23764.900000 0 1 0
14.942065 -15.573797 -10.114794 23.835216 -0.806097 2.009055 0.107068 -0.024975 317951.000000 0 1 0
14.308965 -15.046097 -11.444694 23.708913 -0.810504 2.074551 0.117355 -0.050269 420761.000000 0 1 0
13.168865 -14.191397 -11.336494 22.435036 -0.822754 2.100530 0.092292 -0.050075 494829.000000 0 1 0
13.506865 -12.793697 -11.194994 21.712715 -0.758289 2.112500 0.088012 -0.032237 -219711.000000 0 1 0
13.805265 -12.014697 -12.495394 22.160171 -0.716161 2.169857 0.107896 -0.028757 -586088.000000 0 1 0
15.033865 -12.308197 -13.071594 23.417417 -0.686039 2.163011 0.132238 -0.029324 -623396.000000 0 1 0
15.190265 -11.718297 -14.345894 23.955528 -0.657079 2.212867 0.165031 -0.029950 -223614.000000 0 1 0
16.680265 -11.447997 -14.571694 24.932352 -0.601486 2.194997 0.182997 -0.051127 -240446.000000 0 1 0
17.497465 -12.560797 -14.915594 26.199425 -0.622615 2.176463 0.186436 -0.049610 692920.000000 0 0 1
18.656665 -12.098597 -15.623594 27.176164 -0.575311 2.183279 0.182650 -0.041520 708624.000000 0 0 1
19.719765 -13.211097 -15.927394 28.584683 -0.590267 2.161807 0.154039 -0.033954 95645.500000 0 0 1
20.631365 -13.445497 -14.867494 28.765900 -0.577571 2.113957 0.137554 -0.045185 377033.000000 0 0 1
21.687965 -14.311697 -15.298994 30.153801 -0.583297 2.102921 0.087681 -0.037053 -348822.000000 0 0 1
22.793165 -14.307897 -14.279094 30.465338 -0.560558 2.058615 0.081019 -0.038259 -821697.000000 0 0 1
23.577065 -13.136397 -14.292494 30.540438 -0.508330 2.057807 0.119984 -0.033467 172781.000000 0 0 1
24.560365 -13.016697 -13.279994 30.805912 -0.487349 2.016492 0.120621 -0.037505 91959.800000 0 0 1
25.337565 -11.716397 -13.290994 30.917903 -0.433128 2.015156 0.128576 -0.029002 -584296.000000 0 0 1
24.683765 -10.598897 -12.720594 29.722692 -0.405581 2.013048 0.139267 -0.024171 93421.500000 0 0 1
25.496765 -9.469997 -12.554294 29.956238 -0.355628 2.003237 0.161382 -0.030368 -155089.000000 0 0 1
26.566165 -9.472197 -11.427494 30.431419 -0.342499 1.955750 0.188200 -0.033546 -208251.000000 0 0 1
27.720365 -10.131297 -11.855194 31.805777 -0.350400 1.952753 0.169838 -0.033720 -555030.000000 0 0 1
28.794665 -10.015197 -10.967494 32.399427 -0.334726 1.916128 0.193410 -0.038115 390023.000000 0 0 1
30.078865 -10.833797 -11.374194 33.933488 -0.345715 1.912604 0.200986 -0.039981 1002320.000000 0 0 1
30.837365 -10.138197 -12.375694 34.740235 -0.317632 1.935032 0.177159 -0.033400 219649.000000 0 0 1
31.927435 -10.836897 -12.939894 36.114268 -0.327221 1.937247 0.174903 -0.032751 320495.000000 0 0 1
32.567065 -10.239297 -14.249194 36.993195 -0.304621 1.966204 0.143717 -0.029047 318307.000000 0 0 1
31.999725 -10.720697 -15.464994 37.122524 -0.323272 2.000491 0.127434 -0.021478 393619.000000 0 0 1
32.637865 -10.112297 -16.592194 37.984072 -0.300454 2.022857 0.112919 -0.030482 1432.610000 0 0 1
32.158845 -10.837297 -17.875794 38.355995 -0.325040 2.055617 0.089310 -0.021546 57480.900000 0 0 1
30.846165 -10.603997 -18.313194 37.407269 -0.331114 2.082384 0.073868 -0.019631 -53535.300000 0 0 1
30.724265 -9.338897 -18.921794 37.272373 -0.295084 2.103266 0.058292 -0.013627 832456.000000 0 0 1
29.270865 -9.066497 -19.532494 36.338730 -0.300373 2.138280 0.026876 -0.015698 1177820.000000 0 0 1
28.949465 -9.765397 -20.695094 36.901510 -0.325339 2.166172 0.031740 -0.014798 659048.000000 0 0 1
27.692265 -9.193397 -21.099194 36.007723 -0.320536 2.196864 0.057757 -0.019509 336875.000000 0 0 1
27.295065 -9.844597 -22.406694 36.660560 -0.346151 2.228364 0.081165 -0.025820 -357825.000000 0 0 1
26.713165 -11.090997 -22.186294 36.453190 -0.393531 2.225122 0.078512 -0.026684 -139350.000000 0 0 1
26.061265 -11.528597 -23.366594 36.852352 -0.416487 2.257588 0.101767 -0.033421 -964902.000000 0 0 1
26.443165 -12.944897 -23.769394 37.839073 -0.455242 2.249996 0.106468 -0.032224 757104.000000 0 0 1
27.742465 -13.066297 -24.351594 39.158302 -0.440168 2.241932 0.112639 -0.033520 226768.000000 0 0 1
28.801565 -12.935197 -23.435894 39.320359 -0.422117 2.209337 0.090031 -0.033719 -1102450.000000 0 0 1
30.123165 -13.550497 -23.926894 40.786240 -0.422718 2.197702 0.096139 -0.037130 -218843.000000 0 0 1
30.640565 -12.957197 -25.109864 41.680193 -0.400071 2.217352 0.116686 -0.056215 749663.000000 0 0 1
32.009165 -13.396197 -25.225584 42.899591 -0.396362 2.199398 0.074680 -0.053823 1200830.000000 0 0 1
32.806865 -12.825697 -26.465624 44.059258 -0.372676 2.215151 0.087265 -0.048418 368782.000000 0 0 1
32.647115 -13.523697 -27.642754 44.864757 -0.392720 2.234623 0.095707 -0.053158 90154.100000 0 0 1
33.669295 -13.128297 -28.534804 46.045724 -0.371786 2.239164 0.079682 -0.042633 156778.000000 0 0 1
33.690285 -13.853197 -29.870254 47.108157 -0.390118 2.257612 0.081918 -0.043858 96863.900000 0 0 1
34.203665 -15.192197 -29.734994 47.800245 -0.417994 2.242177 0.107092 -0.041868 -143574.000000 0 0 1
34.129165 -16.035997 -30.929354 48.770668 -0.439248 2.257743 0.057489 -0.034956 -100244.000000 0 0 1
32.773015 -16.620897 -31.348004 48.301368 -0.469353 2.277077 0.058003 -0.022794 -267261.000000 0 0 1
31.945565 -15.785697 -32.090944 47.953478 -0.458952 2.303941 0.069681 -0.033631 -168440.000000 0 0 1
30.671465 -16.351597 -32.310284 47.455958 -0.489792 2.319716 0.057480 -0.022721 62444.600000 0 0 1
29.815465 -15.692797 -33.406494 47.447020 -0.484490 2.351923 0.077658 -0.019686 -116879.000000 0 0 1
29.314665 -14.420697 -32.984094 46.424741 -0.457169 2.360984 0.096618 -0.023350 -123534.000000 0 0 1
30.129565 -13.329797 -33.303194 46.846312 -0.416529 2.361578 0.110576 -0.022560 -371466.000000 0 0 1
29.541365 -11.884097 -32.970104 45.836141 -0.382476 2.373596 0.126841 -0.024960 391225.000000 0 0 1
28.528865 -11.467797 33.475472 45.453424 -0.382205 0.742947 0.129281 -0.023697 215808.000000 0 0 1
27.936965 -10.254697 -33.454564 44.775448 -0.351796 2.414580 0.109754 -0.023483 190301.000000 0 0 1
21.856177 -29.479156 8.902806 37.762059 -0.932815 1.332795 0.038153 -0.016818 34748.000000 0 0 1
22.387677 -28.830756 7.756406 37.317321 -0.910537 1.361420 0.053254 -0.017906 119921.000000 0 0 1
23.445577 -29.648656 7.293906 38.495961 -0.901702 1.380172 0.060580 -0.015817 -249710.000000 0 0 1
24.095077 -29.219856 6.025906 38.349502 -0.881227 1.413011 0.065912 -0.012865 -113000.000000 0 0 1
24.819777 -27.997056 6.014206 37.894949 -0.845482 1.411415 0.078235 -0.011316 98611.900000 0 0 1
25.279077 -27.713656 4.717106 37.806476 -0.831308 1.445701 0.074008 -0.003946 -73345.300000 0 0 1
25.323477 -26.206756 4.319106 36.697783 -0.802537 1.452829 0.080325 -0.013322 -288047.000000 0 0 1
26.252777 -25.484856 5.045006 36.934243 -0.770557 1.433774 0.068465 -0.008681 -343305.000000 0 0 1
26.249077 -24.099256 4.638006 35.934653 -0.742725 1.441367 0.062337 -0.006899 22366.900000 0 0 1
26.992177 -23.108656 5.526606 35.960131 -0.708039 1.416498 0.064194 -0.008388 967052.000000 0 0 1
28.435577 -23.038656 5.464406 37.002993 -0.680933 1.422580 0.070581 -0.003691 1235780.000000 0 0 1
29.027677 -22.111456 6.403306 37.047603 -0.650971 1.397084 0.077898 -0.005132 244989.000000 0 0 1
28.587477 -20.632156 6.478706 35.845549 -0.625155 1.389058 0.066225 -0.003212 -267736.000000 0 0 1
28.764277 -19.927056 5.233706 35.381675 -0.605858 1.422330 0.074986 0.019044 163224.000000 0 0 1
28.057277 -18.700256 5.273306 34.127967 -0.587889 1.415659 0.099250 0.009207 -105636.000000 0 0 1
28.132277 -17.822156 3.990006 33.540639 -0.564697 1.451554 0.119126 0.004982 273970.000000 0 0 1
29.370677 -17.140156 3.846806 34.223085 -0.528259 1.458154 0.169559 0.013096 358270.000000 0 0 1
29.375977 -16.138656 2.841506 33.637456 -0.502369 1.486221 0.180190 0.020158 212570.000000 0 0 1
30.508577 -15.127756 3.159206 34.199457 -0.460324 1.478289 0.208565 -0.013862 151159.000000 0 0 1
30.119677 -14.209956 4.128306 33.558318 -0.440820 1.447465 0.201018 -0.025421 -185687.000000 0 0 1
31.141277 -13.318556 4.403206 34.154814 -0.404140 1.441517 0.214566 -0.039605 -649567.000000 0 0 1
30.613777 -12.097756 5.251606 33.333743 -0.376339 1.412591 0.221554 -0.042631 145321.000000 0 0 1
30.410977 -12.219056 6.625806 33.437018 -0.382055 1.371318 0.197878 -0.041177 372822.000000 0 0 1
29.540177 -13.300856 7.015406 33.147410 -0.423073 1.357541 0.204866 -0.028049 39215.100000 0 0 1
29.099877 -13.288856 8.558306 33.115573 -0.428382 1.309392 0.187590 -0.029348 302335.000000 0 0 1
30.160577 -13.562656 9.463906 34.397261 -0.422589 1.292066 0.132445 -0.010996 456515.000000 0 0 1
29.713277 -13.689356 10.818906 34.457598 -0.431729 1.251417 0.164545 -0.003318 78024.400000 0 0 1
30.579977 -14.788256 11.444606 35.844198 -0.450436 1.245819 0.156286 -0.014301 576773.000000 0 0 1
31.754777 -14.306456 12.116206 36.876049 -0.423294 1.236012 0.131826 -0.018979 564208.000000 0 0 1
32.343177 -15.337256 12.912106 38.053055 -0.442798 1.224604 0.133656 -0.018343 363030.000000 0 0 1
33.432177 -14.823456 13.889106 39.119721 -0.417343 1.207838 0.122791 -0.030746 383204.000000 0 0 1
34.646077 -14.405156 13.284406 39.803701 -0.394036 1.230520 0.091308 -0.036395 816099.000000 0 0 1
35.677077 -14.342056 14.306206 41.027015 -0.382226 1.214610 0.072933 -0.038000 -814041.000000 0 0 1
37.041377 -14.109256 13.772906 41.962217 -0.363938 1.236376 0.091915 -0.027715 -1578300.000000 0 0 1
37.272277 -12.753656 13.605906 41.677321 -0.329687 1.238242 0.113960 -0.034857 518160.000000 0 0 1
-38.068911 -12.560956 12.674806 42.043671 0.318705 1.264565 0.113113 -0.033944 18393.200000 0 0 1
-37.414011 -11.190756 12.788406 41.092390 0.290636 1.254329 0.127617 -0.032853 -59597.600000 0 0 1
-36.341911 -10.978556 11.881306 39.779751 0.293374 1.267490 0.135818 -0.039500 333594.000000 0 0 1
-35.484811 -9.885156 12.158406 38.790655 0.271686 1.251987 0.142802 -0.049371 446418.000000 0 0 1
-34.197011 -9.860756 11.275706 37.333786 0.280736 1.263981 0.172734 -0.038995 537171.000000 0 0 1
-33.263511 -10.908756 11.428006 36.824739 0.316897 1.255251 0.144845 -0.040598 419218.000000 0 0 1
-33.684411 -12.106356 10.778406 37.381512 0.345029 1.278309 0.135039 -0.037810 -364689.000000 0 0 1
-32.905411 -13.323356 11.392106 37.283481 0.384722 1.260276 0.110310 -0.037608 430148.000000 0 0 1
-31.545211 -13.282256 11.022406 35.958477 0.398524 1.259249 0.151176 -0.040578 -10178.100000 0 0 1
-30.843011 -14.499756 11.317606 35.911314 0.439455 1.250177 0.144607 -0.028864 -220771.000000 0 0 1
-29.412611 -14.535656 10.794506 34.538505 0.458995 1.252935 0.165079 -0.019907 -462419.000000 0 0 1
-29.334711 -14.441956 9.361806 34.010862 0.457482 1.291937 0.162066 -0.031595 334548.000000 0 0 1
-27.969611 -14.454256 8.994406 32.743304 0.476985 1.292524 0.155544 -0.024666 86213.400000 0 0 1
-27.931111 -14.393956 7.485706 32.301218 0.475842 1.336923 0.190213 -0.021629 -72708.800000 0 0 1
-28.401511 -15.538656 6.788306 33.078343 0.500619 1.364109 0.199863 -0.009395 341299.000000 0 0 1
-28.240411 -15.397556 5.388006 32.613435 0.499175 1.404827 0.217412 -0.005901 -325433.000000 0 0 1
-28.887611 -16.566756 4.630906 33.621373 0.520699 1.432620 0.187640 -0.007554 -1093550.000000 0 0 1
-30.222211 -16.311856 4.394706 34.623289 0.494925 1.443524 0.129239 -0.018654 -857405.000000 0 0 1
-30.768111 -17.410556 3.693606 35.544997 0.514941 1.466695 0.122425 -0.010405 -760786.000000 0 0 1
-32.251411 -17.612156 3.993906 36.963398 0.499836 1.462535 0.144227 -0.021400 -776177.000000 0 0 1
-33.033611 -16.745156 3.186706 37.172231 0.469162 1.484963 0.192646 -0.032084 -297431.000000 0 0 1
-34.364511 -17.192156 3.272106 38.564187 0.463878 1.485846 0.196605 -0.023930 -906254.000000 0 0 1
-35.377211 -16.333456 2.589406 39.051682 0.432536 1.504440 0.170093 -0.028062 -558111.000000 0 0 1
-35.313311 -16.573356 1.191306 39.027237 0.438806 1.540267 0.154117 -0.026260 -23911.300000 0 0 1
-36.038811 -15.609356 0.457406 39.276674 0.408734 1.559150 0.193872 -0.028738 37483.700000 0 0 1
-36.407011 -15.992756 -1.016094 39.777772 0.413901 1.596343 0.158631 -0.034723 437068.000000 0 0 1
-35.241611 -16.232656 -1.802094 38.842217 0.431643 1.617208 0.147548 -0.033834 830398.000000 0 0 1
-35.655811 -16.791256 -3.020994 39.527326 0.440119 1.647299 0.129180 -0.024401 200055.000000 0 0 1
-34.458911 -17.543556 -3.632994 38.838017 0.470913 1.664476 0.109424 -0.010483 84433.700000 0 0 1
-34.846611 -18.350956 -4.746294 39.668264 0.484717 1.690733 0.113783 -0.022294 109492.000000 0 0 1
-33.823811 -19.221956 -5.149994 39.243550 0.516782 1.702408 0.102310 -0.020615 -146700.000000 0 0 1
-34.389711 -20.317756 -6.155194 40.414723 0.533634 1.723692 0.097211 -0.022229 455874.000000 0 0 1
-35.364711 -21.154056 -5.519494 41.576696 0.539072 1.703944 0.113660 -0.020336 213002.000000 0 0 1
-35.714411 -22.174356 -6.467994 42.533001 0.555631 1.723459 0.125042 -0.022900 -27035.300000 0 0 1
-36.473911 -23.407156 -5.822394 43.728039 0.570554 1.704343 0.134064 -0.018399 75184.100000 0 0 1
-35.765311 -24.254956 -4.960194 43.497861 0.595924 1.685078 0.154859 -0.022732 -572464.000000 0 0 1
-36.552311 -25.372156 -4.668194 44.739354 0.606777 1.675329 0.138528 -0.019942 121794.000000 0 0 1
-35.788911 -26.630656 -4.117694 44.799480 0.639717 1.662840 0.114131 -0.023640 -9729.010000 0 0 1
-34.967511 -27.261956 -5.132294 44.634981 0.662200 1.686035 0.093639 -0.026084 490142.000000 0 0 1
-34.182611 -28.350156 -4.731194 44.660569 0.692397 1.676932 0.096547 -0.029068 398056.000000 0 0 1
-33.020511 -28.116156 -3.704194 43.526928 0.705350 1.656001 0.120059 -0.046167 -360736.000000 0 0 1
-33.468911 -27.925456 -2.369194 43.653318 0.695350 1.625096 0.086919 -0.035062 928870.000000 0 0 1
-32.372011 -27.875656 -1.400994 42.742977 0.710905 1.603579 0.106787 -0.039724 741721.000000 0 0 1
-32.918411 -27.716456 0.050506 43.032851 0.699816 1.569623 0.084591 -0.028631 27435.700000 0 0 1
-33.288411 -28.959556 0.619506 44.126613 0.715968 1.556757 0.082074 -0.015264 -207973.000000 0 0 1
-34.197411 -28.779156 1.686706 44.727483 0.699573 1.533077 0.079332 -0.006241 -190777.000000 0 0 1
-34.857611 -30.071056 2.137206 46.085671 0.711811 1.524405 0.065576 -0.009128 -90257.600000 0 0 1
-35.848011 -29.837256 3.147806 46.746662 0.694144 1.503408 0.054874 -0.003564 362486.000000 0 0 1
-36.482511 -30.935356 3.739606 47.978688 0.703303 1.492774 0.044439 0.000633 26112.000000 0 0 1
-37.571911 -31.672156 2.965406 49.229743 0.700401 1.510524 0.047132 0.007619 -644786.000000 0 0 1
-38.098211 -32.814756 3.560206 50.407906 0.711029 1.500110 0.071092 0.003020 -375319.000000 0 0 1
37.345277 -33.319156 2.683006 50.120200 -0.728484 1.517239 0.077279 0.001530 -697853.000000 0 0 1
36.219677 33.232603 3.363106 49.270493 0.742416 1.502485 0.080777 -0.001146 130125.000000 0 0 1
35.350977 -33.642256 4.364006 48.995281 -0.760637 1.481608 0.075697 0.003226 805201.000000 0 0 1
34.650777 -32.447456 3.962206 47.636256 -0.752573 1.487524 0.079556 0.003063 -497981.000000 0 0 1
33.623677 -32.443656 2.809206 46.808484 -0.767539 1.510745 0.070117 0.006296 -562986.000000 0 0 1
34.136477 -32.775756 1.502906 47.347735 -0.765065 1.539049 0.061939 0.012266 -374604.000000 0 0 1
33.179277 -32.611056 0.472106 46.524922 -0.776762 1.560649 0.059272 0.009653 -775216.000000 0 0 1
33.605277 -33.248856 -0.851294 47.281348 -0.780067 1.588802 0.046979 -0.000544 624253.000000 0 0 1
34.673077 -32.675456 -1.598294 47.670350 -0.755746 1.604331 0.038715 -0.005270 -36791.000000 0 0 1
35.919777 -32.524256 -0.975994 48.466589 -0.735829 1.590935 0.051078 -0.004033 -696602.000000 0 0 1
37.092577 -32.292156 -1.971394 49.219194 -0.716323 1.610860 0.039759 -0.003048 -198846.000000 0 0 1
37.456877 -33.466356 -2.639194 50.298907 -0.729192 1.623291 0.042278 -0.012321 408037.000000 0 0 1
-38.056111 -33.185756 -3.710194 50.629315 0.717141 1.644144 0.049077 -0.012003 -202669.000000 0 0 1
-37.357011 33.040203 -4.372794 50.063186 -0.724154 1.658253 0.046103 -0.019229 -49085.500000 0 0 1
-36.267411 32.454703 -3.698394 48.808923 -0.729975 1.646642 0.078675 -0.016430 156078.000000 0 0 1
-35.627011 31.462403 -4.493094 47.742587 -0.723402 1.665047 0.100259 -0.028902 -304653.000000 0 0 1
-34.285211 30.947503 -3.992094 46.359039 -0.734277 1.657016 0.122681 -0.028516 -1126550.000000 0 0 1
-33.208511 31.830603 -4.194194 46.190732 -0.764216 1.661723 0.111307 -0.021690 614663.000000 0 0 1
-31.937111 31.246203 -3.841894 44.844893 -0.774464 1.656572 0.153440 -0.025553 1073510.000000 0 0 1
-31.626311 31.107903 -2.301594 44.420969 -0.777135 1.622633 0.138356 -0.019216 -407145.000000 0 0 1
-32.457411 30.140103 -1.665194 44.324736 -0.748396 1.608373 0.119147 -0.017941 75714.300000 0 0 1
-32.107211 29.920003 -0.312094 43.888233 -0.750151 1.577908 0.127516 -0.017604 503364.000000 0 0 1
-33.298111 29.176303 0.379506 44.273749 -0.719518 1.562224 0.118233 -0.023197 556527.000000 0 0 1
-33.643511 27.855503 -0.063094 43.678586 -0.691559 1.572241 0.131669 -0.033370 2029.040000 0 0 1
-34.874411 27.846203 -0.747694 44.634007 -0.673808 1.587549 0.109687 -0.023863 -510.979000 0 0 1
-35.325611 26.501003 -1.329894 44.181111 -0.643624 1.600902 0.121733 -0.018891 101264.000000 0 0 1
-35.545311 25.538103 -0.292294 43.769273 -0.623012 1.577474 0.108491 -0.023408 -87621.000000 0 0 1
-35.645711 24.234003 -0.793294 43.110705 -0.597079 1.589199 0.126384 -0.022336 -323460.000000 0 0 1
-35.523111 23.092903 0.214106 42.370030 -0.576432 1.565743 0.133749 -0.024790 531880.000000 0 0 1
-34.202511 22.860103 0.726206 41.145151 -0.589184 1.553146 0.159102 -0.032055 571354.000000 0 0 1
-33.894511 23.703503 1.824306 41.400749 -0.610277 1.526718 0.160537 -0.037990 -821782.000000 0 0 1
-32.461611 23.548603 2.353706 40.172538 -0.627590 1.512173 0.151697 -0.044713 557544.000000 0 0 1
-31.443111 24.098003 1.484306 39.643236 -0.653915 1.533346 0.167166 -0.043911 447944.000000 0 0 1
-31.054511 25.358703 2.067106 40.146225 -0.684773 1.519284 0.159940 -0.046718 203627.000000 0 0 1
-30.206211 26.225303 1.050306 40.016057 -0.714971 1.544546 0.137772 -0.034263 -168348.000000 0 0 1
-29.002811 25.716603 0.602606 38.766865 -0.725415 1.555251 0.144194 -0.031201 -954785.000000 0 0 1
-28.430011 26.627803 -0.306594 38.953811 -0.752677 1.578667 0.132169 -0.025054 -133936.000000 0 0 1
-27.148211 26.081703 -0.934194 37.658376 -0.765365 1.595606 0.125456 -0.028817 -549537.000000 0 0 1
-27.409111 25.011203 -1.858294 37.152024 -0.739686 1.620836 0.140841 -0.034057 -189086.000000 0 0 1
-26.332411 24.558303 -2.679894 36.106619 -0.750551 1.645086 0.130961 -0.022675 516000.000000 0 0 1
-25.411211 23.567603 -1.867694 34.708066 -0.747775 1.624634 0.115508 -0.028061 498035.000000 0 0 1
-26.051211 22.345003 -1.409194 34.350409 -0.708967 1.611832 0.123257 -0.030592 63382.200000 0 0 1
-25.087311 21.539503 -0.767294 33.074342 -0.709455 1.593997 0.137166 -0.046703 -298449.000000 0 0 1
-25.771611 20.207603 -0.408894 32.751952 -0.664972 1.583281 0.172026 -0.046921 439007.000000 0 0 1
-26.802211 20.210103 0.586606 33.573068 -0.646086 1.553323 0.158141 -0.049394 1148330.000000 0 0 1
-28.061311 20.848903 0.298106 34.960017 -0.638991 1.562269 0.144760 -0.041771 914581.000000 0 0 1
-28.942611 20.226303 -0.864594 35.320328 -0.609948 1.595277 0.149055 -0.047406 -151223.000000 0 0 1
-29.360311 18.892303 -0.569694 34.918069 -0.571767 1.587112 0.180348 -0.055113 77662.900000 0 0 1
-30.058911 18.275603 -1.613694 35.215619 -0.546276 1.616636 0.168160 -0.044182 -52069.200000 0 0 1
-30.413211 16.810303 -1.355894 34.776258 -0.504937 1.609795 0.168826 -0.044100 407040.000000 0 0 1
-31.325511 16.507503 -0.277594 35.409919 -0.484988 1.578636 0.164153 -0.048995 516131.000000 0 0 1
-31.562911 15.139603 0.005306 35.006070 -0.447247 1.570645 0.165364 -0.053927 325048.000000 0 0 1
-30.395911 14.301203 0.652406 33.598533 -0.439768 1.551377 0.242099 -0.060920 96861.500000 0 0 1
-30.040511 14.651003 2.010306 33.483212 -0.453766 1.510721 0.265271 -0.061744 614367.000000 0 0 1
-28.849111 14.023203 2.515206 32.175265 -0.452456 1.492544 0.318634 -0.069848 437988.000000 0 0 1
-28.779711 12.455303 2.507306 31.459385 -0.408442 1.491012 0.350571 -0.072471 -474269.000000 0 0 1
-28.568911 11.879003 1.208706 30.963759 -0.394054 1.531750 0.344450 -0.074644 324265.000000 0 0 1
-28.420411 10.442103 1.212806 30.302280 -0.352105 1.530762 0.402344 -0.074802 -143036.000000 0 0 1
-28.211911 9.923903 -0.198494 29.907109 -0.338244 1.577433 0.379556 -0.067774 -208788.000000 0 0 1
-29.417911 9.741103 -0.894794 31.001665 -0.319765 1.599663 0.345015 -0.061313 148313.000000 0 0 1
-29.184911 8.988003 -2.073194 30.607864 -0.298750 1.638582 0.347680 -0.053560 -44212.800000 0 0 1
-30.503011 8.499403 -2.696294 31.779609 -0.271748 1.655742 0.317221 -0.046961 3461.310000 0 0 1
-30.325611 7.720603 -3.879394 31.532524 -0.249294 1.694137 0.335886 -0.043582 -1245200.000000 0 0 1
-31.535011 7.473803 -4.428494 32.709726 -0.232707 1.706601 0.295797 -0.038232 -1410170.000000 0 0 1
-11.682323 17.656803 -20.982194 29.807580 -0.986287 2.351700 0.204338 -0.021657 397169.000000 0 0 1
-11.815123 16.557303 -21.813194 29.825440 -0.951008 2.391113 0.209943 -0.050680 -416907.000000 0 0 1
-10.601423 15.859503 -21.827394 28.988776 -0.981554 2.423345 0.193488 -0.056828 -229671.000000 0 0 1
-10.757923 14.353403 -22.338194 28.648700 -0.927613 2.465028 0.173196 -0.031074 47561.700000 0 0 1
-9.537423 13.696803 -22.071594 27.671649 -0.962541 2.494143 0.209620 -0.056468 113382.000000 0 0 1
-9.501723 12.377503 -22.566094 27.435633 -0.916088 2.536607 0.179045 -0.057541 262432.000000 0 0 1
-8.227223 11.623003 -22.081094 26.274629 -0.954828 2.568810 0.171082 -0.053726 1043570.000000 0 0 1
-6.980923 12.094403 -22.627694 26.589856 -1.047308 2.588663 0.096037 -0.034871 737269.000000 0 0 1
-5.962023 11.203303 -22.168294 25.543943 -1.081748 2.621653 0.084511 -0.030838 -181843.000000 0 0 1
-4.550723 11.463503 -22.686094 25.822081 -1.192901 2.643623 0.033816 -0.019196 -254814.000000 0 0 1
-4.277523 11.121803 -24.007494 26.802080 -1.203630 2.680872 0.030093 -0.022073 -439293.000000 0 0 1
-2.929123 11.330403 -24.309594 26.979885 -1.317816 2.692927 0.024334 -0.015991 -541787.000000 0 0 1
-2.649923 10.833103 -25.754524 28.065526 -1.330894 2.732940 0.068815 -0.031413 -1018540.000000 0 0 1
-2.770023 9.413603 -25.852734 27.652357 -1.284616 2.778829 0.078401 -0.039193 125512.000000 0 0 1
-2.321823 8.997903 -27.117364 28.665390 -1.318265 2.811452 0.096201 -0.040730 -186637.000000 0 0 1
-2.182723 7.464603 -27.237454 28.326022 -1.286318 2.863461 0.110478 -0.018758 175688.000000 0 0 1
-1.171123 6.752203 -26.541094 27.411557 -1.399062 2.888908 0.108592 -0.035819 75676.600000 0 0 1
-1.207923 6.934803 -25.092354 26.061021 -1.398344 2.868090 0.111635 -0.046555 -19004.600000 0 0 1
-0.222923 6.049903 -24.255894 24.999989 -1.533966 2.897001 0.032002 -0.037571 -365171.000000 0 1 0
1.117577 6.444603 -24.353394 25.216457 1.399091 2.879207 0.056817 -0.013362 113352.000000 0 0 1
1.967177 5.792303 -23.360994 24.148636 1.243399 2.885486 0.059239 -0.002705 542999.000000 0 1 0
1.970477 6.372203 -21.959794 22.950388 1.270893 2.846715 0.058695 -0.006391 -262582.000000 0 1 0
2.833577 7.474303 -21.712994 23.137599 1.208428 2.788851 0.069527 -0.027768 227635.000000 0 1 0
2.475577 8.262303 -20.572194 22.307159 1.279685 2.744590 0.072440 -0.022847 274874.000000 0 1 0
3.317877 9.589203 -20.460894 22.838768 1.237688 2.681214 0.071814 -0.029682 225841.000000 0 1 0
3.004577 10.354903 -19.294494 22.102693 1.288391 2.632009 0.075391 -0.031478 175304.000000 0 1 0
3.600577 11.645803 -19.356494 22.874938 1.270945 2.579587 0.079958 -0.032598 23921.700000 0 1 0
4.871377 11.870103 -18.514294 22.525736 1.181365 2.535565 0.098239 -0.036231 -10036.600000 0 1 0
5.953577 11.085403 -18.919894 22.722096 1.077939 2.554699 0.106853 -0.034509 -175927.000000 0 1 0
6.880077 10.678403 -17.930494 21.974221 0.998440 2.525216 0.109469 -0.036721 218701.000000 0 1 0
7.935877 9.679403 -18.455094 22.299316 0.884055 2.545629 0.140811 -0.046973 59001.700000 0 1 0
7.487877 8.337903 -18.620494 21.732735 0.839058 2.599818 0.118432 -0.043826 437684.000000 0 1 0
6.864277 8.092703 -19.910894 22.562222 0.867345 2.651923 0.092297 -0.031225 -5903.920000 0 1 0
6.870577 6.622403 -20.281194 22.414011 0.767007 2.701811 0.104045 -0.021298 309334.000000 0 1 0
8.105577 6.009003 -20.662894 22.994863 0.637937 2.687336 0.095213 -0.008681 604455.000000 0 1 0
8.006577 4.601203 -20.811594 22.768373 0.521592 2.723973 0.075035 -0.003520 -244863.000000 0 1 0
8.208277 4.134503 -22.247994 24.071626 0.466603 2.749840 0.080584 -0.023025 -179124.000000 0 1 0
7.159577 4.625703 -23.063894 24.588613 0.573619 2.787585 0.091700 -0.020028 128208.000000 0 1 0
7.398377 4.493503 -24.412494 25.901688 0.545816 2.800848 0.083359 -0.023345 224065.000000 0 0 1
6.411777 5.378003 -25.273444 26.622938 0.697938 2.821833 0.066970 -0.024309 316137.000000 0 0 1
6.580877 6.795203 -25.195714 26.912948 0.801420 2.782434 0.048337 -0.035015 158973.000000 0 0 1
6.014477 7.436603 -24.064194 25.895221 0.890733 2.763285 0.096538 -0.040984 -632015.000000 0 0 1
5.906077 9.013203 -24.218994 26.508098 0.990726 2.722959 0.112881 -0.052656 30874.900000 0 0 1
4.711077 9.319903 -24.879394 26.982200 1.102770 2.744184 0.097305 -0.051852 -841486.000000 0 0 1
3.582677 9.475403 -24.123194 26.163856 1.209308 2.744023 0.096912 -0.045641 -1460300.000000 0 0 1
2.287977 9.632303 -24.902094 26.797955 1.337587 2.763183 0.120712 -0.035678 -450084.000000 0 0 1
2.111977 10.953803 -25.474374 27.809891 1.380326 2.728836 0.130337 -0.041534 -546621.000000 0 0 1
0.826777 11.059303 -26.001454 28.267780 1.496177 2.738434 0.148966 -0.052034 -897047.000000 0 0 1
0.426277 12.496003 -26.395494 29.207087 1.536696 2.699214 0.121781 -0.056130 -442413.000000 0 0 1
-0.012623 13.271703 -25.321674 28.588905 -1.569845 2.658832 0.103708 -0.050018 47631.300000 0 0 1
-0.421223 14.566903 -25.805924 29.636428 -1.541888 2.627522 0.090335 -0.046187 -77896.700000 0 0 1
-0.855523 15.449703 -24.647794 29.102217 -1.515478 2.580997 0.087954 -0.043766 -155327.000000 0 0 1
-2.058023 14.953003 -24.109294 28.444434 -1.434023 2.582228 0.068293 -0.030531 -282494.000000 0 0 1
-2.258923 15.731503 -22.947894 27.913953 -1.428179 2.535876 0.058886 -0.031456 571463.000000 0 0 1
-3.611923 15.406903 -22.195794 27.259346 -1.340520 2.522224 0.044275 -0.029499 952317.000000 0 0 1
-4.827623 15.811903 -22.790794 28.155684 -1.274470 2.514022 0.048515 -0.034267 -17155.700000 0 0 1
-5.346623 14.837203 -23.692994 28.462027 -1.224929 2.554297 0.062285 -0.038485 -743639.000000 0 0 1
-6.834223 15.002303 -23.974994 29.095980 -1.143341 2.539226 0.063125 -0.032479 -613019.000000 0 0 1
-7.218423 16.163803 -24.618394 30.322261 -1.150791 2.518182 0.075398 -0.033497 -479149.000000 0 0 1
-8.596523 16.031803 -24.873894 30.816060 -1.078597 2.510144 0.104669 -0.039571 -84341.400000 0 0 1
-9.360623 17.310103 -25.372584 32.109640 -1.075074 2.481909 0.123172 -0.041224 274418.000000 0 0 1
-9.607023 18.244403 -24.313894 31.879752 -1.086116 2.438235 0.135049 -0.042201 -451806.000000 0 0 1
-10.746223 19.007903 -24.571194 32.871344 -1.056240 2.415081 0.123616 -0.026031 -45144.100000 0 0 1
-10.856223 20.009303 -23.426594 32.665504 -1.073684 2.370524 0.106260 -0.034441 -86056.300000 0 0 1
-10.061223 21.157003 -23.540794 33.211685 -1.126899 2.358607 0.151207 -0.031482 -177349.000000 0 0 1
-10.834623 22.329503 -23.642494 34.277738 -1.119046 2.331917 0.119454 -0.033614 -89253.200000 0 0 1
-10.993723 22.900803 -25.144894 35.743173 -1.123229 2.351090 0.093865 -0.019397 -245438.000000 0 0 1
-11.740823 22.115803 -26.008224 36.102402 -1.082752 2.375177 0.095188 -0.027079 -255795.000000 0 0 1
-11.980323 22.801303 -27.172374 37.440159 -1.087018 2.382927 0.083107 -0.020472 387874.000000 0 0 1
-12.749023 21.937703 -28.290784 38.002222 -1.044355 2.410508 0.089501 -0.021451 869131.000000 0 0 1
-11.906423 20.945603 -28.919524 37.640671 -1.053902 2.446986 0.092356 -0.028120 447101.000000 0 0 1
-11.414423 19.880103 -28.090014 36.256813 -1.049591 2.457118 0.088407 -0.026078 246003.000000 0 0 1
-10.258823 19.081503 -28.728674 35.981717 -1.077498 2.495470 0.067071 -0.028467 -362289.000000 0 0 1
-9.024323 19.759703 -28.929994 36.177740 -1.142382 2.497530 0.064493 -0.026014 616962.000000 0 0 1
-8.048823 18.980903 -29.650324 36.113709 -1.169732 2.534004 0.062961 -0.021490 884824.000000 0 0 1
-7.494123 17.595903 -29.058654 34.787686 -1.168162 2.559501 0.080614 -0.041265 -717054.000000 0 0 1
-8.520723 16.660003 -28.892114 34.422561 -1.098032 2.566858 0.062152 -0.032143 -392776.000000 0 0 1
-8.117523 15.489003 -28.229144 33.206746 -1.088068 2.586977 0.054518 -0.032706 75849.600000 0 0 1
-9.304023 14.502303 -28.100084 32.962045 -1.000381 2.591542 0.066935 -0.019552 351950.000000 0 0 1
-10.241223 14.787103 -27.063364 32.495642 -0.965069 2.554998 0.095947 -0.034615 -238895.000000 0 0 1
-11.299523 13.854403 -27.155854 32.512523 -0.886621 2.559371 0.138546 -0.034962 -177970.000000 0 0 1
-12.392823 14.162503 -26.115414 32.189648 -0.851941 2.517166 0.142774 -0.033510 -443202.000000 0 0 1
-13.117123 15.287003 -26.436584 33.236191 -0.861643 2.490489 0.120257 -0.038293 -1217100.000000 0 0 1
-14.041523 15.508803 -25.440564 32.937967 -0.835011 2.453373 0.134862 -0.038892 119041.000000 0 0 1
-15.114323 16.609503 -25.790604 34.197568 -0.832494 2.425178 0.113547 -0.033433 669800.000000 0 0 1
-14.646723 17.947203 -26.013194 34.832670 -0.886315 2.414040 0.103425 -0.032933 -58279.800000 0 0 1
-15.781123 18.758303 -25.929294 35.682574 -0.871382 2.384252 0.081151 -0.026528 -126037.000000 0 0 1
-15.245623 20.179003 -25.847414 36.162273 -0.923772 2.367080 0.071696 -0.028442 939024.000000 0 0 1
-16.327123 21.126503 -25.987354 37.259182 -0.912846 2.342664 0.035287 -0.014893 689695.000000 0 0 1
-15.863523 22.434103 -26.195424 37.962358 -0.955310 2.332336 0.042743 -0.018913 222578.000000 0 0 1
-15.202323 23.197503 -24.953594 37.308399 -0.990674 2.303452 0.023555 -0.015059 379542.000000 0 0 1
-14.912623 24.513703 -25.361874 38.295334 -1.024268 2.294641 0.041397 -0.018555 73447.900000 0 0 1
-14.351023 25.312403 -24.300294 37.910077 -1.055028 2.266595 0.055649 -0.025490 73804.100000 0 0 1
-14.012723 26.774803 -24.705394 39.033358 -1.088640 2.256129 0.068618 -0.021551 -107509.000000 0 0 1
-15.133723 27.505203 -25.128854 40.212251 -1.067790 2.245807 0.088955 -0.027489 -134459.000000 0 0 1
-15.656123 28.301703 -24.041794 40.300229 -1.065510 2.210013 0.088717 -0.030191 853633.000000 0 0 1
-16.988523 29.057503 -24.427194 41.588896 -1.041739 2.198576 0.078580 -0.027649 713378.000000 0 0 1
-18.112923 28.232403 -24.614394 41.605468 -1.000374 2.203856 0.054560 -0.022484 -567195.000000 0 0 1
-19.251823 29.070203 -24.777794 42.774391 -0.985856 2.188626 0.051496 -0.021273 182526.000000 0 0 1
-20.458823 28.096803 -24.913094 42.762788 -0.941423 2.192706 0.056894 -0.002381 -109070.000000 0 0 1
-20.807723 27.580703 -23.628994 41.856731 -0.924466 2.170649 0.062756 -0.012985 -194711.000000 0 0 1
-21.812723 26.569803 -23.746094 41.780693 -0.883405 2.175297 0.055132 -0.028195 131793.000000 0 0 1
-22.389023 26.298103 -22.351194 41.139208 -0.865516 2.145167 0.057513 -0.022480 -135527.000000 0 0 1
-23.264523 27.310303 -21.920094 42.042612 -0.865224 2.119261 0.051777 -0.016026 -202998.000000 0 0 1
-23.929023 26.974503 -20.724794 41.590132 -0.845155 2.092445 0.038877 -0.010166 -324616.000000 0 0 1
-25.160643 27.800003 -20.311794 42.643489 -0.835193 2.067257 0.028545 -0.007766 -484087.000000 0 0 1
-26.294633 27.396603 -21.030494 43.408102 -0.805920 2.076569 0.041585 -0.017907 -365630.000000 0 0 1
-27.399783 28.094903 -20.426094 44.241350 -0.797923 2.050704 0.055548 -0.019178 298857.000000 0 0 1
-28.723923 27.411103 -20.833494 44.838229 -0.762016 2.054021 0.061925 -0.024138 -169895.000000 0 0 1
-29.099263 27.611703 -22.135094 45.816325 -0.759174 2.075019 0.071708 -0.028554 -75659.300000 0 0 1
-30.414033 27.138803 -22.374094 46.498690 -0.728551 2.072793 0.086703 -0.024273 243826.000000 0 0 1
-30.630613 26.765803 -23.845894 47.151557 -0.718164 2.101023 0.082130 -0.024960 -33900.700000 0 0 1
-30.072863 25.515303 -24.096494 46.217408 -0.703593 2.119255 0.088616 -0.002463 -89583.100000 0 0 1
-30.316653 25.172803 -25.444694 46.906310 -0.692963 2.144156 0.101809 -0.010787 -56740.000000 0 0 1
-30.457093 23.697703 -25.780974 46.409851 -0.661224 2.159768 0.088263 -0.009625 -92254.000000 0 0 1
-29.256223 22.973403 -25.826214 45.284624 -0.665681 2.177678 0.103508 -0.018451 -79566.900000 0 0 1
-29.575513 21.861503 -26.668274 45.429430 -0.636538 2.198177 0.093657 -0.008782 147697.000000 0 0 1
-28.741373 20.579503 -26.464444 44.158230 -0.621399 2.213435 0.114594 -0.003382 -48260.400000 0 0 1
-28.807363 20.014703 -25.147684 43.160845 -0.607212 2.192782 0.099446 0.001502 29447.600000 0 0 1
-27.986543 18.896403 -24.928994 41.973508 -0.593884 2.206722 0.104109 -0.002601 370360.000000 0 0 1
-28.865953 17.587003 -24.853594 41.955298 -0.547204 2.204809 0.079301 0.002544 487334.000000 0 0 1
-29.608073 17.265903 -26.008084 43.025223 -0.527937 2.219915 0.068114 -0.001858 291897.000000 0 0 1
-30.336113 16.041903 -25.887824 42.986066 -0.486426 2.217097 0.037067 -0.004823 100695.000000 0 0 1
-31.143983 15.612403 -27.154564 44.170863 -0.464685 2.232880 0.027779 -0.006168 195494.000000 0 0 1
-32.329783 16.377703 -27.295434 45.370527 -0.468900 2.216313 0.021200 -0.007586 386844.000000 0 0 1
-33.052623 15.859803 -28.454044 46.407347 -0.447386 2.230821 0.037773 -0.010777 131943.000000 0 0 1
-34.416619 16.410003 -28.851154 47.814025 -0.444920 2.218559 0.058324 -0.022801 -647134.000000 0 0 1
-35.460017 16.100203 -28.003594 47.966974 -0.426207 2.194210 0.038320 -0.014199 -286650.000000 0 0 1
-36.706223 16.567503 -28.487474 49.329151 -0.423979 2.186457 0.061097 -0.021709 521902.000000 0 0 1
-37.927603 16.235203 -27.587254 49.630046 -0.404458 2.160191 0.076010 -0.016809 116542.000000 0 0 1
38.098185 17.258803 -26.696214 49.618806 0.425353 2.138890 0.082478 -0.023718 -494636.000000 0 0 1
37.069035 16.824903 -25.882284 48.239853 0.426076 2.137120 0.104310 -0.020446 -337651.000000 0 0 1
36.398855 17.918103 -24.982894 47.645358 0.457445 2.122749 0.116933 -0.023173 247267.000000 0 0 1
35.700795 18.932003 -25.695254 47.887510 0.487590 2.137170 0.125216 -0.042078 242605.000000 0 0 1
35.241975 19.983103 -24.826494 47.515009 0.515821 2.120574 0.146859 -0.033088 -144585.000000 0 0 1
34.495015 21.160803 -25.541804 47.854670 0.550247 2.133810 0.151635 -0.048884 1340290.000000 0 0 1
33.137725 21.071803 -26.021654 47.108983 0.566389 2.156003 0.154114 -0.047194 1073480.000000 0 0 1
32.172375 21.085203 -24.953194 45.850948 0.580150 2.146260 0.143993 -0.036689 693114.000000 0 0 1
30.701265 21.003803 -25.495154 45.096900 0.599999 2.171644 0.102195 -0.032722 701966.000000 0 0 1
30.319665 19.689503 -25.844204 44.439640 0.575951 2.191438 0.113410 -0.046112 -841721.000000 0 0 1
29.031165 19.775503 -26.387564 43.933844 0.597984 2.215073 0.104100 -0.045732 -601288.000000 0 0 1
28.317565 18.416703 -26.455354 42.906238 0.576631 2.235194 0.129493 -0.038914 -153467.000000 0 0 1
28.970665 17.453003 -27.296214 43.462514 0.542210 2.249829 0.125198 -0.043628 1209210.000000 0 0 1
30.183665 16.880703 -26.744434 43.718149 0.509930 2.229063 0.133939 -0.046234 759589.000000 0 0 1
30.862465 15.754403 -27.612264 44.307225 0.471990 2.243624 0.113746 -0.040934 73828.100000 0 0 1
30.026765 14.644903 -27.864984 43.503301 0.453782 2.265979 0.123592 -0.034444 51452.400000 0 0 1
29.514065 13.876603 -26.810214 42.218808 0.439499 2.258844 0.148499 -0.026736 -24910.700000 0 0 1
30.608465 13.085703 -26.044894 42.266421 0.404002 2.234715 0.140786 -0.019227 229634.000000 0 0 1
31.281865 13.780903 -25.019594 42.360931 0.414959 2.202634 0.140449 -0.029955 -410164.000000 0 0 1
32.173885 12.934403 -24.384194 42.391587 0.382243 2.183661 0.127843 -0.021066 -273745.000000 0 0 1
-15.280523 -30.804556 -24.135394 42.011098 1.110316 2.182790 0.132892 -0.025106 -189782.000000 0 0 1
-14.728323 -29.576256 -24.441994 41.098534 1.108768 2.207710 0.122550 -0.038233 -254787.000000 0 0 1
-14.829323 -29.299756 -25.846414 41.790210 1.102261 2.237603 0.090395 -0.027951 -62717.500000 0 0 1
-14.302223 -27.935256 -26.327834 40.964460 1.097613 2.268813 0.105874 -0.034306 -17702.200000 0 0 1
-14.860023 -26.804056 -25.666064 39.975300 1.064585 2.267963 0.113100 -0.034508 -43655.000000 0 0 1
-14.178823 -25.699956 -26.166804 39.322111 1.066644 2.298890 0.106459 -0.033920 -375493.000000 0 0 1
-14.505623 -24.340656 -25.535844 38.143938 1.033366 2.304278 0.079381 -0.035741 -377800.000000 0 0 1
-14.064823 -24.155656 -24.201694 36.973463 1.043525 2.284409 0.107933 -0.040833 8341.620000 0 0 1
-14.342623 -22.821756 -23.720594 35.905570 1.009711 2.292465 0.084557 -0.031597 -147693.000000 0 0 1
-13.596623 -22.481256 -22.429594 34.545068 1.026856 2.277440 0.097293 -0.028497 307350.000000 0 0 1
-12.181523 -22.512156 -22.518894 34.092335 1.074805 2.292316 0.149621 -0.044658 155022.000000 0 0 1
-11.536923 -21.737656 -21.483694 32.667651 1.082865 2.288484 0.134612 -0.033708 -251026.000000 0 0 1
-10.044623 -21.518056 -21.637594 32.126417 1.134060 2.309749 0.148519 -0.038580 -724652.000000 0 0 1
-9.754223 -20.702656 -22.734694 32.258505 1.130487 2.352889 0.160770 -0.044578 -247371.000000 0 0 1
-8.377823 -20.428556 -22.812294 31.747671 1.181610 2.372512 0.189313 -0.047371 -106065.000000 0 0 1
-8.080123 -19.199156 -23.707494 31.558537 1.172439 2.420709 0.207400 -0.042583 -194304.000000 0 0 1
-8.406223 -17.979756 -23.104094 30.458749 1.133454 2.431862 0.158723 -0.031836 -312797.000000 0 0 1
-8.281623 -16.787056 -23.943494 30.392128 1.112496 2.478056 0.139746 -0.033567 -334547.000000 0 0 1
-6.986823 -16.420556 -24.661494 30.440757 1.168509 2.515200 0.188378 -0.045312 -336242.000000 0 0 1
-6.641223 -17.248556 -25.779504 31.720678 1.203261 2.519573 0.211987 -0.056614 83055.100000 0 0 1
-5.536023 -16.654656 -26.458164 31.749954 1.249885 2.555900 0.192115 -0.058544 227337.000000 0 0 1
-5.314923 -17.326456 -27.821754 33.203983 1.273157 2.564228 0.193783 -0.047421 -59082.000000 0 0 1
-6.372323 -17.127156 -28.746684 34.063439 1.214606 2.575338 0.215003 -0.047272 4774.320000 0 0 1
-6.186823 -18.002356 -29.808004 35.367764 1.239774 2.573264 0.204416 -0.053499 556975.000000 0 0 1
-7.378723 -18.005156 -30.858174 36.480928 1.181860 2.578993 0.211049 -0.046676 750670.000000 0 0 1
-7.645223 -16.842456 -31.621694 36.633991 1.144683 2.612329 0.168485 -0.044348 -100757.000000 0 0 1
-7.681423 -15.526756 -30.986184 35.499691 1.111380 2.631825 0.149515 -0.031953 -196536.000000 0 0 1
-8.361923 -14.554756 -32.006824 36.141382 1.049327 2.658582 0.112631 -0.037002 -378249.000000 0 0 1
-7.734223 -14.455056 -33.249974 37.071925 1.079501 2.683515 0.133526 -0.047843 -248800.000000 0 0 1
-8.287923 -13.493256 33.209972 36.792117 1.019981 0.444936 0.126879 -0.029566 -541034.000000 0 0 1
-8.442323 -11.994256 33.595982 36.658219 0.957482 0.411642 0.102603 -0.031281 545111.000000 0 0 1
-7.264323 -11.192756 -33.585384 36.138985 0.995110 2.763416 0.095420 -0.029514 689383.000000 0 0 1
-6.489823 -11.009056 32.550050 34.968884 1.038134 0.374122 0.088556 -0.018545 117122.000000 0 0 1
-5.353423 -9.990256 32.757540 34.662960 1.078871 0.333110 0.104133 -0.019532 -196059.000000 0 0 1
-4.926923 -9.438156 31.521502 33.270985 1.089687 0.325731 0.083469 -0.006542 505468.000000 0 0 1
-3.975523 -8.369256 31.772588 33.096020 1.127336 0.283750 0.083158 -0.015964 -243376.000000 0 0 1
-4.060823 -7.303256 30.719232 31.835500 1.063336 0.265595 0.068863 -0.007537 602746.000000 0 0 1
-5.186123 -6.397756 30.753322 31.836990 0.889616 0.261660 0.058826 -0.003997 55519.000000 0 0 1
-6.309723 -7.010556 30.177752 31.617356 0.837964 0.302925 0.061558 -0.002511 -60822.700000 0 0 1
-7.510023 -5.982856 30.107022 31.601072 0.672695 0.308726 0.052549 -0.004081 872010.000000 0 0 1
-8.655523 -6.347256 29.366332 31.266391 0.632739 0.350416 0.079087 -0.007243 607722.000000 0 0 1
-9.775323 -5.440356 29.509182 31.558616 0.507850 0.362370 0.064959 -0.005646 1567520.000000 0 0 1
-11.022423 -5.926856 28.689372 31.300183 0.493358 0.411335 0.081416 -0.005923 665658.000000 0 0 1
-10.620223 -5.949656 27.301822 29.892759 0.510655 0.419419 0.075304 -0.009249 1288120.000000 0 0 1
-11.725123 -6.438556 26.500242 29.684951 0.502171 0.467459 0.079876 -0.012150 990176.000000 0 0 1
-11.316823 -6.345856 25.004062 28.169904 0.511056 0.478653 0.059312 -0.013713 428782.000000 0 0 1
-10.146523 -7.072556 24.644842 27.574285 0.608738 0.465133 0.058833 -0.007125 252289.000000 0 0 1
-9.575723 -6.740556 23.388932 26.156676 0.613353 0.464187 0.048970 -0.010523 389309.000000 0 0 1
-10.449623 -7.026556 22.063582 25.404109 0.591977 0.518619 0.053016 -0.018286 419805.000000 0 0 1
-11.586023 -6.194156 22.022182 25.643322 0.490961 0.537897 0.047806 -0.015374 -366074.000000 0 0 1
-12.261023 -6.222056 20.806182 24.938802 0.469603 0.583953 0.045441 -0.023265 -769723.000000 0 1 0
-13.482523 -5.322556 20.813182 25.363292 0.375994 0.608332 0.042651 -0.012328 -566402.000000 0 0 1
-13.159123 -3.953156 20.686182 24.833608 0.291835 0.586304 0.039202 -0.008002 -599734.000000 0 1 0
-14.272923 -3.156256 20.895382 25.500887 0.217634 0.610436 0.053597 -0.008280 -391357.000000 0 0 1
-14.101723 -1.707556 20.399282 24.857696 0.120502 0.608262 0.041412 -0.000645 -58313.400000 0 1 0
-13.277523 -0.911556 21.237682 25.063174 0.068547 0.559791 0.040236 -0.005742 51190.600000 0 0 1
-13.194823 0.471444 20.814482 24.648900 -0.035714 0.565280 0.046601 -0.015390 -271243.000000 0 1 0
-12.520323 0.860444 19.496182 23.186202 -0.068616 0.571940 0.039315 -0.024961 293722.000000 0 1 0
-13.335123 0.630444 18.312782 22.662324 -0.047242 0.629925 0.045045 -0.018543 358823.000000 0 1 0
-14.565623 1.303444 18.215582 23.359447 -0.089250 0.676458 0.042781 -0.014750 814892.000000 0 1 0
-15.704623 0.538444 17.382582 23.432440 -0.034272 0.735021 0.068796 -0.009514 834048.000000 0 1 0
-16.010423 -0.713556 17.932882 24.050593 0.044539 0.729314 0.052398 -0.011740 146630.000000 0 1 0
-16.799923 -1.518556 17.100082 24.019913 0.090146 0.778578 0.065535 -0.003987 -214171.000000 0 1 0
-16.714323 -3.029156 17.437082 24.343299 0.179285 0.772312 0.048104 0.002241 -346709.000000 0 1 0
-17.363123 -3.346656 18.634782 25.689166 0.190410 0.759189 0.079140 -0.004565 33634.900000 0 0 1
-17.444023 -4.729356 18.881382 26.137470 0.264752 0.763547 0.100468 -0.008450 186598.000000 0 0 1
-18.186023 -5.068256 20.226582 27.668272 0.271793 0.750953 0.117593 -0.009088 490148.000000 0 0 1
-17.472323 -4.488956 21.362182 27.960250 0.251479 0.701276 0.105833 -0.005434 532673.000000 0 0 1
-18.162423 -4.565756 22.607912 29.357067 0.246282 0.691797 0.102068 -0.014757 -443108.000000 0 0 1
-18.236923 -6.007956 23.267492 30.167152 0.318242 0.689938 0.137272 -0.015028 685096.000000 0 0 1
-17.010723 -6.464656 23.842782 29.993911 0.363177 0.651919 0.061080 -0.022149 927846.000000 0 0 1
-15.981823 -6.860356 22.936652 28.784946 0.405473 0.648769 0.096230 -0.018356 97355.600000 0 0 1
-14.898823 -7.829456 23.450082 28.864886 0.483845 0.622525 0.106129 -0.012102 -180125.000000 0 0 1
-15.484023 -8.983756 23.937052 29.890555 0.525730 0.642128 0.104542 -0.029772 -55493.600000 0 0 1
-15.755123 -8.936056 25.331312 31.140847 0.515941 0.620749 0.095155 -0.028396 -151847.000000 0 0 1
-16.920223 -9.796256 25.827182 32.392961 0.524811 0.647974 0.079547 -0.027937 -1126930.000000 0 0 1
-16.764123 -11.216656 25.764502 32.720922 0.589676 0.664214 0.089747 -0.043260 -29145.900000 0 0 1
-15.929923 -11.721256 26.820152 33.323728 0.634352 0.635396 0.071649 -0.038464 174293.000000 0 0 1
-15.830323 -13.222056 26.687202 33.728751 0.695860 0.657978 0.063123 -0.044221 1471.380000 0 0 1
-17.021023 -13.885656 27.067152 34.859107 0.684298 0.681747 0.085077 -0.045322 123422.000000 0 0 1
-17.244223 -15.206656 26.561782 35.130241 0.722691 0.713471 0.097083 -0.035732 -270249.000000 0 0 1
-16.348323 -16.269156 27.201202 35.663125 0.782971 0.703278 0.088971 -0.037929 83098.400000 0 0 1
-14.993623 -16.142456 26.813532 34.703791 0.822279 0.687807 0.108533 -0.048996 147693.000000 0 0 1
-14.165523 -17.139556 27.394532 35.282953 0.880116 0.681825 0.125077 -0.047501 650199.000000 0 0 1
-12.748023 -17.125556 26.739032 34.216554 0.930898 0.673786 0.127849 -0.062129 89165.700000 0 0 1
-11.746223 -17.827256 27.388062 34.725938 0.988196 0.662118 0.165220 -0.062139 55138.200000 0 0 1
-10.675223 -18.311256 26.569142 33.987965 1.042980 0.673374 0.156438 -0.067102 134441.000000 0 0 1
-9.559023 -18.912756 27.450832 34.678746 1.102816 0.657414 0.183826 -0.080020 -403969.000000 0 0 1
-9.818223 -20.074756 28.184972 35.969237 1.115920 0.670380 0.199024 -0.067929 380458.000000 0 0 1
-8.680723 -20.518656 28.938432 36.521268 1.170566 0.656109 0.205867 -0.067941 529041.000000 0 0 1
-8.992123 -21.842056 29.643262 37.903254 1.180254 0.672805 0.207392 -0.059351 -27722.000000 0 0 1
-9.120423 -22.979056 28.854082 37.997068 1.192964 0.708442 0.236686 -0.060683 106170.000000 0 0 1
-9.456823 -24.103956 29.610612 39.334724 1.196915 0.718513 0.199541 -0.058016 -307867.000000 0 0 1
-9.731423 -25.380356 28.770002 39.579996 1.204661 0.757025 0.202716 -0.050346 360033.000000 0 0 1
-10.883223 -25.329256 27.911042 39.230626 1.164977 0.779222 0.183448 -0.051762 475066.000000 0 0 1
-10.966123 -26.380856 27.000202 39.309240 1.176842 0.813628 0.176122 -0.046355 -194681.000000 0 0 1
-12.347223 -26.465756 26.297522 39.299489 1.134277 0.837723 0.155578 -0.039082 -51770.500000 0 0 1
-12.602323 -25.920756 25.050192 38.186598 1.118260 0.855297 0.163434 -0.043358 156078.000000 0 0 1
-12.681923 -24.540156 25.099822 37.323605 1.093813 0.833226 0.136773 -0.033313 -432386.000000 0 0 1
-13.087423 -23.916656 23.766352 36.168032 1.070098 0.853819 0.117752 -0.049402 266384.000000 0 0 1
-14.412323 -24.237556 23.361142 36.618535 1.034336 0.878951 0.092675 -0.035211 531704.000000 0 0 1
-14.683323 -23.758056 22.014482 35.562376 1.017221 0.903278 0.090952 -0.041179 -85934.200000 0 0 1
-16.122723 -24.033156 21.543982 36.078774 0.979901 0.930869 0.071895 -0.039012 -244318.000000 0 0 1
-16.414823 -25.370656 21.081482 36.844884 0.996533 0.961649 0.091573 -0.032353 -157482.000000 0 0 1
-17.404123 -25.322556 20.104582 36.719607 0.968647 0.991403 0.087097 -0.027178 -370654.000000 0 0 1
-17.653623 -26.690856 19.384582 37.414091 0.986441 1.026158 0.081891 -0.020954 757783.000000 0 0 1
-16.599923 -27.126256 18.489382 36.786526 1.021636 1.044178 0.083266 -0.027381 689333.000000 0 0 1
-16.726023 -28.506156 18.271182 37.765022 1.040176 1.065791 0.093252 -0.018002 511160.000000 0 0 1
-15.750723 -28.910956 17.109282 37.103318 1.071953 1.091533 0.105742 -0.029750 483021.000000 0 0 1
-16.062523 -28.301356 15.838182 36.191427 1.054577 1.117844 0.106593 -0.031377 -128849.000000 0 0 1
-15.055823 -28.679456 14.935882 35.668888 1.087374 1.138742 0.106927 -0.028275 -23605.500000 0 0 1
-15.277723 -28.094856 13.565382 34.738298 1.072733 1.169619 0.120756 -0.035459 -26081.700000 0 0 1
-15.015223 -26.681856 13.530682 33.473239 1.058217 1.154666 0.128113 -0.031620 -9529.260000 0 0 1
-15.358323 -26.059656 12.260182 32.638870 1.038243 1.185718 0.139449 -0.051438 -221339.000000 0 0 1
-14.219123 -26.051656 11.252382 31.740957 1.071180 1.208410 0.137484 -0.048258 -92663.700000 0 0 1
-14.619323 -25.427256 10.037882 31.000468 1.049002 1.241056 0.128493 -0.044943 122449.000000 0 0 1
-13.872623 -26.017056 8.987582 30.823911 1.080933 1.274920 0.130323 -0.038835 158461.000000 0 0 1
-14.317423 -25.427656 7.643282 30.165776 1.057978 1.314628 0.139742 -0.040734 795246.000000 0 0 1
-15.547723 -25.998756 7.170782 31.130164 1.031836 1.338361 0.132208 -0.051553 630344.000000 0 0 1
-15.967723 -25.334456 5.957782 30.533556 1.008411 1.374414 0.131187 -0.046027 -63188.000000 0 0 1
-16.862223 -26.152756 5.005682 31.517584 0.998114 1.411299 0.150547 -0.061965 -184733.000000 0 0 1
-16.206523 -27.207956 4.378282 31.970199 1.033579 1.433416 0.156203 -0.047785 -339286.000000 0 0 1
-16.935323 -27.665956 3.292882 32.604499 1.021501 1.469629 0.194001 -0.053014 -457321.000000 0 0 1
-16.270223 -28.841456 2.614882 33.217275 1.057172 1.491994 0.191939 -0.057837 -248066.000000 0 0 1
-15.067723 -28.492956 1.974882 32.292182 1.084357 1.509601 0.166897 -0.036807 -191897.000000 0 0 1
-14.384223 -29.661756 1.524582 33.000758 1.119268 1.524581 0.171595 -0.040720 938515.000000 0 0 1
-12.916723 -29.363556 1.026582 32.095390 1.156382 1.538806 0.156721 -0.035263 773297.000000 0 0 1
-12.734623 -28.784356 -0.229118 31.476377 1.154268 1.578075 0.158740 -0.025850 -69400.400000 0 0 1
-13.034723 -27.389856 -0.342218 30.335216 1.126617 1.582078 0.132285 -0.029067 -116705.000000 0 0 1
-12.512323 -26.708356 -1.646518 29.539897 1.132681 1.626564 0.122264 -0.025665 -66304.900000 0 0 1
-11.121323 -26.787956 -1.813018 29.061408 1.177289 1.633223 0.144313 -0.029634 -619483.000000 0 0 1
-10.719323 -26.074156 -2.959718 28.346524 1.180750 1.675399 0.144549 -0.025802 -8579.440000 0 0 1
-9.239223 -26.301256 -3.296818 28.071130 1.232978 1.688513 0.134743 -0.031432 -180212.000000 0 0 1
-8.841223 -25.531256 -4.425118 27.378713 1.237430 1.733135 0.119988 -0.028489 -489348.000000 0 0 1
-7.512223 -25.936356 -4.690418 27.406716 1.288870 1.742784 0.130272 -0.029064 -269155.000000 0 0 1
-6.915323 -24.815656 -5.476118 26.336787 1.299023 1.780251 0.101817 -0.029039 -590399.000000 0 0 1
-7.045423 -24.785456 -6.880418 26.670152 1.293845 1.831729 0.110181 -0.018063 -278930.000000 0 0 1
-6.500223 -23.613856 -7.360018 25.574147 1.302178 1.862716 0.098895 -0.021416 -673472.000000 0 0 1
-6.606323 -23.436956 -8.887418 25.921432 1.296049 1.920756 0.090745 -0.024388 -510805.000000 0 0 1
-5.879723 -24.398856 -9.547018 26.851832 1.334322 1.934293 0.074264 -0.029482 -388338.000000 0 0 1
-5.905223 -24.273456 -10.949718 27.275789 1.332153 1.983890 0.057845 -0.018101 46135.000000 0 0 1
-7.117523 -24.832156 -11.735418 28.372789 1.291655 1.997218 0.075831 -0.019414 86747.400000 0 0 1
-7.023123 -24.659756 -13.121618 28.802859 1.293341 2.043805 0.104687 -0.025884 128186.000000 0 0 1
-8.119623 -25.288356 -13.768718 29.916665 1.260113 2.049057 0.138369 -0.025209 -275407.000000 0 0 1
-8.094623 -25.148056 -15.213818 30.486192 1.259390 2.093287 0.148813 -0.030469 -91318.000000 0 0 1
-7.078623 -25.828956 -15.917418 31.154552 1.303306 2.107049 0.136476 -0.045844 246628.000000 0 0 1
-5.869523 -25.072456 -16.019018 30.326363 1.340835 2.127300 0.137648 -0.041577 -637131.000000 0 0 1
-4.777223 -25.851456 -16.710118 31.150405 1.388063 2.137002 0.132383 -0.031154 -1121090.000000 0 0 1
-4.942223 -26.131956 -18.064118 32.149916 1.383878 2.167443 0.202621 -0.045153 333712.000000 0 0 1
-4.029323 -27.154356 -18.505418 33.106571 1.423485 2.163934 0.192163 -0.054620 486415.000000 0 0 1
-26.409203 14.128103 -3.993994 30.215911 -0.491230 1.703366 0.207277 -0.050799 112606.000000 0 0 1
-25.936373 12.818903 -3.644494 29.159939 -0.459032 1.696107 0.212863 -0.045083 785185.000000 0 0 1
-24.532323 12.680703 -3.872694 27.886069 -0.477074 1.710122 0.236569 -0.040626 475157.000000 0 0 1
-24.003423 11.233303 -3.703694 26.759461 -0.437711 1.709649 0.231128 -0.047986 -35419.000000 0 0 1
-24.468323 10.345803 -4.754994 26.987857 -0.400026 1.747911 0.211189 -0.027587 1268140.000000 0 0 1
-25.836713 9.883703 -4.712794 28.061250 -0.365369 1.739543 0.227849 -0.031155 736027.000000 0 0 1
-26.226113 9.225603 -6.024994 28.446815 -0.338252 1.784211 0.232209 -0.028876 -159936.000000 0 0 1
-26.427343 10.150503 -7.131094 29.194000 -0.366717 1.817559 0.270755 -0.028075 102665.000000 0 0 1
-26.516933 9.422903 -8.378194 29.362101 -0.341437 1.860158 0.247579 -0.035777 -44096.300000 0 0 1
-26.891963 10.314503 -9.629994 30.369449 -0.366248 1.893461 0.249895 -0.030333 492197.000000 0 0 1
-25.895643 11.277403 -10.035694 29.974644 -0.410726 1.912196 0.211309 -0.025922 410310.000000 0 0 1
-26.305123 11.952403 -11.185694 30.982885 -0.426487 1.940167 0.207747 -0.032841 -407174.000000 0 0 1
-25.394183 13.026903 -11.769694 30.872163 -0.473984 1.961933 0.169741 -0.021310 -406441.000000 0 0 1
-25.270393 14.202703 -10.948094 30.986615 -0.512032 1.931911 0.156953 -0.015578 414683.000000 0 0 1
-24.635923 15.303503 -11.644094 31.252373 -0.555852 1.952587 0.132776 -0.010932 39571.700000 0 0 1
-24.681923 16.696903 -10.995894 31.763085 -0.594768 1.924298 0.143976 -0.016831 -363650.000000 0 0 1
-23.693623 16.931903 -10.020694 30.797588 -0.620470 1.902202 0.130478 -0.007911 -103042.000000 0 0 1
-23.726523 18.244303 -9.439494 31.383221 -0.655514 1.876308 0.089112 0.002843 655809.000000 0 0 1
-22.590123 18.429203 -8.337294 30.322593 -0.684306 1.849337 0.108224 -0.006058 397192.000000 0 0 1
-22.719923 17.755003 -7.102094 29.696376 -0.663341 1.812294 0.141355 -0.017574 -12065.600000 0 0 1
-23.733423 18.255903 -6.264494 30.590803 -0.655680 1.777039 0.144323 -0.026750 -164228.000000 0 0 1
-23.877223 17.445703 -4.943194 29.981819 -0.630996 1.736426 0.151745 -0.019249 25720.600000 0 0 1
-22.838823 17.594603 -3.996594 29.105921 -0.656418 1.708544 0.146330 -0.037824 318656.000000 0 0 1
-23.250323 17.084803 -2.746594 28.982957 -0.633715 1.665705 0.165019 -0.037304 -898047.000000 0 0 1
-22.044823 16.899603 -1.900394 27.842096 -0.654042 1.639106 0.185833 -0.058525 -1118750.000000 0 0 1
-21.409423 18.064703 -1.495494 28.052333 -0.700868 1.624132 0.174749 -0.057437 -492299.000000 0 0 1
-20.492023 17.794103 -0.498294 27.144086 -0.715047 1.589155 0.228013 -0.076182 -382537.000000 0 0 1
-19.928023 19.086003 0.056806 27.593565 -0.763819 1.568738 0.170603 -0.068402 -72350.000000 0 0 1
-20.920623 19.635603 0.897206 28.705998 -0.753724 1.539536 0.164802 -0.057986 263640.000000 0 0 1
-21.007523 21.047803 0.855006 29.749909 -0.786356 1.542053 0.166980 -0.054046 -243872.000000 0 0 1
-22.146023 21.609003 1.711306 30.989093 -0.773125 1.515545 0.126424 -0.039186 -437837.000000 0 0 1
-22.012423 21.438403 3.085106 30.881544 -0.772188 1.470728 0.141092 -0.034367 463758.000000 0 0 1
-23.220023 21.506703 3.835206 31.881288 -0.747110 1.450208 0.129550 -0.022699 462167.000000 0 0 1
-22.792923 21.326703 5.342906 31.668474 -0.752178 1.401272 0.118215 -0.023598 249580.000000 0 0 1
-22.195223 22.508403 5.902206 32.157303 -0.792404 1.386208 0.096087 -0.010320 -9020.550000 0 0 1
-21.361123 22.243103 6.990406 31.621495 -0.805622 1.347890 0.076227 -0.011131 -116183.000000 0 0 1
-22.025323 21.801303 8.331906 32.091001 -0.780287 1.308153 0.085881 -0.021755 -635049.000000 0 0 1
-22.788723 20.614703 8.387506 31.853448 -0.735351 1.304339 0.112618 -0.026539 522341.000000 0 0 1
-23.329423 20.163703 9.640006 32.307377 -0.712740 1.267797 0.141345 -0.027355 531310.000000 0 0 1
-24.159223 21.218103 10.485106 33.820310 -0.720674 1.255578 0.157498 -0.025861 -282655.000000 0 0 1
-25.451763 21.494203 9.994506 34.780499 -0.701297 1.279327 0.182508 -0.026321 374194.000000 0 0 1
-26.120703 22.462803 10.850506 36.119276 -0.710249 1.265676 0.189140 -0.026297 608174.000000 0 0 1
-27.489603 23.009303 10.365706 37.316942 -0.696909 1.289319 0.198840 -0.036891 426748.000000 0 0 1
-28.260763 23.797703 11.289206 38.632209 -0.699876 1.274246 0.194872 -0.031682 245239.000000 0 0 1
-27.849723 25.134603 11.458506 39.225664 -0.734199 1.274356 0.173595 -0.028618 116561.000000 0 0 1
-28.399823 25.829403 12.761306 40.454405 -0.738034 1.249866 0.166565 -0.022878 219200.000000 0 0 1
-27.625043 25.424003 13.860306 40.020382 -0.743931 1.217139 0.135611 -0.027216 -37271.500000 0 0 1
-28.218473 25.684603 15.117306 41.042831 -0.738425 1.193584 0.139906 -0.020323 -140544.000000 0 0 1
-27.202223 25.702603 16.261606 40.804712 -0.757060 1.160891 0.107550 -0.029698 -267202.000000 0 0 1
-26.772023 24.445103 16.671206 39.902799 -0.739997 1.139779 0.124195 -0.032985 -513617.000000 0 0 1
-25.717543 24.690103 17.529606 39.727576 -0.765018 1.113810 0.107184 -0.032430 -723829.000000 0 0 1
-25.094853 23.455003 18.199706 38.873102 -0.751634 1.083564 0.103697 -0.031732 -283547.000000 0 0 1
-23.775923 23.617803 18.661906 38.358335 -0.782062 1.062700 0.109114 -0.040705 -42678.000000 0 0 1
-23.355623 22.409603 19.139206 37.602987 -0.764730 1.036796 0.114083 -0.045454 126948.000000 0 0 1
-21.886123 22.379103 19.688506 36.979236 -0.796535 1.009339 0.090132 -0.049501 -395770.000000 0 0 1
-21.049223 22.311003 18.551406 35.846970 -0.814490 1.026850 0.108595 -0.053478 221596.000000 0 0 1
-19.669923 22.365603 18.937106 35.295043 -0.849439 1.004468 0.094000 -0.051780 581883.000000 0 0 1
-19.023923 20.973303 19.106806 34.159319 -0.834098 0.977202 0.093494 -0.049437 -1057170.000000 0 0 1
-19.587923 20.225003 20.132306 34.612818 -0.801399 0.950049 0.113877 -0.050985 -146193.000000 0 0 1
-19.062823 20.513503 21.427306 35.260806 -0.822037 0.917660 0.115726 -0.046459 221346.000000 0 0 1
-20.099423 20.161203 22.572006 36.331203 -0.786933 0.900416 0.109646 -0.042369 677073.000000 0 0 1
-21.165323 21.114803 22.584706 37.468316 -0.784203 0.923831 0.091693 -0.038550 -289617.000000 0 0 1
-21.920823 20.940403 23.699006 38.479421 -0.762528 0.907284 0.087469 -0.025368 -764648.000000 0 0 1
-23.076223 21.909503 23.935906 39.817910 -0.759469 0.925877 0.090162 -0.022928 -700400.000000 0 0 1
-22.597623 23.167803 24.165906 40.390477 -0.797856 0.929410 0.098189 -0.032095 941193.000000 0 0 1
-23.597623 24.154303 24.625706 41.793582 -0.797055 0.940701 0.097481 -0.033698 993570.000000 0 0 1
-24.513023 24.674303 23.446006 41.945497 -0.788677 0.977661 0.084363 -0.041289 512547.000000 0 0 1
-25.560643 23.759803 23.097106 41.849146 -0.748901 0.986139 0.076889 -0.035697 269702.000000 0 0 1
-26.287043 24.214903 21.988606 41.962709 -0.744390 1.019252 0.069370 -0.034566 103641.000000 0 0 1
-27.297683 23.149103 21.468506 41.736569 -0.703346 1.030510 0.079575 -0.026575 -201595.000000 0 0 1
-28.588373 23.296303 21.974106 42.928710 -0.683753 1.033431 0.090269 -0.027004 107089.000000 0 0 1
-29.439653 22.139503 21.723406 42.763970 -0.644799 1.037954 0.112506 -0.028145 797522.000000 0 0 1
-30.917693 22.393603 22.117006 44.119600 -0.626847 1.045700 0.125638 -0.020170 84602.100000 0 0 1
-31.506613 23.456503 21.325706 44.695189 -0.639968 1.073403 0.147064 -0.027406 374359.000000 0 0 1
-32.897983 23.602203 21.543506 45.863536 -0.622333 1.081811 0.151280 -0.029824 564239.000000 0 0 1
-33.866463 22.756403 20.646606 45.728257 -0.591648 1.102343 0.161010 -0.037552 -384313.000000 0 0 1
-33.938531 21.429903 21.048306 45.322133 -0.563212 1.087822 0.150142 -0.028381 338539.000000 0 0 1
-34.523440 20.477903 20.162706 44.919340 -0.535374 1.105302 0.135971 -0.019818 -141262.000000 0 0 1
-36.041633 20.330803 20.323006 46.101685 -0.513598 1.114273 0.167126 -0.027759 -464217.000000 0 0 1
-36.748603 19.573303 19.403006 45.935287 -0.489407 1.134706 0.146207 -0.017656 -1699.050000 0 0 1
-38.147873 19.719503 19.563106 47.189343 -0.477094 1.143330 0.179470 -0.031271 181464.000000 0 0 1
37.422025 18.984803 18.511606 45.864041 0.469484 1.155327 0.174127 -0.036804 -148713.000000 0 0 1
37.486225 17.541903 18.667306 45.402685 0.437685 1.147081 0.186998 -0.035927 2146.450000 0 0 1
36.655975 16.908403 17.743406 44.095159 0.432189 1.156671 0.206157 -0.053535 -220819.000000 0 0 1
37.043545 15.401303 17.650506 43.828812 0.394020 1.156316 0.210198 -0.064978 -40183.600000 0 0 1
36.333755 14.537403 16.788106 42.583076 0.380599 1.165552 0.243666 -0.066323 -140897.000000 0 0 1
37.000515 13.343903 16.544206 42.670934 0.346123 1.172644 0.235328 -0.060127 175268.000000 0 0 1
36.141725 12.418503 15.608506 41.280371 0.330967 1.183043 0.233461 -0.066847 282961.000000 0 0 1
35.891105 12.909703 14.297006 40.733724 0.345282 1.212171 0.212211 -0.060400 279935.000000 0 0 1
35.173335 11.950803 13.551806 39.542846 0.327531 1.220994 0.214636 -0.048329 -252171.000000 0 0 1
35.098065 12.283103 12.044606 39.087355 0.336644 1.257553 0.215890 -0.045543 -356317.000000 0 0 1
36.296355 12.202403 11.326206 39.932531 0.324318 1.283215 0.201227 -0.040530 104020.000000 0 0 1
36.027595 12.089703 9.903106 39.271110 0.323760 1.315871 0.195214 -0.034718 338758.000000 0 0 1
37.348895 12.166903 9.059006 40.311774 0.314922 1.344137 0.134714 -0.018932 300855.000000 0 0 1
-38.135513 11.148603 9.428406 40.835077 -0.284416 1.337804 0.177475 -0.036535 799827.000000 0 0 1
-36.797823 11.345403 8.958806 39.535530 -0.299070 1.342209 0.220630 -0.036644 727863.000000 0 0 1
-36.491863 11.024403 7.492906 38.850188 -0.293388 1.376714 0.169727 -0.038500 -594081.000000 0 0 1
-37.056383 11.955403 6.591706 39.491236 -0.312084 1.403096 0.160523 -0.042668 287965.000000 0 0 1
-36.555233 11.770403 5.278806 38.764587 -0.311507 1.434196 0.192652 -0.056064 -55821.200000 0 0 1
-37.462813 12.554203 4.322006 39.746070 -0.323350 1.461840 0.189693 -0.052733 3443.600000 0 0 1
37.679175 11.930703 4.088606 39.733848 0.306651 1.467714 0.180769 -0.050605 476289.000000 0 0 1
36.560645 12.797103 4.073006 38.949147 0.336696 1.466032 0.130956 -0.047843 247627.000000 0 0 1
36.070195 13.349603 5.410806 38.840027 0.354468 1.431032 0.133920 -0.037215 -711331.000000 0 0 1
35.230385 14.516403 5.342506 38.476595 0.390844 1.431495 0.121408 -0.026681 382332.000000 0 0 1
34.964055 15.130003 6.553306 38.656797 0.408400 1.400448 0.101535 -0.022424 461721.000000 0 0 1
33.678195 14.631603 7.304406 37.438737 0.409850 1.374434 0.162425 -0.029804 356015.000000 0 0 1
33.849655 13.348103 7.869306 37.227638 0.375613 1.357806 0.205978 -0.030793 -516730.000000 0 0 1
32.657195 12.706103 8.173806 35.982615 0.371053 1.341636 0.231080 -0.036311 -714725.000000 0 0 1
32.297535 11.424203 7.396406 35.047825 0.339983 1.358160 0.224042 -0.034346 -168352.000000 0 0 1
31.798485 11.727203 6.114606 34.439213 0.353322 1.392302 0.183861 -0.043835 280682.000000 0 0 1
32.022895 10.652003 5.193406 34.145314 0.321124 1.418107 0.193296 -0.049346 75234.100000 0 0 1
31.355765 10.921103 3.793206 33.419200 0.335156 1.457047 0.157254 -0.060073 690659.000000 0 0 1
29.953265 10.704103 3.679306 32.020513 0.343217 1.455637 0.155892 -0.052198 690580.000000 0 0 1
29.427265 11.092703 2.379106 31.538424 0.360482 1.495289 0.179151 -0.055060 405243.000000 0 0 1
27.993965 10.597903 2.067106 30.004176 0.361904 1.501848 0.204364 -0.041521 174995.000000 0 0 1
27.970765 9.220203 1.711006 29.500905 0.318420 1.512765 0.195381 -0.047768 -398380.000000 0 0 1
26.684365 8.677603 1.643006 28.107928 0.314408 1.512310 0.209846 -0.053125 -607879.000000 0 0 1
26.657465 7.182303 1.301406 27.638734 0.263180 1.523693 0.233897 -0.052720 434534.000000 0 0 1
27.289265 6.329303 2.272706 28.105681 0.227904 1.489845 0.251898 -0.036180 -330846.000000 0 0 1
28.665665 6.345003 2.457706 29.462175 0.217833 1.487280 0.261644 -0.050268 -1095490.000000 0 0 1
29.125665 5.612903 3.716506 29.893502 0.190379 1.446149 0.260768 -0.053811 -901490.000000 0 0 1
30.460965 5.929503 3.925706 31.280035 0.192255 1.444963 0.278030 -0.049368 -529423.000000 0 0 1
30.895865 5.305703 5.107306 31.761448 0.170070 1.409293 0.263487 -0.044483 169488.000000 0 0 1
32.390515 5.469603 5.491706 33.304968 0.167286 1.405148 0.224132 -0.049530 334422.000000 0 0 1
32.830335 6.749603 5.880906 34.029004 0.202765 1.397104 0.225180 -0.053096 -122453.000000 0 0 1
34.124725 6.683703 6.446406 35.365590 0.193413 1.387493 0.200092 -0.044955 241323.000000 0 0 1
34.573205 7.823103 7.349106 36.201061 0.222529 1.366367 0.180230 -0.048937 138407.000000 0 0 1
34.012965 7.709803 8.669606 35.937236 0.222906 1.327150 0.190650 -0.046222 414187.000000 0 0 1
34.652715 8.547603 9.617106 36.964320 0.241837 1.307595 0.209554 -0.049544 -428209.000000 0 0 1
33.912335 8.527503 10.920106 36.633503 0.246350 1.268105 0.214512 -0.049317 -1023800.000000 0 0 1
32.621185 9.029703 10.876706 35.552497 0.270043 1.259877 0.229718 -0.051018 -563669.000000 0 0 1
32.026085 8.810003 12.121006 35.358239 0.268448 1.220894 0.217785 -0.050618 -512773.000000 0 0 1
30.599765 9.366803 12.239806 34.262158 0.297050 1.205485 0.199807 -0.053217 -732886.000000 0 0 1
30.496265 10.808103 12.448206 34.666917 0.340596 1.203514 0.252105 -0.064786 229041.000000 0 0 1
30.468365 11.569403 11.233606 34.472689 0.362901 1.238865 0.249724 -0.064355 -435428.000000 0 0 1
29.389265 11.322103 10.173006 33.096963 0.367723 1.258369 0.197657 -0.050140 -547425.000000 0 0 1
29.341565 12.373403 9.218106 33.151200 0.399074 1.289020 0.174216 -0.029483 169720.000000 0 0 1
28.230165 12.357003 8.360006 31.930040 0.412598 1.305886 0.161222 -0.029259 -87291.800000 0 0 1
28.342565 13.568503 7.441606 32.292148 0.446489 1.338260 0.162633 -0.032007 24480.200000 0 0 1
28.129665 14.709803 8.219906 32.790597 0.481822 1.317415 0.163087 -0.024925 26358.700000 0 0 1
28.319465 15.988003 7.620306 33.401758 0.513952 1.340629 0.158347 -0.017198 -1235010.000000 0 0 1
27.724965 17.135303 8.482706 33.678608 0.553583 1.316182 0.173495 -0.027873 -252838.000000 0 0 1
26.367465 17.481403 8.498906 32.757810 0.585454 1.308347 0.183160 -0.037187 99772.200000 0 0 1
25.465465 16.356903 8.739206 31.502570 0.570955 1.289697 0.209232 -0.038565 -877562.000000 0 0 1
24.047765 16.905403 8.869306 30.704271 0.612732 1.277758 0.201346 -0.051997 -666758.000000 0 0 1
23.543865 17.557503 7.718006 30.366876 0.640766 1.313819 0.195205 -0.050408 -123408.000000 0 0 1
22.434065 18.362003 8.046006 30.086354 0.685913 1.300071 0.238599 -0.056269 -34741.100000 0 0 1
21.797065 18.861603 6.723106 29.598518 0.713326 1.341653 0.213852 -0.048245 645409.000000 0 0 1
22.714165 19.763303 6.055806 30.711468 0.716041 1.372312 0.126390 -0.028420 492765.000000 0 0 1
22.087765 20.297203 4.925106 30.399054 0.743178 1.408064 0.161212 -0.033231 21492.300000 0 0 1
20.377777 17.307403 32.782567 42.302443 0.704103 0.684150 0.110580 -0.047181 -419326.000000 0 0 1
19.361877 17.910803 32.047730 41.505857 0.746487 0.688617 0.122238 -0.047063 40121.200000 0 0 1
18.531977 16.937003 31.404172 40.205948 0.740460 0.674398 0.138374 -0.046987 -16960.900000 0 0 1
17.736777 17.473003 30.273442 39.196689 0.777907 0.688269 0.141812 -0.047157 -931391.000000 0 0 1
18.563177 17.857503 29.264392 38.985723 0.766025 0.721760 0.135791 -0.034724 -759627.000000 0 0 1
17.929377 18.173603 28.027532 37.911541 0.792163 0.738785 0.155078 -0.034725 94211.700000 0 0 1
18.911177 18.634403 26.922352 37.811197 0.778027 0.778425 0.132215 -0.027502 -184002.000000 0 0 1
19.584677 19.846003 27.172512 38.932876 0.792026 0.798290 0.147891 -0.043494 144551.000000 0 0 1
20.397677 20.084303 26.009142 38.677124 0.777657 0.833258 0.122589 -0.028960 -41830.000000 0 0 1
21.229077 21.373403 26.250832 39.957506 0.788786 0.854005 0.134420 -0.033888 -152463.000000 0 0 1
20.600877 22.619303 25.969512 40.130345 0.832065 0.866984 0.136944 -0.040007 283868.000000 0 0 1
21.378477 23.672803 26.497742 41.467713 0.836281 0.877603 0.139250 -0.035572 180210.000000 0 0 1
20.679277 24.982803 26.088952 41.622186 0.879368 0.893352 0.160623 -0.033632 267135.000000 0 0 1
20.656377 25.366903 24.723392 41.005022 0.887394 0.923621 0.160792 -0.038308 -531288.000000 0 0 1
19.550577 26.156503 24.513552 40.832609 0.928932 0.926867 0.154196 -0.042087 -634467.000000 0 0 1
19.616677 26.832903 23.136592 40.498403 0.939522 0.962712 0.135562 -0.037583 119476.000000 0 0 1
20.677877 27.775103 23.004532 41.572100 0.930840 0.984398 0.150592 -0.035311 210002.000000 0 0 1
20.626277 28.419103 21.740782 41.300731 0.942971 1.016433 0.135362 -0.040054 -48227.400000 0 0 1
21.767777 29.480503 21.629182 42.552999 0.934774 1.037601 0.125344 -0.025229 -577004.000000 0 0 1
22.965877 28.805803 21.461982 42.635930 0.897725 1.043293 0.134481 -0.025640 -884265.000000 0 0 1
24.097777 29.644203 21.354882 43.766570 0.888239 1.061083 0.140195 -0.038895 -93229.900000 0 0 1
24.607477 29.835103 19.933082 43.508494 0.881126 1.094892 0.142884 -0.040432 -477488.000000 0 0 1
23.880577 30.705603 19.112582 43.340591 0.909785 1.114100 0.116889 -0.030017 57705.300000 0 0 1
24.271477 30.513203 17.746982 42.838249 0.898841 1.143646 0.121047 -0.014265 39207.100000 0 0 1
23.853177 31.665503 16.787082 43.052111 0.925196 1.170247 0.113020 -0.029029 -27228.700000 0 0 1
24.704277 32.794103 16.908582 44.403318 0.925177 1.180140 0.122393 -0.032128 166597.000000 0 0 1
24.693577 33.655203 15.717082 44.603499 0.937795 1.210690 0.120242 -0.034694 -424770.000000 0 0 1
25.485177 33.228403 14.488482 44.311817 0.916523 1.237704 0.100730 -0.030309 -213282.000000 0 0 1
24.960977 32.164103 13.659682 42.943764 0.910830 1.247090 0.119030 -0.028352 238345.000000 0 0 1
23.816877 32.511903 12.884382 42.311639 0.938551 1.261371 0.094097 -0.023732 -8195.450000 0 0 1
23.347777 31.341703 12.006382 40.884891 0.930540 1.272740 0.091281 -0.033814 -559616.000000 0 0 1
24.340877 30.838903 11.159582 40.841799 0.902619 1.294038 0.099887 -0.049966 -883420.000000 0 0 1
23.815577 29.782303 10.387882 39.523100 0.896266 1.304841 0.088274 -0.044818 -698625.000000 0 0 1
24.938277 29.055803 9.551282 39.463710 0.861510 1.326342 0.097235 -0.050795 80551.200000 0 0 1
25.955477 28.501803 10.313682 39.905033 0.832122 1.309373 0.123881 -0.052305 -236153.000000 0 0 1
26.798877 29.475203 10.977182 41.321495 0.832921 1.301915 0.120532 -0.059379 -2281380.000000 0 0 1
28.160877 28.839903 11.200682 41.835754 0.797310 1.299760 0.151578 -0.065288 -659757.000000 0 0 1
28.323777 28.022503 12.328682 41.707235 0.780051 1.270712 0.145681 -0.053248 -234932.000000 0 0 1
29.598177 28.110503 12.922882 42.816508 0.759625 1.264195 0.135383 -0.043192 -7387.480000 0 0 1
30.110177 26.778303 13.553282 42.513430 0.726896 1.246333 0.127549 -0.053212 442236.000000 0 0 1
31.281277 26.984603 14.342382 43.730894 0.711789 1.236643 0.101418 -0.057944 570857.000000 0 0 1
31.848577 25.821903 14.954482 43.643317 0.681274 1.221058 0.105652 -0.053149 -81455.900000 0 0 1
32.828977 26.194903 16.074882 44.970174 0.673471 1.205253 0.114768 -0.064892 -270241.000000 0 0 1
34.191277 26.266703 15.719882 45.892242 0.655065 1.221178 0.118607 -0.049384 -312346.000000 0 0 1
34.936877 26.266103 16.911582 46.866781 0.644662 1.201624 0.102049 -0.044414 -1310930.000000 0 0 1
36.415777 26.138403 16.721182 47.842689 0.622557 1.213755 0.129234 -0.051935 -1216720.000000 0 0 1
36.887377 27.265203 15.966182 48.569423 0.636519 1.235839 0.137787 -0.034337 -588629.000000 0 0 1
-38.144511 27.525103 16.075482 49.709719 -0.625076 1.241490 0.165146 -0.029719 -15300.200000 0 0 1
-37.713911 28.542703 15.002582 49.619577 -0.647853 1.263637 0.130055 -0.029370 232675.000000 0 0 1
37.917077 29.718303 15.198782 50.516188 0.664767 1.265192 0.133386 -0.034449 -70881.400000 0 0 1
38.104977 30.725403 14.179282 50.961669 0.678592 1.288841 0.120284 -0.014082 388594.000000 0 0 1
36.985877 31.825003 14.269582 50.837063 0.710537 1.286281 0.103259 -0.024794 -297408.000000 0 0 1
37.096777 32.840603 13.277982 51.293089 0.724616 1.308949 0.070140 -0.021819 361610.000000 0 0 1
36.103277 -33.548456 13.345982 51.059385 -0.748735 1.306343 0.067587 -0.021564 680591.000000 0 0 1
34.640877 33.510003 12.940482 49.903575 0.768806 1.308489 0.113284 -0.023755 219153.000000 0 0 1
34.039377 32.593003 13.844182 49.118677 0.763695 1.285073 0.102560 -0.042916 -440325.000000 0 0 1
32.883277 32.034403 13.278682 47.789500 0.772323 1.289233 0.122696 -0.043603 -627733.000000 0 0 1
32.282577 30.914903 14.119382 46.874865 0.763760 1.264830 0.138713 -0.058703 -496307.000000 0 0 1
31.350077 31.409103 15.036182 46.855586 0.786339 1.244112 0.110141 -0.051726 -170004.000000 0 0 1
30.960777 30.368103 15.882182 46.184793 0.775735 1.219747 0.105334 -0.053353 494050.000000 0 0 1
29.726477 30.674503 16.814182 45.905395 0.801092 1.195789 0.096009 -0.047471 638358.000000 0 0 1
29.479677 29.614003 17.742282 45.396356 0.787671 1.169263 0.080832 -0.038743 549300.000000 0 0 1
30.379077 29.765703 18.892182 46.538156 0.775200 1.152778 0.064648 -0.035943 685363.000000 0 0 1
30.313877 28.588603 19.922382 46.185936 0.756116 1.124806 0.082674 -0.031357 -108972.000000 0 0 1
29.137277 28.643003 20.689682 45.798095 0.776844 1.102061 0.096992 -0.034317 -114171.000000 0 0 1
29.207477 27.717403 21.744782 45.762066 0.759228 1.075639 0.079879 -0.029024 -842854.000000 0 0 1
28.009177 27.717703 22.648862 45.450589 0.780168 1.049138 0.095646 -0.030461 -1174300.000000 0 0 1
26.885977 27.156403 22.020882 44.104935 0.790402 1.048024 0.148271 -0.031019 41389.400000 0 0 1
25.767577 27.051703 22.910172 43.825092 0.809705 1.020706 0.149794 -0.036940 196257.000000 0 0 1
25.652777 25.822603 23.873012 43.529215 0.788697 0.990303 0.123925 -0.035837 117890.000000 0 0 1
26.692277 25.706803 24.869252 44.629554 0.766593 0.979741 0.079563 -0.031059 780798.000000 0 0 1
26.328677 24.745303 25.866612 44.436594 0.754407 0.949485 0.098470 -0.031810 719498.000000 0 0 1
27.514077 24.664803 26.919722 45.717047 0.730846 0.941182 0.083212 -0.032924 749218.000000 0 0 1
27.797977 25.779003 27.733362 46.972587 0.747732 0.939222 0.097741 -0.023412 458409.000000 0 0 1
28.540677 26.864703 27.107082 47.655812 0.755158 0.965739 0.064966 -0.009864 17306.600000 0 0 1
28.777977 27.971103 28.096612 48.989532 0.771181 0.959997 0.053329 -0.010102 -442827.000000 0 0 1
29.634877 27.614103 29.141452 49.899788 0.750115 0.947149 0.055479 -0.005755 -60719.100000 0 0 1
29.994477 28.778003 29.882362 51.193727 0.764703 0.947504 0.062821 -0.018168 -503780.000000 0 0 1
31.487077 28.999903 30.033232 52.291734 0.744302 0.958999 0.045595 -0.015275 -237942.000000 0 0 1
32.242177 29.100803 28.805822 52.117081 0.734233 0.985179 0.018538 -0.010091 1962700.000000 0 0 1
33.682877 29.332303 28.947552 53.224816 0.716467 0.995751 0.049646 -0.023066 2176090.000000 0 0 1
34.349977 29.800203 27.612432 53.201687 0.714593 1.025099 0.039177 -0.021282 260989.000000 0 0 1
33.882277 31.108003 27.244682 53.460165 0.742737 1.036046 0.017141 -0.015833 174479.000000 0 0 1
34.582977 31.490403 26.072562 53.548168 0.738627 1.062260 0.029389 -0.019686 64171.800000 0 0 1
34.539877 32.982703 25.656502 54.213632 0.762341 1.077822 0.023617 -0.021210 -503320.000000 0 0 1
35.302977 -33.580056 26.456912 55.442660 -0.760391 1.073337 0.026295 -0.024865 -310361.000000 0 0 1
34.992777 -32.252356 26.090602 54.271802 -0.744668 1.069298 0.024311 -0.020102 -290405.000000 0 0 1
35.910777 -31.133156 26.605262 54.467397 -0.714257 1.060470 0.027172 -0.022688 -186421.000000 0 0 1
35.829277 -31.141756 28.007012 55.117500 -0.715519 1.037781 0.034671 -0.029113 -417491.000000 0 0 1
36.836977 -30.379056 28.530222 55.622150 -0.689615 1.032203 0.049032 -0.036317 -973146.000000 0 0 1
36.661377 -29.905656 30.020832 56.032626 -0.684257 1.005372 0.058263 -0.032674 -452320.000000 0 0 1
36.762677 -30.928056 31.002122 57.176662 -0.699415 0.997724 0.065992 -0.031034 -350917.000000 0 0 1
35.676677 -31.783756 31.048692 56.982925 -0.727755 0.994554 0.045706 -0.033290 -1159720.000000 0 0 1
35.796977 -32.791256 32.243435 58.278033 -0.741603 0.984513 0.065725 -0.031188 -463700.000000 0 0 1
35.352277 -32.177056 33.449212 58.343776 -0.738413 0.960253 0.064915 -0.036892 336678.000000 0 0 1
35.595277 -32.930656 -32.686874 58.479771 -0.746533 2.163907 0.075193 -0.035175 -122820.000000 0 0 1
34.621577 33.319203 -32.419564 57.964223 0.766231 2.164341 0.072308 -0.031260 -200015.000000 0 0 1
34.752077 32.395303 -33.495084 58.129883 0.750314 2.184882 0.084481 -0.036339 300255.000000 0 0 1
34.014277 31.230603 -33.139704 56.838030 0.742759 2.193280 0.097613 -0.027039 21498.100000 0 0 1
34.289077 30.118003 33.152588 56.408590 0.720727 0.942556 0.074630 -0.027526 736560.000000 0 0 1
35.582277 29.490503 33.180097 56.892065 0.692055 0.948120 0.072119 -0.026289 714104.000000 0 0 1
35.688177 28.570403 32.108140 55.864538 0.675080 0.958498 0.071571 -0.025909 425454.000000 0 0 1
37.098677 27.901503 32.082888 56.427985 0.644837 0.966038 0.076383 -0.023158 435430.000000 0 0 1
37.182077 26.793803 32.949538 56.445432 0.624425 0.947467 0.084546 -0.018871 445576.000000 0 0 1
-37.856011 26.403703 32.945573 56.706647 -0.609031 0.950861 0.066712 -0.021151 405702.000000 0 0 1
-37.655411 25.056803 -33.674084 56.388982 -0.587142 2.210771 0.072214 -0.026997 -127948.000000 0 0 1
-38.128811 23.893303 32.988463 55.793681 -0.559783 0.938178 0.083688 -0.023504 231954.000000 0 0 1
38.191477 22.773003 -33.489234 55.666215 0.537683 2.216309 0.079201 -0.035024 137394.000000 0 0 1
37.710377 21.470203 33.169049 54.618934 0.517574 0.918162 0.082609 -0.035882 -170089.000000 0 0 1
-37.638211 21.089803 32.338524 53.918409 -0.510739 0.927585 0.091990 -0.029667 127555.000000 0 0 1
-37.912411 19.926103 31.568223 53.206702 -0.483904 0.935628 0.084202 -0.021766 -314933.000000 0 0 1
-36.786911 19.570303 30.598532 51.696651 -0.488912 0.937399 0.087308 -0.036752 -336518.000000 0 0 1
-36.455811 20.516703 29.596272 51.243542 -0.512604 0.955058 0.090648 -0.025326 414123.000000 0 0 1
-35.426911 19.922403 28.769142 49.795900 -0.512277 0.954838 0.090855 -0.032473 331840.000000 0 0 1
-35.867911 18.892103 27.722332 49.111570 -0.484789 0.970997 0.109644 -0.028862 -335839.000000 0 0 1
-36.398111 17.720103 28.288422 49.386834 -0.453065 0.960887 0.101454 -0.027647 285306.000000 0 0 1
-36.993511 16.840803 27.335482 48.983273 -0.427200 0.978753 0.118364 -0.036351 50751.000000 0 0 1
-37.514311 15.550703 27.901742 49.271240 -0.392967 0.968800 0.109969 -0.038177 -441913.000000 0 0 1
-36.467211 14.768503 28.405092 48.526440 -0.384792 0.945481 0.091776 -0.030189 -107547.000000 0 0 1
-36.869111 13.430903 28.667842 48.595943 -0.349345 0.939833 0.090805 -0.037852 -167271.000000 0 0 1
-35.793311 12.352903 28.959732 47.669921 -0.332319 0.917880 0.087108 -0.029519 -129521.000000 0 0 1
-35.137411 12.534403 30.225452 48.013819 -0.342654 0.889867 0.088784 -0.025777 1236690.000000 0 0 1
-34.130111 11.502203 30.440922 47.157342 -0.325056 0.869095 0.090862 -0.029173 548882.000000 0 0 1
-32.661411 11.898403 30.262562 46.088636 -0.349353 0.854472 0.087698 -0.017544 -1466950.000000 0 0 1
-32.176411 12.117603 28.913522 44.923818 -0.360172 0.871588 0.071930 -0.009826 1077050.000000 0 0 1
-30.791111 12.494403 28.908192 44.044139 -0.385479 0.854831 0.053990 -0.010615 1202990.000000 0 0 1
-29.738511 11.458803 29.440042 43.386625 -0.367786 0.825008 0.057472 -0.008247 -865405.000000 0 0 1
-29.285111 10.579303 28.457072 42.182275 -0.346663 0.830344 0.064410 -0.013447 576320.000000 0 0 1
-28.252411 9.760703 29.060762 41.689302 -0.332644 0.799480 0.060802 -0.009825 190616.000000 0 0 1
-28.004211 8.427803 28.292172 40.690425 -0.292326 0.801955 0.049105 -0.006460 138066.000000 0 0 1
-28.909911 7.316903 28.392302 41.175755 -0.247888 0.809944 0.056873 -0.009767 -355193.000000 0 0 1
-30.134111 7.562803 27.776562 41.674909 -0.245893 0.841285 0.066026 -0.011842 -607318.000000 0 0 1
-31.025311 6.255103 27.714712 42.069008 -0.198946 0.851585 0.074213 -0.017139 333497.000000 0 0 1
-31.691011 6.062503 28.976702 43.367307 -0.189017 0.839051 0.093252 -0.024065 -18023.400000 0 0 1
-32.197411 4.814303 29.023552 43.614417 -0.148425 0.842689 0.123076 -0.025754 -343236.000000 0 0 1
-32.919611 4.307903 30.292852 44.943472 -0.130122 0.831157 0.133356 -0.031480 -328789.000000 0 0 1
-34.217211 4.807503 30.414062 46.031997 -0.139586 0.849025 0.136904 -0.034688 -456119.000000 0 0 1
-34.902511 4.224403 31.523355 47.220258 -0.120448 0.839841 0.161009 -0.036796 256901.000000 0 0 1
-36.384011 4.641703 31.619206 48.426396 -0.126890 0.859346 0.164671 -0.032540 -2972.410000 0 0 1
-36.643411 6.054103 31.679855 48.816031 -0.163738 0.864574 0.157929 -0.029477 -366981.000000 0 0 1
-38.005511 6.338203 31.831982 49.978663 -0.165250 0.880311 0.160327 -0.027399 -171472.000000 0 0 1
38.022077 7.861903 31.878752 50.236866 0.203899 0.883346 0.138601 -0.031296 -107327.000000 0 0 1
38.081477 8.312503 33.190241 51.194616 0.214911 0.865427 0.140207 -0.028447 160607.000000 0 0 1
37.768577 9.659203 33.278802 51.256651 0.250380 0.864188 0.143813 -0.043462 -44346.100000 0 0 1
37.717577 10.066903 -32.601944 50.861036 0.260822 2.266597 0.131139 -0.033130 846193.000000 0 0 1
36.602477 9.473903 -31.864664 49.445455 0.253274 2.271088 0.143065 -0.021948 764648.000000 0 0 1
36.675077 9.587503 -30.462334 48.630601 0.255695 2.247726 0.145022 -0.007914 691884.000000 0 0 1
35.326877 9.249903 -29.717284 47.081482 0.256088 2.253881 0.137347 -0.005700 746841.000000 0 0 1
35.110177 7.873503 -29.449704 46.497330 0.220602 2.256688 0.128338 -0.011427 281358.000000 0 0 1
33.837877 7.579403 -28.891984 45.135308 0.220355 2.265450 0.135974 -0.024655 52367.600000 0 0 1
36.960635 5.422903 -18.808794 41.824242 0.145682 2.037237 0.106238 -0.029035 -310869.000000 0 0 1
36.701235 6.526103 -17.956894 41.376573 0.175978 2.019710 0.096350 -0.014222 318460.000000 0 0 1
37.128485 7.785403 -18.476394 42.196138 0.206693 2.024024 0.067223 -0.016339 895297.000000 0 0 1
-37.754203 8.150703 -18.227594 42.709003 -0.212625 2.011732 0.087195 -0.029254 1059510.000000 0 0 1
-36.807853 7.495503 -19.036994 42.111848 -0.200892 2.039867 0.102438 -0.039973 -5164.790000 0 0 1
-36.317793 8.229903 -20.135294 42.333715 -0.222844 2.066479 0.099591 -0.028571 9740.300000 0 0 1
-35.413154 7.362403 -21.080194 41.864914 -0.204980 2.098475 0.101573 -0.025320 236912.000000 0 0 1
-36.038313 6.277003 -21.788994 42.578410 -0.172446 2.108003 0.099863 -0.019180 62063.800000 0 0 1
-36.752233 6.667103 -22.929894 43.828723 -0.179455 2.121363 0.093598 -0.009370 34930.300000 0 0 1
-36.541883 5.549103 -23.960394 44.047727 -0.150705 2.145951 0.128819 -0.019242 1383340.000000 0 0 1
-35.186904 5.536003 -24.484594 43.223384 -0.156052 2.173008 0.129352 -0.024838 1123150.000000 0 0 1
-34.986153 4.312203 -25.142254 43.298486 -0.122636 2.190351 0.136641 -0.029637 411041.000000 0 0 1
-33.629913 4.167403 -25.901034 42.652103 -0.123291 2.223407 0.143499 -0.025358 683380.000000 0 0 1
-32.461493 4.210703 -25.097864 41.247804 -0.128994 2.224922 0.128035 -0.025880 -438930.000000 0 0 1
-31.392503 3.671503 -25.809244 40.805468 -0.116426 2.255566 0.147748 -0.025369 170681.000000 0 0 1
-29.993913 3.841203 -25.135114 39.321287 -0.127373 2.264285 0.125896 -0.033195 360331.000000 0 0 1
-29.654673 5.239903 -25.054394 39.173701 -0.174892 2.264737 0.095107 -0.020934 -74601.200000 0 0 1
-28.363113 5.383403 -24.522294 37.878623 -0.187572 2.274953 0.092655 -0.028005 -240077.000000 0 0 1
-27.901583 6.878003 -24.516694 37.773980 -0.241691 2.277114 0.072174 -0.025059 -99924.900000 0 0 1
-28.663613 7.742103 -23.689494 37.983352 -0.263807 2.244239 0.070549 -0.021277 -322697.000000 0 0 1
-28.486963 9.143803 -23.842294 38.256649 -0.310594 2.243649 0.049684 -0.023719 421867.000000 0 0 1
-27.064893 9.692703 -23.456994 37.103740 -0.343898 2.255186 0.088711 -0.009228 260378.000000 0 0 1
-26.990553 10.125003 -22.119894 36.335869 -0.358886 2.225295 0.064824 -0.008377 373555.000000 0 0 1
-25.704363 10.657203 -21.814994 35.357944 -0.393035 2.235690 0.099141 -0.014796 -35584.400000 0 0 1
-25.442333 10.997503 -20.320494 34.368297 -0.407997 2.203413 0.121120 -0.036564 -810215.000000 0 0 1
-25.937853 12.213803 -19.835694 34.862644 -0.440087 2.176046 0.117299 -0.035860 1575370.000000 0 0 1
-27.376353 12.251003 -19.646794 35.854544 -0.420776 2.150718 0.105759 -0.015528 1111930.000000 0 0 1
-28.144573 11.285203 -18.709494 35.630296 -0.381345 2.123630 0.091282 -0.017061 -623550.000000 0 0 1
-27.713013 11.361103 -17.365294 34.621369 -0.389059 2.096217 0.109000 -0.027469 299615.000000 0 0 1
-28.672003 10.775103 -16.513594 34.797778 -0.359477 2.065259 0.134314 -0.032365 -745377.000000 0 0 1
-28.212553 10.528103 -15.050594 33.664662 -0.357166 2.034288 0.172433 -0.042195 -222279.000000 0 0 1
-27.317283 9.485303 -14.737394 32.456058 -0.334202 2.042127 0.195192 -0.045161 1151020.000000 0 0 1
-25.975833 9.853903 -15.122994 31.631444 -0.362578 2.069287 0.154570 -0.036159 -387869.000000 0 0 1
-25.018033 8.680203 -15.073794 30.470759 -0.333962 2.088283 0.109468 -0.025028 -561923.000000 0 0 1
-23.678423 9.104803 -15.213294 29.580559 -0.367090 2.110988 0.104519 -0.015350 350907.000000 0 0 1
-22.843323 7.951403 -14.950494 28.435180 -0.334967 2.124422 0.105869 -0.021205 864768.000000 0 0 1
-21.301823 8.212503 -14.905494 27.265117 -0.367971 2.149199 0.159143 -0.039450 533330.000000 0 0 1
-20.772823 8.319203 -16.204894 27.628209 -0.380924 2.197570 0.171364 -0.052492 1142270.000000 0 0 1
-19.333223 8.424503 -16.196994 26.591134 -0.410943 2.225738 0.183576 -0.048372 519044.000000 0 0 1
-18.712723 9.065503 -17.485194 27.167653 -0.451136 2.269993 0.143368 -0.036772 -100541.000000 0 0 1
-18.609423 8.134903 -18.494594 27.468842 -0.412107 2.309451 0.214090 -0.055094 901757.000000 0 0 1
-17.495923 7.230603 -18.293294 26.325530 -0.391897 2.339060 0.228611 -0.057882 -103930.000000 0 0 1
-17.032723 6.472703 -19.544294 26.720572 -0.363161 2.391217 0.193530 -0.051146 -241015.000000 0 0 1
-17.984123 5.637403 -20.125594 27.572605 -0.303764 2.388991 0.196054 -0.046078 -651713.000000 0 0 1
-18.914623 6.266003 -20.942594 28.907058 -0.319900 2.381076 0.191368 -0.047918 -610151.000000 0 0 1
-19.793923 5.196403 -21.624494 29.772819 -0.256732 2.383744 0.158542 -0.029694 -58420.900000 0 0 1
-20.876323 4.758603 -20.815994 29.862531 -0.224113 2.342086 0.144814 -0.029355 417466.000000 0 0 1
-21.475323 3.571603 -21.333494 30.480548 -0.164804 2.346061 0.107639 -0.014631 125305.000000 0 0 1
-22.669523 3.101503 -20.449594 30.687334 -0.135970 2.300147 0.114359 -0.019971 69451.400000 0 0 1
-23.010623 1.789403 -20.865794 31.113857 -0.077608 2.305850 0.125149 -0.012002 -249934.000000 0 0 1
-24.107923 1.340003 -20.138394 31.441095 -0.055526 2.265961 0.126004 -0.018328 -734745.000000 0 0 1
-24.534923 -0.107297 -20.559094 32.010159 0.004373 2.268250 0.131507 -0.002057 320125.000000 0 0 1
-23.566123 -1.122697 -20.209594 31.065259 0.047604 2.279109 0.131447 -0.009831 500007.000000 0 0 1
-24.007523 -2.477097 -20.393694 31.597467 0.102816 2.272372 0.146195 -0.018216 -418728.000000 0 0 1
-24.513723 -2.877697 -21.799794 32.930757 0.116856 2.294266 0.137311 -0.019930 374306.000000 0 0 1
-23.600923 -2.659497 -22.882394 32.980001 0.112213 2.337585 0.116258 -0.027375 83496.200000 0 0 1
-22.565223 -3.611397 -23.001494 32.423760 0.158697 2.359446 0.111601 -0.042009 81754.200000 0 0 1
-21.758923 -3.331297 -24.298894 32.786957 0.151921 2.405525 0.122235 -0.044730 491360.000000 0 0 1
-22.569523 -3.526297 -25.481514 34.221714 0.154988 2.410733 0.118462 -0.044723 943849.000000 0 0 1
-21.701023 -3.571297 -26.621214 34.530821 0.163106 2.451113 0.119887 -0.048168 414361.000000 0 0 1
-22.481223 -3.855897 -27.963714 36.086599 0.169864 2.457362 0.117213 -0.045174 272881.000000 0 0 1
-23.022623 -5.159297 -27.867064 36.513460 0.220455 2.439047 0.130191 -0.048259 -22974.500000 0 0 1
-23.761823 -5.539097 -28.999654 37.898361 0.229019 2.442141 0.099182 -0.037852 -273444.000000 0 0 1
-23.105023 -6.571697 -29.938584 38.384217 0.277109 2.465416 0.119112 -0.034899 -299927.000000 0 0 1
-21.998123 -6.116097 -30.673514 38.238574 0.271179 2.501703 0.112353 -0.035910 -383408.000000 0 0 1
-21.164423 -7.191197 -30.933214 38.164248 0.327539 2.515850 0.116173 -0.026972 -323987.000000 0 0 1
-19.720823 -6.875297 -31.427444 37.734133 0.335455 2.555061 0.119228 -0.028767 156152.000000 0 0 1
-19.556423 -6.425397 -32.747264 38.679746 0.317446 2.580409 0.112205 -0.038027 139348.000000 0 0 1
-19.931623 -7.429097 -33.659974 39.817772 0.356778 2.578017 0.103459 -0.028143 -875387.000000 0 0 1
-19.687723 -7.071097 32.206874 38.404291 0.344814 0.576039 0.091663 -0.027571 -341370.000000 0 0 1
-18.347323 -6.846797 31.862187 37.399222 0.357171 0.551102 0.107227 -0.026777 -141453.000000 0 0 1
-17.869623 -5.557397 32.046259 37.110252 0.301515 0.528545 0.089566 -0.033473 -257252.000000 0 0 1
-16.500423 -5.328097 31.371283 35.844246 0.312337 0.504924 0.088960 -0.032260 -48461.600000 0 0 1
-16.626123 -5.196897 29.944492 34.642579 0.302952 0.526872 0.091829 -0.036308 774723.000000 0 0 1
-15.383523 -4.833497 29.334662 33.474436 0.304433 0.502606 0.072326 -0.024623 488008.000000 0 0 1
-15.501623 -4.700997 27.798202 32.173587 0.294443 0.527622 0.083908 -0.018316 -575630.000000 0 0 1
-16.385123 -3.750797 27.385162 32.132348 0.225037 0.550503 0.082264 -0.023552 -601188.000000 0 0 1
-16.642523 -3.707597 25.971982 31.068693 0.219199 0.580928 0.088572 -0.017434 44791.800000 0 0 1
-15.631623 -2.950497 25.076752 29.696743 0.186557 0.565300 0.106908 -0.012468 18079.600000 0 0 1
-15.783823 -1.562597 25.170012 29.750635 0.098678 0.562297 0.103520 -0.017504 379015.000000 0 0 1
-14.870423 -0.810397 24.338282 28.533107 0.054443 0.549120 0.089246 -0.025130 264509.000000 0 0 1
-14.972623 0.707503 24.403472 28.639299 -0.047218 0.550817 0.074342 0.002526 -475152.000000 0 0 1
-16.204823 1.115603 23.882002 28.882362 -0.068735 0.597274 0.066981 0.000194 -340316.000000 0 0 1
-16.471623 2.499703 24.072362 29.275271 -0.150609 0.605397 0.049221 -0.009184 -384234.000000 0 0 1
-16.732223 3.248103 22.798112 28.465266 -0.191738 0.641983 0.064818 -0.009214 -85833.200000 0 0 1
-15.520823 3.592403 22.151682 27.285496 -0.227452 0.623486 0.052666 -0.011710 325275.000000 0 0 1
-15.742823 4.244303 20.958082 26.553564 -0.263341 0.661168 0.064013 -0.019994 38924.100000 0 0 1
-14.371623 4.663203 20.401482 25.387191 -0.313755 0.637455 0.070010 -0.010853 122367.000000 0 0 1
-13.717223 5.679803 21.152582 25.842873 -0.392571 0.611988 0.027808 -0.016718 -331229.000000 0 0 1
-12.379523 5.679403 20.739482 24.811979 -0.430126 0.581088 0.017266 -0.010996 -551991.000000 0 1 0
-11.665523 7.008903 20.989382 25.015261 -0.541024 0.575238 0.027863 -0.010551 -478914.000000 0 0 1
-12.263123 8.083203 20.323182 25.074969 -0.582779 0.625797 0.045346 -0.014743 -77070.500000 0 0 1
-11.446123 9.210903 20.394182 25.135177 -0.677611 0.624287 0.013840 -0.008483 -494744.000000 0 0 1
-12.245323 10.521903 20.497982 26.092636 -0.709845 0.667155 0.012957 -0.000386 -259575.000000 0 0 1
-12.751923 10.933703 19.271782 25.564800 -0.708784 0.716909 0.031294 -0.000378 420269.000000 0 0 1
-13.503523 12.144703 19.465282 26.622099 -0.732469 0.750761 0.023767 0.001899 -204746.000000 0 0 1
-13.816423 12.935403 18.177682 26.242071 -0.752477 0.805581 0.033855 0.006157 165437.000000 0 0 1
-12.726223 13.645103 17.584482 25.639025 -0.820228 0.815028 0.025449 0.007369 379996.000000 0 0 1
-12.529323 14.933203 18.147582 26.633047 -0.872709 0.821132 0.035354 0.001561 -305680.000000 0 0 1
-13.498423 16.050703 17.639082 27.403826 -0.871558 0.871509 0.034836 -0.001679 35229.900000 0 0 1
-13.548323 16.478803 16.295082 26.844696 -0.882685 0.918500 0.019477 -0.007331 -132730.000000 0 0 1
-13.976823 15.523703 15.354482 25.924835 -0.837786 0.936924 0.044283 -0.003162 -74015.500000 0 0 1
-14.377823 16.064603 13.916582 25.660563 -0.840750 0.997584 0.036294 -0.012078 -523939.000000 0 0 1
-15.403323 16.970203 13.984982 26.848275 -0.833760 1.022904 0.041855 -0.014189 -895738.000000 0 0 1
-15.818623 17.283903 12.695982 26.648641 -0.829634 1.074216 0.034206 -0.013868 -597060.000000 0 0 1
-17.048723 18.164203 12.645782 27.937663 -0.817066 1.101069 0.058667 -0.026885 -346410.000000 0 0 1
-18.261923 17.472903 12.912382 28.381856 -0.763322 1.098478 0.078095 -0.027578 724855.000000 0 0 1
-19.330223 18.427303 13.164182 29.774464 -0.761489 1.112824 0.095840 -0.034204 742001.000000 0 0 1
-20.718223 17.788903 13.375182 30.406995 -0.709472 1.115340 0.110695 -0.027159 199199.000000 0 0 1
-21.336023 17.456203 12.111282 30.110265 -0.685714 1.156844 0.109216 -0.022899 -31135.300000 0 0 1
-22.718723 17.288803 12.399582 31.125435 -0.650500 1.161052 0.152902 -0.036006 119133.000000 0 0 1
-23.393023 16.580503 11.224382 30.791774 -0.616594 1.197673 0.143298 -0.026246 -375712.000000 0 0 1
-22.865923 15.329903 10.925982 29.618127 -0.590601 1.192976 0.113630 -0.013862 65984.900000 0 0 1
-23.503423 14.803003 9.745082 29.436481 -0.562060 1.233375 0.137131 -0.025426 428437.000000 0 0 1
-22.802323 13.494403 9.231982 28.058409 -0.534368 1.235523 0.127700 -0.019946 -213864.000000 0 0 1
-22.841023 12.317303 10.027682 27.820544 -0.494562 1.202055 0.127219 -0.026563 937819.000000 0 0 1
-24.089523 11.584103 10.160882 28.596155 -0.448233 1.207536 0.188871 -0.029744 811747.000000 0 0 1
-24.573023 10.892103 8.892982 28.311773 -0.417230 1.251278 0.205820 -0.029656 -306223.000000 0 0 1
-25.120283 11.776203 7.917082 28.851131 -0.438372 1.292819 0.213345 -0.034991 565656.000000 0 0 1
-26.120653 11.126003 7.123982 29.271617 -0.402672 1.324952 0.300697 -0.045404 -49236.500000 0 0 1
-26.759893 12.128703 6.134882 30.013898 -0.425547 1.364944 0.291669 -0.043005 -263200.000000 0 0 1
-26.010563 12.230803 4.931782 29.162723 -0.439545 1.400867 0.301620 -0.060353 300574.000000 0 0 1
-24.742023 12.805103 4.886982 28.284642 -0.477585 1.397146 0.279453 -0.061980 -841236.000000 0 0 1
-24.730523 14.373803 5.116182 29.058222 -0.526494 1.393807 0.250704 -0.049820 245913.000000 0 0 1
-23.405923 14.950103 5.169582 28.250086 -0.568413 1.386766 0.192157 -0.053711 1045010.000000 0 0 1
-23.396023 16.237703 5.791082 29.061547 -0.606713 1.370184 0.184282 -0.049452 940431.000000 0 0 1
-21.952123 16.882103 5.929682 28.320703 -0.655577 1.359859 0.138792 -0.036207 720518.000000 0 0 1
-21.397923 17.270803 4.739382 27.903646 -0.679071 1.400121 0.156046 -0.057545 52068.800000 0 0 1
-20.139023 17.870103 4.952882 27.376119 -0.725775 1.388875 0.147560 -0.041407 -186173.000000 0 0 1
-19.429923 18.390103 3.692082 27.006467 -0.757911 1.433656 0.134322 -0.041522 -404057.000000 0 0 1
-18.197023 18.985903 3.974082 26.596795 -0.806611 1.420815 0.115495 -0.036061 -296435.000000 0 0 1
-17.935623 20.100703 3.147382 27.122516 -0.842258 1.454491 0.130569 -0.029403 -155309.000000 0 0 1
-18.247823 21.481503 3.752482 28.434471 -0.866612 1.438441 0.111980 -0.039213 -480670.000000 0 0 1
-17.534123 21.899503 4.862882 28.472466 -0.895651 1.399162 0.107754 -0.034263 -223825.000000 0 0 1
-17.910723 23.177503 5.329882 29.772442 -0.912885 1.390805 0.077721 -0.026185 -298347.000000 0 0 1
-17.011923 23.594103 6.505382 29.806161 -0.946099 1.350769 0.053477 -0.007726 130333.000000 0 0 1
-17.543223 23.083603 7.747682 30.010731 -0.920935 1.309675 0.043761 -0.005426 432939.000000 0 0 1
-16.697023 23.390003 8.838482 30.066619 -0.950833 1.272426 0.043972 -0.008604 -88771.000000 0 0 1
-17.116723 22.710003 10.130682 30.188693 -0.924926 1.228577 0.027611 -0.005125 -758543.000000 0 0 1
-18.349823 23.215003 10.488982 31.395400 -0.901918 1.230154 0.026320 -0.005303 -1315130.000000 0 0 1
-19.216823 22.210503 10.977282 31.354321 -0.857536 1.213114 0.031231 -0.009734 237316.000000 0 0 1
-20.439723 22.877303 11.689982 32.830001 -0.841612 1.206731 0.058215 -0.025400 825572.000000 0 0 1
-21.345323 23.605503 10.805782 33.609634 -0.835637 1.243474 0.085389 -0.019580 588960.000000 0 0 1
-20.838623 24.849703 10.400782 34.057778 -0.872966 1.260452 0.030655 -0.013238 -337377.000000 0 0 1
-21.926523 25.664903 9.651882 35.108667 -0.863789 1.292296 0.045469 -0.017324 -70493.200000 0 0 1
-22.964123 26.152203 10.412482 36.327792 -0.850216 1.280093 0.076293 -0.031655 -679772.000000 0 0 1
-23.680123 27.188103 9.780882 37.357821 -0.854251 1.305893 0.101105 -0.029511 -375024.000000 0 0 1
-24.669823 27.843203 10.726382 38.715622 -0.845755 1.290068 0.113379 -0.029298 -526842.000000 0 0 1
-24.053723 28.443103 11.900182 39.105064 -0.868816 1.261579 0.110690 -0.029730 571040.000000 0 0 1
-24.897123 29.316203 12.661782 40.492311 -0.866731 1.252766 0.106844 -0.029059 22108.700000 0 0 1
10.593677 -32.012856 27.243182 43.350201 -1.251220 0.891245 0.070115 -0.032395 -181870.000000 0 0 1
11.977777 -32.083756 27.017922 43.621127 -1.213492 0.902847 0.078967 -0.040754 -14088.700000 0 0 1
12.275777 -31.958556 25.649902 42.778049 -1.204058 0.927790 0.099344 -0.040754 -264936.000000 0 0 1
13.802377 -32.018756 25.483232 43.186821 -1.163794 0.939651 0.060996 -0.032586 -260714.000000 0 0 1
14.332677 -33.299656 25.755342 44.470556 -1.164348 0.953105 0.077391 -0.040634 944753.000000 0 0 1
15.760177 -33.321456 25.572052 44.862373 -1.129002 0.964277 0.093182 -0.032709 616736.000000 0 0 1
16.382377 32.768603 25.240302 44.488611 1.107196 0.967521 0.117164 -0.029575 -200054.000000 0 0 1
16.139777 32.284503 23.929602 43.305974 1.107210 0.985351 0.093057 -0.031521 516342.000000 0 0 1
17.030977 31.185203 23.747362 42.737668 1.070934 0.981647 0.098481 -0.027503 -45482.000000 0 0 1
17.026677 30.560603 22.301592 41.487579 1.062484 1.003269 0.107558 -0.031994 -71786.800000 0 0 1
15.944977 29.702803 21.978582 40.243719 1.078131 0.993051 0.095014 -0.023837 37047.200000 0 0 1
15.979377 28.321303 22.390052 39.481023 1.057103 0.967804 0.105184 -0.023715 -148554.000000 0 0 1
15.639777 27.992703 23.863912 39.970994 1.061291 0.931002 0.131931 -0.040500 -2715.310000 0 0 1
16.681777 28.263603 24.792022 41.130978 1.037598 0.923843 0.123840 -0.031824 320082.000000 0 0 1
16.257877 27.898703 26.102212 41.520859 1.043160 0.890976 0.135210 -0.039734 -12331.300000 0 0 1
17.192377 28.364703 27.231792 42.915087 1.025890 0.883369 0.142364 -0.039762 -22726.900000 0 0 1
17.165777 29.763303 27.445372 43.974613 1.047653 0.896793 0.135127 -0.044902 419131.000000 0 0 1
18.018777 30.100303 28.557322 45.235221 1.031389 0.887559 0.142707 -0.044423 142389.000000 0 0 1
17.897777 31.541303 29.016172 46.444833 1.054663 0.895992 0.136437 -0.045710 262433.000000 0 0 1
18.664377 32.395903 28.169722 46.812250 1.048110 0.925094 0.123850 -0.040743 91226.600000 0 0 1
18.253577 33.698703 28.450352 47.730684 1.074371 0.932211 0.131563 -0.032043 34994.000000 0 0 1
19.111277 -32.603656 27.830252 46.933594 -1.040608 0.936053 0.112086 -0.034015 -823073.000000 0 0 1
18.907877 -32.659456 26.474792 46.098400 -1.046006 0.959035 0.116444 -0.029940 -86269.600000 0 0 1
19.325077 -31.562156 25.689442 45.050813 -1.021392 0.964007 0.123006 -0.033204 675662.000000 0 0 1
20.853777 -31.174356 25.627612 45.425709 -0.981221 0.971374 0.123610 -0.033123 823099.000000 0 0 1
21.313477 -30.490456 26.804992 45.852370 -0.960728 0.946418 0.122992 -0.033514 -215960.000000 0 0 1
22.426977 -29.663856 26.669092 45.761929 -0.923443 0.948652 0.139168 -0.033851 -229618.000000 0 0 1
22.615477 -28.728056 27.942572 46.016827 -0.903893 0.918233 0.153983 -0.031700 173226.000000 0 0 1
21.402277 -27.988156 28.048382 45.034499 -0.917959 0.898454 0.149122 -0.031935 504087.000000 0 0 1
21.361677 -27.218756 29.234312 45.297097 -0.905384 0.869262 0.158560 -0.027286 393908.000000 0 0 1
19.867477 -26.904056 29.519232 44.608631 -0.934724 0.847662 0.166566 -0.031274 579194.000000 0 0 1
19.101577 -26.118456 28.602732 43.187502 -0.939342 0.846923 0.164055 -0.026926 -26880.900000 0 0 1
17.889377 -25.704256 29.157352 42.788898 -0.962781 0.821091 0.160116 -0.023607 259103.000000 0 0 1
16.897477 -25.052856 28.070322 41.244555 -0.977409 0.822239 0.149161 -0.024216 187575.000000 0 0 1
16.271777 -25.965956 27.150522 40.940841 -1.011006 0.845757 0.145024 -0.026170 360647.000000 0 0 1
15.798677 -25.326956 25.968722 39.565483 -1.013068 0.854829 0.141055 -0.038701 1072580.000000 0 0 1
14.342377 -24.659756 26.181752 38.720686 -1.044008 0.828245 0.106716 -0.029925 2749830.000000 0 0 1
13.196477 -25.561956 26.414562 39.054958 -1.094230 0.828009 0.092911 -0.027418 1473700.000000 0 0 1
12.995077 -26.617756 25.415442 39.029754 -1.116624 0.861657 0.078817 -0.034853 -431654.000000 0 0 1
11.894677 -27.661356 25.783522 39.641191 -1.164689 0.862656 0.081472 -0.034999 1000860.000000 0 0 1
10.529677 -27.252056 25.817792 38.988550 -1.202085 0.847060 0.069625 -0.040987 692151.000000 0 0 1
9.642077 -28.343956 26.081372 39.706265 -1.242896 0.854152 0.051700 -0.042307 -493953.000000 0 0 1
8.184277 -27.962556 26.137122 39.141233 -1.286062 0.839595 0.066015 -0.053509 -736268.000000 0 0 1
7.428577 -27.939756 24.932262 38.176320 -1.310930 0.859149 0.102554 -0.056044 -63056.300000 0 0 1
7.546477 -26.654156 24.223382 36.798989 -1.294891 0.852288 0.113630 -0.048356 -843208.000000 0 0 1
6.309577 -26.380856 23.385162 35.813770 -1.336034 0.859303 0.135024 -0.042097 -970219.000000 0 0 1
6.082277 -27.311056 22.326612 35.796166 -1.351668 0.897310 0.129226 -0.044562 -204779.000000 0 0 1
5.693877 -28.654856 22.602432 36.937663 -1.374646 0.912326 0.129536 -0.048511 -208890.000000 0 0 1
4.275077 -28.647956 23.239882 37.135883 -1.422661 0.894631 0.151896 -0.048112 733036.000000 0 0 1
3.176777 -28.595856 22.232182 36.360484 -1.460158 0.912920 0.164352 -0.044307 1876030.000000 0 0 1
1.915977 -28.182256 22.781722 36.289357 -1.502916 0.892099 0.174985 -0.036403 660900.000000 0 0 1
1.683077 -26.746856 23.321922 35.526597 -1.507953 0.854675 0.160492 -0.041597 -991578.000000 0 0 1
2.287177 -26.478456 24.513782 36.156124 -1.484631 0.825761 0.120239 -0.038882 -225831.000000 0 0 1
2.103877 -25.143656 24.898182 35.447838 -1.487317 0.792048 0.106097 -0.037765 -1040800.000000 0 0 1
3.200977 -24.594856 25.739182 35.744352 -1.441376 0.766863 0.088545 -0.032969 -1551630.000000 0 0 1
4.393977 -24.320656 25.061112 35.197453 -1.392056 0.778433 0.090878 -0.039568 321096.000000 0 0 1
5.396577 -23.647456 25.843782 35.443283 -1.346429 0.753704 0.077873 -0.036385 732673.000000 0 0 1
4.953377 -22.184156 26.083992 34.598372 -1.351115 0.716806 0.059864 -0.022972 -569009.000000 0 0 1
4.904877 -21.376656 24.926322 33.201518 -1.345250 0.721587 0.064483 -0.021185 134674.000000 0 0 1
4.282877 -20.133156 25.164752 32.510795 -1.361193 0.685594 0.080991 -0.032605 -178102.000000 0 0 1
4.290777 -19.139556 23.981122 30.981084 -1.350259 0.685572 0.090887 -0.029878 -610034.000000 0 0 1
5.514177 -18.541656 23.708682 30.599032 -1.281732 0.684369 0.067908 -0.015331 -733252.000000 0 0 1
5.462977 -17.595956 22.673912 29.215888 -1.269764 0.682368 0.073781 -0.007721 -128922.000000 0 0 1
6.828277 -16.989756 22.300552 28.854667 -1.188648 0.687464 0.077818 -0.007614 442152.000000 0 0 1
7.721877 -18.024556 21.817082 29.334231 -1.166042 0.732146 0.090794 -0.010654 880571.000000 0 0 1
8.914177 -17.491556 21.203782 28.896669 -1.099476 0.746928 0.096445 -0.016888 1292700.000000 0 0 1
10.261477 -17.613456 21.969482 29.969816 -1.043274 0.747996 0.115741 -0.010660 24291.300000 0 0 1
10.348977 -16.768256 23.058842 30.331270 -1.017843 0.707124 0.122777 0.000179 -486446.000000 0 0 1
11.276377 -17.089256 24.021882 31.563431 -0.987527 0.705840 0.135710 -0.001602 -679564.000000 0 0 1
11.311277 -16.146756 25.230002 32.018990 -0.959715 0.663291 0.162762 -0.022881 -341097.000000 0 0 1
11.727877 -14.851356 24.859922 31.242945 -0.902377 0.650639 0.193182 -0.032483 151119.000000 0 0 1
11.765877 -14.106956 26.000672 31.835154 -0.875636 0.615078 0.182004 -0.034907 -33427.100000 0 0 1
11.732577 -12.594956 25.812062 31.024971 -0.820832 0.588135 0.197578 -0.033209 82702.400000 0 0 1
10.466377 -12.090356 25.473072 30.076555 -0.857269 0.560591 0.205906 -0.029952 -15031.500000 0 0 1
10.650577 -10.708256 25.224762 29.400513 -0.788099 0.539491 0.202301 -0.021639 55162.000000 0 0 1
9.506877 -10.156756 24.369712 28.061063 -0.818436 0.518723 0.195600 -0.015923 437904.000000 0 0 1
8.260177 -10.127056 25.065562 28.267830 -0.886583 0.480602 0.161429 -0.011615 258245.000000 0 0 1
7.222677 -9.743356 24.188632 27.059009 -0.932891 0.464777 0.156633 -0.002155 -104517.000000 0 0 1
5.780277 -9.796656 24.698242 27.191713 -1.037743 0.431593 0.120484 -0.020589 -894997.000000 0 0 1
5.416377 -8.768556 25.623262 27.618405 -1.017460 0.382430 0.121514 -0.019672 70713.400000 0 0 1
4.128277 -8.949856 26.191392 27.984489 -1.138612 0.359919 0.095834 -0.014888 408746.000000 0 0 1
2.951477 -8.657156 25.248552 26.854179 -1.242225 0.347552 0.069228 -0.017365 -813043.000000 0 0 1
2.738177 -7.258856 24.903532 26.083990 -1.210082 0.301999 0.084028 -0.022533 -244694.000000 0 0 1
1.678677 -7.201956 23.979362 25.093743 -1.341799 0.299137 0.067579 -0.024598 140996.000000 0 0 1
1.556177 -5.898156 23.204162 23.992563 -1.312834 0.257067 0.062938 -0.029718 92307.700000 0 1 0
1.297077 -4.723656 23.958132 24.453781 -1.302810 0.201681 0.063166 -0.021277 -208653.000000 0 1 0
1.793977 -3.532556 23.383902 23.717170 -1.100896 0.167838 0.069579 -0.022243 -1441460.000000 0 1 0
1.065977 -2.808556 22.271562 22.473246 -1.208046 0.134073 0.055935 -0.026048 -151640.000000 0 1 0
-0.049823 -2.025556 22.630802 22.721324 1.546204 0.089293 0.048812 -0.024667 176929.000000 0 1 0
-1.187423 -2.715456 23.125422 23.314562 1.158568 0.127464 0.044054 -0.023912 -503947.000000 0 1 0
-2.204923 -1.758556 23.812432 23.978868 0.673251 0.117890 0.037149 -0.025028 -178189.000000 0 1 0
-1.721823 -1.008556 24.897302 24.977140 0.529875 0.079977 0.054855 -0.018106 -58065.200000 0 1 0
-2.543123 0.115444 25.206432 25.334660 -0.045363 0.100654 0.055584 -0.017236 -174099.000000 0 0 1
-2.185723 0.975444 26.463102 26.571124 -0.419756 0.090202 0.110151 -0.025665 -180381.000000 0 0 1
-2.314823 0.447444 27.785142 27.884991 -0.190940 0.084651 0.126629 -0.024565 68725.200000 0 0 1
-1.456423 -0.627556 28.072402 28.117161 0.406848 0.056432 0.127201 -0.023283 -361914.000000 0 0 1
-0.043623 -0.331556 28.630562 28.632515 1.439979 0.011680 0.167316 -0.022306 232108.000000 0 0 1
0.922977 0.248444 27.723262 27.739734 0.262944 0.034464 0.126130 -0.020215 709915.000000 0 0 1
1.477677 -0.665556 26.720992 26.770093 -0.423192 0.060576 0.108451 -0.020212 275786.000000 0 0 1
2.670077 -1.527556 27.226552 27.399779 -0.519654 0.112507 0.118710 -0.023398 -291337.000000 0 0 1
2.175777 -2.577456 28.003912 28.206318 -0.869704 0.119871 0.134519 -0.023820 396777.000000 0 0 1
3.133577 -3.578256 28.411212 28.806600 -0.851554 0.165874 0.151530 -0.019333 543045.000000 0 0 1
3.855077 -4.433356 27.305432 27.930322 -0.855055 0.211930 0.130040 -0.016934 771253.000000 0 0 1
4.778777 -3.699756 26.463622 27.144948 -0.658814 0.224523 0.131955 -0.018527 109066.000000 0 0 1
5.358977 -4.569356 25.554422 26.507096 -0.706033 0.268915 0.129120 -0.021515 -592799.000000 0 0 1
6.616177 -3.960856 24.882402 26.049877 -0.539435 0.300519 0.136673 -0.028309 -175981.000000 0 0 1
7.833977 -3.912756 25.583522 27.040663 -0.463215 0.329782 0.139614 -0.026854 40607.800000 0 0 1
8.447277 -5.187356 25.838342 27.674629 -0.550713 0.366333 0.180774 -0.013020 -628185.000000 0 0 1
9.407277 -5.655856 24.742972 27.068436 -0.541317 0.417540 0.157118 -0.015026 -740857.000000 0 0 1
8.781877 -6.063756 23.589662 25.891363 -0.604312 0.424848 0.170448 -0.024686 -300051.000000 0 0 1
9.551877 -5.903356 22.388032 25.046196 -0.553572 0.464893 0.164355 -0.033374 251969.000000 0 0 1
9.645077 -4.481056 21.776182 24.234469 -0.434925 0.454314 0.183303 -0.025033 528300.000000 0 1 0
8.419977 -4.008956 21.221282 23.179960 -0.444365 0.414044 0.154624 -0.029647 -258360.000000 0 1 0
8.629277 -2.816256 20.458182 22.381531 -0.315462 0.417599 0.145424 -0.027597 147666.000000 0 1 0
7.286177 -2.151556 20.032582 21.424797 -0.287133 0.362485 0.129416 -0.031213 702364.000000 0 1 0
6.484177 -1.765556 21.167482 22.208648 -0.265842 0.307415 0.128339 -0.027423 930128.000000 0 1 0
5.321477 -0.984556 20.798982 21.491513 -0.182947 0.254551 0.058068 -0.028947 628965.000000 0 1 0
4.513977 -0.648556 22.092482 22.558244 -0.142701 0.203561 0.048670 -0.025580 -148130.000000 0 1 0
3.297777 0.007444 21.813682 22.061553 0.002257 0.150043 0.048906 -0.026699 -311398.000000 0 1 0
2.822777 0.431444 23.057912 23.234059 0.151670 0.123216 0.070613 -0.027907 1329720.000000 0 1 0
1.284377 0.857444 23.125122 23.176628 0.588645 0.066681 0.070841 -0.032908 1458590.000000 0 1 0
1.094777 2.241444 22.920612 23.055955 1.116451 0.108406 0.072548 -0.019600 275946.000000 0 1 0
-0.267123 2.614444 23.012512 23.162089 -1.468978 0.113708 0.054137 -0.013409 163810.000000 0 1 0
-0.633623 4.002444 22.496032 22.858094 -1.413790 0.178222 0.056968 -0.014540 -48050.400000 0 1 0
-0.615523 4.982444 23.570972 24.099675 -1.447881 0.209852 0.081731 -0.018129 331809.000000 0 1 0
-1.318823 6.171444 23.131172 23.976595 -1.360265 0.266344 0.069970 -0.017027 254510.000000 0 1 0
-1.083123 7.376444 24.029832 25.159847 -1.425003 0.300845 0.083970 -0.016238 765175.000000 0 0 1
0.087877 8.149444 23.703142 25.065117 1.560014 0.331170 0.075898 -0.014509 644144.000000 0 0 1
-0.038323 9.471444 24.268512 26.051303 -1.566750 0.372099 0.097905 -0.018789 -252307.000000 0 0 1
0.704777 10.574444 23.456702 25.739705 1.504246 0.424356 0.103391 -0.021804 2045500.000000 0 0 1
2.157977 10.628444 23.595502 25.968604 1.370481 0.430837 0.105251 -0.013936 1132710.000000 0 0 1
2.739777 11.074444 24.756782 27.258905 1.328270 0.431812 0.129846 -0.028590 53759.000000 0 0 1
3.958577 12.105444 24.564612 27.670061 1.254749 0.478322 0.124478 -0.034397 793115.000000 0 0 1
5.155677 11.599444 24.072752 27.214435 1.152545 0.485250 0.131750 -0.033793 -361593.000000 0 0 1
5.048577 10.943444 22.771852 25.764400 1.138558 0.486768 0.113590 -0.028547 -1214540.000000 0 0 1
6.338677 10.396444 22.124282 25.253687 1.023277 0.503123 0.131674 -0.030233 -473157.000000 0 0 1
7.297977 11.302444 21.756582 25.580355 0.997451 0.553825 0.110015 -0.029081 -622968.000000 0 0 1
8.445677 10.645444 21.295482 25.261680 0.900117 0.567969 0.118149 -0.031815 9122.650000 0 0 1
9.554377 11.543444 20.701782 25.555841 0.879399 0.626541 0.105556 -0.032487 -191592.000000 0 0 1
9.102577 12.247444 19.553582 24.803213 0.931647 0.662676 0.096999 -0.031957 182363.000000 0 1 0
9.951877 13.301444 19.153782 25.354203 0.928461 0.714459 0.114732 -0.033878 -143425.000000 0 0 1
11.268277 12.967444 18.437582 25.200657 0.855394 0.750085 0.089564 -0.035154 600966.000000 0 0 1
12.336977 12.681444 19.388182 26.247316 0.799166 0.739697 0.095232 -0.038128 1464240.000000 0 0 1
13.555877 12.331444 18.711082 26.190282 0.738135 0.774989 0.090312 -0.039797 209271.000000 0 0 1
14.833677 12.173444 19.488882 27.350452 0.687214 0.777654 0.096001 -0.026197 -467842.000000 0 0 1
15.431677 13.292444 20.077682 28.599633 0.711060 0.792558 0.092156 -0.025277 -167009.000000 0 0 1
16.744177 12.974444 20.480182 29.464241 0.659224 0.802257 0.097402 -0.023417 -101228.000000 0 0 1
17.578177 14.200444 20.852282 30.748375 0.679506 0.825542 0.097603 -0.010997 -465882.000000 0 0 1
17.224377 14.968444 21.972082 31.678161 0.715437 0.804317 0.101069 -0.009363 -793276.000000 0 0 1
18.165777 15.898444 22.282362 32.852087 0.718936 0.825400 0.084742 0.000582 -782248.000000 0 0 1
-22.451623 12.620003 -24.452294 35.514146 -0.512084 2.330246 0.099589 -0.008213 120484.000000 0 0 1
-21.954923 12.827003 -25.770824 36.203398 -0.528753 2.362903 0.089805 -0.008702 -369953.000000 0 0 1
-22.901523 13.249503 -26.701174 37.589650 -0.524492 2.360768 0.094708 -0.017400 -289867.000000 0 0 1
-22.345023 13.339703 -28.133154 38.323910 -0.538202 2.395120 0.091843 -0.023051 365110.000000 0 0 1
-21.188223 14.158403 -28.259654 38.052717 -0.589078 2.407807 0.111821 -0.016467 -55960.900000 0 0 1
-21.098323 14.507803 -29.595524 39.134520 -0.602374 2.428361 0.102296 -0.027659 198444.000000 0 0 1
-19.699623 15.035503 -29.985534 38.900820 -0.651920 2.450924 0.087834 -0.026783 -11766.100000 0 0 1
-18.633023 14.129703 -30.067924 38.090919 -0.648802 2.480583 0.090355 -0.021296 -77250.900000 0 0 1
-17.376423 14.812603 -30.010514 37.709207 -0.705917 2.491191 0.089109 -0.020492 822079.000000 0 0 1
-16.546723 14.219203 -28.817394 36.144460 -0.709889 2.493578 0.122037 -0.016269 32693.500000 0 0 1
-17.084123 14.573903 -27.533754 35.529896 -0.706272 2.457426 0.139942 -0.021980 60184.800000 0 0 1
-17.758223 13.437603 -26.981554 34.984681 -0.647774 2.451582 0.158530 -0.016820 119887.000000 0 0 1
-18.364523 13.701203 -25.600714 34.356590 -0.640981 2.411552 0.159478 -0.024959 -45477.400000 0 0 1
-17.413223 13.955203 -24.582494 33.200407 -0.675603 2.404502 0.211261 -0.038465 292298.000000 0 0 1
-18.041823 14.148003 -23.307794 32.694444 -0.665019 2.364418 0.191220 -0.035480 161351.000000 0 0 1
-17.161423 14.945003 -22.337994 31.888141 -0.716474 2.346910 0.205600 -0.035461 85856.500000 0 0 1
-16.748423 16.239403 -22.747794 32.583585 -0.769969 2.343588 0.181070 -0.037376 -112729.000000 0 0 1
-16.198523 16.923503 -21.658694 31.904485 -0.807283 2.317006 0.172839 -0.037200 -596581.000000 0 0 1
-16.207423 18.414003 -21.935294 32.907647 -0.849047 2.300396 0.148244 -0.033064 204323.000000 0 0 1
-17.399423 19.155603 -21.727394 33.789891 -0.833403 2.269224 0.102430 -0.026936 321407.000000 0 0 1
-18.363123 18.946803 -22.738494 34.831376 -0.801041 2.282093 0.101252 -0.029620 -568058.000000 0 0 1
-19.533423 19.943903 -22.769094 36.024236 -0.795796 2.254991 0.067149 -0.021515 69840.100000 0 0 1
-19.116523 21.248203 -23.079694 36.736901 -0.838160 2.250089 0.052833 -0.015410 -826341.000000 0 0 1
-20.209023 22.058703 -23.179394 37.845413 -0.829131 2.229985 0.051457 -0.020961 -902411.000000 0 0 1
-19.856623 23.490803 -23.585394 38.760471 -0.869041 2.224954 0.032125 -0.021290 66197.300000 0 0 1
-19.153023 24.103103 -22.500694 38.132389 -0.899339 2.201939 0.040376 -0.024240 -522791.000000 0 0 1
-18.394223 25.192703 -22.844994 38.664111 -0.940127 2.202918 0.051375 -0.012273 -488630.000000 0 0 1
-17.241923 25.396003 -21.803794 37.651645 -0.974357 2.188412 0.062419 -0.029732 130431.000000 0 0 1
-16.242823 24.383403 -21.774294 36.503418 -0.983157 2.209930 0.087154 -0.048475 -76136.100000 0 0 1
-16.643723 23.097603 -21.374594 35.600366 -0.946390 2.214802 0.095266 -0.034204 -1527960.000000 0 0 1
-15.517923 22.082903 -21.213494 34.328893 -0.958253 2.236927 0.146358 -0.035172 -170821.000000 0 0 1
-14.605523 22.412703 -20.181394 33.510286 -0.993253 2.217106 0.185740 -0.049828 -315382.000000 0 0 1
-13.621323 21.415603 -20.064394 32.353492 -1.004293 2.239745 0.178621 -0.044121 -234919.000000 0 0 1
-12.646523 21.787903 -18.921994 31.506970 -1.044885 2.215004 0.171423 -0.046804 -36435.900000 0 0 1
-13.187323 21.731703 -17.600494 30.918438 -1.025374 2.176396 0.190219 -0.046964 -110067.000000 0 0 1
-14.180323 22.681903 -17.285394 31.848629 -1.012066 2.144487 0.180522 -0.051219 58596.700000 0 0 1
-14.800123 22.565903 -15.861494 31.302566 -0.990311 2.102167 0.177839 -0.051507 188489.000000 0 0 1
-13.900523 23.027603 -14.866794 30.732989 -1.027700 2.075720 0.176048 -0.057374 223902.000000 0 0 1
-14.383123 22.859003 -13.554394 30.218039 -1.009175 2.035942 0.182090 -0.050212 109522.000000 0 0 1
-13.336123 23.382003 -12.529294 29.690966 -1.052457 2.006436 0.214181 -0.045569 180020.000000 0 0 1
-13.064123 24.754203 -12.714094 30.742317 -1.085193 1.997168 0.184059 -0.054687 441236.000000 0 0 1
-12.131223 25.247103 -11.729394 30.367112 -1.122870 1.967362 0.138201 -0.044964 392900.000000 0 0 1
-11.900523 26.757003 -11.758194 31.556533 -1.152306 1.952613 0.141753 -0.043735 53898.500000 0 0 1
-11.268323 27.239803 -12.928694 32.189022 -1.178560 1.984113 0.135315 -0.040538 -34091.200000 0 0 1
-11.269023 28.650203 -12.880694 33.372703 -1.196052 1.967050 0.114152 -0.034103 -28083.200000 0 0 1
-10.547023 29.348003 -14.144994 34.243625 -1.225792 1.996618 0.135627 -0.046257 633747.000000 0 0 1
-9.159923 29.250903 -14.354094 33.846116 -1.267319 2.008763 0.151612 -0.047259 -193397.000000 0 0 1
-8.668323 27.940103 -14.591094 32.690813 -1.269966 2.033463 0.153219 -0.046291 684495.000000 0 0 1
-7.193323 27.853303 -15.157194 32.516011 -1.318061 2.055725 0.169588 -0.052216 1230770.000000 0 0 1
-6.178723 28.183803 -14.230494 32.171577 -1.354981 2.028993 0.165756 -0.049131 -1383460.000000 0 0 1
-4.959923 27.823703 -14.763794 31.886187 -1.394387 2.052191 0.163861 -0.054525 217211.000000 0 0 1
-3.725323 28.596103 -14.129994 32.113422 -1.441252 2.026398 0.157694 -0.039356 380801.000000 0 0 1
-3.724723 30.004503 -14.278094 33.436623 -1.447289 2.011991 0.150495 -0.030694 -121490.000000 0 0 1
-4.690123 30.729103 -13.537594 33.904889 -1.419337 1.981529 0.158028 -0.031713 39011.400000 0 0 1
-4.525523 32.207503 -13.820294 35.338423 -1.431199 1.972606 0.143797 -0.038107 -452898.000000 0 0 1
-3.443723 32.835803 -13.217194 35.563232 -1.466301 1.951586 0.114739 -0.037208 -533014.000000 0 0 1
-3.367823 -33.209656 -13.482994 36.000203 1.469731 1.954681 0.112293 -0.029414 427911.000000 0 0 1
-2.440723 -32.407356 -12.531894 34.831627 1.495624 1.938834 0.091577 -0.037032 914453.000000 0 0 1
-3.092023 -32.147056 -11.229894 34.192168 1.474908 1.905442 0.085929 -0.040237 402396.000000 0 0 1
-2.113923 -31.608156 -10.395694 33.340886 1.504017 1.887883 0.064269 -0.038116 -272149.000000 0 0 1
-2.479323 -31.586256 -8.857394 32.898208 1.492463 1.843396 0.062864 -0.036028 -184912.000000 0 0 1
-1.449423 -30.881956 -8.193594 31.983293 1.523896 1.829868 0.077097 -0.041156 -177997.000000 0 0 1
-1.679723 -30.961856 -6.819794 31.748506 1.516598 1.787290 0.073679 -0.049069 -500346.000000 0 0 1
-0.595823 -30.372456 -5.936994 30.953013 1.551182 1.763799 0.093793 -0.048176 -518801.000000 0 0 1
-0.701223 -30.394756 -4.528494 30.738253 1.547730 1.718659 0.098468 -0.052925 -848696.000000 0 0 1
0.291377 -29.641156 -3.936794 29.902866 -1.560966 1.702832 0.085370 -0.047081 -901823.000000 0 0 1
0.369077 -29.917556 -2.427494 30.018147 -1.558460 1.651752 0.092640 -0.041154 -50770.500000 0 0 1
0.694477 -31.227156 -1.953294 31.295894 -1.548560 1.633251 0.093671 -0.039044 341720.000000 0 0 1
1.970377 -31.745256 -2.301694 31.889520 -1.508807 1.643036 0.081808 -0.034445 672390.000000 0 0 1
3.228977 -31.361956 -1.462094 31.561627 -1.468199 1.617138 0.076161 -0.029184 -740413.000000 0 0 1
3.261677 -31.881756 -0.136794 32.048458 -1.468846 1.575065 0.069159 -0.024149 1355360.000000 0 0 1
4.563477 -31.858956 0.531606 32.188523 -1.428524 1.554280 0.065174 -0.019013 1470880.000000 0 0 1
5.218277 -30.474156 0.699506 30.925619 -1.401205 1.548175 0.031986 -0.022520 -880870.000000 0 0 1
5.584777 -29.873256 -0.537894 30.395567 -1.385981 1.588494 0.034169 -0.026790 -125470.000000 0 0 1
5.375477 -28.466856 -0.401094 28.972721 -1.384161 1.584641 0.054135 -0.021734 -412135.000000 0 0 1
4.906977 -27.784956 -1.719894 28.267300 -1.395993 1.631678 0.061021 -0.020338 562904.000000 0 0 1
3.497477 -27.965056 -1.941394 28.249703 -1.446376 1.639573 0.077425 -0.028949 716073.000000 0 0 1
2.950277 -27.008956 -2.789994 27.312487 -1.461994 1.673126 0.088371 -0.026346 -206484.000000 0 0 1
3.340577 -27.070956 -4.310694 27.614819 -1.448016 1.727538 0.086519 -0.028877 -449645.000000 0 0 1
2.822177 -28.140556 -5.085694 28.735342 -1.470842 1.748718 0.089787 -0.037042 -114607.000000 0 0 1
3.204477 -27.913856 -6.421694 28.821697 -1.456498 1.795490 0.108469 -0.044306 -130376.000000 0 0 1
2.572677 -28.798456 -7.543494 29.880999 -1.481699 1.826009 0.091626 -0.044714 -285543.000000 0 0 1
1.309777 -28.303456 -7.904594 29.415706 -1.524553 1.842860 0.092726 -0.046445 -457714.000000 0 0 1
0.870877 -28.633056 -9.201894 30.087958 -1.540391 1.881610 0.099524 -0.035879 900415.000000 0 0 1
-0.602423 -28.128256 -9.435294 29.674678 1.549383 1.894371 0.086645 -0.036144 96720.500000 0 0 1
-0.719923 -26.705556 -9.380094 28.314152 1.543845 1.908463 0.087212 -0.038684 -170116.000000 0 0 1
-2.019223 -26.156256 -9.524194 27.909448 1.493751 1.919046 0.098885 -0.030444 367060.000000 0 0 1
-2.960623 -26.429456 -8.320894 27.866086 1.459242 1.874025 0.103134 -0.024751 -446062.000000 0 0 1
-2.573123 -25.934856 -7.048594 26.998526 1.471905 1.834930 0.113838 -0.038961 -259310.000000 0 0 1
-1.658523 -26.764656 -6.346894 27.556861 1.508909 1.803203 0.109974 -0.044211 342257.000000 0 0 1
-1.268923 -26.351856 -4.916494 26.836587 1.522680 1.755038 0.123609 -0.041513 546514.000000 0 0 1
-2.238223 -26.822956 -3.944694 27.203699 1.487545 1.716315 0.143299 -0.050319 618628.000000 0 0 1
-1.898723 -26.544856 -2.562694 26.735780 1.499389 1.666796 0.148355 -0.046646 546102.000000 0 0 1
-3.128723 -26.863956 -1.637994 27.095093 1.454853 1.631287 0.157641 -0.045686 1747420.000000 0 0 1
-4.301423 -26.002356 -1.817194 26.418308 1.406857 1.639636 0.158199 -0.040035 660960.000000 0 0 1
-5.142323 -26.171756 -0.714294 26.681727 1.376784 1.597570 0.177820 -0.046874 -125371.000000 0 0 1
-6.172223 -25.029456 -0.704994 25.788894 1.329022 1.598137 0.171958 -0.041404 125109.000000 0 0 1
-5.505523 -23.818856 -0.449994 24.450996 1.343644 1.589201 0.140933 -0.036789 463365.000000 0 1 0
-6.455923 -22.892656 0.076706 23.785679 1.295926 1.567571 0.154205 -0.047810 179253.000000 0 1 0
-5.901123 -21.512156 0.362306 22.309805 1.303066 1.554556 0.115106 -0.049207 619695.000000 0 1 0
-4.855323 -21.574856 1.356606 22.156014 1.349439 1.509528 0.115178 -0.047548 614142.000000 0 1 0
-4.037323 -20.419156 1.435306 20.863893 1.375592 1.501948 0.077037 -0.035316 151245.000000 0 1 0
-3.077423 -20.498856 2.653406 20.897708 1.421783 1.443482 0.075721 -0.023077 273232.000000 0 1 0
-3.763923 -20.517156 3.917506 21.224224 1.389361 1.385155 0.063095 -0.013115 522354.000000 0 1 0
-2.836923 -20.261756 4.953606 21.050537 1.431687 1.333249 0.055907 -0.016866 356383.000000 0 1 0
-1.822423 -21.330356 5.387506 22.075564 1.485565 1.324258 0.068494 -0.036779 194278.000000 0 1 0
-0.799823 -21.594956 4.446706 22.062526 1.533776 1.367856 0.081299 -0.036845 -193222.000000 0 1 0
-0.070323 -22.778756 4.794306 23.277931 1.567709 1.363352 0.090757 -0.041596 -521931.000000 0 1 0
0.951377 -23.146556 3.713206 23.461801 -1.529717 1.411862 0.088854 -0.045192 589809.000000 0 1 0
2.117277 -22.331756 3.505006 22.704081 -1.476269 1.415799 0.062598 -0.040999 1000890.000000 0 1 0
3.096677 -22.634856 4.514406 23.287464 -1.434830 1.375706 0.089765 -0.044422 138900.000000 0 1 0
4.408677 -21.772756 4.504406 22.666694 -1.371012 1.370741 0.096486 -0.041685 852397.000000 0 1 0
5.126777 -21.847656 3.270506 22.678187 -1.340306 1.426078 0.065874 -0.019322 31803.000000 0 1 0
6.269677 -20.998556 3.378306 22.173434 -1.280646 1.417842 0.078619 -0.018384 520228.000000 0 1 0
6.863877 -20.746356 1.989006 21.942658 -1.251285 1.480026 0.068300 -0.009783 -9605.460000 0 1 0
7.377177 -21.935756 1.353806 23.182600 -1.246371 1.512366 0.073786 0.000070 -137390.000000 0 1 0
7.413577 -21.739256 -0.031194 22.968617 -1.242141 1.572154 0.062994 -0.011633 420851.000000 0 1 0
8.554077 -22.522756 -0.784794 24.105242 -1.207827 1.603359 0.051607 -0.002402 70683.100000 0 1 0
9.771277 -21.840556 -0.838194 23.941394 -1.150114 1.605814 0.048006 0.000899 -941760.000000 0 1 0
10.542577 -22.586256 -1.759994 24.987647 -1.134085 1.641289 0.051012 -0.005775 -71606.400000 0 1 0
11.875777 -21.985356 -2.237494 25.087773 -1.075533 1.660102 0.060133 -0.007226 58803.000000 0 0 1
11.794877 -20.962856 -3.234694 24.269811 -1.058288 1.704475 0.065399 0.003418 92340.000000 0 1 0
13.059477 -20.823156 -3.865894 24.881699 -1.010644 1.726799 0.064403 0.003543 257822.000000 0 1 0
13.182177 -19.547756 -4.699794 24.041062 -0.977488 1.767554 0.063121 -0.013589 -217921.000000 0 1 0
13.249077 -18.350156 -3.948894 22.975205 -0.945448 1.743530 0.082083 -0.010720 168086.000000 0 1 0
13.406777 -17.232856 -4.736394 22.341586 -0.909629 1.784416 0.087978 -0.021723 -800876.000000 0 1 0
13.831977 -15.936656 -3.907994 21.460965 -0.855982 1.753916 0.091906 -0.016238 886939.000000 0 1 0
15.201677 -15.915856 -3.523294 22.289439 -0.808345 1.729532 0.092730 -0.010811 1348710.000000 0 1 0
16.211077 -15.792056 -4.563994 23.087185 -0.772306 1.769792 0.103962 -0.017170 429297.000000 0 1 0
17.676777 -15.574456 -4.142894 23.920613 -0.722257 1.744868 0.111679 -0.010278 413735.000000 0 1 0
18.446977 -16.736856 -3.812094 25.198123 -0.736831 1.722664 0.121314 -0.009273 620743.000000 0 0 1
19.829577 -16.430956 -3.794094 26.030436 -0.691943 1.717074 0.084190 0.003795 170821.000000 0 0 1
20.690077 -17.150356 -2.752794 27.014661 -0.692126 1.672874 0.103102 -0.022203 540815.000000 0 0 1
22.077177 -16.787656 -2.696794 27.865747 -0.650129 1.667726 0.090507 -0.018437 728174.000000 0 0 1
22.609177 -17.405756 -1.556994 28.575505 -0.656087 1.625310 0.082281 -0.017471 -592893.000000 0 0 1
24.136677 -17.345556 -1.565794 29.764059 -0.623126 1.623428 0.099647 -0.021900 -422659.000000 0 0 1
24.621777 -16.015256 -1.406094 29.405739 -0.576692 1.618632 0.120599 -0.027999 2110210.000000 0 0 1
26.030777 -15.893356 -0.984194 30.515058 -0.548148 1.603055 0.169574 -0.023189 2083770.000000 0 0 1
26.340277 -14.436556 -0.455994 30.040511 -0.501367 1.585976 0.162369 -0.026268 -437304.000000 0 0 1
25.661877 -14.049256 0.663506 29.263523 -0.500903 1.548121 0.143160 -0.024542 -345351.000000 0 0 1
26.165077 -12.901356 1.259106 29.200028 -0.458093 1.527663 0.127985 -0.027551 -269158.000000 0 0 1
25.317477 -12.324256 2.403906 28.260232 -0.453023 1.485630 0.138203 -0.035717 -92168.900000 0 0 1
24.998577 -13.358156 3.375706 28.544082 -0.490754 1.452256 0.159355 -0.028993 1020630.000000 0 0 1
26.175777 -13.848956 4.067506 29.891630 -0.486636 1.434298 0.178340 -0.009849 714072.000000 0 0 1
25.897577 -14.392156 5.447206 30.124587 -0.507235 1.388974 0.155385 -0.004504 4149.460000 0 0 1
25.230577 -15.627256 5.267706 30.142029 -0.554546 1.395131 0.170316 -0.019566 18514.600000 0 0 1
24.657677 -16.071556 6.444606 30.130200 -0.577631 1.355239 0.139401 -0.018277 -331255.000000 0 0 1
24.089577 -17.504556 6.358206 30.449040 -0.628385 1.360434 0.118528 -0.016270 -72777.200000 0 0 1
25.031577 -18.507456 6.052106 31.713306 -0.636659 1.378781 0.114982 -0.013262 -277438.000000 0 0 1
24.397477 -19.748656 6.099206 31.975720 -0.680480 1.378875 0.071518 -0.004934 -49335.200000 0 0 1
1.891477 24.521203 -2.826094 24.755886 1.493812 1.685204 0.056960 -0.002064 -38972.400000 0 1 0
3.187177 25.010003 -2.568494 25.342761 1.444043 1.672321 0.067488 -0.009089 -19461.100000 0 0 1
3.969777 24.970703 -3.774294 25.564437 1.413138 1.718976 0.092602 -0.023579 -220953.000000 0 0 1
5.261177 25.762903 -3.638194 26.545125 1.369351 1.708286 0.076390 -0.010995 -408410.000000 0 0 1
6.122577 25.265303 -2.633194 26.129585 1.333048 1.671742 0.044338 -0.020968 -544514.000000 0 0 1
6.873277 26.213303 -1.957894 27.170068 1.314363 1.642920 0.047717 -0.013680 -205263.000000 0 0 1
8.026877 25.546103 -1.150394 26.802193 1.266353 1.613731 0.019543 -0.023283 -99728.100000 0 0 1
9.109177 25.360203 -2.047194 27.024212 1.225956 1.646623 0.019880 -0.035738 -338320.000000 0 0 1
9.991777 24.395403 -1.480594 26.403854 1.182062 1.626901 0.026665 -0.029782 461650.000000 0 0 1
11.061877 23.903003 -2.514494 26.458295 1.137364 1.665976 0.053127 -0.029453 -168120.000000 0 0 1
11.982977 24.937703 -2.895694 27.818444 1.122857 1.675078 0.055776 -0.027129 722986.000000 0 0 1
12.909477 24.681903 -3.992894 28.138837 1.088892 1.713177 0.093156 -0.033518 1196860.000000 0 0 1
13.926777 23.532803 -3.647194 27.587135 1.036426 1.703391 0.087226 -0.033028 -645241.000000 0 0 1
13.413777 22.209103 -3.805794 26.223230 1.027458 1.716441 0.101726 -0.040072 -121990.000000 0 0 1
13.194077 21.864103 -5.161994 26.053193 1.027838 1.770249 0.140963 -0.050436 -467165.000000 0 0 1
12.192077 20.751703 -5.411194 24.669029 1.039603 1.791946 0.143936 -0.054340 136440.000000 0 1 0
10.870077 21.192403 -5.122394 24.362173 1.096864 1.782637 0.109643 -0.047756 489171.000000 0 1 0
9.912677 20.103703 -5.190994 23.007966 1.112702 1.798373 0.093209 -0.041308 1358200.000000 0 1 0
8.447977 20.598303 -4.907194 22.797785 1.181588 1.787743 0.071242 -0.027662 536502.000000 0 1 0
8.174477 21.016603 -3.597594 22.835551 1.199849 1.728999 0.075307 -0.026951 1370570.000000 0 1 0
6.835277 21.607303 -3.567494 22.941743 1.264416 1.726932 0.062219 -0.012368 1728630.000000 0 1 0
6.414977 22.161003 -2.145494 23.170351 1.289027 1.663526 0.041140 -0.014767 279356.000000 0 1 0
5.843977 21.264803 -1.195294 22.085576 1.302598 1.624944 0.027018 -0.020691 114443.000000 0 1 0
5.088377 21.909903 -0.204494 22.493939 1.342601 1.579888 0.036151 -0.013032 -91953.400000 0 1 0
4.666177 20.983803 0.933706 21.516622 1.351986 1.527388 0.020290 -0.020760 -317626.000000 0 1 0
4.140777 21.697203 2.036406 22.182462 1.382220 1.478864 0.037172 -0.017993 139904.000000 0 1 0
3.656977 20.845703 3.036106 21.380710 1.397133 1.428313 0.044091 -0.018735 -335194.000000 0 1 0
2.671977 21.447203 4.034906 21.986415 1.446851 1.386232 0.039668 -0.019482 -712723.000000 0 1 0
1.370377 21.486403 3.544806 21.819925 1.507104 1.407616 0.020667 -0.012440 -905767.000000 0 1 0
0.523477 21.963103 4.534906 22.432506 1.546966 1.367236 0.030547 -0.018607 599226.000000 0 1 0
-0.899323 22.440003 4.082906 22.826140 -1.530741 1.390959 0.027948 0.001399 1103700.000000 0 1 0
-1.900023 22.471903 5.130306 23.128263 -1.486446 1.347116 0.059059 -0.020209 -859035.000000 0 1 0
-3.032923 22.826703 4.471606 23.457456 -1.438703 1.378996 0.085625 -0.018033 -1918880.000000 0 1 0
-4.362023 22.652303 5.157006 23.637868 -1.380561 1.350860 0.100565 -0.037127 -643872.000000 0 1 0
-4.692623 23.831703 5.912406 24.998547 -1.376377 1.332024 0.137208 -0.029004 -95018.900000 0 1 0
-6.042123 23.966903 6.288806 25.504289 -1.323840 1.321648 0.149195 -0.021806 92439.000000 0 0 1
-6.475123 25.466303 6.610206 27.095288 -1.321810 1.324348 0.170444 -0.029718 121853.000000 0 0 1
-5.931923 25.869103 7.860706 27.680118 -1.345388 1.282850 0.134200 -0.039252 389556.000000 0 0 1
-6.623823 26.987103 8.492206 29.056778 -1.330110 1.274205 0.166037 -0.027484 330505.000000 0 0 1
-6.619923 28.325403 7.720606 30.095840 -1.341207 1.311362 0.185954 -0.033168 314067.000000 0 0 1
-7.678423 28.438103 6.772306 30.224957 -1.307080 1.344814 0.176065 -0.045976 -3542.860000 0 0 1
-7.634323 29.684603 6.062206 31.244342 -1.319070 1.375532 0.185815 -0.046012 489271.000000 0 0 1
-9.011323 30.029803 5.359206 31.807454 -1.279267 1.401500 0.181498 -0.053349 861092.000000 0 0 1
-10.016623 30.469503 6.218806 32.671041 -1.253183 1.379282 0.173022 -0.050240 -242488.000000 0 0 1
-10.829823 29.449003 6.800606 32.105717 -1.218398 1.357360 0.163187 -0.044620 404384.000000 0 0 1
-11.972723 30.022203 7.714806 33.229460 -1.191329 1.336491 0.130143 -0.040361 327577.000000 0 0 1
-11.488223 30.595403 8.931306 33.879584 -1.211597 1.304024 0.129701 -0.029167 186127.000000 0 0 1
-12.562723 30.939403 9.791806 34.798680 -1.185092 1.285560 0.137786 -0.016531 168048.000000 0 0 1
-12.062023 31.168903 11.230306 35.257803 -1.201556 1.246629 0.116126 -0.029838 -206760.000000 0 0 1
-11.268423 32.316303 11.302406 36.042547 -1.235288 1.251830 0.110311 -0.033241 98248.300000 0 0 1
-10.865723 32.678403 12.610306 36.673721 -1.249792 1.219781 0.105008 -0.041313 -26458.200000 0 0 1
-10.282323 -33.340156 12.722906 37.137104 1.271645 1.221121 0.109962 -0.051397 -154066.000000 0 0 1
-11.275923 -32.407256 13.039806 36.707128 1.235954 1.207627 0.106352 -0.038252 27424.700000 0 0 1
-10.737423 -31.072956 13.118206 35.396443 1.238087 1.191133 0.107037 -0.036409 -104988.000000 0 0 1
-11.695223 -30.012856 13.616206 34.970714 1.199223 1.170859 0.100592 -0.030619 -492305.000000 0 0 1
-12.079123 -30.096556 14.983406 35.724086 1.189130 1.137990 0.090827 -0.034572 -190854.000000 0 0 1
-11.148123 -29.609356 15.908306 35.412834 1.210705 1.104899 0.112094 -0.036780 -316953.000000 0 0 1
-11.486223 -29.930156 17.360206 36.457157 1.204361 1.074490 0.126503 -0.047106 -561651.000000 0 0 1
-12.531723 -29.282856 17.997906 36.584892 1.166426 1.056469 0.112937 -0.042448 -288952.000000 0 0 1
-12.829623 -30.025756 19.169806 37.863263 1.166990 1.039919 0.109549 -0.047554 -208868.000000 0 0 1
-12.969623 -29.102056 20.419906 37.843273 1.151557 1.000845 0.126273 -0.052238 565493.000000 0 0 1
-11.698223 -28.723656 20.959506 37.432576 1.184040 0.976499 0.124648 -0.053679 752538.000000 0 0 1
-11.909123 -27.941556 22.090306 37.557148 1.167897 0.941992 0.142167 -0.052341 410361.000000 0 0 1
-10.590223 -27.652056 22.878906 37.419692 1.205047 0.912951 0.185079 -0.054987 571012.000000 0 0 1
-10.169823 -28.704956 23.759306 38.625179 1.230307 0.908252 0.164825 -0.036926 -658890.000000 0 0 1
-8.911523 -28.440356 24.272006 38.436953 1.267146 0.887341 0.194197 -0.033034 -718150.000000 0 0 1
-8.581223 -29.454156 25.377006 39.814283 1.287302 0.879697 0.189824 -0.033372 4233.960000 0 0 1
-8.492523 -30.831656 24.999206 40.591554 1.302014 0.907304 0.187323 -0.016360 211904.000000 0 0 1
-8.190523 -31.681756 26.061006 41.832934 1.317810 0.898252 0.185844 -0.014509 -74263.700000 0 0 1
-8.494823 -33.129556 25.675506 42.766355 1.319792 0.926836 0.172904 -0.016911 242902.000000 0 0 1
-7.450723 33.703803 24.871006 42.544407 -1.353231 0.946423 0.173239 -0.017364 772214.000000 0 0 1
-7.736923 32.417803 24.360606 41.282115 -1.336516 0.939613 0.140217 -0.007886 -104691.000000 0 0 1
-8.710523 32.242003 23.172606 40.649596 -1.306935 0.964221 0.137489 -0.011029 64503.500000 0 0 1
-8.969523 30.877403 23.002106 39.534330 -1.288089 0.949824 0.138191 -0.012573 930966.000000 0 0 1
-10.160023 30.581403 22.236106 39.152173 -1.250040 0.966795 0.110595 -0.025100 728845.000000 0 0 1
-10.712123 29.179203 22.423306 38.327276 -1.218956 0.945857 0.105993 -0.030400 92649.300000 0 0 1
-9.895023 28.166503 21.834406 36.986547 -1.232960 0.939324 0.095229 -0.027366 144697.000000 0 0 1
-10.329223 26.871103 22.220106 36.365947 -1.203811 0.913455 0.081451 -0.027931 -437759.000000 0 0 1
-9.399323 25.659803 22.040506 35.107786 -1.219670 0.892079 0.085719 -0.023471 286924.000000 0 0 1
-8.215323 25.616003 22.837706 35.287844 -1.260449 0.866912 0.067247 -0.023805 451989.000000 0 0 1
-7.550623 24.365203 22.901806 34.280720 -1.270288 0.839189 0.058353 -0.029423 180674.000000 0 0 1
-6.153823 24.592603 23.516806 34.578979 -1.325601 0.822911 0.057159 -0.026904 -12659.600000 0 0 1
-5.195723 25.207503 22.713806 34.326822 -1.367525 0.847722 0.078813 -0.021936 -262835.000000 0 0 1
-3.882823 25.121203 23.201906 34.416269 -1.417446 0.830976 0.092426 -0.022604 590066.000000 0 0 1
-2.756023 25.707103 22.258606 34.115925 -1.463996 0.859996 0.108588 -0.020664 357188.000000 0 0 1
-2.643923 24.994003 21.071006 32.797527 -1.465406 0.873096 0.091376 -0.015099 195970.000000 0 0 1
-1.586123 25.430303 20.233006 32.535990 -1.508506 0.899674 0.094087 -0.016717 418003.000000 0 0 1
-0.988323 24.421803 19.169106 31.062129 -1.530350 0.905717 0.080060 -0.020866 -269652.000000 0 0 1
-0.139923 23.449203 19.707006 30.630880 -1.564829 0.871903 0.079426 -0.017827 -404692.000000 0 0 1
0.045477 22.490403 18.771206 29.294683 1.568774 0.875293 0.077456 -0.018133 -177970.000000 0 0 1
1.227677 21.549903 19.045506 28.786052 1.513889 0.847816 0.080942 -0.017411 -50971.200000 0 0 1
2.494177 22.169303 19.153406 29.403263 1.458762 0.861363 0.077634 -0.025658 342571.000000 0 0 1
3.496277 21.104303 19.110206 28.684761 1.406621 0.841675 0.095379 -0.023080 1011890.000000 0 0 1
4.927477 21.690203 19.333106 29.470560 1.347412 0.855271 0.089807 -0.031370 543960.000000 0 0 1
5.912677 20.761203 18.860106 28.665151 1.293347 0.852709 0.108050 -0.029783 -245977.000000 0 0 1
7.122177 21.459503 18.763306 29.381922 1.250346 0.878118 0.123163 -0.029995 599738.000000 0 0 1
8.424777 20.594703 18.454306 28.908132 1.182491 0.878408 0.114148 -0.014887 810153.000000 0 0 1
8.861077 19.899703 19.607206 29.308009 1.151869 0.837927 0.132690 -0.026350 85975.200000 0 0 1
9.889977 19.002803 19.253606 28.803116 1.090924 0.838666 0.108671 -0.018696 2379.110000 0 0 1
10.661077 18.280203 20.378306 29.378559 1.042819 0.804259 0.139973 -0.018880 309969.000000 0 0 1
10.012277 17.128103 20.992506 28.884302 1.041813 0.757175 0.159572 -0.026496 240043.000000 0 0 1
10.858077 16.528803 21.915306 29.519143 0.989573 0.734136 0.172254 -0.035281 -197853.000000 0 0 1
10.185677 15.210303 22.404106 28.931735 0.980727 0.685065 0.145551 -0.028954 97671.100000 0 0 1
9.025477 15.666403 23.066306 29.307847 1.048133 0.664808 0.175268 -0.021479 147558.000000 0 0 1
7.942077 14.748403 23.198706 28.614191 1.076822 0.625379 0.153234 -0.019095 380402.000000 0 0 1
8.001077 13.600203 24.204106 28.893278 1.039020 0.577725 0.161338 -0.024150 -517515.000000 0 0 1
8.064577 14.071003 25.571806 30.281146 1.050365 0.565204 0.170506 -0.038387 -108785.000000 0 0 1
8.325277 13.009703 26.462206 30.640022 1.001534 0.528333 0.181628 -0.039673 -782179.000000 0 0 1
9.273677 13.506303 27.512606 32.021318 0.969108 0.537099 0.146974 -0.035528 586472.000000 0 0 1
10.624077 13.832903 27.096306 32.224680 0.915856 0.571934 0.178489 -0.030871 1171650.000000 0 0 1
10.930477 14.900203 26.202206 32.063172 0.937888 0.614250 0.163778 -0.023765 -41722.800000 0 0 1
12.352877 14.849903 25.526706 32.011340 0.876935 0.647777 0.157460 -0.028426 784845.000000 0 0 1
12.538777 13.748603 24.646306 30.881797 0.831389 0.646686 0.167287 -0.034358 -1015320.000000 0 0 1
13.838877 13.308403 24.549106 31.165473 0.765860 0.663726 0.149324 -0.035204 -1551030.000000 0 0 1
14.030877 12.165803 23.504506 29.955535 0.714323 0.668671 0.126087 -0.032495 343809.000000 0 0 1
13.388877 10.856603 23.728806 29.328895 0.681332 0.628247 0.124392 -0.024767 1017730.000000 0 0 1
11.964977 10.929403 23.578606 28.610543 0.740196 0.602144 0.148997 -0.027230 430866.000000 0 0 1
11.241277 9.581903 23.913706 28.107730 0.705877 0.553314 0.135557 -0.029620 2109.180000 0 0 1
11.471377 8.561803 22.970806 27.065751 0.641169 0.557267 0.140904 -0.026818 168059.000000 0 0 1
11.139777 7.330103 23.566406 27.077676 0.581987 0.514932 0.149709 -0.035224 -87638.500000 0 0 1
11.647077 6.183503 22.708106 26.259249 0.488066 0.526112 0.181627 -0.049741 -303965.000000 0 0 1
13.033177 5.973303 22.589506 26.754996 0.429747 0.565521 0.202771 -0.042982 133120.000000 0 0 1
13.361377 4.958903 21.670306 25.936832 0.355380 0.581748 0.228933 -0.053217 -133073.000000 0 0 1
13.334877 3.522303 22.298906 26.219587 0.258244 0.553923 0.199732 -0.056623 -461859.000000 0 0 1
14.428777 3.288203 23.141106 27.468394 0.224065 0.568958 0.208242 -0.047780 -43838.000000 0 0 1
14.270677 2.064503 23.813706 27.838947 0.143671 0.544455 0.212583 -0.045175 -137874.000000 0 0 1
15.429377 1.618903 24.757806 29.217041 0.104541 0.559773 0.179261 -0.022825 -68447.500000 0 0 1
16.361077 0.900703 24.015006 29.072609 0.054996 0.598759 0.183176 -0.027684 346525.000000 0 0 1
17.725777 1.286003 24.212806 30.035262 0.072423 0.633187 0.161238 -0.021205 7702.220000 0 0 1
18.688877 0.519103 23.360106 29.920530 0.027769 0.674950 0.133915 -0.019322 -671898.000000 0 0 1
18.853077 -0.838397 23.600606 30.218041 -0.044441 0.674514 0.104598 -0.015597 -371203.000000 0 0 1
19.729177 -1.466797 22.733306 30.136276 -0.074210 0.716133 0.095479 -0.006456 -449625.000000 0 0 1
19.821177 -3.001897 22.972106 30.489475 -0.150307 0.717512 0.075147 -0.003724 -33544.700000 0 0 1
18.662377 -3.711497 22.599406 29.543065 -0.196314 0.699810 0.071370 0.000606 91964.000000 0 0 1
18.893577 -5.083897 22.690406 29.961104 -0.262855 0.711584 0.076300 -0.005964 649615.000000 0 0 1
17.639177 -5.873697 22.157206 28.923738 -0.321443 0.698114 0.088545 -0.011606 616845.000000 0 0 1
17.676177 -6.023497 20.708706 27.885126 -0.328428 0.733787 0.092784 -0.014793 110606.000000 0 0 1
17.009077 -7.129897 20.077606 27.262692 -0.396932 0.742989 0.114323 -0.021893 -223375.000000 0 0 1
17.542677 -8.521497 20.352106 28.188112 -0.452189 0.764093 0.120371 -0.027616 -214298.000000 0 0 1
17.409777 -8.959597 21.678206 29.211630 -0.475283 0.734585 0.106561 -0.022843 -217006.000000 0 0 1
18.213377 -10.075097 21.866406 30.188978 -0.505274 0.760752 0.081902 -0.024095 -382841.000000 0 0 1
17.909777 -10.927297 23.115306 31.216715 -0.547835 0.737014 0.099977 -0.018680 -530165.000000 0 0 1
16.701077 -11.603797 22.992806 30.695980 -0.607223 0.724170 0.145432 -0.026979 -330017.000000 0 0 1
16.461177 -12.422797 24.175506 31.776584 -0.646485 0.706257 0.156535 -0.026364 27326.900000 0 0 1
15.299877 -13.393997 23.879606 31.364326 -0.719074 0.705385 0.192586 -0.030490 -112533.000000 0 0 1
15.609677 -14.541997 23.116006 31.456023 -0.750003 0.745325 0.196920 -0.045556 956930.000000 0 0 1
14.383977 -15.190697 22.747106 30.904480 -0.812669 0.743586 0.218683 -0.048946 636863.000000 0 0 1
14.675077 -16.028297 21.493206 30.565047 -0.829444 0.790914 0.210006 -0.052656 150747.000000 0 0 1
15.564777 -17.121497 21.656406 31.692394 -0.832988 0.818481 0.213149 -0.053547 358480.000000 0 0 1
15.536777 -18.019797 20.595406 31.468639 -0.859259 0.857310 0.194182 -0.035050 -77707.400000 0 0 1
-25.163263 -31.895156 26.007142 48.237560 0.902838 1.001372 0.088981 -0.034670 -184236.000000 0 0 1
-25.450263 -33.268656 25.805252 49.197870 0.917769 1.018645 0.084795 -0.028408 406753.000000 0 0 1
-26.761273 -33.594456 26.252372 50.338258 0.898133 1.022166 0.071723 -0.033408 222250.000000 0 0 1
-26.874963 33.403803 27.733612 51.061051 -0.893288 0.996617 0.060333 -0.026502 -521997.000000 0 0 1
-28.125373 -33.608256 28.224252 52.126384 0.873981 0.998626 0.074390 -0.033880 84110.500000 0 0 1
-28.132883 -33.565856 29.624542 52.874751 0.873228 0.976075 0.049043 -0.031756 -731137.000000 0 0 1
-29.383563 -32.907156 30.149742 53.434835 0.841905 0.971291 0.040363 -0.039914 -831488.000000 0 0 1
-29.274663 -31.497556 30.005462 52.435004 0.821959 0.961560 0.026817 -0.027910 451615.000000 0 0 1
-30.280843 -30.867556 30.778192 53.075725 0.794993 0.952200 0.022635 -0.009661 -166353.000000 0 0 1
-30.379263 -29.342256 30.504152 52.099625 0.768036 0.945304 0.014519 -0.014256 -166015.000000 0 0 1
-30.759223 -29.094356 29.175272 51.417972 0.757590 0.967435 -0.003234 -0.008655 244035.000000 0 0 1
-31.216373 -27.692856 29.071882 50.857945 0.725657 0.962306 0.020684 -0.003719 63088.700000 0 0 1
-31.804383 -27.347456 27.694232 50.263034 0.710193 0.987251 0.014691 -0.015699 -356970.000000 0 0 1
-30.865543 -27.233356 26.665602 49.044793 0.722962 0.995958 0.030637 -0.020964 -86584.800000 0 0 1
-30.325223 -25.888056 26.582832 47.921368 0.706627 0.982773 0.033716 -0.022761 7937.090000 0 0 1
-29.313893 -25.731556 25.444672 46.570899 0.720410 0.992779 0.027772 -0.010575 -345868.000000 0 0 1
-29.931953 -25.738456 24.195772 46.301461 0.710213 1.020933 0.033872 -0.013934 321842.000000 0 0 1
-28.968693 -25.836556 23.170252 45.205900 0.728310 1.032645 0.055315 -0.008273 -32560.600000 0 0 1
-29.676003 -26.077856 21.818482 45.130543 0.720951 1.066202 0.043139 -0.000306 66556.300000 0 0 1
-30.407613 -25.014756 21.282882 44.758485 0.688399 1.075258 0.036813 -0.003588 27911.100000 0 0 1
-30.673033 -25.182156 19.913582 44.401877 0.687407 1.105727 0.044202 -0.000525 -133269.000000 0 0 1
-31.462693 -23.971756 19.375182 44.044793 0.651080 1.115312 0.061115 -0.006970 1507360.000000 0 0 1
-32.858353 -24.014556 19.807782 45.262771 0.631133 1.117849 0.105763 -0.013977 1813860.000000 0 0 1
-33.622493 -22.917156 19.251982 45.014518 0.598271 1.128867 0.120181 -0.005246 1078610.000000 0 0 1
-35.157507 -22.869456 19.571282 46.282798 0.576717 1.134194 0.122679 -0.005814 865309.000000 0 0 1
-35.953153 -23.879856 18.969482 47.145710 0.586289 1.156705 0.119390 -0.020618 572945.000000 0 0 1
-37.089073 -23.258556 18.348082 47.468009 0.560108 1.173924 0.118627 -0.022010 451837.000000 0 0 1
-37.831273 -24.253056 17.403482 48.190218 0.570082 1.201305 0.140231 -0.021645 295601.000000 0 0 1
37.719025 -25.157956 18.112082 48.823101 -0.588222 1.190739 0.129363 -0.022992 357492.000000 0 0 1
36.867875 -25.883856 17.216682 48.224770 -0.612114 1.205732 0.132063 -0.017973 555478.000000 0 0 1
36.165905 -27.102856 17.908682 48.613357 -0.643119 1.193520 0.119532 -0.010395 31987.400000 0 0 1
35.064535 -26.915156 18.750782 48.016030 -0.654663 1.169610 0.098126 -0.014773 -276854.000000 0 0 1
35.386895 -26.386356 20.019082 48.468916 -0.640713 1.145018 0.094534 -0.007135 -239152.000000 0 0 1
34.256745 -26.449156 21.082582 48.141019 -0.657487 1.117497 0.080813 -0.008168 504547.000000 0 0 1
33.207615 -25.535656 20.732182 46.740120 -0.655532 1.111226 0.086450 -0.002016 -163529.000000 0 0 1
32.376995 -25.236156 21.790482 46.475354 -0.662082 1.082795 0.089004 -0.001501 214916.000000 0 0 1
31.322465 -24.072256 21.598082 45.022744 -0.655255 1.070467 0.088336 0.010206 561374.000000 0 0 1
31.914065 -22.844256 21.230382 44.621707 -0.621255 1.074939 0.075282 0.014469 3153.810000 0 0 1
32.799355 -22.240756 22.172482 45.409998 -0.595866 1.060686 0.101334 -0.001242 105069.000000 0 0 1
33.489895 -20.966056 21.623682 45.041450 -0.559348 1.070046 0.105434 -0.002458 -387350.000000 0 0 1
32.628045 -19.990756 21.179282 43.735360 -0.549695 1.065279 0.098977 -0.009076 -189745.000000 0 0 1
33.376165 -18.873156 20.740682 43.592893 -0.514641 1.074944 0.119110 -0.009427 -306687.000000 0 0 1
32.429875 -17.698656 20.411582 42.208671 -0.499576 1.066048 0.102599 -0.001583 277000.000000 0 0 1
31.899805 -17.011456 21.542982 42.084288 -0.489914 1.033400 0.128940 -0.010863 478763.000000 0 0 1
30.746965 -17.646556 22.092182 41.771298 -0.521029 1.013511 0.122044 -0.015398 -523278.000000 0 0 1
30.579665 -17.489056 23.565212 42.382806 -0.519515 0.981220 0.114053 -0.008755 -200822.000000 0 0 1
30.116465 -16.212756 23.901892 41.727154 -0.493843 0.960862 0.126434 -0.015108 128037.000000 0 0 1
30.202965 -16.090756 25.289392 42.552143 -0.489506 0.934382 0.123916 -0.013848 -107812.000000 0 0 1
30.078865 -14.649756 25.763702 42.227027 -0.453230 0.914580 0.107460 -0.023232 524690.000000 0 0 1
28.780065 -14.113856 25.478912 40.947137 -0.455941 0.899197 0.126771 -0.025876 555841.000000 0 0 1
28.723865 -12.710756 25.754592 40.619241 -0.416612 0.884018 0.114267 -0.030044 100745.000000 0 0 1
29.550365 -11.643556 24.969682 40.401504 -0.375344 0.904551 0.141360 -0.039228 -110853.000000 0 0 1
28.954665 -11.428756 23.706792 39.128009 -0.375940 0.919928 0.139463 -0.036976 595877.000000 0 0 1
29.682865 -10.466256 22.920412 38.935335 -0.338992 0.941373 0.163186 -0.034444 448300.000000 0 0 1
31.053565 -10.789056 22.276752 39.711224 -0.334387 0.975241 0.173176 -0.055001 80269.800000 0 0 1
30.913365 -11.685256 21.213982 39.271038 -0.361398 1.000129 0.142430 -0.050181 127346.000000 0 0 1
30.856665 -13.061156 21.594082 39.862664 -0.400417 0.998324 0.149431 -0.043495 -405892.000000 0 0 1
30.229365 -13.956056 20.528582 39.115326 -0.432518 1.018290 0.133515 -0.038384 -288224.000000 0 0 1
30.971165 -14.051256 19.366382 39.137037 -0.425917 1.053151 0.130758 -0.038602 -621950.000000 0 0 1
30.315865 -14.905256 18.510882 38.521048 -0.456958 1.069527 0.127318 -0.043654 -574074.000000 0 0 1
30.766565 -14.950856 17.030282 38.211780 -0.452340 1.108861 0.136943 -0.043588 -355838.000000 0 0 1
30.206565 -16.048356 16.340682 37.907839 -0.488363 1.125125 0.116128 -0.046325 441444.000000 0 0 1
28.792265 -16.164356 16.220682 36.788470 -0.511563 1.114176 0.113901 -0.040077 189159.000000 0 0 1
28.086365 -15.157856 15.254982 35.373988 -0.494891 1.124920 0.149836 -0.046510 -688373.000000 0 0 1
28.168665 -15.378256 13.871882 34.962746 -0.499717 1.162810 0.145426 -0.052817 -21714.700000 0 0 1
27.455865 -16.535656 13.460182 34.762465 -0.542082 1.173199 0.146589 -0.048016 -262941.000000 0 0 1
27.813665 -17.026556 12.064582 34.771508 -0.549316 1.216461 0.123956 -0.026812 -57611.400000 0 0 1
27.264765 -16.206056 11.009482 33.573984 -0.536288 1.236698 0.138619 -0.022435 92911.800000 0 0 1
26.907865 -16.838356 9.812282 33.224153 -0.559159 1.270989 0.134321 -0.031612 314715.000000 0 0 1
28.122865 -17.267056 8.949082 34.192585 -0.550640 1.305986 0.132845 -0.021761 334395.000000 0 0 1
28.877765 -18.321656 9.471282 35.486809 -0.565370 1.300626 0.113022 -0.017709 765476.000000 0 0 1
30.273165 -18.225656 9.080882 36.484264 -0.541918 1.319253 0.116039 -0.007101 1143230.000000 0 0 1
31.254365 -19.028056 9.944782 37.918346 -0.546874 1.305424 0.120087 -0.031140 -161745.000000 0 0 1
31.232165 -18.458256 11.228182 37.976670 -0.533777 1.270650 0.109436 -0.035398 154821.000000 0 0 1
31.566855 -19.445756 12.231682 39.041233 -0.552114 1.252129 0.092837 -0.033255 -38812.600000 0 0 1
31.454065 -18.902756 13.667882 39.159717 -0.541128 1.214261 0.101686 -0.027057 -2754.500000 0 0 1
31.565925 -19.867356 14.696082 40.088581 -0.561752 1.195455 0.103281 -0.020919 151975.000000 0 0 1
31.303665 -19.294256 15.972482 40.091246 -0.552361 1.161021 0.113913 -0.031028 -18366.600000 0 0 1
31.028365 -20.344656 17.060782 40.837909 -0.580357 1.139809 0.095701 -0.013439 584439.000000 0 0 1
29.756365 -21.000656 17.025582 40.203722 -0.614577 1.133510 0.031519 0.002534 451125.000000 0 0 1
29.601865 -21.968156 18.077382 41.056815 -0.638439 1.114862 0.059788 -0.000785 -1175790.000000 0 0 1
28.362965 -22.789956 18.025082 40.604723 -0.676878 1.110832 0.050126 0.010436 -1293050.000000 0 0 1
27.259365 -22.050956 18.482582 39.634878 -0.680163 1.085669 0.065424 0.012006 430429.000000 0 0 1
26.062765 -22.819456 18.189682 39.126204 -0.719146 1.087277 0.057335 0.001946 358717.000000 0 0 1
24.855365 -22.393656 19.025982 38.487050 -0.733344 1.053712 0.043556 0.006571 -457567.000000 0 0 1
24.278065 -21.160956 18.584982 37.183492 -0.716906 1.047408 0.040172 0.005772 707919.000000 0 0 1
23.082565 -20.786056 19.304382 36.572177 -0.733096 1.014737 0.049086 -0.000712 783270.000000 0 0 1
23.191765 -20.262456 20.763882 37.142481 -0.718089 0.977577 0.032014 0.007037 -352653.000000 0 0 1
23.514665 -21.260556 21.730482 38.433899 -0.735098 0.969880 0.047307 0.002697 -42482.200000 0 0 1
23.573965 -20.675556 23.067212 38.926941 -0.719990 0.936542 0.042603 -0.001250 -112197.000000 0 0 1
23.866465 -21.714156 24.208882 40.338353 -0.738213 0.927113 0.061485 -0.004543 -193244.000000 0 0 1
22.854465 -22.659556 24.441552 40.412517 -0.781116 0.921280 0.077791 -0.009511 -80473.700000 0 0 1
23.262265 -23.626556 25.426702 41.783541 -0.793167 0.916585 0.086693 -0.001197 -453651.000000 0 0 1
22.122565 -24.421256 26.050222 42.004996 -0.834746 0.901837 0.110677 -0.009611 -557260.000000 0 0 1
21.719965 -25.451856 25.213342 41.895901 -0.864346 0.925032 0.114507 -0.013274 423634.000000 0 0 1
20.544365 -26.029956 25.786442 42.006787 -0.902639 0.909851 0.130756 -0.023560 200074.000000 0 0 1
19.655165 -26.837756 24.834632 41.513247 -0.938674 0.929501 0.134418 -0.030011 208528.000000 0 0 1
18.986065 -26.004156 23.832002 40.058097 -0.940143 0.933610 0.137947 -0.031461 476689.000000 0 0 1
18.437765 -26.719556 22.765532 39.650414 -0.966781 0.959223 0.119258 -0.035691 -482450.000000 0 0 1
17.488465 -25.924456 21.857082 38.153059 -0.977326 0.960782 0.120467 -0.030787 -221862.000000 0 0 1
16.267165 -25.700956 22.527982 37.850625 -1.006508 0.933305 0.097899 -0.035601 7242.240000 0 0 1
15.444065 -24.791356 21.799082 36.446268 -1.013664 0.929649 0.076856 -0.035606 -627083.000000 0 0 1
14.031865 -24.565156 22.262182 35.999235 -1.051815 0.904082 0.087857 -0.039054 -643279.000000 0 0 1
13.112865 -25.629256 21.985782 36.224034 -1.097883 0.918593 0.091527 -0.041967 1386700.000000 0 0 1
11.815565 -24.969456 21.800482 35.190089 -1.128817 0.902683 0.105964 -0.033448 1617700.000000 0 0 1
10.559665 -25.889056 21.926682 35.532086 -1.183514 0.905750 0.107762 -0.038834 250412.000000 0 0 1
10.342365 -26.625456 20.726282 35.291050 -1.200296 0.943083 0.128752 -0.046077 135612.000000 0 0 1
9.065965 -27.234856 20.663682 35.368303 -1.249453 0.946849 0.135654 -0.052281 132950.000000 0 0 1
8.851265 -28.113456 19.429782 35.301951 -1.265780 0.987967 0.159955 -0.058832 -171250.000000 0 0 1
9.427065 -29.352856 19.585682 36.524768 -1.260038 1.004832 0.158240 -0.056849 -161243.000000 0 0 1
9.027065 -30.246156 18.534582 36.603943 -1.280759 1.039844 0.166679 -0.057043 -6312.080000 0 0 1
9.543465 -31.692256 18.544182 37.938945 -1.278304 1.060094 0.146109 -0.050476 134441.000000 0 0 1
8.907265 -32.428356 19.575482 38.911916 -1.302732 1.043647 0.143427 -0.052493 391896.000000 0 0 1
9.736365 -33.523056 19.903282 40.183737 -1.288135 1.052608 0.125633 -0.051426 131243.000000 0 0 1
9.063365 32.905803 20.880682 40.011740 1.302027 1.021762 0.144696 -0.056981 -331700.000000 0 0 1
8.130565 32.012203 20.373582 38.806831 1.322072 1.018081 0.132019 -0.055512 -269861.000000 0 0 1
8.095265 30.851603 21.182182 38.288896 1.314187 0.984572 0.133409 -0.065475 -310253.000000 0 0 1
7.029265 29.883103 20.667582 37.007558 1.339771 0.978257 0.125354 -0.057515 -625204.000000 0 0 1
5.734565 30.234103 21.042582 37.279706 1.383351 0.971028 0.153129 -0.065630 -776584.000000 0 0 1
4.845265 29.210903 20.699682 36.127971 1.406421 0.960690 0.168883 -0.048026 1274720.000000 0 0 1
3.324565 29.324103 21.133282 36.298366 1.457905 0.949352 0.157597 -0.042308 1226720.000000 0 0 1
3.016565 28.915403 22.452702 36.733146 1.466849 0.913172 0.124054 -0.046041 -217097.000000 0 0 1
1.661565 28.570603 22.548302 36.434408 1.512705 0.903488 0.121430 -0.036755 -301990.000000 0 0 1
1.408465 28.050203 23.932462 36.899328 1.520626 0.865068 0.124043 -0.027248 -202121.000000 0 0 1
1.394065 29.072503 24.907352 38.308355 1.522882 0.862974 0.137182 -0.031085 325118.000000 0 0 1
0.967365 28.572403 26.179032 38.764155 1.536953 0.829369 0.141784 -0.033848 956488.000000 0 0 1
2.140565 27.793203 26.953892 38.775720 1.493930 0.802205 0.125433 -0.029931 796790.000000 0 0 1
2.390865 26.540003 26.400022 37.510654 1.480953 0.790063 0.125008 -0.032712 157421.000000 0 0 1
3.051865 25.784603 27.382502 37.735409 1.452984 0.758825 0.103038 -0.022508 -70684.300000 0 0 1
3.785765 24.512003 26.905742 36.593569 1.417562 0.744748 0.098982 -0.010469 41048.500000 0 0 1
2.900465 23.423603 26.782792 35.698681 1.447597 0.722362 0.110821 -0.006978 46985.600000 0 0 1
3.542165 22.162303 26.720692 34.895702 1.412308 0.698620 0.105702 -0.002405 135691.000000 0 0 1
2.517765 21.014803 26.488562 33.905826 1.451556 0.674148 0.114160 0.001700 251618.000000 0 0 1
3.082165 19.684803 26.525752 33.175394 1.415481 0.644232 0.137472 0.006353 351424.000000 0 0 1
3.770365 19.249303 25.348612 32.051575 1.377375 0.658568 0.144194 -0.001370 68868.600000 0 0 1
4.263265 17.756403 25.414822 31.295023 1.335159 0.623047 0.146549 -0.011978 146999.000000 0 0 1
5.273965 17.567503 26.393592 32.141151 1.279146 0.607325 0.146817 -0.014070 -198369.000000 0 0 1
6.543465 17.386503 25.854562 31.836548 1.210840 0.623049 0.165917 -0.008037 -1338100.000000 0 0 1
7.691065 17.189903 26.839892 32.787575 1.150092 0.611828 0.137318 -0.021571 -242597.000000 0 0 1
8.287465 18.363803 27.336952 33.959097 1.146867 0.635127 0.139249 -0.011948 418164.000000 0 0 1
9.232265 18.973603 26.440082 33.827656 1.117938 0.673551 0.124742 -0.028628 -104625.000000 0 0 1
9.798865 20.314003 26.947462 35.140322 1.121352 0.696873 0.122297 -0.026415 68010.900000 0 0 1
10.671165 20.186403 28.048392 36.167346 1.084507 0.683263 0.127070 -0.042365 -110349.000000 0 0 1
11.009265 21.451903 28.537072 37.359772 1.096639 0.701547 0.165014 -0.048453 -424289.000000 0 0 1
11.971265 21.463703 29.709652 38.557297 1.062027 0.691120 0.185398 -0.051203 43422.400000 0 0 1
13.313365 21.186103 29.345742 38.565130 1.009755 0.706036 0.182034 -0.055805 -302612.000000 0 0 1
14.151165 21.151503 30.442382 39.678460 0.981154 0.696290 0.175249 -0.045161 141015.000000 0 0 1
15.639465 20.854003 30.157922 39.862044 0.927327 0.712764 0.136911 -0.048532 287103.000000 0 0 1
16.451665 21.847703 29.620742 40.315850 0.925368 0.745547 0.119438 -0.063508 -505992.000000 0 0 1
17.751365 21.400303 29.345782 40.425968 0.878330 0.758434 0.186789 -0.042356 -53200.000000 0 0 1
-8.882423 16.868303 4.257606 19.533671 -1.086116 1.351070 0.049056 -0.019069 -211634.000000 0 1 0
-8.690623 18.205703 4.574406 20.685738 -1.125427 1.347815 0.068635 -0.020895 115351.000000 0 1 0
-7.433123 18.311803 5.201006 20.435849 -1.185197 1.313462 0.069433 -0.015305 129465.000000 0 1 0
-7.038423 19.746403 5.780606 21.745695 -1.228395 1.301734 0.077493 -0.015589 -224759.000000 0 1 0
-7.014523 20.759103 4.828806 22.437943 -1.244940 1.353892 0.092371 -0.025255 -165987.000000 0 1 0
-8.229323 21.367303 4.442806 23.324278 -1.203169 1.379145 0.091645 -0.019223 -136278.000000 0 1 0
-8.178823 22.588603 3.427406 24.266958 -1.223403 1.429085 0.147603 -0.030231 -155947.000000 0 1 0
-7.704723 22.351603 2.114006 23.736595 -1.238846 1.481617 0.113129 -0.027010 -137989.000000 0 1 0
-8.297723 21.313503 1.359306 22.912122 -1.199533 1.511435 0.120653 -0.031083 -670011.000000 0 1 0
-7.787023 21.325403 -0.130994 22.703033 -1.220687 1.576566 0.090174 -0.010437 878378.000000 0 1 0
-6.489923 20.863803 -0.491594 21.855412 -1.269223 1.593291 0.071182 -0.007781 640063.000000 0 1 0
-5.396723 21.583303 0.082306 22.247930 -1.325779 1.567097 0.075268 -0.013560 234934.000000 0 1 0
-3.999523 21.216503 -0.482194 21.595572 -1.384473 1.593127 0.052538 -0.009636 72227.700000 0 1 0
-3.765223 21.656103 -1.777694 22.052753 -1.398653 1.651495 0.049397 -0.009204 277544.000000 0 1 0
-2.436723 21.405503 -2.222994 21.658137 -1.457448 1.673618 0.038136 -0.009676 342584.000000 0 1 0
-2.208023 21.720403 -3.738894 22.150183 -1.469488 1.740406 0.055151 -0.009770 457946.000000 0 1 0
-0.876023 21.985903 -4.167494 22.394539 -1.530973 1.757982 0.061267 -0.018249 313807.000000 0 1 0
-0.916223 22.534703 -5.476494 23.208712 -1.530160 1.809010 0.077634 -0.019167 11563.600000 0 1 0
0.419477 23.209003 -5.847694 23.938031 1.552724 1.817578 0.090723 -0.022971 -413056.000000 0 1 0
1.384677 22.257803 -6.089894 23.117395 1.508666 1.837376 0.076929 -0.013625 -835406.000000 0 1 0
2.659077 22.785703 -6.347694 23.802357 1.454622 1.840747 0.070796 -0.008524 150399.000000 0 1 0
3.777477 21.756303 -6.677494 23.069352 1.398883 1.864452 0.076670 -0.007552 216598.000000 0 1 0
3.459377 21.032603 -7.820694 22.704646 1.407779 1.922453 0.066032 -0.008773 -79753.700000 0 1 0
4.055277 19.773003 -7.798494 21.638703 1.368510 1.939488 0.051205 -0.015227 100576.000000 0 1 0
3.661477 19.046603 -9.077094 21.414321 1.380875 2.008521 0.042409 -0.012109 278939.000000 0 1 0
4.380977 19.523803 -10.191794 22.455390 1.350061 2.041898 0.049335 -0.013572 63544.200000 0 1 0
3.635377 19.212303 -11.353394 22.610355 1.383786 2.096859 0.045211 -0.013929 282133.000000 0 1 0
4.232077 19.679203 -12.722594 23.812726 1.358969 2.134449 0.055230 -0.008696 -62527.600000 0 1 0
4.164077 21.073203 -13.007794 25.112191 1.375709 2.115293 0.106008 -0.018444 -252979.000000 0 0 1
4.758877 21.298903 -14.271094 26.075934 1.350974 2.149919 0.126717 -0.034467 145744.000000 0 0 1
4.878077 22.766803 -14.729694 27.551531 1.359725 2.134858 0.106712 -0.039787 -752200.000000 0 0 1
3.662777 23.386703 -14.945494 27.995029 1.415440 2.133958 0.127624 -0.048168 -754949.000000 0 0 1
3.844777 24.721403 -15.472494 29.416461 1.416508 2.124664 0.114267 -0.035497 222694.000000 0 0 1
2.445177 25.216403 -15.934894 29.929363 1.474131 2.132249 0.117603 -0.046054 793555.000000 0 0 1
1.492477 25.634603 -14.955894 29.715975 1.512641 2.098204 0.141482 -0.052771 109067.000000 0 0 1
1.789277 26.884603 -14.380094 30.541292 1.504340 2.061040 0.126196 -0.052329 -1215710.000000 0 0 1
1.069177 27.164203 -13.060694 30.159888 1.531457 2.018668 0.143461 -0.058369 426728.000000 0 0 1
-0.327123 27.485403 -13.088794 30.444555 -1.558895 2.015203 0.139769 -0.049100 664014.000000 0 0 1
-1.196323 26.435003 -13.463894 29.690353 -1.525572 2.041459 0.131257 -0.052202 -1064280.000000 0 0 1
-1.387323 25.199103 -12.615694 28.214805 -1.515797 2.034351 0.148812 -0.047609 -425498.000000 0 0 1
-1.965123 25.412503 -11.337494 27.896161 -1.493621 1.989326 0.142916 -0.040140 -152963.000000 0 0 1
-2.474923 24.222303 -10.877494 26.667679 -1.468974 1.990939 0.158774 -0.036686 -41855.300000 0 0 1
-3.283923 24.452203 -9.569994 26.462789 -1.437295 1.940822 0.128701 -0.026685 113384.000000 0 0 1
-2.506723 24.610603 -8.369194 26.115300 -1.469291 1.897023 0.128028 -0.029784 75304.900000 0 0 1
-1.876823 25.854403 -8.286194 27.214585 -1.498331 1.880185 0.130123 -0.037775 -86513.000000 0 0 1
-1.862923 26.610503 -6.841394 27.538955 -1.500903 1.821851 0.134985 -0.043600 204818.000000 0 0 1
-1.068523 25.978203 -5.852494 26.650713 -1.529688 1.792201 0.125824 -0.036611 -81725.300000 0 0 1
-1.189023 26.615803 -4.636694 27.042812 -1.526152 1.743105 0.124170 -0.046454 -85938.100000 0 0 1
-1.994223 25.913203 -3.508194 26.225531 -1.493990 1.704969 0.115864 -0.029522 590598.000000 0 0 1
-3.378323 25.812703 -3.833294 26.313549 -1.440658 1.716994 0.112596 -0.034766 421847.000000 0 0 1
-4.136023 25.299003 -2.724594 25.779249 -1.408744 1.676684 0.110743 -0.022589 -43620.000000 0 0 1
-5.350223 24.502203 -3.221394 25.285574 -1.355814 1.698544 0.114589 -0.027987 65425.800000 0 0 1
-6.463223 25.332103 -3.597194 26.389932 -1.320986 1.707531 0.128362 -0.028349 -25996.700000 0 0 1
-7.508623 24.479303 -3.975094 25.911717 -1.273174 1.724814 0.115032 -0.032726 -740940.000000 0 0 1
-8.878223 25.070103 -4.187094 26.923311 -1.230442 1.726949 0.099116 -0.029410 -442448.000000 0 0 1
-9.619023 25.256303 -2.940194 27.185496 -1.206901 1.679161 0.127145 -0.038478 720528.000000 0 0 1
-10.954123 25.695703 -3.235994 28.119986 -1.167824 1.686130 0.137673 -0.039374 907804.000000 0 0 1
-11.835823 25.996703 -1.995694 28.633862 -1.143559 1.640550 0.166742 -0.045090 -48390.500000 0 0 1
-12.274423 24.913403 -1.189994 27.798475 -1.113019 1.613617 0.168285 -0.044298 59825.200000 0 0 1
-11.251023 24.166803 -0.537394 26.662871 -1.135081 1.590953 0.184687 -0.048323 114115.000000 0 0 1
-11.658523 22.683803 -0.060694 25.504505 -1.096045 1.573176 0.158058 -0.037996 -456227.000000 0 0 1
-12.722823 22.825603 0.822106 26.144870 -1.062295 1.539347 0.178645 -0.043389 -416387.000000 0 0 1
-13.263823 21.529503 1.093406 25.310947 -1.018640 1.527584 0.167781 -0.042966 -137018.000000 0 0 1
-14.384723 21.601103 2.151806 26.041470 -0.983307 1.488072 0.171798 -0.049445 -191339.000000 0 0 1
-14.036423 21.647103 3.512106 26.037533 -0.995532 1.435498 0.160197 -0.044549 -196724.000000 0 0 1
-13.761323 22.912103 4.058506 27.033497 -1.029926 1.420098 0.175441 -0.042008 -29897.700000 0 0 1
-13.357023 22.922603 5.528906 27.100269 -1.043194 1.365337 0.166513 -0.034393 -494699.000000 0 0 1
-12.071923 22.471203 5.844606 26.169557 -1.077820 1.345561 0.162618 -0.030902 -383952.000000 0 0 1
-11.957723 22.253803 7.228506 26.276799 -1.077730 1.292112 0.129246 -0.024058 -539489.000000 0 0 1
-10.656623 21.828503 7.905106 25.544821 -1.116635 1.256171 0.117042 -0.023752 -420835.000000 0 0 1
-9.947723 22.989203 8.337206 26.400183 -1.162411 1.249496 0.132919 -0.027374 751966.000000 0 0 1
-8.741623 22.787003 9.099806 26.047456 -1.204487 1.213914 0.133550 -0.033459 729996.000000 0 0 1
-8.944423 22.373503 10.535006 26.297580 -1.190482 1.158617 0.106770 -0.031085 -159717.000000 0 0 1
-9.662823 21.192203 10.828206 25.685203 -1.142996 1.135616 0.101388 -0.023883 149330.000000 0 0 1
-9.433023 20.853703 12.191306 25.932350 -1.145996 1.081370 0.077778 -0.011305 306156.000000 0 0 1
-10.348523 19.632903 12.545106 25.493577 -1.085704 1.056309 0.063376 -0.008710 311465.000000 0 0 1
-9.990723 18.419303 11.922806 24.108890 -1.073803 1.053491 0.071806 -0.025049 -395459.000000 0 1 0
-10.840323 17.403603 12.364606 23.943297 -1.013724 1.028141 0.070174 -0.023528 -305224.000000 0 1 0
-10.847423 16.173303 11.476406 22.604208 -0.980007 1.038270 0.068024 -0.032437 -400907.000000 0 1 0
-11.338523 15.050903 12.152806 22.422811 -0.925158 0.998000 0.062281 -0.026674 -75026.100000 0 1 0
-11.605523 14.030203 11.252206 21.404366 -0.879700 1.017262 0.050516 -0.015916 60118.600000 0 1 0
-12.036323 12.732503 11.998506 21.235674 -0.813498 0.970343 0.030888 -0.015491 -30854.300000 0 1 0
-13.171223 12.862803 12.811306 22.429052 -0.773552 0.962838 0.041477 -0.009298 -223518.000000 0 1 0
-13.740523 11.626603 13.119306 22.273214 -0.702257 0.940954 0.033735 -0.000682 24168.500000 0 1 0
-14.582323 11.618803 14.415306 23.567812 -0.672770 0.912649 0.049828 -0.002409 510927.000000 0 1 0
-15.775723 12.382403 14.223206 24.586519 -0.665467 0.953913 0.066859 -0.004693 337840.000000 0 1 0
-16.583323 12.303103 15.403406 25.761169 -0.638294 0.929879 0.068556 -0.002964 -135194.000000 0 0 1
-17.710823 13.314603 15.474306 27.026025 -0.644638 0.961159 0.081697 -0.002384 204328.000000 0 0 1
-18.903923 12.997803 14.756706 27.277491 -0.602336 0.999189 0.090051 -0.000733 -15735.200000 0 0 1
-19.695823 14.114103 14.594506 28.286621 -0.621783 1.028679 0.123210 -0.010796 -729910.000000 0 0 1
-20.892023 13.814903 13.703206 28.550061 -0.584245 1.070175 0.112776 -0.014891 -425028.000000 0 0 1
-21.859623 13.018003 14.353006 29.211646 -0.537124 1.057163 0.122701 -0.011610 164200.000000 0 0 1
-22.951423 12.732903 13.481906 29.506887 -0.506503 1.096281 0.092873 -0.014714 102794.000000 0 0 1
-24.020023 11.828203 14.102306 30.261244 -0.457574 1.086011 0.128197 -0.026128 -435797.000000 0 0 1
-24.880023 12.457203 14.990206 31.605438 -0.464200 1.076637 0.128230 -0.028417 26996.300000 0 0 1
-25.614783 11.486903 15.742806 32.185431 -0.421563 1.059706 0.131091 -0.025762 -248547.000000 0 0 1
-26.447203 12.041803 16.875106 33.603999 -0.427265 1.044684 0.122165 -0.026255 -170790.000000 0 0 1
-27.531943 12.848403 16.425506 34.538190 -0.436632 1.075179 0.121762 -0.014719 234340.000000 0 0 1
-28.134373 13.368803 17.576706 35.766023 -0.443593 1.057059 0.093323 -0.005278 247987.000000 0 0 1
-29.365013 14.331003 17.499006 37.066114 -0.454026 1.079122 0.091554 -0.004978 454618.000000 0 0 1
-29.114933 15.567303 16.893506 37.086531 -0.491009 1.097845 0.115989 -0.004352 -404600.000000 0 0 1
-30.316523 16.238903 16.687206 38.226383 -0.491756 1.119051 0.119342 -0.007750 -272233.000000 0 0 1
-30.068353 17.751903 16.408106 38.580589 -0.533320 1.131509 0.128014 -0.009562 154817.000000 0 0 1
-29.444183 18.344103 17.570606 38.886915 -0.557169 1.101971 0.118771 -0.008584 632894.000000 0 0 1
-30.292823 18.638503 18.691906 40.180048 -0.551578 1.086932 0.109401 -0.021729 -209773.000000 0 0 1
-29.325073 19.035903 19.856006 40.206796 -0.575766 1.054288 0.098109 -0.022977 716225.000000 0 0 1
-28.798973 17.974203 20.620406 39.719692 -0.557971 1.024942 0.096823 -0.019075 327739.000000 0 0 1
-27.828503 17.189103 19.899806 38.286983 -0.553318 1.024234 0.105932 -0.014314 -183403.000000 0 0 1
-27.242733 15.968203 20.670306 37.741377 -0.530170 0.991204 0.099478 -0.012335 243678.000000 0 0 1
-28.278253 15.105803 21.077706 38.368145 -0.490620 0.989205 0.074423 -0.003254 429055.000000 0 0 1
-27.727743 13.809303 21.297006 37.591050 -0.462072 0.968490 0.072859 0.007064 249098.000000 0 0 1
-28.866213 12.775303 21.489806 38.187411 -0.416658 0.973093 0.079588 -0.002345 -126603.000000 0 0 1
-29.727083 12.738603 20.402206 38.239004 -0.404847 1.008011 0.085406 -0.010595 -218560.000000 0 0 1
-30.869453 11.956003 20.685706 39.035465 -0.369518 1.012289 0.112201 -0.018755 2465.300000 0 0 1
-31.768133 11.785403 19.417006 39.052914 -0.355243 1.050431 0.121609 -0.025602 -209862.000000 0 0 1
-31.189493 11.223203 18.225906 37.827614 -0.345413 1.068072 0.151019 -0.034361 235392.000000 0 0 1
-30.957663 9.875803 18.360006 37.322891 -0.308805 1.056499 0.164399 -0.031434 -93426.100000 0 0 1
-30.286443 9.181603 17.101506 35.972655 -0.294352 1.075374 0.180844 -0.041751 386553.000000 0 0 1
-31.134303 8.952303 15.954606 36.111466 -0.279985 1.113175 0.185328 -0.040857 597205.000000 0 0 1
-31.437263 10.131803 15.163506 36.344007 -0.311776 1.140410 0.180697 -0.034944 1570460.000000 0 0 1
-30.146523 10.900203 14.530606 35.196104 -0.346948 1.145219 0.174744 -0.024903 1701570.000000 0 0 1
-29.477613 10.373603 13.395606 33.999758 -0.338379 1.165826 0.206232 -0.042586 751931.000000 0 0 1
-28.343503 11.197803 13.101306 33.172114 -0.376253 1.164784 0.155756 -0.029906 273550.000000 0 0 1
-27.740153 11.111203 11.716706 32.097603 -0.380977 1.197127 0.214546 -0.031171 -229428.000000 0 0 1
-26.977473 10.068203 11.189506 30.892682 -0.357199 1.200163 0.218587 -0.027412 292897.000000 0 0 1
-27.766383 8.970303 10.778006 31.106330 -0.312479 1.216971 0.249472 -0.036011 -418724.000000 0 0 1
-26.959123 7.739803 10.370206 29.903846 -0.279575 1.216655 0.263771 -0.035461 -459459.000000 0 0 1
-26.256463 8.061103 9.173406 28.957462 -0.297879 1.248454 0.242725 -0.033618 450056.000000 0 0 1
-25.913103 6.891503 8.437706 28.110080 -0.259930 1.265929 0.291158 -0.046516 -428959.000000 0 0 1
-25.237383 7.186303 7.089006 27.181288 -0.277406 1.306941 0.267971 -0.040871 135496.000000 0 0 1
-26.106873 7.711403 6.040006 27.883978 -0.287211 1.352454 0.296489 -0.046522 666610.000000 0 0 1
-25.370943 8.067403 4.889706 27.068006 -0.307868 1.389154 0.284357 -0.050501 -702350.000000 0 0 1
-26.118643 8.706303 3.761006 27.787198 -0.321754 1.435029 0.279333 -0.052183 -746514.000000 0 0 1
-27.079603 7.925703 3.067806 28.381915 -0.284729 1.462495 0.342517 -0.054428 167134.000000 0 0 1
-26.698713 6.794903 2.320606 27.647372 -0.249212 1.486762 0.331550 -0.056055 -1117640.000000 0 0 1
-25.723553 6.901003 1.156506 26.658254 -0.262104 1.527400 0.319855 -0.055960 -436544.000000 0 0 1
-24.464323 7.162003 1.739206 25.550386 -0.284795 1.502674 0.266283 -0.050996 346958.000000 0 0 1
-23.412923 7.417203 0.787306 24.572336 -0.306797 1.538751 0.257378 -0.039149 554945.000000 0 1 0
-22.141423 7.931903 1.507006 23.567536 -0.343995 1.506809 0.165191 -0.043166 -181991.000000 0 1 0
-22.372923 9.214603 2.018206 24.280233 -0.390692 1.487579 0.181300 -0.056831 479665.000000 0 1 0
-21.236323 9.927403 2.492406 23.574283 -0.437289 1.464873 0.130800 -0.049197 -162469.000000 0 1 0
-21.543323 11.186403 3.352606 24.504904 -0.478930 1.433552 0.139441 -0.067992 -126561.000000 0 1 0
-20.921323 12.332803 2.721506 24.437806 -0.532652 1.459200 0.178781 -0.058789 909161.000000 0 1 0
-21.379323 13.546403 3.293606 25.523094 -0.564775 1.441391 0.197693 -0.065213 -565352.000000 0 0 1
-20.201423 14.260703 3.951506 25.041556 -0.614692 1.412336 0.147340 -0.047071 -291042.000000 0 0 1
-19.776923 13.551503 5.093006 24.509358 -0.600736 1.361473 0.134054 -0.048565 288927.000000 0 1 0
-18.915723 14.331403 5.921506 24.459311 -0.648376 1.326271 0.104331 -0.035803 -132168.000000 0 1 0
-18.160823 13.514103 6.995106 23.693416 -0.639737 1.271096 0.047594 -0.023319 322653.000000 0 1 0
-17.206423 12.579003 6.444306 22.267047 -0.631272 1.277186 0.047529 -0.024234 609347.000000 0 1 0
-16.639623 11.807203 7.468606 21.727107 -0.617129 1.219893 0.037739 -0.018221 -316237.000000 0 1 0
11.857177 -31.811656 -14.033294 36.735643 -1.214017 1.962764 0.069473 -0.027202 -295007.000000 0 0 1
13.168477 -31.906756 -13.561194 37.085791 -1.179375 1.945150 0.050468 -0.033841 -486430.000000 0 0 1
13.866077 -30.713356 -13.445894 36.281820 -1.146723 1.950447 0.058142 -0.043620 446395.000000 0 0 1
15.292077 -30.891556 -12.823094 36.777271 -1.111137 1.926947 0.092147 -0.033454 528149.000000 0 0 1
16.224677 -31.417756 -13.755194 37.941019 -1.094101 1.941790 0.085273 -0.034635 -44246.600000 0 0 1
17.534477 -31.256156 -13.258394 38.212436 -1.059553 1.925130 0.102544 -0.031052 371582.000000 0 0 1
18.690877 -32.139956 -13.775194 39.649485 -1.044056 1.925619 0.110369 -0.033420 246962.000000 0 0 1
18.668777 -33.462556 -13.278794 40.553573 -1.061908 1.904387 0.098913 -0.031417 -544652.000000 0 0 1
19.594677 33.035403 -13.777694 40.805810 1.035435 1.915205 0.101262 -0.017604 -259174.000000 0 0 1
19.412277 31.651803 -13.167694 39.396210 1.020650 1.911593 0.093494 -0.022281 -38059.200000 0 0 1
20.157477 31.578603 -11.966894 39.328598 1.002671 1.879979 0.083146 -0.025133 15941.700000 0 0 1
19.976777 30.352203 -11.251294 38.038395 0.988702 1.871076 0.076034 -0.021779 -166500.000000 0 0 1
20.934277 30.147803 -10.080294 38.062401 0.963847 1.838830 0.077953 -0.019752 760341.000000 0 0 1
22.284977 29.830103 -10.454894 38.675058 0.929177 1.844529 0.063838 -0.020910 1195190.000000 0 0 1
23.111777 29.622903 -9.268894 38.698618 0.908246 1.812662 0.052341 -0.016415 377341.000000 0 0 1
24.340177 28.754203 -9.502194 38.852801 0.868343 1.817872 0.035744 -0.003495 -175756.000000 0 0 1
25.442077 29.293103 -10.170594 40.110176 0.855640 1.827162 0.049964 -0.013450 -352508.000000 0 0 1
26.607177 28.516803 -10.099994 40.288458 0.820027 1.824191 0.055272 -0.002974 -124544.000000 0 0 1
27.714377 29.023403 -11.030694 41.618756 0.808466 1.839043 0.049014 -0.002879 -327376.000000 0 0 1
28.230477 30.278903 -10.634894 42.741933 0.820394 1.822254 0.057862 -0.015615 -398735.000000 0 0 1
29.141777 30.699303 -11.590994 43.886690 0.811420 1.838079 0.058455 -0.013893 -298857.000000 0 0 1
29.764077 32.068203 -11.361094 45.203368 0.822645 1.824853 0.052362 -0.019577 -46319.000000 0 0 1
28.908977 33.135603 -11.768094 45.521261 0.853415 1.832285 0.067323 -0.019927 -37411.200000 0 0 1
29.406877 -33.008156 -11.460894 45.668971 -0.843033 1.824464 0.053501 -0.020781 -332261.000000 0 0 1
28.420877 -31.859456 -11.737494 44.277986 -0.842380 1.839090 0.051692 -0.015499 -109296.000000 0 0 1
27.398077 -31.947156 -10.764594 43.441362 -0.861903 1.821201 0.071110 -0.021387 783462.000000 0 0 1
26.208977 -31.103756 -10.899994 42.108954 -0.870596 1.832630 0.065426 -0.018414 1416910.000000 0 0 1
26.436877 -29.626656 -10.652594 41.111130 -0.842233 1.832904 0.052013 -0.019817 -813421.000000 0 0 1
27.303477 -29.086956 -11.587494 41.542760 -0.817015 1.853475 0.039842 -0.008453 -505126.000000 0 0 1
27.609277 -27.769256 -11.246794 40.741799 -0.788287 1.850479 0.026746 -0.005678 37335.300000 0 0 1
28.550377 -27.136156 -12.339194 41.276516 -0.760008 1.874378 0.061050 -0.012145 415883.000000 0 0 1
29.812777 -27.776356 -12.381694 42.586782 -0.750052 1.865797 0.040600 0.003070 -96863.700000 0 0 1
29.987877 -28.444256 -13.619394 43.518231 -0.758987 1.889103 0.070042 -0.007659 272385.000000 0 0 1
31.414777 -29.020556 -13.855594 44.956183 -0.745803 1.884099 0.074287 -0.007804 396378.000000 0 0 1
31.718077 -30.215056 -13.237294 45.762562 -0.761134 1.864250 0.065824 -0.010740 -360496.000000 0 0 1
33.011477 -30.660756 -13.543194 47.045273 -0.748496 1.862804 0.066847 -0.007170 -582598.000000 0 0 1
33.541177 -31.671256 -12.538794 47.804816 -0.756732 1.836192 0.077278 -0.008746 55324.900000 0 0 1
34.740977 -32.275256 -13.005394 49.170804 -0.748622 1.838476 0.074021 -0.012016 211189.000000 0 0 1
35.528477 -32.884356 -11.983994 49.872535 -0.746768 1.813463 0.076913 -0.012988 199223.000000 0 0 1
35.014377 33.181103 -11.322794 49.549954 0.758522 1.801346 0.074351 -0.019970 119088.000000 0 0 1
34.150677 33.394203 -10.197994 48.840973 0.774199 1.781144 0.063844 -0.027026 -28558.100000 0 0 1
33.622777 32.139703 -9.788294 47.531699 0.762850 1.778212 0.066763 -0.025799 -126379.000000 0 0 1
32.725977 32.419903 -8.540894 46.850684 0.780700 1.754122 0.033402 -0.025103 -638468.000000 0 0 1
31.443577 32.842903 -8.832994 46.318211 0.807162 1.762674 0.030016 -0.026744 -1369290.000000 0 0 1
30.711977 32.989703 -7.644694 45.716380 0.821139 1.738806 0.024019 -0.021653 220892.000000 0 0 1
29.673477 -33.275856 -7.711794 45.246764 -0.842562 1.742071 0.026596 -0.026079 -78609.600000 0 0 1
30.233777 -31.978156 -7.813294 44.695988 -0.813430 1.746509 0.006056 -0.022604 -59010.800000 0 0 1
29.326877 -30.973456 -8.239494 43.443181 -0.812698 1.761614 0.006690 -0.014138 246431.000000 0 0 1
28.590177 -30.123056 -7.180694 42.146876 -0.811500 1.742005 0.025339 -0.013692 440803.000000 0 0 1
27.750477 -29.106456 -7.691294 40.944240 -0.809243 1.759767 0.016684 -0.016851 -153105.000000 0 0 1
26.733177 -28.682956 -6.820994 39.798250 -0.820568 1.743036 0.030773 -0.028691 -156354.000000 0 0 1
25.875777 -27.592056 -7.426494 38.549063 -0.817486 1.764659 0.091033 -0.036978 330189.000000 0 0 1
24.841377 -28.086956 -8.309994 38.406082 -0.846642 1.788893 0.116465 -0.035064 712059.000000 0 0 1
24.105077 -27.097956 -9.031494 37.375418 -0.843783 1.814855 0.126542 -0.036206 83047.000000 0 0 1
22.855177 -27.658656 -9.725794 37.174608 -0.880205 1.835501 0.117014 -0.031793 -130858.000000 0 0 1
23.199577 -28.513656 -10.820694 38.318878 -0.887799 1.857076 0.126505 -0.035286 1042020.000000 0 0 1
22.046477 -29.152656 -11.454694 38.303193 -0.923312 1.874497 0.117237 -0.036235 1145550.000000 0 0 1
21.613477 -30.579156 -10.978994 39.022628 -0.955518 1.855996 0.106734 -0.039622 77500.700000 0 0 1
22.501577 -31.593356 -11.358994 40.416431 -0.951913 1.855683 0.093097 -0.031882 -404071.000000 0 0 1
22.044877 -32.828656 -10.959994 41.034361 -0.979446 1.841172 0.083456 -0.034164 -864797.000000 0 0 1
23.043877 33.483103 -11.013794 42.112257 0.968017 1.835408 0.076714 -0.028028 -241559.000000 0 0 1
24.111877 -33.683156 -10.082294 42.633207 -0.949516 1.809547 0.067625 -0.026208 442673.000000 0 0 1
25.141477 32.748703 -10.301094 42.552133 0.916057 1.815307 0.065928 -0.025658 1187810.000000 0 0 1
26.426577 32.906703 -9.394394 43.237365 0.894183 1.789818 0.052757 -0.024713 453568.000000 0 0 1
26.288977 32.574703 -8.012994 42.619593 0.891779 1.759934 0.042093 -0.026077 199722.000000 0 0 1
27.060077 31.416503 -7.708694 42.174263 0.859759 1.754612 0.056336 -0.024832 -100433.000000 0 0 1
27.121277 31.080203 -6.193694 41.712163 0.853315 1.719834 0.058493 -0.025415 -474703.000000 0 0 1
28.011877 31.764103 -5.347994 42.687523 0.848087 1.696409 0.054485 -0.031270 278511.000000 0 0 1
29.075477 30.929403 -4.832194 42.724249 0.816285 1.684141 0.062059 -0.026112 424634.000000 0 0 1
28.806177 29.798003 -3.846794 41.623487 0.802321 1.663347 0.077452 -0.008683 -1000040.000000 0 0 1
28.367077 30.203903 -2.530094 41.513471 0.816749 1.631780 0.075864 -0.012260 217009.000000 0 0 1
28.106177 28.998603 -1.764294 40.422629 0.801025 1.614456 0.069780 -0.006260 -1287.950000 0 0 1
26.766477 28.300803 -2.087194 39.009437 0.813254 1.624327 0.066163 -0.004627 -685337.000000 0 0 1
25.676277 28.932803 -1.491594 38.711797 0.844961 1.609337 0.068317 -0.008013 -46137.900000 0 0 1
24.447877 28.215503 -1.700094 37.372499 0.856818 1.616303 0.077927 -0.007831 906732.000000 0 0 1
23.272677 28.862903 -0.922294 37.088210 0.892215 1.595666 0.101185 -0.015267 70519.100000 0 0 1
23.159277 28.540603 0.444706 36.757529 0.889112 1.558698 0.101703 -0.022782 -330505.000000 0 0 1
22.121477 29.309503 0.957806 36.733148 0.924259 1.544719 0.074982 -0.022466 -669875.000000 0 0 1
21.241277 28.620803 1.976506 35.696622 0.932330 1.515398 0.080927 -0.029558 -456850.000000 0 0 1
20.648077 27.414503 1.508806 34.353669 0.925263 1.526862 0.113247 -0.021801 115909.000000 0 0 1
19.866677 26.841803 2.519906 33.489061 0.933636 1.495480 0.135365 -0.023097 -111958.000000 0 0 1
19.147377 25.528603 2.073206 31.978584 0.927272 1.505920 0.143957 -0.018411 186497.000000 0 0 1
19.957077 24.391303 1.788906 31.566134 0.885053 1.514094 0.147142 -0.025008 -60657.400000 0 0 1
20.611677 23.754103 2.871606 31.580766 0.856110 1.479742 0.128621 -0.018268 -590728.000000 0 0 1
21.955977 23.170003 2.459106 32.015015 0.812295 1.493910 0.118310 -0.017915 -707846.000000 0 0 1
21.893177 22.124303 1.484406 31.160865 0.790649 1.523141 0.119204 -0.014354 -124641.000000 0 0 1
23.172977 21.657403 1.163806 31.739320 0.751604 1.534120 0.087615 -0.010117 -309559.000000 0 0 1
23.166677 20.517203 0.151506 30.946301 0.724821 1.565901 0.087937 -0.013891 -297805.000000 0 0 1
22.865077 20.910103 -1.168694 31.006613 0.740768 1.608497 0.073045 -0.009200 302956.000000 0 0 1
23.171977 19.894903 -2.079594 30.611639 0.709452 1.638783 0.090107 -0.008846 -34148.400000 0 0 1
22.977377 20.385303 -3.545994 30.920779 0.725693 1.685729 0.087260 -0.001062 170895.000000 0 0 1
23.738777 21.554803 -3.843294 32.294117 0.737217 1.690088 0.098871 -0.010019 385853.000000 0 0 1
23.541577 22.013103 -5.154594 32.639737 0.751858 1.729384 0.084722 -0.007224 -253837.000000 0 0 1
24.313877 23.320903 -5.466094 34.130739 0.764556 1.731641 0.070944 0.003760 -416079.000000 0 0 1
23.955577 24.521703 -4.767494 34.610874 0.797076 1.708981 0.075845 0.008871 -20106.200000 0 0 1
24.314977 24.668003 -3.399894 34.803560 0.792605 1.668640 0.071575 0.002053 229878.000000 0 0 1
23.165077 24.324003 -2.370194 33.673369 0.809797 1.641242 0.077873 -0.004097 -482295.000000 0 0 1
22.259277 25.416903 -2.295694 33.863913 0.851532 1.638640 0.094836 -0.015150 1318610.000000 0 0 1
21.098677 25.157903 -1.455394 32.866282 0.872928 1.615093 0.107877 -0.011075 967793.000000 0 0 1
20.098077 24.059803 -1.910694 31.407923 0.874876 1.631669 0.136632 -0.025695 -1332440.000000 0 0 1
19.334977 24.349303 -3.005794 31.237233 0.899684 1.667170 0.129165 -0.020267 -144871.000000 0 0 1
18.745277 23.199103 -3.622694 30.045095 0.891186 1.691666 0.146420 -0.031335 11033.200000 0 0 1
18.107377 23.644903 -4.935294 30.188006 0.917257 1.735019 0.143072 -0.030762 -217468.000000 0 0 1
17.501677 22.572303 -5.627394 29.111598 0.911261 1.765325 0.140119 -0.039877 205302.000000 0 0 1
16.989677 22.918303 -6.920094 29.356183 0.932877 1.808765 0.126853 -0.040468 -59788.100000 0 0 1
16.337577 21.743303 -7.585394 28.235189 0.926410 1.842788 0.149430 -0.048379 -900758.000000 0 0 1
17.205377 20.780703 -7.987494 28.136501 0.879244 1.858638 0.159109 -0.053571 -458554.000000 0 0 1
16.497177 19.871803 -8.775194 27.277270 0.877922 1.898324 0.222777 -0.070434 -20606.700000 0 0 1
17.245477 18.498603 -8.892994 26.808397 0.820442 1.908927 0.216029 -0.067572 43320.300000 0 0 1
18.463877 18.674703 -9.574594 27.952320 0.791075 1.920408 0.177287 -0.063422 -136013.000000 0 0 1
18.923577 17.438603 -10.071694 27.634140 0.744582 1.943855 0.177338 -0.063603 232690.000000 0 0 1
20.471677 17.296403 -10.119694 28.647223 0.701522 1.931841 0.143615 -0.058287 252306.000000 0 0 1
21.031677 18.085703 -11.149794 29.895519 0.710229 1.952992 0.153517 -0.059405 -322947.000000 0 0 1
22.391877 17.780703 -11.309494 30.748240 0.671114 1.947449 0.148906 -0.043854 -135644.000000 0 0 1
23.009277 18.205103 -12.678594 31.962469 0.669356 1.978684 0.146776 -0.055568 -58290.200000 0 0 1
22.692077 17.372103 -13.738594 31.709136 0.653384 2.018913 0.138594 -0.047999 190009.000000 0 0 1
23.275377 17.800803 -14.966194 32.902869 0.652900 2.043011 0.144446 -0.047818 48898.200000 0 0 1
23.025577 16.833303 -16.113994 32.759703 0.631275 2.085049 0.132272 -0.035456 269359.000000 0 0 1
23.892877 15.699603 -16.047494 32.785198 0.581338 2.082283 0.153689 -0.037967 154253.000000 0 0 1
24.010277 15.033703 -17.298694 33.192627 0.559416 2.119007 0.162441 -0.043656 233301.000000 0 0 1
24.913877 15.531003 -18.509894 34.706333 0.557439 2.133327 0.167207 -0.041973 -231670.000000 0 0 1
26.269077 15.610503 -18.169894 35.551333 0.536184 2.107248 0.181765 -0.038853 -532488.000000 0 0 1
26.971077 15.880503 -19.354394 36.799755 0.532142 2.124614 0.173294 -0.035263 -132454.000000 0 0 1
28.501977 15.980003 -19.151994 37.875086 0.510993 2.100946 0.149678 -0.037284 132352.000000 0 0 1
28.894677 17.109903 -18.440194 38.310468 0.534625 2.072974 0.135627 -0.045158 -151331.000000 0 0 1
30.293377 17.204203 -18.284494 39.344581 0.516497 2.054123 0.113688 -0.051591 -11110.800000 0 0 1
30.788777 18.433403 -17.541594 39.943043 0.539467 2.025466 0.112940 -0.043058 195163.000000 0 0 1
30.160377 18.588803 -16.268694 38.985413 0.552342 2.001271 0.116713 -0.046986 474607.000000 0 0 1
28.936677 19.338803 -16.308894 38.435669 0.589143 2.009003 0.103066 -0.047455 225628.000000 0 0 1
27.966777 19.014503 -15.181094 37.069632 0.597106 1.992734 0.112675 -0.041481 -61355.100000 0 0 1
28.440777 19.238403 -13.847594 37.023639 0.594736 1.954137 0.099483 -0.046173 1013930.000000 0 0 1
27.279977 19.009603 -13.003994 35.702466 0.608598 1.943605 0.110464 -0.049139 1090290.000000 0 0 1
27.530277 19.268603 -11.502094 35.517509 0.610663 1.900585 0.100860 -0.030549 -73184.100000 0 0 1
27.638477 20.662803 -11.258394 36.298599 0.641970 1.886158 0.095849 -0.029383 -37360.100000 0 0 1
28.039277 20.965503 -9.929794 36.391678 0.642040 1.847160 0.087256 -0.018909 71249.800000 0 0 1
27.006277 20.640003 -8.835394 35.119979 0.652570 1.825106 0.093991 -0.018829 -140581.000000 0 0 1
26.885377 19.274903 -8.516494 34.159568 0.621998 1.822769 0.106996 -0.030774 699098.000000 0 0 1
26.014777 19.016903 -7.366194 33.055591 0.631232 1.795526 0.102779 -0.031779 942783.000000 0 0 1
24.507877 18.723703 -7.600194 31.764384 0.652393 1.812408 0.126289 -0.031877 314097.000000 0 0 1
23.814077 19.923703 -7.873794 32.032185 0.696684 1.819150 0.112997 -0.024785 -429387.000000 0 0 1
22.455377 19.726503 -8.141994 30.978557 0.720795 1.836747 0.094184 -0.033963 -476169.000000 0 0 1
21.707477 21.076403 -8.252194 31.361251 0.770649 1.837065 0.123614 -0.036168 -699589.000000 0 0 1
22.057277 21.898103 -9.367194 32.462205 0.781777 1.863516 0.137425 -0.041494 199465.000000 0 0 1
21.362077 21.471503 -10.553894 32.074109 0.787953 1.906091 0.150829 -0.041605 190572.000000 0 0 1
19.844677 21.735003 -10.538194 31.261400 0.830830 1.914630 0.147254 -0.042074 -698076.000000 0 0 1
19.550177 23.114303 -10.296794 31.976623 0.868743 1.898648 0.145437 -0.041240 -132248.000000 0 0 1
18.200177 23.507803 -10.342294 31.477394 0.911975 1.905578 0.139176 -0.032181 -106508.000000 0 0 1
17.855277 25.004803 -10.102794 32.343741 0.950687 1.888470 0.123617 -0.034457 205959.000000 0 0 1
18.435977 25.894503 -11.070394 33.659534 0.952085 1.905928 0.160203 -0.028132 177117.000000 0 0 1
18.155177 27.192403 -10.651494 34.387376 0.982109 1.885727 0.156610 -0.036483 -124346.000000 0 0 1
21.040777 28.492503 33.558062 48.792218 0.934717 0.812377 0.087254 -0.017494 -249459.000000 0 0 1
19.774977 28.956403 33.149656 48.253733 0.971624 0.813463 0.105407 -0.030721 -508877.000000 0 0 1
19.012277 27.779103 32.963488 47.114083 0.970611 0.795885 0.114200 -0.030776 -650013.000000 0 0 1
17.525477 28.105503 32.868675 46.662742 1.013233 0.789236 0.145078 -0.043930 -577034.000000 0 0 1
17.079477 28.579203 31.621971 45.917627 1.032129 0.811147 0.148504 -0.042343 -474903.000000 0 0 1
15.747777 29.003703 31.756946 45.800774 1.073376 0.804639 0.172499 -0.042857 -463921.000000 0 0 1
15.000377 29.052603 30.414142 44.655180 1.094180 0.821548 0.176398 -0.043340 -199602.000000 0 0 1
14.565377 27.760303 30.007082 43.395963 1.087597 0.807272 0.171567 -0.039732 -1770740.000000 0 0 1
13.246677 27.543403 30.189382 42.959426 1.122514 0.791552 0.169607 -0.028125 -2023750.000000 0 0 1
12.836477 26.075303 30.485562 42.119664 1.113340 0.761525 0.155672 -0.036301 -918.926000 0 0 1
12.710377 25.199003 29.379362 40.739298 1.103635 0.765328 0.153807 -0.036851 173897.000000 0 0 1
13.974277 24.785903 28.892282 40.551022 1.057420 0.777753 0.137850 -0.034049 18840.500000 0 0 1
13.942077 24.012103 27.589812 39.142820 1.044743 0.788585 0.154199 -0.040344 -362249.000000 0 0 1
13.529377 24.835603 26.496512 38.754566 1.071987 0.817975 0.148044 -0.039755 299040.000000 0 0 1
13.304377 24.289903 25.192482 37.438844 1.069695 0.832678 0.151562 -0.043846 -186649.000000 0 0 1
12.180577 23.273303 24.982912 36.251331 1.088627 0.810469 0.158889 -0.034941 -417568.000000 0 0 1
12.098877 23.103603 23.619112 35.185534 1.088385 0.834871 0.164725 -0.040575 407073.000000 0 0 1
11.101677 22.143703 23.231302 33.960039 1.106072 0.817458 0.157151 -0.037618 449454.000000 0 0 1
11.289677 21.886203 21.737282 32.847711 1.094561 0.847633 0.163462 -0.049050 190567.000000 0 0 1
10.830077 23.057803 21.080582 33.065750 1.131687 0.879502 0.174742 -0.047380 116419.000000 0 0 1
11.030977 23.007903 19.704982 32.238678 1.123729 0.913193 0.170802 -0.044751 -421692.000000 0 0 1
10.506277 24.242303 18.924282 32.499224 1.161844 0.949242 0.143722 -0.044254 297067.000000 0 0 1
9.121177 24.482103 18.753282 32.159833 1.214162 0.948223 0.146952 -0.052920 -66045.600000 0 0 1
8.532077 25.102503 19.902282 33.151664 1.243157 0.926870 0.144946 -0.056162 -134937.000000 0 0 1
7.068677 25.432003 19.540682 32.841913 1.299695 0.933540 0.137325 -0.050474 -75741.100000 0 0 1
7.056177 26.418803 18.587482 33.064139 1.309799 0.973796 0.130614 -0.055089 -568268.000000 0 0 1
5.789277 26.774103 18.117082 32.842001 1.357848 0.986463 0.120412 -0.056632 -625070.000000 0 0 1
5.698077 27.917803 17.115382 33.238654 1.369460 1.029877 0.133779 -0.057992 -13569.900000 0 0 1
6.432077 27.627503 15.949882 32.543038 1.342057 1.058573 0.128666 -0.048832 -350358.000000 0 0 1
7.448077 28.555903 15.704282 33.429597 1.315656 1.081764 0.131329 -0.050920 71547.600000 0 0 1
8.445177 28.301403 14.526482 32.913662 1.280807 1.113692 0.114139 -0.050090 83204.400000 0 0 1
7.831577 28.246403 13.268282 32.175149 1.300331 1.145735 0.128779 -0.049074 -243755.000000 0 0 1
7.229877 26.978603 12.960882 30.791243 1.308963 1.136329 0.106466 -0.049124 -276264.000000 0 0 1
6.530977 27.087603 11.610482 30.186010 1.334206 1.175988 0.105238 -0.052137 -589812.000000 0 0 1
7.208677 27.399803 10.382982 30.174833 1.313534 1.219523 0.087852 -0.041059 -72087.000000 0 0 1
7.432177 28.742503 10.303382 31.424965 1.317761 1.236746 0.101868 -0.043213 -86231.900000 0 0 1
7.618277 29.288703 8.859682 31.533478 1.316325 1.286001 0.098038 -0.028759 399404.000000 0 0 1
6.386577 29.247803 8.131282 31.021607 1.355810 1.305581 0.085486 -0.036630 466209.000000 0 0 1
6.240877 28.031403 7.398282 29.655399 1.351730 1.318658 0.075487 -0.029958 -1675430.000000 0 0 1
4.800177 27.782003 7.128782 29.080938 1.399705 1.323136 0.094829 -0.035534 -1690560.000000 0 0 1
4.225677 28.607003 6.113282 29.556543 1.424142 1.362459 0.094119 -0.024358 1308540.000000 0 0 1
2.901177 29.014103 6.591082 29.894437 1.471136 1.348491 0.101282 -0.014889 1138730.000000 0 0 1
2.103577 29.849903 5.605382 30.444410 1.500441 1.385621 0.111248 -0.023850 -149368.000000 0 0 1
1.448477 29.138403 4.559782 29.528567 1.521127 1.415757 0.116783 -0.018162 165737.000000 0 0 1
0.564877 29.981103 3.826782 30.229620 1.551957 1.443865 0.118932 -0.024366 -35080.100000 0 0 1
-0.141523 29.196903 2.740982 29.325623 -1.565949 1.477193 0.102288 -0.027878 -121756.000000 0 0 1
0.722577 28.638003 1.747282 28.700355 1.545570 1.509879 0.104064 -0.023398 78573.600000 0 0 1
0.066777 27.648203 0.978182 27.665582 1.568381 1.535432 0.111702 -0.030166 12319.100000 0 0 1
-0.221023 28.056503 -0.483318 28.061536 -1.562919 1.588021 0.088962 -0.024239 -802522.000000 0 0 1
-1.342723 28.843403 -0.623818 28.881378 -1.524278 1.592397 0.098993 -0.029138 -1031810.000000 0 0 1
-1.272323 29.597503 -1.810318 29.680099 -1.527835 1.631829 0.104695 -0.031363 148281.000000 0 0 1
-2.528723 30.479903 -2.084318 30.655560 -1.488022 1.638840 0.133378 -0.026000 593656.000000 0 0 1
-3.762923 29.866403 -2.404818 30.198424 -1.445465 1.650515 0.121765 -0.034042 53218.100000 0 0 1
-3.772523 29.213603 -3.671118 29.684064 -1.442371 1.694787 0.114655 -0.038411 -1656000.000000 0 0 1
-5.076123 28.755303 -4.278618 29.511711 -1.396068 1.716289 0.135353 -0.032383 -847151.000000 0 0 1
-5.738723 29.858203 -4.892018 30.795732 -1.380913 1.730326 0.136504 -0.036449 487463.000000 0 0 1
-6.604323 29.497803 -5.988718 30.815617 -1.350537 1.766381 0.132711 -0.042707 383160.000000 0 0 1
-7.180023 30.692403 -6.818218 32.250030 -1.340994 1.783821 0.132626 -0.034925 40511.200000 0 0 1
-8.263323 31.243103 -6.096318 32.887370 -1.312232 1.757244 0.119680 -0.030710 -227123.000000 0 0 1
-8.608623 32.429303 -6.821618 34.238904 -1.311323 1.771374 0.104974 -0.042909 -803168.000000 0 0 1
-9.754523 33.240403 -6.277418 35.206265 -1.285356 1.750059 0.102260 -0.029978 -539725.000000 0 0 1
-11.003023 32.642403 -6.505518 35.055881 -1.245680 1.757454 0.106108 -0.031130 -547830.000000 0 0 1
-11.995723 33.227703 -5.673318 35.779382 -1.224342 1.730032 0.110995 -0.033422 833437.000000 0 0 1
-13.432323 32.645303 -5.875718 35.786411 -1.180448 1.735732 0.140366 -0.032980 491527.000000 0 0 1
-14.006723 33.088403 -7.064618 36.618841 -1.170356 1.764937 0.108234 -0.026987 -529571.000000 0 0 1
-15.350423 32.687903 -7.139918 36.811859 -1.131759 1.765990 0.130751 -0.025365 -432698.000000 0 0 1
-15.987523 33.058703 -8.502818 37.693191 -1.120346 1.798334 0.168768 -0.030309 -252960.000000 0 0 1
-17.315723 32.628103 -8.568718 37.918997 -1.082892 1.798739 0.233827 -0.029714 -123653.000000 0 0 1
-18.278123 33.661003 -8.460118 39.226605 -1.073339 1.788177 0.233129 -0.032802 -236045.000000 0 0 1
-19.760023 33.237603 -8.424718 39.574899 -1.034425 1.785318 0.244333 -0.026237 205177.000000 0 0 1
-20.388823 32.727203 -7.239318 39.232406 -1.013641 1.756384 0.222312 -0.023372 289313.000000 0 0 1
-20.679323 -33.650156 -6.302318 39.996083 1.019755 1.729029 0.193456 -0.034459 -132776.000000 0 0 1
-21.626023 33.330503 -5.159218 40.065257 -0.995240 1.699925 0.200526 -0.032752 -217308.000000 0 0 1
-21.373023 -33.235856 -4.102018 39.727255 0.999307 1.674235 0.183169 -0.039103 -383613.000000 0 0 1
-22.273723 -33.365356 -3.080718 40.235017 0.982168 1.647439 0.184890 -0.034097 -904486.000000 0 0 1
-23.522823 -32.491256 -3.134618 40.234696 0.944161 1.648784 0.218764 -0.053671 -499974.000000 0 0 1
-24.323323 -32.788156 -4.229618 41.043597 0.932543 1.674031 0.229026 -0.061908 -906122.000000 0 0 1
-25.325613 -31.888256 -4.512418 40.970837 0.899603 1.681158 0.227324 -0.079463 -712180.000000 0 0 1
-25.921363 -32.001356 -5.885818 41.601042 0.889983 1.712755 0.265289 -0.062092 -117821.000000 0 0 1
-25.032493 -31.518356 -6.890718 40.835211 0.899590 1.740352 0.279973 -0.043321 -8374.170000 0 0 1
-25.224493 -31.934156 -8.246818 41.521987 0.902250 1.770739 0.243171 -0.041644 -284344.000000 0 0 1
-26.455403 -31.417356 -9.037918 42.054995 0.870928 1.787393 0.209378 -0.031405 -698760.000000 0 0 1
-27.625063 -32.032156 -8.552918 43.155018 0.859138 1.770308 0.207601 -0.029822 1053880.000000 0 0 1
-28.897463 -31.518556 -9.058618 43.709739 0.828755 1.779554 0.117192 -0.019117 1536240.000000 0 0 1
-29.235373 -30.013956 -8.802418 42.813866 0.798538 1.777870 0.088545 -0.005342 -667251.000000 0 0 1
-28.463323 -28.984256 -9.445218 41.706834 0.794466 1.799245 0.113079 -0.009696 122386.000000 0 0 1
-28.891533 -28.809456 -10.802718 42.206684 0.783976 1.829625 0.088555 0.002174 -301056.000000 0 0 1
-27.912573 -28.088356 -11.713718 41.295020 0.788537 1.858404 0.162891 -0.002306 -468885.000000 0 0 1
-26.732613 -28.772156 -12.050418 41.081409 0.822127 1.868505 0.161532 -0.014503 -284662.000000 0 0 1
-25.925313 -27.920756 -12.866018 40.214735 0.822440 1.896455 0.154405 -0.021283 476776.000000 0 0 1
-24.537123 -28.547256 -13.208418 39.893340 0.860798 1.908258 0.178300 -0.031880 438435.000000 0 0 1
-24.692723 -29.709956 -14.029518 41.100358 0.877362 1.919147 0.193724 -0.040610 -154733.000000 0 0 1
-24.832123 -30.865656 -13.192418 41.753598 0.893304 1.892263 0.183560 -0.040067 -141061.000000 0 0 1
-24.807123 -32.188156 -14.003918 42.983491 0.914184 1.902652 0.193085 -0.028240 -19332.600000 0 0 1
-25.033453 -33.369556 -13.231018 43.763694 0.927175 1.877931 0.177118 -0.034819 -13177.200000 0 0 1
-24.910123 32.881503 -13.987418 43.558643 -0.922466 1.897705 0.170991 -0.031204 -204951.000000 0 0 1
-25.217583 31.650703 -13.153918 42.552545 -0.898042 1.885066 0.143216 -0.033554 -192930.000000 0 0 1
-24.379923 31.193503 -12.115418 41.402882 -0.907394 1.867765 0.141616 -0.031719 -21238.100000 0 0 1
-24.318023 32.187503 -11.084318 41.836153 -0.923777 1.838944 0.204943 -0.025415 -251942.000000 0 0 1
-23.698123 31.853803 -9.755918 40.883294 -0.931169 1.811750 0.209926 -0.022450 -216562.000000 0 0 1
-24.356823 30.798903 -9.120518 40.311427 -0.901669 1.799024 0.190102 -0.022440 177660.000000 0 0 1
-23.776123 30.569203 -7.820118 39.508663 -0.909752 1.770046 0.174927 -0.025809 102553.000000 0 0 1
-24.620923 29.627703 -6.959218 39.146154 -0.877431 1.749522 0.159264 -0.022675 -17105.100000 0 0 1
-24.814923 28.432403 -7.740318 38.523947 -0.853231 1.773096 0.154205 -0.003346 -190056.000000 0 0 1
-25.453113 27.380303 -7.097418 38.051482 -0.821859 1.758417 0.132388 -0.007325 -210448.000000 0 0 1
-24.562523 26.195603 -6.575718 36.507085 -0.817561 1.751907 0.133206 -0.016595 -184379.000000 0 0 1
-23.613323 26.677803 -5.687118 36.078214 -0.846258 1.729090 0.148157 -0.011790 -386467.000000 0 0 1
-22.793823 25.654203 -5.134518 34.699565 -0.844370 1.719312 0.127591 -0.019483 407135.000000 0 0 1
-21.415323 26.245703 -4.666318 34.193969 -0.886402 1.707690 0.114302 -0.032986 597024.000000 0 0 1
-20.496123 26.292203 -5.745318 33.828681 -0.908649 1.741459 0.137064 -0.034615 -452084.000000 0 0 1
-19.400823 27.123803 -5.553818 33.807359 -0.949896 1.735823 0.127471 -0.036680 318595.000000 0 0 1
-18.378323 27.174203 -6.772818 33.497330 -0.976144 1.774390 0.142192 -0.039831 359840.000000 0 0 1
-18.767923 27.819103 -7.975118 34.492607 -0.977293 1.804120 0.151636 -0.040223 -55745.500000 0 0 1
-18.692723 29.255403 -7.934018 35.612430 -1.002229 1.795470 0.164351 -0.030909 -91390.700000 0 0 1
-18.637723 29.845103 -9.331818 36.402991 -1.012570 1.830038 0.165699 -0.023508 6088.300000 0 0 1
-17.409423 29.636903 -10.002518 35.797827 -1.039675 1.853983 0.152518 -0.037634 -23178.000000 0 0 1
-17.366023 30.442103 -11.177118 36.786252 -1.052380 1.879516 0.157121 -0.037760 213950.000000 0 0 1
-15.960223 30.472103 -11.855518 36.384490 -1.088318 1.902696 0.141536 -0.041930 411745.000000 0 0 1
-15.821723 30.967203 -13.189618 37.192212 -1.098452 1.933319 0.135429 -0.032753 -110482.000000 0 0 1
-16.359223 30.067803 -14.139318 37.035352 -1.072511 1.962517 0.146157 -0.040219 -104924.000000 0 0 1
-16.015223 30.512803 -15.569918 37.814559 -1.087452 1.995163 0.177455 -0.032210 517976.000000 0 0 1
-14.637423 30.282803 -15.870618 37.191112 -1.120551 2.011672 0.158235 -0.064118 387125.000000 0 0 1
-14.357223 30.849603 -17.117118 38.089678 -1.135215 2.036879 0.131956 -0.058847 -1675230.000000 0 0 1
-12.935223 31.255603 -17.175918 37.937381 -1.178405 2.040637 0.162012 -0.061714 -1735530.000000 0 0 1
-12.121223 30.261303 -17.742618 37.114297 -1.189814 2.069234 0.178510 -0.064473 -299039.000000 0 0 1
-10.792423 30.712803 -17.916018 37.158261 -1.232876 2.073908 0.177010 -0.065822 223598.000000 0 0 1
-10.413123 30.898103 -19.377618 37.929118 -1.245736 2.107016 0.194172 -0.074071 -429795.000000 0 0 1
-10.133223 29.640203 -19.943918 37.134670 -1.241379 2.137756 0.177684 -0.075308 -266983.000000 0 0 1
-10.615023 29.456703 -21.250118 37.841031 -1.224922 2.167070 0.173309 -0.080260 -101244.000000 0 0 1
-12.103323 29.056603 -21.313318 38.013605 -1.176111 2.165998 0.153632 -0.070318 -150952.000000 0 0 1
-12.970523 30.181903 -21.328818 39.167592 -1.164913 2.146652 0.155141 -0.062384 141482.000000 0 0 1
-14.302423 29.876203 -20.930018 39.181788 -1.124315 2.134330 0.151502 -0.064538 522919.000000 0 0 1
-15.242523 31.080503 -21.173418 40.578884 -1.114841 2.119737 0.198841 -0.066712 -151797.000000 0 0 1
-15.540423 31.287903 -22.526818 41.567958 -1.109799 2.143525 0.142386 -0.054298 -320750.000000 0 0 1
-16.309123 32.487203 -22.585418 42.796109 -1.105537 2.126739 0.122683 -0.046278 316591.000000 0 0 1
-16.807123 32.782903 -24.027218 43.983012 -1.097057 2.148718 0.102289 -0.027925 64202.600000 0 0 1
-15.705823 33.058303 -24.866718 44.247915 -1.127271 2.167581 0.125935 -0.032428 -82982.000000 0 0 1
-15.908723 32.979603 -26.273918 45.067288 -1.121343 2.193204 0.131017 -0.026824 78810.400000 0 0 1
-16.753923 -33.276556 -26.847718 45.921924 1.104372 2.195231 0.108143 -0.016439 823147.000000 0 0 1
-18.119923 -33.080956 -26.479918 46.085435 1.069686 2.182891 0.104057 -0.015032 339889.000000 0 0 1
-18.710423 -32.198956 -27.405918 46.237831 1.044399 2.205224 0.082698 -0.005419 -533885.000000 0 0 1
-20.176123 -31.904556 -27.108818 46.474344 1.006900 2.193591 0.092931 -0.018864 -590653.000000 0 0 1
-21.089523 -32.924756 -27.415518 47.753724 1.001102 2.182304 0.099312 -0.012502 -1694710.000000 0 0 1
-22.336423 -32.351856 -27.312418 47.869892 0.966528 2.177978 0.086818 -0.007929 -989732.000000 0 0 1
-23.458223 -33.401056 -27.366718 49.141185 0.958515 2.161445 0.075283 -0.005285 -132172.000000 0 0 1
-23.665723 33.334603 -26.129018 48.517912 -0.953427 2.139504 0.090240 -0.010799 353507.000000 0 0 1
-24.765223 32.381603 -26.150618 48.432833 -0.917895 2.141157 0.070631 -0.011889 943462.000000 0 0 1
-24.475123 30.974503 -26.801118 47.715316 -0.902078 2.167221 0.072936 -0.010464 152053.000000 0 0 1
-23.640123 30.064203 -26.105418 46.305557 -0.904452 2.169733 0.070515 -0.030190 22423.400000 0 0 1
-24.372123 29.268603 -25.188518 45.663037 -0.876429 2.155098 0.051463 -0.025289 -43669.800000 0 0 1
33.251655 9.983403 -26.108354 43.439465 0.291675 2.215584 0.103620 -0.010304 22535.900000 0 0 1
32.726595 8.723103 -25.788544 42.569609 0.260489 2.221564 0.095668 -0.008175 623181.000000 0 0 1
31.323565 8.535003 -25.984994 41.584035 0.266021 2.245773 0.104419 -0.013655 655935.000000 0 0 1
30.846765 7.107203 -25.666874 40.753205 0.226452 2.252108 0.084608 -0.004866 -40162.500000 0 0 1
30.965065 6.797403 -24.291794 39.939094 0.216091 2.224614 0.081318 0.005595 17095.300000 0 0 1
30.374065 5.543603 -24.063094 39.145216 0.180524 2.232819 0.084006 0.004566 -14549.500000 0 0 1
30.303865 5.175003 -22.599094 38.155262 0.169139 2.204698 0.083790 -0.008072 -43586.100000 0 0 1
31.516785 4.812503 -21.980494 38.724799 0.151526 2.174394 0.106824 -0.014810 105632.000000 0 0 1
31.301065 4.548503 -20.590494 37.741410 0.144305 2.147863 0.100549 -0.014849 79798.800000 0 0 1
32.618975 4.487403 -19.775294 38.408288 0.136712 2.111653 0.101119 -0.017509 -57846.500000 0 0 1
33.288615 3.279203 -19.903994 38.923696 0.098191 2.107562 0.115913 -0.012852 455772.000000 0 0 1
34.250675 3.051703 -18.861494 39.219608 0.088864 2.072500 0.118543 -0.018553 302845.000000 0 0 1
34.915065 1.660403 -18.852094 39.714232 0.047520 2.065412 0.128420 -0.019301 -130817.000000 0 0 1
33.952665 0.695903 -18.571094 38.705986 0.020493 2.071222 0.121898 -0.010628 24606.900000 0 0 1
34.554015 -0.558597 -18.230694 39.072372 -0.016164 2.056225 0.144155 -0.015071 -38393.200000 0 0 1
33.551685 -1.618397 -17.786194 38.008993 -0.048199 2.057763 0.129396 -0.009270 -81899.700000 0 0 1
33.310195 -1.653997 -16.419494 37.173978 -0.049614 2.028281 0.145194 -0.023959 -571032.000000 0 0 1
31.928405 -1.732997 -16.250194 35.867746 -0.054224 2.040990 0.132389 -0.020804 -571822.000000 0 0 1
31.365865 -2.117797 -14.897994 34.788688 -0.067417 2.013343 0.146436 -0.026406 -275693.000000 0 0 1
31.280065 -3.472497 -14.542694 34.669737 -0.110560 2.003651 0.135539 -0.025754 120306.000000 0 0 1
30.515365 -3.658797 -13.372594 33.517169 -0.119330 1.981198 0.125494 -0.026458 -18863.800000 0 0 1
30.189665 -5.115997 -13.024494 33.275017 -0.167867 1.972970 0.129699 -0.026608 277073.000000 0 0 1
29.499365 -5.816997 -14.083994 33.202544 -0.194693 2.008857 0.117496 -0.030109 482150.000000 0 0 1
29.255465 -7.177197 -13.667894 33.078781 -0.240577 1.996753 0.130555 -0.027076 -96761.300000 0 0 1
28.628965 -8.042597 -14.801494 33.217243 -0.273866 2.032637 0.084946 -0.013387 135441.000000 0 0 1
27.302065 -7.629297 -15.067594 32.103603 -0.272490 2.059343 0.074593 -0.006818 -52325.800000 0 0 1
26.753465 -8.342597 -16.155694 32.347385 -0.302277 2.093753 0.069486 -0.009735 92917.100000 0 0 1
25.280565 -7.955597 -16.410894 31.172359 -0.304881 2.125224 0.069421 -0.008686 -338792.000000 0 0 1
25.040465 -6.658297 -16.976694 30.976862 -0.259888 2.150821 0.065331 -0.006625 260224.000000 0 0 1
23.785965 -6.609597 -17.655094 30.350639 -0.271040 2.191619 0.087725 -0.018309 401244.000000 0 0 1
23.776065 -7.119797 -19.159394 31.354030 -0.290954 2.228203 0.050243 -0.010298 -6948.110000 0 0 1
24.656965 -6.348097 -19.964694 32.355112 -0.251984 2.235784 0.047346 -0.009037 416070.000000 0 0 1
24.691065 -6.978197 -21.256294 33.319274 -0.275437 2.262640 0.059444 -0.018733 -9336.760000 0 0 1
25.193265 -5.969697 -22.338194 34.195509 -0.232665 2.282664 0.070231 -0.020199 -31670.400000 0 0 1
25.192465 -6.384697 -23.662794 35.147582 -0.248211 2.309380 0.088370 -0.031890 211942.000000 0 0 1
25.009165 -5.295397 -24.567894 35.455338 -0.208656 2.336334 0.083607 -0.026061 -103375.000000 0 0 1
25.061565 -5.730797 -26.069764 36.613614 -0.224804 2.363173 0.103552 -0.028650 395432.000000 0 0 1
23.772465 -6.090497 -26.569434 36.168482 -0.250805 2.395876 0.096690 -0.024566 337945.000000 0 0 1
23.697065 -6.237897 -27.979624 37.193032 -0.257396 2.422314 0.108607 -0.026800 196125.000000 0 0 1
22.349365 -6.845597 -28.426734 36.802657 -0.297226 2.453423 0.102142 -0.025279 209225.000000 0 0 1
22.268665 -8.210797 -28.035454 36.732783 -0.353249 2.439089 0.103114 -0.026431 58954.400000 0 0 1
20.962065 -8.723697 -28.110744 36.134817 -0.394364 2.462178 0.109200 -0.033792 -240513.000000 0 0 1
20.896865 -10.259697 -27.825774 36.279665 -0.456396 2.444918 0.123069 -0.031320 31149.700000 0 0 1
19.583065 -10.769297 -27.632264 35.538940 -0.502789 2.461510 0.130979 -0.023502 437510.000000 0 0 1
19.597965 -12.021897 -26.978024 35.446016 -0.550233 2.435806 0.132512 -0.031948 -280365.000000 0 0 1
19.585665 -13.278397 -27.900424 36.583436 -0.595784 2.438199 0.119002 -0.032811 77013.800000 0 0 1
18.413165 -13.526597 -28.665434 36.656795 -0.633582 2.468657 0.115480 -0.029092 400265.000000 0 0 1
18.631565 -14.573197 -29.520404 37.828132 -0.663779 2.466073 0.090034 -0.027443 -856538.000000 0 0 1
17.491165 -14.861497 -30.471024 38.148241 -0.704295 2.496016 0.081318 -0.030059 -740747.000000 0 0 1
16.414765 -15.459897 -29.775614 37.350236 -0.755450 2.493440 0.080158 -0.031267 251387.000000 0 0 1
15.399565 -15.857497 -30.693024 37.824180 -0.800048 2.517452 0.079445 -0.032468 208248.000000 0 0 1
14.153865 -16.478197 -30.004604 37.042397 -0.861132 2.514961 0.085508 -0.038051 91887.300000 0 0 1
14.469365 -17.616097 -29.252984 37.086743 -0.883159 2.479605 0.081320 -0.032572 -627775.000000 0 0 1
13.508865 -17.899897 -28.316734 36.121091 -0.924301 2.471782 0.074681 -0.033644 -575196.000000 0 0 1
13.800465 -19.173597 -27.495254 36.250085 -0.946929 2.431786 0.070934 -0.030604 -136986.000000 0 0 1
14.740465 -19.057997 -26.473514 35.795747 -0.912453 2.403230 0.082673 -0.030842 -328473.000000 0 0 1
14.909665 -20.269197 -25.751754 36.004046 -0.936586 2.367773 0.073975 -0.023239 -739428.000000 0 0 1
15.925865 -20.217397 -24.632294 35.624798 -0.903582 2.334272 0.063791 -0.016079 -686647.000000 0 0 1
17.230865 -20.164097 -25.173314 36.567599 -0.863677 2.330084 0.078646 -0.020845 -205711.000000 0 0 1
18.146565 -20.190097 -24.111394 36.308362 -0.838653 2.297049 0.078821 -0.019197 -35770.900000 0 0 1
19.585765 -20.673497 -24.485094 37.556831 -0.812410 2.280947 0.045142 -0.013046 215505.000000 0 0 1
19.739265 -21.996197 -24.972894 38.692593 -0.839423 2.272367 0.069652 -0.025871 76824.800000 0 0 1
19.510365 -22.991497 -24.029694 38.557613 -0.867121 2.243644 0.071019 -0.037733 -825331.000000 0 0 1
20.231265 -24.320897 -24.280294 39.879102 -0.876936 2.225403 0.064080 -0.035939 -265489.000000 0 0 1
21.616865 -24.263997 -23.970094 40.380637 -0.843030 2.206326 0.070937 -0.040647 374159.000000 0 0 1
22.103965 -25.528707 -23.567494 41.179205 -0.857174 2.180123 0.093496 -0.056287 -159349.000000 0 0 1
22.015365 -25.857537 -22.064994 40.498796 -0.865484 2.146984 0.111527 -0.059370 -17260.400000 0 0 1
20.703865 -26.014947 -21.534294 39.612540 -0.898594 2.145544 0.085978 -0.050222 561660.000000 0 0 1
20.858865 -26.211307 -20.109994 39.070919 -0.898624 2.111460 0.090241 -0.052477 924137.000000 0 0 1
19.536965 -26.703667 -19.389794 38.350267 -0.939162 2.100871 0.086851 -0.042011 335182.000000 0 0 1
19.297365 -28.079107 -19.754894 39.383758 -0.968679 2.096244 0.090564 -0.043772 -49082.100000 0 0 1
18.290565 -28.717017 -19.015594 38.997496 -1.003668 2.080147 0.086969 -0.033827 185373.000000 0 0 1
16.803765 -28.349547 -19.200494 38.140822 -1.035736 2.098338 0.074850 -0.036601 -239637.000000 0 0 1
16.281865 -27.087317 -18.724594 36.734620 -1.029577 2.105663 0.071087 -0.037856 -94786.800000 0 0 1
15.006165 -26.948437 -19.334894 36.403865 -1.062711 2.130721 0.075851 -0.026860 431603.000000 0 0 1
14.028365 -26.017237 -18.536394 34.889677 -1.076286 2.130914 0.064996 -0.035385 -295830.000000 0 0 1
13.427465 -26.687937 -17.456794 34.601770 -1.104649 2.099606 0.069812 -0.036950 -148842.000000 0 0 1
12.565365 -25.756977 -16.802194 33.220837 -1.116921 2.101074 0.079144 -0.042463 1301830.000000 0 0 1
11.034565 -25.835297 -17.242094 32.962312 -1.167138 2.121263 0.098996 -0.039594 375350.000000 0 0 1
10.376965 -26.765687 -16.435394 33.078778 -1.200941 2.090769 0.102736 -0.031706 -1405160.000000 0 0 1
9.029865 -26.510147 -16.334494 32.421321 -1.242503 2.098811 0.096059 -0.019465 -797514.000000 0 0 1
8.100065 -27.286447 -17.274194 33.295030 -1.282229 2.116269 0.098538 -0.007530 -140503.000000 0 0 1
8.274765 -26.806757 -18.563894 33.640632 -1.271393 2.155353 0.107144 -0.011339 -384603.000000 0 0 1
7.297365 -27.433817 -19.352894 34.356955 -1.310817 2.169157 0.105131 -0.006269 1602.320000 0 0 1
7.262865 -26.994077 -20.822994 34.857230 -1.307966 2.211026 0.098288 -0.015663 -166796.000000 0 0 1
6.693965 -25.734737 -21.047694 33.912996 -1.316321 2.240352 0.108088 -0.020064 44960.900000 0 0 1
6.594865 -25.441837 -22.450094 34.565677 -1.317165 2.277711 0.090382 -0.015988 454861.000000 0 0 1
5.249765 -24.761397 -22.907494 34.138543 -1.361876 2.306374 0.067268 -0.018140 -105926.000000 0 0 1
4.261965 -25.683977 -23.160094 34.845674 -1.406356 2.297818 0.061509 -0.014004 -874621.000000 0 0 1
3.135265 -24.988697 -23.654294 34.551273 -1.445981 2.324871 0.065429 -0.014451 156220.000000 0 0 1
2.064665 -25.925967 -24.270494 35.573522 -1.491327 2.321650 0.046708 -0.022036 -112829.000000 0 0 1
2.522465 -26.699677 -25.312684 36.877738 -1.476600 2.327316 0.048320 -0.023337 -238982.000000 0 0 1
1.516265 -27.426237 -26.001604 37.823021 -1.515567 2.328774 0.077228 -0.038246 -144755.000000 0 0 1
2.067865 -28.436337 -27.003954 39.269770 -1.498205 2.329047 0.067316 -0.035364 -559650.000000 0 0 1
2.480465 -27.852877 -28.267384 39.761545 -1.481975 2.361606 0.053245 -0.029519 -120178.000000 0 0 1
3.230665 -28.701377 -29.067834 40.977374 -1.458707 2.359390 0.071044 -0.039482 -659509.000000 0 0 1
4.695765 -28.931437 -28.738484 41.048492 -1.409893 2.346349 0.055567 -0.031655 -979297.000000 0 0 1
5.027065 -29.855247 -27.709224 41.041543 -1.403980 2.311965 0.053277 -0.044900 -559922.000000 0 0 1
6.165265 -30.584927 -28.032024 41.943326 -1.371883 2.302759 0.073128 -0.038297 -291687.000000 0 0 1
6.517565 -31.688747 -27.040344 42.164387 -1.367951 2.266998 0.103541 -0.050350 590631.000000 0 0 1
5.629565 -32.833457 -27.247624 43.036739 -1.400989 2.256380 0.099051 -0.061565 425074.000000 0 0 1
5.923365 33.442833 -26.478654 43.065398 1.395495 2.232989 0.115485 -0.068446 518752.000000 0 0 1
4.689065 32.517590 -26.091604 41.954175 1.427583 2.241972 0.135062 -0.077308 543625.000000 0 0 1
3.955265 32.140086 -27.248214 42.321324 1.448349 2.270304 0.132065 -0.076831 58197.400000 0 0 1
2.665565 31.666696 -26.903314 41.637402 1.486819 2.273304 0.084527 -0.070238 431146.000000 0 0 1
1.637565 31.930657 -28.063984 42.542164 1.519556 2.291182 0.106777 -0.065559 54242.500000 0 0 1
1.605365 30.993983 -29.109574 42.550811 1.519047 2.324184 0.130252 -0.071143 277009.000000 0 0 1
0.600765 31.360143 -30.049244 43.437042 1.551642 2.334759 0.139590 -0.071583 382436.000000 0 0 1
0.162065 30.224593 -31.048454 43.330807 1.565434 2.369632 0.130648 -0.055966 -76631.100000 0 0 1
1.262465 29.842033 -31.836104 43.654076 1.528517 2.388067 0.136085 -0.050539 -83962.100000 0 0 1
0.901565 29.215573 -33.047904 44.119458 1.539947 2.417431 0.155620 -0.050724 -560822.000000 0 0 1
2.150765 28.905913 33.503002 44.301566 1.496527 0.713236 0.149283 -0.044475 -333773.000000 0 0 1
2.750365 29.943673 32.730112 44.446016 1.479202 0.743060 0.142407 -0.042599 -115470.000000 0 0 1
3.877265 29.497363 32.032387 43.717290 1.440101 0.748491 0.126678 -0.047950 -658909.000000 0 0 1
3.566365 28.682553 30.774362 42.219299 1.447092 0.754058 0.125935 -0.029534 -228863.000000 0 0 1
3.011265 27.355203 30.741982 41.260687 1.461158 0.730161 0.142007 -0.037307 678994.000000 0 0 1
3.952065 26.353013 31.201552 41.032146 1.421939 0.706841 0.140850 -0.029491 294795.000000 0 0 1
3.350165 25.033173 31.756951 40.575698 1.437758 0.671869 0.148501 -0.033389 -182932.000000 0 0 1
2.555165 24.403773 30.790022 39.371290 1.466473 0.672860 0.154585 -0.022401 -12733.900000 0 0 1
2.558565 23.024793 31.012042 38.709613 1.460128 0.641589 0.143674 -0.011540 -180970.000000 0 0 1
1.808165 22.218763 29.947372 37.333470 1.489595 0.639894 0.136528 0.002012 -224573.000000 0 0 1
0.421565 22.212363 30.170352 37.467545 1.551820 0.634717 0.109334 -0.003499 -431526.000000 0 0 1
-0.292035 21.750963 29.053372 36.294464 -1.557371 0.642683 0.112424 0.001680 103063.000000 0 0 1
-1.752835 21.351963 29.351032 36.338159 -1.488888 0.630523 0.097171 -0.000180 -85308.200000 0 0 1
-2.646635 22.374663 29.677932 37.261372 -1.453056 0.649345 0.103785 -0.005764 72970.400000 0 0 1
-3.936735 21.916963 30.023662 37.380094 -1.393071 0.638150 0.076749 -0.010579 340477.000000 0 0 1
-4.967135 23.058223 30.202412 38.321531 -1.358622 0.663029 0.051351 -0.017027 112072.000000 0 0 1
-4.806235 23.482753 31.540729 39.615113 -1.368914 0.649842 0.065820 -0.018694 489713.000000 0 0 1
-5.713635 24.540153 31.888139 40.641335 -1.342044 0.668708 0.055397 -0.022603 360656.000000 0 0 1
-5.652235 24.995963 33.318032 42.033762 -1.348411 0.655654 0.091592 -0.023880 634222.000000 0 0 1
-6.809735 25.783313 33.656092 42.940473 -1.312579 0.670059 0.073810 -0.016336 658788.000000 0 0 1
-6.811335 26.074433 -32.275864 42.047613 -1.315280 2.445889 0.088403 -0.015656 453846.000000 0 0 1
-8.159235 26.663573 -31.737954 42.247095 -1.273838 2.420744 0.090719 -0.014029 303381.000000 0 0 1
-8.583635 27.840913 -32.394794 43.568543 -1.271733 2.409140 0.100318 -0.023289 534143.000000 0 0 1
-9.850735 28.374173 -31.979994 43.873121 -1.236643 2.387539 0.094896 -0.024807 695977.000000 0 0 1
-9.993535 28.928243 -30.515964 43.219649 -1.238172 2.354725 0.090474 -0.019554 -305490.000000 0 0 1
-9.324035 30.120253 -30.176004 43.643539 -1.270592 2.334249 0.104007 -0.022298 93713.200000 0 0 1
-9.492535 30.296043 -28.789874 42.858083 -1.267159 2.307364 0.104687 -0.021002 -143072.000000 0 0 1
-8.824335 31.573846 -28.299734 43.308794 -1.298268 2.282917 0.092280 -0.031587 -306249.000000 0 0 1
-7.431335 31.479892 -28.278154 42.963500 -1.338974 2.289209 0.107237 -0.040535 -164196.000000 0 0 1
-6.700335 32.612542 -27.736594 43.333487 -1.368163 2.265390 0.126138 -0.038877 1067560.000000 0 0 1
-5.149235 32.398919 -27.628124 42.889600 -1.413182 2.270732 0.160478 -0.047846 1062620.000000 0 0 1
-4.272235 33.488383 -27.267754 43.396477 -1.443908 2.250214 0.193026 -0.061408 317197.000000 0 0 1
-4.314035 -32.782777 -28.199494 43.457253 1.439954 2.276937 0.205040 -0.070052 -138600.000000 0 0 1
-3.352435 -33.088857 -29.403894 44.392570 1.469825 2.294762 0.193150 -0.063233 116064.000000 0 0 1
-3.883435 33.397391 -30.295934 45.258264 -1.455037 2.304199 0.177265 -0.057566 346204.000000 0 0 1
-4.870535 -33.601137 -31.252724 46.146411 1.426847 2.314817 0.188453 -0.047182 619095.000000 0 0 1
-4.224335 -32.873477 -32.476004 46.402600 1.442994 2.346018 0.138670 -0.046674 336600.000000 0 0 1
-3.688435 -31.559057 -32.131404 45.188558 1.454450 2.361789 0.150751 -0.059453 582591.000000 0 0 1
-2.764535 -31.118727 -33.131454 45.538018 1.482191 2.385549 0.134287 -0.062065 276783.000000 0 0 1
35.346045 17.503303 13.362582 41.644533 0.459799 1.244146 0.094138 -0.041325 -148470.000000 0 0 1
36.714895 17.209503 13.428582 42.713901 0.438323 1.250988 0.103151 -0.046736 -410189.000000 0 0 1
36.900765 15.853503 13.697082 42.433597 0.405782 1.242122 0.119340 -0.019308 -359600.000000 0 0 1
-37.987653 15.608103 13.778582 43.318864 -0.389844 1.247100 0.090061 -0.037724 117882.000000 0 0 1
-37.268143 15.402703 12.552482 42.234139 -0.391914 1.269025 0.096852 -0.029041 174461.000000 0 0 1
-37.521243 14.157903 11.959682 41.848822 -0.360812 1.280973 0.149962 -0.050457 -27687.500000 0 0 1
-36.237873 13.263103 11.988382 40.408101 -0.350858 1.269579 0.178059 -0.029790 495596.000000 0 0 1
-35.862724 12.659903 13.224982 40.265472 -0.339354 1.236140 0.152642 -0.029222 -152410.000000 0 0 1
-36.512743 11.472503 13.574582 40.608718 -0.304438 1.229958 0.155391 -0.031182 -287426.000000 0 0 1
-35.977493 10.938603 14.905282 40.449975 -0.295159 1.193416 0.184746 -0.046066 81387.200000 0 0 1
-36.235503 11.729603 16.049882 41.330303 -0.313060 1.171975 0.176193 -0.029608 -119821.000000 0 0 1
-35.339901 11.385603 17.054082 40.858074 -0.311674 1.140216 0.153547 -0.029451 -285830.000000 0 0 1
-35.205826 12.631903 17.988282 41.504137 -0.344494 1.122524 0.140272 -0.026009 -174898.000000 0 0 1
-36.381333 12.889903 18.702682 42.889874 -0.340500 1.119577 0.158548 -0.035644 78249.500000 0 0 1
-36.046503 13.493603 19.915482 43.336522 -0.358191 1.093303 0.153677 -0.035112 564357.000000 0 0 1
-37.377543 13.647503 20.717482 44.861443 -0.350086 1.090761 0.190169 -0.054903 453300.000000 0 0 1
-37.837703 12.375403 21.129382 45.069869 -0.316099 1.082849 0.155747 -0.037624 143158.000000 0 0 1
37.404355 12.449703 21.933082 45.112537 0.321307 1.063077 0.178610 -0.042893 47253.200000 0 0 1
37.106705 11.033403 22.468252 44.760093 0.289017 1.044921 0.163613 -0.039425 -182274.000000 0 0 1
38.119245 10.489503 23.292682 45.887423 0.268530 1.038394 0.140662 -0.028428 -75152.500000 0 0 1
38.030725 11.024903 24.611572 46.622034 0.282160 1.014675 0.150549 -0.028852 -1136560.000000 0 0 1
-37.143403 11.091803 25.516922 46.408768 -0.290191 0.988636 0.118808 -0.030385 41901.200000 0 0 1
-36.194863 12.130603 25.188162 45.734704 -0.323382 0.987540 0.107178 -0.031680 594025.000000 0 0 1
-35.249382 11.719103 24.193012 44.330104 -0.320967 0.993516 0.101873 -0.032174 395056.000000 0 0 1
-34.265907 12.947003 23.802632 43.684580 -0.361258 0.994556 0.104873 -0.032327 833499.000000 0 0 1
-33.449523 13.379503 24.886332 43.785970 -0.380499 0.966281 0.067320 -0.027713 105173.000000 0 0 1
-34.106318 14.143203 25.911632 45.107469 -0.393097 0.958874 0.071768 -0.030338 -695689.000000 0 0 1
-33.166593 14.730003 26.965782 45.212269 -0.417955 0.931755 0.070121 -0.022446 -52337.900000 0 0 1
-32.487983 15.899603 26.455372 44.812421 -0.455131 0.939294 0.090037 -0.025457 61592.400000 0 0 1
-32.125703 16.752403 27.496272 45.483500 -0.480671 0.921617 0.098430 -0.029135 -216311.000000 0 0 1
-31.484633 18.018503 26.979182 45.208681 -0.519799 0.931327 0.106710 -0.021996 -559407.000000 0 0 1
-32.380833 18.904703 26.371182 45.840434 -0.528440 0.957847 0.097407 -0.040823 101590.000000 0 0 1
-31.851033 20.225903 26.329512 46.008897 -0.565769 0.961525 0.104639 -0.045897 -74690.600000 0 0 1
-32.684883 21.271603 25.508532 46.599011 -0.576943 0.991536 0.122436 -0.030215 -679951.000000 0 0 1
-33.960538 21.421403 26.066832 47.871436 -0.562740 0.994983 0.118039 -0.033109 66229.400000 0 0 1
-34.819455 22.249703 25.291392 48.446860 -0.568605 1.021551 0.129684 -0.029268 23613.200000 0 0 1
-34.616508 23.799003 25.399722 49.090132 -0.602290 1.026975 0.132383 -0.034413 -139854.000000 0 0 1
-35.628415 24.482303 24.673142 49.774803 -0.602054 1.052161 0.134736 -0.032812 271502.000000 0 0 1
-35.304416 25.859403 24.556072 50.180785 -0.632187 1.059450 0.139606 -0.036752 236635.000000 0 0 1
-36.277613 26.665503 23.674282 50.868319 -0.633858 1.086706 0.146363 -0.034862 98323.000000 0 0 1
-36.161053 26.276503 22.326482 49.965470 -0.628390 1.107568 0.151933 -0.035478 34313.300000 0 0 1
-37.341313 26.644703 21.650782 50.725439 -0.619759 1.129820 0.147624 -0.041782 20579.200000 0 0 1
-37.417653 26.328003 20.090882 49.968871 -0.613155 1.157022 0.184487 -0.053537 23355.000000 0 0 1
-37.600563 24.937303 19.815482 49.278035 -0.585610 1.156970 0.165509 -0.047956 -84400.100000 0 0 1
-37.014943 24.603403 18.602982 48.181992 -0.586632 1.174398 0.171672 -0.053519 -325695.000000 0 0 1
-37.253623 23.177303 18.151982 47.481725 -0.556547 1.178519 0.177395 -0.044061 -391040.000000 0 0 1
37.884555 22.988403 17.602282 47.681721 0.545406 1.192689 0.148513 -0.044078 -499480.000000 0 0 1
38.003335 22.686003 16.176882 47.123240 0.538172 1.220380 0.140384 -0.038676 366188.000000 0 0 1
36.608045 22.536703 15.516082 45.703400 0.551827 1.224416 0.124543 -0.033433 861633.000000 0 0 1
35.774045 21.416003 15.867982 44.611886 0.539424 1.207145 0.135135 -0.042207 866037.000000 0 0 1
34.590945 21.354003 15.050782 43.348045 0.553064 1.216204 0.127960 -0.037981 824550.000000 0 0 1
33.406235 20.435903 15.548382 42.134960 0.549007 1.192849 0.129883 -0.043545 955108.000000 0 0 1
32.544865 21.015703 16.515882 42.114159 0.573379 1.167808 0.126823 -0.040929 466164.000000 0 0 1
31.569235 21.946403 16.037882 41.659031 0.607486 1.175610 0.133870 -0.033959 -163455.000000 0 0 1
30.796665 22.616003 17.165682 41.887693 0.633420 1.148559 0.123986 -0.031427 -277486.000000 0 0 1
31.635785 23.455703 17.893982 43.257225 0.637993 1.144321 0.062751 -0.026990 -559654.000000 0 0 1
30.962165 24.070303 18.933482 43.548960 0.660814 1.121021 0.066204 -0.010538 -10817.700000 0 0 1
31.857495 24.669703 20.059182 45.009611 0.658921 1.108880 0.051661 -0.018810 297638.000000 0 0 1
32.643805 25.792803 19.680982 46.024209 0.668693 1.128935 0.063485 -0.026622 685753.000000 0 0 1
33.572175 26.268803 20.660482 47.370840 0.663952 1.119488 0.063674 -0.025164 -337769.000000 0 0 1
34.433145 27.453503 20.285982 48.485641 0.673092 1.139123 0.096275 -0.041349 -294965.000000 0 0 1
35.475075 27.666303 21.231882 49.746338 0.662352 1.129842 0.093432 -0.036054 115754.000000 0 0 1
35.127825 28.253303 22.465842 50.367920 0.677357 1.108466 0.051756 -0.015855 -912376.000000 0 0 1
36.269745 28.252603 23.465402 51.617140 0.661778 1.098868 0.042238 -0.020323 -240500.000000 0 0 1
37.227545 29.286703 23.357852 52.812786 0.666575 1.112661 0.098814 -0.035468 5191.660000 0 0 1
37.895805 29.476303 24.604222 53.947310 0.661073 1.097212 0.110992 -0.028379 590777.000000 0 0 1
-37.310353 30.507703 24.582782 54.102639 -0.685425 1.099128 0.117495 -0.036873 1243950.000000 0 0 1
-36.115283 29.953203 24.018612 52.710547 -0.692399 1.097672 0.120727 -0.034206 -308111.000000 0 0 1
-35.040641 30.788103 24.221312 52.558784 -0.720888 1.091852 0.116575 -0.026564 481426.000000 0 0 1
-33.608113 30.195403 23.919782 51.121655 -0.731961 1.083884 0.147573 -0.033941 1033280.000000 0 0 1
-33.175423 30.292103 22.549302 50.266203 -0.740000 1.105601 0.126421 -0.024061 146461.000000 0 0 1
-33.406473 29.156503 21.684282 49.358912 -0.717571 1.115956 0.144771 -0.032372 -132542.000000 0 0 1
-32.796853 27.802903 22.180082 48.379655 -0.703175 1.094536 0.146824 -0.031430 -82545.600000 0 0 1
-31.391393 27.746603 21.989682 47.316378 -0.723844 1.087459 0.117246 -0.026702 81844.300000 0 0 1
-30.801523 26.560603 22.488742 46.475186 -0.711600 1.065705 0.118597 -0.034251 -276197.000000 0 0 1
-30.506953 26.565103 24.049782 47.061352 -0.716440 1.034413 0.122117 -0.023094 -766383.000000 0 0 1
-31.582103 26.747403 24.909252 48.304489 -0.702701 1.029005 0.120008 -0.024434 -348694.000000 0 0 1
-31.103063 27.016803 26.225812 48.837500 -0.715206 1.003918 0.133581 -0.038755 270162.000000 0 0 1
-32.311253 27.280503 27.159082 50.257921 -0.701178 0.999891 0.137555 -0.034374 321805.000000 0 0 1
-33.179043 26.155903 27.265422 50.283033 -0.667582 0.997697 0.120604 -0.035673 -189792.000000 0 0 1
-34.179065 26.486203 28.192772 51.619374 -0.659263 0.993015 0.112512 -0.035547 4550.250000 0 0 1
-34.978903 25.252203 28.673882 51.801438 -0.625291 0.984194 0.102776 -0.036655 259597.000000 0 0 1
-34.194635 24.444103 29.541422 51.375897 -0.620624 0.958185 0.096299 -0.049613 23421.400000 0 0 1
-34.924437 23.397403 30.126432 51.718050 -0.590268 0.948979 0.086492 -0.044067 -495491.000000 0 0 1
-34.161417 22.635803 31.183012 51.495264 -0.585191 0.920338 0.088261 -0.051134 -1108630.000000 0 0 1
-33.006853 22.129703 30.604382 50.157794 -0.590623 0.914531 0.098140 -0.041746 -720002.000000 0 0 1
-32.446093 21.097903 31.406185 49.841939 -0.576547 0.889094 0.088822 -0.042260 245238.000000 0 0 1
-31.510583 21.404103 32.643690 50.166353 -0.596675 0.862279 0.086008 -0.044537 -391828.000000 0 0 1
-32.091533 22.020003 -33.589564 51.410173 -0.601378 2.282816 0.104563 -0.046594 138695.000000 0 0 1
-31.333103 21.794303 -32.412134 50.072961 -0.607745 2.274831 0.086269 -0.039610 563267.000000 0 0 1
-30.092733 22.745403 -32.198294 49.594920 -0.647231 2.277362 0.101483 -0.038618 430634.000000 0 0 1
-30.393523 24.020303 -31.647004 50.022736 -0.668804 2.255770 0.093680 -0.039354 -241951.000000 0 0 1
-29.650533 24.263703 -30.507124 48.975157 -0.685814 2.243254 0.131618 -0.022594 -514425.000000 0 0 1
-29.939143 25.554203 -29.771284 49.352801 -0.706545 2.218346 0.098769 -0.024700 -503166.000000 0 0 1
-29.712653 26.731003 -30.460194 50.251485 -0.732622 2.222014 0.106695 -0.035880 -30621.300000 0 0 1
-30.675523 27.111903 -31.422634 51.608381 -0.723808 2.225428 0.080824 -0.032929 -111721.000000 0 0 1
-30.541843 28.642503 -31.713564 52.525682 -0.753317 2.219021 0.097690 -0.031146 75618.500000 0 0 1
-30.919993 29.485403 -30.606794 52.556739 -0.761653 2.192422 0.079598 -0.047780 108939.000000 0 0 1
-30.576733 30.830703 -30.856274 53.268926 -0.789534 2.188610 0.100201 -0.063988 -171265.000000 0 0 1
-30.802063 31.741103 -29.636754 53.240980 -0.800411 2.161148 0.094099 -0.045551 322255.000000 0 0 1
-29.777403 31.702603 -28.625414 52.068831 -0.816702 2.152874 0.075883 -0.037742 386619.000000 0 0 1
-30.048493 32.561503 -27.548644 52.173664 -0.825514 2.127062 0.047657 -0.024625 -713603.000000 0 0 1
-28.804823 32.649603 -26.641214 51.043792 -0.847880 2.119907 0.057264 -0.021620 631955.000000 0 0 1
-27.662443 33.314703 -27.212834 51.143118 -0.877829 2.131866 0.041928 -0.019289 488716.000000 0 0 1
-27.856483 -32.724056 -27.638454 51.095319 0.865575 2.142326 0.051758 -0.003987 -934951.000000 0 0 1
-28.101273 -31.726356 -26.494024 49.981762 0.845916 2.129484 0.050178 -0.003189 345813.000000 0 0 1
-29.481453 -31.707156 -26.162154 50.586146 0.821757 2.114349 0.041155 -0.013596 -73570.400000 0 0 1
-29.673653 -30.766056 -25.131364 49.584891 0.803470 2.102306 0.032525 -0.006674 -340145.000000 0 0 1
-31.165633 -30.509956 -24.960494 50.251173 0.774768 2.090606 0.006513 -0.011076 -505223.000000 0 0 1
-31.748863 -29.727156 -25.964124 50.654021 0.752524 2.108981 0.018318 -0.010541 -11646.300000 0 0 1
-33.112793 -29.498256 -25.664924 51.237608 0.727732 2.095435 0.031798 -0.012235 7766.450000 0 0 1
-33.806083 -28.893656 -26.954124 52.002110 0.707209 2.115690 0.050904 -0.013838 893047.000000 0 0 1
-35.195924 -28.629356 -26.654674 52.620003 0.682875 2.101975 0.070729 -0.024118 859228.000000 0 0 1
-35.765510 -27.987256 -27.775814 53.234895 0.663992 2.119709 0.071630 -0.024010 -629082.000000 0 0 1
-37.262203 -28.154756 -27.922874 54.413684 0.647066 2.109658 0.073282 -0.033628 -548848.000000 0 0 1
-38.074803 -27.513056 -26.958654 54.161129 0.625737 2.091798 0.089801 -0.029257 -757905.000000 0 0 1
36.997875 -27.646056 -27.349534 53.676291 -0.641728 2.105432 0.089185 -0.031201 -317402.000000 0 0 1
35.930385 -26.930756 -26.494004 52.136269 -0.643198 2.103853 0.096405 -0.025350 164288.000000 0 0 1
35.505605 -27.706256 -25.345744 51.678733 -0.662634 2.083400 0.100307 -0.023938 257085.000000 0 0 1
34.446215 -27.081656 -24.659694 50.279801 -0.666270 2.083402 0.104612 -0.024751 -34208.100000 0 0 1
34.043755 -27.642256 -23.352894 49.683290 -0.681993 2.060127 0.080557 -0.022277 -186181.000000 0 0 1
33.469455 -28.896756 -23.307394 49.984614 -0.712209 2.055890 0.106110 -0.028644 -268779.000000 0 0 1
33.039085 -29.310956 -22.058894 49.369101 -0.725676 2.033999 0.102276 -0.029648 -317190.000000 0 0 1
34.127245 -29.455656 -20.990494 49.728316 -0.712058 2.006561 0.091770 -0.026554 -782059.000000 0 0 1
35.109045 -30.407856 -21.253894 51.078477 -0.713766 1.999952 0.073197 -0.026205 349812.000000 0 0 1
36.048925 -30.665056 -20.192394 51.454869 -0.704872 1.974068 0.032016 -0.011009 780393.000000 0 0 1
37.293375 -29.755756 -20.074194 51.760740 -0.673449 1.969069 0.045913 -0.008487 -115467.000000 0 0 1
37.006355 -28.441656 -19.526794 50.593417 -0.655275 1.967039 0.046087 0.004002 -54462.200000 0 0 1
37.242295 -27.401656 -20.449694 50.557189 -0.634330 1.987213 0.040083 -0.001289 -128569.000000 0 0 1
36.438425 -26.113056 -20.166094 49.156098 -0.621803 1.993520 0.046882 -0.001942 384110.000000 0 0 1
35.149705 -26.163856 -20.763594 48.488927 -0.639878 2.013311 0.072300 -0.010711 99917.300000 0 0 1
34.410345 -24.979156 -20.489094 47.199927 -0.627911 2.019826 0.100509 -0.019179 410899.000000 0 0 1
33.091985 -24.897656 -21.321594 46.578785 -0.645021 2.046263 0.122115 -0.033906 -127820.000000 0 0 1
32.127635 -25.814556 -20.941594 46.229067 -0.676871 2.040920 0.139760 -0.035115 -425933.000000 0 0 1
30.837065 -25.261556 -21.121794 45.113203 -0.686336 2.058044 0.145068 -0.048245 -102149.000000 0 0 1
29.848365 -26.132256 -21.883194 45.306666 -0.719113 2.074876 0.140203 -0.055872 -565529.000000 0 0 1
29.395065 -27.180156 -21.048894 45.231479 -0.746268 2.054837 0.130037 -0.048061 54626.300000 0 0 1
29.059065 -28.358756 -21.782394 46.077338 -0.773202 2.063189 0.127966 -0.040991 115067.000000 0 0 1
28.555365 -29.445956 -20.763794 45.973997 -0.800752 2.039401 0.126505 -0.030185 876161.000000 0 0 1
29.626165 -29.984156 -19.950794 46.634681 -0.791404 2.012865 0.123618 -0.032267 748739.000000 0 0 1
30.154965 -31.260256 -20.356594 47.967870 -0.803393 2.009073 0.128834 -0.030099 285469.000000 0 0 1
31.070065 -31.807556 -19.224494 48.442242 -0.797127 1.978883 0.111446 -0.031797 154803.000000 0 0 1
30.458165 -32.358056 -18.060394 47.967922 -0.815634 1.956822 0.112462 -0.021075 -200084.000000 0 0 1
30.072665 -31.403656 -17.098994 46.721841 -0.807045 1.945476 0.103107 -0.027695 -121568.000000 0 0 1
29.372165 -32.001356 -15.903594 46.257272 -0.828211 1.921765 0.100868 -0.018648 1307180.000000 0 0 1
28.011365 -32.486956 -16.113794 45.822411 -0.859242 1.930137 0.118077 -0.025537 1309190.000000 0 0 1
27.523065 -33.156556 -14.944794 45.609464 -0.877973 1.904631 0.097534 -0.022966 918601.000000 0 0 1
25.969565 -33.436656 -14.988494 44.911950 -0.910438 1.911055 0.082113 -0.017299 1234540.000000 0 0 1
25.269765 -32.199556 -14.892694 43.556456 -0.905401 1.919752 0.075537 -0.011865 11322.000000 0 0 1
23.975065 -32.321556 -14.324294 42.716182 -0.932585 1.912759 0.088159 -0.014442 317150.000000 0 0 1
0.114277 -7.102297 -28.983354 29.841088 -1.554708 2.901251 0.171793 -0.044607 130043.000000 0 0 1
0.626777 -8.408097 -28.747884 29.958802 -1.496389 2.856304 0.170976 -0.036738 59055.100000 0 0 1
0.443077 -9.165697 -29.939584 31.314294 -1.522493 2.844186 0.204309 -0.050673 -118009.000000 0 0 1
0.778377 -10.606797 -29.546174 31.402013 -1.497543 2.796076 0.239903 -0.038381 -293845.000000 0 0 1
2.136677 -10.846297 -29.294154 31.310622 -1.376291 2.780745 0.128229 -0.044211 -360960.000000 0 0 1
2.288477 -12.144597 -28.685514 31.234390 -1.384544 2.734802 0.151347 -0.043431 -563393.000000 0 0 1
3.747777 -12.403697 -28.354114 31.174562 -1.277368 2.712942 0.113058 -0.034828 -988425.000000 0 0 1
4.574177 -12.469197 -29.517624 32.368103 -1.219200 2.718773 0.134035 -0.041758 1405310.000000 0 0 1
5.997977 -12.573297 -29.270474 32.416419 -1.125684 2.697387 0.098072 -0.038088 1501940.000000 0 0 1
6.498977 -13.934997 -28.643714 32.509740 -1.134406 2.648939 0.089097 -0.037581 -1106060.000000 0 0 1
6.070677 -14.303997 -27.348234 31.454465 -1.169430 2.624894 0.090685 -0.029611 -74009.600000 0 0 1
6.537577 -15.575097 -26.850474 31.721783 -1.173385 2.580053 0.089364 -0.028044 -20412.000000 0 0 1
5.997777 -16.890297 -27.498564 32.824176 -1.229584 2.563952 0.065585 -0.033036 -316399.000000 0 0 1
6.559177 -17.142297 -28.772454 34.128218 -1.205352 2.573761 0.088771 -0.048243 131924.000000 0 0 1
6.116377 -18.361497 -29.285134 35.102332 -1.249248 2.557620 0.075136 -0.040806 -331288.000000 0 0 1
6.517377 -18.711497 -30.730444 36.564416 -1.235629 2.568903 0.086109 -0.057625 -701956.000000 0 0 1
7.864777 -19.027997 -30.860684 37.098534 -1.178855 2.553242 0.075376 -0.049702 -619266.000000 0 0 1
8.114977 -19.917697 -31.904604 38.476893 -1.183905 2.548451 0.079920 -0.043694 -314485.000000 0 0 1
9.588277 -19.914797 -32.330064 39.163341 -1.122086 2.541917 0.089715 -0.040702 -264833.000000 0 0 1
9.923377 -18.682797 -32.954014 39.159767 -1.082540 2.570901 0.094236 -0.049044 -58620.200000 0 0 1
11.153377 -18.610697 -33.638894 40.029128 -1.030892 2.568744 0.097634 -0.046713 -209311.000000 0 0 1
11.489477 -17.217797 33.128501 39.063515 -0.982354 0.558469 0.100440 -0.044661 97571.000000 0 0 1
10.523077 -16.774597 32.167996 37.774359 -1.010529 0.551799 0.107305 -0.040107 299544.000000 0 0 1
10.588177 -15.379697 31.933842 36.992091 -0.967863 0.529101 0.107177 -0.032215 188480.000000 0 0 1
9.418677 -14.877997 31.044162 35.690422 -1.006421 0.515964 0.143371 -0.043958 214676.000000 0 0 1
9.675577 -15.206397 29.683402 34.726872 -1.004124 0.545694 0.153503 -0.042242 174955.000000 0 0 1
8.555677 -15.058097 28.836122 33.637298 -1.054104 0.540860 0.137725 -0.040911 -601001.000000 0 0 1
8.571377 -15.997097 27.597902 33.030589 -1.078914 0.581708 0.114867 -0.028037 -512982.000000 0 0 1
8.288277 -17.354397 27.913882 33.897720 -1.125237 0.603290 0.114673 -0.033644 314947.000000 0 0 1
8.312177 -18.128597 26.777552 33.388255 -1.140886 0.640152 0.100906 -0.028866 -165977.000000 0 0 1
7.747477 -19.531397 26.953602 34.175949 -1.193166 0.662151 0.111113 -0.040152 -484695.000000 0 0 1
8.541677 -20.214497 27.884652 35.484362 -1.171001 0.666760 0.115159 -0.040065 419352.000000 0 0 1
7.834877 -21.114097 28.733412 36.507524 -1.215473 0.664777 0.111045 -0.042111 -72098.900000 0 0 1
8.617377 -21.310597 30.051502 37.835083 -1.186528 0.652981 0.110336 -0.045501 -35610.000000 0 0 1
8.182877 -20.494697 31.143882 38.169798 -1.190921 0.616460 0.127050 -0.055900 260226.000000 0 0 1
8.301877 -19.092897 30.900222 37.259678 -1.160642 0.592905 0.121884 -0.051774 -460150.000000 0 0 1
7.701877 -18.223597 32.001556 37.623370 -1.170933 0.553716 0.120604 -0.047378 -886759.000000 0 0 1
6.377777 -18.560997 32.286040 37.783264 -1.239824 0.546197 0.155168 -0.062917 -382676.000000 0 0 1
5.714277 -17.485897 32.960887 37.746915 -1.254943 0.509051 0.165319 -0.055429 638707.000000 0 0 1
4.187877 -17.609197 33.234805 37.844080 -1.337311 0.498703 0.186809 -0.061342 399153.000000 0 0 1
3.993277 -18.496497 -32.999424 38.039830 -1.358166 2.620944 0.150512 -0.061561 -707078.000000 0 0 1
2.675077 -18.508197 -32.584354 37.569263 -1.427256 2.620577 0.166989 -0.076702 -838967.000000 0 0 1
2.476577 -19.670297 -31.549484 37.261562 -1.445551 2.580555 0.104275 -0.043898 -160743.000000 0 0 1
1.356977 -20.515597 -31.811124 37.877153 -1.504749 2.567803 0.096944 -0.048086 370250.000000 0 0 1
0.819177 -21.228597 -30.709644 37.341754 -1.532227 2.536403 0.103351 -0.053465 182560.000000 0 0 1
0.008777 -20.332797 -29.720044 36.009773 -1.570365 2.541588 0.114905 -0.047647 -962547.000000 0 0 1
-1.250423 -20.035997 -30.268534 36.320640 1.508468 2.555974 0.136210 -0.054026 -788555.000000 0 0 1
-2.003623 -19.100997 -29.612754 35.295578 1.466282 2.566227 0.175528 -0.040766 -371225.000000 0 0 1
-1.614023 -17.634297 -29.762094 34.631716 1.479523 2.604869 0.172705 -0.036886 -363574.000000 0 0 1
-2.526123 -16.770197 -29.153124 33.727221 1.421289 2.614712 0.193875 -0.038653 -379990.000000 0 0 1
-2.236523 -15.464497 -29.633324 33.500546 1.427169 2.656351 0.210458 -0.041050 625532.000000 0 0 1
-3.274123 -14.372597 -29.180634 32.692520 1.346815 2.673828 0.210776 -0.026557 368576.000000 0 0 1
-3.143623 -13.962397 -27.850254 31.312419 1.349340 2.666896 0.188552 -0.034555 116099.000000 0 0 1
-4.204323 -13.107397 -27.450804 30.708742 1.260405 2.676786 0.173505 -0.041068 121204.000000 0 0 1
-4.222223 -12.759097 -25.957194 29.230081 1.251221 2.663839 0.168413 -0.044324 -245475.000000 0 0 1
-4.720623 -13.809597 -25.145034 29.073390 1.241413 2.615710 0.169693 -0.038771 94061.600000 0 0 1
-4.778623 -13.415397 -23.801294 27.736433 1.228605 2.602401 0.124806 -0.036645 -68441.100000 0 0 1
-5.930323 -12.527697 -23.259094 27.075771 1.128673 2.604182 0.111880 -0.041457 219652.000000 0 0 1
-7.227223 -13.111897 -23.248194 27.652000 1.067035 2.569448 0.109402 -0.040289 -64060.700000 0 0 1
-8.198023 -12.092097 -23.138094 27.364170 0.975012 2.578413 0.083206 -0.038175 138182.000000 0 0 1
-9.540123 -12.554697 -23.758694 28.515082 0.920999 2.555661 0.100321 -0.044859 35090.900000 0 0 1
-10.308523 -13.447797 -22.993994 28.562784 0.916782 2.506528 0.080833 -0.040628 -599410.000000 0 0 1
-11.324223 -14.040697 -23.746994 29.821115 0.892087 2.491974 0.081475 -0.036481 -182471.000000 0 0 1
-12.119323 -15.044697 -22.875894 29.942068 0.892678 2.440294 0.069091 -0.037692 51679.900000 0 0 1
-11.319523 -16.181997 -22.578394 29.996208 0.960397 2.422963 0.075976 -0.029625 -21859.900000 0 0 1
-12.045223 -17.250097 -21.970494 30.419662 0.961232 2.377841 0.089714 -0.031519 202750.000000 0 0 1
-12.810223 -18.246697 -22.876094 31.943066 0.958691 2.369070 0.093181 -0.027023 -146559.000000 0 0 1
-13.891223 -17.577597 -23.444394 32.428037 0.902010 2.378883 0.076576 -0.019947 -829269.000000 0 0 1
-14.744623 -18.443297 -24.150994 33.776169 0.896387 2.367464 0.059158 -0.021640 87914.600000 0 0 1
-15.959723 -17.728997 -24.768294 34.387476 0.837868 2.374989 0.079363 -0.027206 272949.000000 0 0 1
-16.929523 -17.226597 -23.850894 33.944507 0.794095 2.349903 0.082278 -0.020042 362880.000000 0 0 1
-18.103523 -16.790897 -24.518494 34.796958 0.747799 2.352678 0.065329 -0.013834 403268.000000 0 0 1
-18.641823 -15.487197 -23.879994 34.023888 0.693228 2.348801 0.068411 -0.008978 -15780.000000 0 0 1
-19.294123 -15.615697 -22.616494 33.580038 0.680416 2.309744 0.079063 -0.005803 458190.000000 0 0 1
-20.013823 -14.399197 -22.386794 33.302530 0.623669 2.308006 0.099345 -0.008335 678327.000000 0 0 1
-20.879423 -14.215997 -21.095294 32.909821 0.597766 2.266601 0.102829 -0.007444 691894.000000 0 0 1
-19.995923 -13.950497 -19.993694 31.530955 0.609159 2.257637 0.116381 -0.006425 745362.000000 0 0 1
-20.671923 -13.782297 -18.754594 31.129004 0.588037 2.217401 0.120269 -0.012712 -155323.000000 0 0 1
-21.564023 -12.550897 -18.641194 31.145244 0.527101 2.212454 0.117281 -0.023795 9725.290000 0 0 1
-22.891123 -12.706097 -19.139894 32.431219 0.506725 2.202064 0.123227 -0.026069 492511.000000 0 0 1
-23.697823 -11.691597 -18.548494 32.285087 0.458323 2.182816 0.133078 -0.026173 438336.000000 0 0 1
-25.165363 -11.575797 -19.029494 33.606788 0.431130 2.172733 0.130640 -0.030029 53867.200000 0 0 1
-25.287083 -11.012297 -20.366294 34.285466 0.410723 2.206845 0.125446 -0.031813 1216910.000000 0 0 1
-26.652013 -10.607997 -20.666794 35.354996 0.378797 2.195123 0.115819 -0.028406 1071410.000000 0 0 1
-26.839943 -9.389397 -21.709594 35.774988 0.336523 2.222872 0.111240 -0.025956 -37229.600000 0 0 1
-26.802053 -9.830497 -23.051194 36.692591 0.351546 2.250066 0.110974 -0.021436 261856.000000 0 0 1
-27.490243 -8.867397 -23.825994 37.443587 0.312028 2.260511 0.092594 -0.027888 -266626.000000 0 0 1
-27.504793 -9.255397 -25.340414 38.526778 0.324599 2.288604 0.088368 -0.011228 614368.000000 0 0 1
-26.277283 -9.205697 -26.051234 38.130136 0.336968 2.322958 0.087396 -0.026708 614250.000000 0 0 1
-25.262993 -10.205497 -25.891134 37.586192 0.383924 2.330694 0.092355 -0.007187 410116.000000 0 0 1
-24.311023 -10.396197 -27.091904 37.856017 0.404099 2.368360 0.113237 -0.026703 -110850.000000 0 0 1
-24.948503 -10.811997 -28.283214 39.233497 0.408941 2.375889 0.106023 -0.015267 96872.800000 0 0 1
-24.106223 -10.867197 -29.440114 39.571786 0.423523 2.409784 0.107954 -0.014648 309954.000000 0 0 1
-24.896323 -11.232297 -30.714934 41.102294 0.423821 2.414756 0.107604 -0.013536 653585.000000 0 0 1
-25.912213 -10.347497 -31.183624 41.844138 0.379928 2.411680 0.099136 -0.020083 611696.000000 0 0 1
-25.399863 -9.580797 -32.248684 42.153557 0.360697 2.441882 0.092575 -0.018675 -823758.000000 0 0 1
-26.492493 -8.666397 -32.728084 42.989372 0.316154 2.436122 0.099941 -0.014209 -575274.000000 0 0 1
-27.497343 -9.315097 -33.530694 44.352929 0.326630 2.427973 0.087893 -0.020040 1496510.000000 0 0 1
-28.647863 -9.773797 -32.776474 44.615293 0.328787 2.395942 0.090187 -0.029143 -39510.100000 0 0 1
-29.690763 -8.690097 -32.535674 44.895760 0.284734 2.381386 0.070160 -0.017896 -463427.000000 0 0 1
-31.021623 -9.174997 -32.331684 45.736850 0.287564 2.355912 0.076356 -0.030665 581091.000000 0 0 1
-31.777053 -8.237397 -31.619964 45.579139 0.253642 2.337462 0.087418 -0.029707 315725.000000 0 0 1
-33.295903 -8.565997 -31.511934 46.636846 0.251808 2.312693 0.083753 -0.039855 318200.000000 0 0 1
-33.476383 -9.852497 -30.920184 46.624003 0.286230 2.295858 0.078865 -0.036062 20571.100000 0 0 1
-34.855658 -10.121797 -30.816644 47.613372 0.282619 2.274737 0.072816 -0.031117 -114428.000000 0 0 1
-35.157656 -11.588397 -30.369974 47.882012 0.318398 2.257856 0.075449 -0.031092 79003.200000 0 0 1
-36.533773 -11.882697 -30.563194 49.091994 0.314460 2.242819 0.050969 -0.021531 229706.000000 0 0 1
-36.677643 -13.230597 -31.022924 49.826900 0.346199 2.242875 0.053484 -0.033928 205614.000000 0 0 1
-38.144433 -13.658997 -30.771364 50.876741 0.343860 2.220338 0.059686 -0.037178 208795.000000 0 0 1
37.956615 -14.005397 -29.444714 50.038455 -0.353486 2.199927 0.060846 -0.040036 -18117.000000 0 0 1
38.138985 -15.363197 -29.128064 50.389028 -0.382936 2.187150 0.061210 -0.041423 -24913.400000 0 0 1
-37.939073 -15.725997 -27.632694 49.499960 0.392949 2.163055 0.097209 -0.042020 434092.000000 0 0 1
-36.699423 -15.182497 -27.188404 48.130709 0.392259 2.171092 0.074786 -0.047080 257750.000000 0 0 1
-36.463873 -15.400897 -25.792474 47.244612 0.399633 2.148301 0.115548 -0.061739 -481936.000000 0 0 1
-35.113618 -14.881797 -25.320154 45.777115 0.400869 2.156899 0.125773 -0.053823 209691.000000 0 0 1
-33.984812 -15.699997 -25.671834 45.392735 0.432764 2.171896 0.123223 -0.053460 468998.000000 0 0 1
-32.911283 -15.448397 -24.786494 44.001998 0.438865 2.169175 0.140318 -0.036763 1164350.000000 0 0 1
-31.529063 -16.156297 -25.122064 43.430701 0.473539 2.187612 0.120738 -0.033337 920338.000000 0 0 1
-31.343593 -17.496097 -24.622294 43.529204 0.509120 2.172018 0.126939 -0.038303 157729.000000 0 0 1
-32.156383 -18.492797 -25.245194 44.870216 0.521902 2.168356 0.111054 -0.036549 41356.800000 0 0 1
-32.126383 -19.836997 -24.497394 45.008146 0.553164 2.146336 0.107831 -0.037227 1345060.000000 0 0 1
-30.827323 -20.508397 -24.457094 44.374177 0.587033 2.154545 0.097609 -0.026029 1291340.000000 0 0 1
-30.903353 -21.625197 -23.545394 44.464052 0.610571 2.128852 0.092566 -0.019058 -538815.000000 0 0 1
-29.588903 -22.417997 -23.425494 43.895598 0.648378 2.133723 0.081402 -0.019632 37435.100000 0 0 1
-28.505043 -21.677997 -22.897494 42.506097 0.650185 2.139675 0.111686 -0.022848 -117314.000000 0 0 1
-28.492463 -21.467397 -21.510694 41.657887 0.645700 2.113398 0.119723 -0.035198 -501175.000000 0 0 1
-28.285883 -22.651697 -20.542594 41.655596 0.675236 2.086507 0.092975 -0.022623 -122073.000000 0 0 1
-28.397983 -22.340297 -19.157694 40.896840 0.666570 2.058320 0.100975 -0.024300 -120602.000000 0 0 1
-28.178263 -23.437997 -18.320194 40.975404 0.693818 2.034319 0.089063 0.010576 111389.000000 0 0 1
-28.199453 -23.063897 -16.796494 40.115766 0.685551 2.002810 0.083337 0.006239 551653.000000 0 0 1
-29.524933 -22.636397 -16.480894 40.690883 0.654096 1.987804 0.088316 -0.004569 392413.000000 0 0 1
-29.483873 -21.639797 -15.489694 39.717882 0.633152 1.971420 0.092453 -0.016864 102617.000000 0 0 1
-30.909223 -21.275097 -15.017394 40.416976 0.602836 1.951487 0.094821 -0.010920 539084.000000 0 0 1
-31.677343 -20.633797 -16.085594 41.084717 0.577341 1.973082 0.115617 -0.024765 -107486.000000 0 0 1
-32.838513 -20.055697 -15.582194 41.513897 0.548277 1.955569 0.124766 -0.029231 -658906.000000 0 0 1
-33.614083 -19.283897 -16.653794 42.179664 0.520845 1.976679 0.135559 -0.058858 -347055.000000 0 0 1
-34.432210 -20.069497 -17.489194 43.522795 0.527729 1.984322 0.096324 -0.046048 -23566.700000 0 0 1
-34.952918 -19.327997 -18.563994 44.044294 0.505122 2.005878 0.096782 -0.040014 -92074.700000 0 0 1
-36.381313 -19.667397 -19.087694 45.549385 0.495590 2.003201 0.070563 -0.022372 880705.000000 0 0 1
-37.515283 -19.296397 -18.293994 45.982797 0.475070 1.979962 0.067110 -0.013714 620277.000000 0 0 1
-37.701113 -19.938597 -17.044994 45.928786 0.486468 1.951009 0.094226 -0.024286 -901828.000000 0 0 1
-38.031133 -21.456597 -16.997594 46.857985 0.513669 1.942010 0.076119 0.014111 395076.000000 0 0 1
36.983015 -21.768297 -17.109594 46.198922 -0.531997 1.950178 0.076943 -0.015070 614546.000000 0 0 1
36.805635 -23.207297 -17.025994 46.723847 -0.562571 1.943781 0.076669 -0.011740 8721.410000 0 0 1
35.411495 -23.571597 -16.473094 45.617508 -0.587297 1.940258 0.068851 -0.018370 -423237.000000 0 0 1
34.386225 -23.403297 -17.389794 45.083608 -0.597587 1.966788 0.082086 -0.023834 -419331.000000 0 0 1
33.159535 -23.783897 -16.791894 44.127047 -0.622214 1.961171 0.095200 -0.024231 -195938.000000 0 0 1
31.925615 -23.759397 -17.687394 43.549946 -0.639786 1.989023 0.100228 -0.044385 -208547.000000 0 0 1
31.428065 -22.471197 -17.955194 42.603603 -0.620725 2.005838 0.081530 -0.040338 890445.000000 0 0 1
30.042465 -22.521097 -18.346194 41.789142 -0.643272 2.025302 0.127942 -0.053373 822395.000000 0 0 1
37.038965 28.489303 -17.688094 49.963928 0.655658 1.932659 0.099609 -0.023788 675081.000000 0 0 1
35.923615 28.889403 -18.498494 49.671904 0.677290 1.952405 0.108732 -0.032740 509573.000000 0 0 1
36.268435 28.657003 -19.873594 50.314839 0.668697 1.976848 0.106414 -0.029477 -131072.000000 0 0 1
35.150285 28.967903 -20.870294 50.102407 0.689274 2.000446 0.124279 -0.033587 -350008.000000 0 0 1
33.993165 28.106903 -20.695394 48.721994 0.690894 2.009499 0.121422 -0.034802 824149.000000 0 0 1
33.294475 28.024003 -21.947094 48.739530 0.699656 2.037890 0.132291 -0.025943 -49526.100000 0 0 1
32.291185 29.111803 -22.270194 48.848534 0.733665 2.044183 0.126782 -0.033912 -1017710.000000 0 0 1
32.953235 30.361503 -22.364194 50.078876 0.744487 2.033735 0.127783 -0.041767 107052.000000 0 0 1
32.006545 31.413903 -22.496394 50.173101 0.776054 2.035744 0.131514 -0.037237 93870.200000 0 0 1
32.605605 32.822203 -22.182394 51.307711 0.788709 2.017883 0.114191 -0.036358 12783.600000 0 0 1
33.012075 33.028303 -20.829594 51.132553 0.785644 1.990363 0.120261 -0.032554 600499.000000 0 0 1
34.414055 32.976303 -20.544194 51.902098 0.764067 1.977763 0.117031 -0.030116 581710.000000 0 0 1
34.796495 32.965803 -19.057194 51.582138 0.758388 1.949217 0.091313 -0.029858 -156117.000000 0 0 1
34.740005 -33.140656 -18.465194 51.440592 -0.761841 1.937951 0.098117 -0.025959 40653.200000 0 0 1
34.595945 -33.132956 -17.028994 50.839541 -0.763801 1.912355 0.073779 -0.032603 -297760.000000 0 0 1
34.480725 -31.653956 -16.520794 49.636983 -0.742682 1.910102 0.076241 -0.010620 841280.000000 0 0 1
35.696715 -30.880956 -16.581094 50.028209 -0.713191 1.908620 0.072326 -0.013733 358234.000000 0 0 1
36.661005 -31.165256 -15.608294 50.585782 -0.704548 1.884466 0.065073 -0.013961 351927.000000 0 0 1
38.000825 -30.380056 -15.858094 51.171181 -0.674410 1.885887 0.055016 -0.001569 539205.000000 0 0 1
-37.639753 -30.905956 -16.899594 51.551192 0.687474 1.904793 0.057175 -0.013601 -940862.000000 0 0 1
-36.432573 -30.217156 -17.023894 50.301311 0.692412 1.916053 0.048993 -0.001066 -149033.000000 0 0 1
-35.497542 -30.783256 -18.118594 50.358394 0.714392 1.938842 0.066278 -0.009769 -730367.000000 0 0 1
-34.995232 -32.033556 -17.696994 50.635942 0.741242 1.927828 0.065570 -0.018016 -97757.900000 0 0 1
-34.078354 -32.661256 -18.551794 50.717462 0.764168 1.945275 0.081099 -0.023515 81120.600000 0 0 1
-32.664993 -32.052756 -18.737294 49.451665 0.775938 1.959405 0.058445 -0.019663 -1079880.000000 0 0 1
-32.663753 -30.815956 -19.523194 48.966305 0.756298 1.980903 0.055732 -0.018716 291389.000000 0 0 1
-31.495463 -30.478956 -20.283094 48.294253 0.768998 2.004230 0.059116 -0.007206 160034.000000 0 0 1
-30.661573 -31.545356 -21.026894 48.758300 0.799604 2.016671 0.053868 -0.004828 -189490.000000 0 0 1
-31.360763 -32.267356 -22.052794 50.109934 0.799646 2.026493 0.050103 -0.001251 579067.000000 0 0 1
-30.483073 -33.338056 -22.466894 50.452008 0.830103 2.032319 0.046911 -0.004083 216588.000000 0 0 1
-31.058833 33.187603 -23.570094 51.201733 -0.818521 2.049172 0.033561 -0.020895 518128.000000 0 0 1
-32.248613 32.486003 -23.115794 51.280146 -0.789065 2.038429 0.048389 -0.042497 700381.000000 0 0 1
-32.879243 31.801903 -24.161794 51.731982 -0.768744 2.056756 0.049496 -0.035310 437643.000000 0 0 1
-33.720203 32.581403 -25.258444 53.259637 -0.768224 2.064910 0.051510 -0.044294 -46136.300000 0 0 1
-32.986233 33.291903 -26.254084 53.718892 -0.790010 2.081431 0.036372 -0.041183 -269634.000000 0 0 1
-33.871203 -33.262656 -26.908354 54.568509 0.776334 2.086459 0.044852 -0.042508 40767.600000 0 0 1
-33.217443 -32.566556 -28.096244 54.344991 0.775504 2.114136 0.055116 -0.037164 -12580.000000 0 0 1
-32.981633 -33.271256 -29.323834 55.268905 0.789770 2.130065 0.060913 -0.037154 -49320.100000 0 0 1
-34.115658 -33.419556 -30.159384 56.483036 0.775091 2.134067 0.071318 -0.036049 -55482.900000 0 0 1
-34.024063 33.082703 -31.368894 56.886814 -0.771371 2.154870 0.085910 -0.034333 -116287.000000 0 0 1
-33.090093 33.580703 -32.298254 57.147136 -0.792757 2.171444 0.069068 -0.034497 -59322.000000 0 0 1
-33.319013 32.987003 -33.621934 57.695177 -0.780391 2.192906 0.066909 -0.040966 34791.300000 0 0 1
-32.244753 33.404603 32.687549 56.780872 -0.803064 0.957362 0.078097 -0.040434 1693590.000000 0 0 1
-30.866203 32.969403 32.846994 55.844687 -0.818333 0.941984 0.084208 -0.038683 1299320.000000 0 0 1
-30.640093 31.569403 32.540319 54.720333 -0.800335 0.933946 0.101873 -0.054308 -680389.000000 0 0 1
-29.168933 31.185603 32.689628 53.777135 -0.818799 0.917418 0.106997 -0.048337 -822265.000000 0 0 1
-28.810423 31.023603 -33.304564 53.867415 -0.822370 2.237335 0.112288 -0.059660 1107880.000000 0 0 1
-27.398043 30.746603 -33.159164 52.872834 -0.842925 2.248684 0.109695 -0.054107 810939.000000 0 0 1
-26.884783 29.340203 -33.532244 52.038932 -0.829042 2.270993 0.145629 -0.054661 -519529.000000 0 0 1
-27.255993 28.435303 -32.523004 51.080343 -0.806571 2.261011 0.140248 -0.051078 149210.000000 0 0 1
-26.865513 27.142803 -32.934054 50.429550 -0.790532 2.282428 0.152400 -0.050090 -234197.000000 0 0 1
-26.702753 26.204403 -31.701444 49.037632 -0.775979 2.273747 0.154792 -0.049910 162490.000000 0 0 1
-25.570083 26.371103 -30.842694 47.963903 -0.800819 2.269257 0.148045 -0.044923 205375.000000 0 0 1
-25.423643 27.616403 -30.205244 48.180744 -0.826716 2.248384 0.124431 -0.049493 -905145.000000 0 0 1
-24.209823 27.677803 -29.312074 47.025249 -0.852135 2.243786 0.132232 -0.040098 -804713.000000 0 0 1
-23.039223 27.818503 -30.084634 47.008086 -0.879097 2.265280 0.118777 -0.039119 952540.000000 0 0 1
-21.757023 27.641703 -29.418864 45.857403 -0.903966 2.267286 0.076317 -0.031850 1428050.000000 0 0 1
-21.253523 28.862503 -28.623114 45.869805 -0.936075 2.244657 0.064955 -0.018870 -555866.000000 0 0 1
-20.789723 29.947803 -29.428284 46.851973 -0.963975 2.249921 0.063851 -0.012250 145782.000000 0 0 1
-20.437823 31.044603 -28.596384 46.895897 -0.988582 2.226585 0.074928 -0.014994 -121767.000000 0 0 1
-20.079223 32.280003 -29.478324 48.105565 -1.014334 2.230375 0.089767 -0.011932 -123089.000000 0 0 1
-18.937423 32.217403 -30.294424 48.107580 -1.039395 2.251992 0.074003 -0.017119 -421276.000000 0 0 1
-18.672523 33.412703 -30.982314 49.244042 -1.061188 2.251267 0.088391 -0.016474 344299.000000 0 0 1
-17.183823 33.681503 -31.334654 49.107922 -1.099033 2.262795 0.066792 -0.015944 -160946.000000 0 0 1
-16.361723 -33.461756 -30.215654 47.962286 1.116013 2.252334 0.083626 -0.020362 -255367.000000 0 0 1
-15.106623 -32.941856 -30.613094 47.439830 1.140827 2.272217 0.130310 -0.029681 -145432.000000 0 0 1
-14.039623 33.395803 -30.647284 47.451520 -1.172828 2.272952 0.131219 -0.029788 -1065190.000000 0 0 1
-14.023423 32.708603 -29.425894 46.177834 -1.165764 2.261695 0.115992 -0.029280 -187045.000000 0 0 1
-13.449423 31.421503 -29.538394 45.174269 -1.166360 2.283493 0.108950 -0.029526 3957.860000 0 0 1
-13.525823 30.595103 -28.248144 43.783169 -1.154539 2.272059 0.072045 -0.030303 -478607.000000 0 0 1
-12.668423 31.103303 -27.308154 43.285560 -1.184011 2.253488 0.093417 -0.030979 -455748.000000 0 0 1
-12.740123 30.336803 -26.111284 42.005137 -1.173206 2.241607 0.072034 -0.038253 83613.300000 0 0 1
-11.620723 30.643903 -25.099234 41.280281 -1.208333 2.224361 0.101098 -0.043310 -44589.100000 0 0 1
-10.301823 30.368903 -25.473394 40.954751 -1.243755 2.242076 0.113715 -0.033669 -290477.000000 0 0 1
-9.378223 30.795903 -24.477194 40.440967 -1.275190 2.220886 0.123281 -0.039407 629386.000000 0 0 1
-7.899723 30.429803 -24.787194 40.034779 -1.316798 2.238445 0.132682 -0.047701 126738.000000 0 0 1
-7.513523 29.086803 -24.593694 38.824541 -1.318008 2.256810 0.120671 -0.059572 389462.000000 0 0 1
-6.225123 28.761003 -25.133294 38.699224 -1.357641 2.277660 0.113013 -0.068929 514819.000000 0 0 1
-5.529823 27.547903 -24.459394 37.252220 -1.372694 2.287084 0.128116 -0.047827 -78304.100000 0 0 1
-6.223423 26.334803 -24.636394 36.595147 -1.338734 2.309344 0.140564 -0.045158 55671.600000 0 0 1
-5.590323 25.259803 -23.924794 35.237837 -1.352994 2.317130 0.130693 -0.051451 190379.000000 0 0 1
-6.385423 23.896703 -23.898694 34.394384 -1.309687 2.338998 0.132472 -0.051138 166033.000000 0 0 1
-6.443923 23.135903 -25.068294 34.716186 -1.299156 2.377619 0.132842 -0.050116 -272034.000000 0 0 1
-7.260223 22.034803 -24.958594 34.076015 -1.252510 2.392693 0.118356 -0.051062 -678564.000000 0 0 1
-7.095023 21.151603 -26.195324 34.408207 -1.247154 2.436128 0.094460 -0.035656 136447.000000 0 0 1
-5.940623 20.337203 -26.284784 33.760668 -1.286597 2.463168 0.106788 -0.047685 -547152.000000 0 0 1
-5.953823 19.156303 -25.505994 32.449464 -1.269459 2.475144 0.091699 -0.039228 -687708.000000 0 0 1
-4.720123 18.296403 -25.643084 31.852876 -1.318320 2.506552 0.090278 -0.053191 -512033.000000 0 0 1
-4.539023 17.827303 -26.990384 32.663379 -1.321483 2.543337 0.108928 -0.055107 -232539.000000 0 0 1
-3.788323 16.644103 -27.197354 32.110336 -1.347001 2.581107 0.097408 -0.052584 34122.200000 0 0 1
-3.408923 16.378003 -28.676654 33.199552 -1.365586 2.613493 0.111313 -0.047859 -50242.800000 0 0 1
-2.445623 17.282203 -29.161674 33.986157 -1.430219 2.602248 0.127570 -0.050600 8099.160000 0 0 1
-2.438423 17.426903 -30.550894 35.256205 -1.431776 2.619023 0.127649 -0.051078 -88784.600000 0 0 1
-1.451123 18.486803 -31.086534 36.197241 -1.492462 2.603738 0.144171 -0.036911 -1527470.000000 0 0 1
-0.149123 18.241403 -30.740014 35.745203 -1.562622 2.606019 0.169436 -0.051434 -1175610.000000 0 0 1
0.766077 19.178603 -31.310774 36.725608 1.530873 2.591660 0.180741 -0.033598 343802.000000 0 0 1
0.732277 20.651103 -30.833054 37.117133 1.535352 2.551153 0.171606 -0.037662 -364924.000000 0 0 1
1.423377 20.804003 -29.590824 36.200131 1.502484 2.527720 0.183307 -0.055325 -176541.000000 0 0 1
1.465977 22.082703 -29.094484 36.555217 1.504508 2.491297 0.180716 -0.058615 -297451.000000 0 0 1
2.510977 22.281403 -28.002754 35.873670 1.458576 2.466411 0.187912 -0.073555 329769.000000 0 0 1
3.851677 22.250703 -28.540904 36.393852 1.399391 2.472240 0.183337 -0.072476 120686.000000 0 0 1
4.814977 22.321703 -27.561394 35.792079 1.358343 2.449703 0.165405 -0.074656 -570017.000000 0 0 1
5.203277 23.735903 -27.166264 36.448225 1.354994 2.411839 0.177788 -0.070815 -688388.000000 0 0 1
5.949277 24.374503 -28.185164 37.734783 1.331399 2.414226 0.162832 -0.065023 394034.000000 0 0 1
6.426377 25.661103 -27.859744 38.418172 1.325411 2.382079 0.164920 -0.069264 298261.000000 0 0 1
7.356277 26.382803 -28.892284 39.811195 1.298874 2.382895 0.189223 -0.068348 649822.000000 0 0 1
8.734377 26.026003 -28.895474 39.857128 1.247005 2.381796 0.192352 -0.060047 412924.000000 0 0 1
9.423377 26.908303 -29.789714 41.234499 1.233940 2.378130 0.202383 -0.056092 1105590.000000 0 0 1
10.975977 26.724503 -29.530264 41.312319 1.181093 2.367142 0.183292 -0.053324 719345.000000 0 0 1
11.836477 27.605503 -30.157804 42.563590 1.165735 2.358217 0.177376 -0.042663 -672827.000000 0 0 1
12.863877 27.983203 -29.286104 42.499587 1.139905 2.331031 0.158231 -0.040185 -700000.000000 0 0 1
13.826877 28.910403 -29.988874 43.889937 1.124686 2.323034 0.150951 -0.037471 -520691.000000 0 0 1
13.328077 30.217203 -30.166354 44.729475 1.155388 2.310972 0.156591 -0.033055 669272.000000 0 0 1
14.286577 31.029603 -30.892114 46.057196 1.139313 2.305994 0.166492 -0.037887 557707.000000 0 0 1
13.852777 32.472703 -31.185704 47.105457 1.167573 2.294334 0.169462 -0.046142 488404.000000 0 0 1
12.769277 32.606203 -32.106354 47.508283 1.197534 2.312853 0.159809 -0.040183 688352.000000 0 0 1
11.857677 33.672303 -31.850144 47.842034 1.232208 2.299275 0.149662 -0.039807 911296.000000 0 0 1
10.668177 -33.691256 -32.888324 48.275798 -1.264139 2.320278 0.121444 -0.034438 33859.600000 0 0 1
11.035277 -33.105156 33.242051 48.195048 -1.249040 0.809666 0.108457 -0.021812 166751.000000 0 0 1
10.036577 -33.068256 32.223596 47.250424 -1.276122 0.820337 0.096522 -0.028239 188492.000000 0 0 1
10.343477 -32.088956 31.084892 45.858033 -1.258974 0.825961 0.114010 -0.024696 100219.000000 0 0 1
10.105977 -30.724256 31.424269 45.095403 -1.253018 0.799815 0.095051 -0.027393 -64967.300000 0 0 1
10.504677 -29.834256 30.361332 43.843376 -1.232251 0.805854 0.122708 -0.028300 -241984.000000 0 0 1
9.912277 -28.427056 30.606642 42.931542 -1.235288 0.777147 0.113401 -0.033208 446852.000000 0 0 1
8.499877 -28.260256 30.730392 42.605715 -1.278632 0.765157 0.059435 -0.027790 316078.000000 0 0 1
7.995977 -28.661456 32.004744 43.700325 -1.298734 0.749002 0.049806 -0.017566 -926363.000000 0 0 1
6.474177 -28.843756 32.062917 43.610869 -1.349999 0.744828 0.043993 -0.018520 -395817.000000 0 0 1
5.869577 -29.927356 31.379158 43.757858 -1.377127 0.771151 0.063253 -0.018468 -180655.000000 0 0 1
6.217277 -30.280056 30.040942 43.104461 -1.368285 0.799684 0.064608 -0.025226 -675836.000000 0 0 1
5.904977 -29.288156 28.897222 41.565783 -1.371847 0.802075 0.063115 -0.031613 427196.000000 0 0 1
4.506377 -29.078356 28.695832 41.101205 -1.417046 0.797951 0.111411 -0.034696 563257.000000 0 0 1
4.173377 -28.275456 27.579302 39.718213 -1.424257 0.803246 0.131164 -0.035822 -410322.000000 0 0 1
2.652377 -28.250756 27.330742 39.396825 -1.477184 0.804142 0.116893 -0.035777 6272.240000 0 0 1
2.277077 -29.366556 26.470592 39.601414 -1.493411 0.838707 0.147830 -0.037551 284552.000000 0 0 1
2.027877 -30.586556 27.127202 40.933297 -1.504594 0.846355 0.183636 -0.043586 -693830.000000 0 0 1
2.280977 -31.916456 26.295622 41.416455 -1.499451 0.882907 0.204797 -0.044452 -1064700.000000 0 0 1
3.598777 -32.298756 26.192172 41.739558 -1.459832 0.892440 0.166107 -0.040050 -891205.000000 0 0 1
4.322077 -31.758256 25.119352 40.721604 -1.435534 0.906055 0.157592 -0.057424 581477.000000 0 0 1
5.864077 -32.024556 25.253062 41.202873 -1.389691 0.911076 0.165709 -0.054856 898700.000000 0 0 1
6.633977 -31.590556 24.140752 40.308173 -1.363805 0.928664 0.147740 -0.061374 826859.000000 0 0 1
8.027977 -31.397756 24.405232 40.569482 -1.320473 0.925336 0.122734 -0.056809 166297.000000 0 0 1
8.805477 -31.192556 23.146322 39.827933 -1.295661 0.950645 0.122749 -0.050318 -361053.000000 0 0 1
10.112777 -30.684756 23.367862 39.873293 -1.252437 0.944617 0.115995 -0.031985 12879.100000 0 0 1
10.703677 -30.575956 22.116882 39.225174 -1.234061 0.971763 0.125387 -0.045854 -328931.000000 0 0 1
11.803377 -29.511756 22.046782 38.682348 -1.190329 0.964358 0.080455 -0.039357 708937.000000 0 0 1
13.017877 -29.793956 22.777432 39.698317 -1.158864 0.959703 0.080730 -0.028342 731467.000000 0 0 1
13.924177 -28.703156 22.730692 39.171906 -1.119132 0.951723 0.083730 -0.026023 332764.000000 0 0 1
15.218577 -28.972556 23.541762 40.314125 -1.087133 0.947200 0.106372 -0.027036 25280.000000 0 0 1
15.016577 -29.061956 24.952772 41.142870 -1.093871 0.919157 0.104446 -0.026103 459308.000000 0 0 1
16.247777 -29.094356 25.682552 42.072144 -1.061488 0.914179 0.117953 -0.036371 430643.000000 0 0 1
-11.403023 -14.124997 25.716522 31.478309 0.891624 0.614676 0.147988 -0.061749 -936314.000000 0 0 1
-10.046523 -14.101797 25.489822 30.814352 0.951778 0.596679 0.149801 -0.053246 -1537750.000000 0 0 1
-9.303723 -14.575997 26.580232 31.710056 1.002697 0.576772 0.162261 -0.063135 729366.000000 0 0 1
-7.745523 -14.420797 26.388582 31.053337 1.077905 0.555224 0.170378 -0.044983 910200.000000 0 0 1
-7.187923 -15.321897 25.499762 30.604977 1.132150 0.585945 0.165190 -0.053652 -226035.000000 0 0 1
-7.406023 -14.922797 24.152182 29.340534 1.110122 0.603829 0.175310 -0.058775 -604242.000000 0 0 1
-6.756723 -15.933897 23.142862 28.898692 1.169733 0.642121 0.178359 -0.060873 9172.130000 0 0 1
-7.446623 -17.135697 22.894372 29.550576 1.160850 0.684473 0.210284 -0.064916 -165712.000000 0 0 1
-7.434423 -18.092297 23.994312 30.956887 1.180915 0.683942 0.210277 -0.066726 -765748.000000 0 0 1
-8.093723 -19.393397 23.748892 31.711544 1.175428 0.724390 0.205764 -0.067987 -1532850.000000 0 0 1
-9.436023 -19.208097 23.522812 31.801135 1.114171 0.738195 0.181176 -0.064896 -1796100.000000 0 0 1
-9.998123 -20.453397 23.250312 32.540450 1.116129 0.774880 0.164193 -0.059681 -582730.000000 0 0 1
-11.517323 -20.296397 23.119622 32.849800 1.054650 0.790067 0.121001 -0.055804 -625599.000000 0 0 1
-12.095323 -20.078197 24.366382 33.810522 1.028606 0.766022 0.121343 -0.052805 -652312.000000 0 0 1
-13.484623 -20.186597 24.232202 34.300632 0.981872 0.786305 0.093276 -0.034718 -314067.000000 0 0 1
-14.263723 -20.331797 25.565932 35.643409 0.959032 0.770921 0.092808 -0.044359 -269989.000000 0 0 1
-13.948823 -21.439897 26.422602 36.774892 0.993999 0.769159 0.104688 -0.034823 -2187.970000 0 0 1
-12.886123 -21.257697 27.329352 36.943677 1.025841 0.738087 0.134295 -0.044566 -89482.500000 0 0 1
-12.538023 -22.499297 28.178032 38.176195 1.062394 0.740539 0.163110 -0.045719 387046.000000 0 0 1
-13.662223 -22.963297 28.942412 39.390767 1.034092 0.745497 0.127532 -0.037392 386727.000000 0 0 1
-13.221923 -24.044097 29.689852 40.428024 1.068028 0.746032 0.152255 -0.028818 -630762.000000 0 0 1
-14.191423 -24.852697 30.547342 41.859206 1.051957 0.752820 0.143254 -0.037857 -359784.000000 0 0 1
-14.377523 -24.277797 31.804277 42.516310 1.036125 0.725679 0.153574 -0.044676 -316206.000000 0 0 1
-15.364423 -24.968297 32.489780 43.761480 1.019161 0.734108 0.131909 -0.043201 -677212.000000 0 0 1
-15.386923 -24.512097 -33.360914 44.165041 1.010238 2.427014 0.131293 -0.046415 143948.000000 0 0 1
-15.540423 -23.121497 -33.037044 43.215213 0.979028 2.441026 0.139992 -0.052992 508188.000000 0 0 1
-16.777723 -22.564197 -33.503364 43.739117 0.931433 2.443363 0.121882 -0.050659 177095.000000 0 0 1
-16.922123 -21.024897 -33.434074 42.967916 0.893098 2.462459 0.112213 -0.048053 -144760.000000 0 0 1
-17.207423 -20.638797 -32.134384 41.888829 0.875817 2.445159 0.100419 -0.050668 96295.600000 0 0 1
-17.159623 -19.227597 -31.989004 41.078577 0.842170 2.463431 0.081047 -0.051023 -259511.000000 0 0 1
-17.220223 -18.942797 -30.465904 39.793680 0.832996 2.442764 0.076769 -0.037541 696939.000000 0 0 1
-18.485923 -19.183197 -29.808724 39.978549 0.803907 2.412258 0.073340 -0.035055 868468.000000 0 0 1
-18.485523 -18.954997 -28.416054 38.839137 0.797937 2.391513 0.068837 -0.032645 188162.000000 0 0 1
-17.571023 -19.901497 -27.585124 38.285108 0.847510 2.375346 0.066800 -0.026881 -103707.000000 0 0 1
-16.185923 -19.779597 -27.717484 37.702460 0.884988 2.396705 0.065530 -0.033042 -682774.000000 0 0 1
-15.568723 -20.885297 -27.152154 37.627387 0.930220 2.376916 0.064683 -0.033103 136844.000000 0 0 1
-14.024023 -20.941597 -27.232724 37.105862 0.980715 2.394871 0.163190 -0.041277 63834.000000 0 0 1
-13.243123 -19.945897 -26.601014 35.788728 0.984675 2.408755 0.155475 -0.048475 863271.000000 0 0 1
-11.834723 -20.073397 -26.838684 35.543169 1.038079 2.426605 0.128950 -0.066851 891617.000000 0 0 1
-11.063223 -20.992497 -25.866894 35.102365 1.085776 2.399268 0.180082 -0.065766 -539884.000000 0 0 1
-11.293623 -22.357197 -26.158304 36.216668 1.103041 2.377879 0.182311 -0.063621 206809.000000 0 0 1
-10.784323 -23.199697 -25.130484 35.861801 1.135664 2.347257 0.243222 -0.064087 -255520.000000 0 0 1
-10.816523 -24.722197 -25.376404 37.042490 1.158367 2.325485 0.222296 -0.065025 -474171.000000 0 0 1
-9.800723 -25.158947 -26.265434 37.668286 1.199329 2.342396 0.225798 -0.071204 100953.000000 0 0 1
-10.108723 -26.331007 -26.995924 39.042133 1.204238 2.334299 0.218784 -0.057394 -201036.000000 0 0 1
-9.950823 -27.730307 -26.335144 39.516182 1.226266 2.300219 0.245241 -0.057621 -112024.000000 0 0 1
-10.987723 -28.043897 -25.426624 39.417045 1.197375 2.271907 0.187671 -0.055157 140120.000000 0 0 1
-10.663323 -29.103457 -24.575394 39.555880 1.219592 2.241175 0.185416 -0.063922 -363675.000000 0 0 1
-11.733823 -29.156417 -23.475294 39.228417 1.188185 2.212331 0.175914 -0.062331 -297174.000000 0 0 1
-11.708923 -28.170247 -22.515594 37.915876 1.176873 2.206607 0.188827 -0.066064 90676.900000 0 0 1
-12.524223 -27.059077 -22.860794 37.572140 1.137310 2.224903 0.150576 -0.055263 -132326.000000 0 0 1
-12.325923 -25.872177 -21.861494 36.044734 1.126193 2.222460 0.184069 -0.053457 7864.390000 0 0 1
-12.925423 -26.084457 -20.605594 35.665893 1.110738 2.186753 0.126959 -0.044287 144146.000000 0 0 1
-12.607123 -25.083577 -19.687494 34.288814 1.105067 2.182382 0.133136 -0.035511 23682.600000 0 0 1
-13.183223 -25.393647 -18.267894 33.946290 1.091943 2.139026 0.160380 -0.038392 180818.000000 0 0 1
-14.593423 -25.459407 -18.173994 34.517292 1.050313 2.125297 0.183019 -0.040952 273396.000000 0 0 1
-15.020123 -26.111937 -16.945494 34.562799 1.048796 2.083209 0.175639 -0.039539 -195920.000000 0 0 1
-16.531423 -26.348507 -16.840394 35.371325 1.010463 2.067014 0.176688 -0.046482 -993556.000000 0 0 1
-17.291223 -25.149717 -16.696594 34.788948 0.968488 2.071382 0.164982 -0.036255 1451020.000000 0 0 1
-18.729823 -25.226737 -16.502194 35.489673 0.932139 2.054415 0.189774 -0.030201 1952510.000000 0 0 1
-19.538523 -26.057907 -17.584594 37.013326 0.927416 2.065861 0.177693 -0.027842 -1120200.000000 0 0 1
-19.362323 -27.492187 -17.502194 37.908398 0.957201 2.050704 0.166296 -0.037501 -170387.000000 0 0 1
-19.864223 -28.204717 -16.362194 38.181341 0.957199 2.013672 0.167939 -0.034417 461496.000000 0 0 1
-21.427923 -28.166197 -16.228994 38.934185 0.920440 2.000753 0.173430 -0.025096 528854.000000 0 0 1
-21.964223 -29.139387 -17.118394 40.305959 0.924891 2.009439 0.145244 -0.016613 -984157.000000 0 0 1
-23.291223 -29.362917 -16.762994 41.056789 0.900204 1.991374 0.149912 -0.012391 -387185.000000 0 0 1
-23.981723 -30.447667 -17.678094 42.599277 0.903639 1.998724 0.111110 -0.015396 126747.000000 0 0 1
-23.529623 -31.775977 -17.547394 43.258142 0.933413 1.988479 0.111850 -0.018443 -103622.000000 0 0 1
-23.840723 -32.518317 -18.697894 44.445835 0.938168 2.005002 0.075785 0.009679 116505.000000 0 0 1
-23.215623 33.458473 -18.638594 44.786513 -0.964201 2.000020 0.067916 0.000801 25738.300000 0 0 1
-23.862223 32.615856 -17.663694 44.104488 -0.939166 1.982855 0.068191 -0.004613 139813.000000 0 0 1
-23.303123 31.324733 -17.471894 42.773140 -0.931197 1.991583 0.056810 -0.010262 -857369.000000 0 0 1
-24.346623 30.269423 -17.490894 42.601965 -0.893420 1.993870 0.063556 -0.032234 -836499.000000 0 0 1
-24.976853 30.063533 -16.203694 42.310979 -0.877554 1.963802 0.066994 -0.040629 135918.000000 0 0 1
-25.478323 28.753363 -15.998894 41.615687 -0.845715 1.965402 0.073947 -0.033279 53388.100000 0 0 1
-24.384623 27.740173 -15.594394 40.091298 -0.849685 1.970312 0.066726 -0.037535 225151.000000 0 0 1
-23.632623 27.180893 -16.663894 39.686108 -0.855114 2.004123 0.048056 -0.032300 65464.200000 0 0 1
-22.555623 26.396933 -16.177794 38.305029 -0.863708 2.006823 0.069328 -0.029774 107990.000000 0 0 1
-21.924223 25.705013 -17.406294 38.005241 -0.864612 2.046537 0.066408 -0.017866 -1022140.000000 0 0 1
-22.132723 24.374443 -17.528594 37.299095 -0.833563 2.060027 0.072447 -0.034670 -101123.000000 0 0 1
-21.574023 23.640623 -18.620294 37.027461 -0.831073 2.097721 0.064912 -0.023004 203968.000000 0 0 1
-20.070423 23.864603 -18.898494 36.462230 -0.871543 2.115662 0.063325 -0.040953 502479.000000 0 0 1
-19.095123 23.591773 -17.841194 35.206586 -0.890351 2.102215 0.095999 -0.049402 982318.000000 0 0 1
-17.809723 24.157153 -17.954394 34.973055 -0.935509 2.109913 0.116436 -0.064693 217423.000000 0 0 1
-17.603023 25.557183 -17.307494 35.532878 -0.967647 2.079544 0.141736 -0.067057 -56239.900000 0 0 1
-18.646923 26.425533 -17.705794 36.871557 -0.956295 2.071681 0.102552 -0.054707 199555.000000 0 0 1
-18.378823 27.641563 -17.091294 37.335633 -0.984019 2.046287 0.114850 -0.062042 594753.000000 0 0 1
-19.568523 28.666413 -17.306794 38.784217 -0.971824 2.033348 0.090019 -0.047692 647370.000000 0 0 1
-19.689823 29.267103 -18.595594 39.875413 -0.978585 2.055948 0.091867 -0.041790 252010.000000 0 0 1
-20.455623 28.481613 -19.504094 40.125360 -0.947957 2.078394 0.075566 -0.030648 -159738.000000 0 0 1
-20.748023 29.162643 -20.871794 41.431534 -0.952421 2.098749 0.076530 -0.024274 266986.000000 0 0 1
-21.632823 30.303413 -20.790794 42.644261 -0.950819 2.080067 0.072134 -0.017139 514720.000000 0 0 1
-22.143523 30.511203 -22.096794 43.698254 -0.942996 2.100952 0.082895 -0.015813 515056.000000 0 0 1
-22.960823 31.835134 -22.302694 45.145158 -0.945956 2.087506 0.076446 -0.019058 817607.000000 0 0 1
-21.982123 32.896935 -22.349894 45.441609 -0.981725 2.084995 0.061073 -0.009200 919190.000000 0 0 1
-22.364023 -33.467607 -23.304494 46.511608 0.981713 2.095604 0.086478 0.002218 -554828.000000 0 0 1
-21.309123 -32.366027 -23.436194 45.286793 0.988553 2.114730 0.095652 -0.001343 -207136.000000 0 0 1
-21.199223 -31.650817 -22.203294 44.092715 0.980638 2.098510 0.117087 -0.005709 -1322.790000 0 0 1
-20.199123 -32.247707 -21.417694 43.665052 1.011210 2.083459 0.134470 -0.016261 -798447.000000 0 0 1
-19.785123 -31.430947 -20.168394 42.262508 1.008983 2.068282 0.144648 -0.022170 129111.000000 0 0 1
-18.754723 -30.511817 -20.532494 41.283095 1.019659 2.091348 0.143623 -0.025670 328234.000000 0 0 1
-18.429123 -29.715527 -19.412494 39.993625 1.015667 2.077605 0.127315 -0.023855 361677.000000 0 0 1
-17.137223 -28.856987 -19.568094 38.849973 1.034898 2.098654 0.142687 -0.031975 1166990.000000 0 0 1
-15.879523 -29.547807 -19.506994 38.804058 1.077664 2.097521 0.141217 -0.031961 602583.000000 0 0 1
-14.832223 -28.720017 -19.978594 37.999716 1.094082 2.124400 0.134360 -0.042224 393207.000000 0 0 1
-13.462023 -29.479087 -20.155894 38.164154 1.142415 2.127201 0.208365 -0.057727 1038370.000000 0 0 1
-12.773823 -30.077037 -19.007394 37.803171 1.169177 2.097630 0.204292 -0.053336 349625.000000 0 0 1
-12.206523 -29.080467 -18.191194 36.408684 1.173381 2.093978 0.157026 -0.042192 -331749.000000 0 0 1
-11.169623 -29.822297 -17.260494 36.222293 1.212430 2.067484 0.163819 -0.019405 96213.800000 0 0 1
-11.695923 -30.600767 -16.203494 36.547979 1.205719 2.030127 0.188336 -0.032795 -153334.000000 0 0 1
-12.215523 -31.877047 -16.565194 37.944311 1.204850 2.022574 0.199287 -0.029938 552.970000 0 0 1
-12.948823 -32.604807 -15.378794 38.304735 1.192754 1.983935 0.183869 -0.032505 -6989.040000 0 0 1
-12.206423 -32.809477 -14.178994 37.769067 1.214624 1.955639 0.167964 -0.031624 -91007.000000 0 0 1
-12.886223 -33.632337 -13.253294 38.377580 1.204900 1.923397 0.150135 -0.033388 317186.000000 0 0 1
-12.096423 33.558113 -11.895494 37.602835 -1.224832 1.892671 0.134861 -0.024407 365688.000000 0 0 1
-12.091923 -32.614827 -11.220894 36.549282 1.215758 1.882843 0.110992 -0.018937 -17606.500000 0 0 1
-11.656423 -32.690197 -9.882294 36.085744 1.228278 1.848196 0.121902 -0.022629 -1176870.000000 0 0 1
-10.295023 -32.214727 -9.465094 35.119284 1.261479 1.843683 0.107607 -0.022259 -416372.000000 0 0 1
-9.264323 -33.108517 -9.858894 35.765896 1.297957 1.850063 0.083494 -0.030559 -409353.000000 0 0 1
-7.973523 -32.588977 -9.802994 34.953071 1.330841 1.855071 0.073706 -0.036841 217041.000000 0 0 1
-6.814923 -33.495737 -10.317694 35.705215 1.370080 1.863946 0.081385 -0.049173 563193.000000 0 0 1
-6.259523 32.988174 -9.381594 34.862811 -1.383275 1.843255 0.083791 -0.027156 -173606.000000 0 0 1
-4.966323 32.665852 -9.828394 34.472012 -1.419918 1.859920 0.102082 -0.027382 166320.000000 0 0 1
-4.150623 31.746079 -8.879194 33.224709 -1.440789 1.841331 0.111327 -0.036297 260501.000000 0 0 1
-3.740823 32.304595 -7.653794 33.408999 -1.455511 1.801943 0.113229 -0.040957 -49616.100000 0 0 1
-2.915023 31.514941 -6.798694 32.371455 -1.478562 1.782393 0.105629 -0.049329 114490.000000 0 0 1
-2.423323 32.240247 -5.598394 32.812316 -1.495773 1.742254 0.113434 -0.042418 -432567.000000 0 0 1
-1.436623 33.244027 -5.776894 33.772796 -1.527609 1.742693 0.086809 -0.037593 52211.700000 0 0 1
-1.055723 -33.525287 -4.527994 33.846154 1.539316 1.704980 0.093251 -0.038111 254419.000000 0 0 1
-0.067223 33.046245 -3.663994 33.248815 -1.568762 1.681220 0.094574 -0.031414 -337302.000000 0 0 1
1.211277 32.928198 -4.254194 33.223961 1.534027 1.699195 0.094554 -0.035452 -105626.000000 0 0 1
2.084577 32.217617 -3.399494 32.463470 1.506183 1.675706 0.096084 -0.027361 252608.000000 0 0 1
3.545977 32.166340 -3.899594 32.595310 1.461001 1.690720 0.096514 -0.023971 39834.600000 0 0 1
4.303677 33.344090 -3.795394 33.834228 1.442437 1.683209 0.085176 -0.021766 -207080.000000 0 0 1
5.643177 33.034190 -4.133794 33.766721 1.401601 1.693526 0.088572 -0.020087 577344.000000 0 0 1
6.662877 -33.254657 -3.789494 34.126623 -1.373055 1.682068 0.091560 -0.021605 355050.000000 0 0 1
6.295877 -32.098217 -4.614094 33.033671 -1.377111 1.710933 0.093285 -0.029111 95637.500000 0 0 1
6.921977 -30.954667 -4.067394 31.978881 -1.350799 1.698332 0.078138 -0.029928 157713.000000 0 0 1
6.570777 -29.703537 -4.927494 30.818102 -1.353090 1.731375 0.083066 -0.025435 260129.000000 0 0 1
7.398377 -29.566397 -6.113994 31.085185 -1.325602 1.768772 0.097374 -0.024552 461552.000000 0 0 1
7.227077 -28.278887 -6.714194 29.950066 -1.320587 1.796897 0.101889 -0.019309 12715.300000 0 0 1
7.679177 -27.062567 -5.898294 28.742689 -1.294308 1.777475 0.090775 -0.023940 -119975.000000 0 0 1
6.756677 -26.618797 -4.947994 27.905119 -1.322215 1.749054 0.074730 -0.024059 -483586.000000 0 0 1
7.158677 -25.375057 -4.505494 26.747703 -1.295828 1.740047 0.058056 -0.020215 167912.000000 0 0 1
6.207477 -24.701497 -3.488494 25.707320 -1.324595 1.706917 0.054876 -0.019238 -303864.000000 0 0 1
5.003677 -24.245297 -4.017494 25.080101 -1.367276 1.731676 0.062674 -0.021322 -577749.000000 0 0 1
4.264777 -23.461197 -3.076294 24.043287 -1.390980 1.699096 0.073944 -0.028960 234196.000000 0 1 0
3.000477 -22.906497 -3.772094 23.408100 -1.440550 1.732647 0.094316 -0.028598 99260.400000 0 1 0
2.105677 -23.932497 -4.162494 24.382876 -1.483038 1.742350 0.098047 -0.029101 -166680.000000 0 1 0
0.890377 -23.323597 -4.565894 23.782984 -1.532640 1.763977 0.090110 -0.024256 302191.000000 0 1 0
-15.778923 22.678203 18.089782 33.022954 -0.962912 0.991071 0.022785 -0.024635 -173917.000000 0 0 1
-16.142423 22.214303 19.350282 33.592953 -0.942396 0.956942 0.044355 -0.035885 11066.400000 0 0 1
-15.980823 23.148503 20.357482 34.722715 -0.966569 0.944328 0.064584 -0.034703 -977993.000000 0 0 1
-15.901423 22.589503 21.804882 35.193661 -0.957438 0.902604 0.084664 -0.040076 -609655.000000 0 0 1
-14.816223 21.788303 22.131282 34.409944 -0.973614 0.872171 0.072640 -0.037938 -68418.600000 0 0 1
-13.484623 22.252603 22.012782 34.081901 -1.025992 0.868622 0.048966 -0.031154 -33580.700000 0 0 1
-13.008023 23.316903 23.039922 35.266480 -1.061924 0.858849 0.079585 -0.031535 -769738.000000 0 0 1
-12.547923 22.847303 24.219362 35.581275 -1.068561 0.822110 0.065635 -0.023894 -128017.000000 0 0 1
-12.423823 23.954603 25.134342 36.876951 -1.092348 0.820886 0.092932 -0.028744 65192.900000 0 0 1
-11.982623 23.612303 26.576542 37.515819 -1.101188 0.783555 0.085319 -0.026306 -167085.000000 0 0 1
-10.606623 23.362103 26.653282 36.995753 -1.144613 0.766357 0.048730 -0.019942 -623252.000000 0 0 1
-10.285123 22.554903 27.750432 37.210131 -1.142961 0.729097 0.037855 -0.019742 -661068.000000 0 0 1
-8.786323 22.162703 27.815722 36.634673 -1.193357 0.708601 0.033551 -0.021842 389296.000000 0 0 1
-7.823523 23.152403 28.063032 37.212566 -1.244929 0.716471 0.037773 -0.018665 -3292.610000 0 0 1
-7.741423 24.308203 27.197472 37.289688 -1.262482 0.753416 0.041733 -0.010916 -943207.000000 0 0 1
-6.680423 25.383503 27.578902 38.072905 -1.313452 0.760675 0.042445 -0.013502 757543.000000 0 0 1
-5.352023 24.895403 27.348692 37.368117 -1.359039 0.749731 0.050269 -0.011316 303792.000000 0 0 1
-4.414823 25.901303 27.668162 38.156197 -1.401971 0.759575 0.068835 -0.005366 337140.000000 0 0 1
-2.930223 25.450803 27.667052 37.706702 -1.456168 0.746981 0.068799 -0.003453 259241.000000 0 0 1
-2.341123 25.212403 26.352562 36.545912 -1.478206 0.765435 0.077861 -0.014032 476379.000000 0 0 1
-0.985823 24.819203 26.554872 36.361050 -1.531097 0.752019 0.107954 -0.011366 814291.000000 0 0 1
-0.225023 24.580003 25.187812 35.194503 -1.561642 0.773207 0.107090 -0.018845 247424.000000 0 0 1
-0.800023 23.490403 24.475462 33.933572 -1.536752 0.765154 0.097642 -0.012637 127753.000000 0 0 1
-0.235423 23.361903 23.185332 32.914944 -1.560719 0.789217 0.093804 -0.015410 -59700.500000 0 0 1
-0.633223 22.015803 22.564412 31.531718 -1.542042 0.773299 0.078001 -0.011892 387160.000000 0 0 1
0.207877 20.972003 23.055562 31.167725 1.560885 0.738134 0.090400 -0.012670 106395.000000 0 0 1
-0.060823 19.753803 22.398782 29.865061 -1.567717 0.722735 0.088446 -0.010165 208990.000000 0 0 1
1.010877 18.633503 22.659432 29.354372 1.516599 0.688930 0.108520 -0.003568 388481.000000 0 0 1
2.171177 18.892303 21.890482 28.997006 1.456374 0.715261 0.125935 -0.013499 -449237.000000 0 0 1
3.015177 17.773303 21.869382 28.341691 1.402750 0.689392 0.117467 -0.011661 -1024910.000000 0 0 1
4.376877 18.108003 21.310982 28.305738 1.333636 0.718361 0.124255 -0.021893 -1372560.000000 0 0 1
5.231777 18.546903 22.288272 29.463981 1.295857 0.712915 0.126160 -0.016119 -1723440.000000 0 0 1
6.487277 18.731703 21.766382 29.440395 1.237398 0.738711 0.144633 -0.026708 -699524.000000 0 0 1
7.638877 19.166303 22.717112 30.688219 1.191534 0.737347 0.156935 -0.033942 39285.200000 0 0 1
7.464377 20.355303 23.480012 31.958821 1.219318 0.745578 0.146449 -0.030361 133008.000000 0 0 1
7.216477 21.524903 22.724102 32.121392 1.247311 0.784920 0.147255 -0.034935 -1040770.000000 0 0 1
5.998877 22.283003 23.158652 32.693148 1.307818 0.783618 0.110322 -0.021690 -892641.000000 0 0 1
5.793377 23.514603 22.492422 33.051609 1.329234 0.822318 0.093102 -0.021288 275104.000000 0 0 1
4.608177 24.139303 22.973492 33.641085 1.382167 0.819071 0.070463 -0.013358 -30716.600000 0 0 1
4.360377 25.585503 22.417872 34.295654 1.401994 0.858379 0.080336 -0.010379 -31106.100000 0 0 1
3.970677 25.788503 21.094182 33.552611 1.418025 0.890929 0.083562 -0.025733 1282850.000000 0 0 1
2.740577 25.101703 20.681182 32.639203 1.462048 0.884560 0.086696 -0.032988 744196.000000 0 0 1
2.525977 25.366703 19.195082 31.910835 1.471545 0.925391 0.095982 -0.037153 -696454.000000 0 0 1
1.933977 26.620303 19.035582 32.783139 1.498273 0.951268 0.115396 -0.042191 101510.000000 0 0 1
1.668777 26.948503 17.687982 32.278032 1.508951 0.990839 0.125006 -0.036905 102036.000000 0 0 1
0.677777 28.116203 17.472282 33.109831 1.546695 1.014898 0.124449 -0.020793 487402.000000 0 0 1
1.301477 29.369803 17.723082 34.327639 1.526512 1.028281 0.141922 -0.024209 148185.000000 0 0 1
0.284777 30.249103 18.083182 35.243309 1.561382 1.032009 0.119595 -0.025360 -113600.000000 0 0 1
0.828877 31.614303 18.471782 36.624554 1.544584 1.042161 0.135653 -0.023754 -209523.000000 0 0 1
1.342777 31.502103 19.771382 37.216839 1.528197 1.010723 0.161432 -0.037990 -73687.800000 0 0 1
1.788577 32.754603 20.218482 38.533752 1.516245 1.018439 0.185715 -0.040492 -261159.000000 0 0 1
2.342777 32.688203 21.638582 39.271306 1.499248 0.987231 0.178792 -0.057700 -245913.000000 0 0 1
1.306777 32.443903 22.554452 39.535020 1.530540 0.963690 0.192166 -0.047736 282047.000000 0 0 1
1.855377 32.366403 23.847322 40.245761 1.513535 0.936585 0.201237 -0.055994 -442764.000000 0 0 1
0.739277 32.321503 24.860452 40.783185 1.547928 0.915271 0.207441 -0.028590 -718024.000000 0 0 1
-0.079423 33.473803 24.870162 41.701640 -1.568424 0.931808 0.209786 -0.024451 -86195.700000 0 0 1
-1.084323 33.379103 25.843712 42.228400 -1.538323 0.912211 0.225180 -0.023891 -535781.000000 0 0 1
-0.710123 33.509703 27.388332 43.284238 -1.549608 0.885690 0.227528 -0.036110 -423494.000000 0 0 1
0.069277 32.365403 27.780222 42.652841 1.568656 0.861487 0.213347 -0.043315 414170.000000 0 0 1
0.506477 32.479903 29.091222 43.606190 1.555204 0.840440 0.199934 -0.046757 -1032600.000000 0 0 1
1.402377 31.350703 29.568862 43.117872 1.526094 0.815138 0.163924 -0.043162 425748.000000 0 0 1
2.758977 31.551003 29.127552 43.028968 1.483573 0.827214 0.130602 -0.033634 903692.000000 0 0 1
3.135177 31.272103 27.780612 41.946826 1.470875 0.846936 0.138229 -0.042736 -496163.000000 0 0 1
4.678077 31.210303 27.618542 41.937469 1.422015 0.851886 0.103591 -0.036413 148869.000000 0 0 1
5.156777 29.969303 28.133662 41.427701 1.400396 0.824257 0.105244 -0.036396 -488332.000000 0 0 1
6.533177 29.832103 27.960082 41.405350 1.355202 0.829456 0.117832 -0.045315 -309751.000000 0 0 1
7.249277 28.680903 28.762322 41.260361 1.323225 0.799461 0.135462 -0.040137 247587.000000 0 0 1
7.256077 28.896303 30.173452 42.403823 1.324776 0.779061 0.141848 -0.042592 142778.000000 0 0 1
7.901777 27.793603 30.752712 42.197770 1.293803 0.754264 0.126605 -0.042852 10977.500000 0 0 1
7.866277 28.059303 32.297949 43.501268 1.297468 0.734061 0.147495 -0.050521 1056380.000000 0 0 1
6.542677 27.815503 32.857758 43.544702 1.339779 0.715790 0.153473 -0.055084 1171840.000000 0 0 1
6.387977 27.726203 -33.059314 43.617277 1.344353 2.430947 0.168978 -0.052858 -218627.000000 0 0 1
6.660677 26.273003 -32.662804 42.444012 1.322509 2.448933 0.176979 -0.053520 -347635.000000 0 0 1
7.990177 25.869403 -32.867124 42.583058 1.271226 2.452520 0.160686 -0.049257 -187941.000000 0 0 1
8.039677 24.547503 -32.432494 41.461826 1.254291 2.469026 0.170428 -0.054899 228133.000000 0 0 1
9.451577 23.921403 -32.535084 41.474059 1.194513 2.472635 0.168303 -0.046754 131976.000000 0 0 1
10.026377 23.723803 33.506052 42.261124 1.170935 0.655351 0.140969 -0.030311 1699750.000000 0 0 1
11.344477 23.100303 33.405792 42.169516 1.114297 0.656426 0.157565 -0.048281 1410040.000000 0 0 1
11.384777 21.608503 -33.622474 41.557326 1.085888 2.513352 0.159778 -0.050667 -662147.000000 0 0 1
10.935977 20.761403 32.652993 40.210066 1.085982 0.623123 0.154792 -0.051158 171643.000000 0 0 1
10.464377 19.489503 33.017899 39.743246 1.078048 0.590289 0.149108 -0.048767 414105.000000 0 0 1
9.073277 19.360703 -33.644784 39.863928 1.132547 2.575477 0.168232 -0.059906 22230.100000 0 0 1
9.069777 19.939403 -32.358204 39.075492 1.143902 2.546497 0.170758 -0.053094 167335.000000 0 0 1
7.766777 20.236503 -31.872414 38.544646 1.204333 2.544362 0.185545 -0.056846 290469.000000 0 0 1
7.741877 20.716603 -30.421214 37.610698 1.213162 2.512981 0.198247 -0.063962 68989.000000 0 0 1
8.555577 21.868403 -30.243744 38.289803 1.197873 2.481384 0.217357 -0.066277 183930.000000 0 0 1
8.689777 22.317103 -28.915994 37.545973 1.199481 2.449871 0.180905 -0.057039 999242.000000 0 0 1
10.207377 22.709103 -28.662894 37.966504 1.148372 2.426377 0.188492 -0.064320 1347680.000000 0 0 1
10.937777 21.529703 -28.277524 37.185770 1.100744 2.434786 0.184697 -0.058554 -374520.000000 0 0 1
12.310177 21.717703 -28.491964 37.881277 1.055126 2.422097 0.202170 -0.059819 247743.000000 0 0 1
13.159977 20.377203 -28.582894 37.488629 0.997366 2.437875 0.201117 -0.068550 397636.000000 0 0 1
13.023177 19.534903 -29.785894 37.926443 0.982797 2.474073 0.188890 -0.063245 630381.000000 0 0 1
11.668977 19.127303 -30.004284 37.446974 1.023006 2.500173 0.197764 -0.064159 591471.000000 0 0 1
11.722477 17.895503 -30.902294 37.584802 0.990878 2.536065 0.191026 -0.071185 -498893.000000 0 0 1
12.437177 16.751903 -30.480424 36.937324 0.932155 2.541340 0.180378 -0.063467 94478.700000 0 0 1
12.474877 15.761803 -31.466804 37.339213 0.901283 2.573127 0.166114 -0.058389 -751761.000000 0 0 1
13.559177 15.949803 -32.498884 38.657794 0.866235 2.569336 0.135562 -0.043209 -1034070.000000 0 0 1
13.613277 17.141703 -33.184394 39.753784 0.899626 2.558471 0.139671 -0.049125 186058.000000 0 0 1
14.339277 17.107003 32.917854 39.772472 0.873186 0.595881 0.139727 -0.046847 -84310.900000 0 0 1
13.525177 16.596603 31.732682 38.279770 0.887014 0.593537 0.146931 -0.048958 -735210.000000 0 0 1
13.908577 17.094103 30.446082 37.584848 0.887789 0.626537 0.143268 -0.052692 305167.000000 0 0 1
13.027077 16.808503 29.334472 36.231778 0.911468 0.627268 0.149021 -0.045874 1315790.000000 0 0 1
11.521877 17.253203 29.412692 35.993515 0.982002 0.614319 0.135616 -0.046534 363824.000000 0 0 1
10.718577 16.435003 30.175382 35.993762 0.992890 0.576546 0.141008 -0.042463 196075.000000 0 0 1
9.343277 16.834203 30.170172 35.790034 1.064109 0.568003 0.140347 -0.040011 710597.000000 0 0 1
8.536977 16.150603 31.297112 36.238532 1.084543 0.528346 0.161183 -0.046571 -103110.000000 0 0 1
8.838777 16.524603 32.629415 37.627984 1.079631 0.521329 0.170083 -0.047005 -7502.110000 0 0 1
8.375177 15.514203 33.456232 37.817371 1.075787 0.484991 0.185185 -0.055986 -207419.000000 0 0 1
8.430077 15.902603 -32.417434 37.078957 1.083354 2.634749 0.183476 -0.056477 -331444.000000 0 0 1
7.216077 16.433403 -31.966104 36.660065 1.157035 2.629988 0.171972 -0.059813 -110885.000000 0 0 1
7.232177 16.623003 -30.598904 35.565736 1.160427 2.606748 0.174830 -0.071866 483262.000000 0 0 1
5.877177 17.250303 -30.125594 35.208886 1.242431 2.597553 0.173115 -0.073250 -584117.000000 0 0 1
5.929177 17.702703 -28.763374 34.290998 1.247609 2.565876 0.165593 -0.077737 114964.000000 0 0 1
4.947777 18.667703 -28.451444 34.386747 1.311709 2.545251 0.169735 -0.078341 615426.000000 0 0 1
3.446677 18.287403 -28.642424 34.156949 1.384509 2.565419 0.174865 -0.077244 -935504.000000 0 0 1
2.885077 17.546403 -27.584614 32.819368 1.407829 2.568998 0.171219 -0.070438 586979.000000 0 0 1
1.498777 17.199203 -27.717824 32.654812 1.483874 2.584532 0.157024 -0.065050 1681060.000000 0 0 1
0.457077 18.398303 -27.565424 33.144519 1.545958 2.552911 0.146842 -0.067203 94122.300000 0 0 1
0.230277 18.732303 -26.190434 32.200793 1.558504 2.520679 0.144765 -0.059057 -1741.780000 0 0 1
-0.541623 19.938103 -26.070264 32.824991 -1.543638 2.488519 0.154339 -0.058971 155415.000000 0 0 1
-1.043723 20.217003 -24.615794 31.870895 -1.519216 2.453344 0.132877 -0.065666 -656436.000000 0 0 1
-1.905223 19.257203 -24.071294 30.885223 -1.472182 2.464470 0.114944 -0.050626 -237116.000000 0 0 1
-2.389823 19.829703 -22.846794 30.346407 -1.450857 2.423203 0.101038 -0.046924 -105111.000000 0 0 1
-3.569723 19.041703 -22.262394 29.511754 -1.385479 2.425470 0.075496 -0.034698 213665.000000 0 0 1
-4.905923 19.461403 -22.508894 30.157331 -1.323857 2.413406 0.091567 -0.028563 -112748.000000 0 0 1
-5.745023 18.491903 -21.928294 29.254160 -1.269572 2.418222 0.081088 -0.030577 986095.000000 0 0 1
-7.305823 18.754003 -21.870394 29.722077 -1.199322 2.397688 0.147946 -0.026888 1345300.000000 0 0 1
-7.814823 19.706603 -20.949794 29.804623 -1.193260 2.350269 0.118336 -0.025380 39014.100000 0 0 1
-7.603023 21.062303 -21.294994 30.901511 -1.224375 2.331077 0.133047 -0.038692 -402304.000000 0 0 1
-7.799023 22.149103 -20.188994 30.967774 -1.232239 2.280931 0.134647 -0.039864 177694.000000 0 0 1
-6.835323 22.230403 -19.149894 30.126914 -1.272495 2.259635 0.136567 -0.036573 130163.000000 0 0 1
-7.199623 23.276703 -18.270894 30.454311 -1.270824 2.214228 0.148361 -0.044363 11210.800000 0 0 1
-6.290923 23.360303 -17.029194 29.585012 -1.307737 2.184137 0.143365 -0.043983 173454.000000 0 0 1
-4.952023 23.706303 -17.299094 29.761889 -1.364867 2.191060 0.136969 -0.051402 -625335.000000 0 0 1
-4.251523 23.900303 -16.112694 29.136212 -1.394752 2.156772 0.127132 -0.043163 -897307.000000 0 0 1
-2.791323 24.210903 -16.336094 29.339859 -1.456011 2.161311 0.129648 -0.054061 -643039.000000 0 0 1
-2.455523 25.585603 -16.552894 30.572063 -1.475117 2.142944 0.132227 -0.059664 224152.000000 0 0 1
-1.223223 25.741003 -17.263394 31.018064 -1.523312 2.161035 0.133344 -0.061852 667634.000000 0 0 1
-0.832823 27.259503 -17.445594 32.374726 -1.540254 2.139885 0.132980 -0.064033 551070.000000 0 0 1
-1.890523 27.928703 -18.139594 33.356130 -1.503208 2.145774 0.146722 -0.062644 316242.000000 0 0 1
-1.394323 28.911603 -18.993894 34.620702 -1.522607 2.151519 0.166622 -0.071496 -483555.000000 0 0 1
-2.475923 29.544703 -19.907494 35.711735 -1.487189 2.162107 0.217246 -0.070085 643940.000000 0 0 1
-3.349423 30.465803 -19.209594 36.171706 -1.461296 2.130655 0.210949 -0.064498 823120.000000 0 0 1
-4.540123 29.826903 -18.716994 35.504686 -1.419740 2.126063 0.167542 -0.056317 356831.000000 0 0 1
-5.316423 30.644903 -17.643594 35.758508 -1.399021 2.086802 0.194630 -0.046176 314788.000000 0 0 1
-5.937323 31.777103 -18.238194 37.116948 -1.386083 2.084460 0.221327 -0.059479 -229224.000000 0 0 1
-6.439723 32.623903 -17.251494 37.462023 -1.375909 2.049362 0.222262 -0.071905 -468103.000000 0 0 1
-7.144823 -33.548056 -17.720594 38.607513 1.360959 2.047658 0.225150 -0.056323 -1170450.000000 0 0 1
-8.385423 33.569403 -18.217294 39.103580 -1.326012 2.055417 0.196415 -0.062715 -1204120.000000 0 0 1
-9.148823 -32.721756 -18.568094 38.719355 1.298164 2.070945 0.221770 -0.055417 -81519.900000 0 0 1
30.099477 -20.077097 -26.298284 44.728829 -0.588250 2.199318 0.137612 -0.031539 239238.000000 0 0 1
29.878577 -21.162197 -25.427144 44.576985 -0.616257 2.177801 0.134226 -0.032952 -674367.000000 0 0 1
28.517977 -21.444097 -25.310564 43.746417 -0.644748 2.187776 0.111678 -0.037751 -569682.000000 0 0 1
28.260577 -22.840597 -24.662794 43.915903 -0.679729 2.167104 0.129884 -0.037908 82608.800000 0 0 1
28.662577 -23.966197 -25.504904 45.237397 -0.696398 2.169778 0.134580 -0.020372 808117.000000 0 0 1
30.018277 -24.405697 -25.289554 46.220088 -0.682634 2.149758 0.127521 -0.016722 772338.000000 0 0 1
30.432177 -25.641567 -26.073564 47.575604 -0.700171 2.150821 0.110727 -0.025421 -70682.300000 0 0 1
30.119777 -26.808117 -25.308084 47.606462 -0.727291 2.131297 0.122693 -0.034634 -58370.800000 0 0 1
30.445777 -28.065627 -25.885504 48.833227 -0.744742 2.129491 0.113877 -0.027467 480481.000000 0 0 1
29.388477 -28.601897 -26.905684 49.047599 -0.771835 2.151441 0.115954 -0.030196 129476.000000 0 0 1
29.485977 -27.900717 -28.174864 49.413519 -0.757781 2.177528 0.082878 -0.028776 683818.000000 0 0 1
30.640177 -28.126737 -29.020164 50.715912 -0.742655 2.179995 0.056910 -0.024079 483858.000000 0 0 1
30.871077 -29.561507 -29.593304 51.987208 -0.763732 2.176380 0.065018 -0.023233 -1235240.000000 0 0 1
31.414577 -30.554837 -28.743564 52.408646 -0.771525 2.151307 0.081656 -0.027998 -56204.000000 0 0 1
32.766477 -30.489447 -28.350674 52.981215 -0.749417 2.135432 0.090909 -0.028256 400298.000000 0 0 1
33.853977 -30.353607 -29.462624 54.180065 -0.730936 2.145744 0.080225 -0.025212 -730583.000000 0 0 1
33.853577 -29.056207 -30.041964 53.785198 -0.709288 2.163438 0.086447 -0.033254 -413962.000000 0 0 1
35.012477 -28.767457 -30.788774 54.784932 -0.687794 2.167590 0.086556 -0.032647 -256591.000000 0 0 1
34.963077 -27.524747 -31.702774 54.636017 -0.666919 2.189837 0.080640 -0.025974 -81525.500000 0 0 1
34.890577 -26.275427 -31.039554 53.583620 -0.645470 2.188633 0.084864 -0.015966 -108653.000000 0 0 1
33.690177 -26.005087 -30.347054 52.270798 -0.657364 2.190230 0.095418 -0.025256 -311083.000000 0 0 1
33.774377 -24.727097 -29.486774 51.201638 -0.631963 2.184495 0.094279 -0.023523 -807385.000000 0 0 1
34.669577 -24.728197 -28.431434 51.203611 -0.619566 2.159475 0.099999 -0.014542 -95080.700000 0 0 1
34.776577 -23.428797 -27.916684 50.375193 -0.592852 2.158168 0.095691 -0.020595 -259415.000000 0 0 1
35.468177 -23.341197 -26.544564 50.074115 -0.582040 2.129521 0.101481 -0.027546 -578201.000000 0 0 1
34.806677 -23.937697 -25.487444 49.336882 -0.602445 2.113672 0.111029 -0.034176 1489720.000000 0 0 1
33.683177 -23.152597 -24.893094 47.856717 -0.602195 2.117833 0.118993 -0.027369 1367020.000000 0 0 1
34.098677 -21.945497 -24.043694 47.142591 -0.571854 2.106005 0.133262 -0.022178 -477072.000000 0 0 1
34.790877 -20.913597 -24.674094 47.503627 -0.541245 2.116962 0.144755 -0.036116 -3550.590000 0 0 1
34.882077 -19.726897 -23.921994 46.670886 -0.514689 2.108969 0.118150 -0.047088 15163.800000 0 0 1
34.981477 -18.499697 -24.855294 46.730378 -0.486455 2.131624 0.099070 -0.056608 299565.000000 0 0 1
33.760577 -18.230997 -25.520214 46.080659 -0.495140 2.157737 0.118860 -0.047256 103158.000000 0 0 1
33.800577 -16.948097 -26.092944 45.940818 -0.464778 2.174832 0.106973 -0.046210 -130204.000000 0 0 1
32.725877 -16.622797 -27.159884 45.661359 -0.469980 2.207827 0.108926 -0.039491 -16122.800000 0 0 1
31.477577 -16.382497 -26.544304 44.315056 -0.479873 2.213036 0.121384 -0.041769 -69422.500000 0 0 1
30.488977 -16.187097 -27.552244 44.167024 -0.488074 2.244416 0.098707 -0.037490 1121690.000000 0 0 1
29.051877 -15.841797 -26.983264 42.697432 -0.499223 2.254882 0.091561 -0.032537 1231210.000000 0 0 1
28.503477 -16.892097 -26.154954 42.212235 -0.534985 2.239037 0.101462 -0.027306 -33923.300000 0 0 1
27.527877 -16.457397 -25.244944 40.815893 -0.538833 2.237638 0.122208 -0.033183 49927.200000 0 0 1
27.159577 -17.515497 -24.175094 40.359267 -0.572789 2.213045 0.115468 -0.030368 42151.000000 0 0 1
26.147777 -17.212997 -23.244194 38.990846 -0.582186 2.209487 0.105589 -0.027125 -174157.000000 0 0 1
25.852977 -18.276297 -22.428994 38.800248 -0.615363 2.187149 0.136141 -0.029624 9005.520000 0 0 1
26.220477 -18.013397 -20.929494 38.079386 -0.601946 2.152715 0.124053 -0.038593 321736.000000 0 0 1
25.395277 -16.985697 -20.338694 36.702813 -0.589514 2.158132 0.110262 -0.037158 336211.000000 0 0 1
25.572677 -15.677997 -20.917794 36.569325 -0.549979 2.179743 0.107363 -0.029367 703499.000000 0 0 1
26.949577 -14.948797 -20.649194 37.096300 -0.506441 2.161129 0.103548 -0.030433 727809.000000 0 0 1
27.085377 -14.378197 -19.320394 36.244004 -0.488020 2.133015 0.097086 -0.035265 986832.000000 0 0 1
28.095777 -13.319097 -19.300294 36.596071 -0.442681 2.126319 0.087355 -0.035541 695811.000000 0 0 1
27.989277 -12.471497 -18.064294 35.570446 -0.419173 2.103478 0.085873 -0.021942 -139520.000000 0 0 1
28.470977 -13.117297 -16.891394 35.608696 -0.431737 2.065035 0.098498 -0.018886 122956.000000 0 0 1
28.585677 -12.219097 -15.789794 34.867820 -0.403948 2.040752 0.083227 -0.020164 -130349.000000 0 0 1
29.090177 -12.789297 -14.477094 34.919777 -0.414208 1.998279 0.112342 -0.027232 98706.400000 0 0 1
28.399177 -14.026297 -14.057394 34.653436 -0.458754 1.988493 0.148911 -0.037585 562036.000000 0 0 1
28.904677 -14.466197 -12.814094 34.769990 -0.464031 1.948233 0.162346 -0.039265 93690.000000 0 0 1
28.068377 -15.580097 -12.097394 34.306270 -0.506732 1.931176 0.167380 -0.064787 -232099.000000 0 0 1
26.755477 -15.275597 -11.727394 32.965606 -0.518773 1.934509 0.151080 -0.060534 -64160.500000 0 0 1
26.104477 -16.360397 -11.059094 32.732398 -0.559841 1.915443 0.125122 -0.048910 432231.000000 0 0 1
24.616277 -16.028997 -10.746394 31.278984 -0.577186 1.921508 0.132753 -0.046470 187167.000000 0 0 1
24.338277 -15.215097 -9.627194 30.274309 -0.558708 1.894414 0.118587 -0.045584 177447.000000 0 0 1
22.949277 -15.147397 -9.401094 29.060171 -0.583400 1.900227 0.133856 -0.043926 -395819.000000 0 0 1
22.582777 -14.937097 -7.920394 28.210483 -0.584374 1.855383 0.110033 -0.026432 -329371.000000 0 0 1
22.827677 -13.603897 -7.422894 27.591090 -0.537428 1.843184 0.148246 -0.031390 351108.000000 0 0 1
22.518077 -13.325697 -6.091894 26.865390 -0.534352 1.799542 0.135331 -0.026286 -524631.000000 0 0 1
23.421977 -13.941697 -5.033594 27.718171 -0.536912 1.753409 0.131737 -0.022042 930398.000000 0 0 1
24.813477 -13.515297 -5.001394 28.694701 -0.498746 1.745988 0.165084 -0.037403 1565810.000000 0 0 1
25.509877 -14.267297 -4.042794 29.506843 -0.509944 1.708241 0.166355 -0.045647 -451482.000000 0 0 1
27.039677 -14.224597 -4.141694 30.832401 -0.484281 1.705533 0.171352 -0.042239 -340115.000000 0 0 1
27.621777 -13.131397 -3.470994 30.780578 -0.443775 1.683802 0.188872 -0.043834 -829254.000000 0 0 1
28.889977 -12.838897 -3.922694 31.856798 -0.418193 1.694245 0.190161 -0.054595 -796138.000000 0 0 1
29.750177 -12.085997 -2.894494 32.241626 -0.385882 1.660692 0.249951 -0.068488 -967578.000000 0 0 1
30.381377 -12.805597 -1.831294 33.020676 -0.398898 1.626284 0.257113 -0.064494 489472.000000 0 0 1
31.011777 -11.933497 -0.927094 33.241513 -0.367339 1.598690 0.273461 -0.065220 260064.000000 0 0 1
32.356977 -11.250597 -1.340494 34.283332 -0.334626 1.609907 0.266896 -0.061294 -244679.000000 0 0 1
32.191077 -10.395697 -2.461594 33.917480 -0.312365 1.643436 0.268148 -0.068841 -835757.000000 0 0 1
33.406977 -10.148297 -3.046394 35.047034 -0.294919 1.657829 0.291865 -0.067222 -1075390.000000 0 0 1
33.256777 -9.716497 -4.523894 34.941225 -0.284254 1.700632 0.265382 -0.064323 -289121.000000 0 0 1
32.653977 -10.780097 -5.296594 34.792911 -0.318866 1.723623 0.269048 -0.066781 509667.000000 0 0 1
32.616677 -10.460297 -6.676694 34.897617 -0.310341 1.763306 0.246664 -0.063680 -41046.900000 0 0 1
31.442577 -11.148197 -7.408094 34.173057 -0.340729 1.789313 0.253950 -0.054773 135201.000000 0 0 1
31.626977 -12.577697 -7.357594 34.822383 -0.378512 1.783690 0.236858 -0.053311 687543.000000 0 0 1
30.473977 -13.231597 -7.910494 34.151345 -0.409632 1.804550 0.222392 -0.047073 526865.000000 0 0 1
30.503777 -14.827697 -8.104794 34.871603 -0.452461 1.805360 0.237274 -0.045698 -85195.100000 0 0 1
30.829477 -15.252497 -9.400694 35.657655 -0.459429 1.837587 0.241154 -0.054622 137140.000000 0 0 1
30.953377 -16.650797 -9.296694 36.356418 -0.493530 1.829378 0.224586 -0.053932 -75778.800000 0 0 1
31.242577 -17.284997 -10.667394 37.264770 -0.505336 1.861117 0.192730 -0.058945 442944.000000 0 0 1
32.537777 -16.938897 -11.178394 38.348268 -0.479985 1.866587 0.210449 -0.053632 803523.000000 0 0 1
32.765277 -17.569597 -12.476794 39.216381 -0.492207 1.894577 0.176841 -0.034953 -138908.000000 0 0 1
32.330977 -16.863197 -13.746294 38.969477 -0.480762 1.931300 0.159839 -0.037949 -187990.000000 0 0 1
33.132577 -15.780997 -14.146494 39.331042 -0.444507 1.938719 0.149689 -0.034834 128251.000000 0 0 1
32.387377 -14.967297 -15.026194 38.713676 -0.432898 1.969405 0.123960 -0.029156 -20986.100000 0 0 1
33.274577 -13.835397 -15.663294 39.293186 -0.394048 1.980815 0.123857 -0.033782 1801740.000000 0 0 1
34.407977 -14.182897 -16.520694 40.718507 -0.390977 1.988573 0.084616 -0.034220 1358950.000000 0 0 1
35.506577 -14.868297 -15.960494 41.671581 -0.396563 1.963845 0.105622 -0.036620 -859307.000000 0 0 1
36.609077 -15.015697 -17.000194 43.066255 -0.389237 1.976587 0.099788 -0.042095 -679912.000000 0 0 1
37.833577 -15.461897 -16.466994 44.063724 -0.387968 1.953800 0.113560 -0.047792 -47774.500000 0 0 1
-37.800011 -15.976697 -17.547794 44.632059 0.399890 1.974868 0.109397 -0.056955 286586.000000 0 0 1
-36.246511 -15.964697 -17.352294 43.240990 0.414882 1.983724 0.136531 -0.051155 672532.000000 0 0 1
-35.784611 -16.812097 -16.302594 42.766337 0.439208 1.961892 0.124093 -0.052909 84626.500000 0 0 1
-35.919211 -16.266397 -15.004294 42.189029 0.425230 1.934400 0.108119 -0.048787 -617162.000000 0 0 1
-35.245411 -17.099297 -13.894894 41.565527 0.451697 1.911647 0.091184 -0.038145 667665.000000 0 0 1
-33.819511 -16.945197 -13.959294 40.320725 0.464486 1.924321 0.112551 -0.045055 626479.000000 0 0 1
-33.250611 -17.419397 -12.742894 39.641138 0.482570 1.898063 0.088653 -0.024547 485030.000000 0 0 1
-31.694911 -17.415097 -12.660394 38.316296 0.502429 1.907543 0.112649 -0.027847 367826.000000 0 0 1
-31.115311 -16.099797 -12.646394 37.246440 0.477489 1.917217 0.115676 -0.036674 255026.000000 0 0 1
-29.864311 -16.078897 -11.982094 35.971913 0.493892 1.910381 0.143940 -0.038187 63459.500000 0 0 1
-29.894311 -15.895397 -10.454394 35.434839 0.488700 1.870285 0.143922 -0.042025 183393.000000 0 0 1
-30.699611 -16.957097 -9.884294 36.437735 0.504650 1.845504 0.114830 -0.036899 134703.000000 0 0 1
-30.902511 -16.705597 -8.481494 36.138316 0.495590 1.807701 0.130723 -0.031467 -507523.000000 0 0 1
-31.445411 -17.954297 -7.805594 37.041840 0.518798 1.783112 0.122890 -0.023966 64201.900000 0 0 1
-32.774311 -18.301897 -8.130794 38.408654 0.509286 1.784102 0.087716 -0.018286 -66083.300000 0 0 1
-32.858411 -18.878797 -9.418094 39.048491 0.521496 1.814388 0.092441 -0.016289 -516475.000000 0 0 1
-34.210711 -19.492397 -9.865794 40.591380 0.517898 1.816307 0.076486 -0.011828 483622.000000 0 0 1
-35.286011 -18.610397 -10.198194 41.175874 0.485339 1.821075 0.089110 -0.008138 356698.000000 0 0 1
-36.452611 -19.389197 -10.284994 42.550145 0.488842 1.814929 0.094565 -0.028526 110907.000000 0 0 1
-37.741111 -18.667097 -10.768494 43.460469 0.459326 1.821181 0.108224 -0.052675 215978.000000 0 0 1
-37.919611 -18.605897 -12.155594 43.952642 0.456153 1.851010 0.093882 -0.057166 1462830.000000 0 0 1
37.214677 -17.932197 -12.446094 43.143959 -0.449029 1.863433 0.128517 -0.059961 1407990.000000 0 0 1
36.795677 -18.080497 -13.957094 43.308506 -0.456724 1.898924 0.111289 -0.057452 -184409.000000 0 0 1
36.151377 -19.262297 -14.282294 43.381357 -0.489560 1.906281 0.084141 -0.049972 -203707.000000 0 0 1
35.520977 -19.147397 -15.542994 43.242887 -0.494393 1.938458 0.079286 -0.046829 -733963.000000 0 0 1
34.336377 -20.117897 -15.552594 42.727038 -0.529992 1.943354 0.101137 -0.047778 -1561390.000000 0 0 1
33.322477 -19.658197 -14.717494 41.393681 -0.532988 1.934298 0.134884 -0.049988 -412305.000000 0 0 1
32.193077 -20.515597 -14.865494 40.966655 -0.567372 1.942140 0.155708 -0.045868 551737.000000 0 0 1
31.181077 -20.168097 -16.002494 40.436265 -0.574126 1.977676 0.157242 -0.044517 -599722.000000 0 0 1
30.570477 -18.903897 -15.808294 39.265934 -0.553818 1.985147 0.147028 -0.045155 190562.000000 0 0 1
29.829577 -18.595597 -16.999094 39.045731 -0.557444 2.021239 0.134374 -0.041260 443665.000000 0 0 1
29.106677 -17.177097 -16.920194 37.796088 -0.533140 2.034955 0.128254 -0.031959 976554.000000 0 0 1
28.017577 -17.203197 -15.975494 36.553400 -0.550661 2.023107 0.135097 -0.031392 1006250.000000 0 0 1
27.224077 -16.011597 -15.884694 35.353149 -0.531654 2.036795 0.107265 -0.032015 -97853.600000 0 0 1
25.806977 -16.159397 -15.213694 34.037959 -0.559436 2.034163 0.081714 -0.037296 570517.000000 0 0 1
24.825277 -16.838097 -15.948694 33.973177 -0.595989 2.059464 0.078328 -0.032545 75259.100000 0 0 1
24.477577 -16.235797 -17.194394 34.035277 -0.585663 2.100402 0.085267 -0.024747 -159842.000000 0 0 1
23.325177 -16.933497 -18.058394 34.013421 -0.627947 2.130482 0.061339 -0.025204 2712680.000000 0 0 1
21.956377 -16.907197 -17.511794 32.781073 -0.656201 2.134363 0.055251 -0.022035 1130840.000000 0 0 1
21.079577 -17.500597 -18.389894 32.997086 -0.692896 2.161949 0.049113 -0.031906 415785.000000 0 0 1
19.663977 -17.700197 -17.729594 31.848194 -0.732889 2.161193 0.066182 -0.026972 847585.000000 0 0 1
18.829777 -16.552197 -17.716594 30.698753 -0.721116 2.185983 0.086234 -0.026365 1491660.000000 0 0 1
17.414577 -16.866897 -17.662894 29.995625 -0.769424 2.200430 0.112828 -0.035643 1005870.000000 0 0 1
16.599977 -15.637497 -17.333694 28.645201 -0.755551 2.220709 0.140987 -0.040569 -359693.000000 0 0 1
16.014977 -14.870397 -18.393894 28.564726 -0.748356 2.270430 0.145699 -0.041762 674325.000000 0 0 1
14.929477 -14.048997 -17.950794 27.248755 -0.755024 2.289985 0.171800 -0.046393 716882.000000 0 0 1
14.049777 -13.609897 -19.179794 27.395073 -0.769496 2.346360 0.159729 -0.043986 245970.000000 0 0 1
14.469277 -12.364497 -19.761394 27.436353 -0.707121 2.374978 0.159181 -0.044494 -482988.000000 0 0 1
13.759477 -12.052097 -20.886994 27.764056 -0.719347 2.422348 0.152370 -0.032941 -480520.000000 0 0 1
13.998377 -10.651197 -21.374594 27.681688 -0.650433 2.453024 0.138263 -0.028277 486741.000000 0 0 1
15.340777 -10.563997 -21.892094 28.743717 -0.603049 2.436622 0.111792 -0.022466 644346.000000 0 0 1
15.653777 -9.232697 -22.301094 28.768424 -0.532890 2.457818 0.115088 -0.021144 502159.000000 0 0 1
17.005277 -9.011197 -23.055794 30.032495 -0.487285 2.446033 0.094540 -0.015304 513809.000000 0 0 1
17.078277 -9.727597 -24.275094 31.234178 -0.517758 2.460995 0.106641 -0.012262 26648.800000 0 0 1
18.233877 -9.326197 -24.963894 32.290064 -0.472786 2.454532 0.100975 -0.019534 -484946.000000 0 0 1
22.931077 5.749303 -7.804394 24.895730 0.245657 1.889655 0.289117 0.014218 -94873.900000 0 1 0
22.522677 7.056403 -7.540494 24.777467 0.303615 1.880030 0.271447 -0.003094 546088.000000 0 1 0
21.752577 7.174703 -6.358294 23.771388 0.318596 1.841570 0.245425 -0.008073 -303286.000000 0 1 0
21.305477 8.588103 -6.143594 23.778617 0.383170 1.832127 0.203137 -0.000965 -632674.000000 0 1 0
20.181677 8.940103 -6.918194 23.131947 0.417002 1.874520 0.103849 -0.021499 640617.000000 0 1 0
19.617777 10.288303 -6.808394 23.174568 0.483006 1.868983 0.085349 -0.020576 37787.700000 0 1 0
19.369777 10.900803 -5.298394 22.849262 0.512597 1.804811 0.131192 -0.020067 -611511.000000 0 1 0
20.520077 11.074803 -4.493094 23.746847 0.494905 1.761152 0.153988 -0.013030 360372.000000 0 1 0
21.311577 12.191103 -4.884994 25.033368 0.519608 1.767196 0.219757 -0.023466 291311.000000 0 0 1
22.173477 12.762303 -3.700594 25.850220 0.522260 1.714445 0.187366 -0.040134 541996.000000 0 0 1
23.283677 11.953603 -3.315394 26.382003 0.474302 1.696798 0.162011 -0.059946 332136.000000 0 0 1
23.923277 12.588503 -2.247894 27.126494 0.484390 1.653759 0.136082 -0.060004 -108974.000000 0 0 1
24.934077 11.638003 -1.548794 27.559937 0.436696 1.627023 0.162781 -0.061187 224088.000000 0 0 1
26.134777 11.352303 -2.290894 28.585828 0.409785 1.651023 0.144419 -0.047487 804595.000000 0 0 1
26.856077 10.408203 -1.498094 28.841357 0.369732 1.622762 0.185705 -0.053054 -1460.530000 0 0 1
28.315377 10.085103 -1.840694 30.114084 0.342161 1.631958 0.208743 -0.045472 361901.000000 0 0 1
29.278977 11.111403 -1.646994 31.359758 0.362711 1.623340 0.171072 -0.054297 871743.000000 0 0 1
30.654477 10.776603 -1.703594 32.538199 0.338056 1.623177 0.147642 -0.038088 428283.000000 0 0 1
31.678977 11.780203 -1.188294 33.819267 0.356017 1.605940 0.126215 -0.027474 -523371.000000 0 0 1
31.877577 11.858403 0.216806 34.012478 0.356136 1.564422 0.149664 -0.044727 667743.000000 0 0 1
32.829177 12.858403 0.608006 35.262772 0.373310 1.553553 0.140804 -0.033617 528554.000000 0 0 1
34.339377 12.483503 0.583506 36.542731 0.348680 1.554828 0.151972 -0.030185 392743.000000 0 0 1
35.207677 13.589803 0.841706 37.748798 0.368371 1.548497 0.147087 -0.044329 457322.000000 0 0 1
35.855577 14.237403 -0.262394 38.579722 0.377983 1.577598 0.167479 -0.026736 -188547.000000 0 0 1
35.021477 15.260503 -1.059294 38.216606 0.410938 1.598518 0.118166 0.000139 -606861.000000 0 0 1
33.966877 14.827703 -1.847694 37.108268 0.411600 1.620609 0.134256 0.004669 -610457.000000 0 0 1
33.424777 15.926503 -2.482894 37.108409 0.444662 1.637756 0.116286 0.030409 275495.000000 0 0 1
32.111277 15.496803 -3.223694 35.800520 0.449628 1.660964 0.124624 0.003002 -11829.700000 0 0 1
32.417077 14.641403 -4.341194 35.834112 0.424231 1.692242 0.100489 0.006373 631524.000000 0 0 1
31.281377 14.412003 -5.156494 34.825563 0.431734 1.719409 0.079462 0.001315 647374.000000 0 0 1
30.096077 13.577103 -4.592494 33.334706 0.423789 1.709005 0.097500 -0.023861 877222.000000 0 0 1
28.935877 13.383703 -5.432994 32.340778 0.433225 1.739589 0.134439 -0.038041 523957.000000 0 0 1
27.867877 12.769103 -4.810694 31.029202 0.429653 1.726462 0.137240 -0.019121 -426806.000000 0 0 1
26.742577 12.455403 -5.800494 30.065732 0.435876 1.764941 0.135591 -0.027847 -189800.000000 0 0 1
27.259477 11.413103 -6.633894 30.287730 0.396509 1.791616 0.131746 -0.015518 763720.000000 0 0 1
26.423877 11.002503 -7.741994 29.651557 0.394551 1.834957 0.156800 -0.020482 187989.000000 0 0 1
26.363477 11.957103 -8.973394 30.307212 0.425801 1.871384 0.167783 -0.013091 -82315.000000 0 0 1
25.661477 13.125003 -8.621994 30.085145 0.472779 1.861458 0.156048 -0.024801 90620.100000 0 0 1
25.725577 14.186003 -9.577894 30.899581 0.503945 1.885956 0.142470 -0.035767 -154390.000000 0 0 1
24.790377 15.361003 -9.099794 30.550442 0.554733 1.873248 0.118504 -0.030657 744166.000000 0 0 1
23.386977 15.225403 -9.125494 29.360488 0.577092 1.886840 0.193304 -0.049461 487829.000000 0 0 1
22.783877 14.381203 -8.115794 28.138767 0.563046 1.863373 0.215832 -0.052129 -549173.000000 0 0 1
21.331077 14.000603 -8.425494 26.870443 0.580825 1.889736 0.259401 -0.045203 -920882.000000 0 0 1
20.428977 14.771403 -7.747594 26.373523 0.626036 1.868959 0.323375 -0.078371 -56242.200000 0 0 1
19.136077 14.157103 -7.824094 25.056526 0.636949 1.888365 0.342392 -0.078642 227751.000000 0 0 1
18.106577 14.688903 -6.825294 24.293964 0.681561 1.855576 0.320376 -0.056339 -463835.000000 0 1 0
18.290777 14.240903 -5.478994 23.819640 0.661545 1.802895 0.319687 -0.047985 643749.000000 0 1 0
17.375677 14.960103 -4.631394 23.391637 0.710834 1.770107 0.253800 -0.025730 413716.000000 0 1 0
16.787677 14.025803 -3.503894 22.154606 0.696005 1.729620 0.165544 0.001334 80908.300000 0 1 0
17.849977 13.480903 -2.753894 22.537533 0.646842 1.693294 0.159077 -0.006356 207596.000000 0 1 0
17.441677 12.451903 -1.895594 21.514072 0.620005 1.659020 0.135992 -0.015827 -4662.870000 0 1 0
17.097077 12.964203 -0.485694 21.461979 0.648773 1.593429 0.140300 -0.023215 241312.000000 0 1 0
16.050577 13.921203 -0.440894 21.251243 0.714471 1.591545 0.133175 -0.025679 162001.000000 0 1 0
16.260077 14.768703 0.655206 21.975760 0.737371 1.540977 0.140385 -0.019416 -508918.000000 0 1 0
15.113677 15.679103 1.063806 21.803422 0.803758 1.521986 0.149874 -0.017156 -563781.000000 0 1 0
14.842777 16.710203 0.155606 22.350909 0.844513 1.563834 0.149139 -0.024200 172638.000000 0 1 0
13.861377 17.605603 0.649606 22.416892 0.903830 1.541814 0.122400 -0.032603 166247.000000 0 1 0
13.776277 18.897903 -0.111194 23.386512 0.940881 1.575551 0.122994 -0.034367 -70899.200000 0 1 0
13.205177 18.851803 -1.414094 23.060071 0.959753 1.632157 0.122175 -0.051629 118739.000000 0 1 0
12.742477 20.107503 -1.867294 23.878216 1.005953 1.649077 0.114315 -0.049762 -854259.000000 0 1 0
11.251177 20.273303 -1.699294 23.248299 1.064142 1.643955 0.092441 -0.046506 -909289.000000 0 1 0
10.820877 20.451803 -0.363494 23.140868 1.084147 1.586505 0.078381 -0.040246 -437080.000000 0 1 0
9.433977 20.262303 -0.251794 22.352277 1.135052 1.582061 0.061567 -0.038797 141759.000000 0 1 0
8.893677 20.414603 1.231606 22.301802 1.159937 1.515544 0.031572 -0.031077 198855.000000 0 1 0
8.700477 21.754703 1.616906 23.485736 1.190346 1.501896 0.023288 -0.021845 310215.000000 0 1 0
7.775677 21.813403 2.704406 23.315221 1.228375 1.454542 0.035860 -0.028515 194096.000000 0 1 0
7.530177 23.269603 3.172606 24.662592 1.257826 1.441798 0.034134 -0.019650 20124.000000 0 1 0
8.133877 23.550303 4.390506 25.299275 1.238240 1.396370 0.036497 -0.026438 187837.000000 0 0 1
7.554677 24.752603 4.948206 26.348610 1.274569 1.381877 0.044229 -0.023098 318832.000000 0 0 1
8.152777 25.195103 6.290706 27.218266 1.257844 1.337567 0.048478 -0.029901 -132164.000000 0 0 1
7.608077 24.409803 7.304606 26.590950 1.268658 1.292516 0.054819 -0.023855 16515.300000 0 0 1
8.144877 24.770803 8.521306 27.432542 1.253123 1.254943 0.054782 -0.017794 -169968.000000 0 0 1
7.767677 23.738803 9.625306 26.767781 1.254563 1.202973 0.064265 -0.024602 130770.000000 0 0 1
6.480677 24.017903 10.158406 26.871027 1.307246 1.183115 0.065021 -0.028336 245162.000000 0 0 1
6.080077 22.857903 10.880206 26.035168 1.310822 1.139659 0.057179 -0.037151 -209276.000000 0 0 1
4.735077 23.044303 11.612106 26.235508 1.368140 1.112289 0.071313 -0.041631 545973.000000 0 0 1
3.615477 23.053703 10.697906 25.670802 1.415235 1.140946 0.069088 -0.043935 831342.000000 0 0 1
2.424677 23.145603 11.492006 25.955042 1.466419 1.112115 0.076541 -0.046338 80686.900000 0 0 1
1.135677 23.393103 10.715406 25.755523 1.522287 1.141707 0.100698 -0.043499 -422710.000000 0 0 1
0.905977 24.746903 10.495306 26.895752 1.534203 1.169924 0.088920 -0.039106 -169077.000000 0 0 1
-0.003623 24.938003 9.437306 26.663960 -1.570651 1.209021 0.091448 -0.036212 965532.000000 0 0 1
-1.309523 25.685703 9.954206 27.578187 -1.519858 1.201515 0.109861 -0.051961 1184930.000000 0 0 1
-2.273823 24.895103 10.646506 27.171392 -1.479713 1.168179 0.113702 -0.046764 519229.000000 0 0 1
-3.560923 25.490303 10.558206 27.819264 -1.431997 1.181510 0.123283 -0.047048 714539.000000 0 0 1
-4.776323 24.622803 11.057706 27.411103 -1.379196 1.155564 0.121394 -0.044293 567690.000000 0 0 1
-4.953323 24.507303 12.442606 27.927795 -1.371367 1.109033 0.105707 -0.032782 248253.000000 0 0 1
-5.752323 25.588303 12.937306 29.244219 -1.349670 1.112536 0.105778 -0.020920 125069.000000 0 0 1
-6.515323 25.330803 14.274106 29.796797 -1.319044 1.071226 0.093832 -0.032464 962724.000000 0 0 1
-7.738223 24.564003 14.175006 29.397298 -1.265615 1.067647 0.093601 -0.022811 780749.000000 0 0 1
-8.305423 24.406603 15.457406 30.059836 -1.242794 1.030697 0.077130 -0.012689 344059.000000 0 0 1
-9.708323 23.735703 15.471006 29.949744 -1.182540 1.027961 0.070210 -0.013858 324335.000000 0 0 1
-10.775023 24.633803 15.306806 30.939032 -1.158463 1.053260 0.078882 -0.013029 -867804.000000 0 0 1
-11.991923 23.963203 15.167606 30.791193 -1.106804 1.055727 0.063485 -0.004013 -195322.000000 0 0 1
-13.140523 24.993003 15.063706 32.003731 -1.086747 1.080728 0.059514 -0.002809 -85745.400000 0 0 1
-13.725823 25.470203 16.261606 33.189897 -1.076517 1.058756 0.053258 -0.013548 -351583.000000 0 0 1
-14.656323 26.458603 15.960006 34.199229 -1.064938 1.085266 0.045509 -0.007615 -399230.000000 0 0 1
-15.339723 26.957903 17.242806 35.487322 -1.053464 1.063419 0.048496 -0.007850 408660.000000 0 0 1
-16.547723 26.250603 17.559306 35.654600 -1.008341 1.055855 0.046296 -0.016980 625564.000000 0 0 1
-17.269923 26.905803 18.616206 36.996427 -1.000160 1.043511 0.077474 -0.029137 -42655.600000 0 0 1
-18.543823 26.151203 18.998306 37.265190 -0.953989 1.035828 0.062456 -0.037917 -216027.000000 0 0 1
-19.620023 26.465003 18.130006 37.603707 -0.932850 1.067708 0.064352 -0.027498 468478.000000 0 0 1
-20.817023 25.831603 18.637306 38.052192 -0.892484 1.058956 0.079477 -0.035977 1028650.000000 0 0 1
-22.078723 26.007403 17.741206 38.452638 -0.866918 1.091248 0.072713 -0.035531 -255502.000000 0 0 1
-22.652223 27.271403 17.746206 39.645686 -0.877660 1.106694 0.063899 -0.031932 38156.400000 0 0 1
-23.423923 27.346103 16.541306 39.624542 -0.862499 1.140158 0.062908 -0.038672 -332977.000000 0 0 1
-24.252123 28.646903 16.624106 41.050839 -0.868286 1.153857 0.065828 -0.026459 309316.000000 0 0 1
-25.499423 28.478203 17.310106 41.962702 -0.840528 1.145587 0.075026 -0.028439 226640.000000 0 0 1
-26.273603 29.614903 17.159506 43.148503 -0.845112 1.161804 0.076291 -0.030962 -189514.000000 0 0 1
-27.746093 29.476603 17.614906 44.147488 -0.815631 1.160369 0.090226 -0.027053 -28092.400000 0 0 1
-28.500733 28.561003 16.783606 43.700253 -0.786454 1.176605 0.115210 -0.016864 -378439.000000 0 0 1
-29.792843 28.500503 17.318706 44.719456 -0.763232 1.173123 0.160567 -0.021777 -504299.000000 0 0 1
-30.108463 27.415903 18.433906 44.698548 -0.738625 1.145704 0.146367 -0.028435 -701436.000000 0 0 1
-30.232663 26.133703 17.914206 43.793871 -0.712806 1.149376 0.149050 -0.025784 166479.000000 0 0 1
-30.607853 25.124603 18.830306 43.848224 -0.687329 1.126921 0.145479 -0.020496 -113441.000000 0 0 1
-30.872303 23.749503 18.082706 42.943244 -0.655728 1.136156 0.143853 -0.024874 724573.000000 0 0 1
-31.992803 23.745903 17.153806 43.378110 -0.638507 1.164240 0.178163 -0.029990 763919.000000 0 0 1
-31.846693 22.933803 15.987106 42.376393 -0.624110 1.183956 0.175976 -0.028569 -236315.000000 0 0 1
-32.330333 21.478203 16.093506 42.018621 -0.586387 1.177745 0.170170 -0.031271 202219.000000 0 0 1
-33.733413 21.331403 16.208106 43.077541 -0.563869 1.185046 0.175313 -0.024004 -22688.500000 0 0 1
-34.111306 19.953103 16.272806 42.737708 -0.529273 1.180178 0.141254 -0.018393 539142.000000 0 0 1
-35.648962 19.749903 16.119606 43.826349 -0.505917 1.194148 0.128306 -0.025284 406881.000000 0 0 1
-35.881318 19.816803 14.737106 43.558661 -0.504598 1.225657 0.107518 -0.016057 -392396.000000 0 0 1
-37.203473 19.465903 14.434506 44.400166 -0.482057 1.239679 0.124658 -0.022197 -224985.000000 0 0 1
-37.611363 19.726403 12.992606 44.413437 -0.483039 1.273917 0.115774 -0.017101 -111100.000000 0 0 1
-37.550903 21.136803 12.625506 44.902540 -0.512681 1.285777 0.099026 -0.024271 -154318.000000 0 0 1
-37.696753 21.367203 11.189406 44.752713 -0.515664 1.318088 0.065919 -0.015035 -160614.000000 0 0 1
-36.561503 20.983803 10.216706 43.375622 -0.521031 1.333022 0.109480 -0.022480 -179745.000000 0 0 1
-36.417803 19.570503 10.118506 42.563424 -0.493109 1.330771 0.117628 -0.014115 148366.000000 0 0 1
-35.325473 19.120403 9.311506 41.233275 -0.496111 1.343006 0.135164 -0.019057 386793.000000 0 0 1
-34.478257 18.036503 10.042006 40.185912 -0.481977 1.318231 0.118335 -0.021827 -34122.100000 0 0 1
-33.769483 18.563003 11.135906 40.111986 -0.502611 1.289480 0.142192 -0.022224 -295658.000000 0 0 1
-33.268723 17.564003 11.949406 39.472654 -0.485752 1.263245 0.161416 -0.034420 336321.000000 0 0 1
-32.376753 18.165203 13.117806 39.373920 -0.511293 1.231144 0.127789 -0.010119 96188.200000 0 0 1
-31.201663 18.822003 12.779106 38.614985 -0.542796 1.233501 0.164169 -0.011189 -634028.000000 0 0 1
-31.361743 20.208603 12.512206 39.351008 -0.572408 1.247215 0.173555 -0.005306 -28902.700000 0 0 1
-30.015843 20.941103 12.663906 38.727963 -0.609159 1.237673 0.198492 -0.024305 54734.700000 0 0 1
-29.618273 20.994203 14.002706 38.911109 -0.616625 1.202674 0.169795 -0.016959 -520307.000000 0 0 1
-28.487613 21.784603 14.224306 38.580356 -0.652846 1.193194 0.181576 -0.026060 -400452.000000 0 0 1
-27.902053 21.586503 15.643706 38.590506 -0.658468 1.153405 0.147145 -0.032955 -163446.000000 0 0 1
-26.983473 20.529003 15.741906 37.381217 -0.650377 1.136119 0.162967 -0.040227 -142306.000000 0 0 1
-26.356793 20.562403 16.988706 37.498121 -0.662523 1.100607 0.133610 -0.030209 255190.000000 0 0 1
-25.466243 19.324203 17.394306 36.393904 -0.649120 1.072482 0.149670 -0.038299 500971.000000 0 0 1
-24.849623 19.520003 18.656406 36.695991 -0.665852 1.037465 0.138499 -0.038630 -225304.000000 0 0 1
-24.053323 18.427303 18.961906 35.744674 -0.653727 1.011627 0.121130 -0.033786 -421626.000000 0 0 1
-23.561423 18.492603 20.373206 36.224088 -0.665446 0.973485 0.103209 -0.039035 134270.000000 0 0 1
-24.559623 18.205603 21.339606 37.282675 -0.637898 0.961399 0.096666 -0.025750 463744.000000 0 0 1
-23.972123 18.307203 22.666006 37.730149 -0.652204 0.926370 0.124252 -0.035748 329758.000000 0 0 1
-24.841923 17.600503 23.738006 38.605592 -0.616408 0.908556 0.122428 -0.033442 -25407.600000 0 0 1
-24.899223 16.235403 23.471606 37.874475 -0.577811 0.902409 0.117710 -0.029420 103401.000000 0 0 1
-25.496843 15.511203 24.554506 38.647253 -0.546542 0.882336 0.112258 -0.025152 -77556.900000 0 0 1
22.304477 25.087403 33.607822 47.501086 0.844052 0.784818 0.082795 -0.024419 347906.000000 0 0 1
23.293577 24.194303 33.064957 47.130101 0.804363 0.793201 0.099202 -0.037033 237124.000000 0 0 1
23.085877 22.778803 33.328502 46.503985 0.778703 0.771765 0.095972 -0.044540 -48780.200000 0 0 1
21.955377 22.006403 32.622777 45.061802 0.786559 0.761276 0.100204 -0.055208 -161047.000000 0 0 1
22.247977 21.606103 31.324511 44.079714 0.770763 0.780398 0.113911 -0.045155 -180489.000000 0 0 1
21.500377 20.445803 31.033202 42.934330 0.760262 0.762942 0.147743 -0.049917 -215032.000000 0 0 1
21.710477 19.812203 29.682132 41.771966 0.739713 0.780481 0.131711 -0.038523 -161128.000000 0 0 1
22.926477 19.109603 29.572962 42.016192 0.694847 0.789998 0.123799 -0.040808 -365934.000000 0 0 1
22.906777 18.429003 28.315192 40.817872 0.677492 0.804189 0.113467 -0.028903 -120286.000000 0 0 1
23.960377 17.298703 28.216202 40.859502 0.625320 0.808524 0.123968 -0.036599 914222.000000 0 0 1
25.277077 17.880203 28.205722 41.883112 0.615654 0.831945 0.111879 -0.032167 382528.000000 0 0 1
26.266377 16.942003 28.523312 42.314695 0.572857 0.831084 0.091838 -0.017600 72636.200000 0 0 1
27.666677 17.454603 28.913222 43.658706 0.562823 0.846971 0.093905 -0.022072 56800.900000 0 0 1
28.562977 17.717803 27.868522 43.662555 0.555217 0.878547 0.102152 -0.017076 539259.000000 0 0 1
29.770377 18.385703 28.266462 44.981133 0.553249 0.891293 0.097914 0.000467 889687.000000 0 0 1
30.887777 18.293403 27.180992 45.027877 0.534704 0.922727 0.093797 0.007027 10649.900000 0 0 1
30.647577 18.884503 25.951622 44.377755 0.552234 0.946176 0.102782 0.000965 -423510.000000 0 0 1
31.816877 18.907303 25.192472 44.771201 0.536184 0.973156 0.098379 -0.000216 -380486.000000 0 0 1
31.956877 20.091903 24.159202 44.817336 0.561269 1.001476 0.116353 -0.003774 -60133.300000 0 0 1
31.140077 19.890803 23.027382 43.538590 0.568428 1.013497 0.107102 -0.011389 395446.000000 0 0 1
31.554577 20.885903 22.062582 43.802624 0.584694 1.042941 0.101951 -0.016716 -194166.000000 0 0 1
32.234577 20.293203 20.838282 43.417923 0.561863 1.070203 0.121603 -0.010404 -49670.000000 0 0 1
31.337577 19.492803 20.041982 41.996359 0.556458 1.073295 0.131708 -0.023444 574269.000000 0 0 1
31.911477 18.806303 18.927582 41.596548 0.532535 1.098393 0.157321 -0.033215 -738851.000000 0 0 1
32.968577 17.753403 19.180982 42.071611 0.493967 1.097399 0.185868 -0.044870 -732132.000000 0 0 1
32.539477 16.614303 19.875082 41.591724 0.472083 1.072578 0.215194 -0.038486 -183802.000000 0 0 1
33.609077 15.856803 20.345382 42.366766 0.440835 1.069890 0.212993 -0.046786 -1080140.000000 0 0 1
33.185677 14.367603 20.611382 41.623867 0.408582 1.052752 0.232745 -0.049539 15792.300000 0 0 1
32.341977 14.115403 21.704682 41.428750 0.411522 1.019369 0.194075 -0.046487 -447043.000000 0 0 1
31.008877 14.407403 21.423082 40.349377 0.434947 1.011087 0.194377 -0.036631 -1310730.000000 0 0 1
30.073477 13.980003 22.566782 40.113765 0.435144 0.973306 0.153658 -0.027307 -257030.000000 0 0 1
29.867377 12.606103 22.307722 39.352364 0.399386 0.968093 0.164443 -0.025183 217916.000000 0 0 1
29.245677 11.937703 23.430182 39.329274 0.387544 0.932605 0.154521 -0.026688 74481.000000 0 0 1
28.588577 10.608203 23.035652 38.216253 0.355316 0.923827 0.167381 -0.031150 41277.500000 0 0 1
27.397377 10.790703 22.293582 36.933174 0.375201 0.922763 0.130322 -0.023557 109506.000000 0 0 1
26.849777 9.559403 21.836782 35.904565 0.342039 0.917018 0.136497 -0.015008 -137673.000000 0 0 1
25.503677 9.665203 21.114682 34.491789 0.362249 0.912000 0.130638 -0.018959 -214687.000000 0 0 1
24.354477 9.615403 21.938582 34.159888 0.376025 0.873389 0.114587 -0.017237 -350413.000000 0 0 1
23.238077 9.529103 21.119682 32.815439 0.389152 0.871617 0.096066 -0.001584 -931546.000000 0 0 1
21.897377 9.523403 21.847282 32.365013 0.410235 0.829794 0.095517 -0.009941 -404724.000000 0 0 1
21.660877 8.541703 22.827242 32.607319 0.375616 0.795308 0.109526 -0.006656 781231.000000 0 0 1
20.269477 8.442403 23.165952 31.918446 0.394656 0.758620 0.078093 -0.005994 800778.000000 0 0 1
19.900277 7.538203 24.371462 32.354501 0.362097 0.717787 0.080909 -0.003783 -353640.000000 0 0 1
20.116077 6.178403 24.110522 32.002289 0.297992 0.717579 0.077416 0.001230 227506.000000 0 0 1
19.861177 5.380703 25.260862 32.581122 0.264565 0.683571 0.091963 -0.012903 -103902.000000 0 0 1
20.336177 3.910903 25.028682 32.485230 0.189993 0.691229 0.091283 -0.015886 224142.000000 0 0 1
21.743277 3.780303 24.911792 33.281499 0.172140 0.724972 0.096286 -0.002471 239171.000000 0 0 1
22.135677 2.463603 24.737862 33.286925 0.110839 0.733000 0.074591 0.001370 -868620.000000 0 0 1
23.635977 2.397403 24.511542 34.135358 0.101085 0.769773 0.085956 0.006037 -528311.000000 0 0 1
24.396477 2.560903 25.715632 35.539275 0.104587 0.761816 0.098150 -0.006885 340466.000000 0 0 1
25.776077 2.574403 25.397502 36.277635 0.099546 0.795277 0.110597 -0.005543 912355.000000 0 0 1
26.776077 3.204503 26.465552 37.784290 0.119111 0.794785 0.108328 -0.006095 140911.000000 0 0 1
26.830677 2.489903 27.660722 38.616064 0.092536 0.772310 0.103520 -0.003836 560711.000000 0 0 1
27.670677 3.136103 28.647812 39.952455 0.112855 0.771239 0.103620 -0.002350 1854250.000000 0 0 1
29.240377 3.245503 28.449052 40.925316 0.110541 0.802174 0.100131 -0.003254 567214.000000 0 0 1
29.639977 4.242903 27.486352 40.645172 0.142182 0.828134 0.115588 -0.008122 626323.000000 0 0 1
31.030177 4.286603 27.173412 41.468557 0.137274 0.856246 0.107618 -0.003341 290523.000000 0 0 1
31.478277 3.159703 26.209582 41.082939 0.100042 0.878940 0.111671 -0.006699 -539243.000000 0 0 1
31.057077 3.297203 24.875612 39.927555 0.105770 0.898200 0.128610 -0.011001 67962.200000 0 0 1
31.429777 2.160703 24.172182 39.708865 0.068639 0.916331 0.119044 -0.006399 -382060.000000 0 0 1
31.409377 2.313703 22.633002 38.783437 0.073530 0.947674 0.136436 -0.016120 956513.000000 0 0 1
32.308677 3.284303 21.987282 39.218336 0.101306 0.975640 0.125775 -0.014939 396332.000000 0 0 1
33.694277 3.060003 22.050082 40.384082 0.090568 0.993203 0.130063 -0.018652 -74512.700000 0 0 1
34.472777 4.316603 21.611182 40.915139 0.124569 1.014323 0.142507 -0.029105 -480124.000000 0 0 1
34.179077 4.623103 20.233882 39.987403 0.134445 1.040248 0.141854 -0.031186 291996.000000 0 0 1
34.877477 5.757203 19.683682 40.460242 0.163594 1.062723 0.134271 -0.031905 1219270.000000 0 0 1
36.460877 5.789003 19.586982 41.791841 0.157459 1.083001 0.111492 -0.027227 904713.000000 0 0 1
37.165177 5.814203 20.808682 42.989029 0.155184 1.065523 0.106706 -0.028983 190775.000000 0 0 1
37.077477 7.075403 21.514782 43.447514 0.188561 1.052743 0.119674 -0.031140 -563291.000000 0 0 1
37.723877 6.922903 22.857382 44.648375 0.181496 1.033352 0.121279 -0.026252 435222.000000 0 0 1
36.887677 5.970503 23.568162 44.179247 0.160465 1.008102 0.121448 -0.020869 981999.000000 0 0 1
37.574977 5.438303 24.692032 45.289629 0.143734 0.994165 0.129637 -0.023514 57813.500000 0 0 1
36.738377 4.440003 25.526742 44.955940 0.120271 0.966945 0.133760 -0.020596 -134127.000000 0 0 1
36.584077 3.309603 24.686512 44.258017 0.090220 0.979080 0.138596 -0.025057 178991.000000 0 0 1
36.084277 2.243903 25.498102 44.240969 0.062105 0.956546 0.136264 -0.023364 -69491.700000 0 0 1
35.965877 0.854903 24.752302 43.668657 0.023765 0.968155 0.132801 -0.024495 -50447.000000 0 0 1
34.752677 0.625703 24.066872 42.277115 0.018003 0.965185 0.132914 -0.020440 63065.500000 0 0 1
34.543177 -0.738797 23.806982 41.958900 -0.021384 0.967466 0.137871 -0.030753 -634137.000000 0 0 1
33.490477 -1.037197 22.798522 40.527280 -0.030960 0.973332 0.137865 -0.016714 -655864.000000 0 0 1
32.144477 -1.033597 23.219062 39.666870 -0.032144 0.945483 0.118183 -0.013435 -67801.700000 0 0 1
31.400977 -1.893397 22.345002 38.586337 -0.060224 0.953183 0.127123 -0.013473 -1034240.000000 0 0 1
29.925277 -1.772397 22.529002 37.499594 -0.059158 0.926320 0.123886 -0.001462 -1267890.000000 0 0 1
29.363477 -0.491197 22.267382 36.855005 -0.016727 0.922049 0.106140 0.003934 -349464.000000 0 0 1
27.962677 -0.502497 22.193582 35.703206 -0.017968 0.899996 0.104027 0.001840 -266540.000000 0 0 1
27.424377 0.925703 22.012282 35.178032 0.033742 0.894717 0.089986 0.006531 -166776.000000 0 0 1
27.547977 1.412103 20.703782 34.489588 0.051215 0.926932 0.090898 -0.000654 190633.000000 0 0 1
27.054577 2.730703 20.701982 34.175707 0.100592 0.920086 0.106493 0.003628 -100966.000000 0 0 1
27.489177 3.521803 19.452382 33.859314 0.127422 0.958796 0.117808 -0.007251 -262412.000000 0 0 1
26.906077 3.053203 18.270382 32.665975 0.112993 0.977244 0.094743 -0.004681 208857.000000 0 0 1
25.771977 3.770903 17.824082 31.561249 0.145287 0.970671 0.124301 -0.016234 239921.000000 0 0 1
25.182477 3.265403 16.474882 30.269486 0.128950 0.995273 0.132715 -0.022681 228845.000000 0 0 1
26.135477 3.518303 15.448682 30.563105 0.133813 1.040872 0.112515 -0.015188 672645.000000 0 0 1
25.535977 3.880503 14.148582 29.450413 0.150808 1.069662 0.088809 -0.022172 -99496.400000 0 0 1
24.978477 2.730103 13.258582 28.410699 0.108866 1.085268 0.123133 -0.021329 -787594.000000 0 0 1
23.679577 2.328203 13.483482 27.348623 0.098006 1.055236 0.164670 -0.024167 -543272.000000 0 0 1
23.417577 1.155703 12.797982 26.711550 0.049312 1.071147 0.167842 -0.030758 231500.000000 0 0 1
22.017177 0.519603 13.102582 25.626231 0.023596 1.034105 0.230288 -0.038591 332192.000000 0 0 1
20.823677 1.181403 12.724582 24.432279 0.056673 1.022996 0.261939 -0.036662 634276.000000 0 1 0
20.389277 0.998703 11.406482 23.384351 0.048943 1.061248 0.227395 -0.032993 -608029.000000 0 1 0
20.122977 -0.485297 10.903182 22.892119 -0.024112 1.074371 0.212200 -0.024810 -600536.000000 0 1 0
21.194077 -1.402397 10.792182 23.824920 -0.066073 1.100693 0.225231 -0.051176 105096.000000 0 1 0
22.096977 -1.185797 9.743482 24.178874 -0.053612 1.156031 0.222093 -0.056127 -677406.000000 0 1 0
23.400477 -1.989197 9.827982 25.458367 -0.084803 1.174460 0.235424 -0.069736 -434506.000000 0 0 1
24.118077 -1.596297 10.967482 26.542710 -0.066090 1.144830 0.204994 -0.066019 -818719.000000 0 0 1
25.086277 -2.513597 11.267482 27.615134 -0.099865 1.150514 0.138059 -0.054712 -743904.000000 0 0 1
25.480177 -2.438297 12.770382 28.605373 -0.095403 1.108021 0.183767 -0.038041 164311.000000 0 0 1
26.319777 -1.315097 13.044482 29.404399 -0.049925 1.111159 0.130599 -0.038604 255463.000000 0 0 1
26.509977 -1.022597 14.408882 30.190073 -0.038555 1.073248 0.097176 -0.032488 189592.000000 0 0 1
27.629877 0.071203 14.594282 31.247532 0.002577 1.084840 0.176098 -0.031087 2015100.000000 0 0 1
28.957977 -0.586497 14.511482 32.395857 -0.020251 1.106334 0.192039 -0.027548 1773830.000000 0 0 1
29.942677 0.445703 14.640682 33.333349 0.014884 1.116066 0.180150 -0.026794 -189084.000000 0 0 1
31.343877 -0.044497 14.976182 34.737971 -0.001420 1.125064 0.197511 -0.035113 -423226.000000 0 0 1
32.035477 -0.684297 13.922982 34.936936 -0.021357 1.160896 0.244384 -0.044245 824821.000000 0 0 1
33.417677 -0.854497 14.274182 36.348640 -0.025565 1.167229 0.235921 -0.041005 674902.000000 0 0 1
34.103777 -1.878197 13.368982 36.678671 -0.055017 1.197712 0.198989 -0.047341 -166538.000000 0 0 1
34.388377 -1.411897 12.056682 36.468034 -0.041034 1.233847 0.219871 -0.050224 690685.000000 0 0 1
35.336377 -2.273797 11.387682 37.195551 -0.064259 1.259643 0.195319 -0.064600 503355.000000 0 0 1
35.694377 -1.804297 9.933882 37.094825 -0.050505 1.299691 0.229598 -0.064627 -27795.900000 0 0 1
36.475177 -0.605197 9.978882 37.820403 -0.016590 1.303786 0.183710 -0.046766 253034.000000 0 0 1
35.667077 0.535103 10.091482 37.071077 0.015002 1.295097 0.199356 -0.050795 -670467.000000 0 0 1
36.247077 1.882303 9.585182 37.540237 0.051883 1.312606 0.207124 -0.054147 -510113.000000 0 0 1
36.327777 1.933803 8.211882 37.294531 0.053182 1.348787 0.165071 -0.050422 320301.000000 0 0 1
36.517777 3.178603 7.653682 37.446367 0.086824 1.364955 0.166301 -0.045536 -114498.000000 0 0 1
36.914377 3.207603 6.153582 37.560971 0.086675 1.406225 0.148955 -0.038530 -73352.400000 0 0 1
37.243177 4.470903 5.720282 37.944234 0.119475 1.419464 0.137727 -0.021439 108660.000000 0 0 1
37.343377 4.457003 4.312682 37.854880 0.118790 1.456622 0.129245 -0.017007 -119231.000000 0 0 1
37.632177 5.874403 3.740282 38.271126 0.154851 1.472909 0.160606 -0.033272 17189.700000 0 0 1
36.573677 6.791403 3.937882 37.406737 0.183600 1.465329 0.151245 -0.037052 -119110.000000 0 0 1
36.886777 8.086903 3.472082 37.922127 0.215821 1.479110 0.146328 -0.041607 -665747.000000 0 0 1
35.692277 9.074903 3.532382 36.996895 0.248978 1.475173 0.164795 -0.051928 487882.000000 0 0 1
34.619377 8.934903 2.630682 35.850443 0.252578 1.497351 0.171065 -0.055336 237490.000000 0 0 1
33.898177 7.699403 2.610782 34.859481 0.223344 1.495832 0.200253 -0.048346 -572773.000000 0 0 1
32.583277 7.774403 1.807482 33.546659 0.234222 1.516891 0.222949 -0.051769 -18252.500000 0 0 1
32.849277 7.576203 0.433482 33.714415 0.226672 1.557939 0.223897 -0.044134 139948.000000 0 0 1
31.733077 7.220103 -0.349018 32.545966 0.223718 1.581520 0.234030 -0.049629 -285360.000000 0 0 1
32.109777 7.117203 -1.848318 32.940988 0.218126 1.626936 0.193297 -0.031554 -644626.000000 0 0 1
31.223777 6.348003 -2.582618 31.967035 0.200573 1.651675 0.254177 -0.042239 55260.200000 0 0 1
31.422577 6.310703 -3.973318 32.295365 0.198197 1.694139 0.202855 -0.033375 -408324.000000 0 0 1
30.351677 5.443103 -4.661418 31.186223 0.177448 1.720829 0.258721 -0.029910 -426932.000000 0 0 1
30.423077 4.098103 -4.285118 30.995489 0.133898 1.709490 0.258819 -0.031640 531594.000000 0 0 1
29.471877 3.352503 -5.004118 30.081091 0.113266 1.737928 0.286511 -0.027172 -283912.000000 0 0 1
29.638177 1.874303 -4.828818 30.087407 0.063155 1.731986 0.323047 -0.022142 -418327.000000 0 0 1
29.330277 1.518903 -3.481018 29.575154 0.051740 1.688771 0.379681 -0.032406 489649.000000 0 0 1
29.305977 0.106103 -3.283718 29.489564 0.003621 1.682380 0.340555 -0.040942 -148851.000000 0 0 1
29.310577 -0.362797 -1.819318 29.369227 -0.012377 1.632782 0.345601 -0.045809 -1057850.000000 0 0 1
30.604077 -0.291297 -1.376618 30.636408 -0.009518 1.615746 0.298856 -0.047493 -1026790.000000 0 0 1
30.707877 -0.381597 0.006982 30.710249 -0.012426 1.570569 0.316018 -0.047744 -336533.000000 0 0 1
32.037577 0.088703 0.620482 32.043708 0.002769 1.551432 0.329042 -0.042514 -508587.000000 0 0 1
33.119777 -0.703797 0.236482 33.128098 -0.021247 1.563658 0.257104 -0.034064 -319808.000000 0 0 1
34.331577 -0.025897 0.488182 34.335058 -0.000754 1.556578 0.178386 -0.037200 -193043.000000 0 0 1
-3.151423 -21.355697 -8.221394 23.099536 1.424285 1.934686 0.075668 -0.008800 252663.000000 0 1 0
-3.640523 -21.821697 -6.966594 23.194251 1.405488 1.875865 0.078894 -0.016585 -205426.000000 0 1 0
-3.052823 -23.029697 -6.578594 24.144659 1.439004 1.846751 0.077578 -0.014234 -467423.000000 0 1 0
-3.499723 -23.411197 -5.171694 24.229705 1.422406 1.785896 0.085576 -0.020028 -338403.000000 0 1 0
-2.841623 -22.625997 -4.179694 23.183623 1.445859 1.752074 0.091584 -0.026011 -85397.000000 0 1 0
-3.066823 -23.240497 -2.951394 23.627036 1.439594 1.696039 0.113687 -0.035364 -156002.000000 0 1 0
-2.472523 -22.580597 -1.687294 22.778140 1.461733 1.644939 0.121937 -0.048801 -1686260.000000 0 1 0
-1.119623 -22.566097 -1.669594 22.655459 1.521222 1.644558 0.094736 -0.044019 -2312600.000000 0 1 0
-0.833623 -22.320397 -0.318194 22.338225 1.533466 1.585041 0.093590 -0.047108 66949.100000 0 1 0
0.673277 -22.327297 0.028306 22.337464 -1.540651 1.569529 0.079615 -0.041944 179980.000000 0 1 0
1.345177 -21.244997 -0.603094 21.296082 -1.507563 1.599120 0.057350 -0.031878 -12485.000000 0 1 0
2.642577 -21.088297 -0.051894 21.253286 -1.446136 1.573238 0.044467 -0.023800 224799.000000 0 1 0
3.509377 -19.974397 -0.639994 20.290437 -1.396878 1.602343 0.052062 -0.019934 210366.000000 0 1 0
4.066677 -20.363197 -1.893294 20.851432 -1.373682 1.661721 0.048328 -0.017611 319641.000000 0 1 0
5.055777 -19.398297 -2.329094 20.181166 -1.315838 1.686463 0.057727 -0.012572 444695.000000 0 1 0
5.834077 -19.863497 -3.607194 21.014443 -1.285122 1.743304 0.056150 -0.007007 -864165.000000 0 1 0
6.816577 -20.784197 -3.249094 22.113461 -1.253881 1.718259 0.055271 -0.010778 -297547.000000 0 1 0
7.610377 -21.298597 -4.307694 23.023994 -1.227617 1.759001 0.058030 -0.011613 -202680.000000 0 1 0
8.873477 -20.542397 -4.643794 22.853741 -1.163046 1.775417 0.069405 -0.016559 -969617.000000 0 1 0
8.651477 -19.453297 -5.511694 21.992216 -1.152333 1.824117 0.068485 -0.017065 -202148.000000 0 1 0
9.827577 -18.792597 -5.947494 22.025341 -1.088958 1.844220 0.080534 -0.025646 -239836.000000 0 1 0
9.724777 -17.965197 -7.255594 21.678635 -1.074648 1.912071 0.069052 -0.008202 -178627.000000 0 1 0
10.919077 -17.208397 -7.341694 21.662309 -1.005380 1.916560 0.083976 -0.029040 498644.000000 0 1 0
10.947477 -16.319597 -8.442894 21.388290 -0.979925 1.976585 0.083390 -0.017123 -48134.200000 0 1 0
11.353877 -16.950797 -9.853594 22.656861 -0.980618 2.020730 0.080249 -0.003803 636254.000000 0 1 0
10.227977 -17.439397 -10.631794 22.842485 -1.040372 2.054927 0.080877 -0.022866 713868.000000 0 1 0
9.538277 -16.413897 -11.283494 22.084202 -1.044382 2.107063 0.061872 -0.036063 -154975.000000 0 1 0
8.867077 -16.858697 -12.593594 22.835046 -1.086593 2.154961 0.073092 -0.046714 101519.000000 0 1 0
7.865677 -17.845497 -12.402594 23.111793 -1.155648 2.137240 0.067580 -0.035771 245198.000000 0 1 0
7.200077 -18.197497 -13.613194 23.839234 -1.194034 2.178570 0.076763 -0.035889 208900.000000 0 1 0
5.954977 -19.092397 -13.395694 24.071269 -1.268455 2.160965 0.078529 -0.029043 35614.500000 0 1 0
6.274977 -20.335197 -12.846594 24.858209 -1.271489 2.113899 0.091223 -0.034433 394324.000000 0 1 0
5.102277 -21.040897 -12.424494 24.962384 -1.332895 2.091774 0.137341 -0.038824 531161.000000 0 1 0
5.420977 -22.530597 -12.208594 26.192834 -1.334679 2.055679 0.097115 -0.029727 -152082.000000 0 0 1
5.732177 -23.175597 -13.436094 27.395160 -1.328326 2.083408 0.125478 -0.042849 -133161.000000 0 0 1
5.493477 -24.597697 -13.395494 28.542324 -1.351069 2.059317 0.097526 -0.038470 501188.000000 0 0 1
4.030177 -25.119467 -13.561494 28.829569 -1.411712 2.060543 0.114754 -0.047154 25195.700000 0 0 1
3.110877 -24.559997 -12.658294 27.804737 -1.444803 2.043457 0.136303 -0.048472 -97628.300000 0 0 1
1.756377 -24.733097 -13.034694 28.012750 -1.499902 2.054784 0.119332 -0.056402 134180.000000 0 0 1
1.049677 -26.019397 -12.670694 28.959581 -1.530476 2.023647 0.089058 -0.040470 -1107730.000000 0 0 1
1.425577 -27.145557 -13.491694 30.346982 -1.518328 2.031503 0.095434 -0.035862 176622.000000 0 0 1
0.875077 -28.382987 -13.060294 31.255895 -1.539975 2.001875 0.076781 -0.027964 12534.300000 0 0 1
-0.610823 -28.611847 -13.356994 31.581960 1.549451 2.007474 0.050885 -0.028978 325144.000000 0 0 1
-1.609823 -27.841637 -12.682094 30.636315 1.513040 1.997592 0.057510 -0.035991 792496.000000 0 0 1
-2.929723 -28.181987 -13.097794 31.214738 1.467211 2.003804 0.078758 -0.030492 805432.000000 0 0 1
-4.163623 -27.524457 -12.407994 30.477693 1.420665 1.990092 0.069283 -0.025190 453962.000000 0 0 1
-4.474923 -27.847217 -11.059894 30.295440 1.411463 1.944502 0.061955 -0.029902 -30953.100000 0 0 1
-4.883223 -29.188797 -10.788594 31.499611 1.405034 1.920372 0.068715 -0.029195 -684614.000000 0 0 1
-5.416623 -29.382797 -9.358294 31.309203 1.388496 1.874335 0.062846 -0.021866 899370.000000 0 0 1
-6.764723 -28.905417 -9.135294 31.060235 1.340904 1.869326 0.066950 -0.016661 919919.000000 0 0 1
-6.867923 -27.531047 -8.957194 29.754970 1.326325 1.876571 0.070939 -0.012009 152609.000000 0 0 1
-8.351723 -27.040457 -8.809694 29.640315 1.271231 1.872576 0.078318 -0.017154 1694740.000000 0 0 1
-9.337423 -27.142097 -9.875894 30.354805 1.239459 1.902177 0.108717 -0.020445 593673.000000 0 0 1
-9.662823 -28.444857 -10.360494 31.777663 1.243323 1.902898 0.104350 -0.032115 150169.000000 0 0 1
-11.132023 -28.451287 -10.888294 32.433819 1.197842 1.913153 0.123204 -0.039199 -50306.200000 0 0 1
-11.204823 -27.879327 -12.177294 32.420540 1.188649 1.955845 0.144867 -0.044604 -40094.700000 0 0 1
-11.875123 -28.612647 -13.178294 33.665554 1.177400 1.973000 0.165044 -0.051190 -315259.000000 0 0 1
-12.130423 -27.847497 -14.511694 33.663326 1.159980 2.016489 0.175524 -0.046371 252529.000000 0 0 1
-13.200523 -26.898287 -14.563794 33.314797 1.114570 2.023231 0.161150 -0.055326 16994.000000 0 0 1
-13.186823 -25.803237 -13.662794 32.037030 1.098345 2.011382 0.164385 -0.042728 87947.000000 0 0 1
-14.309623 -24.723597 -13.743094 31.700066 1.046123 2.019208 0.185176 -0.038561 104347.000000 0 0 1
-14.020923 -23.830097 -14.815594 31.368162 1.038972 2.062710 0.185531 -0.046976 -317577.000000 0 0 1
-14.908023 -22.781997 -14.923794 31.048159 0.991350 2.072210 0.199656 -0.044942 -761764.000000 0 0 1
-14.784323 -22.066997 -16.288694 31.158468 0.980507 2.120893 0.182577 -0.034635 -90263.500000 0 0 1
-13.545023 -21.447897 -16.559294 30.293401 1.007514 2.149131 0.151252 -0.028113 224887.000000 0 0 1
-13.563623 -20.692897 -17.765894 30.459725 0.990584 2.193531 0.116923 -0.023613 -25254.600000 0 0 1
-13.727223 -19.169997 -17.620994 29.435096 0.949361 2.212597 0.107836 -0.017212 -68273.500000 0 0 1
-12.493523 -18.543497 -17.370494 28.314015 0.977912 2.231275 0.087663 -0.003241 48877.100000 0 0 1
-12.669323 -17.169597 -17.001594 27.282980 0.935089 2.243570 0.088760 0.004096 676163.000000 0 0 1
-11.400223 -16.284897 -17.282594 26.341052 0.960038 2.286447 0.073902 -0.002034 536258.000000 0 0 1
-10.598823 -16.070397 -16.168294 25.139738 0.987755 2.269384 0.077736 0.000001 510727.000000 0 0 1
-9.417023 -15.289197 -16.479494 24.372394 1.018748 2.313326 0.064057 0.001918 708722.000000 0 1 0
-8.698023 -14.839397 -15.177994 22.939808 1.040627 2.293806 0.050769 -0.000834 -284488.000000 0 1 0
-8.329423 -15.895597 -14.262794 22.923276 1.088127 2.242342 0.069630 0.007401 1151490.000000 0 1 0
-7.179923 -16.747097 -14.559294 23.323584 1.165774 2.244943 0.065485 0.009762 699970.000000 0 1 0
-6.532923 -17.471697 -13.352694 22.939784 1.212978 2.192076 0.062106 0.000262 -624907.000000 0 1 0
-5.883123 -16.661497 -12.385394 21.578105 1.231365 2.182154 0.056556 -0.010219 292578.000000 0 1 0
-5.481623 -17.367697 -11.209594 21.385511 1.265070 2.122534 0.050508 -0.021849 877722.000000 0 1 0
-4.312823 -18.441597 -11.409594 22.110445 1.341061 2.113003 0.058986 -0.019116 351932.000000 0 1 0
-3.023323 -17.984497 -11.731694 21.684447 1.404246 2.142444 0.066901 -0.009756 -716322.000000 0 1 0
-2.161223 -19.099197 -11.642794 22.472313 1.458118 2.115419 0.052567 -0.004203 755219.000000 0 1 0
-0.704323 -18.705097 -12.070494 22.272709 1.533160 2.143541 0.063848 -0.004013 309404.000000 0 1 0
-0.483023 -18.439697 -13.445994 22.826530 1.544608 2.200681 0.071588 -0.004129 236596.000000 0 1 0
0.796977 -17.907197 -13.751194 22.591994 -1.526320 2.225187 0.082043 -0.010871 1001890.000000 0 1 0
2.013777 -18.854797 -14.061094 23.606631 -1.464395 2.208861 0.089399 -0.020948 385901.000000 0 1 0
1.868577 -19.789097 -15.074794 24.946931 -1.476651 2.219651 0.104760 -0.014901 -86851.200000 0 1 0
1.310577 -21.033897 -14.644894 25.663502 -1.508569 2.178094 0.123388 -0.026108 -623923.000000 0 0 1
1.494177 -22.077297 -15.736094 27.152611 -1.503220 2.188964 0.137296 -0.026404 750512.000000 0 0 1
2.775477 -22.684497 -15.931294 27.858496 -1.449050 2.179574 0.152657 -0.039392 231880.000000 0 0 1
3.828277 -21.832997 -16.288894 27.507518 -1.397217 2.204535 0.143255 -0.045419 -1287470.000000 0 0 1
5.165177 -22.522297 -16.410994 28.341730 -1.345359 2.188347 0.141243 -0.038156 -654280.000000 0 0 1
5.588077 -22.769597 -17.716394 29.386251 -1.330134 2.217903 0.125319 -0.025831 -629519.000000 0 0 1
6.898677 -23.226397 -17.791094 30.059612 -1.282077 2.204161 0.126449 -0.032908 -397504.000000 0 0 1
7.358677 -23.312797 -19.252494 31.117441 -1.265045 2.237889 0.126713 -0.021479 -84848.300000 0 0 1
7.410877 -21.977297 -19.760794 30.469849 -1.245564 2.276456 0.146542 -0.031787 49346.000000 0 0 1
7.904277 -21.941297 -21.092694 31.445188 -1.225022 2.306052 0.116261 -0.024798 -211893.000000 0 0 1
7.916377 -20.496197 -21.595194 30.807719 -1.202211 2.347549 0.110537 -0.026503 280824.000000 0 0 1
6.683877 -19.804497 -21.721494 30.144910 -1.245307 2.375419 0.125033 -0.029100 233067.000000 0 0 1
6.954377 -18.488897 -22.144094 29.674292 -1.211028 2.413190 0.127182 -0.029303 -109497.000000 0 0 1
5.674077 -17.688097 -22.392694 29.094616 -1.260381 2.449090 0.116065 -0.025088 -212013.000000 0 0 1
4.950477 -18.120797 -23.575494 30.144227 -1.304111 2.468809 0.115341 -0.026153 416613.000000 0 0 1
3.894577 -17.350497 -24.090294 29.942441 -1.349991 2.505720 0.127997 -0.026522 995484.000000 0 0 1
2.548177 -17.201297 -23.294894 29.069398 -1.423727 2.500353 0.115180 -0.013879 170845.000000 0 0 1
2.704377 -16.621297 -22.032594 27.731145 -1.409504 2.488992 0.122405 -0.019676 -445389.000000 0 0 1
1.462377 -16.212197 -21.509794 26.974898 -1.480837 2.493771 0.121587 -0.020292 292718.000000 0 0 1
1.686277 -15.359597 -20.248994 25.471210 -1.461448 2.489764 0.113131 -0.028389 259447.000000 0 0 1
2.340577 -14.134397 -20.481094 24.994693 -1.406691 2.531191 0.105598 -0.027013 -219710.000000 0 1 0
2.362977 -13.392597 -19.276394 23.590776 -1.396155 2.527186 0.102129 -0.030168 -364713.000000 0 1 0
3.525677 -12.414197 -19.188994 23.124882 -1.294079 2.549543 0.094311 -0.035022 -1425750.000000 0 1 0
4.731977 -13.073397 -18.953094 23.505852 -1.223511 2.508690 0.093519 -0.038305 -855639.000000 0 1 0
5.877477 -12.270097 -18.977194 23.350245 -1.124083 2.519600 0.094100 -0.038587 -16223.500000 0 1 0
6.033377 -11.079197 -17.957994 21.946294 -1.072133 2.529191 0.102082 -0.040914 -629758.000000 0 1 0
5.387577 -9.781297 -18.108194 21.274550 -1.067336 2.589001 0.055066 -0.022339 316421.000000 0 1 0
5.784277 -9.004397 -19.242694 22.018590 -0.999794 2.634025 0.077703 -0.018970 -324202.000000 0 1 0
5.151477 -9.397697 -20.529194 23.158200 -1.069364 2.660471 0.096798 -0.030816 265273.000000 0 1 0
3.740677 -9.192797 -20.566094 22.835595 -1.184344 2.691980 0.076307 -0.026393 162399.000000 0 1 0
3.172577 -9.372897 -21.838694 23.975926 -1.244417 2.716158 0.080244 -0.022302 -54256.600000 0 1 0
1.654377 -9.189197 -21.923694 23.829114 -1.392669 2.738974 0.063023 -0.018777 91330.300000 0 1 0
1.174977 -7.836397 -21.729594 23.129310 -1.421967 2.791915 0.059243 -0.020347 -243334.000000 0 1 0
-0.228323 -7.704997 -21.743994 23.069902 1.541172 2.800909 0.056183 -0.024543 285754.000000 0 1 0
-0.695023 -6.654097 -22.834294 23.794223 1.466723 2.856576 0.068821 -0.023101 135998.000000 0 1 0
-0.309923 -7.026897 -24.150494 25.153920 1.526720 2.858187 0.070220 -0.020070 455.334000 0 0 1
-1.038723 -6.314497 -25.159144 25.960246 1.407758 2.892519 0.104255 -0.037531 312192.000000 0 0 1
-0.535723 -4.862197 -25.405964 25.872591 1.461058 2.951382 0.111795 -0.036999 61407.700000 0 0 1
-1.097923 -4.295797 -26.610454 26.977316 1.320572 2.976488 0.112904 -0.040335 -797.720000 0 0 1
-0.725923 -2.925997 -26.993534 27.161357 1.327612 3.030371 0.103086 -0.035647 -942540.000000 0 0 1
-1.139723 -1.696097 -26.145124 26.224859 0.979133 3.063593 0.089382 -0.034532 192534.000000 0 0 1
-2.539423 -1.607797 -25.939974 26.113520 0.564428 3.026239 0.076630 -0.041155 177888.000000 0 0 1
-3.292223 -1.202497 -27.094354 27.320117 0.350199 3.012946 0.098395 -0.035288 -610429.000000 0 0 1
-4.802423 -1.278297 -26.848314 27.304382 0.260146 2.958564 0.112257 -0.045545 -198717.000000 0 0 1
-5.345123 -0.158297 -26.201874 26.741982 0.029606 2.940270 0.112121 -0.041314 674045.000000 0 0 1
-6.778623 -0.268797 -26.184404 27.048937 0.039633 2.888083 0.129625 -0.057018 808911.000000 0 0 1
-7.528323 0.846903 -25.327654 26.436395 -0.112025 2.850951 0.133727 -0.050938 -18955.500000 0 0 1
-7.972923 2.013303 -26.049134 27.316264 -0.247347 2.835813 0.158280 -0.049212 1003530.000000 0 0 1
-9.014523 1.849403 -27.046624 28.569246 -0.202350 2.813641 0.170805 -0.052227 971609.000000 0 0 1
-10.455523 1.504503 -26.564124 28.587308 -0.142915 2.763114 0.159562 -0.049038 -241223.000000 0 0 1
-11.517923 1.962903 -27.338604 29.730705 -0.168800 2.737707 0.154018 -0.052214 -23493.500000 0 0 1
-12.748023 1.465903 -26.826664 29.737701 -0.114488 2.695430 0.097770 -0.032268 463294.000000 0 0 1
-13.961623 1.964403 -27.646054 31.033693 -0.139783 2.669987 0.067369 -0.029793 640684.000000 0 0 1
-15.249523 1.391903 -27.338214 31.334698 -0.091023 2.631006 0.061604 -0.027762 1110500.000000 0 0 1
-16.307623 1.788703 -28.182714 32.609867 -0.109248 2.614432 0.047776 -0.024882 102808.000000 0 0 1
-17.105523 3.043903 -27.685814 32.685908 -0.176105 2.581162 0.057239 -0.010669 -476962.000000 0 0 1
-16.454523 4.300503 -27.588104 32.409091 -0.255639 2.589151 0.059927 -0.010112 -53736.800000 0 0 1
-16.047623 4.908803 -28.812114 33.343072 -0.296851 2.614178 0.058149 -0.017073 168681.000000 0 0 1
-17.193223 5.542803 -29.669474 34.736253 -0.311863 2.594683 0.068871 -0.004859 530033.000000 0 0 1
-17.835423 6.722603 -29.107424 34.792785 -0.360457 2.561832 0.070938 0.003547 235047.000000 0 0 1
-18.712223 7.287603 -30.054724 36.146133 -0.371385 2.552560 0.069412 0.004618 -274878.000000 0 0 1
-19.576323 8.416203 -29.466004 36.363585 -0.406028 2.515488 0.056712 -0.001946 -34555.700000 0 0 1
-18.807323 9.347303 -28.686024 35.552433 -0.461247 2.509623 0.064084 -0.003064 55655.300000 0 0 1
-19.634323 10.391703 -28.316824 35.990786 -0.486782 2.476371 0.087243 -0.003703 -234134.000000 0 0 1
-9.525323 24.992603 30.626642 40.661446 -1.206666 0.717866 0.063332 -0.015638 -988592.000000 0 0 1
-10.212623 26.223203 30.802642 41.722378 -1.199418 0.740285 0.067861 -0.016991 114130.000000 0 0 1
-9.748823 27.095603 31.802666 42.902457 -1.225424 0.735823 0.084193 -0.024416 -904242.000000 0 0 1
-8.369823 27.686503 31.647204 42.873557 -1.277224 0.740469 0.075705 -0.023991 -851499.000000 0 0 1
-8.398523 28.599703 30.589422 42.710548 -1.285168 0.772450 0.097191 -0.006092 1333100.000000 0 0 1
-7.044923 28.775203 30.097512 42.231546 -1.330693 0.777487 0.111615 -0.005418 1107870.000000 0 0 1
-6.918323 29.772103 28.948212 42.097984 -1.342472 0.812564 0.144431 -0.012144 -220886.000000 0 0 1
-6.941923 31.077603 29.492742 43.403105 -1.351030 0.823705 0.148536 -0.019152 358186.000000 0 0 1
-6.540123 32.031603 28.532692 43.392526 -1.369387 0.853236 0.169466 -0.019319 -159364.000000 0 0 1
-6.527023 33.475403 29.058942 44.806548 -1.378233 0.865129 0.194665 -0.033786 -356367.000000 0 0 1
-5.632923 33.614703 30.131542 45.492724 -1.404766 0.846862 0.193872 -0.037072 -170447.000000 0 0 1
-6.043423 -32.880256 31.170772 45.708328 1.389024 0.820372 0.192739 -0.036362 992330.000000 0 0 1
-7.328823 -33.214456 32.057401 46.739584 1.353625 0.814994 0.149634 -0.036686 1027200.000000 0 0 1
-7.087623 33.285703 33.089672 47.466818 -1.360997 0.799435 0.150213 -0.040651 82589.200000 0 0 1
-6.993023 31.947103 32.644067 46.207736 -1.355301 0.786308 0.137763 -0.027214 -149155.000000 0 0 1
-6.963023 30.848503 -33.593684 46.137289 -1.348800 2.386378 0.115677 -0.025109 297338.000000 0 0 1
-5.796623 30.869103 -32.767644 45.389656 -1.385177 2.377368 0.116294 -0.019488 364647.000000 0 0 1
-5.966123 30.088203 -31.550354 44.003630 -1.375048 2.370277 0.124369 -0.028743 -415319.000000 0 0 1
-4.585523 29.786103 -30.943844 43.194450 -1.418047 2.369403 0.135000 -0.035669 541179.000000 0 0 1
-3.783623 28.712103 -31.443044 42.747699 -1.439773 2.397274 0.139613 -0.022293 485051.000000 0 0 1
-3.384423 28.746103 -32.819404 43.759640 -1.453601 2.418847 0.122378 -0.027043 -453272.000000 0 0 1
-2.628523 27.432403 -33.205654 43.151609 -1.475270 2.448872 0.129262 -0.038267 -272344.000000 0 0 1
-1.443623 27.246103 -32.446124 42.393221 -1.517861 2.442399 0.145121 -0.030234 184690.000000 0 0 1
-0.871023 25.951903 -32.481174 41.584693 -1.537246 2.467198 0.164422 -0.032654 -20067.300000 0 0 1
-0.404723 25.317503 33.486912 41.982294 -1.554812 0.647418 0.141039 -0.023988 -280177.000000 0 0 1
-1.418223 25.190403 32.481371 41.129153 -1.514556 0.660410 0.136615 -0.019932 277604.000000 0 0 1
-0.958323 25.034603 31.104272 39.939022 -1.532535 0.678055 0.160140 -0.022572 150471.000000 0 0 1
-0.512423 26.302303 30.363482 40.174803 -1.551317 0.713945 0.143312 -0.023701 787228.000000 0 0 1
-1.644223 27.186003 30.190952 40.660495 -1.510389 0.733982 0.121897 -0.021268 837496.000000 0 0 1
-1.343623 28.459003 29.564822 41.058481 -1.523619 0.766899 0.119730 -0.020284 -330571.000000 0 0 1
-2.445823 29.473103 29.827162 42.003636 -1.488001 0.781143 0.130188 -0.019419 -472195.000000 0 0 1
-2.335223 30.037303 31.108542 43.306284 -1.493208 0.769386 0.155755 -0.026749 132402.000000 0 0 1
-3.016623 31.248203 31.404999 44.405227 -1.474557 0.785215 0.169408 -0.021731 273954.000000 0 0 1
-2.306023 31.919503 32.635718 45.708451 -1.498677 0.775605 0.177057 -0.018332 131692.000000 0 0 1
-1.077923 32.532003 32.348664 45.890405 -1.537674 0.788498 0.211844 -0.031830 -451174.000000 0 0 1
-0.332523 32.665303 33.549712 46.826443 -1.560617 0.772068 0.159011 -0.030054 -251641.000000 0 0 1
1.094377 33.061603 33.148831 46.830677 1.537707 0.784355 0.167075 -0.040637 -452522.000000 0 0 1
1.279777 -32.936456 32.970402 46.620761 -1.531960 0.785260 0.206179 -0.046304 -369294.000000 0 0 1
2.607577 -32.652556 32.669288 46.263066 -1.491107 0.786731 0.136176 -0.037711 -544844.000000 0 0 1
2.849077 -31.164656 32.369362 45.023645 -1.479630 0.768518 0.142267 -0.035957 -17918.300000 0 0 1
2.514677 -30.357356 33.472252 45.257975 -1.488149 0.738338 0.135411 -0.031468 314536.000000 0 0 1
3.023877 -29.016056 33.335712 44.298364 -1.466957 0.718906 0.098465 -0.040481 30325.700000 0 0 1
2.459977 -28.149556 -32.845234 43.327341 -1.483628 2.431148 0.110165 -0.047126 1014610.000000 0 0 1
1.042977 -27.926756 -32.937884 43.196016 -1.533467 2.437998 0.126130 -0.059721 757706.000000 0 0 1
0.493977 -27.382156 -31.740434 41.922329 -1.552758 2.429697 0.118134 -0.059071 -179372.000000 0 0 1
-1.032523 -27.351256 -31.928344 42.054447 1.533064 2.432902 0.174010 -0.062101 126862.000000 0 0 1
-1.707223 -26.967256 -30.703594 40.900590 1.507573 2.419900 0.182605 -0.063348 -333673.000000 0 0 1
-3.020423 -26.544356 -30.871324 40.826027 1.457496 2.428233 0.199556 -0.063945 -413645.000000 0 0 1
-3.531123 -25.813556 -29.565504 39.407202 1.434847 2.419246 0.210315 -0.070110 -107121.000000 0 0 1
-3.828023 -26.648456 -28.451134 39.169644 1.428123 2.383803 0.227730 -0.077579 127174.000000 0 0 1
-4.108723 -25.911156 -27.264874 37.837059 1.413536 2.375444 0.238997 -0.075064 736754.000000 0 0 1
-2.794923 -25.508356 -26.494524 36.884247 1.461663 2.372174 0.216092 -0.068451 914161.000000 0 0 1
-1.923723 -24.604156 -27.198914 36.726641 1.492768 2.404725 0.205524 -0.065023 636108.000000 0 0 1
-0.842223 -24.185456 -26.383134 35.801053 1.535987 2.399325 0.158779 -0.054793 -185379.000000 0 0 1
0.052077 -23.045956 -27.041594 35.529799 -1.568537 2.435798 0.105925 -0.040518 1154760.000000 0 0 1
0.897477 -23.429156 -28.157554 36.641216 -1.532509 2.447238 0.067655 -0.047964 770381.000000 0 0 1
1.869777 -24.450556 -27.930874 37.167991 -1.494473 2.421094 0.059089 -0.040815 368202.000000 0 0 1
2.926477 -24.698156 -29.063654 38.252571 -1.452857 2.433776 0.035706 -0.043478 762292.000000 0 0 1
3.786277 -23.629556 -29.410554 37.916653 -1.411912 2.458562 0.054747 -0.035588 273764.000000 0 0 1
4.708077 -23.914356 -30.439424 38.995141 -1.376410 2.466414 0.066189 -0.034189 -270259.000000 0 0 1
5.706977 -22.782256 -30.821014 38.749655 -1.325346 2.490444 0.079901 -0.042092 467276.000000 0 0 1
6.939377 -22.694256 -30.047344 38.288734 -1.274048 2.473100 0.057481 -0.040166 2011070.000000 0 0 1
7.941977 -23.738156 -30.159554 39.194053 -1.247937 2.448843 0.070379 -0.025200 592680.000000 0 0 1
8.532977 -23.805956 -31.633794 40.499780 -1.226624 2.467199 0.078984 -0.022382 -1104450.000000 0 0 1
7.605277 -24.450056 -32.450944 41.336537 -1.269230 2.473561 0.057350 -0.027137 -306653.000000 0 0 1
7.692777 -24.275956 33.531712 42.105541 -1.263918 0.649522 0.070425 -0.029821 -129138.000000 0 0 1
7.196777 -22.908856 32.997729 40.810041 -1.266411 0.629081 0.089443 -0.032226 227064.000000 0 0 1
5.785277 -22.796656 33.197697 40.684691 -1.322266 0.616382 0.083009 -0.035856 383189.000000 0 0 1
5.307477 -21.645656 32.497195 39.405221 -1.330342 0.601138 0.107329 -0.060431 -302242.000000 0 0 1
3.788977 -21.400856 32.608388 39.187498 -1.395564 0.587891 0.096268 -0.060730 131772.000000 0 0 1
3.013677 -22.549056 32.302358 39.509297 -1.437934 0.613585 0.086721 -0.054599 -33726.600000 0 0 1
2.729077 -23.410256 33.410532 40.887059 -1.454744 0.614361 0.084549 -0.045867 -1297740.000000 0 0 1
1.346077 -23.992156 33.309382 41.072502 -1.514750 0.624954 0.099371 -0.046617 -905121.000000 0 0 1
1.257177 -25.015656 32.357264 40.918897 -1.520583 0.658737 0.094979 -0.037389 -648478.000000 0 0 1
-0.035723 -25.469356 32.153736 41.018924 1.569394 0.669913 0.141948 -0.044351 -905014.000000 0 0 1
-0.163923 -26.593956 31.151492 40.959502 1.564633 0.706646 0.138827 -0.036329 -104226.000000 0 0 1
-1.494623 -26.874056 30.782362 40.890128 1.515238 0.718481 0.174140 -0.037720 -132268.000000 0 0 1
-1.695223 -27.720556 29.685752 40.651530 1.509718 0.752110 0.193721 -0.047229 259913.000000 0 0 1
-3.098723 -27.735156 29.040792 40.276651 1.459532 0.765504 0.232489 -0.050444 -143033.000000 0 0 1
-4.221423 -28.173456 29.742232 41.184517 1.422066 0.763862 0.259727 -0.053590 -364292.000000 0 0 1
-5.314723 -28.384756 28.897542 40.853502 1.385701 0.785060 0.260563 -0.048117 -559870.000000 0 0 1
-6.639423 -28.668156 29.599232 41.737988 1.343213 0.782479 0.207485 -0.040714 -380900.000000 0 0 1
-7.697923 -29.172356 28.753792 41.678111 1.312800 0.809443 0.210294 -0.037254 548961.000000 0 0 1
-8.969623 -29.054756 29.336612 42.252453 1.271364 0.803325 0.180921 -0.034975 -231008.000000 0 0 1
-9.275623 -30.082456 30.458242 43.802921 1.271706 0.801893 0.134105 -0.024777 -865297.000000 0 0 1
-9.394923 -31.422456 29.969592 44.427601 1.280269 0.830412 0.145563 -0.023511 186844.000000 0 0 1
-10.740923 -31.743156 29.684122 44.767650 1.244520 0.845883 0.133130 -0.022213 -124341.000000 0 0 1
-10.934323 -33.092056 29.081582 45.391431 1.251669 0.875407 0.131257 -0.016697 -131899.000000 0 0 1
-10.881623 33.306803 30.008392 46.133030 -1.255020 0.862586 0.127794 -0.020579 286954.000000 0 0 1
-10.346923 32.103103 29.504572 44.812809 -1.259006 0.852111 0.128066 -0.021818 -309428.000000 0 0 1
-10.923523 30.932403 30.262872 44.631585 -1.231325 0.825677 0.109995 -0.010455 -162622.000000 0 0 1
-12.324923 30.843003 30.098432 44.823099 -1.190633 0.834574 0.111192 -0.009062 39089.400000 0 0 1
-12.882923 29.625503 30.536912 44.453831 -1.160605 0.813533 0.094184 -0.009669 73213.800000 0 0 1
-12.952223 29.339903 32.098964 45.375472 -1.155072 0.784972 0.105462 -0.030630 -220657.000000 0 0 1
-13.892823 30.211003 32.734593 46.661213 -1.139773 0.793244 0.091820 -0.026191 479306.000000 0 0 1
-14.119923 29.731603 -33.289294 46.813647 -1.127419 2.361861 0.105294 -0.030585 111297.000000 0 0 1
-15.560423 30.097303 -32.847944 47.190697 -1.093638 2.340703 0.094325 -0.029370 122701.000000 0 0 1
-15.721523 29.625803 -31.509634 46.018600 -1.082915 2.325009 0.060804 -0.020202 -766941.000000 0 0 1
-17.016123 29.731903 -31.007844 46.206287 -1.050979 2.306453 0.078704 -0.022386 -515068.000000 0 0 1
-17.161823 29.386203 -29.527154 45.054744 -1.042218 2.285458 0.086276 -0.026070 -179427.000000 0 0 1
-17.231923 27.991103 -29.331394 44.054191 -1.018970 2.299365 0.069609 -0.024750 102641.000000 0 0 1
-17.500623 27.826103 -27.984444 43.170510 -1.009377 2.276055 0.062577 -0.015996 -73537.100000 0 0 1
-17.902223 26.371803 -27.571804 42.144584 -0.974414 2.283946 0.049121 -0.020937 596264.000000 0 0 1
-19.255023 26.044003 -27.886254 42.739785 -0.934161 2.281630 0.049747 -0.018603 342571.000000 0 0 1
-19.577723 24.739603 -27.407404 41.791160 -0.901351 2.286062 0.040377 -0.020415 1220170.000000 0 0 1
-21.062423 24.265903 -27.712124 42.431375 -0.855954 2.282473 0.058650 -0.016637 641200.000000 0 0 1
-22.005923 24.720003 -26.819084 42.598151 -0.843418 2.251813 0.062316 -0.024030 21914.300000 0 0 1
-23.300823 24.237103 -27.194174 43.242209 -0.805091 2.250909 0.094414 -0.026336 1165000.000000 0 0 1
-24.450423 24.422603 -26.141224 43.331863 -0.784829 2.218403 0.108036 -0.026927 544187.000000 0 0 1
-25.010043 25.726103 -26.069964 44.350622 -0.799511 2.199152 0.076016 -0.019141 227631.000000 0 0 1
-26.294163 25.848303 -25.477594 44.817693 -0.776848 2.175443 0.075463 -0.030896 516287.000000 0 0 1
-26.281863 25.825103 -23.899494 43.918767 -0.776633 2.146202 0.070349 -0.007361 -219553.000000 0 0 1
-25.926283 24.589303 -23.286394 42.650465 -0.758938 2.148357 0.091065 -0.006336 374045.000000 0 0 1
-26.932003 23.536303 -23.276494 42.674179 -0.718216 2.147718 0.100445 -0.002819 531802.000000 0 0 1
-27.821853 23.493503 -22.014094 42.551387 -0.701249 2.114551 0.074989 0.000647 152454.000000 0 0 1
-27.178733 23.127403 -20.785094 41.298674 -0.705038 2.098195 0.080870 0.001913 353409.000000 0 0 1
-26.132683 23.983403 -20.325594 40.880931 -0.742538 2.091154 0.061889 0.001393 100731.000000 0 0 1
-25.380173 23.498903 -19.121294 39.521836 -0.746929 2.075806 0.056329 0.001636 -269393.000000 0 0 1
-26.151823 23.663003 -17.956894 39.576579 -0.735478 2.041738 0.046801 0.007083 15557.800000 0 0 1
-25.311243 23.529503 -16.809594 38.429923 -0.748934 2.023512 0.069637 -0.017960 112999.000000 0 0 1
-25.928633 23.632703 -15.373094 38.303142 -0.739106 1.983790 0.063715 -0.020453 -203309.000000 0 0 1
-26.363153 24.920003 -14.957094 39.239483 -0.757265 1.961863 0.072909 -0.023653 -299491.000000 0 0 1
-26.866003 24.768603 -13.673194 39.015664 -0.744800 1.928852 0.039152 -0.027808 -143717.000000 0 0 1
-26.865873 26.144603 -12.984494 39.672566 -0.771793 1.904232 0.048219 -0.023490 -884001.000000 0 0 1
-25.571023 26.535403 -12.739394 38.990986 -0.803904 1.903634 0.081321 -0.039066 -1230740.000000 0 0 1
-25.495263 27.542903 -11.804094 39.344079 -0.823986 1.875512 0.096463 -0.040011 -245460.000000 0 0 1
-24.087123 28.031403 -11.461094 38.695035 -0.860933 1.871498 0.117536 -0.038277 -287105.000000 0 0 1
-23.295023 27.081303 -10.781794 37.313565 -0.860417 1.863927 0.118723 -0.037871 763045.000000 0 0 1
-22.098123 27.678803 -10.193494 36.855807 -0.897046 1.851027 0.122394 -0.038704 999520.000000 0 0 1
-21.351923 26.511203 -9.515294 35.345287 -0.892776 1.843369 0.176873 -0.040278 -401262.000000 0 0 1
-20.658623 25.819403 -10.515394 34.698614 -0.895982 1.878687 0.151237 -0.046686 285302.000000 0 0 1
-19.900223 24.708203 -9.909994 33.237361 -0.892766 1.873559 0.164264 -0.035327 563188.000000 0 0 1
-19.147923 23.850303 -10.967794 32.492652 -0.894327 1.915106 0.159255 -0.043136 -19219.300000 0 0 1
-18.367123 22.757103 -10.519594 31.078913 -0.891745 1.916098 0.126885 -0.033979 251616.000000 0 0 1
-17.890123 22.014903 -11.595694 30.645923 -0.888397 1.958838 0.150686 -0.027330 -114118.000000 0 0 1
-17.522223 20.602103 -11.161794 29.258513 -0.866008 1.962203 0.125344 -0.015225 -72948.700000 0 0 1
-18.624123 19.822303 -10.762294 29.250789 -0.816553 1.947580 0.113234 -0.009243 -179086.000000 0 0 1
-18.243323 18.499903 -10.484694 28.017746 -0.792381 1.954348 0.139107 -0.034229 -753004.000000 0 0 1
-19.380323 17.500803 -10.124294 28.006720 -0.734481 1.940667 0.117649 -0.010590 193340.000000 0 0 1
-20.026423 16.862703 -11.217694 28.482364 -0.699845 1.975609 0.105710 -0.007611 75405.900000 0 0 1
-20.888323 17.702603 -11.951594 29.875488 -0.703034 1.982364 0.119993 -0.014395 -880620.000000 0 0 1
-21.529923 17.009003 -13.143594 30.423639 -0.668624 2.017527 0.116936 -0.019289 167992.000000 0 0 1
-20.588623 16.868203 -14.210694 30.172363 -0.686397 2.061202 0.099292 -0.023887 617282.000000 0 0 1
-21.244723 16.358203 -15.382894 30.912174 -0.656172 2.091663 0.117007 -0.018181 197540.000000 0 0 1
-20.279323 16.206203 -16.573694 30.799015 -0.674222 2.139006 0.116974 -0.027499 -247101.000000 0 0 1
-20.075623 17.459203 -17.223394 31.693844 -0.715804 2.145314 0.110729 -0.028951 39711.700000 0 0 1
-19.302823 17.380703 -18.392094 31.826985 -0.733049 2.186922 0.113512 -0.025854 -620867.000000 0 0 1
-18.508523 18.657103 -18.686194 32.246345 -0.789396 2.188890 0.097111 -0.014560 -184139.000000 0 0 1
-17.291023 18.648703 -17.962994 31.135555 -0.823157 2.185760 0.133819 -0.023301 764510.000000 0 0 1
-16.429123 19.792703 -18.157994 31.486186 -0.877993 2.185476 0.155065 -0.024979 455707.000000 0 0 1
34.507185 30.192503 1.682306 45.882058 0.718809 1.534122 0.104255 -0.012752 -913251.000000 0 0 1
35.813055 30.474103 1.361706 47.043599 0.705029 1.541847 0.107300 -0.012506 -980993.000000 0 0 1
35.829025 31.382903 0.249006 47.630533 0.719344 1.565568 0.080522 -0.008514 160398.000000 0 0 1
37.157015 31.439303 -0.555894 48.676304 0.702237 1.582217 0.055050 -0.012816 226394.000000 0 0 1
38.180885 32.143603 0.132006 49.910006 0.699759 1.568151 0.052770 -0.010183 200407.000000 0 0 1
-37.047123 32.089303 -0.664694 49.016880 -0.713810 1.584357 0.059172 -0.020196 -631738.000000 0 0 1
-35.982793 33.026803 -0.161394 48.842166 -0.742590 1.574101 0.052163 -0.021293 -640046.000000 0 0 1
-35.313023 32.523903 0.982906 48.018538 -0.744306 1.550326 0.044393 -0.010644 -290264.000000 0 0 1
-34.544716 33.527903 1.542306 48.164680 -0.770462 1.538769 0.038536 -0.005884 -925815.000000 0 0 1
-33.729373 33.095303 2.716706 47.332337 -0.775910 1.513368 0.061972 -0.001537 -749003.000000 0 0 1
-33.187803 -33.155456 3.310906 47.028466 0.784911 1.500336 0.057265 0.008950 -35319.500000 0 0 1
-32.531613 -33.446256 4.518606 46.876174 0.799260 1.474252 0.079946 -0.010274 -707826.000000 0 0 1
-32.301033 -32.077856 5.298306 45.830313 0.781932 1.454930 0.087417 -0.008865 239963.000000 0 0 1
-33.465493 -31.489356 5.850206 46.322173 0.754984 1.444164 0.089972 -0.008380 745534.000000 0 0 1
-34.186052 -32.244056 6.854606 47.490535 0.756173 1.425954 0.073155 -0.021269 -65874.800000 0 0 1
-35.225299 -31.531856 7.798606 47.915529 0.730128 1.407312 0.092849 -0.016032 1666830.000000 0 0 1
-36.566673 -31.272656 7.348206 48.673368 0.707518 1.419247 0.071436 -0.010165 800871.000000 0 0 1
-37.385343 -32.382956 7.110706 49.968809 0.713821 1.428009 0.075589 -0.010956 804351.000000 0 0 1
37.476145 -32.009456 6.962206 49.774884 -0.706886 1.430462 0.094589 -0.001623 1511750.000000 0 0 1
36.692175 -32.060156 8.143106 49.401210 -0.718127 1.405204 0.091685 0.001127 1345130.000000 0 0 1
35.279635 -31.994556 7.832606 48.266490 -0.736606 1.407797 0.070073 0.011964 887653.000000 0 0 1
34.469565 -31.985056 9.158206 47.906863 -0.748029 1.378446 0.076982 0.000009 527374.000000 0 0 1
33.056125 -32.152956 8.833006 46.952551 -0.771549 1.381542 0.090481 -0.002291 1555630.000000 0 0 1
32.234455 -32.186456 9.983606 46.633684 -0.784653 1.355041 0.101877 -0.015229 -53716.200000 0 0 1
32.155645 -30.830856 10.810906 45.841062 -0.764368 1.332719 0.098592 -0.013031 -991371.000000 0 0 1
31.494405 -29.685156 10.300306 44.488227 -0.755834 1.337147 0.096777 -0.020574 90493.100000 0 0 1
32.125165 -29.046456 9.240006 44.284315 -0.735112 1.360600 0.093076 -0.019756 -34934.200000 0 0 1
31.529645 -27.606256 9.028906 42.868929 -0.719150 1.358591 0.083762 -0.017760 498689.000000 0 0 1
32.119735 -26.996456 7.853406 42.686790 -0.698950 1.385765 0.093293 -0.019945 128725.000000 0 0 1
31.468865 -25.788256 7.563906 41.382802 -0.686510 1.386984 0.081709 -0.021463 208112.000000 0 0 1
31.495115 -25.478456 6.051206 40.959872 -0.680184 1.422519 0.060260 -0.010374 -621558.000000 0 0 1
32.722885 -24.990456 5.671606 41.562931 -0.652211 1.433911 0.073640 -0.013036 -1135170.000000 0 0 1
32.716205 -24.345656 4.396606 41.016963 -0.639744 1.463400 0.069703 -0.008396 -475695.000000 0 0 1
34.113835 -23.882056 4.059706 41.840024 -0.610773 1.473614 0.083450 -0.015762 -338848.000000 0 0 1
35.145755 -24.826956 3.947606 43.210942 -0.615008 1.479312 0.065175 -0.011642 -1315.120000 0 0 1
36.422955 -24.260356 3.665206 43.916174 -0.587592 1.487240 0.073175 -0.012076 640054.000000 0 0 1
37.433055 -25.458156 3.671006 45.418363 -0.597244 1.489882 0.067606 -0.006710 -354373.000000 0 0 1
37.332125 -26.218356 4.852106 45.876276 -0.612268 1.464833 0.049543 0.005472 -135203.000000 0 0 1
38.022815 -27.433956 4.745506 47.126174 -0.625019 1.469927 0.048294 0.002790 -762386.000000 0 0 1
37.504545 -28.449156 5.795406 47.429233 -0.648952 1.448300 0.061572 0.006881 1055030.000000 0 0 1
36.188885 -28.937356 5.513306 46.662646 -0.674509 1.452367 0.046776 0.015250 825191.000000 0 0 1
35.045125 -28.118656 5.714406 45.293201 -0.676176 1.444294 0.050953 0.005493 262762.000000 0 0 1
33.696995 -28.870256 5.492806 44.711857 -0.708406 1.447636 0.078340 0.002066 178725.000000 0 0 1
33.287225 -29.283356 4.197106 44.532797 -0.721496 1.476409 0.056527 0.002317 -293560.000000 0 0 1
32.111805 -28.730956 3.697706 43.247069 -0.729888 1.485190 0.058340 -0.001146 476716.000000 0 0 1
30.731465 -29.427656 4.032906 42.739610 -0.763729 1.476296 0.064812 -0.005145 911175.000000 0 0 1
30.604065 -30.707756 3.402006 43.487340 -0.787089 1.492487 0.069126 0.001087 -698344.000000 0 0 1
29.336865 -31.278556 3.481906 43.024684 -0.817420 1.489780 0.076573 -0.000465 -421099.000000 0 0 1
29.362465 -32.683556 2.868606 44.029514 -0.838873 1.505598 0.078473 0.002890 7155.650000 0 0 1
29.421365 -32.652756 1.441306 43.976091 -0.837408 1.538016 0.072663 0.002560 133662.000000 0 0 1
29.342165 33.408603 0.972706 44.475202 0.850111 1.548924 0.071730 0.003471 -77173.600000 0 0 1
29.004965 33.323403 -0.532494 44.181679 0.854573 1.582849 0.063471 -0.003988 -61025.100000 0 0 1
30.077065 -33.699156 -1.348594 45.189398 -0.842131 1.600644 0.052003 -0.006469 186521.000000 0 0 1
29.649965 33.587803 -2.675194 44.882264 0.847588 1.630436 0.053992 -0.016647 1022000.000000 0 0 1
30.780865 -33.191256 -3.617394 45.411526 -0.823059 1.650539 0.032164 -0.007915 955467.000000 0 0 1
30.903765 -31.785556 -3.659494 44.483213 -0.799463 1.653156 0.022767 -0.007043 -75881.400000 0 0 1
31.684495 -31.374256 -4.754894 44.842616 -0.780478 1.677031 0.014563 -0.004996 -236211.000000 0 0 1
31.983915 -29.860256 -4.664694 44.004149 -0.751073 1.677002 0.018596 0.008295 -770239.000000 0 0 1
30.899365 -29.032156 -5.011994 42.693758 -0.754253 1.688462 0.013608 -0.002314 -178783.000000 0 0 1
31.133265 -27.662856 -4.869994 41.931262 -0.726442 1.687201 0.024499 0.000899 -425037.000000 0 0 1
32.031745 -26.868256 -5.807894 42.209804 -0.697956 1.708830 0.060205 0.000575 893982.000000 0 0 1
33.412745 -27.255556 -5.595594 43.480888 -0.684255 1.699845 0.061192 -0.000033 673562.000000 0 0 1
34.371265 -26.623556 -6.400394 43.944996 -0.659052 1.716962 0.083132 -0.010409 149570.000000 0 0 1
34.720115 -27.422856 -7.695894 44.907976 -0.668507 1.743017 0.093565 0.004243 75073.700000 0 0 1
33.556005 -27.476756 -8.529894 44.201094 -0.686119 1.764994 0.097507 0.000695 415065.000000 0 0 1
33.483315 -28.543256 -9.470694 45.006044 -0.705922 1.782813 0.078858 0.004471 72079.900000 0 0 1
33.411135 -30.019856 -9.003494 45.810028 -0.731985 1.768624 0.069722 0.008619 1055580.000000 0 0 1
34.663145 -30.531556 -8.480494 46.964118 -0.722110 1.752366 0.074820 0.001620 592006.000000 0 0 1
34.380645 -31.746856 -7.811294 47.443735 -0.745590 1.736193 0.080824 -0.015943 692289.000000 0 0 1
35.659525 -32.496656 -7.303794 48.795285 -0.739025 1.721043 0.075333 -0.020758 446124.000000 0 0 1
35.490055 33.688403 -6.612994 49.377973 0.759361 1.705126 0.058363 -0.026580 -74715.200000 0 0 1
34.862285 -33.697456 -5.336394 48.778834 -0.768410 1.680416 0.059630 -0.022358 -92488.400000 0 0 1
34.780815 32.277703 -4.766994 47.689407 0.748088 1.670923 0.026360 -0.021029 185916.000000 0 0 1
33.865255 31.445403 -5.488794 46.538111 0.748364 1.689013 0.046119 -0.035878 397785.000000 0 0 1
33.821355 30.113503 -5.000594 45.559995 0.727469 1.680776 0.052438 -0.016576 -434158.000000 0 0 1
32.627745 29.313403 -5.482394 44.202964 0.731941 1.695144 0.063183 -0.024490 -498833.000000 0 0 1
32.689375 29.087203 -6.902194 44.297866 0.727154 1.727247 0.049695 -0.018380 188408.000000 0 0 1
31.431265 28.752403 -7.468694 43.248197 0.740916 1.744360 0.049240 -0.022186 323271.000000 0 0 1
31.569415 28.344203 -8.947094 43.359801 0.731619 1.778635 0.064934 -0.018019 -425440.000000 0 0 1
32.235745 27.115703 -9.157294 43.107548 0.699345 1.784856 0.076797 -0.015523 -56567.600000 0 0 1
32.629515 26.965503 -10.487894 43.609857 0.690641 1.813671 0.081820 -0.015306 102795.000000 0 0 1
33.884765 27.742203 -10.934894 45.137336 0.686053 1.815489 0.102651 -0.018473 -2166640.000000 0 0 1
35.102505 27.229603 -10.561094 45.663705 0.659758 1.804189 0.099165 -0.026615 -411371.000000 0 0 1
36.161415 28.156203 -10.860994 47.099692 0.661571 1.803486 0.110349 -0.030774 268463.000000 0 0 1
36.185755 29.578503 -10.180994 47.832514 0.685265 1.785284 0.098185 -0.031247 -1304770.000000 0 0 1
36.884405 29.597703 -8.960494 48.132877 0.676230 1.758050 0.066496 -0.030293 231146.000000 0 0 1
36.783545 30.824903 -8.368694 48.715900 0.697491 1.743438 0.060464 -0.032483 -54344.200000 0 0 1
37.809105 31.017903 -7.130794 49.421524 0.687046 1.715587 0.049033 -0.025611 1221030.000000 0 0 1
-37.264353 31.332803 -7.508394 49.262080 -0.699143 1.723810 0.069619 -0.025349 347575.000000 0 0 1
-36.491163 30.206703 -7.962394 48.035920 -0.691453 1.737324 0.080843 -0.035146 -145333.000000 0 0 1
-35.083628 30.664103 -8.445694 47.354809 -0.718280 1.750105 0.144648 -0.040010 -36310.000000 0 0 1
-34.146755 30.969703 -7.424494 46.693110 -0.736647 1.730480 0.134337 -0.034717 771568.000000 0 0 1
-32.818423 31.210203 -7.887494 45.971059 -0.760286 1.743225 0.166868 -0.045107 624605.000000 0 0 1
-32.627993 32.627303 -8.594994 46.936135 -0.785388 1.754957 0.128705 -0.034378 -530993.000000 0 0 1
-32.750783 -33.562356 -7.839094 47.544684 0.797636 1.736431 0.105154 -0.034394 -350660.000000 0 0 1
-31.816813 -33.473056 -6.830294 46.684130 0.810760 1.717632 0.152937 -0.049864 -475917.000000 0 0 1
-31.817553 -32.037956 -6.152094 45.570117 0.788850 1.706213 0.124540 -0.046827 270859.000000 0 0 1
-32.904273 -31.669156 -5.310094 45.976339 0.766273 1.686551 0.118721 -0.056015 85088.100000 0 0 1
-32.735343 -32.138956 -4.001094 46.049147 0.776205 1.657794 0.126859 -0.052710 -289331.000000 0 0 1
-34.002905 -32.178456 -3.147394 46.920749 0.757838 1.637926 0.097078 -0.045976 -314926.000000 0 0 1
-34.543526 -30.890556 -2.828694 46.427181 0.729629 1.631762 0.056372 -0.035019 20000.100000 0 0 1
-35.630023 -31.022956 -1.937494 47.282938 0.716388 1.611784 0.059840 -0.025565 -30161.900000 0 0 1
-36.370063 -29.666256 -1.706894 46.965750 0.684228 1.607148 0.084851 -0.018275 197065.000000 0 0 1
-37.188863 -29.659456 -0.548094 47.570950 0.673237 1.582318 0.062574 -0.005033 -468079.000000 0 0 1
-38.006273 -28.534456 -0.573794 47.529162 0.644002 1.582869 0.080361 -0.006008 -451776.000000 0 0 1
37.509695 -28.548156 0.667206 47.142546 -0.650559 1.556643 0.074799 -0.003149 -822776.000000 0 0 1
36.366785 -29.364456 0.553606 46.745276 -0.679269 1.558953 0.041118 -0.002860 397408.000000 0 0 1
35.301885 -29.101656 1.465406 45.774195 -0.689422 1.538777 0.042828 -0.003847 455046.000000 0 0 1
34.550335 -27.760856 1.373606 44.342729 -0.676866 1.539814 0.028135 0.009593 -1301900.000000 0 0 1
33.463995 -27.792756 0.482606 43.502979 -0.693080 1.559702 0.028634 0.006349 -208191.000000 0 0 1
32.888625 -26.526156 0.355206 42.254288 -0.678719 1.562390 0.031514 0.004259 -330887.000000 0 0 1
31.550075 -26.482256 -0.427494 41.193445 -0.698292 1.581174 0.029284 -0.002371 72915.100000 0 0 1
30.473465 -27.121056 0.239706 40.795113 -0.727257 1.564920 0.038127 0.002891 44337.200000 0 0 1
30.386765 -28.566656 0.150806 41.706500 -0.754534 1.567180 0.043256 0.000839 -538079.000000 0 0 1
30.021165 -29.159956 -1.247294 41.870385 -0.770847 1.600590 0.028038 -0.003252 -535625.000000 0 0 1
28.790765 -28.787956 -1.781394 40.753257 -0.785349 1.614522 0.036568 -0.003718 -444257.000000 0 0 1
28.394265 -29.511756 -2.923394 41.057573 -0.804694 1.642059 0.031537 0.000837 147417.000000 0 0 1
26.954065 -30.066956 -2.970594 40.489109 -0.839936 1.644230 0.048678 -0.012315 1744970.000000 0 0 1
25.870965 -29.061656 -2.946094 39.020074 -0.843417 1.646370 0.062907 -0.012787 1048420.000000 0 0 1
24.593865 -29.549756 -3.231994 38.580981 -0.876676 1.654666 0.050304 -0.013073 -7085.540000 0 0 1
23.414965 -28.582656 -3.405394 37.105600 -0.884456 1.662701 0.052634 -0.014827 145977.000000 0 0 1
23.458965 -27.891056 -4.621994 36.736861 -0.871496 1.696944 0.064229 -0.024935 141949.000000 0 0 1
22.896865 -26.607156 -4.351894 35.371545 -0.860208 1.694143 0.078489 -0.032850 5054.020000 0 0 1
22.513165 -25.792756 -5.542494 34.681813 -0.853186 1.731294 0.078195 -0.033048 444531.000000 0 0 1
21.363665 -26.316056 -6.223194 34.462576 -0.888895 1.752371 0.093312 -0.027667 70134.100000 0 0 1
20.896965 -25.542056 -7.261594 33.790688 -0.885092 1.787385 0.102069 -0.029308 -785024.000000 0 0 1
19.416265 -25.786756 -7.451294 33.128084 -0.925407 1.797661 0.098181 -0.022413 -600372.000000 0 0 1
18.567165 -25.047256 -6.582094 31.865791 -0.932896 1.778851 0.095975 -0.025111 723767.000000 0 0 1
17.197465 -25.447556 -6.740594 31.444659 -0.976497 1.786837 0.090538 -0.032547 1048820.000000 0 0 1
16.134165 -24.628556 -5.952494 30.038463 -0.990844 1.770279 0.076767 -0.024379 199297.000000 0 0 1
16.104565 -25.003256 -4.585494 30.092302 -0.998581 1.723773 0.063208 -0.018528 189607.000000 0 0 1
15.430065 -24.017756 -3.813294 28.800708 -0.999751 1.703589 0.071281 -0.022941 -137371.000000 0 0 1
15.336765 -24.411556 -2.347094 28.924891 -1.009857 1.652030 0.069534 -0.020715 549489.000000 0 0 1
14.421265 -25.528056 -2.193794 29.401825 -1.056572 1.645480 0.066599 -0.014721 868488.000000 0 0 1
15.136265 -26.665156 -1.721594 30.709949 -1.054509 1.626886 0.062130 -0.014622 -27429.200000 0 0 1
14.389465 -27.908256 -2.163494 31.473929 -1.094748 1.639590 0.067012 -0.012992 -250119.000000 0 0 1
13.298065 -28.120156 -1.296294 31.132975 -1.129062 1.612446 0.077032 -0.024481 -224781.000000 0 0 1
12.667565 -29.387356 -1.306494 32.027970 -1.163808 1.611600 0.078353 -0.021213 326885.000000 0 0 1
13.546065 -30.562956 -0.730294 33.438354 -1.153596 1.592638 0.080732 -0.018233 426706.000000 0 0 1
14.765565 -30.807956 -1.403194 34.192412 -1.123864 1.611846 0.094967 -0.017579 -244674.000000 0 0 1
15.380565 -31.980656 -0.898794 35.498338 -1.122518 1.596118 0.095572 -0.016975 -939608.000000 0 0 1
16.755065 -32.145156 -1.485494 36.280160 -1.090308 1.611753 0.083823 -0.015676 -999709.000000 0 0 1
17.683165 -31.161256 -1.066394 35.844880 -1.054637 1.600551 0.085983 -0.016643 -147307.000000 0 0 1
18.935965 -31.433256 -1.673094 36.734448 -1.028601 1.616358 0.080278 -0.019848 291549.000000 0 0 1
19.951165 -30.316656 -1.237694 36.313641 -0.988753 1.604886 0.073862 -0.018478 263584.000000 0 0 1
19.460565 -29.046556 -1.667194 35.002794 -0.980504 1.618445 0.086245 -0.018811 452209.000000 0 0 1
20.069165 -28.085856 -0.804194 34.528734 -0.950362 1.594089 0.081447 -0.012895 28654.000000 0 0 1
19.653065 -26.614956 -1.072994 33.102118 -0.934747 1.603217 0.080444 -0.014026 -31870.100000 0 0 1
20.191465 -26.030556 -2.224694 33.018698 -0.911060 1.638224 0.081350 -0.021308 77924.600000 0 0 1
19.107965 -25.834456 -3.081294 32.280456 -0.933964 1.666396 0.090638 -0.021693 -129034.000000 0 0 1
33.986315 -29.402856 13.616106 46.957384 -0.713217 1.276604 0.088473 -0.044808 -353692.000000 0 0 1
34.865295 -29.900756 14.572506 48.187156 -0.708894 1.263571 0.114608 -0.043033 -322237.000000 0 0 1
34.268805 -30.465756 15.713606 48.470927 -0.726717 1.240645 0.098053 -0.037929 -232488.000000 0 0 1
35.378775 -30.764456 16.722406 49.776986 -0.715748 1.228186 0.100981 -0.031238 -237002.000000 0 0 1
34.829635 -31.189356 17.966206 50.086565 -0.730314 1.203918 0.079490 -0.032977 377433.000000 0 0 1
35.764585 -31.419856 19.027806 51.267634 -0.720819 1.190553 0.056598 -0.030508 -276062.000000 0 0 1
36.569475 -32.716256 18.839306 52.560436 -0.729842 1.204209 0.053916 -0.020072 -82679.500000 0 0 1
37.631535 -32.576756 17.889406 52.890532 -0.713525 1.225756 0.076043 -0.021091 297381.000000 0 0 1
-38.171233 33.576803 17.526006 53.773651 -0.721450 1.238810 0.064392 -0.016278 53314.300000 0 0 1
-37.024293 -33.602256 16.513206 52.655445 0.736983 1.251805 0.074364 -0.014279 -235034.000000 0 0 1
-35.813242 -33.121756 17.018006 51.664800 0.746374 1.235136 0.081689 -0.015729 95157.800000 0 0 1
-34.978164 -32.568256 16.018506 50.405911 0.749735 1.247398 0.099620 -0.005521 -309598.000000 0 0 1
-33.740333 -31.806656 16.532606 49.228046 0.755906 1.228302 0.095657 -0.004044 -163884.000000 0 0 1
-32.672683 -31.663556 15.650306 48.114624 0.769714 1.239498 0.105666 -0.007815 -451551.000000 0 0 1
-32.868133 -30.786656 14.588906 47.338869 0.752710 1.257517 0.110026 -0.018457 -693182.000000 0 0 1
-31.713873 -30.593756 13.580906 46.110613 0.767423 1.271834 0.102334 -0.021025 -105889.000000 0 0 1
-30.568253 -30.034156 14.175606 45.137749 0.776585 1.251338 0.092920 -0.025779 -902830.000000 0 0 1
-29.507143 -30.116456 13.283706 44.205534 0.795617 1.265581 0.073824 -0.010513 -51334.500000 0 0 1
-28.227463 -29.542456 13.952606 43.176632 0.808157 1.241738 0.062661 -0.010626 -99303.800000 0 0 1
-27.010913 -29.734756 13.307706 42.318320 0.833362 1.250901 0.040166 -0.002180 -1112170.000000 0 0 1
-25.970173 -29.239056 14.099806 41.571346 0.844538 1.224761 0.022210 -0.005768 -479149.000000 0 0 1
-24.631523 -29.295756 13.356606 40.538280 0.871675 1.235042 0.035877 0.000749 -328579.000000 0 0 1
-24.342723 -30.576456 12.954106 41.173981 0.898422 1.250741 0.058441 -0.007725 1532430.000000 0 0 1
-22.978323 -30.632656 12.407806 40.253156 0.927215 1.257449 0.063563 -0.016762 1774990.000000 0 0 1
-22.420423 -31.997856 12.045606 40.885630 0.959611 1.271742 0.061323 -0.016427 -260616.000000 0 0 1
-23.071123 -32.568056 10.965706 41.390841 0.954457 1.302664 0.063508 -0.015760 -224064.000000 0 0 1
-22.807423 33.445303 10.815006 41.901446 -0.972300 1.309735 0.070803 -0.013308 323309.000000 0 0 1
-23.764723 32.660303 9.841906 41.573075 -0.941764 1.331790 0.076803 -0.000991 119737.000000 0 0 1
-23.614523 33.026703 8.471006 41.474893 -0.950065 1.365105 0.077645 0.003432 696352.000000 0 0 1
-24.811223 32.802703 7.699306 41.843678 -0.923226 1.385740 0.069878 -0.001546 144181.000000 0 0 1
-24.611323 33.405903 6.297206 41.968159 -0.935839 1.420180 0.081049 -0.007676 -455545.000000 0 0 1
-23.888323 32.543103 5.400506 40.729240 -0.937580 1.437809 0.069928 0.003563 1175670.000000 0 0 1
-22.470223 32.434703 5.634906 39.858162 -0.964930 1.428947 0.083936 -0.006796 782947.000000 0 0 1
-21.593223 -33.685656 5.336406 40.366669 1.000759 1.438210 0.118166 -0.017393 -520439.000000 0 0 1
-21.719923 -32.513856 6.159606 39.583414 0.981857 1.414551 0.105921 -0.029911 -248322.000000 0 0 1
-21.092723 -32.686656 7.380206 39.595301 0.997732 1.383309 0.093961 -0.033369 -613264.000000 0 0 1
-21.159823 -31.466956 8.301706 38.817854 0.978803 1.355268 0.088090 -0.034518 73784.700000 0 0 1
-20.180223 -30.501956 7.865006 37.409478 0.986307 1.358975 0.124002 -0.054832 333575.000000 0 0 1
-20.075923 -29.338556 8.721906 36.604169 0.970696 1.330206 0.110927 -0.049489 426197.000000 0 0 1
-19.365123 -29.646556 10.094006 36.821396 0.992175 1.293107 0.094852 -0.037382 1029800.000000 0 0 1
-18.036423 -30.199456 9.954806 36.557049 1.032406 1.295005 0.095046 -0.050835 517678.000000 0 0 1
-17.368123 -30.129456 11.186906 36.531941 1.047873 1.259574 0.103791 -0.043097 -342173.000000 0 0 1
-15.959323 -30.699456 11.088706 36.333401 1.091390 1.260655 0.100946 -0.045992 -446032.000000 0 0 1
-14.951223 -30.085556 10.330606 35.148274 1.109586 1.272476 0.128948 -0.051993 -495334.000000 0 0 1
-13.937823 -31.010556 10.076606 35.460619 1.148396 1.282663 0.130835 -0.047999 -390352.000000 0 0 1
-12.697723 -30.396356 9.403906 34.257905 1.175092 1.292723 0.138023 -0.039546 -224701.000000 0 0 1
-11.919223 -29.613456 10.274806 33.535001 1.188142 1.259397 0.135114 -0.041787 -299110.000000 0 0 1
-10.978923 -28.822756 9.564506 32.291915 1.206853 1.270096 0.169073 -0.047500 -259248.000000 0 0 1
-9.929223 -28.272856 10.511706 31.755942 1.233059 1.233417 0.174516 -0.040885 -289569.000000 0 0 1
-10.334623 -27.271456 11.432206 31.324624 1.208564 1.197207 0.147652 -0.045100 -138309.000000 0 0 1
-9.229823 -27.124356 12.310506 31.184433 1.242809 1.164985 0.132261 -0.031089 631511.000000 0 0 1
-9.298023 -25.759256 13.127306 30.369700 1.224392 1.123810 0.118042 -0.032255 39281.300000 0 0 1
-8.973223 -24.579456 12.499906 28.998552 1.220760 1.125137 0.095729 -0.033159 -191243.000000 0 0 1
-9.795523 -24.137656 11.431006 28.447260 1.185284 1.157280 0.101646 -0.032334 16567.300000 0 0 1
-9.232023 -22.861156 10.838206 26.931940 1.186993 1.156627 0.099451 -0.035293 355390.000000 0 0 1
-8.051323 -23.064556 10.064306 26.421351 1.234943 1.180010 0.083003 -0.039937 -45107.500000 0 0 1
-7.494723 -21.856056 9.729606 25.070367 1.240449 1.172236 0.087055 -0.029469 -223241.000000 0 0 1
-6.427323 -21.840556 8.592506 24.334164 1.284592 1.209909 0.090574 -0.039550 -64857.600000 0 1 0
-5.269623 -22.400556 9.138306 24.760099 1.339752 1.192784 0.090106 -0.044502 -220741.000000 0 1 0
-4.246923 -22.701856 8.180406 24.501626 1.385860 1.230388 0.084423 -0.050491 524278.000000 0 1 0
-3.014523 -23.528556 8.577106 25.223938 1.443369 1.223839 0.109648 -0.054149 -133462.000000 0 0 1
-2.259623 -22.828556 9.525306 24.839089 1.472135 1.177234 0.102749 -0.046654 -1096750.000000 0 1 0
-1.268023 -23.705756 9.923106 25.730115 1.517357 1.174872 0.119979 -0.065183 41488.900000 0 0 1
-0.229423 -23.224956 10.973506 25.687917 1.560918 1.129419 0.115601 -0.058704 78236.000000 0 0 1
-0.739723 -23.292256 12.283406 26.343091 1.539049 1.085709 0.109691 -0.042206 -203499.000000 0 0 1
0.252677 -23.166856 13.282406 26.705606 -1.559890 1.050239 0.151700 -0.037206 -168159.000000 0 0 1
0.937977 -21.820256 13.471706 25.661065 -1.527836 1.018097 0.119322 -0.028534 -89563.600000 0 0 1
1.908977 -21.523356 12.481106 24.953498 -1.482335 1.046996 0.127794 -0.046162 -115274.000000 0 1 0
2.413077 -20.204356 12.672106 23.971258 -1.451926 1.013802 0.104481 -0.036934 -305670.000000 0 1 0
3.905277 -20.052456 12.377106 23.886083 -1.378451 1.026084 0.109968 -0.033664 -259176.000000 0 1 0
4.387677 -20.264556 11.061106 23.500043 -1.357568 1.080730 0.115258 -0.033162 -856326.000000 0 1 0
5.776877 -20.226056 11.073206 23.771444 -1.292588 1.086236 0.163162 -0.041347 -319752.000000 0 1 0
6.475977 -20.785356 9.810006 23.878977 -1.268764 1.147441 0.173927 -0.048864 -1193.530000 0 1 0
6.558777 -19.897556 8.656106 22.668447 -1.252385 1.178992 0.143877 -0.048193 -483574.000000 0 1 0
6.653477 -20.545256 7.396006 22.827116 -1.257609 1.240841 0.134043 -0.055997 -570551.000000 0 1 0
7.982177 -21.271556 7.068806 23.794165 -1.211805 1.269162 0.118946 -0.032723 492218.000000 0 1 0
9.054377 -20.397156 6.667206 23.291144 -1.153023 1.280480 0.128008 -0.043712 396985.000000 0 1 0
9.677777 -19.537456 7.601006 23.089973 -1.110880 1.235350 0.141249 -0.028485 17474.500000 0 1 0
10.631477 -20.124656 8.727906 24.376350 -1.084781 1.204620 0.136180 -0.017576 266669.000000 0 1 0
10.055877 -20.442456 9.982706 24.873060 -1.113641 1.157810 0.174704 -0.028805 -180326.000000 0 1 0
10.658577 -19.727056 11.086606 25.013493 -1.075429 1.111603 0.157348 -0.018886 107053.000000 0 0 1
9.993277 -19.957056 12.440206 25.552072 -1.106558 1.062308 0.189966 -0.038742 -139732.000000 0 0 1
10.084177 -21.324656 12.760206 26.818920 -1.129072 1.074933 0.159672 -0.038355 1162.510000 0 0 1
9.674177 -21.681556 14.069006 27.597401 -1.151112 1.035850 0.201471 -0.036992 21692.700000 0 0 1
9.974977 -23.150656 14.418706 29.040526 -1.163962 1.051231 0.170111 -0.040644 19786.000000 0 0 1
9.218577 -24.135256 13.713006 29.249603 -1.205942 1.082834 0.198087 -0.043118 -72310.100000 0 0 1
9.164377 -25.357156 14.416206 30.574469 -1.223991 1.079793 0.207880 -0.046723 131386.000000 0 0 1
9.117577 -26.553356 13.442206 31.127220 -1.240042 1.124256 0.218098 -0.057518 -398846.000000 0 0 1
10.376677 -26.778956 12.897606 31.482315 -1.201117 1.148695 0.163571 -0.039343 -430388.000000 0 0 1
10.302677 -27.788956 11.904606 31.938862 -1.215759 1.188846 0.151740 -0.057399 489934.000000 0 0 1
11.724077 -27.922256 11.266206 32.311512 -1.173268 1.214640 0.110188 -0.041051 1102010.000000 0 0 1
12.671377 -28.521156 12.200006 33.509108 -1.152709 1.198151 0.097938 -0.038170 563276.000000 0 0 1
13.923677 -28.729656 11.570806 33.957996 -1.119508 1.223094 0.136666 -0.035759 341551.000000 0 0 1
14.953877 -29.432656 12.515806 35.306446 -1.100713 1.208427 0.105380 -0.039439 -305131.000000 0 0 1
15.549277 -28.605356 13.501006 35.246611 -1.072896 1.177707 0.084599 -0.033560 395258.000000 0 0 1
16.552377 -29.149756 14.359806 36.467705 -1.054360 1.166069 0.071719 -0.028825 844856.000000 0 0 1
17.921377 -29.431656 13.649706 37.063629 -1.023847 1.193641 0.080525 -0.025871 -504153.000000 0 0 1
18.666577 -28.239656 13.574206 36.471610 -0.986723 1.189434 0.070878 -0.032569 -647906.000000 0 0 1
19.838077 -28.544556 12.880606 37.070892 -0.963443 1.215937 0.054221 -0.024711 -507738.000000 0 0 1
20.776077 -27.298056 12.799206 36.614873 -0.920240 1.213692 0.028056 -0.021840 -1286590.000000 0 0 1
21.985877 -27.555356 12.246106 37.318140 -0.897349 1.236447 0.036353 -0.024691 -1530910.000000 0 0 1
22.730477 -26.418756 11.997506 36.858723 -0.860300 1.239256 0.028454 -0.024556 -114948.000000 0 0 1
24.098677 -26.672956 11.324806 37.688779 -0.836058 1.265598 0.043300 -0.019814 -208389.000000 0 0 1
25.048877 -27.273056 12.125906 38.965414 -0.827882 1.254344 0.053564 -0.023983 -523969.000000 0 0 1
26.117477 -27.861756 11.432906 39.863660 -0.817701 1.279911 0.042816 -0.027690 -1197320.000000 0 0 1
27.082077 -28.502056 12.462006 41.244487 -0.810939 1.263849 0.058258 -0.025532 -128439.000000 0 0 1
28.008877 -27.726856 13.208706 41.566160 -0.780338 1.247414 0.055693 -0.026279 464626.000000 0 0 1
29.012277 -27.286856 12.273106 41.676299 -0.754760 1.271878 0.044295 -0.030024 -294503.000000 0 0 1
30.356577 -26.729456 12.848506 42.439012 -0.721946 1.263217 0.074967 -0.038576 387706.000000 0 0 1
30.501877 -25.333556 13.056106 41.744646 -0.693098 1.252698 0.081944 -0.033437 114509.000000 0 0 1
29.744277 -24.771656 14.119606 41.203401 -0.694436 1.221028 0.080203 -0.021907 -140493.000000 0 0 1
30.564777 -24.614556 15.458406 42.178719 -0.677979 1.195554 0.068103 -0.011406 94020.100000 0 0 1
30.844377 -25.855956 16.075806 43.339793 -0.697645 1.190792 0.071467 -0.018128 -172236.000000 0 0 1
31.450177 -25.570056 17.306706 44.073388 -0.682638 1.167253 0.077491 -0.000777 -176684.000000 0 0 1
31.876377 -26.904956 17.972906 45.420320 -0.701024 1.163964 0.074849 0.003353 641561.000000 0 0 1
30.755877 -27.767856 18.253606 45.278825 -0.734386 1.155853 0.054998 -0.001600 606930.000000 0 0 1
31.239677 -28.667656 19.270306 46.573562 -0.742491 1.144215 0.080490 -0.013856 407740.000000 0 0 1
30.169677 -29.653756 19.767606 46.693821 -0.776774 1.133662 0.063645 -0.004651 -7548.100000 0 0 1
29.205077 -29.108156 20.712506 46.143572 -0.783736 1.105295 0.057761 0.004869 1182770.000000 0 0 1
28.151177 -29.987056 21.118706 46.235398 -0.816965 1.096441 0.060459 -0.001140 862895.000000 0 0 1
27.131177 -30.526556 20.091706 45.515361 -0.844219 1.113608 0.093805 -0.007570 -653357.000000 0 0 1
27.685877 -31.536656 19.283006 46.183361 -0.850329 1.140069 0.087670 -0.018732 -555007.000000 0 0 1
26.928077 -31.870056 18.209306 45.523627 -0.869251 1.159283 0.106102 -0.012796 -848671.000000 0 0 1
27.122877 -30.966856 16.957906 44.521537 -0.851475 1.180035 0.090478 -0.009608 -324029.000000 0 0 1
28.426677 -31.188056 16.492106 45.307399 -0.831685 1.198232 0.079556 -0.022877 -286261.000000 0 0 1
28.926677 -30.119456 15.708506 44.617166 -0.805596 1.211011 0.074311 -0.037258 -780689.000000 0 0 1
30.454677 -30.130056 15.630006 45.602684 -0.780040 1.220961 0.091831 -0.035784 -545032.000000 0 0 1
30.980177 -30.939456 14.573506 46.145514 -0.784741 1.249479 0.125614 -0.026527 183359.000000 0 0 1
30.965377 -32.337256 14.791806 47.152415 -0.807067 1.251707 0.136889 -0.036748 -675105.000000 0 0 1
29.844977 -33.092256 14.053306 46.725962 -0.836948 1.265307 0.129187 -0.047635 -222481.000000 0 0 1
30.006077 -33.265656 12.654806 46.552258 -0.836870 1.295491 0.125006 -0.039350 460143.000000 0 0 1
29.140277 33.109603 12.169206 45.754685 0.849076 1.301590 0.106389 -0.046865 -22950.500000 0 0 1
29.554177 32.615003 10.803206 45.319942 0.834592 1.330103 0.116437 -0.044763 -100654.000000 0 0 1
30.661177 31.731603 10.931506 45.458775 0.802553 1.327946 0.130327 -0.039542 283766.000000 0 0 1
30.952977 31.145203 9.689506 44.966621 0.788494 1.353611 0.135363 -0.043631 -1413760.000000 0 0 1
32.397477 30.800103 9.519706 45.704132 0.760128 1.360970 0.131624 -0.035661 -1340460.000000 0 0 1
32.840077 29.842503 10.413106 45.579364 0.737613 1.340300 0.129199 -0.034493 107714.000000 0 0 1
34.250777 29.697403 10.378406 46.505514 0.714314 1.345736 0.131335 -0.028294 256090.000000 0 0 1
34.785677 28.917803 11.575106 46.693316 0.693545 1.320288 0.119627 -0.030885 -126540.000000 0 0 1
34.547577 27.558103 11.491306 45.662175 0.673328 1.316402 0.114720 -0.042545 71468.700000 0 0 1
34.984877 26.975403 12.699506 45.966199 0.656843 1.290876 0.117092 -0.044430 -19888.100000 0 0 1
34.794577 25.477403 12.725806 44.963394 0.632027 1.283849 0.099649 -0.043742 131787.000000 0 0 1
35.712977 24.733903 11.906306 45.043788 0.605725 1.303290 0.094452 -0.021907 144943.000000 0 0 1
35.648777 23.330803 11.985006 44.258356 0.579506 1.296576 0.100156 -0.024930 -41301.700000 0 0 1
34.421877 22.637303 11.327906 42.727445 0.581729 1.302468 0.094933 -0.034046 -528829.000000 0 0 1
33.290377 22.656503 12.102006 42.047888 0.597568 1.278852 0.138211 -0.050522 -584581.000000 0 0 1
32.142477 22.405103 11.287606 40.774227 0.608747 1.290301 0.144710 -0.052882 494.805000 0 0 1
30.861377 22.134803 12.073806 39.851611 0.622198 1.262990 0.160726 -0.050889 -426619.000000 0 0 1
30.423177 23.318503 12.614206 40.353940 0.653960 1.252879 0.174434 -0.049631 -902363.000000 0 0 1
29.179677 23.159803 13.194006 39.521030 0.670885 1.230414 0.220627 -0.043563 -913434.000000 0 0 1
25.818377 9.628903 25.454562 37.513186 0.356970 0.825010 0.127980 -0.015507 -335424.000000 0 0 1
25.306377 8.576803 26.180962 37.408783 0.326769 0.795593 0.123543 -0.021546 -255869.000000 0 0 1
23.923077 8.478703 25.959692 36.305752 0.340603 0.774130 0.101706 -0.015474 -151749.000000 0 0 1
23.260777 7.321103 26.792792 36.228663 0.304925 0.738400 0.108199 -0.022697 -55050.100000 0 0 1
23.441177 7.246603 28.173292 37.359556 0.299821 0.716495 0.130720 -0.015867 943294.000000 0 0 1
24.786277 6.910303 28.562712 38.443990 0.271891 0.733300 0.117732 -0.016245 707421.000000 0 0 1
24.970177 6.901003 30.085802 39.702507 0.269639 0.710891 0.123819 -0.027334 -25622.600000 0 0 1
24.891077 8.118803 30.800212 40.424420 0.315293 0.704522 0.150227 -0.030386 206572.000000 0 0 1
25.122877 7.753003 32.184718 41.558683 0.299331 0.684966 0.152236 -0.037713 78333.900000 0 0 1
25.290977 9.021703 33.114891 42.633563 0.342646 0.681335 0.169743 -0.038457 308040.000000 0 0 1
26.528177 9.691103 32.928149 43.381156 0.350252 0.708955 0.147716 -0.039981 174932.000000 0 0 1
26.646677 10.678403 -33.408684 44.047859 0.381145 2.431748 0.153240 -0.034838 755544.000000 0 0 1
27.856677 11.657803 33.672332 45.229689 0.396346 0.731050 0.125230 -0.035263 616632.000000 0 0 1
27.506277 12.714303 32.766315 44.630485 0.432980 0.746354 0.126165 -0.035678 605430.000000 0 0 1
27.151777 13.925503 33.454922 45.281017 0.473896 0.739465 0.110458 -0.044447 -335427.000000 0 0 1
26.898977 15.085403 32.465482 44.778699 0.511110 0.759732 0.097742 -0.041997 323507.000000 0 0 1
28.064877 15.819903 32.023801 45.424999 0.513293 0.788399 0.107178 -0.031770 959303.000000 0 0 1
28.262377 17.127803 32.583870 46.409398 0.544840 0.792459 0.093591 -0.035840 99505.400000 0 0 1
28.972177 17.214403 -33.347344 47.410633 0.536122 2.350928 0.099177 -0.041076 -702114.000000 0 0 1
28.236077 16.722903 -32.295214 46.042507 0.534704 2.348187 0.089816 -0.042466 -189667.000000 0 0 1
28.999377 16.069603 -31.307324 45.599831 0.506013 2.327553 0.090783 -0.056783 -263298.000000 0 0 1
28.108877 15.496803 -30.152934 44.039293 0.503851 2.324964 0.091700 -0.041470 217334.000000 0 0 1
27.224377 14.460003 -30.601794 43.436485 0.488250 2.352540 0.096887 -0.035035 961437.000000 0 0 1
26.278677 14.187803 -29.518834 41.990764 0.495054 2.350381 0.114744 -0.035377 439988.000000 0 0 1
25.360977 13.031903 -29.945484 41.349023 0.474671 2.380688 0.109791 -0.025288 -1595100.000000 0 0 1
24.496377 13.382803 -31.015404 41.726817 0.500012 2.408781 0.113695 -0.033724 179166.000000 0 0 1
23.723577 12.281603 -31.424934 41.245271 0.477704 2.437044 0.108520 -0.032284 12994.500000 0 0 1
22.724977 11.683603 -30.409404 39.719807 0.474888 2.442767 0.108242 -0.024554 -1121690.000000 0 0 1
21.549777 12.446103 -30.133984 39.081395 0.523750 2.451296 0.118265 -0.018574 465685.000000 0 0 1
20.832577 11.596003 -29.231504 37.721936 0.507918 2.457386 0.114836 -0.007935 -692602.000000 0 0 1
19.560577 12.154403 -28.644724 36.754128 0.555986 2.464441 0.119496 -0.012958 -877491.000000 0 0 1
18.516377 12.227703 -29.554864 36.957583 0.583632 2.497587 0.103340 -0.012487 972785.000000 0 0 1
17.267277 12.664803 -28.926034 35.989882 0.632829 2.504329 0.100813 -0.025694 1540190.000000 0 0 1
16.077277 13.149503 -29.893414 36.400611 0.685557 2.534366 0.106448 -0.030541 716935.000000 0 0 1
15.452977 12.004603 -30.378934 36.135643 0.660463 2.569356 0.098249 -0.022728 -875765.000000 0 0 1
14.297877 11.783303 -29.620794 34.938045 0.689282 2.582637 0.094043 -0.028032 -739044.000000 0 0 1
13.113277 11.361003 -30.543194 35.127157 0.713924 2.624993 0.095821 -0.027992 110885.000000 0 0 1
12.821377 12.367003 -31.454594 36.148610 0.767361 2.626296 0.107367 -0.029107 327602.000000 0 0 1
11.587977 11.928303 -32.033354 36.092956 0.799869 2.662739 0.107450 -0.018256 428108.000000 0 0 1
11.071477 12.703603 -33.252874 37.278852 0.853939 2.672555 0.124727 -0.029799 -82046.300000 0 0 1
11.899777 12.630303 32.967853 37.255987 0.815170 0.484515 0.105944 -0.024652 412617.000000 0 0 1
11.167777 13.114203 31.832194 36.193786 0.865386 0.496000 0.121134 -0.029876 -57756.100000 0 0 1
11.864777 12.892303 30.455842 35.136060 0.826879 0.522053 0.138391 -0.027643 -169283.000000 0 0 1
11.990377 11.595703 30.005962 34.330558 0.768666 0.507359 0.122465 -0.024454 287668.000000 0 0 1
12.371277 11.695603 28.606342 33.289014 0.757331 0.536833 0.129183 -0.015162 130700.000000 0 0 1
13.125277 10.391103 28.072102 32.684719 0.669651 0.537726 0.117060 -0.012369 343172.000000 0 0 1
12.327277 9.207303 28.117062 32.051605 0.641517 0.500707 0.122203 -0.017045 391790.000000 0 0 1
12.999477 8.058203 27.584762 31.541087 0.554914 0.506256 0.100480 -0.019212 -326790.000000 0 0 1
12.173077 6.791403 27.634172 30.950839 0.508891 0.467182 0.095047 -0.015626 -201187.000000 0 0 1
11.069477 6.861203 26.756802 29.757955 0.554874 0.452978 0.106956 -0.022715 -277107.000000 0 0 1
10.196577 5.750403 26.707292 29.160191 0.513494 0.413097 0.108493 -0.030609 -306180.000000 0 0 1
10.665977 4.426603 26.144772 28.581585 0.393388 0.415928 0.104505 -0.027926 -338387.000000 0 0 1
11.432577 3.690603 27.087452 29.631983 0.312254 0.417442 0.108055 -0.023408 67474.500000 0 0 1
11.664077 2.407803 26.588192 29.133832 0.203570 0.421142 0.123121 -0.024715 -64535.400000 0 0 1
12.262577 1.400803 27.622102 30.254150 0.113741 0.420213 0.091555 -0.025000 38429.700000 0 0 1
11.338277 1.259703 28.665252 30.851905 0.110648 0.378759 0.073351 -0.013254 -40092.700000 0 0 1
11.686777 0.207603 29.549652 31.777442 0.017762 0.376672 0.075568 -0.012167 102476.000000 0 0 1
10.574477 -0.034197 30.595482 32.371349 -0.003234 0.332771 0.083565 -0.000903 -2976.260000 0 0 1
10.588277 0.904503 31.629435 33.366913 0.085218 0.324130 0.054161 -0.007203 183709.000000 0 0 1
9.327977 1.096403 32.256838 33.596382 0.117002 0.283335 0.067617 -0.012356 74100.800000 0 0 1
9.259377 2.382503 33.063270 34.417905 0.251844 0.281494 0.059805 -0.016009 -147683.000000 0 0 1
9.379377 3.666903 32.497974 34.022598 0.372684 0.300502 0.060673 -0.024313 527712.000000 0 0 1
10.580677 3.949003 31.775572 33.722875 0.357216 0.341493 0.063704 -0.021849 142521.000000 0 0 1
10.679977 5.316903 31.038092 33.251985 0.461917 0.366965 0.070197 -0.022164 65874.800000 0 0 1
10.843577 6.387403 31.936748 34.326928 0.532329 0.375375 0.072564 -0.023656 71208.700000 0 0 1
11.164077 7.615103 31.338517 34.128127 0.598617 0.407131 0.084994 -0.019390 -214205.000000 0 0 1
11.185677 8.886603 32.223988 35.248780 0.671355 0.417298 0.094736 -0.027256 818697.000000 0 0 1
9.905177 9.357603 32.701521 35.426921 0.756979 0.394810 0.115034 -0.036254 920567.000000 0 0 1
9.354677 8.598603 -33.563594 35.888171 0.743310 2.779697 0.099557 -0.032322 252671.000000 0 0 1
7.873477 8.940003 -33.230684 35.301469 0.848746 2.797376 0.107096 -0.042610 142085.000000 0 0 1
7.338177 8.074203 -32.246954 34.042733 0.833117 2.815338 0.106180 -0.034314 -700615.000000 0 0 1
6.021377 8.493703 -32.056274 33.704669 0.954107 2.827551 0.105084 -0.039005 -372790.000000 0 0 1
5.411277 7.909003 -30.731614 32.191092 0.970759 2.839319 0.090993 -0.034820 4474.670000 0 0 1
5.873977 8.639203 -29.569504 31.360724 0.973674 2.801979 0.097821 -0.045082 132504.000000 0 0 1
5.718777 8.011003 -28.297104 29.960085 0.950825 2.806846 0.083581 -0.041311 -390879.000000 0 0 1
4.283777 7.836003 -27.787904 29.187691 1.070507 2.830638 0.088577 -0.036679 -248377.000000 0 0 1
3.491077 6.889603 -28.475564 29.504441 1.101790 2.876729 0.085664 -0.030626 -1002440.000000 0 0 1
2.202077 6.833303 -27.996554 28.902426 1.259048 2.890565 0.112253 -0.031410 -653894.000000 0 0 1
1.168177 6.172503 -28.933854 29.607978 1.383753 2.927793 0.119187 -0.050281 -110174.000000 0 0 1
1.047077 6.918203 -30.128954 30.930758 1.420585 2.913403 0.101071 -0.047974 -12194.300000 0 0 1
0.373277 6.139503 -31.118774 31.720829 1.510072 2.946451 0.129002 -0.046916 -711462.000000 0 0 1
0.064977 7.043403 -32.333294 33.091626 1.561571 2.927097 0.150656 -0.054509 -338295.000000 0 0 1
1.050477 7.751403 -33.054604 33.967553 1.436096 2.909221 0.108647 -0.040606 -102546.000000 0 0 1
2.047077 6.992203 33.597022 34.377919 1.285990 0.213549 0.120038 -0.041536 308762.000000 0 0 1
1.715577 6.485303 32.218862 32.909838 1.312187 0.205280 0.138642 -0.051596 -313747.000000 0 0 1
0.675677 5.561403 32.033120 32.519325 1.449895 0.173140 0.152082 -0.052270 -343852.000000 0 0 1
0.266677 5.363203 30.679272 31.145670 1.521114 0.173276 0.181636 -0.057886 305556.000000 0 0 1
1.171277 4.401203 29.826712 30.172425 1.310698 0.151525 0.192913 -0.057558 288534.000000 0 0 1
0.997277 4.532603 28.403582 28.780245 1.354224 0.161964 0.170237 -0.048853 -203050.000000 0 0 1
1.866677 3.697003 27.693162 28.001134 1.103223 0.148451 0.142199 -0.033017 -110679.000000 0 0 1
2.004677 4.111203 26.177572 26.574160 1.117107 0.172980 0.145741 -0.030662 367694.000000 0 0 1
2.717477 5.360003 26.053932 26.738019 1.101571 0.226692 0.141637 -0.027076 210335.000000 0 0 1
2.733977 5.906903 24.752922 25.594399 1.137312 0.257135 0.127340 -0.027255 -857189.000000 0 0 1
3.404377 7.296103 24.698752 25.977899 1.134222 0.315117 0.128975 -0.029891 1155940.000000 0 0 1
4.846277 7.298503 24.780732 26.283821 0.984635 0.339825 0.102419 -0.022187 907060.000000 0 0 1
5.426277 6.848203 23.554082 25.122443 0.900728 0.355216 0.076197 -0.013643 -1285100.000000 0 0 1
6.930577 6.580503 23.651142 25.509066 0.759494 0.384020 0.113934 -0.023652 -325459.000000 0 0 1
7.349577 5.419003 24.400042 26.052714 0.635338 0.358100 0.128063 -0.025582 161341.000000 0 0 1
6.812777 4.141803 24.079832 25.365464 0.546242 0.319745 0.125815 -0.025004 -792115.000000 0 0 1
6.826877 3.623903 22.654082 23.936298 0.488005 0.328795 0.139718 -0.031917 11141.100000 0 1 0
5.857377 4.154203 21.760482 22.914730 0.616891 0.318748 0.079245 -0.028515 508430.000000 0 1 0
4.558477 3.539503 21.889982 22.638001 0.660225 0.257784 0.080484 -0.021799 348763.000000 0 1 0
3.589977 4.062903 20.830482 21.524500 0.847117 0.254629 0.028114 -0.016579 -246428.000000 0 1 0
3.225877 5.386103 21.115982 22.029550 1.031167 0.288998 0.017677 -0.012585 -64007.600000 0 1 0
2.068377 5.767003 20.414182 21.313736 1.226430 0.291567 0.021890 -0.008972 -195361.000000 0 1 0
1.569577 7.209403 20.569682 21.852938 1.356429 0.344402 0.030010 0.003732 54416.600000 0 1 0
2.436577 8.185503 20.022982 21.768307 1.281479 0.403168 0.023177 0.007723 -214759.000000 0 1 0
1.886077 9.453703 20.108682 22.299975 1.373875 0.447028 0.039458 -0.002469 -14116.300000 0 1 0
2.813977 10.546103 19.542782 22.384349 1.310045 0.509362 0.052721 -0.014378 -778789.000000 0 1 0
3.035177 10.373603 18.138382 21.114565 1.286155 0.537393 0.035514 -0.017008 -328519.000000 0 1 0
3.889277 11.294703 17.486082 21.176871 1.239168 0.599326 0.048147 -0.023167 666084.000000 0 1 0
5.388477 11.088903 17.920582 21.751936 1.118465 0.602606 0.060782 -0.019985 -20663.000000 0 1 0
5.889777 9.920603 17.328082 20.817547 1.035028 0.587410 0.052560 -0.013191 -777198.000000 0 1 0
7.243877 9.690803 17.556782 21.321961 0.928897 0.603396 0.055782 -0.009792 -346380.000000 0 1 0
7.548877 8.228303 17.970382 21.157154 0.828435 0.555994 0.064983 -0.013501 -141141.000000 0 1 0
6.956777 8.005503 19.205482 21.939357 0.855375 0.504555 0.073170 -0.019384 -314332.000000 0 1 0
6.836877 6.651003 19.624382 21.819604 0.771618 0.452419 0.072567 -0.028826 -847402.000000 0 1 0
8.088577 5.901003 20.015082 22.379688 0.630283 0.463839 0.134326 -0.032695 -261668.000000 0 1 0
9.032077 5.798803 18.921282 21.753608 0.570747 0.516000 0.118876 -0.033905 -93651.700000 0 1 0
10.177277 5.044003 19.251882 22.352939 0.460133 0.533036 0.145319 -0.036205 -32790.400000 0 1 0
10.120977 3.487803 19.179482 21.964778 0.331866 0.509081 0.145426 -0.039363 -368082.000000 0 1 0
9.342277 2.994103 20.243982 22.495813 0.310147 0.451256 0.180844 -0.045326 69884.900000 0 1 0
9.441377 1.614203 20.317382 22.461996 0.169334 0.440538 0.175812 -0.040471 -248316.000000 0 1 0
8.607877 0.887503 21.357182 23.043707 0.102741 0.384964 0.169438 -0.039013 -467101.000000 0 1 0
9.194977 0.916003 22.673352 24.484027 0.099292 0.386997 0.220491 -0.039819 381585.000000 0 1 0
8.768577 -0.133397 23.557812 25.137149 -0.015212 0.356365 0.195927 -0.036821 -308958.000000 0 0 1
9.726477 -0.244597 24.773232 26.615357 -0.025142 0.374236 0.192929 -0.033160 282216.000000 0 0 1
11.094877 -0.521897 24.527602 26.925303 -0.047005 0.425215 0.194671 -0.035645 410088.000000 0 0 1
11.395377 -1.877597 24.207602 26.821409 -0.163301 0.445146 0.184590 -0.031149 -449194.000000 0 0 1
12.824577 -2.396997 24.424412 27.690563 -0.184775 0.490604 0.173270 -0.022488 -26990.200000 0 0 1
12.799477 -3.808897 24.501612 27.904539 -0.289237 0.499022 0.169014 -0.011411 -572190.000000 0 0 1
14.061577 -4.327197 24.745802 28.789014 -0.298535 0.536394 0.150900 -0.000762 -721995.000000 0 0 1
14.166477 -5.877397 24.918852 29.260589 -0.393268 0.551731 0.153207 -0.009118 -100673.000000 0 0 1
14.167677 -6.551697 23.684342 28.365399 -0.433150 0.582713 0.169248 -0.014947 184703.000000 0 0 1
14.223377 -7.962297 23.824282 28.866919 -0.510339 0.600038 0.177102 -0.025491 111489.000000 0 0 1
13.992977 -8.771197 22.600872 27.991726 -0.559913 0.631043 0.191259 -0.028768 220953.000000 0 0 1
13.389177 -10.044597 22.815682 28.296984 -0.643631 0.632937 0.198737 -0.016748 -173800.000000 0 0 1
13.092477 -10.589297 21.588582 27.379062 -0.680088 0.662419 0.179753 -0.025139 78335.300000 0 0 1
12.310077 -11.925997 21.604182 27.577311 -0.769552 0.670672 0.199416 -0.024247 345310.000000 0 0 1
10.948777 -11.761297 21.962382 27.213049 -0.821161 0.631652 0.201746 -0.026421 -25092.100000 0 0 1
10.281477 -13.029297 21.849382 27.438419 -0.902734 0.649632 0.186288 -0.028642 389528.000000 0 0 1
8.749677 -12.937397 22.060782 27.029820 -0.976148 0.616055 0.141797 -0.026643 272395.000000 0 0 1
8.051177 -12.226597 21.075882 25.661331 -0.988471 0.607095 0.126747 -0.034906 239173.000000 0 0 1
6.665477 -12.040797 21.344082 25.396441 -1.065213 0.572709 0.079662 -0.032891 677771.000000 0 0 1
5.981277 -10.832597 20.711582 24.126551 -1.066300 0.538545 0.074969 -0.035866 34134.300000 0 1 0
6.092677 -9.685397 21.433882 24.296891 -1.009284 0.490355 0.094382 -0.026285 -206088.000000 0 1 0
5.398377 -8.574997 20.887582 23.215601 -1.008933 0.451665 0.077733 -0.025174 187957.000000 0 1 0
5.744277 -7.262097 21.573182 23.476306 -0.901571 0.405427 0.102845 -0.026489 42854.200000 0 1 0
5.061877 -6.208797 20.987582 22.464424 -0.886810 0.364622 0.095165 -0.036493 -311588.000000 0 1 0
5.603277 -4.992297 21.455782 22.730383 -0.727798 0.336472 0.115707 -0.047466 -253352.000000 0 1 0
-8.976823 -15.366297 -20.489194 27.138782 1.042084 2.426418 0.060870 0.002234 -298074.000000 0 0 1
-8.396823 -14.553397 -19.545994 25.775063 1.047485 2.431543 0.046228 0.006921 454994.000000 0 0 1
-7.320023 -13.750097 -20.105894 25.434128 1.081596 2.482435 0.051207 -0.010748 309568.000000 0 0 1
-6.463723 -13.155397 -19.053694 24.039290 1.114104 2.485868 0.030520 -0.004158 -657905.000000 0 1 0
-5.813123 -14.044397 -18.224494 23.731196 1.178356 2.446439 0.053665 -0.000638 -504736.000000 0 1 0
-5.055123 -13.448397 -17.236594 22.439114 1.211245 2.446742 0.063603 -0.005015 174029.000000 0 1 0
-4.048823 -14.414097 -16.535594 22.306614 1.296959 2.405782 0.064099 0.001249 -44718.500000 0 1 0
-2.901623 -14.745997 -17.246394 22.875794 1.376505 2.424797 0.056864 0.001339 -845750.000000 0 1 0
-1.942223 -15.319297 -16.407294 22.531143 1.444686 2.386496 0.061545 -0.008214 18651.300000 0 1 0
-0.545523 -15.536197 -17.037194 23.063759 1.535698 2.401936 0.068389 -0.010482 186618.000000 0 1 0
-0.516123 -16.425197 -18.106694 24.452113 1.539384 2.404605 0.113195 -0.023491 -274247.000000 0 1 0
-0.706923 -17.807297 -17.828594 25.208299 1.531119 2.356398 0.115518 -0.017830 -213194.000000 0 0 1
-0.965923 -18.554797 -19.141794 26.676240 1.518785 2.371089 0.131063 -0.027898 80004.100000 0 0 1
-2.259123 -18.354597 -19.670394 26.998505 1.448330 2.387033 0.133301 -0.019856 -92236.700000 0 0 1
-2.241323 -18.868397 -20.987594 28.311112 1.452563 2.405831 0.120913 -0.018755 -225339.000000 0 0 1
-3.361723 -18.319697 -21.877094 28.731859 1.389312 2.436302 0.125129 -0.022307 -87444.500000 0 0 1
-3.434923 -16.921897 -22.162094 28.094621 1.370530 2.479712 0.108207 -0.028520 -210194.000000 0 0 1
-4.083723 -16.207597 -21.133894 26.944470 1.323971 2.472444 0.084901 -0.012104 -209879.000000 0 0 1
-3.183423 -15.154097 -20.493094 25.685555 1.363737 2.494509 0.094865 -0.006973 -92393.200000 0 0 1
-2.707523 -14.142997 -21.351794 25.753721 1.381646 2.548250 0.088099 -0.016822 -133565.000000 0 0 1
-2.042823 -13.126797 -20.646294 24.551077 1.416412 2.569838 0.080749 -0.020335 -54026.000000 0 1 0
-1.629023 -11.924897 -21.485294 24.626708 1.435030 2.630967 0.082458 -0.037735 -304495.000000 0 1 0
-2.689223 -11.162797 -21.959794 24.780487 1.334392 2.659815 0.074061 -0.036439 -355570.000000 0 1 0
-2.423223 -10.630297 -23.250494 25.679967 1.346672 2.703104 0.086972 -0.027194 -180030.000000 0 0 1
-3.283523 -9.409297 -23.650794 25.664693 1.235043 2.742800 0.075290 -0.028228 579639.000000 0 0 1
-4.665423 -9.718597 -23.893694 26.213087 1.123235 2.717756 0.113742 -0.045055 798345.000000 0 0 1
-5.310223 -8.452597 -23.982894 25.977376 1.009874 2.747180 0.083415 -0.043150 -754108.000000 0 0 1
-6.817323 -8.374497 -23.701694 26.045698 0.887542 2.714090 0.074607 -0.055717 87118.200000 0 0 1
-7.713523 -8.927197 -24.655794 27.333157 0.858203 2.695285 0.109109 -0.063202 278898.000000 0 0 1
-7.859123 -8.101297 -25.797644 28.158751 0.800570 2.729164 0.112406 -0.066065 -913672.000000 0 0 1
-8.964823 -8.642797 -26.689854 29.451898 0.767111 2.705049 0.080687 -0.056972 -500398.000000 0 0 1
-9.896223 -7.669397 -27.055984 29.812433 0.659299 2.708186 0.103375 -0.066031 -485096.000000 0 0 1
-10.652223 -8.150297 -28.146514 31.178894 0.653112 2.696899 0.085056 -0.059024 49388.800000 0 0 1
-11.725123 -7.099197 -28.623094 31.735763 0.544431 2.694989 0.066375 -0.059912 647677.000000 0 0 1
-11.101523 -5.928497 -29.118154 31.721567 0.490496 2.733626 0.046572 -0.042359 126094.000000 0 0 1
-12.013723 -5.413497 -30.051374 32.813421 0.423361 2.728356 0.066260 -0.029945 -19854.600000 0 0 1
-11.467423 -4.237697 -30.890134 33.221383 0.353977 2.764738 0.040337 -0.012121 -696226.000000 0 0 1
-10.521623 -4.673697 -31.776444 33.797787 0.418020 2.793993 0.047798 -0.015429 -651937.000000 0 0 1
-10.095423 -3.596397 -32.629184 34.344072 0.342223 2.824248 0.042548 -0.010197 108548.000000 0 0 1
-8.992623 -4.016097 -33.651794 35.063365 0.420022 2.856880 0.032217 -0.006190 -349849.000000 0 0 1
-7.712723 -4.029697 -33.114994 34.239267 0.481465 2.884622 0.049963 -0.010966 -235416.000000 0 0 1
-6.748123 -4.261797 33.193516 34.139560 0.563298 0.235966 0.055547 -0.008525 2144220.000000 0 0 1
-5.213923 -3.912797 33.482012 34.110703 0.643790 0.192290 0.094765 -0.020251 1602760.000000 0 0 1
-4.931123 -2.553597 33.556582 34.012954 0.477828 0.163998 0.116113 -0.030045 40475.800000 0 0 1
-3.539623 -2.329097 -33.624924 33.890842 0.581983 3.016241 0.128264 -0.037256 358597.000000 0 0 1
-3.240723 -0.849597 -33.218944 33.387458 0.256393 3.041079 0.137353 -0.040676 -44620.200000 0 0 1
-3.576023 -0.556797 -31.868814 32.073654 0.154463 3.028514 0.142723 -0.045957 58634.200000 0 0 1
-4.026323 0.753703 -31.588434 31.852920 -0.185052 3.012636 0.158619 -0.045920 -436767.000000 0 0 1
-4.539823 0.827203 -30.093984 30.445725 -0.180233 2.989439 0.156713 -0.055615 825589.000000 0 0 1
-5.683123 0.024903 -29.789474 30.326742 -0.004382 2.953080 0.128854 -0.052958 -255549.000000 0 0 1
-6.908823 0.598903 -30.107234 30.895567 -0.086471 2.915207 0.134286 -0.051062 -587880.000000 0 0 1
-8.048523 -0.455097 -30.087514 31.148746 0.056484 2.879810 0.109308 -0.046273 94702.800000 0 0 1
-8.246523 -1.014797 -28.784084 29.959280 0.122442 2.860575 0.107702 -0.048675 -378930.000000 0 0 1
-9.179923 -2.049397 -28.780094 30.278125 0.219646 2.825716 0.069058 -0.034814 -277457.000000 0 0 1
-9.536223 -2.712297 -27.435284 29.171749 0.277103 2.794820 0.077943 -0.046002 -117210.000000 0 0 1
-10.357523 -1.932197 -26.592304 28.603537 0.184430 2.764356 0.088575 -0.039595 40173.400000 0 0 1
-10.591923 -2.588197 -25.404444 27.645495 0.239659 2.736171 0.087681 -0.042866 116692.000000 0 0 1
-11.807223 -1.919297 -24.713294 27.456167 0.161143 2.690795 0.118600 -0.039358 125651.000000 0 0 1
-11.459523 -0.677897 -24.146194 26.736097 0.059087 2.697803 0.124555 -0.034691 663590.000000 0 0 1
-12.575123 -0.033597 -23.499094 26.652247 0.002672 2.650234 0.142294 -0.041388 473974.000000 0 0 1
-12.111423 1.129303 -22.706294 25.759225 -0.092974 2.649788 0.154854 -0.041931 -47136.300000 0 0 1
-11.667123 2.188403 -23.525794 26.350975 -0.185416 2.674290 0.109261 -0.039145 148732.000000 0 0 1
-10.744523 3.028203 -22.847794 25.429048 -0.274711 2.687118 0.127239 -0.036240 27147.600000 0 0 1
-10.459823 4.385503 -23.673394 26.250145 -0.397008 2.694802 0.164149 -0.046065 108190.000000 0 0 1
-11.624423 5.182503 -23.648494 26.855853 -0.419380 2.647863 0.152997 -0.043761 73242.400000 0 0 1
-12.464023 4.871303 -24.738094 28.125696 -0.372576 2.645722 0.129590 -0.038797 -431735.000000 0 0 1
-13.741723 5.706103 -24.884094 28.993322 -0.393574 2.602685 0.105360 -0.021504 -221440.000000 0 0 1
-13.653923 7.034103 -25.415654 29.696190 -0.475711 2.597999 0.104174 -0.023258 541483.000000 0 0 1
-14.958523 7.617403 -25.567674 30.585752 -0.471008 2.560629 0.111610 -0.010810 670546.000000 0 0 1
-14.969223 9.135803 -25.586154 31.019217 -0.547963 2.540730 0.138592 -0.009952 -166769.000000 0 0 1
-14.755323 9.662703 -24.304894 30.030239 -0.579786 2.513836 0.188720 -0.032165 121682.000000 0 0 1
-14.901223 11.086603 -24.351394 30.625963 -0.639654 2.490006 0.184847 -0.024258 80999.100000 0 0 1
-14.709123 11.696603 -22.955994 29.667263 -0.671803 2.455586 0.199072 -0.039849 507837.000000 0 0 1
-15.837123 11.326503 -22.161894 29.500063 -0.620846 2.420749 0.218426 -0.044301 334783.000000 0 0 1
-15.680223 11.549803 -20.744294 28.453349 -0.634860 2.387749 0.215481 -0.041333 -156961.000000 0 0 1
-16.919923 11.186003 -19.901794 28.416402 -0.584149 2.346702 0.207851 -0.042392 -409327.000000 0 0 1
-18.026523 11.953403 -20.248294 29.628243 -0.585530 2.323222 0.183822 -0.037214 -137889.000000 0 0 1
-18.842823 12.243103 -19.103894 29.494141 -0.576199 2.275382 0.159882 -0.027299 151489.000000 0 0 1
-20.266623 12.783803 -19.322394 30.781757 -0.562746 2.249420 0.128655 -0.023286 -67827.900000 0 0 1
-20.335123 14.117203 -19.790394 31.693412 -0.606841 2.245201 0.107948 -0.023980 -384661.000000 0 0 1
-21.661923 14.498103 -20.000194 32.854858 -0.589816 2.225273 0.081155 -0.021539 -342689.000000 0 0 1
-21.932823 15.746503 -20.877294 34.130082 -0.622667 2.229001 0.085531 -0.015511 -29715.400000 0 0 1
-21.694223 15.560903 -22.207594 34.726910 -0.622232 2.264634 0.097739 -0.019609 112227.000000 0 0 1
-22.137623 16.719303 -22.863094 35.948999 -0.646849 2.260083 0.088265 -0.007418 6571.740000 0 0 1
-21.886723 16.704603 -24.363194 36.764625 -0.651915 2.295188 0.085938 -0.011713 -300836.000000 0 0 1
-20.584923 17.012703 -24.768394 36.423131 -0.690671 2.318584 0.099835 -0.013216 -294792.000000 0 0 1
-20.458623 16.586803 -26.096004 37.076660 -0.681261 2.351584 0.098622 -0.020956 -165703.000000 0 0 1
-19.357623 17.292403 -26.892294 37.375664 -0.729108 2.373898 0.073171 -0.017076 -266112.000000 0 0 1
-19.709623 18.602303 -27.348864 38.502926 -0.756503 2.360729 0.052300 -0.024264 47771.900000 0 0 1
-19.214023 19.712703 -26.645824 38.311477 -0.798208 2.339919 0.031970 -0.022685 -1344220.000000 0 0 1
-20.085323 20.960903 -26.695014 39.438604 -0.806727 2.314306 0.080648 -0.014647 509209.000000 0 0 1
-21.201823 21.004803 -25.814884 39.460452 -0.780730 2.283916 0.092521 -0.009220 558005.000000 0 0 1
-22.376823 20.255803 -26.016534 39.848210 -0.735688 2.282191 0.134292 -0.018822 499864.000000 0 0 1
-23.582223 20.564203 -25.041594 40.076042 -0.717141 2.245738 0.136046 -0.002589 608321.000000 0 0 1
-23.397623 20.150803 -23.719094 38.937117 -0.710979 2.225802 0.086458 0.005101 74302.400000 0 0 1
-24.260223 20.749003 -22.735794 39.191783 -0.707545 2.189668 0.078757 -0.005635 313513.000000 0 0 1
-23.963923 20.230603 -21.285094 37.902535 -0.701124 2.167084 0.076598 0.001713 60120.400000 0 0 1
-22.833723 20.786603 -20.668994 37.157356 -0.738502 2.160670 0.068231 -0.002667 -675.289000 0 0 1
-22.030423 19.988303 -19.773994 35.719500 -0.736836 2.157466 0.063029 -0.007280 188733.000000 0 0 1
-22.678223 19.396003 -18.506694 35.114163 -0.707546 2.125914 0.080056 -0.013797 -1098580.000000 0 0 1
-23.394423 18.201503 -18.780994 35.090162 -0.661199 2.135566 0.100547 -0.018660 533802.000000 0 0 1
-24.224623 17.733303 -17.691194 34.846531 -0.631905 2.103296 0.090454 -0.019672 863084.000000 0 0 1
-25.357683 18.661903 -17.139694 35.847564 -0.634446 2.069317 0.070706 -0.012787 -1095300.000000 0 0 1
-26.374313 18.888403 -18.036294 37.117167 -0.621494 2.078222 0.073082 -0.002213 -600714.000000 0 0 1
-27.284413 19.860003 -17.546294 38.035922 -0.629199 2.050266 0.067025 0.000440 573452.000000 0 0 1
-28.720503 19.793903 -18.229594 39.357134 -0.603435 2.052381 0.032750 0.024404 1374270.000000 0 0 1
-29.551113 18.665003 -17.974594 39.303138 -0.563344 2.045789 0.032225 0.013139 340670.000000 0 0 1
-29.904073 18.472203 -16.592994 38.869054 -0.553344 2.011852 0.040204 0.004467 -595173.000000 0 0 1
-30.893643 17.308803 -16.414294 39.031281 -0.510694 2.004839 0.040554 0.001596 286102.000000 0 0 1
-30.219113 16.057103 -16.627194 38.045879 -0.488417 2.023090 0.066202 -0.014163 99909.700000 0 0 1
-31.034923 14.986403 -16.230794 38.094585 -0.449865 2.010936 0.074459 -0.015568 71315.200000 0 0 1
-30.257133 13.772303 -15.665494 36.750213 -0.427149 2.011161 0.129452 -0.012122 -135905.000000 0 0 1
-29.598773 13.991703 -14.421994 35.774978 -0.441580 1.985732 0.140197 -0.016858 -415935.000000 0 0 1
-30.431073 13.934103 -13.309994 36.018958 -0.429396 1.949297 0.092845 -0.005631 -179765.000000 0 0 1
-29.799373 14.672103 -12.092894 35.348427 -0.457519 1.919953 0.126565 -0.017174 216912.000000 0 0 1
-29.773443 16.076703 -12.239094 35.982130 -0.495108 1.917866 0.109697 -0.006327 103912.000000 0 0 1
-30.694693 16.780603 -11.399794 36.792773 -0.500301 1.885819 0.057557 -0.007549 204099.000000 0 0 1
-30.712333 18.248203 -11.545694 37.543939 -0.536118 1.883387 0.114381 0.003756 152709.000000 0 0 1
-29.447613 18.722903 -11.131694 36.628181 -0.566331 1.879591 0.050555 -0.022070 -109461.000000 0 0 1
-29.530023 20.128603 -11.165994 37.441452 -0.598292 1.873629 0.016618 -0.020195 315689.000000 0 0 1
-28.275163 20.988303 -10.750694 36.818082 -0.638547 1.867108 0.078549 -0.020492 486671.000000 0 0 1
-28.403323 22.344103 -10.261194 37.567270 -0.666561 1.847454 0.073117 -0.027742 582566.000000 0 0 1
-27.074893 22.895503 -10.067694 36.859359 -0.701955 1.847450 0.082388 -0.017776 852738.000000 0 0 1
-26.981623 24.199003 -9.289194 37.415089 -0.731083 1.821694 0.113626 -0.007992 -158105.000000 0 0 1
-27.228943 23.928103 -7.925094 37.104940 -0.720964 1.786040 0.104009 -0.019280 1052360.000000 0 0 1
-28.576203 24.397103 -7.619694 38.338985 -0.706671 1.770874 0.141983 -0.022505 1241960.000000 0 0 1
-28.867683 24.137803 -6.110194 38.122318 -0.696400 1.731769 0.143332 -0.020653 -46893.100000 0 0 1
-29.162643 22.730303 -5.903494 37.442992 -0.662073 1.729123 0.133522 -0.030405 35609.200000 0 0 1
-29.262793 22.277603 -4.587794 37.062791 -0.650690 1.694899 0.151496 -0.029586 -217470.000000 0 0 1
-29.382773 20.729203 -4.522094 36.242193 -0.614400 1.695897 0.145929 -0.026930 -93192.900000 0 0 1
-28.199043 19.981703 -4.689194 34.877543 -0.616471 1.705652 0.145231 -0.022824 -130624.000000 0 0 1
-27.623493 19.840903 -5.965894 34.529852 -0.622877 1.744443 0.115334 -0.016175 -314983.000000 0 0 1
-28.481323 19.181303 -7.069994 35.058422 -0.592698 1.773852 0.117035 -0.022159 -362328.000000 0 0 1
-28.395143 17.789703 -7.064994 34.244296 -0.559681 1.778600 0.128541 -0.019159 117252.000000 0 0 1
-28.774663 17.201403 -8.298894 34.536085 -0.538798 1.813467 0.101666 -0.016620 -233249.000000 0 0 1
-28.314563 15.717803 -8.405094 33.457576 -0.506761 1.824733 0.162760 -0.016426 94345.100000 0 0 1
-28.923383 14.725103 -7.575094 33.328258 -0.470907 1.800088 0.153092 -0.014881 -214610.000000 0 0 1
-28.499903 13.423703 -7.878194 32.473161 -0.440187 1.815848 0.179055 -0.022540 -138473.000000 0 0 1
-29.187893 12.316903 -7.070994 32.459793 -0.399316 1.790396 0.181505 -0.023957 -260267.000000 0 0 1
-30.532683 12.184403 -7.449594 33.707579 -0.379697 1.793643 0.184443 -0.028143 -301560.000000 0 0 1
-31.187413 11.165803 -6.670394 33.790887 -0.343804 1.769504 0.208163 -0.029178 534526.000000 0 0 1
-31.799443 9.998903 -7.488194 34.165124 -0.304648 1.791767 0.172810 -0.022564 154975.000000 0 0 1
-30.777343 9.125403 -7.910094 33.061872 -0.288240 1.812391 0.200669 -0.022717 -63361.900000 0 0 1
-31.284373 8.041803 -8.624794 33.433062 -0.251608 1.831719 0.187816 -0.015254 263172.000000 0 0 1
-30.218793 6.957603 -9.049994 32.303035 -0.226297 1.854756 0.257194 -0.021332 900517.000000 0 0 1
-29.203483 7.366003 -9.976394 31.727431 -0.247077 1.890664 0.265897 -0.046554 753922.000000 0 0 1
-28.428013 6.284103 -10.441194 30.929927 -0.217555 1.915137 0.261378 -0.051475 -308810.000000 0 0 1
-27.208853 6.621303 -11.332894 30.209234 -0.238711 1.955351 0.196779 -0.051590 147137.000000 0 0 1
-26.190943 7.226603 -10.528094 29.138120 -0.269221 1.940476 0.247543 -0.059994 341725.000000 0 0 1
-25.012413 7.429103 -11.284094 28.427859 -0.288718 1.978975 0.196979 -0.034900 -58592.400000 0 0 1
-34.063896 24.876503 -32.918374 53.505222 -0.630767 2.233482 0.052344 -0.014255 -81957.300000 0 0 1
-33.965589 26.239703 -33.257024 54.297449 -0.657770 2.230012 0.058292 -0.026179 171193.000000 0 0 1
-33.795783 26.498103 32.717778 53.988493 -0.664949 0.919756 0.062290 -0.027955 -133258.000000 0 0 1
-33.751303 28.032703 32.420827 54.553578 -0.693103 0.934410 0.084703 -0.045857 65788.300000 0 0 1
-33.908773 28.441903 31.061632 54.070063 -0.697942 0.958840 0.107261 -0.038688 110111.000000 0 0 1
-34.162491 29.778603 31.023422 54.920795 -0.716944 0.970514 0.110419 -0.048638 -38846.400000 0 0 1
-33.941690 30.448303 29.654652 54.392425 -0.731198 0.994171 0.132669 -0.048250 -434785.000000 0 0 1
-32.579743 30.564403 29.362602 53.458253 -0.753493 0.989315 0.119310 -0.045538 -356562.000000 0 0 1
-32.310773 31.302803 28.183992 53.086617 -0.769554 1.011127 0.117408 -0.042983 232865.000000 0 0 1
-30.819963 31.375403 27.769412 52.013712 -0.794329 1.007606 0.139920 -0.035555 90966.800000 0 0 1
-30.353653 30.174403 27.177102 50.699445 -0.782437 1.005053 0.165149 -0.036777 546901.000000 0 0 1
-29.258443 30.211903 26.237272 49.570253 -0.801429 1.013027 0.123223 -0.026689 387131.000000 0 0 1
-29.428033 30.950403 24.885812 49.429143 -0.810607 1.043193 0.134555 -0.025398 -269966.000000 0 0 1
-29.572573 32.315203 25.109862 50.490738 -0.829685 1.050294 0.111921 -0.028626 42280.500000 0 0 1
-30.426533 32.979603 24.200922 50.981494 -0.825642 1.076173 0.117600 -0.027420 75836.400000 0 0 1
-30.847903 -33.079856 24.819672 51.593470 0.820298 1.068930 0.118931 -0.024047 5617.190000 0 0 1
-31.708633 -33.153656 25.935062 52.699428 0.807673 1.056259 0.115391 -0.042087 -10848.000000 0 0 1
-31.778673 -31.925656 26.604042 52.315453 0.787705 1.037318 0.089088 -0.039131 -152947.000000 0 0 1
-32.215683 -31.979356 28.046612 53.358616 0.781717 1.017347 0.098651 -0.043551 174711.000000 0 0 1
-33.606733 -32.256056 28.185862 54.445463 0.764894 1.026648 0.093858 -0.047633 321243.000000 0 0 1
-33.875743 -32.586056 29.578612 55.536576 0.765996 1.009130 0.087533 -0.042263 -221953.000000 0 0 1
-35.307930 -33.026456 29.892362 56.841446 0.752024 1.017035 0.111855 -0.043191 -149387.000000 0 0 1
-35.447377 -33.413856 31.275458 57.889175 0.755876 1.000045 0.095825 -0.038584 -1023200.000000 0 0 1
-36.787333 -33.653256 31.468207 58.958439 0.740935 1.007785 0.090433 -0.035682 -1205940.000000 0 0 1
-37.167813 33.308603 32.906626 59.780895 -0.730694 0.987889 0.083161 -0.034748 -200443.000000 0 0 1
-36.747223 32.003403 33.164663 58.944644 -0.716507 0.973220 0.056511 -0.026421 112632.000000 0 0 1
-37.457763 31.379303 -33.094014 59.016595 -0.697324 2.166097 0.064704 -0.025383 288826.000000 0 0 1
-36.907523 30.008503 -32.658954 57.699938 -0.682661 2.172459 0.054061 -0.023710 601629.000000 0 0 1
-35.638453 30.198703 -32.026354 56.636988 -0.702961 2.171796 0.059144 -0.018048 200352.000000 0 0 1
-35.115093 28.977603 -31.452664 55.335715 -0.689930 2.175353 0.055077 -0.025499 476418.000000 0 0 1
-34.467542 29.217503 -30.062024 54.271533 -0.703147 2.157860 0.052707 -0.033392 254130.000000 0 0 1
-35.410690 29.477703 -29.039094 54.462106 -0.694218 2.133173 0.063806 -0.034390 -202563.000000 0 0 1
-35.214577 30.782303 -28.548264 54.796168 -0.718340 2.118807 0.055013 -0.025283 -133475.000000 0 0 1
-36.340293 31.263103 -27.651014 55.340556 -0.710436 2.093993 0.053059 -0.021519 -377915.000000 0 0 1
-36.197023 30.741003 -26.297614 54.284420 -0.704069 2.076521 0.046945 -0.037610 48298.200000 0 0 1
-37.315733 30.856003 -25.412684 54.684197 -0.690924 2.054111 0.082783 -0.034879 151818.000000 0 0 1
-36.976443 30.512303 -23.935994 53.583484 -0.689908 2.033875 0.080591 -0.037818 -127959.000000 0 0 1
-36.375703 31.591403 -23.236294 53.489568 -0.715123 2.020177 0.078060 -0.042638 -52973.500000 0 0 1
-36.261813 31.395903 -21.866094 52.713830 -0.713602 1.998528 0.071827 -0.041738 1420830.000000 0 0 1
-37.648733 31.478703 -21.040294 53.395036 -0.696378 1.975830 0.060158 -0.041105 1698190.000000 0 0 1
38.099365 32.754803 -21.025294 54.465602 0.710110 1.967119 0.069679 -0.041151 609620.000000 0 0 1
-37.618863 -33.661956 -20.167394 54.360187 0.729944 1.950877 0.063498 -0.033673 364954.000000 0 0 1
-37.545653 33.450103 -18.688294 53.645483 -0.727775 1.926624 0.064056 -0.034626 147074.000000 0 0 1
-36.753103 32.275003 -18.395594 52.257672 -0.720615 1.930522 0.067637 -0.040818 209448.000000 0 0 1
-36.653123 32.088803 -16.986894 51.591640 -0.719098 1.906313 0.070872 -0.034341 -216258.000000 0 0 1
-35.483760 31.136603 -16.750394 50.091526 -0.720238 1.911760 0.083857 -0.029793 -223268.000000 0 0 1
-35.133313 30.955903 -15.401594 49.293273 -0.722274 1.888566 0.080376 -0.025978 -309205.000000 0 0 1
-33.909733 30.257203 -15.385994 47.980175 -0.728537 1.897237 0.087859 -0.023426 -159290.000000 0 0 1
-33.528033 30.072803 -13.901894 47.135604 -0.731125 1.870183 0.098188 -0.027553 -76530.400000 0 0 1
-34.576590 29.431203 -13.188294 47.282845 -0.705184 1.853469 0.085023 -0.023273 77301.800000 0 0 1
-34.187230 29.060703 -11.909094 46.423245 -0.704521 1.830230 0.110759 -0.022839 173302.000000 0 0 1
-35.284793 28.205703 -11.213994 46.543871 -0.674358 1.814124 0.102598 -0.028948 40337.900000 0 0 1
-34.813500 27.558403 -10.026094 45.518874 -0.669599 1.792880 0.115742 -0.033288 -567374.000000 0 0 1
-35.716940 26.750303 -9.365094 45.595872 -0.642831 1.777662 0.127391 -0.039562 -1136060.000000 0 0 1
-35.134382 25.780003 -8.298694 44.361038 -0.633023 1.758977 0.121854 -0.032982 -27824.000000 0 0 1
-34.727609 26.362403 -7.061294 44.168371 -0.649312 1.731358 0.141015 -0.035409 242588.000000 0 0 1
-33.526583 27.096203 -7.190994 43.702933 -0.679721 1.736091 0.137732 -0.038042 -751842.000000 0 0 1
-32.991243 27.621503 -5.863394 43.425211 -0.697038 1.706233 0.159855 -0.036551 -573864.000000 0 0 1
-32.216633 26.679603 -5.225094 42.154647 -0.691660 1.695067 0.173069 -0.038285 -169188.000000 0 0 1
-32.013303 27.034803 -3.851094 42.078059 -0.701285 1.662447 0.183460 -0.033601 -85318.800000 0 0 1
-31.209863 26.063303 -2.972994 40.769964 -0.695779 1.643782 0.179704 -0.031875 271603.000000 0 0 1
-31.948163 24.868503 -2.679994 40.574745 -0.661432 1.636895 0.157291 -0.026221 579885.000000 0 0 1
-31.243583 24.049703 -1.761294 39.467098 -0.656021 1.615438 0.155105 -0.029120 432744.000000 0 0 1
-32.139413 22.819603 -1.601794 39.449232 -0.617419 1.611411 0.148115 -0.032799 -5197.050000 0 0 1
-32.229313 21.991903 -2.777294 39.116311 -0.598787 1.641857 0.131640 -0.029537 -402688.000000 0 0 1
-33.214833 21.068803 -2.477394 39.411382 -0.565273 1.633698 0.133528 -0.032434 -381465.000000 0 0 1
-33.380273 20.074803 -3.672894 39.124551 -0.541446 1.664812 0.138242 -0.017514 -46660.500000 0 0 1
-32.313923 19.168003 -3.807394 37.763715 -0.535390 1.671789 0.134506 -0.025372 -5403.830000 0 0 1
-32.476673 18.532103 -5.086394 37.736515 -0.518543 1.705995 0.143303 -0.022426 65182.100000 0 0 1
-31.362333 17.506103 -5.393594 36.320110 -0.509108 1.719849 0.145414 -0.019069 -214123.000000 0 0 1
-31.435213 16.352003 -4.586094 35.729440 -0.479662 1.699508 0.172111 -0.016344 152835.000000 0 0 1
-30.541493 15.307903 -4.954294 34.520425 -0.464620 1.714811 0.178345 -0.029226 -151144.000000 0 0 1
-30.464733 14.084203 -4.007294 33.801230 -0.433045 1.689631 0.199436 -0.036700 388386.000000 0 0 1
-31.782303 13.566403 -3.804294 34.765424 -0.403440 1.680443 0.180770 -0.028034 711099.000000 0 0 1
-31.697433 12.564503 -2.832394 34.214272 -0.377389 1.653675 0.186089 -0.039206 -612531.000000 0 0 1
-33.019643 11.951803 -2.420294 35.199435 -0.347290 1.639610 0.187501 -0.035320 -455862.000000 0 0 1
-33.578843 11.044003 -3.450094 35.516360 -0.317753 1.668091 0.191735 -0.012748 598752.000000 0 0 1
-34.736490 10.397603 -2.929994 36.377448 -0.290840 1.651428 0.177316 -0.010146 218977.000000 0 0 1
-35.506700 9.760903 -4.123094 37.054026 -0.268276 1.682300 0.135466 -0.008217 338451.000000 0 0 1
-34.750649 8.699403 -4.748794 36.136384 -0.245297 1.702591 0.138476 -0.007883 427838.000000 0 0 1
-35.509435 8.110503 -5.769494 36.878005 -0.224552 1.727890 0.135402 -0.006984 -73063.900000 0 0 1
-34.696566 7.275503 -6.807094 36.098769 -0.206695 1.760501 0.150413 -0.016394 -286819.000000 0 0 1
-34.095428 6.139703 -6.252094 35.203449 -0.178165 1.749342 0.148986 -0.020034 330459.000000 0 0 1
-33.713423 5.171603 -7.278494 34.875734 -0.152212 1.781040 0.169419 -0.032609 -300890.000000 0 0 1
-32.659433 4.122303 -6.927594 33.639612 -0.125557 1.778216 0.205274 -0.043099 -1044670.000000 0 0 1
-31.331963 4.491303 -6.965394 32.409573 -0.142376 1.787404 0.215214 -0.039847 -802490.000000 0 0 1
-30.586973 3.701203 -6.074094 31.403128 -0.120420 1.765446 0.231923 -0.046377 473352.000000 0 0 1
-29.096263 4.157603 -5.930994 29.984243 -0.141931 1.769913 0.281914 -0.047622 1141310.000000 0 0 1
-28.283683 4.083003 -7.123494 29.451346 -0.143369 1.815092 0.274145 -0.040220 232125.000000 0 0 1
-26.905243 4.188103 -6.882794 28.085675 -0.154422 1.818382 0.303892 -0.048336 371855.000000 0 0 1
-26.033003 4.551203 -8.143394 27.654033 -0.173075 1.869701 0.266509 -0.046179 206814.000000 0 0 1
-26.123353 3.538803 -9.107794 27.890941 -0.134646 1.903448 0.256365 -0.062881 304216.000000 0 0 1
-25.213173 3.676003 -10.198594 27.445007 -0.144777 1.951529 0.235751 -0.060994 -157795.000000 0 0 1
-25.642143 3.055303 -11.489794 28.264284 -0.118593 1.989430 0.214940 -0.065469 -177170.000000 0 0 1
-26.770093 3.676403 -12.065294 29.592653 -0.136479 1.990744 0.213502 -0.049366 196204.000000 0 0 1
-27.291663 2.951203 -13.162594 30.443363 -0.107717 2.017908 0.208917 -0.057135 125401.000000 0 0 1
-28.231523 3.829703 -14.012294 31.749486 -0.134830 2.027887 0.190758 -0.051001 -144936.000000 0 0 1
-27.446843 4.800403 -14.720794 31.513090 -0.173147 2.056841 0.150534 -0.035224 394918.000000 0 0 1
-28.142623 5.767203 -15.495594 32.640179 -0.202129 2.065465 0.181826 -0.041649 198197.000000 0 0 1
-29.033253 5.083203 -16.635594 33.845409 -0.173325 2.084627 0.105130 -0.021033 -45498.400000 0 0 1
-30.259133 4.568103 -16.190994 34.621250 -0.149835 2.057439 0.131095 -0.038227 -684185.000000 0 0 1
-30.827133 3.889103 -17.293394 35.559791 -0.125495 2.078668 0.138043 -0.024472 -680253.000000 0 0 1
-32.338283 3.707403 -17.122994 36.779156 -0.114146 2.055066 0.141743 -0.026625 -373704.000000 0 0 1
-32.818263 2.751503 -16.192794 36.698988 -0.083645 2.027768 0.139350 -0.036393 282153.000000 0 0 1
-32.554693 1.398803 -16.607494 36.572852 -0.042941 2.042151 0.169789 -0.040741 -431890.000000 0 0 1
-32.998743 0.279103 -15.650294 36.522960 -0.008458 2.013635 0.160798 -0.028915 -284447.000000 0 0 1
-32.474863 -0.943097 -16.128294 36.271587 0.029033 2.031584 0.163628 -0.012645 390294.000000 0 0 1
-32.653833 -2.070897 -15.244694 36.096566 0.063335 2.006812 0.162643 -0.020859 -168668.000000 0 0 1
-32.282203 -3.368897 -16.018694 36.195147 0.103981 2.029253 0.160608 -0.011067 -503781.000000 0 0 1
-33.174743 -3.745697 -17.005894 37.467242 0.112432 2.041919 0.161277 -0.017128 -91309.200000 0 0 1
-32.663673 -4.602597 -18.013294 37.584281 0.139987 2.070627 0.175432 -0.015068 20027.300000 0 0 1
-33.559103 -4.369997 -19.249094 38.933763 0.129489 2.087948 0.183379 -0.013222 94483.900000 0 0 1
-33.307053 -5.346997 -20.244194 39.341804 0.159178 2.111305 0.177291 -0.012485 72572.800000 0 0 1
-34.200572 -5.352497 -21.339194 40.665582 0.155244 2.123216 0.169123 -0.018773 -236191.000000 0 0 1
-34.093490 -6.643297 -22.179794 41.212167 0.192444 2.139079 0.169600 -0.012371 2903.410000 0 0 1
-32.959263 -6.608397 -23.031994 40.748701 0.197878 2.171497 0.163868 -0.018613 51396.500000 0 0 1
-32.842273 -7.766197 -23.815494 41.305042 0.232204 2.185328 0.144845 -0.017124 61580.300000 0 0 1
-31.558373 -7.684397 -24.683094 40.795049 0.238850 2.220627 0.125365 -0.008874 -64157.800000 0 0 1
-31.438103 -6.580197 -25.584444 41.063574 0.206328 2.243426 0.132054 -0.014001 45084.800000 0 0 1
-31.299783 -6.973597 -26.905494 41.859444 0.219220 2.268889 0.111627 -0.026618 969576.000000 0 0 1
-32.681903 -7.027797 -27.689954 43.407721 0.211811 2.262570 0.121260 -0.019174 1138950.000000 0 0 1
-33.658343 -7.894297 -27.157594 43.962926 0.230378 2.236660 0.111764 -0.022119 -98661.000000 0 0 1
-34.852621 -7.952397 -27.926374 45.363291 0.224332 2.233964 0.113793 -0.032640 458007.000000 0 0 1
-35.812776 -8.953697 -27.266904 45.893438 0.244992 2.206986 0.102030 -0.023355 -349498.000000 0 0 1
-35.279703 -10.285297 -27.269214 45.760844 0.283674 2.209191 0.101488 -0.029104 215734.000000 0 0 1
-36.076353 -11.244997 -26.547854 46.181617 0.302156 2.183226 0.085376 -0.035883 799102.000000 0 0 1
-37.413773 -11.739997 -27.220234 47.734255 0.304058 2.177601 0.071111 -0.018851 -300913.000000 0 0 1
38.041025 -10.762697 -27.120464 47.942412 -0.275718 2.172064 0.063425 -0.035720 -734596.000000 0 0 1
37.163985 -10.811397 -28.238794 47.911143 -0.283097 2.201111 0.062256 -0.035682 423187.000000 0 0 1
36.078975 -9.704197 -28.381124 46.918569 -0.262752 2.220439 0.069166 -0.032231 723354.000000 0 0 1
34.992605 -9.754297 -27.465304 45.540879 -0.271852 2.218167 0.062157 -0.032870 183330.000000 0 0 1
34.062265 -8.698097 -27.566564 44.674493 -0.250016 2.235790 0.051101 -0.019771 529517.000000 0 0 1
32.740555 -9.003497 -26.784194 43.248121 -0.268362 2.238666 0.056189 -0.023345 326724.000000 0 0 1
32.830795 -9.079697 -25.401804 42.491807 -0.269816 2.211556 0.042110 -0.010716 -88638.900000 0 0 1
31.681985 -9.672997 -24.815094 41.389660 -0.296326 2.213733 0.027951 -0.018308 126140.000000 0 0 1
31.803385 -9.826197 -23.257494 40.606902 -0.299663 2.180650 0.021011 -0.017481 71102.100000 0 0 1
32.733765 -10.814797 -22.843894 41.355807 -0.319096 2.156006 0.015990 -0.018871 66736.900000 0 0 1
32.726495 -11.102697 -21.475494 40.687716 -0.327072 2.126820 0.029046 -0.018775 1091340.000000 0 0 1
33.828125 -12.218597 -21.086294 41.692541 -0.346614 2.101056 0.070894 -0.024196 1470350.000000 0 0 1
35.205975 -11.860297 -21.037294 42.693033 -0.324942 2.086052 0.089767 -0.025580 603409.000000 0 0 1
35.910725 -12.748097 -20.175694 43.117894 -0.341117 2.057731 0.118901 -0.024047 1588490.000000 0 0 1
37.455835 -12.965597 -20.546194 44.645184 -0.333247 2.049029 0.142193 -0.031870 1573070.000000 0 0 1
-38.168903 -11.744397 -20.643694 44.955068 0.298502 2.047899 0.158855 -0.028552 509480.000000 0 0 1
38.093405 -10.920897 -21.822194 45.239161 -0.279199 2.074159 0.155915 -0.015537 -559524.000000 0 0 1
-37.542493 -11.400397 -23.101294 45.531062 0.294817 2.102931 0.126123 -0.012893 97227.300000 0 0 1
-37.991453 -12.633097 -23.714894 46.533233 0.321023 2.105555 0.127259 -0.016713 123384.000000 0 0 1
37.092215 -12.514097 -24.183694 46.013978 -0.325386 2.124185 0.124418 -0.023501 -634530.000000 0 0 1
36.607115 -13.704097 -25.024994 46.412644 -0.358206 2.140265 0.085637 -0.050982 -336860.000000 0 0 1
36.599195 -14.971297 -24.379494 46.454285 -0.388293 2.123284 0.088040 -0.066372 727819.000000 0 0 1
35.672975 -15.104997 -23.279494 45.195763 -0.400540 2.111899 0.071047 -0.051587 -199897.000000 0 0 1
-31.071823 8.226203 -18.417294 37.044909 -0.258810 2.091120 0.092994 -0.005640 -325263.000000 0 0 1
-29.817563 7.691203 -18.680694 36.016802 -0.252439 2.116086 0.088739 -0.009138 -526502.000000 0 0 1
-29.300703 8.077403 -19.948994 36.355715 -0.268991 2.151625 0.101088 -0.028262 794014.000000 0 0 1
-27.978763 7.287903 -20.315494 35.336157 -0.254817 2.183304 0.087405 -0.025071 1916670.000000 0 0 1
-26.798253 7.765503 -19.583694 34.087688 -0.282051 2.182801 0.087998 -0.026030 832486.000000 0 0 1
-25.743313 6.891803 -19.807194 33.204519 -0.261578 2.209956 0.109865 -0.033055 -192738.000000 0 0 1
-24.350323 7.304503 -19.267894 31.898993 -0.291434 2.219342 0.086842 -0.033957 136804.000000 0 0 1
-23.701023 8.232503 -20.110094 32.154758 -0.334310 2.246461 0.090460 -0.029801 -93548.300000 0 0 1
-22.346223 8.205103 -19.671494 30.881144 -0.351898 2.261405 0.100283 -0.032705 -169081.000000 0 0 1
-21.466323 9.153303 -20.454494 31.031795 -0.403058 2.290479 0.125643 -0.021588 -652473.000000 0 0 1
-21.101423 8.660303 -21.698194 31.481463 -0.389451 2.331232 0.158029 -0.029379 -325796.000000 0 0 1
-20.389123 9.697903 -22.293394 31.729499 -0.443971 2.349852 0.147710 -0.023667 -263409.000000 0 0 1
-19.381723 9.312503 -23.376294 31.762006 -0.447909 2.397914 0.162695 -0.016682 -152773.000000 0 0 1
-20.033623 8.548203 -24.376794 32.690150 -0.403304 2.412370 0.143306 -0.011161 -190529.000000 0 0 1
-19.194823 8.018903 -25.338704 32.784051 -0.395726 2.454191 0.117766 -0.004815 -377059.000000 0 0 1
-19.892523 6.879603 -26.146554 33.566110 -0.332963 2.463797 0.085853 -0.004504 132681.000000 0 0 1
-19.972823 5.661803 -25.443284 32.837941 -0.276229 2.457217 0.116503 -0.003727 208211.000000 0 0 1
-20.550023 4.674603 -26.313904 33.713156 -0.223668 2.466299 0.107056 -0.012442 -527496.000000 0 0 1
-20.836723 3.327103 -25.559764 33.144233 -0.158338 2.451470 0.104873 -0.012695 47832.800000 0 0 1
-19.765223 2.474903 -25.216994 32.135432 -0.124567 2.473024 0.103931 -0.004749 -195428.000000 0 0 1
-18.708923 3.012903 -24.472994 30.952041 -0.159670 2.482707 0.096147 -0.011924 -782888.000000 0 0 1
-18.021423 1.853603 -23.705594 29.835595 -0.102495 2.489047 0.098085 -0.020932 -23355.400000 0 0 1
-18.742323 1.309503 -22.601894 29.391072 -0.069755 2.448080 0.113783 -0.018380 660190.000000 0 0 1
-19.893323 0.529103 -22.943994 30.371880 -0.026591 2.427115 0.109028 -0.018101 400015.000000 0 0 1
-20.435023 -0.172397 -21.697694 29.806204 0.008436 2.386137 0.132138 -0.016269 157595.000000 0 0 1
-19.586123 -1.292397 -21.463494 29.085530 0.065890 2.400815 0.142733 -0.018075 507482.000000 0 0 1
-20.077023 -2.102397 -20.433494 28.723416 0.104336 2.362268 0.151065 -0.019158 -565809.000000 0 0 1
-19.234823 -3.323397 -20.259994 28.133445 0.171091 2.374799 0.130686 -0.037947 -449692.000000 0 0 1
-19.344923 -4.254297 -21.377494 29.143135 0.216472 2.394304 0.129028 -0.047427 400811.000000 0 0 1
-19.288623 -5.628497 -20.973294 29.044965 0.283921 2.377626 0.146726 -0.039601 -312240.000000 0 0 1
-19.398623 -6.588597 -22.178594 30.192817 0.327418 2.395822 0.118203 -0.052494 383662.000000 0 0 1
-18.110123 -6.714697 -22.779394 29.865775 0.355057 2.438314 0.124866 -0.044845 421121.000000 0 0 1
-18.184023 -7.434397 -23.998194 31.013582 0.388106 2.455609 0.142151 -0.055716 648616.000000 0 0 1
-16.786023 -7.765897 -24.630294 30.801479 0.433316 2.497503 0.137470 -0.055092 -409541.000000 0 0 1
-16.809523 -8.306997 -25.947054 32.012746 0.458984 2.515840 0.137844 -0.076819 366183.000000 0 0 1
-15.516423 -8.452097 -26.533434 31.878213 0.498780 2.554108 0.142915 -0.073303 557903.000000 0 0 1
-14.502023 -9.404097 -25.849554 31.095742 0.575297 2.552219 0.116407 -0.069872 -662579.000000 0 0 1
-13.833923 -8.929697 -24.707394 29.691282 0.573200 2.553757 0.112934 -0.063339 -6125.090000 0 0 1
-12.918823 -9.842797 -24.177094 29.125736 0.651071 2.550072 0.099308 -0.057539 -189466.000000 0 0 1
-12.029623 -9.346697 -23.031894 27.614140 0.660542 2.557226 0.112141 -0.055551 -149972.000000 0 0 1
-12.716923 -9.094497 -21.806394 26.831862 0.620821 2.519576 0.112418 -0.058140 237283.000000 0 0 1
-11.937323 -8.462597 -20.785394 25.419438 0.616687 2.528195 0.109146 -0.049843 -638670.000000 0 0 1
-12.734423 -8.250397 -19.452994 24.670905 0.574884 2.479162 0.103272 -0.040575 355161.000000 0 1 0
-13.642723 -7.165697 -19.298394 24.696136 0.483635 2.467757 0.102118 -0.037517 884503.000000 0 1 0
-14.930823 -7.393897 -19.898294 25.952674 0.459808 2.444504 0.128593 -0.047480 732638.000000 0 0 1
-15.954923 -6.242097 -19.613894 26.042814 0.372926 2.423619 0.146831 -0.034981 16963.300000 0 0 1
-16.263623 -6.082497 -18.195194 25.150890 0.357888 2.379570 0.124925 -0.028264 681000.000000 0 0 1
-15.359423 -5.174397 -17.548194 23.887766 0.324946 2.395888 0.132057 -0.035950 -227280.000000 0 1 0
-15.401723 -4.947597 -16.029694 22.773732 0.310824 2.351624 0.148058 -0.028476 416641.000000 0 1 0
-16.574423 -4.292797 -15.499894 23.095158 0.253432 2.306531 0.189680 -0.041771 757825.000000 0 1 0
-16.566323 -2.855697 -15.509794 22.872511 0.170702 2.315967 0.126645 -0.045970 174594.000000 0 1 0
-17.699323 -2.171197 -14.694594 23.106519 0.122061 2.260035 0.107573 -0.045612 336287.000000 0 1 0
-17.425523 -2.475097 -13.350594 22.091023 0.141095 2.219740 0.129317 -0.050988 582292.000000 0 1 0
-18.408723 -1.938797 -12.507894 22.340265 0.104933 2.165039 0.134737 -0.052458 -130462.000000 0 1 0
-17.973023 -0.508697 -12.023994 21.630182 0.028296 2.160229 0.118824 -0.045056 102786.000000 0 1 0
-17.849323 0.408003 -13.040894 22.109494 -0.022854 2.201648 0.154392 -0.049752 801121.000000 0 1 0
-16.821623 1.353303 -12.713194 21.128742 -0.080277 2.216426 0.119550 -0.031568 -278223.000000 0 1 0
-16.220823 2.184103 -13.875894 21.457536 -0.133843 2.274004 0.116591 -0.019125 324454.000000 0 1 0
-15.469123 1.398703 -14.821394 21.469137 -0.090174 2.332780 0.117949 -0.037915 1460730.000000 0 1 0
-14.156723 1.002003 -14.335194 20.172124 -0.070661 2.361209 0.108299 -0.034595 9458.620000 0 1 0
-13.528323 0.019103 -15.272394 20.402498 -0.001412 2.416677 0.101156 -0.035004 -459565.000000 0 1 0
-13.123523 0.623403 -16.457394 21.058521 -0.047467 2.467875 0.116640 -0.038768 -52598.600000 0 1 0
-12.594123 -0.411497 -17.246994 21.359777 0.032662 2.510616 0.065740 -0.026909 -181310.000000 0 1 0
-12.061623 0.161403 -18.594394 22.164393 -0.013381 2.566112 0.091792 -0.032457 -758941.000000 0 1 0
-10.887623 0.848403 -18.394294 21.391825 -0.077767 2.605821 0.052562 -0.015031 -1194790.000000 0 1 0
-10.587023 1.719203 -19.478194 22.236024 -0.160983 2.638249 0.068078 -0.016912 530548.000000 0 1 0
-9.192223 2.391703 -19.278594 21.491426 -0.254544 2.683814 0.038282 -0.016020 500373.000000 0 1 0
-8.100123 1.473803 -19.561294 21.223297 -0.179979 2.743210 0.034764 -0.008701 1042110.000000 0 1 0
-6.799023 2.025703 -19.342894 20.602858 -0.289566 2.790058 0.038733 -0.004384 743264.000000 0 1 0
-6.333723 3.124303 -20.304094 21.497292 -0.458258 2.806852 0.051688 -0.006939 -1037790.000000 0 1 0
-6.054223 2.597103 -21.581094 22.564179 -0.405232 2.845321 0.054662 -0.011448 132296.000000 0 1 0
-5.758223 3.639903 -22.480094 23.489586 -0.563705 2.847356 0.064524 -0.009658 -477466.000000 0 1 0
-5.111623 3.210203 -23.774994 24.529257 -0.560768 2.892963 0.098713 -0.028382 -520640.000000 0 1 0
-3.757123 2.868703 -23.663694 24.131222 -0.652109 2.944426 0.116607 -0.032494 -801396.000000 0 1 0
-3.366923 2.269703 -24.874594 25.203832 -0.593144 2.979781 0.145595 -0.041162 513034.000000 0 0 1
-1.930123 1.652603 -24.798394 24.928234 -0.708092 3.039484 0.106364 -0.037005 425398.000000 0 1 0
-0.893923 2.638503 -24.754494 24.910757 -1.244135 3.029526 0.099203 -0.039115 935629.000000 0 1 0
0.457477 2.207203 -24.615394 24.718387 1.366424 3.050274 0.091554 -0.033148 715280.000000 0 1 0
0.881077 1.227103 -23.464194 23.512773 0.948082 3.077300 0.083732 -0.033781 -987592.000000 0 1 0
0.541777 -0.096097 -23.756994 23.763366 -0.175547 3.118436 0.077051 -0.025766 11166.700000 0 1 0
0.952177 -0.927397 -22.711394 22.750256 -0.772215 3.083135 0.070510 -0.022972 -284969.000000 0 1 0
0.310877 -2.357497 -22.681994 22.806300 -1.439685 3.037138 0.072425 -0.030103 954969.000000 0 1 0
-0.977323 -2.266197 -22.051794 22.189467 1.163634 3.030140 0.055801 -0.022697 1208610.000000 0 1 0
-2.127023 -2.569897 -22.869994 23.112015 0.879411 2.996748 0.070791 -0.024663 661764.000000 0 1 0
-3.207623 -1.473697 -22.981894 23.251411 0.430673 2.989186 0.091098 -0.021157 -1305800.000000 0 1 0
-3.906823 -1.540397 -21.797694 22.198549 0.375569 2.951265 0.074097 -0.016197 -851378.000000 0 1 0
-4.857323 -0.533597 -21.681094 22.224945 0.109415 2.919914 0.061960 -0.024319 -688390.000000 0 1 0
-6.204423 -0.830297 -22.303494 23.165278 0.133033 2.867971 0.084551 -0.020786 -1623800.000000 0 1 0
-6.987023 -1.766497 -21.705594 22.870764 0.247636 2.821017 0.093335 -0.008928 -1738480.000000 0 1 0
-8.331123 -1.606997 -21.889694 23.476558 0.190551 2.771812 0.082526 -0.007985 -858403.000000 0 1 0
-9.110223 -2.960397 -21.873494 23.879067 0.314190 2.728818 0.072877 -0.012064 128416.000000 0 1 0
-8.852523 -3.800297 -22.998594 24.934810 0.405498 2.744913 0.096526 -0.010603 57041.900000 0 1 0
-9.327323 -5.086497 -22.679694 25.044759 0.499253 2.703510 0.082183 -0.007717 408640.000000 0 0 1
-10.509823 -5.614397 -23.559594 26.401369 0.490635 2.673350 0.090223 -0.025962 1173830.000000 0 0 1
-11.817823 -5.136297 -23.198394 26.536917 0.409993 2.634568 0.101634 -0.036560 720391.000000 0 0 1
-12.799223 -5.791497 -24.013594 27.821112 0.424921 2.612257 0.099838 -0.054671 402593.000000 0 0 1
-14.185923 -5.627497 -23.329494 27.877848 0.377655 2.562294 0.116958 -0.056061 -24914.600000 0 0 1
-14.718523 -4.332897 -23.483594 28.051526 0.286297 2.562865 0.116698 -0.050367 49090.600000 0 0 1
-16.115023 -4.228197 -23.282294 28.629300 0.256592 2.520483 0.120971 -0.052057 214097.000000 0 0 1
-16.707123 -2.858697 -23.630594 29.081009 0.169465 2.519358 0.104784 -0.047320 -239501.000000 0 0 1
-16.593523 -2.564297 -24.983194 30.101173 0.153323 2.549858 0.095706 -0.053525 99544.100000 0 0 1
-17.254623 -1.365697 -25.316734 30.667967 0.078985 2.541903 0.081018 -0.038663 313171.000000 0 0 1
-18.742823 -1.496297 -25.765324 31.896461 0.079664 2.511173 0.107880 -0.038254 68404.000000 0 0 1
-18.980223 -1.970697 -27.059944 33.111525 0.103458 2.527396 0.124434 -0.057343 4556.160000 0 0 1
-18.611723 -0.931297 -28.019214 33.650259 0.049996 2.554690 0.100394 -0.049042 -393555.000000 0 0 1
-18.668223 -1.489197 -29.494184 34.937475 0.079603 2.575866 0.102619 -0.046379 -672658.000000 0 0 1
-19.926223 -1.930197 -29.858134 35.948410 0.096566 2.550950 0.114099 -0.051361 -773147.000000 0 0 1
-19.898623 -2.739397 -31.007994 36.945300 0.136808 2.566781 0.124334 -0.058773 -918708.000000 0 0 1
-21.261623 -3.226797 -31.492674 38.134726 0.150617 2.542463 0.091610 -0.045189 -176426.000000 0 0 1
-22.155723 -2.217097 -31.955424 38.947923 0.099737 2.533021 0.078598 -0.039144 525702.000000 0 0 1
-23.028423 -1.728097 -30.941754 38.609413 0.074902 2.500436 0.063979 -0.022517 454591.000000 0 0 1
-24.271223 -0.919897 -31.477214 39.758691 0.037883 2.484394 0.059757 -0.019181 510159.000000 0 0 1
-23.814723 0.230703 -32.159684 40.017990 -0.009687 2.504167 0.068615 -0.022349 -51878.800000 0 0 1
-24.868223 1.025603 -32.605394 41.019411 -0.041218 2.489601 0.075087 -0.027353 -704632.000000 0 0 1
-24.495223 2.320503 -33.345974 41.440978 -0.094451 2.505902 0.087715 -0.029862 -278072.000000 0 0 1
-23.829023 3.392003 -32.613134 40.533252 -0.141398 2.505801 0.084447 -0.029005 390793.000000 0 0 1
-24.443623 4.037703 -31.531034 40.099874 -0.163706 2.475614 0.083923 -0.029120 -778771.000000 0 0 1
-25.482063 5.095503 -31.925444 41.164714 -0.197361 2.458388 0.071102 -0.032321 -2202.910000 0 0 1
-26.666643 4.468603 -32.413664 42.210471 -0.166030 2.446362 0.094184 -0.042816 323972.000000 0 0 1
-27.539423 5.453903 -32.982344 43.312815 -0.195510 2.436408 0.111730 -0.045836 77418.200000 0 0 1
-28.948663 4.902703 -33.270774 44.373483 -0.167767 2.418540 0.129001 -0.040032 -472779.000000 0 0 1
-28.904103 3.663703 33.371692 44.300561 -0.126081 0.717728 0.135200 -0.038597 136333.000000 0 0 1
-30.215653 3.241003 33.083143 44.921978 -0.106854 0.742977 0.145320 -0.041341 -80280.300000 0 0 1
-30.249103 1.771503 32.471512 44.413348 -0.058497 0.750833 0.153204 -0.015110 -70505.000000 0 0 1
-30.182693 0.801503 33.530582 45.121361 -0.026549 0.733076 0.160726 -0.019190 201933.000000 0 0 1
-30.350723 -0.481897 32.910979 44.771990 0.015876 0.745012 0.147119 -0.015758 -773470.000000 0 0 1
-30.187543 -1.567597 -33.325664 44.992722 0.051882 2.404893 0.091770 -0.013332 323392.000000 0 0 1
-28.876153 -1.856397 -32.841384 43.770252 0.064200 2.419332 0.115510 -0.015531 1161310.000000 0 0 1
-28.085923 -0.750697 -32.336804 42.837501 0.026722 2.426254 0.114005 -0.014571 -671939.000000 0 0 1
-28.421813 -0.264497 -30.872064 41.963719 0.009306 2.397473 0.139159 -0.019104 -422398.000000 0 0 1
-27.828993 -1.084997 -29.890594 40.854347 0.038968 2.391518 0.111316 -0.021910 403981.000000 0 0 1
-27.858643 -0.460897 -28.596324 39.925758 0.016543 2.369192 0.126671 -0.024301 -481960.000000 0 0 1
-26.867923 -1.145797 -27.665724 38.582255 0.042620 2.370369 0.116352 -0.022949 -381892.000000 0 0 1
-27.084743 -2.493697 -27.361024 38.580143 0.091811 2.359159 0.113244 -0.015776 439844.000000 0 0 1
-26.069433 -2.974597 -26.469674 37.270729 0.113611 2.360579 0.123363 -0.027530 348625.000000 0 0 1
-26.418393 -4.314897 -25.718214 37.121104 0.161900 2.336188 0.120805 -0.029889 166647.000000 0 0 1
-27.387923 -4.141397 -24.705094 37.115915 0.150076 2.299121 0.127214 -0.022268 -48297.100000 0 0 1
-27.866673 -5.411797 -24.227894 37.320636 0.191816 2.277305 0.104643 -0.017996 -102191.000000 0 0 1
-29.039403 -5.217597 -23.270094 37.576688 0.177776 2.238608 0.132122 -0.016436 -352656.000000 0 0 1
-29.243763 -6.276997 -22.396394 37.365717 0.211436 2.213527 0.120960 -0.021722 -421244.000000 0 0 1
-30.172393 -5.838497 -21.454894 37.480312 0.191142 2.180264 0.144911 -0.012821 -489463.000000 0 0 1
-30.662193 -7.035997 -20.625394 37.617578 0.225563 2.151116 0.144340 -0.026203 977676.000000 0 0 1
-29.597623 -7.565797 -19.737994 36.370991 0.250263 2.144427 0.124895 -0.035095 1521670.000000 0 0 1
-30.176663 -8.478297 -18.873294 36.588437 0.273894 2.112769 0.133731 -0.021861 378695.000000 0 0 1
-30.863893 -7.919797 -17.603994 36.403347 0.251184 2.075538 0.142716 -0.029141 584619.000000 0 0 1
-29.852003 -7.311297 -16.774694 35.014104 0.240190 2.070407 0.134325 -0.031471 728542.000000 0 0 1
-30.350333 -6.567997 -15.675494 34.785089 0.213120 2.038277 0.143777 -0.030852 114404.000000 0 0 1
-29.259363 -5.955997 -14.685194 33.275203 0.200815 2.027872 0.155117 -0.033885 326062.000000 0 0 1
-28.596253 -4.892897 -15.235694 32.769078 0.169462 2.054365 0.158182 -0.022971 1124090.000000 0 0 1
-27.353233 -4.599597 -14.525994 31.310703 0.166597 2.053223 0.163479 -0.041504 1347040.000000 0 0 1
-14.371923 21.007703 -4.772694 25.896995 -0.970803 1.756151 0.112012 -0.043074 -53419.500000 0 0 1
-14.452823 20.422103 -6.084294 25.748107 -0.954918 1.809353 0.137067 -0.046982 -147462.000000 0 0 1
-15.295323 19.303603 -6.026094 25.355272 -0.900734 1.810759 0.120574 -0.057126 -126139.000000 0 0 1
-15.591423 18.600303 -7.386094 25.369630 -0.873172 1.866214 0.147333 -0.059130 458682.000000 0 0 1
-14.404223 18.095903 -8.041094 24.486783 -0.898503 1.905390 0.124187 -0.049414 598792.000000 0 1 0
-14.662523 17.154903 -9.098594 24.332380 -0.863572 1.954039 0.110640 -0.050474 -202585.000000 0 1 0
-15.155623 15.733303 -8.681594 23.507442 -0.804098 1.949066 0.099921 -0.054160 -1123380.000000 0 1 0
-16.503823 15.645303 -8.466694 24.265955 -0.758700 1.927207 0.110064 -0.052277 -1305390.000000 0 1 0
-16.787223 15.124203 -7.178794 23.708384 -0.733332 1.878421 0.109597 -0.023664 -110746.000000 0 1 0
-18.261623 15.473303 -6.890094 24.907496 -0.702932 1.851079 0.141111 -0.019982 118001.000000 0 1 0
-19.164623 14.786903 -7.731494 25.410850 -0.657165 1.879957 0.127878 -0.032176 -1727880.000000 0 0 1
-20.457723 15.102803 -7.522294 26.517881 -0.635935 1.858414 0.131174 -0.034595 -2151760.000000 0 0 1
-21.495523 14.456203 -8.364494 27.221390 -0.592045 1.883126 0.111357 -0.014417 -704131.000000 0 0 1
-21.770423 13.168003 -7.946694 26.655160 -0.543984 1.873529 0.150297 -0.025158 -2807.830000 0 0 1
-22.872323 12.614703 -8.640894 27.512523 -0.504015 1.890275 0.169992 -0.025311 205374.000000 0 0 1
-23.206223 11.223103 -8.062394 27.009054 -0.450462 1.873924 0.175477 -0.018190 -362050.000000 0 0 1
-22.167223 10.304703 -8.254094 25.801216 -0.435144 1.896432 0.169121 -0.019602 -238939.000000 0 0 1
-22.263823 9.305703 -7.270094 25.201750 -0.395905 1.863431 0.203826 -0.031980 -358037.000000 0 0 1
-20.967623 8.537903 -7.008794 23.699371 -0.386693 1.871024 0.153975 -0.018166 -628534.000000 0 1 0
-20.739523 7.502603 -7.976094 23.452824 -0.347107 1.917810 0.131383 -0.017180 380755.000000 0 1 0
-19.756623 6.583303 -7.510294 22.137492 -0.321649 1.916923 0.097481 -0.013381 2578.420000 0 1 0
-19.463523 5.398803 -8.488894 21.909749 -0.270578 1.968658 0.089129 -0.018268 190450.000000 0 1 0
-20.500523 4.410103 -8.526994 22.636918 -0.211892 1.957012 0.130317 -0.023597 731011.000000 0 1 0
-20.316923 3.534103 -9.601694 22.747742 -0.172225 2.006551 0.140401 -0.025627 -465785.000000 0 1 0
-21.255823 2.364303 -9.529794 23.414032 -0.110776 1.989977 0.153577 -0.030988 -495764.000000 0 1 0
-21.031123 1.525203 -8.414594 22.703298 -0.072395 1.950487 0.154795 -0.039645 251412.000000 0 1 0
-21.906223 0.398703 -8.229794 23.404510 -0.018198 1.930111 0.162966 -0.040610 81004.200000 0 1 0
-21.700323 -0.889197 -9.125194 23.557671 0.040953 1.968558 0.136629 -0.057313 -303989.000000 0 1 0
-20.576723 -1.620897 -8.735094 22.412735 0.078611 1.971143 0.099019 -0.042051 -53478.200000 0 1 0
-20.599423 -2.966897 -9.132794 22.727662 0.143044 1.984317 0.090951 -0.032765 18059.200000 0 1 0
-21.545423 -3.916497 -8.325194 23.427613 0.179815 1.934094 0.094404 -0.033177 181973.000000 0 1 0
-21.155623 -4.192797 -7.012894 22.678638 0.195653 1.885179 0.103849 -0.036275 642327.000000 0 1 0
-22.234923 -4.724097 -6.207994 23.563702 0.209350 1.837399 0.140427 -0.037637 348410.000000 0 1 0
-22.481823 -6.216797 -6.275494 24.154973 0.269784 1.833613 0.142778 -0.038374 -578959.000000 0 1 0
-21.315823 -6.961397 -6.111394 23.241654 0.315663 1.836875 0.114290 -0.034872 40422.800000 0 1 0
-21.631223 -8.375297 -6.065694 23.975989 0.369411 1.826566 0.133093 -0.037462 -683051.000000 0 1 0
-20.621523 -9.424497 -5.575094 23.348448 0.428678 1.811904 0.121172 -0.033090 224589.000000 0 1 0
-19.551423 -9.715297 -6.515894 22.783810 0.461173 1.860834 0.112520 -0.019533 819601.000000 0 1 0
-18.675623 -10.603097 -5.847494 22.257532 0.516369 1.836636 0.106652 -0.002900 367568.000000 0 1 0
-17.793023 -11.479797 -6.862894 22.259306 0.572983 1.884218 0.096997 -0.005481 667545.000000 0 1 0
-16.697323 -10.790497 -7.450594 21.230797 0.573728 1.929364 0.109294 -0.025700 782647.000000 0 1 0
-17.056123 -10.118197 -8.634994 21.629895 0.535426 1.981458 0.109403 -0.034809 -876350.000000 0 1 0
-16.198423 -10.555997 -9.782494 21.668298 0.577547 2.039204 0.112943 -0.017881 -404160.000000 0 1 0
-16.406423 -11.882797 -10.106594 22.638790 0.626834 2.033566 0.143536 -0.025498 530847.000000 0 1 0
-15.335323 -12.352097 -10.940994 22.526690 0.678066 2.077949 0.118291 -0.006527 562902.000000 0 1 0
-15.534923 -13.716397 -11.615994 23.757203 0.723309 2.081678 0.139676 -0.015981 -43722.300000 0 1 0
-16.306723 -13.551097 -12.804294 24.768758 0.693367 2.114084 0.146466 -0.020284 217536.000000 0 1 0
-16.501923 -14.821297 -13.432494 25.930989 0.731795 2.115318 0.132496 -0.016567 -83660.200000 0 0 1
-16.829923 -14.638597 -14.932294 26.842284 0.715875 2.160720 0.143574 -0.017595 66422.300000 0 0 1
-17.006323 -15.921897 -15.526694 27.996429 0.752477 2.158673 0.131496 -0.009137 111990.000000 0 0 1
-17.367023 -15.867697 -16.905094 28.968595 0.740315 2.193910 0.131658 -0.006909 -128084.000000 0 0 1
-17.892523 -17.245197 -17.425794 30.351235 0.766978 2.182347 0.157586 -0.020766 900997.000000 0 0 1
-19.191623 -17.635197 -16.929994 31.079628 0.743160 2.146863 0.122590 -0.015521 1275460.000000 0 0 1
-20.248823 -17.543397 -17.900394 32.221262 0.713933 2.159816 0.112331 -0.011357 1590400.000000 0 0 1
-21.712123 -17.544997 -17.293094 32.837392 0.679645 2.125426 0.097445 -0.018665 1002840.000000 0 0 1
-22.136323 -16.293697 -16.784894 32.206118 0.634521 2.119019 0.094066 -0.007126 125519.000000 0 0 1
-21.675723 -16.088597 -15.484394 31.119871 0.638516 2.091594 0.102046 -0.009780 -246500.000000 0 0 1
-21.956323 -14.665897 -15.070194 30.401964 0.588896 2.089435 0.110458 -0.021908 -757226.000000 0 0 1
-23.234523 -14.430597 -14.594594 31.001409 0.555779 2.060962 0.118227 -0.028924 -482398.000000 0 0 1
-23.436123 -13.043697 -14.327094 30.408149 0.507869 2.061401 0.111061 -0.033878 -135598.000000 0 0 1
-24.939213 -12.714097 -14.244694 31.408978 0.471460 2.041511 0.141161 -0.041374 -356804.000000 0 0 1
-25.650073 -13.295397 -13.196394 31.762220 0.478210 1.999261 0.150465 -0.047536 9878.830000 0 0 1
-26.734763 -12.442297 -12.884594 32.180290 0.435585 1.982736 0.148790 -0.044672 -117750.000000 0 0 1
-27.523933 -12.926497 -11.621694 32.553417 0.439071 1.935855 0.166785 -0.046801 -192650.000000 0 0 1
-28.638923 -12.106997 -11.370094 33.106590 0.399960 1.921373 0.167761 -0.050036 -28193.800000 0 0 1
-29.231253 -12.501097 -10.169894 33.379190 0.404123 1.880396 0.153342 -0.042328 93140.300000 0 0 1
-30.034993 -11.368497 -9.472394 33.482380 0.361843 1.857620 0.141138 -0.042796 -480808.000000 0 0 1
-29.164943 -10.468997 -8.887194 32.236253 0.344633 1.850103 0.156904 -0.045026 -433826.000000 0 0 1
-29.785763 -9.358597 -8.294894 32.304493 0.304430 1.830477 0.188236 -0.048958 -419560.000000 0 0 1
-28.864093 -8.318197 -7.620594 30.990348 0.280582 1.819247 0.202330 -0.040593 -210909.000000 0 0 1
-28.459603 -8.707197 -6.315594 30.424513 0.296906 1.779899 0.196502 -0.042887 474100.000000 0 0 1
-27.548333 -7.758897 -5.701194 29.182439 0.274535 1.767425 0.186063 -0.044346 178639.000000 0 0 1
-28.076913 -6.358197 -5.314894 29.274354 0.222700 1.753363 0.210174 -0.046988 -678879.000000 0 0 1
-29.023183 -6.273297 -4.271894 29.999141 0.212873 1.713683 0.221941 -0.043829 400632.000000 0 0 1
-28.609643 -6.597297 -2.913994 29.504700 0.226635 1.669721 0.214137 -0.031571 -648166.000000 0 0 1
-27.795853 -5.491797 -2.210194 28.419258 0.195064 1.648646 0.230176 -0.033992 -363907.000000 0 0 1
-28.547513 -4.524297 -1.530294 28.944283 0.157176 1.623691 0.262393 -0.046433 -278178.000000 0 0 1
-27.778393 -3.736997 -0.681594 28.036919 0.133726 1.595109 0.235003 -0.065330 -1139010.000000 0 0 1
-28.418223 -2.475997 -0.145694 28.526254 0.086908 1.575904 0.247006 -0.067824 -239384.000000 0 0 1
-29.452153 -2.642197 0.813206 29.581613 0.089472 1.543303 0.236102 -0.055960 17928.700000 0 0 1
-29.073813 -3.264097 2.037106 29.327303 0.111801 1.501279 0.235468 -0.053865 -439210.000000 0 0 1
-30.138623 -3.507397 3.145406 30.504622 0.115854 1.467500 0.226418 -0.048963 -353952.000000 0 0 1
-30.921503 -4.623997 2.881506 31.397830 0.148440 1.478893 0.250934 -0.047850 126387.000000 0 0 1
-31.897783 -4.758897 3.929106 32.489283 0.148100 1.449564 0.282360 -0.055058 -298637.000000 0 0 1
-32.679263 -5.967697 3.663106 33.421040 0.180624 1.460971 0.268247 -0.057267 -551810.000000 0 0 1
-31.937863 -7.159597 4.019106 32.976357 0.220527 1.448614 0.275070 -0.047399 715099.000000 0 0 1
-32.647723 -8.361197 3.724406 33.906557 0.250715 1.460731 0.288286 -0.059196 32704.900000 0 0 1
-31.769453 -9.607697 4.028606 33.434049 0.293675 1.450009 0.267134 -0.048091 171883.000000 0 0 1
-31.731403 -10.001197 5.408806 33.706988 0.305327 1.409634 0.238681 -0.044672 261110.000000 0 0 1
-30.948483 -11.187597 5.530506 33.370007 0.346875 1.404295 0.229770 -0.039259 -178.233000 0 0 1
-30.718553 -11.619397 6.978606 33.575896 0.361620 1.361424 0.201411 -0.043685 -293379.000000 0 0 1
-29.698703 -10.909697 7.620106 32.543823 0.352043 1.334453 0.181985 -0.032590 117066.000000 0 0 1
-29.835563 -11.139897 9.030806 33.103074 0.357347 1.294485 0.211728 -0.039038 -448218.000000 0 0 1
-30.273823 -9.888897 9.765406 33.311526 0.315722 1.273272 0.206382 -0.051145 -801338.000000 0 0 1
-29.393633 -8.826097 9.934406 32.257992 0.291707 1.257741 0.192084 -0.038873 -68147.900000 0 0 1
-30.006093 -7.682597 10.547006 32.720440 0.250650 1.242599 0.188654 -0.040441 272918.000000 0 0 1
-29.003933 -6.538997 10.925106 31.675614 0.221745 1.218658 0.208483 -0.036840 120543.000000 0 0 1
-28.863803 -5.523797 9.956906 31.028558 0.189088 1.244122 0.222757 -0.041422 547550.000000 0 0 1
-27.757403 -4.651297 10.149506 29.918563 0.166027 1.224690 0.218694 -0.043611 -158109.000000 0 0 1
-27.581083 -3.519997 9.080406 29.249962 0.126937 1.255139 0.259407 -0.050396 -116368.000000 0 0 1
-27.190533 -4.023997 7.792706 28.569982 0.146926 1.294537 0.215594 -0.042290 219138.000000 0 0 1
-27.295553 -2.999297 6.811806 28.292113 0.109443 1.327640 0.233196 -0.059075 -101468.000000 0 0 1
-26.535363 -3.325797 5.493506 27.301373 0.124684 1.368196 0.219933 -0.035135 -452632.000000 0 0 1
-25.143363 -3.334297 5.617906 25.978204 0.131842 1.352820 0.235558 -0.060333 -502229.000000 0 0 1
-24.577323 -3.587497 4.396806 25.223933 0.144944 1.395590 0.234590 -0.038548 1375650.000000 0 0 1
-22.978223 -3.470297 4.496006 23.669722 0.149893 1.379688 0.208126 -0.037472 1695220.000000 0 1 0
-22.544123 -2.152297 4.727406 23.134783 0.095182 1.365005 0.188064 -0.047429 45949.700000 0 1 0
-21.153023 -2.134597 4.463906 21.724026 0.100572 1.363840 0.145693 -0.035406 -128946.000000 0 1 0
-20.628823 -0.672497 4.507906 21.126329 0.032588 1.355764 0.124176 -0.045113 -388860.000000 0 1 0
-21.059223 0.195403 3.467006 21.343598 -0.009278 1.407636 0.157178 -0.040895 223052.000000 0 1 0
-22.312123 0.775203 3.725406 22.634275 -0.034730 1.405453 0.168180 -0.067376 -320978.000000 0 1 0
-22.510623 1.871503 2.699706 22.749045 -0.082948 1.451843 0.195959 -0.052738 -202267.000000 0 1 0
-21.594523 2.915203 2.931406 21.986700 -0.134186 1.437072 0.137421 -0.051674 281594.000000 0 1 0
-21.809523 4.005003 2.128506 22.276128 -0.181612 1.475099 0.174000 -0.045084 -89551.800000 0 1 0
-20.530823 4.398603 1.381306 21.042110 -0.211053 1.505104 0.116112 -0.027172 -358820.000000 0 1 0
-20.806523 5.143803 0.208306 21.433933 -0.242361 1.561078 0.138986 -0.022684 308991.000000 0 1 0
-21.727323 4.593403 -0.706994 22.218815 -0.208344 1.602621 0.189359 -0.029607 -222063.000000 0 1 0
-21.195823 3.480003 -1.627494 21.541171 -0.162732 1.646421 0.164498 -0.026653 -320370.000000 0 1 0
-20.982923 2.274403 -0.907694 21.125337 -0.107972 1.613777 0.121693 -0.031932 144139.000000 0 1 0
-20.440523 1.344503 -1.765194 20.560607 -0.065682 1.656755 0.107119 -0.021554 -690335.000000 0 1 0
-19.651323 0.357003 -0.961994 19.678094 -0.018165 1.619702 0.112505 -0.022185 -517537.000000 0 1 0
-20.501423 -0.601797 -0.343194 20.513124 0.029345 1.587528 0.147339 -0.032471 645348.000000 0 1 0
-19.885223 -1.428897 0.597306 19.945440 0.071734 1.540845 0.116234 -0.028402 -259574.000000 0 1 0
-18.907023 -2.532397 0.161906 19.076550 0.133147 1.562309 0.057287 -0.024049 -318807.000000 0 1 0
-18.187723 -3.044397 1.254506 18.483381 0.165850 1.502872 0.048402 -0.017551 215996.000000 0 1 0
-17.328623 -4.121597 1.046606 17.842761 0.233510 1.512105 0.023333 -0.007991 -361298.000000 0 1 0
-18.035923 -5.420497 0.566406 18.841367 0.291951 1.540730 0.011463 -0.012082 -123658.000000 0 1 0
-18.826723 -5.969497 1.622206 19.816961 0.307048 1.488845 0.034191 -0.010497 518592.000000 0 1 0
-19.968223 -6.651797 1.156906 21.078775 0.321558 1.515884 0.077749 -0.013523 -24751.900000 0 1 0
-20.959123 -7.057097 2.267806 22.231293 0.324784 1.468609 0.115838 -0.012346 -89969.200000 0 1 0
-20.314323 -7.950297 3.154606 22.041562 0.373040 1.427182 0.096492 -0.007991 149557.000000 0 1 0
-21.048423 -8.173097 4.295506 22.984494 0.370379 1.382804 0.108196 -0.019924 -531572.000000 0 1 0
-20.337923 -8.997397 5.351706 22.874112 0.416512 1.334644 0.093247 -0.011641 -191511.000000 0 1 0
-20.008923 -10.333397 4.890406 23.044568 0.476712 1.356955 0.105139 -0.007653 306409.000000 0 1 0
-19.049823 -10.966097 5.697106 22.707004 0.522325 1.317190 0.111355 -0.021573 -96227.100000 0 1 0
-18.430223 -12.274597 5.148706 22.734291 0.587543 1.342341 0.093446 -0.014942 402725.000000 0 1 0
-19.361523 -13.381097 5.137306 24.089712 0.604740 1.355889 0.135934 -0.019342 834211.000000 0 1 0
-18.722523 -14.562597 4.653806 24.171470 0.661064 1.377054 0.120725 -0.019716 237643.000000 0 1 0
-19.611823 -15.827697 4.872906 25.668751 0.679024 1.379799 0.140375 -0.024819 103713.000000 0 0 1
-18.981223 -17.008497 4.520006 25.884478 0.730639 1.395274 0.135949 -0.034975 -293536.000000 0 0 1
-19.763323 -18.121697 4.805606 27.241121 0.742093 1.393458 0.130759 -0.033954 -294978.000000 0 0 1
-19.073623 -19.478597 4.603806 27.648035 0.795902 1.403502 0.139393 -0.047627 -686685.000000 0 0 1
-18.610923 -19.745197 3.268206 27.329844 0.814962 1.450926 0.133726 -0.048817 136880.000000 0 0 1
-17.786823 -20.851597 3.150906 27.587830 0.864552 1.456333 0.124975 -0.042758 1633360.000000 0 0 1
-16.282823 -20.707197 3.724206 26.604286 0.904443 1.430350 0.132876 -0.049237 904747.000000 0 0 1
-15.724523 -21.935297 3.890206 27.268142 0.948845 1.427643 0.119798 -0.046456 -190217.000000 0 0 1
-14.309523 -21.787797 4.000106 26.371791 0.989678 1.418527 0.131433 -0.041614 215569.000000 0 0 1
-13.650423 -23.136497 4.279806 27.201990 1.037766 1.412806 0.153733 -0.041476 -444510.000000 0 0 1
-13.688123 -23.946597 3.141206 27.760968 1.051513 1.457402 0.167913 -0.046949 96797.200000 0 0 1
-13.154023 -25.249697 3.346306 28.666588 1.090524 1.453798 0.158328 -0.043576 186484.000000 0 0 1
20.280377 18.562603 -23.945694 36.459021 0.741203 2.287342 0.140908 -0.034422 303928.000000 0 0 1
19.464477 19.155703 -24.978394 37.009824 0.777403 2.311643 0.132978 -0.040537 657441.000000 0 0 1
20.161277 19.201703 -26.229954 38.251706 0.761025 2.326389 0.129519 -0.031437 -249387.000000 0 0 1
19.144177 19.289203 -27.348824 38.555559 0.789172 2.359351 0.123670 -0.032239 -300481.000000 0 0 1
18.707677 20.572403 -27.527374 39.127450 0.832835 2.351150 0.107519 -0.023318 -207387.000000 0 0 1
17.928877 20.632203 -28.679394 39.618684 0.855389 2.380214 0.118492 -0.028801 -400771.000000 0 0 1
17.476677 22.025803 -29.076714 40.447813 0.900054 2.372972 0.133048 -0.027423 235302.000000 0 0 1
16.597177 22.671003 -28.132574 39.760312 0.938858 2.356827 0.147651 -0.027605 620296.000000 0 0 1
16.393277 24.004903 -28.510394 40.716305 0.971630 2.346503 0.137691 -0.026716 378900.000000 0 0 1
15.482377 24.879803 -27.537514 40.212229 1.014150 2.325132 0.156213 -0.033881 -441165.000000 0 0 1
14.193977 24.418103 -27.459874 39.392353 1.044248 2.342122 0.188525 -0.052123 -1050750.000000 0 0 1
13.384577 25.189903 -26.603234 39.005259 1.082387 2.321348 0.172699 -0.036484 -1316960.000000 0 0 1
12.091677 24.538703 -26.098544 37.808606 1.112958 2.332673 0.197403 -0.042884 -231041.000000 0 0 1
11.399377 25.416503 -25.274584 37.613150 1.149188 2.307650 0.161094 -0.036831 -277072.000000 0 0 1
10.693477 26.419803 -25.986314 38.570001 1.186200 2.310060 0.160006 -0.055877 -1167140.000000 0 0 1
9.983077 27.479303 -25.137594 38.557394 1.222327 2.280953 0.157631 -0.053876 -217912.000000 0 0 1
10.847977 28.350003 -24.448094 38.975770 1.205340 2.248831 0.146588 -0.040195 -123076.000000 0 0 1
10.205477 29.288103 -23.560494 38.949219 1.235502 2.220440 0.146054 -0.042169 -75951.600000 0 0 1
11.040877 29.689103 -22.328194 38.754253 1.214761 2.184805 0.119053 -0.023880 -220127.000000 0 0 1
12.202677 30.448703 -22.531894 39.795919 1.189633 2.172668 0.106987 -0.041586 78929.200000 0 0 1
12.862677 30.422303 -21.269594 39.285629 1.170787 2.142908 0.087774 -0.033438 603972.000000 0 0 1
14.174877 31.267303 -21.060994 40.275761 1.145164 2.121069 0.082097 -0.030458 1559830.000000 0 0 1
15.372977 30.695403 -21.610294 40.565269 1.106490 2.132618 0.085978 -0.024058 533792.000000 0 0 1
16.400577 31.650503 -21.846794 41.809278 1.092713 2.120617 0.076651 -0.028380 290265.000000 0 0 1
17.624477 30.985703 -22.510194 42.159754 1.053639 2.134034 0.046885 -0.023555 -75965.600000 0 0 1
18.411077 30.219203 -21.630194 41.473285 1.023602 2.119457 0.049691 -0.014493 236808.000000 0 0 1
19.627877 29.909503 -22.312394 42.162482 0.990045 2.128454 0.048801 -0.013096 681514.000000 0 0 1
20.807777 29.138203 -21.658294 41.845910 0.950666 2.114808 0.052920 -0.015978 334810.000000 0 0 1
21.621977 29.898003 -20.804594 42.358372 0.944675 2.084213 0.071583 -0.021460 641950.000000 0 0 1
22.699477 29.076603 -20.294394 42.101990 0.907948 2.073766 0.081000 -0.010033 948748.000000 0 0 1
23.496877 29.707503 -19.103494 42.421486 0.901604 2.037927 0.089623 -0.025367 423286.000000 0 0 1
24.420077 30.763103 -19.454094 43.831159 0.899841 2.030678 0.106769 -0.026907 398531.000000 0 0 1
24.995077 31.195003 -18.208794 43.925418 0.895292 1.998232 0.102638 -0.030689 -411716.000000 0 0 1
26.236977 32.083503 -18.327094 45.316802 0.885313 1.987143 0.120141 -0.025863 956267.000000 0 0 1
27.449677 31.394103 -18.760594 45.727830 0.852330 1.993543 0.126779 -0.028388 377337.000000 0 0 1
28.520577 32.267603 -18.533494 46.884027 0.846961 1.977196 0.122735 -0.027917 -231259.000000 0 0 1
29.853677 31.770603 -19.120694 47.604771 0.816495 1.984120 0.139782 -0.026744 -93763.100000 0 0 1
30.416077 30.716003 -18.419594 46.988212 0.790304 1.973606 0.113863 -0.016870 206326.000000 0 0 1
31.781177 30.573103 -18.827594 47.950351 0.766026 1.974305 0.107102 -0.011917 556988.000000 0 0 1
32.452477 29.293003 -18.316894 47.399915 0.734273 1.967557 0.123969 -0.016418 -405837.000000 0 0 1
32.695077 29.210803 -16.931294 46.999020 0.729174 1.939330 0.108073 -0.004083 -62991.100000 0 0 1
33.245077 27.963603 -16.525794 46.479029 0.699325 1.934303 0.122089 -0.010254 -9793.180000 0 0 1
33.651877 27.900603 -15.030394 46.225591 0.692232 1.901970 0.114986 -0.005357 286289.000000 0 0 1
34.806977 28.614703 -14.620194 47.371690 0.688070 1.884546 0.124068 -0.007735 -33649.100000 0 0 1
34.679577 29.971803 -14.542594 48.088139 0.712709 1.878022 0.119286 -0.016469 -337330.000000 0 0 1
36.003177 30.741403 -14.478294 49.506400 0.706726 1.867587 0.101937 -0.021816 212987.000000 0 0 1
36.879077 30.586903 -13.364094 49.741572 0.692403 1.842809 0.099375 -0.025889 -606720.000000 0 0 1
38.127277 31.083303 -13.694594 51.062735 0.683971 1.842312 0.085689 -0.029703 -724686.000000 0 0 1
-37.383011 31.305303 -12.499694 50.336407 -0.697146 1.821745 0.077656 -0.023400 -175287.000000 0 0 1
-38.001911 32.230903 -11.614894 51.165243 -0.703413 1.799800 0.080595 -0.028738 722028.000000 0 0 1
-37.010811 32.860203 -10.805294 50.659130 -0.726064 1.785742 0.089060 -0.027507 503831.000000 0 0 1
-37.676311 -33.391056 -9.983094 51.323768 0.725173 1.766556 0.088440 -0.021586 402515.000000 0 0 1
-36.715511 -32.588356 -9.292994 49.963881 0.725917 1.757880 0.092622 -0.028091 311092.000000 0 0 1
-36.360411 -33.087856 -8.015094 49.810917 0.738311 1.732409 0.076280 -0.031753 237063.000000 0 0 1
-36.078911 -32.037556 -6.942194 48.747173 0.726138 1.713694 0.094626 -0.031412 588714.000000 0 0 1
-37.314011 -31.336856 -6.747794 49.192141 0.698551 1.708402 0.077672 -0.022220 503719.000000 0 0 1
-37.207011 -30.362456 -5.722994 48.363138 0.684446 1.689408 0.120915 -0.023984 502263.000000 0 0 1
37.845677 -29.628256 -5.409094 48.367212 -0.664208 1.682865 0.105674 -0.016869 514895.000000 0 0 1
36.880577 -30.494456 -4.861294 48.101154 -0.690896 1.672033 0.060576 -0.012399 1098980.000000 0 0 1
35.559077 -29.936856 -4.656794 46.715619 -0.699767 1.670646 0.049269 0.002747 785586.000000 0 0 1
35.390877 -29.123056 -3.296094 45.951397 -0.688548 1.642588 0.047429 0.000999 -661114.000000 0 0 1
35.974377 -27.843656 -3.362294 45.615020 -0.658676 1.644573 0.087745 -0.009416 225477.000000 0 0 1
35.455977 -26.894856 -2.413694 44.567764 -0.648946 1.624981 0.067359 -0.009723 -114383.000000 0 0 1
36.107877 -25.490556 -2.552494 44.272593 -0.614712 1.628482 0.091080 -0.023345 -117380.000000 0 0 1
35.844877 -24.892556 -3.776394 43.803604 -0.606993 1.657115 0.094365 -0.019358 275857.000000 0 0 1
36.009377 -23.503056 -3.779794 43.166605 -0.578266 1.658472 0.111599 -0.028958 -38616.600000 0 0 1
35.485477 -22.939856 -5.129494 42.564866 -0.573881 1.691600 0.123471 -0.030967 45466.100000 0 0 1
36.529377 -22.998456 -6.098394 43.594895 -0.561892 1.711144 0.135235 -0.031875 618009.000000 0 0 1
36.174477 -22.464556 -7.351694 43.212227 -0.555722 1.741758 0.117750 -0.023474 -242174.000000 0 0 1
37.423077 -22.273756 -8.232094 44.321263 -0.536874 1.757618 0.121956 -0.026201 -440212.000000 0 0 1
37.898877 -23.471056 -8.750594 45.428937 -0.554495 1.764629 0.110000 -0.015130 32488.800000 0 0 1
-37.385811 -23.247056 -9.597594 45.058166 0.556306 1.785445 0.115427 -0.013120 357833.000000 0 0 1
-36.919511 -24.472356 -10.438794 45.507306 0.585361 1.802244 0.105615 -0.011121 127350.000000 0 0 1
-36.089011 -25.494256 -9.869894 45.274591 0.615026 1.790562 0.144126 -0.007195 120230.000000 0 0 1
-36.745611 -26.448256 -9.079294 46.175575 0.623869 1.768711 0.124372 -0.012350 -391136.000000 0 0 1
-35.780611 -27.355056 -8.322594 45.801930 0.652730 1.753520 0.112224 -0.012090 -225588.000000 0 0 1
-35.236411 -28.331956 -9.232994 46.147076 0.677208 1.772233 0.115590 -0.016337 150298.000000 0 0 1
-34.439611 -29.265156 -8.521594 45.990801 0.704351 1.757162 0.135211 -0.034290 -345325.000000 0 0 1
-33.923911 -30.422056 -9.318994 46.509965 0.731030 1.772527 0.122984 -0.029768 23315.200000 0 0 1
-33.044311 -29.957856 -10.349194 45.787612 0.736448 1.798793 0.089904 0.000069 288348.000000 0 0 1
-32.624911 -30.984656 -11.227194 46.373307 0.759618 1.815331 0.068614 0.003185 -3214.800000 0 0 1
-32.405311 -30.454856 -12.644694 46.233005 0.754380 1.847825 0.042250 0.014074 101028.000000 0 0 1
-31.380511 -29.509156 -12.862094 44.955091 0.754674 1.860961 0.026662 0.013772 -144870.000000 0 0 1
-31.585611 -29.225756 -14.211494 45.318453 0.746611 1.889770 0.023823 0.029092 327433.000000 0 0 1
-30.762311 -28.010556 -14.734394 44.136305 0.738612 1.911169 0.038568 -0.001672 301637.000000 0 0 1
-29.441111 -28.417056 -15.005794 43.583047 0.767701 1.922293 0.063813 -0.003866 -349503.000000 0 0 1
-28.677211 -27.478156 -15.748394 42.725208 0.764049 1.948296 0.091295 0.010682 53145.900000 0 0 1
-27.367111 -28.060456 -16.298294 42.449763 0.797907 1.964859 0.109374 -0.002700 -324071.000000 0 0 1
-27.376811 -28.820456 -17.473094 43.421395 0.811081 1.984941 0.092091 -0.001745 -305816.000000 0 0 1
-27.482811 -28.031756 -18.705294 43.485311 0.795286 2.015457 0.066438 0.007069 -22668.800000 0 0 1
-26.204511 -27.351156 -19.245894 42.487252 0.806805 2.040902 0.078716 -0.002685 120714.000000 0 0 1
-25.733611 -26.314956 -18.448094 41.170716 0.796567 2.035422 0.103253 -0.005246 204591.000000 0 0 1
-24.341811 -26.036456 -18.600594 40.204514 0.819024 2.051778 0.115221 -0.022030 717945.000000 0 0 1
-23.966011 -24.925456 -17.605894 38.802262 0.805020 2.041747 0.128569 -0.020410 -46774.400000 0 0 1
-23.981911 -25.318256 -16.258994 38.477280 0.812498 2.007065 0.151003 -0.024684 11855.900000 0 0 1
-23.712511 -24.178756 -15.450694 37.223909 0.795133 1.998821 0.166328 -0.022727 31092.300000 0 0 1
-24.260911 -24.334556 -14.003094 37.105917 0.786914 1.957764 0.158603 -0.022653 1299270.000000 0 0 1
-25.694611 -24.142956 -13.978094 37.927332 0.754274 1.948244 0.120673 -0.009100 962219.000000 0 0 1
-26.180611 -23.917356 -12.670894 37.656552 0.740252 1.913979 0.115275 -0.005020 894940.000000 0 0 1
-27.734211 -23.778556 -12.481994 38.605782 0.708759 1.900031 0.089574 0.016263 445110.000000 0 0 1
-28.417811 -24.985156 -12.776994 39.938473 0.721208 1.896438 0.094238 0.012148 35030.500000 0 0 1
-29.742811 -25.073056 -12.317294 40.804518 0.700414 1.877440 0.071498 0.012524 559213.000000 0 0 1
-30.937611 -24.211356 -12.873994 41.340843 0.664032 1.887474 0.078166 0.014009 -455846.000000 0 0 1
-30.942511 -22.890256 -12.398194 40.436593 0.636920 1.882424 0.082878 0.009151 72545.600000 0 0 1
-31.615511 -22.633456 -11.195394 40.461719 0.621316 1.851145 0.105541 -0.000159 691317.000000 0 0 1
-33.161711 -22.924756 -11.129494 41.822352 0.604864 1.840155 0.084756 0.000026 1139400.000000 0 0 1
-34.144811 -22.032856 -11.700294 42.287253 0.573048 1.851140 0.114516 -0.018976 837550.000000 0 0 1
-34.324911 -22.263656 -13.086294 42.954872 0.575401 1.880370 0.113211 -0.013759 -386199.000000 0 0 1
-35.696411 -21.738056 -13.583294 43.946362 0.546989 1.885030 0.079214 -0.022513 -105571.000000 0 0 1
-36.757011 -22.516356 -13.116194 45.056617 0.549613 1.866178 0.103022 -0.012469 -593612.000000 0 0 1
-38.007411 -21.990156 -13.468694 45.929685 0.524517 1.868417 0.115944 -0.034492 -338226.000000 0 0 1
37.214377 -22.864756 -13.045294 45.583842 -0.550945 1.861037 0.104591 -0.008559 -407315.000000 0 0 1
37.152577 -24.138256 -13.675194 46.367881 -0.576169 1.870177 0.090514 -0.000608 497526.000000 0 0 1
36.190277 -24.981856 -13.008894 45.859139 -0.604181 1.858416 0.089302 -0.013996 455980.000000 0 0 1
36.072477 -26.376356 -13.670194 46.731253 -0.631363 1.867666 0.070380 -0.013804 281195.000000 0 0 1
35.208477 -26.350956 -14.792694 46.398638 -0.642493 1.895278 0.062171 -0.019481 -109437.000000 0 0 1
35.221177 -27.528256 -15.514394 47.318418 -0.663409 1.904847 0.059512 -0.001170 193216.000000 0 0 1
34.450177 -27.466556 -16.880994 47.182565 -0.673082 1.936686 0.061977 -0.019429 224264.000000 0 0 1
33.061077 -27.664256 -16.742694 46.245689 -0.696758 1.941250 0.107635 -0.023711 -590302.000000 0 0 1
32.461177 -27.558656 -18.008694 46.233328 -0.703897 1.970904 0.100916 -0.034146 -72595.200000 0 0 1
30.951577 -27.809756 -17.846094 45.275444 -0.731982 1.975958 0.111551 -0.045426 -33592.500000 0 0 1
30.254277 -26.805356 -17.118994 43.896565 -0.725027 1.971411 0.106012 -0.045224 494924.000000 0 0 1
28.841977 -26.943456 -17.316794 43.100822 -0.751379 1.984250 0.127646 -0.042996 774166.000000 0 0 1
28.024077 -26.075656 -16.328994 41.616401 -0.749398 1.974002 0.119334 -0.047121 -57899.200000 0 0 1
27.900577 -24.723656 -16.676594 40.838832 -0.725101 1.991444 0.131808 -0.055935 418603.000000 0 0 1
27.120477 -24.058556 -15.648394 39.486791 -0.725642 1.978274 0.124336 -0.045680 219201.000000 0 0 1
26.872177 -22.554056 -15.838494 38.492302 -0.698254 1.994865 0.114620 -0.046496 239263.000000 0 0 1
25.675377 -22.186356 -16.516294 37.739202 -0.712629 2.023772 0.121536 -0.057815 58008.500000 0 0 1
25.573577 -20.803456 -16.494494 36.862718 -0.682903 2.034716 0.116299 -0.055057 -594233.000000 0 0 1
24.125977 -20.354056 -16.590994 35.659662 -0.700800 2.054724 0.081982 -0.056073 -720616.000000 0 0 1
23.370377 -20.605256 -15.403394 34.756520 -0.722602 2.029939 0.076450 -0.047746 325637.000000 0 0 1
22.138277 -19.892256 -15.447994 33.532756 -0.732011 2.049562 0.067503 -0.049007 224271.000000 0 0 1
22.047677 -18.559256 -14.666394 32.336500 -0.699702 2.041547 0.061474 -0.039759 -245987.000000 0 0 1
21.843077 -18.725156 -13.270594 31.683753 -0.708693 2.002970 0.068844 -0.033785 18804.400000 0 0 1
21.408577 -17.549856 -12.590694 30.411350 -0.686673 1.997655 0.088539 -0.037195 218434.000000 0 0 1
20.577577 -17.663756 -11.239894 29.356093 -0.709350 1.963709 0.104682 -0.029590 302588.000000 0 0 1
21.249977 -17.998056 -10.044294 29.603706 -0.702731 1.916960 0.103136 -0.033439 -614539.000000 0 0 1
20.317477 -18.147756 -9.035394 28.701556 -0.729051 1.891048 0.093284 -0.034226 -355054.000000 0 0 1
20.892177 -18.596656 -7.713494 29.014078 -0.727333 1.839886 0.085060 -0.027210 -465160.000000 0 0 1
21.711977 -17.793156 -6.936694 28.915811 -0.686524 1.813052 0.086640 -0.029641 -525668.000000 0 0 1
22.353777 -18.648256 -6.062294 29.735505 -0.695269 1.776110 0.091386 -0.023131 -395437.000000 0 0 1
23.657777 -18.022856 -5.497994 30.244698 -0.651020 1.753596 0.091309 -0.026051 287700.000000 0 0 1
24.655277 -17.894256 -6.515294 31.153430 -0.627818 1.781487 0.088182 -0.043752 282016.000000 0 0 1
25.766977 -17.146656 -6.142694 31.554360 -0.587160 1.766718 0.115613 -0.041957 209959.000000 0 0 1
26.991277 -17.079056 -7.113594 32.723485 -0.564162 1.789931 0.132131 -0.049703 728836.000000 0 0 1
27.886877 -18.178556 -7.199794 34.058404 -0.577687 1.783799 0.164993 -0.054759 359644.000000 0 0 1
27.489277 -19.209156 -8.069794 34.493096 -0.609912 1.806939 0.158259 -0.058607 -410450.000000 0 0 1
28.499077 -20.373856 -8.091594 35.955046 -0.620653 1.797788 0.169430 -0.056683 -19451.700000 0 0 1
29.611377 -19.975456 -8.852594 36.799741 -0.593466 1.813740 0.195908 -0.049783 86015.600000 0 0 1
30.644777 -20.959356 -8.921894 38.183730 -0.599870 1.806633 0.173434 -0.040426 147683.000000 0 0 1
-31.444213 29.093603 3.990906 43.024453 -0.746589 1.477904 0.130706 -0.033133 200251.000000 0 0 1
-31.211013 30.157603 3.131006 43.513349 -0.768235 1.498779 0.125848 -0.017646 -230296.000000 0 0 1
-30.389593 31.145303 3.742006 43.675621 -0.797679 1.485014 0.105654 0.006668 264369.000000 0 0 1
-29.873643 32.172903 2.666306 43.984536 -0.822438 1.510140 0.090093 0.000882 -277058.000000 0 0 1
-28.847003 31.695103 1.818606 42.895646 -0.832407 1.528388 0.108782 0.003560 120804.000000 0 0 1
-28.364033 32.597003 0.836506 43.217852 -0.854724 1.551440 0.117257 -0.027429 467542.000000 0 0 1
-27.379553 -33.652356 1.282906 43.402383 0.887818 1.541234 0.132189 -0.011771 -690454.000000 0 0 1
-26.040473 33.410503 1.269106 42.378987 -0.908737 1.540845 0.105761 -0.014490 -1141720.000000 0 0 1
-25.384673 -33.136156 2.132606 41.796345 0.917088 1.519750 0.117857 -0.021240 -367161.000000 0 0 1
-23.876223 -33.392656 2.262306 41.112790 0.950065 1.515742 0.121130 -0.037144 -529327.000000 0 0 1
-23.116623 -33.136956 1.152906 40.419863 0.961677 1.542269 0.177251 -0.050471 -756953.000000 0 0 1
-21.762423 -33.381156 1.453206 39.875010 0.993060 1.534344 0.169603 -0.055152 -543860.000000 0 0 1
-20.893323 -33.080756 0.209606 39.126862 1.007475 1.565439 0.192710 -0.058735 -282098.000000 0 0 1
-20.667223 -31.739556 -0.243594 37.876020 0.993613 1.577228 0.197109 -0.067660 421820.000000 0 0 1
-19.689223 -31.152856 0.603606 36.858246 1.007165 1.554419 0.217739 -0.058287 -338193.000000 0 0 1
-19.474123 -29.602856 0.428306 35.436620 0.988925 1.558710 0.234691 -0.074423 -253996.000000 0 0 1
-18.671923 -29.381556 -0.718494 34.820006 1.004683 1.591432 0.244013 -0.056593 73762.300000 0 0 1
-18.226023 -28.041056 -0.650194 33.450135 0.994438 1.590235 0.191471 -0.053006 -460979.000000 0 0 1
-17.040323 -27.675456 -1.530594 32.536844 1.018898 1.617856 0.161190 -0.040571 -584285.000000 0 0 1
-17.239723 -27.993856 -2.885494 33.002880 1.018811 1.658340 0.133491 -0.023677 23257.700000 0 0 1
-16.207723 -27.420656 -3.666094 32.062797 1.036964 1.685388 0.112180 -0.009133 19177.900000 0 0 1
-16.681523 -27.136756 -5.094394 32.258791 1.019623 1.729383 0.135053 -0.009141 -195799.000000 0 0 1
-17.596123 -26.085356 -5.177794 31.888539 0.977349 1.733890 0.128232 -0.016180 -551119.000000 0 0 1
-18.089123 -25.938456 -6.472794 32.278738 0.961827 1.772693 0.144131 -0.024825 210481.000000 0 0 1
-18.629023 -24.485956 -6.773294 31.503652 0.920416 1.787488 0.124253 -0.017150 -218897.000000 0 0 1
-17.621023 -23.531756 -6.777294 30.169119 0.928052 1.797373 0.086657 -0.003584 -89496.400000 0 0 1
-18.081323 -22.213756 -7.219894 29.538315 0.887595 1.817723 0.086606 -0.011401 406053.000000 0 0 1
-16.859923 -21.276756 -7.163994 28.076328 0.900700 1.828811 0.098583 0.000583 487367.000000 0 0 1
-16.002023 -21.363556 -8.305394 27.954353 0.927914 1.872456 0.118861 -0.008207 142865.000000 0 0 1
-14.689123 -20.917956 -7.978894 26.776743 0.958578 1.873371 0.141807 -0.040531 491863.000000 0 0 1
-13.861323 -20.662856 -9.254794 26.546961 0.979915 1.926894 0.127150 -0.028418 163042.000000 0 0 1
-14.384423 -19.618856 -10.102694 26.341518 0.938138 1.964409 0.138677 -0.030829 -119884.000000 0 0 1
-13.828223 -19.796056 -11.410694 26.707818 0.961055 2.012236 0.129798 -0.017774 -50995.500000 0 0 1
-14.516123 -19.076956 -12.588394 27.076110 0.920340 2.054348 0.157117 -0.017997 -284022.000000 0 0 1
-15.813023 -19.515956 -12.877894 28.227016 0.889830 2.044546 0.129039 0.008320 -705655.000000 0 0 1
-16.354923 -18.832356 -13.978894 28.592842 0.855689 2.081619 0.133213 -0.021339 590516.000000 0 0 1
-17.668523 -19.499156 -14.516894 30.052188 0.834612 2.074938 0.149345 -0.024863 718397.000000 0 0 1
-18.813223 -19.182056 -13.726994 30.171493 0.795105 2.043130 0.161886 -0.026085 248375.000000 0 0 1
-19.941523 -19.722856 -14.377794 31.517874 0.779885 2.044493 0.142850 -0.014292 126936.000000 0 0 1
-21.349323 -19.504056 -13.762494 32.025116 0.740261 2.015002 0.129467 -0.006574 421177.000000 0 0 1
-22.330323 -20.109456 -14.557394 33.390886 0.733116 2.021911 0.141641 -0.012264 634810.000000 0 0 1
-23.669123 -19.625656 -14.326394 33.921075 0.692274 2.006827 0.133409 -0.011888 853249.000000 0 0 1
-24.726123 -20.239656 -15.273894 35.416334 0.685952 2.016693 0.132261 -0.020257 -60712.100000 0 0 1
-24.573823 -19.804356 -16.650994 35.683903 0.678336 2.056267 0.117570 -0.027410 645164.000000 0 0 1
-25.571373 -20.449856 -17.445394 37.100317 0.674568 2.060339 0.122164 -0.033568 338652.000000 0 0 1
-25.728573 -19.794256 -18.858594 37.542225 0.655770 2.097088 0.123334 -0.023130 197151.000000 0 0 1
-24.707523 -20.233656 -19.743294 37.545442 0.686176 2.124511 0.125347 -0.029381 360083.000000 0 0 1
-24.854623 -19.634356 -21.045994 38.028859 0.668594 2.157263 0.125070 -0.029520 72215.900000 0 0 1
-23.521623 -18.931256 -21.391994 37.003738 0.677688 2.187199 0.102311 -0.026451 38005.900000 0 0 1
-22.394823 -19.761956 -21.496294 36.798827 0.723025 2.194637 0.085361 -0.025809 -792513.000000 0 0 1
-21.416423 -19.106256 -22.214294 36.293072 0.728451 2.229486 0.083429 -0.017560 -19603.400000 0 0 1
-20.059723 -19.877256 -22.315294 35.992640 0.780829 2.239534 0.073557 -0.012745 433138.000000 0 0 1
-20.068623 -20.966956 -23.213194 37.164705 0.807286 2.245420 0.065876 -0.008723 614838.000000 0 0 1
-18.726423 -21.482056 -23.211194 36.754826 0.853825 2.254301 0.066497 -0.007942 732034.000000 0 0 1
-18.569623 -22.846656 -23.859894 37.895846 0.888303 2.251857 0.069446 -0.016744 -182269.000000 0 0 1
-18.525923 -22.638956 -25.285094 38.666111 0.884984 2.283569 0.059261 -0.018170 81742.800000 0 0 1
-18.564923 -23.838556 -25.990784 39.855414 0.909131 2.281183 0.072750 -0.030433 -49531.800000 0 0 1
-18.458723 -23.673556 -27.498634 40.710399 0.908545 2.312398 0.080152 -0.021897 -288552.000000 0 0 1
-17.183423 -23.365756 -27.978644 40.299294 0.936698 2.338203 0.054967 -0.023548 -562623.000000 0 0 1
-17.132823 -23.476456 -29.390624 41.333841 0.940357 2.361793 0.093092 -0.032395 -88049.400000 0 0 1
-15.744123 -23.125356 -29.959844 40.990874 0.973062 2.390422 0.054602 -0.032755 156583.000000 0 0 1
-14.758423 -24.033256 -29.528664 40.833203 1.020086 2.379153 0.070439 -0.033856 26788.600000 0 0 1
-13.481423 -23.884756 -30.123754 40.739059 1.056937 2.403022 0.111603 -0.045076 1365530.000000 0 0 1
-12.478523 -25.085056 -29.788704 40.894260 1.109192 2.386827 0.116923 -0.041984 30885.200000 0 0 1
-12.986623 -26.193956 -30.522954 42.266139 1.110525 2.377718 0.098716 -0.028500 690023.000000 0 0 1
-12.245823 -27.432556 -30.295184 42.665015 1.150942 2.360395 0.113030 -0.035624 1294550.000000 0 0 1
-10.757123 -27.428856 -30.821244 42.638093 1.197047 2.378724 0.146292 -0.047114 378876.000000 0 0 1
-9.931523 -26.600156 -30.091994 41.373078 1.213461 2.385224 0.199349 -0.063400 121924.000000 0 0 1
-8.651123 -26.395656 -30.737544 41.429087 1.254081 2.406743 0.183551 -0.056473 1144530.000000 0 0 1
-7.711723 -25.359956 -30.025274 40.051407 1.275591 2.418357 0.244524 -0.071415 200989.000000 0 0 1
-8.064323 -23.998256 -30.096794 39.328954 1.246614 2.442238 0.255838 -0.062150 -261758.000000 0 0 1
-8.890823 -23.518856 -29.068604 38.433932 1.209372 2.428476 0.227461 -0.046715 -167867.000000 0 0 1
-9.206323 -22.040156 -29.314304 37.813401 1.175119 2.457885 0.236935 -0.061619 -214676.000000 0 0 1
-10.274123 -21.823256 -30.191584 38.643808 1.130790 2.467508 0.217028 -0.059451 -181245.000000 0 0 1
-10.479923 -20.418456 -30.284094 37.998270 1.096599 2.493085 0.221067 -0.057059 -51559.700000 0 0 1
-11.544823 -20.040656 -31.319724 38.933738 1.048158 2.505523 0.181967 -0.057243 -212319.000000 0 0 1
-12.075823 -18.767756 -31.136674 38.308572 0.999050 2.519715 0.172684 -0.055732 248516.000000 0 0 1
-13.031423 -18.464256 -32.172184 39.316615 0.956212 2.529217 0.155199 -0.046486 -78652.500000 0 0 1
-13.845223 -17.252356 -31.759244 38.703793 0.894526 2.533207 0.159845 -0.041297 -474373.000000 0 0 1
-13.333623 -15.950756 -32.049544 38.201903 0.874531 2.566150 0.167921 -0.039068 843143.000000 0 0 1
-12.236823 -15.453656 -31.229644 36.930286 0.901051 2.578555 0.144043 -0.036839 857551.000000 0 0 1
-11.960523 -13.954356 -31.365174 36.353161 0.862185 2.611561 0.118496 -0.029692 2114.530000 0 0 1
-11.425423 -13.342356 -32.576164 37.010340 0.862640 2.647061 0.127571 -0.035380 197620.000000 0 0 1
-12.159923 -13.632356 33.617792 38.260434 0.842424 0.497755 0.142999 -0.036214 -108392.000000 0 0 1
-12.861623 -12.375456 32.952811 37.476139 0.766137 0.496404 0.127569 -0.028253 395383.000000 0 0 1
-13.913323 -11.770356 33.670132 38.285763 0.702154 0.496106 0.103984 -0.022900 121014.000000 0 0 1
-14.778123 -10.970956 32.892516 37.691808 0.638605 0.510152 0.079047 -0.026211 198575.000000 0 0 1
-15.778123 -10.168056 -33.661814 38.541617 0.572457 2.632914 0.090350 -0.024763 -61539.600000 0 0 1
-15.070723 -9.179156 -32.963944 37.389908 0.547063 2.650094 0.086556 -0.027596 -141827.000000 0 0 1
-15.888423 -8.515156 -32.057034 36.777756 0.491980 2.629339 0.094123 -0.036760 -127633.000000 0 0 1
-15.093923 -7.405956 -31.374884 35.595759 0.456146 2.649661 0.095216 -0.050655 -271275.000000 0 0 1
-14.953223 -6.154856 -32.019854 35.871328 0.390472 2.673944 0.092299 -0.054621 171080.000000 0 0 1
-16.095523 -5.324056 -31.978704 36.194599 0.319450 2.654124 0.099116 -0.046053 59381.200000 0 0 1
-16.504723 -4.651156 -30.635284 35.107831 0.274684 2.631308 0.109372 -0.057649 -176109.000000 0 0 1
-16.857223 -5.591556 -29.602624 34.521686 0.320281 2.601203 0.110946 -0.064492 117368.000000 0 0 1
-17.181023 -4.911756 -28.419844 33.570827 0.278455 2.580292 0.119118 -0.072516 673557.000000 0 0 1
-15.895223 -4.462656 -27.621884 32.179837 0.273708 2.602861 0.116250 -0.071253 850002.000000 0 0 1
-15.313423 -3.277556 -28.145144 32.208577 0.210850 2.633841 0.107699 -0.061261 360936.000000 0 0 1
-14.005623 -3.036356 -27.621194 31.117637 0.213492 2.662987 0.101943 -0.057721 600532.000000 0 0 1
-13.490023 -1.734556 -28.329624 31.425420 0.127879 2.693991 0.068199 -0.033689 -7988.840000 0 0 1
-13.431723 -1.994556 -29.718474 32.673799 0.147419 2.712998 0.061651 -0.033298 48424.400000 0 0 1
-13.248923 -0.785556 -30.495214 33.258219 0.059223 2.731096 0.040493 -0.028060 -143436.000000 0 0 1
-13.768123 -0.991556 -31.948354 34.802898 0.071894 2.733753 0.049893 -0.031612 -692991.000000 0 0 1
-15.090923 -1.442556 -31.919014 35.336106 0.095301 2.698191 0.058903 -0.040958 -421690.000000 0 0 1
-15.456823 -1.651556 -33.245064 36.699800 0.106446 2.704214 0.059574 -0.034698 -663551.000000 0 0 1
-16.935823 -1.762556 -33.597704 37.666091 0.103699 2.672520 0.060923 -0.042313 -488939.000000 0 0 1
-17.079823 -1.950556 32.358509 36.641481 0.113710 0.488343 0.080088 -0.036054 -21466.400000 0 0 1
-18.400323 -1.782556 31.908232 36.876614 0.096575 0.525107 0.084595 -0.035847 -146579.000000 0 0 1
-18.423023 -1.757556 30.384362 35.576765 0.095112 0.547073 0.097478 -0.024276 31790.800000 0 0 1
-18.097423 -0.522556 29.753592 34.829097 0.028867 0.546644 0.108704 -0.010508 -136856.000000 0 0 1
-18.123623 -0.596556 28.371512 33.671416 0.032904 0.568705 0.112754 -0.022121 37588.600000 0 0 1
-17.637123 0.722444 27.616602 32.776008 -0.040939 0.568730 0.094860 -0.021906 368552.000000 0 0 1
-18.345923 1.923444 27.977682 33.511538 -0.104461 0.582905 0.096708 -0.018636 -47613.400000 0 0 1
-19.573823 2.209444 27.373412 33.724173 -0.112402 0.623765 0.111199 -0.025352 -322561.000000 0 0 1
-19.466923 3.004444 26.027552 32.640791 -0.153128 0.647833 0.122433 -0.026266 -702685.000000 0 0 1
-18.855023 4.279444 26.132132 32.507135 -0.223185 0.636991 0.122344 -0.022667 229846.000000 0 0 1
-19.125623 5.152444 25.011122 31.904441 -0.263153 0.669812 0.121174 -0.021470 -687857.000000 0 0 1
-18.761523 6.656444 25.089322 32.027754 -0.340938 0.670740 0.125815 -0.018981 870777.000000 0 0 1
-17.377023 7.036444 25.072792 31.306826 -0.384747 0.642045 0.123027 -0.016952 764863.000000 0 0 1
-16.797323 6.893444 23.786062 29.924010 -0.389431 0.651983 0.092711 -0.019412 217854.000000 0 0 1
-15.461723 7.669444 23.574162 29.216884 -0.460465 0.631966 0.081470 -0.021980 -213060.000000 0 0 1
-14.399023 7.373444 24.404492 29.279323 -0.473264 0.585373 0.077309 -0.021599 -658534.000000 0 0 1
-13.316023 8.065444 23.824442 28.460005 -0.544596 0.578799 0.055913 -0.025100 232573.000000 0 0 1
-11.958923 8.092444 24.591342 28.517320 -0.594907 0.530943 0.034622 -0.010244 655288.000000 0 0 1
-10.895723 8.838444 24.032522 27.827989 -0.681524 0.528410 0.011827 -0.014469 596839.000000 0 0 1
-9.682423 8.794444 24.772562 28.013771 -0.737376 0.485805 0.027568 -0.016804 273709.000000 0 0 1
-9.474623 10.077444 25.634762 29.128412 -0.816220 0.494807 0.036602 -0.027017 -557857.000000 0 0 1
-10.411523 10.226444 26.700782 30.428797 -0.776431 0.500206 0.033298 -0.024490 519494.000000 0 0 1
-10.462423 11.489444 27.300022 31.412749 -0.832149 0.517468 0.040508 -0.025541 -557744.000000 0 0 1
-11.009223 12.652444 26.405152 31.281294 -0.854733 0.565875 0.037066 -0.032046 1011390.000000 0 0 1
-12.438123 12.697444 26.171432 31.636621 -0.795715 0.596599 0.061150 -0.030908 1053230.000000 0 0 1
-12.898823 11.848444 25.197882 30.687106 -0.742979 0.607421 0.052174 -0.021911 270145.000000 0 0 1
-14.458023 11.641444 25.159032 31.265548 -0.677897 0.635645 0.076083 -0.022268 669817.000000 0 0 1
-15.122423 12.825444 24.745492 31.709920 -0.703394 0.675538 0.079036 -0.028366 547488.000000 0 0 1
-16.479223 12.579444 24.355822 31.984578 -0.651992 0.705193 0.099980 -0.016346 446834.000000 0 0 1
-16.648423 12.280444 22.826652 30.806417 -0.635540 0.736282 0.085056 -0.005692 -222521.000000 0 0 1
-16.314723 10.950444 22.519922 29.886941 -0.591135 0.717421 0.086850 -0.011158 43175.300000 0 0 1
-16.427923 10.853444 21.123782 28.877120 -0.583840 0.750268 0.074865 -0.004628 -96159.200000 0 0 1
-16.640623 9.461444 20.453282 28.013675 -0.516992 0.752302 0.069165 -0.015049 896930.000000 0 0 1
-18.011423 9.044444 20.435882 28.702588 -0.465366 0.778472 0.090207 -0.004055 366783.000000 0 0 1
-18.184623 7.657444 20.116182 28.177610 -0.398558 0.775735 0.088328 -0.007961 -853322.000000 0 0 1
-19.672323 7.377444 20.172982 29.126897 -0.358785 0.805724 0.139583 -0.014692 -778413.000000 0 0 1
-20.141123 7.658444 21.472782 30.420338 -0.363356 0.787147 0.129242 -0.013202 -705227.000000 0 0 1
-21.537623 7.603444 21.442382 31.328219 -0.339372 0.816957 0.114325 -0.017953 -588811.000000 0 0 1
-22.176523 8.033444 22.762022 32.778713 -0.347546 0.803190 0.118309 -0.002138 -509571.000000 0 0 1
-22.184723 9.431444 23.025032 33.335659 -0.401983 0.808336 0.113139 -0.003895 -597044.000000 0 0 1
-21.034523 10.166444 23.265732 32.971230 -0.450216 0.787474 0.127747 -0.004183 -554928.000000 0 0 1
-20.292723 9.997444 24.598062 33.418679 -0.457760 0.743569 0.137608 -0.013083 140989.000000 0 0 1
-21.113923 10.377444 25.705562 34.846305 -0.456823 0.741163 0.126000 -0.013129 396571.000000 0 0 1
-20.542823 9.984444 26.941672 35.320679 -0.452410 0.703205 0.135961 -0.020393 18722.100000 0 0 1
-32.412443 -13.391797 19.796282 40.271571 0.391807 1.056905 0.094066 0.000223 444468.000000 0 0 1
-31.452133 -14.471697 19.768482 39.868026 0.431236 1.051985 0.099006 -0.008920 562134.000000 0 0 1
-31.854763 -15.569197 18.958382 40.206293 0.454612 1.079774 0.101051 0.001181 -3718.980000 0 0 1
-31.694233 -15.424997 17.364582 39.293557 0.452936 1.113059 0.118082 0.002399 -89945.300000 0 0 1
-32.581173 -14.498497 16.771082 39.408228 0.418685 1.131201 0.117133 -0.007338 -152659.000000 0 0 1
-32.153173 -14.053597 15.530182 38.373384 0.412060 1.154132 0.120289 -0.008243 -1128850.000000 0 0 1
-33.035953 -12.902697 15.000282 38.507950 0.372347 1.170667 0.123355 -0.021071 762990.000000 0 0 1
-34.361398 -13.314697 14.598782 39.637245 0.369676 1.193606 0.124504 -0.021526 608522.000000 0 0 1
-35.287078 -13.577797 15.577482 40.892449 0.367318 1.179986 0.115782 -0.019962 -1238320.000000 0 0 1
-35.915658 -12.366097 16.305282 41.336630 0.331596 1.165326 0.112235 -0.018968 -936112.000000 0 0 1
-37.043693 -12.715497 17.021882 42.704373 0.330655 1.160809 0.088065 -0.021776 -235574.000000 0 0 1
-37.822493 -11.603297 17.493482 43.257362 0.297668 1.154468 0.082958 -0.008347 556887.000000 0 0 1
37.711875 -11.995397 18.713482 43.775216 -0.307960 1.129081 0.079648 0.003598 -110607.000000 0 0 1
-37.886143 -12.144997 19.851582 44.462861 0.310216 1.107974 0.070334 0.000349 2306.050000 0 0 1
37.760135 -11.961397 20.997782 44.830901 -0.306773 1.083343 0.073450 -0.010687 -740996.000000 0 0 1
-37.841143 -12.326897 22.297932 45.619099 0.314914 1.060100 0.063659 -0.016295 209623.000000 0 0 1
-36.701303 -11.548697 22.534592 44.588853 0.304858 1.040967 0.061732 -0.014808 -132644.000000 0 0 1
-35.496048 -12.136797 22.059582 43.518920 0.329458 1.039216 0.066662 -0.018080 -81799.400000 0 0 1
-34.333865 -11.129997 22.204882 42.376265 0.313481 1.019264 0.090892 -0.023741 -347389.000000 0 0 1
-34.313410 -10.113197 21.238582 41.602454 0.286615 1.035015 0.116610 -0.026839 -124681.000000 0 0 1
-33.112353 -9.380797 21.238982 40.441582 0.276068 1.017873 0.137986 -0.034543 -263465.000000 0 0 1
-33.160643 -8.177197 20.246582 39.704141 0.241770 1.035686 0.144551 -0.031167 -21040.900000 0 0 1
-33.433343 -8.471397 18.892682 39.325391 0.248159 1.069663 0.149444 -0.022971 141793.000000 0 0 1
-34.831915 -8.471097 18.665482 40.415616 0.238568 1.090730 0.145363 -0.030841 -171644.000000 0 0 1
-35.170429 -8.701497 17.188282 40.101273 0.242539 1.127829 0.145057 -0.031179 -59417.700000 0 0 1
-36.530053 -8.378297 16.980482 41.145806 0.225454 1.145391 0.070525 -0.024455 122724.000000 0 0 1
-36.954503 -8.372997 15.624682 40.986254 0.222814 1.179683 0.087643 -0.022321 729481.000000 0 0 1
37.916745 -8.194297 15.324882 41.709448 -0.212840 1.194563 0.106474 -0.032131 985645.000000 0 0 1
37.188395 -9.364497 15.697782 41.437796 -0.246684 1.182267 0.091227 -0.008271 432132.000000 0 0 1
35.784325 -9.118897 15.631582 40.100107 -0.249519 1.170367 0.100295 -0.012004 521030.000000 0 0 1
34.930315 -10.410397 15.711382 39.690689 -0.289651 1.163808 0.086115 -0.014828 14370.400000 0 0 1
35.062765 -11.159297 16.913582 40.496872 -0.308129 1.139937 0.070207 -0.022449 -44730.600000 0 0 1
33.965475 -12.026197 17.102582 39.884599 -0.340297 1.127630 0.098537 -0.023702 33987.200000 0 0 1
33.677265 -12.565997 18.505182 40.429002 -0.357130 1.095367 0.106894 -0.024406 -206357.000000 0 0 1
34.661185 -13.444297 18.983482 41.743496 -0.370013 1.098688 0.091868 -0.013535 -252007.000000 0 0 1
34.436055 -13.497697 20.412782 42.245845 -0.373560 1.066501 0.124546 -0.017634 -357043.000000 0 0 1
35.296565 -14.469797 21.191082 43.638108 -0.389054 1.063736 0.109489 -0.017442 -429504.000000 0 0 1
35.211945 -14.342197 22.584462 44.222592 -0.386793 1.034798 0.118145 -0.022582 -57974.900000 0 0 1
35.733765 -15.524297 23.168062 45.328411 -0.409842 1.034314 0.106017 -0.009657 415648.000000 0 0 1
36.440045 -15.534497 24.587242 46.623277 -0.402974 1.015306 0.115240 -0.000817 -95691.600000 0 0 1
37.657145 -14.859697 24.606272 47.374464 -0.375847 1.024648 0.113361 -0.002769 -382188.000000 0 0 1
38.105965 -14.513297 25.898422 48.305576 -0.363904 1.004942 0.111797 -0.010065 59758.500000 0 0 1
-37.018903 -13.644797 25.853342 47.169640 0.353139 0.990714 0.088391 -0.017788 155236.000000 0 0 1
-35.822164 -14.341597 25.523072 46.263765 0.380813 0.986412 0.036707 -0.008902 -179890.000000 0 0 1
-34.794095 -13.398197 25.552752 45.200485 0.367571 0.969975 0.066670 -0.017622 -302577.000000 0 0 1
-33.418853 -13.931397 25.090182 44.050207 0.394966 0.964800 0.043936 -0.010686 -624207.000000 0 0 1
-33.199833 -14.064397 23.729672 43.164030 0.400708 0.988725 0.058489 -0.005948 800032.000000 0 0 1
-31.909213 -14.639797 23.436332 42.211173 0.430144 0.982173 0.066203 -0.016512 744602.000000 0 0 1
-31.730893 -16.136897 23.852432 42.850758 0.470468 0.980461 0.075561 -0.017935 -919091.000000 0 0 1
-31.714873 -16.303397 25.286852 43.715658 0.474833 0.953982 0.066817 -0.019073 106188.000000 0 0 1
-31.656953 -17.677997 25.639372 44.407788 0.509288 0.955302 0.084430 -0.025889 -192829.000000 0 0 1
-31.425593 -17.947997 27.121472 45.224691 0.518919 0.927664 0.073339 -0.033974 38330.700000 0 0 1
-30.119133 -17.578897 27.530412 44.430883 0.528307 0.902534 0.079283 -0.036287 252156.000000 0 0 1
-29.841313 -17.914897 28.889932 45.233567 0.540669 0.878010 0.073798 -0.046859 428465.000000 0 0 1
-28.456623 -17.418697 29.417362 44.481137 0.549279 0.848186 0.100164 -0.052604 283039.000000 0 0 1
-28.419683 -16.036497 29.799392 44.191078 0.513736 0.830739 0.100520 -0.048957 505907.000000 0 0 1
-27.236133 -15.339297 29.378332 42.897405 0.512918 0.816397 0.094366 -0.041544 319662.000000 0 0 1
-26.991093 -13.957597 29.966182 42.676758 0.477249 0.792361 0.100775 -0.040439 -384473.000000 0 0 1
-26.731323 -13.912297 31.326801 43.468196 0.479873 0.766009 0.105055 -0.041640 247602.000000 0 0 1
-26.323893 -12.614297 31.718273 43.105877 0.446866 0.743916 0.105024 -0.028307 286206.000000 0 0 1
-25.537053 -12.516597 33.103911 43.642584 0.455724 0.709753 0.111836 -0.024701 1813360.000000 0 0 1
-24.156523 -12.988697 33.159443 43.032458 0.493342 0.691064 0.092949 -0.017283 1371840.000000 0 0 1
-23.908523 -14.331997 33.562622 43.628811 0.540016 0.693088 0.096678 -0.027051 -22194.200000 0 0 1
-23.981423 -14.585097 -32.233144 42.741189 0.546415 2.425151 0.100734 -0.033174 420642.000000 0 0 1
-22.833323 -14.187297 -31.439104 41.364928 0.555964 2.434175 0.080636 -0.019234 815676.000000 0 0 1
-22.664023 -15.118597 -30.365584 40.795816 0.588285 2.410329 0.086542 -0.023413 324518.000000 0 0 1
-21.231323 -15.004297 -29.759354 39.516037 0.615212 2.423551 0.092167 -0.015747 327682.000000 0 0 1
-20.898923 -13.968597 -28.832364 38.251691 0.589194 2.424552 0.076699 -0.015207 95282.900000 0 0 1
-21.667323 -13.891197 -27.643494 37.770372 0.570102 2.391878 0.084659 -0.008881 -115055.000000 0 0 1
-21.158823 -12.720197 -26.789104 36.430143 0.541284 2.396987 0.087611 -0.011607 461032.000000 0 0 1
-19.834523 -12.939897 -26.292534 35.385683 0.578055 2.408379 0.081584 -0.015162 475764.000000 0 0 1
-19.371823 -11.653297 -25.815454 34.314786 0.541565 2.422362 0.090922 -0.023240 1080490.000000 0 0 1
-17.929623 -11.703097 -25.167954 33.043301 0.578288 2.436676 0.095726 -0.031521 544980.000000 0 0 1
-17.900923 -12.322597 -23.871894 32.282453 0.602883 2.403079 0.107285 -0.025600 1220260.000000 0 0 1
-16.678323 -12.259397 -23.061094 30.988277 0.633864 2.410114 0.103574 -0.036595 1871860.000000 0 0 1
-15.436123 -13.124097 -23.534594 31.054676 0.704622 2.430798 0.090765 -0.022632 510794.000000 0 0 1
-14.746023 -12.536197 -24.635994 31.329437 0.704576 2.475679 0.099384 -0.049623 202855.000000 0 0 1
-14.406223 -13.389597 -25.719274 32.377486 0.748840 2.488744 0.111705 -0.049863 -372781.000000 0 0 1
-13.399323 -12.766497 -26.690694 32.479508 0.761218 2.535307 0.123613 -0.051439 -19693.600000 0 0 1
-14.004223 -11.882697 -27.611974 33.162296 0.703627 2.554639 0.104290 -0.051397 -224830.000000 0 0 1
-13.075723 -11.402997 -28.514364 33.377715 0.717170 2.594986 0.113225 -0.061067 -418730.000000 0 0 1
-13.743423 -10.507397 -29.626634 34.307791 0.652742 2.613072 0.084620 -0.048899 24252.900000 0 0 1
-12.879223 -9.647597 -30.335494 34.339376 0.642913 2.653871 0.071429 -0.043119 -385785.000000 0 0 1
-12.037823 -10.266497 -31.254764 35.030992 0.706148 2.672997 0.096791 -0.036276 -523566.000000 0 0 1
-11.081923 -9.301797 -31.941074 35.065149 0.698288 2.716272 0.070750 -0.027654 -73009.000000 0 0 1
-9.996723 -8.821997 -31.155824 33.888752 0.723056 2.737237 0.085269 -0.028262 -8837.330000 0 0 1
-9.385123 -7.730897 -31.811624 34.056229 0.689050 2.776501 0.064338 -0.026417 -302159.000000 0 0 1
-7.879823 -7.554097 -31.553004 33.387843 0.764297 2.808528 0.095820 -0.024571 -419507.000000 0 0 1
-7.394523 -7.414697 -30.206314 31.969957 0.786760 2.807885 0.080807 -0.024857 -144345.000000 0 0 1
-7.835523 -6.383897 -29.336734 31.028915 0.683663 2.809814 0.081621 -0.022930 -763151.000000 0 0 1
-7.518023 -4.983097 -29.834874 31.168440 0.585335 2.848013 0.063653 -0.025019 1277720.000000 0 0 1
-6.120423 -4.682797 -29.575644 30.563163 0.653102 2.886696 0.074180 -0.029904 1173700.000000 0 0 1
-5.601423 -3.586697 -30.309004 31.030245 0.569539 2.925566 0.103114 -0.042289 919073.000000 0 0 1
-4.088723 -3.261297 -29.989144 30.441789 0.673295 2.968930 0.129214 -0.039195 129738.000000 0 0 1
-3.306123 -4.395697 -30.264014 30.759765 0.925935 2.961813 0.125072 -0.034616 -1310540.000000 0 0 1
-1.966523 -4.263797 -29.984204 30.349624 1.138656 2.986257 0.156659 -0.040830 -967571.000000 0 0 1
-1.133023 -3.376897 -30.931834 31.136242 1.247077 3.026944 0.148228 -0.031315 -828412.000000 0 0 1
0.040477 -2.819897 -30.353834 30.484565 -1.556443 3.048948 0.112395 -0.037855 181033.000000 0 0 1
0.453277 -1.783997 -31.237234 31.291419 -1.321982 3.082735 0.104872 -0.027965 382196.000000 0 0 1
1.360077 -0.713697 -30.558124 30.596702 -0.483249 3.091371 0.097313 -0.048210 819572.000000 0 0 1
0.543077 -0.025297 -29.577674 29.582671 -0.046546 3.123214 0.114192 -0.044611 520102.000000 0 0 1
1.185477 1.178803 -29.181244 29.229094 0.782575 3.084365 0.139747 -0.057469 -358892.000000 0 0 1
0.375277 2.058703 -28.270264 28.347609 1.390488 3.067705 0.114640 -0.053025 284576.000000 0 0 1
-0.830223 2.518803 -28.915054 29.036426 -1.252401 3.050128 0.081102 -0.063598 860179.000000 0 0 1
-1.545423 3.393903 -27.962504 28.210079 -1.143500 3.009011 0.147564 -0.060976 268303.000000 0 0 1
-2.920423 3.827403 -28.497844 28.901644 -0.919008 2.974236 0.176058 -0.060309 -83518.700000 0 0 1
-2.780323 4.635203 -29.672944 30.161216 -1.030504 2.961412 0.168711 -0.066179 163203.000000 0 0 1
-4.028623 4.968503 -30.249044 30.917964 -0.889485 2.933200 0.189173 -0.048350 -171213.000000 0 0 1
-3.710023 5.685103 -31.601104 32.322043 -0.992605 2.929988 0.187970 -0.040429 101607.000000 0 0 1
-3.555823 4.916803 -32.769624 33.326673 -0.944670 2.958499 0.210634 -0.046412 854231.000000 0 0 1
-2.384823 4.058303 -32.722754 33.059581 -1.039514 2.998723 0.186726 -0.048895 393403.000000 0 0 1
-2.085923 3.553003 33.191121 33.445858 -1.039926 0.123500 0.156101 -0.044849 -376869.000000 0 0 1
-2.919423 2.487103 32.807116 33.030525 -0.705605 0.116373 0.148256 -0.049884 -62249.100000 0 0 1
-2.697923 1.929903 31.489993 31.664222 -0.620940 0.104952 0.136180 -0.040764 -278510.000000 0 0 1
-2.803623 2.874203 30.282492 30.547515 -0.797828 0.131821 0.131864 -0.041325 -756859.000000 0 0 1
-4.087623 3.290703 29.996542 30.452092 -0.677807 0.173188 0.118618 -0.039516 -607384.000000 0 0 1
-3.971223 4.227703 28.935092 29.510737 -0.816670 0.197839 0.111315 -0.045125 187488.000000 0 0 1
-5.159323 5.207403 28.883352 29.799055 -0.790036 0.248548 0.116494 -0.033007 64391.800000 0 0 1
-5.333923 5.755203 27.604982 28.698573 -0.823370 0.276950 0.108926 -0.027723 177663.000000 0 0 1
-6.472323 6.611503 27.598682 29.108249 -0.796035 0.323466 0.086914 -0.024942 -188542.000000 0 0 1
-6.412323 7.369003 26.308712 28.063649 -0.854706 0.355519 0.076625 -0.027142 412744.000000 0 0 1
-5.405323 8.402203 26.283512 28.118277 -0.999130 0.363246 0.094791 -0.028987 483370.000000 0 0 1
-5.440123 9.063003 25.027352 27.168020 -1.030189 0.399627 0.083216 -0.023387 -122784.000000 0 0 1
-4.726923 10.384903 25.057712 27.533233 -1.143649 0.427296 0.081967 -0.023171 -952509.000000 0 0 1
-4.836223 11.146903 23.784442 26.708466 -1.161443 0.472308 0.083700 -0.025127 390312.000000 0 0 1
-4.196423 12.413403 23.862602 27.223635 -1.244802 0.502171 0.080081 -0.013298 -1545430.000000 0 0 1
-2.695123 12.557503 23.926952 27.156097 -1.359381 0.492635 0.070720 -0.007679 -1118040.000000 0 0 1
-2.013223 12.017103 25.052902 27.858782 -1.404808 0.452671 0.081725 -0.004537 43957.600000 0 0 1
-2.271223 12.699203 26.299532 29.293235 -1.393820 0.456043 0.080674 -0.008191 -757147.000000 0 0 1
-1.501423 12.122603 27.508232 30.098415 -1.447571 0.417901 0.106805 -0.019952 -222132.000000 0 0 1
-0.130523 12.388303 27.454952 30.120781 -1.560261 0.423891 0.121101 -0.014494 -675119.000000 0 0 1
0.542377 12.037403 28.656712 31.086981 1.525769 0.398037 0.135177 -0.039445 -119634.000000 0 0 1
2.042577 12.326103 28.542162 31.157021 1.406577 0.412616 0.128184 -0.029026 -268649.000000 0 0 1
2.431577 13.691203 28.442242 31.659481 1.395028 0.454729 0.122641 -0.029407 709620.000000 0 0 1
3.842477 13.802503 28.174942 31.608560 1.299281 0.470436 0.147822 -0.033907 1046340.000000 0 0 1
4.375877 15.241503 28.373102 32.503610 1.291213 0.509637 0.147610 -0.037457 -183781.000000 0 0 1
4.386677 15.703403 29.728942 33.906486 1.298395 0.501646 0.165018 -0.031953 341796.000000 0 0 1
3.409077 16.715803 29.977332 34.491743 1.369612 0.517384 0.155466 -0.025919 278025.000000 0 0 1
3.811377 18.095603 29.375382 34.711533 1.363206 0.561849 0.153818 -0.014111 309173.000000 0 0 1
5.077677 18.533503 29.851142 35.501609 1.303385 0.571965 0.177078 -0.012681 316692.000000 0 0 1
5.466777 19.646703 29.015352 35.465043 1.299407 0.612628 0.163326 -0.015802 -773471.000000 0 0 1
6.693577 20.343803 29.501072 36.455282 1.252930 0.627939 0.167791 -0.014593 -917465.000000 0 0 1
6.383977 21.187503 30.624822 37.782869 1.278139 0.625709 0.167790 -0.023467 638338.000000 0 0 1
7.521777 21.732103 31.297541 38.838094 1.237588 0.633693 0.150797 -0.028352 430342.000000 0 0 1
7.995977 23.144103 30.825272 39.367278 1.238148 0.671294 0.144933 -0.017821 94376.300000 0 0 1
8.341177 23.188003 29.440282 38.392564 1.225489 0.696920 0.107369 -0.013233 162308.000000 0 0 1
8.390977 24.491703 28.946422 38.834873 1.240725 0.729704 0.104444 -0.017634 -44170.400000 0 0 1
8.724977 24.604303 27.425262 37.863465 1.230019 0.760749 0.123577 -0.019059 -266482.000000 0 0 1
7.717477 24.251103 26.529292 36.762465 1.262698 0.764627 0.116663 -0.016288 126888.000000 0 0 1
8.287577 24.074103 25.246392 35.855637 1.239251 0.789624 0.135503 -0.027116 -124303.000000 0 0 1
31.270565 2.138303 7.761106 32.290174 0.068274 1.328065 0.238813 -0.030096 110635.000000 0 0 1
30.532065 3.325103 7.530706 31.622379 0.108478 1.330341 0.227013 -0.049727 551105.000000 0 0 1
29.357465 3.494503 8.327606 30.715165 0.118475 1.296236 0.221693 -0.047440 234291.000000 0 0 1
29.622965 4.210603 9.730406 31.463154 0.141194 1.256378 0.183656 -0.045764 -363550.000000 0 0 1
29.621565 5.649503 9.751506 31.692994 0.188459 1.258036 0.194835 -0.043024 -148019.000000 0 0 1
30.686865 6.272503 9.097306 32.615778 0.201626 1.288123 0.207011 -0.047027 -419131.000000 0 0 1
30.239865 7.552903 8.392306 32.278888 0.244759 1.307781 0.227136 -0.050627 347091.000000 0 0 1
29.279565 7.388403 7.350006 31.078997 0.247180 1.332040 0.207193 -0.055241 39854.200000 0 0 1
29.152265 8.591503 6.614306 31.103337 0.286598 1.356504 0.213544 -0.066095 386663.000000 0 0 1
27.936865 8.750403 5.625306 29.810771 0.303541 1.380958 0.200856 -0.054415 1342060.000000 0 0 1
26.749965 9.303903 6.237106 29.000427 0.334722 1.354033 0.194403 -0.046245 434130.000000 0 0 1
25.656965 9.224903 5.360606 27.786954 0.345155 1.376661 0.214250 -0.054059 398514.000000 0 0 1
24.369465 9.994903 5.786106 26.967535 0.389217 1.354557 0.165452 -0.045853 436915.000000 0 0 1
24.497865 11.383103 5.786006 27.626044 0.434976 1.359794 0.153940 -0.036468 620338.000000 0 0 1
23.201665 11.981603 5.908106 26.772781 0.476690 1.348289 0.160593 -0.031615 583649.000000 0 0 1
23.133465 13.506103 6.030906 27.458038 0.528448 1.349350 0.145161 -0.018193 -162959.000000 0 0 1
23.491165 14.163803 4.843106 27.855051 0.542580 1.396040 0.150038 -0.032807 357236.000000 0 0 1
23.371765 15.568303 4.987706 28.521723 0.587621 1.395019 0.177868 -0.030415 -88332.200000 0 0 1
22.724665 16.416703 3.836106 28.295482 0.625614 1.434804 0.150395 -0.038710 513051.000000 0 0 1
21.312365 16.317103 3.664206 27.090426 0.653421 1.435122 0.185014 -0.028208 631517.000000 0 0 1
20.860765 17.323903 2.816306 27.262075 0.693037 1.467307 0.167153 -0.026902 -921755.000000 0 0 1
19.369265 17.365803 2.579606 26.141804 0.730914 1.471958 0.175360 -0.023619 -1085020.000000 0 0 1
18.604665 17.958103 3.582006 26.104747 0.767716 1.433145 0.184890 -0.033388 376194.000000 0 0 1
17.234165 17.989403 3.177706 25.114396 0.806836 1.443927 0.174494 -0.038829 357015.000000 0 0 1
16.353265 18.718803 4.207806 25.209691 0.852744 1.403099 0.175623 -0.049414 34051.300000 0 0 1
14.960265 18.581603 4.040106 24.195206 0.892946 1.403031 0.159225 -0.049058 135140.000000 0 1 0
14.181165 19.740103 4.194206 24.665127 0.947832 1.399920 0.123878 -0.042451 315969.000000 0 1 0
12.713465 19.556903 3.737406 23.623566 0.994368 1.411922 0.098696 -0.036041 19690.700000 0 1 0
11.869265 18.936103 4.663206 22.829826 1.010899 1.365089 0.080234 -0.040884 -921937.000000 0 1 0
10.568865 19.350703 4.386406 22.480907 1.070895 1.374420 0.059922 -0.023635 -464314.000000 0 1 0
9.478565 18.868503 5.361506 21.785531 1.105272 1.322138 0.032001 -0.021371 -192134.000000 0 1 0
9.691065 19.410903 6.620906 22.683393 1.107742 1.274601 0.051441 -0.026100 -312997.000000 0 1 0
9.288565 18.595403 7.678806 22.159209 1.107542 1.216928 0.052005 -0.025121 -637125.000000 0 1 0
8.341465 19.296003 8.687806 22.746291 1.162767 1.178898 0.032672 -0.025739 277952.000000 0 1 0
7.143465 19.640703 8.005506 22.380224 1.221963 1.204988 0.045015 -0.030922 5784.710000 0 1 0
7.148465 20.963003 7.544706 23.398091 1.242158 1.242480 0.057316 -0.028432 -555007.000000 0 1 0
6.018365 21.354403 6.508506 23.121244 1.296089 1.285445 0.061434 -0.023943 1087340.000000 0 1 0
4.654265 21.223003 6.917606 22.802003 1.354911 1.262562 0.075491 -0.037595 637061.000000 0 1 0
4.208765 22.112303 7.898306 23.854788 1.382710 1.233328 0.056487 -0.040507 -1046440.000000 0 1 0
4.102165 23.582203 7.473206 25.075823 1.398568 1.268174 0.071712 -0.031378 -408515.000000 0 0 1
3.115065 23.829003 6.493806 24.893665 1.440808 1.306882 0.064360 -0.027337 64366.800000 0 1 0
3.060365 25.190203 6.166006 26.113824 1.449899 1.332425 0.072356 -0.026310 -550487.000000 0 0 1
1.871265 25.582503 5.244806 26.181560 1.497780 1.369107 0.069537 -0.025423 -659426.000000 0 0 1
0.740465 25.657903 6.052506 26.372507 1.541945 1.339232 0.081954 -0.027214 -1037740.000000 0 0 1
-0.307835 26.058003 5.222706 26.578016 -1.558983 1.373004 0.095304 -0.018832 -855035.000000 0 0 1
-1.602435 26.576303 5.813406 27.251851 -1.510574 1.355823 0.104424 -0.018062 -180120.000000 0 0 1
-2.490035 26.955203 4.776206 27.488096 -1.478681 1.396155 0.131017 -0.018856 341671.000000 0 0 1
-3.649635 27.625603 5.270806 28.359746 -1.439446 1.383854 0.126722 -0.028924 722031.000000 0 0 1
-4.757635 28.080803 4.247006 28.795897 -1.402964 1.422770 0.123286 -0.035104 414024.000000 0 0 1
-4.332535 29.031403 3.290506 29.536768 -1.422654 1.459161 0.130248 -0.033849 -222365.000000 0 0 1
-5.311435 29.257803 2.321306 29.826479 -1.391213 1.492891 0.149598 -0.043233 -497521.000000 0 0 1
-4.720635 29.982903 1.097406 30.372079 -1.414634 1.534656 0.140989 -0.039907 247544.000000 0 0 1
-4.223035 31.338503 1.151906 31.642735 -1.436848 1.534385 0.139198 -0.041696 1016480.000000 0 0 1
-2.936935 31.321803 1.812106 31.511342 -1.477303 1.513258 0.135869 -0.037917 659773.000000 0 0 1
-2.211635 32.744603 1.975706 32.878622 -1.503357 1.510669 0.133836 -0.047968 -439157.000000 0 0 1
-1.775935 33.311303 0.775206 33.367616 -1.517533 1.547562 0.096865 -0.034496 828540.000000 0 0 1
-0.669835 -33.164956 0.899006 33.183900 1.550602 1.543701 0.098967 -0.037983 616676.000000 0 0 1
0.650665 -33.509256 1.552206 33.551497 -1.551381 1.524516 0.092580 -0.028599 -1212260.000000 0 0 1
0.613565 -33.630356 2.983106 33.767977 -1.552554 1.482340 0.085626 -0.032810 -187385.000000 0 0 1
1.895065 33.545203 3.516806 33.782242 1.514363 1.466505 0.077018 -0.026783 -51552.200000 0 0 1
1.931365 -33.617056 5.024306 34.045268 -1.513407 1.422678 0.084334 -0.033820 117902.000000 0 0 1
1.051965 32.954503 5.747406 33.468472 1.538885 1.398215 0.122231 -0.050892 -37687.500000 0 0 1
0.736565 33.452503 7.012206 34.187476 1.548782 1.364220 0.142727 -0.044312 -47229.100000 0 0 1
1.841165 33.351003 8.086306 34.366665 1.515647 1.333274 0.114933 -0.040026 -126726.000000 0 0 1
2.172265 32.047703 8.497406 33.226193 1.503118 1.312179 0.127914 -0.046385 -113723.000000 0 0 1
3.021465 32.022803 9.606806 33.569032 1.476721 1.280558 0.150392 -0.048050 -391940.000000 0 0 1
3.553165 30.639103 9.939106 32.406257 1.455344 1.259069 0.145165 -0.047599 46859.400000 0 0 1
2.614965 29.720303 10.468606 31.618447 1.483036 1.233336 0.172595 -0.052662 -98407.000000 0 0 1
3.215465 28.485203 10.504506 30.530160 1.458390 1.219548 0.133421 -0.054233 -362876.000000 0 0 1
2.682765 27.424703 11.522006 29.867511 1.473284 1.174753 0.127111 -0.058688 -638434.000000 0 0 1
2.831965 27.710103 12.926206 30.707599 1.468950 1.136310 0.141707 -0.049896 115368.000000 0 0 1
2.342765 26.679203 13.785606 30.121610 1.483209 1.095429 0.150001 -0.040925 961079.000000 0 0 1
0.769365 26.550303 13.809306 29.936724 1.541827 1.091355 0.106859 -0.038940 443946.000000 0 0 1
0.072665 27.581503 14.469006 31.146376 1.568162 1.087672 0.119724 -0.038745 26947.300000 0 0 1
-0.470635 28.556903 13.594806 31.631266 -1.554317 1.126536 0.152258 -0.042835 55388.700000 0 0 1
-1.123835 29.836203 14.222006 33.071551 -1.533147 1.126262 0.141030 -0.033247 533955.000000 0 0 1
-2.375235 29.557603 14.836806 33.157570 -1.490609 1.106869 0.128515 -0.032431 -100648.000000 0 0 1
-2.961735 30.753303 15.259006 34.458305 -1.474786 1.112049 0.149292 -0.026541 -960033.000000 0 0 1
-4.193935 30.478203 16.075606 34.712175 -1.434051 1.089294 0.143105 -0.021802 -351981.000000 0 0 1
-5.232035 29.823603 15.358606 33.951558 -1.397131 1.101377 0.134316 -0.034417 903368.000000 0 0 1
-6.480335 29.809003 16.078606 34.483227 -1.356732 1.085723 0.115007 -0.029499 215725.000000 0 0 1
-7.547035 28.950503 15.418906 33.657570 -1.315784 1.094927 0.107250 -0.032255 -30781.900000 0 0 1
-8.663935 28.830503 16.300506 34.234021 -1.278869 1.074526 0.109468 -0.035439 -25139.600000 0 0 1
-9.712635 28.063403 15.742306 33.611160 -1.237604 1.083356 0.099135 -0.028005 150026.000000 0 0 1
-10.847635 27.836103 16.765206 34.257728 -1.199204 1.059412 0.090432 -0.025122 -263625.000000 0 0 1
-11.461035 29.033203 17.122906 35.601631 -1.194819 1.069049 0.073402 -0.032683 -336446.000000 0 0 1
-11.987135 28.958603 18.429706 36.358577 -1.178330 1.039226 0.095905 -0.031823 -12483.100000 0 0 1
-12.894635 30.181003 18.781406 37.814095 -1.167027 1.051030 0.087883 -0.027184 -739994.000000 0 0 1
-14.091235 30.115303 18.021706 37.818993 -1.133149 1.074098 0.103065 -0.018689 398330.000000 0 0 1
-15.102435 31.018303 18.481706 39.138116 -1.117693 1.078992 0.102238 -0.023477 587846.000000 0 0 1
-15.870335 30.524603 19.733106 39.661245 -1.091340 1.050034 0.105813 -0.034043 -493392.000000 0 0 1
-15.052935 30.422003 20.893906 39.857802 -1.111314 1.019008 0.097392 -0.038649 622783.000000 0 0 1
-15.955435 30.388603 22.021906 40.779988 -1.087313 1.000338 0.097971 -0.030529 418196.000000 0 0 1
-15.291635 30.476103 23.375506 41.340552 -1.105743 0.969833 0.079440 -0.019653 -645953.000000 0 0 1
-14.262535 29.523803 23.580606 40.387124 -1.120771 0.947316 0.085883 -0.027600 426044.000000 0 0 1
-13.861635 29.156703 24.880706 40.759143 -1.127007 0.914190 0.079646 -0.017885 -111797.000000 0 0 1
-13.460135 30.267403 25.903506 42.050952 -1.152353 0.907138 0.078483 -0.011590 -244355.000000 0 0 1
-14.549535 31.161803 26.053806 43.145657 -1.133975 0.922465 0.086390 -0.015805 426927.000000 0 0 1
-14.105335 32.270503 26.786206 44.247561 -1.158724 0.920564 0.089953 -0.014531 -108594.000000 0 0 1
-15.245635 33.184503 27.272606 45.578895 -1.140136 0.929343 0.122744 -0.028187 70853.800000 0 0 1
-16.080135 32.733203 28.328406 46.179345 -1.114174 0.910383 0.106093 -0.032634 594487.000000 0 0 1
-15.469535 32.918703 29.624506 46.910115 -1.131492 0.887289 0.133290 -0.034895 -5739.860000 0 0 1
-16.174335 32.000903 30.630806 47.158384 -1.102811 0.863830 0.109035 -0.034425 808163.000000 0 0 1
-17.428835 32.576703 31.049106 48.260261 -1.079535 0.871907 0.113199 -0.035577 498362.000000 0 0 1
-18.040335 31.936003 32.165606 48.785122 -1.056593 0.850866 0.079261 -0.030241 1070290.000000 0 0 1
-19.585535 32.235603 32.170306 49.574750 -1.024826 0.864625 0.089025 -0.030000 613617.000000 0 0 1
-19.854935 33.634103 32.439306 50.771841 -1.037524 0.877699 0.118529 -0.028364 -1419990.000000 0 0 1
-21.193535 -33.520156 32.455806 51.245937 1.006992 0.884942 0.094038 -0.027676 -1481620.000000 0 0 1
-21.520935 -32.042156 32.625106 50.539568 0.979356 0.869072 0.107118 -0.021677 -373276.000000 0 0 1
-21.130635 -31.403056 -33.524171 50.562097 0.978501 2.295655 0.108169 -0.021590 37764.200000 0 0 1
-21.854435 -31.774356 -32.367971 50.347905 0.968305 2.269057 0.097260 -0.022858 -208855.000000 0 0 1
-21.413635 -31.129056 -31.039071 48.897708 0.968238 2.258514 0.109162 -0.026512 -208227.000000 0 0 1
-21.684835 -29.750056 -30.920571 48.076809 0.940936 2.269400 0.124210 -0.020093 112213.000000 0 0 1
-20.909535 -29.077656 -29.931771 46.675793 0.947371 2.266948 0.121479 -0.021796 158271.000000 0 0 1
-21.127335 -27.535756 -29.934571 45.832965 0.916334 2.282498 0.121602 -0.032522 375563.000000 0 0 1
-22.395535 -27.137056 -29.426371 45.868193 0.880833 2.267303 0.124151 -0.026794 294901.000000 0 0 1
-22.503435 -25.740956 -29.348871 45.059490 0.852404 2.280140 0.111141 -0.023329 -8481.790000 0 0 1
-23.685435 -25.400256 -28.420371 44.876389 0.820319 2.256611 0.113935 -0.020227 -186963.000000 0 0 1
-23.601235 -25.874156 -27.066971 44.261848 0.831306 2.228776 0.112991 -0.033821 -120625.000000 0 0 1
-22.803735 -25.182256 -26.137471 42.864014 0.834925 2.226575 0.107660 -0.051997 -143980.000000 0 0 1
-23.017335 -25.499556 -24.638671 42.273977 0.836516 2.193007 0.110351 -0.032989 291901.000000 0 0 1
-24.203635 -24.857956 -24.172871 42.285477 0.798734 2.179323 0.103707 -0.035373 372729.000000 0 0 1
-24.512435 -25.170056 -22.797371 41.882112 0.798634 2.146377 0.107144 -0.027101 -442437.000000 0 0 1
-26.007135 -24.951256 -22.455871 42.464130 0.764681 2.128006 0.100639 -0.026904 496056.000000 0 0 1
-26.928235 -25.875956 -23.066671 43.894945 0.765473 2.124096 0.080106 -0.018778 -216231.000000 0 0 1
-26.755535 -27.258456 -22.938971 44.554219 0.794709 2.111635 0.089153 -0.004954 -669862.000000 0 0 1
-28.104235 -28.085456 -22.830971 45.824601 0.785064 2.092347 0.051509 -0.004907 1592840.000000 0 0 1
-28.918435 -27.752956 -21.675671 45.566843 0.764836 2.066544 0.052205 0.003605 -182098.000000 0 0 1
-29.782435 -26.712056 -21.933071 45.624412 0.731103 2.072285 0.036030 0.007102 -912865.000000 0 0 1
-30.403135 -26.054256 -20.693671 45.071087 0.708521 2.047817 0.037882 0.018877 365653.000000 0 0 1
-31.259935 -26.989256 -20.002571 45.887976 0.712212 2.021834 0.061610 0.021553 464631.000000 0 0 1
-31.804335 -26.463056 -18.793871 45.442476 0.693985 1.997173 0.067492 0.021145 -1118220.000000 0 0 1
-32.661035 -27.524056 -17.983271 46.343445 0.700252 1.969304 0.055764 0.015011 1775370.000000 0 0 1
-33.963435 -27.807856 -18.602671 47.674428 0.686075 1.971648 0.060399 0.016826 1700380.000000 0 0 1
-34.833435 -26.705956 -18.794671 47.747418 0.654089 1.975370 0.048425 0.020358 -1140860.000000 0 0 1
-35.845735 -26.414256 -17.683771 47.909763 0.635056 1.948843 0.061139 0.013119 -301629.000000 0 0 1
-35.297035 -25.551056 -16.671971 46.655029 0.626578 1.936221 0.055663 0.020053 313791.000000 0 0 1
-36.272535 -25.206056 -15.710571 46.881383 0.607300 1.912522 0.060000 0.014385 -92560.500000 0 0 1
-35.987835 -25.631056 -14.245071 46.421949 0.618877 1.882689 0.101435 0.016062 -87374.100000 0 0 1
-36.151035 -26.997656 -14.070871 47.262672 0.641451 1.873096 0.085318 0.015273 203962.000000 0 0 1
-35.617035 -27.381156 -12.831171 46.721942 0.655403 1.849000 0.089838 0.010693 -62547.100000 0 0 1
-36.100435 -28.819556 -12.427271 47.835607 0.673713 1.833602 0.102033 -0.001178 -56982.100000 0 0 1
-35.787335 -29.934256 -13.221971 48.493438 0.696574 1.846948 0.092646 -0.003938 249505.000000 0 0 1
-36.202235 -31.180856 -12.624671 49.418923 0.711016 1.829122 0.080774 -0.019441 -292264.000000 0 0 1
-35.943035 -32.321956 -13.630371 50.223477 0.732403 1.845638 0.075024 -0.015759 -1402080.000000 0 0 1
-34.623435 -32.666256 -13.640671 49.517011 0.756321 1.849880 0.061634 -0.009295 -1265490.000000 0 0 1
-34.213335 -33.220656 -14.870771 49.953019 0.770678 1.873074 0.079828 -0.027544 -386407.000000 0 0 1
-32.743935 -33.622156 -14.978571 49.264310 0.798630 1.879732 0.089305 -0.021016 -134347.000000 0 0 1
-32.407335 33.011403 -16.153971 48.999376 -0.794632 1.906758 0.078197 -0.025980 -1150100.000000 0 0 1
-31.041135 32.796103 -16.082071 47.935054 -0.812883 1.912929 0.078575 -0.023741 -816943.000000 0 0 1
10.111977 19.136903 -9.183294 23.511828 1.084686 1.972060 0.115616 -0.058060 -206250.000000 0 1 0
8.708177 19.343403 -9.240294 23.138337 1.147786 1.981604 0.099696 -0.052844 163149.000000 0 1 0
8.229477 19.603503 -10.556794 23.737472 1.173342 2.031670 0.106929 -0.046936 233097.000000 0 1 0
8.159577 18.377503 -11.486894 23.157290 1.152945 2.089826 0.106349 -0.034543 -1005330.000000 0 1 0
9.407777 17.880903 -11.842094 23.419398 1.086460 2.100935 0.158209 -0.056672 -664436.000000 0 1 0
9.353577 16.678803 -12.563194 22.880248 1.059694 2.152065 0.152451 -0.061652 -231735.000000 0 1 0
10.730777 16.283303 -13.110994 23.498803 0.988117 2.162701 0.192361 -0.063716 80872.400000 0 1 0
10.598477 15.051503 -13.792594 23.002416 0.957292 2.213816 0.196103 -0.071698 -563579.000000 0 1 0
11.781977 14.746803 -14.453194 23.773473 0.896695 2.224278 0.219133 -0.078839 -612542.000000 0 1 0
11.806277 13.418503 -15.201494 23.463373 0.849226 2.275597 0.192532 -0.071581 -227460.000000 0 1 0
11.932677 12.259903 -14.400194 22.362013 0.798923 2.270457 0.208823 -0.068545 1133270.000000 0 1 0
13.191177 12.013103 -13.707094 22.499028 0.738691 2.225886 0.242282 -0.074092 1590850.000000 0 1 0
14.310077 11.291703 -14.583294 23.344236 0.668043 2.245552 0.243586 -0.073785 646549.000000 0 1 0
14.778677 12.163303 -15.600194 24.692536 0.688627 2.254641 0.193441 -0.062498 326804.000000 0 1 0
15.637177 11.427703 -16.503194 25.445415 0.631102 2.276504 0.179860 -0.062549 375419.000000 0 0 1
16.247477 12.246803 -17.651294 26.935718 0.645907 2.285392 0.129115 -0.046850 -44481.800000 0 0 1
17.153977 13.216303 -17.192594 27.649863 0.656462 2.241831 0.112940 -0.037464 -333191.000000 0 0 1
17.822277 13.841903 -18.223594 29.005711 0.660348 2.250132 0.080451 -0.022776 -527102.000000 0 0 1
18.973777 14.776303 -17.918094 29.990023 0.661664 2.211137 0.077849 -0.015270 -544150.000000 0 0 1
18.654777 16.139803 -17.550794 30.274153 0.713243 2.189192 0.100629 -0.024159 428343.000000 0 0 1
17.804577 17.038803 -18.300394 30.695736 0.763424 2.209539 0.095886 -0.018646 169503.000000 0 0 1
17.937977 18.481703 -17.786394 31.300163 0.800327 2.175177 0.121395 -0.022080 249761.000000 0 0 1
19.195677 19.106903 -18.027494 32.535186 0.783080 2.158068 0.122383 -0.025899 341974.000000 0 0 1
19.185977 20.345903 -17.329894 32.899586 0.814731 2.125570 0.110438 -0.020105 820160.000000 0 0 1
20.640877 20.963503 -17.221294 34.089401 0.793153 2.100387 0.117270 -0.022287 1243980.000000 0 0 1
21.514177 20.371603 -16.258794 33.796604 0.758127 2.072680 0.132084 -0.027285 -55936.600000 0 0 1
21.286877 20.744303 -14.914694 33.255156 0.772490 2.035875 0.126134 -0.027758 -1246110.000000 0 0 1
22.229477 21.805203 -14.452794 34.329285 0.775763 2.005349 0.125011 -0.031026 -684156.000000 0 0 1
23.527177 21.324303 -14.198494 34.782916 0.736323 1.991281 0.130288 -0.038489 -819114.000000 0 0 1
24.196177 22.326203 -13.532394 35.595506 0.745225 1.960778 0.104561 -0.041651 -422008.000000 0 0 1
25.724777 22.146103 -13.563394 36.553792 0.710780 1.950939 0.090368 -0.030040 14377.900000 0 0 1
26.322277 22.299203 -14.859094 37.562075 0.702843 1.977504 0.097065 -0.022906 604757.000000 0 0 1
27.662377 22.800003 -14.751094 38.763927 0.689338 1.961173 0.087508 -0.011878 609562.000000 0 0 1
28.128277 23.395103 -16.095594 39.969976 0.693791 1.985252 0.086161 -0.010160 -244832.000000 0 0 1
28.613277 22.427003 -17.023594 40.143404 0.664783 2.008731 0.085929 -0.020602 -6700.850000 0 0 1
28.627777 23.006803 -18.337194 41.050156 0.676965 2.033872 0.084650 -0.020664 -765268.000000 0 0 1
29.251777 22.034703 -19.389894 41.438661 0.645595 2.057730 0.083245 -0.023556 -356226.000000 0 0 1
30.629377 22.122203 -19.576194 42.553238 0.625506 2.048837 0.071332 -0.019663 -850002.000000 0 0 1
31.006177 21.250103 -20.621394 42.874140 0.600826 2.072563 0.097567 -0.030136 -896847.000000 0 0 1
32.509277 21.254703 -20.740094 44.031433 0.579045 2.061254 0.129028 -0.032946 -892737.000000 0 0 1
32.899677 22.574703 -21.197394 45.181141 0.601382 2.059141 0.109499 -0.020549 -557377.000000 0 0 1
34.282577 22.691703 -21.368294 46.333708 0.584697 2.050124 0.138484 -0.021246 -260899.000000 0 0 1
34.663277 24.153103 -21.804994 47.543380 0.608570 2.047253 0.144201 -0.026982 -106506.000000 0 0 1
34.610577 24.554803 -23.159094 48.344328 0.617046 2.070362 0.131790 -0.024067 -1109720.000000 0 0 1
33.414677 24.496703 -23.811094 47.787000 0.632605 2.092405 0.120059 -0.029631 -1270310.000000 0 0 1
33.600277 24.990703 -25.261884 48.904772 0.639499 2.113616 0.135035 -0.035930 -145333.000000 0 0 1
33.436277 26.435503 -25.348554 49.592033 0.668997 2.107309 0.149089 -0.038726 -703028.000000 0 0 1
32.124977 26.867903 -25.507414 49.035973 0.696519 2.117855 0.136173 -0.033642 -559815.000000 0 0 1
31.496077 26.701703 -26.911994 49.287314 0.703203 2.148406 0.150337 -0.031422 -149973.000000 0 0 1
31.023477 25.361403 -27.149694 48.402095 0.685315 2.166293 0.147572 -0.040784 4538.430000 0 0 1
30.758877 25.115803 -28.507154 48.883228 0.684744 2.193420 0.140752 -0.044675 -322388.000000 0 0 1
30.051077 23.781003 -28.599634 47.817805 0.669446 2.211919 0.131175 -0.050141 -512780.000000 0 0 1
28.693977 23.831703 -28.283044 46.810523 0.693092 2.219561 0.098188 -0.034824 -443159.000000 0 0 1
28.007277 22.633003 -28.634464 46.006445 0.679667 2.242603 0.093266 -0.040910 14614.400000 0 0 1
26.574977 22.609403 -28.079654 44.787069 0.704946 2.248440 0.069566 -0.021674 -248899.000000 0 0 1
26.609077 22.422503 -26.665974 43.839319 0.700220 2.224671 0.061908 -0.012687 231503.000000 0 0 1
25.337377 22.488803 -26.058384 42.740711 0.725907 2.226460 0.040183 -0.015125 -274348.000000 0 0 1
25.401477 22.539503 -24.545194 41.901442 0.725771 2.196643 0.053813 -0.013786 -133924.000000 0 0 1
25.913077 21.394303 -23.871494 41.219559 0.690168 2.188458 0.052638 -0.009246 385919.000000 0 0 1
26.238077 21.589203 -22.474494 40.738597 0.688501 2.155168 0.071542 -0.015148 -9015.220000 0 0 1
26.735577 20.247003 -21.773094 39.984996 0.648160 2.146627 0.088956 -0.012891 140838.000000 0 0 1
27.947377 19.952703 -22.447294 41.024960 0.620019 2.149766 0.081247 -0.014892 -15327.500000 0 0 1
28.292077 18.587403 -22.061894 40.406193 0.581268 2.148382 0.120924 -0.027409 604046.000000 0 0 1
29.617877 18.075803 -22.704894 41.466439 0.547959 2.150228 0.143695 -0.038520 1726830.000000 0 0 1
30.893277 18.307403 -22.042694 42.135923 0.534962 2.121319 0.169777 -0.050179 1413240.000000 0 0 1
31.950477 17.864803 -22.896994 43.177037 0.509834 2.129756 0.158942 -0.044450 -196266.000000 0 0 1
33.261477 17.438003 -22.290994 43.672626 0.482875 2.106459 0.150176 -0.036987 -523443.000000 0 0 1
34.158177 18.507403 -22.046794 44.669522 0.496537 2.086967 0.135843 -0.031485 -938534.000000 0 0 1
35.234477 18.048803 -21.335894 44.971637 0.473398 2.065113 0.132597 -0.027407 -820858.000000 0 0 1
35.850477 19.115303 -20.488094 45.501797 0.489850 2.037864 0.109944 -0.031182 186966.000000 0 0 1
35.093477 19.186603 -19.263894 44.393418 0.500328 2.019653 0.125376 -0.030643 379897.000000 0 0 1
35.564377 20.164103 -18.371994 44.821269 0.515782 1.993135 0.113007 -0.015710 35197.700000 0 0 1
35.037277 19.954403 -16.910294 43.723530 0.517706 1.967907 0.115686 -0.032784 92442.300000 0 0 1
35.445777 18.795003 -16.205794 43.269886 0.487551 1.954684 0.106761 -0.039085 145746.000000 0 0 1
35.332877 19.014403 -14.797394 42.765905 0.493700 1.924110 0.100852 -0.032840 -192033.000000 0 0 1
35.777777 17.864203 -13.893094 42.334350 0.463095 1.905168 0.079348 -0.025311 -1218120.000000 0 0 1
37.156577 17.783303 -13.988994 43.503438 0.446385 1.898174 0.067427 -0.027520 -534679.000000 0 0 1
37.819177 16.927703 -12.985294 43.421829 0.420853 1.874493 0.052388 -0.019441 359970.000000 0 0 1
37.583477 17.232103 -11.446494 42.900879 0.429902 1.840881 0.081660 -0.026792 -588054.000000 0 0 1
-38.052311 18.375603 -11.020394 43.670244 -0.449877 1.825909 0.067579 -0.024399 142648.000000 0 0 1
37.845577 19.166803 -9.928894 43.568762 0.468792 1.800707 0.074604 -0.019708 -64389.100000 0 0 1
36.579177 19.999203 -10.263694 42.934226 0.500335 1.812190 0.082647 -0.018616 12046.500000 0 0 1
35.418977 19.246403 -10.534394 41.664151 0.497756 1.826412 0.107461 -0.043308 -1020080.000000 0 0 1
34.338377 20.137303 -10.379494 41.138413 0.530387 1.825860 0.081320 -0.017195 -807340.000000 0 0 1
33.072977 19.300903 -10.547994 39.719100 0.528262 1.839586 0.079453 -0.019617 -751678.000000 0 0 1
32.838877 18.848403 -11.860194 39.677681 0.521057 1.874350 0.102624 -0.029056 334019.000000 0 0 1
31.598877 18.145503 -11.957694 38.350160 0.521267 1.887886 0.091901 -0.031679 485121.000000 0 0 1
31.454977 17.501303 -13.360894 38.395634 0.507738 1.926211 0.119545 -0.041083 -365875.000000 0 0 1
32.436177 16.541403 -13.609894 38.870977 0.471590 1.928506 0.103078 -0.032512 -155824.000000 0 0 1
32.260077 15.814303 -14.800694 38.856986 0.455787 1.961568 0.077701 -0.020352 752914.000000 0 0 1
33.652577 15.182003 -15.177794 39.916847 0.423801 1.960847 0.095397 -0.031947 819122.000000 0 0 1
34.057377 14.116803 -14.282594 39.537091 0.392944 1.940400 0.076199 -0.029744 -239157.000000 0 0 1
35.318277 13.663903 -14.691694 40.619316 0.369144 1.940879 0.085971 -0.031383 -474142.000000 0 0 1
35.984677 12.856103 -13.575794 40.552171 0.343133 1.912161 0.062820 -0.047825 -52021.700000 0 0 1
36.980577 13.570903 -12.840394 41.431971 0.351716 1.885900 0.073119 -0.026655 409102.000000 0 0 1
37.478277 12.861203 -11.726794 41.322506 0.330572 1.858538 0.063108 -0.024577 366409.000000 0 0 1
-37.739511 13.531703 -10.971894 41.566334 -0.344276 1.837923 0.094833 -0.017457 49563.800000 0 0 1
-36.544111 13.623303 -11.682694 40.713042 -0.356832 1.861840 0.075267 -0.020282 -990591.000000 0 0 1
-35.594211 14.250203 -10.900294 39.860162 -0.380810 1.847788 0.064802 -0.017279 -1064600.000000 0 0 1
-34.195211 14.394003 -11.506694 38.844611 -0.398424 1.871533 0.104266 -0.030552 133495.000000 0 0 1
-33.449811 13.180803 -11.790594 37.837039 -0.375364 1.887689 0.127193 -0.035211 506065.000000 0 0 1
-33.142411 12.246503 -10.779594 36.940437 -0.353950 1.866915 0.167721 -0.025596 -439922.000000 0 0 1
-32.073011 11.211503 -11.232494 35.784700 -0.336285 1.890085 0.206638 -0.032296 -2431.500000 0 0 1
-32.479111 10.366003 -12.298394 36.243581 -0.308940 1.916997 0.184410 -0.027654 -74914.100000 0 0 1
-31.554011 9.341603 -12.549794 35.219575 -0.287830 1.935134 0.216390 -0.035886 -264228.000000 0 0 1
-31.768611 8.593503 -13.826594 35.696886 -0.264181 1.968534 0.217729 -0.052448 -132621.000000 0 0 1
-33.032311 7.985503 -13.972894 36.744300 -0.237197 1.960889 0.163230 -0.046204 111543.000000 0 0 1
-33.007611 7.191403 -15.176194 37.034248 -0.214519 1.993018 0.179095 -0.058516 43649.700000 0 0 1
-34.388811 6.865003 -15.793394 38.459718 -0.197039 1.993961 0.174419 -0.056660 238177.000000 0 0 1
-35.159911 5.885003 -15.092794 38.712337 -0.165841 1.971287 0.173138 -0.055519 -437558.000000 0 0 1
-36.179111 5.364303 -15.849894 39.861296 -0.147198 1.979725 0.126721 -0.052681 -883033.000000 0 0 1
-37.240311 4.770503 -14.925594 40.402621 -0.127407 1.949183 0.106376 -0.044636 -183332.000000 0 0 1
38.085777 4.043903 -15.505794 41.319599 0.105782 1.955479 0.121304 -0.040432 347181.000000 0 0 1
37.160177 3.606903 -14.530794 40.062857 0.096761 1.941960 0.129342 -0.040749 300265.000000 0 0 1
36.247977 2.454803 -15.027594 39.316288 0.067619 1.962997 0.134803 -0.033460 -203243.000000 0 0 1
36.914377 1.223803 -15.050194 39.883296 0.033140 1.957736 0.137792 -0.037470 102229.000000 0 0 1
36.104277 0.045203 -14.887394 39.053238 0.001252 1.961899 0.138961 -0.033616 405118.000000 0 0 1
35.517277 -0.141097 -13.429294 37.971606 -0.003973 1.932285 0.153116 -0.037030 9681.110000 0 0 1
36.472677 -0.667697 -12.530794 38.571010 -0.018305 1.901677 0.152916 -0.033122 346486.000000 0 0 1
36.138577 -0.501197 -11.138894 37.819611 -0.013868 1.869757 0.150791 -0.025552 -177925.000000 0 0 1
36.465577 0.971803 -10.646694 38.000458 0.026644 1.854770 0.132041 -0.034576 46761.300000 0 0 1
35.371677 1.813603 -10.947894 37.071567 0.051228 1.870584 0.137567 -0.027014 662525.000000 0 0 1
35.659477 3.153903 -10.494294 37.305169 0.088215 1.855955 0.135809 -0.034550 -233536.000000 0 0 1
34.520577 4.083203 -10.905194 36.431663 0.117736 1.874790 0.137217 -0.030840 -223163.000000 0 0 1
34.589177 4.488603 -12.260194 36.971220 0.129048 1.908811 0.130647 -0.030214 -564550.000000 0 0 1
33.544177 5.320503 -12.509794 36.194123 0.157301 1.923707 0.127012 -0.030034 -1020170.000000 0 0 1
33.602377 5.997503 -13.928894 36.866027 0.176625 1.958242 0.096101 -0.025662 -140040.000000 0 0 1
33.181577 5.207903 -15.053594 36.806929 0.155682 1.992141 0.107609 -0.026066 233856.000000 0 0 1
33.521477 5.786603 -16.316894 37.728176 0.170939 2.018044 0.093573 -0.023429 -634843.000000 0 0 1
32.518777 6.883003 -16.827694 37.256113 0.208584 2.039439 0.096222 -0.014946 969409.000000 0 0 1
31.290477 6.473403 -17.442894 36.404031 0.204003 2.070479 0.094981 -0.012980 722315.000000 0 0 1
30.413677 5.717103 -16.644894 35.138719 0.185810 2.064273 0.098771 -0.017019 -289622.000000 0 0 1
28.917977 5.828603 -17.128994 34.111941 0.198892 2.096869 0.071222 -0.009365 691633.000000 0 0 1
28.740377 5.071203 -18.288794 34.441347 0.174651 2.130592 0.080623 -0.011860 492431.000000 0 0 1
27.440977 5.391703 -18.765994 33.678484 0.194012 2.161819 0.061004 -0.017100 307704.000000 0 0 1
26.789577 4.311103 -19.713994 33.539658 0.159557 2.199110 0.068667 0.014122 -9324.080000 0 0 1
26.011577 3.415003 -18.964494 32.371538 0.130541 2.196711 0.074214 -0.004650 276978.000000 0 0 1
25.475677 2.329303 -19.739694 32.312402 0.091179 2.227995 0.075173 -0.010867 -470530.000000 0 0 1
24.484677 1.509703 -18.930094 30.985918 0.061581 2.228026 0.078615 -0.013314 -173217.000000 0 0 1
23.239377 2.168303 -18.806494 29.974230 0.093034 2.249035 0.095284 -0.026737 112756.000000 0 0 1
22.353077 1.615303 -17.849094 28.650645 0.072138 2.243357 0.118481 -0.031870 378230.000000 0 0 1
20.953877 2.292403 -17.851294 27.622252 0.108969 2.273476 0.147210 -0.050295 -428773.000000 0 0 1
20.319177 2.074803 -19.120194 27.977770 0.101758 2.323215 0.146251 -0.040825 404204.000000 0 0 1
19.049377 2.663203 -19.287094 27.239006 0.138905 2.357556 0.132014 -0.038976 1089990.000000 0 0 1
17.793677 2.146403 -18.485894 25.747821 0.120047 2.371663 0.168859 -0.048342 93041.000000 0 0 1
17.896377 2.458203 -17.114494 24.884313 0.136503 2.329198 0.180513 -0.053288 -6261.210000 0 1 0
16.714377 2.103103 -16.439394 23.538206 0.125168 2.343974 0.153727 -0.041082 452695.000000 0 1 0
15.566277 3.145503 -16.348094 22.791739 0.199387 2.370689 0.147731 -0.041083 -153920.000000 0 1 0
14.932477 3.466103 -17.521994 23.281174 0.228079 2.422836 0.135115 -0.027442 -167432.000000 0 1 0
14.123977 4.602903 -17.326894 22.823118 0.315039 2.432851 0.132711 -0.034397 -432946.000000 0 1 0
-21.003923 -21.462797 -17.340294 34.677114 0.796203 2.094453 0.149061 -0.023207 140011.000000 0 0 1
-20.607923 -22.251397 -18.423894 35.485927 0.823725 2.116698 0.156098 -0.029347 260054.000000 0 0 1
-21.672523 -22.380297 -19.360494 36.679758 0.801463 2.126834 0.154774 -0.028886 216780.000000 0 0 1
-21.280123 -23.150597 -20.612494 37.598785 0.827472 2.151034 0.131599 -0.028016 -132963.000000 0 0 1
-21.221623 -24.555997 -20.452394 38.362152 0.858108 2.133104 0.129207 -0.030569 131231.000000 0 0 1
-20.573723 -25.138977 -21.545094 38.979960 0.884937 2.156424 0.110841 -0.037622 -368365.000000 0 0 1
-20.696523 -26.660297 -21.482794 40.007848 0.910671 2.137631 0.102595 -0.017464 455925.000000 0 0 1
-22.037623 -27.141677 -21.617694 41.105378 0.888813 2.124580 0.111386 -0.003784 538962.000000 0 0 1
-22.024123 -28.518707 -21.554794 41.987948 0.913195 2.109888 0.139143 -0.019350 227952.000000 0 0 1
-23.447123 -29.108487 -21.749094 43.244591 0.892706 2.097784 0.124536 -0.013619 213139.000000 0 0 1
-24.039823 -28.900527 -23.016894 44.078690 0.876956 2.120198 0.092428 -0.014313 32483.400000 0 0 1
-23.651423 -29.761607 -24.134094 45.028852 0.899298 2.136452 0.087503 -0.018004 -301639.000000 0 0 1
-24.045523 -29.136307 -25.492594 45.573939 0.880832 2.164419 0.069260 -0.009187 1347100.000000 0 0 1
-25.458083 -29.285227 -25.821544 46.609984 0.855195 2.157948 0.068618 -0.004756 1504140.000000 0 0 1
-25.874653 -28.496777 -26.924394 46.973258 0.833587 2.181185 0.075006 -0.005771 -74801.200000 0 0 1
-25.259213 -28.806107 -28.314404 47.639533 0.850908 2.207250 0.086669 -0.029156 -323114.000000 0 0 1
-25.590643 -30.071337 -28.856884 48.906912 0.865723 2.201901 0.069268 -0.010848 189316.000000 0 0 1
-25.116803 -30.175797 -30.191304 49.527238 0.876639 2.226339 0.108164 -0.008564 23665.700000 0 0 1
-25.452723 -31.561547 -30.789734 50.911492 0.892136 2.220273 0.088077 -0.018807 151162.000000 0 0 1
-24.698723 -32.676047 -30.312214 50.956661 0.923551 2.207891 0.084490 -0.027755 -22827.100000 0 0 1
-25.303973 33.492873 -30.721274 52.017884 -0.923782 2.202587 0.079615 -0.027389 -255471.000000 0 0 1
-24.612323 32.140942 -30.588954 50.739440 -0.917283 2.217882 0.095584 -0.027030 25120.700000 0 0 1
-23.513123 32.045360 -31.501864 50.716265 -0.937780 2.240992 0.098811 -0.043745 -13142.400000 0 0 1
-23.093423 30.739693 -31.465844 49.682334 -0.926491 2.256659 0.096926 -0.039254 -952998.000000 0 0 1
-21.853323 30.478283 -32.301044 49.495969 -0.948743 2.281806 0.104090 -0.030683 -685023.000000 0 0 1
-21.892023 30.568573 33.651902 50.459378 -0.949306 0.840741 0.105299 -0.034347 62523.100000 0 0 1
-21.680223 29.272693 33.093594 49.214922 -0.933319 0.833309 0.093539 -0.028347 -88820.300000 0 0 1
-21.860323 29.171043 31.529994 48.197137 -0.927689 0.857688 0.081907 -0.027804 64237.200000 0 0 1
-20.803823 29.814813 30.851922 47.681896 -0.961570 0.867105 0.078747 -0.020923 498804.000000 0 0 1
-21.173323 29.831333 29.461382 46.970108 -0.953545 0.892796 0.098921 -0.022402 -90866.500000 0 0 1
-21.015123 31.223533 28.870852 47.434908 -0.978385 0.916449 0.074942 -0.039082 1006320.000000 0 0 1
-22.187723 32.079778 29.001112 48.605264 -0.965702 0.931456 0.063542 -0.030970 1070010.000000 0 0 1
-21.810123 33.405503 28.721882 49.158474 -0.992392 0.946815 0.079441 -0.044420 85155.200000 0 0 1
-22.940323 -32.946387 28.797262 49.406529 0.962563 0.948548 0.105162 -0.047862 10402.600000 0 0 1
-23.223123 -32.442707 30.124112 49.993047 0.949532 0.924084 0.087606 -0.035191 206027.000000 0 0 1
-24.460023 -31.737317 30.183052 50.165392 0.914177 0.925205 0.089529 -0.032660 156533.000000 0 0 1
-24.359523 -30.215487 29.781002 48.921059 0.892290 0.916304 0.106944 -0.026909 -198005.000000 0 0 1
-24.047523 -30.046947 28.396282 47.827306 0.895853 0.935116 0.069969 -0.023003 71115.100000 0 0 1
-24.286723 -28.699537 27.939022 46.841192 0.868489 0.931710 0.059538 -0.029133 319959.000000 0 0 1
-25.574043 -28.491817 27.079622 46.894788 0.839313 0.955189 0.054893 -0.016236 935831.000000 0 0 1
-26.799703 -28.426777 27.843102 47.974410 0.814851 0.951608 0.086597 -0.013945 1003220.000000 0 0 1
-27.673583 -29.544497 27.852012 49.136941 0.818084 0.968150 0.079068 -0.031127 -317125.000000 0 0 1
-28.618233 -29.696107 26.668462 49.112817 0.803880 0.996786 0.063104 -0.004795 -1295340.000000 0 0 1
-28.052623 -29.950957 25.428742 48.276602 0.818114 1.016047 0.067046 -0.008795 -366061.000000 0 0 1
-28.921353 -29.826577 24.341462 48.151595 0.800806 1.040815 0.069192 -0.010302 -403158.000000 0 0 1
-28.164403 -29.852317 22.984172 47.038990 0.814484 1.060289 0.070824 -0.014146 -468019.000000 0 0 1
-27.383583 -28.701927 22.760982 45.735364 0.808900 1.049889 0.044828 -0.022881 56682.500000 0 0 1
-26.705273 -28.725687 21.538182 44.746284 0.821831 1.068613 0.072888 -0.023281 197177.000000 0 0 1
-25.346633 -29.471937 21.499882 44.421749 0.860510 1.065583 0.078599 -0.030564 -466630.000000 0 0 1
-25.589633 -30.827637 21.301482 45.375385 0.877977 1.082128 0.089422 -0.033936 1488070.000000 0 0 1
-24.416223 -31.647847 20.997982 45.151449 0.913678 1.087098 0.094300 -0.024867 1098370.000000 0 0 1
-23.490323 -32.155487 22.096982 45.541708 0.939877 1.064201 0.091879 -0.030554 164465.000000 0 0 1
-22.774423 -31.178337 22.893362 44.887292 0.939921 1.035590 0.101417 -0.035460 338749.000000 0 0 1
-21.894323 -31.984477 23.651082 45.406407 0.970529 1.022920 0.117604 -0.044373 -467827.000000 0 0 1
-21.142323 -31.280727 24.771552 45.156522 0.976436 0.990142 0.107545 -0.032059 -1068270.000000 0 0 1
-19.990323 -30.638837 24.261902 43.897508 0.992700 0.985203 0.115090 -0.031349 135808.000000 0 0 1
-19.230923 -30.006617 25.278722 43.694842 1.000852 0.953873 0.132853 -0.031503 -403426.000000 0 0 1
-18.366623 -30.899277 26.143252 44.447359 1.034502 0.941984 0.116447 -0.040621 -1186810.000000 0 0 1
-19.047223 -31.753907 27.049452 45.856080 1.030495 0.939890 0.130167 -0.044513 445704.000000 0 0 1
-18.161123 -32.189537 28.086252 46.420148 1.057121 0.920975 0.143812 -0.036826 143462.000000 0 0 1
-18.722523 -31.847077 29.491882 47.270924 1.039330 0.897085 0.151668 -0.037714 166735.000000 0 0 1
-18.238523 -30.522307 29.771942 46.374815 1.032182 0.873712 0.158938 -0.030868 426413.000000 0 0 1
-18.856123 -29.933957 30.899312 46.971934 1.008664 0.852869 0.156655 -0.030401 -217552.000000 0 0 1
-18.562523 -28.434607 31.065732 46.023622 0.992445 0.829838 0.158924 -0.030753 58091.300000 0 0 1
-19.417023 -27.528567 30.381742 45.364005 0.956495 0.836948 0.150209 -0.029453 105303.000000 0 0 1
-19.500123 -27.675807 28.941642 44.540136 0.956996 0.863491 0.148200 -0.026042 1177370.000000 0 0 1
-18.186823 -27.306057 28.066442 43.175298 0.983230 0.863136 0.138682 -0.020540 1413160.000000 0 0 1
-18.008023 -25.896137 28.101772 42.244625 0.963168 0.843014 0.114696 -0.012198 829247.000000 0 0 1
-16.865723 -25.475727 27.316832 40.983833 0.986010 0.841256 0.104199 -0.014054 808979.000000 0 0 1
-16.826623 -23.990397 27.082062 39.901284 0.959138 0.824769 0.073938 -0.018683 394207.000000 0 0 1
-17.913123 -23.562897 26.275842 39.579160 0.920783 0.844800 0.086664 -0.014655 263946.000000 0 0 1
-17.421423 -22.584097 25.402802 38.194891 0.913738 0.843190 0.087075 -0.018329 267825.000000 0 0 1
-17.987823 -21.119597 25.569092 37.727677 0.865309 0.826128 0.083015 -0.012463 -58546.700000 0 0 1
-17.507423 -20.258197 24.526472 36.310497 0.858108 0.829201 0.080420 -0.016217 390433.000000 0 0 1
-18.075123 -18.949797 24.718482 36.011223 0.809018 0.814255 0.091405 -0.012425 -30322.000000 0 0 1
-17.569023 -17.906097 23.748092 34.543751 0.794900 0.812785 0.077623 -0.031699 762591.000000 0 0 1
-16.236723 -17.448597 24.090642 33.888696 0.821359 0.780054 0.069644 -0.036879 844137.000000 0 0 1
-15.737823 -16.547197 23.120512 32.496874 0.810463 0.779210 0.077622 -0.032809 702618.000000 0 0 1
-14.244823 -16.136197 23.370202 31.771971 0.847573 0.744303 0.088971 -0.044860 269773.000000 0 0 1
-13.306223 -17.157797 23.101062 31.703385 0.911161 0.754430 0.068845 -0.042321 445836.000000 0 0 1
-11.936823 -16.769497 23.186902 31.005422 0.952183 0.726003 0.098046 -0.050283 273848.000000 0 0 1
-11.383623 -15.888597 22.046582 29.463302 0.949105 0.725342 0.117006 -0.049033 -717939.000000 0 0 1
-11.229723 -16.694197 20.920982 29.025684 0.978648 0.765877 0.129450 -0.045594 -575028.000000 0 0 1
-9.973323 -17.299297 20.856882 28.874597 1.047823 0.763636 0.124549 -0.051131 -823838.000000 0 0 1
-9.815123 -18.384397 19.777382 28.730950 1.080411 0.811564 0.122376 -0.042622 -16767.600000 0 0 1
-9.515123 -17.966197 18.437282 27.445494 1.083740 0.834190 0.110007 -0.042535 -282106.000000 0 0 1
-9.282823 -19.102997 17.659082 27.621340 1.118464 0.877173 0.105601 -0.042478 4069.180000 0 0 1
-8.867223 -18.692297 16.224282 26.291765 1.127855 0.905762 0.107708 -0.043196 557933.000000 0 0 1
-7.578523 -18.086297 16.111082 25.379423 1.174002 0.883035 0.122538 -0.040506 170026.000000 0 0 1
-7.353123 -17.593697 14.860882 24.175450 1.174920 0.908779 0.136870 -0.046419 -322144.000000 0 1 0
-6.104723 -16.758797 14.651382 23.082199 1.221466 0.883114 0.102697 -0.042333 -422019.000000 0 1 0
-6.371123 -15.469297 15.174182 22.586415 1.180111 0.834123 0.102063 -0.049329 -273458.000000 0 1 0
-5.267923 -14.618297 15.302882 21.808801 1.224918 0.793038 0.073350 -0.036525 -1044420.000000 0 1 0
-5.300623 -13.627897 16.497182 22.044799 1.199849 0.725228 0.044382 -0.022307 -421720.000000 0 1 0
-5.162723 -14.192097 17.781982 23.329556 1.221903 0.704079 0.072007 -0.020323 382980.000000 0 1 0
-6.190723 -15.065497 18.275882 24.480647 1.180911 0.727944 0.114643 -0.041972 1303040.000000 0 1 0
-7.494523 -14.354097 18.849382 24.849691 1.089612 0.709733 0.129709 -0.050928 738116.000000 0 1 0
-7.333823 -13.578797 20.015982 25.274655 1.075591 0.656818 0.121807 -0.047454 -542527.000000 0 0 1
-8.526123 -12.994497 20.437682 25.675875 0.990122 0.650159 0.119509 -0.040625 -125433.000000 0 0 1
-8.208623 -12.194197 21.667282 26.183029 0.978313 0.596100 0.117013 -0.032241 -72859.700000 0 0 1
-7.489623 -11.056197 21.257082 25.103734 0.975390 0.560913 0.077349 -0.027160 -158640.000000 0 0 1
-6.989923 -10.362997 22.338332 25.597886 0.977385 0.510167 0.072076 -0.027154 -213920.000000 0 0 1
-5.520323 -10.559397 22.731542 25.665109 1.089085 0.482800 0.076577 -0.024405 -257264.000000 0 0 1
-5.414423 -11.819197 23.315792 26.695234 1.141223 0.508642 0.114048 -0.023185 -61642.300000 0 0 1
-4.105923 -12.031897 23.799222 26.981996 1.241935 0.490620 0.085745 -0.003793 -455469.000000 0 0 1
-3.997223 -13.313497 24.619772 28.272958 1.279121 0.513992 0.106119 -0.020490 387305.000000 0 0 1
-2.714723 -13.481797 25.253032 28.754898 1.372091 0.498676 0.078525 -0.014571 707663.000000 0 0 1
-2.614623 -14.620497 26.125522 30.052256 1.393834 0.516938 0.107228 -0.018022 -51459.600000 0 0 1
-2.368723 -15.978897 25.469252 30.159887 1.423627 0.565213 0.120075 -0.046943 675077.000000 0 0 1
-1.001423 -16.417497 25.434732 30.289646 1.509875 0.574034 0.105689 -0.043697 634248.000000 0 0 1
-1.003123 -17.661297 24.736022 30.410499 1.514059 0.620816 0.123694 -0.047653 -354123.000000 0 0 1
0.371877 -18.384197 24.675772 30.773539 -1.550571 0.640411 0.123232 -0.049015 368553.000000 0 0 1
0.840077 -18.860497 25.969672 32.106820 -1.526284 0.628599 0.133499 -0.048538 88960.300000 0 0 1
1.224977 -17.891397 26.866182 32.301616 -1.502436 0.588582 0.128755 -0.055864 -778267.000000 0 0 1
1.895177 -18.520297 28.108832 33.714975 -1.468822 0.584987 0.110618 -0.049130 362498.000000 0 0 1
3.119877 -19.242997 27.983842 34.104574 -1.410064 0.608458 0.118335 -0.051751 332691.000000 0 0 1
4.034077 -19.140697 29.018222 34.995675 -1.363077 0.593131 0.147001 -0.062553 630900.000000 0 0 1
5.031377 -17.912897 29.062332 34.508053 -1.296972 0.569464 0.144295 -0.056464 107517.000000 0 0 1
4.336077 -16.772297 29.499552 34.210160 -1.317809 0.530995 0.161171 -0.064955 458574.000000 0 0 1
5.240977 -15.716697 29.735472 34.039399 -1.248927 0.508326 0.191991 -0.077044 -336619.000000 0 0 1
4.479277 -14.536897 30.386352 33.981108 -1.271896 0.464126 0.216736 -0.064028 265261.000000 0 0 1
3.935877 -14.850497 31.669695 35.199403 -1.311719 0.451663 0.179604 -0.070366 -311633.000000 0 0 1
2.827477 -14.020497 31.853135 34.916918 -1.371798 0.422040 0.191409 -0.056793 -63091.800000 0 0 1
1.928677 -14.486897 33.071808 36.157080 -1.438442 0.416105 0.189304 -0.056568 423970.000000 0 0 1
2.580377 -14.466597 -32.992914 36.117491 -1.394285 2.722574 0.189349 -0.055976 20003.200000 0 0 1
1.814277 -15.170897 -32.055324 35.510443 -1.451772 2.696803 0.214294 -0.068187 -114529.000000 0 0 1
2.488977 -15.328897 -30.671904 34.379293 -1.409830 2.672906 0.179462 -0.045109 -217709.000000 0 0 1
1.840377 -16.059297 -29.664974 33.783113 -1.456695 2.642674 0.172675 -0.038645 -610075.000000 0 0 1
2.462477 -16.052397 -28.429624 32.741209 -1.418580 2.622588 0.138979 -0.033723 -217194.000000 0 0 1
2.086777 -17.322097 -27.663494 32.705941 -1.450905 2.578906 0.130924 -0.035753 179253.000000 0 0 1
2.755577 -18.502597 -28.182534 33.825945 -1.422954 2.555600 0.104112 -0.027664 362100.000000 0 0 1
2.443277 -19.645197 -27.374514 33.782649 -1.447061 2.515482 0.108712 -0.036378 -824265.000000 0 0 1
3.493377 -20.768697 -27.496684 34.635388 -1.404152 2.487976 0.084253 -0.031928 377731.000000 0 0 1
4.782277 -20.602597 -26.924484 34.238356 -1.342715 2.475729 0.087549 -0.028900 322266.000000 0 0 1
4.794877 -20.538497 -25.544584 33.126221 -1.341446 2.451409 0.087164 -0.023003 -905.504000 0 0 1
6.223177 -20.986697 -24.993994 33.224526 -1.282526 2.422305 0.068599 -0.024345 1132490.000000 0 0 1
6.617777 -22.312697 -25.204874 34.306517 -1.282469 2.396015 0.071251 -0.015480 324894.000000 0 0 1
7.068977 -22.666797 -26.484164 35.569159 -1.268490 2.410705 0.073310 -0.017868 -474603.000000 0 0 1
6.293777 -23.937497 -26.942374 36.585611 -1.313690 2.398560 0.056331 -0.015049 140877.000000 0 0 1
6.714077 -25.034137 -26.172334 36.834466 -1.308766 2.361061 0.075481 -0.008280 58450.200000 0 0 1
5.935277 -26.184777 -26.454334 37.692199 -1.347894 2.348790 0.072446 -0.011472 3573.300000 0 0 1
6.192677 -27.359777 -25.549054 37.942862 -1.348205 2.309535 0.092042 -0.019964 -328339.000000 0 0 1
7.473277 -27.897377 -25.708234 38.665577 -1.309057 2.298139 0.108174 -0.022610 -530526.000000 0 0 1
7.721877 -28.994197 -24.828294 38.945283 -1.310513 2.262068 0.113927 -0.031023 308892.000000 0 0 1
9.235377 -29.323937 -24.706294 39.440923 -1.265687 2.247739 0.110028 -0.038162 337380.000000 0 0 1
9.881577 -29.535917 -25.940084 40.532751 -1.247941 2.265266 0.121864 -0.038669 -487080.000000 0 0 1
11.170177 -30.069767 -25.825504 41.181554 -1.215119 2.248638 0.143054 -0.015845 10235.000000 0 0 1
11.921477 -30.041507 -27.211554 42.250236 -1.193023 2.270586 0.132629 -0.041384 270150.000000 0 0 1
11.410377 -30.917717 -28.189144 43.367381 -1.217247 2.278391 0.148771 -0.039409 389548.000000 0 0 1
12.126577 -30.670857 -29.426194 44.200184 -1.194281 2.299292 0.152094 -0.018388 383116.000000 0 0 1
-36.236393 -4.905297 -5.485594 36.976071 0.134551 1.719701 0.235621 -0.045150 93775.500000 0 0 1
-35.673966 -4.266597 -4.326494 36.187763 0.119034 1.690640 0.236114 -0.046456 454030.000000 0 0 1
-35.002008 -3.010297 -4.598194 35.430860 0.085792 1.700943 0.239308 -0.059991 132773.000000 0 0 1
-35.807001 -1.815897 -5.233094 36.232914 0.050670 1.715733 0.211205 -0.043455 -458437.000000 0 0 1
-36.748653 -1.282997 -4.356294 37.028190 0.034899 1.688717 0.156347 -0.039701 -302747.000000 0 0 1
-37.623423 -0.421797 -5.044194 37.962399 0.011211 1.704064 0.143261 -0.042450 506620.000000 0 0 1
37.691645 0.186803 -4.056194 37.909732 0.004956 1.677998 0.141620 -0.032585 328650.000000 0 0 1
38.161225 1.084503 -3.074294 38.300216 0.028411 1.651151 0.153697 -0.030528 -360793.000000 0 0 1
37.145225 1.704703 -2.320094 37.256632 0.045861 1.633110 0.136704 -0.033720 -629604.000000 0 0 1
37.819985 2.783303 -1.385494 37.947565 0.073461 1.607315 0.131871 -0.031259 732398.000000 0 0 1
-37.861303 3.807203 -2.074594 38.108752 -0.100220 1.625262 0.157632 -0.047436 35479.800000 0 0 1
-36.717933 3.441103 -2.800394 36.984997 -0.093444 1.646586 0.140629 -0.024044 -1462650.000000 0 0 1
-35.826885 4.661403 -3.015194 36.254458 -0.129382 1.654060 0.128595 -0.024003 -403054.000000 0 0 1
-35.282245 5.065903 -1.769894 35.687991 -0.142608 1.620410 0.150328 -0.027409 228003.000000 0 0 1
-34.947122 6.481503 -1.890894 35.593352 -0.183382 1.623946 0.177961 -0.040735 -73175.100000 0 0 1
-34.477498 7.174103 -0.588094 35.220895 -0.205153 1.587494 0.206750 -0.039803 -558333.000000 0 0 1
-33.170693 6.825103 -0.214994 33.866253 -0.202925 1.577145 0.253534 -0.035415 168598.000000 0 0 1
-32.623383 7.469803 0.947806 33.481060 -0.225091 1.542484 0.295227 -0.053352 231312.000000 0 0 1
-32.445493 9.007803 1.012806 33.687925 -0.270809 1.540727 0.310048 -0.060813 -125715.000000 0 0 1
-33.704283 9.664303 1.056406 35.078390 -0.279246 1.540676 0.240922 -0.052106 307920.000000 0 0 1
-33.593563 10.987203 1.501306 35.376546 -0.316096 1.528346 0.273644 -0.037485 -597339.000000 0 0 1
-34.963173 11.631303 1.589806 36.881407 -0.321156 1.527677 0.226183 -0.052223 -1066460.000000 0 0 1
-35.536888 11.830603 0.307606 37.455683 -0.321370 1.562584 0.165655 -0.044482 -218588.000000 0 0 1
-36.763623 12.479603 0.310806 38.825263 -0.327250 1.562791 0.154657 -0.031613 -92401.500000 0 0 1
-38.056603 11.662903 0.587306 39.807955 -0.297375 1.556042 0.162530 -0.045238 -200717.000000 0 0 1
38.044555 10.734603 -0.440594 39.532443 0.275009 1.581942 0.166605 -0.034709 368267.000000 0 0 1
36.972125 9.825303 -0.148694 38.255676 0.259745 1.574683 0.163301 -0.036216 579112.000000 0 0 1
36.660195 8.703603 -1.153094 37.696847 0.233097 1.601390 0.160812 -0.033964 244465.000000 0 0 1
36.133695 9.224203 -2.394194 37.369266 0.249942 1.634909 0.157028 -0.029281 114644.000000 0 0 1
35.895055 8.125203 -3.277194 36.948802 0.222608 1.659609 0.143243 -0.028343 -191489.000000 0 0 1
35.288735 8.625003 -4.578994 36.614925 0.239713 1.696183 0.130951 -0.022545 -369889.000000 0 0 1
33.952855 9.002403 -4.373894 35.397325 0.259180 1.694679 0.174418 -0.028448 -389760.000000 0 0 1
33.475265 9.433603 -5.590994 35.225637 0.274685 1.730190 0.158321 -0.017056 114601.000000 0 0 1
32.018855 9.977703 -5.652494 34.010474 0.302083 1.737770 0.203318 -0.030000 322902.000000 0 0 1
31.036365 9.064903 -5.189494 32.746898 0.284169 1.729940 0.217160 -0.028964 630045.000000 0 0 1
29.749765 9.641203 -5.416294 31.738582 0.313397 1.742289 0.246384 -0.028187 318742.000000 0 0 1
28.592865 8.621903 -5.562594 30.378144 0.292869 1.754947 0.273176 -0.019744 -139801.000000 0 0 1
28.687265 7.914503 -6.794494 30.524805 0.269193 1.795266 0.269655 -0.029340 446996.000000 0 0 1
27.753365 6.840503 -6.864494 29.396651 0.241658 1.806485 0.315560 -0.031537 -135524.000000 0 0 1
27.972565 5.833603 -7.983894 29.668804 0.205600 1.843255 0.303754 -0.046538 -123129.000000 0 0 1
28.988465 4.891003 -7.700594 30.390002 0.167148 1.826982 0.264020 -0.042956 353708.000000 0 0 1
29.095865 3.882303 -8.656194 30.603454 0.132648 1.857561 0.238549 -0.039291 -921913.000000 0 0 1
30.187165 2.861303 -8.581194 31.513313 0.094503 1.846583 0.186179 -0.028496 -65317.600000 0 0 1
31.545585 3.345603 -8.813194 32.923995 0.105661 1.841784 0.149310 -0.022839 1988090.000000 0 0 1
32.503285 2.769203 -7.930794 33.571261 0.084992 1.809288 0.125380 -0.025729 171578.000000 0 0 1
32.776305 1.233903 -8.062594 33.775940 0.037628 1.811832 0.094468 -0.017877 -1377030.000000 0 0 1
31.851485 0.560203 -7.288794 32.679619 0.017586 1.795726 0.158042 -0.030207 -114841.000000 0 0 1
32.231425 -0.751797 -6.869194 32.963856 -0.023321 1.780720 0.158071 -0.032373 -79554.200000 0 0 1
31.998735 -1.844397 -7.924694 33.016990 -0.057576 1.813181 0.150714 -0.033964 -334468.000000 0 0 1
32.950995 -1.862097 -8.932994 34.191138 -0.056451 1.835130 0.114408 -0.029415 -114787.000000 0 0 1
32.749095 -3.059197 -9.696794 34.291249 -0.093143 1.857485 0.118721 -0.041243 191398.000000 0 0 1
33.685175 -3.213897 -10.953094 35.566704 -0.095122 1.883844 0.141188 -0.035830 276717.000000 0 0 1
35.029875 -3.500397 -10.613694 36.769491 -0.099595 1.863618 0.143502 -0.032802 335906.000000 0 0 1
35.641955 -4.121797 -11.769594 37.760582 -0.115133 1.887767 0.188653 -0.045717 523348.000000 0 0 1
37.098405 -4.632297 -11.543394 39.127993 -0.124222 1.870269 0.216397 -0.039866 349201.000000 0 0 1
37.095605 -5.685197 -10.616294 39.001425 -0.152075 1.846478 0.226830 -0.048724 -637163.000000 0 0 1
-38.048173 -5.921597 -10.132394 39.817008 0.154396 1.828100 0.229279 -0.040881 -931895.000000 0 0 1
-38.153023 -7.056897 -9.099494 39.852901 0.182896 1.801155 0.246106 -0.051427 -128503.000000 0 0 1
37.716635 -6.742097 -7.865394 39.113487 -0.176888 1.773269 0.248708 -0.048928 360491.000000 0 0 1
37.360715 -7.866297 -7.063994 38.827847 -0.207519 1.753746 0.260446 -0.053213 -415307.000000 0 0 1
36.968475 -7.453897 -5.600694 38.126061 -0.198961 1.718229 0.241235 -0.043858 -605150.000000 0 0 1
37.981565 -7.058997 -4.676694 38.914011 -0.183757 1.691268 0.266725 -0.044470 492865.000000 0 0 1
-38.055323 -8.111597 -3.789394 39.094310 0.210010 1.667878 0.274490 -0.042873 700792.000000 0 0 1
-37.057163 -9.256097 -4.389894 38.447104 0.244771 1.685226 0.264666 -0.042808 410640.000000 0 0 1
-37.650303 -10.155697 -5.297794 39.354162 0.263467 1.705825 0.261938 -0.043665 224618.000000 0 0 1
-36.634473 -10.901097 -5.903194 38.675137 0.289220 1.724031 0.212253 -0.037161 -383952.000000 0 0 1
-37.113073 -11.612697 -7.170594 39.543044 0.303250 1.753142 0.219106 -0.040075 -323517.000000 0 0 1
-37.173063 -10.750697 -8.259394 39.568064 0.281525 1.781082 0.196968 -0.047516 264832.000000 0 0 1
-37.605933 -11.426497 -9.428394 40.418630 0.294984 1.806234 0.216200 -0.030436 -22892.300000 0 0 1
-37.595473 -10.578897 -10.703994 40.495779 0.274295 1.838299 0.211642 -0.038528 -283828.000000 0 0 1
37.680375 -9.754397 -10.840694 40.403955 -0.253311 1.842432 0.210957 -0.042795 57273.000000 0 0 1
37.722665 -9.208097 -12.126794 40.679819 -0.239418 1.873501 0.205914 -0.044509 -634738.000000 0 0 1
36.389755 -8.633497 -12.578194 39.458365 -0.232944 1.895229 0.210550 -0.044767 -850610.000000 0 0 1
36.450385 -7.874897 -13.756394 39.747742 -0.212774 1.924199 0.220207 -0.040189 1311580.000000 0 0 1
35.219045 -7.241697 -14.228494 38.668765 -0.202792 1.947609 0.184286 -0.038600 963930.000000 0 0 1
35.438665 -6.280797 -15.435294 39.161151 -0.175409 1.975937 0.181948 -0.030630 -310587.000000 0 0 1
36.053385 -5.073897 -15.098394 39.415131 -0.139815 1.963904 0.173117 -0.026017 18927.800000 0 0 1
36.543625 -4.474097 -16.275194 40.253398 -0.121825 1.987030 0.192871 -0.036195 -425204.000000 0 0 1
37.729995 -3.555597 -15.927594 41.108188 -0.093960 1.968666 0.173963 -0.033007 -227394.000000 0 0 1
-38.097083 -3.006997 -17.095294 41.865007 0.078767 1.991435 0.175017 -0.032176 -489880.000000 0 0 1
-36.837803 -2.437097 -16.936994 40.618037 0.066061 2.000919 0.188463 -0.022929 -468060.000000 0 0 1
-36.719553 -0.964997 -16.518394 40.275478 0.026274 1.993399 0.171568 -0.019412 -291114.000000 0 0 1
-37.063983 -0.010897 -17.467494 40.973800 0.000294 2.011205 0.150974 -0.023258 260386.000000 0 0 1
-36.649543 1.279003 -16.963794 40.405385 -0.034884 2.004065 0.142368 -0.031794 156258.000000 0 0 1
-36.875323 2.378803 -18.015194 41.109553 -0.064420 2.024418 0.133777 -0.031354 1277.020000 0 0 1
-35.892202 2.336303 -19.012294 40.683852 -0.065001 2.057051 0.130800 -0.020648 125328.000000 0 0 1
-36.015133 3.493303 -19.805894 41.250047 -0.096693 2.071613 0.125388 -0.021531 -119912.000000 0 0 1
-35.147763 3.481203 -21.089494 41.136976 -0.098723 2.109082 0.121608 -0.014421 55364.800000 0 0 1
-33.769913 3.608803 -20.801294 39.826176 -0.106460 2.120345 0.135502 -0.026503 -59218.900000 0 0 1
-33.003023 4.052003 -21.880894 39.804419 -0.122165 2.152814 0.114478 -0.022400 -117139.000000 0 0 1
-31.655703 4.627003 -21.392194 38.485304 -0.145139 2.160186 0.134333 -0.030423 581487.000000 0 0 1
-30.702383 3.606503 -21.031394 37.389340 -0.116931 2.168199 0.139721 -0.013791 1109850.000000 0 0 1
-29.331783 4.015303 -21.085194 36.346411 -0.136047 2.189669 0.107475 -0.008668 578523.000000 0 0 1
-28.368813 2.978403 -20.516394 35.136631 -0.104605 2.194325 0.126754 -0.006453 -259678.000000 0 0 1
-28.199033 2.961803 -19.101794 34.188248 -0.104648 2.163643 0.121956 -0.003534 -390628.000000 0 0 1
-27.326133 1.975503 -18.676194 33.157509 -0.072168 2.169118 0.115143 -0.006908 -739813.000000 0 0 1
-26.699403 2.338303 -17.316094 31.908821 -0.087356 2.144414 0.119733 -0.014313 -29375.100000 0 0 1
-25.703843 3.341903 -17.507594 31.278934 -0.129290 2.164850 0.113129 -0.020658 105477.000000 0 0 1
-25.001543 3.527603 -16.303994 30.055638 -0.140170 2.144159 0.135685 -0.035290 408121.000000 0 0 1
-23.822723 4.578403 -16.363194 29.261545 -0.189871 2.164223 0.146980 -0.045999 1342920.000000 0 0 1
-22.688423 4.167003 -17.125994 28.730265 -0.181638 2.209426 0.178752 -0.052234 1382410.000000 0 0 1
-21.470923 4.923903 -16.940594 27.789010 -0.225431 2.226371 0.176615 -0.050538 1762110.000000 0 0 1
-20.168223 4.342403 -17.624794 27.133873 -0.212072 2.277788 0.246021 -0.054350 628136.000000 0 0 1
-19.651523 3.252903 -16.870594 26.103269 -0.164042 2.273525 0.289465 -0.054684 188724.000000 0 0 1
-18.706123 2.553703 -17.658894 25.851054 -0.135678 2.322797 0.230725 -0.055477 -614918.000000 0 0 1
-18.467123 1.115603 -17.121794 25.207837 -0.060337 2.317503 0.261153 -0.056496 141200.000000 0 0 1
-19.412423 0.138703 -17.463394 26.111904 -0.007145 2.303377 0.216703 -0.050562 1904170.000000 0 0 1
-20.801223 0.299503 -16.999294 26.865528 -0.014397 2.255902 0.218661 -0.051805 1429060.000000 0 0 1
-21.740323 -0.862697 -17.307594 27.801775 0.039661 2.242775 0.177195 -0.040526 -276104.000000 0 0 1
-21.544623 -2.048397 -16.585294 27.266072 0.094792 2.224683 0.177915 -0.041635 517140.000000 0 0 1
-22.610523 -2.941697 -16.891294 28.376137 0.129376 2.208391 0.146368 -0.022035 295230.000000 0 0 1
-22.657023 -4.076997 -15.790094 27.915760 0.178039 2.171998 0.160634 -0.033362 -307502.000000 0 0 1
-23.096823 -3.578497 -14.615994 27.566214 0.153712 2.129649 0.145293 -0.031090 12755.000000 0 0 1
-23.140023 -4.529697 -13.585794 27.213096 0.193307 2.093515 0.138664 -0.042188 -253468.000000 0 0 1
-23.539923 -3.850497 -12.261994 26.819970 0.162137 2.045637 0.163836 -0.053757 -324185.000000 0 0 1
-24.776923 -3.192997 -12.244194 27.821061 0.128163 2.026512 0.150019 -0.039153 -42564.500000 0 0 1
-24.863423 -2.376097 -11.064194 27.317614 0.095277 1.987798 0.180595 -0.052981 -804206.000000 0 0 1
-26.160493 -1.613597 -10.917894 28.393230 0.061603 1.965489 0.222233 -0.056058 -744261.000000 0 0 1
-26.402693 -1.244197 -9.560794 28.107988 0.047089 1.917868 0.230597 -0.066360 411104.000000 0 0 1
-26.542823 0.126403 -9.349294 28.141548 -0.004762 1.909457 0.238077 -0.067904 -135755.000000 0 0 1
-26.779453 0.582103 -7.898094 27.925935 -0.021734 1.857532 0.265049 -0.063240 156312.000000 0 0 1
-25.570583 0.523003 -7.158194 26.558765 -0.020450 1.843694 0.252503 -0.058304 425194.000000 0 0 1
-25.755513 0.719803 -5.774094 26.404634 -0.027940 1.791255 0.258773 -0.059962 -456173.000000 0 0 1
-24.461623 1.211403 -5.152294 25.027677 -0.049482 1.778143 0.205668 -0.046689 -378175.000000 0 0 1
-24.174923 2.562903 -5.442294 24.912124 -0.105620 1.791032 0.247275 -0.044651 904470.000000 0 1 0
-22.790323 2.944503 -5.367394 23.598259 -0.128488 1.800253 0.235116 -0.027779 784997.000000 0 1 0
-22.618423 4.426703 -5.638094 23.727133 -0.193269 1.810714 0.223344 -0.029024 -159314.000000 0 1 0
-22.906523 5.216903 -4.515594 23.923115 -0.223928 1.760690 0.224932 -0.031799 481230.000000 0 1 0
-22.651023 6.579003 -4.739994 24.058671 -0.282673 1.769112 0.210619 -0.029831 -535183.000000 0 1 0
-22.971523 7.584403 -3.599494 24.457522 -0.318897 1.718506 0.220791 -0.031791 -421387.000000 0 1 0
-22.310623 7.427803 -2.339394 23.630677 -0.321385 1.669957 0.194437 -0.036109 1992630.000000 0 1 0
-20.931523 7.891203 -2.197894 22.477332 -0.360524 1.668736 0.191852 -0.035045 884995.000000 0 1 0
-20.555923 9.388503 -2.387894 22.724260 -0.428436 1.676072 0.180450 -0.040515 -688293.000000 0 1 0
-20.426723 9.814303 -3.727494 22.966623 -0.447897 1.733818 0.147304 -0.031446 564789.000000 0 1 0
-20.099223 11.193403 -3.866694 23.328574 -0.508131 1.737314 0.151092 -0.026400 -236721.000000 0 1 0
-19.922523 11.605003 -5.319594 23.661807 -0.527457 1.797552 0.127367 -0.029223 -116233.000000 0 1 0
-18.696723 11.311503 -5.948194 22.647264 -0.544087 1.836559 0.080092 -0.024922 57964.500000 0 1 0
-18.797823 11.677903 -7.311194 23.306332 -0.555889 1.889883 0.091313 -0.015408 498226.000000 0 1 0
-17.464623 11.623603 -8.142994 22.503990 -0.587230 1.941044 0.064648 -0.006385 723796.000000 0 1 0
-16.902923 10.318503 -8.476794 21.541503 -0.548073 1.975243 0.031828 0.000667 1054180.000000 0 1 0
-17.762023 9.432803 -9.247594 22.135610 -0.488190 2.001786 0.058077 -0.012423 219178.000000 0 1 0
-17.895623 9.746503 -10.761794 23.044823 -0.498711 2.056685 0.053692 -0.013592 -208084.000000 0 1 0
-16.844423 9.383203 -11.628294 22.516579 -0.508241 2.113476 0.063703 -0.017830 2415.540000 0 1 0
-17.112823 9.951703 -12.895594 23.625864 -0.526732 2.148170 0.089437 -0.023518 172693.000000 0 1 0
-16.128123 9.452803 -13.968894 23.336706 -0.530141 2.212524 0.067243 -0.011528 -212808.000000 0 1 0
-16.297723 8.153303 -14.514594 23.297330 -0.463866 2.243388 0.112159 -0.043164 -45244.000000 0 1 0
-15.803023 7.073503 -13.774994 22.125109 -0.420860 2.242851 0.082420 -0.026968 -211721.000000 0 1 0
-15.741723 5.754903 -14.598794 22.227135 -0.350489 2.287364 0.099582 -0.033671 -210751.000000 0 1 0
-14.651523 5.738103 -15.494094 22.083023 -0.373278 2.348478 0.117037 -0.038060 339175.000000 0 1 0
-14.600823 4.555003 -16.233394 22.303703 -0.302401 2.385954 0.118702 -0.041592 20389.200000 0 1 0
33.785045 -15.246097 27.526802 46.169228 -0.423908 0.932018 0.098616 -0.004936 934006.000000 0 0 1
32.587175 -14.535897 27.937982 45.318287 -0.419574 0.906527 0.131086 -0.007504 927179.000000 0 0 1
31.849475 -15.068397 29.043672 45.661587 -0.441907 0.881410 0.118743 -0.006923 242438.000000 0 0 1
32.501975 -15.075297 30.463972 47.028678 -0.434293 0.866137 0.096737 -0.014071 -123018.000000 0 0 1
32.703515 -13.774297 30.927512 47.071883 -0.398637 0.853928 0.090943 -0.022831 -148511.000000 0 0 1
33.386385 -13.696697 32.141161 48.324988 -0.389309 0.843163 0.068993 -0.026855 -331440.000000 0 0 1
33.473955 -12.226297 32.591389 48.292718 -0.350194 0.830006 0.093369 -0.024576 -15400.800000 0 0 1
33.976645 -12.099897 -33.420604 49.170690 -0.342120 2.318130 0.052590 -0.041168 250694.000000 0 0 1
34.097845 -10.745697 -33.010184 48.660100 -0.305291 2.316356 0.082598 -0.028924 -253035.000000 0 0 1
33.734625 -10.383997 -31.543234 47.337385 -0.298610 2.300098 0.084866 -0.033480 850484.000000 0 0 1
32.332825 -10.620497 -31.331404 46.258658 -0.317371 2.314895 0.158259 -0.036518 803969.000000 0 0 1
31.934435 -10.205097 -30.051024 45.022397 -0.309307 2.301600 0.130358 -0.036479 -285958.000000 0 0 1
30.438565 -10.453597 -29.773034 43.843101 -0.330812 2.317307 0.145428 -0.034225 -99586.900000 0 0 1
29.999265 -10.124997 -28.463674 42.575254 -0.325503 2.303053 0.130781 -0.037817 338340.000000 0 0 1
28.900865 -10.960197 -28.120184 41.786729 -0.362478 2.308980 0.163513 -0.039402 -656751.000000 0 0 1
28.429565 -10.860597 -26.666834 40.463722 -0.364909 2.290326 0.150538 -0.037501 -680938.000000 0 0 1
27.707265 -9.712497 -26.228944 39.369819 -0.337156 2.299924 0.125213 -0.036643 1142890.000000 0 0 1
26.505765 -9.420797 -26.984184 38.980164 -0.341499 2.335404 0.108880 -0.034822 -335099.000000 0 0 1
25.280765 -10.267497 -26.791634 38.240427 -0.385787 2.347049 0.114381 -0.023821 -1189400.000000 0 0 1
25.465365 -11.573897 -27.262434 39.059957 -0.426586 2.343346 0.131863 -0.034816 -246308.000000 0 0 1
24.227765 -12.234497 -27.180964 38.411878 -0.467622 2.356919 0.119027 -0.046091 -90205.800000 0 0 1
24.339765 -13.604597 -27.853684 39.412396 -0.509685 2.355653 0.142181 -0.029609 100414.000000 0 0 1
24.694865 -13.512697 -29.216474 40.571317 -0.500681 2.374781 0.140051 -0.028157 467180.000000 0 0 1
26.029465 -13.917597 -29.501234 41.731947 -0.491010 2.355933 0.128458 -0.020479 204475.000000 0 0 1
26.204165 -13.993597 -31.029274 42.956896 -0.490493 2.377969 0.133263 -0.028401 -231131.000000 0 0 1
25.461965 -15.028697 -31.629914 43.296939 -0.533213 2.389901 0.138550 -0.019278 -20242.600000 0 0 1
25.712065 -15.278697 -33.024914 44.555514 -0.536161 2.405665 0.127583 -0.008968 -15487.900000 0 0 1
25.654265 -14.211397 33.227233 44.318779 -0.505877 0.723138 0.088184 -0.017953 524216.000000 0 0 1
24.358065 -13.672597 32.990294 43.227477 -0.511490 0.702578 0.096238 -0.015342 368403.000000 0 0 1
24.394865 -12.729497 31.922920 42.145253 -0.480943 0.711398 0.074889 -0.015079 -389515.000000 0 0 1
23.456965 -11.444797 32.114043 41.382658 -0.453926 0.682455 0.077585 -0.023202 1136240.000000 0 0 1
22.053065 -11.717397 32.133666 40.696530 -0.488394 0.660652 0.079009 -0.021244 530285.000000 0 0 1
21.525965 -12.134797 30.917562 39.579238 -0.513322 0.674281 0.066191 -0.019774 -1316820.000000 0 0 1
20.022965 -12.425597 31.123042 39.037909 -0.555405 0.648068 0.073904 -0.018576 -91733.200000 0 0 1
19.299465 -11.202997 31.163132 38.329066 -0.525945 0.621439 0.077406 -0.016317 -637033.000000 0 0 1
18.369065 -11.232297 32.168563 38.709217 -0.548817 0.589837 0.072394 -0.018330 -529733.000000 0 0 1
17.517765 -9.970397 32.430831 38.184286 -0.517434 0.556093 0.091354 -0.021166 -228205.000000 0 0 1
16.768065 -9.661097 31.249092 36.756095 -0.522706 0.554480 0.137514 -0.021438 388425.000000 0 0 1
15.935965 -8.492197 31.283543 36.121080 -0.489616 0.523501 0.138484 -0.017741 888882.000000 0 0 1
14.795365 -8.378597 32.376065 36.569294 -0.515270 0.483583 0.144478 -0.025438 -906824.000000 0 0 1
14.012465 -9.506997 32.238841 36.415313 -0.596128 0.483636 0.145181 -0.023202 -365976.000000 0 0 1
12.907065 -9.572797 33.123248 36.815490 -0.638149 0.451693 0.122844 -0.023468 143409.000000 0 0 1
11.612465 -9.010297 32.498837 35.668042 -0.659882 0.424737 0.147866 -0.016831 -586432.000000 0 0 1
11.677765 -7.580497 32.408571 35.272505 -0.575770 0.405753 0.140738 -0.023323 597598.000000 0 0 1
10.389265 -7.065997 32.092616 34.464491 -0.597262 0.373162 0.150553 -0.013514 434642.000000 0 0 1
10.563565 -5.586397 31.759069 33.932804 -0.486450 0.359877 0.127251 -0.011814 125453.000000 0 0 1
11.074865 -4.816497 32.825874 34.976982 -0.410229 0.352538 0.113329 -0.015890 257400.000000 0 0 1
11.316965 -3.491797 32.432627 34.527404 -0.299278 0.350125 0.078444 -0.013935 -120140.000000 0 0 1
11.329865 -2.485797 33.632092 35.576153 -0.215980 0.332115 0.074329 -0.015967 -929975.000000 0 0 1
10.056065 -2.193597 -33.264974 34.820897 -0.214772 2.841525 0.072503 -0.006210 -567799.000000 0 0 1
10.064265 -1.408297 -32.161464 33.728809 -0.139028 2.835542 0.076804 -0.011594 299182.000000 0 0 1
8.624965 -1.060497 -31.692614 32.862387 -0.122343 2.873976 0.098114 -0.010579 381663.000000 0 0 1
7.908865 -0.104797 -32.465214 33.414836 -0.013250 2.902616 0.082063 -0.010929 631668.000000 0 0 1
6.537565 -0.084397 -32.059854 32.719736 -0.012909 2.940417 0.098393 -0.014046 1010990.000000 0 0 1
5.594365 0.878303 -32.883684 33.367725 0.155727 2.971056 0.138971 -0.021319 596965.000000 0 0 1
6.038265 2.272303 -32.847014 33.474623 0.359925 2.947646 0.098423 -0.023389 82237.400000 0 0 1
5.309165 3.077403 33.582722 34.138788 0.525314 0.180736 0.110955 -0.024560 64114.500000 0 0 1
5.870065 4.524703 33.564832 34.373370 0.656687 0.217325 0.097496 -0.029189 196975.000000 0 0 1
5.402765 5.335803 32.503222 33.378438 0.779163 0.229506 0.112811 -0.037968 87134.700000 0 0 1
6.375865 6.331403 32.242580 33.471216 0.781899 0.271787 0.108817 -0.036271 110943.000000 0 0 1
5.882965 7.449103 31.285093 32.693355 0.902334 0.294577 0.129819 -0.044545 -188141.000000 0 0 1
4.817465 8.108903 31.957826 33.320638 1.034729 0.286991 0.144762 -0.051122 173557.000000 0 0 1
4.473265 9.390603 31.336193 33.017427 1.126243 0.320492 0.159211 -0.059933 100969.000000 0 0 1
3.977765 9.435803 29.884992 31.590659 1.171842 0.330108 0.164225 -0.060204 816419.000000 0 0 1
2.710165 8.767503 29.637112 31.025353 1.270998 0.300277 0.171568 -0.060795 873506.000000 0 0 1
2.398665 8.776903 28.258892 29.687583 1.304018 0.311497 0.143273 -0.043066 -280925.000000 0 0 1
1.165565 7.934403 27.975262 29.102037 1.424939 0.279179 0.143773 -0.041505 -429085.000000 0 0 1
-0.068335 8.329203 28.571082 29.760494 -1.562592 0.283673 0.149891 -0.041291 -974547.000000 0 0 1
-0.959135 8.049503 27.573422 28.740356 -1.452201 0.285938 0.135862 -0.041075 -1061900.000000 0 0 1
-2.389435 8.112603 28.129092 29.372939 -1.284362 0.292058 0.121382 -0.039674 2358.230000 0 0 1
-2.813135 9.396003 28.649182 30.281582 -1.279893 0.329845 0.116858 -0.037529 -712729.000000 0 0 1
-4.162635 9.496703 28.970782 30.770458 -1.157694 0.343704 0.093304 -0.023095 -677304.000000 0 0 1
-4.646535 10.852703 29.670132 31.932557 -1.166265 0.378690 0.086835 -0.014129 -88038.000000 0 0 1
-4.720735 11.929503 28.796912 31.525553 -1.193986 0.419122 0.068096 -0.019400 561.027000 0 0 1
-5.937935 11.994403 28.094542 31.119577 -1.111110 0.444576 0.060753 -0.022492 -284859.000000 0 0 1
-6.274635 13.380503 27.535512 31.250813 -1.132305 0.492585 0.041618 -0.013240 -88784.500000 0 0 1
-5.302935 13.824603 26.635892 30.474768 -1.204519 0.507358 0.035239 -0.011087 -194388.000000 0 0 1
-5.644535 15.151503 26.251842 30.831608 -1.214184 0.552036 0.028914 -0.006150 621003.000000 0 0 1
-4.550035 15.971603 25.453412 30.391958 -1.293266 0.578096 0.068106 -0.006991 497137.000000 0 0 1
-4.481035 15.626603 24.140272 29.103662 -1.291533 0.592659 0.066444 -0.000213 -185925.000000 0 0 1
-3.404335 16.329103 23.581402 28.884453 -1.365258 0.615639 0.080624 -0.004410 -103159.000000 0 0 1
-3.345635 16.248703 22.008682 27.560764 -1.367733 0.645912 0.091896 -0.007274 91779.300000 0 0 1
-2.614535 15.070303 21.579682 26.450567 -1.399017 0.616600 0.064774 -0.007512 372998.000000 0 0 1
-2.423635 15.123903 20.155382 25.314934 -1.411895 0.649832 0.076548 -0.014888 152585.000000 0 0 1
-1.512435 13.974803 19.634382 24.147288 -1.462990 0.621323 0.072853 -0.020943 20692.000000 0 1 0
-2.060535 12.683003 19.706282 23.525346 -1.409739 0.577808 0.067292 -0.017908 -90588.200000 0 1 0
-1.209735 11.758403 19.075982 22.441404 -1.468274 0.554744 0.058271 -0.017944 -112118.000000 0 1 0
-1.895835 10.368903 18.921882 21.659777 -1.389955 0.508254 0.041508 -0.018749 -232525.000000 0 1 0
-2.157235 9.549403 20.038382 22.302052 -1.348623 0.454457 0.067710 -0.027392 195399.000000 0 1 0
-3.006535 10.015303 21.088082 23.538325 -1.279162 0.460334 0.073111 -0.018471 -64788.300000 0 1 0
-4.520235 10.030803 20.817582 23.546152 -1.147414 0.486193 0.061093 -0.018250 -312692.000000 0 1 0
-5.102735 8.699803 20.826982 23.140606 -1.040337 0.450984 0.048876 -0.023015 -268785.000000 0 1 0
-6.491635 8.837803 20.942582 23.639793 -0.937270 0.482358 0.039888 -0.014790 69327.800000 0 1 0
-7.382435 7.551103 20.864182 23.384473 -0.796692 0.468551 0.038173 -0.015786 347915.000000 0 1 0
-7.248835 6.820203 22.083182 24.222463 -0.754941 0.423437 0.041657 -0.023037 -51110.900000 0 1 0
-8.181535 5.784503 22.036182 24.207257 -0.615421 0.426757 0.032745 -0.023556 -169886.000000 0 1 0
-8.318335 4.895603 23.302582 25.222449 -0.531944 0.392691 0.041714 -0.027922 25646.700000 0 0 1
-8.982035 5.620603 24.331852 26.538786 -0.559146 0.410701 0.012208 -0.021352 147765.000000 0 0 1
-9.018635 4.800203 25.471532 27.444064 -0.489117 0.381451 0.019069 -0.011940 46008.500000 0 0 1
-9.975435 5.311503 26.596382 28.897905 -0.489276 0.401805 0.038978 -0.012106 -72409.600000 0 0 1
-9.487535 6.464103 27.231212 29.552273 -0.598083 0.398976 0.029015 -0.014164 -738160.000000 0 0 1
-10.450735 6.955303 28.090312 30.767836 -0.587217 0.420276 0.043562 -0.009745 -465201.000000 0 0 1
-9.990335 8.187003 28.921602 31.674799 -0.686514 0.420024 0.060686 -0.013357 283872.000000 0 0 1
-8.970835 7.724703 29.807042 32.071898 -0.710898 0.378062 0.069798 -0.015218 428462.000000 0 0 1
-8.406235 8.746703 30.625972 32.941156 -0.805245 0.377151 0.083713 -0.023818 243615.000000 0 0 1
-7.446635 8.312603 31.740236 33.645123 -0.840293 0.338111 0.117400 -0.027846 1171910.000000 0 0 1
-6.098735 7.939103 31.356649 32.916005 -0.915755 0.309039 0.106884 -0.035457 686591.000000 0 0 1
-5.462235 7.446003 32.518530 33.804345 -0.937888 0.276697 0.148659 -0.030218 -696689.000000 0 0 1
-3.971235 7.222103 32.366719 33.399611 -1.068051 0.249343 0.115717 -0.031749 -557373.000000 0 0 1
-3.284935 8.442103 32.168406 33.419549 -1.199710 0.274494 0.103766 -0.044831 344378.000000 0 0 1
-1.885235 8.271203 31.908973 33.017412 -1.346697 0.259849 0.114109 -0.048474 762839.000000 0 0 1
-1.163435 9.550203 31.550809 32.985050 -1.449571 0.295974 0.114924 -0.043162 -179334.000000 0 0 1
-1.331735 10.525903 32.527786 34.214398 -1.444945 0.315296 0.116348 -0.055780 61166.100000 0 0 1
-1.712435 11.708803 31.854065 33.981023 -1.425574 0.355687 0.101896 -0.046390 -229424.000000 0 0 1
-1.869335 12.967103 32.681565 35.209727 -1.427623 0.381259 0.101394 -0.051678 -41080.600000 0 0 1
-0.654935 13.436403 33.250605 35.868769 -1.522092 0.384444 0.165900 -0.057342 -32049.800000 0 0 1
-0.874035 14.473403 -33.178604 36.208606 -1.510481 2.729584 0.161420 -0.054011 38614.800000 0 0 1
0.407665 14.901903 -32.431134 35.693296 1.543447 2.710730 0.149396 -0.055606 -73004.400000 0 0 1
1.343865 15.602803 -33.228144 36.733677 1.484879 2.701164 0.168196 -0.055509 12287.400000 0 0 1
2.501765 15.784103 -32.444604 36.166962 1.413605 2.683909 0.195397 -0.061072 -338134.000000 0 0 1
3.635265 16.517603 -33.155734 37.220278 1.354166 2.669894 0.203492 -0.051122 -325106.000000 0 0 1
3.410265 17.895303 -33.223944 37.890662 1.382487 2.640040 0.185028 -0.040749 51832.200000 0 0 1
4.422365 18.557803 33.398462 38.463055 1.336857 0.518980 0.163763 -0.015251 105244.000000 0 0 1
4.246465 20.096003 33.305072 39.129396 1.362551 0.552620 0.166930 -0.028622 -58840.300000 0 0 1
4.384165 20.769503 -32.804384 39.073275 1.362764 2.567270 0.187281 -0.052208 322689.000000 0 0 1
4.096965 22.179303 -32.906604 39.894251 1.388135 2.540726 0.164957 -0.040878 -6233.920000 0 0 1
4.051765 22.953803 -31.631154 39.291524 1.396078 2.506535 0.177822 -0.044826 -154413.000000 0 0 1
3.800465 24.289403 -31.971034 40.330704 1.415589 2.486058 0.177795 -0.046563 217657.000000 0 0 1
3.266665 24.870403 -30.820254 39.737843 1.440196 2.458445 0.167396 -0.049053 -198106.000000 0 0 1
2.821765 26.277603 -30.847774 40.620930 1.463823 2.433196 0.172063 -0.062853 354866.000000 0 0 1
3.920265 27.181903 -30.718974 41.205336 1.427561 2.412095 0.172511 -0.064742 727845.000000 0 0 1
3.420465 28.391103 -30.182974 41.578435 1.450898 2.383180 0.158188 -0.061966 -660279.000000 0 0 1
4.466965 29.490003 -30.081954 42.361988 1.420465 2.360460 0.158010 -0.071401 -371213.000000 0 0 1
5.355665 29.256203 -29.000594 41.540860 1.389740 2.343568 0.165467 -0.079867 -305501.000000 0 0 1
6.011065 30.431703 -28.715134 42.270326 1.375780 2.317634 0.163292 -0.086990 -602696.000000 0 0 1
7.211965 30.317203 -27.745664 41.724899 1.337253 2.298245 0.184492 -0.072911 -159585.000000 0 0 1
8.317265 29.628103 -28.340534 41.835240 1.297118 2.315062 0.195487 -0.070792 1248930.000000 0 0 1
9.614465 30.220103 -28.097434 42.369310 1.262774 2.295823 0.189888 -0.067539 1059260.000000 0 0 1
9.900465 31.558203 -28.847034 43.887251 1.266800 2.288025 0.184112 -0.066201 -708818.000000 0 0 1
9.129265 32.703803 -28.395394 44.262633 1.298576 2.267275 0.169019 -0.065357 408075.000000 0 0 1
9.005765 -33.649456 -29.336704 45.541541 -1.309290 2.270740 0.152007 -0.055788 602317.000000 0 0 1
7.829465 33.606303 -30.368924 45.966898 1.341903 2.292507 0.111855 -0.053615 607197.000000 0 0 1
8.296165 32.676503 -31.356854 46.041639 1.322162 2.319998 0.108874 -0.043651 584725.000000 0 0 1
7.147865 31.913203 -31.711914 45.554254 1.350455 2.340796 0.089653 -0.044037 301706.000000 0 0 1
7.134565 31.337903 -33.147704 46.170732 1.346946 2.371631 0.107481 -0.050399 -52707.100000 0 0 1
6.823765 32.237503 33.152471 46.742986 1.362204 0.782362 0.115060 -0.043670 178768.000000 0 0 1
6.860865 31.606703 31.921983 45.443021 1.357043 0.791946 0.122764 -0.037506 -309091.000000 0 0 1
6.515165 32.431003 30.638172 45.087858 1.372542 0.823686 0.100323 -0.039609 50801.300000 0 0 1
7.467165 33.331703 30.112642 45.536054 1.350409 0.848256 0.092086 -0.031026 275118.000000 0 0 1
6.930965 -33.677156 28.866922 44.894190 -1.367824 0.872389 0.078351 -0.042395 198867.000000 0 0 1
18.981177 -21.714797 28.867712 40.806400 -0.852469 0.784940 0.142361 -0.013979 -522207.000000 0 0 1
18.054177 -20.667197 29.009262 39.932739 -0.852779 0.757650 0.155364 -0.011273 1024330.000000 0 0 1
16.730777 -21.069197 29.449572 39.888686 -0.899671 0.740259 0.171136 -0.010606 1106690.000000 0 0 1
16.620377 -21.624897 30.927592 41.235774 -0.915512 0.722706 0.146464 -0.020921 -994562.000000 0 0 1
17.187977 -22.828297 31.257722 42.350949 -0.925426 0.740599 0.174498 -0.023303 -128485.000000 0 0 1
17.084477 -23.054797 32.691021 43.498343 -0.933056 0.720393 0.153752 -0.022607 -14837.400000 0 0 1
18.043177 -24.111597 33.262608 44.870106 -0.928372 0.735778 0.151683 -0.028487 -64036.300000 0 0 1
17.699877 -25.442977 32.863804 45.173668 -0.962983 0.756126 0.176541 -0.036212 338364.000000 0 0 1
18.653277 -26.304737 33.478472 46.483244 -0.953974 0.766667 0.180132 -0.039795 188294.000000 0 0 1
18.316777 -27.762277 33.347222 47.098679 -0.987582 0.784093 0.176802 -0.035632 -90221.100000 0 0 1
18.784477 -28.377827 32.182129 46.838521 -0.986072 0.813324 0.178469 -0.042799 -119435.000000 0 0 1
18.386077 -29.704857 31.990235 47.368782 -1.016553 0.829365 0.171842 -0.047106 172894.000000 0 0 1
19.201177 -30.462377 30.881372 47.437335 -1.008377 0.861904 0.154605 -0.044908 -172628.000000 0 0 1
20.468577 -30.907777 31.201282 48.453827 -0.985860 0.871161 0.160186 -0.050481 -127485.000000 0 0 1
21.283477 -31.386977 30.110152 48.422618 -0.974921 0.899732 0.134334 -0.048777 436995.000000 0 0 1
22.696377 -31.894037 30.518672 49.636120 -0.952315 0.908603 0.133584 -0.046601 820608.000000 0 0 1
23.675077 -30.882017 30.733482 49.585836 -0.916737 0.902304 0.118261 -0.045925 513290.000000 0 0 1
25.030277 -31.249687 30.605122 50.395746 -0.895460 0.918144 0.085227 -0.036768 -24221.400000 0 0 1
25.955077 -30.034457 30.520892 50.072542 -0.858129 0.915324 0.065117 -0.033225 -511335.000000 0 0 1
27.144677 -30.255307 29.820872 50.413307 -0.839537 0.937844 0.065594 -0.036344 -637352.000000 0 0 1
27.774977 -28.994217 29.725862 49.957390 -0.806872 0.933500 0.043819 -0.032851 -363403.000000 0 0 1
29.029177 -28.995047 28.841782 50.152310 -0.784810 0.958090 0.038342 -0.031436 52327.900000 0 0 1
30.163377 -29.454987 29.561682 51.490957 -0.773517 0.959275 0.031397 -0.023001 -86416.200000 0 0 1
31.341177 -29.490437 28.798632 51.781430 -0.754984 0.981041 0.030655 -0.040414 -100596.000000 0 0 1
32.298877 -30.543627 29.388842 53.290099 -0.757474 0.986650 0.009406 -0.020667 -250810.000000 0 0 1
31.766177 -31.862117 29.283262 53.682343 -0.786906 0.993821 0.005767 -0.026998 734232.000000 0 0 1
32.801677 -32.865247 29.299642 54.904859 -0.786366 1.007893 0.016783 -0.021623 -287919.000000 0 0 1
32.161477 33.113847 29.310292 54.680716 0.799987 1.005074 0.015933 -0.014563 -245306.000000 0 0 1
31.604177 32.686507 30.535192 54.768876 0.802232 0.979391 0.038308 -0.018954 1448230.000000 0 0 1
30.538277 33.511773 31.159002 55.013714 0.831789 0.968682 0.035712 -0.019237 -12539.500000 0 0 1
29.208477 -33.703737 30.474042 54.016148 -0.856730 0.971374 0.032873 -0.020037 -1378370.000000 0 0 1
28.533677 32.476511 30.577002 52.951370 0.849934 0.955189 0.024788 -0.013022 -407836.000000 0 0 1
27.179977 32.726504 30.236942 52.192412 0.877721 0.952883 0.055110 -0.017388 157280.000000 0 0 1
26.301877 31.466313 30.282342 50.979779 0.874560 0.934766 0.077348 -0.026592 18240.400000 0 0 1
26.276477 30.783353 29.089212 49.842255 0.864220 0.947610 0.066184 -0.019474 9000.930000 0 0 1
25.511277 29.605973 29.265602 48.824322 0.859553 0.928037 0.093293 -0.034983 -77457.900000 0 0 1
25.023377 28.860253 27.999652 47.360998 0.856485 0.938255 0.098671 -0.038674 -129915.000000 0 0 1
23.878377 29.453893 27.429412 46.798305 0.889563 0.944535 0.118021 -0.039005 -78963.900000 0 0 1
23.361877 28.762973 26.302932 45.441503 0.888648 0.953502 0.118025 -0.036010 -131128.000000 0 0 1
21.989577 29.325343 25.907452 44.885558 0.927392 0.955514 0.141897 -0.032424 -232375.000000 0 0 1
21.942677 30.656193 25.424902 45.472067 0.949567 0.977457 0.122351 -0.041687 98006.800000 0 0 1
20.596777 31.052753 25.194322 44.980602 0.985140 0.976271 0.122155 -0.036533 35290.800000 0 0 1
20.414377 32.522297 24.761002 45.689756 1.010255 0.998055 0.134116 -0.033173 -199805.000000 0 0 1
20.894777 32.827495 23.431182 45.423083 1.003968 1.028805 0.131930 -0.030884 643003.000000 0 0 1
22.283077 33.156516 23.440652 46.317969 0.979071 1.040161 0.124097 -0.028563 296273.000000 0 0 1
22.989077 33.289828 22.078182 46.088572 0.966425 1.071238 0.133948 -0.032564 -33682.200000 0 0 1
22.606777 -32.970147 21.336282 45.313727 -0.969750 1.080534 0.124126 -0.019829 472262.000000 0 0 1
23.258277 -32.956877 20.048582 45.044964 -0.956243 1.109533 0.140178 -0.024002 355075.000000 0 0 1
22.978977 -31.611477 19.228982 43.555397 -0.942232 1.113545 0.124407 -0.023125 65274.400000 0 0 1
23.554477 -30.514837 19.943082 43.401557 -0.913424 1.093362 0.114746 -0.013222 235304.000000 0 0 1
23.269477 -29.262277 19.349082 42.096750 -0.898987 1.093214 0.116664 -0.026676 51459.300000 0 0 1
24.054877 -28.837027 18.078682 41.677931 -0.875567 1.122122 0.097769 -0.024884 -194377.000000 0 0 1
23.561277 -29.388517 16.899882 41.284679 -0.895009 1.149055 0.089764 -0.029870 149196.000000 0 0 1
23.860077 -28.508417 15.854582 40.415354 -0.873928 1.167675 0.078385 -0.022872 -6732.290000 0 0 1
23.392477 -29.169957 14.534382 40.116613 -0.894875 1.200058 0.073214 -0.024500 -293509.000000 0 0 1
24.037777 -30.412307 14.344982 41.334025 -0.901939 1.216372 0.098111 -0.023310 85228.300000 0 0 1
24.224377 -30.833987 12.988082 41.306724 -0.904874 1.250940 0.076849 -0.020992 1220670.000000 0 0 1
22.862377 -31.081817 12.160182 40.455378 -0.936604 1.265493 0.081051 -0.023525 1471030.000000 0 0 1
22.224977 -32.338907 12.413082 41.156277 -0.968677 1.264417 0.079889 -0.028061 133740.000000 0 0 1
21.030377 -32.507747 11.679382 40.440553 -0.996579 1.277819 0.074295 -0.020664 -314924.000000 0 0 1
19.957577 -33.284497 12.432782 40.752137 -1.030667 1.260771 0.081251 -0.014499 -192488.000000 0 0 1
19.441677 -32.485437 13.547282 40.209592 -1.031500 1.227156 0.075909 -0.014247 494269.000000 0 0 1
20.013377 -32.958637 14.769182 41.290867 -1.025080 1.205007 0.070837 -0.018450 -604195.000000 0 0 1
19.818077 -31.977777 15.984082 40.875729 -1.015985 1.169034 0.083813 -0.023439 1052930.000000 0 0 1
18.507477 -31.452227 16.361782 39.993464 -1.038927 1.149316 0.105574 -0.030098 1469160.000000 0 0 1
17.489477 -32.393817 16.696082 40.422770 -1.075739 1.145011 0.105390 -0.029788 -141417.000000 0 0 1
17.734777 -33.174367 18.038782 41.718804 -1.079859 1.123655 0.088508 -0.026090 -54019.700000 0 0 1
18.725077 33.206601 17.874882 42.104849 1.057347 1.132351 0.087529 -0.020995 465305.000000 0 0 1
19.140077 32.650162 19.095982 42.391416 1.040573 1.103507 0.087628 -0.014847 78282.900000 0 0 1
19.905477 31.335403 18.964982 41.687001 1.004868 1.098494 0.103601 -0.020378 -47814.200000 0 0 1
19.091677 30.247703 18.639682 40.334271 1.007767 1.090401 0.064794 -0.019657 -254462.000000 0 0 1
19.879477 29.110653 18.443982 39.784472 0.971644 1.088745 0.076647 -0.026482 466504.000000 0 0 1
19.026677 27.761193 18.350582 38.333304 0.969957 1.071610 0.080371 -0.022458 557507.000000 0 0 1
18.707677 27.171413 19.597482 38.370877 0.967826 1.034753 0.095895 -0.035230 -170678.000000 0 0 1
18.036677 25.977333 19.249882 37.022986 0.963890 1.024011 0.099416 -0.044188 -699287.000000 0 0 1
18.061077 24.894153 20.364682 36.886876 0.943151 0.985934 0.115514 -0.040804 156702.000000 0 0 1
16.991777 24.981293 21.305182 36.968856 0.973497 0.956601 0.111746 -0.039727 480131.000000 0 0 1
15.890977 24.206753 20.845182 35.679289 0.989887 0.946856 0.108914 -0.044784 -622736.000000 0 0 1
14.543177 24.422763 21.513082 35.648114 1.033710 0.922933 0.138409 -0.059494 -412371.000000 0 0 1
13.936177 25.640093 21.083982 36.002301 1.072934 0.945141 0.128611 -0.054498 -656249.000000 0 0 1
12.801077 25.905163 21.846582 36.224553 1.111838 0.923430 0.134220 -0.053168 -573599.000000 0 0 1
11.925177 26.980873 21.196382 36.324427 1.154627 0.947728 0.115686 -0.052097 -480070.000000 0 0 1
12.416177 28.252293 21.369682 37.536873 1.156729 0.965144 0.102132 -0.045562 -153199.000000 0 0 1
11.819277 29.181453 20.466482 37.551690 1.185964 0.994381 0.101124 -0.050553 -148511.000000 0 0 1
12.443677 30.557173 20.453982 38.819471 1.184076 1.015847 0.086236 -0.045308 -138912.000000 0 0 1
11.928677 31.388803 21.480282 39.861671 1.207623 1.001701 0.094500 -0.045751 330521.000000 0 0 1
12.535477 31.032183 22.766382 40.477682 1.186889 0.973459 0.089503 -0.036294 333292.000000 0 0 1
12.028677 31.950617 23.856752 41.649437 1.210731 0.960880 0.086300 -0.039883 647053.000000 0 0 1
10.644577 31.777295 24.156802 41.311676 1.247570 0.946230 0.088421 -0.045753 377148.000000 0 0 1
10.371577 32.320154 25.452072 42.426052 1.260276 0.927400 0.091866 -0.041633 -886002.000000 0 0 1
8.998777 31.887442 25.965442 42.095025 1.295745 0.906088 0.169429 -0.057201 -261004.000000 0 0 1
7.870677 32.657056 25.537972 42.197380 1.334297 0.920776 0.145160 -0.052232 699393.000000 0 0 1
7.230877 32.389157 24.300992 41.132484 1.351148 0.938749 0.145659 -0.070682 -257648.000000 0 0 1
6.245377 31.219913 24.367082 40.092922 1.373358 0.917553 0.133143 -0.055977 -692293.000000 0 0 1
6.934877 30.002203 24.569642 39.394061 1.343640 0.897343 0.109071 -0.053096 -457221.000000 0 0 1
6.160977 28.845733 24.341652 38.243300 1.360374 0.880852 0.113248 -0.044542 -1448600.000000 0 0 1
6.902777 27.522623 24.634482 37.576599 1.325061 0.855845 0.111353 -0.039751 172243.000000 0 0 1
7.940977 27.279153 23.654362 36.969449 1.287524 0.876512 0.109729 -0.043128 727216.000000 0 0 1
9.064777 28.128083 23.723622 37.896827 1.259038 0.894376 0.143848 -0.052046 -1736820.000000 0 0 1
10.170977 27.675253 24.653132 38.433648 1.218607 0.874414 0.135333 -0.050736 -1470380.000000 0 0 1
9.910977 27.878693 26.050392 39.421719 1.229227 0.848895 0.136595 -0.042857 292708.000000 0 0 1
11.076177 27.515153 26.766852 39.952844 1.188095 0.836640 0.135830 -0.025784 497356.000000 0 0 1
12.205477 28.588863 26.746752 41.008359 1.167291 0.860278 0.121930 -0.029092 -318206.000000 0 0 1
11.857677 29.798253 27.371832 42.163463 1.192074 0.864286 0.124389 -0.042126 -40847.100000 0 0 1
12.932277 30.689293 27.286862 43.054028 1.171984 0.884364 0.107472 -0.035006 -170735.000000 0 0 1
12.573777 31.900751 28.286422 44.450866 1.195341 0.881036 0.097831 -0.036445 100897.000000 0 0 1
12.502677 31.611203 29.684902 45.130683 1.194163 0.852963 0.105462 -0.048980 -86491.400000 0 0 1
11.244477 31.136603 30.075082 44.726244 1.224237 0.833315 0.130314 -0.048083 -417967.000000 0 0 1
11.164477 30.820883 31.612552 45.540376 1.223261 0.803537 0.152496 -0.043749 -69461.600000 0 0 1
11.672777 29.609263 32.117212 45.215899 1.195276 0.780861 0.130358 -0.042959 266208.000000 0 0 1
11.747677 29.596173 33.517662 46.231754 1.192937 0.759773 0.165337 -0.045669 -163585.000000 0 0 1
11.986877 28.255983 -33.163184 45.187195 1.169583 2.394852 0.179044 -0.048359 -17032.100000 0 0 1
13.275277 27.750443 -33.446584 45.442206 1.124593 2.397975 0.173114 -0.039005 15839.600000 0 0 1
13.313977 26.386653 -33.047184 44.335470 1.103497 2.411915 0.179570 -0.039967 -2816.950000 0 0 1
14.599977 25.670283 -33.520834 44.674032 1.053672 2.419377 0.202522 -0.040188 102336.000000 0 0 1
14.589477 24.297823 -33.361564 43.774776 1.030051 2.437375 0.161786 -0.043482 -58151.300000 0 0 1
14.966777 23.874863 -32.080064 42.698291 1.010843 2.420856 0.167095 -0.041429 -224415.000000 0 0 1
14.862977 22.361563 -31.900924 41.696722 0.984180 2.441947 0.145106 -0.058793 196781.000000 0 0 1
15.957577 21.731863 -32.564994 42.277618 0.937423 2.450054 0.148409 -0.047420 260037.000000 0 0 1
15.983977 20.327363 -32.439574 41.485120 0.904448 2.468595 0.147842 -0.047889 -172949.000000 0 0 1
17.356177 19.750363 -32.835564 42.065283 0.849831 2.466399 0.167159 -0.067243 62816.500000 0 0 1
18.331977 20.190063 -31.887194 41.958232 0.833595 2.434071 0.145399 -0.064450 46980.300000 0 0 1
19.596577 19.687963 -32.304874 42.605712 0.787724 2.431388 0.144416 -0.063562 -41768.500000 0 0 1
20.730877 20.028963 -31.347284 42.586158 0.768179 2.398073 0.105309 -0.051420 -285445.000000 0 0 1
21.365477 21.312963 -31.430684 43.573087 0.784168 2.376521 0.080953 -0.050897 1272550.000000 0 0 1
22.481177 21.575263 -30.517524 43.614385 0.764838 2.345791 0.045467 -0.025614 1358970.000000 0 0 1
22.016877 21.890863 -29.065414 42.529415 0.782528 2.323232 0.047652 -0.030827 28144.500000 0 0 1
21.513277 23.217513 -28.999264 42.928212 0.823480 2.312479 0.037699 -0.019062 5323.570000 0 0 1
21.074777 23.620303 -27.701554 42.064725 0.842290 2.289681 0.045017 0.000461 -190219.000000 0 0 1
22.145577 24.240553 -26.800784 42.382934 0.830531 2.255377 0.029852 -0.004805 -215922.000000 0 0 1
22.844877 25.367663 -27.334964 43.733363 0.837677 2.245975 0.031852 -0.000310 -117600.000000 0 0 1
22.076477 26.537683 -27.675764 44.244406 0.876909 2.246594 0.047270 -0.002242 -361512.000000 0 0 1
22.863277 27.563913 -28.512754 45.776369 0.878346 2.243203 0.036047 -0.005528 -445728.000000 0 0 1
22.954777 27.341353 -29.941504 46.593616 0.872393 2.268696 0.051950 -0.008948 187646.000000 0 0 1
23.606277 26.145443 -30.437694 46.554203 0.836391 2.283408 0.041955 -0.003346 618360.000000 0 0 1
25.061077 25.875583 -29.945764 46.843913 0.801387 2.264341 0.052171 -0.009601 -24318.400000 0 0 1
26.012977 26.867623 -30.197224 48.066792 0.801559 2.250078 0.055842 -0.012139 588828.000000 0 0 1
27.327277 26.453233 -29.771624 48.300137 0.769148 2.234944 0.077400 -0.024238 327659.000000 0 0 1
28.398077 27.450063 -30.169264 49.700516 0.768425 2.223103 0.088010 -0.023325 -690621.000000 0 0 1
28.567777 28.460603 -29.165774 49.767120 0.783519 2.196966 0.085367 -0.019065 -91283.100000 0 0 1
29.477877 29.422793 -29.620844 51.108125 0.784463 2.189000 0.095893 -0.023171 -50963.100000 0 0 1
29.473977 30.699923 -28.720624 51.342720 0.805769 2.164447 0.096557 -0.024640 -124263.000000 0 0 1
29.857277 30.484113 -27.393534 50.706448 0.795786 2.141516 0.115897 -0.021819 -280126.000000 0 0 1
28.790777 30.503743 -26.510464 49.620479 0.814279 2.134434 0.106174 -0.027732 -942541.000000 0 0 1
29.312077 30.597183 -25.071894 49.233986 0.806846 2.105097 0.143065 -0.031558 -285775.000000 0 0 1
29.923477 29.497393 -24.430694 48.604213 0.778228 2.097453 0.118704 -0.025964 142213.000000 0 0 1
29.087977 28.454643 -23.894194 47.188025 0.774392 2.101756 0.114132 -0.033770 -186448.000000 0 0 1
28.231477 28.816813 -22.635294 46.257773 0.795658 2.082117 0.105878 -0.027441 530116.000000 0 0 1
27.272777 29.844493 -22.960194 46.493749 0.830393 2.087290 0.146960 -0.038761 -1426.650000 0 0 1
26.584277 30.129433 -21.768694 45.698825 0.847827 2.067297 0.112946 -0.034098 5143.400000 0 0 1
3.754777 -25.917027 -19.015394 32.363187 -1.426921 2.198840 0.097076 -0.018039 -82186.000000 0 0 1
3.406277 -27.021847 -18.179894 32.745862 -1.445401 2.159377 0.089367 -0.017842 115235.000000 0 0 1
3.566377 -26.758627 -16.815794 31.804309 -1.438298 2.127896 0.113850 -0.021137 -84847.000000 0 0 1
3.468177 -28.003337 -15.943794 32.410179 -1.447575 2.085111 0.105735 -0.020978 358284.000000 0 0 1
4.736577 -28.629837 -15.766094 33.025330 -1.406839 2.068483 0.099038 -0.020492 255807.000000 0 0 1
4.911477 -29.306937 -14.555794 33.089127 -1.404752 2.026280 0.099620 -0.021017 -213064.000000 0 0 1
6.349877 -29.728187 -14.249494 33.572818 -1.360361 2.009135 0.128858 -0.023518 -529540.000000 0 0 1
7.257577 -28.691967 -13.951994 32.719406 -1.323045 2.011320 0.111602 -0.026078 169593.000000 0 0 1
8.612177 -29.125247 -13.851294 33.381251 -1.283294 1.998676 0.112421 -0.028850 729265.000000 0 0 1
9.011777 -29.902697 -12.551694 33.659002 -1.278083 1.952937 0.099970 -0.030988 -1024480.000000 0 0 1
9.531177 -29.115977 -11.517194 32.729638 -1.254438 1.930385 0.101977 -0.039178 55484.000000 0 0 1
9.808277 -29.786437 -10.261994 32.996100 -1.252692 1.887048 0.110113 -0.035226 -55868.700000 0 0 1
10.901677 -30.859537 -10.210694 34.284338 -1.231213 1.873209 0.098756 -0.031932 -142081.000000 0 0 1
12.207877 -30.329727 -10.400494 34.308816 -1.188132 1.878786 0.105391 -0.033960 332416.000000 0 0 1
13.149177 -31.291817 -9.959494 35.373298 -1.172989 1.856210 0.106658 -0.034099 200726.000000 0 0 1
14.288277 -30.791037 -9.021294 35.123020 -1.136328 1.830556 0.108375 -0.028973 -362809.000000 0 0 1
15.364077 -30.156587 -9.617394 35.184782 -1.099596 1.847659 0.095703 -0.038486 -99276.700000 0 0 1
16.240577 -29.702637 -8.564894 34.919341 -1.070435 1.818601 0.091691 -0.027633 -43282.000000 0 0 1
17.481377 -28.976997 -9.093094 35.042107 -1.027965 1.833291 0.091662 -0.032288 -348765.000000 0 0 1
17.352377 -27.591867 -9.402394 33.923755 -1.009401 1.851636 0.098981 -0.032223 201889.000000 0 0 1
16.639977 -27.267097 -10.597094 33.655339 -1.022868 1.891117 0.086273 -0.038804 75382.400000 0 0 1
16.323077 -25.745747 -10.779794 32.334042 -1.005744 1.910692 0.090479 -0.039202 -493177.000000 0 0 1
15.350777 -25.197487 -9.913294 31.126084 -1.023626 1.894931 0.076121 -0.037345 365701.000000 0 0 1
14.798877 -23.903697 -10.199694 29.906977 -1.016448 1.918827 0.052376 -0.020329 464018.000000 0 0 1
14.101377 -23.637397 -11.567694 29.856104 -1.032902 1.968658 0.046200 -0.024281 329295.000000 0 0 1
15.044077 -23.199597 -12.535494 30.359252 -0.995502 1.996438 0.047934 -0.028363 468625.000000 0 0 1
14.354477 -23.401697 -13.771094 30.713734 -1.020586 2.035736 0.070155 -0.035487 292613.000000 0 0 1
15.020577 -22.775597 -15.006694 31.137540 -0.987769 2.073674 0.064573 -0.044327 993620.000000 0 0 1
16.197077 -23.531497 -15.408594 32.457687 -0.967956 2.065452 0.056053 -0.044004 1050090.000000 0 0 1
16.703977 -23.071497 -16.685394 33.010895 -0.944138 2.100701 0.052819 -0.048898 214626.000000 0 0 1
17.729577 -24.028597 -17.422694 34.572556 -0.935115 2.098957 0.055023 -0.046438 1355730.000000 0 0 1
19.011277 -24.237797 -16.833994 35.103886 -0.905662 2.070936 0.089675 -0.051754 368928.000000 0 0 1
19.997277 -23.255497 -17.004594 35.069438 -0.860586 2.077026 0.093036 -0.060766 -567156.000000 0 0 1
21.389277 -23.669797 -16.531494 35.931195 -0.835967 2.048890 0.082214 -0.054022 -274307.000000 0 0 1
22.113477 -24.444597 -17.476494 37.309142 -0.835425 2.058302 0.109282 -0.053441 -533419.000000 0 0 1
23.470577 -24.188297 -17.242394 37.858181 -0.800457 2.043671 0.128133 -0.031228 -647072.000000 0 0 1
24.381977 -25.048737 -18.139294 39.382154 -0.798886 2.049464 0.147945 -0.036041 -566737.000000 0 0 1
24.312577 -24.689597 -19.480894 39.751514 -0.793092 2.082963 0.168419 -0.040082 280554.000000 0 0 1
25.298077 -25.368867 -20.225594 41.141789 -0.786795 2.084731 0.153539 -0.037453 115679.000000 0 0 1
26.752677 -24.875297 -20.257194 41.771283 -0.749051 2.077108 0.143505 -0.059086 -436691.000000 0 0 1
27.182077 -23.662297 -20.956394 41.688609 -0.716282 2.097503 0.145723 -0.050083 55009.700000 0 0 1
26.834177 -22.398197 -20.370394 40.456214 -0.695538 2.098461 0.153293 -0.047477 -742623.000000 0 0 1
25.421677 -21.801997 -20.521594 39.277533 -0.708898 2.120549 0.184264 -0.062807 -152941.000000 0 0 1
24.992877 -21.381997 -21.812094 39.466456 -0.707692 2.156366 0.174077 -0.054682 -53638.300000 0 0 1
24.916077 -22.422897 -22.772594 40.523922 -0.732780 2.167543 0.121210 -0.050365 -573963.000000 0 0 1
24.329977 -22.072597 -24.186794 40.793974 -0.736789 2.205453 0.094021 -0.047166 -118461.000000 0 0 1
25.133777 -21.105797 -24.808294 41.141377 -0.698506 2.218054 0.101532 -0.031515 -170185.000000 0 0 1
24.504977 -20.365097 -25.853394 41.032049 -0.693395 2.252450 0.086126 -0.019759 -556079.000000 0 0 1
25.392577 -19.516697 -26.743964 41.724382 -0.655298 2.266554 0.099121 -0.014451 -862540.000000 0 0 1
24.701777 -18.608797 -27.505884 41.388873 -0.645634 2.297717 0.085325 -0.002576 -90277.700000 0 0 1
25.285077 -18.414197 -28.770044 42.498626 -0.629444 2.314426 0.104121 -0.009833 -16752.100000 0 0 1
24.468477 -17.310197 -29.434084 42.008507 -0.615708 2.347132 0.140574 -0.011959 -76099.400000 0 0 1
23.187677 -17.690297 -29.876154 41.751642 -0.651717 2.368234 0.131144 -0.003249 576654.000000 0 0 1
22.462977 -16.599597 -30.547354 41.391700 -0.636408 2.400908 0.139096 -0.009939 -203934.000000 0 0 1
21.165677 -17.055397 -31.164854 41.353605 -0.678270 2.424347 0.105581 -0.007070 -739208.000000 0 0 1
21.388377 -18.142097 -32.094744 42.622423 -0.703461 2.423408 0.108369 -0.003798 1288050.000000 0 0 1
20.136477 -18.626097 -32.633644 42.630552 -0.746453 2.442613 0.126219 -0.013558 898071.000000 0 0 1
20.440177 -19.545897 33.560742 43.888111 -0.763037 0.700238 0.147770 -0.010013 -82096.200000 0 0 1
21.041977 -20.761597 -33.479004 44.661532 -0.778691 2.418278 0.150717 -0.006085 96478.800000 0 0 1
21.339377 -21.533197 32.782960 44.651652 -0.789919 0.746318 0.145034 -0.014457 197111.000000 0 0 1
22.081477 -22.918497 33.013578 45.855703 -0.803996 0.767073 0.129036 -0.008918 71033.800000 0 0 1
21.394877 -23.861497 -33.564834 46.408080 -0.839848 2.379299 0.143330 -0.014853 -92328.100000 0 0 1
21.652677 -23.771597 -32.173414 45.486875 -0.832012 2.356485 0.155348 -0.020242 110356.000000 0 0 1
20.707477 -24.660897 -31.310504 44.914442 -0.872319 2.342161 0.159360 -0.024464 61061.000000 0 0 1
21.022477 -26.052857 -31.304984 45.833372 -0.891852 2.322682 0.148395 -0.035481 305358.000000 0 0 1
22.078977 -26.348837 -30.386734 45.881326 -0.873340 2.294667 0.130062 -0.041998 298879.000000 0 0 1
22.241477 -27.918107 -30.271954 46.802727 -0.898090 2.274176 0.130583 -0.053017 -61090.600000 0 0 1
21.034177 -28.517977 -29.865814 46.343052 -0.935294 2.271101 0.123068 -0.052734 -136686.000000 0 0 1
21.047877 -29.918067 -30.060224 47.346816 -0.957714 2.258668 0.117086 -0.047000 638120.000000 0 0 1
19.664077 -30.575557 -29.686384 46.934231 -0.999265 2.255586 0.140053 -0.051117 1630460.000000 0 0 1
18.472277 -30.319267 -30.461314 46.780067 -1.023597 2.279908 0.160416 -0.055920 800996.000000 0 0 1
18.502277 -30.785827 -31.802224 47.973773 -1.029642 2.295493 0.166310 -0.053968 66186.300000 0 0 1
17.111677 -31.358167 -32.234524 48.116615 -1.071272 2.304904 0.172579 -0.056177 694169.000000 0 0 1
16.137377 -30.417357 -32.600514 47.417550 -1.083023 2.328865 0.184382 -0.052326 -349115.000000 0 0 1
14.979077 -30.981957 -33.144434 47.778739 -1.120454 2.337419 0.155038 -0.044022 -162228.000000 0 0 1
14.006477 -29.991947 33.564422 47.140945 -1.133889 0.778452 0.147698 -0.024438 -205712.000000 0 0 1
13.261877 -29.202117 -32.938014 45.973403 -1.144504 2.369508 0.154635 -0.033824 -287188.000000 0 0 1
12.304877 -28.467887 -33.660034 45.769296 -1.162812 2.397095 0.140561 -0.027376 -541953.000000 0 0 1
11.206877 -27.784667 -32.914034 44.507476 -1.187407 2.403149 0.144710 -0.032226 -404652.000000 0 0 1
10.254777 -28.573047 -32.203374 44.256489 -1.226218 2.385691 0.127744 -0.019803 1013780.000000 0 0 1
9.356177 -27.673977 -31.460734 42.932096 -1.244775 2.393227 0.072903 -0.018879 1046280.000000 0 0 1
8.111377 -28.326177 -30.792134 42.618333 -1.291903 2.378221 0.052461 -0.013737 664636.000000 0 0 1
7.113177 -28.907917 -31.616114 43.426301 -1.329526 2.386256 0.045342 -0.013180 311606.000000 0 0 1
7.365377 -30.310477 -31.798454 44.543411 -1.332419 2.365813 0.055107 -0.010586 34368.700000 0 0 1
6.085977 -31.057387 -32.230784 45.171051 -1.377289 2.365316 0.078600 -0.022813 117795.000000 0 0 1
5.271677 -31.419277 -31.132774 44.544485 -1.404560 2.344675 0.087117 -0.046010 243467.000000 0 0 1
4.353177 -32.445957 -31.517404 45.442679 -1.437426 2.337221 0.124742 -0.072857 -369562.000000 0 0 1
3.503977 -33.041437 -30.346564 44.999204 -1.465143 2.310921 0.101681 -0.084490 623664.000000 0 0 1
2.401577 -32.256547 -29.898704 44.047530 -1.496481 2.316900 0.109226 -0.077738 696807.000000 0 0 1
1.225177 -32.143897 -30.674834 44.448584 -1.532699 2.332450 0.115140 -0.048460 -154100.000000 0 0 1
0.380177 -30.938127 -30.311954 43.314279 -1.558509 2.345934 0.109621 -0.043312 1724.290000 0 0 1
-0.368523 -30.902737 -29.074274 42.431455 1.558872 2.325682 0.091669 -0.055041 457097.000000 0 0 1
-1.080523 -29.677217 -28.997434 41.506095 1.534403 2.344278 0.160487 -0.053990 26639.000000 0 0 1
-1.910523 -29.548447 -27.724404 40.563572 1.506229 2.323316 0.183474 -0.060389 155534.000000 0 0 1
-1.065623 -29.311987 -26.592874 39.591780 1.534458 2.307266 0.142249 -0.055801 598054.000000 0 0 1
-1.798023 -29.451097 -25.351884 38.901388 1.509821 2.280615 0.172720 -0.068439 312606.000000 0 0 1
-0.839223 -29.761857 -24.167394 38.347560 1.542606 2.252633 0.122558 -0.061796 22052.500000 0 0 1
-1.434723 -30.062117 -22.941694 37.843238 1.523107 2.222108 0.177912 -0.068823 417650.000000 0 0 1
-0.425523 -30.561717 -22.024194 37.673130 1.556874 2.195199 0.141932 -0.060217 1064930.000000 0 0 1
-0.944723 -30.489987 -20.505194 36.755881 1.539822 2.162620 0.099911 -0.031945 457465.000000 0 0 1
-1.068923 -29.242067 -19.814794 35.339314 1.534258 2.166029 0.071685 -0.026432 427279.000000 0 0 1
0.219777 -28.677227 -19.565394 34.716513 -1.563133 2.169505 0.081544 -0.031157 339182.000000 0 0 1
0.194977 -27.218127 -19.012594 33.201554 -1.563633 2.180521 0.079771 -0.037277 -156912.000000 0 0 1
-0.302423 -27.223617 -17.681194 32.462923 1.559688 2.146778 0.073883 -0.032318 -36453.100000 0 0 1
-0.197423 -25.947377 -17.062494 31.055338 1.563188 2.152469 0.082062 -0.034515 189772.000000 0 0 1
-1.162923 -25.886857 -15.836394 30.368950 1.525903 2.119365 0.065128 -0.030716 54719.600000 0 0 1
-1.631323 -24.605297 -15.499994 29.126134 1.504594 2.131955 0.054708 -0.026663 136159.000000 0 0 1
-2.386323 -24.657597 -14.299194 28.603471 1.474318 2.094293 0.060379 -0.028169 -278714.000000 0 0 1
-2.323723 -23.355097 -13.561394 27.106672 1.471627 2.094738 0.062889 -0.023497 197502.000000 0 0 1
-1.186223 -23.218897 -12.723694 26.503145 1.519752 2.071545 0.076493 -0.031503 -69374.300000 0 0 1
-1.526923 -23.039697 -11.387394 25.745521 1.504620 2.028964 0.094537 -0.028405 632654.000000 0 0 1
-0.235423 -22.783197 -10.536794 25.102859 1.560464 2.003960 0.090254 -0.036224 618433.000000 0 0 1
0.413977 -21.578797 -10.789094 24.129244 -1.551614 2.034359 0.090105 -0.020950 -132007.000000 0 1 0
1.701277 -21.559897 -10.198294 23.910849 -1.492050 2.011431 0.068696 -0.016774 427047.000000 0 1 0
2.191677 -20.100297 -9.845794 22.489221 -1.462188 2.023947 0.075733 -0.025188 -185843.000000 0 1 0
2.673877 -19.328097 -10.952394 22.375877 -1.433327 2.082282 0.078836 -0.018644 121249.000000 0 1 0
3.242077 -18.052897 -10.596594 21.182681 -1.393103 2.094682 0.044136 -0.016705 -339499.000000 0 1 0
4.718877 -18.065397 -10.203094 21.277441 -1.315294 2.070911 0.069997 -0.040896 -531818.000000 0 1 0
4.884277 -18.553597 -8.888694 21.144763 -1.313384 2.004653 0.073384 -0.033037 -239241.000000 0 1 0
6.055177 -19.312897 -8.801694 22.070863 -1.266973 1.980996 0.087266 -0.022983 -366715.000000 0 1 0
6.025777 -20.305597 -7.600994 22.503386 -1.282320 1.915344 0.086734 -0.037192 69143.500000 0 1 0
5.156077 -21.401897 -7.870694 23.378925 -1.334385 1.914161 0.105038 -0.042458 251092.000000 0 1 0
5.147377 -22.480597 -6.950494 24.086969 -1.345707 1.863517 0.117080 -0.035835 -303796.000000 0 1 0
4.208877 -23.552197 -7.481094 25.067656 -1.393959 1.873850 0.105002 -0.030074 -121448.000000 0 0 1
4.658377 -24.138697 -8.700494 26.078262 -1.380156 1.910948 0.122611 -0.036685 358386.000000 0 0 1
3.750577 -25.149857 -9.142694 27.021676 -1.422758 1.915956 0.105350 -0.033792 312004.000000 0 0 1
4.413877 -26.175687 -10.076594 28.393426 -1.403743 1.933595 0.088081 -0.036438 -206545.000000 0 0 1
5.343377 -27.040307 -9.507494 29.156857 -1.375702 1.902951 0.109065 -0.046453 -136869.000000 0 0 1
5.938977 -27.919377 -10.464994 30.401960 -1.361202 1.922205 0.136341 -0.040962 121462.000000 0 0 1
5.505177 -29.399507 -10.298694 31.633860 -1.385686 1.902399 0.115332 -0.044770 7132.220000 0 0 1
4.193677 -29.659507 -10.744194 31.823120 -1.430333 1.915186 0.112783 -0.037891 20632.300000 0 0 1
3.851377 -30.989437 -10.618994 32.983956 -1.447150 1.898579 0.112735 -0.038413 19582.100000 0 0 1
2.630177 -31.511997 -11.428194 33.623316 -1.487523 1.917595 0.089076 -0.040143 -92154.600000 0 0 1
2.794577 -31.494237 -12.801094 34.111063 -1.482295 1.955492 0.102535 -0.037358 314951.000000 0 0 1
2.173377 -32.477247 -13.615494 35.282812 -1.503976 1.966975 0.093467 -0.024433 -240942.000000 0 0 1
1.693177 -32.022937 -14.998094 35.401669 -1.517972 2.008273 0.094338 -0.019031 -31081.000000 0 0 1
0.556077 -31.198377 -14.979494 34.612616 -1.552974 2.018366 0.087869 -0.024552 -77419.400000 0 0 1
-0.142623 -31.236547 -16.206594 35.190850 1.566230 2.049393 0.085640 -0.019836 -360551.000000 0 0 1
-1.228623 -30.218497 -16.415294 34.411175 1.530161 2.068073 0.091901 -0.008327 51368.600000 0 0 1
-2.486523 -30.489737 -15.795794 34.428389 1.489424 2.047442 0.114335 -0.019869 113859.000000 0 0 1
-3.502423 -30.422597 -16.780894 34.919905 1.456175 2.072082 0.118605 -0.018228 346679.000000 0 0 1
-4.925423 -30.297767 -16.156394 34.687801 1.409639 2.055296 0.133007 -0.020226 -63755.500000 0 0 1
-5.088023 -29.051857 -15.481494 33.310284 1.397419 2.054167 0.113231 -0.012257 91736.400000 0 0 1
-6.476723 -28.810067 -15.363994 33.286937 1.349665 2.050552 0.101963 -0.025577 227596.000000 0 0 1
-7.298923 -29.457477 -14.240194 33.523131 1.327910 2.009523 0.102872 -0.021832 -332854.000000 0 0 1
-7.516623 -30.830377 -14.370894 34.835820 1.331656 1.996028 0.119002 -0.017781 -190040.000000 0 0 1
-8.569323 -31.290757 -13.553594 35.160271 1.303489 1.966525 0.107441 -0.018951 79463.800000 0 0 1
-8.824823 -32.745927 -13.913094 36.657160 1.307556 1.960102 0.142245 -0.031157 -190095.000000 0 0 1
-7.823723 33.699473 -13.664094 37.196406 -1.342676 1.946954 0.168164 -0.032952 -229592.000000 0 0 1
-8.222023 32.407468 -14.038894 36.262049 -1.322331 1.968336 0.177545 -0.036448 -294899.000000 0 0 1
-8.381923 -21.982497 -3.209894 23.744267 1.206514 1.706398 0.145088 -0.037852 254456.000000 0 1 0
-7.902923 -20.898397 -4.062794 22.709149 1.209259 1.750670 0.105121 -0.030305 106951.000000 0 1 0
-6.597723 -21.179697 -4.513094 22.637966 1.268812 1.771501 0.096353 -0.023953 182030.000000 0 1 0
-6.094723 -20.219897 -5.618594 21.853111 1.278035 1.830824 0.077654 -0.027566 145469.000000 0 1 0
-6.869323 -20.365197 -6.797094 22.541724 1.245474 1.877097 0.078399 -0.029004 -147096.000000 0 1 0
-6.896923 -19.127797 -7.424894 21.646459 1.224736 1.920913 0.054519 -0.034300 23801.800000 0 1 0
-7.890223 -19.199097 -8.616994 22.474731 1.180870 1.964280 0.059864 -0.050093 300314.000000 0 1 0
-7.454623 -19.970197 -9.707694 23.422628 1.213528 1.998143 0.080108 -0.029920 -578224.000000 0 1 0
-8.421423 -19.925497 -10.700594 24.133970 1.170922 2.030166 0.100090 -0.032690 -165399.000000 0 1 0
-8.122523 -20.879797 -11.845294 25.342697 1.199797 2.057149 0.094383 -0.026404 -379279.000000 0 0 1
-7.149523 -20.437297 -12.742394 25.123045 1.234275 2.102728 0.100173 -0.011418 -539037.000000 0 0 1
-6.901223 -21.443797 -13.726494 26.379536 1.259436 2.118053 0.074197 -0.014675 -383780.000000 0 0 1
-5.807723 -21.061297 -14.722094 26.344789 1.301730 2.163763 0.050692 0.006010 353360.000000 0 0 1
-4.554323 -20.848397 -14.006794 25.526218 1.355725 2.151631 0.039681 -0.007680 623860.000000 0 0 1
-3.594923 -20.305697 -14.902994 25.442956 1.395572 2.196591 0.056336 -0.002460 -58777.900000 0 0 1
-3.549323 -18.764297 -15.170594 24.389413 1.383852 2.242111 0.080428 0.004234 -297880.000000 0 1 0
-4.679923 -18.274797 -15.880694 24.659001 1.320098 2.270528 0.076527 0.009101 -15511.100000 0 1 0
-4.608423 -18.398497 -17.290394 25.665151 1.325368 2.309989 0.084059 0.001430 570934.000000 0 0 1
-6.006423 -18.213697 -18.004494 26.305469 1.252252 2.324631 0.069242 0.017159 1153730.000000 0 0 1
-6.940723 -19.185197 -17.599194 26.943961 1.223670 2.282570 0.056203 0.013773 531392.000000 0 0 1
-8.304023 -18.926397 -17.982194 27.395704 1.157334 2.286816 0.036431 0.012882 930546.000000 0 0 1
-9.128823 -20.151497 -17.573094 28.252997 1.145442 2.242078 0.088049 -0.006235 -248278.000000 0 0 1
-8.740823 -21.299697 -18.296194 29.407988 1.181380 2.242283 0.102530 -0.001067 -479.051000 0 0 1
-9.584423 -22.387297 -18.089094 30.335912 1.166287 2.209672 0.131767 -0.004282 -180783.000000 0 0 1
-8.969623 -23.661197 -18.670294 31.446562 1.208448 2.206464 0.151802 -0.023323 -739300.000000 0 0 1
-8.918423 -23.812097 -20.103694 32.414699 1.212435 2.239798 0.151175 -0.026272 -185095.000000 0 0 1
-8.274523 -24.995897 -20.504094 33.371851 1.251115 2.232438 0.172106 -0.054075 77548.400000 0 0 1
-6.730923 -24.978697 -20.408694 32.950803 1.307582 2.238735 0.141265 -0.037167 -525185.000000 0 0 1
-6.049623 -23.959197 -21.114194 32.503081 1.323469 2.277862 0.153054 -0.042468 37981.700000 0 0 1
-5.908423 -22.719997 -20.479994 31.153457 1.316378 2.288147 0.116884 -0.034559 -621731.000000 0 0 1
-5.096723 -22.552197 -19.162994 30.029960 1.348533 2.262862 0.098221 -0.008338 -553343.000000 0 0 1
-3.722423 -22.687997 -19.341894 30.045141 1.408175 2.270200 0.101665 -0.028028 -242745.000000 0 0 1
-2.986823 -22.395097 -18.111594 28.956715 1.438209 2.246532 0.061236 -0.030615 -489129.000000 0 0 1
-1.520923 -22.714797 -18.150594 29.115619 1.503939 2.243876 0.116611 -0.037957 -1056840.000000 0 0 1
-0.804523 -21.994097 -19.121494 29.155087 1.534234 2.286110 0.155224 -0.034280 -79253.300000 0 0 1
0.557977 -22.393697 -19.167394 29.481825 -1.545885 2.278569 0.108953 -0.036042 467640.000000 0 0 1
1.419277 -21.496997 -20.062494 29.438731 -1.504870 2.320607 0.115579 -0.030884 127749.000000 0 0 1
0.983477 -21.549097 -21.398294 30.384499 -1.525189 2.352163 0.099826 -0.035043 73667.500000 0 0 1
2.053077 -21.186297 -22.283694 30.816186 -1.474192 2.379100 0.108698 -0.030028 66388.500000 0 0 1
1.771477 -21.456097 -23.818794 32.106653 -1.488420 2.406643 0.133400 -0.040924 202185.000000 0 0 1
1.102877 -20.425897 -24.590194 31.986110 -1.516855 2.447723 0.137717 -0.046665 197189.000000 0 0 1
-0.173423 -20.049097 -24.106894 31.355043 1.562147 2.447816 0.127445 -0.037497 -407965.000000 0 0 1
-0.879423 -18.972297 -24.897694 31.314799 1.524476 2.489932 0.139221 -0.036687 -157103.000000 0 0 1
-0.227723 -17.718297 -24.786694 30.469167 1.557945 2.520943 0.093119 -0.029514 -370301.000000 0 0 1
-0.971223 -16.597297 -25.200714 30.190885 1.512346 2.558407 0.147616 -0.040609 96640.800000 0 0 1
-0.348623 -15.244597 -24.713694 29.039386 1.547932 2.588760 0.122045 -0.029866 96982.800000 0 0 1
0.935777 -14.953997 -25.194944 29.313528 -1.508301 2.605085 0.115172 -0.031287 -715306.000000 0 0 1
1.437577 -13.722697 -24.729494 28.318314 -1.466418 2.632667 0.108100 -0.029201 195285.000000 0 0 1
0.889377 -12.336497 -25.286174 28.149081 -1.498828 2.686670 0.105562 -0.027122 440569.000000 0 0 1
1.790977 -11.230597 -25.046294 27.507286 -1.412655 2.715368 0.082431 -0.023030 250584.000000 0 0 1
1.453977 -10.097197 -25.767374 27.713264 -1.427781 2.764624 0.091954 -0.026343 -398379.000000 0 0 1
2.403377 -8.881297 -25.524724 27.132365 -1.306515 2.795626 0.117661 -0.029915 1598.050000 0 0 1
3.732777 -9.001397 -25.924784 27.695726 -1.177692 2.782048 0.081716 -0.027327 -702538.000000 0 0 1
3.945877 -9.000997 -27.364534 29.075860 -1.157646 2.796792 0.107300 -0.034720 -221700.000000 0 0 1
5.419977 -8.744597 -27.779814 29.623677 -1.015939 2.786911 0.108645 -0.033485 36727.000000 0 0 1
5.690177 -7.356497 -27.880504 29.390793 -0.912430 2.819622 0.115211 -0.035583 712593.000000 0 0 1
6.924077 -6.840197 -28.404514 30.025782 -0.779304 2.811475 0.087845 -0.023331 676211.000000 0 0 1
8.136777 -6.776697 -27.406794 29.381340 -0.694452 2.772891 0.105674 -0.023119 517541.000000 0 0 1
8.654977 -8.024097 -26.911194 29.385492 -0.747591 2.728288 0.089717 -0.023443 516020.000000 0 0 1
9.457877 -8.711097 -27.859504 30.683654 -0.744319 2.709184 0.093951 -0.034578 -566904.000000 0 0 1
9.953177 -10.043297 -27.340044 30.780052 -0.789905 2.664294 0.086440 -0.025660 -161073.000000 0 0 1
8.929577 -11.021297 -27.280264 30.747669 -0.889860 2.662103 0.086434 -0.039834 212205.000000 0 0 1
9.191477 -12.175797 -26.473834 30.554823 -0.924168 2.618818 0.082625 -0.038404 349767.000000 0 0 1
10.176177 -13.267997 -27.085204 31.830844 -0.916522 2.588513 0.086631 -0.045534 472851.000000 0 0 1
9.610177 -13.929397 -28.180664 32.871469 -0.966867 2.600796 0.098101 -0.053536 225099.000000 0 0 1
10.531677 -14.966497 -28.530254 33.895246 -0.957602 2.571255 0.081414 -0.054301 642035.000000 0 0 1
9.901177 -15.919197 -29.604884 35.041451 -1.014383 2.577087 0.090689 -0.051946 -66743.500000 0 0 1
9.963077 -15.273797 -30.834414 35.823357 -0.992807 2.607508 0.098376 -0.049417 792215.000000 0 0 1
9.043977 -15.842497 -31.794544 36.656122 -1.052073 2.620696 0.120805 -0.050949 431736.000000 0 0 1
7.718277 -15.055797 -31.972064 36.172665 -1.097084 2.654877 0.131003 -0.048548 -13922.500000 0 0 1
7.792677 -13.863897 -32.756524 36.413230 -1.058723 2.689598 0.134391 -0.044793 112039.000000 0 0 1
6.508677 -13.414697 -33.141814 36.341393 -1.119067 2.718827 0.156470 -0.061792 261097.000000 0 0 1
6.591177 -12.049197 33.519622 36.224188 -1.070242 0.388870 0.168668 -0.044812 32723.800000 0 0 1
7.027677 -12.292697 32.195044 35.171288 -1.051449 0.414349 0.161377 -0.028589 183531.000000 0 0 1
6.900677 -11.186397 31.358436 34.001563 -1.018057 0.396898 0.173307 -0.038629 -342186.000000 0 0 1
7.445377 -11.446297 29.942382 32.908929 -0.994097 0.427860 0.175727 -0.036808 101163.000000 0 0 1
6.492877 -11.964397 29.019102 32.053276 -1.073588 0.438618 0.160098 -0.022503 141847.000000 0 0 1
7.036277 -12.020097 27.762902 31.060757 -1.041199 0.464991 0.142534 -0.026746 -337183.000000 0 0 1
6.147477 -12.691397 26.704682 30.199388 -1.119721 0.485849 0.115055 -0.037702 -159422.000000 0 0 1
6.078577 -14.122497 26.719232 30.827121 -1.164346 0.522159 0.110152 -0.032672 -109856.000000 0 0 1
5.704377 -14.710897 25.498062 29.985022 -1.200881 0.554127 0.059260 -0.025836 577036.000000 0 0 1
4.185477 -15.073297 25.397532 29.828797 -1.299945 0.552065 0.068671 -0.034914 793825.000000 0 0 1
3.298077 -14.020197 25.032572 28.880320 -1.339759 0.522109 0.073303 -0.039101 655162.000000 0 0 1
2.019777 -14.542097 24.628562 28.672602 -1.432787 0.537565 0.068685 -0.034105 772169.000000 0 0 1
1.025277 -13.387897 24.347262 27.804247 -1.494363 0.503981 0.076815 -0.029686 -682045.000000 0 0 1
1.406677 -12.489697 23.309632 26.482262 -1.458642 0.494517 0.037102 -0.021120 76273.700000 0 0 1
0.533877 -11.352697 23.121962 25.764197 -1.523804 0.456852 0.044913 -0.018048 640511.000000 0 0 1
-0.841023 -11.695597 22.489872 25.363135 1.499011 0.480606 0.056625 -0.025664 -477844.000000 0 0 1
-0.743023 -12.245697 21.200382 24.494190 1.510194 0.524595 0.057703 -0.026051 -249508.000000 0 1 0
-2.012723 -12.684597 20.795682 24.441981 1.413434 0.553256 0.083982 -0.041556 25077.900000 0 1 0
-1.864223 -13.312997 19.377382 23.583768 1.431671 0.606513 0.110739 -0.042403 51067.500000 0 1 0
-0.986523 -14.432797 19.311182 24.128833 1.502550 0.642940 0.134508 -0.046319 -113710.000000 0 1 0
-1.128023 -15.231097 18.161482 23.729689 1.496871 0.699214 0.141192 -0.045345 191438.000000 0 1 0
-2.346023 -16.186197 18.136082 24.421594 1.426859 0.733815 0.142474 -0.048575 285198.000000 0 1 0
-2.244323 -17.042397 17.003082 24.178194 1.439859 0.790851 0.109950 -0.042937 -242731.000000 0 1 0
-3.250523 -18.020197 17.099282 25.053519 1.392333 0.819605 0.124921 -0.035411 -117026.000000 0 0 1
-2.989923 -19.293397 16.279982 25.420712 1.417048 0.875749 0.116341 -0.046175 473616.000000 0 0 1
-2.044423 -20.105797 17.038282 26.433421 1.469461 0.870331 0.130520 -0.047337 502804.000000 0 0 1
-2.124523 -21.492197 16.783782 27.351845 1.472266 0.910153 0.116605 -0.060586 -293195.000000 0 0 1
-1.044323 -22.286397 17.532482 28.375377 1.523971 0.904757 0.130288 -0.049811 181069.000000 0 0 1
0.223277 -22.142097 16.917882 27.866414 -1.560713 0.918382 0.117896 -0.058105 -496127.000000 0 0 1
1.181777 -22.909497 17.578282 28.900478 -1.519257 0.916961 0.160682 -0.041752 377642.000000 0 0 1
2.603177 -22.917597 16.934982 28.614443 -1.457693 0.937465 0.178268 -0.051524 625224.000000 0 0 1
3.346277 -21.723497 17.133582 27.868755 -1.417958 0.908670 0.166299 -0.048828 -306877.000000 0 0 1
4.523977 -21.721297 16.369682 27.572587 -1.365458 0.935155 0.175576 -0.042151 20964.300000 0 0 1
5.420177 -20.480197 16.716082 26.985999 -1.312073 0.902773 0.145868 -0.031753 -1031010.000000 0 0 1
6.251877 -20.627297 17.833182 27.974876 -1.276509 0.879584 0.138912 -0.023763 307865.000000 0 0 1
6.994977 -19.434997 18.224782 27.546170 -1.225315 0.847834 0.136545 -0.011003 1061370.000000 0 0 1
7.871677 -18.689297 17.135782 26.549729 -1.172160 0.869221 0.128796 -0.022679 76269.000000 0 0 1
7.040177 -18.144697 16.108282 25.264023 -1.200676 0.879421 0.123479 -0.027774 530312.000000 0 0 1
7.896777 -17.654197 15.074382 24.520741 -1.150187 0.908714 0.155111 -0.031365 750306.000000 0 1 0
7.093177 -16.676397 14.113782 22.969854 -1.168636 0.909110 0.099146 -0.034730 132643.000000 0 1 0
6.075777 -17.364697 13.444882 22.786237 -1.234217 0.939683 0.107427 -0.034679 -106345.000000 0 1 0
5.436177 -16.568197 12.417282 21.406682 -1.253755 0.951987 0.067677 -0.027180 -3702.750000 0 1 0
6.026377 -16.607497 10.971582 20.796677 -1.222702 1.015066 0.063424 -0.028792 -704507.000000 0 1 0
7.310777 -16.070897 10.982282 20.792588 -1.143869 1.014338 0.085204 -0.031156 -405581.000000 0 1 0
8.017377 -16.337697 9.777882 20.659275 -1.114593 1.077772 0.099759 -0.031524 -61475.500000 0 1 0
9.516677 -16.031997 9.841182 21.081768 -1.035092 1.085116 0.092730 -0.018757 -423139.000000 0 1 0
10.225877 -16.435897 8.740282 21.239110 -1.014237 1.146677 0.088908 -0.015617 -1095110.000000 0 1 0
11.535677 -15.978897 8.811882 21.588104 -0.945502 1.150334 0.074455 -0.008970 507942.000000 0 1 0
12.706977 -16.744097 8.054982 22.510326 -0.921628 1.204848 0.087111 -0.010763 1021310.000000 0 1 0
13.110477 -17.972497 8.633182 23.862671 -0.940561 1.200613 0.101605 -0.025281 381979.000000 0 1 0
14.429077 -18.277997 8.195182 24.686929 -0.902538 1.232411 0.107936 -0.023349 558410.000000 0 1 0
15.125677 -19.543997 8.767882 26.222694 -0.912155 1.229868 0.098505 -0.028246 -42450.900000 0 0 1
14.675177 -20.752597 8.186182 26.702896 -0.955288 1.259214 0.105569 -0.031876 220831.000000 0 0 1
15.200877 -21.943697 8.759582 28.094889 -0.964972 1.253725 0.090349 -0.017253 -157802.000000 0 0 1
14.116177 -22.633997 9.582482 28.344104 -1.013153 1.225924 0.114858 -0.027290 25732.900000 0 0 1
14.069177 -22.104097 10.859882 28.363178 -1.003973 1.177877 0.136430 -0.032790 -245480.000000 0 0 1
12.988977 -22.564397 11.650282 28.523580 -1.048481 1.150048 0.154098 -0.042261 -151441.000000 0 0 1
13.075277 -23.990197 12.298682 29.962476 -1.071780 1.147827 0.101696 -0.033458 918444.000000 0 0 1
14.207977 -24.139897 13.211482 30.970058 -1.038825 1.130078 0.071859 -0.029385 954295.000000 0 0 1
14.192877 -25.396037 13.856682 32.224278 -1.061175 1.126295 0.083395 -0.037854 -109514.000000 0 0 1
15.363377 -25.710427 14.800482 33.408287 -1.032177 1.111834 0.059791 -0.031017 -219671.000000 0 0 1
15.343777 -25.006017 16.068482 33.450388 -1.020434 1.069723 0.066430 -0.026563 207706.000000 0 0 1
16.227277 -25.618887 16.987882 34.759747 -1.006172 1.060171 0.076571 -0.029920 -297396.000000 0 0 1
16.288177 -24.882297 18.359182 34.949864 -0.991188 1.017728 0.102365 -0.023266 -55003.600000 0 0 1
16.813577 -23.571797 18.467482 34.342013 -0.951205 1.003028 0.082056 -0.024166 -290765.000000 0 0 1
18.070077 -23.617497 19.084182 35.334400 -0.917692 1.000238 0.091715 -0.024883 -523096.000000 0 0 1
18.575277 -22.210597 19.400482 34.852980 -0.874295 0.980463 0.084248 -0.027094 -125978.000000 0 0 1
18.818077 -21.342897 18.288782 33.824825 -0.848183 0.999538 0.089392 -0.028379 681200.000000 0 0 1
17.648977 -20.572397 18.027182 32.552868 -0.861736 0.983897 0.099769 -0.025045 -223855.000000 0 0 1
17.779777 -19.753597 16.727582 31.402819 -0.837938 1.009035 0.081584 -0.020201 69958.100000 0 0 1
18.551977 -18.564997 16.816182 31.170803 -0.785749 1.000971 0.082156 -0.022442 133571.000000 0 0 1
19.953377 -18.707397 16.771982 32.084316 -0.753181 1.020726 0.082156 -0.019208 -402084.000000 0 0 1
20.693777 -17.397797 17.091482 31.984911 -0.699085 1.007045 0.087962 -0.022160 -527785.000000 0 0 1
20.727977 -17.116997 18.499182 32.632198 -0.690271 0.968059 0.085888 -0.017291 446454.000000 0 0 1
21.443777 -15.894397 18.659182 32.567353 -0.637853 0.960706 0.077726 -0.019113 -243938.000000 0 0 1
21.929977 -15.644697 20.078582 33.598064 -0.619658 0.930278 0.058378 -0.013709 -97671.200000 0 0 1
22.954277 -16.571497 20.396982 34.893412 -0.625296 0.946470 0.061890 -0.014873 -79015.000000 0 0 1
23.163577 -16.483397 21.772882 35.809385 -0.618474 0.917230 0.055483 -0.008361 4224.060000 0 0 1
36.155345 -1.879897 -7.518794 36.976686 -0.051948 1.775563 0.110921 -0.024225 -277165.000000 0 0 1
37.316675 -1.644297 -8.254594 38.254102 -0.044035 1.788290 0.150092 -0.024930 -157486.000000 0 0 1
-38.176533 -2.746397 -8.292294 39.163152 0.071816 1.784148 0.190715 -0.035529 -143655.000000 0 0 1
-36.823083 -2.266697 -8.811394 37.930436 0.061479 1.805242 0.174146 -0.032140 -416673.000000 0 0 1
-35.810623 -3.210597 -8.550194 36.956927 0.089416 1.804267 0.228865 -0.032909 1068130.000000 0 0 1
-34.512004 -2.790397 -9.066694 35.792033 0.080677 1.826903 0.271295 -0.043956 1747130.000000 0 0 1
-33.323803 -3.737297 -8.671494 34.635791 0.111684 1.823851 0.265719 -0.043529 254070.000000 0 0 1
-32.944383 -3.512097 -7.341294 33.934669 0.106206 1.788856 0.272605 -0.047636 -573735.000000 0 0 1
-31.883913 -4.347997 -7.063794 32.945199 0.135534 1.786885 0.268879 -0.056247 -722234.000000 0 0 1
-31.468313 -4.219497 -5.591594 32.238560 0.133292 1.745122 0.263647 -0.072738 -311192.000000 0 0 1
-30.800263 -3.019897 -5.329294 31.403460 0.097735 1.741326 0.261072 -0.069269 333270.000000 0 0 1
-30.567693 -2.957297 -3.927094 30.960483 0.096446 1.697981 0.252847 -0.066742 -332884.000000 0 0 1
-30.315913 -1.601897 -3.226594 30.529192 0.052791 1.676683 0.267282 -0.074475 -781317.000000 0 0 1
-29.114303 -1.010097 -3.566594 29.349336 0.034680 1.692620 0.248978 -0.067986 -419439.000000 0 0 1
-29.134413 0.305103 -3.012694 29.291354 -0.010472 1.673831 0.297088 -0.082486 119110.000000 0 0 1
-27.794063 0.919003 -2.527394 27.923864 -0.033053 1.661431 0.330734 -0.059548 449261.000000 0 0 1
-27.136003 0.206303 -1.457094 27.175878 -0.007602 1.624439 0.301310 -0.069775 232072.000000 0 0 1
-25.840533 0.652303 -1.157794 25.874681 -0.025238 1.615558 0.283988 -0.062193 91497.500000 0 0 1
-25.211813 0.063603 0.168206 25.212454 -0.002523 1.564125 0.275142 -0.062788 133374.000000 0 0 1
-24.888123 -1.311597 0.022106 24.922669 0.052651 1.569909 0.251115 -0.061019 -471372.000000 0 1 0
-24.140623 -1.816397 1.011306 24.229975 0.075101 1.529046 0.223096 -0.049913 -688171.000000 0 1 0
-24.039423 -3.345797 0.875606 24.286928 0.138291 1.534736 0.198997 -0.028555 -64526.800000 0 1 0
-25.161983 -4.107697 1.302206 25.528303 0.161823 1.519764 0.206269 -0.043656 314834.000000 0 0 1
-24.981173 -5.525497 1.213006 25.613697 0.217682 1.523421 0.163918 -0.013835 -300829.000000 0 0 1
-26.149703 -6.298797 1.828506 26.959696 0.236372 1.502921 0.201671 -0.020990 -221032.000000 0 0 1
-26.215703 -6.391597 3.242806 27.177773 0.239142 1.451193 0.200798 -0.028728 400824.000000 0 0 1
-27.441223 -6.918197 3.736906 28.545518 0.246963 1.439509 0.243280 -0.023658 321807.000000 0 0 1
-27.589513 -6.971697 5.265606 28.939806 0.247512 1.387827 0.217101 -0.020508 -23848.400000 0 0 1
-26.846923 -8.064797 5.797506 28.625326 0.291823 1.366855 0.222841 -0.001576 135853.000000 0 0 1
-26.960273 -8.247697 7.176406 29.092638 0.296879 1.321549 0.202925 -0.030207 -68399.200000 0 0 1
-26.230073 -7.251797 8.097006 28.393076 0.269731 1.281607 0.173729 -0.024378 -309651.000000 0 0 1
-24.826423 -7.250497 7.999606 27.072396 0.284145 1.270829 0.184782 -0.024513 -76920.100000 0 0 1
-24.340423 -5.907197 7.932706 26.273160 0.238088 1.264078 0.196103 -0.044073 -1099550.000000 0 0 1
-22.921323 -5.809197 7.476406 24.799807 0.248214 1.264562 0.163389 -0.042079 -530885.000000 0 1 0
-21.896623 -6.178397 8.415506 24.258100 0.275012 1.216516 0.149008 -0.052960 889462.000000 0 1 0
-20.616623 -5.787897 7.938006 22.837618 0.273694 1.215802 0.128979 -0.036889 5341.590000 0 1 0
-19.466223 -6.046897 8.902606 22.243093 0.301185 1.159016 0.128710 -0.039289 -504771.000000 0 1 0
-19.410923 -5.195197 10.029206 22.457937 0.261514 1.107860 0.118894 -0.033044 -295273.000000 0 1 0
-18.349823 -5.588997 10.816206 22.021425 0.295654 1.057367 0.109226 -0.037605 -899089.000000 0 1 0
-17.937123 -4.486597 11.804606 21.936696 0.245100 1.002590 0.087911 -0.035390 162003.000000 0 1 0
-18.805123 -4.540897 12.931006 23.269364 0.236936 0.981580 0.105171 -0.038378 348456.000000 0 1 0
-19.493523 -3.306097 13.152206 23.746752 0.168001 0.983812 0.142013 -0.030743 208803.000000 0 1 0
-20.856923 -3.523597 13.834006 25.274625 0.167361 0.991605 0.151907 -0.039347 -350970.000000 0 0 1
-20.631223 -4.006797 15.104106 25.881186 0.191822 0.947649 0.147630 -0.037707 -117366.000000 0 0 1
-21.787823 -4.271497 15.848506 27.278747 0.193594 0.950860 0.152812 -0.027022 -374905.000000 0 0 1
-21.465923 -4.885697 17.247606 27.966690 0.223790 0.906228 0.137357 -0.019020 498342.000000 0 0 1
-22.605623 -4.896997 18.122806 29.384194 0.213331 0.906185 0.132456 -0.012987 950216.000000 0 0 1
-22.261623 -5.294997 19.433206 30.021098 0.233514 0.866735 0.130870 0.000869 -108002.000000 0 0 1
-23.273323 -4.775597 20.502406 31.381563 0.202387 0.858826 0.155403 -0.014896 69470.000000 0 0 1
-23.215523 -3.365797 20.550206 31.186536 0.143977 0.851381 0.171249 -0.031531 510364.000000 0 0 1
-24.079523 -3.062097 21.651506 32.526720 0.126487 0.842428 0.167235 -0.028858 281647.000000 0 0 1
-24.147823 -1.585997 22.036406 32.729740 0.065584 0.832155 0.139433 -0.021846 469431.000000 0 0 1
-25.062993 -0.827497 21.206506 32.841349 0.033005 0.868823 0.157788 -0.027692 486385.000000 0 0 1
-25.037093 0.573403 21.462906 32.982436 -0.022898 0.862241 0.150449 -0.020648 606999.000000 0 0 1
-26.393013 1.186403 20.920206 33.699461 -0.044921 0.901049 0.169038 -0.030160 1042540.000000 0 0 1
-27.433283 0.871203 21.833206 35.071824 -0.031746 0.898827 0.162720 -0.028448 472641.000000 0 0 1
-28.728403 1.363303 21.453006 35.880512 -0.047419 0.929916 0.136053 -0.024746 557109.000000 0 0 1
-29.739463 1.253803 22.611006 37.380011 -0.042135 0.921162 0.116779 -0.023045 -607851.000000 0 0 1
-29.472513 2.127503 23.714106 37.888179 -0.072061 0.894515 0.108771 -0.024024 157862.000000 0 0 1
-30.103053 1.682103 24.908306 39.108144 -0.055820 0.880315 0.098378 -0.018244 -231120.000000 0 0 1
-29.866853 2.620703 26.104706 39.753649 -0.087522 0.854412 0.119650 -0.019756 1398940.000000 0 0 1
-28.561823 2.442703 26.743206 39.203872 -0.085316 0.820087 0.105236 -0.025274 1564580.000000 0 0 1
-28.258603 3.391903 27.785506 39.775469 -0.119459 0.797415 0.091418 -0.022862 -301234.000000 0 0 1
-26.965033 2.998503 28.490006 39.341891 -0.110745 0.760974 0.096070 -0.028539 -362262.000000 0 0 1
-27.253193 1.985503 29.440206 40.167206 -0.072725 0.748161 0.094220 -0.027125 -578715.000000 0 0 1
-26.165303 1.696303 30.213306 40.004304 -0.064740 0.714759 0.088772 -0.033169 -835952.000000 0 0 1
-26.374543 0.530403 31.209906 40.865095 -0.020108 0.701724 0.076589 -0.033461 -44090.800000 0 0 1
-26.484933 -0.650097 30.455006 40.365600 0.024541 0.715936 0.072354 -0.030520 -55133.000000 0 0 1
-27.006783 -1.731897 31.133606 41.251269 0.064041 0.715553 0.081108 -0.022307 -479916.000000 0 0 1
-27.817023 -2.720897 30.267306 41.198299 0.097504 0.745611 0.081716 -0.012681 703564.000000 0 0 1
-29.163923 -2.353397 29.932006 41.856873 0.080521 0.774024 0.092965 -0.019589 728645.000000 0 0 1
-29.348003 -1.291797 28.941106 41.237866 0.043988 0.792863 0.092480 -0.015123 221232.000000 0 0 1
-30.793343 -0.935997 28.456306 41.938853 0.030387 0.825052 0.120033 -0.027998 856215.000000 0 0 1
-31.694603 -0.470697 29.422006 43.248396 0.014850 0.822621 0.154309 -0.032199 220383.000000 0 0 1
-33.026393 -0.274197 28.929906 43.906232 0.008302 0.851438 0.145742 -0.039149 1115400.000000 0 0 1
-34.025986 -0.134997 30.128106 45.447647 0.003967 0.846086 0.165685 -0.033580 226206.000000 0 0 1
-34.265565 -1.281497 30.936506 46.182665 0.037382 0.836759 0.171908 -0.038664 334384.000000 0 0 1
-35.236197 -1.145797 31.978806 47.597756 0.032506 0.834086 0.202341 -0.039596 314310.000000 0 0 1
-35.397138 -2.456797 32.839506 48.346937 0.069296 0.824060 0.192769 -0.031220 14880.900000 0 0 1
-36.260913 -3.423397 32.268206 48.660153 0.094131 0.845798 0.163138 -0.037754 19254.400000 0 0 1
-36.627523 -4.329197 33.283206 49.679866 0.117649 0.836650 0.139386 -0.036262 -511547.000000 0 0 1
-37.901493 -5.107497 32.941706 50.475396 0.133950 0.859747 0.121238 -0.038489 376474.000000 0 0 1
37.318845 -4.355197 33.326406 50.222637 -0.116177 0.845211 0.112860 -0.040444 36515.200000 0 0 1
36.223825 -5.135097 32.950606 49.236949 -0.140822 0.837631 0.114010 -0.035793 -1096420.000000 0 0 1
34.903345 -4.649897 33.560806 48.643527 -0.132442 0.809399 0.104836 -0.028088 -712723.000000 0 0 1
34.604765 -5.110497 -32.467971 47.726053 -0.146622 2.318966 0.091611 -0.031283 261395.000000 0 0 1
34.217685 -6.515597 -32.403271 47.573889 -0.188163 2.320080 0.105341 -0.027838 364537.000000 0 0 1
32.793565 -6.879397 -32.994371 47.025233 -0.206780 2.348481 0.101935 -0.020072 932719.000000 0 0 1
31.731575 -6.578997 -32.091471 45.607440 -0.204436 2.351311 0.101481 -0.024024 -82562.900000 0 0 1
30.487665 -6.809597 -32.651271 45.188205 -0.219749 2.378297 0.107762 -0.016737 -378487.000000 0 0 1
29.187265 -6.458197 -31.897471 43.715597 -0.217759 2.388619 0.123345 -0.030982 762247.000000 0 0 1
28.003165 -6.966797 -32.524171 43.480285 -0.243836 2.415872 0.117797 -0.021286 259899.000000 0 0 1
26.869265 -6.619297 -31.789971 42.147061 -0.241542 2.425327 0.128018 -0.021509 100487.000000 0 0 1
25.467065 -6.982797 -32.395671 41.794860 -0.267612 2.457688 0.112971 -0.029577 912702.000000 0 0 1
25.004965 -8.351197 -32.308071 41.698947 -0.322334 2.457185 0.131599 -0.046321 276786.000000 0 0 1
24.743465 -8.826297 -30.999371 40.633774 -0.342642 2.438578 0.140270 -0.042621 -421195.000000 0 0 1
24.605165 -10.368297 -31.004071 40.916600 -0.398806 2.430636 0.135894 -0.044653 482516.000000 0 0 1
23.329165 -10.690297 -31.559871 40.676257 -0.429683 2.458904 0.142197 -0.048091 631722.000000 0 0 1
23.090665 -12.063397 -31.570871 40.931947 -0.481435 2.451680 0.130080 -0.035478 785347.000000 0 0 1
21.673565 -12.427797 -32.204471 40.759312 -0.520637 2.481790 0.105420 -0.025840 1415660.000000 0 0 1
20.498665 -12.150797 -31.479371 39.481488 -0.535079 2.493638 0.097526 -0.024747 108906.000000 0 0 1
19.956765 -10.845797 -31.648271 38.955318 -0.497812 2.519095 0.089893 -0.035975 382445.000000 0 0 1
18.535165 -10.663297 -31.004271 37.663285 -0.522060 2.537814 0.089511 -0.035027 1075970.000000 0 0 1
17.498965 -11.205897 -31.830871 38.013027 -0.569579 2.563246 0.071243 -0.019893 -24039.200000 0 0 1
16.249865 -11.232897 -31.201071 36.928890 -0.604837 2.577167 0.076469 -0.031019 -891747.000000 0 0 1
15.079865 -11.560497 -32.069571 37.276062 -0.654052 2.606705 0.083648 -0.026781 -1781110.000000 0 0 1
14.938365 -12.889797 -32.440671 37.969708 -0.711916 2.595159 0.102726 -0.034660 400458.000000 0 0 1
13.731865 -13.277697 -33.100071 38.216175 -0.768585 2.618198 0.094300 -0.036883 -10854.500000 0 0 1
12.517465 -13.378797 -32.198371 37.046109 -0.818647 2.624263 0.076581 -0.037127 -1035870.000000 0 0 1
12.019565 -12.105397 -31.868471 36.147061 -0.788956 2.650109 0.150400 -0.037887 -560855.000000 0 0 1
11.144965 -12.093397 -30.781571 34.899364 -0.826189 2.650906 0.133460 -0.041590 -170768.000000 0 0 1
9.840765 -11.303297 -30.933771 34.373003 -0.854458 2.690437 0.115915 -0.029603 27155.500000 0 0 1
10.132865 -9.876997 -31.115471 34.181904 -0.772612 2.714782 0.123041 -0.031922 1011390.000000 0 0 1
8.938665 -9.257997 -31.606871 34.126302 -0.802945 2.754932 0.110491 -0.025916 658217.000000 0 0 1
9.251565 -7.774797 -31.931771 34.142011 -0.698880 2.779799 0.119228 -0.025873 -49800.900000 0 0 1
9.453265 -6.939297 -30.815071 32.970997 -0.633223 2.777961 0.122745 -0.031282 251552.000000 0 0 1
10.020265 -5.727597 -31.279571 33.341005 -0.519276 2.788105 0.103994 -0.016508 83515.000000 0 0 1
10.303865 -4.750697 -30.114871 32.181426 -0.432013 2.781273 0.105539 -0.021575 1073610.000000 0 0 1
9.011365 -4.211897 -29.729971 31.349895 -0.437228 2.818719 0.110612 -0.024404 1021210.000000 0 0 1
8.965365 -3.183697 -28.771271 30.303461 -0.341220 2.822239 0.107569 -0.027374 288566.000000 0 0 1
7.529265 -2.819597 -28.282771 29.403318 -0.358319 2.864630 0.120743 -0.031976 15688.700000 0 0 1
6.837965 -2.047197 -29.237971 30.096640 -0.290894 2.902147 0.107068 -0.024219 953022.000000 0 0 1
5.554065 -1.572497 -28.760471 29.334026 -0.275904 2.943519 0.119587 -0.028401 1478820.000000 0 0 1
4.321065 -2.525097 -28.824671 29.255929 -0.528847 2.969679 0.119569 -0.034592 -155855.000000 0 0 1
4.293865 -3.537097 -27.896271 28.445567 -0.689059 2.944753 0.117518 -0.039875 -455391.000000 0 0 1
3.149065 -4.345397 -27.820171 28.333037 -0.943691 2.951034 0.127010 -0.038930 -138100.000000 0 0 1
3.154465 -5.403297 -26.723471 27.446132 -1.042371 2.911608 0.106225 -0.041572 40664.600000 0 0 1
2.862665 -4.807197 -25.465271 26.072668 -1.033695 2.925318 0.085729 -0.036636 -167271.000000 0 0 1
3.074365 -5.742997 -24.419971 25.273874 -1.079290 2.880909 0.087101 -0.041165 37661.800000 0 0 1
2.995765 -5.161897 -22.980471 23.742827 -1.044942 2.887497 0.106258 -0.045237 310429.000000 0 1 0
4.068365 -4.253297 -22.780371 23.528439 -0.807617 2.888752 0.115117 -0.045795 209335.000000 0 1 0
3.941565 -3.714597 -21.478271 22.150627 -0.755762 2.894576 0.091542 -0.041759 355157.000000 0 1 0
5.004565 -2.607797 -21.249871 21.986434 -0.480372 2.882018 0.095374 -0.039970 491708.000000 0 1 0
6.354265 -2.969797 -21.014371 22.154010 -0.437205 2.819447 0.097531 -0.039161 374139.000000 0 1 0
7.178565 -1.852197 -20.690271 21.978393 -0.252510 2.797528 0.100624 -0.029688 496945.000000 0 1 0
8.639965 -2.258197 -20.380971 22.251571 -0.255648 2.728625 0.130811 -0.038145 -527530.000000 0 1 0
9.451565 -2.596297 -21.517671 23.644936 -0.268083 2.714160 0.138935 -0.053985 1162140.000000 0 1 0
10.754565 -3.147197 -21.259171 24.031601 -0.284689 2.656505 0.134361 -0.052834 1401380.000000 0 1 0
11.777965 -2.301597 -20.424371 23.689085 -0.192983 2.610363 0.117494 -0.044654 -647938.000000 0 1 0
11.414465 -2.062497 -19.084271 22.332785 -0.178763 2.595462 0.096855 -0.034149 -261155.000000 0 1 0
12.530665 -1.843897 -18.267771 22.229012 -0.146102 2.535357 0.099243 -0.035345 -264238.000000 0 1 0
12.901365 -0.353797 -18.069271 22.205156 -0.027416 2.521358 0.082641 -0.037346 -242197.000000 0 1 0
13.279865 0.206303 -19.263971 23.398674 0.015534 2.537985 0.102443 -0.047191 -34750.600000 0 1 0
13.292665 1.591703 -19.252471 23.449650 0.119176 2.533980 0.107926 -0.055445 -106784.000000 0 1 0
13.669465 2.278603 -20.587971 24.817551 0.165174 2.549139 0.116245 -0.049758 -240022.000000 0 1 0
15.045065 2.290903 -20.890871 25.846290 0.151109 2.512010 0.133603 -0.048935 124139.000000 0 0 1
15.163065 3.319903 -21.838671 26.793056 0.215545 2.523676 0.137119 -0.045635 -154389.000000 0 0 1
16.632965 3.683703 -22.166471 27.956710 0.217952 2.486326 0.130912 -0.037762 220374.000000 0 0 1
17.239765 2.795603 -23.081171 28.944177 0.160761 2.493833 0.093218 -0.032867 160778.000000 0 0 1
18.622665 2.635103 -22.851271 29.596081 0.140567 2.452943 0.094527 -0.038116 -23902.600000 0 0 1
10.441377 26.578203 3.092606 28.722595 1.196465 1.462916 0.035094 -0.009631 75045.400000 0 0 1
10.301177 27.003803 4.414006 29.237016 1.206364 1.419244 0.045532 -0.010528 462325.000000 0 0 1
11.560377 26.951303 5.085906 29.763762 1.165597 1.399078 0.047542 -0.010345 105724.000000 0 0 1
11.662377 27.636603 6.513906 30.695665 1.171478 1.356961 0.056065 -0.016407 237692.000000 0 0 1
10.923677 26.947803 7.541406 30.039701 1.185674 1.317034 0.043906 -0.026353 303071.000000 0 0 1
11.067877 27.644203 8.732206 31.031457 1.189972 1.285545 0.060955 -0.024502 -501945.000000 0 0 1
11.139577 26.798003 9.992906 30.693343 1.176840 1.239179 0.077959 -0.025955 223805.000000 0 0 1
12.359477 26.194703 10.386906 30.770229 1.129937 1.226469 0.067189 -0.018949 74834.200000 0 0 1
12.920077 25.273603 9.488206 29.928406 1.098222 1.248200 0.064785 -0.019306 275650.000000 0 0 1
14.229777 24.574603 10.018606 30.112625 1.045928 1.231626 0.075483 -0.023578 1111460.000000 0 0 1
15.381777 25.425803 10.010906 31.357436 1.026732 1.245857 0.082484 -0.025062 1071170.000000 0 0 1
16.505177 24.765403 10.638306 31.605690 0.982936 1.227498 0.086477 -0.027987 371915.000000 0 0 1
17.794077 25.531803 10.838006 32.953976 0.962129 1.235676 0.083477 -0.026449 -708801.000000 0 0 1
18.390977 25.947203 9.553906 33.207868 0.954199 1.278972 0.067563 -0.026845 1792710.000000 0 0 1
19.840077 25.868203 9.510606 33.959450 0.916524 1.286942 0.058099 -0.028646 1905300.000000 0 0 1
20.733477 26.709003 10.502806 35.405605 0.910691 1.269621 0.062887 -0.031450 -440372.000000 0 0 1
20.711077 28.115403 10.264306 36.397536 0.935897 1.284913 0.068743 -0.040900 85975.100000 0 0 1
19.649877 28.779603 10.917706 36.518208 0.971727 1.267187 0.053704 -0.021511 15670.900000 0 0 1
19.890677 30.236203 11.168206 37.876059 0.988927 1.271485 0.061969 -0.017354 -514159.000000 0 0 1
20.278077 31.109203 10.070906 38.476046 0.993132 1.305967 0.072894 -0.038413 51626.000000 0 0 1
19.407277 31.240003 8.956406 37.852311 1.014911 1.331916 0.078915 -0.039818 1299490.000000 0 0 1
18.000277 31.916303 9.288206 37.801206 1.057280 1.322542 0.078588 -0.031560 970933.000000 0 0 1
18.165477 33.230403 9.767306 39.110670 1.070527 1.318390 0.060589 -0.024042 699477.000000 0 0 1
16.924677 -33.446556 9.696806 38.718792 -1.102343 1.317660 0.080693 -0.022237 960885.000000 0 0 1
17.175677 -31.960456 9.803906 37.584455 -1.077675 1.306894 0.100676 -0.027766 6686.090000 0 0 1
17.817877 -31.369656 8.703706 37.111812 -1.054241 1.334065 0.095776 -0.034137 65646.200000 0 0 1
17.663277 -29.943556 8.806806 35.863181 -1.037847 1.322692 0.062101 -0.030500 86732.400000 0 0 1
17.974877 -29.157956 7.485406 35.061574 -1.018358 1.355647 0.069305 -0.027450 -429880.000000 0 0 1
17.180977 -29.559056 6.456506 34.793825 -1.044283 1.384150 0.080382 -0.020516 -404549.000000 0 0 1
17.580777 -28.964056 5.191806 34.277619 -1.025256 1.418748 0.086969 -0.016581 123604.000000 0 0 1
17.114777 -29.758556 3.969106 34.557793 -1.048871 1.455688 0.097958 -0.026406 -529.501000 0 0 1
17.917077 -30.863956 3.672806 35.876106 -1.044825 1.468242 0.091138 -0.030320 -222681.000000 0 0 1
17.617677 -31.314956 2.375106 36.009029 -1.058334 1.504790 0.098264 -0.028900 -174430.000000 0 0 1
17.999077 -32.733156 2.006406 37.409250 -1.068051 1.517137 0.098488 -0.025815 774979.000000 0 0 1
19.430577 -32.907856 1.966206 38.266700 -1.037425 1.519392 0.091836 -0.011442 969791.000000 0 0 1
19.822277 33.258903 1.390206 38.742870 1.033324 1.534906 0.114487 -0.016574 -375619.000000 0 0 1
21.308877 32.970803 1.588706 39.289517 0.997030 1.530349 0.129354 -0.021954 -497948.000000 0 0 1
21.565777 32.533103 2.934606 39.142017 0.985415 1.495753 0.102043 -0.035614 -42804.900000 0 0 1
22.913177 32.198003 3.155506 39.644449 0.952305 1.491117 0.069644 -0.025968 -207657.000000 0 0 1
23.116577 32.021403 4.645606 39.765916 0.945516 1.453705 0.064356 -0.010177 -273067.000000 0 0 1
22.379077 31.038003 5.325906 38.633483 0.946101 1.432499 0.082150 -0.026694 281476.000000 0 0 1
23.088577 29.780203 5.399806 38.067057 0.911299 1.428466 0.054911 -0.031534 591106.000000 0 0 1
22.259677 28.775603 6.250106 36.913309 0.912386 1.400658 0.065518 -0.039512 -475113.000000 0 0 1
21.060577 28.429603 5.698006 35.836539 0.933211 1.411119 0.077514 -0.031543 -843367.000000 0 0 1
20.020577 28.041403 6.594306 35.080318 0.950759 1.381694 0.072847 -0.032490 -446545.000000 0 0 1
18.686677 28.441903 6.035706 34.562458 0.989507 1.395264 0.092148 -0.030742 -1314100.000000 0 0 1
18.320977 29.805903 5.947106 35.488282 1.019655 1.402422 0.089930 -0.037437 -142854.000000 0 0 1
18.758977 30.592903 4.843006 36.211596 1.020741 1.436653 0.096813 -0.034673 -118697.000000 0 0 1
18.613777 32.065303 5.137706 37.430635 1.044842 1.433102 0.104314 -0.035439 612880.000000 0 0 1
17.255677 32.482503 5.240006 37.152780 1.082478 1.429285 0.090214 -0.033099 149547.000000 0 0 1
17.188777 -33.540056 5.577506 38.098530 -1.097211 1.423871 0.088023 -0.030965 44159.800000 0 0 1
15.769577 -32.931956 5.573706 36.935884 -1.124209 1.419315 0.095091 -0.038329 -120392.000000 0 0 1
15.027377 -33.098356 4.413006 36.616907 -1.144603 1.449984 0.097306 -0.030176 -798298.000000 0 0 1
13.915377 -32.252756 4.499206 35.413569 -1.163477 1.443405 0.085111 -0.030407 -744306.000000 0 0 1
13.043677 -32.321156 3.270006 35.006965 -1.187221 1.477250 0.078960 -0.021902 -323646.000000 0 0 1
11.981777 -31.395056 3.420206 33.777365 -1.206212 1.469365 0.063820 -0.027821 -52891.400000 0 0 1
11.141777 -31.405356 2.269206 33.400373 -1.229876 1.502804 0.065543 -0.019005 -1058860.000000 0 0 1
10.386977 -30.129956 2.204006 31.946224 -1.238816 1.501750 0.051523 -0.016654 -454722.000000 0 0 1
9.848577 -29.687856 0.948106 31.293165 -1.250483 1.540494 0.067964 -0.010034 -93758.600000 0 0 1
8.809477 -30.514056 0.465706 31.763681 -1.289736 1.556134 0.052851 -0.012734 -1141700.000000 0 0 1
8.997477 -31.102956 -0.965894 32.392614 -1.289203 1.600619 0.086107 -0.018247 653096.000000 0 0 1
10.107477 -32.033556 -0.876294 33.601752 -1.265155 1.596878 0.077691 -0.024486 538149.000000 0 0 1
10.288477 -32.709656 -2.109994 34.354424 -1.266055 1.632253 0.086454 -0.013679 234149.000000 0 0 1
11.649477 -33.479456 -2.052694 35.507716 -1.235941 1.628638 0.084159 -0.013290 470459.000000 0 0 1
11.726077 32.980803 -0.989294 35.017324 1.229192 1.599052 0.080652 -0.013036 -255198.000000 0 0 1
12.879577 32.210203 -1.189494 34.710166 1.190410 1.605072 0.091113 -0.020684 -371153.000000 0 0 1
13.167677 31.293203 0.041606 33.950759 1.172502 1.569571 0.083219 -0.021620 -380485.000000 0 0 1
13.602077 31.819503 1.291206 34.628955 1.166830 1.533501 0.078374 -0.021928 296853.000000 0 0 1
14.880477 32.452603 1.328706 35.726258 1.140872 1.533596 0.097541 -0.026481 110141.000000 0 0 1
16.049577 31.454603 1.447006 35.342253 1.098986 1.529842 0.106176 -0.033936 -849289.000000 0 0 1
16.518477 31.049903 0.224906 35.171113 1.081879 1.564402 0.108277 -0.030836 18460.100000 0 0 1
17.462077 29.988403 0.393606 34.704228 1.043497 1.559454 0.112567 -0.024792 564716.000000 0 0 1
18.211277 29.583203 -0.934894 34.751843 1.018989 1.597702 0.107143 -0.025808 1401550.000000 0 0 1
19.277477 30.428503 -1.464394 36.050789 1.006084 1.611428 0.090692 -0.019239 1131460.000000 0 0 1
18.747477 31.528003 -2.185794 36.745892 1.034335 1.630316 0.102841 -0.023710 106909.000000 0 0 1
19.892577 32.255303 -2.927894 38.009102 1.018171 1.647904 0.086656 -0.015131 211095.000000 0 0 1
20.706377 32.907803 -1.966494 38.929997 1.009165 1.621331 0.070757 -0.014123 -283601.000000 0 0 1
21.810177 33.493203 -2.594194 40.052570 0.993590 1.635611 0.067391 -0.007218 -1256710.000000 0 0 1
22.825577 -33.155756 -1.671994 40.287799 -0.967874 1.612310 0.070146 -0.005201 -1133860.000000 0 0 1
23.597277 33.428903 -0.837294 40.927059 0.956125 1.591256 0.064115 -0.007630 378621.000000 0 0 1
24.486977 32.512103 -1.485594 40.729055 0.925273 1.607279 0.062616 -0.004314 -623619.000000 0 0 1
25.515477 33.068603 -2.464294 41.840708 0.913619 1.629727 0.061688 -0.008575 -1791590.000000 0 0 1
24.904777 33.633303 -3.607494 42.005488 0.933416 1.656784 0.059279 -0.020146 -367511.000000 0 0 1
25.766777 -33.159356 -4.559894 42.240530 -0.910201 1.678958 0.059865 -0.023085 -209611.000000 0 0 1
25.079277 -32.724656 -5.884894 41.647392 -0.916899 1.712574 0.056238 -0.030923 -219413.000000 0 0 1
24.274477 -31.586656 -5.768894 40.252295 -0.915557 1.714610 0.064800 -0.027306 51112.400000 0 0 1
23.634177 -31.348856 -7.017794 39.882008 -0.924798 1.747681 0.069020 -0.031090 -224837.000000 0 0 1
22.656777 -30.185656 -7.073994 38.399802 -0.926924 1.756074 0.074198 -0.030695 -314757.000000 0 0 1
21.373377 -30.447256 -6.586194 37.778759 -0.958742 1.746028 0.087030 -0.025652 -242810.000000 0 0 1
20.558077 -29.277256 -6.460694 36.352893 -0.958605 1.749467 0.104689 -0.031801 1175780.000000 0 0 1
19.418177 -29.316856 -5.368894 35.572021 -0.985784 1.722306 0.091080 -0.021892 760821.000000 0 0 1
18.210977 -29.974356 -5.686094 35.530739 -1.024842 1.731521 0.094781 -0.025847 -351947.000000 0 0 1
17.320177 -29.792756 -4.615394 34.769221 -1.044199 1.703933 0.067535 -0.019436 -314583.000000 0 0 1
15.989077 -30.500456 -4.861194 34.778724 -1.087958 1.711030 0.068946 -0.020927 -101936.000000 0 0 1
16.149577 -31.910056 -4.767394 36.080308 -1.102283 1.703317 0.072816 -0.011709 367733.000000 0 0 1
14.838977 -32.470756 -4.841694 36.027591 -1.142141 1.705593 0.089659 -0.011609 488499.000000 0 0 1
14.819477 33.451803 -5.169394 36.950815 1.153771 1.711156 0.083074 -0.016499 -177638.000000 0 0 1
14.950677 32.651803 -3.964894 36.130090 1.141407 1.680757 0.091487 -0.019418 -130341.000000 0 0 1
15.168177 31.309003 -4.211994 35.043804 1.119652 1.691280 0.095231 -0.020934 -477832.000000 0 0 1
13.999977 30.424603 -4.611994 33.807194 1.139531 1.707644 0.090251 -0.023954 -268208.000000 0 0 1
12.985277 30.105303 -3.667194 32.990833 1.163578 1.682185 0.079299 -0.021574 -33499.500000 0 0 1
13.245277 28.856303 -2.979494 31.890453 1.140477 1.664362 0.079844 -0.025125 -305356.000000 0 0 1
12.065377 28.133303 -2.308794 30.698316 1.165657 1.646077 0.066100 -0.018800 142371.000000 0 0 1
11.494577 28.886703 -1.225394 31.113800 1.192085 1.610191 0.048173 -0.016905 -87039.000000 0 0 1
10.629477 28.149903 -0.381994 30.092337 1.209746 1.583491 0.035743 -0.012764 178963.000000 0 0 1
9.466277 28.976703 0.214906 30.484520 1.255040 1.563747 0.039875 -0.000433 790331.000000 0 0 1
8.488777 28.234003 0.979106 29.498762 1.278736 1.537599 0.042497 -0.009059 695102.000000 0 0 1
7.454077 29.095803 1.440706 30.069996 1.320000 1.522866 0.062982 -0.011446 662691.000000 0 0 1
6.279577 28.430903 2.244306 29.202504 1.353415 1.493867 0.054487 -0.018634 858841.000000 0 0 1
5.679877 27.380003 1.486506 28.002416 1.366251 1.517686 0.059430 -0.019188 265439.000000 0 0 1
4.464377 26.864203 2.008206 27.306574 1.406118 1.497187 0.061036 -0.020009 495366.000000 0 0 1
4.045777 25.495303 1.382106 25.851287 1.413421 1.517307 0.061001 -0.021900 -634496.000000 0 0 1
2.665677 25.383903 1.488006 25.566825 1.466165 1.512563 0.068319 -0.015614 -766642.000000 0 0 1
2.311377 24.123303 0.917406 24.251142 1.475273 1.532958 0.060267 -0.018292 -724708.000000 0 1 0
0.841977 23.729603 0.893306 23.761334 1.535329 1.533193 0.059602 -0.014014 -608450.000000 0 1 0
0.077677 24.453103 -0.094894 24.453411 1.567620 1.574677 0.064442 -0.021615 -600825.000000 0 1 0
-1.272123 24.164203 -0.214194 24.198614 -1.518200 1.579648 0.045575 -0.013407 -261472.000000 0 1 0
-2.190023 24.806503 0.904006 24.919391 -1.482740 1.534511 0.085864 -0.033234 -492794.000000 0 1 0
-3.540523 24.773403 0.504206 25.030203 -1.428841 1.550651 0.108453 -0.012631 -388635.000000 0 0 1
-4.324623 25.497203 1.414006 25.899984 -1.402784 1.516174 0.120595 -0.023071 864834.000000 0 0 1
-5.833923 25.510803 0.949206 26.186575 -1.345978 1.534541 0.137935 -0.030772 959413.000000 0 0 1
-6.026723 26.588403 0.021406 27.262888 -1.347895 1.570011 0.147145 -0.034202 133773.000000 0 0 1
-7.361523 26.530603 -0.457494 27.536780 -1.300133 1.587411 0.162944 -0.034421 284711.000000 0 0 1
-7.569123 27.587503 -1.575694 28.650389 -1.303018 1.625821 0.158585 -0.034352 -32358.000000 0 0 1
-7.621923 28.910203 -1.034794 29.915955 -1.313021 1.605393 0.179972 -0.050383 -105984.000000 0 0 1
-7.714223 29.930003 -1.992294 30.972303 -1.318544 1.635166 0.178661 -0.047707 -177643.000000 0 0 1
-7.353123 31.289703 -1.329594 32.169578 -1.339983 1.612139 0.158759 -0.049954 -326787.000000 0 0 1
-7.293223 32.433103 -2.171694 33.313864 -1.349606 1.636031 0.151558 -0.041318 -577978.000000 0 0 1
-6.245323 32.540603 -3.071794 33.276581 -1.381178 1.663239 0.141729 -0.038403 -600418.000000 0 0 1
-4.933823 33.118703 -2.495894 33.577085 -1.422910 1.645198 0.145980 -0.044239 -499140.000000 0 0 1
-4.853123 -32.892356 -2.328894 33.329921 1.424308 1.640727 0.150793 -0.043387 -149794.000000 0 0 1
-3.931523 -32.678456 -1.289194 32.939344 1.451062 1.609945 0.132907 -0.040064 -241073.000000 0 0 1
-3.615023 -31.187256 -0.964894 31.410896 1.455398 1.601520 0.137334 -0.051427 631859.000000 0 0 1
-4.821723 -30.566656 -0.499794 30.948656 1.414341 1.586946 0.161991 -0.050565 319071.000000 0 0 1
-5.430023 -29.903256 -1.559094 30.432231 1.391167 1.622050 0.181246 -0.050059 -863640.000000 0 0 1
-6.931323 -29.703556 -1.390994 30.533250 1.341549 1.616369 0.203891 -0.052489 -601314.000000 0 0 1
-7.309023 -28.960456 -0.270694 29.869769 1.323579 1.579859 0.206014 -0.044231 -485608.000000 0 0 1
-8.618523 -28.445556 -0.267994 29.723735 1.276605 1.579813 0.165514 -0.036630 134450.000000 0 0 1
-9.030123 -27.843956 1.096806 29.292183 1.257187 1.533344 0.188115 -0.038640 275400.000000 0 0 1
-8.154123 -26.772056 1.450606 28.023864 1.275147 1.519010 0.192784 -0.045310 14293.100000 0 0 1
-8.278423 -26.326856 2.774606 27.736872 1.266138 1.470596 0.200536 -0.040142 35219.000000 0 0 1
-9.134623 -25.052156 2.882506 26.820901 1.221153 1.463116 0.185239 -0.036775 -21646.000000 0 0 1
-8.404923 -23.889656 2.664706 25.464859 1.232499 1.465962 0.182437 -0.039317 -879722.000000 0 0 1
-9.129223 -22.752756 2.971306 24.695329 1.189225 1.450186 0.172821 -0.048168 -471548.000000 0 1 0
-8.329523 -21.523356 3.432606 23.332780 1.201547 1.423145 0.115302 -0.034996 179007.000000 0 1 0
-7.650723 -21.732956 4.671306 23.509063 1.232311 1.370763 0.113312 -0.030294 -374896.000000 0 1 0
-7.016823 -20.598856 5.139406 22.359834 1.242483 1.338873 0.081044 -0.026723 420128.000000 0 1 0
-8.000223 -19.546356 5.818706 21.907098 1.182303 1.301962 0.084672 -0.028795 636575.000000 0 1 0
-8.415823 -19.933156 7.098106 22.771471 1.171298 1.253804 0.090884 -0.028792 -69818.800000 0 1 0
-9.357323 -19.070956 7.693006 22.592990 1.114650 1.223343 0.072140 -0.024820 -454863.000000 0 1 0
-28.831253 28.729103 -5.402494 41.058366 -0.783624 1.702760 0.196159 -0.014564 548557.000000 0 0 1
-27.663363 29.350403 -4.855694 40.623707 -0.814980 1.690611 0.196163 -0.026930 666997.000000 0 0 1
-26.999373 28.510003 -3.872394 39.456075 -0.812605 1.669099 0.167717 -0.018944 153425.000000 0 0 1
-25.883343 29.291103 -3.188794 39.218421 -0.847083 1.652195 0.131939 -0.014681 -607245.000000 0 0 1
-26.406223 30.206703 -2.244994 40.184245 -0.852429 1.626693 0.117633 -0.015359 314114.000000 0 0 1
-25.697853 31.456903 -2.090294 40.672912 -0.885822 1.622212 0.114054 -0.015335 1199180.000000 0 0 1
-24.286223 31.381603 -1.365794 39.705050 -0.912174 1.605202 0.095172 0.005718 1091960.000000 0 0 1
-23.229023 30.785903 -2.116994 38.624358 -0.924400 1.625634 0.125574 -0.011847 35325.300000 0 0 1
-22.232623 30.418203 -1.189094 37.695763 -0.939633 1.602346 0.112460 -0.002361 -338150.000000 0 0 1
-21.052923 29.725303 -1.863794 36.473181 -0.954555 1.621919 0.118246 -0.011894 -831913.000000 0 0 1
-19.982223 29.364803 -1.085694 35.535329 -0.973290 1.601354 0.121796 -0.013885 33769.700000 0 0 1
-18.936023 28.651503 -1.760494 34.388675 -0.986791 1.622013 0.123331 -0.016364 1495970.000000 0 0 1
-17.460123 29.052303 -1.394594 33.923990 -1.029650 1.611917 0.149957 -0.028999 697743.000000 0 0 1
-17.004123 28.510003 -0.189894 33.196333 -1.033009 1.576517 0.135461 -0.033879 99648.300000 0 0 1
-15.669423 28.928303 0.027106 32.899518 -1.074376 1.569972 0.167655 -0.044687 167490.000000 0 0 1
-15.000923 28.252103 1.257406 32.012343 -1.082683 1.531507 0.170060 -0.043115 -79508.800000 0 0 1
-15.723823 28.497403 2.425306 32.637750 -1.066600 1.496418 0.152377 -0.043095 -93494.700000 0 0 1
-15.143223 27.852403 3.535906 31.899470 -1.072806 1.459723 0.162166 -0.054881 725211.000000 0 0 1
-14.007023 28.619403 4.300406 32.152145 -1.115645 1.436643 0.171344 -0.046467 641156.000000 0 0 1
-14.513523 29.656103 5.095606 33.407963 -1.115669 1.417672 0.141932 -0.033546 -187213.000000 0 0 1
-14.655923 30.835503 4.347006 34.416868 -1.127108 1.444154 0.172660 -0.043921 73787.700000 0 0 1
-14.333923 32.173803 5.109106 35.590981 -1.151678 1.426748 0.174912 -0.045688 517169.000000 0 0 1
-15.364123 32.583903 6.033106 36.526229 -1.130187 1.404864 0.161956 -0.048153 619254.000000 0 0 1
-15.073923 -33.551056 6.564006 37.362852 1.148539 1.394197 0.165452 -0.058967 439484.000000 0 0 1
-16.219723 -33.068456 7.511806 37.590284 1.114786 1.369608 0.119791 -0.049249 378020.000000 0 0 1
-16.328723 33.554503 8.720206 38.321976 -1.117900 1.341234 0.096385 -0.048286 296311.000000 0 0 1
-17.485323 -33.423556 9.432206 38.882350 1.088806 1.325769 0.086529 -0.042375 -201408.000000 0 0 1
-17.727723 33.202103 10.772506 39.149696 -1.080372 1.292038 0.073835 -0.025784 386239.000000 0 0 1
-16.856423 33.435403 11.875106 39.282099 -1.103835 1.263688 0.077879 -0.029549 -99342.600000 0 0 1
-15.496623 33.110603 11.730406 38.393486 -1.133054 1.260300 0.092360 -0.027620 -151769.000000 0 0 1
-14.687523 33.185903 13.077506 38.575234 -1.154127 1.224929 0.079755 -0.022956 -200928.000000 0 0 1
-15.068623 32.277203 14.136906 38.324057 -1.134018 1.192995 0.064235 -0.016524 160114.000000 0 0 1
-14.765423 30.830303 14.130606 36.989178 -1.124150 1.178815 0.059595 -0.020068 224191.000000 0 0 1
-15.798723 30.000903 13.274706 36.412520 -1.086089 1.197631 0.070330 -0.025409 352422.000000 0 0 1
-15.548323 29.944103 11.923006 35.784881 -1.091872 1.231116 0.083210 -0.016642 723763.000000 0 0 1
-16.753623 29.633803 11.214706 35.841537 -1.056241 1.252555 0.062858 -0.007405 582439.000000 0 0 1
-16.448523 29.437903 9.743906 35.101107 -1.061258 1.289506 0.070011 -0.006625 242288.000000 0 0 1
-15.622823 28.302403 9.520006 33.700581 -1.066422 1.284410 0.065852 -0.002664 212267.000000 0 0 1
-15.178523 28.223903 8.158306 33.068629 -1.077376 1.321514 0.068082 -0.013541 -35620.700000 0 0 1
-14.400123 26.955703 7.737406 31.525243 -1.080153 1.322828 0.081806 -0.016575 -490988.000000 0 0 1
-13.189023 26.826403 8.419706 31.056363 -1.113856 1.296250 0.115891 -0.017816 -479999.000000 0 0 1
-12.556123 25.610103 8.101906 29.650877 -1.114955 1.294033 0.123074 -0.019591 572450.000000 0 0 1
-11.283223 25.761903 7.191206 29.029299 -1.157982 1.320468 0.177806 -0.032276 295743.000000 0 0 1
-11.608423 26.065503 5.804506 29.118005 -1.151811 1.370108 0.188327 -0.039051 -69447.500000 0 0 1
-10.569523 25.680203 4.956106 28.209052 -1.180345 1.394188 0.208237 -0.034019 -441196.000000 0 0 1
-10.638423 26.007703 3.459706 28.311592 -1.182514 1.448289 0.207303 -0.042141 27260.900000 0 0 1
-10.118123 27.322803 3.170606 29.308100 -1.216137 1.462402 0.207671 -0.038309 185820.000000 0 0 1
-10.297123 27.723203 1.856506 29.631965 -1.215163 1.508103 0.205889 -0.045045 23252.400000 0 0 1
-10.025323 29.160103 1.580006 30.875802 -1.239653 1.519601 0.229843 -0.049030 553879.000000 0 0 1
-10.961923 30.051403 2.205706 32.064244 -1.221022 1.501952 0.208377 -0.054802 253673.000000 0 0 1
-10.492523 31.382403 2.108506 33.157112 -1.248136 1.507162 0.204158 -0.055005 -39973.100000 0 0 1
-11.315423 32.469503 2.859706 34.503411 -1.235464 1.487819 0.193538 -0.055171 1184720.000000 0 0 1
-12.643723 32.872903 2.462406 35.306585 -1.203615 1.500996 0.227896 -0.059179 713490.000000 0 0 1
-12.705223 33.446603 1.219106 35.799220 -1.207767 1.536736 0.222062 -0.052706 -505757.000000 0 0 1
-14.106723 -33.463056 0.779806 36.323324 1.171842 1.549326 0.224802 -0.052363 725696.000000 0 0 1
-15.035123 32.842603 0.615206 36.125752 -1.141480 1.553766 0.197085 -0.045837 545760.000000 0 0 1
-15.888723 32.947603 -0.553494 36.582816 -1.121456 1.585927 0.184362 -0.046307 86311.400000 0 0 1
-15.251823 32.807503 -1.969194 36.232970 -1.135631 1.625171 0.194986 -0.038014 -3744.120000 0 0 1
-14.678123 31.532503 -2.367494 34.861886 -1.135134 1.638759 0.184088 -0.037954 1207720.000000 0 0 1
-13.290723 31.445003 -1.967894 34.195090 -1.170905 1.628377 0.191680 -0.035522 898405.000000 0 0 1
-12.580423 30.115503 -2.400694 32.725738 -1.175092 1.644220 0.148582 -0.046443 74147.200000 0 0 1
-12.269023 30.169103 -3.731794 32.781550 -1.184549 1.684882 0.126466 -0.039250 -516040.000000 0 0 1
-11.104323 29.402503 -3.907094 31.671416 -1.209690 1.694475 0.112778 -0.034885 91661.100000 0 0 1
-10.851823 28.938003 -5.393594 31.372933 -1.212023 1.743573 0.103729 -0.035776 222613.000000 0 0 1
-11.605223 27.808603 -5.757794 30.678198 -1.175444 1.759600 0.092625 -0.028075 -154510.000000 0 0 1
-11.045223 27.281303 -6.929294 30.237089 -1.186104 1.802016 0.077896 -0.028213 134760.000000 0 0 1
-11.452323 25.839703 -7.224694 29.172627 -1.153606 1.821054 0.093563 -0.025502 157362.000000 0 0 1
-10.982823 24.797003 -6.324794 27.848102 -1.153855 1.799913 0.064923 -0.021341 -285338.000000 0 0 1
-11.436023 23.497503 -6.724694 26.984010 -1.117853 1.822661 0.113970 -0.033666 99626.900000 0 0 1
-10.784423 22.312603 -5.960194 25.488820 -1.120571 1.806817 0.101380 -0.034548 565118.000000 0 0 1
-9.435123 21.950803 -6.279194 24.704000 -1.164841 1.827793 0.110546 -0.031101 615799.000000 0 1 0
-8.870623 20.864903 -5.545494 23.340622 -1.168802 1.810680 0.099230 -0.025662 14679.600000 0 1 0
-8.820423 20.740603 -3.957994 22.883142 -1.168694 1.744636 0.103716 -0.036301 -328271.000000 0 1 0
-10.054923 20.594203 -3.300894 23.154235 -1.116601 1.713845 0.115907 -0.040460 -433959.000000 0 1 0
-10.436923 19.227903 -3.218294 22.113323 -1.073497 1.716851 0.095897 -0.035609 574025.000000 0 1 0
-11.851323 19.184603 -2.534694 22.692015 -1.017426 1.682730 0.091203 -0.039611 525739.000000 0 1 0
-11.835323 19.200103 -1.085494 22.580902 -1.018391 1.618886 0.097942 -0.035875 75826.100000 0 1 0
-11.220023 18.091903 -0.431194 21.292999 -1.015679 1.591048 0.075397 -0.029718 -247113.000000 0 1 0
-11.183123 18.162903 1.075106 21.356712 -1.018904 1.520435 0.088197 -0.026179 709638.000000 0 1 0
-12.480623 18.070203 1.674406 22.025027 -0.966357 1.494700 0.111923 -0.032534 556634.000000 0 1 0
-12.328823 18.380903 3.043206 22.340962 -0.979978 1.434155 0.109593 -0.023423 -302298.000000 0 1 0
-13.657923 18.414103 3.783906 23.236523 -0.932622 1.407225 0.105362 -0.028478 -426907.000000 0 1 0
-14.078323 17.144103 4.151906 22.568956 -0.883276 1.385777 0.075534 -0.025707 250463.000000 0 1 0
-15.372123 17.161103 4.731606 23.520070 -0.840332 1.368241 0.086039 -0.036624 210250.000000 0 1 0
-15.603223 15.800003 5.401706 22.853426 -0.791664 1.332175 0.053531 -0.029479 -530543.000000 0 1 0
-14.822223 15.593303 6.551006 22.489221 -0.810744 1.275216 0.050191 -0.014436 -121574.000000 0 1 0
-15.413123 16.083503 7.720606 23.576496 -0.806679 1.237171 0.049574 -0.011653 -723661.000000 0 1 0
-14.476023 15.971103 8.946006 23.338003 -0.834463 1.177404 0.047006 0.003475 1551850.000000 0 1 0
-13.230223 16.711903 9.020606 23.145147 -0.901159 1.170446 0.052260 -0.009191 1611450.000000 0 1 0
-12.261623 16.349803 8.017706 21.953293 -0.927324 1.196931 0.057516 -0.017343 -632607.000000 0 1 0
-11.091923 17.290203 7.762406 21.959891 -1.000409 1.209507 0.081626 -0.021562 107598.000000 0 1 0
-10.031923 17.154503 8.702906 21.694631 -1.041630 1.158019 0.076415 -0.027072 -329699.000000 0 1 0
-9.340023 18.349603 8.721006 22.360678 -1.099971 1.170148 0.085132 -0.028862 801144.000000 0 1 0
-7.928623 18.359503 9.465106 22.125159 -1.163135 1.128741 0.072410 -0.029229 1241110.000000 0 1 0
-6.923123 17.542803 8.815106 20.817917 -1.194918 1.133559 0.055755 -0.029311 464955.000000 0 1 0
-5.663623 17.614403 9.447706 20.775056 -1.259703 1.098691 0.050972 -0.032389 -214788.000000 0 1 0
-4.786323 18.751603 9.003706 21.344747 -1.320884 1.135341 0.046514 -0.032506 -1767510.000000 0 1 0
-5.098523 20.056503 9.333806 22.701942 -1.321861 1.147086 0.064536 -0.033813 -325372.000000 0 1 0
-4.638223 21.123303 8.552306 23.256160 -1.354648 1.194215 0.077904 -0.034492 299355.000000 0 1 0
-3.203523 21.708103 8.751506 23.623995 -1.424281 1.191303 0.080677 -0.034899 1104860.000000 0 1 0
-2.132323 20.810803 8.358806 22.527893 -1.468690 1.190665 0.059947 -0.018750 733564.000000 0 1 0
-0.940023 21.600603 8.257206 23.144139 -1.527305 1.205985 0.058055 -0.020391 360201.000000 0 1 0
0.335377 20.754703 8.120306 22.289225 1.554639 1.197899 0.043424 -0.011416 181167.000000 0 1 0
0.835477 20.118603 9.292606 22.176761 1.529293 1.138426 0.047352 -0.016978 -82281.700000 0 1 0
2.109077 19.539903 9.102406 21.658943 1.463276 1.137064 0.035979 -0.022061 112919.000000 0 1 0
2.785177 19.112403 10.449706 21.959907 1.426089 1.074862 0.038526 -0.032378 -719835.000000 0 1 0
4.168577 19.036503 10.392006 22.085273 1.355221 1.080894 0.053354 -0.014493 -853206.000000 0 1 0
4.673377 18.671103 11.634906 22.490478 1.325535 1.027073 0.052743 -0.020668 -1130880.000000 0 1 0
6.172677 18.529903 11.658506 22.745989 1.249238 1.032642 0.049319 -0.022310 -993396.000000 0 1 0
6.722677 17.353003 11.083806 21.660375 1.201193 1.033624 0.030862 -0.016401 -774293.000000 0 1 0
7.707977 16.888903 11.901706 22.052178 1.142639 1.000708 0.032899 -0.009631 -506506.000000 0 1 0
8.919377 16.223403 11.187906 21.631536 1.068119 1.027216 0.039087 -0.011713 707664.000000 0 1 0
9.862277 17.118303 10.595306 22.417880 1.048117 1.078526 0.052942 -0.022927 387410.000000 0 1 0
11.071377 16.487703 10.200006 22.326215 0.979460 1.096332 0.054294 -0.021205 156131.000000 0 1 0
12.122977 17.487703 9.688606 23.380664 0.964629 1.143529 0.064713 -0.015478 -289860.000000 0 1 0
13.119377 16.805503 8.960406 23.126432 0.907960 1.172929 0.082002 -0.016129 128690.000000 0 1 0
14.016577 17.766203 8.322006 24.111371 0.902832 1.218399 0.112278 -0.023942 1075030.000000 0 1 0
15.013477 16.980303 7.382606 23.837745 0.846796 1.255916 0.144133 -0.035585 -50493.700000 0 1 0
16.084577 16.292303 7.948706 24.234989 0.791814 1.236627 0.158058 -0.034890 -1177010.000000 0 1 0
17.059277 16.078103 7.029006 24.473072 0.755798 1.279479 0.164593 -0.030204 -1738370.000000 0 1 0
18.455577 16.275903 7.565106 25.743818 0.722722 1.272533 0.164782 -0.028173 -912002.000000 0 0 1
18.899977 15.238703 8.395006 25.688584 0.678559 1.237882 0.185853 -0.026642 -1232490.000000 0 0 1
20.044977 15.516603 9.062406 26.920128 0.658741 1.227449 0.189429 -0.033380 -1221130.000000 0 0 1
20.387577 14.393703 10.072706 26.912663 0.614744 1.187183 0.186584 -0.030680 -96748.700000 0 0 1
20.826877 13.207003 9.470606 26.417345 0.565140 1.204136 0.195749 -0.042812 92857.700000 0 0 1
20.875777 12.170103 10.403906 26.308758 0.527809 1.164234 0.187324 -0.052858 64315.000000 0 0 1
21.935277 11.094203 9.987306 26.532697 0.468253 1.184873 0.173043 -0.042935 -143854.000000 0 0 1
23.225677 11.694003 9.827106 27.798450 0.466439 1.209473 0.157200 -0.050287 979218.000000 0 0 1
24.248377 10.983803 9.165106 28.153630 0.425322 1.239215 0.180101 -0.041961 224022.000000 0 0 1
24.550177 9.520403 9.641306 28.041114 0.369940 1.219806 0.189234 -0.045772 -1425320.000000 0 0 1
23.729877 8.605603 8.994406 26.796694 0.347898 1.228497 0.218241 -0.056599 213772.000000 0 0 1
23.745977 7.274403 9.497606 26.589338 0.297265 1.205532 0.213858 -0.050031 -221453.000000 0 0 1
24.845077 6.339903 8.923806 27.149706 0.249846 1.235881 0.221263 -0.054474 184859.000000 0 0 1
24.602577 6.075403 7.579206 26.450741 0.242098 1.280182 0.222251 -0.043531 84639.700000 0 0 1
25.703577 5.454903 6.983406 27.188193 0.209121 1.311030 0.222813 -0.044433 -200520.000000 0 0 1
25.456377 5.152703 5.421506 26.532437 0.199715 1.365012 0.246457 -0.053139 158377.000000 0 0 1
24.452677 4.169503 5.190406 25.342820 0.168889 1.364529 0.247446 -0.050113 390504.000000 0 0 1
24.279177 3.917703 3.843906 24.891815 0.159982 1.415751 0.265900 -0.049958 180868.000000 0 1 0
23.096877 2.981003 3.463806 23.544640 0.128356 1.423144 0.249327 -0.041137 250637.000000 0 1 0
23.373077 1.607603 3.831006 23.739455 0.068672 1.408710 0.251646 -0.046503 643770.000000 0 1 0
22.204577 0.817303 3.571306 22.504788 0.036791 1.411432 0.214165 -0.037434 425129.000000 0 1 0
22.376677 -0.715997 3.653506 22.684278 -0.031987 1.409033 0.227192 -0.053076 -641166.000000 0 1 0
22.521977 -1.108497 5.017806 23.100792 -0.049179 1.351837 0.211307 -0.055039 570933.000000 0 1 0
22.833077 -2.462997 5.012006 23.506084 -0.107454 1.355925 0.217379 -0.064349 -779945.000000 0 1 0
22.950077 -3.161997 6.346906 24.020564 -0.136915 1.303393 0.247043 -0.061542 -130995.000000 0 1 0
22.788477 -4.595997 6.435306 24.121589 -0.199011 1.300740 0.208632 -0.059913 518809.000000 0 1 0
23.165677 -5.164597 7.693406 24.950153 -0.219355 1.257337 0.271468 -0.061157 -172743.000000 0 1 0
22.765277 -6.635297 7.946006 25.008479 -0.283609 1.247459 0.247621 -0.057569 -837950.000000 0 0 1
21.393977 -6.710497 8.112806 23.844300 -0.303944 1.223623 0.247315 -0.065520 -402740.000000 0 1 0
21.120677 -7.691797 9.120306 24.257509 -0.349254 1.185344 0.222424 -0.055308 -193089.000000 0 1 0
-28.219283 -32.859856 5.195206 43.624400 0.861229 1.451424 0.077816 -0.014420 -265340.000000 0 0 1
-29.114263 33.586303 5.635106 44.804402 -0.856601 1.444691 0.087078 -0.022192 -170283.000000 0 0 1
-29.408893 33.637703 7.048906 45.233451 -0.852372 1.414325 0.068618 -0.003993 -107805.000000 0 0 1
-30.105713 32.383203 7.657106 44.873790 -0.821828 1.399321 0.089907 -0.017600 -279977.000000 0 0 1
-31.458243 32.420603 7.320806 45.763640 -0.800462 1.410136 0.089801 -0.019628 -772916.000000 0 0 1
-32.192493 31.282903 7.750006 45.552598 -0.771069 1.399832 0.118881 -0.045393 1148030.000000 0 0 1
-33.752523 31.434603 7.652306 46.753875 -0.749855 1.406385 0.123989 -0.037599 481250.000000 0 0 1
-34.220346 31.474803 6.334206 46.923528 -0.743630 1.435393 0.111403 -0.038182 1100240.000000 0 0 1
-35.626540 31.837503 6.322106 48.195912 -0.729293 1.439242 0.093626 -0.028493 1246720.000000 0 0 1
-36.281903 31.821503 4.902506 48.507928 -0.719997 1.469557 0.084322 -0.025235 -196570.000000 0 0 1
-36.189813 30.525503 4.314806 47.540787 -0.700699 1.479911 0.090811 -0.033641 65244.200000 0 0 1
-36.810593 30.417403 3.073806 47.850668 -0.690586 1.506515 0.082971 -0.008130 -78239.400000 0 0 1
-36.528083 29.018603 2.413706 46.714089 -0.671329 1.519104 0.081552 -0.018276 158364.000000 0 0 1
-37.038793 27.969303 3.247906 46.526369 -0.646780 1.500932 0.112961 -0.030786 634925.000000 0 0 1
-36.340533 26.770503 2.907506 45.229943 -0.634907 1.506469 0.102711 -0.032525 74300.600000 0 0 1
-36.809933 25.561003 3.810206 44.976146 -0.606961 1.485979 0.139861 -0.033991 325018.000000 0 0 1
-38.114783 25.133503 3.398106 45.781839 -0.582966 1.496504 0.120321 -0.020960 311063.000000 0 0 1
37.940625 24.087003 4.276306 45.143788 0.565659 1.475928 0.123830 -0.023413 1637210.000000 0 0 1
36.393385 23.655803 4.260506 43.614533 0.576377 1.472955 0.129558 -0.021468 1442170.000000 0 0 1
35.986825 22.846903 3.187806 42.745698 0.565664 1.496151 0.117219 -0.026925 162324.000000 0 0 1
36.272905 21.455503 3.413406 42.281363 0.534148 1.489978 0.107678 -0.022566 -561020.000000 0 0 1
35.461285 20.510803 2.466706 41.039986 0.524386 1.510655 0.116052 -0.015509 618282.000000 0 0 1
34.079635 20.344703 2.788606 39.788250 0.538193 1.500653 0.114453 -0.033409 713928.000000 0 0 1
33.767305 19.532503 3.909506 39.205023 0.524419 1.470911 0.099976 -0.021848 -461980.000000 0 0 1
33.932935 18.056303 3.752106 38.620623 0.489010 1.473490 0.129382 -0.029674 -385583.000000 0 0 1
33.113745 17.591703 2.672906 37.591656 0.488335 1.499633 0.103606 -0.037309 523923.000000 0 0 1
33.181655 16.262603 2.433706 37.032654 0.455703 1.505031 0.114341 -0.035634 -326352.000000 0 0 1
32.277125 15.374203 3.297206 35.903350 0.444524 1.478831 0.141820 -0.037243 730321.000000 0 0 1
30.874065 15.473303 2.958206 34.660958 0.464587 1.485345 0.099422 -0.035725 1159490.000000 0 0 1
30.165565 14.580303 3.810706 33.720440 0.450233 1.457546 0.095619 -0.041315 1102700.000000 0 0 1
28.587665 14.693203 3.825106 32.369373 0.474761 1.452349 0.099755 -0.035588 907676.000000 0 0 1
28.010065 14.205303 2.656406 31.518422 0.469351 1.486415 0.114428 -0.046253 358133.000000 0 0 1
26.589865 14.348603 2.779706 30.341887 0.494844 1.479055 0.098760 -0.035742 453542.000000 0 0 1
25.871565 13.763703 1.541506 29.345420 0.488920 1.518242 0.099463 -0.032360 -379438.000000 0 0 1
26.204465 14.229103 0.240406 29.819443 0.497455 1.562734 0.099130 -0.032703 419108.000000 0 0 1
27.469865 13.721703 -0.164994 30.706772 0.463262 1.576170 0.095953 -0.038131 -121785.000000 0 0 1
28.205265 14.465003 -1.338194 31.726394 0.473873 1.612988 0.120316 -0.036633 380512.000000 0 0 1
28.688965 15.815003 -1.157294 32.779725 0.503808 1.606109 0.069810 -0.021503 519996.000000 0 0 1
29.535665 16.136603 -0.081794 33.656384 0.500031 1.573227 0.077782 -0.027810 -351829.000000 0 0 1
30.055465 17.611103 -0.074694 34.835148 0.530027 1.572941 0.084943 -0.019516 -403973.000000 0 0 1
31.000565 17.937303 -1.050194 35.831339 0.524545 1.600110 0.121839 -0.016641 -196824.000000 0 0 1
31.586765 19.171403 -0.829494 36.958822 0.545510 1.593242 0.112056 -0.000272 128941.000000 0 0 1
32.400315 19.522803 -2.113394 37.886498 0.542292 1.626608 0.096496 0.003310 145890.000000 0 0 1
33.078535 20.775703 -2.220694 39.124811 0.560805 1.627586 0.090420 0.003679 658789.000000 0 0 1
32.243065 21.907503 -2.547994 39.064642 0.596799 1.636068 0.103887 0.009004 15241.600000 0 0 1
33.012255 23.282203 -2.565494 40.477794 0.614247 1.634219 0.118508 -0.005318 332204.000000 0 0 1
33.522795 23.833203 -1.356794 41.153861 0.618041 1.603771 0.100821 0.001958 -21430.500000 0 0 1
34.678315 23.239203 -0.840194 41.753468 0.590401 1.590920 0.118458 0.011878 -458006.000000 0 0 1
35.178315 24.089703 0.423606 42.638095 0.600444 1.560861 0.121922 -0.006161 192078.000000 0 0 1
35.502965 25.426003 0.010706 43.668551 0.621493 1.570551 0.127113 -0.001628 296356.000000 0 0 1
36.454325 26.069903 0.854506 44.825081 0.620814 1.551732 0.126804 -0.013677 369522.000000 0 0 1
36.865395 27.478103 0.353706 45.980742 0.640527 1.563104 0.110490 -0.019503 47453.800000 0 0 1
37.650575 27.529803 -0.822794 46.649040 0.631355 1.588435 0.102544 -0.011437 361602.000000 0 0 1
36.818055 27.579203 -1.981194 46.044618 0.642904 1.613837 0.084481 -0.012461 23812.500000 0 0 1
37.374685 27.042603 -3.302094 46.250117 0.626360 1.642254 0.088488 -0.015963 -177367.000000 0 0 1
-38.194183 27.925303 -4.024994 47.484932 -0.631321 1.655662 0.086070 -0.025615 222689.000000 0 0 1
-37.688203 27.416703 -5.238294 46.898998 -0.628920 1.682723 0.091470 -0.025015 -489676.000000 0 0 1
37.760585 27.433303 -6.426294 47.114172 0.628295 1.707621 0.074349 -0.023109 -1146310.000000 0 0 1
36.651545 26.670703 -6.144894 45.742999 0.629065 1.705539 0.081615 -0.019615 -1370130.000000 0 0 1
35.697465 26.862603 -7.139794 45.242515 0.645104 1.729270 0.070838 -0.019884 51067.600000 0 0 1
34.470065 25.893203 -6.978594 43.673152 0.644256 1.731276 0.092013 -0.016433 -64905.300000 0 0 1
34.633485 24.479703 -7.221594 43.021920 0.615290 1.739453 0.081268 -0.017976 36026.100000 0 0 1
35.704105 23.876003 -6.480594 43.437827 0.589422 1.720548 0.093797 -0.024271 432455.000000 0 0 1
35.961895 22.387103 -6.811194 42.904926 0.556816 1.730222 0.099649 -0.014289 -6456.240000 0 0 1
35.064315 21.574803 -6.114994 41.621767 0.551588 1.718248 0.103148 -0.000008 -8546.010000 0 0 1
35.186075 20.306803 -6.613394 41.160213 0.523431 1.732170 0.108079 -0.002410 737936.000000 0 0 1
34.176735 19.345403 -5.838794 39.703720 0.515075 1.718391 0.124780 -0.005470 1423320.000000 0 0 1
32.804625 19.338403 -6.227794 38.586302 0.532665 1.732905 0.085233 -0.006764 942049.000000 0 0 1
31.918585 18.477703 -5.513894 37.291080 0.524761 1.719201 0.120072 -0.017066 1304060.000000 0 0 1
30.564665 18.178703 -6.274794 36.111454 0.536559 1.745445 0.069298 -0.013109 850090.000000 0 0 1
30.733765 17.332403 -7.376394 36.047021 0.513493 1.776885 0.054137 -0.007239 -396520.000000 0 0 1
29.662965 17.385903 -8.264094 35.361793 0.530147 1.806679 0.081393 -0.023531 -424172.000000 0 0 1
29.709365 16.251703 -9.327194 35.124932 0.500555 1.839564 0.097271 -0.015902 -497878.000000 0 0 1
28.733365 16.271003 -10.315694 34.594297 0.515253 1.873593 0.102849 -0.020029 -279826.000000 0 0 1
28.953865 15.263703 -11.321994 34.633720 0.485149 1.903825 0.100159 -0.021306 402832.000000 0 0 1
27.964165 15.299003 -12.552394 34.258089 0.500609 1.945941 0.119360 -0.019162 461497.000000 0 0 1
26.588965 15.090203 -12.308994 32.957528 0.516207 1.953555 0.109627 -0.026524 408412.000000 0 0 1
25.776165 14.860703 -13.470594 32.660498 0.522983 1.995931 0.122487 -0.030939 19166.500000 0 0 1
25.659965 13.399303 -14.069894 32.185977 0.481239 2.023217 0.126222 -0.028588 140167.000000 0 0 1
26.929765 13.015203 -14.605594 33.285600 0.450200 2.025055 0.133852 -0.030265 655460.000000 0 0 1
27.352665 13.667403 -15.821194 34.427844 0.463386 2.048281 0.145838 -0.038777 652347.000000 0 0 1
28.845265 13.248703 -16.125494 35.603498 0.430563 2.040833 0.169625 -0.037413 1031060.000000 0 0 1
28.815965 11.893403 -16.653394 35.343294 0.391438 2.061435 0.175586 -0.038056 -173333.000000 0 0 1
30.106965 11.403703 -16.908294 36.364327 0.362074 2.054396 0.151790 -0.020906 28376.400000 0 0 1
30.043865 10.031403 -17.679094 36.274141 0.322253 2.079877 0.117284 -0.015856 -300315.000000 0 0 1
29.559065 10.271503 -18.928594 36.572310 0.334438 2.114801 0.127765 -0.021065 -247795.000000 0 0 1
29.541865 9.107503 -19.724394 36.670426 0.299046 2.138720 0.096717 -0.005020 189365.000000 0 0 1
30.897465 8.445703 -20.143994 37.838655 0.266828 2.132189 0.107439 -0.011724 68594.100000 0 0 1
31.590795 9.266603 -21.080994 39.092923 0.285329 2.140347 0.110048 -0.020493 146462.000000 0 0 1
31.997345 8.530103 -22.209794 39.873146 0.260529 2.161579 0.102537 -0.013799 109298.000000 0 0 1
33.469415 8.000603 -22.210794 40.957671 0.234639 2.143953 0.098154 -0.010263 94044.800000 0 0 1
34.350995 9.073003 -22.180194 41.884022 0.258229 2.128881 0.106287 -0.015211 -55692.700000 0 0 1
35.706605 8.722103 -22.432094 43.060836 0.239580 2.118748 0.077151 -0.004946 575937.000000 0 0 1
36.765365 9.816903 -22.398994 44.156298 0.260928 2.102806 0.103559 -0.013475 -129619.000000 0 0 1
36.776595 10.348303 -21.120294 43.654006 0.274291 2.075801 0.083534 -0.014067 -99220.100000 0 0 1
37.668815 11.399903 -20.928994 44.574884 0.293873 2.059548 0.057988 -0.002743 -304358.000000 0 0 1
37.464455 12.096203 -19.513694 43.939593 0.312306 2.030969 0.032584 -0.004974 -264051.000000 0 0 1
37.692665 11.260303 -18.355194 43.410190 0.290300 2.007364 0.041520 -0.009551 117141.000000 0 0 1
37.755805 12.044903 -17.188294 43.197431 0.308815 1.980024 0.047509 -0.007488 18955.400000 0 0 1
-38.070063 11.337803 -15.934394 42.799303 -0.289450 1.952288 0.037238 -0.012849 44629.900000 0 0 1
37.498775 10.214103 -15.644994 41.895727 0.265933 1.953497 0.025103 -0.013013 760544.000000 0 0 1
38.200515 9.302803 -14.785394 42.005112 0.238876 1.930493 0.022029 -0.025767 -196816.000000 0 0 1
37.432435 8.003403 -14.551894 40.951182 0.210638 1.934082 0.074286 -0.023960 414568.000000 0 0 1
36.313505 8.293303 -13.684994 39.682851 0.224530 1.922885 0.098005 -0.025376 922652.000000 0 0 1
36.716145 8.075203 -12.335794 39.565845 0.216489 1.887861 0.104169 -0.028631 -369110.000000 0 0 1
35.660985 8.633103 -11.377894 38.414748 0.237519 1.871493 0.129295 -0.021490 -243378.000000 0 0 1
35.477385 10.048603 -11.329694 38.574360 0.276010 1.868903 0.120852 -0.031011 365830.000000 0 0 1
34.639595 10.442403 -10.227894 37.597276 0.292794 1.846307 0.118780 -0.017619 29018.500000 0 0 1
35.353295 10.341403 -8.888794 37.892094 0.284577 1.807585 0.153791 -0.018021 267939.000000 0 0 1
36.443555 11.236803 -8.687494 39.113566 0.299085 1.794774 0.152886 -0.017218 333850.000000 0 0 1
36.074425 12.564203 -8.277394 39.086297 0.335147 1.784184 0.150532 -0.011116 -386844.000000 0 0 1
35.602405 12.720003 -6.840494 38.420335 0.343145 1.749794 0.133075 -0.011053 -75198.100000 0 0 1
36.630885 12.550903 -5.893294 39.167306 0.330096 1.721835 0.160361 -0.009457 282638.000000 0 0 1
36.239385 13.029303 -4.598894 38.784090 0.345143 1.689653 0.149318 -0.004207 58130.600000 0 0 1
37.446055 12.844103 -3.670194 39.757369 0.330428 1.663243 0.173073 -0.011171 115172.000000 0 0 1
-37.930133 13.750903 -3.978994 40.541518 -0.347796 1.669101 0.172048 -0.004075 -291652.000000 0 0 1
-36.738593 13.541103 -3.264694 39.290506 -0.353130 1.653983 0.163747 -0.014601 -250775.000000 0 0 1
-35.836535 14.758903 -3.298994 38.896861 -0.390671 1.655712 0.157960 -0.016571 -268170.000000 0 0 1
-36.252663 15.769703 -2.411094 39.607480 -0.410305 1.631709 0.179882 -0.011543 98627.900000 0 0 1
-35.316340 16.802003 -2.350194 39.180028 -0.444066 1.630817 0.157529 -0.013974 14348.800000 0 0 1
-35.896467 17.954303 -1.494394 40.163996 -0.463783 1.608012 0.165814 -0.008792 -68022.300000 0 0 1
-36.923803 18.681603 -2.092694 41.433668 -0.468396 1.621325 0.152455 -0.004221 -274419.000000 0 0 1
-37.720093 19.326903 -1.168194 42.399284 -0.473500 1.598352 0.140455 -0.005249 -251348.000000 0 0 1
37.763605 20.422503 -1.733794 42.967134 0.495751 1.611159 0.124403 0.002372 44662.100000 0 0 1
-38.004353 21.641003 -2.060494 43.782525 -0.517642 1.617876 0.122717 -0.003374 -83270.900000 0 0 1
37.940155 22.064303 -3.263094 44.010643 0.526747 1.645008 0.094479 -0.004084 -291450.000000 0 0 1
-37.676983 23.261503 -3.775494 44.439925 -0.553110 1.655856 0.111895 -0.015262 394396.000000 0 0 1
-36.331063 22.952703 -4.146194 43.173645 -0.563449 1.666980 0.126652 -0.022794 278532.000000 0 0 1
-35.697545 24.126203 -4.606094 43.331334 -0.594334 1.677297 0.142936 -0.028061 571961.000000 0 0 1
-34.187245 24.038203 -4.980994 42.088160 -0.612826 1.689421 0.135737 -0.039176 428515.000000 0 0 1
-33.984036 23.160103 -6.083394 41.572981 -0.598201 1.717654 0.113445 -0.026957 -264646.000000 0 0 1
-32.599733 23.179803 -6.337094 40.499440 -0.618099 1.727916 0.114728 -0.020863 -218443.000000 0 0 1
-32.260853 22.136403 -7.401894 39.819229 -0.601383 1.757771 0.108629 -0.027217 -89088.400000 0 0 1
-32.934983 22.470203 -8.604594 40.788015 -0.598720 1.783352 0.092235 -0.033566 -37138.000000 0 0 1
-32.467333 21.837203 -9.729394 40.319378 -0.592092 1.814510 0.043133 -0.026229 -445630.000000 0 0 1
-33.336533 22.092803 -10.958994 41.467046 -0.585266 1.838256 0.040156 -0.015012 -396669.000000 0 0 1
-33.292433 23.430103 -11.406494 42.278410 -0.613249 1.843976 0.053179 -0.022652 -110180.000000 0 0 1
-34.001387 23.560403 -12.605394 43.244455 -0.605962 1.866582 0.031200 -0.012998 -627247.000000 0 0 1
-34.244481 25.070003 -13.013494 44.390771 -0.631939 1.868324 0.081417 -0.026810 -144803.000000 0 0 1
-33.108843 25.885003 -13.183994 44.045960 -0.663554 1.874780 0.068815 -0.020384 -159495.000000 0 0 1
-32.205193 25.533903 -14.238594 43.495887 -0.670366 1.904299 0.059498 -0.017636 366596.000000 0 0 1
-30.772003 26.024103 -13.868294 42.620414 -0.701997 1.902221 0.047704 -0.018250 383619.000000 0 0 1
-29.957083 25.273503 -12.927994 41.271174 -0.700800 1.889405 0.031989 -0.016284 188014.000000 0 0 1
-30.441893 24.982603 -11.575194 41.046613 -0.687215 1.856676 0.052550 -0.017505 -591517.000000 0 0 1
-30.760983 26.153203 -10.661194 41.759899 -0.704614 1.828952 0.084338 -0.021147 742814.000000 0 0 1
-29.635673 26.964003 -10.275894 41.363324 -0.738230 1.821856 0.108938 -0.018186 317147.000000 0 0 1
-30.093573 28.176003 -9.707994 42.352750 -0.752501 1.802070 0.119385 -0.026318 569364.000000 0 0 1
-28.920873 29.037003 -9.131594 41.987504 -0.787402 1.790032 0.136358 -0.027466 621277.000000 0 0 1
-29.278513 30.410603 -8.965894 43.155803 -0.804362 1.780077 0.138039 -0.027455 -790734.000000 0 0 1
-28.227453 31.151903 -8.489894 42.887160 -0.834609 1.770071 0.171195 -0.013272 -507559.000000 0 0 1
37.210365 -24.791597 33.055521 55.604874 -0.587718 0.934188 0.072076 -0.014536 -149402.000000 0 0 1
36.455385 -23.582597 33.142591 54.622022 -0.574185 0.918815 0.065499 -0.019437 1058600.000000 0 0 1
35.467275 -23.631797 -33.130194 53.981471 -0.587748 2.231576 0.061657 -0.022367 822750.000000 0 0 1
35.083675 -22.243797 -32.643464 52.832249 -0.565060 2.236827 0.052861 -0.026947 7707.020000 0 0 1
34.386015 -21.489397 -33.601914 52.661949 -0.558560 2.262783 0.041282 -0.021567 97474.000000 0 0 1
33.927795 -20.240597 -33.103664 51.542503 -0.537900 2.268239 0.029687 -0.010480 292756.000000 0 0 1
33.320185 -19.473797 33.075733 50.827823 -0.528903 0.862237 0.041894 -0.007168 225912.000000 0 0 1
34.414665 -19.011797 32.295391 50.880349 -0.504709 0.883135 0.051401 -0.017408 253976.000000 0 0 1
34.054335 -18.237297 31.181932 49.644835 -0.491670 0.891687 0.069067 -0.007225 -735214.000000 0 0 1
35.073255 -18.089997 30.054802 49.605164 -0.476190 0.919924 0.076472 -0.012441 -375395.000000 0 0 1
36.016135 -17.070997 30.336632 50.088843 -0.442617 0.920206 0.077555 -0.022081 471731.000000 0 0 1
37.038025 -17.029197 29.328342 50.219125 -0.430954 0.947140 0.083944 -0.020373 670082.000000 0 0 1
-38.081153 -16.318097 29.861812 51.070366 0.404839 0.946263 0.071747 -0.025974 28396.500000 0 0 1
-36.986613 -16.345697 28.988762 49.754795 0.416127 0.948832 0.078880 -0.026140 229902.000000 0 0 1
-35.929363 -15.509097 29.408372 48.952053 0.407494 0.926347 0.075002 -0.028444 -1280760.000000 0 0 1
-34.770234 -15.365797 28.430752 47.469827 0.416118 0.928641 0.094756 -0.032225 -200560.000000 0 0 1
-33.596023 -14.756497 28.919722 46.720416 0.413864 0.903333 0.080988 -0.024916 421500.000000 0 0 1
-32.866223 -15.672897 29.761362 47.027300 0.444973 0.885564 0.077625 -0.035906 -1391710.000000 0 0 1
-31.622733 -15.179597 30.487542 46.474806 0.447538 0.855288 0.088031 -0.044612 -391967.000000 0 0 1
-31.827523 -14.165497 31.368570 46.878990 0.418747 0.837746 0.097332 -0.046305 -195598.000000 0 0 1
-30.568053 -13.666997 31.712325 46.117938 0.420440 0.812569 0.093197 -0.056466 -298320.000000 0 0 1
-30.619563 -12.746197 32.935526 46.741545 0.394458 0.788894 0.078466 -0.022553 -98491.200000 0 0 1
-30.914653 -13.396097 -33.229564 47.322036 0.408901 2.349280 0.099352 -0.030905 223979.000000 0 0 1
-31.629943 -12.579997 -32.335784 46.950107 0.378543 2.330527 0.109745 -0.016247 -165261.000000 0 0 1
-31.652213 -13.136197 -30.900324 46.143822 0.393384 2.304537 0.100751 -0.038489 -350484.000000 0 0 1
-32.481893 -14.258697 -30.783334 46.968047 0.413647 2.285522 0.093209 -0.030495 18985.500000 0 0 1
-32.638293 -14.587197 -29.420974 46.299440 0.420302 2.259387 0.105576 -0.020166 -404970.000000 0 0 1
-33.773683 -15.513197 -29.045464 47.169481 0.430584 2.234157 0.089012 -0.036666 -481409.000000 0 0 1
-33.574073 -16.831297 -29.509194 47.762993 0.464702 2.236771 0.076298 -0.022607 -153977.000000 0 0 1
-34.708525 -17.635697 -29.395664 48.783241 0.470113 2.217523 0.061494 -0.024678 -360523.000000 0 0 1
-34.464037 -18.944297 -30.096764 49.522434 0.502600 2.224008 0.055011 -0.015017 -219212.000000 0 0 1
-35.611456 -19.725097 -30.046124 50.596688 0.505831 2.206614 0.047392 -0.017572 -326575.000000 0 0 1
-35.264632 -21.023897 -30.569124 51.186618 0.537602 2.210814 0.044365 -0.013378 -3806.890000 0 0 1
-36.435523 -21.966897 -30.879644 52.570375 0.542548 2.198634 0.043152 -0.006018 -447203.000000 0 0 1
-37.137633 -22.451897 -29.787184 52.636183 0.543765 2.172329 0.059133 -0.015938 -300663.000000 0 0 1
38.197065 -23.329097 -30.094094 53.934378 -0.548291 2.162741 0.081880 -0.020625 24339.200000 0 0 1
-37.912863 -24.799697 -30.345194 54.527433 0.579269 2.160979 0.074730 -0.020845 -139182.000000 0 0 1
-37.379403 -25.020767 -31.629594 54.988087 0.589874 2.183655 0.079771 -0.017008 -264108.000000 0 0 1
-36.744743 -26.304947 -31.611384 55.148943 0.621307 2.181202 0.070009 -0.014955 236724.000000 0 0 1
-36.999883 -27.205977 -32.840924 56.459568 0.634026 2.191578 0.081151 -0.018279 1186720.000000 0 0 1
38.048935 -27.709327 -32.974584 57.470440 -0.629438 2.181893 0.083812 -0.017357 674331.000000 0 0 1
37.921355 -29.049767 -33.472444 58.329432 -0.653696 2.181998 0.085649 -0.015348 98314.800000 0 0 1
-37.839153 -30.210867 -32.650734 58.400072 0.673766 2.164081 0.088460 -0.023461 358023.000000 0 0 1
38.010605 -30.327027 -31.349544 57.856103 -0.673433 2.143437 0.085606 -0.029091 -61443.900000 0 0 1
-37.586973 -31.188807 -30.591734 57.631384 0.692636 2.130361 0.076240 -0.031018 -121248.000000 0 0 1
38.158255 -31.674677 -29.298974 57.600065 -0.692819 2.104427 0.062188 -0.028453 243681.000000 0 0 1
37.381265 -32.860267 -29.593044 57.904269 -0.721123 2.107224 0.091040 -0.028740 316766.000000 0 0 1
36.811915 -33.356407 -28.401424 57.222442 -0.736192 2.090167 0.089738 -0.029884 -165538.000000 0 0 1
35.703165 32.964836 -28.483654 56.326859 0.745541 2.100972 0.101475 -0.039120 -305741.000000 0 0 1
34.586085 33.604513 -29.045394 56.294721 0.771005 2.112915 0.107200 -0.038575 -147194.000000 0 0 1
33.400315 32.886320 -28.658504 54.939976 0.777644 2.119560 0.108861 -0.042690 402350.000000 0 0 1
32.104695 33.493153 -29.196324 54.817225 0.806561 2.132480 0.086491 -0.035314 -266445.000000 0 0 1
32.001605 33.258833 -30.580214 55.366075 0.804661 2.155950 0.077179 -0.026261 -307931.000000 0 0 1
30.722765 33.526853 -31.089684 55.086357 0.829014 2.170479 0.075857 -0.014988 -254052.000000 0 0 1
30.391465 32.817102 -32.466224 55.268971 0.823754 2.198666 0.068966 -0.022534 30377.300000 0 0 1
30.226765 31.419311 -32.275924 54.245422 0.804741 2.208060 0.068767 -0.020665 53524.900000 0 0 1
30.006765 30.851533 -33.586334 54.591803 0.799278 2.233470 0.064438 -0.018863 -2400.940000 0 0 1
30.085165 29.337523 -33.595184 53.800036 0.772817 2.245218 0.061947 -0.033327 -489113.000000 0 0 1
31.386365 28.898543 -33.404674 54.185810 0.744154 2.235065 0.076775 -0.030240 -920459.000000 0 0 1
31.245465 27.657743 -32.684594 53.004836 0.724565 2.235256 0.065384 -0.030340 -7811.860000 0 0 1
32.480845 26.746203 -32.575224 53.211934 0.688874 2.229610 0.105400 -0.032914 248903.000000 0 0 1
33.419405 27.188683 -31.591064 53.423558 0.682955 2.203506 0.138858 -0.039043 -663201.000000 0 0 1
34.560225 26.423843 -31.583134 53.759865 0.652763 2.198744 0.153758 -0.036254 -857362.000000 0 0 1
35.472665 26.633813 -30.391064 53.770687 0.644030 2.171469 0.148134 -0.040235 -175588.000000 0 0 1
36.235255 27.876493 -30.309034 54.851893 0.655751 2.156231 0.128455 -0.033089 366151.000000 0 0 1
35.551235 29.121523 -30.268624 55.028566 0.686305 2.153224 0.122724 -0.025362 -281581.000000 0 0 1
34.531785 29.303273 -29.131454 53.849491 0.703674 2.142397 0.121020 -0.027501 -204020.000000 0 0 1
35.111425 29.511733 -27.868814 53.669595 0.698963 2.116789 0.133231 -0.031518 -510406.000000 0 0 1
34.196645 29.767213 -26.838184 52.685726 0.716260 2.105285 0.129749 -0.031393 -499163.000000 0 0 1
34.745825 30.169353 -25.482914 52.600772 0.715015 2.076541 0.135780 -0.031434 -427839.000000 0 0 1
35.253835 31.428122 -25.483144 53.665170 0.728088 2.065595 0.112862 -0.032167 -185497.000000 0 0 1
35.603765 31.894661 -24.167194 53.562588 0.730502 2.038901 0.099553 -0.042686 -204784.000000 0 0 1
35.854865 33.419023 -24.206394 54.665821 0.750250 2.029523 0.099205 -0.041308 12465.500000 0 0 1
34.703255 -33.206617 -24.463394 53.902254 -0.763363 2.041875 0.111261 -0.036039 90362.700000 0 0 1
34.887645 -31.835607 -24.166594 53.053538 -0.739688 2.043745 0.106343 -0.041247 -1032820.000000 0 0 1
35.439155 -31.024177 -25.323924 53.476485 -0.719068 2.064116 0.097823 -0.042536 -329053.000000 0 0 1
36.728025 -31.419077 -25.755094 54.767062 -0.707651 2.060389 0.099190 -0.045681 -388571.000000 0 0 1
37.678215 -30.664087 -25.009994 54.639125 -0.683124 2.046237 0.096986 -0.047914 -832333.000000 0 0 1
-37.303543 -31.127967 -25.425394 54.835712 0.695397 2.052923 0.066682 -0.040568 -220896.000000 0 0 1
-36.949693 -32.493917 -25.098894 55.236663 0.721322 2.042482 0.056041 -0.034887 -131023.000000 0 0 1
-36.729663 -32.702157 -23.710194 54.595535 0.727456 2.020044 0.059600 -0.031944 495167.000000 0 0 1
-35.373081 -32.148637 -23.101694 53.089339 0.737680 2.020998 0.063215 -0.024848 709840.000000 0 0 1
-35.261144 -30.775837 -23.110094 52.197479 0.717581 2.029452 0.043142 -0.024885 -311370.000000 0 0 1
-34.682672 -30.200687 -21.968994 50.966714 0.716430 2.016448 0.072598 -0.030890 -548869.000000 0 0 1
-34.381706 -28.719897 -22.204094 49.999560 0.695913 2.030950 0.073191 -0.012011 531140.000000 0 0 1
-35.500759 -27.811887 -22.360194 50.336698 0.664547 2.031091 0.057248 -0.002962 481329.000000 0 0 1
-35.947103 -27.743687 -23.756094 51.247033 0.657303 2.052806 0.060045 -0.007728 198097.000000 0 0 1
-37.210963 -26.851687 -23.905894 51.741285 0.625081 2.051076 0.078818 -0.009179 241858.000000 0 0 1
-37.072323 -25.534507 -23.400294 50.734031 0.603153 2.050183 0.068435 0.000703 373658.000000 0 0 1
-37.926583 -24.573197 -24.090794 51.211659 0.574908 2.060559 0.083832 -0.005213 632695.000000 0 0 1
-37.305863 -24.157997 -25.445624 51.213436 0.574662 2.090767 0.087152 -0.009311 163058.000000 0 0 1
-36.342553 -23.128397 -25.305294 49.960602 0.566755 2.101923 0.070718 -0.007952 -84610.100000 0 0 1
-36.238953 -22.601397 -26.592094 50.311274 0.557647 2.127690 0.067496 -0.018958 -179011.000000 0 0 1
-35.105168 -21.568597 -26.727794 49.111629 0.550940 2.146262 0.070676 -0.023083 -396974.000000 0 0 1
-35.140169 -20.350897 -25.989494 48.212491 0.524936 2.140119 0.083824 -0.020513 -624020.000000 0 0 1
-36.056683 -19.391497 -26.410794 48.720063 0.493433 2.143722 0.096382 -0.023133 -49603.500000 0 0 1
-37.286563 -19.349897 -25.441424 49.111835 0.478693 2.115343 0.103871 -0.036449 92731.400000 0 0 1
-37.134113 -18.732097 -24.173494 48.106045 0.467197 2.097289 0.096420 -0.048568 -252580.000000 0 0 1
-36.315253 -19.409997 -23.246194 47.285633 0.490854 2.084736 0.068705 -0.030941 -70690.300000 0 0 1
-36.909803 -20.781697 -22.774594 48.092563 0.512800 2.064122 0.078413 -0.014198 662646.000000 0 0 1
-38.077973 -20.498197 -21.999294 48.518832 0.493833 2.041392 0.078402 -0.019764 345947.000000 0 0 1
37.761275 -21.683997 -21.441894 48.537248 -0.521262 2.028358 0.079717 -0.005262 -214972.000000 0 0 1
36.652015 -21.498397 -20.434494 47.149972 -0.530474 2.019051 0.066188 -0.015347 -1141350.000000 0 0 1
35.404225 -21.137197 -20.903594 46.229866 -0.538229 2.039989 0.099411 -0.019321 -894576.000000 0 0 1
34.446765 -21.380697 -19.885594 45.156956 -0.555493 2.026803 0.104460 -0.030024 303762.000000 0 0 1
33.088425 -20.761197 -20.346694 44.043832 -0.560356 2.051005 0.115605 -0.033298 336416.000000 0 0 1
32.379035 -21.633297 -21.287294 44.379617 -0.589013 2.071068 0.113426 -0.029249 413173.000000 0 0 1
31.114665 -21.128097 -21.662894 43.402763 -0.596520 2.093371 0.152994 -0.038253 -11561.500000 0 0 1
31.054865 -19.975497 -22.792194 43.392502 -0.571603 2.123813 0.128897 -0.037895 -522842.000000 0 0 1
31.455165 -18.676897 -22.361494 42.875288 -0.535820 2.119460 0.127024 -0.030891 153405.000000 0 0 1
31.311365 -17.675297 -23.315994 42.853860 -0.513908 2.146090 0.124144 -0.033611 -243332.000000 0 0 1
31.830215 -16.395297 -22.689294 42.388353 -0.475643 2.135626 0.107354 -0.032473 -77595.300000 0 0 1
30.972765 -15.816397 -21.672694 40.977754 -0.472135 2.128088 0.083391 -0.042642 486685.000000 0 0 1
31.614735 -15.107697 -20.620994 40.656604 -0.445786 2.102728 0.066974 -0.033733 645225.000000 0 0 1
32.638185 -15.908897 -19.656094 41.288088 -0.453543 2.066979 0.081956 -0.040753 432037.000000 0 0 1
33.838195 -16.208897 -20.286294 42.653084 -0.446717 2.066455 0.083282 -0.041829 -653057.000000 0 0 1
34.563395 -17.126897 -19.468294 43.208487 -0.460058 2.038196 0.054922 -0.032841 -36215.100000 0 0 1
35.790485 -17.713997 -20.189794 44.747875 -0.459588 2.038895 0.070626 -0.047411 -84619.600000 0 0 1
36.786115 -16.737697 -20.393794 45.268926 -0.427004 2.038125 0.081318 -0.054106 -797766.000000 0 0 1
37.881495 -17.308597 -21.025194 46.654625 -0.428589 2.038297 0.103871 -0.061891 -672349.000000 0 0 1
-37.722223 -16.196897 -21.763294 46.464465 0.405569 2.058259 0.132651 -0.061648 -372333.000000 0 0 1
-36.664413 -15.636897 -21.009694 45.057729 0.403130 2.055882 0.158494 -0.071709 -26089.300000 0 0 1
-36.009393 -14.660797 -21.743394 44.546498 0.386645 2.080714 0.171004 -0.063449 -579954.000000 0 0 1
-34.798529 -13.999197 -21.004394 42.989530 0.382481 2.081273 0.163258 -0.048821 1382490.000000 0 0 1
-33.506833 -14.616397 -21.166594 42.241823 0.411337 2.095644 0.177598 -0.063099 826963.000000 0 0 1
-33.406233 -15.793797 -20.421794 42.219309 0.441635 2.075682 0.167007 -0.063491 -206775.000000 0 0 1
-32.074473 -16.597897 -20.569894 41.561792 0.477534 2.088543 0.125874 -0.065055 387293.000000 0 0 1
-32.115473 -17.746697 -19.759294 41.674675 0.504830 2.064774 0.141617 -0.073798 731775.000000 0 0 1
-31.002373 -18.641097 -19.983794 41.327831 0.541360 2.075494 0.132603 -0.070707 578806.000000 0 0 1
-31.308763 -20.048297 -19.465194 41.965064 0.569555 2.053124 0.111477 -0.029049 -7008.170000 0 0 1
-32.077763 -20.919097 -20.320794 43.353502 0.577876 2.058641 0.101016 -0.026397 288263.000000 0 0 1
-32.234223 -22.173297 -19.716694 43.811508 0.602546 2.037600 0.083479 0.005122 351823.000000 0 0 1
-33.237283 -23.208297 -20.350494 45.359504 0.609558 2.036049 0.058440 0.004769 522305.000000 0 0 1
-32.732473 -23.629597 -21.619394 45.794878 0.625274 2.062459 0.053432 -0.002909 555312.000000 0 0 1
-33.725853 -24.397197 -22.285394 47.215412 0.626257 2.062348 0.055896 0.003453 237262.000000 0 0 1
-33.427533 -24.709597 -23.795594 47.897750 0.636553 2.090704 0.055345 0.002806 908408.000000 0 0 1
-32.175633 -25.383767 -24.064994 47.526108 0.667944 2.101747 0.037007 -0.009302 746667.000000 0 0 1
-31.999183 -25.569157 -25.452084 48.223833 0.674165 2.126794 0.046094 -0.009791 790858.000000 0 0 1
-30.533333 -26.076057 -25.749474 47.699901 0.706823 2.141022 0.052749 -0.016833 644315.000000 0 0 1
-29.666333 -24.990297 -25.859354 46.618799 0.700053 2.158796 0.068864 -0.020076 -1053890.000000 0 0 1
-28.351573 -25.438497 -25.910544 46.068266 0.731295 2.168128 0.067237 -0.016349 -675234.000000 0 0 1
-27.244973 -24.419697 -26.126364 44.957725 0.730768 2.190915 0.085727 -0.024174 -48108.000000 0 0 1
-27.267163 -23.854197 -27.394024 45.419747 0.718735 2.218216 0.094952 -0.030589 48277.500000 0 0 1
-26.239463 -22.876997 -27.483414 44.353178 0.717046 2.239092 0.128715 -0.025542 189969.000000 0 0 1
-26.109303 -22.195597 -28.863654 44.804584 0.704554 2.270789 0.105795 -0.019671 -58190.600000 0 0 1
-25.617263 -23.100497 -29.822764 45.599061 0.733784 2.283685 0.098336 -0.023234 105987.000000 0 0 1
-25.389193 -22.470997 -31.099124 46.007742 0.724500 2.313055 0.095768 -0.011983 21390.000000 0 0 1
-25.031423 -23.489197 -32.194234 47.061483 0.753624 2.324150 0.083794 -0.017555 -327938.000000 0 0 1
-26.155493 -24.171097 -32.620264 48.295273 0.745988 2.312349 0.064453 -0.016711 -619299.000000 0 0 1
-25.754303 -25.214977 -33.460184 49.179905 0.774817 2.319054 0.082741 -0.013043 226260.000000 0 0 1
-19.636623 -13.647297 -12.063394 26.783785 0.607357 2.038009 0.121228 -0.004167 62242.400000 0 0 1
-20.343423 -13.663597 -10.812294 26.785340 0.591443 1.986315 0.119843 -0.012380 142202.000000 0 0 1
-19.725323 -14.544797 -9.951894 26.451459 0.635367 1.956523 0.107222 -0.019247 -153213.000000 0 0 1
-20.102123 -14.360397 -8.457794 26.112269 0.620307 1.900646 0.151242 -0.037558 -910075.000000 0 0 1
-21.407323 -14.650997 -8.132694 27.185766 0.600174 1.874601 0.179371 -0.048880 -708262.000000 0 0 1
-21.804723 -14.052697 -6.894694 26.841405 0.572485 1.830576 0.161231 -0.042250 341528.000000 0 0 1
-23.185223 -14.537597 -6.366794 28.096838 0.560051 1.799384 0.164131 -0.044116 -174826.000000 0 0 1
-23.158623 -15.754797 -5.597294 28.563353 0.597381 1.768033 0.142007 -0.039691 306154.000000 0 0 1
-22.927323 -15.656097 -4.194194 28.077869 0.599128 1.720735 0.157028 -0.043106 -124900.000000 0 0 1
-22.749023 -17.082097 -3.572994 28.671978 0.644073 1.695737 0.130826 -0.036536 1641200.000000 0 0 1
-24.051223 -17.693497 -3.288894 30.038941 0.634259 1.680504 0.119967 -0.025966 1707650.000000 0 0 1
-23.788623 -18.737797 -2.383394 30.375717 0.667183 1.649341 0.123571 -0.030896 125511.000000 0 0 1
-24.796423 -19.911097 -2.335194 31.886792 0.676557 1.644096 0.131985 -0.042379 -21905.700000 0 0 1
-24.737423 -20.690497 -3.482194 32.437053 0.696548 1.678356 0.126529 -0.042691 149324.000000 0 0 1
-25.761883 -21.663697 -3.432494 33.834485 0.699199 1.672421 0.131831 -0.035190 105561.000000 0 0 1
-25.509743 -22.792797 -4.524494 34.506950 0.729209 1.702293 0.128352 -0.042355 546759.000000 0 0 1
-24.339123 -23.533297 -4.111394 34.104435 0.768567 1.691643 0.154981 -0.044400 489513.000000 0 0 1
-23.729323 -24.324797 -5.111894 34.364341 0.797789 1.720106 0.154644 -0.050555 169245.000000 0 0 1
-22.273623 -23.921797 -5.437194 33.135022 0.821061 1.735634 0.139683 -0.039951 -213118.000000 0 0 1
-22.176923 -22.793897 -6.246494 32.409818 0.799117 1.764745 0.110860 -0.027143 75905.000000 0 0 1
-22.183123 -21.602397 -5.468494 31.442947 0.772136 1.745603 0.112360 -0.027811 -523740.000000 0 0 1
-22.142123 -20.341397 -6.385494 30.737933 0.743037 1.780060 0.114167 -0.019712 177452.000000 0 0 1
-20.861523 -20.165797 -6.953094 29.836354 0.768442 1.806000 0.102690 -0.012299 96603.900000 0 0 1
-20.850523 -18.904697 -7.644994 29.164667 0.736492 1.836027 0.090250 -0.009406 113554.000000 0 0 1
-19.526423 -18.549297 -8.345094 28.195712 0.759741 1.871268 0.111715 -0.012295 -706461.000000 0 0 1
-19.378723 -19.295497 -9.560094 28.969751 0.783246 1.907103 0.119969 -0.010524 528209.000000 0 0 1
-18.047123 -19.293397 -10.087894 28.278957 0.818762 1.935559 0.113675 -0.009720 752441.000000 0 0 1
-17.506723 -17.905397 -10.605494 27.194946 0.796656 1.971407 0.106509 -0.009427 -587189.000000 0 0 1
-17.312223 -16.922597 -9.600294 26.043291 0.774018 1.948329 0.139915 -0.023407 316570.000000 0 0 1
-15.993223 -16.876897 -9.052694 24.951234 0.812275 1.942084 0.150014 -0.025113 352194.000000 0 1 0
-15.929723 -15.700097 -8.116894 23.793551 0.778138 1.918924 0.137009 -0.027274 -98859.400000 0 1 0
-16.706423 -15.987097 -6.982194 24.154562 0.763400 1.864044 0.131831 -0.029685 271813.000000 0 1 0
-16.794623 -14.855997 -6.112094 23.240432 0.724224 1.836920 0.139607 -0.036593 69633.700000 0 1 0
-17.587323 -15.172897 -4.813794 23.721369 0.711831 1.775146 0.154438 -0.030355 239272.000000 0 1 0
-18.225823 -14.034897 -4.249094 23.392600 0.656214 1.753453 0.130903 -0.026427 244808.000000 0 1 0
-19.012923 -14.325897 -3.130094 24.010832 0.645726 1.701530 0.132165 -0.017286 -144994.000000 0 1 0
-19.866823 -13.120697 -2.630194 23.953314 0.583674 1.680823 0.148541 -0.014524 -637550.000000 0 1 0
-20.987623 -12.952697 -3.451394 24.903108 0.552941 1.709837 0.179208 -0.037161 -614010.000000 0 1 0
-21.722923 -11.926897 -2.882094 24.948802 0.502111 1.686575 0.185794 -0.020377 -961720.000000 0 1 0
-23.146923 -11.856497 -3.413694 26.229942 0.473382 1.701311 0.162822 -0.005446 -645681.000000 0 0 1
-23.188923 -11.373597 -4.743394 26.259943 0.455999 1.752426 0.171749 -0.038069 156278.000000 0 0 1
-24.481123 -10.910097 -5.071894 27.277824 0.419233 1.757819 0.163189 -0.022622 -73492.300000 0 0 1
-24.649623 -10.606697 -6.557994 27.624504 0.406350 1.810482 0.160261 -0.040758 -159093.000000 0 0 1
-24.966423 -11.779297 -7.205494 28.530567 0.440839 1.826115 0.164880 -0.043862 -9466.880000 0 0 1
-25.368633 -11.769797 -8.578794 29.252202 0.434395 1.868442 0.172602 -0.044900 -495620.000000 0 0 1
-24.286623 -11.971097 -9.636394 28.740343 0.457959 1.912711 0.166898 -0.056084 -774031.000000 0 0 1
-23.422723 -10.885697 -9.535194 27.532567 0.435052 1.924446 0.171154 -0.044879 -49050.100000 0 0 1
-22.177023 -11.175997 -10.157994 26.831103 0.466799 1.959069 0.141915 -0.042479 180897.000000 0 0 1
-21.029923 -10.231297 -9.726194 25.328560 0.452799 1.964922 0.153121 -0.049799 -68626.700000 0 0 1
-21.126323 -8.898697 -10.282494 25.124450 0.398659 1.992442 0.146509 -0.054871 1092180.000000 0 0 1
-19.965023 -8.175297 -9.825994 23.706281 0.388653 1.998178 0.146198 -0.038743 535608.000000 0 1 0
-19.902323 -6.764297 -10.438294 23.469473 0.327626 2.031703 0.125500 -0.051620 -106679.000000 0 1 0
-19.442423 -6.866297 -11.776694 23.745407 0.339488 2.089733 0.129527 -0.042784 419795.000000 0 1 0
-19.710123 -5.699397 -12.548094 24.050504 0.281483 2.119685 0.152730 -0.049532 -391754.000000 0 1 0
-19.123623 -5.640197 -14.001894 24.363452 0.286802 2.183045 0.189518 -0.044935 -49775.200000 0 1 0
-19.771123 -6.445197 -15.015694 25.649735 0.315127 2.196186 0.180645 -0.051591 381654.000000 0 0 1
-19.425023 -6.083397 -16.369294 26.120739 0.303498 2.248079 0.196209 -0.062695 -91190.600000 0 0 1
-19.996523 -7.055497 -17.452694 27.463385 0.339199 2.259439 0.175390 -0.047289 752474.000000 0 0 1
-21.408423 -7.048797 -17.697194 28.656531 0.318074 2.236436 0.158482 -0.052216 774932.000000 0 0 1
-21.700023 -7.924397 -18.732094 29.741863 0.350133 2.252121 0.161519 -0.049156 350885.000000 0 0 1
-23.232323 -7.840897 -19.040294 31.044376 0.325495 2.231060 0.143461 -0.045578 60491.900000 0 0 1
-23.566223 -6.566097 -19.491194 31.279181 0.271732 2.243543 0.143980 -0.048400 71726.200000 0 0 1
-24.743723 -6.549197 -20.271994 32.651149 0.258748 2.240643 0.126100 -0.045396 -187564.000000 0 0 1
-26.049233 -6.220697 -19.541694 33.153241 0.234415 2.201156 0.139743 -0.034368 -316468.000000 0 0 1
-26.128973 -4.835497 -19.298294 32.840971 0.182992 2.198921 0.152525 -0.026907 -202061.000000 0 0 1
-27.204233 -4.513497 -18.456594 33.182643 0.164414 2.160617 0.167256 -0.019991 -626735.000000 0 0 1
-27.288203 -3.023397 -18.019794 32.840523 0.110345 2.151612 0.152073 -0.021847 -347.867000 0 0 1
-27.750263 -2.125897 -18.999694 33.698441 0.076459 2.169794 0.153287 -0.015993 505740.000000 0 0 1
-29.032373 -2.299997 -19.588694 35.098228 0.079057 2.162903 0.163100 -0.009733 312737.000000 0 0 1
-29.696733 -1.156297 -20.480894 36.092935 0.038917 2.174201 0.156495 -0.017589 331274.000000 0 0 1
-28.922603 -0.814397 -21.601394 36.108177 0.028150 2.212101 0.148539 -0.009768 -215999.000000 0 0 1
-29.490843 -1.339397 -22.747894 37.268894 0.045386 2.227327 0.163932 -0.003235 -487770.000000 0 0 1
-28.713983 -1.167397 -24.070294 37.486460 0.040634 2.268039 0.156064 -0.009240 -469988.000000 0 0 1
-28.671673 0.135403 -24.609794 37.785250 -0.004723 2.280102 0.170907 -0.005843 436210.000000 0 0 1
-27.936413 1.113803 -23.868994 36.761564 -0.039848 2.277450 0.138455 -0.008445 1310210.000000 0 0 1
-26.358443 1.030703 -23.690094 35.454907 -0.039083 2.302550 0.127255 -0.008817 1404120.000000 0 0 1
-25.578033 1.055203 -24.885194 35.701850 -0.041231 2.342041 0.118746 -0.017426 1361560.000000 0 0 1
-24.166223 0.869803 -24.583194 34.483276 -0.035977 2.364424 0.112539 -0.020052 1424760.000000 0 0 1
-23.431623 0.159503 -25.747374 34.813699 -0.006807 2.403236 0.110826 -0.024354 -81577.200000 0 0 1
-23.198823 0.934603 -26.894874 35.530172 -0.040265 2.429443 0.071771 -0.009365 114183.000000 0 0 1
-22.337323 0.272103 -27.792794 35.657670 -0.012181 2.464558 0.076236 -0.010625 52098.800000 0 0 1
-21.947223 1.046003 -29.074534 36.443151 -0.047624 2.494442 0.066322 -0.000004 -586851.000000 0 0 1
-21.183723 2.207803 -28.881804 35.885695 -0.103847 2.506182 0.087809 -0.008643 99728.700000 0 0 1
-20.971423 2.940103 -30.090684 36.795299 -0.139288 2.528350 0.070781 -0.010912 133015.000000 0 0 1
-20.153223 2.277703 -31.239484 37.245747 -0.112542 2.565761 0.056647 -0.014395 46776.000000 0 0 1
-18.762323 2.141603 -31.045674 36.337929 -0.113652 2.595114 0.048647 -0.007545 49222.700000 0 0 1
-18.051923 1.838703 -32.212464 36.971551 -0.101506 2.628595 0.042271 -0.010784 1001830.000000 0 0 1
-16.485323 1.774203 -32.096624 36.126264 -0.107211 2.664768 0.060865 -0.021432 1001090.000000 0 0 1
-15.858623 2.979003 -31.650634 35.526512 -0.185684 2.670123 0.069280 -0.009504 438989.000000 0 0 1
-14.482723 2.975503 -32.036584 35.283787 -0.202632 2.709208 0.054727 -0.006474 481822.000000 0 0 1
-14.002323 4.423103 -32.337794 35.515656 -0.305964 2.715342 0.052645 -0.002905 -289469.000000 0 0 1
-13.810023 5.220603 -31.137154 34.460032 -0.361424 2.698834 0.064982 -0.019493 110091.000000 0 0 1
-13.514523 6.515703 -31.511124 34.900540 -0.449246 2.697227 0.090805 0.000197 -330149.000000 0 0 1
-13.211723 7.491103 -30.308194 33.900633 -0.515805 2.677058 0.095419 -0.016064 979901.000000 0 0 1
-11.919123 7.285203 -29.685484 32.808043 -0.548629 2.701761 0.127187 -0.029385 911911.000000 0 0 1
-11.902723 6.175103 -28.746624 31.720264 -0.478572 2.705134 0.133492 -0.028903 -817217.000000 0 0 1
-10.575823 5.457903 -28.567124 30.947008 -0.476424 2.746857 0.171772 -0.045007 -589008.000000 0 0 1
-10.090823 4.815503 -29.734314 31.767015 -0.445255 2.781920 0.150004 -0.046946 82778.400000 0 0 1
-10.695623 3.545703 -29.893044 31.946243 -0.320108 2.781118 0.136635 -0.043949 -143026.000000 0 0 1
-10.340423 2.870403 -31.252644 33.043779 -0.270773 2.810831 0.116434 -0.032895 174114.000000 0 0 1
-10.925323 1.554303 -31.487484 33.365255 -0.141318 2.804502 0.109536 -0.027066 443017.000000 0 0 1
-10.551923 0.943003 -32.738884 34.410273 -0.089131 2.828637 0.084090 -0.014356 -221208.000000 0 0 1
-11.192823 1.567403 33.346352 35.209590 -0.139132 0.326778 0.091963 -0.012515 998659.000000 0 0 1
-12.569923 1.209803 33.105861 35.432536 -0.095950 0.364408 0.054046 -0.005605 770395.000000 0 0 1
-12.901723 1.658103 31.805076 34.362285 -0.127817 0.388229 0.050107 -0.003222 -659959.000000 0 0 1
-14.249523 1.233003 31.253382 34.370672 -0.086314 0.429188 0.065185 -0.007053 -782456.000000 0 0 1
-15.265823 2.132403 31.507892 35.076199 -0.138787 0.454980 0.078642 0.000621 -659708.000000 0 0 1
-16.538623 1.685103 31.091652 35.257005 -0.101539 0.491009 0.083871 -0.005169 -5665.910000 0 0 1
-17.488723 2.894803 30.959802 35.675547 -0.164037 0.520007 0.095949 0.003501 -231414.000000 0 0 1
-17.734023 3.577103 32.193908 36.928836 -0.199038 0.511967 0.088590 -0.007349 905340.000000 0 0 1
-16.964623 4.837703 32.261114 36.769298 -0.277791 0.500396 0.077352 -0.001755 261026.000000 0 0 1
-17.235623 5.601103 33.539832 38.122951 -0.314207 0.495396 0.054953 -0.002175 676025.000000 0 0 1
-18.538823 6.224303 33.541802 38.826310 -0.323919 0.527847 0.068200 -0.005322 949657.000000 0 0 1
-19.416623 5.545803 -32.903314 38.605560 -0.278214 2.591153 0.057295 -0.004866 653481.000000 0 0 1
-20.932323 5.935203 -32.918914 39.459393 -0.276291 2.557564 0.048839 -0.006037 751243.000000 0 0 1
-21.266923 7.234303 -32.415824 39.438596 -0.327888 2.535590 0.056606 -0.016833 152031.000000 0 0 1
-21.153423 8.210303 -33.425454 40.399720 -0.370233 2.545202 0.038890 -0.011842 -352975.000000 0 0 1
-21.371723 9.663103 -32.941354 40.438335 -0.424636 2.522848 0.047590 -0.005423 -672939.000000 0 0 1
-20.403123 10.073903 -31.991734 39.258655 -0.458630 2.523347 0.045649 -0.008133 101959.000000 0 0 1
-20.300523 11.517003 -31.849484 39.485975 -0.516048 2.509178 0.064088 -0.013819 5735.480000 0 0 1
-19.600723 12.316103 -32.990554 40.302003 -0.561004 2.529737 0.045971 -0.027644 -623003.000000 0 0 1
-20.326223 12.404903 33.149827 40.816026 -0.547952 0.622923 0.070476 -0.032467 -245456.000000 0 0 1
-19.559423 12.626603 32.008078 39.579277 -0.573241 0.628844 0.072435 -0.027115 -474472.000000 0 0 1
-20.173223 11.982903 30.751532 38.680817 -0.535996 0.651777 0.093952 -0.030289 -330568.000000 0 0 1
-20.322823 10.598903 30.847362 38.430634 -0.480721 0.639027 0.081020 -0.020415 1265870.000000 0 0 1
-19.057723 9.865703 30.779422 37.522016 -0.477687 0.608856 0.100736 -0.021342 1216300.000000 0 0 1
-19.104823 8.317003 30.707852 37.109823 -0.410592 0.596181 0.119398 -0.018999 -118581.000000 0 0 1
-19.730123 7.831803 29.542552 36.378252 -0.377871 0.623065 0.112160 -0.010121 90075.800000 0 0 1
-19.874623 6.380603 29.620702 36.236704 -0.310649 0.613874 0.111687 -0.009222 142510.000000 0 0 1
-20.740423 5.833703 28.457022 35.693127 -0.274188 0.648039 0.105713 -0.012844 40635.100000 0 0 1
-22.127223 6.065303 28.426302 36.530214 -0.267539 0.679068 0.124834 -0.014333 -121015.000000 0 0 1
-22.718123 5.158803 27.515462 36.053113 -0.223292 0.702557 0.115250 -0.014321 -1304950.000000 0 0 1
-24.183423 5.265803 27.259552 36.819150 -0.214398 0.737185 0.100617 -0.005856 -1431090.000000 0 0 1
-24.484423 5.974603 26.095912 36.279188 -0.239339 0.767991 0.092169 -0.013458 -885620.000000 0 0 1
-25.821913 5.960403 25.785072 36.975228 -0.226854 0.799088 0.095766 -0.013699 -1288370.000000 0 0 1
-26.147673 6.737903 24.488152 36.452294 -0.252200 0.834179 0.095356 -0.011927 -164885.000000 0 0 1
-25.980273 6.155703 23.225662 35.387831 -0.232647 0.854868 0.103519 -0.008910 605867.000000 0 0 1
-26.828063 5.007503 23.014232 35.699789 -0.184528 0.870218 0.111912 -0.017439 195119.000000 0 0 1
-27.112773 4.580603 21.608882 34.971819 -0.167366 0.904735 0.133229 -0.012965 -423470.000000 0 0 1
-27.969473 5.418303 20.913682 35.341640 -0.191352 0.937559 0.132353 -0.011101 -294291.000000 0 0 1
-28.180513 4.842303 19.654182 34.696917 -0.170170 0.968601 0.155598 -0.026153 -295261.000000 0 0 1
-29.118043 5.670503 18.796982 35.118963 -0.192335 1.006008 0.154658 -0.029739 30851.800000 0 0 1
-30.477783 5.666703 19.218982 36.474320 -0.183830 1.015826 0.144229 -0.019322 223219.000000 0 0 1
-31.271723 5.720103 18.036982 36.550963 -0.180916 1.054716 0.145468 -0.023702 -326206.000000 0 0 1
-32.761773 5.620403 18.407682 37.996913 -0.169900 1.065060 0.130433 -0.019740 -408102.000000 0 0 1
-33.221203 6.672803 19.179282 38.936095 -0.198222 1.055740 0.125118 -0.021305 466393.000000 0 0 1
-34.498266 6.311403 19.723982 40.236794 -0.180947 1.058480 0.125700 -0.014938 420326.000000 0 0 1
-35.197733 7.445503 20.504582 41.409586 -0.208461 1.052771 0.110779 -0.015404 115775.000000 0 0 1
-34.603125 7.600303 21.793882 41.594641 -0.216209 1.019304 0.098704 -0.013289 456753.000000 0 0 1
-35.244087 8.708403 22.430982 42.674710 -0.242236 1.017344 0.098615 -0.011398 366910.000000 0 0 1
-0.622523 32.530003 11.554006 34.526565 -1.551662 1.229572 0.207628 -0.043993 154752.000000 0 0 1
-0.789023 32.549803 12.917606 35.028228 -1.546561 1.193103 0.190181 -0.038300 -167181.000000 0 0 1
-0.379623 -33.652756 13.453106 36.244147 1.559516 1.190517 0.181216 -0.056309 -69851.600000 0 0 1
-0.417723 -33.560056 15.003806 36.763651 1.558350 1.150408 0.185361 -0.051351 53971.500000 0 0 1
-1.713823 -33.371956 15.520206 36.844286 1.519486 1.135987 0.157389 -0.041340 -213287.000000 0 0 1
-1.678123 -33.342656 16.912806 37.424482 1.520509 1.101882 0.152737 -0.047876 -193369.000000 0 0 1
-2.975823 -33.104256 17.695106 37.654536 1.481145 1.081582 0.152968 -0.043521 79180.500000 0 0 1
-3.886123 33.202103 17.851006 37.896438 -1.454282 1.080319 0.159885 -0.038688 173276.000000 0 0 1
-4.825823 33.603903 18.798206 38.805714 -1.428163 1.065098 0.139387 -0.029993 -313697.000000 0 0 1
-5.968323 32.657203 19.188206 38.344505 -1.390034 1.046717 0.126777 -0.034330 -10684.700000 0 0 1
-6.979823 32.448103 18.240006 37.872089 -1.358918 1.068293 0.112334 -0.035094 -338003.000000 0 0 1
-8.052823 31.780703 18.836206 37.810894 -1.322632 1.049311 0.104435 -0.041698 -315166.000000 0 0 1
-9.272823 31.589703 17.923106 37.485095 -1.285277 1.072261 0.090329 -0.044758 -369669.000000 0 0 1
-9.874123 32.757203 17.440406 38.401828 -1.278025 1.099372 0.086312 -0.036060 -184588.000000 0 0 1
-10.851423 32.369403 16.487506 37.912656 -1.247333 1.120890 0.082293 -0.029315 71369.000000 0 0 1
-11.839823 33.484703 16.066306 38.981187 -1.230928 1.145978 0.084749 -0.039871 9484.130000 0 0 1
-12.871623 33.643803 17.029006 39.844337 -1.205392 1.129194 0.072273 -0.032453 -57610.100000 0 0 1
-13.862123 -32.908656 16.507906 39.340171 1.172123 1.137770 0.050018 -0.031785 182983.000000 0 0 1
-15.215323 -32.968056 17.263306 40.204732 1.138406 1.126985 0.080038 -0.031113 305332.000000 0 0 1
-15.068323 -32.614056 18.650506 40.479283 1.137992 1.091965 0.075843 -0.023828 257606.000000 0 0 1
-16.270023 -32.899656 19.364406 41.497967 1.111530 1.085314 0.071356 -0.031994 475919.000000 0 0 1
-16.215723 -32.480356 20.868606 41.873881 1.107751 1.049081 0.074151 -0.038428 -169739.000000 0 0 1
-16.358923 -31.126556 20.989506 40.951633 1.086909 1.032652 0.079892 -0.029611 33074.300000 0 0 1
-16.087223 -30.761056 22.318006 41.269053 1.088939 0.999417 0.075445 -0.025204 25524.900000 0 0 1
-16.463723 -29.339156 22.606006 40.532354 1.059432 0.979151 0.087721 -0.034818 -208006.000000 0 0 1
-16.394123 -29.005956 24.003606 41.064411 1.056359 0.946489 0.114694 -0.044141 -304700.000000 0 0 1
-16.359923 -27.564656 24.242806 40.189190 1.035162 0.923268 0.082286 -0.023826 636034.000000 0 0 1
-17.589223 -26.671756 23.771506 39.822705 0.987793 0.931123 0.108294 -0.019633 838994.000000 0 0 1
-18.738823 -26.789656 24.597206 40.912733 0.960420 0.925780 0.113446 -0.014770 507629.000000 0 0 1
-19.811923 -25.966856 24.127006 40.606678 0.919046 0.934571 0.109140 -0.010559 -139264.000000 0 0 1
-20.891623 -25.846556 25.249406 41.737715 0.891018 0.921088 0.113343 -0.008608 -265138.000000 0 0 1
-21.538723 -27.039156 25.627506 43.032564 0.898147 0.932862 0.109219 -0.012579 564142.000000 0 0 1
-22.417023 -27.595056 24.640906 43.257187 0.888566 0.964732 0.094846 -0.020283 -297516.000000 0 0 1
-23.818823 -27.006756 24.379706 43.486449 0.848039 0.975653 0.068228 -0.007861 -455014.000000 0 0 1
-23.873023 -25.801156 23.633106 42.357344 0.824194 0.978888 0.084639 -0.012615 8261.860000 0 0 1
-25.117453 -25.566056 23.018806 42.595482 0.794249 0.999878 0.091909 -0.019312 -291004.000000 0 0 1
-25.367523 -24.058356 22.701806 41.685581 0.758917 0.994889 0.090034 -0.009442 -40648.700000 0 0 1
-25.888713 -23.400356 23.854206 42.270856 0.734956 0.971189 0.079177 -0.012605 185556.000000 0 0 1
-26.179433 -22.045456 23.577006 41.560077 0.699884 0.967574 0.085680 -0.009101 -60903.400000 0 0 1
-26.801183 -21.248556 24.709406 42.194304 0.670349 0.945164 0.084247 -0.006653 -180005.000000 0 0 1
-28.089173 -21.642056 25.107006 43.448152 0.656478 0.954691 0.063191 -0.000915 137756.000000 0 0 1
-28.639203 -20.816656 26.114506 43.994369 0.628526 0.935287 0.059090 -0.007009 -234346.000000 0 0 1
-29.756353 -21.497256 26.955806 45.543254 0.625630 0.937416 0.043404 -0.013572 989863.000000 0 0 1
-31.099523 -21.456156 26.448306 46.120059 0.603928 0.960065 0.038703 -0.013403 896412.000000 0 0 1
-31.450603 -22.245756 25.357206 46.119431 0.615624 0.988652 0.037208 -0.011236 -869702.000000 0 0 1
-32.940353 -22.588756 25.397006 47.332089 0.601096 1.004429 0.054274 -0.019565 124185.000000 0 0 1
-33.667473 -23.255556 24.322206 47.601358 0.604486 1.034500 0.048016 -0.020172 595323.000000 0 0 1
-33.185443 -24.559356 24.067706 47.787970 0.637112 1.042995 0.043790 -0.014756 -275576.000000 0 0 1
-33.757593 -25.226856 22.763706 47.897345 0.641767 1.075536 0.070807 -0.011925 533088.000000 0 0 1
-35.143919 -25.537856 22.740106 49.034575 0.628399 1.088566 0.088115 -0.020525 259437.000000 0 0 1
-35.473496 -26.146056 21.514406 49.039319 0.635167 1.116625 0.088121 -0.012104 -977484.000000 0 0 1
-36.817903 -26.804856 21.476006 50.351535 0.629297 1.130153 0.085498 -0.012835 -1143560.000000 0 0 1
-37.001883 -27.955156 22.314206 51.464103 0.647016 1.122326 0.077154 -0.017531 -178447.000000 0 0 1
-36.217533 -29.093356 22.091806 51.441043 0.676747 1.126903 0.060502 -0.006189 -748150.000000 0 0 1
-36.539173 -30.043356 20.928906 51.727493 0.688146 1.154256 0.072399 -0.006047 -276457.000000 0 0 1
-36.372973 -29.441756 19.688106 50.768412 0.680471 1.172550 0.068643 -0.013984 552267.000000 0 0 1
-37.055783 -30.230156 18.720106 51.355971 0.684302 1.197683 0.074374 -0.020454 -416673.000000 0 0 1
-37.309833 -29.468356 17.446906 50.643876 0.668508 1.219088 0.098522 -0.024676 -397794.000000 0 0 1
-36.172013 -29.277156 16.632906 49.418822 0.680439 1.227524 0.118041 -0.032253 114600.000000 0 0 1
-36.406123 -28.767256 15.344206 48.871315 0.668722 1.251423 0.138285 -0.040179 -272209.000000 0 0 1
-37.191003 -29.595056 14.330906 49.642853 0.672149 1.277948 0.136611 -0.030076 197532.000000 0 0 1
-36.420273 -30.739056 13.863006 49.633746 0.701006 1.287725 0.115258 -0.031890 350371.000000 0 0 1
-36.799973 -31.379756 12.661606 49.992433 0.706066 1.314737 0.112919 -0.026663 -165297.000000 0 0 1
-36.957533 -30.554956 11.314806 49.269559 0.690846 1.339077 0.118333 -0.028800 -186919.000000 0 0 1
-38.136203 -29.809656 11.276506 49.700555 0.663459 1.341914 0.122307 -0.033061 -552081.000000 0 0 1
-38.098273 -28.907256 10.208506 48.901139 0.649081 1.360491 0.097734 -0.021454 45922.800000 0 0 1
37.046305 -28.046956 9.938006 47.516570 -0.648016 1.360093 0.126518 -0.015305 -23765.800000 0 0 1
37.229625 -26.963856 8.992906 46.839801 -0.626822 1.377604 0.144961 -0.061746 639783.000000 0 0 1
36.032935 -26.200956 8.771506 45.407068 -0.628709 1.376399 0.120872 -0.048580 608757.000000 0 0 1
36.314585 -25.024556 7.854406 44.795862 -0.603376 1.394548 0.095371 -0.031813 93267.200000 0 0 1
36.839155 -23.884456 8.469906 44.713867 -0.575210 1.380220 0.122931 -0.042298 14282.300000 0 0 1
36.921675 -22.853656 7.449606 44.056740 -0.554256 1.400889 0.104621 -0.034519 -99713.200000 0 0 1
37.121345 -21.390356 7.981806 43.580395 -0.522757 1.386605 0.111474 -0.029965 23642.200000 0 0 1
36.032505 -20.830756 8.691906 42.518362 -0.524168 1.364918 0.106400 -0.039403 -16512.600000 0 0 1
36.143175 -19.440456 8.757006 41.963623 -0.493485 1.360570 0.126810 -0.025714 547.779000 0 0 1
35.309195 -18.734356 9.845906 41.166215 -0.487811 1.329281 0.128415 -0.013804 139405.000000 0 0 1
35.961775 -18.761356 11.138706 42.063150 -0.480859 1.302790 0.104898 -0.025628 337379.000000 0 0 1
35.366565 -18.014256 12.135806 41.504038 -0.471106 1.274060 0.099123 -0.016762 -387961.000000 0 0 1
36.166915 -18.194356 13.440106 42.658139 -0.466098 1.250271 0.084189 -0.030528 -33188.100000 0 0 1
37.463445 -17.654556 13.387406 43.524886 -0.440382 1.258147 0.063743 -0.019891 -92411.800000 0 0 1
38.175175 -17.979056 14.546806 44.634068 -0.440149 1.238819 0.071617 -0.008776 -199667.000000 0 0 1
-36.944673 -17.156556 14.816406 43.344921 0.434752 1.221937 0.098208 -0.030389 -324489.000000 0 0 1
-35.899316 -17.504656 13.974206 42.313736 0.453682 1.234226 0.091072 -0.026224 289602.000000 0 0 1
-34.705793 -16.779656 14.329706 41.126504 0.450347 1.214901 0.084255 -0.023836 968109.000000 0 0 1
-33.551883 -16.851056 13.272406 39.822653 0.465437 1.231008 0.107612 -0.025638 113701.000000 0 0 1
-32.926393 -18.083756 13.274506 39.841964 0.502242 1.231123 0.118504 -0.035771 -535233.000000 0 0 1
-31.860663 -18.074356 12.396906 38.671274 0.516024 1.244464 0.114921 -0.042651 -408076.000000 0 0 1
-31.101323 -19.426556 12.000106 38.583493 0.558327 1.254534 0.091969 -0.041585 630545.000000 0 0 1
-31.812393 -20.285156 11.151906 39.343117 0.567644 1.283404 0.121424 -0.044628 235842.000000 0 0 1
-30.840203 -21.242156 10.708306 38.948878 0.603157 1.292277 0.106422 -0.046580 346568.000000 0 0 1
-31.451323 -22.332356 9.736706 39.783455 0.617446 1.323542 0.121476 -0.047132 463641.000000 0 0 1
-32.271333 -23.316156 10.357106 41.138202 0.625670 1.316294 0.119121 -0.039851 138292.000000 0 0 1
-33.594593 -22.880356 10.619406 42.010465 0.597910 1.315244 0.130578 -0.047402 -150381.000000 0 0 1
-34.599548 -24.067856 10.579206 43.454689 0.607775 1.324871 0.166778 -0.049846 -151769.000000 0 0 1
-34.733667 -24.657156 9.290006 43.597100 0.617334 1.356062 0.144102 -0.034525 -41517.700000 0 0 1
-35.449593 -25.877056 9.346006 44.873639 0.630557 1.360987 0.149617 -0.026799 132570.000000 0 0 1
-35.716084 -26.462356 7.961706 45.158429 0.637657 1.393564 0.134207 -0.024421 1482690.000000 0 0 1
-34.480808 -27.005456 7.406006 44.419249 0.664414 1.403284 0.118844 -0.019573 1524260.000000 0 0 1
-34.859521 -27.798856 6.281206 45.026838 0.673186 1.430841 0.103878 -0.020269 -281987.000000 0 0 1
-33.607413 -28.045556 5.468006 44.112476 0.695429 1.446521 0.094929 -0.013170 -365284.000000 0 0 1
-33.147373 -26.834956 4.878506 42.926251 0.680546 1.456902 0.095296 -0.004876 163065.000000 0 0 1
-31.819253 -27.043856 4.416806 41.992180 0.704448 1.465420 0.105158 -0.020043 407327.000000 0 0 1
-31.166293 -25.771756 3.843006 40.623760 0.690936 1.476055 0.085781 -0.015283 313750.000000 0 0 1
-31.696483 -25.407656 2.551906 40.702927 0.675711 1.508059 0.099060 -0.021510 231976.000000 0 0 1
-30.809153 -24.492856 1.930406 39.405969 0.671676 1.521789 0.118918 -0.047224 11013.600000 0 0 1
-31.288443 -23.987156 0.548106 39.429060 0.654070 1.556895 0.142315 -0.042040 -91324.900000 0 0 1
-31.159283 -24.966756 -0.507794 39.931162 0.675510 1.583513 0.132779 -0.051617 -279418.000000 0 0 1
-31.345703 -24.456256 -1.836994 39.799951 0.662557 1.616968 0.138504 -0.046347 604732.000000 0 0 1
-32.790053 -24.033456 -2.271794 40.718001 0.632499 1.626619 0.148441 -0.033508 422322.000000 0 0 1
-33.234703 -22.787156 -1.803994 40.336762 0.601026 1.615535 0.131573 -0.020005 -47283.100000 0 0 1
-34.499880 -22.571256 -2.415594 41.298165 0.579351 1.629321 0.145994 -0.023804 -61474.200000 0 0 1
-34.965420 -21.186556 -2.083594 40.936440 0.544768 1.621717 0.143334 -0.018957 -356848.000000 0 0 1
-35.299661 -21.113556 -0.691894 41.137902 0.539039 1.587616 0.144836 -0.030274 -146425.000000 0 0 1
-36.011193 -19.974156 -0.427194 41.181979 0.506418 1.581170 0.139835 -0.033773 -552871.000000 0 0 1
-36.202763 -19.627656 1.105906 41.195970 0.496803 1.543948 0.128553 -0.029364 271046.000000 0 0 1
-37.170353 -20.581156 1.604006 42.518137 0.505678 1.533062 0.114172 -0.037025 644526.000000 0 0 1
-37.455443 -20.242756 2.983406 42.679973 0.495481 1.500838 0.120320 -0.035222 -576962.000000 0 0 1
37.748665 -21.025156 3.546606 43.354323 -0.508184 1.488900 0.138920 -0.021271 1207240.000000 0 0 1
36.443775 -20.850056 2.948306 42.089977 -0.519664 1.500691 0.120913 -0.023019 1360500.000000 0 0 1
35.819215 -19.524456 3.209206 40.920894 -0.499061 1.492291 0.121904 -0.027750 223246.000000 0 0 1
34.444595 -19.350756 2.499306 39.586973 -0.511853 1.507620 0.121263 -0.004698 242681.000000 0 0 1
33.400165 -20.138056 2.983206 39.115366 -0.542573 1.494455 0.106896 -0.006880 -772250.000000 0 0 1
32.239785 -19.981556 2.214406 37.994341 -0.554836 1.512481 0.133393 -0.014043 388519.000000 0 0 1
31.102265 -20.948856 2.699206 37.596426 -0.592751 1.498940 0.115363 -0.002139 367395.000000 0 0 1
30.947065 -22.137656 1.927806 38.098729 -0.620947 1.520174 0.084776 -0.013378 -249014.000000 0 0 1
29.796865 -22.819556 2.324006 37.603010 -0.653560 1.508953 0.077418 -0.007366 -328681.000000 0 0 1
29.322665 -23.972656 1.421006 37.901533 -0.685349 1.533296 0.065390 -0.006233 -181812.000000 0 0 1
28.771965 -23.584456 0.203006 37.203411 -0.686640 1.565340 0.065967 -0.007499 627.937000 0 0 1
28.278365 -24.688656 -0.520194 37.542860 -0.717729 1.584653 0.054773 -0.013995 -698584.000000 0 0 1
27.402765 -24.140656 -1.634394 36.556177 -0.722194 1.615520 0.057926 -0.021386 -728199.000000 0 0 1
28.016865 -23.617056 -2.806594 36.750334 -0.700392 1.647240 0.055176 -0.027713 -214017.000000 0 0 1
28.533865 -24.558856 -3.678794 37.826610 -0.710668 1.668204 0.054559 -0.024599 -573324.000000 0 0 1
27.534565 -25.248856 -4.688694 37.651572 -0.742122 1.695649 0.053136 -0.026783 302022.000000 0 0 1
27.028565 -24.298156 -5.606394 36.774657 -0.732252 1.723846 0.053968 -0.035013 442928.000000 0 0 1
25.866965 -23.600356 -5.170994 35.395140 -0.739610 1.717414 0.065888 -0.032310 -360279.000000 0 0 1
25.356765 -22.480356 -6.108994 34.433295 -0.725341 1.749156 0.076918 -0.035509 -71500.500000 0 0 1
24.567165 -23.081856 -7.126894 34.454468 -0.754236 1.779150 0.069139 -0.032112 1064670.000000 0 0 1
23.454865 -22.299956 -7.639194 33.253211 -0.760162 1.802595 0.068486 -0.029587 755381.000000 0 0 1
23.774965 -21.026856 -8.400894 32.832190 -0.724136 1.829548 0.070612 -0.026714 -639681.000000 0 0 1
24.120365 -21.159656 -9.738394 33.531469 -0.720104 1.865468 0.069993 -0.027348 175094.000000 0 0 1
23.828165 -19.971356 -10.439594 32.796672 -0.697569 1.894745 0.069051 -0.027413 -131199.000000 0 0 1
24.493765 -19.966956 -11.874894 33.758510 -0.683932 1.930247 0.077692 -0.033209 691942.000000 0 0 1
25.868765 -19.573656 -11.766194 34.507454 -0.647745 1.918751 0.124773 -0.035611 31929.100000 0 0 1
26.431165 -19.673956 -12.984894 35.415795 -0.639873 1.946193 0.114080 -0.041665 -760924.000000 0 0 1
27.937465 -19.905856 -13.032394 36.695891 -0.619076 1.933866 0.126514 -0.039577 -422112.000000 0 0 1
28.232865 -21.257056 -13.137194 37.703356 -0.645367 1.926698 0.092511 -0.034070 -307366.000000 0 0 1
29.179665 -21.718656 -12.228094 38.375503 -0.639848 1.895094 0.131803 -0.041057 -511042.000000 0 0 1
29.687865 -23.122056 -12.560894 39.670832 -0.661704 1.892969 0.103845 -0.023192 -245095.000000 0 0 1
30.700265 -23.118456 -13.542494 40.747619 -0.645442 1.909591 0.100040 -0.035339 126820.000000 0 0 1
30.833965 -24.455556 -14.070094 41.794440 -0.670542 1.914153 0.070607 -0.019810 -67931.600000 0 0 1
-2.636723 -9.328097 -27.471614 29.131689 1.295318 2.802374 0.077691 -0.031190 8250.920000 0 0 1
-2.783823 -7.971897 -27.111424 28.395953 1.234830 2.839660 0.081354 -0.027102 391792.000000 0 0 1
-3.941223 -7.461797 -27.811494 29.063566 1.084854 2.846997 0.093700 -0.032283 732856.000000 0 0 1
-4.335223 -6.068897 -27.286264 28.287204 0.950514 2.874776 0.076698 -0.031255 -182315.000000 0 0 1
-4.903523 -6.045497 -26.005914 27.145905 0.889322 2.850759 0.068348 -0.036266 -12063.900000 0 0 1
-4.916123 -4.705597 -25.532364 26.423712 0.763521 2.881115 0.075938 -0.020029 154942.000000 0 0 1
-5.473323 -4.560397 -24.107594 25.138230 0.694662 2.854253 0.070908 -0.014028 138577.000000 0 0 1
-4.684923 -5.271597 -23.170694 24.220225 0.844254 2.846129 0.052315 -0.029461 121748.000000 0 1 0
-5.305523 -5.270297 -21.920894 23.161395 0.782067 2.812825 0.050920 -0.018340 -36210.200000 0 1 0
-4.638323 -6.176597 -20.836594 22.222242 0.926687 2.786591 0.042665 -0.023302 -961616.000000 0 1 0
-5.085623 -7.502697 -20.791894 22.681642 0.975099 2.730498 0.035960 -0.026224 -199020.000000 0 1 0
-4.431823 -8.435797 -19.952694 22.111394 1.087068 2.696038 0.040422 -0.033484 -1294340.000000 0 1 0
-5.186323 -9.781197 -19.848694 22.727526 1.083255 2.632799 0.044981 -0.037176 987765.000000 0 1 0
-6.496923 -9.706397 -19.239694 22.507554 0.980942 2.595982 0.047767 -0.028213 868863.000000 0 1 0
-7.492123 -9.130897 -20.069694 23.287289 0.883665 2.609664 0.030973 -0.017212 -2079520.000000 0 1 0
-8.770423 -8.932897 -19.307594 23.010870 0.794576 2.566357 0.035632 -0.003410 -1374940.000000 0 1 0
-9.340123 -10.207697 -19.023494 23.522931 0.829751 2.512771 0.051352 -0.006039 119990.000000 0 1 0
-10.023123 -10.187797 -17.767594 22.802228 0.793546 2.464192 0.060393 -0.000660 -317810.000000 0 1 0
-10.599823 -11.569797 -17.398194 23.428905 0.829123 2.407733 0.062078 0.004162 147476.000000 0 1 0
-11.681823 -11.904797 -18.272794 24.740335 0.794851 2.401763 0.087425 -0.019877 161011.000000 0 1 0
-11.302623 -12.466797 -19.535794 25.784056 0.834337 2.430531 0.099988 -0.031123 -1735790.000000 0 0 1
-12.387823 -12.341997 -20.567694 26.996538 0.783545 2.436983 0.118496 -0.046549 639815.000000 0 0 1
-13.597023 -13.109897 -20.412594 27.810473 0.767160 2.394974 0.118886 -0.035810 532494.000000 0 0 1
-14.390823 -12.946997 -19.265194 27.310588 0.732633 2.353799 0.111465 -0.025711 -961167.000000 0 0 1
-15.765823 -13.609597 -19.475494 28.514508 0.712127 2.322662 0.127333 -0.015597 32091.500000 0 0 1
-15.614123 -15.004997 -19.496894 29.138971 0.765507 2.303794 0.135207 -0.010454 -450605.000000 0 0 1
-16.291223 -15.590197 -20.549294 30.507895 0.763413 2.309829 0.157884 -0.010435 -212628.000000 0 0 1
-15.988823 -17.066897 -20.819794 31.311104 0.818000 2.298201 0.094700 -0.003339 78088.200000 0 0 1
-16.623823 -18.083797 -20.013594 31.684683 0.827438 2.254475 0.121923 -0.005651 149593.000000 0 0 1
-16.479023 -19.356797 -20.632494 32.740550 0.865531 2.252584 0.097285 -0.004505 -265343.000000 0 0 1
-17.140023 -20.445997 -19.823594 33.238442 0.873130 2.209812 0.110984 -0.017369 -180991.000000 0 0 1
-16.750223 -21.731997 -20.247694 34.100129 0.914139 2.206535 0.096062 -0.020749 321429.000000 0 0 1
-17.500223 -22.737397 -19.572994 34.732537 0.914827 2.169455 0.116936 -0.018628 125548.000000 0 0 1
-16.982823 -24.140197 -19.880694 35.586618 0.957720 2.163561 0.110900 -0.019740 -27580.700000 0 0 1
-17.225423 -24.503397 -21.241694 36.719766 0.958072 2.187662 0.076321 -0.016092 23988.200000 0 0 1
-16.672223 -25.751527 -21.618694 37.529616 0.996232 2.184677 0.079978 -0.014912 -211788.000000 0 0 1
-16.679623 -26.042387 -23.108094 38.605696 1.001143 2.212507 0.073454 -0.021558 1057020.000000 0 0 1
-17.876023 -26.670187 -23.685294 39.897922 0.980309 2.206380 0.104123 -0.017538 962894.000000 0 0 1
-17.819723 -28.100367 -23.522194 40.748825 1.005647 2.186151 0.106133 -0.014351 -429349.000000 0 0 1
-18.883723 -28.943807 -24.237494 42.211314 0.992717 2.182416 0.114820 -0.018669 -168370.000000 0 0 1
-19.035823 -29.008207 -25.655444 43.151366 0.990060 2.207496 0.117196 -0.016702 25766.000000 0 0 1
-19.287223 -27.788407 -26.374344 42.892873 0.964058 2.233041 0.125998 -0.029008 -93422.400000 0 0 1
-18.042723 -27.413217 -27.187434 42.616674 0.988695 2.262633 0.124394 -0.036259 -175492.000000 0 0 1
-18.037023 -27.884767 -28.474474 43.745744 0.996645 2.279577 0.131284 -0.027480 -111064.000000 0 0 1
-16.877423 -27.432197 -29.132784 43.429160 1.019245 2.306099 0.091074 -0.023118 -182887.000000 0 0 1
-16.929123 -27.469827 -30.673034 44.519901 1.018492 2.330868 0.124022 -0.027291 39110.100000 0 0 1
-16.721023 -28.767017 -31.221314 45.627890 1.044273 2.324384 0.113618 -0.030836 -111038.000000 0 0 1
-17.339823 -28.827377 -32.433654 46.729317 1.029271 2.337931 0.128419 -0.030238 -213352.000000 0 0 1
-17.388923 -30.260917 -33.051104 48.067382 1.049238 2.328974 0.127841 -0.033629 -10509.700000 0 0 1
-16.163423 -30.666287 -33.607364 48.281801 1.085724 2.340701 0.144110 -0.037952 -43712.600000 0 0 1
-16.307023 -31.823227 33.030095 48.678783 1.097258 0.825034 0.140668 -0.037537 411500.000000 0 0 1
-14.927923 -32.269237 32.458636 48.142596 1.137509 0.830890 0.129108 -0.042455 388593.000000 0 0 1
-14.080423 -32.927697 33.349132 48.935223 1.166712 0.820992 0.136559 -0.040871 884500.000000 0 0 1
-12.879023 -33.439327 32.702095 48.512728 1.203160 0.831060 0.137514 -0.040323 1525800.000000 0 0 1
-11.918623 33.109073 33.629902 48.674784 -1.225258 0.808049 0.121526 -0.038023 383773.000000 0 0 1
-11.054123 -33.585817 -32.886184 48.287699 1.252833 2.319988 0.128411 -0.033773 35493.500000 0 0 1
-10.360423 32.933424 -31.990754 47.067581 -1.266011 2.318119 0.118165 -0.040501 327427.000000 0 0 1
-9.533823 -33.650857 -30.984544 46.725966 1.294715 2.295765 0.105049 -0.040876 -103456.000000 0 0 1
-10.361223 -33.073617 -30.002714 45.840832 1.267203 2.284314 0.108373 -0.047447 -237927.000000 0 0 1
-9.896423 -31.856957 -29.496924 44.529467 1.269596 2.294832 0.130882 -0.054344 -469710.000000 0 0 1
-11.016523 -31.077667 -28.781274 43.766961 1.230133 2.288429 0.114591 -0.046765 173889.000000 0 0 1
-11.255723 -31.380917 -27.403774 43.155765 1.226409 2.258801 0.150925 -0.053834 44551.000000 0 0 1
-11.599023 -32.749007 -27.118234 44.073046 1.230403 2.233565 0.123797 -0.043022 -340730.000000 0 0 1
-12.004823 -32.822807 -25.637374 43.344289 1.220163 2.203692 0.138574 -0.048143 -130277.000000 0 0 1
-10.956423 -32.478777 -24.781294 42.296887 1.245443 2.196773 0.164327 -0.077210 -200952.000000 0 0 1
-11.311623 -32.818837 -23.466094 41.900912 1.238879 2.165228 0.156355 -0.081060 76456.300000 0 0 1
-10.160023 -32.473067 -22.496694 40.790040 1.267570 2.154987 0.206669 -0.102501 636610.000000 0 0 1
-9.208123 -33.565567 -22.510694 41.450792 1.303051 2.144886 0.185830 -0.086822 613173.000000 0 0 1
-7.947923 -33.160527 -21.981694 40.570739 1.335554 2.143387 0.226015 -0.098067 382380.000000 0 0 1
-7.029123 33.127595 -21.480194 40.102929 -1.361714 2.136046 0.223160 -0.076068 -624410.000000 0 0 1
-6.658723 32.141526 -22.455794 39.770328 -1.366517 2.170790 0.201313 -0.089849 21735.900000 0 0 1
-5.513423 31.421138 -22.050494 38.780279 -1.397096 2.175600 0.169095 -0.069719 -342568.000000 0 0 1
-4.129423 32.060416 -22.219694 39.225467 -1.442700 2.173001 0.167946 -0.077251 -620959.000000 0 0 1
-3.606223 32.207098 -23.524994 40.046565 -1.459291 2.198689 0.182831 -0.075005 -163202.000000 0 0 1
-3.051423 30.977413 -24.006194 39.309143 -1.472608 2.227744 0.206112 -0.086088 -314031.000000 0 0 1
-2.271023 31.145083 -25.347434 40.220221 -1.498008 2.252628 0.188823 -0.060037 615839.000000 0 0 1
-1.132323 32.002606 -25.396644 40.870998 -1.535429 2.241306 0.187420 -0.081578 650059.000000 0 0 1
-1.583723 33.356303 -25.434714 41.977087 -1.523353 2.221717 0.192468 -0.081381 -409625.000000 0 0 1
-0.695423 -33.159357 -26.301244 42.329446 1.549827 2.241256 0.094608 -0.055789 -708412.000000 0 0 1
0.566577 -33.015087 -25.734054 41.863570 -1.553637 2.232818 0.116422 -0.060083 -725789.000000 0 0 1
1.307577 -32.077577 -26.505934 41.632262 -1.530056 2.260966 0.077586 -0.045265 -736437.000000 0 0 1
2.599577 -31.642347 -25.872914 40.956118 -1.488825 2.254570 0.059453 -0.029171 -769280.000000 0 0 1
2.403077 -30.983367 -24.628194 39.652134 -1.493391 2.240950 0.059831 -0.025301 -269178.000000 0 0 1
3.630177 -30.407717 -24.325894 39.109546 -1.451975 2.242083 0.031362 -0.018027 -573514.000000 0 0 1
3.588877 -29.526297 -23.052994 37.631407 -1.449841 2.230142 0.049523 -0.017026 -97233.100000 0 0 1
3.874777 -30.282537 -21.865094 37.551675 -1.443534 2.192310 0.057050 -0.018900 468640.000000 0 0 1
3.766777 -29.421137 -20.733194 36.189187 -1.443459 2.180850 0.065550 -0.010362 -405911.000000 0 0 1
3.916577 -30.094137 -19.399394 36.018511 -1.441380 2.139565 0.067593 -0.004395 -258071.000000 0 0 1
2.895977 -30.972167 -18.966594 36.433412 -1.477565 2.118329 0.080822 -0.010891 86706.300000 0 0 1
2.799677 -32.247077 -19.569394 37.824243 -1.484194 2.114579 0.072637 -0.013035 -274255.000000 0 0 1
3.464977 -33.421647 -18.772994 38.489451 -1.467491 2.080300 0.060985 -0.015622 410936.000000 0 0 1
4.827877 -33.633737 -19.093894 38.975806 -1.428227 2.082761 0.049012 -0.009945 -4969.620000 0 0 1
5.379877 32.691083 -18.377994 37.886682 1.407691 2.077249 0.054846 -0.031531 8132.540000 0 0 1
6.586277 32.054712 -19.072094 37.876489 1.368147 2.098480 0.054841 -0.018263 -786872.000000 0 0 1
7.780377 32.706982 -18.884294 38.560310 1.337256 2.082581 0.099444 -0.017103 -1033660.000000 0 0 1
8.797277 32.190506 -19.703894 38.753893 1.304022 2.104164 0.076318 -0.013337 901021.000000 0 0 1
10.220577 32.873792 -19.687194 39.657686 1.269367 2.090276 0.070921 -0.034554 974722.000000 0 0 1
10.851677 32.642253 -18.417594 39.019013 1.249848 2.062372 0.067941 -0.029856 -1110520.000000 0 0 1
12.002477 33.383505 -18.430894 39.977691 1.225654 2.049951 0.079730 -0.029013 -912646.000000 0 0 1
12.709777 33.415933 -17.057194 39.612005 1.207343 2.015961 0.064417 -0.027638 -456828.000000 0 0 1
13.353677 32.257508 -16.717894 38.708598 1.178304 2.017385 0.063998 -0.029540 -345059.000000 0 0 1
13.901977 32.484175 -15.403394 38.545443 1.166420 1.981895 0.069520 -0.038343 -307246.000000 0 0 1
15.254777 31.824529 -15.173694 38.415490 1.123813 1.976852 0.076402 -0.029798 -375977.000000 0 0 1
15.123777 30.438383 -14.705494 37.033436 1.109660 1.979137 0.098765 -0.032537 -229714.000000 0 0 1
16.303577 29.665433 -14.786094 36.938776 1.068274 1.982626 0.095263 -0.028593 -55748.000000 0 0 1
16.158077 28.259983 -14.066694 35.462403 1.051396 1.978677 0.120109 -0.029306 -73712.000000 0 0 1
15.919277 28.377873 -12.630494 34.903531 1.059566 1.941068 0.118317 -0.032969 -1082290.000000 0 0 1
14.603477 28.539023 -12.249494 34.318909 1.097831 1.935777 0.135599 -0.036149 -793904.000000 0 0 1
13.870177 27.259923 -11.759394 32.768408 1.100124 1.937847 0.134495 -0.035332 123849.000000 0 0 1
13.253677 26.534303 -12.888894 32.339648 1.107555 1.980729 0.112580 -0.036800 526402.000000 0 0 1
12.585777 25.285463 -12.628394 30.939179 1.108952 1.991243 0.128838 -0.033701 378678.000000 0 0 1
11.609377 25.104323 -11.457794 29.938032 1.137641 1.963532 0.115034 -0.035061 -506417.000000 0 0 1
10.441577 25.869133 -11.625594 30.222393 1.187164 1.965645 0.097703 -0.037087 -188108.000000 0 0 1
9.876577 26.196293 -10.365694 29.853646 1.210254 1.925398 0.075872 -0.028486 21633.900000 0 0 1
8.659877 27.129923 -10.421694 30.325533 1.261819 1.921609 0.082896 -0.034613 8097.710000 0 0 1
9.097077 28.432503 -10.747194 31.728004 1.261136 1.916362 0.080518 -0.039479 272817.000000 0 0 1
8.024277 29.378743 -10.780594 32.306668 1.304168 1.911018 0.065061 -0.035983 544849.000000 0 0 1
8.531577 30.856443 -11.048994 33.867214 1.301043 1.903124 0.095594 -0.036781 -405740.000000 0 0 1
9.258077 31.450628 -9.962694 34.265278 1.284514 1.865809 0.111645 -0.035246 -314848.000000 0 0 1
9.856877 32.681944 -10.311494 35.659423 1.277872 1.864152 0.102379 -0.037009 -205506.000000 0 0 1
11.034877 32.569769 -11.311294 36.200881 1.244127 1.888577 0.094891 -0.035168 -1505410.000000 0 0 1
12.309977 32.296931 -10.835394 36.221997 1.206645 1.874586 0.098022 -0.032669 -972926.000000 0 0 1
13.132477 32.783214 -11.878894 37.260022 1.189785 1.895271 0.079683 -0.035089 122081.000000 0 0 1
14.650877 32.511259 -11.678894 37.523683 1.147410 1.887295 0.085999 -0.030258 334551.000000 0 0 1
15.232777 33.310855 -10.699394 38.159240 1.141895 1.854995 0.076575 -0.028900 330189.000000 0 0 1
16.656377 33.222118 -10.778494 38.695219 1.106058 1.853079 0.091361 -0.028585 887212.000000 0 0 1
17.498377 -33.304537 -9.795994 38.876045 -1.087032 1.825522 0.093081 -0.030857 276168.000000 0 0 1
17.482277 -33.691857 -8.437894 38.884049 -1.092153 1.789538 0.089420 -0.025935 -125698.000000 0 0 1
18.037677 -32.740147 -7.560694 38.137109 -1.067236 1.770369 0.081064 -0.028108 -901838.000000 0 0 1
18.439177 -33.484067 -6.243494 38.731992 -1.067427 1.732700 0.082784 -0.020734 -571776.000000 0 0 1
19.410577 32.952923 -6.388394 38.774699 1.038475 1.736308 0.078874 -0.020727 -869253.000000 0 0 1
20.704377 33.489623 -6.460794 39.899473 1.017078 1.733439 0.073950 -0.023319 -1049970.000000 0 0 1
21.761077 32.546329 -7.067694 39.783921 0.981444 1.749396 0.062133 -0.018210 103459.000000 0 0 1
22.010677 31.370223 -6.317594 38.839063 0.958969 1.734183 0.065990 -0.012338 -86038.700000 0 0 1
22.973777 31.558310 -5.289194 39.391585 0.941538 1.705475 0.064133 -0.008423 -473992.000000 0 0 1
23.498177 30.240353 -4.762894 38.591819 0.910209 1.694529 0.056958 -0.012046 -357628.000000 0 0 1
24.258477 29.555493 -5.742394 38.664920 0.883514 1.719865 0.052191 -0.014760 -41467.300000 0 0 1
24.503577 28.255433 -5.320194 37.776968 0.856392 1.712098 0.063831 -0.010515 298982.000000 0 0 1
25.449777 27.401423 -6.256594 37.916674 0.822309 1.736564 0.049122 0.002248 931074.000000 0 0 1
26.799277 27.876923 -6.347594 39.186938 0.805105 1.733496 0.061066 -0.009212 800502.000000 0 0 1
27.683077 26.842573 -6.815894 39.157795 0.769985 1.745750 0.042411 -0.003863 523598.000000 0 0 1
28.448077 26.017723 -5.733894 38.975538 0.740806 1.718447 0.049101 0.005420 -852532.000000 0 0 1
29.495577 26.749073 -5.194694 40.155782 0.736606 1.700523 0.071886 -0.003406 -564552.000000 0 0 1
30.140077 25.829463 -4.322794 39.928336 0.708533 1.679273 0.074841 0.002396 -323957.000000 0 0 1
31.451277 26.374613 -3.731094 41.215581 0.697830 1.661447 0.081033 -0.003849 -247304.000000 0 0 1
31.328777 27.350413 -2.770194 41.679868 0.717703 1.637309 0.090056 -0.005996 -210998.000000 0 0 1
32.444277 27.278123 -1.922894 42.431411 0.699110 1.616130 0.091102 -0.015071 -45295.800000 0 0 1
32.648977 28.473133 -0.943494 43.330881 0.717184 1.592572 0.090438 -0.010445 -16002.700000 0 0 1
32.946477 29.645453 -1.628394 44.350591 0.732708 1.607521 0.064539 -0.003455 -361669.000000 0 0 1
31.845077 30.484893 -1.795394 44.120983 0.763579 1.611500 0.080611 -0.011129 -531003.000000 0 0 1
34.791625 22.793503 19.032082 45.740804 0.579982 1.141660 0.141314 -0.028343 -88882.000000 0 0 1
34.959045 22.746903 20.398482 46.429027 0.576848 1.115924 0.129213 -0.023425 392119.000000 0 0 1
36.029255 23.618503 20.756182 47.820080 0.580258 1.121816 0.139873 -0.025038 43825.200000 0 0 1
36.215055 23.604703 22.317502 48.649596 0.577634 1.094220 0.115697 -0.009236 -133127.000000 0 0 1
35.261235 24.452003 22.899642 48.637936 0.606318 1.080578 0.100476 -0.010018 4004.250000 0 0 1
35.198725 24.275503 24.261572 49.161715 0.603759 1.054681 0.097681 -0.019163 498379.000000 0 0 1
33.872425 24.837503 24.889762 48.823591 0.632705 1.035856 0.082804 -0.021121 568493.000000 0 0 1
33.727185 26.239603 24.903432 49.459284 0.661179 1.043135 0.055752 -0.023026 -469542.000000 0 0 1
32.377395 26.548103 25.016472 48.774188 0.686793 1.032232 0.047894 -0.016726 -630373.000000 0 0 1
31.992745 28.035703 25.139982 49.412095 0.719574 1.037027 0.037663 -0.012188 -204152.000000 0 0 1
32.041745 28.782803 23.930012 49.272393 0.731870 1.063669 0.043810 -0.024106 67800.500000 0 0 1
31.536015 30.088403 24.016832 49.765857 0.761912 1.067179 0.037106 -0.015960 -216714.000000 0 0 1
31.863615 30.788303 22.721882 49.794513 0.768237 1.096949 0.052467 -0.018166 -688328.000000 0 0 1
33.226665 31.052103 22.717792 50.836429 0.751581 1.107521 0.029152 -0.018189 -945068.000000 0 0 1
33.639255 31.748003 21.579582 51.041293 0.756482 1.134278 0.031756 -0.012401 540090.000000 0 0 1
35.138905 32.159903 21.557882 52.285221 0.741162 1.145805 0.010778 -0.035582 418769.000000 0 0 1
35.575745 33.245803 22.340742 53.572622 0.751556 1.140635 0.022970 -0.014497 203501.000000 0 0 1
36.966745 33.467903 22.149082 54.563932 0.735764 1.152801 0.032767 -0.017194 470891.000000 0 0 1
37.525425 -32.735056 22.911402 54.814905 -0.717323 1.139578 0.025972 -0.005391 -75696.300000 0 0 1
36.900165 -31.570156 22.375352 53.469181 -0.707711 1.139034 0.025108 0.001157 133508.000000 0 0 1
36.986915 -30.492156 23.272072 53.285954 -0.689445 1.118825 0.027421 0.002468 -1210120.000000 0 0 1
36.016645 -29.290056 23.114042 51.859089 -0.682760 1.108831 0.036110 -0.005644 575480.000000 0 0 1
34.637675 -29.576556 23.316782 51.168482 -0.706745 1.097653 0.034060 -0.000455 371884.000000 0 0 1
34.029705 -30.188556 22.209982 50.622654 -0.725655 1.116605 0.046965 0.004788 -1028260.000000 0 0 1
33.430285 -31.599556 22.413562 51.171122 -0.757253 1.117410 0.027278 0.000923 101065.000000 0 0 1
32.351515 -31.582556 23.343892 50.882371 -0.773371 1.094173 0.039579 0.001714 250811.000000 0 0 1
31.905815 -32.877056 23.662022 51.563293 -0.800389 1.094048 0.033139 -0.003551 -77840.800000 0 0 1
30.928665 -32.921256 24.853372 51.556586 -0.816595 1.067792 0.034108 -0.013937 -89456.200000 0 0 1
30.539665 33.173503 25.176682 51.643178 0.826714 1.061558 0.038659 -0.018632 441620.000000 0 0 1
29.710165 33.191803 26.350272 51.756416 0.840692 1.036633 0.042117 -0.015317 -464908.000000 0 0 1
29.136665 31.840003 26.740962 50.772139 0.829703 1.016099 0.051327 -0.005898 495693.000000 0 0 1
28.401665 31.118203 25.719132 49.360621 0.831007 1.022721 0.061719 -0.011233 78921.600000 0 0 1
27.098065 31.622503 25.535652 48.850357 0.862297 1.020744 0.057123 -0.014571 -461297.000000 0 0 1
26.478365 31.092503 24.199982 47.470904 0.865374 1.035861 0.094232 -0.024553 44954.200000 0 0 1
26.735365 31.767703 22.960062 47.446087 0.871205 1.065669 0.111548 -0.032231 892014.000000 0 0 1
28.105865 31.737703 22.504302 47.996511 0.846013 1.082781 0.077851 -0.025356 640654.000000 0 0 1
28.213265 32.234803 21.076282 47.741811 0.851829 1.113567 0.088662 -0.029091 1046230.000000 0 0 1
29.574665 32.571103 20.714882 48.627605 0.833577 1.130740 0.090443 -0.034499 1072900.000000 0 0 1
29.551365 33.256803 19.482082 48.567990 0.844326 1.158046 0.085812 -0.034743 -563650.000000 0 0 1
30.886365 -33.608056 19.005182 49.443563 -0.827574 1.176259 0.086320 -0.037981 167820.000000 0 0 1
31.862435 32.811203 18.642382 49.389556 0.800067 1.183749 0.094820 -0.051618 617844.000000 0 0 1
33.068215 33.388003 18.137382 50.370927 0.790210 1.202447 0.083864 -0.049719 305119.000000 0 0 1
33.922715 32.295503 17.465682 49.988001 0.760830 1.213868 0.086700 -0.046691 -76644.900000 0 0 1
34.668685 31.455703 18.309282 50.265384 0.736846 1.197967 0.056964 -0.047752 154941.000000 0 0 1
35.655935 30.652403 17.671082 50.231292 0.710082 1.211309 0.073138 -0.051849 338120.000000 0 0 1
36.566725 29.980203 18.738582 50.863272 0.686744 1.193497 0.083825 -0.057661 -84007.500000 0 0 1
37.462785 30.879603 19.342882 52.260475 0.689368 1.191653 0.085863 -0.055274 -353710.000000 0 0 1
-38.010773 30.266003 20.171982 52.609492 -0.672449 1.177291 0.111081 -0.049829 64297.700000 0 0 1
-36.814833 31.130103 20.652382 52.449367 -0.701926 1.166080 0.125169 -0.047133 8329.570000 0 0 1
-36.137223 31.669603 19.538382 51.871100 -0.719606 1.184595 0.126613 -0.041055 -101794.000000 0 0 1
-35.093636 32.592003 19.757282 51.808804 -0.748455 1.179540 0.106188 -0.023580 -179319.000000 0 0 1
-35.357293 -33.546356 20.620682 52.921722 0.759122 1.170550 0.085703 -0.014570 -472673.000000 0 0 1
-35.465951 33.481203 21.993882 53.502855 -0.756620 1.147159 0.087006 -0.015548 70311.900000 0 0 1
-34.879518 -32.963856 22.855802 53.156225 0.757169 1.126332 0.086497 -0.011243 -97424.500000 0 0 1
-34.948185 -33.146756 24.368552 53.980640 0.758950 1.102428 0.087721 -0.024956 253384.000000 0 0 1
-36.298103 -33.126356 24.816622 55.052452 0.739744 1.103156 0.067634 -0.006068 79780.500000 0 0 1
-36.395443 -33.598756 26.139612 56.006999 0.745463 1.085217 0.091163 -0.020267 1063480.000000 0 0 1
-37.861053 33.576203 26.670892 57.202773 -0.725489 1.085747 0.053760 -0.026456 936448.000000 0 0 1
-37.750833 32.990103 27.975752 57.411802 -0.718201 1.061822 0.090316 -0.027875 1010720.000000 0 0 1
37.301245 32.885603 28.492032 57.311794 0.722568 1.050496 0.086008 -0.034676 768871.000000 0 0 1
37.185325 31.833503 29.610272 57.209165 0.708012 1.026777 0.097040 -0.028651 -189308.000000 0 0 1
37.266575 30.491303 29.244072 56.335894 0.685737 1.024996 0.094201 -0.034350 -403317.000000 0 0 1
-37.859073 30.051103 28.922262 56.328283 -0.670926 1.031585 0.097527 -0.034429 -756500.000000 0 0 1
-37.935283 28.523603 28.608982 55.418007 -0.644717 1.028342 0.115102 -0.031083 -101998.000000 0 0 1
37.677895 28.175803 27.483322 54.486996 0.642096 1.042108 0.099426 -0.028291 284822.000000 0 0 1
37.415985 26.785303 27.183422 53.444802 0.621303 1.037208 0.111264 -0.033582 -185038.000000 0 0 1
36.735445 25.876003 28.192612 53.046054 0.613665 1.010456 0.116371 -0.034793 -811000.000000 0 0 1
37.440505 25.410203 29.301482 53.907761 0.596275 0.996137 0.104710 -0.035241 -456695.000000 0 0 1
37.212145 24.005103 29.602942 53.266527 0.572914 0.981530 0.105110 -0.019547 -39520.500000 0 0 1
37.731925 22.985303 28.580862 52.620225 0.547138 0.996608 0.106833 -0.012187 -307013.000000 0 0 1
37.100495 23.007403 27.322972 51.500798 0.555095 1.011565 0.120726 -0.016566 159430.000000 0 0 1
37.765945 22.185703 26.324902 51.102569 0.531142 1.029627 0.117271 -0.024749 176412.000000 0 0 1
37.468475 20.639703 26.401202 50.268355 0.503500 1.017840 0.115710 -0.020386 896840.000000 0 0 1
36.208395 20.261203 25.726672 48.820343 0.510162 1.015769 0.126571 0.003292 1677850.000000 0 0 1
35.734715 19.009403 26.172822 48.201078 0.488887 0.996800 0.130000 0.000637 -55593.700000 0 0 1
35.199065 18.918403 27.645962 48.591969 0.493172 0.965579 0.105005 0.002628 273082.000000 0 0 1
33.981555 19.592203 28.024632 48.207681 0.523001 0.950432 0.107920 -0.002090 840434.000000 0 0 1
34.018135 21.030403 28.086392 48.870818 0.553703 0.958550 0.096735 -0.011604 -578496.000000 0 0 1
32.990375 21.680403 29.073372 49.027194 0.581402 0.936011 0.083586 -0.015255 1520060.000000 0 0 1
31.567425 21.535003 28.807012 47.855017 0.598673 0.924838 0.075353 -0.015538 1498120.000000 0 0 1
31.119365 22.304903 27.647742 47.226277 0.621881 0.945384 0.069533 -0.006281 -272496.000000 0 0 1
31.023265 23.840703 27.915492 48.063467 0.655223 0.951079 0.061971 -0.007168 -884531.000000 0 0 1
32.308995 24.388003 27.977932 49.207830 0.646589 0.966034 0.073981 -0.014295 -474310.000000 0 0 1
32.429585 25.557003 28.762262 50.320037 0.667428 0.962358 0.060635 -0.012990 66815.000000 0 0 1
32.589565 25.422203 30.269342 51.230862 0.662471 0.938694 0.066998 -0.016124 104944.000000 0 0 1
33.920465 25.006003 30.512972 52.028258 0.635256 0.944104 0.085579 -0.013985 -120392.000000 0 0 1
34.301365 25.006403 31.875377 53.084306 0.629939 0.926711 0.095340 -0.021977 -45829.900000 0 0 1
33.902885 23.793103 32.778421 52.819904 0.611934 0.901328 0.099333 -0.022493 -87827.800000 0 0 1
34.188745 23.760803 -33.181564 53.239669 0.607355 2.243687 0.112565 -0.039424 -27066.100000 0 0 1
33.759795 22.596903 -32.535984 52.047422 0.589854 2.246084 0.103493 -0.035349 -415712.000000 0 0 1
34.422985 22.450603 -31.174324 51.583040 0.577919 2.219749 0.117485 -0.053002 -254099.000000 0 0 1
33.872215 23.319203 -30.184014 51.011636 0.602930 2.203973 0.103875 -0.056141 531383.000000 0 0 1
34.429115 23.111903 -28.829174 50.503914 0.591196 2.178313 0.136786 -0.066147 1140290.000000 0 0 1
35.942805 23.496503 -28.618734 51.604291 0.578985 2.158655 0.133851 -0.031669 512866.000000 0 0 1
36.392495 23.031803 -27.431634 51.062435 0.564240 2.137931 0.137491 -0.037712 -571311.000000 0 0 1
37.728785 23.486103 -27.320304 52.167589 0.556798 2.121988 0.141944 -0.021950 6121.470000 0 0 1
-37.909483 22.843103 -26.134014 51.399640 -0.542307 2.104177 0.118730 -0.022814 95279.100000 0 0 1
-37.115143 21.735303 -26.573174 50.557797 -0.529778 2.124216 0.099336 -0.018143 65408.400000 0 0 1
-37.162723 20.556303 -25.818564 49.701387 -0.505253 2.117031 0.069764 -0.010434 -483159.000000 0 0 1
-36.102243 19.528803 -26.187924 48.688330 -0.495853 2.138703 0.060955 0.000857 -781297.000000 0 0 1
-34.831929 19.954403 -25.837364 47.738988 -0.520237 2.142685 0.065819 0.002952 -690207.000000 0 0 1
-33.814303 18.944503 -25.902284 46.617911 -0.510680 2.159916 0.019939 0.009132 82088.300000 0 0 1
-32.613253 19.406103 -25.095994 45.497583 -0.536763 2.155065 0.023820 0.008583 -588120.000000 0 0 1
-32.796743 19.561803 -23.701594 44.945034 -0.537809 2.126270 0.031804 0.010427 -12570.000000 0 0 1
-31.566093 19.434703 -23.012594 43.631473 -0.551871 2.126370 0.048762 0.009764 100206.000000 0 0 1
-31.789243 19.862203 -21.514794 43.219781 -0.558462 2.091856 0.041278 0.009536 79238.400000 0 0 1
-32.425473 18.763603 -20.912094 42.904543 -0.524587 2.079917 0.028554 0.017488 -227245.000000 0 0 1
-32.729813 19.152203 -19.614494 42.693980 -0.529437 2.048139 0.038019 0.019637 -781831.000000 0 0 1
-33.690033 18.167903 -18.911294 42.693419 -0.494565 2.029689 0.041274 0.019166 515914.000000 0 0 1
-34.463384 18.554103 -17.732894 42.970165 -0.493872 1.996190 0.039760 0.007544 305870.000000 0 0 1
-35.439019 19.488203 -18.140594 44.326011 -0.502773 1.992433 0.036202 0.007349 -1423550.000000 0 0 1
-36.568463 19.566403 -17.130694 44.872679 -0.491302 1.962499 0.050147 -0.003118 -558171.000000 0 0 1
-36.186153 20.105403 -15.883194 44.338930 -0.507140 1.937159 0.054915 -0.011680 -377779.000000 0 0 1
-37.242663 20.056003 -14.966694 44.869379 -0.493988 1.910875 0.072187 -0.013201 -553862.000000 0 0 1
-37.041873 20.964203 -13.666894 44.703268 -0.515014 1.881496 0.072197 -0.015737 -216958.000000 0 0 1
-37.202513 22.324103 -13.858394 45.546104 -0.540471 1.879970 0.098486 -0.027902 123829.000000 0 0 1
37.854845 22.757003 -13.875194 46.296777 0.541276 1.875176 0.103185 -0.027292 114713.000000 0 0 1
37.732875 24.275703 -14.231094 47.070200 0.571691 1.877940 0.100789 -0.029602 -27444.500000 0 0 1
-38.137503 25.120303 -13.241694 47.548304 -0.582451 1.853017 0.109119 -0.029218 -20304.600000 0 0 1
38.118265 26.510103 -13.494294 48.351667 0.607679 1.853639 0.144076 -0.014384 803171.000000 0 0 1
-37.003423 27.159903 -14.152594 48.033421 -0.633172 1.869876 0.110761 -0.017266 623363.000000 0 0 1
-36.831763 26.756003 -15.517894 48.096440 -0.628250 1.899315 0.106633 -0.017049 -79323.900000 0 0 1
-35.648395 27.252003 -16.097094 47.671754 -0.652696 1.915232 0.090156 -0.026268 -607830.000000 0 0 1
-35.646756 26.998903 -17.607594 48.058915 -0.648221 1.945907 0.102419 -0.028940 -70735.200000 0 0 1
-35.310143 25.623903 -17.854394 47.139898 -0.627754 1.959245 0.116734 -0.028026 -805295.000000 0 0 1
-33.954426 25.373603 -17.780094 45.965797 -0.641761 1.967968 0.088985 -0.020793 -1142810.000000 0 0 1
-33.522983 24.203003 -18.669394 45.366530 -0.625327 1.994921 0.076179 -0.009964 -140363.000000 0 0 1
-33.637803 24.554803 -20.017994 46.207794 -0.630562 2.018855 0.084560 -0.010839 -98437.000000 0 0 1
-32.734183 23.824403 -20.792094 45.513076 -0.629150 2.045233 0.070791 0.000733 -192251.000000 0 0 1
-32.830913 23.956203 -22.287694 46.352021 -0.630372 2.072404 0.074687 -0.006742 -487541.000000 0 0 1
-33.839303 23.112203 -22.825494 46.907095 -0.599224 2.079002 0.095794 -0.016207 278715.000000 0 0 1
-34.224119 23.406703 -24.156494 47.986459 -0.599855 2.098328 0.076000 -0.009831 -137696.000000 0 0 1
-35.022302 24.671303 -24.461194 49.331378 -0.613703 2.089615 0.079035 -0.014452 -687012.000000 0 0 1
-34.302276 25.879503 -24.521094 49.474022 -0.646346 2.089363 0.066621 -0.008915 -70723.800000 0 0 1
-35.061066 26.921803 -25.113984 50.840673 -0.654831 2.087451 0.077324 -0.014748 218220.000000 0 0 1
-34.098378 28.114203 -25.373194 50.959855 -0.689504 2.091978 0.050501 -0.020437 276207.000000 0 0 1
-33.108193 27.871603 -26.327314 50.656749 -0.699734 2.117319 0.056603 -0.027378 -498519.000000 0 0 1
-32.286553 29.007303 -26.510164 50.858961 -0.731949 2.119110 0.051759 -0.031078 85759.900000 0 0 1
-31.033183 28.844103 -27.369044 50.439125 -0.748855 2.144344 0.064337 -0.037403 -560860.000000 0 0 1
-30.005683 28.022703 -26.822564 49.041440 -0.751239 2.149497 0.072598 -0.034696 1073720.000000 0 0 1
-28.707933 28.102003 -27.450434 48.655877 -0.774733 2.170230 0.090765 -0.038535 929261.000000 0 0 1
-27.947003 29.360903 -27.150064 48.787535 -0.810065 2.160959 0.076665 -0.043616 -1412110.000000 0 0 1
-27.449003 29.574803 -25.814814 47.901163 -0.822660 2.139949 0.051297 -0.028261 140421.000000 0 0 1
-28.443103 29.672103 -24.815194 48.012891 -0.806543 2.113957 0.059832 -0.025373 -261092.000000 0 0 1
-27.787553 30.178003 -23.518394 47.286096 -0.826614 2.091354 0.015433 -0.023542 68920.200000 0 0 1
-27.349543 31.507303 -23.617094 47.942411 -0.855923 2.085887 0.012872 -0.013584 157881.000000 0 0 1
-26.958523 32.038203 -22.350294 47.463081 -0.871287 2.061105 0.029704 0.006089 -164299.000000 0 0 1
-26.465033 33.534203 -22.566994 48.313663 -0.902678 2.056797 0.018866 0.023126 -292113.000000 0 0 1
-27.443343 -32.876156 -22.637494 48.440013 0.875223 2.057065 0.007960 0.010092 -389192.000000 0 0 1
-26.935763 -31.618856 -22.194094 47.094216 0.865207 2.061527 0.025492 0.009758 42572.300000 0 0 1
17.797777 8.351603 -25.069394 31.858825 0.438746 2.476549 0.100045 -0.017480 738249.000000 0 0 1
16.444177 7.896303 -24.878894 30.849991 0.447673 2.508915 0.094331 -0.019593 910685.000000 0 0 1
16.412077 6.508503 -24.906294 30.529337 0.377544 2.524934 0.091679 -0.024222 -1095730.000000 0 0 1
15.002477 6.014903 -24.951794 29.729538 0.381306 2.566778 0.092203 -0.028647 -1227820.000000 0 0 1
14.262877 6.372903 -23.829594 28.493739 0.420204 2.561314 0.098055 -0.039410 232998.000000 0 0 1
12.990277 5.734903 -23.855694 27.762035 0.415743 2.604680 0.091894 -0.038763 741507.000000 0 0 1
12.012077 5.923603 -22.638494 26.303622 0.458142 2.607362 0.105858 -0.047173 418075.000000 0 0 1
12.457877 5.093703 -21.557594 25.414059 0.388133 2.583477 0.099912 -0.034484 137006.000000 0 0 1
11.675277 5.117303 -20.393394 24.049728 0.413084 2.582936 0.104779 -0.037663 -631793.000000 0 1 0
11.960377 6.352403 -19.505194 23.745658 0.488233 2.534695 0.119761 -0.050945 -210468.000000 0 1 0
11.427377 6.384603 -18.189494 22.409949 0.509507 2.517803 0.108375 -0.049955 -137711.000000 0 1 0
11.621277 7.651503 -17.520894 22.373675 0.582261 2.470436 0.121134 -0.054550 1126080.000000 0 1 0
13.099377 8.098703 -17.141994 23.044102 0.553731 2.409650 0.124644 -0.048135 954017.000000 0 1 0
13.555877 7.556403 -15.923894 22.235815 0.508527 2.369048 0.139080 -0.063483 266858.000000 0 1 0
14.939277 7.886903 -15.900994 23.199717 0.485742 2.325944 0.140819 -0.058094 -29058.300000 0 1 0
15.707777 7.431803 -14.645594 22.725743 0.441921 2.271099 0.163105 -0.061985 118045.000000 0 1 0
16.882077 8.222203 -14.477694 23.711027 0.453224 2.227601 0.139244 -0.067774 704009.000000 0 1 0
17.450077 8.059703 -13.172294 23.301789 0.432683 2.171582 0.140222 -0.063728 175768.000000 0 1 0
18.406477 9.204403 -12.740494 24.204125 0.463698 2.125130 0.197053 -0.068817 -78491.500000 0 1 0
17.771277 10.402103 -12.417894 24.046334 0.529565 2.113456 0.230686 -0.065143 139637.000000 0 1 0
18.641877 11.314503 -11.762994 24.777119 0.545507 2.065479 0.296495 -0.095654 269558.000000 0 1 0
17.841177 12.598503 -11.335694 24.607476 0.614840 2.049536 0.306137 -0.086699 -29574.700000 0 1 0
16.991477 12.375103 -10.189994 23.359997 0.629476 2.022185 0.340731 -0.072293 363400.000000 0 1 0
16.072977 13.369503 -9.888594 23.127225 0.693833 2.012603 0.230800 -0.071442 209343.000000 0 1 0
14.905777 13.605403 -10.923994 22.948265 0.739820 2.066928 0.205763 -0.077807 177952.000000 0 1 0
13.941377 14.626303 -10.585794 22.811177 0.809369 2.053371 0.230153 -0.073730 719115.000000 0 1 0
14.394377 15.889503 -10.833594 24.021682 0.834728 2.038673 0.259352 -0.074018 -288731.000000 0 1 0
13.597777 16.862903 -9.975094 23.848681 0.892182 2.002332 0.239816 -0.065733 74237.100000 0 1 0
13.877377 16.646903 -8.610594 23.320449 0.875882 1.948976 0.244238 -0.057148 230658.000000 0 1 0
12.893377 17.198903 -7.772894 22.857370 0.927511 1.917778 0.212817 -0.043058 -26837.500000 0 1 0
13.310477 17.080203 -6.275094 22.545043 0.908810 1.852857 0.193125 -0.039938 530944.000000 0 1 0
14.340377 17.963103 -5.834794 23.714222 0.897078 1.819395 0.229234 -0.038180 330828.000000 0 1 0
14.745877 17.717803 -4.491094 23.484705 0.876690 1.763216 0.232379 -0.038362 -39143.200000 0 1 0
15.946377 18.598003 -4.059194 24.832433 0.862008 1.734997 0.221559 -0.042986 254424.000000 0 1 0
17.042877 18.450403 -4.957094 25.601755 0.825034 1.765650 0.240720 -0.059180 71730.700000 0 0 1
17.930577 19.532603 -4.849194 26.954460 0.828135 1.751684 0.162687 -0.047773 -427448.000000 0 0 1
19.242777 19.352303 -5.613694 27.862335 0.788236 1.773665 0.152679 -0.034609 -552423.000000 0 0 1
20.182377 18.509203 -5.038594 27.844324 0.742181 1.752755 0.134049 -0.043823 -144363.000000 0 0 1
20.374377 17.293503 -5.726094 27.330728 0.703789 1.781871 0.177556 -0.061351 -654235.000000 0 0 1
21.451977 16.452703 -5.082394 27.508354 0.654264 1.756622 0.154862 -0.054988 -27872.100000 0 0 1
22.797877 16.880403 -5.264094 28.851376 0.637353 1.754280 0.107188 -0.047755 654776.000000 0 0 1
23.695877 16.023503 -4.577194 28.968914 0.594584 1.729465 0.098027 -0.050845 836124.000000 0 0 1
25.235377 16.256203 -4.751694 30.391891 0.572275 1.727788 0.084494 -0.039357 734100.000000 0 0 1
25.695877 17.359203 -4.026494 31.270317 0.594137 1.699919 0.084020 -0.032574 404499.000000 0 0 1
27.118077 17.326003 -3.951294 32.422110 0.568539 1.692970 0.079291 -0.017361 463425.000000 0 0 1
27.766377 18.574103 -3.286994 33.567445 0.589576 1.668876 0.095977 -0.021335 -148783.000000 0 0 1
27.713577 19.753903 -4.053794 34.273785 0.619257 1.689351 0.096526 -0.023056 213894.000000 0 0 1
27.568977 20.939803 -3.306694 34.777264 0.649580 1.666022 0.111173 -0.008784 -387478.000000 0 0 1
27.572477 22.248403 -4.218794 35.679563 0.678938 1.689315 0.094696 -0.009938 574706.000000 0 0 1
28.868777 22.659503 -4.686994 36.997666 0.665474 1.697821 0.087069 0.000680 886292.000000 0 0 1
29.433577 21.814503 -5.659194 37.070669 0.637809 1.724055 0.079254 0.001487 -261580.000000 0 0 1
30.648277 22.358703 -6.427394 38.477785 0.630268 1.738625 0.083106 -0.005769 -427181.000000 0 0 1
30.299577 23.362903 -7.387494 38.967483 0.656846 1.761532 0.063533 -0.000099 -275452.000000 0 0 1
31.369777 24.056203 -7.974094 40.328030 0.654204 1.769839 0.081224 -0.006274 53152.000000 0 0 1
32.348477 23.133903 -8.826294 40.737022 0.620819 1.789194 0.090872 -0.013117 -390879.000000 0 0 1
31.813077 22.393603 -9.869694 40.136719 0.613347 1.819246 0.079475 -0.009903 -162758.000000 0 0 1
31.863977 23.101203 -11.099794 40.892348 0.627304 1.845685 0.060859 -0.012620 -315982.000000 0 0 1
31.618277 22.234003 -12.316794 40.568088 0.612871 1.879273 0.095364 -0.013029 -5448.760000 0 0 1
31.707477 22.873303 -13.562794 41.382382 0.624935 1.904710 0.086838 -0.009479 51783.000000 0 0 1
31.696777 21.952503 -14.623594 41.236484 0.605728 1.933312 0.102319 -0.011591 22420.800000 0 0 1
31.775377 22.645103 -15.983594 42.165752 0.619173 1.959583 0.107194 -0.017170 1555800.000000 0 0 1
33.090377 23.280003 -16.207494 43.584567 0.613090 1.951812 0.122194 -0.009513 1628740.000000 0 0 1
33.182377 23.792503 -17.531994 44.435619 0.622059 1.976372 0.136532 -0.019606 -194690.000000 0 0 1
34.484377 24.524403 -17.823194 45.916064 0.618186 1.969440 0.127472 -0.024576 96679.300000 0 0 1
35.676077 23.739303 -17.910094 46.444682 0.587134 1.966678 0.126230 -0.010638 341374.000000 0 0 1
36.775577 24.591303 -18.209194 47.840883 0.589399 1.961263 0.141706 -0.020511 1004090.000000 0 0 1
38.151977 23.831503 -18.281194 48.556318 0.558345 1.956806 0.115442 -0.025418 789657.000000 0 0 1
-38.157511 23.088603 -19.450494 48.655945 -0.544151 1.982047 0.102919 -0.011147 -207946.000000 0 0 1
-36.805611 22.762903 -19.637594 47.523025 -0.553885 1.996787 0.116544 -0.001969 -400118.000000 0 0 1
-36.464911 22.091703 -20.968594 47.512262 -0.544699 2.027877 0.127851 -0.014899 -16816.100000 0 0 1
-36.356411 20.662803 -20.969894 46.781156 -0.516815 2.035609 0.098998 -0.009812 27595.300000 0 0 1
-35.932111 20.164003 -22.223494 46.814392 -0.511378 2.065437 0.076762 -0.002613 131428.000000 0 0 1
-35.704811 18.625103 -22.160294 45.965276 -0.480810 2.073857 0.050582 0.003580 -238646.000000 0 0 1
-36.891111 17.883003 -22.101794 46.575156 -0.451374 2.065238 0.069532 -0.008210 -293526.000000 0 0 1
-36.669111 16.515503 -22.351994 46.010838 -0.423181 2.078073 0.050426 -0.011181 269324.000000 0 0 1
-37.855911 15.576903 -21.973694 46.460232 -0.390363 2.063440 0.051602 -0.012612 974271.000000 0 0 1
37.373577 15.731803 -22.781194 46.510824 0.398422 2.082661 0.128663 -0.018859 1247430.000000 0 0 1
36.292177 14.780303 -22.661694 45.267338 0.386748 2.095110 0.158973 -0.016128 671453.000000 0 0 1
36.458077 13.430403 -23.484894 45.399421 0.352954 2.114484 0.109802 -0.013833 -308351.000000 0 0 1
36.382177 13.633903 -24.870694 46.131308 0.358544 2.140198 0.114569 -0.006928 173488.000000 0 0 1
36.574477 12.419303 -25.610464 46.344659 0.327346 2.156287 0.094663 0.000715 -113916.000000 0 0 1
36.295977 12.637403 -27.091724 47.021947 0.335049 2.184808 0.113902 -0.007802 -14792.100000 0 0 1
34.910877 12.750903 -27.373264 46.158970 0.350188 2.205603 0.113904 -0.002858 77973.900000 0 0 1
34.595177 13.772703 -28.280274 46.757754 0.378876 2.220343 0.123640 -0.013246 -162405.000000 0 0 1
34.943977 13.635303 -29.753714 47.877830 0.372034 2.241389 0.125758 -0.026359 -1339930.000000 0 0 1
36.305477 13.758203 -29.932474 49.023758 0.362235 2.227577 0.120129 -0.017946 -969761.000000 0 0 1
36.690877 13.877503 -31.285244 50.175413 0.361597 2.244030 0.129096 -0.025341 -526433.000000 0 0 1
38.194377 13.987303 -31.559064 51.482324 0.351045 2.230658 0.120806 -0.023241 373910.000000 0 0 1
-37.276411 12.951203 -31.206324 50.310030 -0.334390 2.239896 0.114354 -0.016969 567546.000000 0 0 1
-37.026811 12.867903 -29.818504 49.251506 -0.334472 2.221107 0.083020 -0.014869 -284051.000000 0 0 1
-35.874711 11.888003 -29.433084 47.902254 -0.319988 2.232473 0.092667 -0.018659 370100.000000 0 0 1
-36.203911 10.542903 -29.809964 48.067764 -0.283372 2.239750 0.106521 -0.017313 854728.000000 0 0 1
-35.166811 9.608903 -29.425254 46.849559 -0.266727 2.249879 0.109580 -0.020890 534172.000000 0 0 1
-35.419911 8.174703 -29.921964 47.082054 -0.226822 2.259489 0.122323 -0.016831 -393757.000000 0 0 1
-35.229611 7.940903 -31.310834 47.796985 -0.221699 2.285084 0.141235 -0.025135 32059.000000 0 0 1
-35.523711 6.667503 -31.828594 48.160659 -0.185533 2.292792 0.144154 -0.031008 -590442.000000 0 0 1
-36.888011 5.996903 -31.696914 49.003904 -0.161161 2.274209 0.169027 -0.016518 -656898.000000 0 0 1
-37.126211 5.536603 -30.392784 48.298352 -0.148038 2.251412 0.179754 -0.019783 590069.000000 0 0 1
37.923677 5.201903 -30.101024 48.696373 0.136317 2.237167 0.151166 -0.001537 261969.000000 0 0 1
37.748677 4.572503 -28.687874 47.632600 0.120543 2.217143 0.160024 -0.023869 -215876.000000 0 0 1
-38.081011 3.303503 -28.670454 47.781497 -0.086533 2.214338 0.200577 -0.017168 172165.000000 0 0 1
38.053077 2.586703 -27.470764 47.003943 0.067872 2.194980 0.203365 -0.030475 551038.000000 0 0 1
-37.495011 1.229803 -27.272444 46.380755 -0.032787 2.199395 0.234247 -0.036343 1428810.000000 0 0 1
-36.142111 1.394103 -26.807994 45.020709 -0.038554 2.208633 0.216659 -0.037784 597962.000000 0 0 1
-35.462811 0.195503 -26.859694 44.486991 -0.005513 2.219012 0.228332 -0.035968 -228759.000000 0 0 1
-34.205211 0.160503 -25.973324 42.949223 -0.004692 2.220242 0.212663 -0.035149 -269638.000000 0 0 1
-34.467311 0.098503 -24.608894 42.350949 -0.002858 2.190840 0.191907 -0.025695 416145.000000 0 0 1
-33.358911 0.460103 -23.776794 40.967848 -0.013792 2.189988 0.208321 -0.016242 325869.000000 0 0 1
-33.648911 0.422903 -22.274594 40.355738 -0.012567 2.155505 0.192170 -0.002200 -473532.000000 0 0 1
-33.902811 -0.880097 -21.909994 40.376020 0.025954 2.144384 0.189813 -0.009678 367667.000000 0 0 1
-34.449211 -0.939597 -20.572294 40.135399 0.027268 2.108974 0.164383 -0.008861 649999.000000 0 0 1
-35.999111 -0.846697 -20.447894 41.409772 0.023516 2.087244 0.166297 -0.009421 510072.000000 0 0 1
-36.779011 -2.033197 -20.669994 42.238350 0.055225 2.082158 0.161570 -0.016180 455155.000000 0 0 1
-38.145511 -1.895397 -20.356194 43.278715 0.049648 2.060485 0.154359 -0.017333 703879.000000 0 0 1
37.383177 -3.234497 -20.350594 42.686188 -0.086308 2.067749 0.147314 -0.015038 432006.000000 0 0 1
37.043777 -3.902497 -21.542794 43.029791 -0.104961 2.095144 0.147434 -0.013562 151526.000000 0 0 1
38.150977 -4.401697 -22.255894 44.386900 -0.114868 2.096020 0.133165 -0.019006 -52594.800000 0 0 1
37.683977 -5.376397 -23.332094 44.647222 -0.141714 2.120680 0.128189 -0.019223 -591455.000000 0 0 1
37.238077 -6.578297 -22.780694 44.146443 -0.174851 2.113001 0.139675 -0.011260 188262.000000 0 0 1
36.517977 -7.463197 -23.599094 44.115522 -0.201594 2.135231 0.141207 -0.010254 -282983.000000 0 0 1
35.058177 -7.125897 -23.885994 43.016217 -0.200527 2.159495 0.108000 -0.011055 -834297.000000 0 0 1
35.005477 -6.085197 -24.852994 43.359940 -0.172116 2.181176 0.115603 -0.019703 -434303.000000 0 0 1
33.678977 -5.686697 -25.038894 42.350422 -0.167272 2.203381 0.077748 -0.011324 -274636.000000 0 0 1
33.553977 -4.439897 -25.957004 42.653818 -0.131557 2.225029 0.103340 -0.040876 -88898.100000 0 0 1
33.610777 -4.786697 -27.337184 43.588054 -0.141464 2.248713 0.092801 -0.043657 263160.000000 0 0 1
33.276377 -3.690897 -28.090654 43.703831 -0.110465 2.268879 0.098030 -0.047673 -149122.000000 0 0 1
33.141577 -3.987597 -29.621734 44.628603 -0.119744 2.296603 0.102290 -0.030611 116352.000000 0 0 1
32.582677 -2.843097 -30.275884 44.568411 -0.087037 2.317622 0.093122 -0.040274 191075.000000 0 0 1
31.927277 -3.278097 -31.456474 44.940035 -0.102315 2.346146 0.092335 -0.040171 -973074.000000 0 0 1
31.471877 -2.063697 -32.298414 45.143388 -0.065479 2.368083 0.086382 -0.031110 -1405100.000000 0 0 1
30.509277 -1.228297 -31.736084 44.039798 -0.040238 2.375497 0.063462 -0.022047 -229679.000000 0 0 1
29.246177 -1.736097 -31.364694 42.919657 -0.059292 2.390256 0.061620 -0.026090 -358629.000000 0 0 1
28.356777 -2.028997 -32.603834 43.257759 -0.071431 2.424486 0.090133 -0.024625 -1131650.000000 0 0 1
28.945677 -2.975097 -33.473804 44.353117 -0.102422 2.426010 0.104710 -0.031834 -203743.000000 0 0 1
28.108877 -3.299597 32.787917 43.313321 -0.116852 0.712096 0.102320 -0.028409 -273539.000000 0 0 1
28.616277 -4.535697 32.035726 43.194347 -0.157193 0.735247 0.076964 -0.021730 33604.200000 0 0 1
29.907077 -4.574597 31.473932 43.657400 -0.151784 0.765653 0.088558 -0.016966 -88885.400000 0 0 1
30.074377 -3.829997 30.276122 42.846010 -0.126669 0.786077 0.101041 -0.019431 -400494.000000 0 0 1
30.779177 -2.486097 30.509292 43.409162 -0.080597 0.791427 0.084803 -0.012618 -612325.000000 0 0 1
32.125577 -2.597597 30.868002 44.627724 -0.080682 0.806987 0.089322 -0.015346 -438981.000000 0 0 1
32.699977 -1.394697 31.293624 45.282718 -0.042625 0.807825 0.076439 -0.006936 159470.000000 0 0 1
34.098477 -1.452097 31.950018 46.750598 -0.042560 0.818367 0.076271 -0.013259 505151.000000 0 0 1
35.103977 -1.898697 31.046602 46.901874 -0.054035 0.847382 0.105612 -0.021364 84842.900000 0 0 1
36.394477 -1.882497 31.613762 48.244499 -0.051679 0.856240 0.114999 -0.021247 422150.000000 0 0 1
37.551477 -2.390697 30.692792 48.557969 -0.063579 0.886555 0.142520 -0.024841 162533.000000 0 0 1
37.774177 -1.752397 29.444282 47.926247 -0.046358 0.909213 0.150527 -0.022260 252768.000000 0 0 1
-37.678911 -2.508897 28.685802 47.422253 0.066488 0.921154 0.159684 -0.030248 441431.000000 0 0 1
-37.044511 -1.749997 27.462902 46.147256 0.047205 0.933388 0.157632 -0.034185 429098.000000 0 0 1
-37.957211 -1.434697 26.413842 46.265530 0.037780 0.963172 0.171434 -0.045156 -103277.000000 0 0 1
-37.237411 -0.995897 25.318312 45.040354 0.026738 0.973843 0.155941 -0.047445 -196650.000000 0 0 1
-28.158993 14.882803 11.700806 33.931336 -0.486208 1.218730 0.184695 -0.029502 140715.000000 0 0 1
-29.322693 14.196303 12.103206 34.754035 -0.450880 1.215089 0.130493 -0.018685 297100.000000 0 0 1
-30.277313 15.079203 12.694706 36.128293 -0.462075 1.211753 0.155041 -0.022662 331239.000000 0 0 1
-31.520643 14.351803 13.258006 37.085036 -0.427265 1.205204 0.153543 -0.021332 -186493.000000 0 0 1
-32.363603 15.160003 13.993806 38.380400 -0.438072 1.197584 0.140055 -0.023914 -528630.000000 0 0 1
-33.463363 14.413903 14.490106 39.211228 -0.406720 1.192283 0.148242 -0.025454 -256131.000000 0 0 1
-34.317562 15.103903 15.497906 40.571024 -0.414609 1.178843 0.129215 -0.027783 -359162.000000 0 0 1
-33.616013 15.565903 16.654706 40.616658 -0.433653 1.148292 0.104788 -0.012782 -46097.800000 0 0 1
-34.469638 16.242603 17.561206 41.956811 -0.440355 1.138943 0.111006 -0.031334 131946.000000 0 0 1
-33.797493 16.682703 18.877306 42.153716 -0.458521 1.106470 0.139716 -0.020759 294612.000000 0 0 1
-33.287103 15.577503 19.657706 41.678714 -0.437700 1.079637 0.128785 -0.022889 317037.000000 0 0 1
-32.245013 15.794103 20.615406 41.402771 -0.455467 1.049594 0.102517 -0.019823 477461.000000 0 0 1
-32.608793 16.283803 22.050106 42.599328 -0.463142 1.026734 0.103098 -0.029099 -623471.000000 0 0 1
-33.363803 17.461303 21.963306 43.593890 -0.482161 1.042785 0.110886 -0.032411 59642.900000 0 0 1
-33.683593 18.112703 23.201706 44.732243 -0.493375 1.025490 0.110716 -0.029412 -1327240.000000 0 0 1
-34.578639 17.300303 24.147106 45.585803 -0.463902 1.012542 0.109813 -0.032244 275071.000000 0 0 1
-35.872114 16.872703 23.669806 46.170947 -0.439653 1.032521 0.162011 -0.029278 947138.000000 0 0 1
-36.748593 17.916103 23.262506 47.038176 -0.453623 1.053485 0.166849 -0.032210 -699354.000000 0 0 1
-38.173693 17.348103 22.967006 47.808690 -0.426550 1.069692 0.133646 -0.035355 406133.000000 0 0 1
37.673075 16.876203 24.174106 47.837791 0.421160 1.041026 0.143615 -0.030900 -245152.000000 0 0 1
36.967525 15.665803 24.059006 46.806528 0.400830 1.030944 0.173265 -0.035446 120305.000000 0 0 1
36.456335 14.988603 25.345106 46.862533 0.390072 0.999362 0.178625 -0.037735 -56994.400000 0 0 1
35.347605 15.696703 25.916406 46.556415 0.417909 0.980428 0.148980 -0.031236 370396.000000 0 0 1
34.825645 15.287503 27.138206 46.722752 0.413646 0.951042 0.148323 -0.020718 551335.000000 0 0 1
33.944985 13.952003 27.036506 45.583912 0.389969 0.935874 0.155532 -0.031674 430357.000000 0 0 1
34.714385 12.797403 26.571906 45.551380 0.353191 0.947963 0.150302 -0.033637 140682.000000 0 0 1
33.983195 11.615403 26.694006 44.747571 0.329350 0.931605 0.146147 -0.029648 -227272.000000 0 0 1
34.727495 10.316903 26.350506 44.797172 0.288777 0.941943 0.136689 -0.035995 218933.000000 0 0 1
35.776805 9.949003 27.262206 46.067237 0.271232 0.937517 0.125803 -0.027398 512475.000000 0 0 1
36.219425 8.628203 27.005806 45.995719 0.233862 0.943278 0.132430 -0.023210 138751.000000 0 0 1
37.331225 8.119503 27.969706 47.348191 0.214163 0.938841 0.111453 -0.020293 457604.000000 0 0 1
-37.807643 8.747403 27.828406 47.753063 -0.227365 0.948680 0.101054 -0.023194 29684.300000 0 0 1
-36.840993 7.913203 28.395006 47.182135 -0.211579 0.925022 0.124664 -0.027486 -345416.000000 0 0 1
-35.427231 8.461303 28.619206 46.322146 -0.234444 0.904817 0.130071 -0.029483 -156126.000000 0 0 1
-34.766394 8.837803 27.435906 45.161242 -0.248933 0.917874 0.104558 -0.021661 -107089.000000 0 0 1
-33.519753 9.429103 27.703006 44.496498 -0.274214 0.898750 0.087550 -0.010106 -297231.000000 0 0 1
-32.779843 10.035903 26.515606 43.339529 -0.297099 0.912448 0.071915 -0.006282 -357520.000000 0 0 1
-32.241983 9.090803 25.687706 42.214291 -0.274821 0.916618 0.068429 -0.004729 -149824.000000 0 0 1
-31.386803 9.672103 24.742606 41.120281 -0.298925 0.925152 0.058642 -0.003940 -157692.000000 0 0 1
-30.803003 8.729703 23.678906 39.821141 -0.276163 0.933989 0.072400 -0.001826 23226.400000 0 0 1
-29.894223 9.366103 22.821406 38.758289 -0.303621 0.941206 0.089446 -0.006998 239245.000000 0 0 1
-29.282733 8.450103 21.884906 37.521084 -0.280937 0.948048 0.107723 -0.002582 203051.000000 0 0 1
-28.105043 8.921703 21.020106 36.212360 -0.307380 0.951493 0.100744 -0.003314 -928309.000000 0 0 1
-26.998303 9.382003 21.747606 35.915020 -0.334449 0.920365 0.098013 -0.007546 281603.000000 0 0 1
-25.997443 10.046403 20.986006 34.888532 -0.368761 0.925399 0.096071 -0.000312 883613.000000 0 0 1
-25.103013 9.283503 19.938806 33.375150 -0.354218 0.930523 0.092419 -0.006482 -464201.000000 0 0 1
-25.845113 8.943303 18.815806 33.196190 -0.333138 0.968172 0.097885 -0.011324 323132.000000 0 0 1
-25.128113 8.185003 17.811306 31.869404 -0.314893 0.977757 0.109925 -0.028870 55789.200000 0 0 1
-24.777123 6.713403 18.112606 31.417226 -0.264599 0.956335 0.127981 -0.036087 -360580.000000 0 0 1
-23.546623 6.567103 18.792306 30.833764 -0.271986 0.915402 0.128672 -0.027128 403014.000000 0 0 1
-23.334123 5.258503 19.289106 30.727882 -0.221654 0.892150 0.135798 -0.037296 -150196.000000 0 0 1
-23.330423 4.000503 18.303706 29.922204 -0.169820 0.912576 0.172394 -0.043196 730987.000000 0 0 1
-24.694323 3.676803 17.904406 30.722894 -0.147807 0.948662 0.199115 -0.052635 1657460.000000 0 0 1
-24.756723 2.770403 16.850206 30.074904 -0.111441 0.976079 0.190635 -0.047138 -111975.000000 0 0 1
-24.661223 1.280103 17.271206 30.134849 -0.051861 0.960475 0.181346 -0.035132 82673.600000 0 0 1
-23.369523 0.826803 17.664006 29.305892 -0.035365 0.923858 0.158094 -0.031067 660088.000000 0 0 1
-23.405523 -0.416497 18.384606 29.765512 0.017793 0.905048 0.183324 -0.035353 -922290.000000 0 0 1
-22.020523 -1.010297 18.533106 28.799308 0.045848 0.871700 0.179180 -0.023644 -775989.000000 0 0 1
-21.219223 -0.516197 19.577906 28.875877 0.024322 0.825755 0.137470 -0.015360 384052.000000 0 0 1
-20.094623 -1.406497 19.749906 28.210474 0.069880 0.795271 0.106245 -0.015631 615356.000000 0 0 1
-19.171823 -0.899797 20.867306 28.351594 0.046899 0.743626 0.113367 -0.013958 270732.000000 0 0 1
-19.726523 -1.052097 22.191406 29.710286 0.053284 0.727368 0.122742 -0.015227 256388.000000 0 0 1
-18.751223 -0.600497 23.126806 29.779491 0.032013 0.681543 0.115668 -0.018758 -850518.000000 0 0 1
-19.154823 -0.796597 24.592506 31.182257 0.041563 0.662154 0.120980 -0.011820 511790.000000 0 0 1
-20.150923 0.141003 25.025206 32.130056 -0.006997 0.677931 0.124379 -0.025605 -512339.000000 0 0 1
-21.435623 -0.106697 24.560406 32.599246 0.004977 0.717573 0.147618 -0.029462 -1267440.000000 0 0 1
-22.405323 1.015703 25.003406 33.588695 -0.045302 0.731161 0.120364 -0.039096 -270042.000000 0 0 1
-22.031423 2.195203 24.335006 32.899772 -0.099312 0.738215 0.109909 -0.032116 62384.700000 0 0 1
-23.128723 2.931903 23.849906 33.351939 -0.126092 0.774032 0.101042 -0.030735 -645147.000000 0 0 1
-22.628623 4.137103 23.007806 32.535047 -0.180829 0.785309 0.119434 -0.029474 222641.000000 0 0 1
-22.014023 3.736903 21.783206 31.194385 -0.168148 0.797769 0.148124 -0.030477 962017.000000 0 0 1
-20.647723 3.323703 21.904506 30.285026 -0.159603 0.762258 0.125173 -0.029292 -39340.200000 0 0 1
-20.192923 2.567703 20.618106 28.973324 -0.126480 0.778990 0.105006 -0.022256 56781.700000 0 0 1
-19.697623 3.421803 19.537206 27.953667 -0.172000 0.796919 0.101528 -0.022210 321624.000000 0 0 1
-19.429723 2.576703 18.480806 26.938703 -0.131847 0.814775 0.115064 -0.024299 -32873.500000 0 0 1
-18.813423 3.360303 17.278706 25.764126 -0.176748 0.835712 0.080034 -0.021348 263129.000000 0 0 1
-17.478123 3.782003 17.559906 25.062693 -0.213100 0.794503 0.078196 -0.032902 409982.000000 0 0 1
-17.066923 4.549003 16.446106 24.133953 -0.260483 0.821053 0.077978 -0.026416 198375.000000 0 1 0
-15.567323 4.966503 16.464206 23.196503 -0.308826 0.781623 0.064087 -0.022565 279283.000000 0 1 0
-15.011623 5.851203 17.439206 23.742605 -0.371664 0.745850 0.062904 -0.024286 239664.000000 0 1 0
-15.647423 7.134803 17.614606 24.617506 -0.427810 0.773411 0.063828 -0.029595 -320892.000000 0 1 0
-15.344123 8.217603 16.423706 23.931344 -0.491684 0.814428 0.037317 -0.008548 63344.700000 0 1 0
-15.748323 7.934403 15.115206 23.225715 -0.466703 0.862164 0.056006 -0.014995 -189417.000000 0 1 0
-17.115423 8.018403 14.823106 24.019928 -0.438123 0.905723 0.057596 -0.014309 -245628.000000 0 1 0
-17.553223 7.442203 13.457506 23.336805 -0.401006 0.956156 0.056600 -0.022731 -25181.100000 0 1 0
-17.166823 6.098503 13.299306 22.555777 -0.341344 0.940210 0.042947 -0.026739 289045.000000 0 1 0
-17.838223 5.533303 12.185006 22.300089 -0.300782 0.992724 0.042992 -0.028210 -15757.600000 0 1 0
-17.475223 4.110303 12.093206 21.645406 -0.231009 0.977983 0.055089 -0.030010 97053.600000 0 1 0
-17.863023 3.370603 13.285506 22.515621 -0.186499 0.939667 0.069474 -0.028665 414349.000000 0 1 0
-17.482023 1.999403 13.160306 21.972992 -0.113874 0.928631 0.054713 -0.033834 -625257.000000 0 1 0
-18.155823 1.075103 14.202406 23.075920 -0.059146 0.907821 0.059335 -0.034138 526898.000000 0 1 0
-19.560823 1.018803 13.943706 24.043516 -0.052037 0.952146 0.098977 -0.032876 397602.000000 0 1 0
-20.265023 0.351703 14.951306 25.186035 -0.017353 0.935228 0.136291 -0.041591 221907.000000 0 0 1
-21.795923 0.257203 14.717006 26.300545 -0.011800 0.976929 0.155709 -0.050934 97614.300000 0 0 1
-22.109823 -0.610997 13.664906 25.998985 0.027628 1.017383 0.167711 -0.047356 407321.000000 0 0 1
-23.511623 -0.589197 13.433106 27.084901 0.025055 1.051853 0.216076 -0.059271 185123.000000 0 0 1
-24.002523 -1.393297 12.247506 26.982657 0.057983 1.099656 0.226966 -0.068417 -200425.000000 0 0 1
-23.801923 -2.735297 12.443906 26.997484 0.114417 1.091755 0.189252 -0.054889 205012.000000 0 0 1
-24.143423 -3.449397 11.270006 26.866638 0.141911 1.137924 0.192606 -0.049319 -138515.000000 0 0 1
-23.999423 -4.984397 11.433506 27.047025 0.204777 1.134344 0.148126 -0.052126 607295.000000 0 0 1
-25.055163 -5.560597 12.232806 28.431021 0.218394 1.126013 0.148110 -0.047823 677145.000000 0 0 1
-25.034003 -7.027497 12.150306 28.700469 0.273674 1.133658 0.138151 -0.037563 -319067.000000 0 0 1
-25.612063 -7.768597 13.315606 29.893715 0.294498 1.109140 0.135680 -0.034650 928699.000000 0 0 1
-26.945703 -7.272897 13.600506 31.047378 0.263627 1.117361 0.178050 -0.044777 1109600.000000 0 0 1
-27.464193 -7.843097 14.767506 32.153931 0.278171 1.093617 0.173192 -0.027235 -443833.000000 0 0 1
-28.714163 -7.120297 15.326406 33.318170 0.243069 1.092800 0.187956 -0.036902 71373.300000 0 0 1
-29.986583 -7.208797 14.714906 34.171484 0.235924 1.125617 0.161801 -0.030059 571091.000000 0 0 1
-30.606893 -8.450997 14.548006 34.926289 0.269402 1.141166 0.166818 -0.049490 -505791.000000 0 0 1
-31.199323 -9.073197 15.856106 36.154346 0.283008 1.116793 0.154628 -0.045913 -769074.000000 0 0 1
-30.195343 -9.423497 16.746206 35.791010 0.302506 1.083896 0.170294 -0.018142 -167732.000000 0 0 1
-30.559263 -10.547197 17.512106 36.766639 0.332338 1.074350 0.151420 -0.017931 -23631.600000 0 0 1
-29.510843 -10.658797 18.621606 36.486490 0.346602 1.035181 0.162017 -0.018316 756900.000000 0 0 1
-28.274293 -11.163397 18.121706 35.390016 0.376037 1.033218 0.143452 -0.010497 -71796.800000 0 0 1
-27.188643 -11.144597 18.990906 34.986838 0.389011 0.997027 0.137563 -0.018269 -175255.000000 0 0 1
-26.072633 -12.107697 18.529306 34.201077 0.434751 0.998248 0.111076 -0.008522 -355330.000000 0 0 1
-25.555063 -11.703997 17.313206 33.011995 0.429480 1.018725 0.108819 -0.003872 -194468.000000 0 0 1
-24.544423 -12.590397 16.913106 32.357378 0.473965 1.020785 0.102683 -0.016569 -203908.000000 0 0 1
-24.122923 -12.414597 15.432206 31.212026 0.475290 1.053616 0.104187 -0.010257 156952.000000 0 0 1
-23.257223 -11.313397 15.188006 29.992780 0.452746 1.039805 0.099041 -0.014464 94907.800000 0 0 1
-22.793923 -11.291297 13.861106 28.968716 0.459932 1.071867 0.116775 -0.012288 -486856.000000 0 0 1
-21.567223 -10.445997 13.600106 27.554071 0.451046 1.054596 0.113091 -0.028372 -961738.000000 0 0 1
-21.732923 -9.043197 13.572806 27.172051 0.394313 1.047759 0.104175 -0.037534 373488.000000 0 0 1
-20.600823 -8.242597 13.199306 25.817745 0.380601 1.034158 0.105905 -0.047262 377282.000000 0 0 1
-20.056623 -8.403197 11.727006 24.706365 0.396755 1.076224 0.131986 -0.044806 12319.300000 0 1 0
-19.192423 -9.508797 11.413806 24.270172 0.459997 1.081187 0.114739 -0.050470 746809.000000 0 1 0
-18.946523 -9.618097 10.011006 23.488268 0.469744 1.130494 0.130072 -0.044676 -702064.000000 0 1 0
-18.314323 -10.863897 9.424506 23.286476 0.535398 1.154124 0.098624 -0.038624 996801.000000 0 1 0
-16.892123 -10.984397 9.614506 22.325758 0.576563 1.125588 0.113981 -0.049031 1136950.000000 0 1 0
-16.450823 -11.327097 10.902006 22.754920 0.602995 1.071161 0.117521 -0.041022 245927.000000 0 1 0
-14.924523 -11.664897 11.040406 21.924911 0.663416 1.043087 0.118687 -0.039399 785572.000000 0 1 0
-14.524123 -12.973597 10.706406 22.223669 0.729070 1.068138 0.110567 -0.045077 -39742.600000 0 1 0
-13.144923 -13.171497 10.872706 21.552101 0.786408 1.042011 0.113414 -0.044909 -311089.000000 0 1 0
-12.843923 -14.646997 10.867706 22.307126 0.850892 1.061932 0.123829 -0.043714 -192412.000000 0 1 0
-13.110023 -15.351397 9.653406 22.376915 0.863987 1.124752 0.108281 -0.044765 643463.000000 0 1 0
-12.560923 -16.733397 9.731206 23.075522 0.926879 1.135465 0.102722 -0.043068 559839.000000 0 1 0
-13.057723 -17.713797 8.629406 23.637880 0.935570 1.197092 0.101088 -0.029461 158588.000000 0 1 0
-12.369123 -17.511697 7.405506 22.682509 0.955831 1.238214 0.091312 -0.037314 -5000.470000 0 1 0
-12.754223 -18.458797 6.447606 23.344571 0.966166 1.290966 0.070810 -0.034015 -5677.530000 0 1 0
-12.187223 -18.116897 5.023806 22.405110 0.978629 1.344648 0.075555 -0.034488 229489.000000 0 1 0
-12.598923 -19.039897 3.989606 23.176873 0.986232 1.397797 0.104825 -0.037656 218719.000000 0 1 0
-11.763323 -18.897697 2.866706 22.443634 1.014016 1.442717 0.119231 -0.046317 -13136.000000 0 1 0
-12.167823 -19.797197 1.691206 23.299036 1.019694 1.498146 0.131065 -0.044250 -291259.000000 0 1 0
-11.897023 -21.211097 1.898106 24.393699 1.059633 1.492906 0.148193 -0.050300 -201632.000000 0 1 0
-12.112823 -22.057397 0.814206 25.177612 1.068606 1.538452 0.149385 -0.046363 -3591.770000 0 0 1
-11.104823 -21.979597 -0.374894 24.628445 1.102971 1.586019 0.159195 -0.048956 -49180.600000 0 1 0
-11.176123 -20.856897 -1.218694 23.693904 1.078883 1.622254 0.148269 -0.056948 -115515.000000 0 1 0
-12.198623 -20.719897 -2.168994 24.141770 1.038698 1.660762 0.145780 -0.052034 485933.000000 0 1 0
-13.492923 -19.876497 -1.887294 24.097634 0.974415 1.649195 0.161101 -0.053295 232806.000000 0 1 0
-14.463223 -20.442097 -1.083994 25.064700 0.955040 1.614058 0.154901 -0.043697 -753361.000000 0 0 1
-15.481923 -19.491297 -0.967294 24.910565 0.899541 1.609637 0.163723 -0.036734 -346709.000000 0 1 0
27.228777 -19.847997 -3.767594 33.904927 -0.629882 1.682149 0.134175 -0.033274 -217266.000000 0 0 1
25.924977 -20.066697 -3.311194 32.950581 -0.658703 1.671456 0.096240 -0.033814 -283078.000000 0 0 1
25.840677 -21.194197 -2.440494 33.509560 -0.686930 1.643691 0.077681 -0.021946 -853994.000000 0 0 1
24.416177 -21.426697 -1.969694 32.544320 -0.720279 1.631357 0.074434 -0.023091 -685166.000000 0 0 1
23.548877 -21.777897 -3.018794 32.217069 -0.746347 1.664636 0.091114 -0.030986 -715629.000000 0 0 1
22.350477 -22.235497 -2.492394 31.625515 -0.782819 1.649688 0.069226 -0.023498 -909056.000000 0 0 1
21.342577 -22.782797 -3.488394 31.412264 -0.818026 1.682078 0.082362 -0.029686 -294648.000000 0 0 1
20.800677 -21.757697 -4.301494 30.406716 -0.807882 1.712738 0.083496 -0.031423 -885630.000000 0 0 1
19.852277 -22.253997 -5.155894 30.264443 -0.842376 1.741993 0.081776 -0.031133 -1153370.000000 0 0 1
18.754577 -21.280597 -5.553794 28.904024 -0.848410 1.764145 0.075097 -0.020755 -992257.000000 0 0 1
17.758777 -21.032197 -4.634394 27.914245 -0.869585 1.737591 0.081722 -0.015445 -564004.000000 0 0 1
18.164177 -20.390297 -3.436694 27.522943 -0.843074 1.695990 0.077034 -0.021373 -1100320.000000 0 0 1
17.042577 -19.846297 -2.552994 26.283887 -0.861257 1.668081 0.080884 -0.007957 -562119.000000 0 0 1
16.298677 -20.852997 -1.941994 26.538005 -0.907377 1.644040 0.071296 -0.018655 -513840.000000 0 0 1
15.407677 -20.212797 -1.095794 25.439230 -0.919486 1.613885 0.071241 -0.006489 -630973.000000 0 0 1
15.288377 -21.007197 0.235106 25.982534 -0.941676 1.561748 0.077983 -0.008431 -304192.000000 0 0 1
14.380777 -22.081497 0.263706 26.352776 -0.993536 1.560789 0.062459 -0.013256 -102448.000000 0 0 1
13.758677 -22.151897 1.523306 26.121412 -1.015002 1.512447 0.046577 -0.014639 349482.000000 0 0 1
12.670777 -23.286797 1.642306 26.561639 -1.072480 1.508927 0.055339 -0.023278 524150.000000 0 0 1
13.262377 -24.565797 1.653006 27.966077 -1.075762 1.511654 0.066913 -0.023423 196290.000000 0 0 1
12.341977 -25.568447 1.279506 28.420187 -1.121081 1.525760 0.061015 -0.016869 22403.800000 0 0 1
12.772477 -26.962607 1.759706 29.886701 -1.128400 1.511883 0.064387 -0.017115 79827.700000 0 0 1
12.536477 -27.065897 3.155106 29.994678 -1.137033 1.465413 0.076228 -0.027519 176447.000000 0 0 1
13.224477 -28.128227 3.758906 31.308358 -1.131313 1.450445 0.072445 -0.033015 98276.100000 0 0 1
12.588177 -28.366057 5.152506 31.458603 -1.153130 1.406268 0.082086 -0.031389 228628.000000 0 0 1
13.330677 -29.367507 5.855406 32.778700 -1.144682 1.391198 0.078001 -0.032659 66878.000000 0 0 1
12.974177 -29.486567 7.204806 33.010545 -1.156287 1.350768 0.087143 -0.031444 -343399.000000 0 0 1
13.858277 -30.510857 7.925606 34.435148 -1.144448 1.338554 0.090600 -0.027835 40176.800000 0 0 1
13.538677 -30.777237 9.293606 34.884168 -1.156379 1.301126 0.083049 -0.022627 -73170.600000 0 0 1
12.586277 -31.818517 9.415606 35.489238 -1.194119 1.302272 0.074777 -0.026002 197977.000000 0 0 1
12.473177 -32.158767 10.918006 36.179680 -1.200797 1.264246 0.077465 -0.017761 -252753.000000 0 0 1
13.534377 -32.936637 11.396906 37.388379 -1.180910 1.261042 0.083850 -0.024179 -218118.000000 0 0 1
13.559077 -33.081417 12.833406 37.985853 -1.181810 1.226168 0.095922 -0.016253 103542.000000 0 0 1
12.390677 33.487733 13.406406 38.140384 1.216411 1.211622 0.094155 -0.028928 177288.000000 0 0 1
12.401577 32.139280 12.916206 36.790771 1.202530 1.212081 0.106460 -0.035709 651285.000000 0 0 1
11.175877 31.461673 13.278906 35.931413 1.229477 1.192258 0.093200 -0.031236 835326.000000 0 0 1
10.953877 30.134733 12.470006 34.403352 1.222149 1.199885 0.113395 -0.031743 -310223.000000 0 0 1
10.681777 30.324373 11.110806 34.016437 1.232118 1.238060 0.094191 -0.030503 102305.000000 0 0 1
11.713977 30.835633 10.261506 34.544928 1.207750 1.269197 0.071763 -0.020068 95653.500000 0 0 1
11.195477 31.161413 8.870006 34.278993 1.225884 1.309059 0.064377 -0.017880 244696.000000 0 0 1
10.252977 32.225307 8.863106 34.959242 1.262758 1.314472 0.073060 -0.019291 -169188.000000 0 0 1
9.775677 32.380582 7.537006 34.653606 1.277598 1.351548 0.072796 -0.024856 -10688.600000 0 0 1
10.100177 33.645993 6.666906 35.756315 1.279166 1.383245 0.074435 -0.009819 91794.900000 0 0 1
9.478177 -32.607017 7.183906 34.708239 -1.287913 1.362309 0.069348 -0.013068 303264.000000 0 0 1
9.913877 -31.479607 6.408306 33.620187 -1.265699 1.379014 0.084080 -0.028814 227961.000000 0 0 1
9.141077 -30.286687 7.000406 32.401364 -1.277672 1.353026 0.061813 -0.021047 280876.000000 0 0 1
9.631377 -29.891607 8.269906 32.475574 -1.259090 1.313311 0.083267 -0.028829 405919.000000 0 0 1
8.934977 -28.670617 8.608806 31.240192 -1.268693 1.291616 0.092786 -0.025953 69200.200000 0 0 1
9.484977 -27.390587 7.948406 30.056383 -1.237434 1.303163 0.106829 -0.031313 5699.920000 0 0 1
10.539377 -26.867897 8.755206 30.159840 -1.196974 1.276263 0.105766 -0.027584 -81030.200000 0 0 1
11.305277 -25.840037 8.158006 29.361026 -1.158377 1.289239 0.085696 -0.036978 -480615.000000 0 0 1
10.686677 -24.694797 7.332206 27.889053 -1.162380 1.304763 0.101434 -0.037039 -730695.000000 0 0 1
10.278177 -25.197307 6.075806 27.882981 -1.183492 1.351130 0.103160 -0.038468 -565998.000000 0 0 1
9.703777 -24.250497 5.289006 26.650018 -1.190163 1.371008 0.102719 -0.032131 -169559.000000 0 0 1
9.366577 -24.660097 3.829006 26.655476 -1.207800 1.426650 0.068607 -0.025448 154525.000000 0 0 1
8.343777 -25.615477 3.690006 27.191679 -1.255903 1.434673 0.049175 -0.023343 -541574.000000 0 0 1
8.770277 -26.960217 3.794606 28.603672 -1.256289 1.437743 0.043634 -0.024024 -267080.000000 0 0 1
7.686277 -28.002897 3.565906 29.256739 -1.302912 1.448609 0.044197 -0.023188 138135.000000 0 0 1
6.640877 -28.084647 4.563706 29.217735 -1.338602 1.413958 0.054990 -0.019350 818942.000000 0 0 1
5.550577 -28.917837 4.133406 29.734411 -1.381160 1.431334 0.051532 -0.019557 531038.000000 0 0 1
5.754277 -30.420457 4.268806 31.252817 -1.383847 1.433779 0.050983 -0.018327 114864.000000 0 0 1
6.827077 -31.085247 3.588706 32.027806 -1.354604 1.458511 0.044211 -0.011868 402083.000000 0 0 1
6.818477 -32.448197 4.001806 33.397478 -1.363676 1.450684 0.054723 -0.010596 381662.000000 0 0 1
7.860677 -33.329067 3.229406 34.395436 -1.339179 1.476767 0.062821 -0.013308 85852.100000 0 0 1
7.579577 -33.543947 1.862906 34.440046 -1.348569 1.516679 0.071743 -0.013538 225158.000000 0 0 1
8.500577 33.033375 1.101106 34.127352 1.318928 1.538526 0.067001 -0.009894 -111514.000000 0 0 1
8.109977 32.644708 -0.364394 33.638988 1.327294 1.581629 0.088080 -0.011316 633206.000000 0 0 1
7.018777 31.702352 -0.444694 32.473068 1.352915 1.584491 0.078666 -0.009957 146179.000000 0 0 1
5.746277 32.294848 -0.384794 32.804344 1.394707 1.582527 0.080825 -0.016578 -528831.000000 0 0 1
4.623877 31.310183 -0.026194 31.649779 1.424176 1.571624 0.077591 -0.019180 -80602.200000 0 0 1
4.208377 30.493653 -1.100594 30.802348 1.433654 1.606535 0.100524 -0.017315 185805.000000 0 0 1
3.302477 29.452613 -0.727994 29.646126 1.459134 1.595355 0.098719 -0.025531 275101.000000 0 0 1
3.098377 28.453533 -1.932094 28.686870 1.462331 1.638199 0.103764 -0.011038 120203.000000 0 0 1
2.396077 29.063263 -3.044394 29.320348 1.488539 1.674816 0.101967 -0.026466 385403.000000 0 0 1
2.583977 28.260833 -4.220094 28.690780 1.479617 1.718421 0.106399 -0.032899 -67998.000000 0 0 1
2.148577 29.003933 -5.490194 29.597074 1.496853 1.757375 0.114441 -0.039054 -641922.000000 0 0 1
0.814077 29.363553 -5.639494 29.911283 1.543079 1.760472 0.118963 -0.041061 -525162.000000 0 0 1
0.646077 30.381723 -6.644094 31.106438 1.549534 1.786047 0.110210 -0.043580 -341120.000000 0 0 1
0.655377 29.906983 -8.172694 31.010484 1.548886 1.837493 0.126582 -0.042807 -999434.000000 0 0 1
-0.553623 29.348263 -8.600194 30.587422 -1.551935 1.855807 0.137135 -0.044995 -259948.000000 0 0 1
-0.486023 28.756733 -9.903994 30.418334 -1.553897 1.902435 0.142808 -0.040203 48172.100000 0 0 1
-0.652023 29.865583 -11.001294 31.834049 -1.548968 1.923656 0.131413 -0.039405 655259.000000 0 0 1
0.566977 30.623863 -11.091294 32.575440 1.552284 1.918224 0.113908 -0.032751 557396.000000 0 0 1
0.288977 31.901805 -11.632794 33.957777 1.561738 1.920444 0.107291 -0.032652 17735.700000 0 0 1
0.033977 32.921251 -10.436694 34.535989 1.569764 1.877794 0.104383 -0.043595 -93612.200000 0 0 1
1.161377 33.194846 -9.663194 34.592253 1.535824 1.853909 0.096473 -0.047160 -33907.100000 0 0 1
0.646477 -33.392017 -8.607494 34.489617 -1.551439 1.823030 0.097035 -0.047491 -53282.900000 0 0 1
1.624977 -33.096387 -7.463494 33.966382 -1.521737 1.792336 0.094425 -0.044790 402565.000000 0 0 1
2.759377 -32.302007 -7.821194 33.349736 -1.485579 1.807522 0.088280 -0.042609 -8134.660000 0 0 1
3.722677 -32.300547 -6.799294 33.217677 -1.456051 1.776942 0.090212 -0.043843 36106.600000 0 0 1
5.051177 -31.650517 -7.330894 32.878741 -1.412539 1.795654 0.070349 -0.036297 329307.000000 0 0 1
5.696977 -32.461007 -8.339394 33.995853 -1.397063 1.818632 0.067194 -0.038741 373096.000000 0 0 1
6.726077 -33.258187 -7.759894 34.807514 -1.371250 1.795623 0.095005 -0.026903 -405763.000000 0 0 1
6.899377 32.925664 -8.682594 34.743175 1.364241 1.823381 0.092986 -0.028792 -583935.000000 0 0 1
5.878577 31.945834 -8.648994 33.613972 1.388815 1.831027 0.078544 -0.031651 326694.000000 0 0 1
4.694277 32.211250 -9.421694 33.887597 1.426081 1.852537 0.073196 -0.039031 531189.000000 0 0 1
3.790177 30.997383 -9.433794 32.622074 1.449126 1.864171 0.072900 -0.045021 -416711.000000 0 0 1
4.424577 29.987023 -10.254394 31.999235 1.424304 1.897009 0.076368 -0.041592 424996.000000 0 0 1
3.717877 28.763823 -10.343494 30.792337 1.442254 1.913369 0.075094 -0.040505 358066.000000 0 0 1
4.544377 27.780623 -11.261794 30.319011 1.408652 1.951359 0.069635 -0.049743 322430.000000 0 0 1
4.534777 28.237383 -12.584094 31.245375 1.411561 1.985316 0.071588 -0.040835 -159260.000000 0 0 1
5.638677 27.762663 -13.296794 31.294806 1.370419 2.009635 0.057272 -0.042438 -189883.000000 0 0 1
5.883977 28.517183 -14.656694 32.598614 1.367321 2.037126 0.055392 -0.032081 -487234.000000 0 0 1
4.954077 28.069003 -15.562894 32.474844 1.396099 2.070573 0.075390 -0.029331 -432416.000000 0 0 1
5.008477 28.743013 -16.803694 33.669122 1.398278 2.093337 0.084761 -0.018489 744424.000000 0 0 1
3.830177 28.234853 -17.733794 33.561357 1.435965 2.127510 0.086737 -0.030002 628104.000000 0 0 1
4.094177 26.956253 -18.216694 32.791002 1.420066 2.159808 0.096504 -0.021578 96371.800000 0 0 1
3.170377 26.444203 -19.164494 32.811965 1.451477 2.194531 0.097244 -0.040745 288862.000000 0 0 1
3.865777 25.275443 -19.917894 32.411646 1.419026 2.232585 0.108890 -0.039933 396328.000000 0 0 1
4.010677 24.149143 -19.076794 31.035314 1.406219 2.232777 0.105764 -0.048060 -219268.000000 0 0 1
4.905777 23.281633 -19.708194 30.895210 1.363120 2.262571 0.095013 -0.042483 4256.570000 0 0 1
5.163577 21.999363 -18.854494 29.430027 1.340255 2.266147 0.114122 -0.041045 -95525.300000 0 0 1
4.050577 21.136763 -18.807794 28.581516 1.381455 2.289010 0.120101 -0.040346 -370902.000000 0 0 1
4.342377 19.915863 -18.126194 27.277404 1.356120 2.297638 0.124609 -0.034626 490840.000000 0 0 1
3.119977 18.953663 -17.990194 26.317726 1.407649 2.323449 0.097715 -0.038285 94122.600000 0 0 1
2.322877 19.093463 -16.872594 25.585944 1.449733 2.290880 0.100663 -0.029258 -287091.000000 0 0 1
1.349277 18.074263 -16.741194 24.673207 1.496283 2.316538 0.067347 -0.012977 216866.000000 0 1 0
1.875677 17.037063 -15.699494 23.243361 1.461144 2.312357 0.075989 -0.013094 1131900.000000 0 1 0
3.079477 16.275363 -15.993694 23.025397 1.383796 2.338675 0.080653 -0.029441 770890.000000 0 1 0
2.920177 15.108363 -16.789294 22.774338 1.379868 2.399717 0.095084 -0.036285 -291427.000000 0 1 0
2.983777 15.221263 -18.316594 24.001821 1.377224 2.438945 0.081774 -0.032780 -947345.000000 0 1 0
4.202677 15.667863 -18.842794 24.863534 1.308730 2.430806 0.118475 -0.037405 -424576.000000 0 1 0
4.128377 16.111063 -20.212194 26.175230 1.319949 2.453074 0.095860 -0.042482 -454042.000000 0 0 1
4.458977 15.014563 -21.235894 26.387171 1.282115 2.506103 0.121367 -0.051822 -221413.000000 0 0 1
3.569577 13.946463 -21.414394 25.803527 1.320227 2.549728 0.102772 -0.043249 -244527.000000 0 0 1
2.388977 14.309863 -22.106494 26.441946 1.405376 2.560820 0.094372 -0.042614 -228464.000000 0 0 1
1.579977 13.106163 -22.540394 26.121585 1.450823 2.611782 0.085469 -0.033765 -372836.000000 0 0 1
1.021277 12.280363 -21.587494 24.856996 1.487824 2.622899 0.075275 -0.026032 -355364.000000 0 1 0
-0.059123 11.578363 -22.111194 24.959305 -1.565690 2.659205 0.038500 -0.018633 -552352.000000 0 1 0
-0.741023 10.630363 -21.153094 23.685589 -1.501201 2.674939 0.022497 -0.015531 -641268.000000 0 1 0
-1.539123 11.231563 -20.114994 23.089606 -1.434609 2.628379 0.025611 -0.014909 409893.000000 0 1 0
-2.162223 10.272863 -19.266994 21.941376 -1.363345 2.642699 0.021238 -0.011786 276802.000000 0 1 0
-3.095823 9.141163 -19.848194 22.070247 -1.244252 2.689006 0.018293 -0.012148 -274914.000000 0 1 0
-2.513723 8.077663 -20.590694 22.260821 -1.269101 2.751765 0.017123 -0.011851 183880.000000 0 1 0
-3.554223 7.128563 -20.829294 22.300413 -1.108278 2.776335 0.031921 -0.010454 447103.000000 0 1 0
-3.061223 5.981963 -21.704994 22.721394 -1.097799 2.841357 0.040985 -0.018520 -536285.000000 0 1 0
-2.033423 5.255363 -21.119294 21.858139 -1.201614 2.880848 0.039310 -0.002309 -266665.000000 0 1 0
-2.022723 3.888563 -21.612394 22.052390 -1.091141 2.941498 0.062104 -0.019376 -389710.000000 0 1 0
-1.067423 2.991863 -20.791094 21.032362 -1.228098 2.989980 0.059702 -0.021327 746783.000000 0 1 0
0.332477 3.293763 -20.778394 21.040463 1.470196 2.983596 0.064665 -0.019894 449222.000000 0 1 0
1.005477 2.336063 -20.035094 20.195871 1.164348 3.015328 0.061212 -0.012613 974956.000000 0 1 0
2.583877 2.446863 -20.041294 20.354779 0.758170 2.965861 0.049652 -0.018746 986199.000000 0 1 0
3.235377 1.918963 -21.131794 21.463989 0.535344 2.965428 0.070293 -0.026229 -1331180.000000 0 1 0
4.603577 1.899663 -20.943794 21.527754 0.391363 2.908143 0.093039 -0.031925 -842803.000000 0 1 0
5.287877 1.487663 -22.276394 22.943682 0.274246 2.899825 0.083560 -0.023167 213711.000000 0 1 0
6.670377 1.200063 -22.135794 23.150108 0.178005 2.844479 0.083127 -0.034567 452085.000000 0 1 0
7.276877 0.681463 -23.325594 24.443827 0.093375 2.837948 0.086646 -0.034882 -921734.000000 0 1 0
8.744577 0.372663 -23.241194 24.834646 0.042591 2.781424 0.075367 -0.043932 -840924.000000 0 1 0
9.501977 1.560563 -22.982094 24.917857 0.162782 2.744823 0.066474 -0.054915 989804.000000 0 1 0
10.903277 1.344463 -23.252594 25.717157 0.122689 2.700221 0.082590 -0.048606 854382.000000 0 0 1
13.159477 -19.760597 22.830372 32.937500 -0.983293 0.804957 0.119871 -0.018649 -486198.000000 0 0 1
13.113377 -21.065397 22.289132 33.354415 -1.013991 0.838941 0.129154 -0.018009 -719626.000000 0 0 1
11.993677 -21.275397 21.515782 32.548728 -1.057469 0.848602 0.125106 -0.006674 -759721.000000 0 0 1
12.145377 -20.813397 20.067682 31.359520 -1.042570 0.876398 0.150120 -0.025176 -130040.000000 0 0 1
12.263977 -19.399697 19.829882 30.331132 -1.007055 0.858227 0.172104 -0.026092 83855.600000 0 0 1
12.099977 -19.177997 18.447382 29.232018 -1.007944 0.887868 0.179019 -0.023879 73637.800000 0 0 1
12.151677 -17.681197 17.969482 27.985537 -0.968668 0.873563 0.202857 -0.042033 -1075940.000000 0 0 1
10.961577 -17.080097 18.258282 27.299281 -1.000225 0.838177 0.224679 -0.044502 -1213930.000000 0 0 1
10.907277 -15.762697 17.705982 26.094695 -0.965482 0.825039 0.238337 -0.047049 -64786.100000 0 0 1
9.720177 -14.977997 18.275882 25.550540 -0.995150 0.773767 0.214674 -0.047580 586705.000000 0 0 1
8.443977 -15.525097 17.928782 25.174801 -1.072655 0.778209 0.157905 -0.030764 391646.000000 0 0 1
7.394977 -14.645997 18.278382 24.561966 -1.103225 0.731499 0.119817 -0.026250 -663094.000000 0 1 0
5.984577 -15.098097 18.041482 24.274735 -1.193415 0.732925 0.057559 -0.011373 -953617.000000 0 1 0
5.609877 -14.962797 16.673282 23.094465 -1.212094 0.764165 0.039198 -0.020785 30995.400000 0 1 0
4.255777 -15.233897 16.383582 22.772901 -1.298379 0.767810 0.014716 -0.015467 160235.000000 0 1 0
3.739277 -16.721197 16.392282 23.712602 -1.350791 0.807524 0.000842 -0.001378 381668.000000 0 1 0
2.413077 -16.868697 15.890582 23.299924 -1.428710 0.820301 0.005241 -0.004619 -39091.900000 0 1 0
1.838477 -18.155997 15.926682 24.221466 -1.469880 0.853242 0.022091 -0.009632 -291544.000000 0 1 0
0.442277 -18.103697 15.341082 23.733694 -1.546371 0.867960 0.038490 -0.007288 -933203.000000 0 1 0
0.415477 -17.631097 14.016982 22.527849 -1.547236 0.899238 0.040273 -0.016472 -389686.000000 0 1 0
-0.874823 -17.571397 13.475882 22.161198 1.521051 0.917151 0.048495 -0.021496 -421888.000000 0 1 0
-1.370923 -18.778597 12.678982 22.699597 1.497921 0.978153 0.051005 -0.011923 124617.000000 0 1 0
-2.784923 -18.875297 12.734382 22.938986 1.424310 0.982263 0.050435 -0.021282 49172.500000 0 1 0
-3.157623 -20.089497 12.191582 23.710612 1.414894 1.030742 0.079086 -0.027944 965235.000000 0 1 0
-4.712123 -20.347797 12.114082 24.145142 1.343229 1.045211 0.064870 -0.032186 968369.000000 0 1 0
-5.204623 -20.881097 13.307282 25.302017 1.326523 1.016979 0.071332 -0.034016 -1290890.000000 0 0 1
-6.488223 -21.327697 13.144682 25.879535 1.275476 1.038030 0.075603 -0.037446 -1028050.000000 0 0 1
-7.193523 -21.830597 14.459182 27.154920 1.252486 1.009280 0.074265 -0.032667 1022560.000000 0 0 1
-8.622323 -21.811797 14.325582 27.483108 1.194343 1.022481 0.084382 -0.035423 302777.000000 0 0 1
-9.233423 -22.441497 15.398782 28.740204 1.180463 1.005350 0.081947 -0.027520 -145493.000000 0 0 1
-10.768323 -22.312897 15.357682 29.149280 1.121161 1.015891 0.113661 -0.034899 51649.400000 0 0 1
-11.083623 -20.972197 15.647882 28.417177 1.084616 0.987655 0.099907 -0.035864 386305.000000 0 0 1
-12.487623 -20.674797 15.590682 28.748170 1.027439 0.997601 0.086663 -0.024183 276422.000000 0 0 1
-12.859423 -19.270897 16.157782 28.245462 0.982357 0.961795 0.098605 -0.032686 -256556.000000 0 0 1
-12.818523 -19.219897 17.571682 29.025557 0.982604 0.920545 0.092386 -0.040100 -14168.100000 0 0 1
-13.289423 -17.972997 18.050482 28.730772 0.934107 0.891478 0.088517 -0.047662 -310382.000000 0 0 1
-13.814923 -18.041297 19.510582 29.950013 0.917298 0.861318 0.083762 -0.040675 -282294.000000 0 0 1
-14.993723 -18.810197 19.512882 30.973985 0.897822 0.889273 0.079705 -0.037564 -144526.000000 0 0 1
-15.202223 -19.332897 20.782882 32.199327 0.904441 0.869191 0.071025 -0.041999 485370.000000 0 0 1
-16.596123 -20.048097 20.856682 33.352041 0.879323 0.895217 0.085094 -0.041535 -149168.000000 0 0 1
-16.606323 -21.172997 20.007482 33.531553 0.905692 0.931443 0.081542 -0.042638 -184199.000000 0 0 1
-17.768823 -21.341097 19.262782 33.796867 0.876485 0.964342 0.094766 -0.033506 -315214.000000 0 0 1
-18.978223 -21.966797 19.997982 35.250991 0.858259 0.967570 0.094045 -0.033493 -451197.000000 0 0 1
-19.527923 -21.205697 21.050882 35.695391 0.826564 0.940064 0.087639 -0.035058 -270982.000000 0 0 1
-20.218223 -22.055797 21.914282 37.087335 0.828839 0.938643 0.095760 -0.023716 -476980.000000 0 0 1
-20.849323 -21.182797 23.018022 37.593011 0.793332 0.911836 0.079108 -0.016089 -150497.000000 0 0 1
-22.013923 -20.544897 22.527402 37.605710 0.750894 0.928492 0.104856 -0.019382 61293.100000 0 0 1
-22.329323 -19.581297 23.506862 37.876092 0.719923 0.901256 0.100722 -0.014947 -78414.300000 0 0 1
-23.381823 -18.568597 23.024072 37.704248 0.671162 0.913916 0.127144 -0.021524 -46637.800000 0 0 1
-22.947023 -17.720797 21.933982 36.355083 0.657589 0.923131 0.109550 -0.015028 563600.000000 0 0 1
-23.941423 -16.778097 21.455682 36.263515 0.611261 0.937680 0.116689 -0.020263 398720.000000 0 0 1
-23.536923 -16.205397 20.088982 34.930915 0.602973 0.958062 0.113654 -0.018528 184282.000000 0 0 1
-22.635123 -15.103097 20.117182 33.840114 0.588401 0.934181 0.118385 -0.021492 -109612.000000 0 0 1
-22.289523 -14.763797 18.783682 32.674443 0.585019 0.958346 0.105939 -0.017301 188599.000000 0 0 1
-20.996023 -13.922697 18.601582 31.316023 0.585537 0.934780 0.085832 -0.028092 224906.000000 0 0 1
-20.773623 -13.683097 17.216882 30.252133 0.582451 0.965370 0.080702 -0.021581 29846.600000 0 0 1
-19.772223 -12.730297 16.916782 28.968582 0.572038 0.947186 0.082535 -0.027972 -607262.000000 0 0 1
-19.383523 -12.844797 15.436182 27.910311 0.585228 0.984759 0.087209 -0.033319 -82004.900000 0 0 1
-18.697623 -11.788697 14.828582 26.616936 0.562539 0.979894 0.081726 -0.030715 586154.000000 0 0 1
-17.388623 -11.456497 15.313382 25.847924 0.582572 0.936710 0.103162 -0.052067 172277.000000 0 0 1
-16.886823 -10.167797 14.595782 24.527244 0.541973 0.933426 0.094076 -0.050508 -6260.500000 0 1 0
-17.358323 -8.932497 15.160982 24.717529 0.475255 0.910476 0.113620 -0.044589 320413.000000 0 1 0
-16.978623 -7.775197 14.422182 23.595055 0.429437 0.913173 0.109759 -0.045200 -1023170.000000 0 1 0
-17.115123 -6.335497 15.072882 23.669764 0.354529 0.880457 0.110368 -0.036299 -25581.300000 0 1 0
-16.339723 -5.992297 16.181482 23.764143 0.351502 0.821778 0.100345 -0.034871 -321000.000000 0 1 0
-14.964723 -6.233397 16.024182 22.794134 0.394683 0.791195 0.086781 -0.029348 -730726.000000 0 1 0
-14.078123 -6.148897 17.309482 23.143479 0.411797 0.725873 0.070037 -0.030614 218570.000000 0 1 0
-14.282223 -7.202697 18.319182 24.319810 0.467091 0.717789 0.069025 -0.028794 142177.000000 0 1 0
-13.536023 -8.349397 17.995382 24.016038 0.552701 0.723782 0.058685 -0.030044 -561252.000000 0 1 0
-13.622423 -9.412397 19.104982 25.281692 0.604625 0.714098 0.071796 -0.037798 27677.400000 0 0 1
-14.877223 -10.016997 19.337182 26.374203 0.592588 0.747802 0.080276 -0.041518 573387.000000 0 0 1
-15.782523 -9.237097 20.120382 27.189000 0.529521 0.737697 0.072468 -0.036005 -361601.000000 0 0 1
-17.240323 -9.673997 20.429582 28.428555 0.511345 0.768968 0.074696 -0.029046 701034.000000 0 0 1
-18.203223 -9.888497 19.421782 28.396220 0.497629 0.817624 0.084997 -0.032004 282935.000000 0 0 1
-18.480623 -8.714597 18.697082 27.695821 0.440632 0.829714 0.091869 -0.031287 -781645.000000 0 0 1
-19.556223 -8.760297 17.590682 27.724010 0.421152 0.883444 0.110546 -0.030512 -1035780.000000 0 0 1
-20.845223 -8.871297 18.038082 28.958515 0.402361 0.898360 0.124749 -0.024801 -1285010.000000 0 0 1
-21.727623 -8.466597 17.007082 28.861976 0.371569 0.940659 0.142618 -0.023426 355015.000000 0 0 1
-23.209123 -8.839597 17.334482 30.286731 0.363905 0.961433 0.115277 -0.015487 489157.000000 0 0 1
-23.793123 -7.960197 18.304282 31.056789 0.322853 0.940504 0.132145 -0.014055 1590050.000000 0 0 1
-25.231753 -7.875297 18.086282 32.027726 0.302537 0.970718 0.131158 -0.010323 1171560.000000 0 0 1
-25.878703 -6.862597 18.973282 32.814447 0.259217 0.954277 0.151176 -0.019801 -449547.000000 0 0 1
-26.239303 -7.266497 20.291382 33.956489 0.270161 0.930329 0.156371 -0.026032 329019.000000 0 0 1
-27.125133 -6.297597 20.824582 34.772054 0.228127 0.928684 0.150145 -0.030565 -668141.000000 0 0 1
-27.379013 -6.440797 22.391422 35.950938 0.231045 0.898438 0.151883 -0.022825 72921.000000 0 0 1
-26.395013 -6.234397 23.401292 35.821570 0.231945 0.858896 0.166521 -0.034447 369094.000000 0 0 1
-25.127813 -6.850797 23.182872 34.868122 0.266169 0.843473 0.163002 -0.032372 42761.400000 0 0 1
-24.066523 -6.475297 24.232332 34.761083 0.262834 0.799436 0.159529 -0.026738 95695.700000 0 0 1
-23.403523 -5.201397 24.113802 34.003747 0.218694 0.782503 0.132914 -0.025338 147043.000000 0 0 1
-22.532023 -5.055697 25.202752 34.182317 0.220723 0.741726 0.128808 -0.024910 351211.000000 0 0 1
-21.723923 -3.667597 25.231502 33.496399 0.167250 0.717792 0.119045 -0.021682 944258.000000 0 0 1
-20.848523 -3.425497 26.375332 33.794275 0.162849 0.675383 0.104267 -0.026161 586809.000000 0 0 1
-21.446623 -3.293897 27.681012 35.171662 0.152395 0.664823 0.111889 -0.033753 -42541.000000 0 0 1
-22.348723 -2.062597 27.964052 35.856769 0.092031 0.676319 0.114238 -0.043984 383483.000000 0 0 1
-23.630823 -2.184797 27.376002 36.230299 0.092193 0.714210 0.130355 -0.045730 -498449.000000 0 0 1
-24.421623 -1.141297 27.856472 37.063476 0.046699 0.720330 0.093705 -0.033991 263256.000000 0 0 1
-25.729473 -0.902597 27.065782 37.354745 0.035066 0.760399 0.095057 -0.032508 -40508.100000 0 0 1
-25.379893 -0.250397 25.829202 36.212557 0.009866 0.776649 0.089170 -0.035260 945662.000000 0 0 1
-26.526413 0.110103 25.030352 36.471649 -0.004151 0.814412 0.113277 -0.036234 832194.000000 0 0 1
-27.448023 -1.015697 24.439822 36.765887 0.036987 0.843648 0.113644 -0.031517 38314.900000 0 0 1
-28.364323 -1.579597 25.368992 38.086949 0.055632 0.841854 0.093102 -0.021435 293986.000000 0 0 1
-28.843183 -2.885697 25.086392 38.335147 0.099716 0.857412 0.082848 -0.023771 -26299.600000 0 0 1
-27.823213 -4.026397 25.278282 37.806541 0.143716 0.838442 0.097938 -0.028779 -16491.100000 0 0 1
-27.528113 -4.260397 26.655892 38.554955 0.153547 0.807407 0.079541 -0.026847 -270969.000000 0 0 1
-26.605393 -5.316297 26.684412 38.054799 0.197223 0.793703 0.103480 -0.030848 -370012.000000 0 0 1
-26.294253 -5.624397 28.119442 38.906613 0.210727 0.763035 0.071281 -0.018652 -392164.000000 0 0 1
-27.334563 -6.216797 28.826812 40.209600 0.223630 0.771431 0.085958 -0.024477 61122.100000 0 0 1
-26.791613 -6.983597 29.902952 40.752272 0.254989 0.746936 0.084123 -0.019962 579954.000000 0 0 1
-27.951973 -7.351297 30.889372 42.302572 0.257174 0.752181 0.075253 -0.017626 727842.000000 0 0 1
-28.828683 -8.310997 30.303682 42.643625 0.280679 0.780408 0.067665 -0.021605 1053420.000000 0 0 1
-30.071563 -8.533097 31.003232 44.026276 0.276492 0.789503 0.078126 -0.024713 504521.000000 0 0 1
-31.152393 -9.076497 30.090432 44.252553 0.283510 0.823074 0.058344 -0.029658 -684641.000000 0 0 1
-31.054473 -10.480697 29.840822 44.324936 0.325490 0.832230 0.063755 -0.028890 411017.000000 0 0 1
-31.992383 -10.895097 28.864392 44.445121 0.328234 0.863950 0.039147 -0.031864 73667.300000 0 0 1
-31.432343 -12.210397 28.289152 44.015475 0.370524 0.872767 0.050189 -0.031955 521013.000000 0 0 1
-30.209553 -12.079697 27.572822 42.647352 0.380389 0.867768 0.063422 -0.028543 -280734.000000 0 0 1
-29.655353 -13.290597 27.245262 42.407360 0.421330 0.873085 0.071645 -0.025930 496794.000000 0 0 1
-28.355913 -13.032197 26.341662 40.838451 0.430803 0.869745 0.107761 -0.036702 1166690.000000 0 0 1
-27.235623 -12.398697 26.946162 40.269125 0.427201 0.837729 0.098940 -0.040323 244137.000000 0 0 1
-27.416643 -11.086297 27.601622 40.452785 0.384263 0.819869 0.098211 -0.045830 -1215840.000000 0 0 1
-27.573463 -9.837397 26.719432 39.635820 0.342694 0.831019 0.095770 -0.033790 -245743.000000 0 0 1
-26.384723 -9.417097 26.108102 38.294494 0.342822 0.820615 0.098101 -0.030954 -14067.600000 0 0 1
-25.923303 -10.186897 24.978532 37.412799 0.374425 0.839753 0.098475 -0.034889 -281699.000000 0 0 1
-26.762303 -9.987697 23.703532 37.119164 0.357192 0.878146 0.109475 -0.026550 -353845.000000 0 0 1
-27.952753 -10.730197 23.762402 38.224930 0.366524 0.899953 0.093428 -0.029072 -305373.000000 0 0 1
-28.676193 -10.718497 22.548882 38.021866 0.357698 0.935954 0.124883 -0.030344 -845276.000000 0 0 1
-29.921333 -11.594797 22.571982 39.232892 0.369692 0.957785 0.119792 -0.037536 -268520.000000 0 0 1
-31.105033 -11.089197 23.145762 40.326413 0.342461 0.959462 0.109463 -0.031108 3699.820000 0 0 1
-31.008273 -10.744997 24.536812 40.975884 0.333572 0.928781 0.109812 -0.031875 -329464.000000 0 0 1
-32.443673 -10.410697 25.069812 42.302127 0.310506 0.936467 0.064402 -0.030618 -10953.800000 0 0 1
-32.815213 -9.099897 24.722262 42.081309 0.270510 0.942845 0.070037 -0.035514 460475.000000 0 0 1
-34.203820 -8.802397 24.931382 43.231438 0.251885 0.956118 0.073407 -0.027048 791064.000000 0 0 1
-34.783768 -8.800497 26.377512 44.532374 0.247806 0.936858 0.068197 -0.030978 -503914.000000 0 0 1
-35.010404 -10.100797 26.846622 45.260310 0.280881 0.935818 0.058508 -0.046185 -95410.400000 0 0 1
-35.598086 -9.933097 28.108652 46.432601 0.272113 0.920572 0.105376 -0.049415 -1012100.000000 0 0 1
-36.045153 -11.297797 28.777432 47.487196 0.303736 0.919769 0.112572 -0.033492 -234515.000000 0 0 1
-37.256793 -11.804297 28.297032 48.250720 0.306830 0.944117 0.087306 -0.034287 -97721.300000 0 0 1
38.019245 -11.199497 28.909972 49.057907 -0.286472 0.940600 0.124023 -0.032815 800490.000000 0 0 1
36.636285 -11.729197 28.307352 47.760838 -0.309841 0.936402 0.133474 -0.031526 1256860.000000 0 0 1
36.377815 -11.225997 26.955352 46.647181 -0.299323 0.954697 0.143581 -0.024856 -1414850.000000 0 0 1
35.199595 -11.745497 26.532912 45.617580 -0.322065 0.950056 0.153156 -0.022515 -1178330.000000 0 0 1
34.876845 -11.315297 25.029002 44.394608 -0.313721 0.971835 0.156275 -0.032105 -25617.600000 0 0 1
34.709855 -9.928197 24.862292 43.834652 -0.278595 0.967714 0.161253 -0.046889 1818.350000 0 0 1
34.647805 -9.568197 23.497772 42.943755 -0.269441 0.991810 0.147129 -0.033489 -260554.000000 0 0 1
34.345425 -8.053097 23.288552 42.270761 -0.230313 0.987309 0.153614 -0.026620 551205.000000 0 0 1
32.931445 -7.829697 23.256912 41.069066 -0.233423 0.968801 0.163690 -0.024144 317796.000000 0 0 1
32.605505 -6.648897 22.585062 40.217059 -0.201161 0.974503 0.152790 -0.016011 286284.000000 0 0 1
31.122365 -6.377697 22.198382 38.756223 -0.202125 0.960916 0.163788 -0.012120 566865.000000 0 0 1
30.648765 -7.153897 21.117682 37.900944 -0.229310 0.979809 0.155753 -0.014431 -156373.000000 0 0 1
29.243365 -7.114197 21.044482 36.724058 -0.238640 0.960582 0.158692 -0.034129 -122429.000000 0 0 1
15.894577 -16.967897 26.100952 34.954353 -0.818047 0.727686 0.140016 -0.024111 116309.000000 0 0 1
15.413277 -18.196797 25.555262 34.953740 -0.868028 0.750839 0.140534 -0.011708 -276139.000000 0 0 1
16.396377 -19.142897 25.614222 35.935777 -0.862526 0.777346 0.122505 -0.015821 -1387720.000000 0 0 1
15.858477 -20.622397 25.500482 36.428685 -0.915250 0.795383 0.123588 -0.025252 734131.000000 0 0 1
14.973877 -21.167297 26.536332 37.100517 -0.955117 0.773807 0.117261 -0.023192 1356930.000000 0 0 1
13.686977 -20.527997 26.544172 36.239827 -0.982738 0.748870 0.122920 -0.026881 -532965.000000 0 0 1
12.908577 -21.013097 27.723412 37.104840 -1.019920 0.727011 0.113544 -0.020379 -352489.000000 0 0 1
13.340777 -20.496297 29.026412 37.955330 -0.993798 0.700140 0.117819 -0.027132 -299471.000000 0 0 1
12.337777 -19.754397 29.612662 37.674483 -1.012515 0.666462 0.102111 -0.036920 -348880.000000 0 0 1
12.124177 -18.295997 29.181982 36.514754 -0.985567 0.644861 0.121173 -0.027472 109316.000000 0 0 1
13.215477 -17.466597 29.501992 36.743685 -0.923075 0.638630 0.126708 -0.014635 -104923.000000 0 0 1
13.005877 -16.150597 28.952372 35.612280 -0.892839 0.621530 0.134780 -0.019668 -26160.000000 0 0 1
13.975377 -15.158597 29.587622 36.062745 -0.825989 0.608601 0.132776 -0.015924 -77562.000000 0 0 1
13.951777 -13.886197 29.010822 35.058613 -0.783042 0.596165 0.176116 -0.018679 172543.000000 0 0 1
14.508277 -12.990197 29.986062 35.754709 -0.730248 0.575977 0.162950 -0.015303 -77412.200000 0 0 1
14.075077 -11.489997 29.769862 34.876532 -0.684623 0.547980 0.159067 -0.018160 70678.200000 0 0 1
14.367777 -10.920497 28.547382 33.773411 -0.649914 0.563741 0.194867 -0.016465 833195.000000 0 0 1
15.776477 -10.795097 28.280792 34.135532 -0.600079 0.594399 0.167461 -0.007177 548096.000000 0 0 1
16.208777 -9.960397 27.047072 33.067780 -0.551018 0.612996 0.151673 -0.015633 108636.000000 0 0 1
16.206777 -8.529297 27.162962 32.760266 -0.484450 0.593222 0.160540 -0.016487 -240995.000000 0 0 1
17.489777 -8.124197 27.557072 33.634612 -0.434856 0.610595 0.136836 -0.018667 -649522.000000 0 0 1
17.739277 -6.609097 27.432242 33.330017 -0.356637 0.604038 0.124715 -0.021967 96426.700000 0 0 1
19.104177 -6.233597 27.448122 34.018035 -0.315403 0.631963 0.101033 -0.024835 64904.400000 0 0 1
19.313977 -4.952197 26.875822 33.464366 -0.250998 0.638287 0.109284 -0.022046 261011.000000 0 0 1
20.786477 -4.628997 26.488262 33.987252 -0.219117 0.677155 0.102528 -0.021213 -411904.000000 0 0 1
21.133577 -5.247897 25.278602 33.364296 -0.243397 0.711085 0.084381 -0.020988 657557.000000 0 0 1
22.493077 -5.090197 24.868982 33.916292 -0.222552 0.747713 0.083855 -0.020130 801013.000000 0 0 1
23.670177 -5.567497 25.735112 35.405795 -0.231012 0.757055 0.090877 -0.023660 -656291.000000 0 0 1
24.212177 -4.754797 26.724132 36.373299 -0.193913 0.745545 0.088678 -0.017242 243494.000000 0 0 1
25.371177 -5.302297 27.356322 37.685267 -0.206024 0.758432 0.096903 -0.024478 500908.000000 0 0 1
26.158477 -4.192997 28.121352 38.634927 -0.158940 0.755580 0.101930 -0.023304 168871.000000 0 0 1
26.834277 -3.207297 27.296592 38.411836 -0.118958 0.780403 0.098393 -0.002594 273175.000000 0 0 1
27.148677 -2.082497 28.141812 39.158001 -0.076557 0.768904 0.095944 -0.009594 -403951.000000 0 0 1
28.017677 -1.000597 27.492102 39.265852 -0.035698 0.795185 0.103771 -0.014338 -304508.000000 0 0 1
29.351177 -1.425697 27.400662 40.178607 -0.048536 0.820342 0.097087 -0.013806 -363526.000000 0 0 1
30.100977 -0.639097 26.480842 40.096287 -0.021229 0.849403 0.096923 -0.006068 875344.000000 0 0 1
31.652377 -0.721997 26.628242 41.369766 -0.022806 0.871520 0.106905 -0.016662 691345.000000 0 0 1
32.281977 0.072203 27.596002 42.469643 0.002237 0.863499 0.095583 -0.011257 449826.000000 0 0 1
33.704377 -0.011997 27.632152 43.583495 -0.000356 0.884075 0.126771 -0.024148 373851.000000 0 0 1
34.239677 0.967603 28.641372 44.649971 0.028252 0.874391 0.134553 -0.020357 -262567.000000 0 0 1
34.101977 2.288303 28.151222 44.279482 0.067001 0.881801 0.129277 -0.017761 216560.000000 0 0 1
34.491177 3.232703 29.156752 45.279221 0.093453 0.871169 0.111270 -0.001359 56248.400000 0 0 1
34.568777 4.637803 28.497652 45.040268 0.133365 0.885742 0.114925 -0.014246 -364334.000000 0 0 1
34.855377 5.712803 29.382642 45.944239 0.162456 0.876912 0.131330 -0.017174 760281.000000 0 0 1
33.705377 6.375903 29.957312 45.542784 0.186957 0.852924 0.117277 -0.015004 426806.000000 0 0 1
33.952977 7.217803 31.244142 46.702224 0.209464 0.837924 0.099450 -0.015605 -87987.000000 0 0 1
34.100477 6.444503 32.411392 47.485498 0.186783 0.819545 0.103024 -0.009775 111019.000000 0 0 1
34.535277 7.236503 33.450822 48.621084 0.206551 0.812081 0.116377 -0.027678 -228369.000000 0 0 1
34.544577 6.516403 -32.529714 47.895445 0.186447 2.317444 0.130558 -0.014834 578207.000000 0 0 1
33.200577 6.215003 -32.138444 46.623859 0.185054 2.331337 0.095238 -0.005236 620193.000000 0 0 1
32.781277 4.843203 -32.217344 46.217162 0.146682 2.342122 0.094515 -0.005086 -20060.400000 0 0 1
33.357877 3.909903 -31.121944 45.788762 0.116678 2.318130 0.104089 -0.012576 -166417.000000 0 0 1
33.196877 2.508203 -31.313464 45.704013 0.075412 2.325587 0.092290 -0.008173 264126.000000 0 0 1
33.848477 1.738703 -30.301074 45.463146 0.051322 2.300297 0.076393 -0.006223 157882.000000 0 0 1
34.067577 0.193803 -30.622014 45.807698 0.005689 2.302974 0.077507 -0.013555 -539625.000000 0 0 1
35.064877 -0.121897 -31.573484 47.185224 -0.003476 2.303846 0.085057 -0.019795 -139610.000000 0 0 1
35.499377 -1.457697 -31.523214 47.497829 -0.041040 2.296520 0.076930 -0.024003 394658.000000 0 0 1
36.576677 -1.751497 -30.438034 47.617171 -0.047849 2.264285 0.096998 -0.032885 -619122.000000 0 0 1
36.013177 -1.620397 -29.175504 46.376553 -0.044964 2.251192 0.096445 -0.034517 -690905.000000 0 0 1
36.734377 -1.715197 -27.991984 46.215880 -0.046658 2.221415 0.125040 -0.047958 -211576.000000 0 0 1
35.833177 -1.249297 -26.767234 44.744410 -0.034850 2.212081 0.126118 -0.048469 207432.000000 0 0 1
35.401777 0.070403 -26.811564 44.408904 0.001989 2.218984 0.118987 -0.048960 270490.000000 0 0 1
34.511177 0.243103 -25.711734 43.036888 0.007044 2.211095 0.095535 -0.038015 112142.000000 0 0 1
33.800777 1.604103 -25.748874 42.521409 0.047422 2.221254 0.085284 -0.023552 480167.000000 0 0 1
32.849277 1.715703 -26.827254 42.446675 0.052182 2.254957 0.093379 -0.031246 453452.000000 0 0 1
31.950377 2.761303 -26.557934 41.638627 0.086211 2.262460 0.086171 -0.019330 64712.100000 0 0 1
31.091577 3.183603 -27.791794 41.823502 0.102039 2.297623 0.100798 -0.012734 46798.100000 0 0 1
30.122477 4.206303 -27.571164 41.051501 0.138743 2.307195 0.096443 -0.019071 344434.000000 0 0 1
29.568377 4.819203 -28.673724 41.469219 0.161564 2.334285 0.060937 -0.020784 -23057.300000 0 0 1
28.266377 5.631003 -28.442714 40.493015 0.196638 2.349575 0.053317 -0.019277 444081.000000 0 0 1
27.136077 4.839403 -28.056034 39.331000 0.176483 2.365037 0.077866 -0.015625 386443.000000 0 0 1
26.225977 5.626203 -27.333414 38.295843 0.211325 2.365625 0.083031 -0.022454 31006.700000 0 0 1
24.863177 4.875403 -27.229864 37.194256 0.193632 2.392194 0.112279 -0.014938 508077.000000 0 0 1
24.087277 4.769803 -28.445084 37.577530 0.195493 2.429461 0.115889 -0.019423 1225290.000000 0 0 1
22.868477 4.000903 -28.306984 36.609560 0.173200 2.454688 0.113284 -0.023188 801115.000000 0 0 1
22.066377 3.954003 -29.607224 37.136867 0.177305 2.493516 0.110730 -0.022085 -284331.000000 0 0 1
22.269177 2.836603 -30.478184 37.853432 0.126696 2.506747 0.107921 -0.030805 -182572.000000 0 0 1
21.634477 2.776103 -31.730294 38.504142 0.127621 2.539363 0.094221 -0.033306 -475182.000000 0 0 1
22.086077 3.779403 -32.784774 39.710454 0.169480 2.542053 0.106114 -0.037993 -272480.000000 0 0 1
23.403777 3.465403 -33.153254 40.729401 0.147002 2.521782 0.110893 -0.032240 -343836.000000 0 0 1
23.862577 4.160003 33.022044 40.953432 0.172597 0.632873 0.111720 -0.047228 795160.000000 0 0 1
25.354677 3.783003 32.712277 41.560364 0.148111 0.664699 0.129462 -0.033400 768286.000000 0 0 1
25.540177 2.392703 32.432581 41.350913 0.093411 0.669188 0.134398 -0.037007 -489023.000000 0 0 1
26.885577 2.057103 32.254965 42.041036 0.076364 0.696292 0.120968 -0.030703 -791310.000000 0 0 1
27.191977 0.600403 31.914918 41.932399 0.022077 0.705783 0.094200 -0.017998 -602164.000000 0 0 1
26.765277 0.061003 30.664152 40.702260 0.002279 0.717614 0.099948 -0.018349 1188820.000000 0 0 1
25.347977 0.084303 30.384052 39.569151 0.003326 0.695283 0.131289 -0.039539 1020880.000000 0 0 1
24.503277 -0.972497 31.196792 39.681182 -0.039668 0.666183 0.118154 -0.047995 -339046.000000 0 0 1
24.514677 -2.256197 30.604102 39.276849 -0.091776 0.677425 0.111379 -0.049238 392723.000000 0 0 1
23.739377 -3.184797 31.376002 39.473465 -0.133360 0.652014 0.125087 -0.047757 151959.000000 0 0 1
23.715077 -4.662197 30.938632 39.259902 -0.194117 0.663167 0.122671 -0.049249 -190397.000000 0 0 1
24.909177 -5.354797 31.208182 40.287611 -0.211750 0.684659 0.108955 -0.027141 -159583.000000 0 0 1
24.698977 -6.769897 31.118142 40.301486 -0.267526 0.688604 0.119413 -0.037436 -613005.000000 0 0 1
26.004277 -7.558897 31.173272 41.293247 -0.282884 0.715258 0.103904 -0.026103 -29561.300000 0 0 1
26.713077 -7.422397 29.934992 40.801767 -0.271020 0.747090 0.111237 -0.026411 -175771.000000 0 0 1
27.828777 -8.274497 29.787322 41.595585 -0.289011 0.772573 0.100747 -0.015668 201433.000000 0 0 1
28.251977 -8.255297 28.240062 40.790014 -0.284288 0.806086 0.120488 -0.019989 374046.000000 0 0 1
27.230577 -8.673597 27.346812 39.554819 -0.308364 0.807420 0.100991 -0.018889 42563.800000 0 0 1
27.638177 -8.116797 26.071022 38.851633 -0.285649 0.835185 0.135386 -0.023704 226263.000000 0 0 1
26.906277 -8.846297 24.899332 37.711821 -0.317649 0.849641 0.112026 -0.029754 -128870.000000 0 0 1
25.652877 -8.243997 24.693232 36.548451 -0.310943 0.828977 0.104351 -0.028821 -515602.000000 0 0 1
24.946477 -9.092897 23.808082 35.662757 -0.349530 0.839830 0.108348 -0.033303 556063.000000 0 0 1
23.461477 -8.667797 23.507472 34.324523 -0.353894 0.816386 0.071859 -0.026287 182708.000000 0 0 1
22.689677 -8.842597 24.652452 34.651932 -0.371612 0.779264 0.053266 -0.015201 -744068.000000 0 0 1
21.372277 -8.665797 24.190392 33.422228 -0.385212 0.761529 0.062101 -0.016305 65590.100000 0 0 1
20.250177 -8.524397 25.259412 33.477947 -0.398439 0.715891 0.061406 -0.016112 28783.100000 0 0 1
19.722577 -9.670197 25.973072 34.016073 -0.455866 0.701999 0.084183 -0.017935 254711.000000 0 0 1
20.637577 -10.448497 26.759362 35.371516 -0.468663 0.712817 0.051619 -0.015918 80405.200000 0 0 1
19.895077 -11.557497 27.587152 35.922706 -0.526274 0.695148 0.067476 -0.011597 412670.000000 0 0 1
19.248077 -12.524897 26.718782 35.231446 -0.576873 0.709974 0.102448 -0.018819 478184.000000 0 0 1
18.473677 -13.443897 27.506882 35.758127 -0.629097 0.693132 0.097260 -0.018770 231061.000000 0 0 1
19.226277 -14.708997 28.026262 37.033440 -0.653062 0.712419 0.100592 -0.009102 -491292.000000 0 0 1
18.339777 -15.735997 28.336252 37.241270 -0.709135 0.706123 0.092333 -0.006637 -145236.000000 0 0 1
18.934577 -16.928697 28.836092 38.426803 -0.729525 0.722105 0.102705 -0.003140 -314929.000000 0 0 1
19.458077 -17.947697 27.840112 38.416252 -0.745042 0.760203 0.116564 -0.011004 -491854.000000 0 0 1
20.649577 -17.589797 27.211222 38.422085 -0.705552 0.783825 0.100093 -0.007459 -131494.000000 0 0 1
20.885177 -18.394697 26.061322 38.128047 -0.722079 0.818221 0.091007 0.002654 -350464.000000 0 0 1
22.166877 -17.996897 25.327892 38.167537 -0.681944 0.845178 0.078650 -0.010682 -708318.000000 0 0 1
23.352777 -18.159797 26.046102 39.414843 -0.660950 0.848886 0.064180 -0.008057 -708913.000000 0 0 1
24.312777 -17.345697 25.429962 39.225850 -0.619689 0.865452 0.042042 -0.010723 -1387920.000000 0 0 1
25.495577 -17.021897 26.343102 40.419407 -0.588677 0.860915 0.066477 -0.013729 -326354.000000 0 0 1
26.294877 -18.143797 26.651902 41.604589 -0.603992 0.875517 0.071609 -0.011268 199080.000000 0 0 1
27.202577 -18.540397 25.625302 41.717893 -0.598248 0.909359 0.062102 -0.013311 -656352.000000 0 0 1
27.875077 -19.879197 26.014902 42.999739 -0.619499 0.921029 0.052424 -0.018316 -337076.000000 0 0 1
28.771277 -19.777497 27.073642 44.180514 -0.602222 0.911202 0.051562 -0.007094 -363645.000000 0 0 1
29.414577 -20.980897 27.486332 45.397289 -0.619585 0.920450 0.050737 -0.009693 144016.000000 0 0 1
28.651277 -22.164497 28.226232 45.922552 -0.658432 0.908856 0.059691 -0.009469 -19165.600000 0 0 1
28.186677 -21.872097 29.509402 46.299916 -0.659918 0.879738 0.073320 -0.008464 -211717.000000 0 0 1
27.892277 -23.093397 30.175692 47.136573 -0.691552 0.876069 0.088413 -0.017554 -301948.000000 0 0 1
27.305077 -22.935297 31.583393 47.635132 -0.698639 0.845941 0.083908 -0.012875 -44687.400000 0 0 1
27.247277 -24.103797 32.315387 48.658929 -0.724259 0.844480 0.077948 -0.012188 77730.800000 0 0 1
26.735477 -23.908097 33.614692 49.156183 -0.729627 0.817791 0.090574 -0.006818 -294641.000000 0 0 1
26.625977 -25.180777 -32.882864 49.237150 -0.757509 2.302108 0.085774 -0.020566 284192.000000 0 0 1
25.462077 -25.974847 -33.109404 49.185798 -0.795367 2.309256 0.122655 -0.029985 60414.100000 0 0 1
25.197277 -26.508637 32.947429 49.225437 -0.810755 0.837507 0.098555 -0.022210 -147723.000000 0 0 1
23.844277 -27.249277 32.986717 48.981590 -0.851942 0.831929 0.135405 -0.027291 94940.100000 0 0 1
23.900877 -28.589347 33.433612 50.064050 -0.874483 0.839525 0.130279 -0.033910 -930490.000000 0 0 1
22.648877 -29.153847 33.557552 49.890156 -0.910316 0.833041 0.165270 -0.039039 -1056830.000000 0 0 1
22.482077 -30.689787 -33.541524 50.718248 -0.938551 2.293387 0.132295 -0.042034 -222190.000000 0 0 1
23.009377 -31.160367 -32.346434 50.464757 -0.934749 2.266559 0.124564 -0.050200 881345.000000 0 0 1
24.395077 -31.536237 -32.406854 51.379551 -0.912388 2.253296 0.095040 -0.030081 541517.000000 0 0 1
24.932077 -32.253137 -31.110974 51.281244 -0.912729 2.222666 0.085207 -0.031236 866672.000000 0 0 1
26.270777 -32.800847 -31.254144 52.372424 -0.895496 2.210263 0.082232 -0.022504 1083540.000000 0 0 1
26.695177 -33.493537 -30.111414 52.355962 -0.897872 2.183558 0.071857 -0.025778 445905.000000 0 0 1
27.617477 -32.571657 -29.199404 51.732418 -0.867523 2.170541 0.073044 -0.027345 148480.000000 0 0 1
27.847877 -33.080827 -27.906324 51.464632 -0.871074 2.143900 0.088387 -0.033348 10220.200000 0 0 1
28.563677 -32.146867 -27.117594 50.839636 -0.844351 2.133405 0.087696 -0.030747 -410625.000000 0 0 1
28.828977 -32.602627 -25.669714 50.526977 -0.846750 2.103704 0.099002 -0.035053 958896.000000 0 0 1
29.856877 -33.593627 -25.428564 51.638907 -0.844223 2.085676 0.098852 -0.016301 1787970.000000 0 0 1
31.242277 -33.281997 -25.711354 52.391268 -0.816999 2.083754 0.115871 -0.029014 1175880.000000 0 0 1
-28.004683 -30.824456 8.615006 42.527964 0.833293 1.366812 0.071275 -0.003316 -30182.100000 0 0 1
-28.055913 -31.582756 9.792706 43.364753 0.844466 1.343010 0.072789 -0.000807 -264404.000000 0 0 1
-26.766273 -31.748356 10.319606 42.788851 0.870336 1.327220 0.054666 0.005823 -212137.000000 0 0 1
-26.619013 -32.780256 11.457806 43.753838 0.888754 1.305837 0.058794 0.003365 -100248.000000 0 0 1
-26.785823 33.257303 11.108906 44.124101 -0.892764 1.316293 0.071752 0.010380 -167181.000000 0 0 1
-28.121253 32.830203 11.230906 44.662740 -0.862502 1.316608 0.060801 -0.006331 -135208.000000 0 0 1
-28.152473 31.304303 10.962506 43.505145 -0.838359 1.316069 0.070473 -0.010831 -27126.700000 0 0 1
-27.772403 31.111803 9.659806 42.808440 -0.842049 1.343184 0.111080 -0.028962 -78768.900000 0 0 1
-27.738783 29.737103 9.378806 41.733648 -0.820152 1.344130 0.138270 -0.038976 -284453.000000 0 0 1
-27.270863 29.402403 8.004806 40.893498 -0.822991 1.373777 0.117160 -0.027563 -993206.000000 0 0 1
-25.888703 29.455303 7.919406 40.006959 -0.849753 1.371530 0.091433 -0.014626 -640483.000000 0 0 1
-25.422583 29.266403 6.566706 39.318592 -0.855568 1.402997 0.080736 -0.003222 -42590.500000 0 0 1
-23.978323 28.786503 6.346806 37.998746 -0.876272 1.402983 0.085184 -0.004763 456.203000 0 0 1
-23.636823 27.420103 6.687106 36.814112 -0.859362 1.388137 0.079368 -0.005927 186141.000000 0 0 1
-24.084823 26.443103 5.762606 36.228773 -0.832037 1.411056 0.074060 -0.015295 -504329.000000 0 0 1
-24.230823 25.052203 6.374506 35.431342 -0.802063 1.389900 0.088278 -0.013476 -235842.000000 0 0 1
-25.308653 24.869103 7.289806 36.223493 -0.776639 1.368167 0.135251 -0.023320 497161.000000 0 0 1
-25.615243 23.482403 7.550706 35.560893 -0.741985 1.356836 0.163804 -0.020156 -246907.000000 0 0 1
-26.158103 22.578503 6.448006 35.151272 -0.712082 1.386316 0.178556 -0.029773 -668949.000000 0 0 1
-27.474103 22.829603 6.012806 36.223900 -0.693330 1.404034 0.182803 -0.040195 -90460.200000 0 0 1
-27.731433 22.322103 4.754506 35.915372 -0.677745 1.438026 0.169625 -0.034589 -108492.000000 0 0 1
-27.398523 23.182003 3.538406 36.063897 -0.702228 1.472523 0.157363 -0.040468 140669.000000 0 0 1
-26.012163 23.400603 3.329006 35.146879 -0.732595 1.475937 0.145549 -0.039118 202206.000000 0 0 1
-25.827363 24.278703 2.236106 35.517718 -0.754500 1.507797 0.130903 -0.031227 402071.000000 0 0 1
-24.393023 24.852803 2.028306 34.882595 -0.794734 1.512617 0.076312 -0.021944 396200.000000 0 0 1
-24.356023 25.738103 0.954306 35.448223 -0.812981 1.543872 0.072322 -0.021200 -272657.000000 0 0 1
-23.054623 26.218703 0.720706 34.920702 -0.849525 1.550157 0.064684 -0.013535 -424496.000000 0 0 1
-22.718723 26.601003 -0.752494 34.990284 -0.863953 1.592304 0.100906 -0.011171 -33048.800000 0 0 1
-22.555323 25.480803 -1.613294 34.067824 -0.846225 1.618169 0.100758 -0.020361 1047850.000000 0 0 1
-21.279923 24.791303 -1.521294 32.707158 -0.861467 1.617326 0.101503 -0.038108 857559.000000 0 0 1
-21.127223 23.585103 -2.440094 31.758002 -0.840314 1.647706 0.120844 -0.059052 -1518.800000 0 0 1
-21.884123 22.500403 -1.929194 31.446856 -0.799282 1.632183 0.119278 -0.048755 84650.000000 0 0 1
-21.727723 21.426203 -2.849194 30.647904 -0.778411 1.663896 0.123257 -0.050039 625410.000000 0 0 1
-22.986623 21.090203 -3.735694 31.418735 -0.742399 1.689978 0.136376 -0.041364 554700.000000 0 0 1
-23.241123 21.970003 -4.795894 32.339317 -0.757290 1.719645 0.129479 -0.036492 -980705.000000 0 0 1
-24.494323 21.816103 -5.346694 33.234039 -0.727631 1.732379 0.136884 -0.030078 -711240.000000 0 0 1
-24.650923 22.486703 -6.738394 34.040061 -0.739518 1.770067 0.119738 -0.025597 -13489.600000 0 0 1
-23.943023 21.804603 -7.757594 33.299990 -0.738688 1.805918 0.118320 -0.025844 75865.200000 0 0 1
-23.623623 22.717803 -8.793994 33.933884 -0.765854 1.832939 0.109571 -0.032432 -124466.000000 0 0 1
-22.978423 22.101603 -10.067294 33.434102 -0.765950 1.876651 0.101045 -0.028343 558414.000000 0 0 1
-24.017423 21.476803 -10.827694 33.990126 -0.729611 1.895000 0.067227 -0.017360 536734.000000 0 0 1
-23.546023 20.990903 -12.077594 33.777233 -0.728090 1.936457 0.068863 -0.008269 314575.000000 0 0 1
-24.699023 20.590003 -13.042194 34.699983 -0.694917 1.956117 0.042520 -0.017879 271329.000000 0 0 1
-25.208393 19.301903 -12.889194 34.265987 -0.653470 1.956435 0.058272 -0.009020 -1032800.000000 0 0 1
-26.475193 19.202603 -13.416494 35.350787 -0.627508 1.960079 0.071008 -0.020388 -822355.000000 0 0 1
-27.015423 17.755403 -13.561094 35.056964 -0.581443 1.967988 0.138106 -0.022318 9875.260000 0 0 1
-26.374163 16.983003 -14.558094 34.582611 -0.572093 2.005306 0.124956 -0.023488 178348.000000 0 0 1
-27.147743 15.810003 -14.776294 34.717359 -0.527355 2.010440 0.150965 -0.032062 -128985.000000 0 0 1
-26.708053 15.034403 -16.016294 34.581426 -0.512706 2.052339 0.156835 -0.025389 -220783.000000 0 0 1
-25.456213 14.422603 -15.867894 33.283935 -0.515472 2.067743 0.152234 -0.030675 -243198.000000 0 0 1
-24.918123 13.983203 -17.093694 33.296204 -0.511376 2.109918 0.147184 -0.035493 502105.000000 0 0 1
-23.950523 12.749403 -16.942494 31.987856 -0.489170 2.128989 0.131219 -0.026936 1039560.000000 0 0 1
-22.662623 13.022803 -16.387494 30.850249 -0.521562 2.130807 0.124769 -0.033717 385522.000000 0 0 1
-21.893823 11.863003 -16.251994 29.735461 -0.496559 2.149038 0.115752 -0.029172 -412548.000000 0 0 1
-20.615723 12.075103 -15.448194 28.451061 -0.529856 2.144771 0.114048 -0.031571 -488147.000000 0 0 1
-19.555523 12.674903 -16.130694 28.342035 -0.575073 2.176261 0.104015 -0.026016 385952.000000 0 0 1
-18.406523 12.864903 -15.291094 27.168426 -0.610009 2.168597 0.090630 -0.018476 300913.000000 0 0 1
-17.577923 14.081003 -15.605794 27.400709 -0.675388 2.176742 0.087486 -0.019943 -845028.000000 0 0 1
-16.828923 14.014303 -16.766394 27.581249 -0.694395 2.224198 0.125881 -0.030874 -478368.000000 0 0 1
-16.251923 15.264103 -16.985794 28.029182 -0.754065 2.221824 0.123690 -0.022674 -667432.000000 0 0 1
-15.356123 15.230303 -18.208594 28.272346 -0.781285 2.270567 0.164199 -0.035151 53336.300000 0 0 1
-14.261623 14.324603 -18.021094 27.080399 -0.787601 2.298915 0.172943 -0.034106 -191018.000000 0 0 1
-13.445923 14.405703 -19.144894 27.474426 -0.819845 2.341759 0.206558 -0.042098 -216768.000000 0 0 1
-12.233123 13.455203 -19.113794 26.382360 -0.832936 2.381093 0.185355 -0.042082 -166172.000000 0 0 1
-12.490723 12.101503 -19.442994 26.086291 -0.769573 2.411832 0.207101 -0.049551 -686384.000000 0 0 1
-11.409223 11.252003 -19.320594 25.101062 -0.778460 2.449187 0.166467 -0.043658 -882973.000000 0 0 1
-11.578023 9.968503 -20.190794 25.319752 -0.710837 2.493825 0.184264 -0.048471 -69412.700000 0 0 1
-11.342623 10.135803 -21.589894 26.410474 -0.729270 2.527809 0.205023 -0.051246 -67126.800000 0 0 1
-11.545523 8.904803 -22.240594 26.593959 -0.656980 2.561300 0.194711 -0.034096 3803.710000 0 0 1
-11.570123 8.900203 -23.829194 27.944800 -0.655702 2.591974 0.172544 -0.032536 102135.000000 0 0 1
-10.267323 9.019503 -24.391694 27.959330 -0.720790 2.630886 0.163856 -0.031051 121369.000000 0 0 1
-10.110423 8.315803 -25.631564 28.781076 -0.688310 2.669393 0.128308 -0.036221 -332352.000000 0 0 1
-10.041023 9.285703 -26.887384 30.165839 -0.746336 2.671042 0.161209 -0.043490 -431986.000000 0 0 1
-8.888123 10.018403 -27.168704 30.290355 -0.845110 2.683601 0.107317 -0.049840 -389770.000000 0 0 1
-8.565223 11.127003 -26.271804 29.788940 -0.914763 2.650741 0.093122 -0.040013 -304436.000000 0 0 1
-7.090223 11.512803 -26.419274 29.678173 -1.018800 2.668563 0.074651 -0.034432 -274726.000000 0 0 1
-6.731523 12.069203 -27.699284 30.955281 -1.062027 2.678815 0.073299 -0.048117 553548.000000 0 0 1
-5.349123 12.406003 -27.581834 30.712858 -1.163709 2.686124 0.087891 -0.032322 238688.000000 0 0 1
-4.632823 12.813303 -28.918284 31.967342 -1.223857 2.701283 0.106106 -0.036675 495479.000000 0 0 1
-3.220023 12.716203 -28.715024 31.569336 -1.322787 2.713083 0.130248 -0.050404 614377.000000 0 0 1
-2.591823 12.807603 -29.991434 32.714498 -1.371127 2.730695 0.141102 -0.053636 1009790.000000 0 0 1
-1.058923 12.426703 -29.993574 32.483208 -1.485788 2.747529 0.165137 -0.073020 664707.000000 0 0 1
-0.823523 11.038503 -29.673364 31.670733 -1.496330 2.784547 0.134539 -0.053551 1534670.000000 0 0 1
0.573577 10.623103 -29.727974 31.574227 1.516855 2.797929 0.150777 -0.064850 1522000.000000 0 0 1
1.213977 10.369303 -31.113854 32.818716 1.454253 2.817852 0.159956 -0.064267 -312514.000000 0 0 1
1.531177 11.461403 -31.880224 33.912490 1.437988 2.793641 0.180599 -0.066148 177857.000000 0 0 1
1.855777 11.038503 -33.219134 35.054292 1.404235 2.816585 0.180297 -0.062785 83321.100000 0 0 1
2.235677 12.067903 33.055787 35.260709 1.387615 0.355513 0.175105 -0.066928 -126517.000000 0 0 1
3.576977 12.501403 33.111133 35.572840 1.292116 0.374206 0.188033 -0.072936 -113015.000000 0 0 1
3.869477 13.440703 32.084063 35.000178 1.290484 0.411097 0.185950 -0.063223 -19891.900000 0 0 1
5.355577 13.605303 31.732382 34.938955 1.195786 0.431777 0.182019 -0.062630 -44647.500000 0 0 1
6.015277 12.516403 31.091462 34.051768 1.122796 0.420060 0.180445 -0.060764 -427312.000000 0 0 1
7.396077 12.646303 31.030452 34.315010 1.041598 0.441101 0.168174 -0.047280 -721058.000000 0 0 1
8.105377 11.376203 30.561782 33.602644 0.951740 0.428704 0.137827 -0.033327 -199564.000000 0 0 1
7.895777 11.011103 29.224902 32.213081 0.948703 0.434128 0.132459 -0.035980 263849.000000 0 0 1
8.836577 9.990303 28.882632 31.813483 0.846602 0.432612 0.127720 -0.033785 251397.000000 0 0 1
8.388277 9.093503 27.762882 30.394615 0.825717 0.419201 0.122231 -0.027701 80318.600000 0 0 1
7.445877 8.124203 28.155672 30.235503 0.828937 0.373071 0.113318 -0.034463 59863.500000 0 0 1
6.902977 7.303903 27.112722 28.915356 0.813611 0.354966 0.131756 -0.040055 -219707.000000 0 0 1
5.959977 6.204503 27.576852 28.887713 0.805497 0.302408 0.157614 -0.041357 -8470.100000 0 0 1
6.609477 5.169003 28.267242 29.486281 0.663705 0.288550 0.114186 -0.030475 -131509.000000 0 0 1
5.622577 4.285103 28.739012 29.595714 0.651216 0.241195 0.129828 -0.034415 -456601.000000 0 0 1
6.085677 3.064103 29.660372 30.432907 0.466439 0.225801 0.134907 -0.030617 136766.000000 0 0 1
6.515977 1.921203 28.956512 29.742706 0.286721 0.230436 0.139154 -0.024060 -188067.000000 0 0 1
7.834277 1.958703 28.469672 29.592814 0.244995 0.276390 0.145794 -0.022866 -305620.000000 0 0 1
8.234177 0.641003 27.745652 28.948813 0.077690 0.289319 0.143280 -0.032003 -340725.000000 0 0 1
8.149077 -0.508497 28.574632 29.718271 -0.062318 0.278324 0.106294 -0.020847 -8173.790000 0 0 1
8.266677 -1.717497 27.804952 29.058615 -0.204847 0.294810 0.127315 -0.016999 340984.000000 0 0 1
9.181577 -2.852097 28.433352 30.014852 -0.301183 0.326067 0.109598 -0.008073 -114834.000000 0 0 1
10.539277 -2.578197 28.546722 30.539135 -0.239916 0.363217 0.104479 -0.014121 -857956.000000 0 0 1
11.260677 -3.703797 28.153442 30.547295 -0.317768 0.398525 0.130321 -0.015649 -45615.700000 0 0 1
12.798977 -3.786697 28.379522 31.361603 -0.287654 0.439621 0.116270 -0.009411 624174.000000 0 0 1
13.398477 -4.979797 27.937582 31.381938 -0.355847 0.472916 0.134152 -0.011985 62689.000000 0 0 1
13.259577 -5.996097 28.901932 32.358789 -0.424689 0.466449 0.134522 -0.008092 -201053.000000 0 0 1
12.431577 -7.260797 28.466992 31.900359 -0.528617 0.468222 0.164025 -0.014185 319795.000000 0 0 1
11.037377 -7.044197 28.419592 31.290855 -0.568044 0.431739 0.155427 -0.007981 -255553.000000 0 0 1
10.430777 -8.290297 28.082662 31.083211 -0.671557 0.443006 0.164974 -0.017401 397855.000000 0 0 1
8.893877 -8.198097 27.886172 30.396520 -0.744713 0.409266 0.177524 -0.017088 90514.100000 0 0 1
8.240677 -7.815997 29.036442 31.178735 -0.758955 0.372858 0.184613 -0.018101 -397688.000000 0 0 1
6.849277 -7.676197 28.837282 30.617404 -0.842266 0.342675 0.157918 -0.017259 1565.210000 0 0 1
6.209277 -7.007197 30.059762 31.484047 -0.845698 0.301939 0.138025 -0.018185 -201387.000000 0 0 1
6.131577 -7.818597 31.249992 32.791595 -0.905746 0.307848 0.148112 -0.023376 271337.000000 0 0 1
5.652277 -7.108297 32.445177 33.692219 -0.899010 0.272923 0.164773 -0.022721 -99693.300000 0 0 1
6.663577 -6.161297 33.090101 34.312091 -0.746254 0.267684 0.160093 -0.016487 -331582.000000 0 0 1
6.752977 -5.018397 32.299669 33.377472 -0.639095 0.254820 0.158942 -0.011678 -154331.000000 0 0 1
7.001277 -3.895697 33.119559 34.074910 -0.507764 0.237355 0.130551 -0.001977 -42197.400000 0 0 1
7.051377 -2.573597 32.316146 33.176477 -0.349955 0.228232 0.116528 -0.011953 -177856.000000 0 0 1
5.781477 -2.084097 31.984710 32.569781 -0.345979 0.189830 0.153263 -0.021772 -225712.000000 0 0 1
5.935177 -0.938297 31.223612 31.796551 -0.156793 0.190123 0.126173 -0.015195 279356.000000 0 0 1
4.625577 -0.489897 30.505752 30.858335 -0.105517 0.151312 0.155790 -0.025478 677353.000000 0 0 1
3.747677 0.113203 31.461518 31.684144 0.030197 0.118614 0.153067 -0.020797 945670.000000 0 0 1
2.512177 0.654503 30.902012 31.010865 0.254867 0.083812 0.155574 -0.027356 747662.000000 0 0 1
1.531577 0.974903 32.039372 32.090770 0.566852 0.056605 0.144694 -0.033913 -247475.000000 0 0 1
2.073977 1.872603 32.975564 33.093743 0.734417 0.084536 0.122393 -0.030807 -575243.000000 0 0 1
1.212477 2.156603 -33.349774 33.441419 1.058622 3.067543 0.099934 -0.034889 -731592.000000 0 0 1
1.657977 3.297803 -32.400904 32.610474 1.104950 3.028161 0.094655 -0.035296 51601.600000 0 0 1
2.721777 2.821603 -31.567574 31.810081 0.803404 3.018035 0.066426 -0.019086 410725.000000 0 0 1
3.328677 3.951103 -30.900204 31.329123 0.870691 2.975930 0.057415 -0.022952 -274087.000000 0 0 1
4.359077 3.663903 -29.804754 30.343848 0.698966 2.952812 0.066022 -0.018240 -81964.400000 0 0 1
3.768877 3.007803 -28.679384 29.081926 0.673559 2.975017 0.063650 -0.020601 222949.000000 0 0 1
4.671677 2.914903 -27.603604 28.147473 0.557845 2.944693 0.066638 -0.023804 -271963.000000 0 0 1
4.102077 2.062303 -26.470254 26.865489 0.465842 2.969850 0.055175 -0.026481 -138909.000000 0 0 1
4.197977 0.675703 -26.597424 26.935155 0.159590 2.983069 0.083070 -0.029565 36360.900000 0 0 1
3.745777 -0.036497 -25.460554 25.734646 -0.009743 2.995513 0.094034 -0.029945 -396504.000000 0 0 1
4.307077 -1.464397 -25.334544 25.739746 -0.327736 2.963920 0.106165 -0.039774 830782.000000 0 0 1
5.709777 -1.536997 -25.035094 25.723916 -0.262954 2.909654 0.100746 -0.045853 576501.000000 0 0 1
5.989177 -2.881497 -24.734194 25.611592 -0.448428 2.879085 0.119289 -0.047760 -454492.000000 0 0 1
7.381177 -3.103497 -24.147394 25.440325 -0.398020 2.821410 0.134794 -0.057398 124822.000000 0 0 1
8.440077 -2.734397 -25.024994 26.551124 -0.313307 2.800893 0.128699 -0.045150 748996.000000 0 0 1
9.719777 -3.238997 -24.580894 26.630538 -0.321665 2.746690 0.111971 -0.040225 988177.000000 0 0 1
-31.036523 -4.252597 16.961782 35.623761 0.136171 1.074540 0.197847 -0.034382 154519.000000 0 0 1
-32.407493 -4.032597 17.202582 36.911194 0.123798 1.085972 0.176675 -0.034739 -432323.000000 0 0 1
-32.986953 -5.002297 17.989882 37.905117 0.150498 1.076283 0.157078 -0.035515 1226520.000000 0 0 1
-34.488652 -4.705097 18.420282 39.381618 0.135587 1.084066 0.144634 -0.031744 1572230.000000 0 0 1
-35.486951 -4.871997 17.428782 39.834940 0.136437 1.117952 0.145053 -0.030325 -74202.200000 0 0 1
-36.773603 -4.709297 17.954482 41.192703 0.127369 1.119797 0.134701 -0.023963 -382676.000000 0 0 1
-37.879913 -4.605797 16.897482 41.732793 0.120995 1.153930 0.115905 -0.023460 -46322.700000 0 0 1
37.249995 -4.293297 17.418582 41.344910 -0.114750 1.135919 0.108269 -0.011317 5495.080000 0 0 1
36.321885 -4.110397 16.366082 40.050260 -0.112686 1.149834 0.110668 -0.020938 -254091.000000 0 0 1
34.856435 -4.450897 16.585682 38.857000 -0.127005 1.129802 0.098146 -0.013204 -611110.000000 0 0 1
34.123165 -3.627797 17.445682 38.495495 -0.105917 1.100458 0.111235 -0.020484 -426163.000000 0 0 1
33.047925 -4.371097 17.926482 37.850107 -0.131502 1.077402 0.148433 -0.020152 -306281.000000 0 0 1
32.357135 -3.770297 19.193282 37.809806 -0.115998 1.038368 0.148687 -0.021246 66865.600000 0 0 1
31.595875 -2.575997 19.197482 37.060470 -0.081350 1.026280 0.144460 -0.022878 -338812.000000 0 0 1
32.142105 -1.465797 18.604682 37.167159 -0.045572 1.046542 0.134876 -0.018519 -532018.000000 0 0 1
31.482165 -0.113497 18.973582 36.757808 -0.003605 1.028414 0.160655 -0.014503 185093.000000 0 0 1
31.848265 0.996703 18.160182 36.675573 0.031285 1.052780 0.142640 -0.015165 324599.000000 0 0 1
31.214165 2.132403 18.783182 36.492180 0.068209 1.030118 0.132977 -0.009230 53513.500000 0 0 1
31.559365 3.557603 18.177382 36.593269 0.112253 1.050956 0.126232 -0.014743 -40787.000000 0 0 1
31.137865 3.816603 16.877282 35.622686 0.121963 1.077219 0.146589 -0.001557 781506.000000 0 0 1
29.718165 3.877903 16.667482 34.293038 0.129756 1.063254 0.156708 -0.023503 611534.000000 0 0 1
29.227465 3.918603 15.193682 33.173003 0.133278 1.095037 0.166178 -0.022154 -328470.000000 0 0 1
29.370765 5.186903 14.562182 33.190405 0.174799 1.116593 0.175609 -0.028650 124169.000000 0 0 1
28.871365 5.138803 13.246982 32.178340 0.176145 1.146506 0.147066 -0.033916 -299484.000000 0 0 1
28.475665 6.540203 12.674182 31.847648 0.225762 1.161501 0.165468 -0.026520 504873.000000 0 0 1
27.259265 6.999203 13.295782 31.126102 0.251335 1.129448 0.127545 -0.021534 816630.000000 0 0 1
26.902365 8.290803 12.929882 30.978324 0.298945 1.140231 0.171770 -0.040395 -335127.000000 0 0 1
25.660065 8.940503 13.623882 30.397068 0.335267 1.106049 0.169297 -0.043558 -447294.000000 0 0 1
24.416465 8.433103 13.351982 29.078453 0.332558 1.093735 0.176353 -0.030507 -351534.000000 0 0 1
24.106765 7.144503 13.869282 28.714753 0.288122 1.066716 0.200341 -0.040090 -1375660.000000 0 0 1
22.781665 6.494203 13.502382 27.267073 0.277697 1.052743 0.230392 -0.031390 -844488.000000 0 0 1
22.631665 6.104903 12.140482 26.397982 0.263479 1.092912 0.272874 -0.035523 900592.000000 0 0 1
21.677365 5.031603 12.050282 25.306807 0.228075 1.074505 0.276326 -0.031607 310465.000000 0 0 1
21.108765 4.808303 10.595182 24.103063 0.223966 1.115667 0.275086 -0.039532 26852.600000 0 1 0
22.053965 4.087703 9.843782 24.494627 0.183270 1.157233 0.289044 -0.047740 595899.000000 0 1 0
21.523965 3.834403 8.544982 23.473399 0.176296 1.198207 0.297725 -0.045201 -38460.500000 0 1 0
22.487665 3.130603 7.583082 23.937396 0.138325 1.248455 0.277471 -0.042106 -887074.000000 0 1 0
22.781665 1.830803 8.076282 24.240100 0.080191 1.231124 0.263444 -0.045793 669889.000000 0 1 0
23.540465 0.964303 7.211682 24.639232 0.040941 1.273756 0.242589 -0.040752 139443.000000 0 1 0
25.021165 1.369603 6.901882 25.991739 0.054683 1.302031 0.236579 -0.051735 -61602.200000 0 0 1
26.013465 1.070203 7.858282 27.195557 0.041117 1.277662 0.208176 -0.035466 207602.000000 0 0 1
25.848665 1.558103 9.159882 27.467884 0.060205 1.230808 0.206206 -0.038294 -585940.000000 0 0 1
26.646965 0.726503 10.287982 28.573259 0.027257 1.202468 0.138100 -0.028121 1636290.000000 0 0 1
28.077665 0.888903 10.077282 29.844548 0.031648 1.226368 0.147535 -0.044095 1339870.000000 0 0 1
28.839865 0.220003 11.064482 30.890274 0.007628 1.204471 0.168086 -0.040047 944937.000000 0 0 1
30.388065 0.463103 10.947282 32.303126 0.015238 1.225057 0.230672 -0.039927 991622.000000 0 0 1
30.827765 1.754803 11.355782 32.899609 0.056861 1.218382 0.221143 -0.032551 1185390.000000 0 0 1
32.263045 1.896203 11.376082 34.262442 0.058706 1.232344 0.227633 -0.038667 1048420.000000 0 0 1
32.904725 3.235703 11.900382 35.139861 0.098020 1.225306 0.200893 -0.037704 -495008.000000 0 0 1
34.278865 3.343103 11.704482 36.375979 0.097219 1.243204 0.188072 -0.049297 -360066.000000 0 0 1
34.749515 4.541203 12.334982 37.152431 0.129948 1.232363 0.170082 -0.047189 458241.000000 0 0 1
36.240755 4.822203 11.966182 38.468630 0.132283 1.254485 0.189945 -0.041453 -248789.000000 0 0 1
37.102305 3.857603 12.437482 39.321154 0.103600 1.248964 0.198497 -0.044815 -508359.000000 0 0 1
-37.996893 4.272203 12.081282 40.099538 -0.111965 1.264759 0.201873 -0.034943 342373.000000 0 0 1
-36.878843 3.297603 12.615682 39.116220 -0.089180 1.242408 0.186639 -0.030996 -306584.000000 0 0 1
-36.787203 1.997903 12.037282 38.758045 -0.054256 1.254998 0.172635 -0.035083 91629.400000 0 0 1
-37.852483 1.090003 12.202982 39.785818 -0.028788 1.259055 0.195611 -0.031013 -497656.000000 0 0 1
38.044635 0.770903 13.634482 40.421376 0.020260 1.226740 0.205182 -0.030580 258848.000000 0 0 1
-37.419263 -0.043297 14.374782 40.085377 0.001157 1.204024 0.161694 -0.033006 729930.000000 0 0 1
-37.824673 -0.258197 15.691382 40.951093 0.006826 1.177567 0.159979 -0.037692 -608167.000000 0 0 1
-36.888463 -1.159097 16.444582 40.404535 0.031411 1.151631 0.143719 -0.030556 -685762.000000 0 0 1
-35.656996 -0.534297 16.703782 39.379222 0.014983 1.132743 0.154702 -0.028597 -71573.300000 0 0 1
-34.676667 -1.305797 17.364282 38.803281 0.037639 1.106834 0.146536 -0.016114 177987.000000 0 0 1
-34.751458 -1.159497 18.884382 39.568019 0.033353 1.073258 0.116078 -0.016257 111205.000000 0 0 1
-35.852884 -1.862297 19.466782 40.839356 0.051896 1.073937 0.122485 -0.024865 481187.000000 0 0 1
-35.849663 -1.678997 20.847582 41.504687 0.046800 1.044546 0.111933 -0.029779 118409.000000 0 0 1
-36.649823 -2.757497 21.606282 42.633845 0.075098 1.039343 0.109334 -0.026646 44746.800000 0 0 1
-36.026653 -4.028997 21.535682 42.165603 0.111371 1.034750 0.121689 -0.026504 66702.800000 0 0 1
-36.548013 -4.973497 22.443292 43.176316 0.135250 1.024173 0.117896 -0.030671 -146044.000000 0 0 1
-36.367113 -4.753497 23.999072 43.830561 0.129972 0.991372 0.134994 -0.035191 -263111.000000 0 0 1
-35.070990 -4.877997 24.506022 43.061749 0.138203 0.965397 0.128393 -0.038176 -715788.000000 0 0 1
-35.086242 -4.983297 25.902702 43.895644 0.141086 0.939617 0.142658 -0.048779 484091.000000 0 0 1
-33.956295 -4.163897 26.637472 43.358077 0.122016 0.909222 0.130393 -0.043481 475354.000000 0 0 1
-33.985019 -2.739497 26.420302 43.133730 0.080435 0.911551 0.127933 -0.032195 180874.000000 0 0 1
-33.292073 -2.462097 25.182802 41.816235 0.073820 0.924510 0.116181 -0.028389 -72204.500000 0 0 1
-33.027933 -0.924597 25.054452 41.465947 0.027987 0.922013 0.121498 -0.027074 -385889.000000 0 0 1
-34.187072 -0.153997 24.917212 42.304220 0.004504 0.940975 0.142323 -0.044206 -480913.000000 0 0 1
-33.980667 1.161803 24.532712 41.927192 -0.034177 0.945760 0.117806 -0.025435 162409.000000 0 0 1
-35.283763 1.857603 24.031552 42.730669 -0.052599 0.973516 0.119854 -0.028823 225589.000000 0 0 1
-35.844610 1.410603 22.851502 42.532540 -0.039333 1.003598 0.128018 -0.026339 -592525.000000 0 0 1
-36.977653 2.086903 22.406402 43.286820 -0.056377 1.026722 0.133049 -0.024629 -254965.000000 0 0 1
-36.739793 3.447403 21.670182 42.793618 -0.093559 1.039805 0.109363 -0.008720 -352500.000000 0 0 1
-36.082443 3.221603 20.452882 41.600983 -0.089048 1.056819 0.091659 -0.014318 -159156.000000 0 0 1
-36.949023 2.982103 19.337182 41.809686 -0.080534 1.089978 0.136023 -0.019708 74179.000000 0 0 1
-36.223483 2.525703 18.077682 40.562574 -0.069613 1.108869 0.140410 -0.016300 -83052.600000 0 0 1
-35.305308 3.405303 17.466482 39.536550 -0.096156 1.113214 0.120703 -0.021636 233463.000000 0 0 1
-34.875984 2.872703 16.220682 38.570678 -0.082184 1.136751 0.142246 -0.018344 -440182.000000 0 0 1
-34.045288 3.849503 15.428082 37.575604 -0.112592 1.147698 0.144661 -0.019299 -275923.000000 0 0 1
-34.773789 4.879603 14.766882 38.093145 -0.139414 1.172713 0.161917 -0.028370 441423.000000 0 0 1
-33.872413 5.777403 14.095382 37.140255 -0.168938 1.181521 0.184584 -0.028977 17655.400000 0 0 1
-34.551663 6.870403 13.299082 37.654819 -0.196284 1.209824 0.206792 -0.037976 -306480.000000 0 0 1
-33.639533 7.634703 12.531982 36.700918 -0.223176 1.222324 0.238740 -0.038769 95703.100000 0 0 1
-34.153752 8.814103 11.963282 37.246306 -0.252561 1.243807 0.215235 -0.039992 -678201.000000 0 0 1
-33.100053 9.602003 11.196282 36.237669 -0.282341 1.256689 0.252045 -0.042852 -326516.000000 0 0 1
-33.463533 10.874403 10.738582 36.788283 -0.314198 1.274581 0.217228 -0.026786 -617046.000000 0 0 1
-32.498393 11.411203 9.923282 35.844562 -0.337682 1.290290 0.239924 -0.052179 -577653.000000 0 0 1
-32.656003 12.900103 9.805382 36.455078 -0.376215 1.298471 0.195417 -0.035140 -165865.000000 0 0 1
-31.898513 13.439603 8.773582 35.708735 -0.398753 1.322556 0.220477 -0.036878 -264831.000000 0 0 1
-31.793023 14.879103 8.821982 36.194079 -0.437721 1.324575 0.188577 -0.025588 374572.000000 0 0 1
-30.771113 15.406503 7.729482 35.269911 -0.464192 1.349851 0.191115 -0.028466 196586.000000 0 0 1
-29.465433 15.108403 8.130582 34.096656 -0.473796 1.330020 0.230911 -0.031267 -498326.000000 0 0 1
-28.468003 15.397503 7.158982 33.147569 -0.495807 1.353108 0.203908 -0.035041 -685668.000000 0 0 1
-27.120613 15.359203 7.852782 32.141856 -0.515294 1.323982 0.208459 -0.027674 -1072600.000000 0 0 1
-26.944033 16.209503 8.962682 32.696461 -0.541594 1.293124 0.200229 -0.031652 110890.000000 0 0 1
-27.017033 17.614103 8.817082 33.435275 -0.577754 1.303934 0.194667 -0.046643 -262087.000000 0 0 1
-27.292173 18.229503 10.221882 34.375345 -0.588883 1.268869 0.203109 -0.020779 -142773.000000 0 0 1
-26.169143 18.242303 11.064282 33.764241 -0.608772 1.236936 0.171704 -0.019747 -20018.200000 0 0 1
-26.422573 18.857903 12.342582 34.729126 -0.619864 1.207459 0.180653 -0.032283 -197518.000000 0 0 1
-26.863183 17.910803 13.505782 34.997623 -0.588055 1.174607 0.141604 -0.021459 5591.530000 0 0 1
-25.896163 16.966203 13.905082 33.938394 -0.579996 1.148654 0.150942 -0.031813 3973.790000 0 0 1
-26.276793 16.383803 15.099482 34.451316 -0.557526 1.117107 0.141456 -0.029275 -521226.000000 0 0 1
-25.236043 15.406203 15.590182 33.425480 -0.548093 1.085561 0.140435 -0.017875 -215207.000000 0 0 1
-24.182923 16.037303 16.318982 33.291411 -0.585575 1.058493 0.134329 -0.019496 118250.000000 0 0 1
-23.102323 15.148203 16.552182 32.204970 -0.580372 1.030997 0.119078 -0.029828 31265.300000 0 0 1
-23.212123 14.112503 17.734082 32.441687 -0.546266 0.992444 0.134068 -0.017032 -448886.000000 0 0 1
-23.140923 14.745303 18.997782 33.374271 -0.567321 0.965222 0.124379 -0.015378 -39567.900000 0 0 1
-23.313123 13.794503 20.001682 33.672797 -0.534298 0.934773 0.121749 -0.009653 -490559.000000 0 0 1
-23.021923 14.447903 21.386882 34.585395 -0.560446 0.904118 0.109485 -0.005852 32514.700000 0 0 1
-21.685523 14.497203 21.826182 34.011954 -0.589285 0.874056 0.126345 -0.021002 -430961.000000 0 0 1
-20.997523 15.611603 21.292082 33.733824 -0.639326 0.887724 0.134319 -0.006351 -900183.000000 0 0 1
-19.596223 15.762103 21.860482 33.321712 -0.677384 0.855232 0.144943 -0.024463 74873.800000 0 0 1
-18.532323 15.011103 21.262082 31.950842 -0.680806 0.842683 0.123037 -0.016817 -80718.300000 0 0 1
-17.700123 15.854703 20.563382 31.424809 -0.730456 0.857450 0.104222 -0.030832 -1598840.000000 0 0 1
-16.553123 15.134903 19.809282 29.924552 -0.740672 0.847347 0.100227 -0.012205 981946.000000 0 0 1
-15.473523 14.673303 20.655182 29.687915 -0.758860 0.801341 0.093225 -0.014148 595460.000000 0 0 1
-14.745423 15.632403 21.413982 30.337405 -0.814588 0.787159 0.083373 -0.019887 -403448.000000 0 0 1
-13.642623 14.930003 22.301592 30.106264 -0.830424 0.736592 0.054588 -0.029021 408769.000000 0 0 1
-12.480023 14.523903 21.608582 28.872574 -0.860942 0.725132 0.020044 -0.003076 -615387.000000 0 0 1
-11.700523 13.850303 22.547552 28.933116 -0.869338 0.677250 0.008498 -0.013478 -487459.000000 0 0 1
-10.384823 13.379203 21.892382 27.678945 -0.910742 0.658453 0.020746 -0.008457 -1430770.000000 0 0 1
-9.765423 12.500103 22.819162 27.790830 -0.907607 0.607454 0.018072 -0.012276 690815.000000 0 0 1
-8.459823 12.050103 22.426282 26.827443 -0.958693 0.580943 0.030846 -0.002433 1552650.000000 0 0 1
-7.313423 13.146803 22.472192 27.043003 -1.063138 0.589929 0.045335 0.002476 -570193.000000 0 0 1
-7.453923 14.083003 21.370582 26.656964 -1.083996 0.640682 0.034066 0.005619 -464973.000000 0 0 1
-6.830023 15.311903 21.628082 27.365627 -1.151224 0.659437 0.031914 0.010281 -615597.000000 0 0 1
-7.702823 16.384903 22.369372 28.778244 -1.131340 0.680431 0.038358 0.001389 276751.000000 0 0 1
-8.832723 16.763103 21.607982 28.738885 -1.085850 0.719898 -0.003585 0.000450 -670344.000000 0 0 1
-8.619023 17.531303 20.442382 28.275875 -1.113862 0.762716 0.012900 0.001828 -1302650.000000 0 0 1
-9.802023 17.696903 19.455882 28.067621 -1.064976 0.804906 0.023422 -0.000147 577669.000000 0 0 1
-10.837823 18.577603 19.874982 29.284819 -1.042686 0.824834 0.006412 -0.000868 31069.300000 0 0 1
-11.605423 18.220503 20.994682 30.123898 -1.003655 0.799669 0.017303 -0.000839 -2138430.000000 0 0 1
-12.952223 18.863403 20.991682 31.052194 -0.969098 0.828458 0.021472 -0.014580 -1161250.000000 0 0 1
-13.778023 18.449003 19.938082 30.458607 -0.929336 0.857148 0.023531 -0.008199 302916.000000 0 0 1
-14.959623 19.267803 19.863082 31.457600 -0.910609 0.887408 0.006322 -0.021283 490539.000000 0 0 1
-15.582723 19.273703 18.486782 30.920187 -0.890896 0.929934 0.034418 -0.014794 57659.300000 0 0 1
-16.397723 18.108803 18.247082 30.492131 -0.834945 0.929270 0.063557 -0.009596 72490.800000 0 0 1
-17.188823 18.217303 17.096382 30.325106 -0.814438 0.971853 0.082195 -0.025728 -846054.000000 0 0 1
-18.098223 17.025503 16.913782 30.058101 -0.754866 0.973144 0.088761 -0.029301 334867.000000 0 0 1
-19.131723 16.797303 17.874882 31.107613 -0.720516 0.958663 0.092817 -0.020602 1179820.000000 0 0 1
-20.305423 17.641703 17.701482 32.200658 -0.715318 0.988762 0.121147 -0.033740 451962.000000 0 0 1
36.337775 -9.265997 11.467606 39.214775 -0.249675 1.274029 0.112868 -0.045990 703909.000000 0 0 1
35.042585 -9.834297 11.143106 38.063959 -0.273601 1.273698 0.102673 -0.036608 1227500.000000 0 0 1
34.689725 -10.787297 12.173106 38.313540 -0.301486 1.247469 0.099287 -0.033841 -131587.000000 0 0 1
33.206575 -11.199197 12.272906 37.131158 -0.325279 1.233933 0.126693 -0.026417 -232917.000000 0 0 1
32.360715 -10.144597 12.717806 36.219764 -0.303782 1.212020 0.148046 -0.024054 446424.000000 0 0 1
31.003765 -10.520497 12.902006 35.190568 -0.327137 1.195409 0.148498 -0.024591 437211.000000 0 0 1
30.552865 -11.444497 14.071606 35.531172 -0.358403 1.163601 0.142869 -0.013791 -833460.000000 0 0 1
30.465265 -10.673697 15.276006 35.712974 -0.336992 1.128801 0.161477 -0.017297 54643.200000 0 0 1
29.807965 -11.230497 16.389406 35.822500 -0.360314 1.095595 0.172815 -0.028640 595792.000000 0 0 1
28.240665 -11.295097 16.327906 34.521224 -0.380471 1.078124 0.176028 -0.041624 703807.000000 0 0 1
27.694765 -9.988397 16.553006 33.775288 -0.346140 1.058601 0.171288 -0.047002 -148330.000000 0 0 1
27.176065 -9.452297 15.357006 32.614752 -0.334729 1.080530 0.172790 -0.043040 -28024.700000 0 0 1
26.554065 -8.040097 15.469106 31.765623 -0.294007 1.062172 0.192865 -0.030516 35807.900000 0 0 1
27.485465 -6.997897 15.668806 32.402667 -0.249307 1.066073 0.179698 -0.026765 -304035.000000 0 0 1
26.973665 -5.721597 15.521406 31.642208 -0.209020 1.058100 0.164678 -0.028491 238030.000000 0 0 1
28.142965 -4.686597 15.401206 32.422027 -0.165014 1.075806 0.170018 -0.028682 637969.000000 0 0 1
28.531065 -4.476397 14.038606 32.111404 -0.155627 1.118331 0.172583 -0.028603 935401.000000 0 0 1
29.726065 -3.657597 13.961206 33.044398 -0.122428 1.134596 0.175979 -0.017308 920867.000000 0 0 1
30.170765 -3.349097 12.514206 32.834386 -0.110552 1.179777 0.185283 -0.033692 221900.000000 0 0 1
30.830965 -4.439297 11.834906 33.321476 -0.143005 1.207697 0.185608 -0.045360 302402.000000 0 0 1
31.164065 -3.993897 10.554806 33.144443 -0.127462 1.246704 0.209934 -0.059956 114237.000000 0 0 1
31.848485 -5.050697 9.621306 33.651227 -0.157275 1.280838 0.207842 -0.054747 -608570.000000 0 0 1
33.184095 -5.351797 9.817106 35.017160 -0.159899 1.286636 0.202954 -0.058738 -594376.000000 0 0 1
33.563005 -6.243097 8.789806 35.252124 -0.183909 1.318796 0.183763 -0.056103 27065.600000 0 0 1
35.021885 -6.754697 8.925706 36.767195 -0.190531 1.325584 0.155957 -0.047970 514860.000000 0 0 1
36.028425 -5.750697 8.799906 37.530738 -0.158280 1.334121 0.149533 -0.052023 12905.200000 0 0 1
37.290345 -6.356297 8.701206 38.816019 -0.168832 1.344710 0.170904 -0.067883 105246.000000 0 0 1
-37.923883 -5.450497 8.283606 39.198813 0.142745 1.357868 0.173383 -0.056345 323745.000000 0 0 1
-38.000003 -4.880697 6.999606 38.946320 0.127740 1.390090 0.154366 -0.052054 89339.500000 0 0 1
-36.852983 -4.055697 6.874306 37.707388 0.109610 1.387464 0.180502 -0.038392 325553.000000 0 0 1
-36.765333 -3.334597 5.481806 37.321032 0.090452 1.423381 0.165512 -0.047411 -258.071000 0 0 1
-36.417503 -4.223297 4.433306 36.928646 0.115453 1.450455 0.199164 -0.063010 28079.000000 0 0 1
-36.510573 -3.618597 3.134806 36.823133 0.098788 1.485562 0.198277 -0.063618 291559.000000 0 0 1
-35.579836 -4.284997 2.072606 35.896819 0.119856 1.513026 0.283608 -0.070009 146343.000000 0 0 1
-35.989813 -5.623897 1.778106 36.469939 0.155010 1.522022 0.250655 -0.055312 377069.000000 0 0 1
-36.919163 -5.723097 0.698306 37.366643 0.153793 1.552107 0.216213 -0.048283 89671.200000 0 0 1
-36.210913 -5.663997 -0.668694 36.657308 0.155160 1.589039 0.266875 -0.049514 -1021890.000000 0 0 1
-35.561126 -6.839497 -1.015594 36.227114 0.190010 1.598834 0.257317 -0.065459 271281.000000 0 0 1
-34.665072 -6.673197 -2.102494 35.364095 0.190178 1.630284 0.247459 -0.057714 13813.800000 0 0 1
-33.386513 -5.823097 -1.919794 33.944857 0.172678 1.627383 0.248285 -0.062647 -932957.000000 0 0 1
-32.571863 -6.477297 -0.995294 33.224572 0.196301 1.600757 0.266550 -0.061295 153232.000000 0 0 1
-31.346523 -5.820397 -0.668694 31.889319 0.183588 1.591767 0.258645 -0.068407 -187450.000000 0 0 1
-30.558943 -6.609397 0.346006 31.267440 0.213003 1.559730 0.240436 -0.060334 -559598.000000 0 0 1
-30.141903 -7.877697 -0.150394 31.154695 0.255636 1.575624 0.228571 -0.033178 356032.000000 0 0 1
-29.571873 -8.730597 0.820806 30.844654 0.287078 1.544182 0.263186 -0.034923 -155908.000000 0 0 1
-29.233353 -10.065597 0.161906 30.918140 0.331605 1.565560 0.208052 -0.025670 -216546.000000 0 0 1
-28.274763 -9.925197 -0.867694 29.978736 0.337589 1.599744 0.204457 -0.028785 39067.400000 0 0 1
-27.737693 -11.160297 -1.308594 29.927316 0.382532 1.614536 0.164763 -0.010183 -58073.300000 0 0 1
-28.650843 -12.222697 -2.003594 31.213450 0.403232 1.635031 0.148188 -0.011457 -443830.000000 0 0 1
-29.573493 -12.896297 -1.197094 32.285275 0.411215 1.607883 0.179818 -0.025539 136287.000000 0 0 1
-29.998163 -13.948997 -2.069894 33.147379 0.435254 1.633282 0.136869 -0.006053 -478676.000000 0 0 1
-31.115363 -14.846597 -1.537494 34.510159 0.445198 1.615363 0.170856 -0.010490 -266030.000000 0 0 1
-30.672643 -15.676897 -0.489994 34.450199 0.472491 1.585020 0.137607 -0.006166 100396.000000 0 0 1
-31.746613 -16.315797 0.132706 35.694121 0.474736 1.567078 0.157811 -0.008842 -226050.000000 0 0 1
-32.142133 -17.718897 -0.372894 36.704428 0.503815 1.580956 0.165510 -0.004356 -228556.000000 0 0 1
-31.279833 -18.752497 0.051706 36.470354 0.540057 1.569379 0.198356 -0.022582 163587.000000 0 0 1
-31.742283 -20.114597 -0.085794 37.578942 0.564820 1.573079 0.165974 -0.023923 -178749.000000 0 0 1
-32.633993 -20.683897 0.999006 38.649697 0.564913 1.544946 0.140372 -0.024336 -485152.000000 0 0 1
-31.890413 -21.013497 2.151506 38.251725 0.582626 1.514521 0.149410 -0.031385 211796.000000 0 0 1
-32.761623 -21.187697 3.269706 39.152693 0.574068 1.487187 0.122638 -0.028947 19442.100000 0 0 1
-32.061823 -21.630797 4.575206 38.945916 0.593515 1.453049 0.132242 -0.030706 -108657.000000 0 0 1
-31.350653 -20.497197 5.029306 37.792756 0.579045 1.437324 0.130282 -0.026318 -13362.700000 0 0 1
-30.968573 -20.614197 6.388206 37.746613 0.587298 1.400739 0.126239 -0.033814 120966.000000 0 0 1
-30.264073 -19.290897 6.826706 36.532953 0.567480 1.382827 0.145817 -0.026986 97902.000000 0 0 1
-29.493023 -19.540397 7.977906 36.267237 0.585142 1.349007 0.135139 -0.040084 -110211.000000 0 0 1
-28.584383 -18.496797 8.268506 35.036646 0.574330 1.332553 0.167334 -0.045231 214995.000000 0 0 1
-27.470223 -18.881797 9.260606 34.596159 0.602189 1.299815 0.171136 -0.046902 50507.000000 0 0 1
-28.013423 -19.132297 10.553306 35.527016 0.599204 1.269194 0.152682 -0.048937 194772.000000 0 0 1
-27.032203 -19.339297 11.555806 35.189274 0.620998 1.236198 0.123332 -0.038668 -39611.000000 0 0 1
-26.511583 -18.062497 12.273206 34.347480 0.598069 1.205394 0.126405 -0.036260 -595698.000000 0 0 1
-25.686613 -17.202597 11.479406 32.977388 0.590107 1.215254 0.145676 -0.028503 555484.000000 0 0 1
-25.188403 -16.073697 12.235306 32.288110 0.567992 1.182144 0.143071 -0.022274 692055.000000 0 0 1
-24.168723 -16.293297 13.405306 32.082719 0.593164 1.139735 0.117169 -0.020596 -272452.000000 0 0 1
-24.798223 -16.911397 14.469806 33.321501 0.598516 1.121593 0.107778 -0.029832 294921.000000 0 0 1
-23.939923 -16.993097 15.611706 33.250723 0.617288 1.082055 0.114257 -0.031120 66137.000000 0 0 1
-24.702823 -17.624797 16.795006 34.683355 0.619711 1.065304 0.104255 -0.014714 -205124.000000 0 0 1
-25.711503 -16.774397 17.238306 35.208251 0.578066 1.059154 0.110450 -0.013758 -225832.000000 0 0 1
-26.699323 -17.492897 17.938906 36.615019 0.580009 1.058783 0.097554 -0.003962 -1291.970000 0 0 1
-27.632493 -16.587497 18.784506 37.303583 0.540632 1.043085 0.108931 -0.003153 -44975.800000 0 0 1
-26.931093 -16.052297 19.886006 37.126987 0.537511 1.005553 0.120475 -0.008119 121755.000000 0 0 1
-27.703183 -15.162897 20.651606 37.734183 0.500794 0.991671 0.111777 -0.009574 -133369.000000 0 0 1
-26.966893 -14.538497 21.901406 37.659697 0.494455 0.950150 0.113394 -0.012303 21119.700000 0 0 1
-25.981133 -13.628497 21.440106 36.337767 0.483097 0.939709 0.119369 -0.013187 -153679.000000 0 0 1
-25.133533 -13.259197 22.489306 36.239062 0.485444 0.901312 0.122079 -0.021751 286555.000000 0 0 1
-23.935323 -12.383697 21.975306 34.773117 0.477456 0.886713 0.118094 -0.022036 98419.100000 0 0 1
-24.370323 -11.179897 21.407606 34.310178 0.430107 0.897018 0.130010 -0.015309 -268165.000000 0 0 1
-23.404323 -10.509597 20.679606 32.952390 0.422060 0.892381 0.140009 -0.019427 -1146840.000000 0 0 1
-22.802023 -9.298597 21.408306 32.629920 0.387210 0.855165 0.145647 -0.022086 -153057.000000 0 0 1
-22.183723 -9.589997 22.621006 33.102802 0.408037 0.818446 0.145439 -0.036798 119689.000000 0 0 1
-20.822423 -9.958797 22.442406 32.193361 0.446115 0.799434 0.098362 -0.031807 -439540.000000 0 0 1
-20.172423 -10.138697 23.808906 32.811336 0.465727 0.758846 0.094359 -0.022556 -300105.000000 0 0 1
-20.670723 -11.218497 24.521606 33.977089 0.497240 0.764527 0.102707 -0.030425 64825.900000 0 0 1
-19.988223 -11.300497 25.764806 34.511671 0.514558 0.727930 0.100688 -0.022724 -815190.000000 0 0 1
-20.390923 -12.578897 26.593706 35.794462 0.552744 0.733321 0.101513 -0.047435 988492.000000 0 0 1
-21.655723 -12.590297 27.278606 37.035229 0.526619 0.742829 0.085804 -0.031654 254731.000000 0 0 1
-22.752823 -12.956297 26.473606 37.234505 0.517643 0.779882 0.083529 -0.028044 101725.000000 0 0 1
-24.056723 -13.162097 27.289406 38.686927 0.500635 0.787822 0.078873 -0.024300 -30121.800000 0 0 1
-24.162023 -14.288497 28.147506 39.752315 0.534044 0.784032 0.092035 -0.025330 -124613.000000 0 0 1
-23.177823 -14.460997 29.169306 39.964738 0.557819 0.752656 0.076871 -0.023506 118619.000000 0 0 1
-23.536923 -15.523997 30.295506 41.385974 0.583066 0.749509 0.066066 -0.028368 -747697.000000 0 0 1
-23.448223 -16.831797 29.804306 41.490061 0.622591 0.769371 0.071942 -0.026758 -7918.830000 0 0 1
-23.744823 -17.779997 30.845406 42.794672 0.642729 0.765874 0.078391 -0.023659 15225.600000 0 0 1
-25.175693 -17.933497 31.403606 44.063729 0.618956 0.777476 0.089892 -0.030525 -178250.000000 0 0 1
-25.667033 -16.950897 32.303906 44.605737 0.583662 0.760909 0.105107 -0.030949 63436.500000 0 0 1
-26.966033 -17.216097 32.802806 45.821228 0.568203 0.772903 0.108315 -0.039561 -215669.000000 0 0 1
-27.635913 -16.105197 33.542406 46.348829 0.527649 0.761655 0.104530 -0.035044 -547526.000000 0 0 1
-27.051693 -15.678097 -32.619371 45.184291 0.525255 2.377367 0.126485 -0.036001 -506902.000000 0 0 1
-27.827293 -14.737897 -31.939871 44.852192 0.487062 2.363301 0.119965 -0.031849 -261902.000000 0 0 1
-27.461203 -14.465397 -30.448871 43.479870 0.484824 2.346611 0.105377 -0.023223 4901.660000 0 0 1
-27.962103 -15.459397 -29.583171 43.543497 0.505044 2.317732 0.104008 -0.009180 -138058.000000 0 0 1
-27.409123 -15.291097 -28.335571 42.284539 0.508876 2.305162 0.093686 -0.004002 208036.000000 0 0 1
-28.412853 -15.501097 -27.143171 42.241282 0.499433 2.268650 0.099447 -0.001061 432911.000000 0 0 1
-29.181213 -14.385697 -26.675571 42.072289 0.458014 2.257565 0.130762 -0.010758 757651.000000 0 0 1
-28.375453 -13.315597 -26.159171 40.826139 0.438758 2.266265 0.122815 -0.019187 160853.000000 0 0 1
-27.490153 -13.511997 -24.894271 39.471601 0.456842 2.253236 0.113766 -0.012496 794420.000000 0 0 1
-26.388313 -14.418797 -25.081271 39.157565 0.500082 2.265974 0.095007 -0.024464 784116.000000 0 0 1
-25.455553 -14.242697 -24.009271 37.779421 0.510117 2.259468 0.083759 -0.013260 382823.000000 0 0 1
-24.408923 -15.378597 -23.826771 37.416731 0.562215 2.261130 0.071436 0.000808 230326.000000 0 0 1
-23.582723 -15.530397 -24.975471 37.697641 0.582362 2.294975 0.072271 0.007137 -104957.000000 0 0 1
-23.107823 -16.829297 -25.032971 37.997978 0.629464 2.290016 0.082749 0.002277 -112079.000000 0 0 1
-22.347723 -17.217497 -26.360171 38.609863 0.656453 2.322291 0.071726 -0.000184 527109.000000 0 0 1
-23.084823 -17.229597 -27.605071 39.897468 0.641168 2.334914 0.077680 -0.006436 251148.000000 0 0 1
-24.158523 -18.155897 -27.628871 40.946615 0.644481 2.311427 0.092659 -0.008766 132778.000000 0 0 1
-24.943143 -18.195297 -28.984971 42.348054 0.630233 2.324640 0.096278 -0.012233 418138.000000 0 0 1
-24.189723 -18.860297 -30.016271 42.916547 0.662229 2.345368 0.095938 -0.018024 408241.000000 0 0 1
-24.680223 -18.494197 -31.286071 43.931389 0.643087 2.363363 0.090889 -0.022354 -874714.000000 0 0 1
-23.806323 -18.878297 -32.425771 44.436040 0.670455 2.388705 0.088581 -0.027233 -240094.000000 0 0 1
-22.586423 -18.138097 -32.641171 43.641529 0.676600 2.415747 0.083995 -0.023298 572370.000000 0 0 1
-21.413323 -18.632197 -32.057471 42.817877 0.716060 2.416886 0.077518 -0.029506 -309847.000000 0 0 1
-20.838323 -19.783297 -32.942371 43.712862 0.759432 2.424330 0.075540 -0.030125 -1054710.000000 0 0 1
-20.445723 -19.281997 33.134406 43.447805 0.756114 0.703434 0.081371 -0.032475 169323.000000 0 0 1
-20.137923 -20.241197 32.139706 42.990727 0.787956 0.726361 0.085551 -0.033987 -146419.000000 0 0 1
-21.385823 -20.800897 31.380106 43.298288 0.771534 0.760136 0.078348 -0.027563 389012.000000 0 0 1
-22.300523 -21.487297 32.218106 44.688069 0.766828 0.765616 0.066981 -0.019805 692121.000000 0 0 1
-23.548423 -21.853797 31.588806 45.055180 0.748091 0.793838 0.069437 -0.008447 903559.000000 0 0 1
-23.493823 -23.099397 30.595406 44.962436 0.776933 0.822398 0.074053 -0.008220 -401135.000000 0 0 1
-23.402823 -24.301597 31.313106 46.030102 0.804236 0.822659 0.074234 -0.002827 21615.600000 0 0 1
-23.210223 -25.387327 30.451606 45.940517 0.830167 0.846180 0.086752 0.007246 29628.600000 0 0 1
-22.641523 -26.570157 31.253006 46.854692 0.865061 0.840595 0.109214 -0.009456 609666.000000 0 0 1
-23.561223 -27.008947 32.321706 48.262895 0.853470 0.836990 0.101582 -0.005040 621399.000000 0 0 1
-23.087823 -28.089567 33.071106 49.150476 0.882822 0.832736 0.108750 -0.020554 -89676.800000 0 0 1
-24.175223 -28.822117 -33.392371 50.301155 0.872856 2.296750 0.097902 -0.020886 893021.000000 0 0 1
-25.152423 -29.603247 33.214506 51.109685 0.866505 0.863387 0.073654 -0.019546 1616340.000000 0 0 1
-26.316263 -28.853757 32.749806 50.966996 0.831360 0.872950 0.055680 -0.013386 682257.000000 0 0 1
-27.467823 -28.665457 -33.592171 52.005996 0.806730 2.273036 0.040975 -0.008595 -966272.000000 0 0 1
-28.392763 -27.812337 33.219806 51.799908 0.775072 0.874592 0.035382 -0.002169 -491590.000000 0 0 1
-29.409633 -27.422297 -33.230071 52.164609 0.750444 2.261427 0.044267 -0.001056 -69343.900000 0 0 1
-30.528063 -26.564507 33.524106 52.549988 0.716086 0.878967 0.032605 -0.000849 -620333.000000 0 0 1
-31.431703 -27.300727 32.787906 52.993663 0.715178 0.903692 0.018239 -0.003694 -744856.000000 0 0 1
-32.401933 -26.463077 32.213606 52.800531 0.684849 0.914609 0.034886 -0.004360 -240001.000000 0 0 1
